c E1(2,2) U1(2) U4(2) E3(2,2) E2(2,2) U3(2) U2(2) U1(3) U2(3) E3(2,3) U4(3) E1(2,3) U3(3) E3(3,2) E2(2,3) E2(3,2) E1(3,2) U3(0) E1(2,0) U2(0) E1(0,2) E2(2,0) U4(0) E3(0,2) E2(0,2) E3(2,0) U1(0) E3(9,2) E3(2,9) E1(9,2) U1(9) E1(2,9) U3(9) E2(9,2) U2(9) E2(2,9) U4(9) E2(2,4) E1(4,2) E3(2,4) U1(4) E3(4,2) U3(4) E1(2,4) U4(4) U2(4) E2(4,2) E1(5,2) U4(5) U2(5) E2(5,2) U3(5) E3(5,2) E1(2,5) E3(2,5) E2(2,5) U1(5) E1(2,7) U2(7) E1(7,2) E2(2,7) U4(7) U1(7) E2(7,2) E3(2,7) E3(7,2) U3(7) U4(8) U1(8) E1(8,2) E3(2,8) E2(8,2) E3(8,2) E1(2,8) U3(8) U2(8) E2(2,8) U2(6) E2(2,6) U4(6) E3(2,6) E3(6,2) U1(6) E1(6,2) E1(2,6) U3(6) E2(6,2) E3(2,1) E3(1,2) U3(1) E1(1,2) E2(2,1) E1(2,1) E2(1,2) U1(1) U2(1) U4(1) E2(3,3) E3(3,3) E1(3,3) E3(0,3) E1(3,0) E1(0,3) E3(3,0) E2(3,0) E2(0,3) E1(3,9) E2(3,9) E1(9,3) E2(9,3) E3(9,3) E3(3,9) E1(4,3) E1(3,4) E2(3,4) E3(3,4) E2(4,3) E3(4,3) E3(3,5) E2(3,5) E2(5,3) E3(5,3) E1(5,3) E1(3,5) E2(7,3) E3(3,7) E1(3,7) E2(3,7) E3(7,3) E1(7,3) E2(3,8) E1(8,3) E2(8,3) E3(8,3) E3(3,8) E1(3,8) E3(6,3) E2(3,6) E1(3,6) E2(6,3) E3(3,6) E1(6,3) E2(1,3) E3(1,3) E3(3,1) E1(1,3) E1(3,1) E2(3,1) E2(0,0) E3(0,0) E1(0,0) E3(9,0) E2(9,0) E1(0,9) E2(0,9) E1(9,0) E3(0,9) E1(0,4) E2(4,0) E3(4,0) E1(4,0) E2(0,4) E3(0,4) E1(5,0) E1(0,5) E2(0,5) E2(5,0) E3(0,5) E3(5,0) E3(7,0) E1(7,0) E2(0,7) E1(0,7) E2(7,0) E3(0,7) E3(8,0) E2(0,8) E1(8,0) E2(8,0) E3(0,8) E1(0,8) E3(0,6) E2(0,6) E2(6,0) E3(6,0) E1(0,6) E1(6,0) E1(1,0) E1(0,1) E3(1,0) E2(1,0) E3(0,1) E2(0,1) E1(9,9) E3(9,9) E2(9,9) E2(9,4) E1(4,9) E3(4,9) E1(9,4) E3(9,4) E2(4,9) E2(9,5) E1(9,5) E3(5,9) E1(5,9) E3(9,5) E2(5,9) E2(7,9) E1(7,9) E3(9,7) E1(9,7) E2(9,7) E3(7,9) E1(9,8) E3(8,9) E3(9,8) E2(8,9) E1(8,9) E2(9,8) E3(9,6) E2(6,9) E1(6,9) E1(9,6) E3(6,9) E2(9,6) E3(1,9) E2(1,9) E1(9,1) E2(9,1) E1(1,9) E3(9,1) E1(4,4) E3(4,4) E2(4,4) E1(5,4) E1(4,5) E2(5,4) E3(5,4) E2(4,5) E3(4,5) E1(4,7) E3(4,7) E2(4,7) E2(7,4) E3(7,4) E1(7,4) E2(8,4) E3(8,4) E2(4,8) E1(8,4) E1(4,8) E3(4,8) E3(6,4) E1(4,6) E2(4,6) E3(4,6) E1(6,4) E2(6,4) E2(4,1) E1(1,4) E3(1,4) E2(1,4) E3(4,1) E1(4,1) E3(5,5) E1(5,5) E2(5,5) E1(7,5) E1(5,7) E2(5,7) E2(7,5) E3(5,7) E3(7,5) E3(8,5) E3(5,8) E1(5,8) E1(8,5) E2(8,5) E2(5,8) E2(5,6) E1(6,5) E2(6,5) E1(5,6) E3(6,5) E3(5,6) E2(1,5) E3(1,5) E2(5,1) E1(5,1) E3(5,1) E1(1,5) E1(7,7) E3(7,7) E2(7,7) E1(8,7) E2(7,8) E2(8,7) E3(7,8) E1(7,8) E3(8,7) E3(7,6) E2(6,7) E3(6,7) E1(7,6) E2(7,6) E1(6,7) E2(1,7) E3(1,7) E1(7,1) E3(7,1) E2(7,1) E1(1,7) E2(8,8) E1(8,8) E3(8,8) E1(6,8) E2(6,8) E1(8,6) E3(6,8) E3(8,6) E2(8,6) E2(8,1) E3(8,1) E1(8,1) E1(1,8) E3(1,8) E2(1,8) E2(6,6) E3(6,6) E1(6,6) E2(1,6) E3(6,1) E1(6,1) E2(6,1) E3(1,6) E1(1,6) E2(1,1) E1(1,1) E3(1,1)
c 1 2 3 4 5 6 7 8 9 10 11 12 13 14 15 16 17 18 19 20 21 22 23 24 25 26 27 28 29 30 31 32 33 34 35 36 37 38 39 40 41 42 43 44 45 46 47 48 49 50 51 52 53 54 55 56 57 58 59 60 61 62 63 64 65 66 67 68 69 70 71 72 73 74 75 76 77 78 79 80 81 82 83 84 85 86 87 88 89 90 91 92 93 94 95 96 97 98 99 100 101 102 103 104 105 106 107 108 109 110 111 112 113 114 115 116 117 118 119 120 121 122 123 124 125 126 127 128 129 130 131 132 133 134 135 136 137 138 139 140 141 142 143 144 145 146 147 148 149 150 151 152 153 154 155 156 157 158 159 160 161 162 163 164 165 166 167 168 169 170 171 172 173 174 175 176 177 178 179 180 181 182 183 184 185 186 187 188 189 190 191 192 193 194 195 196 197 198 199 200 201 202 203 204 205 206 207 208 209 210 211 212 213 214 215 216 217 218 219 220 221 222 223 224 225 226 227 228 229 230 231 232 233 234 235 236 237 238 239 240 241 242 243 244 245 246 247 248 249 250 251 252 253 254 255 256 257 258 259 260 261 262 263 264 265 266 267 268 269 270 271 272 273 274 275 276 277 278 279 280 281 282 283 284 285 286 287 288 289 290 291 292 293 294 295 296 297 298 299 300 301 302 303 304 305 306 307 308 309 310 311 312 313 314 315 316 317 318 319 320 321 322 323 324 325 326 327 328 329 330 331 332 333 334 335 336 337 338 339 340
p cnf 340 10300
151 -151 0
189 -188 0
21 -19 0
103 -102 0
158 -161 0
165 -164 0
186 -187 0
173 -171 0
181 -178 0
154 -156 0
188 -189 0
339 -339 0
91 -93 0
146 -147 0
261 -265 0
292 -290 0
337 -334 0
313 -310 0
326 -325 0
231 -229 0
19 -21 0
93 -91 0
1 -1 0
12 -17 0
44 -39 0
54 -48 0
85 -84 0
58 -60 0
74 -70 0
32 -30 0
102 -103 0
147 -146 0
17 -12 0
100 -100 0
114 -113 0
124 -123 0
139 -142 0
127 -130 0
136 -132 0
107 -109 0
161 -158 0
265 -261 0
39 -44 0
113 -114 0
233 -233 0
237 -236 0
255 -258 0
242 -247 0
252 -251 0
198 -200 0
164 -165 0
290 -292 0
48 -54 0
123 -124 0
236 -237 0
267 -267 0
284 -282 0
270 -269 0
277 -278 0
206 -204 0
187 -186 0
334 -337 0
84 -85 0
142 -139 0
258 -255 0
282 -284 0
331 -331 0
307 -305 0
317 -319 0
223 -224 0
171 -173 0
310 -313 0
60 -58 0
130 -127 0
247 -242 0
269 -270 0
305 -307 0
293 -293 0
300 -296 0
210 -212 0
178 -181 0
325 -326 0
70 -74 0
132 -136 0
251 -252 0
278 -277 0
319 -317 0
296 -300 0
315 -315 0
219 -215 0
156 -154 0
229 -231 0
30 -32 0
109 -107 0
200 -198 0
204 -206 0
224 -223 0
212 -210 0
215 -219 0
194 -194 0
149 -149 0
193 -191 0
25 -22 0
106 -105 0
162 -159 0
166 -167 0
183 -184 0
172 -174 0
177 -179 0
155 -153 0
191 -193 0
338 -338 0
94 -92 0
143 -148 0
263 -260 0
287 -289 0
332 -335 0
308 -312 0
328 -323 0
228 -230 0
22 -25 0
92 -94 0
5 -5 0
15 -16 0
38 -47 0
56 -51 0
79 -87 0
61 -64 0
77 -72 0
36 -34 0
105 -106 0
148 -143 0
16 -15 0
98 -98 0
115 -117 0
120 -121 0
138 -140 0
128 -125 0
131 -133 0
108 -110 0
159 -162 0
260 -263 0
47 -38 0
117 -115 0
235 -235 0
240 -238 0
256 -259 0
244 -245 0
250 -248 0
202 -197 0
167 -166 0
289 -287 0
51 -56 0
121 -120 0
238 -240 0
268 -268 0
281 -283 0
271 -272 0
280 -279 0
208 -203 0
184 -183 0
335 -332 0
87 -79 0
140 -138 0
259 -256 0
283 -281 0
329 -329 0
303 -306 0
318 -322 0
222 -226 0
174 -172 0
312 -308 0
64 -61 0
125 -128 0
245 -244 0
272 -271 0
306 -303 0
295 -295 0
297 -298 0
209 -213 0
179 -177 0
323 -328 0
72 -77 0
133 -131 0
248 -250 0
279 -280 0
322 -318 0
298 -297 0
314 -314 0
218 -220 0
153 -155 0
230 -228 0
34 -36 0
110 -108 0
197 -202 0
203 -208 0
226 -222 0
213 -209 0
220 -218 0
196 -196 0
150 -150 0
192 -190 0
24 -26 0
101 -104 0
163 -160 0
168 -169 0
182 -185 0
175 -170 0
180 -176 0
157 -152 0
190 -192 0
340 -340 0
89 -88 0
144 -145 0
262 -264 0
288 -291 0
336 -333 0
309 -311 0
327 -324 0
227 -232 0
26 -24 0
88 -89 0
4 -4 0
10 -14 0
40 -42 0
55 -53 0
81 -82 0
65 -66 0
71 -73 0
29 -28 0
104 -101 0
145 -144 0
14 -10 0
99 -99 0
116 -118 0
119 -122 0
141 -137 0
126 -129 0
135 -134 0
112 -111 0
160 -163 0
264 -262 0
42 -40 0
118 -116 0
234 -234 0
241 -239 0
257 -254 0
243 -246 0
253 -249 0
199 -201 0
169 -168 0
291 -288 0
53 -55 0
122 -119 0
239 -241 0
266 -266 0
286 -285 0
273 -274 0
276 -275 0
205 -207 0
185 -182 0
333 -336 0
82 -81 0
137 -141 0
254 -257 0
285 -286 0
330 -330 0
304 -302 0
320 -321 0
225 -221 0
170 -175 0
311 -309 0
66 -65 0
129 -126 0
246 -243 0
274 -273 0
302 -304 0
294 -294 0
299 -301 0
214 -211 0
176 -180 0
324 -327 0
73 -71 0
134 -135 0
249 -253 0
275 -276 0
321 -320 0
301 -299 0
316 -316 0
216 -217 0
152 -157 0
232 -227 0
28 -29 0
111 -112 0
201 -199 0
207 -205 0
221 -225 0
211 -214 0
217 -216 0
195 -195 0
-151 -149 0
-151 -150 0
-189 -193 0
-189 -192 0
-21 -25 0
-21 -24 0
-103 -106 0
-103 -101 0
-158 -162 0
-158 -163 0
-165 -166 0
-165 -168 0
-186 -183 0
-186 -182 0
-173 -172 0
-173 -175 0
-181 -177 0
-181 -180 0
-154 -155 0
-154 -157 0
-188 -191 0
-188 -190 0
-339 -338 0
-339 -340 0
-91 -94 0
-91 -89 0
-146 -143 0
-146 -144 0
-261 -263 0
-261 -262 0
-292 -287 0
-292 -288 0
-337 -332 0
-337 -336 0
-313 -308 0
-313 -309 0
-326 -328 0
-326 -327 0
-231 -228 0
-231 -227 0
-19 -22 0
-19 -26 0
-93 -92 0
-93 -88 0
-1 -5 0
-1 -4 0
-12 -15 0
-12 -10 0
-44 -38 0
-44 -40 0
-54 -56 0
-54 -55 0
-85 -79 0
-85 -81 0
-58 -61 0
-58 -65 0
-74 -77 0
-74 -71 0
-32 -36 0
-32 -29 0
-102 -105 0
-102 -104 0
-147 -148 0
-147 -145 0
-17 -16 0
-17 -14 0
-100 -98 0
-100 -99 0
-114 -115 0
-114 -116 0
-124 -120 0
-124 -119 0
-139 -138 0
-139 -141 0
-127 -128 0
-127 -126 0
-136 -131 0
-136 -135 0
-107 -108 0
-107 -112 0
-161 -159 0
-161 -160 0
-265 -260 0
-265 -264 0
-39 -47 0
-39 -42 0
-113 -117 0
-113 -118 0
-233 -235 0
-233 -234 0
-237 -240 0
-237 -241 0
-255 -256 0
-255 -257 0
-242 -244 0
-242 -243 0
-252 -250 0
-252 -253 0
-198 -202 0
-198 -199 0
-164 -167 0
-164 -169 0
-290 -289 0
-290 -291 0
-48 -51 0
-48 -53 0
-123 -121 0
-123 -122 0
-236 -238 0
-236 -239 0
-267 -268 0
-267 -266 0
-284 -281 0
-284 -286 0
-270 -271 0
-270 -273 0
-277 -280 0
-277 -276 0
-206 -208 0
-206 -205 0
-187 -184 0
-187 -185 0
-334 -335 0
-334 -333 0
-84 -87 0
-84 -82 0
-142 -140 0
-142 -137 0
-258 -259 0
-258 -254 0
-282 -283 0
-282 -285 0
-331 -329 0
-331 -330 0
-307 -303 0
-307 -304 0
-317 -318 0
-317 -320 0
-223 -222 0
-223 -225 0
-171 -174 0
-171 -170 0
-310 -312 0
-310 -311 0
-60 -64 0
-60 -66 0
-130 -125 0
-130 -129 0
-247 -245 0
-247 -246 0
-269 -272 0
-269 -274 0
-305 -306 0
-305 -302 0
-293 -295 0
-293 -294 0
-300 -297 0
-300 -299 0
-210 -209 0
-210 -214 0
-178 -179 0
-178 -176 0
-325 -323 0
-325 -324 0
-70 -72 0
-70 -73 0
-132 -133 0
-132 -134 0
-251 -248 0
-251 -249 0
-278 -279 0
-278 -275 0
-319 -322 0
-319 -321 0
-296 -298 0
-296 -301 0
-315 -314 0
-315 -316 0
-219 -218 0
-219 -216 0
-156 -153 0
-156 -152 0
-229 -230 0
-229 -232 0
-30 -34 0
-30 -28 0
-109 -110 0
-109 -111 0
-200 -197 0
-200 -201 0
-204 -203 0
-204 -207 0
-224 -226 0
-224 -221 0
-212 -213 0
-212 -211 0
-215 -220 0
-215 -217 0
-194 -196 0
-194 -195 0
-149 -150 0
-193 -192 0
-25 -24 0
-106 -101 0
-162 -163 0
-166 -168 0
-183 -182 0
-172 -175 0
-177 -180 0
-155 -157 0
-191 -190 0
-338 -340 0
-94 -89 0
-143 -144 0
-263 -262 0
-287 -288 0
-332 -336 0
-308 -309 0
-328 -327 0
-228 -227 0
-22 -26 0
-92 -88 0
-5 -4 0
-15 -10 0
-38 -40 0
-56 -55 0
-79 -81 0
-61 -65 0
-77 -71 0
-36 -29 0
-105 -104 0
-148 -145 0
-16 -14 0
-98 -99 0
-115 -116 0
-120 -119 0
-138 -141 0
-128 -126 0
-131 -135 0
-108 -112 0
-159 -160 0
-260 -264 0
-47 -42 0
-117 -118 0
-235 -234 0
-240 -241 0
-256 -257 0
-244 -243 0
-250 -253 0
-202 -199 0
-167 -169 0
-289 -291 0
-51 -53 0
-121 -122 0
-238 -239 0
-268 -266 0
-281 -286 0
-271 -273 0
-280 -276 0
-208 -205 0
-184 -185 0
-335 -333 0
-87 -82 0
-140 -137 0
-259 -254 0
-283 -285 0
-329 -330 0
-303 -304 0
-318 -320 0
-222 -225 0
-174 -170 0
-312 -311 0
-64 -66 0
-125 -129 0
-245 -246 0
-272 -274 0
-306 -302 0
-295 -294 0
-297 -299 0
-209 -214 0
-179 -176 0
-323 -324 0
-72 -73 0
-133 -134 0
-248 -249 0
-279 -275 0
-322 -321 0
-298 -301 0
-314 -316 0
-218 -216 0
-153 -152 0
-230 -232 0
-34 -28 0
-110 -111 0
-197 -201 0
-203 -207 0
-226 -221 0
-213 -211 0
-220 -217 0
-196 -195 0
-27 -20 0
-27 -18 0
-27 -23 0
-95 -96 0
-95 -90 0
-95 -97 0
-2 -7 0
-2 -6 0
-2 -3 0
-8 -9 0
-8 -13 0
-8 -11 0
-41 -46 0
-41 -43 0
-41 -45 0
-57 -50 0
-57 -52 0
-57 -49 0
-83 -78 0
-83 -86 0
-83 -80 0
-63 -59 0
-63 -67 0
-63 -62 0
-69 -76 0
-69 -75 0
-69 -68 0
-31 -35 0
-31 -33 0
-31 -37 0
-20 -18 0
-20 -23 0
-96 -90 0
-96 -97 0
-7 -6 0
-7 -3 0
-9 -13 0
-9 -11 0
-46 -43 0
-46 -45 0
-50 -52 0
-50 -49 0
-78 -86 0
-78 -80 0
-59 -67 0
-59 -62 0
-76 -75 0
-76 -68 0
-35 -33 0
-35 -37 0
-18 -23 0
-90 -97 0
-6 -3 0
-13 -11 0
-43 -45 0
-52 -49 0
-86 -80 0
-67 -62 0
-75 -68 0
-33 -37 0
27 20 18 23 0
95 96 90 97 0
2 7 6 3 0
8 9 13 11 0
41 46 43 45 0
57 50 52 49 0
83 78 86 80 0
63 59 67 62 0
69 76 75 68 0
31 35 33 37 0
27 20 18 -151 0
27 20 18 -149 0
27 20 18 -150 0
27 20 23 -151 0
27 20 23 -149 0
27 20 23 -150 0
27 18 23 -151 0
27 18 23 -149 0
27 18 23 -150 0
95 96 90 -339 0
95 96 90 -338 0
95 96 90 -340 0
95 96 97 -339 0
95 96 97 -338 0
95 96 97 -340 0
95 90 97 -339 0
95 90 97 -338 0
95 90 97 -340 0
2 7 6 -1 0
2 7 6 -5 0
2 7 6 -4 0
2 7 3 -1 0
2 7 3 -5 0
2 7 3 -4 0
2 6 3 -1 0
2 6 3 -5 0
2 6 3 -4 0
8 9 13 -100 0
8 9 13 -98 0
8 9 13 -99 0
8 9 11 -100 0
8 9 11 -98 0
8 9 11 -99 0
8 13 11 -100 0
8 13 11 -98 0
8 13 11 -99 0
41 46 43 -233 0
41 46 43 -235 0
41 46 43 -234 0
41 46 45 -233 0
41 46 45 -235 0
41 46 45 -234 0
41 43 45 -233 0
41 43 45 -235 0
41 43 45 -234 0
57 50 52 -267 0
57 50 52 -268 0
57 50 52 -266 0
57 50 49 -267 0
57 50 49 -268 0
57 50 49 -266 0
57 52 49 -267 0
57 52 49 -268 0
57 52 49 -266 0
83 78 86 -331 0
83 78 86 -329 0
83 78 86 -330 0
83 78 80 -331 0
83 78 80 -329 0
83 78 80 -330 0
83 86 80 -331 0
83 86 80 -329 0
83 86 80 -330 0
63 59 67 -293 0
63 59 67 -295 0
63 59 67 -294 0
63 59 62 -293 0
63 59 62 -295 0
63 59 62 -294 0
63 67 62 -293 0
63 67 62 -295 0
63 67 62 -294 0
69 76 75 -315 0
69 76 75 -314 0
69 76 75 -316 0
69 76 68 -315 0
69 76 68 -314 0
69 76 68 -316 0
69 75 68 -315 0
69 75 68 -314 0
69 75 68 -316 0
31 35 33 -194 0
31 35 33 -196 0
31 35 33 -195 0
31 35 37 -194 0
31 35 37 -196 0
31 35 37 -195 0
31 33 37 -194 0
31 33 37 -196 0
31 33 37 -195 0
20 18 23 -151 0
20 18 23 -149 0
20 18 23 -150 0
96 90 97 -339 0
96 90 97 -338 0
96 90 97 -340 0
7 6 3 -1 0
7 6 3 -5 0
7 6 3 -4 0
9 13 11 -100 0
9 13 11 -98 0
9 13 11 -99 0
46 43 45 -233 0
46 43 45 -235 0
46 43 45 -234 0
50 52 49 -267 0
50 52 49 -268 0
50 52 49 -266 0
78 86 80 -331 0
78 86 80 -329 0
78 86 80 -330 0
59 67 62 -293 0
59 67 62 -295 0
59 67 62 -294 0
76 75 68 -315 0
76 75 68 -314 0
76 75 68 -316 0
35 33 37 -194 0
35 33 37 -196 0
35 33 37 -195 0
27 20 18 23 -151 0
27 20 18 23 -189 0
27 20 18 23 -21 0
27 20 18 23 -103 0
27 20 18 23 -158 0
27 20 18 23 -165 0
27 20 18 23 -186 0
27 20 18 23 -173 0
27 20 18 23 -181 0
27 20 18 23 -154 0
27 20 18 23 -188 0
27 20 18 23 -19 0
27 20 18 23 -102 0
27 20 18 23 -161 0
27 20 18 23 -164 0
27 20 18 23 -187 0
27 20 18 23 -171 0
27 20 18 23 -178 0
27 20 18 23 -156 0
27 20 18 23 -149 0
27 20 18 23 -193 0
27 20 18 23 -25 0
27 20 18 23 -106 0
27 20 18 23 -162 0
27 20 18 23 -166 0
27 20 18 23 -183 0
27 20 18 23 -172 0
27 20 18 23 -177 0
27 20 18 23 -155 0
27 20 18 23 -191 0
27 20 18 23 -22 0
27 20 18 23 -105 0
27 20 18 23 -159 0
27 20 18 23 -167 0
27 20 18 23 -184 0
27 20 18 23 -174 0
27 20 18 23 -179 0
27 20 18 23 -153 0
27 20 18 23 -150 0
27 20 18 23 -192 0
27 20 18 23 -24 0
27 20 18 23 -101 0
27 20 18 23 -163 0
27 20 18 23 -168 0
27 20 18 23 -182 0
27 20 18 23 -175 0
27 20 18 23 -180 0
27 20 18 23 -157 0
27 20 18 23 -190 0
27 20 18 23 -26 0
27 20 18 23 -104 0
27 20 18 23 -160 0
27 20 18 23 -169 0
27 20 18 23 -185 0
27 20 18 23 -170 0
27 20 18 23 -176 0
27 20 18 23 -152 0
95 96 90 97 -189 0
95 96 90 97 -188 0
95 96 90 97 -339 0
95 96 90 97 -91 0
95 96 90 97 -146 0
95 96 90 97 -261 0
95 96 90 97 -292 0
95 96 90 97 -337 0
95 96 90 97 -313 0
95 96 90 97 -326 0
95 96 90 97 -231 0
95 96 90 97 -93 0
95 96 90 97 -147 0
95 96 90 97 -265 0
95 96 90 97 -290 0
95 96 90 97 -334 0
95 96 90 97 -310 0
95 96 90 97 -325 0
95 96 90 97 -229 0
95 96 90 97 -193 0
95 96 90 97 -191 0
95 96 90 97 -338 0
95 96 90 97 -94 0
95 96 90 97 -143 0
95 96 90 97 -263 0
95 96 90 97 -287 0
95 96 90 97 -332 0
95 96 90 97 -308 0
95 96 90 97 -328 0
95 96 90 97 -228 0
95 96 90 97 -92 0
95 96 90 97 -148 0
95 96 90 97 -260 0
95 96 90 97 -289 0
95 96 90 97 -335 0
95 96 90 97 -312 0
95 96 90 97 -323 0
95 96 90 97 -230 0
95 96 90 97 -192 0
95 96 90 97 -190 0
95 96 90 97 -340 0
95 96 90 97 -89 0
95 96 90 97 -144 0
95 96 90 97 -262 0
95 96 90 97 -288 0
95 96 90 97 -336 0
95 96 90 97 -309 0
95 96 90 97 -327 0
95 96 90 97 -227 0
95 96 90 97 -88 0
95 96 90 97 -145 0
95 96 90 97 -264 0
95 96 90 97 -291 0
95 96 90 97 -333 0
95 96 90 97 -311 0
95 96 90 97 -324 0
95 96 90 97 -232 0
2 7 6 3 -21 0
2 7 6 3 -91 0
2 7 6 3 -19 0
2 7 6 3 -93 0
2 7 6 3 -1 0
2 7 6 3 -12 0
2 7 6 3 -44 0
2 7 6 3 -54 0
2 7 6 3 -85 0
2 7 6 3 -58 0
2 7 6 3 -74 0
2 7 6 3 -32 0
2 7 6 3 -17 0
2 7 6 3 -39 0
2 7 6 3 -48 0
2 7 6 3 -84 0
2 7 6 3 -60 0
2 7 6 3 -70 0
2 7 6 3 -30 0
2 7 6 3 -25 0
2 7 6 3 -94 0
2 7 6 3 -22 0
2 7 6 3 -92 0
2 7 6 3 -5 0
2 7 6 3 -15 0
2 7 6 3 -38 0
2 7 6 3 -56 0
2 7 6 3 -79 0
2 7 6 3 -61 0
2 7 6 3 -77 0
2 7 6 3 -36 0
2 7 6 3 -16 0
2 7 6 3 -47 0
2 7 6 3 -51 0
2 7 6 3 -87 0
2 7 6 3 -64 0
2 7 6 3 -72 0
2 7 6 3 -34 0
2 7 6 3 -24 0
2 7 6 3 -89 0
2 7 6 3 -26 0
2 7 6 3 -88 0
2 7 6 3 -4 0
2 7 6 3 -10 0
2 7 6 3 -40 0
2 7 6 3 -55 0
2 7 6 3 -81 0
2 7 6 3 -65 0
2 7 6 3 -71 0
2 7 6 3 -29 0
2 7 6 3 -14 0
2 7 6 3 -42 0
2 7 6 3 -53 0
2 7 6 3 -82 0
2 7 6 3 -66 0
2 7 6 3 -73 0
2 7 6 3 -28 0
8 9 13 11 -103 0
8 9 13 11 -146 0
8 9 13 11 -12 0
8 9 13 11 -102 0
8 9 13 11 -147 0
8 9 13 11 -17 0
8 9 13 11 -100 0
8 9 13 11 -114 0
8 9 13 11 -124 0
8 9 13 11 -139 0
8 9 13 11 -127 0
8 9 13 11 -136 0
8 9 13 11 -107 0
8 9 13 11 -113 0
8 9 13 11 -123 0
8 9 13 11 -142 0
8 9 13 11 -130 0
8 9 13 11 -132 0
8 9 13 11 -109 0
8 9 13 11 -106 0
8 9 13 11 -143 0
8 9 13 11 -15 0
8 9 13 11 -105 0
8 9 13 11 -148 0
8 9 13 11 -16 0
8 9 13 11 -98 0
8 9 13 11 -115 0
8 9 13 11 -120 0
8 9 13 11 -138 0
8 9 13 11 -128 0
8 9 13 11 -131 0
8 9 13 11 -108 0
8 9 13 11 -117 0
8 9 13 11 -121 0
8 9 13 11 -140 0
8 9 13 11 -125 0
8 9 13 11 -133 0
8 9 13 11 -110 0
8 9 13 11 -101 0
8 9 13 11 -144 0
8 9 13 11 -10 0
8 9 13 11 -104 0
8 9 13 11 -145 0
8 9 13 11 -14 0
8 9 13 11 -99 0
8 9 13 11 -116 0
8 9 13 11 -119 0
8 9 13 11 -141 0
8 9 13 11 -126 0
8 9 13 11 -135 0
8 9 13 11 -112 0
8 9 13 11 -118 0
8 9 13 11 -122 0
8 9 13 11 -137 0
8 9 13 11 -129 0
8 9 13 11 -134 0
8 9 13 11 -111 0
41 46 43 45 -158 0
41 46 43 45 -261 0
41 46 43 45 -44 0
41 46 43 45 -114 0
41 46 43 45 -161 0
41 46 43 45 -265 0
41 46 43 45 -39 0
41 46 43 45 -113 0
41 46 43 45 -233 0
41 46 43 45 -237 0
41 46 43 45 -255 0
41 46 43 45 -242 0
41 46 43 45 -252 0
41 46 43 45 -198 0
41 46 43 45 -236 0
41 46 43 45 -258 0
41 46 43 45 -247 0
41 46 43 45 -251 0
41 46 43 45 -200 0
41 46 43 45 -162 0
41 46 43 45 -263 0
41 46 43 45 -38 0
41 46 43 45 -115 0
41 46 43 45 -159 0
41 46 43 45 -260 0
41 46 43 45 -47 0
41 46 43 45 -117 0
41 46 43 45 -235 0
41 46 43 45 -240 0
41 46 43 45 -256 0
41 46 43 45 -244 0
41 46 43 45 -250 0
41 46 43 45 -202 0
41 46 43 45 -238 0
41 46 43 45 -259 0
41 46 43 45 -245 0
41 46 43 45 -248 0
41 46 43 45 -197 0
41 46 43 45 -163 0
41 46 43 45 -262 0
41 46 43 45 -40 0
41 46 43 45 -116 0
41 46 43 45 -160 0
41 46 43 45 -264 0
41 46 43 45 -42 0
41 46 43 45 -118 0
41 46 43 45 -234 0
41 46 43 45 -241 0
41 46 43 45 -257 0
41 46 43 45 -243 0
41 46 43 45 -253 0
41 46 43 45 -199 0
41 46 43 45 -239 0
41 46 43 45 -254 0
41 46 43 45 -246 0
41 46 43 45 -249 0
41 46 43 45 -201 0
57 50 52 49 -165 0
57 50 52 49 -292 0
57 50 52 49 -54 0
57 50 52 49 -124 0
57 50 52 49 -237 0
57 50 52 49 -164 0
57 50 52 49 -290 0
57 50 52 49 -48 0
57 50 52 49 -123 0
57 50 52 49 -236 0
57 50 52 49 -267 0
57 50 52 49 -284 0
57 50 52 49 -270 0
57 50 52 49 -277 0
57 50 52 49 -206 0
57 50 52 49 -282 0
57 50 52 49 -269 0
57 50 52 49 -278 0
57 50 52 49 -204 0
57 50 52 49 -166 0
57 50 52 49 -287 0
57 50 52 49 -56 0
57 50 52 49 -120 0
57 50 52 49 -240 0
57 50 52 49 -167 0
57 50 52 49 -289 0
57 50 52 49 -51 0
57 50 52 49 -121 0
57 50 52 49 -238 0
57 50 52 49 -268 0
57 50 52 49 -281 0
57 50 52 49 -271 0
57 50 52 49 -280 0
57 50 52 49 -208 0
57 50 52 49 -283 0
57 50 52 49 -272 0
57 50 52 49 -279 0
57 50 52 49 -203 0
57 50 52 49 -168 0
57 50 52 49 -288 0
57 50 52 49 -55 0
57 50 52 49 -119 0
57 50 52 49 -241 0
57 50 52 49 -169 0
57 50 52 49 -291 0
57 50 52 49 -53 0
57 50 52 49 -122 0
57 50 52 49 -239 0
57 50 52 49 -266 0
57 50 52 49 -286 0
57 50 52 49 -273 0
57 50 52 49 -276 0
57 50 52 49 -205 0
57 50 52 49 -285 0
57 50 52 49 -274 0
57 50 52 49 -275 0
57 50 52 49 -207 0
83 78 86 80 -186 0
83 78 86 80 -337 0
83 78 86 80 -85 0
83 78 86 80 -139 0
83 78 86 80 -255 0
83 78 86 80 -284 0
83 78 86 80 -187 0
83 78 86 80 -334 0
83 78 86 80 -84 0
83 78 86 80 -142 0
83 78 86 80 -258 0
83 78 86 80 -282 0
83 78 86 80 -331 0
83 78 86 80 -307 0
83 78 86 80 -317 0
83 78 86 80 -223 0
83 78 86 80 -305 0
83 78 86 80 -319 0
83 78 86 80 -224 0
83 78 86 80 -183 0
83 78 86 80 -332 0
83 78 86 80 -79 0
83 78 86 80 -138 0
83 78 86 80 -256 0
83 78 86 80 -281 0
83 78 86 80 -184 0
83 78 86 80 -335 0
83 78 86 80 -87 0
83 78 86 80 -140 0
83 78 86 80 -259 0
83 78 86 80 -283 0
83 78 86 80 -329 0
83 78 86 80 -303 0
83 78 86 80 -318 0
83 78 86 80 -222 0
83 78 86 80 -306 0
83 78 86 80 -322 0
83 78 86 80 -226 0
83 78 86 80 -182 0
83 78 86 80 -336 0
83 78 86 80 -81 0
83 78 86 80 -141 0
83 78 86 80 -257 0
83 78 86 80 -286 0
83 78 86 80 -185 0
83 78 86 80 -333 0
83 78 86 80 -82 0
83 78 86 80 -137 0
83 78 86 80 -254 0
83 78 86 80 -285 0
83 78 86 80 -330 0
83 78 86 80 -304 0
83 78 86 80 -320 0
83 78 86 80 -225 0
83 78 86 80 -302 0
83 78 86 80 -321 0
83 78 86 80 -221 0
63 59 67 62 -173 0
63 59 67 62 -313 0
63 59 67 62 -58 0
63 59 67 62 -127 0
63 59 67 62 -242 0
63 59 67 62 -270 0
63 59 67 62 -307 0
63 59 67 62 -171 0
63 59 67 62 -310 0
63 59 67 62 -60 0
63 59 67 62 -130 0
63 59 67 62 -247 0
63 59 67 62 -269 0
63 59 67 62 -305 0
63 59 67 62 -293 0
63 59 67 62 -300 0
63 59 67 62 -210 0
63 59 67 62 -296 0
63 59 67 62 -212 0
63 59 67 62 -172 0
63 59 67 62 -308 0
63 59 67 62 -61 0
63 59 67 62 -128 0
63 59 67 62 -244 0
63 59 67 62 -271 0
63 59 67 62 -303 0
63 59 67 62 -174 0
63 59 67 62 -312 0
63 59 67 62 -64 0
63 59 67 62 -125 0
63 59 67 62 -245 0
63 59 67 62 -272 0
63 59 67 62 -306 0
63 59 67 62 -295 0
63 59 67 62 -297 0
63 59 67 62 -209 0
63 59 67 62 -298 0
63 59 67 62 -213 0
63 59 67 62 -175 0
63 59 67 62 -309 0
63 59 67 62 -65 0
63 59 67 62 -126 0
63 59 67 62 -243 0
63 59 67 62 -273 0
63 59 67 62 -304 0
63 59 67 62 -170 0
63 59 67 62 -311 0
63 59 67 62 -66 0
63 59 67 62 -129 0
63 59 67 62 -246 0
63 59 67 62 -274 0
63 59 67 62 -302 0
63 59 67 62 -294 0
63 59 67 62 -299 0
63 59 67 62 -214 0
63 59 67 62 -301 0
63 59 67 62 -211 0
69 76 75 68 -181 0
69 76 75 68 -326 0
69 76 75 68 -74 0
69 76 75 68 -136 0
69 76 75 68 -252 0
69 76 75 68 -277 0
69 76 75 68 -317 0
69 76 75 68 -300 0
69 76 75 68 -178 0
69 76 75 68 -325 0
69 76 75 68 -70 0
69 76 75 68 -132 0
69 76 75 68 -251 0
69 76 75 68 -278 0
69 76 75 68 -319 0
69 76 75 68 -296 0
69 76 75 68 -315 0
69 76 75 68 -219 0
69 76 75 68 -215 0
69 76 75 68 -177 0
69 76 75 68 -328 0
69 76 75 68 -77 0
69 76 75 68 -131 0
69 76 75 68 -250 0
69 76 75 68 -280 0
69 76 75 68 -318 0
69 76 75 68 -297 0
69 76 75 68 -179 0
69 76 75 68 -323 0
69 76 75 68 -72 0
69 76 75 68 -133 0
69 76 75 68 -248 0
69 76 75 68 -279 0
69 76 75 68 -322 0
69 76 75 68 -298 0
69 76 75 68 -314 0
69 76 75 68 -218 0
69 76 75 68 -220 0
69 76 75 68 -180 0
69 76 75 68 -327 0
69 76 75 68 -71 0
69 76 75 68 -135 0
69 76 75 68 -253 0
69 76 75 68 -276 0
69 76 75 68 -320 0
69 76 75 68 -299 0
69 76 75 68 -176 0
69 76 75 68 -324 0
69 76 75 68 -73 0
69 76 75 68 -134 0
69 76 75 68 -249 0
69 76 75 68 -275 0
69 76 75 68 -321 0
69 76 75 68 -301 0
69 76 75 68 -316 0
69 76 75 68 -216 0
69 76 75 68 -217 0
31 35 33 37 -154 0
31 35 33 37 -231 0
31 35 33 37 -32 0
31 35 33 37 -107 0
31 35 33 37 -198 0
31 35 33 37 -206 0
31 35 33 37 -223 0
31 35 33 37 -210 0
31 35 33 37 -219 0
31 35 33 37 -156 0
31 35 33 37 -229 0
31 35 33 37 -30 0
31 35 33 37 -109 0
31 35 33 37 -200 0
31 35 33 37 -204 0
31 35 33 37 -224 0
31 35 33 37 -212 0
31 35 33 37 -215 0
31 35 33 37 -194 0
31 35 33 37 -155 0
31 35 33 37 -228 0
31 35 33 37 -36 0
31 35 33 37 -108 0
31 35 33 37 -202 0
31 35 33 37 -208 0
31 35 33 37 -222 0
31 35 33 37 -209 0
31 35 33 37 -218 0
31 35 33 37 -153 0
31 35 33 37 -230 0
31 35 33 37 -34 0
31 35 33 37 -110 0
31 35 33 37 -197 0
31 35 33 37 -203 0
31 35 33 37 -226 0
31 35 33 37 -213 0
31 35 33 37 -220 0
31 35 33 37 -196 0
31 35 33 37 -157 0
31 35 33 37 -227 0
31 35 33 37 -29 0
31 35 33 37 -112 0
31 35 33 37 -199 0
31 35 33 37 -205 0
31 35 33 37 -225 0
31 35 33 37 -214 0
31 35 33 37 -216 0
31 35 33 37 -152 0
31 35 33 37 -232 0
31 35 33 37 -28 0
31 35 33 37 -111 0
31 35 33 37 -201 0
31 35 33 37 -207 0
31 35 33 37 -221 0
31 35 33 37 -211 0
31 35 33 37 -217 0
31 35 33 37 -195 0
27 95 20 18 23 -189 0
27 95 20 18 23 -188 0
27 95 20 18 23 -193 0
27 95 20 18 23 -191 0
27 95 20 18 23 -192 0
27 95 20 18 23 -190 0
27 95 96 90 97 -189 0
27 95 96 90 97 -188 0
27 95 96 90 97 -193 0
27 95 96 90 97 -191 0
27 95 96 90 97 -192 0
27 95 96 90 97 -190 0
27 2 20 18 23 -21 0
27 2 20 18 23 -19 0
27 2 20 18 23 -25 0
27 2 20 18 23 -22 0
27 2 20 18 23 -24 0
27 2 20 18 23 -26 0
27 2 7 6 3 -21 0
27 2 7 6 3 -19 0
27 2 7 6 3 -25 0
27 2 7 6 3 -22 0
27 2 7 6 3 -24 0
27 2 7 6 3 -26 0
27 8 20 18 23 -103 0
27 8 20 18 23 -102 0
27 8 20 18 23 -106 0
27 8 20 18 23 -105 0
27 8 20 18 23 -101 0
27 8 20 18 23 -104 0
27 8 9 13 11 -103 0
27 8 9 13 11 -102 0
27 8 9 13 11 -106 0
27 8 9 13 11 -105 0
27 8 9 13 11 -101 0
27 8 9 13 11 -104 0
27 41 20 18 23 -158 0
27 41 20 18 23 -161 0
27 41 20 18 23 -162 0
27 41 20 18 23 -159 0
27 41 20 18 23 -163 0
27 41 20 18 23 -160 0
27 41 46 43 45 -158 0
27 41 46 43 45 -161 0
27 41 46 43 45 -162 0
27 41 46 43 45 -159 0
27 41 46 43 45 -163 0
27 41 46 43 45 -160 0
27 57 20 18 23 -165 0
27 57 20 18 23 -164 0
27 57 20 18 23 -166 0
27 57 20 18 23 -167 0
27 57 20 18 23 -168 0
27 57 20 18 23 -169 0
27 57 50 52 49 -165 0
27 57 50 52 49 -164 0
27 57 50 52 49 -166 0
27 57 50 52 49 -167 0
27 57 50 52 49 -168 0
27 57 50 52 49 -169 0
27 83 20 18 23 -186 0
27 83 20 18 23 -187 0
27 83 20 18 23 -183 0
27 83 20 18 23 -184 0
27 83 20 18 23 -182 0
27 83 20 18 23 -185 0
27 83 78 86 80 -186 0
27 83 78 86 80 -187 0
27 83 78 86 80 -183 0
27 83 78 86 80 -184 0
27 83 78 86 80 -182 0
27 83 78 86 80 -185 0
27 63 20 18 23 -173 0
27 63 20 18 23 -171 0
27 63 20 18 23 -172 0
27 63 20 18 23 -174 0
27 63 20 18 23 -175 0
27 63 20 18 23 -170 0
27 63 59 67 62 -173 0
27 63 59 67 62 -171 0
27 63 59 67 62 -172 0
27 63 59 67 62 -174 0
27 63 59 67 62 -175 0
27 63 59 67 62 -170 0
27 69 20 18 23 -181 0
27 69 20 18 23 -178 0
27 69 20 18 23 -177 0
27 69 20 18 23 -179 0
27 69 20 18 23 -180 0
27 69 20 18 23 -176 0
27 69 76 75 68 -181 0
27 69 76 75 68 -178 0
27 69 76 75 68 -177 0
27 69 76 75 68 -179 0
27 69 76 75 68 -180 0
27 69 76 75 68 -176 0
27 31 20 18 23 -154 0
27 31 20 18 23 -156 0
27 31 20 18 23 -155 0
27 31 20 18 23 -153 0
27 31 20 18 23 -157 0
27 31 20 18 23 -152 0
27 31 35 33 37 -154 0
27 31 35 33 37 -156 0
27 31 35 33 37 -155 0
27 31 35 33 37 -153 0
27 31 35 33 37 -157 0
27 31 35 33 37 -152 0
27 20 96 18 23 -189 0
27 20 96 18 23 -188 0
27 20 96 18 23 -193 0
27 20 96 18 23 -191 0
27 20 96 18 23 -192 0
27 20 96 18 23 -190 0
27 20 7 18 23 -21 0
27 20 7 18 23 -19 0
27 20 7 18 23 -25 0
27 20 7 18 23 -22 0
27 20 7 18 23 -24 0
27 20 7 18 23 -26 0
27 20 9 18 23 -103 0
27 20 9 18 23 -102 0
27 20 9 18 23 -106 0
27 20 9 18 23 -105 0
27 20 9 18 23 -101 0
27 20 9 18 23 -104 0
27 20 46 18 23 -158 0
27 20 46 18 23 -161 0
27 20 46 18 23 -162 0
27 20 46 18 23 -159 0
27 20 46 18 23 -163 0
27 20 46 18 23 -160 0
27 20 50 18 23 -165 0
27 20 50 18 23 -164 0
27 20 50 18 23 -166 0
27 20 50 18 23 -167 0
27 20 50 18 23 -168 0
27 20 50 18 23 -169 0
27 20 78 18 23 -186 0
27 20 78 18 23 -187 0
27 20 78 18 23 -183 0
27 20 78 18 23 -184 0
27 20 78 18 23 -182 0
27 20 78 18 23 -185 0
27 20 59 18 23 -173 0
27 20 59 18 23 -171 0
27 20 59 18 23 -172 0
27 20 59 18 23 -174 0
27 20 59 18 23 -175 0
27 20 59 18 23 -170 0
27 20 76 18 23 -181 0
27 20 76 18 23 -178 0
27 20 76 18 23 -177 0
27 20 76 18 23 -179 0
27 20 76 18 23 -180 0
27 20 76 18 23 -176 0
27 20 35 18 23 -154 0
27 20 35 18 23 -156 0
27 20 35 18 23 -155 0
27 20 35 18 23 -153 0
27 20 35 18 23 -157 0
27 20 35 18 23 -152 0
27 20 18 90 23 -189 0
27 20 18 90 23 -188 0
27 20 18 90 23 -193 0
27 20 18 90 23 -191 0
27 20 18 90 23 -192 0
27 20 18 90 23 -190 0
27 20 18 6 23 -21 0
27 20 18 6 23 -19 0
27 20 18 6 23 -25 0
27 20 18 6 23 -22 0
27 20 18 6 23 -24 0
27 20 18 6 23 -26 0
27 20 18 13 23 -103 0
27 20 18 13 23 -102 0
27 20 18 13 23 -106 0
27 20 18 13 23 -105 0
27 20 18 13 23 -101 0
27 20 18 13 23 -104 0
27 20 18 43 23 -158 0
27 20 18 43 23 -161 0
27 20 18 43 23 -162 0
27 20 18 43 23 -159 0
27 20 18 43 23 -163 0
27 20 18 43 23 -160 0
27 20 18 52 23 -165 0
27 20 18 52 23 -164 0
27 20 18 52 23 -166 0
27 20 18 52 23 -167 0
27 20 18 52 23 -168 0
27 20 18 52 23 -169 0
27 20 18 86 23 -186 0
27 20 18 86 23 -187 0
27 20 18 86 23 -183 0
27 20 18 86 23 -184 0
27 20 18 86 23 -182 0
27 20 18 86 23 -185 0
27 20 18 67 23 -173 0
27 20 18 67 23 -171 0
27 20 18 67 23 -172 0
27 20 18 67 23 -174 0
27 20 18 67 23 -175 0
27 20 18 67 23 -170 0
27 20 18 75 23 -181 0
27 20 18 75 23 -178 0
27 20 18 75 23 -177 0
27 20 18 75 23 -179 0
27 20 18 75 23 -180 0
27 20 18 75 23 -176 0
27 20 18 33 23 -154 0
27 20 18 33 23 -156 0
27 20 18 33 23 -155 0
27 20 18 33 23 -153 0
27 20 18 33 23 -157 0
27 20 18 33 23 -152 0
27 20 18 23 97 -189 0
27 20 18 23 97 -188 0
27 20 18 23 97 -193 0
27 20 18 23 97 -191 0
27 20 18 23 97 -192 0
27 20 18 23 97 -190 0
27 20 18 23 3 -21 0
27 20 18 23 3 -19 0
27 20 18 23 3 -25 0
27 20 18 23 3 -22 0
27 20 18 23 3 -24 0
27 20 18 23 3 -26 0
27 20 18 23 11 -103 0
27 20 18 23 11 -102 0
27 20 18 23 11 -106 0
27 20 18 23 11 -105 0
27 20 18 23 11 -101 0
27 20 18 23 11 -104 0
27 20 18 23 45 -158 0
27 20 18 23 45 -161 0
27 20 18 23 45 -162 0
27 20 18 23 45 -159 0
27 20 18 23 45 -163 0
27 20 18 23 45 -160 0
27 20 18 23 49 -165 0
27 20 18 23 49 -164 0
27 20 18 23 49 -166 0
27 20 18 23 49 -167 0
27 20 18 23 49 -168 0
27 20 18 23 49 -169 0
27 20 18 23 80 -186 0
27 20 18 23 80 -187 0
27 20 18 23 80 -183 0
27 20 18 23 80 -184 0
27 20 18 23 80 -182 0
27 20 18 23 80 -185 0
27 20 18 23 62 -173 0
27 20 18 23 62 -171 0
27 20 18 23 62 -172 0
27 20 18 23 62 -174 0
27 20 18 23 62 -175 0
27 20 18 23 62 -170 0
27 20 18 23 68 -181 0
27 20 18 23 68 -178 0
27 20 18 23 68 -177 0
27 20 18 23 68 -179 0
27 20 18 23 68 -180 0
27 20 18 23 68 -176 0
27 20 18 23 37 -154 0
27 20 18 23 37 -156 0
27 20 18 23 37 -155 0
27 20 18 23 37 -153 0
27 20 18 23 37 -157 0
27 20 18 23 37 -152 0
95 2 96 90 97 -91 0
95 2 96 90 97 -93 0
95 2 96 90 97 -94 0
95 2 96 90 97 -92 0
95 2 96 90 97 -89 0
95 2 96 90 97 -88 0
95 2 7 6 3 -91 0
95 2 7 6 3 -93 0
95 2 7 6 3 -94 0
95 2 7 6 3 -92 0
95 2 7 6 3 -89 0
95 2 7 6 3 -88 0
95 8 96 90 97 -146 0
95 8 96 90 97 -147 0
95 8 96 90 97 -143 0
95 8 96 90 97 -148 0
95 8 96 90 97 -144 0
95 8 96 90 97 -145 0
95 8 9 13 11 -146 0
95 8 9 13 11 -147 0
95 8 9 13 11 -143 0
95 8 9 13 11 -148 0
95 8 9 13 11 -144 0
95 8 9 13 11 -145 0
95 41 96 90 97 -261 0
95 41 96 90 97 -265 0
95 41 96 90 97 -263 0
95 41 96 90 97 -260 0
95 41 96 90 97 -262 0
95 41 96 90 97 -264 0
95 41 46 43 45 -261 0
95 41 46 43 45 -265 0
95 41 46 43 45 -263 0
95 41 46 43 45 -260 0
95 41 46 43 45 -262 0
95 41 46 43 45 -264 0
95 57 96 90 97 -292 0
95 57 96 90 97 -290 0
95 57 96 90 97 -287 0
95 57 96 90 97 -289 0
95 57 96 90 97 -288 0
95 57 96 90 97 -291 0
95 57 50 52 49 -292 0
95 57 50 52 49 -290 0
95 57 50 52 49 -287 0
95 57 50 52 49 -289 0
95 57 50 52 49 -288 0
95 57 50 52 49 -291 0
95 83 96 90 97 -337 0
95 83 96 90 97 -334 0
95 83 96 90 97 -332 0
95 83 96 90 97 -335 0
95 83 96 90 97 -336 0
95 83 96 90 97 -333 0
95 83 78 86 80 -337 0
95 83 78 86 80 -334 0
95 83 78 86 80 -332 0
95 83 78 86 80 -335 0
95 83 78 86 80 -336 0
95 83 78 86 80 -333 0
95 63 96 90 97 -313 0
95 63 96 90 97 -310 0
95 63 96 90 97 -308 0
95 63 96 90 97 -312 0
95 63 96 90 97 -309 0
95 63 96 90 97 -311 0
95 63 59 67 62 -313 0
95 63 59 67 62 -310 0
95 63 59 67 62 -308 0
95 63 59 67 62 -312 0
95 63 59 67 62 -309 0
95 63 59 67 62 -311 0
95 69 96 90 97 -326 0
95 69 96 90 97 -325 0
95 69 96 90 97 -328 0
95 69 96 90 97 -323 0
95 69 96 90 97 -327 0
95 69 96 90 97 -324 0
95 69 76 75 68 -326 0
95 69 76 75 68 -325 0
95 69 76 75 68 -328 0
95 69 76 75 68 -323 0
95 69 76 75 68 -327 0
95 69 76 75 68 -324 0
95 31 96 90 97 -231 0
95 31 96 90 97 -229 0
95 31 96 90 97 -228 0
95 31 96 90 97 -230 0
95 31 96 90 97 -227 0
95 31 96 90 97 -232 0
95 31 35 33 37 -231 0
95 31 35 33 37 -229 0
95 31 35 33 37 -228 0
95 31 35 33 37 -230 0
95 31 35 33 37 -227 0
95 31 35 33 37 -232 0
95 20 96 90 97 -189 0
95 20 96 90 97 -188 0
95 20 96 90 97 -193 0
95 20 96 90 97 -191 0
95 20 96 90 97 -192 0
95 20 96 90 97 -190 0
95 96 7 90 97 -91 0
95 96 7 90 97 -93 0
95 96 7 90 97 -94 0
95 96 7 90 97 -92 0
95 96 7 90 97 -89 0
95 96 7 90 97 -88 0
95 96 9 90 97 -146 0
95 96 9 90 97 -147 0
95 96 9 90 97 -143 0
95 96 9 90 97 -148 0
95 96 9 90 97 -144 0
95 96 9 90 97 -145 0
95 96 46 90 97 -261 0
95 96 46 90 97 -265 0
95 96 46 90 97 -263 0
95 96 46 90 97 -260 0
95 96 46 90 97 -262 0
95 96 46 90 97 -264 0
95 96 50 90 97 -292 0
95 96 50 90 97 -290 0
95 96 50 90 97 -287 0
95 96 50 90 97 -289 0
95 96 50 90 97 -288 0
95 96 50 90 97 -291 0
95 96 78 90 97 -337 0
95 96 78 90 97 -334 0
95 96 78 90 97 -332 0
95 96 78 90 97 -335 0
95 96 78 90 97 -336 0
95 96 78 90 97 -333 0
95 96 59 90 97 -313 0
95 96 59 90 97 -310 0
95 96 59 90 97 -308 0
95 96 59 90 97 -312 0
95 96 59 90 97 -309 0
95 96 59 90 97 -311 0
95 96 76 90 97 -326 0
95 96 76 90 97 -325 0
95 96 76 90 97 -328 0
95 96 76 90 97 -323 0
95 96 76 90 97 -327 0
95 96 76 90 97 -324 0
95 96 35 90 97 -231 0
95 96 35 90 97 -229 0
95 96 35 90 97 -228 0
95 96 35 90 97 -230 0
95 96 35 90 97 -227 0
95 96 35 90 97 -232 0
95 96 18 90 97 -189 0
95 96 18 90 97 -188 0
95 96 18 90 97 -193 0
95 96 18 90 97 -191 0
95 96 18 90 97 -192 0
95 96 18 90 97 -190 0
95 96 90 6 97 -91 0
95 96 90 6 97 -93 0
95 96 90 6 97 -94 0
95 96 90 6 97 -92 0
95 96 90 6 97 -89 0
95 96 90 6 97 -88 0
95 96 90 13 97 -146 0
95 96 90 13 97 -147 0
95 96 90 13 97 -143 0
95 96 90 13 97 -148 0
95 96 90 13 97 -144 0
95 96 90 13 97 -145 0
95 96 90 43 97 -261 0
95 96 90 43 97 -265 0
95 96 90 43 97 -263 0
95 96 90 43 97 -260 0
95 96 90 43 97 -262 0
95 96 90 43 97 -264 0
95 96 90 52 97 -292 0
95 96 90 52 97 -290 0
95 96 90 52 97 -287 0
95 96 90 52 97 -289 0
95 96 90 52 97 -288 0
95 96 90 52 97 -291 0
95 96 90 86 97 -337 0
95 96 90 86 97 -334 0
95 96 90 86 97 -332 0
95 96 90 86 97 -335 0
95 96 90 86 97 -336 0
95 96 90 86 97 -333 0
95 96 90 67 97 -313 0
95 96 90 67 97 -310 0
95 96 90 67 97 -308 0
95 96 90 67 97 -312 0
95 96 90 67 97 -309 0
95 96 90 67 97 -311 0
95 96 90 75 97 -326 0
95 96 90 75 97 -325 0
95 96 90 75 97 -328 0
95 96 90 75 97 -323 0
95 96 90 75 97 -327 0
95 96 90 75 97 -324 0
95 96 90 33 97 -231 0
95 96 90 33 97 -229 0
95 96 90 33 97 -228 0
95 96 90 33 97 -230 0
95 96 90 33 97 -227 0
95 96 90 33 97 -232 0
95 96 90 23 97 -189 0
95 96 90 23 97 -188 0
95 96 90 23 97 -193 0
95 96 90 23 97 -191 0
95 96 90 23 97 -192 0
95 96 90 23 97 -190 0
95 96 90 97 3 -91 0
95 96 90 97 3 -93 0
95 96 90 97 3 -94 0
95 96 90 97 3 -92 0
95 96 90 97 3 -89 0
95 96 90 97 3 -88 0
95 96 90 97 11 -146 0
95 96 90 97 11 -147 0
95 96 90 97 11 -143 0
95 96 90 97 11 -148 0
95 96 90 97 11 -144 0
95 96 90 97 11 -145 0
95 96 90 97 45 -261 0
95 96 90 97 45 -265 0
95 96 90 97 45 -263 0
95 96 90 97 45 -260 0
95 96 90 97 45 -262 0
95 96 90 97 45 -264 0
95 96 90 97 49 -292 0
95 96 90 97 49 -290 0
95 96 90 97 49 -287 0
95 96 90 97 49 -289 0
95 96 90 97 49 -288 0
95 96 90 97 49 -291 0
95 96 90 97 80 -337 0
95 96 90 97 80 -334 0
95 96 90 97 80 -332 0
95 96 90 97 80 -335 0
95 96 90 97 80 -336 0
95 96 90 97 80 -333 0
95 96 90 97 62 -313 0
95 96 90 97 62 -310 0
95 96 90 97 62 -308 0
95 96 90 97 62 -312 0
95 96 90 97 62 -309 0
95 96 90 97 62 -311 0
95 96 90 97 68 -326 0
95 96 90 97 68 -325 0
95 96 90 97 68 -328 0
95 96 90 97 68 -323 0
95 96 90 97 68 -327 0
95 96 90 97 68 -324 0
95 96 90 97 37 -231 0
95 96 90 97 37 -229 0
95 96 90 97 37 -228 0
95 96 90 97 37 -230 0
95 96 90 97 37 -227 0
95 96 90 97 37 -232 0
2 8 7 6 3 -12 0
2 8 7 6 3 -17 0
2 8 7 6 3 -15 0
2 8 7 6 3 -16 0
2 8 7 6 3 -10 0
2 8 7 6 3 -14 0
2 8 9 13 11 -12 0
2 8 9 13 11 -17 0
2 8 9 13 11 -15 0
2 8 9 13 11 -16 0
2 8 9 13 11 -10 0
2 8 9 13 11 -14 0
2 41 7 6 3 -44 0
2 41 7 6 3 -39 0
2 41 7 6 3 -38 0
2 41 7 6 3 -47 0
2 41 7 6 3 -40 0
2 41 7 6 3 -42 0
2 41 46 43 45 -44 0
2 41 46 43 45 -39 0
2 41 46 43 45 -38 0
2 41 46 43 45 -47 0
2 41 46 43 45 -40 0
2 41 46 43 45 -42 0
2 57 7 6 3 -54 0
2 57 7 6 3 -48 0
2 57 7 6 3 -56 0
2 57 7 6 3 -51 0
2 57 7 6 3 -55 0
2 57 7 6 3 -53 0
2 57 50 52 49 -54 0
2 57 50 52 49 -48 0
2 57 50 52 49 -56 0
2 57 50 52 49 -51 0
2 57 50 52 49 -55 0
2 57 50 52 49 -53 0
2 83 7 6 3 -85 0
2 83 7 6 3 -84 0
2 83 7 6 3 -79 0
2 83 7 6 3 -87 0
2 83 7 6 3 -81 0
2 83 7 6 3 -82 0
2 83 78 86 80 -85 0
2 83 78 86 80 -84 0
2 83 78 86 80 -79 0
2 83 78 86 80 -87 0
2 83 78 86 80 -81 0
2 83 78 86 80 -82 0
2 63 7 6 3 -58 0
2 63 7 6 3 -60 0
2 63 7 6 3 -61 0
2 63 7 6 3 -64 0
2 63 7 6 3 -65 0
2 63 7 6 3 -66 0
2 63 59 67 62 -58 0
2 63 59 67 62 -60 0
2 63 59 67 62 -61 0
2 63 59 67 62 -64 0
2 63 59 67 62 -65 0
2 63 59 67 62 -66 0
2 69 7 6 3 -74 0
2 69 7 6 3 -70 0
2 69 7 6 3 -77 0
2 69 7 6 3 -72 0
2 69 7 6 3 -71 0
2 69 7 6 3 -73 0
2 69 76 75 68 -74 0
2 69 76 75 68 -70 0
2 69 76 75 68 -77 0
2 69 76 75 68 -72 0
2 69 76 75 68 -71 0
2 69 76 75 68 -73 0
2 31 7 6 3 -32 0
2 31 7 6 3 -30 0
2 31 7 6 3 -36 0
2 31 7 6 3 -34 0
2 31 7 6 3 -29 0
2 31 7 6 3 -28 0
2 31 35 33 37 -32 0
2 31 35 33 37 -30 0
2 31 35 33 37 -36 0
2 31 35 33 37 -34 0
2 31 35 33 37 -29 0
2 31 35 33 37 -28 0
2 20 7 6 3 -21 0
2 20 7 6 3 -19 0
2 20 7 6 3 -25 0
2 20 7 6 3 -22 0
2 20 7 6 3 -24 0
2 20 7 6 3 -26 0
2 96 7 6 3 -91 0
2 96 7 6 3 -93 0
2 96 7 6 3 -94 0
2 96 7 6 3 -92 0
2 96 7 6 3 -89 0
2 96 7 6 3 -88 0
2 7 9 6 3 -12 0
2 7 9 6 3 -17 0
2 7 9 6 3 -15 0
2 7 9 6 3 -16 0
2 7 9 6 3 -10 0
2 7 9 6 3 -14 0
2 7 46 6 3 -44 0
2 7 46 6 3 -39 0
2 7 46 6 3 -38 0
2 7 46 6 3 -47 0
2 7 46 6 3 -40 0
2 7 46 6 3 -42 0
2 7 50 6 3 -54 0
2 7 50 6 3 -48 0
2 7 50 6 3 -56 0
2 7 50 6 3 -51 0
2 7 50 6 3 -55 0
2 7 50 6 3 -53 0
2 7 78 6 3 -85 0
2 7 78 6 3 -84 0
2 7 78 6 3 -79 0
2 7 78 6 3 -87 0
2 7 78 6 3 -81 0
2 7 78 6 3 -82 0
2 7 59 6 3 -58 0
2 7 59 6 3 -60 0
2 7 59 6 3 -61 0
2 7 59 6 3 -64 0
2 7 59 6 3 -65 0
2 7 59 6 3 -66 0
2 7 76 6 3 -74 0
2 7 76 6 3 -70 0
2 7 76 6 3 -77 0
2 7 76 6 3 -72 0
2 7 76 6 3 -71 0
2 7 76 6 3 -73 0
2 7 35 6 3 -32 0
2 7 35 6 3 -30 0
2 7 35 6 3 -36 0
2 7 35 6 3 -34 0
2 7 35 6 3 -29 0
2 7 35 6 3 -28 0
2 7 18 6 3 -21 0
2 7 18 6 3 -19 0
2 7 18 6 3 -25 0
2 7 18 6 3 -22 0
2 7 18 6 3 -24 0
2 7 18 6 3 -26 0
2 7 90 6 3 -91 0
2 7 90 6 3 -93 0
2 7 90 6 3 -94 0
2 7 90 6 3 -92 0
2 7 90 6 3 -89 0
2 7 90 6 3 -88 0
2 7 6 13 3 -12 0
2 7 6 13 3 -17 0
2 7 6 13 3 -15 0
2 7 6 13 3 -16 0
2 7 6 13 3 -10 0
2 7 6 13 3 -14 0
2 7 6 43 3 -44 0
2 7 6 43 3 -39 0
2 7 6 43 3 -38 0
2 7 6 43 3 -47 0
2 7 6 43 3 -40 0
2 7 6 43 3 -42 0
2 7 6 52 3 -54 0
2 7 6 52 3 -48 0
2 7 6 52 3 -56 0
2 7 6 52 3 -51 0
2 7 6 52 3 -55 0
2 7 6 52 3 -53 0
2 7 6 86 3 -85 0
2 7 6 86 3 -84 0
2 7 6 86 3 -79 0
2 7 6 86 3 -87 0
2 7 6 86 3 -81 0
2 7 6 86 3 -82 0
2 7 6 67 3 -58 0
2 7 6 67 3 -60 0
2 7 6 67 3 -61 0
2 7 6 67 3 -64 0
2 7 6 67 3 -65 0
2 7 6 67 3 -66 0
2 7 6 75 3 -74 0
2 7 6 75 3 -70 0
2 7 6 75 3 -77 0
2 7 6 75 3 -72 0
2 7 6 75 3 -71 0
2 7 6 75 3 -73 0
2 7 6 33 3 -32 0
2 7 6 33 3 -30 0
2 7 6 33 3 -36 0
2 7 6 33 3 -34 0
2 7 6 33 3 -29 0
2 7 6 33 3 -28 0
2 7 6 23 3 -21 0
2 7 6 23 3 -19 0
2 7 6 23 3 -25 0
2 7 6 23 3 -22 0
2 7 6 23 3 -24 0
2 7 6 23 3 -26 0
2 7 6 97 3 -91 0
2 7 6 97 3 -93 0
2 7 6 97 3 -94 0
2 7 6 97 3 -92 0
2 7 6 97 3 -89 0
2 7 6 97 3 -88 0
2 7 6 3 11 -12 0
2 7 6 3 11 -17 0
2 7 6 3 11 -15 0
2 7 6 3 11 -16 0
2 7 6 3 11 -10 0
2 7 6 3 11 -14 0
2 7 6 3 45 -44 0
2 7 6 3 45 -39 0
2 7 6 3 45 -38 0
2 7 6 3 45 -47 0
2 7 6 3 45 -40 0
2 7 6 3 45 -42 0
2 7 6 3 49 -54 0
2 7 6 3 49 -48 0
2 7 6 3 49 -56 0
2 7 6 3 49 -51 0
2 7 6 3 49 -55 0
2 7 6 3 49 -53 0
2 7 6 3 80 -85 0
2 7 6 3 80 -84 0
2 7 6 3 80 -79 0
2 7 6 3 80 -87 0
2 7 6 3 80 -81 0
2 7 6 3 80 -82 0
2 7 6 3 62 -58 0
2 7 6 3 62 -60 0
2 7 6 3 62 -61 0
2 7 6 3 62 -64 0
2 7 6 3 62 -65 0
2 7 6 3 62 -66 0
2 7 6 3 68 -74 0
2 7 6 3 68 -70 0
2 7 6 3 68 -77 0
2 7 6 3 68 -72 0
2 7 6 3 68 -71 0
2 7 6 3 68 -73 0
2 7 6 3 37 -32 0
2 7 6 3 37 -30 0
2 7 6 3 37 -36 0
2 7 6 3 37 -34 0
2 7 6 3 37 -29 0
2 7 6 3 37 -28 0
8 41 9 13 11 -114 0
8 41 9 13 11 -113 0
8 41 9 13 11 -115 0
8 41 9 13 11 -117 0
8 41 9 13 11 -116 0
8 41 9 13 11 -118 0
8 41 46 43 45 -114 0
8 41 46 43 45 -113 0
8 41 46 43 45 -115 0
8 41 46 43 45 -117 0
8 41 46 43 45 -116 0
8 41 46 43 45 -118 0
8 57 9 13 11 -124 0
8 57 9 13 11 -123 0
8 57 9 13 11 -120 0
8 57 9 13 11 -121 0
8 57 9 13 11 -119 0
8 57 9 13 11 -122 0
8 57 50 52 49 -124 0
8 57 50 52 49 -123 0
8 57 50 52 49 -120 0
8 57 50 52 49 -121 0
8 57 50 52 49 -119 0
8 57 50 52 49 -122 0
8 83 9 13 11 -139 0
8 83 9 13 11 -142 0
8 83 9 13 11 -138 0
8 83 9 13 11 -140 0
8 83 9 13 11 -141 0
8 83 9 13 11 -137 0
8 83 78 86 80 -139 0
8 83 78 86 80 -142 0
8 83 78 86 80 -138 0
8 83 78 86 80 -140 0
8 83 78 86 80 -141 0
8 83 78 86 80 -137 0
8 63 9 13 11 -127 0
8 63 9 13 11 -130 0
8 63 9 13 11 -128 0
8 63 9 13 11 -125 0
8 63 9 13 11 -126 0
8 63 9 13 11 -129 0
8 63 59 67 62 -127 0
8 63 59 67 62 -130 0
8 63 59 67 62 -128 0
8 63 59 67 62 -125 0
8 63 59 67 62 -126 0
8 63 59 67 62 -129 0
8 69 9 13 11 -136 0
8 69 9 13 11 -132 0
8 69 9 13 11 -131 0
8 69 9 13 11 -133 0
8 69 9 13 11 -135 0
8 69 9 13 11 -134 0
8 69 76 75 68 -136 0
8 69 76 75 68 -132 0
8 69 76 75 68 -131 0
8 69 76 75 68 -133 0
8 69 76 75 68 -135 0
8 69 76 75 68 -134 0
8 31 9 13 11 -107 0
8 31 9 13 11 -109 0
8 31 9 13 11 -108 0
8 31 9 13 11 -110 0
8 31 9 13 11 -112 0
8 31 9 13 11 -111 0
8 31 35 33 37 -107 0
8 31 35 33 37 -109 0
8 31 35 33 37 -108 0
8 31 35 33 37 -110 0
8 31 35 33 37 -112 0
8 31 35 33 37 -111 0
8 20 9 13 11 -103 0
8 20 9 13 11 -102 0
8 20 9 13 11 -106 0
8 20 9 13 11 -105 0
8 20 9 13 11 -101 0
8 20 9 13 11 -104 0
8 96 9 13 11 -146 0
8 96 9 13 11 -147 0
8 96 9 13 11 -143 0
8 96 9 13 11 -148 0
8 96 9 13 11 -144 0
8 96 9 13 11 -145 0
8 7 9 13 11 -12 0
8 7 9 13 11 -17 0
8 7 9 13 11 -15 0
8 7 9 13 11 -16 0
8 7 9 13 11 -10 0
8 7 9 13 11 -14 0
8 9 46 13 11 -114 0
8 9 46 13 11 -113 0
8 9 46 13 11 -115 0
8 9 46 13 11 -117 0
8 9 46 13 11 -116 0
8 9 46 13 11 -118 0
8 9 50 13 11 -124 0
8 9 50 13 11 -123 0
8 9 50 13 11 -120 0
8 9 50 13 11 -121 0
8 9 50 13 11 -119 0
8 9 50 13 11 -122 0
8 9 78 13 11 -139 0
8 9 78 13 11 -142 0
8 9 78 13 11 -138 0
8 9 78 13 11 -140 0
8 9 78 13 11 -141 0
8 9 78 13 11 -137 0
8 9 59 13 11 -127 0
8 9 59 13 11 -130 0
8 9 59 13 11 -128 0
8 9 59 13 11 -125 0
8 9 59 13 11 -126 0
8 9 59 13 11 -129 0
8 9 76 13 11 -136 0
8 9 76 13 11 -132 0
8 9 76 13 11 -131 0
8 9 76 13 11 -133 0
8 9 76 13 11 -135 0
8 9 76 13 11 -134 0
8 9 35 13 11 -107 0
8 9 35 13 11 -109 0
8 9 35 13 11 -108 0
8 9 35 13 11 -110 0
8 9 35 13 11 -112 0
8 9 35 13 11 -111 0
8 9 18 13 11 -103 0
8 9 18 13 11 -102 0
8 9 18 13 11 -106 0
8 9 18 13 11 -105 0
8 9 18 13 11 -101 0
8 9 18 13 11 -104 0
8 9 90 13 11 -146 0
8 9 90 13 11 -147 0
8 9 90 13 11 -143 0
8 9 90 13 11 -148 0
8 9 90 13 11 -144 0
8 9 90 13 11 -145 0
8 9 6 13 11 -12 0
8 9 6 13 11 -17 0
8 9 6 13 11 -15 0
8 9 6 13 11 -16 0
8 9 6 13 11 -10 0
8 9 6 13 11 -14 0
8 9 13 43 11 -114 0
8 9 13 43 11 -113 0
8 9 13 43 11 -115 0
8 9 13 43 11 -117 0
8 9 13 43 11 -116 0
8 9 13 43 11 -118 0
8 9 13 52 11 -124 0
8 9 13 52 11 -123 0
8 9 13 52 11 -120 0
8 9 13 52 11 -121 0
8 9 13 52 11 -119 0
8 9 13 52 11 -122 0
8 9 13 86 11 -139 0
8 9 13 86 11 -142 0
8 9 13 86 11 -138 0
8 9 13 86 11 -140 0
8 9 13 86 11 -141 0
8 9 13 86 11 -137 0
8 9 13 67 11 -127 0
8 9 13 67 11 -130 0
8 9 13 67 11 -128 0
8 9 13 67 11 -125 0
8 9 13 67 11 -126 0
8 9 13 67 11 -129 0
8 9 13 75 11 -136 0
8 9 13 75 11 -132 0
8 9 13 75 11 -131 0
8 9 13 75 11 -133 0
8 9 13 75 11 -135 0
8 9 13 75 11 -134 0
8 9 13 33 11 -107 0
8 9 13 33 11 -109 0
8 9 13 33 11 -108 0
8 9 13 33 11 -110 0
8 9 13 33 11 -112 0
8 9 13 33 11 -111 0
8 9 13 23 11 -103 0
8 9 13 23 11 -102 0
8 9 13 23 11 -106 0
8 9 13 23 11 -105 0
8 9 13 23 11 -101 0
8 9 13 23 11 -104 0
8 9 13 97 11 -146 0
8 9 13 97 11 -147 0
8 9 13 97 11 -143 0
8 9 13 97 11 -148 0
8 9 13 97 11 -144 0
8 9 13 97 11 -145 0
8 9 13 3 11 -12 0
8 9 13 3 11 -17 0
8 9 13 3 11 -15 0
8 9 13 3 11 -16 0
8 9 13 3 11 -10 0
8 9 13 3 11 -14 0
8 9 13 11 45 -114 0
8 9 13 11 45 -113 0
8 9 13 11 45 -115 0
8 9 13 11 45 -117 0
8 9 13 11 45 -116 0
8 9 13 11 45 -118 0
8 9 13 11 49 -124 0
8 9 13 11 49 -123 0
8 9 13 11 49 -120 0
8 9 13 11 49 -121 0
8 9 13 11 49 -119 0
8 9 13 11 49 -122 0
8 9 13 11 80 -139 0
8 9 13 11 80 -142 0
8 9 13 11 80 -138 0
8 9 13 11 80 -140 0
8 9 13 11 80 -141 0
8 9 13 11 80 -137 0
8 9 13 11 62 -127 0
8 9 13 11 62 -130 0
8 9 13 11 62 -128 0
8 9 13 11 62 -125 0
8 9 13 11 62 -126 0
8 9 13 11 62 -129 0
8 9 13 11 68 -136 0
8 9 13 11 68 -132 0
8 9 13 11 68 -131 0
8 9 13 11 68 -133 0
8 9 13 11 68 -135 0
8 9 13 11 68 -134 0
8 9 13 11 37 -107 0
8 9 13 11 37 -109 0
8 9 13 11 37 -108 0
8 9 13 11 37 -110 0
8 9 13 11 37 -112 0
8 9 13 11 37 -111 0
41 57 46 43 45 -237 0
41 57 46 43 45 -236 0
41 57 46 43 45 -240 0
41 57 46 43 45 -238 0
41 57 46 43 45 -241 0
41 57 46 43 45 -239 0
41 57 50 52 49 -237 0
41 57 50 52 49 -236 0
41 57 50 52 49 -240 0
41 57 50 52 49 -238 0
41 57 50 52 49 -241 0
41 57 50 52 49 -239 0
41 83 46 43 45 -255 0
41 83 46 43 45 -258 0
41 83 46 43 45 -256 0
41 83 46 43 45 -259 0
41 83 46 43 45 -257 0
41 83 46 43 45 -254 0
41 83 78 86 80 -255 0
41 83 78 86 80 -258 0
41 83 78 86 80 -256 0
41 83 78 86 80 -259 0
41 83 78 86 80 -257 0
41 83 78 86 80 -254 0
41 63 46 43 45 -242 0
41 63 46 43 45 -247 0
41 63 46 43 45 -244 0
41 63 46 43 45 -245 0
41 63 46 43 45 -243 0
41 63 46 43 45 -246 0
41 63 59 67 62 -242 0
41 63 59 67 62 -247 0
41 63 59 67 62 -244 0
41 63 59 67 62 -245 0
41 63 59 67 62 -243 0
41 63 59 67 62 -246 0
41 69 46 43 45 -252 0
41 69 46 43 45 -251 0
41 69 46 43 45 -250 0
41 69 46 43 45 -248 0
41 69 46 43 45 -253 0
41 69 46 43 45 -249 0
41 69 76 75 68 -252 0
41 69 76 75 68 -251 0
41 69 76 75 68 -250 0
41 69 76 75 68 -248 0
41 69 76 75 68 -253 0
41 69 76 75 68 -249 0
41 31 46 43 45 -198 0
41 31 46 43 45 -200 0
41 31 46 43 45 -202 0
41 31 46 43 45 -197 0
41 31 46 43 45 -199 0
41 31 46 43 45 -201 0
41 31 35 33 37 -198 0
41 31 35 33 37 -200 0
41 31 35 33 37 -202 0
41 31 35 33 37 -197 0
41 31 35 33 37 -199 0
41 31 35 33 37 -201 0
41 20 46 43 45 -158 0
41 20 46 43 45 -161 0
41 20 46 43 45 -162 0
41 20 46 43 45 -159 0
41 20 46 43 45 -163 0
41 20 46 43 45 -160 0
41 96 46 43 45 -261 0
41 96 46 43 45 -265 0
41 96 46 43 45 -263 0
41 96 46 43 45 -260 0
41 96 46 43 45 -262 0
41 96 46 43 45 -264 0
41 7 46 43 45 -44 0
41 7 46 43 45 -39 0
41 7 46 43 45 -38 0
41 7 46 43 45 -47 0
41 7 46 43 45 -40 0
41 7 46 43 45 -42 0
41 9 46 43 45 -114 0
41 9 46 43 45 -113 0
41 9 46 43 45 -115 0
41 9 46 43 45 -117 0
41 9 46 43 45 -116 0
41 9 46 43 45 -118 0
41 46 50 43 45 -237 0
41 46 50 43 45 -236 0
41 46 50 43 45 -240 0
41 46 50 43 45 -238 0
41 46 50 43 45 -241 0
41 46 50 43 45 -239 0
41 46 78 43 45 -255 0
41 46 78 43 45 -258 0
41 46 78 43 45 -256 0
41 46 78 43 45 -259 0
41 46 78 43 45 -257 0
41 46 78 43 45 -254 0
41 46 59 43 45 -242 0
41 46 59 43 45 -247 0
41 46 59 43 45 -244 0
41 46 59 43 45 -245 0
41 46 59 43 45 -243 0
41 46 59 43 45 -246 0
41 46 76 43 45 -252 0
41 46 76 43 45 -251 0
41 46 76 43 45 -250 0
41 46 76 43 45 -248 0
41 46 76 43 45 -253 0
41 46 76 43 45 -249 0
41 46 35 43 45 -198 0
41 46 35 43 45 -200 0
41 46 35 43 45 -202 0
41 46 35 43 45 -197 0
41 46 35 43 45 -199 0
41 46 35 43 45 -201 0
41 46 18 43 45 -158 0
41 46 18 43 45 -161 0
41 46 18 43 45 -162 0
41 46 18 43 45 -159 0
41 46 18 43 45 -163 0
41 46 18 43 45 -160 0
41 46 90 43 45 -261 0
41 46 90 43 45 -265 0
41 46 90 43 45 -263 0
41 46 90 43 45 -260 0
41 46 90 43 45 -262 0
41 46 90 43 45 -264 0
41 46 6 43 45 -44 0
41 46 6 43 45 -39 0
41 46 6 43 45 -38 0
41 46 6 43 45 -47 0
41 46 6 43 45 -40 0
41 46 6 43 45 -42 0
41 46 13 43 45 -114 0
41 46 13 43 45 -113 0
41 46 13 43 45 -115 0
41 46 13 43 45 -117 0
41 46 13 43 45 -116 0
41 46 13 43 45 -118 0
41 46 43 52 45 -237 0
41 46 43 52 45 -236 0
41 46 43 52 45 -240 0
41 46 43 52 45 -238 0
41 46 43 52 45 -241 0
41 46 43 52 45 -239 0
41 46 43 86 45 -255 0
41 46 43 86 45 -258 0
41 46 43 86 45 -256 0
41 46 43 86 45 -259 0
41 46 43 86 45 -257 0
41 46 43 86 45 -254 0
41 46 43 67 45 -242 0
41 46 43 67 45 -247 0
41 46 43 67 45 -244 0
41 46 43 67 45 -245 0
41 46 43 67 45 -243 0
41 46 43 67 45 -246 0
41 46 43 75 45 -252 0
41 46 43 75 45 -251 0
41 46 43 75 45 -250 0
41 46 43 75 45 -248 0
41 46 43 75 45 -253 0
41 46 43 75 45 -249 0
41 46 43 33 45 -198 0
41 46 43 33 45 -200 0
41 46 43 33 45 -202 0
41 46 43 33 45 -197 0
41 46 43 33 45 -199 0
41 46 43 33 45 -201 0
41 46 43 23 45 -158 0
41 46 43 23 45 -161 0
41 46 43 23 45 -162 0
41 46 43 23 45 -159 0
41 46 43 23 45 -163 0
41 46 43 23 45 -160 0
41 46 43 97 45 -261 0
41 46 43 97 45 -265 0
41 46 43 97 45 -263 0
41 46 43 97 45 -260 0
41 46 43 97 45 -262 0
41 46 43 97 45 -264 0
41 46 43 3 45 -44 0
41 46 43 3 45 -39 0
41 46 43 3 45 -38 0
41 46 43 3 45 -47 0
41 46 43 3 45 -40 0
41 46 43 3 45 -42 0
41 46 43 11 45 -114 0
41 46 43 11 45 -113 0
41 46 43 11 45 -115 0
41 46 43 11 45 -117 0
41 46 43 11 45 -116 0
41 46 43 11 45 -118 0
41 46 43 45 49 -237 0
41 46 43 45 49 -236 0
41 46 43 45 49 -240 0
41 46 43 45 49 -238 0
41 46 43 45 49 -241 0
41 46 43 45 49 -239 0
41 46 43 45 80 -255 0
41 46 43 45 80 -258 0
41 46 43 45 80 -256 0
41 46 43 45 80 -259 0
41 46 43 45 80 -257 0
41 46 43 45 80 -254 0
41 46 43 45 62 -242 0
41 46 43 45 62 -247 0
41 46 43 45 62 -244 0
41 46 43 45 62 -245 0
41 46 43 45 62 -243 0
41 46 43 45 62 -246 0
41 46 43 45 68 -252 0
41 46 43 45 68 -251 0
41 46 43 45 68 -250 0
41 46 43 45 68 -248 0
41 46 43 45 68 -253 0
41 46 43 45 68 -249 0
41 46 43 45 37 -198 0
41 46 43 45 37 -200 0
41 46 43 45 37 -202 0
41 46 43 45 37 -197 0
41 46 43 45 37 -199 0
41 46 43 45 37 -201 0
57 83 50 52 49 -284 0
57 83 50 52 49 -282 0
57 83 50 52 49 -281 0
57 83 50 52 49 -283 0
57 83 50 52 49 -286 0
57 83 50 52 49 -285 0
57 83 78 86 80 -284 0
57 83 78 86 80 -282 0
57 83 78 86 80 -281 0
57 83 78 86 80 -283 0
57 83 78 86 80 -286 0
57 83 78 86 80 -285 0
57 63 50 52 49 -270 0
57 63 50 52 49 -269 0
57 63 50 52 49 -271 0
57 63 50 52 49 -272 0
57 63 50 52 49 -273 0
57 63 50 52 49 -274 0
57 63 59 67 62 -270 0
57 63 59 67 62 -269 0
57 63 59 67 62 -271 0
57 63 59 67 62 -272 0
57 63 59 67 62 -273 0
57 63 59 67 62 -274 0
57 69 50 52 49 -277 0
57 69 50 52 49 -278 0
57 69 50 52 49 -280 0
57 69 50 52 49 -279 0
57 69 50 52 49 -276 0
57 69 50 52 49 -275 0
57 69 76 75 68 -277 0
57 69 76 75 68 -278 0
57 69 76 75 68 -280 0
57 69 76 75 68 -279 0
57 69 76 75 68 -276 0
57 69 76 75 68 -275 0
57 31 50 52 49 -206 0
57 31 50 52 49 -204 0
57 31 50 52 49 -208 0
57 31 50 52 49 -203 0
57 31 50 52 49 -205 0
57 31 50 52 49 -207 0
57 31 35 33 37 -206 0
57 31 35 33 37 -204 0
57 31 35 33 37 -208 0
57 31 35 33 37 -203 0
57 31 35 33 37 -205 0
57 31 35 33 37 -207 0
57 20 50 52 49 -165 0
57 20 50 52 49 -164 0
57 20 50 52 49 -166 0
57 20 50 52 49 -167 0
57 20 50 52 49 -168 0
57 20 50 52 49 -169 0
57 96 50 52 49 -292 0
57 96 50 52 49 -290 0
57 96 50 52 49 -287 0
57 96 50 52 49 -289 0
57 96 50 52 49 -288 0
57 96 50 52 49 -291 0
57 7 50 52 49 -54 0
57 7 50 52 49 -48 0
57 7 50 52 49 -56 0
57 7 50 52 49 -51 0
57 7 50 52 49 -55 0
57 7 50 52 49 -53 0
57 9 50 52 49 -124 0
57 9 50 52 49 -123 0
57 9 50 52 49 -120 0
57 9 50 52 49 -121 0
57 9 50 52 49 -119 0
57 9 50 52 49 -122 0
57 46 50 52 49 -237 0
57 46 50 52 49 -236 0
57 46 50 52 49 -240 0
57 46 50 52 49 -238 0
57 46 50 52 49 -241 0
57 46 50 52 49 -239 0
57 50 78 52 49 -284 0
57 50 78 52 49 -282 0
57 50 78 52 49 -281 0
57 50 78 52 49 -283 0
57 50 78 52 49 -286 0
57 50 78 52 49 -285 0
57 50 59 52 49 -270 0
57 50 59 52 49 -269 0
57 50 59 52 49 -271 0
57 50 59 52 49 -272 0
57 50 59 52 49 -273 0
57 50 59 52 49 -274 0
57 50 76 52 49 -277 0
57 50 76 52 49 -278 0
57 50 76 52 49 -280 0
57 50 76 52 49 -279 0
57 50 76 52 49 -276 0
57 50 76 52 49 -275 0
57 50 35 52 49 -206 0
57 50 35 52 49 -204 0
57 50 35 52 49 -208 0
57 50 35 52 49 -203 0
57 50 35 52 49 -205 0
57 50 35 52 49 -207 0
57 50 18 52 49 -165 0
57 50 18 52 49 -164 0
57 50 18 52 49 -166 0
57 50 18 52 49 -167 0
57 50 18 52 49 -168 0
57 50 18 52 49 -169 0
57 50 90 52 49 -292 0
57 50 90 52 49 -290 0
57 50 90 52 49 -287 0
57 50 90 52 49 -289 0
57 50 90 52 49 -288 0
57 50 90 52 49 -291 0
57 50 6 52 49 -54 0
57 50 6 52 49 -48 0
57 50 6 52 49 -56 0
57 50 6 52 49 -51 0
57 50 6 52 49 -55 0
57 50 6 52 49 -53 0
57 50 13 52 49 -124 0
57 50 13 52 49 -123 0
57 50 13 52 49 -120 0
57 50 13 52 49 -121 0
57 50 13 52 49 -119 0
57 50 13 52 49 -122 0
57 50 43 52 49 -237 0
57 50 43 52 49 -236 0
57 50 43 52 49 -240 0
57 50 43 52 49 -238 0
57 50 43 52 49 -241 0
57 50 43 52 49 -239 0
57 50 52 86 49 -284 0
57 50 52 86 49 -282 0
57 50 52 86 49 -281 0
57 50 52 86 49 -283 0
57 50 52 86 49 -286 0
57 50 52 86 49 -285 0
57 50 52 67 49 -270 0
57 50 52 67 49 -269 0
57 50 52 67 49 -271 0
57 50 52 67 49 -272 0
57 50 52 67 49 -273 0
57 50 52 67 49 -274 0
57 50 52 75 49 -277 0
57 50 52 75 49 -278 0
57 50 52 75 49 -280 0
57 50 52 75 49 -279 0
57 50 52 75 49 -276 0
57 50 52 75 49 -275 0
57 50 52 33 49 -206 0
57 50 52 33 49 -204 0
57 50 52 33 49 -208 0
57 50 52 33 49 -203 0
57 50 52 33 49 -205 0
57 50 52 33 49 -207 0
57 50 52 23 49 -165 0
57 50 52 23 49 -164 0
57 50 52 23 49 -166 0
57 50 52 23 49 -167 0
57 50 52 23 49 -168 0
57 50 52 23 49 -169 0
57 50 52 97 49 -292 0
57 50 52 97 49 -290 0
57 50 52 97 49 -287 0
57 50 52 97 49 -289 0
57 50 52 97 49 -288 0
57 50 52 97 49 -291 0
57 50 52 3 49 -54 0
57 50 52 3 49 -48 0
57 50 52 3 49 -56 0
57 50 52 3 49 -51 0
57 50 52 3 49 -55 0
57 50 52 3 49 -53 0
57 50 52 11 49 -124 0
57 50 52 11 49 -123 0
57 50 52 11 49 -120 0
57 50 52 11 49 -121 0
57 50 52 11 49 -119 0
57 50 52 11 49 -122 0
57 50 52 45 49 -237 0
57 50 52 45 49 -236 0
57 50 52 45 49 -240 0
57 50 52 45 49 -238 0
57 50 52 45 49 -241 0
57 50 52 45 49 -239 0
57 50 52 49 80 -284 0
57 50 52 49 80 -282 0
57 50 52 49 80 -281 0
57 50 52 49 80 -283 0
57 50 52 49 80 -286 0
57 50 52 49 80 -285 0
57 50 52 49 62 -270 0
57 50 52 49 62 -269 0
57 50 52 49 62 -271 0
57 50 52 49 62 -272 0
57 50 52 49 62 -273 0
57 50 52 49 62 -274 0
57 50 52 49 68 -277 0
57 50 52 49 68 -278 0
57 50 52 49 68 -280 0
57 50 52 49 68 -279 0
57 50 52 49 68 -276 0
57 50 52 49 68 -275 0
57 50 52 49 37 -206 0
57 50 52 49 37 -204 0
57 50 52 49 37 -208 0
57 50 52 49 37 -203 0
57 50 52 49 37 -205 0
57 50 52 49 37 -207 0
83 63 78 86 80 -307 0
83 63 78 86 80 -305 0
83 63 78 86 80 -303 0
83 63 78 86 80 -306 0
83 63 78 86 80 -304 0
83 63 78 86 80 -302 0
83 63 59 67 62 -307 0
83 63 59 67 62 -305 0
83 63 59 67 62 -303 0
83 63 59 67 62 -306 0
83 63 59 67 62 -304 0
83 63 59 67 62 -302 0
83 69 78 86 80 -317 0
83 69 78 86 80 -319 0
83 69 78 86 80 -318 0
83 69 78 86 80 -322 0
83 69 78 86 80 -320 0
83 69 78 86 80 -321 0
83 69 76 75 68 -317 0
83 69 76 75 68 -319 0
83 69 76 75 68 -318 0
83 69 76 75 68 -322 0
83 69 76 75 68 -320 0
83 69 76 75 68 -321 0
83 31 78 86 80 -223 0
83 31 78 86 80 -224 0
83 31 78 86 80 -222 0
83 31 78 86 80 -226 0
83 31 78 86 80 -225 0
83 31 78 86 80 -221 0
83 31 35 33 37 -223 0
83 31 35 33 37 -224 0
83 31 35 33 37 -222 0
83 31 35 33 37 -226 0
83 31 35 33 37 -225 0
83 31 35 33 37 -221 0
83 20 78 86 80 -186 0
83 20 78 86 80 -187 0
83 20 78 86 80 -183 0
83 20 78 86 80 -184 0
83 20 78 86 80 -182 0
83 20 78 86 80 -185 0
83 96 78 86 80 -337 0
83 96 78 86 80 -334 0
83 96 78 86 80 -332 0
83 96 78 86 80 -335 0
83 96 78 86 80 -336 0
83 96 78 86 80 -333 0
83 7 78 86 80 -85 0
83 7 78 86 80 -84 0
83 7 78 86 80 -79 0
83 7 78 86 80 -87 0
83 7 78 86 80 -81 0
83 7 78 86 80 -82 0
83 9 78 86 80 -139 0
83 9 78 86 80 -142 0
83 9 78 86 80 -138 0
83 9 78 86 80 -140 0
83 9 78 86 80 -141 0
83 9 78 86 80 -137 0
83 46 78 86 80 -255 0
83 46 78 86 80 -258 0
83 46 78 86 80 -256 0
83 46 78 86 80 -259 0
83 46 78 86 80 -257 0
83 46 78 86 80 -254 0
83 50 78 86 80 -284 0
83 50 78 86 80 -282 0
83 50 78 86 80 -281 0
83 50 78 86 80 -283 0
83 50 78 86 80 -286 0
83 50 78 86 80 -285 0
83 78 59 86 80 -307 0
83 78 59 86 80 -305 0
83 78 59 86 80 -303 0
83 78 59 86 80 -306 0
83 78 59 86 80 -304 0
83 78 59 86 80 -302 0
83 78 76 86 80 -317 0
83 78 76 86 80 -319 0
83 78 76 86 80 -318 0
83 78 76 86 80 -322 0
83 78 76 86 80 -320 0
83 78 76 86 80 -321 0
83 78 35 86 80 -223 0
83 78 35 86 80 -224 0
83 78 35 86 80 -222 0
83 78 35 86 80 -226 0
83 78 35 86 80 -225 0
83 78 35 86 80 -221 0
83 78 18 86 80 -186 0
83 78 18 86 80 -187 0
83 78 18 86 80 -183 0
83 78 18 86 80 -184 0
83 78 18 86 80 -182 0
83 78 18 86 80 -185 0
83 78 90 86 80 -337 0
83 78 90 86 80 -334 0
83 78 90 86 80 -332 0
83 78 90 86 80 -335 0
83 78 90 86 80 -336 0
83 78 90 86 80 -333 0
83 78 6 86 80 -85 0
83 78 6 86 80 -84 0
83 78 6 86 80 -79 0
83 78 6 86 80 -87 0
83 78 6 86 80 -81 0
83 78 6 86 80 -82 0
83 78 13 86 80 -139 0
83 78 13 86 80 -142 0
83 78 13 86 80 -138 0
83 78 13 86 80 -140 0
83 78 13 86 80 -141 0
83 78 13 86 80 -137 0
83 78 43 86 80 -255 0
83 78 43 86 80 -258 0
83 78 43 86 80 -256 0
83 78 43 86 80 -259 0
83 78 43 86 80 -257 0
83 78 43 86 80 -254 0
83 78 52 86 80 -284 0
83 78 52 86 80 -282 0
83 78 52 86 80 -281 0
83 78 52 86 80 -283 0
83 78 52 86 80 -286 0
83 78 52 86 80 -285 0
83 78 86 67 80 -307 0
83 78 86 67 80 -305 0
83 78 86 67 80 -303 0
83 78 86 67 80 -306 0
83 78 86 67 80 -304 0
83 78 86 67 80 -302 0
83 78 86 75 80 -317 0
83 78 86 75 80 -319 0
83 78 86 75 80 -318 0
83 78 86 75 80 -322 0
83 78 86 75 80 -320 0
83 78 86 75 80 -321 0
83 78 86 33 80 -223 0
83 78 86 33 80 -224 0
83 78 86 33 80 -222 0
83 78 86 33 80 -226 0
83 78 86 33 80 -225 0
83 78 86 33 80 -221 0
83 78 86 23 80 -186 0
83 78 86 23 80 -187 0
83 78 86 23 80 -183 0
83 78 86 23 80 -184 0
83 78 86 23 80 -182 0
83 78 86 23 80 -185 0
83 78 86 97 80 -337 0
83 78 86 97 80 -334 0
83 78 86 97 80 -332 0
83 78 86 97 80 -335 0
83 78 86 97 80 -336 0
83 78 86 97 80 -333 0
83 78 86 3 80 -85 0
83 78 86 3 80 -84 0
83 78 86 3 80 -79 0
83 78 86 3 80 -87 0
83 78 86 3 80 -81 0
83 78 86 3 80 -82 0
83 78 86 11 80 -139 0
83 78 86 11 80 -142 0
83 78 86 11 80 -138 0
83 78 86 11 80 -140 0
83 78 86 11 80 -141 0
83 78 86 11 80 -137 0
83 78 86 45 80 -255 0
83 78 86 45 80 -258 0
83 78 86 45 80 -256 0
83 78 86 45 80 -259 0
83 78 86 45 80 -257 0
83 78 86 45 80 -254 0
83 78 86 49 80 -284 0
83 78 86 49 80 -282 0
83 78 86 49 80 -281 0
83 78 86 49 80 -283 0
83 78 86 49 80 -286 0
83 78 86 49 80 -285 0
83 78 86 80 62 -307 0
83 78 86 80 62 -305 0
83 78 86 80 62 -303 0
83 78 86 80 62 -306 0
83 78 86 80 62 -304 0
83 78 86 80 62 -302 0
83 78 86 80 68 -317 0
83 78 86 80 68 -319 0
83 78 86 80 68 -318 0
83 78 86 80 68 -322 0
83 78 86 80 68 -320 0
83 78 86 80 68 -321 0
83 78 86 80 37 -223 0
83 78 86 80 37 -224 0
83 78 86 80 37 -222 0
83 78 86 80 37 -226 0
83 78 86 80 37 -225 0
83 78 86 80 37 -221 0
63 69 59 67 62 -300 0
63 69 59 67 62 -296 0
63 69 59 67 62 -297 0
63 69 59 67 62 -298 0
63 69 59 67 62 -299 0
63 69 59 67 62 -301 0
63 69 76 75 68 -300 0
63 69 76 75 68 -296 0
63 69 76 75 68 -297 0
63 69 76 75 68 -298 0
63 69 76 75 68 -299 0
63 69 76 75 68 -301 0
63 31 59 67 62 -210 0
63 31 59 67 62 -212 0
63 31 59 67 62 -209 0
63 31 59 67 62 -213 0
63 31 59 67 62 -214 0
63 31 59 67 62 -211 0
63 31 35 33 37 -210 0
63 31 35 33 37 -212 0
63 31 35 33 37 -209 0
63 31 35 33 37 -213 0
63 31 35 33 37 -214 0
63 31 35 33 37 -211 0
63 20 59 67 62 -173 0
63 20 59 67 62 -171 0
63 20 59 67 62 -172 0
63 20 59 67 62 -174 0
63 20 59 67 62 -175 0
63 20 59 67 62 -170 0
63 96 59 67 62 -313 0
63 96 59 67 62 -310 0
63 96 59 67 62 -308 0
63 96 59 67 62 -312 0
63 96 59 67 62 -309 0
63 96 59 67 62 -311 0
63 7 59 67 62 -58 0
63 7 59 67 62 -60 0
63 7 59 67 62 -61 0
63 7 59 67 62 -64 0
63 7 59 67 62 -65 0
63 7 59 67 62 -66 0
63 9 59 67 62 -127 0
63 9 59 67 62 -130 0
63 9 59 67 62 -128 0
63 9 59 67 62 -125 0
63 9 59 67 62 -126 0
63 9 59 67 62 -129 0
63 46 59 67 62 -242 0
63 46 59 67 62 -247 0
63 46 59 67 62 -244 0
63 46 59 67 62 -245 0
63 46 59 67 62 -243 0
63 46 59 67 62 -246 0
63 50 59 67 62 -270 0
63 50 59 67 62 -269 0
63 50 59 67 62 -271 0
63 50 59 67 62 -272 0
63 50 59 67 62 -273 0
63 50 59 67 62 -274 0
63 78 59 67 62 -307 0
63 78 59 67 62 -305 0
63 78 59 67 62 -303 0
63 78 59 67 62 -306 0
63 78 59 67 62 -304 0
63 78 59 67 62 -302 0
63 59 76 67 62 -300 0
63 59 76 67 62 -296 0
63 59 76 67 62 -297 0
63 59 76 67 62 -298 0
63 59 76 67 62 -299 0
63 59 76 67 62 -301 0
63 59 35 67 62 -210 0
63 59 35 67 62 -212 0
63 59 35 67 62 -209 0
63 59 35 67 62 -213 0
63 59 35 67 62 -214 0
63 59 35 67 62 -211 0
63 59 18 67 62 -173 0
63 59 18 67 62 -171 0
63 59 18 67 62 -172 0
63 59 18 67 62 -174 0
63 59 18 67 62 -175 0
63 59 18 67 62 -170 0
63 59 90 67 62 -313 0
63 59 90 67 62 -310 0
63 59 90 67 62 -308 0
63 59 90 67 62 -312 0
63 59 90 67 62 -309 0
63 59 90 67 62 -311 0
63 59 6 67 62 -58 0
63 59 6 67 62 -60 0
63 59 6 67 62 -61 0
63 59 6 67 62 -64 0
63 59 6 67 62 -65 0
63 59 6 67 62 -66 0
63 59 13 67 62 -127 0
63 59 13 67 62 -130 0
63 59 13 67 62 -128 0
63 59 13 67 62 -125 0
63 59 13 67 62 -126 0
63 59 13 67 62 -129 0
63 59 43 67 62 -242 0
63 59 43 67 62 -247 0
63 59 43 67 62 -244 0
63 59 43 67 62 -245 0
63 59 43 67 62 -243 0
63 59 43 67 62 -246 0
63 59 52 67 62 -270 0
63 59 52 67 62 -269 0
63 59 52 67 62 -271 0
63 59 52 67 62 -272 0
63 59 52 67 62 -273 0
63 59 52 67 62 -274 0
63 59 86 67 62 -307 0
63 59 86 67 62 -305 0
63 59 86 67 62 -303 0
63 59 86 67 62 -306 0
63 59 86 67 62 -304 0
63 59 86 67 62 -302 0
63 59 67 75 62 -300 0
63 59 67 75 62 -296 0
63 59 67 75 62 -297 0
63 59 67 75 62 -298 0
63 59 67 75 62 -299 0
63 59 67 75 62 -301 0
63 59 67 33 62 -210 0
63 59 67 33 62 -212 0
63 59 67 33 62 -209 0
63 59 67 33 62 -213 0
63 59 67 33 62 -214 0
63 59 67 33 62 -211 0
63 59 67 23 62 -173 0
63 59 67 23 62 -171 0
63 59 67 23 62 -172 0
63 59 67 23 62 -174 0
63 59 67 23 62 -175 0
63 59 67 23 62 -170 0
63 59 67 97 62 -313 0
63 59 67 97 62 -310 0
63 59 67 97 62 -308 0
63 59 67 97 62 -312 0
63 59 67 97 62 -309 0
63 59 67 97 62 -311 0
63 59 67 3 62 -58 0
63 59 67 3 62 -60 0
63 59 67 3 62 -61 0
63 59 67 3 62 -64 0
63 59 67 3 62 -65 0
63 59 67 3 62 -66 0
63 59 67 11 62 -127 0
63 59 67 11 62 -130 0
63 59 67 11 62 -128 0
63 59 67 11 62 -125 0
63 59 67 11 62 -126 0
63 59 67 11 62 -129 0
63 59 67 45 62 -242 0
63 59 67 45 62 -247 0
63 59 67 45 62 -244 0
63 59 67 45 62 -245 0
63 59 67 45 62 -243 0
63 59 67 45 62 -246 0
63 59 67 49 62 -270 0
63 59 67 49 62 -269 0
63 59 67 49 62 -271 0
63 59 67 49 62 -272 0
63 59 67 49 62 -273 0
63 59 67 49 62 -274 0
63 59 67 80 62 -307 0
63 59 67 80 62 -305 0
63 59 67 80 62 -303 0
63 59 67 80 62 -306 0
63 59 67 80 62 -304 0
63 59 67 80 62 -302 0
63 59 67 62 68 -300 0
63 59 67 62 68 -296 0
63 59 67 62 68 -297 0
63 59 67 62 68 -298 0
63 59 67 62 68 -299 0
63 59 67 62 68 -301 0
63 59 67 62 37 -210 0
63 59 67 62 37 -212 0
63 59 67 62 37 -209 0
63 59 67 62 37 -213 0
63 59 67 62 37 -214 0
63 59 67 62 37 -211 0
69 31 76 75 68 -219 0
69 31 76 75 68 -215 0
69 31 76 75 68 -218 0
69 31 76 75 68 -220 0
69 31 76 75 68 -216 0
69 31 76 75 68 -217 0
69 31 35 33 37 -219 0
69 31 35 33 37 -215 0
69 31 35 33 37 -218 0
69 31 35 33 37 -220 0
69 31 35 33 37 -216 0
69 31 35 33 37 -217 0
69 20 76 75 68 -181 0
69 20 76 75 68 -178 0
69 20 76 75 68 -177 0
69 20 76 75 68 -179 0
69 20 76 75 68 -180 0
69 20 76 75 68 -176 0
69 96 76 75 68 -326 0
69 96 76 75 68 -325 0
69 96 76 75 68 -328 0
69 96 76 75 68 -323 0
69 96 76 75 68 -327 0
69 96 76 75 68 -324 0
69 7 76 75 68 -74 0
69 7 76 75 68 -70 0
69 7 76 75 68 -77 0
69 7 76 75 68 -72 0
69 7 76 75 68 -71 0
69 7 76 75 68 -73 0
69 9 76 75 68 -136 0
69 9 76 75 68 -132 0
69 9 76 75 68 -131 0
69 9 76 75 68 -133 0
69 9 76 75 68 -135 0
69 9 76 75 68 -134 0
69 46 76 75 68 -252 0
69 46 76 75 68 -251 0
69 46 76 75 68 -250 0
69 46 76 75 68 -248 0
69 46 76 75 68 -253 0
69 46 76 75 68 -249 0
69 50 76 75 68 -277 0
69 50 76 75 68 -278 0
69 50 76 75 68 -280 0
69 50 76 75 68 -279 0
69 50 76 75 68 -276 0
69 50 76 75 68 -275 0
69 78 76 75 68 -317 0
69 78 76 75 68 -319 0
69 78 76 75 68 -318 0
69 78 76 75 68 -322 0
69 78 76 75 68 -320 0
69 78 76 75 68 -321 0
69 59 76 75 68 -300 0
69 59 76 75 68 -296 0
69 59 76 75 68 -297 0
69 59 76 75 68 -298 0
69 59 76 75 68 -299 0
69 59 76 75 68 -301 0
69 76 35 75 68 -219 0
69 76 35 75 68 -215 0
69 76 35 75 68 -218 0
69 76 35 75 68 -220 0
69 76 35 75 68 -216 0
69 76 35 75 68 -217 0
69 76 18 75 68 -181 0
69 76 18 75 68 -178 0
69 76 18 75 68 -177 0
69 76 18 75 68 -179 0
69 76 18 75 68 -180 0
69 76 18 75 68 -176 0
69 76 90 75 68 -326 0
69 76 90 75 68 -325 0
69 76 90 75 68 -328 0
69 76 90 75 68 -323 0
69 76 90 75 68 -327 0
69 76 90 75 68 -324 0
69 76 6 75 68 -74 0
69 76 6 75 68 -70 0
69 76 6 75 68 -77 0
69 76 6 75 68 -72 0
69 76 6 75 68 -71 0
69 76 6 75 68 -73 0
69 76 13 75 68 -136 0
69 76 13 75 68 -132 0
69 76 13 75 68 -131 0
69 76 13 75 68 -133 0
69 76 13 75 68 -135 0
69 76 13 75 68 -134 0
69 76 43 75 68 -252 0
69 76 43 75 68 -251 0
69 76 43 75 68 -250 0
69 76 43 75 68 -248 0
69 76 43 75 68 -253 0
69 76 43 75 68 -249 0
69 76 52 75 68 -277 0
69 76 52 75 68 -278 0
69 76 52 75 68 -280 0
69 76 52 75 68 -279 0
69 76 52 75 68 -276 0
69 76 52 75 68 -275 0
69 76 86 75 68 -317 0
69 76 86 75 68 -319 0
69 76 86 75 68 -318 0
69 76 86 75 68 -322 0
69 76 86 75 68 -320 0
69 76 86 75 68 -321 0
69 76 67 75 68 -300 0
69 76 67 75 68 -296 0
69 76 67 75 68 -297 0
69 76 67 75 68 -298 0
69 76 67 75 68 -299 0
69 76 67 75 68 -301 0
69 76 75 33 68 -219 0
69 76 75 33 68 -215 0
69 76 75 33 68 -218 0
69 76 75 33 68 -220 0
69 76 75 33 68 -216 0
69 76 75 33 68 -217 0
69 76 75 23 68 -181 0
69 76 75 23 68 -178 0
69 76 75 23 68 -177 0
69 76 75 23 68 -179 0
69 76 75 23 68 -180 0
69 76 75 23 68 -176 0
69 76 75 97 68 -326 0
69 76 75 97 68 -325 0
69 76 75 97 68 -328 0
69 76 75 97 68 -323 0
69 76 75 97 68 -327 0
69 76 75 97 68 -324 0
69 76 75 3 68 -74 0
69 76 75 3 68 -70 0
69 76 75 3 68 -77 0
69 76 75 3 68 -72 0
69 76 75 3 68 -71 0
69 76 75 3 68 -73 0
69 76 75 11 68 -136 0
69 76 75 11 68 -132 0
69 76 75 11 68 -131 0
69 76 75 11 68 -133 0
69 76 75 11 68 -135 0
69 76 75 11 68 -134 0
69 76 75 45 68 -252 0
69 76 75 45 68 -251 0
69 76 75 45 68 -250 0
69 76 75 45 68 -248 0
69 76 75 45 68 -253 0
69 76 75 45 68 -249 0
69 76 75 49 68 -277 0
69 76 75 49 68 -278 0
69 76 75 49 68 -280 0
69 76 75 49 68 -279 0
69 76 75 49 68 -276 0
69 76 75 49 68 -275 0
69 76 75 80 68 -317 0
69 76 75 80 68 -319 0
69 76 75 80 68 -318 0
69 76 75 80 68 -322 0
69 76 75 80 68 -320 0
69 76 75 80 68 -321 0
69 76 75 62 68 -300 0
69 76 75 62 68 -296 0
69 76 75 62 68 -297 0
69 76 75 62 68 -298 0
69 76 75 62 68 -299 0
69 76 75 62 68 -301 0
69 76 75 68 37 -219 0
69 76 75 68 37 -215 0
69 76 75 68 37 -218 0
69 76 75 68 37 -220 0
69 76 75 68 37 -216 0
69 76 75 68 37 -217 0
31 20 35 33 37 -154 0
31 20 35 33 37 -156 0
31 20 35 33 37 -155 0
31 20 35 33 37 -153 0
31 20 35 33 37 -157 0
31 20 35 33 37 -152 0
31 96 35 33 37 -231 0
31 96 35 33 37 -229 0
31 96 35 33 37 -228 0
31 96 35 33 37 -230 0
31 96 35 33 37 -227 0
31 96 35 33 37 -232 0
31 7 35 33 37 -32 0
31 7 35 33 37 -30 0
31 7 35 33 37 -36 0
31 7 35 33 37 -34 0
31 7 35 33 37 -29 0
31 7 35 33 37 -28 0
31 9 35 33 37 -107 0
31 9 35 33 37 -109 0
31 9 35 33 37 -108 0
31 9 35 33 37 -110 0
31 9 35 33 37 -112 0
31 9 35 33 37 -111 0
31 46 35 33 37 -198 0
31 46 35 33 37 -200 0
31 46 35 33 37 -202 0
31 46 35 33 37 -197 0
31 46 35 33 37 -199 0
31 46 35 33 37 -201 0
31 50 35 33 37 -206 0
31 50 35 33 37 -204 0
31 50 35 33 37 -208 0
31 50 35 33 37 -203 0
31 50 35 33 37 -205 0
31 50 35 33 37 -207 0
31 78 35 33 37 -223 0
31 78 35 33 37 -224 0
31 78 35 33 37 -222 0
31 78 35 33 37 -226 0
31 78 35 33 37 -225 0
31 78 35 33 37 -221 0
31 59 35 33 37 -210 0
31 59 35 33 37 -212 0
31 59 35 33 37 -209 0
31 59 35 33 37 -213 0
31 59 35 33 37 -214 0
31 59 35 33 37 -211 0
31 76 35 33 37 -219 0
31 76 35 33 37 -215 0
31 76 35 33 37 -218 0
31 76 35 33 37 -220 0
31 76 35 33 37 -216 0
31 76 35 33 37 -217 0
31 35 18 33 37 -154 0
31 35 18 33 37 -156 0
31 35 18 33 37 -155 0
31 35 18 33 37 -153 0
31 35 18 33 37 -157 0
31 35 18 33 37 -152 0
31 35 90 33 37 -231 0
31 35 90 33 37 -229 0
31 35 90 33 37 -228 0
31 35 90 33 37 -230 0
31 35 90 33 37 -227 0
31 35 90 33 37 -232 0
31 35 6 33 37 -32 0
31 35 6 33 37 -30 0
31 35 6 33 37 -36 0
31 35 6 33 37 -34 0
31 35 6 33 37 -29 0
31 35 6 33 37 -28 0
31 35 13 33 37 -107 0
31 35 13 33 37 -109 0
31 35 13 33 37 -108 0
31 35 13 33 37 -110 0
31 35 13 33 37 -112 0
31 35 13 33 37 -111 0
31 35 43 33 37 -198 0
31 35 43 33 37 -200 0
31 35 43 33 37 -202 0
31 35 43 33 37 -197 0
31 35 43 33 37 -199 0
31 35 43 33 37 -201 0
31 35 52 33 37 -206 0
31 35 52 33 37 -204 0
31 35 52 33 37 -208 0
31 35 52 33 37 -203 0
31 35 52 33 37 -205 0
31 35 52 33 37 -207 0
31 35 86 33 37 -223 0
31 35 86 33 37 -224 0
31 35 86 33 37 -222 0
31 35 86 33 37 -226 0
31 35 86 33 37 -225 0
31 35 86 33 37 -221 0
31 35 67 33 37 -210 0
31 35 67 33 37 -212 0
31 35 67 33 37 -209 0
31 35 67 33 37 -213 0
31 35 67 33 37 -214 0
31 35 67 33 37 -211 0
31 35 75 33 37 -219 0
31 35 75 33 37 -215 0
31 35 75 33 37 -218 0
31 35 75 33 37 -220 0
31 35 75 33 37 -216 0
31 35 75 33 37 -217 0
31 35 33 23 37 -154 0
31 35 33 23 37 -156 0
31 35 33 23 37 -155 0
31 35 33 23 37 -153 0
31 35 33 23 37 -157 0
31 35 33 23 37 -152 0
31 35 33 97 37 -231 0
31 35 33 97 37 -229 0
31 35 33 97 37 -228 0
31 35 33 97 37 -230 0
31 35 33 97 37 -227 0
31 35 33 97 37 -232 0
31 35 33 3 37 -32 0
31 35 33 3 37 -30 0
31 35 33 3 37 -36 0
31 35 33 3 37 -34 0
31 35 33 3 37 -29 0
31 35 33 3 37 -28 0
31 35 33 11 37 -107 0
31 35 33 11 37 -109 0
31 35 33 11 37 -108 0
31 35 33 11 37 -110 0
31 35 33 11 37 -112 0
31 35 33 11 37 -111 0
31 35 33 45 37 -198 0
31 35 33 45 37 -200 0
31 35 33 45 37 -202 0
31 35 33 45 37 -197 0
31 35 33 45 37 -199 0
31 35 33 45 37 -201 0
31 35 33 49 37 -206 0
31 35 33 49 37 -204 0
31 35 33 49 37 -208 0
31 35 33 49 37 -203 0
31 35 33 49 37 -205 0
31 35 33 49 37 -207 0
31 35 33 80 37 -223 0
31 35 33 80 37 -224 0
31 35 33 80 37 -222 0
31 35 33 80 37 -226 0
31 35 33 80 37 -225 0
31 35 33 80 37 -221 0
31 35 33 62 37 -210 0
31 35 33 62 37 -212 0
31 35 33 62 37 -209 0
31 35 33 62 37 -213 0
31 35 33 62 37 -214 0
31 35 33 62 37 -211 0
31 35 33 68 37 -219 0
31 35 33 68 37 -215 0
31 35 33 68 37 -218 0
31 35 33 68 37 -220 0
31 35 33 68 37 -216 0
31 35 33 68 37 -217 0
27 95 20 96 18 90 -189 0
27 95 20 96 18 90 -188 0
27 95 20 96 18 90 -193 0
27 95 20 96 18 90 -191 0
27 95 20 96 18 90 -192 0
27 95 20 96 18 90 -190 0
27 95 20 96 18 23 -189 0
27 95 20 96 18 23 -188 0
27 95 20 96 18 23 -193 0
27 95 20 96 18 23 -191 0
27 95 20 96 18 23 -192 0
27 95 20 96 18 23 -190 0
27 95 20 96 90 97 -189 0
27 95 20 96 90 97 -188 0
27 95 20 96 90 97 -193 0
27 95 20 96 90 97 -191 0
27 95 20 96 90 97 -192 0
27 95 20 96 90 97 -190 0
27 95 20 96 23 97 -189 0
27 95 20 96 23 97 -188 0
27 95 20 96 23 97 -193 0
27 95 20 96 23 97 -191 0
27 95 20 96 23 97 -192 0
27 95 20 96 23 97 -190 0
27 95 20 18 90 23 -189 0
27 95 20 18 90 23 -188 0
27 95 20 18 90 23 -193 0
27 95 20 18 90 23 -191 0
27 95 20 18 90 23 -192 0
27 95 20 18 90 23 -190 0
27 95 20 18 23 97 -189 0
27 95 20 18 23 97 -188 0
27 95 20 18 23 97 -193 0
27 95 20 18 23 97 -191 0
27 95 20 18 23 97 -192 0
27 95 20 18 23 97 -190 0
27 95 96 18 90 97 -189 0
27 95 96 18 90 97 -188 0
27 95 96 18 90 97 -193 0
27 95 96 18 90 97 -191 0
27 95 96 18 90 97 -192 0
27 95 96 18 90 97 -190 0
27 95 96 90 23 97 -189 0
27 95 96 90 23 97 -188 0
27 95 96 90 23 97 -193 0
27 95 96 90 23 97 -191 0
27 95 96 90 23 97 -192 0
27 95 96 90 23 97 -190 0
27 95 18 90 23 97 -189 0
27 95 18 90 23 97 -188 0
27 95 18 90 23 97 -193 0
27 95 18 90 23 97 -191 0
27 95 18 90 23 97 -192 0
27 95 18 90 23 97 -190 0
27 2 20 7 18 6 -21 0
27 2 20 7 18 6 -19 0
27 2 20 7 18 6 -25 0
27 2 20 7 18 6 -22 0
27 2 20 7 18 6 -24 0
27 2 20 7 18 6 -26 0
27 2 20 7 18 23 -21 0
27 2 20 7 18 23 -19 0
27 2 20 7 18 23 -25 0
27 2 20 7 18 23 -22 0
27 2 20 7 18 23 -24 0
27 2 20 7 18 23 -26 0
27 2 20 7 6 3 -21 0
27 2 20 7 6 3 -19 0
27 2 20 7 6 3 -25 0
27 2 20 7 6 3 -22 0
27 2 20 7 6 3 -24 0
27 2 20 7 6 3 -26 0
27 2 20 7 23 3 -21 0
27 2 20 7 23 3 -19 0
27 2 20 7 23 3 -25 0
27 2 20 7 23 3 -22 0
27 2 20 7 23 3 -24 0
27 2 20 7 23 3 -26 0
27 2 20 18 6 23 -21 0
27 2 20 18 6 23 -19 0
27 2 20 18 6 23 -25 0
27 2 20 18 6 23 -22 0
27 2 20 18 6 23 -24 0
27 2 20 18 6 23 -26 0
27 2 20 18 23 3 -21 0
27 2 20 18 23 3 -19 0
27 2 20 18 23 3 -25 0
27 2 20 18 23 3 -22 0
27 2 20 18 23 3 -24 0
27 2 20 18 23 3 -26 0
27 2 7 18 6 3 -21 0
27 2 7 18 6 3 -19 0
27 2 7 18 6 3 -25 0
27 2 7 18 6 3 -22 0
27 2 7 18 6 3 -24 0
27 2 7 18 6 3 -26 0
27 2 7 6 23 3 -21 0
27 2 7 6 23 3 -19 0
27 2 7 6 23 3 -25 0
27 2 7 6 23 3 -22 0
27 2 7 6 23 3 -24 0
27 2 7 6 23 3 -26 0
27 2 18 6 23 3 -21 0
27 2 18 6 23 3 -19 0
27 2 18 6 23 3 -25 0
27 2 18 6 23 3 -22 0
27 2 18 6 23 3 -24 0
27 2 18 6 23 3 -26 0
27 8 20 9 18 13 -103 0
27 8 20 9 18 13 -102 0
27 8 20 9 18 13 -106 0
27 8 20 9 18 13 -105 0
27 8 20 9 18 13 -101 0
27 8 20 9 18 13 -104 0
27 8 20 9 18 23 -103 0
27 8 20 9 18 23 -102 0
27 8 20 9 18 23 -106 0
27 8 20 9 18 23 -105 0
27 8 20 9 18 23 -101 0
27 8 20 9 18 23 -104 0
27 8 20 9 13 11 -103 0
27 8 20 9 13 11 -102 0
27 8 20 9 13 11 -106 0
27 8 20 9 13 11 -105 0
27 8 20 9 13 11 -101 0
27 8 20 9 13 11 -104 0
27 8 20 9 23 11 -103 0
27 8 20 9 23 11 -102 0
27 8 20 9 23 11 -106 0
27 8 20 9 23 11 -105 0
27 8 20 9 23 11 -101 0
27 8 20 9 23 11 -104 0
27 8 20 18 13 23 -103 0
27 8 20 18 13 23 -102 0
27 8 20 18 13 23 -106 0
27 8 20 18 13 23 -105 0
27 8 20 18 13 23 -101 0
27 8 20 18 13 23 -104 0
27 8 20 18 23 11 -103 0
27 8 20 18 23 11 -102 0
27 8 20 18 23 11 -106 0
27 8 20 18 23 11 -105 0
27 8 20 18 23 11 -101 0
27 8 20 18 23 11 -104 0
27 8 9 18 13 11 -103 0
27 8 9 18 13 11 -102 0
27 8 9 18 13 11 -106 0
27 8 9 18 13 11 -105 0
27 8 9 18 13 11 -101 0
27 8 9 18 13 11 -104 0
27 8 9 13 23 11 -103 0
27 8 9 13 23 11 -102 0
27 8 9 13 23 11 -106 0
27 8 9 13 23 11 -105 0
27 8 9 13 23 11 -101 0
27 8 9 13 23 11 -104 0
27 8 18 13 23 11 -103 0
27 8 18 13 23 11 -102 0
27 8 18 13 23 11 -106 0
27 8 18 13 23 11 -105 0
27 8 18 13 23 11 -101 0
27 8 18 13 23 11 -104 0
27 41 20 46 18 43 -158 0
27 41 20 46 18 43 -161 0
27 41 20 46 18 43 -162 0
27 41 20 46 18 43 -159 0
27 41 20 46 18 43 -163 0
27 41 20 46 18 43 -160 0
27 41 20 46 18 23 -158 0
27 41 20 46 18 23 -161 0
27 41 20 46 18 23 -162 0
27 41 20 46 18 23 -159 0
27 41 20 46 18 23 -163 0
27 41 20 46 18 23 -160 0
27 41 20 46 43 45 -158 0
27 41 20 46 43 45 -161 0
27 41 20 46 43 45 -162 0
27 41 20 46 43 45 -159 0
27 41 20 46 43 45 -163 0
27 41 20 46 43 45 -160 0
27 41 20 46 23 45 -158 0
27 41 20 46 23 45 -161 0
27 41 20 46 23 45 -162 0
27 41 20 46 23 45 -159 0
27 41 20 46 23 45 -163 0
27 41 20 46 23 45 -160 0
27 41 20 18 43 23 -158 0
27 41 20 18 43 23 -161 0
27 41 20 18 43 23 -162 0
27 41 20 18 43 23 -159 0
27 41 20 18 43 23 -163 0
27 41 20 18 43 23 -160 0
27 41 20 18 23 45 -158 0
27 41 20 18 23 45 -161 0
27 41 20 18 23 45 -162 0
27 41 20 18 23 45 -159 0
27 41 20 18 23 45 -163 0
27 41 20 18 23 45 -160 0
27 41 46 18 43 45 -158 0
27 41 46 18 43 45 -161 0
27 41 46 18 43 45 -162 0
27 41 46 18 43 45 -159 0
27 41 46 18 43 45 -163 0
27 41 46 18 43 45 -160 0
27 41 46 43 23 45 -158 0
27 41 46 43 23 45 -161 0
27 41 46 43 23 45 -162 0
27 41 46 43 23 45 -159 0
27 41 46 43 23 45 -163 0
27 41 46 43 23 45 -160 0
27 41 18 43 23 45 -158 0
27 41 18 43 23 45 -161 0
27 41 18 43 23 45 -162 0
27 41 18 43 23 45 -159 0
27 41 18 43 23 45 -163 0
27 41 18 43 23 45 -160 0
27 57 20 50 18 52 -165 0
27 57 20 50 18 52 -164 0
27 57 20 50 18 52 -166 0
27 57 20 50 18 52 -167 0
27 57 20 50 18 52 -168 0
27 57 20 50 18 52 -169 0
27 57 20 50 18 23 -165 0
27 57 20 50 18 23 -164 0
27 57 20 50 18 23 -166 0
27 57 20 50 18 23 -167 0
27 57 20 50 18 23 -168 0
27 57 20 50 18 23 -169 0
27 57 20 50 52 49 -165 0
27 57 20 50 52 49 -164 0
27 57 20 50 52 49 -166 0
27 57 20 50 52 49 -167 0
27 57 20 50 52 49 -168 0
27 57 20 50 52 49 -169 0
27 57 20 50 23 49 -165 0
27 57 20 50 23 49 -164 0
27 57 20 50 23 49 -166 0
27 57 20 50 23 49 -167 0
27 57 20 50 23 49 -168 0
27 57 20 50 23 49 -169 0
27 57 20 18 52 23 -165 0
27 57 20 18 52 23 -164 0
27 57 20 18 52 23 -166 0
27 57 20 18 52 23 -167 0
27 57 20 18 52 23 -168 0
27 57 20 18 52 23 -169 0
27 57 20 18 23 49 -165 0
27 57 20 18 23 49 -164 0
27 57 20 18 23 49 -166 0
27 57 20 18 23 49 -167 0
27 57 20 18 23 49 -168 0
27 57 20 18 23 49 -169 0
27 57 50 18 52 49 -165 0
27 57 50 18 52 49 -164 0
27 57 50 18 52 49 -166 0
27 57 50 18 52 49 -167 0
27 57 50 18 52 49 -168 0
27 57 50 18 52 49 -169 0
27 57 50 52 23 49 -165 0
27 57 50 52 23 49 -164 0
27 57 50 52 23 49 -166 0
27 57 50 52 23 49 -167 0
27 57 50 52 23 49 -168 0
27 57 50 52 23 49 -169 0
27 57 18 52 23 49 -165 0
27 57 18 52 23 49 -164 0
27 57 18 52 23 49 -166 0
27 57 18 52 23 49 -167 0
27 57 18 52 23 49 -168 0
27 57 18 52 23 49 -169 0
27 83 20 78 18 86 -186 0
27 83 20 78 18 86 -187 0
27 83 20 78 18 86 -183 0
27 83 20 78 18 86 -184 0
27 83 20 78 18 86 -182 0
27 83 20 78 18 86 -185 0
27 83 20 78 18 23 -186 0
27 83 20 78 18 23 -187 0
27 83 20 78 18 23 -183 0
27 83 20 78 18 23 -184 0
27 83 20 78 18 23 -182 0
27 83 20 78 18 23 -185 0
27 83 20 78 86 80 -186 0
27 83 20 78 86 80 -187 0
27 83 20 78 86 80 -183 0
27 83 20 78 86 80 -184 0
27 83 20 78 86 80 -182 0
27 83 20 78 86 80 -185 0
27 83 20 78 23 80 -186 0
27 83 20 78 23 80 -187 0
27 83 20 78 23 80 -183 0
27 83 20 78 23 80 -184 0
27 83 20 78 23 80 -182 0
27 83 20 78 23 80 -185 0
27 83 20 18 86 23 -186 0
27 83 20 18 86 23 -187 0
27 83 20 18 86 23 -183 0
27 83 20 18 86 23 -184 0
27 83 20 18 86 23 -182 0
27 83 20 18 86 23 -185 0
27 83 20 18 23 80 -186 0
27 83 20 18 23 80 -187 0
27 83 20 18 23 80 -183 0
27 83 20 18 23 80 -184 0
27 83 20 18 23 80 -182 0
27 83 20 18 23 80 -185 0
27 83 78 18 86 80 -186 0
27 83 78 18 86 80 -187 0
27 83 78 18 86 80 -183 0
27 83 78 18 86 80 -184 0
27 83 78 18 86 80 -182 0
27 83 78 18 86 80 -185 0
27 83 78 86 23 80 -186 0
27 83 78 86 23 80 -187 0
27 83 78 86 23 80 -183 0
27 83 78 86 23 80 -184 0
27 83 78 86 23 80 -182 0
27 83 78 86 23 80 -185 0
27 83 18 86 23 80 -186 0
27 83 18 86 23 80 -187 0
27 83 18 86 23 80 -183 0
27 83 18 86 23 80 -184 0
27 83 18 86 23 80 -182 0
27 83 18 86 23 80 -185 0
27 63 20 59 18 67 -173 0
27 63 20 59 18 67 -171 0
27 63 20 59 18 67 -172 0
27 63 20 59 18 67 -174 0
27 63 20 59 18 67 -175 0
27 63 20 59 18 67 -170 0
27 63 20 59 18 23 -173 0
27 63 20 59 18 23 -171 0
27 63 20 59 18 23 -172 0
27 63 20 59 18 23 -174 0
27 63 20 59 18 23 -175 0
27 63 20 59 18 23 -170 0
27 63 20 59 67 62 -173 0
27 63 20 59 67 62 -171 0
27 63 20 59 67 62 -172 0
27 63 20 59 67 62 -174 0
27 63 20 59 67 62 -175 0
27 63 20 59 67 62 -170 0
27 63 20 59 23 62 -173 0
27 63 20 59 23 62 -171 0
27 63 20 59 23 62 -172 0
27 63 20 59 23 62 -174 0
27 63 20 59 23 62 -175 0
27 63 20 59 23 62 -170 0
27 63 20 18 67 23 -173 0
27 63 20 18 67 23 -171 0
27 63 20 18 67 23 -172 0
27 63 20 18 67 23 -174 0
27 63 20 18 67 23 -175 0
27 63 20 18 67 23 -170 0
27 63 20 18 23 62 -173 0
27 63 20 18 23 62 -171 0
27 63 20 18 23 62 -172 0
27 63 20 18 23 62 -174 0
27 63 20 18 23 62 -175 0
27 63 20 18 23 62 -170 0
27 63 59 18 67 62 -173 0
27 63 59 18 67 62 -171 0
27 63 59 18 67 62 -172 0
27 63 59 18 67 62 -174 0
27 63 59 18 67 62 -175 0
27 63 59 18 67 62 -170 0
27 63 59 67 23 62 -173 0
27 63 59 67 23 62 -171 0
27 63 59 67 23 62 -172 0
27 63 59 67 23 62 -174 0
27 63 59 67 23 62 -175 0
27 63 59 67 23 62 -170 0
27 63 18 67 23 62 -173 0
27 63 18 67 23 62 -171 0
27 63 18 67 23 62 -172 0
27 63 18 67 23 62 -174 0
27 63 18 67 23 62 -175 0
27 63 18 67 23 62 -170 0
27 69 20 76 18 75 -181 0
27 69 20 76 18 75 -178 0
27 69 20 76 18 75 -177 0
27 69 20 76 18 75 -179 0
27 69 20 76 18 75 -180 0
27 69 20 76 18 75 -176 0
27 69 20 76 18 23 -181 0
27 69 20 76 18 23 -178 0
27 69 20 76 18 23 -177 0
27 69 20 76 18 23 -179 0
27 69 20 76 18 23 -180 0
27 69 20 76 18 23 -176 0
27 69 20 76 75 68 -181 0
27 69 20 76 75 68 -178 0
27 69 20 76 75 68 -177 0
27 69 20 76 75 68 -179 0
27 69 20 76 75 68 -180 0
27 69 20 76 75 68 -176 0
27 69 20 76 23 68 -181 0
27 69 20 76 23 68 -178 0
27 69 20 76 23 68 -177 0
27 69 20 76 23 68 -179 0
27 69 20 76 23 68 -180 0
27 69 20 76 23 68 -176 0
27 69 20 18 75 23 -181 0
27 69 20 18 75 23 -178 0
27 69 20 18 75 23 -177 0
27 69 20 18 75 23 -179 0
27 69 20 18 75 23 -180 0
27 69 20 18 75 23 -176 0
27 69 20 18 23 68 -181 0
27 69 20 18 23 68 -178 0
27 69 20 18 23 68 -177 0
27 69 20 18 23 68 -179 0
27 69 20 18 23 68 -180 0
27 69 20 18 23 68 -176 0
27 69 76 18 75 68 -181 0
27 69 76 18 75 68 -178 0
27 69 76 18 75 68 -177 0
27 69 76 18 75 68 -179 0
27 69 76 18 75 68 -180 0
27 69 76 18 75 68 -176 0
27 69 76 75 23 68 -181 0
27 69 76 75 23 68 -178 0
27 69 76 75 23 68 -177 0
27 69 76 75 23 68 -179 0
27 69 76 75 23 68 -180 0
27 69 76 75 23 68 -176 0
27 69 18 75 23 68 -181 0
27 69 18 75 23 68 -178 0
27 69 18 75 23 68 -177 0
27 69 18 75 23 68 -179 0
27 69 18 75 23 68 -180 0
27 69 18 75 23 68 -176 0
27 31 20 35 18 33 -154 0
27 31 20 35 18 33 -156 0
27 31 20 35 18 33 -155 0
27 31 20 35 18 33 -153 0
27 31 20 35 18 33 -157 0
27 31 20 35 18 33 -152 0
27 31 20 35 18 23 -154 0
27 31 20 35 18 23 -156 0
27 31 20 35 18 23 -155 0
27 31 20 35 18 23 -153 0
27 31 20 35 18 23 -157 0
27 31 20 35 18 23 -152 0
27 31 20 35 33 37 -154 0
27 31 20 35 33 37 -156 0
27 31 20 35 33 37 -155 0
27 31 20 35 33 37 -153 0
27 31 20 35 33 37 -157 0
27 31 20 35 33 37 -152 0
27 31 20 35 23 37 -154 0
27 31 20 35 23 37 -156 0
27 31 20 35 23 37 -155 0
27 31 20 35 23 37 -153 0
27 31 20 35 23 37 -157 0
27 31 20 35 23 37 -152 0
27 31 20 18 33 23 -154 0
27 31 20 18 33 23 -156 0
27 31 20 18 33 23 -155 0
27 31 20 18 33 23 -153 0
27 31 20 18 33 23 -157 0
27 31 20 18 33 23 -152 0
27 31 20 18 23 37 -154 0
27 31 20 18 23 37 -156 0
27 31 20 18 23 37 -155 0
27 31 20 18 23 37 -153 0
27 31 20 18 23 37 -157 0
27 31 20 18 23 37 -152 0
27 31 35 18 33 37 -154 0
27 31 35 18 33 37 -156 0
27 31 35 18 33 37 -155 0
27 31 35 18 33 37 -153 0
27 31 35 18 33 37 -157 0
27 31 35 18 33 37 -152 0
27 31 35 33 23 37 -154 0
27 31 35 33 23 37 -156 0
27 31 35 33 23 37 -155 0
27 31 35 33 23 37 -153 0
27 31 35 33 23 37 -157 0
27 31 35 33 23 37 -152 0
27 31 18 33 23 37 -154 0
27 31 18 33 23 37 -156 0
27 31 18 33 23 37 -155 0
27 31 18 33 23 37 -153 0
27 31 18 33 23 37 -157 0
27 31 18 33 23 37 -152 0
27 20 96 18 90 23 -189 0
27 20 96 18 90 23 -188 0
27 20 96 18 90 23 -193 0
27 20 96 18 90 23 -191 0
27 20 96 18 90 23 -192 0
27 20 96 18 90 23 -190 0
27 20 96 18 23 97 -189 0
27 20 96 18 23 97 -188 0
27 20 96 18 23 97 -193 0
27 20 96 18 23 97 -191 0
27 20 96 18 23 97 -192 0
27 20 96 18 23 97 -190 0
27 20 7 18 6 23 -21 0
27 20 7 18 6 23 -19 0
27 20 7 18 6 23 -25 0
27 20 7 18 6 23 -22 0
27 20 7 18 6 23 -24 0
27 20 7 18 6 23 -26 0
27 20 7 18 23 3 -21 0
27 20 7 18 23 3 -19 0
27 20 7 18 23 3 -25 0
27 20 7 18 23 3 -22 0
27 20 7 18 23 3 -24 0
27 20 7 18 23 3 -26 0
27 20 9 18 13 23 -103 0
27 20 9 18 13 23 -102 0
27 20 9 18 13 23 -106 0
27 20 9 18 13 23 -105 0
27 20 9 18 13 23 -101 0
27 20 9 18 13 23 -104 0
27 20 9 18 23 11 -103 0
27 20 9 18 23 11 -102 0
27 20 9 18 23 11 -106 0
27 20 9 18 23 11 -105 0
27 20 9 18 23 11 -101 0
27 20 9 18 23 11 -104 0
27 20 46 18 43 23 -158 0
27 20 46 18 43 23 -161 0
27 20 46 18 43 23 -162 0
27 20 46 18 43 23 -159 0
27 20 46 18 43 23 -163 0
27 20 46 18 43 23 -160 0
27 20 46 18 23 45 -158 0
27 20 46 18 23 45 -161 0
27 20 46 18 23 45 -162 0
27 20 46 18 23 45 -159 0
27 20 46 18 23 45 -163 0
27 20 46 18 23 45 -160 0
27 20 50 18 52 23 -165 0
27 20 50 18 52 23 -164 0
27 20 50 18 52 23 -166 0
27 20 50 18 52 23 -167 0
27 20 50 18 52 23 -168 0
27 20 50 18 52 23 -169 0
27 20 50 18 23 49 -165 0
27 20 50 18 23 49 -164 0
27 20 50 18 23 49 -166 0
27 20 50 18 23 49 -167 0
27 20 50 18 23 49 -168 0
27 20 50 18 23 49 -169 0
27 20 78 18 86 23 -186 0
27 20 78 18 86 23 -187 0
27 20 78 18 86 23 -183 0
27 20 78 18 86 23 -184 0
27 20 78 18 86 23 -182 0
27 20 78 18 86 23 -185 0
27 20 78 18 23 80 -186 0
27 20 78 18 23 80 -187 0
27 20 78 18 23 80 -183 0
27 20 78 18 23 80 -184 0
27 20 78 18 23 80 -182 0
27 20 78 18 23 80 -185 0
27 20 59 18 67 23 -173 0
27 20 59 18 67 23 -171 0
27 20 59 18 67 23 -172 0
27 20 59 18 67 23 -174 0
27 20 59 18 67 23 -175 0
27 20 59 18 67 23 -170 0
27 20 59 18 23 62 -173 0
27 20 59 18 23 62 -171 0
27 20 59 18 23 62 -172 0
27 20 59 18 23 62 -174 0
27 20 59 18 23 62 -175 0
27 20 59 18 23 62 -170 0
27 20 76 18 75 23 -181 0
27 20 76 18 75 23 -178 0
27 20 76 18 75 23 -177 0
27 20 76 18 75 23 -179 0
27 20 76 18 75 23 -180 0
27 20 76 18 75 23 -176 0
27 20 76 18 23 68 -181 0
27 20 76 18 23 68 -178 0
27 20 76 18 23 68 -177 0
27 20 76 18 23 68 -179 0
27 20 76 18 23 68 -180 0
27 20 76 18 23 68 -176 0
27 20 35 18 33 23 -154 0
27 20 35 18 33 23 -156 0
27 20 35 18 33 23 -155 0
27 20 35 18 33 23 -153 0
27 20 35 18 33 23 -157 0
27 20 35 18 33 23 -152 0
27 20 35 18 23 37 -154 0
27 20 35 18 23 37 -156 0
27 20 35 18 23 37 -155 0
27 20 35 18 23 37 -153 0
27 20 35 18 23 37 -157 0
27 20 35 18 23 37 -152 0
27 20 18 90 23 97 -189 0
27 20 18 90 23 97 -188 0
27 20 18 90 23 97 -193 0
27 20 18 90 23 97 -191 0
27 20 18 90 23 97 -192 0
27 20 18 90 23 97 -190 0
27 20 18 6 23 3 -21 0
27 20 18 6 23 3 -19 0
27 20 18 6 23 3 -25 0
27 20 18 6 23 3 -22 0
27 20 18 6 23 3 -24 0
27 20 18 6 23 3 -26 0
27 20 18 13 23 11 -103 0
27 20 18 13 23 11 -102 0
27 20 18 13 23 11 -106 0
27 20 18 13 23 11 -105 0
27 20 18 13 23 11 -101 0
27 20 18 13 23 11 -104 0
27 20 18 43 23 45 -158 0
27 20 18 43 23 45 -161 0
27 20 18 43 23 45 -162 0
27 20 18 43 23 45 -159 0
27 20 18 43 23 45 -163 0
27 20 18 43 23 45 -160 0
27 20 18 52 23 49 -165 0
27 20 18 52 23 49 -164 0
27 20 18 52 23 49 -166 0
27 20 18 52 23 49 -167 0
27 20 18 52 23 49 -168 0
27 20 18 52 23 49 -169 0
27 20 18 86 23 80 -186 0
27 20 18 86 23 80 -187 0
27 20 18 86 23 80 -183 0
27 20 18 86 23 80 -184 0
27 20 18 86 23 80 -182 0
27 20 18 86 23 80 -185 0
27 20 18 67 23 62 -173 0
27 20 18 67 23 62 -171 0
27 20 18 67 23 62 -172 0
27 20 18 67 23 62 -174 0
27 20 18 67 23 62 -175 0
27 20 18 67 23 62 -170 0
27 20 18 75 23 68 -181 0
27 20 18 75 23 68 -178 0
27 20 18 75 23 68 -177 0
27 20 18 75 23 68 -179 0
27 20 18 75 23 68 -180 0
27 20 18 75 23 68 -176 0
27 20 18 33 23 37 -154 0
27 20 18 33 23 37 -156 0
27 20 18 33 23 37 -155 0
27 20 18 33 23 37 -153 0
27 20 18 33 23 37 -157 0
27 20 18 33 23 37 -152 0
95 2 96 7 90 6 -91 0
95 2 96 7 90 6 -93 0
95 2 96 7 90 6 -94 0
95 2 96 7 90 6 -92 0
95 2 96 7 90 6 -89 0
95 2 96 7 90 6 -88 0
95 2 96 7 90 97 -91 0
95 2 96 7 90 97 -93 0
95 2 96 7 90 97 -94 0
95 2 96 7 90 97 -92 0
95 2 96 7 90 97 -89 0
95 2 96 7 90 97 -88 0
95 2 96 7 6 3 -91 0
95 2 96 7 6 3 -93 0
95 2 96 7 6 3 -94 0
95 2 96 7 6 3 -92 0
95 2 96 7 6 3 -89 0
95 2 96 7 6 3 -88 0
95 2 96 7 97 3 -91 0
95 2 96 7 97 3 -93 0
95 2 96 7 97 3 -94 0
95 2 96 7 97 3 -92 0
95 2 96 7 97 3 -89 0
95 2 96 7 97 3 -88 0
95 2 96 90 6 97 -91 0
95 2 96 90 6 97 -93 0
95 2 96 90 6 97 -94 0
95 2 96 90 6 97 -92 0
95 2 96 90 6 97 -89 0
95 2 96 90 6 97 -88 0
95 2 96 90 97 3 -91 0
95 2 96 90 97 3 -93 0
95 2 96 90 97 3 -94 0
95 2 96 90 97 3 -92 0
95 2 96 90 97 3 -89 0
95 2 96 90 97 3 -88 0
95 2 7 90 6 3 -91 0
95 2 7 90 6 3 -93 0
95 2 7 90 6 3 -94 0
95 2 7 90 6 3 -92 0
95 2 7 90 6 3 -89 0
95 2 7 90 6 3 -88 0
95 2 7 6 97 3 -91 0
95 2 7 6 97 3 -93 0
95 2 7 6 97 3 -94 0
95 2 7 6 97 3 -92 0
95 2 7 6 97 3 -89 0
95 2 7 6 97 3 -88 0
95 2 90 6 97 3 -91 0
95 2 90 6 97 3 -93 0
95 2 90 6 97 3 -94 0
95 2 90 6 97 3 -92 0
95 2 90 6 97 3 -89 0
95 2 90 6 97 3 -88 0
95 8 96 9 90 13 -146 0
95 8 96 9 90 13 -147 0
95 8 96 9 90 13 -143 0
95 8 96 9 90 13 -148 0
95 8 96 9 90 13 -144 0
95 8 96 9 90 13 -145 0
95 8 96 9 90 97 -146 0
95 8 96 9 90 97 -147 0
95 8 96 9 90 97 -143 0
95 8 96 9 90 97 -148 0
95 8 96 9 90 97 -144 0
95 8 96 9 90 97 -145 0
95 8 96 9 13 11 -146 0
95 8 96 9 13 11 -147 0
95 8 96 9 13 11 -143 0
95 8 96 9 13 11 -148 0
95 8 96 9 13 11 -144 0
95 8 96 9 13 11 -145 0
95 8 96 9 97 11 -146 0
95 8 96 9 97 11 -147 0
95 8 96 9 97 11 -143 0
95 8 96 9 97 11 -148 0
95 8 96 9 97 11 -144 0
95 8 96 9 97 11 -145 0
95 8 96 90 13 97 -146 0
95 8 96 90 13 97 -147 0
95 8 96 90 13 97 -143 0
95 8 96 90 13 97 -148 0
95 8 96 90 13 97 -144 0
95 8 96 90 13 97 -145 0
95 8 96 90 97 11 -146 0
95 8 96 90 97 11 -147 0
95 8 96 90 97 11 -143 0
95 8 96 90 97 11 -148 0
95 8 96 90 97 11 -144 0
95 8 96 90 97 11 -145 0
95 8 9 90 13 11 -146 0
95 8 9 90 13 11 -147 0
95 8 9 90 13 11 -143 0
95 8 9 90 13 11 -148 0
95 8 9 90 13 11 -144 0
95 8 9 90 13 11 -145 0
95 8 9 13 97 11 -146 0
95 8 9 13 97 11 -147 0
95 8 9 13 97 11 -143 0
95 8 9 13 97 11 -148 0
95 8 9 13 97 11 -144 0
95 8 9 13 97 11 -145 0
95 8 90 13 97 11 -146 0
95 8 90 13 97 11 -147 0
95 8 90 13 97 11 -143 0
95 8 90 13 97 11 -148 0
95 8 90 13 97 11 -144 0
95 8 90 13 97 11 -145 0
95 41 96 46 90 43 -261 0
95 41 96 46 90 43 -265 0
95 41 96 46 90 43 -263 0
95 41 96 46 90 43 -260 0
95 41 96 46 90 43 -262 0
95 41 96 46 90 43 -264 0
95 41 96 46 90 97 -261 0
95 41 96 46 90 97 -265 0
95 41 96 46 90 97 -263 0
95 41 96 46 90 97 -260 0
95 41 96 46 90 97 -262 0
95 41 96 46 90 97 -264 0
95 41 96 46 43 45 -261 0
95 41 96 46 43 45 -265 0
95 41 96 46 43 45 -263 0
95 41 96 46 43 45 -260 0
95 41 96 46 43 45 -262 0
95 41 96 46 43 45 -264 0
95 41 96 46 97 45 -261 0
95 41 96 46 97 45 -265 0
95 41 96 46 97 45 -263 0
95 41 96 46 97 45 -260 0
95 41 96 46 97 45 -262 0
95 41 96 46 97 45 -264 0
95 41 96 90 43 97 -261 0
95 41 96 90 43 97 -265 0
95 41 96 90 43 97 -263 0
95 41 96 90 43 97 -260 0
95 41 96 90 43 97 -262 0
95 41 96 90 43 97 -264 0
95 41 96 90 97 45 -261 0
95 41 96 90 97 45 -265 0
95 41 96 90 97 45 -263 0
95 41 96 90 97 45 -260 0
95 41 96 90 97 45 -262 0
95 41 96 90 97 45 -264 0
95 41 46 90 43 45 -261 0
95 41 46 90 43 45 -265 0
95 41 46 90 43 45 -263 0
95 41 46 90 43 45 -260 0
95 41 46 90 43 45 -262 0
95 41 46 90 43 45 -264 0
95 41 46 43 97 45 -261 0
95 41 46 43 97 45 -265 0
95 41 46 43 97 45 -263 0
95 41 46 43 97 45 -260 0
95 41 46 43 97 45 -262 0
95 41 46 43 97 45 -264 0
95 41 90 43 97 45 -261 0
95 41 90 43 97 45 -265 0
95 41 90 43 97 45 -263 0
95 41 90 43 97 45 -260 0
95 41 90 43 97 45 -262 0
95 41 90 43 97 45 -264 0
95 57 96 50 90 52 -292 0
95 57 96 50 90 52 -290 0
95 57 96 50 90 52 -287 0
95 57 96 50 90 52 -289 0
95 57 96 50 90 52 -288 0
95 57 96 50 90 52 -291 0
95 57 96 50 90 97 -292 0
95 57 96 50 90 97 -290 0
95 57 96 50 90 97 -287 0
95 57 96 50 90 97 -289 0
95 57 96 50 90 97 -288 0
95 57 96 50 90 97 -291 0
95 57 96 50 52 49 -292 0
95 57 96 50 52 49 -290 0
95 57 96 50 52 49 -287 0
95 57 96 50 52 49 -289 0
95 57 96 50 52 49 -288 0
95 57 96 50 52 49 -291 0
95 57 96 50 97 49 -292 0
95 57 96 50 97 49 -290 0
95 57 96 50 97 49 -287 0
95 57 96 50 97 49 -289 0
95 57 96 50 97 49 -288 0
95 57 96 50 97 49 -291 0
95 57 96 90 52 97 -292 0
95 57 96 90 52 97 -290 0
95 57 96 90 52 97 -287 0
95 57 96 90 52 97 -289 0
95 57 96 90 52 97 -288 0
95 57 96 90 52 97 -291 0
95 57 96 90 97 49 -292 0
95 57 96 90 97 49 -290 0
95 57 96 90 97 49 -287 0
95 57 96 90 97 49 -289 0
95 57 96 90 97 49 -288 0
95 57 96 90 97 49 -291 0
95 57 50 90 52 49 -292 0
95 57 50 90 52 49 -290 0
95 57 50 90 52 49 -287 0
95 57 50 90 52 49 -289 0
95 57 50 90 52 49 -288 0
95 57 50 90 52 49 -291 0
95 57 50 52 97 49 -292 0
95 57 50 52 97 49 -290 0
95 57 50 52 97 49 -287 0
95 57 50 52 97 49 -289 0
95 57 50 52 97 49 -288 0
95 57 50 52 97 49 -291 0
95 57 90 52 97 49 -292 0
95 57 90 52 97 49 -290 0
95 57 90 52 97 49 -287 0
95 57 90 52 97 49 -289 0
95 57 90 52 97 49 -288 0
95 57 90 52 97 49 -291 0
95 83 96 78 90 86 -337 0
95 83 96 78 90 86 -334 0
95 83 96 78 90 86 -332 0
95 83 96 78 90 86 -335 0
95 83 96 78 90 86 -336 0
95 83 96 78 90 86 -333 0
95 83 96 78 90 97 -337 0
95 83 96 78 90 97 -334 0
95 83 96 78 90 97 -332 0
95 83 96 78 90 97 -335 0
95 83 96 78 90 97 -336 0
95 83 96 78 90 97 -333 0
95 83 96 78 86 80 -337 0
95 83 96 78 86 80 -334 0
95 83 96 78 86 80 -332 0
95 83 96 78 86 80 -335 0
95 83 96 78 86 80 -336 0
95 83 96 78 86 80 -333 0
95 83 96 78 97 80 -337 0
95 83 96 78 97 80 -334 0
95 83 96 78 97 80 -332 0
95 83 96 78 97 80 -335 0
95 83 96 78 97 80 -336 0
95 83 96 78 97 80 -333 0
95 83 96 90 86 97 -337 0
95 83 96 90 86 97 -334 0
95 83 96 90 86 97 -332 0
95 83 96 90 86 97 -335 0
95 83 96 90 86 97 -336 0
95 83 96 90 86 97 -333 0
95 83 96 90 97 80 -337 0
95 83 96 90 97 80 -334 0
95 83 96 90 97 80 -332 0
95 83 96 90 97 80 -335 0
95 83 96 90 97 80 -336 0
95 83 96 90 97 80 -333 0
95 83 78 90 86 80 -337 0
95 83 78 90 86 80 -334 0
95 83 78 90 86 80 -332 0
95 83 78 90 86 80 -335 0
95 83 78 90 86 80 -336 0
95 83 78 90 86 80 -333 0
95 83 78 86 97 80 -337 0
95 83 78 86 97 80 -334 0
95 83 78 86 97 80 -332 0
95 83 78 86 97 80 -335 0
95 83 78 86 97 80 -336 0
95 83 78 86 97 80 -333 0
95 83 90 86 97 80 -337 0
95 83 90 86 97 80 -334 0
95 83 90 86 97 80 -332 0
95 83 90 86 97 80 -335 0
95 83 90 86 97 80 -336 0
95 83 90 86 97 80 -333 0
95 63 96 59 90 67 -313 0
95 63 96 59 90 67 -310 0
95 63 96 59 90 67 -308 0
95 63 96 59 90 67 -312 0
95 63 96 59 90 67 -309 0
95 63 96 59 90 67 -311 0
95 63 96 59 90 97 -313 0
95 63 96 59 90 97 -310 0
95 63 96 59 90 97 -308 0
95 63 96 59 90 97 -312 0
95 63 96 59 90 97 -309 0
95 63 96 59 90 97 -311 0
95 63 96 59 67 62 -313 0
95 63 96 59 67 62 -310 0
95 63 96 59 67 62 -308 0
95 63 96 59 67 62 -312 0
95 63 96 59 67 62 -309 0
95 63 96 59 67 62 -311 0
95 63 96 59 97 62 -313 0
95 63 96 59 97 62 -310 0
95 63 96 59 97 62 -308 0
95 63 96 59 97 62 -312 0
95 63 96 59 97 62 -309 0
95 63 96 59 97 62 -311 0
95 63 96 90 67 97 -313 0
95 63 96 90 67 97 -310 0
95 63 96 90 67 97 -308 0
95 63 96 90 67 97 -312 0
95 63 96 90 67 97 -309 0
95 63 96 90 67 97 -311 0
95 63 96 90 97 62 -313 0
95 63 96 90 97 62 -310 0
95 63 96 90 97 62 -308 0
95 63 96 90 97 62 -312 0
95 63 96 90 97 62 -309 0
95 63 96 90 97 62 -311 0
95 63 59 90 67 62 -313 0
95 63 59 90 67 62 -310 0
95 63 59 90 67 62 -308 0
95 63 59 90 67 62 -312 0
95 63 59 90 67 62 -309 0
95 63 59 90 67 62 -311 0
95 63 59 67 97 62 -313 0
95 63 59 67 97 62 -310 0
95 63 59 67 97 62 -308 0
95 63 59 67 97 62 -312 0
95 63 59 67 97 62 -309 0
95 63 59 67 97 62 -311 0
95 63 90 67 97 62 -313 0
95 63 90 67 97 62 -310 0
95 63 90 67 97 62 -308 0
95 63 90 67 97 62 -312 0
95 63 90 67 97 62 -309 0
95 63 90 67 97 62 -311 0
95 69 96 76 90 75 -326 0
95 69 96 76 90 75 -325 0
95 69 96 76 90 75 -328 0
95 69 96 76 90 75 -323 0
95 69 96 76 90 75 -327 0
95 69 96 76 90 75 -324 0
95 69 96 76 90 97 -326 0
95 69 96 76 90 97 -325 0
95 69 96 76 90 97 -328 0
95 69 96 76 90 97 -323 0
95 69 96 76 90 97 -327 0
95 69 96 76 90 97 -324 0
95 69 96 76 75 68 -326 0
95 69 96 76 75 68 -325 0
95 69 96 76 75 68 -328 0
95 69 96 76 75 68 -323 0
95 69 96 76 75 68 -327 0
95 69 96 76 75 68 -324 0
95 69 96 76 97 68 -326 0
95 69 96 76 97 68 -325 0
95 69 96 76 97 68 -328 0
95 69 96 76 97 68 -323 0
95 69 96 76 97 68 -327 0
95 69 96 76 97 68 -324 0
95 69 96 90 75 97 -326 0
95 69 96 90 75 97 -325 0
95 69 96 90 75 97 -328 0
95 69 96 90 75 97 -323 0
95 69 96 90 75 97 -327 0
95 69 96 90 75 97 -324 0
95 69 96 90 97 68 -326 0
95 69 96 90 97 68 -325 0
95 69 96 90 97 68 -328 0
95 69 96 90 97 68 -323 0
95 69 96 90 97 68 -327 0
95 69 96 90 97 68 -324 0
95 69 76 90 75 68 -326 0
95 69 76 90 75 68 -325 0
95 69 76 90 75 68 -328 0
95 69 76 90 75 68 -323 0
95 69 76 90 75 68 -327 0
95 69 76 90 75 68 -324 0
95 69 76 75 97 68 -326 0
95 69 76 75 97 68 -325 0
95 69 76 75 97 68 -328 0
95 69 76 75 97 68 -323 0
95 69 76 75 97 68 -327 0
95 69 76 75 97 68 -324 0
95 69 90 75 97 68 -326 0
95 69 90 75 97 68 -325 0
95 69 90 75 97 68 -328 0
95 69 90 75 97 68 -323 0
95 69 90 75 97 68 -327 0
95 69 90 75 97 68 -324 0
95 31 96 35 90 33 -231 0
95 31 96 35 90 33 -229 0
95 31 96 35 90 33 -228 0
95 31 96 35 90 33 -230 0
95 31 96 35 90 33 -227 0
95 31 96 35 90 33 -232 0
95 31 96 35 90 97 -231 0
95 31 96 35 90 97 -229 0
95 31 96 35 90 97 -228 0
95 31 96 35 90 97 -230 0
95 31 96 35 90 97 -227 0
95 31 96 35 90 97 -232 0
95 31 96 35 33 37 -231 0
95 31 96 35 33 37 -229 0
95 31 96 35 33 37 -228 0
95 31 96 35 33 37 -230 0
95 31 96 35 33 37 -227 0
95 31 96 35 33 37 -232 0
95 31 96 35 97 37 -231 0
95 31 96 35 97 37 -229 0
95 31 96 35 97 37 -228 0
95 31 96 35 97 37 -230 0
95 31 96 35 97 37 -227 0
95 31 96 35 97 37 -232 0
95 31 96 90 33 97 -231 0
95 31 96 90 33 97 -229 0
95 31 96 90 33 97 -228 0
95 31 96 90 33 97 -230 0
95 31 96 90 33 97 -227 0
95 31 96 90 33 97 -232 0
95 31 96 90 97 37 -231 0
95 31 96 90 97 37 -229 0
95 31 96 90 97 37 -228 0
95 31 96 90 97 37 -230 0
95 31 96 90 97 37 -227 0
95 31 96 90 97 37 -232 0
95 31 35 90 33 37 -231 0
95 31 35 90 33 37 -229 0
95 31 35 90 33 37 -228 0
95 31 35 90 33 37 -230 0
95 31 35 90 33 37 -227 0
95 31 35 90 33 37 -232 0
95 31 35 33 97 37 -231 0
95 31 35 33 97 37 -229 0
95 31 35 33 97 37 -228 0
95 31 35 33 97 37 -230 0
95 31 35 33 97 37 -227 0
95 31 35 33 97 37 -232 0
95 31 90 33 97 37 -231 0
95 31 90 33 97 37 -229 0
95 31 90 33 97 37 -228 0
95 31 90 33 97 37 -230 0
95 31 90 33 97 37 -227 0
95 31 90 33 97 37 -232 0
95 20 96 18 90 97 -189 0
95 20 96 18 90 97 -188 0
95 20 96 18 90 97 -193 0
95 20 96 18 90 97 -191 0
95 20 96 18 90 97 -192 0
95 20 96 18 90 97 -190 0
95 20 96 90 23 97 -189 0
95 20 96 90 23 97 -188 0
95 20 96 90 23 97 -193 0
95 20 96 90 23 97 -191 0
95 20 96 90 23 97 -192 0
95 20 96 90 23 97 -190 0
95 96 7 90 6 97 -91 0
95 96 7 90 6 97 -93 0
95 96 7 90 6 97 -94 0
95 96 7 90 6 97 -92 0
95 96 7 90 6 97 -89 0
95 96 7 90 6 97 -88 0
95 96 7 90 97 3 -91 0
95 96 7 90 97 3 -93 0
95 96 7 90 97 3 -94 0
95 96 7 90 97 3 -92 0
95 96 7 90 97 3 -89 0
95 96 7 90 97 3 -88 0
95 96 9 90 13 97 -146 0
95 96 9 90 13 97 -147 0
95 96 9 90 13 97 -143 0
95 96 9 90 13 97 -148 0
95 96 9 90 13 97 -144 0
95 96 9 90 13 97 -145 0
95 96 9 90 97 11 -146 0
95 96 9 90 97 11 -147 0
95 96 9 90 97 11 -143 0
95 96 9 90 97 11 -148 0
95 96 9 90 97 11 -144 0
95 96 9 90 97 11 -145 0
95 96 46 90 43 97 -261 0
95 96 46 90 43 97 -265 0
95 96 46 90 43 97 -263 0
95 96 46 90 43 97 -260 0
95 96 46 90 43 97 -262 0
95 96 46 90 43 97 -264 0
95 96 46 90 97 45 -261 0
95 96 46 90 97 45 -265 0
95 96 46 90 97 45 -263 0
95 96 46 90 97 45 -260 0
95 96 46 90 97 45 -262 0
95 96 46 90 97 45 -264 0
95 96 50 90 52 97 -292 0
95 96 50 90 52 97 -290 0
95 96 50 90 52 97 -287 0
95 96 50 90 52 97 -289 0
95 96 50 90 52 97 -288 0
95 96 50 90 52 97 -291 0
95 96 50 90 97 49 -292 0
95 96 50 90 97 49 -290 0
95 96 50 90 97 49 -287 0
95 96 50 90 97 49 -289 0
95 96 50 90 97 49 -288 0
95 96 50 90 97 49 -291 0
95 96 78 90 86 97 -337 0
95 96 78 90 86 97 -334 0
95 96 78 90 86 97 -332 0
95 96 78 90 86 97 -335 0
95 96 78 90 86 97 -336 0
95 96 78 90 86 97 -333 0
95 96 78 90 97 80 -337 0
95 96 78 90 97 80 -334 0
95 96 78 90 97 80 -332 0
95 96 78 90 97 80 -335 0
95 96 78 90 97 80 -336 0
95 96 78 90 97 80 -333 0
95 96 59 90 67 97 -313 0
95 96 59 90 67 97 -310 0
95 96 59 90 67 97 -308 0
95 96 59 90 67 97 -312 0
95 96 59 90 67 97 -309 0
95 96 59 90 67 97 -311 0
95 96 59 90 97 62 -313 0
95 96 59 90 97 62 -310 0
95 96 59 90 97 62 -308 0
95 96 59 90 97 62 -312 0
95 96 59 90 97 62 -309 0
95 96 59 90 97 62 -311 0
95 96 76 90 75 97 -326 0
95 96 76 90 75 97 -325 0
95 96 76 90 75 97 -328 0
95 96 76 90 75 97 -323 0
95 96 76 90 75 97 -327 0
95 96 76 90 75 97 -324 0
95 96 76 90 97 68 -326 0
95 96 76 90 97 68 -325 0
95 96 76 90 97 68 -328 0
95 96 76 90 97 68 -323 0
95 96 76 90 97 68 -327 0
95 96 76 90 97 68 -324 0
95 96 35 90 33 97 -231 0
95 96 35 90 33 97 -229 0
95 96 35 90 33 97 -228 0
95 96 35 90 33 97 -230 0
95 96 35 90 33 97 -227 0
95 96 35 90 33 97 -232 0
95 96 35 90 97 37 -231 0
95 96 35 90 97 37 -229 0
95 96 35 90 97 37 -228 0
95 96 35 90 97 37 -230 0
95 96 35 90 97 37 -227 0
95 96 35 90 97 37 -232 0
95 96 18 90 23 97 -189 0
95 96 18 90 23 97 -188 0
95 96 18 90 23 97 -193 0
95 96 18 90 23 97 -191 0
95 96 18 90 23 97 -192 0
95 96 18 90 23 97 -190 0
95 96 90 6 97 3 -91 0
95 96 90 6 97 3 -93 0
95 96 90 6 97 3 -94 0
95 96 90 6 97 3 -92 0
95 96 90 6 97 3 -89 0
95 96 90 6 97 3 -88 0
95 96 90 13 97 11 -146 0
95 96 90 13 97 11 -147 0
95 96 90 13 97 11 -143 0
95 96 90 13 97 11 -148 0
95 96 90 13 97 11 -144 0
95 96 90 13 97 11 -145 0
95 96 90 43 97 45 -261 0
95 96 90 43 97 45 -265 0
95 96 90 43 97 45 -263 0
95 96 90 43 97 45 -260 0
95 96 90 43 97 45 -262 0
95 96 90 43 97 45 -264 0
95 96 90 52 97 49 -292 0
95 96 90 52 97 49 -290 0
95 96 90 52 97 49 -287 0
95 96 90 52 97 49 -289 0
95 96 90 52 97 49 -288 0
95 96 90 52 97 49 -291 0
95 96 90 86 97 80 -337 0
95 96 90 86 97 80 -334 0
95 96 90 86 97 80 -332 0
95 96 90 86 97 80 -335 0
95 96 90 86 97 80 -336 0
95 96 90 86 97 80 -333 0
95 96 90 67 97 62 -313 0
95 96 90 67 97 62 -310 0
95 96 90 67 97 62 -308 0
95 96 90 67 97 62 -312 0
95 96 90 67 97 62 -309 0
95 96 90 67 97 62 -311 0
95 96 90 75 97 68 -326 0
95 96 90 75 97 68 -325 0
95 96 90 75 97 68 -328 0
95 96 90 75 97 68 -323 0
95 96 90 75 97 68 -327 0
95 96 90 75 97 68 -324 0
95 96 90 33 97 37 -231 0
95 96 90 33 97 37 -229 0
95 96 90 33 97 37 -228 0
95 96 90 33 97 37 -230 0
95 96 90 33 97 37 -227 0
95 96 90 33 97 37 -232 0
2 8 7 9 6 13 -12 0
2 8 7 9 6 13 -17 0
2 8 7 9 6 13 -15 0
2 8 7 9 6 13 -16 0
2 8 7 9 6 13 -10 0
2 8 7 9 6 13 -14 0
2 8 7 9 6 3 -12 0
2 8 7 9 6 3 -17 0
2 8 7 9 6 3 -15 0
2 8 7 9 6 3 -16 0
2 8 7 9 6 3 -10 0
2 8 7 9 6 3 -14 0
2 8 7 9 13 11 -12 0
2 8 7 9 13 11 -17 0
2 8 7 9 13 11 -15 0
2 8 7 9 13 11 -16 0
2 8 7 9 13 11 -10 0
2 8 7 9 13 11 -14 0
2 8 7 9 3 11 -12 0
2 8 7 9 3 11 -17 0
2 8 7 9 3 11 -15 0
2 8 7 9 3 11 -16 0
2 8 7 9 3 11 -10 0
2 8 7 9 3 11 -14 0
2 8 7 6 13 3 -12 0
2 8 7 6 13 3 -17 0
2 8 7 6 13 3 -15 0
2 8 7 6 13 3 -16 0
2 8 7 6 13 3 -10 0
2 8 7 6 13 3 -14 0
2 8 7 6 3 11 -12 0
2 8 7 6 3 11 -17 0
2 8 7 6 3 11 -15 0
2 8 7 6 3 11 -16 0
2 8 7 6 3 11 -10 0
2 8 7 6 3 11 -14 0
2 8 9 6 13 11 -12 0
2 8 9 6 13 11 -17 0
2 8 9 6 13 11 -15 0
2 8 9 6 13 11 -16 0
2 8 9 6 13 11 -10 0
2 8 9 6 13 11 -14 0
2 8 9 13 3 11 -12 0
2 8 9 13 3 11 -17 0
2 8 9 13 3 11 -15 0
2 8 9 13 3 11 -16 0
2 8 9 13 3 11 -10 0
2 8 9 13 3 11 -14 0
2 8 6 13 3 11 -12 0
2 8 6 13 3 11 -17 0
2 8 6 13 3 11 -15 0
2 8 6 13 3 11 -16 0
2 8 6 13 3 11 -10 0
2 8 6 13 3 11 -14 0
2 41 7 46 6 43 -44 0
2 41 7 46 6 43 -39 0
2 41 7 46 6 43 -38 0
2 41 7 46 6 43 -47 0
2 41 7 46 6 43 -40 0
2 41 7 46 6 43 -42 0
2 41 7 46 6 3 -44 0
2 41 7 46 6 3 -39 0
2 41 7 46 6 3 -38 0
2 41 7 46 6 3 -47 0
2 41 7 46 6 3 -40 0
2 41 7 46 6 3 -42 0
2 41 7 46 43 45 -44 0
2 41 7 46 43 45 -39 0
2 41 7 46 43 45 -38 0
2 41 7 46 43 45 -47 0
2 41 7 46 43 45 -40 0
2 41 7 46 43 45 -42 0
2 41 7 46 3 45 -44 0
2 41 7 46 3 45 -39 0
2 41 7 46 3 45 -38 0
2 41 7 46 3 45 -47 0
2 41 7 46 3 45 -40 0
2 41 7 46 3 45 -42 0
2 41 7 6 43 3 -44 0
2 41 7 6 43 3 -39 0
2 41 7 6 43 3 -38 0
2 41 7 6 43 3 -47 0
2 41 7 6 43 3 -40 0
2 41 7 6 43 3 -42 0
2 41 7 6 3 45 -44 0
2 41 7 6 3 45 -39 0
2 41 7 6 3 45 -38 0
2 41 7 6 3 45 -47 0
2 41 7 6 3 45 -40 0
2 41 7 6 3 45 -42 0
2 41 46 6 43 45 -44 0
2 41 46 6 43 45 -39 0
2 41 46 6 43 45 -38 0
2 41 46 6 43 45 -47 0
2 41 46 6 43 45 -40 0
2 41 46 6 43 45 -42 0
2 41 46 43 3 45 -44 0
2 41 46 43 3 45 -39 0
2 41 46 43 3 45 -38 0
2 41 46 43 3 45 -47 0
2 41 46 43 3 45 -40 0
2 41 46 43 3 45 -42 0
2 41 6 43 3 45 -44 0
2 41 6 43 3 45 -39 0
2 41 6 43 3 45 -38 0
2 41 6 43 3 45 -47 0
2 41 6 43 3 45 -40 0
2 41 6 43 3 45 -42 0
2 57 7 50 6 52 -54 0
2 57 7 50 6 52 -48 0
2 57 7 50 6 52 -56 0
2 57 7 50 6 52 -51 0
2 57 7 50 6 52 -55 0
2 57 7 50 6 52 -53 0
2 57 7 50 6 3 -54 0
2 57 7 50 6 3 -48 0
2 57 7 50 6 3 -56 0
2 57 7 50 6 3 -51 0
2 57 7 50 6 3 -55 0
2 57 7 50 6 3 -53 0
2 57 7 50 52 49 -54 0
2 57 7 50 52 49 -48 0
2 57 7 50 52 49 -56 0
2 57 7 50 52 49 -51 0
2 57 7 50 52 49 -55 0
2 57 7 50 52 49 -53 0
2 57 7 50 3 49 -54 0
2 57 7 50 3 49 -48 0
2 57 7 50 3 49 -56 0
2 57 7 50 3 49 -51 0
2 57 7 50 3 49 -55 0
2 57 7 50 3 49 -53 0
2 57 7 6 52 3 -54 0
2 57 7 6 52 3 -48 0
2 57 7 6 52 3 -56 0
2 57 7 6 52 3 -51 0
2 57 7 6 52 3 -55 0
2 57 7 6 52 3 -53 0
2 57 7 6 3 49 -54 0
2 57 7 6 3 49 -48 0
2 57 7 6 3 49 -56 0
2 57 7 6 3 49 -51 0
2 57 7 6 3 49 -55 0
2 57 7 6 3 49 -53 0
2 57 50 6 52 49 -54 0
2 57 50 6 52 49 -48 0
2 57 50 6 52 49 -56 0
2 57 50 6 52 49 -51 0
2 57 50 6 52 49 -55 0
2 57 50 6 52 49 -53 0
2 57 50 52 3 49 -54 0
2 57 50 52 3 49 -48 0
2 57 50 52 3 49 -56 0
2 57 50 52 3 49 -51 0
2 57 50 52 3 49 -55 0
2 57 50 52 3 49 -53 0
2 57 6 52 3 49 -54 0
2 57 6 52 3 49 -48 0
2 57 6 52 3 49 -56 0
2 57 6 52 3 49 -51 0
2 57 6 52 3 49 -55 0
2 57 6 52 3 49 -53 0
2 83 7 78 6 86 -85 0
2 83 7 78 6 86 -84 0
2 83 7 78 6 86 -79 0
2 83 7 78 6 86 -87 0
2 83 7 78 6 86 -81 0
2 83 7 78 6 86 -82 0
2 83 7 78 6 3 -85 0
2 83 7 78 6 3 -84 0
2 83 7 78 6 3 -79 0
2 83 7 78 6 3 -87 0
2 83 7 78 6 3 -81 0
2 83 7 78 6 3 -82 0
2 83 7 78 86 80 -85 0
2 83 7 78 86 80 -84 0
2 83 7 78 86 80 -79 0
2 83 7 78 86 80 -87 0
2 83 7 78 86 80 -81 0
2 83 7 78 86 80 -82 0
2 83 7 78 3 80 -85 0
2 83 7 78 3 80 -84 0
2 83 7 78 3 80 -79 0
2 83 7 78 3 80 -87 0
2 83 7 78 3 80 -81 0
2 83 7 78 3 80 -82 0
2 83 7 6 86 3 -85 0
2 83 7 6 86 3 -84 0
2 83 7 6 86 3 -79 0
2 83 7 6 86 3 -87 0
2 83 7 6 86 3 -81 0
2 83 7 6 86 3 -82 0
2 83 7 6 3 80 -85 0
2 83 7 6 3 80 -84 0
2 83 7 6 3 80 -79 0
2 83 7 6 3 80 -87 0
2 83 7 6 3 80 -81 0
2 83 7 6 3 80 -82 0
2 83 78 6 86 80 -85 0
2 83 78 6 86 80 -84 0
2 83 78 6 86 80 -79 0
2 83 78 6 86 80 -87 0
2 83 78 6 86 80 -81 0
2 83 78 6 86 80 -82 0
2 83 78 86 3 80 -85 0
2 83 78 86 3 80 -84 0
2 83 78 86 3 80 -79 0
2 83 78 86 3 80 -87 0
2 83 78 86 3 80 -81 0
2 83 78 86 3 80 -82 0
2 83 6 86 3 80 -85 0
2 83 6 86 3 80 -84 0
2 83 6 86 3 80 -79 0
2 83 6 86 3 80 -87 0
2 83 6 86 3 80 -81 0
2 83 6 86 3 80 -82 0
2 63 7 59 6 67 -58 0
2 63 7 59 6 67 -60 0
2 63 7 59 6 67 -61 0
2 63 7 59 6 67 -64 0
2 63 7 59 6 67 -65 0
2 63 7 59 6 67 -66 0
2 63 7 59 6 3 -58 0
2 63 7 59 6 3 -60 0
2 63 7 59 6 3 -61 0
2 63 7 59 6 3 -64 0
2 63 7 59 6 3 -65 0
2 63 7 59 6 3 -66 0
2 63 7 59 67 62 -58 0
2 63 7 59 67 62 -60 0
2 63 7 59 67 62 -61 0
2 63 7 59 67 62 -64 0
2 63 7 59 67 62 -65 0
2 63 7 59 67 62 -66 0
2 63 7 59 3 62 -58 0
2 63 7 59 3 62 -60 0
2 63 7 59 3 62 -61 0
2 63 7 59 3 62 -64 0
2 63 7 59 3 62 -65 0
2 63 7 59 3 62 -66 0
2 63 7 6 67 3 -58 0
2 63 7 6 67 3 -60 0
2 63 7 6 67 3 -61 0
2 63 7 6 67 3 -64 0
2 63 7 6 67 3 -65 0
2 63 7 6 67 3 -66 0
2 63 7 6 3 62 -58 0
2 63 7 6 3 62 -60 0
2 63 7 6 3 62 -61 0
2 63 7 6 3 62 -64 0
2 63 7 6 3 62 -65 0
2 63 7 6 3 62 -66 0
2 63 59 6 67 62 -58 0
2 63 59 6 67 62 -60 0
2 63 59 6 67 62 -61 0
2 63 59 6 67 62 -64 0
2 63 59 6 67 62 -65 0
2 63 59 6 67 62 -66 0
2 63 59 67 3 62 -58 0
2 63 59 67 3 62 -60 0
2 63 59 67 3 62 -61 0
2 63 59 67 3 62 -64 0
2 63 59 67 3 62 -65 0
2 63 59 67 3 62 -66 0
2 63 6 67 3 62 -58 0
2 63 6 67 3 62 -60 0
2 63 6 67 3 62 -61 0
2 63 6 67 3 62 -64 0
2 63 6 67 3 62 -65 0
2 63 6 67 3 62 -66 0
2 69 7 76 6 75 -74 0
2 69 7 76 6 75 -70 0
2 69 7 76 6 75 -77 0
2 69 7 76 6 75 -72 0
2 69 7 76 6 75 -71 0
2 69 7 76 6 75 -73 0
2 69 7 76 6 3 -74 0
2 69 7 76 6 3 -70 0
2 69 7 76 6 3 -77 0
2 69 7 76 6 3 -72 0
2 69 7 76 6 3 -71 0
2 69 7 76 6 3 -73 0
2 69 7 76 75 68 -74 0
2 69 7 76 75 68 -70 0
2 69 7 76 75 68 -77 0
2 69 7 76 75 68 -72 0
2 69 7 76 75 68 -71 0
2 69 7 76 75 68 -73 0
2 69 7 76 3 68 -74 0
2 69 7 76 3 68 -70 0
2 69 7 76 3 68 -77 0
2 69 7 76 3 68 -72 0
2 69 7 76 3 68 -71 0
2 69 7 76 3 68 -73 0
2 69 7 6 75 3 -74 0
2 69 7 6 75 3 -70 0
2 69 7 6 75 3 -77 0
2 69 7 6 75 3 -72 0
2 69 7 6 75 3 -71 0
2 69 7 6 75 3 -73 0
2 69 7 6 3 68 -74 0
2 69 7 6 3 68 -70 0
2 69 7 6 3 68 -77 0
2 69 7 6 3 68 -72 0
2 69 7 6 3 68 -71 0
2 69 7 6 3 68 -73 0
2 69 76 6 75 68 -74 0
2 69 76 6 75 68 -70 0
2 69 76 6 75 68 -77 0
2 69 76 6 75 68 -72 0
2 69 76 6 75 68 -71 0
2 69 76 6 75 68 -73 0
2 69 76 75 3 68 -74 0
2 69 76 75 3 68 -70 0
2 69 76 75 3 68 -77 0
2 69 76 75 3 68 -72 0
2 69 76 75 3 68 -71 0
2 69 76 75 3 68 -73 0
2 69 6 75 3 68 -74 0
2 69 6 75 3 68 -70 0
2 69 6 75 3 68 -77 0
2 69 6 75 3 68 -72 0
2 69 6 75 3 68 -71 0
2 69 6 75 3 68 -73 0
2 31 7 35 6 33 -32 0
2 31 7 35 6 33 -30 0
2 31 7 35 6 33 -36 0
2 31 7 35 6 33 -34 0
2 31 7 35 6 33 -29 0
2 31 7 35 6 33 -28 0
2 31 7 35 6 3 -32 0
2 31 7 35 6 3 -30 0
2 31 7 35 6 3 -36 0
2 31 7 35 6 3 -34 0
2 31 7 35 6 3 -29 0
2 31 7 35 6 3 -28 0
2 31 7 35 33 37 -32 0
2 31 7 35 33 37 -30 0
2 31 7 35 33 37 -36 0
2 31 7 35 33 37 -34 0
2 31 7 35 33 37 -29 0
2 31 7 35 33 37 -28 0
2 31 7 35 3 37 -32 0
2 31 7 35 3 37 -30 0
2 31 7 35 3 37 -36 0
2 31 7 35 3 37 -34 0
2 31 7 35 3 37 -29 0
2 31 7 35 3 37 -28 0
2 31 7 6 33 3 -32 0
2 31 7 6 33 3 -30 0
2 31 7 6 33 3 -36 0
2 31 7 6 33 3 -34 0
2 31 7 6 33 3 -29 0
2 31 7 6 33 3 -28 0
2 31 7 6 3 37 -32 0
2 31 7 6 3 37 -30 0
2 31 7 6 3 37 -36 0
2 31 7 6 3 37 -34 0
2 31 7 6 3 37 -29 0
2 31 7 6 3 37 -28 0
2 31 35 6 33 37 -32 0
2 31 35 6 33 37 -30 0
2 31 35 6 33 37 -36 0
2 31 35 6 33 37 -34 0
2 31 35 6 33 37 -29 0
2 31 35 6 33 37 -28 0
2 31 35 33 3 37 -32 0
2 31 35 33 3 37 -30 0
2 31 35 33 3 37 -36 0
2 31 35 33 3 37 -34 0
2 31 35 33 3 37 -29 0
2 31 35 33 3 37 -28 0
2 31 6 33 3 37 -32 0
2 31 6 33 3 37 -30 0
2 31 6 33 3 37 -36 0
2 31 6 33 3 37 -34 0
2 31 6 33 3 37 -29 0
2 31 6 33 3 37 -28 0
2 20 7 18 6 3 -21 0
2 20 7 18 6 3 -19 0
2 20 7 18 6 3 -25 0
2 20 7 18 6 3 -22 0
2 20 7 18 6 3 -24 0
2 20 7 18 6 3 -26 0
2 20 7 6 23 3 -21 0
2 20 7 6 23 3 -19 0
2 20 7 6 23 3 -25 0
2 20 7 6 23 3 -22 0
2 20 7 6 23 3 -24 0
2 20 7 6 23 3 -26 0
2 96 7 90 6 3 -91 0
2 96 7 90 6 3 -93 0
2 96 7 90 6 3 -94 0
2 96 7 90 6 3 -92 0
2 96 7 90 6 3 -89 0
2 96 7 90 6 3 -88 0
2 96 7 6 97 3 -91 0
2 96 7 6 97 3 -93 0
2 96 7 6 97 3 -94 0
2 96 7 6 97 3 -92 0
2 96 7 6 97 3 -89 0
2 96 7 6 97 3 -88 0
2 7 9 6 13 3 -12 0
2 7 9 6 13 3 -17 0
2 7 9 6 13 3 -15 0
2 7 9 6 13 3 -16 0
2 7 9 6 13 3 -10 0
2 7 9 6 13 3 -14 0
2 7 9 6 3 11 -12 0
2 7 9 6 3 11 -17 0
2 7 9 6 3 11 -15 0
2 7 9 6 3 11 -16 0
2 7 9 6 3 11 -10 0
2 7 9 6 3 11 -14 0
2 7 46 6 43 3 -44 0
2 7 46 6 43 3 -39 0
2 7 46 6 43 3 -38 0
2 7 46 6 43 3 -47 0
2 7 46 6 43 3 -40 0
2 7 46 6 43 3 -42 0
2 7 46 6 3 45 -44 0
2 7 46 6 3 45 -39 0
2 7 46 6 3 45 -38 0
2 7 46 6 3 45 -47 0
2 7 46 6 3 45 -40 0
2 7 46 6 3 45 -42 0
2 7 50 6 52 3 -54 0
2 7 50 6 52 3 -48 0
2 7 50 6 52 3 -56 0
2 7 50 6 52 3 -51 0
2 7 50 6 52 3 -55 0
2 7 50 6 52 3 -53 0
2 7 50 6 3 49 -54 0
2 7 50 6 3 49 -48 0
2 7 50 6 3 49 -56 0
2 7 50 6 3 49 -51 0
2 7 50 6 3 49 -55 0
2 7 50 6 3 49 -53 0
2 7 78 6 86 3 -85 0
2 7 78 6 86 3 -84 0
2 7 78 6 86 3 -79 0
2 7 78 6 86 3 -87 0
2 7 78 6 86 3 -81 0
2 7 78 6 86 3 -82 0
2 7 78 6 3 80 -85 0
2 7 78 6 3 80 -84 0
2 7 78 6 3 80 -79 0
2 7 78 6 3 80 -87 0
2 7 78 6 3 80 -81 0
2 7 78 6 3 80 -82 0
2 7 59 6 67 3 -58 0
2 7 59 6 67 3 -60 0
2 7 59 6 67 3 -61 0
2 7 59 6 67 3 -64 0
2 7 59 6 67 3 -65 0
2 7 59 6 67 3 -66 0
2 7 59 6 3 62 -58 0
2 7 59 6 3 62 -60 0
2 7 59 6 3 62 -61 0
2 7 59 6 3 62 -64 0
2 7 59 6 3 62 -65 0
2 7 59 6 3 62 -66 0
2 7 76 6 75 3 -74 0
2 7 76 6 75 3 -70 0
2 7 76 6 75 3 -77 0
2 7 76 6 75 3 -72 0
2 7 76 6 75 3 -71 0
2 7 76 6 75 3 -73 0
2 7 76 6 3 68 -74 0
2 7 76 6 3 68 -70 0
2 7 76 6 3 68 -77 0
2 7 76 6 3 68 -72 0
2 7 76 6 3 68 -71 0
2 7 76 6 3 68 -73 0
2 7 35 6 33 3 -32 0
2 7 35 6 33 3 -30 0
2 7 35 6 33 3 -36 0
2 7 35 6 33 3 -34 0
2 7 35 6 33 3 -29 0
2 7 35 6 33 3 -28 0
2 7 35 6 3 37 -32 0
2 7 35 6 3 37 -30 0
2 7 35 6 3 37 -36 0
2 7 35 6 3 37 -34 0
2 7 35 6 3 37 -29 0
2 7 35 6 3 37 -28 0
2 7 18 6 23 3 -21 0
2 7 18 6 23 3 -19 0
2 7 18 6 23 3 -25 0
2 7 18 6 23 3 -22 0
2 7 18 6 23 3 -24 0
2 7 18 6 23 3 -26 0
2 7 90 6 97 3 -91 0
2 7 90 6 97 3 -93 0
2 7 90 6 97 3 -94 0
2 7 90 6 97 3 -92 0
2 7 90 6 97 3 -89 0
2 7 90 6 97 3 -88 0
2 7 6 13 3 11 -12 0
2 7 6 13 3 11 -17 0
2 7 6 13 3 11 -15 0
2 7 6 13 3 11 -16 0
2 7 6 13 3 11 -10 0
2 7 6 13 3 11 -14 0
2 7 6 43 3 45 -44 0
2 7 6 43 3 45 -39 0
2 7 6 43 3 45 -38 0
2 7 6 43 3 45 -47 0
2 7 6 43 3 45 -40 0
2 7 6 43 3 45 -42 0
2 7 6 52 3 49 -54 0
2 7 6 52 3 49 -48 0
2 7 6 52 3 49 -56 0
2 7 6 52 3 49 -51 0
2 7 6 52 3 49 -55 0
2 7 6 52 3 49 -53 0
2 7 6 86 3 80 -85 0
2 7 6 86 3 80 -84 0
2 7 6 86 3 80 -79 0
2 7 6 86 3 80 -87 0
2 7 6 86 3 80 -81 0
2 7 6 86 3 80 -82 0
2 7 6 67 3 62 -58 0
2 7 6 67 3 62 -60 0
2 7 6 67 3 62 -61 0
2 7 6 67 3 62 -64 0
2 7 6 67 3 62 -65 0
2 7 6 67 3 62 -66 0
2 7 6 75 3 68 -74 0
2 7 6 75 3 68 -70 0
2 7 6 75 3 68 -77 0
2 7 6 75 3 68 -72 0
2 7 6 75 3 68 -71 0
2 7 6 75 3 68 -73 0
2 7 6 33 3 37 -32 0
2 7 6 33 3 37 -30 0
2 7 6 33 3 37 -36 0
2 7 6 33 3 37 -34 0
2 7 6 33 3 37 -29 0
2 7 6 33 3 37 -28 0
8 41 9 46 13 43 -114 0
8 41 9 46 13 43 -113 0
8 41 9 46 13 43 -115 0
8 41 9 46 13 43 -117 0
8 41 9 46 13 43 -116 0
8 41 9 46 13 43 -118 0
8 41 9 46 13 11 -114 0
8 41 9 46 13 11 -113 0
8 41 9 46 13 11 -115 0
8 41 9 46 13 11 -117 0
8 41 9 46 13 11 -116 0
8 41 9 46 13 11 -118 0
8 41 9 46 43 45 -114 0
8 41 9 46 43 45 -113 0
8 41 9 46 43 45 -115 0
8 41 9 46 43 45 -117 0
8 41 9 46 43 45 -116 0
8 41 9 46 43 45 -118 0
8 41 9 46 11 45 -114 0
8 41 9 46 11 45 -113 0
8 41 9 46 11 45 -115 0
8 41 9 46 11 45 -117 0
8 41 9 46 11 45 -116 0
8 41 9 46 11 45 -118 0
8 41 9 13 43 11 -114 0
8 41 9 13 43 11 -113 0
8 41 9 13 43 11 -115 0
8 41 9 13 43 11 -117 0
8 41 9 13 43 11 -116 0
8 41 9 13 43 11 -118 0
8 41 9 13 11 45 -114 0
8 41 9 13 11 45 -113 0
8 41 9 13 11 45 -115 0
8 41 9 13 11 45 -117 0
8 41 9 13 11 45 -116 0
8 41 9 13 11 45 -118 0
8 41 46 13 43 45 -114 0
8 41 46 13 43 45 -113 0
8 41 46 13 43 45 -115 0
8 41 46 13 43 45 -117 0
8 41 46 13 43 45 -116 0
8 41 46 13 43 45 -118 0
8 41 46 43 11 45 -114 0
8 41 46 43 11 45 -113 0
8 41 46 43 11 45 -115 0
8 41 46 43 11 45 -117 0
8 41 46 43 11 45 -116 0
8 41 46 43 11 45 -118 0
8 41 13 43 11 45 -114 0
8 41 13 43 11 45 -113 0
8 41 13 43 11 45 -115 0
8 41 13 43 11 45 -117 0
8 41 13 43 11 45 -116 0
8 41 13 43 11 45 -118 0
8 57 9 50 13 52 -124 0
8 57 9 50 13 52 -123 0
8 57 9 50 13 52 -120 0
8 57 9 50 13 52 -121 0
8 57 9 50 13 52 -119 0
8 57 9 50 13 52 -122 0
8 57 9 50 13 11 -124 0
8 57 9 50 13 11 -123 0
8 57 9 50 13 11 -120 0
8 57 9 50 13 11 -121 0
8 57 9 50 13 11 -119 0
8 57 9 50 13 11 -122 0
8 57 9 50 52 49 -124 0
8 57 9 50 52 49 -123 0
8 57 9 50 52 49 -120 0
8 57 9 50 52 49 -121 0
8 57 9 50 52 49 -119 0
8 57 9 50 52 49 -122 0
8 57 9 50 11 49 -124 0
8 57 9 50 11 49 -123 0
8 57 9 50 11 49 -120 0
8 57 9 50 11 49 -121 0
8 57 9 50 11 49 -119 0
8 57 9 50 11 49 -122 0
8 57 9 13 52 11 -124 0
8 57 9 13 52 11 -123 0
8 57 9 13 52 11 -120 0
8 57 9 13 52 11 -121 0
8 57 9 13 52 11 -119 0
8 57 9 13 52 11 -122 0
8 57 9 13 11 49 -124 0
8 57 9 13 11 49 -123 0
8 57 9 13 11 49 -120 0
8 57 9 13 11 49 -121 0
8 57 9 13 11 49 -119 0
8 57 9 13 11 49 -122 0
8 57 50 13 52 49 -124 0
8 57 50 13 52 49 -123 0
8 57 50 13 52 49 -120 0
8 57 50 13 52 49 -121 0
8 57 50 13 52 49 -119 0
8 57 50 13 52 49 -122 0
8 57 50 52 11 49 -124 0
8 57 50 52 11 49 -123 0
8 57 50 52 11 49 -120 0
8 57 50 52 11 49 -121 0
8 57 50 52 11 49 -119 0
8 57 50 52 11 49 -122 0
8 57 13 52 11 49 -124 0
8 57 13 52 11 49 -123 0
8 57 13 52 11 49 -120 0
8 57 13 52 11 49 -121 0
8 57 13 52 11 49 -119 0
8 57 13 52 11 49 -122 0
8 83 9 78 13 86 -139 0
8 83 9 78 13 86 -142 0
8 83 9 78 13 86 -138 0
8 83 9 78 13 86 -140 0
8 83 9 78 13 86 -141 0
8 83 9 78 13 86 -137 0
8 83 9 78 13 11 -139 0
8 83 9 78 13 11 -142 0
8 83 9 78 13 11 -138 0
8 83 9 78 13 11 -140 0
8 83 9 78 13 11 -141 0
8 83 9 78 13 11 -137 0
8 83 9 78 86 80 -139 0
8 83 9 78 86 80 -142 0
8 83 9 78 86 80 -138 0
8 83 9 78 86 80 -140 0
8 83 9 78 86 80 -141 0
8 83 9 78 86 80 -137 0
8 83 9 78 11 80 -139 0
8 83 9 78 11 80 -142 0
8 83 9 78 11 80 -138 0
8 83 9 78 11 80 -140 0
8 83 9 78 11 80 -141 0
8 83 9 78 11 80 -137 0
8 83 9 13 86 11 -139 0
8 83 9 13 86 11 -142 0
8 83 9 13 86 11 -138 0
8 83 9 13 86 11 -140 0
8 83 9 13 86 11 -141 0
8 83 9 13 86 11 -137 0
8 83 9 13 11 80 -139 0
8 83 9 13 11 80 -142 0
8 83 9 13 11 80 -138 0
8 83 9 13 11 80 -140 0
8 83 9 13 11 80 -141 0
8 83 9 13 11 80 -137 0
8 83 78 13 86 80 -139 0
8 83 78 13 86 80 -142 0
8 83 78 13 86 80 -138 0
8 83 78 13 86 80 -140 0
8 83 78 13 86 80 -141 0
8 83 78 13 86 80 -137 0
8 83 78 86 11 80 -139 0
8 83 78 86 11 80 -142 0
8 83 78 86 11 80 -138 0
8 83 78 86 11 80 -140 0
8 83 78 86 11 80 -141 0
8 83 78 86 11 80 -137 0
8 83 13 86 11 80 -139 0
8 83 13 86 11 80 -142 0
8 83 13 86 11 80 -138 0
8 83 13 86 11 80 -140 0
8 83 13 86 11 80 -141 0
8 83 13 86 11 80 -137 0
8 63 9 59 13 67 -127 0
8 63 9 59 13 67 -130 0
8 63 9 59 13 67 -128 0
8 63 9 59 13 67 -125 0
8 63 9 59 13 67 -126 0
8 63 9 59 13 67 -129 0
8 63 9 59 13 11 -127 0
8 63 9 59 13 11 -130 0
8 63 9 59 13 11 -128 0
8 63 9 59 13 11 -125 0
8 63 9 59 13 11 -126 0
8 63 9 59 13 11 -129 0
8 63 9 59 67 62 -127 0
8 63 9 59 67 62 -130 0
8 63 9 59 67 62 -128 0
8 63 9 59 67 62 -125 0
8 63 9 59 67 62 -126 0
8 63 9 59 67 62 -129 0
8 63 9 59 11 62 -127 0
8 63 9 59 11 62 -130 0
8 63 9 59 11 62 -128 0
8 63 9 59 11 62 -125 0
8 63 9 59 11 62 -126 0
8 63 9 59 11 62 -129 0
8 63 9 13 67 11 -127 0
8 63 9 13 67 11 -130 0
8 63 9 13 67 11 -128 0
8 63 9 13 67 11 -125 0
8 63 9 13 67 11 -126 0
8 63 9 13 67 11 -129 0
8 63 9 13 11 62 -127 0
8 63 9 13 11 62 -130 0
8 63 9 13 11 62 -128 0
8 63 9 13 11 62 -125 0
8 63 9 13 11 62 -126 0
8 63 9 13 11 62 -129 0
8 63 59 13 67 62 -127 0
8 63 59 13 67 62 -130 0
8 63 59 13 67 62 -128 0
8 63 59 13 67 62 -125 0
8 63 59 13 67 62 -126 0
8 63 59 13 67 62 -129 0
8 63 59 67 11 62 -127 0
8 63 59 67 11 62 -130 0
8 63 59 67 11 62 -128 0
8 63 59 67 11 62 -125 0
8 63 59 67 11 62 -126 0
8 63 59 67 11 62 -129 0
8 63 13 67 11 62 -127 0
8 63 13 67 11 62 -130 0
8 63 13 67 11 62 -128 0
8 63 13 67 11 62 -125 0
8 63 13 67 11 62 -126 0
8 63 13 67 11 62 -129 0
8 69 9 76 13 75 -136 0
8 69 9 76 13 75 -132 0
8 69 9 76 13 75 -131 0
8 69 9 76 13 75 -133 0
8 69 9 76 13 75 -135 0
8 69 9 76 13 75 -134 0
8 69 9 76 13 11 -136 0
8 69 9 76 13 11 -132 0
8 69 9 76 13 11 -131 0
8 69 9 76 13 11 -133 0
8 69 9 76 13 11 -135 0
8 69 9 76 13 11 -134 0
8 69 9 76 75 68 -136 0
8 69 9 76 75 68 -132 0
8 69 9 76 75 68 -131 0
8 69 9 76 75 68 -133 0
8 69 9 76 75 68 -135 0
8 69 9 76 75 68 -134 0
8 69 9 76 11 68 -136 0
8 69 9 76 11 68 -132 0
8 69 9 76 11 68 -131 0
8 69 9 76 11 68 -133 0
8 69 9 76 11 68 -135 0
8 69 9 76 11 68 -134 0
8 69 9 13 75 11 -136 0
8 69 9 13 75 11 -132 0
8 69 9 13 75 11 -131 0
8 69 9 13 75 11 -133 0
8 69 9 13 75 11 -135 0
8 69 9 13 75 11 -134 0
8 69 9 13 11 68 -136 0
8 69 9 13 11 68 -132 0
8 69 9 13 11 68 -131 0
8 69 9 13 11 68 -133 0
8 69 9 13 11 68 -135 0
8 69 9 13 11 68 -134 0
8 69 76 13 75 68 -136 0
8 69 76 13 75 68 -132 0
8 69 76 13 75 68 -131 0
8 69 76 13 75 68 -133 0
8 69 76 13 75 68 -135 0
8 69 76 13 75 68 -134 0
8 69 76 75 11 68 -136 0
8 69 76 75 11 68 -132 0
8 69 76 75 11 68 -131 0
8 69 76 75 11 68 -133 0
8 69 76 75 11 68 -135 0
8 69 76 75 11 68 -134 0
8 69 13 75 11 68 -136 0
8 69 13 75 11 68 -132 0
8 69 13 75 11 68 -131 0
8 69 13 75 11 68 -133 0
8 69 13 75 11 68 -135 0
8 69 13 75 11 68 -134 0
8 31 9 35 13 33 -107 0
8 31 9 35 13 33 -109 0
8 31 9 35 13 33 -108 0
8 31 9 35 13 33 -110 0
8 31 9 35 13 33 -112 0
8 31 9 35 13 33 -111 0
8 31 9 35 13 11 -107 0
8 31 9 35 13 11 -109 0
8 31 9 35 13 11 -108 0
8 31 9 35 13 11 -110 0
8 31 9 35 13 11 -112 0
8 31 9 35 13 11 -111 0
8 31 9 35 33 37 -107 0
8 31 9 35 33 37 -109 0
8 31 9 35 33 37 -108 0
8 31 9 35 33 37 -110 0
8 31 9 35 33 37 -112 0
8 31 9 35 33 37 -111 0
8 31 9 35 11 37 -107 0
8 31 9 35 11 37 -109 0
8 31 9 35 11 37 -108 0
8 31 9 35 11 37 -110 0
8 31 9 35 11 37 -112 0
8 31 9 35 11 37 -111 0
8 31 9 13 33 11 -107 0
8 31 9 13 33 11 -109 0
8 31 9 13 33 11 -108 0
8 31 9 13 33 11 -110 0
8 31 9 13 33 11 -112 0
8 31 9 13 33 11 -111 0
8 31 9 13 11 37 -107 0
8 31 9 13 11 37 -109 0
8 31 9 13 11 37 -108 0
8 31 9 13 11 37 -110 0
8 31 9 13 11 37 -112 0
8 31 9 13 11 37 -111 0
8 31 35 13 33 37 -107 0
8 31 35 13 33 37 -109 0
8 31 35 13 33 37 -108 0
8 31 35 13 33 37 -110 0
8 31 35 13 33 37 -112 0
8 31 35 13 33 37 -111 0
8 31 35 33 11 37 -107 0
8 31 35 33 11 37 -109 0
8 31 35 33 11 37 -108 0
8 31 35 33 11 37 -110 0
8 31 35 33 11 37 -112 0
8 31 35 33 11 37 -111 0
8 31 13 33 11 37 -107 0
8 31 13 33 11 37 -109 0
8 31 13 33 11 37 -108 0
8 31 13 33 11 37 -110 0
8 31 13 33 11 37 -112 0
8 31 13 33 11 37 -111 0
8 20 9 18 13 11 -103 0
8 20 9 18 13 11 -102 0
8 20 9 18 13 11 -106 0
8 20 9 18 13 11 -105 0
8 20 9 18 13 11 -101 0
8 20 9 18 13 11 -104 0
8 20 9 13 23 11 -103 0
8 20 9 13 23 11 -102 0
8 20 9 13 23 11 -106 0
8 20 9 13 23 11 -105 0
8 20 9 13 23 11 -101 0
8 20 9 13 23 11 -104 0
8 96 9 90 13 11 -146 0
8 96 9 90 13 11 -147 0
8 96 9 90 13 11 -143 0
8 96 9 90 13 11 -148 0
8 96 9 90 13 11 -144 0
8 96 9 90 13 11 -145 0
8 96 9 13 97 11 -146 0
8 96 9 13 97 11 -147 0
8 96 9 13 97 11 -143 0
8 96 9 13 97 11 -148 0
8 96 9 13 97 11 -144 0
8 96 9 13 97 11 -145 0
8 7 9 6 13 11 -12 0
8 7 9 6 13 11 -17 0
8 7 9 6 13 11 -15 0
8 7 9 6 13 11 -16 0
8 7 9 6 13 11 -10 0
8 7 9 6 13 11 -14 0
8 7 9 13 3 11 -12 0
8 7 9 13 3 11 -17 0
8 7 9 13 3 11 -15 0
8 7 9 13 3 11 -16 0
8 7 9 13 3 11 -10 0
8 7 9 13 3 11 -14 0
8 9 46 13 43 11 -114 0
8 9 46 13 43 11 -113 0
8 9 46 13 43 11 -115 0
8 9 46 13 43 11 -117 0
8 9 46 13 43 11 -116 0
8 9 46 13 43 11 -118 0
8 9 46 13 11 45 -114 0
8 9 46 13 11 45 -113 0
8 9 46 13 11 45 -115 0
8 9 46 13 11 45 -117 0
8 9 46 13 11 45 -116 0
8 9 46 13 11 45 -118 0
8 9 50 13 52 11 -124 0
8 9 50 13 52 11 -123 0
8 9 50 13 52 11 -120 0
8 9 50 13 52 11 -121 0
8 9 50 13 52 11 -119 0
8 9 50 13 52 11 -122 0
8 9 50 13 11 49 -124 0
8 9 50 13 11 49 -123 0
8 9 50 13 11 49 -120 0
8 9 50 13 11 49 -121 0
8 9 50 13 11 49 -119 0
8 9 50 13 11 49 -122 0
8 9 78 13 86 11 -139 0
8 9 78 13 86 11 -142 0
8 9 78 13 86 11 -138 0
8 9 78 13 86 11 -140 0
8 9 78 13 86 11 -141 0
8 9 78 13 86 11 -137 0
8 9 78 13 11 80 -139 0
8 9 78 13 11 80 -142 0
8 9 78 13 11 80 -138 0
8 9 78 13 11 80 -140 0
8 9 78 13 11 80 -141 0
8 9 78 13 11 80 -137 0
8 9 59 13 67 11 -127 0
8 9 59 13 67 11 -130 0
8 9 59 13 67 11 -128 0
8 9 59 13 67 11 -125 0
8 9 59 13 67 11 -126 0
8 9 59 13 67 11 -129 0
8 9 59 13 11 62 -127 0
8 9 59 13 11 62 -130 0
8 9 59 13 11 62 -128 0
8 9 59 13 11 62 -125 0
8 9 59 13 11 62 -126 0
8 9 59 13 11 62 -129 0
8 9 76 13 75 11 -136 0
8 9 76 13 75 11 -132 0
8 9 76 13 75 11 -131 0
8 9 76 13 75 11 -133 0
8 9 76 13 75 11 -135 0
8 9 76 13 75 11 -134 0
8 9 76 13 11 68 -136 0
8 9 76 13 11 68 -132 0
8 9 76 13 11 68 -131 0
8 9 76 13 11 68 -133 0
8 9 76 13 11 68 -135 0
8 9 76 13 11 68 -134 0
8 9 35 13 33 11 -107 0
8 9 35 13 33 11 -109 0
8 9 35 13 33 11 -108 0
8 9 35 13 33 11 -110 0
8 9 35 13 33 11 -112 0
8 9 35 13 33 11 -111 0
8 9 35 13 11 37 -107 0
8 9 35 13 11 37 -109 0
8 9 35 13 11 37 -108 0
8 9 35 13 11 37 -110 0
8 9 35 13 11 37 -112 0
8 9 35 13 11 37 -111 0
8 9 18 13 23 11 -103 0
8 9 18 13 23 11 -102 0
8 9 18 13 23 11 -106 0
8 9 18 13 23 11 -105 0
8 9 18 13 23 11 -101 0
8 9 18 13 23 11 -104 0
8 9 90 13 97 11 -146 0
8 9 90 13 97 11 -147 0
8 9 90 13 97 11 -143 0
8 9 90 13 97 11 -148 0
8 9 90 13 97 11 -144 0
8 9 90 13 97 11 -145 0
8 9 6 13 3 11 -12 0
8 9 6 13 3 11 -17 0
8 9 6 13 3 11 -15 0
8 9 6 13 3 11 -16 0
8 9 6 13 3 11 -10 0
8 9 6 13 3 11 -14 0
8 9 13 43 11 45 -114 0
8 9 13 43 11 45 -113 0
8 9 13 43 11 45 -115 0
8 9 13 43 11 45 -117 0
8 9 13 43 11 45 -116 0
8 9 13 43 11 45 -118 0
8 9 13 52 11 49 -124 0
8 9 13 52 11 49 -123 0
8 9 13 52 11 49 -120 0
8 9 13 52 11 49 -121 0
8 9 13 52 11 49 -119 0
8 9 13 52 11 49 -122 0
8 9 13 86 11 80 -139 0
8 9 13 86 11 80 -142 0
8 9 13 86 11 80 -138 0
8 9 13 86 11 80 -140 0
8 9 13 86 11 80 -141 0
8 9 13 86 11 80 -137 0
8 9 13 67 11 62 -127 0
8 9 13 67 11 62 -130 0
8 9 13 67 11 62 -128 0
8 9 13 67 11 62 -125 0
8 9 13 67 11 62 -126 0
8 9 13 67 11 62 -129 0
8 9 13 75 11 68 -136 0
8 9 13 75 11 68 -132 0
8 9 13 75 11 68 -131 0
8 9 13 75 11 68 -133 0
8 9 13 75 11 68 -135 0
8 9 13 75 11 68 -134 0
8 9 13 33 11 37 -107 0
8 9 13 33 11 37 -109 0
8 9 13 33 11 37 -108 0
8 9 13 33 11 37 -110 0
8 9 13 33 11 37 -112 0
8 9 13 33 11 37 -111 0
41 57 46 50 43 52 -237 0
41 57 46 50 43 52 -236 0
41 57 46 50 43 52 -240 0
41 57 46 50 43 52 -238 0
41 57 46 50 43 52 -241 0
41 57 46 50 43 52 -239 0
41 57 46 50 43 45 -237 0
41 57 46 50 43 45 -236 0
41 57 46 50 43 45 -240 0
41 57 46 50 43 45 -238 0
41 57 46 50 43 45 -241 0
41 57 46 50 43 45 -239 0
41 57 46 50 52 49 -237 0
41 57 46 50 52 49 -236 0
41 57 46 50 52 49 -240 0
41 57 46 50 52 49 -238 0
41 57 46 50 52 49 -241 0
41 57 46 50 52 49 -239 0
41 57 46 50 45 49 -237 0
41 57 46 50 45 49 -236 0
41 57 46 50 45 49 -240 0
41 57 46 50 45 49 -238 0
41 57 46 50 45 49 -241 0
41 57 46 50 45 49 -239 0
41 57 46 43 52 45 -237 0
41 57 46 43 52 45 -236 0
41 57 46 43 52 45 -240 0
41 57 46 43 52 45 -238 0
41 57 46 43 52 45 -241 0
41 57 46 43 52 45 -239 0
41 57 46 43 45 49 -237 0
41 57 46 43 45 49 -236 0
41 57 46 43 45 49 -240 0
41 57 46 43 45 49 -238 0
41 57 46 43 45 49 -241 0
41 57 46 43 45 49 -239 0
41 57 50 43 52 49 -237 0
41 57 50 43 52 49 -236 0
41 57 50 43 52 49 -240 0
41 57 50 43 52 49 -238 0
41 57 50 43 52 49 -241 0
41 57 50 43 52 49 -239 0
41 57 50 52 45 49 -237 0
41 57 50 52 45 49 -236 0
41 57 50 52 45 49 -240 0
41 57 50 52 45 49 -238 0
41 57 50 52 45 49 -241 0
41 57 50 52 45 49 -239 0
41 57 43 52 45 49 -237 0
41 57 43 52 45 49 -236 0
41 57 43 52 45 49 -240 0
41 57 43 52 45 49 -238 0
41 57 43 52 45 49 -241 0
41 57 43 52 45 49 -239 0
41 83 46 78 43 86 -255 0
41 83 46 78 43 86 -258 0
41 83 46 78 43 86 -256 0
41 83 46 78 43 86 -259 0
41 83 46 78 43 86 -257 0
41 83 46 78 43 86 -254 0
41 83 46 78 43 45 -255 0
41 83 46 78 43 45 -258 0
41 83 46 78 43 45 -256 0
41 83 46 78 43 45 -259 0
41 83 46 78 43 45 -257 0
41 83 46 78 43 45 -254 0
41 83 46 78 86 80 -255 0
41 83 46 78 86 80 -258 0
41 83 46 78 86 80 -256 0
41 83 46 78 86 80 -259 0
41 83 46 78 86 80 -257 0
41 83 46 78 86 80 -254 0
41 83 46 78 45 80 -255 0
41 83 46 78 45 80 -258 0
41 83 46 78 45 80 -256 0
41 83 46 78 45 80 -259 0
41 83 46 78 45 80 -257 0
41 83 46 78 45 80 -254 0
41 83 46 43 86 45 -255 0
41 83 46 43 86 45 -258 0
41 83 46 43 86 45 -256 0
41 83 46 43 86 45 -259 0
41 83 46 43 86 45 -257 0
41 83 46 43 86 45 -254 0
41 83 46 43 45 80 -255 0
41 83 46 43 45 80 -258 0
41 83 46 43 45 80 -256 0
41 83 46 43 45 80 -259 0
41 83 46 43 45 80 -257 0
41 83 46 43 45 80 -254 0
41 83 78 43 86 80 -255 0
41 83 78 43 86 80 -258 0
41 83 78 43 86 80 -256 0
41 83 78 43 86 80 -259 0
41 83 78 43 86 80 -257 0
41 83 78 43 86 80 -254 0
41 83 78 86 45 80 -255 0
41 83 78 86 45 80 -258 0
41 83 78 86 45 80 -256 0
41 83 78 86 45 80 -259 0
41 83 78 86 45 80 -257 0
41 83 78 86 45 80 -254 0
41 83 43 86 45 80 -255 0
41 83 43 86 45 80 -258 0
41 83 43 86 45 80 -256 0
41 83 43 86 45 80 -259 0
41 83 43 86 45 80 -257 0
41 83 43 86 45 80 -254 0
41 63 46 59 43 67 -242 0
41 63 46 59 43 67 -247 0
41 63 46 59 43 67 -244 0
41 63 46 59 43 67 -245 0
41 63 46 59 43 67 -243 0
41 63 46 59 43 67 -246 0
41 63 46 59 43 45 -242 0
41 63 46 59 43 45 -247 0
41 63 46 59 43 45 -244 0
41 63 46 59 43 45 -245 0
41 63 46 59 43 45 -243 0
41 63 46 59 43 45 -246 0
41 63 46 59 67 62 -242 0
41 63 46 59 67 62 -247 0
41 63 46 59 67 62 -244 0
41 63 46 59 67 62 -245 0
41 63 46 59 67 62 -243 0
41 63 46 59 67 62 -246 0
41 63 46 59 45 62 -242 0
41 63 46 59 45 62 -247 0
41 63 46 59 45 62 -244 0
41 63 46 59 45 62 -245 0
41 63 46 59 45 62 -243 0
41 63 46 59 45 62 -246 0
41 63 46 43 67 45 -242 0
41 63 46 43 67 45 -247 0
41 63 46 43 67 45 -244 0
41 63 46 43 67 45 -245 0
41 63 46 43 67 45 -243 0
41 63 46 43 67 45 -246 0
41 63 46 43 45 62 -242 0
41 63 46 43 45 62 -247 0
41 63 46 43 45 62 -244 0
41 63 46 43 45 62 -245 0
41 63 46 43 45 62 -243 0
41 63 46 43 45 62 -246 0
41 63 59 43 67 62 -242 0
41 63 59 43 67 62 -247 0
41 63 59 43 67 62 -244 0
41 63 59 43 67 62 -245 0
41 63 59 43 67 62 -243 0
41 63 59 43 67 62 -246 0
41 63 59 67 45 62 -242 0
41 63 59 67 45 62 -247 0
41 63 59 67 45 62 -244 0
41 63 59 67 45 62 -245 0
41 63 59 67 45 62 -243 0
41 63 59 67 45 62 -246 0
41 63 43 67 45 62 -242 0
41 63 43 67 45 62 -247 0
41 63 43 67 45 62 -244 0
41 63 43 67 45 62 -245 0
41 63 43 67 45 62 -243 0
41 63 43 67 45 62 -246 0
41 69 46 76 43 75 -252 0
41 69 46 76 43 75 -251 0
41 69 46 76 43 75 -250 0
41 69 46 76 43 75 -248 0
41 69 46 76 43 75 -253 0
41 69 46 76 43 75 -249 0
41 69 46 76 43 45 -252 0
41 69 46 76 43 45 -251 0
41 69 46 76 43 45 -250 0
41 69 46 76 43 45 -248 0
41 69 46 76 43 45 -253 0
41 69 46 76 43 45 -249 0
41 69 46 76 75 68 -252 0
41 69 46 76 75 68 -251 0
41 69 46 76 75 68 -250 0
41 69 46 76 75 68 -248 0
41 69 46 76 75 68 -253 0
41 69 46 76 75 68 -249 0
41 69 46 76 45 68 -252 0
41 69 46 76 45 68 -251 0
41 69 46 76 45 68 -250 0
41 69 46 76 45 68 -248 0
41 69 46 76 45 68 -253 0
41 69 46 76 45 68 -249 0
41 69 46 43 75 45 -252 0
41 69 46 43 75 45 -251 0
41 69 46 43 75 45 -250 0
41 69 46 43 75 45 -248 0
41 69 46 43 75 45 -253 0
41 69 46 43 75 45 -249 0
41 69 46 43 45 68 -252 0
41 69 46 43 45 68 -251 0
41 69 46 43 45 68 -250 0
41 69 46 43 45 68 -248 0
41 69 46 43 45 68 -253 0
41 69 46 43 45 68 -249 0
41 69 76 43 75 68 -252 0
41 69 76 43 75 68 -251 0
41 69 76 43 75 68 -250 0
41 69 76 43 75 68 -248 0
41 69 76 43 75 68 -253 0
41 69 76 43 75 68 -249 0
41 69 76 75 45 68 -252 0
41 69 76 75 45 68 -251 0
41 69 76 75 45 68 -250 0
41 69 76 75 45 68 -248 0
41 69 76 75 45 68 -253 0
41 69 76 75 45 68 -249 0
41 69 43 75 45 68 -252 0
41 69 43 75 45 68 -251 0
41 69 43 75 45 68 -250 0
41 69 43 75 45 68 -248 0
41 69 43 75 45 68 -253 0
41 69 43 75 45 68 -249 0
41 31 46 35 43 33 -198 0
41 31 46 35 43 33 -200 0
41 31 46 35 43 33 -202 0
41 31 46 35 43 33 -197 0
41 31 46 35 43 33 -199 0
41 31 46 35 43 33 -201 0
41 31 46 35 43 45 -198 0
41 31 46 35 43 45 -200 0
41 31 46 35 43 45 -202 0
41 31 46 35 43 45 -197 0
41 31 46 35 43 45 -199 0
41 31 46 35 43 45 -201 0
41 31 46 35 33 37 -198 0
41 31 46 35 33 37 -200 0
41 31 46 35 33 37 -202 0
41 31 46 35 33 37 -197 0
41 31 46 35 33 37 -199 0
41 31 46 35 33 37 -201 0
41 31 46 35 45 37 -198 0
41 31 46 35 45 37 -200 0
41 31 46 35 45 37 -202 0
41 31 46 35 45 37 -197 0
41 31 46 35 45 37 -199 0
41 31 46 35 45 37 -201 0
41 31 46 43 33 45 -198 0
41 31 46 43 33 45 -200 0
41 31 46 43 33 45 -202 0
41 31 46 43 33 45 -197 0
41 31 46 43 33 45 -199 0
41 31 46 43 33 45 -201 0
41 31 46 43 45 37 -198 0
41 31 46 43 45 37 -200 0
41 31 46 43 45 37 -202 0
41 31 46 43 45 37 -197 0
41 31 46 43 45 37 -199 0
41 31 46 43 45 37 -201 0
41 31 35 43 33 37 -198 0
41 31 35 43 33 37 -200 0
41 31 35 43 33 37 -202 0
41 31 35 43 33 37 -197 0
41 31 35 43 33 37 -199 0
41 31 35 43 33 37 -201 0
41 31 35 33 45 37 -198 0
41 31 35 33 45 37 -200 0
41 31 35 33 45 37 -202 0
41 31 35 33 45 37 -197 0
41 31 35 33 45 37 -199 0
41 31 35 33 45 37 -201 0
41 31 43 33 45 37 -198 0
41 31 43 33 45 37 -200 0
41 31 43 33 45 37 -202 0
41 31 43 33 45 37 -197 0
41 31 43 33 45 37 -199 0
41 31 43 33 45 37 -201 0
41 20 46 18 43 45 -158 0
41 20 46 18 43 45 -161 0
41 20 46 18 43 45 -162 0
41 20 46 18 43 45 -159 0
41 20 46 18 43 45 -163 0
41 20 46 18 43 45 -160 0
41 20 46 43 23 45 -158 0
41 20 46 43 23 45 -161 0
41 20 46 43 23 45 -162 0
41 20 46 43 23 45 -159 0
41 20 46 43 23 45 -163 0
41 20 46 43 23 45 -160 0
41 96 46 90 43 45 -261 0
41 96 46 90 43 45 -265 0
41 96 46 90 43 45 -263 0
41 96 46 90 43 45 -260 0
41 96 46 90 43 45 -262 0
41 96 46 90 43 45 -264 0
41 96 46 43 97 45 -261 0
41 96 46 43 97 45 -265 0
41 96 46 43 97 45 -263 0
41 96 46 43 97 45 -260 0
41 96 46 43 97 45 -262 0
41 96 46 43 97 45 -264 0
41 7 46 6 43 45 -44 0
41 7 46 6 43 45 -39 0
41 7 46 6 43 45 -38 0
41 7 46 6 43 45 -47 0
41 7 46 6 43 45 -40 0
41 7 46 6 43 45 -42 0
41 7 46 43 3 45 -44 0
41 7 46 43 3 45 -39 0
41 7 46 43 3 45 -38 0
41 7 46 43 3 45 -47 0
41 7 46 43 3 45 -40 0
41 7 46 43 3 45 -42 0
41 9 46 13 43 45 -114 0
41 9 46 13 43 45 -113 0
41 9 46 13 43 45 -115 0
41 9 46 13 43 45 -117 0
41 9 46 13 43 45 -116 0
41 9 46 13 43 45 -118 0
41 9 46 43 11 45 -114 0
41 9 46 43 11 45 -113 0
41 9 46 43 11 45 -115 0
41 9 46 43 11 45 -117 0
41 9 46 43 11 45 -116 0
41 9 46 43 11 45 -118 0
41 46 50 43 52 45 -237 0
41 46 50 43 52 45 -236 0
41 46 50 43 52 45 -240 0
41 46 50 43 52 45 -238 0
41 46 50 43 52 45 -241 0
41 46 50 43 52 45 -239 0
41 46 50 43 45 49 -237 0
41 46 50 43 45 49 -236 0
41 46 50 43 45 49 -240 0
41 46 50 43 45 49 -238 0
41 46 50 43 45 49 -241 0
41 46 50 43 45 49 -239 0
41 46 78 43 86 45 -255 0
41 46 78 43 86 45 -258 0
41 46 78 43 86 45 -256 0
41 46 78 43 86 45 -259 0
41 46 78 43 86 45 -257 0
41 46 78 43 86 45 -254 0
41 46 78 43 45 80 -255 0
41 46 78 43 45 80 -258 0
41 46 78 43 45 80 -256 0
41 46 78 43 45 80 -259 0
41 46 78 43 45 80 -257 0
41 46 78 43 45 80 -254 0
41 46 59 43 67 45 -242 0
41 46 59 43 67 45 -247 0
41 46 59 43 67 45 -244 0
41 46 59 43 67 45 -245 0
41 46 59 43 67 45 -243 0
41 46 59 43 67 45 -246 0
41 46 59 43 45 62 -242 0
41 46 59 43 45 62 -247 0
41 46 59 43 45 62 -244 0
41 46 59 43 45 62 -245 0
41 46 59 43 45 62 -243 0
41 46 59 43 45 62 -246 0
41 46 76 43 75 45 -252 0
41 46 76 43 75 45 -251 0
41 46 76 43 75 45 -250 0
41 46 76 43 75 45 -248 0
41 46 76 43 75 45 -253 0
41 46 76 43 75 45 -249 0
41 46 76 43 45 68 -252 0
41 46 76 43 45 68 -251 0
41 46 76 43 45 68 -250 0
41 46 76 43 45 68 -248 0
41 46 76 43 45 68 -253 0
41 46 76 43 45 68 -249 0
41 46 35 43 33 45 -198 0
41 46 35 43 33 45 -200 0
41 46 35 43 33 45 -202 0
41 46 35 43 33 45 -197 0
41 46 35 43 33 45 -199 0
41 46 35 43 33 45 -201 0
41 46 35 43 45 37 -198 0
41 46 35 43 45 37 -200 0
41 46 35 43 45 37 -202 0
41 46 35 43 45 37 -197 0
41 46 35 43 45 37 -199 0
41 46 35 43 45 37 -201 0
41 46 18 43 23 45 -158 0
41 46 18 43 23 45 -161 0
41 46 18 43 23 45 -162 0
41 46 18 43 23 45 -159 0
41 46 18 43 23 45 -163 0
41 46 18 43 23 45 -160 0
41 46 90 43 97 45 -261 0
41 46 90 43 97 45 -265 0
41 46 90 43 97 45 -263 0
41 46 90 43 97 45 -260 0
41 46 90 43 97 45 -262 0
41 46 90 43 97 45 -264 0
41 46 6 43 3 45 -44 0
41 46 6 43 3 45 -39 0
41 46 6 43 3 45 -38 0
41 46 6 43 3 45 -47 0
41 46 6 43 3 45 -40 0
41 46 6 43 3 45 -42 0
41 46 13 43 11 45 -114 0
41 46 13 43 11 45 -113 0
41 46 13 43 11 45 -115 0
41 46 13 43 11 45 -117 0
41 46 13 43 11 45 -116 0
41 46 13 43 11 45 -118 0
41 46 43 52 45 49 -237 0
41 46 43 52 45 49 -236 0
41 46 43 52 45 49 -240 0
41 46 43 52 45 49 -238 0
41 46 43 52 45 49 -241 0
41 46 43 52 45 49 -239 0
41 46 43 86 45 80 -255 0
41 46 43 86 45 80 -258 0
41 46 43 86 45 80 -256 0
41 46 43 86 45 80 -259 0
41 46 43 86 45 80 -257 0
41 46 43 86 45 80 -254 0
41 46 43 67 45 62 -242 0
41 46 43 67 45 62 -247 0
41 46 43 67 45 62 -244 0
41 46 43 67 45 62 -245 0
41 46 43 67 45 62 -243 0
41 46 43 67 45 62 -246 0
41 46 43 75 45 68 -252 0
41 46 43 75 45 68 -251 0
41 46 43 75 45 68 -250 0
41 46 43 75 45 68 -248 0
41 46 43 75 45 68 -253 0
41 46 43 75 45 68 -249 0
41 46 43 33 45 37 -198 0
41 46 43 33 45 37 -200 0
41 46 43 33 45 37 -202 0
41 46 43 33 45 37 -197 0
41 46 43 33 45 37 -199 0
41 46 43 33 45 37 -201 0
57 83 50 78 52 86 -284 0
57 83 50 78 52 86 -282 0
57 83 50 78 52 86 -281 0
57 83 50 78 52 86 -283 0
57 83 50 78 52 86 -286 0
57 83 50 78 52 86 -285 0
57 83 50 78 52 49 -284 0
57 83 50 78 52 49 -282 0
57 83 50 78 52 49 -281 0
57 83 50 78 52 49 -283 0
57 83 50 78 52 49 -286 0
57 83 50 78 52 49 -285 0
57 83 50 78 86 80 -284 0
57 83 50 78 86 80 -282 0
57 83 50 78 86 80 -281 0
57 83 50 78 86 80 -283 0
57 83 50 78 86 80 -286 0
57 83 50 78 86 80 -285 0
57 83 50 78 49 80 -284 0
57 83 50 78 49 80 -282 0
57 83 50 78 49 80 -281 0
57 83 50 78 49 80 -283 0
57 83 50 78 49 80 -286 0
57 83 50 78 49 80 -285 0
57 83 50 52 86 49 -284 0
57 83 50 52 86 49 -282 0
57 83 50 52 86 49 -281 0
57 83 50 52 86 49 -283 0
57 83 50 52 86 49 -286 0
57 83 50 52 86 49 -285 0
57 83 50 52 49 80 -284 0
57 83 50 52 49 80 -282 0
57 83 50 52 49 80 -281 0
57 83 50 52 49 80 -283 0
57 83 50 52 49 80 -286 0
57 83 50 52 49 80 -285 0
57 83 78 52 86 80 -284 0
57 83 78 52 86 80 -282 0
57 83 78 52 86 80 -281 0
57 83 78 52 86 80 -283 0
57 83 78 52 86 80 -286 0
57 83 78 52 86 80 -285 0
57 83 78 86 49 80 -284 0
57 83 78 86 49 80 -282 0
57 83 78 86 49 80 -281 0
57 83 78 86 49 80 -283 0
57 83 78 86 49 80 -286 0
57 83 78 86 49 80 -285 0
57 83 52 86 49 80 -284 0
57 83 52 86 49 80 -282 0
57 83 52 86 49 80 -281 0
57 83 52 86 49 80 -283 0
57 83 52 86 49 80 -286 0
57 83 52 86 49 80 -285 0
57 63 50 59 52 67 -270 0
57 63 50 59 52 67 -269 0
57 63 50 59 52 67 -271 0
57 63 50 59 52 67 -272 0
57 63 50 59 52 67 -273 0
57 63 50 59 52 67 -274 0
57 63 50 59 52 49 -270 0
57 63 50 59 52 49 -269 0
57 63 50 59 52 49 -271 0
57 63 50 59 52 49 -272 0
57 63 50 59 52 49 -273 0
57 63 50 59 52 49 -274 0
57 63 50 59 67 62 -270 0
57 63 50 59 67 62 -269 0
57 63 50 59 67 62 -271 0
57 63 50 59 67 62 -272 0
57 63 50 59 67 62 -273 0
57 63 50 59 67 62 -274 0
57 63 50 59 49 62 -270 0
57 63 50 59 49 62 -269 0
57 63 50 59 49 62 -271 0
57 63 50 59 49 62 -272 0
57 63 50 59 49 62 -273 0
57 63 50 59 49 62 -274 0
57 63 50 52 67 49 -270 0
57 63 50 52 67 49 -269 0
57 63 50 52 67 49 -271 0
57 63 50 52 67 49 -272 0
57 63 50 52 67 49 -273 0
57 63 50 52 67 49 -274 0
57 63 50 52 49 62 -270 0
57 63 50 52 49 62 -269 0
57 63 50 52 49 62 -271 0
57 63 50 52 49 62 -272 0
57 63 50 52 49 62 -273 0
57 63 50 52 49 62 -274 0
57 63 59 52 67 62 -270 0
57 63 59 52 67 62 -269 0
57 63 59 52 67 62 -271 0
57 63 59 52 67 62 -272 0
57 63 59 52 67 62 -273 0
57 63 59 52 67 62 -274 0
57 63 59 67 49 62 -270 0
57 63 59 67 49 62 -269 0
57 63 59 67 49 62 -271 0
57 63 59 67 49 62 -272 0
57 63 59 67 49 62 -273 0
57 63 59 67 49 62 -274 0
57 63 52 67 49 62 -270 0
57 63 52 67 49 62 -269 0
57 63 52 67 49 62 -271 0
57 63 52 67 49 62 -272 0
57 63 52 67 49 62 -273 0
57 63 52 67 49 62 -274 0
57 69 50 76 52 75 -277 0
57 69 50 76 52 75 -278 0
57 69 50 76 52 75 -280 0
57 69 50 76 52 75 -279 0
57 69 50 76 52 75 -276 0
57 69 50 76 52 75 -275 0
57 69 50 76 52 49 -277 0
57 69 50 76 52 49 -278 0
57 69 50 76 52 49 -280 0
57 69 50 76 52 49 -279 0
57 69 50 76 52 49 -276 0
57 69 50 76 52 49 -275 0
57 69 50 76 75 68 -277 0
57 69 50 76 75 68 -278 0
57 69 50 76 75 68 -280 0
57 69 50 76 75 68 -279 0
57 69 50 76 75 68 -276 0
57 69 50 76 75 68 -275 0
57 69 50 76 49 68 -277 0
57 69 50 76 49 68 -278 0
57 69 50 76 49 68 -280 0
57 69 50 76 49 68 -279 0
57 69 50 76 49 68 -276 0
57 69 50 76 49 68 -275 0
57 69 50 52 75 49 -277 0
57 69 50 52 75 49 -278 0
57 69 50 52 75 49 -280 0
57 69 50 52 75 49 -279 0
57 69 50 52 75 49 -276 0
57 69 50 52 75 49 -275 0
57 69 50 52 49 68 -277 0
57 69 50 52 49 68 -278 0
57 69 50 52 49 68 -280 0
57 69 50 52 49 68 -279 0
57 69 50 52 49 68 -276 0
57 69 50 52 49 68 -275 0
57 69 76 52 75 68 -277 0
57 69 76 52 75 68 -278 0
57 69 76 52 75 68 -280 0
57 69 76 52 75 68 -279 0
57 69 76 52 75 68 -276 0
57 69 76 52 75 68 -275 0
57 69 76 75 49 68 -277 0
57 69 76 75 49 68 -278 0
57 69 76 75 49 68 -280 0
57 69 76 75 49 68 -279 0
57 69 76 75 49 68 -276 0
57 69 76 75 49 68 -275 0
57 69 52 75 49 68 -277 0
57 69 52 75 49 68 -278 0
57 69 52 75 49 68 -280 0
57 69 52 75 49 68 -279 0
57 69 52 75 49 68 -276 0
57 69 52 75 49 68 -275 0
57 31 50 35 52 33 -206 0
57 31 50 35 52 33 -204 0
57 31 50 35 52 33 -208 0
57 31 50 35 52 33 -203 0
57 31 50 35 52 33 -205 0
57 31 50 35 52 33 -207 0
57 31 50 35 52 49 -206 0
57 31 50 35 52 49 -204 0
57 31 50 35 52 49 -208 0
57 31 50 35 52 49 -203 0
57 31 50 35 52 49 -205 0
57 31 50 35 52 49 -207 0
57 31 50 35 33 37 -206 0
57 31 50 35 33 37 -204 0
57 31 50 35 33 37 -208 0
57 31 50 35 33 37 -203 0
57 31 50 35 33 37 -205 0
57 31 50 35 33 37 -207 0
57 31 50 35 49 37 -206 0
57 31 50 35 49 37 -204 0
57 31 50 35 49 37 -208 0
57 31 50 35 49 37 -203 0
57 31 50 35 49 37 -205 0
57 31 50 35 49 37 -207 0
57 31 50 52 33 49 -206 0
57 31 50 52 33 49 -204 0
57 31 50 52 33 49 -208 0
57 31 50 52 33 49 -203 0
57 31 50 52 33 49 -205 0
57 31 50 52 33 49 -207 0
57 31 50 52 49 37 -206 0
57 31 50 52 49 37 -204 0
57 31 50 52 49 37 -208 0
57 31 50 52 49 37 -203 0
57 31 50 52 49 37 -205 0
57 31 50 52 49 37 -207 0
57 31 35 52 33 37 -206 0
57 31 35 52 33 37 -204 0
57 31 35 52 33 37 -208 0
57 31 35 52 33 37 -203 0
57 31 35 52 33 37 -205 0
57 31 35 52 33 37 -207 0
57 31 35 33 49 37 -206 0
57 31 35 33 49 37 -204 0
57 31 35 33 49 37 -208 0
57 31 35 33 49 37 -203 0
57 31 35 33 49 37 -205 0
57 31 35 33 49 37 -207 0
57 31 52 33 49 37 -206 0
57 31 52 33 49 37 -204 0
57 31 52 33 49 37 -208 0
57 31 52 33 49 37 -203 0
57 31 52 33 49 37 -205 0
57 31 52 33 49 37 -207 0
57 20 50 18 52 49 -165 0
57 20 50 18 52 49 -164 0
57 20 50 18 52 49 -166 0
57 20 50 18 52 49 -167 0
57 20 50 18 52 49 -168 0
57 20 50 18 52 49 -169 0
57 20 50 52 23 49 -165 0
57 20 50 52 23 49 -164 0
57 20 50 52 23 49 -166 0
57 20 50 52 23 49 -167 0
57 20 50 52 23 49 -168 0
57 20 50 52 23 49 -169 0
57 96 50 90 52 49 -292 0
57 96 50 90 52 49 -290 0
57 96 50 90 52 49 -287 0
57 96 50 90 52 49 -289 0
57 96 50 90 52 49 -288 0
57 96 50 90 52 49 -291 0
57 96 50 52 97 49 -292 0
57 96 50 52 97 49 -290 0
57 96 50 52 97 49 -287 0
57 96 50 52 97 49 -289 0
57 96 50 52 97 49 -288 0
57 96 50 52 97 49 -291 0
57 7 50 6 52 49 -54 0
57 7 50 6 52 49 -48 0
57 7 50 6 52 49 -56 0
57 7 50 6 52 49 -51 0
57 7 50 6 52 49 -55 0
57 7 50 6 52 49 -53 0
57 7 50 52 3 49 -54 0
57 7 50 52 3 49 -48 0
57 7 50 52 3 49 -56 0
57 7 50 52 3 49 -51 0
57 7 50 52 3 49 -55 0
57 7 50 52 3 49 -53 0
57 9 50 13 52 49 -124 0
57 9 50 13 52 49 -123 0
57 9 50 13 52 49 -120 0
57 9 50 13 52 49 -121 0
57 9 50 13 52 49 -119 0
57 9 50 13 52 49 -122 0
57 9 50 52 11 49 -124 0
57 9 50 52 11 49 -123 0
57 9 50 52 11 49 -120 0
57 9 50 52 11 49 -121 0
57 9 50 52 11 49 -119 0
57 9 50 52 11 49 -122 0
57 46 50 43 52 49 -237 0
57 46 50 43 52 49 -236 0
57 46 50 43 52 49 -240 0
57 46 50 43 52 49 -238 0
57 46 50 43 52 49 -241 0
57 46 50 43 52 49 -239 0
57 46 50 52 45 49 -237 0
57 46 50 52 45 49 -236 0
57 46 50 52 45 49 -240 0
57 46 50 52 45 49 -238 0
57 46 50 52 45 49 -241 0
57 46 50 52 45 49 -239 0
57 50 78 52 86 49 -284 0
57 50 78 52 86 49 -282 0
57 50 78 52 86 49 -281 0
57 50 78 52 86 49 -283 0
57 50 78 52 86 49 -286 0
57 50 78 52 86 49 -285 0
57 50 78 52 49 80 -284 0
57 50 78 52 49 80 -282 0
57 50 78 52 49 80 -281 0
57 50 78 52 49 80 -283 0
57 50 78 52 49 80 -286 0
57 50 78 52 49 80 -285 0
57 50 59 52 67 49 -270 0
57 50 59 52 67 49 -269 0
57 50 59 52 67 49 -271 0
57 50 59 52 67 49 -272 0
57 50 59 52 67 49 -273 0
57 50 59 52 67 49 -274 0
57 50 59 52 49 62 -270 0
57 50 59 52 49 62 -269 0
57 50 59 52 49 62 -271 0
57 50 59 52 49 62 -272 0
57 50 59 52 49 62 -273 0
57 50 59 52 49 62 -274 0
57 50 76 52 75 49 -277 0
57 50 76 52 75 49 -278 0
57 50 76 52 75 49 -280 0
57 50 76 52 75 49 -279 0
57 50 76 52 75 49 -276 0
57 50 76 52 75 49 -275 0
57 50 76 52 49 68 -277 0
57 50 76 52 49 68 -278 0
57 50 76 52 49 68 -280 0
57 50 76 52 49 68 -279 0
57 50 76 52 49 68 -276 0
57 50 76 52 49 68 -275 0
57 50 35 52 33 49 -206 0
57 50 35 52 33 49 -204 0
57 50 35 52 33 49 -208 0
57 50 35 52 33 49 -203 0
57 50 35 52 33 49 -205 0
57 50 35 52 33 49 -207 0
57 50 35 52 49 37 -206 0
57 50 35 52 49 37 -204 0
57 50 35 52 49 37 -208 0
57 50 35 52 49 37 -203 0
57 50 35 52 49 37 -205 0
57 50 35 52 49 37 -207 0
57 50 18 52 23 49 -165 0
57 50 18 52 23 49 -164 0
57 50 18 52 23 49 -166 0
57 50 18 52 23 49 -167 0
57 50 18 52 23 49 -168 0
57 50 18 52 23 49 -169 0
57 50 90 52 97 49 -292 0
57 50 90 52 97 49 -290 0
57 50 90 52 97 49 -287 0
57 50 90 52 97 49 -289 0
57 50 90 52 97 49 -288 0
57 50 90 52 97 49 -291 0
57 50 6 52 3 49 -54 0
57 50 6 52 3 49 -48 0
57 50 6 52 3 49 -56 0
57 50 6 52 3 49 -51 0
57 50 6 52 3 49 -55 0
57 50 6 52 3 49 -53 0
57 50 13 52 11 49 -124 0
57 50 13 52 11 49 -123 0
57 50 13 52 11 49 -120 0
57 50 13 52 11 49 -121 0
57 50 13 52 11 49 -119 0
57 50 13 52 11 49 -122 0
57 50 43 52 45 49 -237 0
57 50 43 52 45 49 -236 0
57 50 43 52 45 49 -240 0
57 50 43 52 45 49 -238 0
57 50 43 52 45 49 -241 0
57 50 43 52 45 49 -239 0
57 50 52 86 49 80 -284 0
57 50 52 86 49 80 -282 0
57 50 52 86 49 80 -281 0
57 50 52 86 49 80 -283 0
57 50 52 86 49 80 -286 0
57 50 52 86 49 80 -285 0
57 50 52 67 49 62 -270 0
57 50 52 67 49 62 -269 0
57 50 52 67 49 62 -271 0
57 50 52 67 49 62 -272 0
57 50 52 67 49 62 -273 0
57 50 52 67 49 62 -274 0
57 50 52 75 49 68 -277 0
57 50 52 75 49 68 -278 0
57 50 52 75 49 68 -280 0
57 50 52 75 49 68 -279 0
57 50 52 75 49 68 -276 0
57 50 52 75 49 68 -275 0
57 50 52 33 49 37 -206 0
57 50 52 33 49 37 -204 0
57 50 52 33 49 37 -208 0
57 50 52 33 49 37 -203 0
57 50 52 33 49 37 -205 0
57 50 52 33 49 37 -207 0
83 63 78 59 86 67 -307 0
83 63 78 59 86 67 -305 0
83 63 78 59 86 67 -303 0
83 63 78 59 86 67 -306 0
83 63 78 59 86 67 -304 0
83 63 78 59 86 67 -302 0
83 63 78 59 86 80 -307 0
83 63 78 59 86 80 -305 0
83 63 78 59 86 80 -303 0
83 63 78 59 86 80 -306 0
83 63 78 59 86 80 -304 0
83 63 78 59 86 80 -302 0
83 63 78 59 67 62 -307 0
83 63 78 59 67 62 -305 0
83 63 78 59 67 62 -303 0
83 63 78 59 67 62 -306 0
83 63 78 59 67 62 -304 0
83 63 78 59 67 62 -302 0
83 63 78 59 80 62 -307 0
83 63 78 59 80 62 -305 0
83 63 78 59 80 62 -303 0
83 63 78 59 80 62 -306 0
83 63 78 59 80 62 -304 0
83 63 78 59 80 62 -302 0
83 63 78 86 67 80 -307 0
83 63 78 86 67 80 -305 0
83 63 78 86 67 80 -303 0
83 63 78 86 67 80 -306 0
83 63 78 86 67 80 -304 0
83 63 78 86 67 80 -302 0
83 63 78 86 80 62 -307 0
83 63 78 86 80 62 -305 0
83 63 78 86 80 62 -303 0
83 63 78 86 80 62 -306 0
83 63 78 86 80 62 -304 0
83 63 78 86 80 62 -302 0
83 63 59 86 67 62 -307 0
83 63 59 86 67 62 -305 0
83 63 59 86 67 62 -303 0
83 63 59 86 67 62 -306 0
83 63 59 86 67 62 -304 0
83 63 59 86 67 62 -302 0
83 63 59 67 80 62 -307 0
83 63 59 67 80 62 -305 0
83 63 59 67 80 62 -303 0
83 63 59 67 80 62 -306 0
83 63 59 67 80 62 -304 0
83 63 59 67 80 62 -302 0
83 63 86 67 80 62 -307 0
83 63 86 67 80 62 -305 0
83 63 86 67 80 62 -303 0
83 63 86 67 80 62 -306 0
83 63 86 67 80 62 -304 0
83 63 86 67 80 62 -302 0
83 69 78 76 86 75 -317 0
83 69 78 76 86 75 -319 0
83 69 78 76 86 75 -318 0
83 69 78 76 86 75 -322 0
83 69 78 76 86 75 -320 0
83 69 78 76 86 75 -321 0
83 69 78 76 86 80 -317 0
83 69 78 76 86 80 -319 0
83 69 78 76 86 80 -318 0
83 69 78 76 86 80 -322 0
83 69 78 76 86 80 -320 0
83 69 78 76 86 80 -321 0
83 69 78 76 75 68 -317 0
83 69 78 76 75 68 -319 0
83 69 78 76 75 68 -318 0
83 69 78 76 75 68 -322 0
83 69 78 76 75 68 -320 0
83 69 78 76 75 68 -321 0
83 69 78 76 80 68 -317 0
83 69 78 76 80 68 -319 0
83 69 78 76 80 68 -318 0
83 69 78 76 80 68 -322 0
83 69 78 76 80 68 -320 0
83 69 78 76 80 68 -321 0
83 69 78 86 75 80 -317 0
83 69 78 86 75 80 -319 0
83 69 78 86 75 80 -318 0
83 69 78 86 75 80 -322 0
83 69 78 86 75 80 -320 0
83 69 78 86 75 80 -321 0
83 69 78 86 80 68 -317 0
83 69 78 86 80 68 -319 0
83 69 78 86 80 68 -318 0
83 69 78 86 80 68 -322 0
83 69 78 86 80 68 -320 0
83 69 78 86 80 68 -321 0
83 69 76 86 75 68 -317 0
83 69 76 86 75 68 -319 0
83 69 76 86 75 68 -318 0
83 69 76 86 75 68 -322 0
83 69 76 86 75 68 -320 0
83 69 76 86 75 68 -321 0
83 69 76 75 80 68 -317 0
83 69 76 75 80 68 -319 0
83 69 76 75 80 68 -318 0
83 69 76 75 80 68 -322 0
83 69 76 75 80 68 -320 0
83 69 76 75 80 68 -321 0
83 69 86 75 80 68 -317 0
83 69 86 75 80 68 -319 0
83 69 86 75 80 68 -318 0
83 69 86 75 80 68 -322 0
83 69 86 75 80 68 -320 0
83 69 86 75 80 68 -321 0
83 31 78 35 86 33 -223 0
83 31 78 35 86 33 -224 0
83 31 78 35 86 33 -222 0
83 31 78 35 86 33 -226 0
83 31 78 35 86 33 -225 0
83 31 78 35 86 33 -221 0
83 31 78 35 86 80 -223 0
83 31 78 35 86 80 -224 0
83 31 78 35 86 80 -222 0
83 31 78 35 86 80 -226 0
83 31 78 35 86 80 -225 0
83 31 78 35 86 80 -221 0
83 31 78 35 33 37 -223 0
83 31 78 35 33 37 -224 0
83 31 78 35 33 37 -222 0
83 31 78 35 33 37 -226 0
83 31 78 35 33 37 -225 0
83 31 78 35 33 37 -221 0
83 31 78 35 80 37 -223 0
83 31 78 35 80 37 -224 0
83 31 78 35 80 37 -222 0
83 31 78 35 80 37 -226 0
83 31 78 35 80 37 -225 0
83 31 78 35 80 37 -221 0
83 31 78 86 33 80 -223 0
83 31 78 86 33 80 -224 0
83 31 78 86 33 80 -222 0
83 31 78 86 33 80 -226 0
83 31 78 86 33 80 -225 0
83 31 78 86 33 80 -221 0
83 31 78 86 80 37 -223 0
83 31 78 86 80 37 -224 0
83 31 78 86 80 37 -222 0
83 31 78 86 80 37 -226 0
83 31 78 86 80 37 -225 0
83 31 78 86 80 37 -221 0
83 31 35 86 33 37 -223 0
83 31 35 86 33 37 -224 0
83 31 35 86 33 37 -222 0
83 31 35 86 33 37 -226 0
83 31 35 86 33 37 -225 0
83 31 35 86 33 37 -221 0
83 31 35 33 80 37 -223 0
83 31 35 33 80 37 -224 0
83 31 35 33 80 37 -222 0
83 31 35 33 80 37 -226 0
83 31 35 33 80 37 -225 0
83 31 35 33 80 37 -221 0
83 31 86 33 80 37 -223 0
83 31 86 33 80 37 -224 0
83 31 86 33 80 37 -222 0
83 31 86 33 80 37 -226 0
83 31 86 33 80 37 -225 0
83 31 86 33 80 37 -221 0
83 20 78 18 86 80 -186 0
83 20 78 18 86 80 -187 0
83 20 78 18 86 80 -183 0
83 20 78 18 86 80 -184 0
83 20 78 18 86 80 -182 0
83 20 78 18 86 80 -185 0
83 20 78 86 23 80 -186 0
83 20 78 86 23 80 -187 0
83 20 78 86 23 80 -183 0
83 20 78 86 23 80 -184 0
83 20 78 86 23 80 -182 0
83 20 78 86 23 80 -185 0
83 96 78 90 86 80 -337 0
83 96 78 90 86 80 -334 0
83 96 78 90 86 80 -332 0
83 96 78 90 86 80 -335 0
83 96 78 90 86 80 -336 0
83 96 78 90 86 80 -333 0
83 96 78 86 97 80 -337 0
83 96 78 86 97 80 -334 0
83 96 78 86 97 80 -332 0
83 96 78 86 97 80 -335 0
83 96 78 86 97 80 -336 0
83 96 78 86 97 80 -333 0
83 7 78 6 86 80 -85 0
83 7 78 6 86 80 -84 0
83 7 78 6 86 80 -79 0
83 7 78 6 86 80 -87 0
83 7 78 6 86 80 -81 0
83 7 78 6 86 80 -82 0
83 7 78 86 3 80 -85 0
83 7 78 86 3 80 -84 0
83 7 78 86 3 80 -79 0
83 7 78 86 3 80 -87 0
83 7 78 86 3 80 -81 0
83 7 78 86 3 80 -82 0
83 9 78 13 86 80 -139 0
83 9 78 13 86 80 -142 0
83 9 78 13 86 80 -138 0
83 9 78 13 86 80 -140 0
83 9 78 13 86 80 -141 0
83 9 78 13 86 80 -137 0
83 9 78 86 11 80 -139 0
83 9 78 86 11 80 -142 0
83 9 78 86 11 80 -138 0
83 9 78 86 11 80 -140 0
83 9 78 86 11 80 -141 0
83 9 78 86 11 80 -137 0
83 46 78 43 86 80 -255 0
83 46 78 43 86 80 -258 0
83 46 78 43 86 80 -256 0
83 46 78 43 86 80 -259 0
83 46 78 43 86 80 -257 0
83 46 78 43 86 80 -254 0
83 46 78 86 45 80 -255 0
83 46 78 86 45 80 -258 0
83 46 78 86 45 80 -256 0
83 46 78 86 45 80 -259 0
83 46 78 86 45 80 -257 0
83 46 78 86 45 80 -254 0
83 50 78 52 86 80 -284 0
83 50 78 52 86 80 -282 0
83 50 78 52 86 80 -281 0
83 50 78 52 86 80 -283 0
83 50 78 52 86 80 -286 0
83 50 78 52 86 80 -285 0
83 50 78 86 49 80 -284 0
83 50 78 86 49 80 -282 0
83 50 78 86 49 80 -281 0
83 50 78 86 49 80 -283 0
83 50 78 86 49 80 -286 0
83 50 78 86 49 80 -285 0
83 78 59 86 67 80 -307 0
83 78 59 86 67 80 -305 0
83 78 59 86 67 80 -303 0
83 78 59 86 67 80 -306 0
83 78 59 86 67 80 -304 0
83 78 59 86 67 80 -302 0
83 78 59 86 80 62 -307 0
83 78 59 86 80 62 -305 0
83 78 59 86 80 62 -303 0
83 78 59 86 80 62 -306 0
83 78 59 86 80 62 -304 0
83 78 59 86 80 62 -302 0
83 78 76 86 75 80 -317 0
83 78 76 86 75 80 -319 0
83 78 76 86 75 80 -318 0
83 78 76 86 75 80 -322 0
83 78 76 86 75 80 -320 0
83 78 76 86 75 80 -321 0
83 78 76 86 80 68 -317 0
83 78 76 86 80 68 -319 0
83 78 76 86 80 68 -318 0
83 78 76 86 80 68 -322 0
83 78 76 86 80 68 -320 0
83 78 76 86 80 68 -321 0
83 78 35 86 33 80 -223 0
83 78 35 86 33 80 -224 0
83 78 35 86 33 80 -222 0
83 78 35 86 33 80 -226 0
83 78 35 86 33 80 -225 0
83 78 35 86 33 80 -221 0
83 78 35 86 80 37 -223 0
83 78 35 86 80 37 -224 0
83 78 35 86 80 37 -222 0
83 78 35 86 80 37 -226 0
83 78 35 86 80 37 -225 0
83 78 35 86 80 37 -221 0
83 78 18 86 23 80 -186 0
83 78 18 86 23 80 -187 0
83 78 18 86 23 80 -183 0
83 78 18 86 23 80 -184 0
83 78 18 86 23 80 -182 0
83 78 18 86 23 80 -185 0
83 78 90 86 97 80 -337 0
83 78 90 86 97 80 -334 0
83 78 90 86 97 80 -332 0
83 78 90 86 97 80 -335 0
83 78 90 86 97 80 -336 0
83 78 90 86 97 80 -333 0
83 78 6 86 3 80 -85 0
83 78 6 86 3 80 -84 0
83 78 6 86 3 80 -79 0
83 78 6 86 3 80 -87 0
83 78 6 86 3 80 -81 0
83 78 6 86 3 80 -82 0
83 78 13 86 11 80 -139 0
83 78 13 86 11 80 -142 0
83 78 13 86 11 80 -138 0
83 78 13 86 11 80 -140 0
83 78 13 86 11 80 -141 0
83 78 13 86 11 80 -137 0
83 78 43 86 45 80 -255 0
83 78 43 86 45 80 -258 0
83 78 43 86 45 80 -256 0
83 78 43 86 45 80 -259 0
83 78 43 86 45 80 -257 0
83 78 43 86 45 80 -254 0
83 78 52 86 49 80 -284 0
83 78 52 86 49 80 -282 0
83 78 52 86 49 80 -281 0
83 78 52 86 49 80 -283 0
83 78 52 86 49 80 -286 0
83 78 52 86 49 80 -285 0
83 78 86 67 80 62 -307 0
83 78 86 67 80 62 -305 0
83 78 86 67 80 62 -303 0
83 78 86 67 80 62 -306 0
83 78 86 67 80 62 -304 0
83 78 86 67 80 62 -302 0
83 78 86 75 80 68 -317 0
83 78 86 75 80 68 -319 0
83 78 86 75 80 68 -318 0
83 78 86 75 80 68 -322 0
83 78 86 75 80 68 -320 0
83 78 86 75 80 68 -321 0
83 78 86 33 80 37 -223 0
83 78 86 33 80 37 -224 0
83 78 86 33 80 37 -222 0
83 78 86 33 80 37 -226 0
83 78 86 33 80 37 -225 0
83 78 86 33 80 37 -221 0
63 69 59 76 67 75 -300 0
63 69 59 76 67 75 -296 0
63 69 59 76 67 75 -297 0
63 69 59 76 67 75 -298 0
63 69 59 76 67 75 -299 0
63 69 59 76 67 75 -301 0
63 69 59 76 67 62 -300 0
63 69 59 76 67 62 -296 0
63 69 59 76 67 62 -297 0
63 69 59 76 67 62 -298 0
63 69 59 76 67 62 -299 0
63 69 59 76 67 62 -301 0
63 69 59 76 75 68 -300 0
63 69 59 76 75 68 -296 0
63 69 59 76 75 68 -297 0
63 69 59 76 75 68 -298 0
63 69 59 76 75 68 -299 0
63 69 59 76 75 68 -301 0
63 69 59 76 62 68 -300 0
63 69 59 76 62 68 -296 0
63 69 59 76 62 68 -297 0
63 69 59 76 62 68 -298 0
63 69 59 76 62 68 -299 0
63 69 59 76 62 68 -301 0
63 69 59 67 75 62 -300 0
63 69 59 67 75 62 -296 0
63 69 59 67 75 62 -297 0
63 69 59 67 75 62 -298 0
63 69 59 67 75 62 -299 0
63 69 59 67 75 62 -301 0
63 69 59 67 62 68 -300 0
63 69 59 67 62 68 -296 0
63 69 59 67 62 68 -297 0
63 69 59 67 62 68 -298 0
63 69 59 67 62 68 -299 0
63 69 59 67 62 68 -301 0
63 69 76 67 75 68 -300 0
63 69 76 67 75 68 -296 0
63 69 76 67 75 68 -297 0
63 69 76 67 75 68 -298 0
63 69 76 67 75 68 -299 0
63 69 76 67 75 68 -301 0
63 69 76 75 62 68 -300 0
63 69 76 75 62 68 -296 0
63 69 76 75 62 68 -297 0
63 69 76 75 62 68 -298 0
63 69 76 75 62 68 -299 0
63 69 76 75 62 68 -301 0
63 69 67 75 62 68 -300 0
63 69 67 75 62 68 -296 0
63 69 67 75 62 68 -297 0
63 69 67 75 62 68 -298 0
63 69 67 75 62 68 -299 0
63 69 67 75 62 68 -301 0
63 31 59 35 67 33 -210 0
63 31 59 35 67 33 -212 0
63 31 59 35 67 33 -209 0
63 31 59 35 67 33 -213 0
63 31 59 35 67 33 -214 0
63 31 59 35 67 33 -211 0
63 31 59 35 67 62 -210 0
63 31 59 35 67 62 -212 0
63 31 59 35 67 62 -209 0
63 31 59 35 67 62 -213 0
63 31 59 35 67 62 -214 0
63 31 59 35 67 62 -211 0
63 31 59 35 33 37 -210 0
63 31 59 35 33 37 -212 0
63 31 59 35 33 37 -209 0
63 31 59 35 33 37 -213 0
63 31 59 35 33 37 -214 0
63 31 59 35 33 37 -211 0
63 31 59 35 62 37 -210 0
63 31 59 35 62 37 -212 0
63 31 59 35 62 37 -209 0
63 31 59 35 62 37 -213 0
63 31 59 35 62 37 -214 0
63 31 59 35 62 37 -211 0
63 31 59 67 33 62 -210 0
63 31 59 67 33 62 -212 0
63 31 59 67 33 62 -209 0
63 31 59 67 33 62 -213 0
63 31 59 67 33 62 -214 0
63 31 59 67 33 62 -211 0
63 31 59 67 62 37 -210 0
63 31 59 67 62 37 -212 0
63 31 59 67 62 37 -209 0
63 31 59 67 62 37 -213 0
63 31 59 67 62 37 -214 0
63 31 59 67 62 37 -211 0
63 31 35 67 33 37 -210 0
63 31 35 67 33 37 -212 0
63 31 35 67 33 37 -209 0
63 31 35 67 33 37 -213 0
63 31 35 67 33 37 -214 0
63 31 35 67 33 37 -211 0
63 31 35 33 62 37 -210 0
63 31 35 33 62 37 -212 0
63 31 35 33 62 37 -209 0
63 31 35 33 62 37 -213 0
63 31 35 33 62 37 -214 0
63 31 35 33 62 37 -211 0
63 31 67 33 62 37 -210 0
63 31 67 33 62 37 -212 0
63 31 67 33 62 37 -209 0
63 31 67 33 62 37 -213 0
63 31 67 33 62 37 -214 0
63 31 67 33 62 37 -211 0
63 20 59 18 67 62 -173 0
63 20 59 18 67 62 -171 0
63 20 59 18 67 62 -172 0
63 20 59 18 67 62 -174 0
63 20 59 18 67 62 -175 0
63 20 59 18 67 62 -170 0
63 20 59 67 23 62 -173 0
63 20 59 67 23 62 -171 0
63 20 59 67 23 62 -172 0
63 20 59 67 23 62 -174 0
63 20 59 67 23 62 -175 0
63 20 59 67 23 62 -170 0
63 96 59 90 67 62 -313 0
63 96 59 90 67 62 -310 0
63 96 59 90 67 62 -308 0
63 96 59 90 67 62 -312 0
63 96 59 90 67 62 -309 0
63 96 59 90 67 62 -311 0
63 96 59 67 97 62 -313 0
63 96 59 67 97 62 -310 0
63 96 59 67 97 62 -308 0
63 96 59 67 97 62 -312 0
63 96 59 67 97 62 -309 0
63 96 59 67 97 62 -311 0
63 7 59 6 67 62 -58 0
63 7 59 6 67 62 -60 0
63 7 59 6 67 62 -61 0
63 7 59 6 67 62 -64 0
63 7 59 6 67 62 -65 0
63 7 59 6 67 62 -66 0
63 7 59 67 3 62 -58 0
63 7 59 67 3 62 -60 0
63 7 59 67 3 62 -61 0
63 7 59 67 3 62 -64 0
63 7 59 67 3 62 -65 0
63 7 59 67 3 62 -66 0
63 9 59 13 67 62 -127 0
63 9 59 13 67 62 -130 0
63 9 59 13 67 62 -128 0
63 9 59 13 67 62 -125 0
63 9 59 13 67 62 -126 0
63 9 59 13 67 62 -129 0
63 9 59 67 11 62 -127 0
63 9 59 67 11 62 -130 0
63 9 59 67 11 62 -128 0
63 9 59 67 11 62 -125 0
63 9 59 67 11 62 -126 0
63 9 59 67 11 62 -129 0
63 46 59 43 67 62 -242 0
63 46 59 43 67 62 -247 0
63 46 59 43 67 62 -244 0
63 46 59 43 67 62 -245 0
63 46 59 43 67 62 -243 0
63 46 59 43 67 62 -246 0
63 46 59 67 45 62 -242 0
63 46 59 67 45 62 -247 0
63 46 59 67 45 62 -244 0
63 46 59 67 45 62 -245 0
63 46 59 67 45 62 -243 0
63 46 59 67 45 62 -246 0
63 50 59 52 67 62 -270 0
63 50 59 52 67 62 -269 0
63 50 59 52 67 62 -271 0
63 50 59 52 67 62 -272 0
63 50 59 52 67 62 -273 0
63 50 59 52 67 62 -274 0
63 50 59 67 49 62 -270 0
63 50 59 67 49 62 -269 0
63 50 59 67 49 62 -271 0
63 50 59 67 49 62 -272 0
63 50 59 67 49 62 -273 0
63 50 59 67 49 62 -274 0
63 78 59 86 67 62 -307 0
63 78 59 86 67 62 -305 0
63 78 59 86 67 62 -303 0
63 78 59 86 67 62 -306 0
63 78 59 86 67 62 -304 0
63 78 59 86 67 62 -302 0
63 78 59 67 80 62 -307 0
63 78 59 67 80 62 -305 0
63 78 59 67 80 62 -303 0
63 78 59 67 80 62 -306 0
63 78 59 67 80 62 -304 0
63 78 59 67 80 62 -302 0
63 59 76 67 75 62 -300 0
63 59 76 67 75 62 -296 0
63 59 76 67 75 62 -297 0
63 59 76 67 75 62 -298 0
63 59 76 67 75 62 -299 0
63 59 76 67 75 62 -301 0
63 59 76 67 62 68 -300 0
63 59 76 67 62 68 -296 0
63 59 76 67 62 68 -297 0
63 59 76 67 62 68 -298 0
63 59 76 67 62 68 -299 0
63 59 76 67 62 68 -301 0
63 59 35 67 33 62 -210 0
63 59 35 67 33 62 -212 0
63 59 35 67 33 62 -209 0
63 59 35 67 33 62 -213 0
63 59 35 67 33 62 -214 0
63 59 35 67 33 62 -211 0
63 59 35 67 62 37 -210 0
63 59 35 67 62 37 -212 0
63 59 35 67 62 37 -209 0
63 59 35 67 62 37 -213 0
63 59 35 67 62 37 -214 0
63 59 35 67 62 37 -211 0
63 59 18 67 23 62 -173 0
63 59 18 67 23 62 -171 0
63 59 18 67 23 62 -172 0
63 59 18 67 23 62 -174 0
63 59 18 67 23 62 -175 0
63 59 18 67 23 62 -170 0
63 59 90 67 97 62 -313 0
63 59 90 67 97 62 -310 0
63 59 90 67 97 62 -308 0
63 59 90 67 97 62 -312 0
63 59 90 67 97 62 -309 0
63 59 90 67 97 62 -311 0
63 59 6 67 3 62 -58 0
63 59 6 67 3 62 -60 0
63 59 6 67 3 62 -61 0
63 59 6 67 3 62 -64 0
63 59 6 67 3 62 -65 0
63 59 6 67 3 62 -66 0
63 59 13 67 11 62 -127 0
63 59 13 67 11 62 -130 0
63 59 13 67 11 62 -128 0
63 59 13 67 11 62 -125 0
63 59 13 67 11 62 -126 0
63 59 13 67 11 62 -129 0
63 59 43 67 45 62 -242 0
63 59 43 67 45 62 -247 0
63 59 43 67 45 62 -244 0
63 59 43 67 45 62 -245 0
63 59 43 67 45 62 -243 0
63 59 43 67 45 62 -246 0
63 59 52 67 49 62 -270 0
63 59 52 67 49 62 -269 0
63 59 52 67 49 62 -271 0
63 59 52 67 49 62 -272 0
63 59 52 67 49 62 -273 0
63 59 52 67 49 62 -274 0
63 59 86 67 80 62 -307 0
63 59 86 67 80 62 -305 0
63 59 86 67 80 62 -303 0
63 59 86 67 80 62 -306 0
63 59 86 67 80 62 -304 0
63 59 86 67 80 62 -302 0
63 59 67 75 62 68 -300 0
63 59 67 75 62 68 -296 0
63 59 67 75 62 68 -297 0
63 59 67 75 62 68 -298 0
63 59 67 75 62 68 -299 0
63 59 67 75 62 68 -301 0
63 59 67 33 62 37 -210 0
63 59 67 33 62 37 -212 0
63 59 67 33 62 37 -209 0
63 59 67 33 62 37 -213 0
63 59 67 33 62 37 -214 0
63 59 67 33 62 37 -211 0
69 31 76 35 75 33 -219 0
69 31 76 35 75 33 -215 0
69 31 76 35 75 33 -218 0
69 31 76 35 75 33 -220 0
69 31 76 35 75 33 -216 0
69 31 76 35 75 33 -217 0
69 31 76 35 75 68 -219 0
69 31 76 35 75 68 -215 0
69 31 76 35 75 68 -218 0
69 31 76 35 75 68 -220 0
69 31 76 35 75 68 -216 0
69 31 76 35 75 68 -217 0
69 31 76 35 33 37 -219 0
69 31 76 35 33 37 -215 0
69 31 76 35 33 37 -218 0
69 31 76 35 33 37 -220 0
69 31 76 35 33 37 -216 0
69 31 76 35 33 37 -217 0
69 31 76 35 68 37 -219 0
69 31 76 35 68 37 -215 0
69 31 76 35 68 37 -218 0
69 31 76 35 68 37 -220 0
69 31 76 35 68 37 -216 0
69 31 76 35 68 37 -217 0
69 31 76 75 33 68 -219 0
69 31 76 75 33 68 -215 0
69 31 76 75 33 68 -218 0
69 31 76 75 33 68 -220 0
69 31 76 75 33 68 -216 0
69 31 76 75 33 68 -217 0
69 31 76 75 68 37 -219 0
69 31 76 75 68 37 -215 0
69 31 76 75 68 37 -218 0
69 31 76 75 68 37 -220 0
69 31 76 75 68 37 -216 0
69 31 76 75 68 37 -217 0
69 31 35 75 33 37 -219 0
69 31 35 75 33 37 -215 0
69 31 35 75 33 37 -218 0
69 31 35 75 33 37 -220 0
69 31 35 75 33 37 -216 0
69 31 35 75 33 37 -217 0
69 31 35 33 68 37 -219 0
69 31 35 33 68 37 -215 0
69 31 35 33 68 37 -218 0
69 31 35 33 68 37 -220 0
69 31 35 33 68 37 -216 0
69 31 35 33 68 37 -217 0
69 31 75 33 68 37 -219 0
69 31 75 33 68 37 -215 0
69 31 75 33 68 37 -218 0
69 31 75 33 68 37 -220 0
69 31 75 33 68 37 -216 0
69 31 75 33 68 37 -217 0
69 20 76 18 75 68 -181 0
69 20 76 18 75 68 -178 0
69 20 76 18 75 68 -177 0
69 20 76 18 75 68 -179 0
69 20 76 18 75 68 -180 0
69 20 76 18 75 68 -176 0
69 20 76 75 23 68 -181 0
69 20 76 75 23 68 -178 0
69 20 76 75 23 68 -177 0
69 20 76 75 23 68 -179 0
69 20 76 75 23 68 -180 0
69 20 76 75 23 68 -176 0
69 96 76 90 75 68 -326 0
69 96 76 90 75 68 -325 0
69 96 76 90 75 68 -328 0
69 96 76 90 75 68 -323 0
69 96 76 90 75 68 -327 0
69 96 76 90 75 68 -324 0
69 96 76 75 97 68 -326 0
69 96 76 75 97 68 -325 0
69 96 76 75 97 68 -328 0
69 96 76 75 97 68 -323 0
69 96 76 75 97 68 -327 0
69 96 76 75 97 68 -324 0
69 7 76 6 75 68 -74 0
69 7 76 6 75 68 -70 0
69 7 76 6 75 68 -77 0
69 7 76 6 75 68 -72 0
69 7 76 6 75 68 -71 0
69 7 76 6 75 68 -73 0
69 7 76 75 3 68 -74 0
69 7 76 75 3 68 -70 0
69 7 76 75 3 68 -77 0
69 7 76 75 3 68 -72 0
69 7 76 75 3 68 -71 0
69 7 76 75 3 68 -73 0
69 9 76 13 75 68 -136 0
69 9 76 13 75 68 -132 0
69 9 76 13 75 68 -131 0
69 9 76 13 75 68 -133 0
69 9 76 13 75 68 -135 0
69 9 76 13 75 68 -134 0
69 9 76 75 11 68 -136 0
69 9 76 75 11 68 -132 0
69 9 76 75 11 68 -131 0
69 9 76 75 11 68 -133 0
69 9 76 75 11 68 -135 0
69 9 76 75 11 68 -134 0
69 46 76 43 75 68 -252 0
69 46 76 43 75 68 -251 0
69 46 76 43 75 68 -250 0
69 46 76 43 75 68 -248 0
69 46 76 43 75 68 -253 0
69 46 76 43 75 68 -249 0
69 46 76 75 45 68 -252 0
69 46 76 75 45 68 -251 0
69 46 76 75 45 68 -250 0
69 46 76 75 45 68 -248 0
69 46 76 75 45 68 -253 0
69 46 76 75 45 68 -249 0
69 50 76 52 75 68 -277 0
69 50 76 52 75 68 -278 0
69 50 76 52 75 68 -280 0
69 50 76 52 75 68 -279 0
69 50 76 52 75 68 -276 0
69 50 76 52 75 68 -275 0
69 50 76 75 49 68 -277 0
69 50 76 75 49 68 -278 0
69 50 76 75 49 68 -280 0
69 50 76 75 49 68 -279 0
69 50 76 75 49 68 -276 0
69 50 76 75 49 68 -275 0
69 78 76 86 75 68 -317 0
69 78 76 86 75 68 -319 0
69 78 76 86 75 68 -318 0
69 78 76 86 75 68 -322 0
69 78 76 86 75 68 -320 0
69 78 76 86 75 68 -321 0
69 78 76 75 80 68 -317 0
69 78 76 75 80 68 -319 0
69 78 76 75 80 68 -318 0
69 78 76 75 80 68 -322 0
69 78 76 75 80 68 -320 0
69 78 76 75 80 68 -321 0
69 59 76 67 75 68 -300 0
69 59 76 67 75 68 -296 0
69 59 76 67 75 68 -297 0
69 59 76 67 75 68 -298 0
69 59 76 67 75 68 -299 0
69 59 76 67 75 68 -301 0
69 59 76 75 62 68 -300 0
69 59 76 75 62 68 -296 0
69 59 76 75 62 68 -297 0
69 59 76 75 62 68 -298 0
69 59 76 75 62 68 -299 0
69 59 76 75 62 68 -301 0
69 76 35 75 33 68 -219 0
69 76 35 75 33 68 -215 0
69 76 35 75 33 68 -218 0
69 76 35 75 33 68 -220 0
69 76 35 75 33 68 -216 0
69 76 35 75 33 68 -217 0
69 76 35 75 68 37 -219 0
69 76 35 75 68 37 -215 0
69 76 35 75 68 37 -218 0
69 76 35 75 68 37 -220 0
69 76 35 75 68 37 -216 0
69 76 35 75 68 37 -217 0
69 76 18 75 23 68 -181 0
69 76 18 75 23 68 -178 0
69 76 18 75 23 68 -177 0
69 76 18 75 23 68 -179 0
69 76 18 75 23 68 -180 0
69 76 18 75 23 68 -176 0
69 76 90 75 97 68 -326 0
69 76 90 75 97 68 -325 0
69 76 90 75 97 68 -328 0
69 76 90 75 97 68 -323 0
69 76 90 75 97 68 -327 0
69 76 90 75 97 68 -324 0
69 76 6 75 3 68 -74 0
69 76 6 75 3 68 -70 0
69 76 6 75 3 68 -77 0
69 76 6 75 3 68 -72 0
69 76 6 75 3 68 -71 0
69 76 6 75 3 68 -73 0
69 76 13 75 11 68 -136 0
69 76 13 75 11 68 -132 0
69 76 13 75 11 68 -131 0
69 76 13 75 11 68 -133 0
69 76 13 75 11 68 -135 0
69 76 13 75 11 68 -134 0
69 76 43 75 45 68 -252 0
69 76 43 75 45 68 -251 0
69 76 43 75 45 68 -250 0
69 76 43 75 45 68 -248 0
69 76 43 75 45 68 -253 0
69 76 43 75 45 68 -249 0
69 76 52 75 49 68 -277 0
69 76 52 75 49 68 -278 0
69 76 52 75 49 68 -280 0
69 76 52 75 49 68 -279 0
69 76 52 75 49 68 -276 0
69 76 52 75 49 68 -275 0
69 76 86 75 80 68 -317 0
69 76 86 75 80 68 -319 0
69 76 86 75 80 68 -318 0
69 76 86 75 80 68 -322 0
69 76 86 75 80 68 -320 0
69 76 86 75 80 68 -321 0
69 76 67 75 62 68 -300 0
69 76 67 75 62 68 -296 0
69 76 67 75 62 68 -297 0
69 76 67 75 62 68 -298 0
69 76 67 75 62 68 -299 0
69 76 67 75 62 68 -301 0
69 76 75 33 68 37 -219 0
69 76 75 33 68 37 -215 0
69 76 75 33 68 37 -218 0
69 76 75 33 68 37 -220 0
69 76 75 33 68 37 -216 0
69 76 75 33 68 37 -217 0
31 20 35 18 33 37 -154 0
31 20 35 18 33 37 -156 0
31 20 35 18 33 37 -155 0
31 20 35 18 33 37 -153 0
31 20 35 18 33 37 -157 0
31 20 35 18 33 37 -152 0
31 20 35 33 23 37 -154 0
31 20 35 33 23 37 -156 0
31 20 35 33 23 37 -155 0
31 20 35 33 23 37 -153 0
31 20 35 33 23 37 -157 0
31 20 35 33 23 37 -152 0
31 96 35 90 33 37 -231 0
31 96 35 90 33 37 -229 0
31 96 35 90 33 37 -228 0
31 96 35 90 33 37 -230 0
31 96 35 90 33 37 -227 0
31 96 35 90 33 37 -232 0
31 96 35 33 97 37 -231 0
31 96 35 33 97 37 -229 0
31 96 35 33 97 37 -228 0
31 96 35 33 97 37 -230 0
31 96 35 33 97 37 -227 0
31 96 35 33 97 37 -232 0
31 7 35 6 33 37 -32 0
31 7 35 6 33 37 -30 0
31 7 35 6 33 37 -36 0
31 7 35 6 33 37 -34 0
31 7 35 6 33 37 -29 0
31 7 35 6 33 37 -28 0
31 7 35 33 3 37 -32 0
31 7 35 33 3 37 -30 0
31 7 35 33 3 37 -36 0
31 7 35 33 3 37 -34 0
31 7 35 33 3 37 -29 0
31 7 35 33 3 37 -28 0
31 9 35 13 33 37 -107 0
31 9 35 13 33 37 -109 0
31 9 35 13 33 37 -108 0
31 9 35 13 33 37 -110 0
31 9 35 13 33 37 -112 0
31 9 35 13 33 37 -111 0
31 9 35 33 11 37 -107 0
31 9 35 33 11 37 -109 0
31 9 35 33 11 37 -108 0
31 9 35 33 11 37 -110 0
31 9 35 33 11 37 -112 0
31 9 35 33 11 37 -111 0
31 46 35 43 33 37 -198 0
31 46 35 43 33 37 -200 0
31 46 35 43 33 37 -202 0
31 46 35 43 33 37 -197 0
31 46 35 43 33 37 -199 0
31 46 35 43 33 37 -201 0
31 46 35 33 45 37 -198 0
31 46 35 33 45 37 -200 0
31 46 35 33 45 37 -202 0
31 46 35 33 45 37 -197 0
31 46 35 33 45 37 -199 0
31 46 35 33 45 37 -201 0
31 50 35 52 33 37 -206 0
31 50 35 52 33 37 -204 0
31 50 35 52 33 37 -208 0
31 50 35 52 33 37 -203 0
31 50 35 52 33 37 -205 0
31 50 35 52 33 37 -207 0
31 50 35 33 49 37 -206 0
31 50 35 33 49 37 -204 0
31 50 35 33 49 37 -208 0
31 50 35 33 49 37 -203 0
31 50 35 33 49 37 -205 0
31 50 35 33 49 37 -207 0
31 78 35 86 33 37 -223 0
31 78 35 86 33 37 -224 0
31 78 35 86 33 37 -222 0
31 78 35 86 33 37 -226 0
31 78 35 86 33 37 -225 0
31 78 35 86 33 37 -221 0
31 78 35 33 80 37 -223 0
31 78 35 33 80 37 -224 0
31 78 35 33 80 37 -222 0
31 78 35 33 80 37 -226 0
31 78 35 33 80 37 -225 0
31 78 35 33 80 37 -221 0
31 59 35 67 33 37 -210 0
31 59 35 67 33 37 -212 0
31 59 35 67 33 37 -209 0
31 59 35 67 33 37 -213 0
31 59 35 67 33 37 -214 0
31 59 35 67 33 37 -211 0
31 59 35 33 62 37 -210 0
31 59 35 33 62 37 -212 0
31 59 35 33 62 37 -209 0
31 59 35 33 62 37 -213 0
31 59 35 33 62 37 -214 0
31 59 35 33 62 37 -211 0
31 76 35 75 33 37 -219 0
31 76 35 75 33 37 -215 0
31 76 35 75 33 37 -218 0
31 76 35 75 33 37 -220 0
31 76 35 75 33 37 -216 0
31 76 35 75 33 37 -217 0
31 76 35 33 68 37 -219 0
31 76 35 33 68 37 -215 0
31 76 35 33 68 37 -218 0
31 76 35 33 68 37 -220 0
31 76 35 33 68 37 -216 0
31 76 35 33 68 37 -217 0
31 35 18 33 23 37 -154 0
31 35 18 33 23 37 -156 0
31 35 18 33 23 37 -155 0
31 35 18 33 23 37 -153 0
31 35 18 33 23 37 -157 0
31 35 18 33 23 37 -152 0
31 35 90 33 97 37 -231 0
31 35 90 33 97 37 -229 0
31 35 90 33 97 37 -228 0
31 35 90 33 97 37 -230 0
31 35 90 33 97 37 -227 0
31 35 90 33 97 37 -232 0
31 35 6 33 3 37 -32 0
31 35 6 33 3 37 -30 0
31 35 6 33 3 37 -36 0
31 35 6 33 3 37 -34 0
31 35 6 33 3 37 -29 0
31 35 6 33 3 37 -28 0
31 35 13 33 11 37 -107 0
31 35 13 33 11 37 -109 0
31 35 13 33 11 37 -108 0
31 35 13 33 11 37 -110 0
31 35 13 33 11 37 -112 0
31 35 13 33 11 37 -111 0
31 35 43 33 45 37 -198 0
31 35 43 33 45 37 -200 0
31 35 43 33 45 37 -202 0
31 35 43 33 45 37 -197 0
31 35 43 33 45 37 -199 0
31 35 43 33 45 37 -201 0
31 35 52 33 49 37 -206 0
31 35 52 33 49 37 -204 0
31 35 52 33 49 37 -208 0
31 35 52 33 49 37 -203 0
31 35 52 33 49 37 -205 0
31 35 52 33 49 37 -207 0
31 35 86 33 80 37 -223 0
31 35 86 33 80 37 -224 0
31 35 86 33 80 37 -222 0
31 35 86 33 80 37 -226 0
31 35 86 33 80 37 -225 0
31 35 86 33 80 37 -221 0
31 35 67 33 62 37 -210 0
31 35 67 33 62 37 -212 0
31 35 67 33 62 37 -209 0
31 35 67 33 62 37 -213 0
31 35 67 33 62 37 -214 0
31 35 67 33 62 37 -211 0
31 35 75 33 68 37 -219 0
31 35 75 33 68 37 -215 0
31 35 75 33 68 37 -218 0
31 35 75 33 68 37 -220 0
31 35 75 33 68 37 -216 0
31 35 75 33 68 37 -217 0
20 96 18 90 23 97 -189 0
20 96 18 90 23 97 -188 0
20 96 18 90 23 97 -193 0
20 96 18 90 23 97 -191 0
20 96 18 90 23 97 -192 0
20 96 18 90 23 97 -190 0
20 7 18 6 23 3 -21 0
20 7 18 6 23 3 -19 0
20 7 18 6 23 3 -25 0
20 7 18 6 23 3 -22 0
20 7 18 6 23 3 -24 0
20 7 18 6 23 3 -26 0
20 9 18 13 23 11 -103 0
20 9 18 13 23 11 -102 0
20 9 18 13 23 11 -106 0
20 9 18 13 23 11 -105 0
20 9 18 13 23 11 -101 0
20 9 18 13 23 11 -104 0
20 46 18 43 23 45 -158 0
20 46 18 43 23 45 -161 0
20 46 18 43 23 45 -162 0
20 46 18 43 23 45 -159 0
20 46 18 43 23 45 -163 0
20 46 18 43 23 45 -160 0
20 50 18 52 23 49 -165 0
20 50 18 52 23 49 -164 0
20 50 18 52 23 49 -166 0
20 50 18 52 23 49 -167 0
20 50 18 52 23 49 -168 0
20 50 18 52 23 49 -169 0
20 78 18 86 23 80 -186 0
20 78 18 86 23 80 -187 0
20 78 18 86 23 80 -183 0
20 78 18 86 23 80 -184 0
20 78 18 86 23 80 -182 0
20 78 18 86 23 80 -185 0
20 59 18 67 23 62 -173 0
20 59 18 67 23 62 -171 0
20 59 18 67 23 62 -172 0
20 59 18 67 23 62 -174 0
20 59 18 67 23 62 -175 0
20 59 18 67 23 62 -170 0
20 76 18 75 23 68 -181 0
20 76 18 75 23 68 -178 0
20 76 18 75 23 68 -177 0
20 76 18 75 23 68 -179 0
20 76 18 75 23 68 -180 0
20 76 18 75 23 68 -176 0
20 35 18 33 23 37 -154 0
20 35 18 33 23 37 -156 0
20 35 18 33 23 37 -155 0
20 35 18 33 23 37 -153 0
20 35 18 33 23 37 -157 0
20 35 18 33 23 37 -152 0
96 7 90 6 97 3 -91 0
96 7 90 6 97 3 -93 0
96 7 90 6 97 3 -94 0
96 7 90 6 97 3 -92 0
96 7 90 6 97 3 -89 0
96 7 90 6 97 3 -88 0
96 9 90 13 97 11 -146 0
96 9 90 13 97 11 -147 0
96 9 90 13 97 11 -143 0
96 9 90 13 97 11 -148 0
96 9 90 13 97 11 -144 0
96 9 90 13 97 11 -145 0
96 46 90 43 97 45 -261 0
96 46 90 43 97 45 -265 0
96 46 90 43 97 45 -263 0
96 46 90 43 97 45 -260 0
96 46 90 43 97 45 -262 0
96 46 90 43 97 45 -264 0
96 50 90 52 97 49 -292 0
96 50 90 52 97 49 -290 0
96 50 90 52 97 49 -287 0
96 50 90 52 97 49 -289 0
96 50 90 52 97 49 -288 0
96 50 90 52 97 49 -291 0
96 78 90 86 97 80 -337 0
96 78 90 86 97 80 -334 0
96 78 90 86 97 80 -332 0
96 78 90 86 97 80 -335 0
96 78 90 86 97 80 -336 0
96 78 90 86 97 80 -333 0
96 59 90 67 97 62 -313 0
96 59 90 67 97 62 -310 0
96 59 90 67 97 62 -308 0
96 59 90 67 97 62 -312 0
96 59 90 67 97 62 -309 0
96 59 90 67 97 62 -311 0
96 76 90 75 97 68 -326 0
96 76 90 75 97 68 -325 0
96 76 90 75 97 68 -328 0
96 76 90 75 97 68 -323 0
96 76 90 75 97 68 -327 0
96 76 90 75 97 68 -324 0
96 35 90 33 97 37 -231 0
96 35 90 33 97 37 -229 0
96 35 90 33 97 37 -228 0
96 35 90 33 97 37 -230 0
96 35 90 33 97 37 -227 0
96 35 90 33 97 37 -232 0
7 9 6 13 3 11 -12 0
7 9 6 13 3 11 -17 0
7 9 6 13 3 11 -15 0
7 9 6 13 3 11 -16 0
7 9 6 13 3 11 -10 0
7 9 6 13 3 11 -14 0
7 46 6 43 3 45 -44 0
7 46 6 43 3 45 -39 0
7 46 6 43 3 45 -38 0
7 46 6 43 3 45 -47 0
7 46 6 43 3 45 -40 0
7 46 6 43 3 45 -42 0
7 50 6 52 3 49 -54 0
7 50 6 52 3 49 -48 0
7 50 6 52 3 49 -56 0
7 50 6 52 3 49 -51 0
7 50 6 52 3 49 -55 0
7 50 6 52 3 49 -53 0
7 78 6 86 3 80 -85 0
7 78 6 86 3 80 -84 0
7 78 6 86 3 80 -79 0
7 78 6 86 3 80 -87 0
7 78 6 86 3 80 -81 0
7 78 6 86 3 80 -82 0
7 59 6 67 3 62 -58 0
7 59 6 67 3 62 -60 0
7 59 6 67 3 62 -61 0
7 59 6 67 3 62 -64 0
7 59 6 67 3 62 -65 0
7 59 6 67 3 62 -66 0
7 76 6 75 3 68 -74 0
7 76 6 75 3 68 -70 0
7 76 6 75 3 68 -77 0
7 76 6 75 3 68 -72 0
7 76 6 75 3 68 -71 0
7 76 6 75 3 68 -73 0
7 35 6 33 3 37 -32 0
7 35 6 33 3 37 -30 0
7 35 6 33 3 37 -36 0
7 35 6 33 3 37 -34 0
7 35 6 33 3 37 -29 0
7 35 6 33 3 37 -28 0
9 46 13 43 11 45 -114 0
9 46 13 43 11 45 -113 0
9 46 13 43 11 45 -115 0
9 46 13 43 11 45 -117 0
9 46 13 43 11 45 -116 0
9 46 13 43 11 45 -118 0
9 50 13 52 11 49 -124 0
9 50 13 52 11 49 -123 0
9 50 13 52 11 49 -120 0
9 50 13 52 11 49 -121 0
9 50 13 52 11 49 -119 0
9 50 13 52 11 49 -122 0
9 78 13 86 11 80 -139 0
9 78 13 86 11 80 -142 0
9 78 13 86 11 80 -138 0
9 78 13 86 11 80 -140 0
9 78 13 86 11 80 -141 0
9 78 13 86 11 80 -137 0
9 59 13 67 11 62 -127 0
9 59 13 67 11 62 -130 0
9 59 13 67 11 62 -128 0
9 59 13 67 11 62 -125 0
9 59 13 67 11 62 -126 0
9 59 13 67 11 62 -129 0
9 76 13 75 11 68 -136 0
9 76 13 75 11 68 -132 0
9 76 13 75 11 68 -131 0
9 76 13 75 11 68 -133 0
9 76 13 75 11 68 -135 0
9 76 13 75 11 68 -134 0
9 35 13 33 11 37 -107 0
9 35 13 33 11 37 -109 0
9 35 13 33 11 37 -108 0
9 35 13 33 11 37 -110 0
9 35 13 33 11 37 -112 0
9 35 13 33 11 37 -111 0
46 50 43 52 45 49 -237 0
46 50 43 52 45 49 -236 0
46 50 43 52 45 49 -240 0
46 50 43 52 45 49 -238 0
46 50 43 52 45 49 -241 0
46 50 43 52 45 49 -239 0
46 78 43 86 45 80 -255 0
46 78 43 86 45 80 -258 0
46 78 43 86 45 80 -256 0
46 78 43 86 45 80 -259 0
46 78 43 86 45 80 -257 0
46 78 43 86 45 80 -254 0
46 59 43 67 45 62 -242 0
46 59 43 67 45 62 -247 0
46 59 43 67 45 62 -244 0
46 59 43 67 45 62 -245 0
46 59 43 67 45 62 -243 0
46 59 43 67 45 62 -246 0
46 76 43 75 45 68 -252 0
46 76 43 75 45 68 -251 0
46 76 43 75 45 68 -250 0
46 76 43 75 45 68 -248 0
46 76 43 75 45 68 -253 0
46 76 43 75 45 68 -249 0
46 35 43 33 45 37 -198 0
46 35 43 33 45 37 -200 0
46 35 43 33 45 37 -202 0
46 35 43 33 45 37 -197 0
46 35 43 33 45 37 -199 0
46 35 43 33 45 37 -201 0
50 78 52 86 49 80 -284 0
50 78 52 86 49 80 -282 0
50 78 52 86 49 80 -281 0
50 78 52 86 49 80 -283 0
50 78 52 86 49 80 -286 0
50 78 52 86 49 80 -285 0
50 59 52 67 49 62 -270 0
50 59 52 67 49 62 -269 0
50 59 52 67 49 62 -271 0
50 59 52 67 49 62 -272 0
50 59 52 67 49 62 -273 0
50 59 52 67 49 62 -274 0
50 76 52 75 49 68 -277 0
50 76 52 75 49 68 -278 0
50 76 52 75 49 68 -280 0
50 76 52 75 49 68 -279 0
50 76 52 75 49 68 -276 0
50 76 52 75 49 68 -275 0
50 35 52 33 49 37 -206 0
50 35 52 33 49 37 -204 0
50 35 52 33 49 37 -208 0
50 35 52 33 49 37 -203 0
50 35 52 33 49 37 -205 0
50 35 52 33 49 37 -207 0
78 59 86 67 80 62 -307 0
78 59 86 67 80 62 -305 0
78 59 86 67 80 62 -303 0
78 59 86 67 80 62 -306 0
78 59 86 67 80 62 -304 0
78 59 86 67 80 62 -302 0
78 76 86 75 80 68 -317 0
78 76 86 75 80 68 -319 0
78 76 86 75 80 68 -318 0
78 76 86 75 80 68 -322 0
78 76 86 75 80 68 -320 0
78 76 86 75 80 68 -321 0
78 35 86 33 80 37 -223 0
78 35 86 33 80 37 -224 0
78 35 86 33 80 37 -222 0
78 35 86 33 80 37 -226 0
78 35 86 33 80 37 -225 0
78 35 86 33 80 37 -221 0
59 76 67 75 62 68 -300 0
59 76 67 75 62 68 -296 0
59 76 67 75 62 68 -297 0
59 76 67 75 62 68 -298 0
59 76 67 75 62 68 -299 0
59 76 67 75 62 68 -301 0
59 35 67 33 62 37 -210 0
59 35 67 33 62 37 -212 0
59 35 67 33 62 37 -209 0
59 35 67 33 62 37 -213 0
59 35 67 33 62 37 -214 0
59 35 67 33 62 37 -211 0
76 35 75 33 68 37 -219 0
76 35 75 33 68 37 -215 0
76 35 75 33 68 37 -218 0
76 35 75 33 68 37 -220 0
76 35 75 33 68 37 -216 0
76 35 75 33 68 37 -217 0
27 95 20 96 18 90 23 -189 0
27 95 20 96 18 90 23 -188 0
27 95 20 96 18 90 23 -193 0
27 95 20 96 18 90 23 -191 0
27 95 20 96 18 90 23 -192 0
27 95 20 96 18 90 23 -190 0
27 95 20 96 18 90 97 -189 0
27 95 20 96 18 90 97 -188 0
27 95 20 96 18 90 97 -193 0
27 95 20 96 18 90 97 -191 0
27 95 20 96 18 90 97 -192 0
27 95 20 96 18 90 97 -190 0
27 95 20 96 18 23 97 -189 0
27 95 20 96 18 23 97 -188 0
27 95 20 96 18 23 97 -193 0
27 95 20 96 18 23 97 -191 0
27 95 20 96 18 23 97 -192 0
27 95 20 96 18 23 97 -190 0
27 95 20 96 90 23 97 -189 0
27 95 20 96 90 23 97 -188 0
27 95 20 96 90 23 97 -193 0
27 95 20 96 90 23 97 -191 0
27 95 20 96 90 23 97 -192 0
27 95 20 96 90 23 97 -190 0
27 95 20 18 90 23 97 -189 0
27 95 20 18 90 23 97 -188 0
27 95 20 18 90 23 97 -193 0
27 95 20 18 90 23 97 -191 0
27 95 20 18 90 23 97 -192 0
27 95 20 18 90 23 97 -190 0
27 95 96 18 90 23 97 -189 0
27 95 96 18 90 23 97 -188 0
27 95 96 18 90 23 97 -193 0
27 95 96 18 90 23 97 -191 0
27 95 96 18 90 23 97 -192 0
27 95 96 18 90 23 97 -190 0
27 2 20 7 18 6 23 -21 0
27 2 20 7 18 6 23 -19 0
27 2 20 7 18 6 23 -25 0
27 2 20 7 18 6 23 -22 0
27 2 20 7 18 6 23 -24 0
27 2 20 7 18 6 23 -26 0
27 2 20 7 18 6 3 -21 0
27 2 20 7 18 6 3 -19 0
27 2 20 7 18 6 3 -25 0
27 2 20 7 18 6 3 -22 0
27 2 20 7 18 6 3 -24 0
27 2 20 7 18 6 3 -26 0
27 2 20 7 18 23 3 -21 0
27 2 20 7 18 23 3 -19 0
27 2 20 7 18 23 3 -25 0
27 2 20 7 18 23 3 -22 0
27 2 20 7 18 23 3 -24 0
27 2 20 7 18 23 3 -26 0
27 2 20 7 6 23 3 -21 0
27 2 20 7 6 23 3 -19 0
27 2 20 7 6 23 3 -25 0
27 2 20 7 6 23 3 -22 0
27 2 20 7 6 23 3 -24 0
27 2 20 7 6 23 3 -26 0
27 2 20 18 6 23 3 -21 0
27 2 20 18 6 23 3 -19 0
27 2 20 18 6 23 3 -25 0
27 2 20 18 6 23 3 -22 0
27 2 20 18 6 23 3 -24 0
27 2 20 18 6 23 3 -26 0
27 2 7 18 6 23 3 -21 0
27 2 7 18 6 23 3 -19 0
27 2 7 18 6 23 3 -25 0
27 2 7 18 6 23 3 -22 0
27 2 7 18 6 23 3 -24 0
27 2 7 18 6 23 3 -26 0
27 8 20 9 18 13 23 -103 0
27 8 20 9 18 13 23 -102 0
27 8 20 9 18 13 23 -106 0
27 8 20 9 18 13 23 -105 0
27 8 20 9 18 13 23 -101 0
27 8 20 9 18 13 23 -104 0
27 8 20 9 18 13 11 -103 0
27 8 20 9 18 13 11 -102 0
27 8 20 9 18 13 11 -106 0
27 8 20 9 18 13 11 -105 0
27 8 20 9 18 13 11 -101 0
27 8 20 9 18 13 11 -104 0
27 8 20 9 18 23 11 -103 0
27 8 20 9 18 23 11 -102 0
27 8 20 9 18 23 11 -106 0
27 8 20 9 18 23 11 -105 0
27 8 20 9 18 23 11 -101 0
27 8 20 9 18 23 11 -104 0
27 8 20 9 13 23 11 -103 0
27 8 20 9 13 23 11 -102 0
27 8 20 9 13 23 11 -106 0
27 8 20 9 13 23 11 -105 0
27 8 20 9 13 23 11 -101 0
27 8 20 9 13 23 11 -104 0
27 8 20 18 13 23 11 -103 0
27 8 20 18 13 23 11 -102 0
27 8 20 18 13 23 11 -106 0
27 8 20 18 13 23 11 -105 0
27 8 20 18 13 23 11 -101 0
27 8 20 18 13 23 11 -104 0
27 8 9 18 13 23 11 -103 0
27 8 9 18 13 23 11 -102 0
27 8 9 18 13 23 11 -106 0
27 8 9 18 13 23 11 -105 0
27 8 9 18 13 23 11 -101 0
27 8 9 18 13 23 11 -104 0
27 41 20 46 18 43 23 -158 0
27 41 20 46 18 43 23 -161 0
27 41 20 46 18 43 23 -162 0
27 41 20 46 18 43 23 -159 0
27 41 20 46 18 43 23 -163 0
27 41 20 46 18 43 23 -160 0
27 41 20 46 18 43 45 -158 0
27 41 20 46 18 43 45 -161 0
27 41 20 46 18 43 45 -162 0
27 41 20 46 18 43 45 -159 0
27 41 20 46 18 43 45 -163 0
27 41 20 46 18 43 45 -160 0
27 41 20 46 18 23 45 -158 0
27 41 20 46 18 23 45 -161 0
27 41 20 46 18 23 45 -162 0
27 41 20 46 18 23 45 -159 0
27 41 20 46 18 23 45 -163 0
27 41 20 46 18 23 45 -160 0
27 41 20 46 43 23 45 -158 0
27 41 20 46 43 23 45 -161 0
27 41 20 46 43 23 45 -162 0
27 41 20 46 43 23 45 -159 0
27 41 20 46 43 23 45 -163 0
27 41 20 46 43 23 45 -160 0
27 41 20 18 43 23 45 -158 0
27 41 20 18 43 23 45 -161 0
27 41 20 18 43 23 45 -162 0
27 41 20 18 43 23 45 -159 0
27 41 20 18 43 23 45 -163 0
27 41 20 18 43 23 45 -160 0
27 41 46 18 43 23 45 -158 0
27 41 46 18 43 23 45 -161 0
27 41 46 18 43 23 45 -162 0
27 41 46 18 43 23 45 -159 0
27 41 46 18 43 23 45 -163 0
27 41 46 18 43 23 45 -160 0
27 57 20 50 18 52 23 -165 0
27 57 20 50 18 52 23 -164 0
27 57 20 50 18 52 23 -166 0
27 57 20 50 18 52 23 -167 0
27 57 20 50 18 52 23 -168 0
27 57 20 50 18 52 23 -169 0
27 57 20 50 18 52 49 -165 0
27 57 20 50 18 52 49 -164 0
27 57 20 50 18 52 49 -166 0
27 57 20 50 18 52 49 -167 0
27 57 20 50 18 52 49 -168 0
27 57 20 50 18 52 49 -169 0
27 57 20 50 18 23 49 -165 0
27 57 20 50 18 23 49 -164 0
27 57 20 50 18 23 49 -166 0
27 57 20 50 18 23 49 -167 0
27 57 20 50 18 23 49 -168 0
27 57 20 50 18 23 49 -169 0
27 57 20 50 52 23 49 -165 0
27 57 20 50 52 23 49 -164 0
27 57 20 50 52 23 49 -166 0
27 57 20 50 52 23 49 -167 0
27 57 20 50 52 23 49 -168 0
27 57 20 50 52 23 49 -169 0
27 57 20 18 52 23 49 -165 0
27 57 20 18 52 23 49 -164 0
27 57 20 18 52 23 49 -166 0
27 57 20 18 52 23 49 -167 0
27 57 20 18 52 23 49 -168 0
27 57 20 18 52 23 49 -169 0
27 57 50 18 52 23 49 -165 0
27 57 50 18 52 23 49 -164 0
27 57 50 18 52 23 49 -166 0
27 57 50 18 52 23 49 -167 0
27 57 50 18 52 23 49 -168 0
27 57 50 18 52 23 49 -169 0
27 83 20 78 18 86 23 -186 0
27 83 20 78 18 86 23 -187 0
27 83 20 78 18 86 23 -183 0
27 83 20 78 18 86 23 -184 0
27 83 20 78 18 86 23 -182 0
27 83 20 78 18 86 23 -185 0
27 83 20 78 18 86 80 -186 0
27 83 20 78 18 86 80 -187 0
27 83 20 78 18 86 80 -183 0
27 83 20 78 18 86 80 -184 0
27 83 20 78 18 86 80 -182 0
27 83 20 78 18 86 80 -185 0
27 83 20 78 18 23 80 -186 0
27 83 20 78 18 23 80 -187 0
27 83 20 78 18 23 80 -183 0
27 83 20 78 18 23 80 -184 0
27 83 20 78 18 23 80 -182 0
27 83 20 78 18 23 80 -185 0
27 83 20 78 86 23 80 -186 0
27 83 20 78 86 23 80 -187 0
27 83 20 78 86 23 80 -183 0
27 83 20 78 86 23 80 -184 0
27 83 20 78 86 23 80 -182 0
27 83 20 78 86 23 80 -185 0
27 83 20 18 86 23 80 -186 0
27 83 20 18 86 23 80 -187 0
27 83 20 18 86 23 80 -183 0
27 83 20 18 86 23 80 -184 0
27 83 20 18 86 23 80 -182 0
27 83 20 18 86 23 80 -185 0
27 83 78 18 86 23 80 -186 0
27 83 78 18 86 23 80 -187 0
27 83 78 18 86 23 80 -183 0
27 83 78 18 86 23 80 -184 0
27 83 78 18 86 23 80 -182 0
27 83 78 18 86 23 80 -185 0
27 63 20 59 18 67 23 -173 0
27 63 20 59 18 67 23 -171 0
27 63 20 59 18 67 23 -172 0
27 63 20 59 18 67 23 -174 0
27 63 20 59 18 67 23 -175 0
27 63 20 59 18 67 23 -170 0
27 63 20 59 18 67 62 -173 0
27 63 20 59 18 67 62 -171 0
27 63 20 59 18 67 62 -172 0
27 63 20 59 18 67 62 -174 0
27 63 20 59 18 67 62 -175 0
27 63 20 59 18 67 62 -170 0
27 63 20 59 18 23 62 -173 0
27 63 20 59 18 23 62 -171 0
27 63 20 59 18 23 62 -172 0
27 63 20 59 18 23 62 -174 0
27 63 20 59 18 23 62 -175 0
27 63 20 59 18 23 62 -170 0
27 63 20 59 67 23 62 -173 0
27 63 20 59 67 23 62 -171 0
27 63 20 59 67 23 62 -172 0
27 63 20 59 67 23 62 -174 0
27 63 20 59 67 23 62 -175 0
27 63 20 59 67 23 62 -170 0
27 63 20 18 67 23 62 -173 0
27 63 20 18 67 23 62 -171 0
27 63 20 18 67 23 62 -172 0
27 63 20 18 67 23 62 -174 0
27 63 20 18 67 23 62 -175 0
27 63 20 18 67 23 62 -170 0
27 63 59 18 67 23 62 -173 0
27 63 59 18 67 23 62 -171 0
27 63 59 18 67 23 62 -172 0
27 63 59 18 67 23 62 -174 0
27 63 59 18 67 23 62 -175 0
27 63 59 18 67 23 62 -170 0
27 69 20 76 18 75 23 -181 0
27 69 20 76 18 75 23 -178 0
27 69 20 76 18 75 23 -177 0
27 69 20 76 18 75 23 -179 0
27 69 20 76 18 75 23 -180 0
27 69 20 76 18 75 23 -176 0
27 69 20 76 18 75 68 -181 0
27 69 20 76 18 75 68 -178 0
27 69 20 76 18 75 68 -177 0
27 69 20 76 18 75 68 -179 0
27 69 20 76 18 75 68 -180 0
27 69 20 76 18 75 68 -176 0
27 69 20 76 18 23 68 -181 0
27 69 20 76 18 23 68 -178 0
27 69 20 76 18 23 68 -177 0
27 69 20 76 18 23 68 -179 0
27 69 20 76 18 23 68 -180 0
27 69 20 76 18 23 68 -176 0
27 69 20 76 75 23 68 -181 0
27 69 20 76 75 23 68 -178 0
27 69 20 76 75 23 68 -177 0
27 69 20 76 75 23 68 -179 0
27 69 20 76 75 23 68 -180 0
27 69 20 76 75 23 68 -176 0
27 69 20 18 75 23 68 -181 0
27 69 20 18 75 23 68 -178 0
27 69 20 18 75 23 68 -177 0
27 69 20 18 75 23 68 -179 0
27 69 20 18 75 23 68 -180 0
27 69 20 18 75 23 68 -176 0
27 69 76 18 75 23 68 -181 0
27 69 76 18 75 23 68 -178 0
27 69 76 18 75 23 68 -177 0
27 69 76 18 75 23 68 -179 0
27 69 76 18 75 23 68 -180 0
27 69 76 18 75 23 68 -176 0
27 31 20 35 18 33 23 -154 0
27 31 20 35 18 33 23 -156 0
27 31 20 35 18 33 23 -155 0
27 31 20 35 18 33 23 -153 0
27 31 20 35 18 33 23 -157 0
27 31 20 35 18 33 23 -152 0
27 31 20 35 18 33 37 -154 0
27 31 20 35 18 33 37 -156 0
27 31 20 35 18 33 37 -155 0
27 31 20 35 18 33 37 -153 0
27 31 20 35 18 33 37 -157 0
27 31 20 35 18 33 37 -152 0
27 31 20 35 18 23 37 -154 0
27 31 20 35 18 23 37 -156 0
27 31 20 35 18 23 37 -155 0
27 31 20 35 18 23 37 -153 0
27 31 20 35 18 23 37 -157 0
27 31 20 35 18 23 37 -152 0
27 31 20 35 33 23 37 -154 0
27 31 20 35 33 23 37 -156 0
27 31 20 35 33 23 37 -155 0
27 31 20 35 33 23 37 -153 0
27 31 20 35 33 23 37 -157 0
27 31 20 35 33 23 37 -152 0
27 31 20 18 33 23 37 -154 0
27 31 20 18 33 23 37 -156 0
27 31 20 18 33 23 37 -155 0
27 31 20 18 33 23 37 -153 0
27 31 20 18 33 23 37 -157 0
27 31 20 18 33 23 37 -152 0
27 31 35 18 33 23 37 -154 0
27 31 35 18 33 23 37 -156 0
27 31 35 18 33 23 37 -155 0
27 31 35 18 33 23 37 -153 0
27 31 35 18 33 23 37 -157 0
27 31 35 18 33 23 37 -152 0
27 20 96 18 90 23 97 -189 0
27 20 96 18 90 23 97 -188 0
27 20 96 18 90 23 97 -193 0
27 20 96 18 90 23 97 -191 0
27 20 96 18 90 23 97 -192 0
27 20 96 18 90 23 97 -190 0
27 20 7 18 6 23 3 -21 0
27 20 7 18 6 23 3 -19 0
27 20 7 18 6 23 3 -25 0
27 20 7 18 6 23 3 -22 0
27 20 7 18 6 23 3 -24 0
27 20 7 18 6 23 3 -26 0
27 20 9 18 13 23 11 -103 0
27 20 9 18 13 23 11 -102 0
27 20 9 18 13 23 11 -106 0
27 20 9 18 13 23 11 -105 0
27 20 9 18 13 23 11 -101 0
27 20 9 18 13 23 11 -104 0
27 20 46 18 43 23 45 -158 0
27 20 46 18 43 23 45 -161 0
27 20 46 18 43 23 45 -162 0
27 20 46 18 43 23 45 -159 0
27 20 46 18 43 23 45 -163 0
27 20 46 18 43 23 45 -160 0
27 20 50 18 52 23 49 -165 0
27 20 50 18 52 23 49 -164 0
27 20 50 18 52 23 49 -166 0
27 20 50 18 52 23 49 -167 0
27 20 50 18 52 23 49 -168 0
27 20 50 18 52 23 49 -169 0
27 20 78 18 86 23 80 -186 0
27 20 78 18 86 23 80 -187 0
27 20 78 18 86 23 80 -183 0
27 20 78 18 86 23 80 -184 0
27 20 78 18 86 23 80 -182 0
27 20 78 18 86 23 80 -185 0
27 20 59 18 67 23 62 -173 0
27 20 59 18 67 23 62 -171 0
27 20 59 18 67 23 62 -172 0
27 20 59 18 67 23 62 -174 0
27 20 59 18 67 23 62 -175 0
27 20 59 18 67 23 62 -170 0
27 20 76 18 75 23 68 -181 0
27 20 76 18 75 23 68 -178 0
27 20 76 18 75 23 68 -177 0
27 20 76 18 75 23 68 -179 0
27 20 76 18 75 23 68 -180 0
27 20 76 18 75 23 68 -176 0
27 20 35 18 33 23 37 -154 0
27 20 35 18 33 23 37 -156 0
27 20 35 18 33 23 37 -155 0
27 20 35 18 33 23 37 -153 0
27 20 35 18 33 23 37 -157 0
27 20 35 18 33 23 37 -152 0
95 2 96 7 90 6 97 -91 0
95 2 96 7 90 6 97 -93 0
95 2 96 7 90 6 97 -94 0
95 2 96 7 90 6 97 -92 0
95 2 96 7 90 6 97 -89 0
95 2 96 7 90 6 97 -88 0
95 2 96 7 90 6 3 -91 0
95 2 96 7 90 6 3 -93 0
95 2 96 7 90 6 3 -94 0
95 2 96 7 90 6 3 -92 0
95 2 96 7 90 6 3 -89 0
95 2 96 7 90 6 3 -88 0
95 2 96 7 90 97 3 -91 0
95 2 96 7 90 97 3 -93 0
95 2 96 7 90 97 3 -94 0
95 2 96 7 90 97 3 -92 0
95 2 96 7 90 97 3 -89 0
95 2 96 7 90 97 3 -88 0
95 2 96 7 6 97 3 -91 0
95 2 96 7 6 97 3 -93 0
95 2 96 7 6 97 3 -94 0
95 2 96 7 6 97 3 -92 0
95 2 96 7 6 97 3 -89 0
95 2 96 7 6 97 3 -88 0
95 2 96 90 6 97 3 -91 0
95 2 96 90 6 97 3 -93 0
95 2 96 90 6 97 3 -94 0
95 2 96 90 6 97 3 -92 0
95 2 96 90 6 97 3 -89 0
95 2 96 90 6 97 3 -88 0
95 2 7 90 6 97 3 -91 0
95 2 7 90 6 97 3 -93 0
95 2 7 90 6 97 3 -94 0
95 2 7 90 6 97 3 -92 0
95 2 7 90 6 97 3 -89 0
95 2 7 90 6 97 3 -88 0
95 8 96 9 90 13 97 -146 0
95 8 96 9 90 13 97 -147 0
95 8 96 9 90 13 97 -143 0
95 8 96 9 90 13 97 -148 0
95 8 96 9 90 13 97 -144 0
95 8 96 9 90 13 97 -145 0
95 8 96 9 90 13 11 -146 0
95 8 96 9 90 13 11 -147 0
95 8 96 9 90 13 11 -143 0
95 8 96 9 90 13 11 -148 0
95 8 96 9 90 13 11 -144 0
95 8 96 9 90 13 11 -145 0
95 8 96 9 90 97 11 -146 0
95 8 96 9 90 97 11 -147 0
95 8 96 9 90 97 11 -143 0
95 8 96 9 90 97 11 -148 0
95 8 96 9 90 97 11 -144 0
95 8 96 9 90 97 11 -145 0
95 8 96 9 13 97 11 -146 0
95 8 96 9 13 97 11 -147 0
95 8 96 9 13 97 11 -143 0
95 8 96 9 13 97 11 -148 0
95 8 96 9 13 97 11 -144 0
95 8 96 9 13 97 11 -145 0
95 8 96 90 13 97 11 -146 0
95 8 96 90 13 97 11 -147 0
95 8 96 90 13 97 11 -143 0
95 8 96 90 13 97 11 -148 0
95 8 96 90 13 97 11 -144 0
95 8 96 90 13 97 11 -145 0
95 8 9 90 13 97 11 -146 0
95 8 9 90 13 97 11 -147 0
95 8 9 90 13 97 11 -143 0
95 8 9 90 13 97 11 -148 0
95 8 9 90 13 97 11 -144 0
95 8 9 90 13 97 11 -145 0
95 41 96 46 90 43 97 -261 0
95 41 96 46 90 43 97 -265 0
95 41 96 46 90 43 97 -263 0
95 41 96 46 90 43 97 -260 0
95 41 96 46 90 43 97 -262 0
95 41 96 46 90 43 97 -264 0
95 41 96 46 90 43 45 -261 0
95 41 96 46 90 43 45 -265 0
95 41 96 46 90 43 45 -263 0
95 41 96 46 90 43 45 -260 0
95 41 96 46 90 43 45 -262 0
95 41 96 46 90 43 45 -264 0
95 41 96 46 90 97 45 -261 0
95 41 96 46 90 97 45 -265 0
95 41 96 46 90 97 45 -263 0
95 41 96 46 90 97 45 -260 0
95 41 96 46 90 97 45 -262 0
95 41 96 46 90 97 45 -264 0
95 41 96 46 43 97 45 -261 0
95 41 96 46 43 97 45 -265 0
95 41 96 46 43 97 45 -263 0
95 41 96 46 43 97 45 -260 0
95 41 96 46 43 97 45 -262 0
95 41 96 46 43 97 45 -264 0
95 41 96 90 43 97 45 -261 0
95 41 96 90 43 97 45 -265 0
95 41 96 90 43 97 45 -263 0
95 41 96 90 43 97 45 -260 0
95 41 96 90 43 97 45 -262 0
95 41 96 90 43 97 45 -264 0
95 41 46 90 43 97 45 -261 0
95 41 46 90 43 97 45 -265 0
95 41 46 90 43 97 45 -263 0
95 41 46 90 43 97 45 -260 0
95 41 46 90 43 97 45 -262 0
95 41 46 90 43 97 45 -264 0
95 57 96 50 90 52 97 -292 0
95 57 96 50 90 52 97 -290 0
95 57 96 50 90 52 97 -287 0
95 57 96 50 90 52 97 -289 0
95 57 96 50 90 52 97 -288 0
95 57 96 50 90 52 97 -291 0
95 57 96 50 90 52 49 -292 0
95 57 96 50 90 52 49 -290 0
95 57 96 50 90 52 49 -287 0
95 57 96 50 90 52 49 -289 0
95 57 96 50 90 52 49 -288 0
95 57 96 50 90 52 49 -291 0
95 57 96 50 90 97 49 -292 0
95 57 96 50 90 97 49 -290 0
95 57 96 50 90 97 49 -287 0
95 57 96 50 90 97 49 -289 0
95 57 96 50 90 97 49 -288 0
95 57 96 50 90 97 49 -291 0
95 57 96 50 52 97 49 -292 0
95 57 96 50 52 97 49 -290 0
95 57 96 50 52 97 49 -287 0
95 57 96 50 52 97 49 -289 0
95 57 96 50 52 97 49 -288 0
95 57 96 50 52 97 49 -291 0
95 57 96 90 52 97 49 -292 0
95 57 96 90 52 97 49 -290 0
95 57 96 90 52 97 49 -287 0
95 57 96 90 52 97 49 -289 0
95 57 96 90 52 97 49 -288 0
95 57 96 90 52 97 49 -291 0
95 57 50 90 52 97 49 -292 0
95 57 50 90 52 97 49 -290 0
95 57 50 90 52 97 49 -287 0
95 57 50 90 52 97 49 -289 0
95 57 50 90 52 97 49 -288 0
95 57 50 90 52 97 49 -291 0
95 83 96 78 90 86 97 -337 0
95 83 96 78 90 86 97 -334 0
95 83 96 78 90 86 97 -332 0
95 83 96 78 90 86 97 -335 0
95 83 96 78 90 86 97 -336 0
95 83 96 78 90 86 97 -333 0
95 83 96 78 90 86 80 -337 0
95 83 96 78 90 86 80 -334 0
95 83 96 78 90 86 80 -332 0
95 83 96 78 90 86 80 -335 0
95 83 96 78 90 86 80 -336 0
95 83 96 78 90 86 80 -333 0
95 83 96 78 90 97 80 -337 0
95 83 96 78 90 97 80 -334 0
95 83 96 78 90 97 80 -332 0
95 83 96 78 90 97 80 -335 0
95 83 96 78 90 97 80 -336 0
95 83 96 78 90 97 80 -333 0
95 83 96 78 86 97 80 -337 0
95 83 96 78 86 97 80 -334 0
95 83 96 78 86 97 80 -332 0
95 83 96 78 86 97 80 -335 0
95 83 96 78 86 97 80 -336 0
95 83 96 78 86 97 80 -333 0
95 83 96 90 86 97 80 -337 0
95 83 96 90 86 97 80 -334 0
95 83 96 90 86 97 80 -332 0
95 83 96 90 86 97 80 -335 0
95 83 96 90 86 97 80 -336 0
95 83 96 90 86 97 80 -333 0
95 83 78 90 86 97 80 -337 0
95 83 78 90 86 97 80 -334 0
95 83 78 90 86 97 80 -332 0
95 83 78 90 86 97 80 -335 0
95 83 78 90 86 97 80 -336 0
95 83 78 90 86 97 80 -333 0
95 63 96 59 90 67 97 -313 0
95 63 96 59 90 67 97 -310 0
95 63 96 59 90 67 97 -308 0
95 63 96 59 90 67 97 -312 0
95 63 96 59 90 67 97 -309 0
95 63 96 59 90 67 97 -311 0
95 63 96 59 90 67 62 -313 0
95 63 96 59 90 67 62 -310 0
95 63 96 59 90 67 62 -308 0
95 63 96 59 90 67 62 -312 0
95 63 96 59 90 67 62 -309 0
95 63 96 59 90 67 62 -311 0
95 63 96 59 90 97 62 -313 0
95 63 96 59 90 97 62 -310 0
95 63 96 59 90 97 62 -308 0
95 63 96 59 90 97 62 -312 0
95 63 96 59 90 97 62 -309 0
95 63 96 59 90 97 62 -311 0
95 63 96 59 67 97 62 -313 0
95 63 96 59 67 97 62 -310 0
95 63 96 59 67 97 62 -308 0
95 63 96 59 67 97 62 -312 0
95 63 96 59 67 97 62 -309 0
95 63 96 59 67 97 62 -311 0
95 63 96 90 67 97 62 -313 0
95 63 96 90 67 97 62 -310 0
95 63 96 90 67 97 62 -308 0
95 63 96 90 67 97 62 -312 0
95 63 96 90 67 97 62 -309 0
95 63 96 90 67 97 62 -311 0
95 63 59 90 67 97 62 -313 0
95 63 59 90 67 97 62 -310 0
95 63 59 90 67 97 62 -308 0
95 63 59 90 67 97 62 -312 0
95 63 59 90 67 97 62 -309 0
95 63 59 90 67 97 62 -311 0
95 69 96 76 90 75 97 -326 0
95 69 96 76 90 75 97 -325 0
95 69 96 76 90 75 97 -328 0
95 69 96 76 90 75 97 -323 0
95 69 96 76 90 75 97 -327 0
95 69 96 76 90 75 97 -324 0
95 69 96 76 90 75 68 -326 0
95 69 96 76 90 75 68 -325 0
95 69 96 76 90 75 68 -328 0
95 69 96 76 90 75 68 -323 0
95 69 96 76 90 75 68 -327 0
95 69 96 76 90 75 68 -324 0
95 69 96 76 90 97 68 -326 0
95 69 96 76 90 97 68 -325 0
95 69 96 76 90 97 68 -328 0
95 69 96 76 90 97 68 -323 0
95 69 96 76 90 97 68 -327 0
95 69 96 76 90 97 68 -324 0
95 69 96 76 75 97 68 -326 0
95 69 96 76 75 97 68 -325 0
95 69 96 76 75 97 68 -328 0
95 69 96 76 75 97 68 -323 0
95 69 96 76 75 97 68 -327 0
95 69 96 76 75 97 68 -324 0
95 69 96 90 75 97 68 -326 0
95 69 96 90 75 97 68 -325 0
95 69 96 90 75 97 68 -328 0
95 69 96 90 75 97 68 -323 0
95 69 96 90 75 97 68 -327 0
95 69 96 90 75 97 68 -324 0
95 69 76 90 75 97 68 -326 0
95 69 76 90 75 97 68 -325 0
95 69 76 90 75 97 68 -328 0
95 69 76 90 75 97 68 -323 0
95 69 76 90 75 97 68 -327 0
95 69 76 90 75 97 68 -324 0
95 31 96 35 90 33 97 -231 0
95 31 96 35 90 33 97 -229 0
95 31 96 35 90 33 97 -228 0
95 31 96 35 90 33 97 -230 0
95 31 96 35 90 33 97 -227 0
95 31 96 35 90 33 97 -232 0
95 31 96 35 90 33 37 -231 0
95 31 96 35 90 33 37 -229 0
95 31 96 35 90 33 37 -228 0
95 31 96 35 90 33 37 -230 0
95 31 96 35 90 33 37 -227 0
95 31 96 35 90 33 37 -232 0
95 31 96 35 90 97 37 -231 0
95 31 96 35 90 97 37 -229 0
95 31 96 35 90 97 37 -228 0
95 31 96 35 90 97 37 -230 0
95 31 96 35 90 97 37 -227 0
95 31 96 35 90 97 37 -232 0
95 31 96 35 33 97 37 -231 0
95 31 96 35 33 97 37 -229 0
95 31 96 35 33 97 37 -228 0
95 31 96 35 33 97 37 -230 0
95 31 96 35 33 97 37 -227 0
95 31 96 35 33 97 37 -232 0
95 31 96 90 33 97 37 -231 0
95 31 96 90 33 97 37 -229 0
95 31 96 90 33 97 37 -228 0
95 31 96 90 33 97 37 -230 0
95 31 96 90 33 97 37 -227 0
95 31 96 90 33 97 37 -232 0
95 31 35 90 33 97 37 -231 0
95 31 35 90 33 97 37 -229 0
95 31 35 90 33 97 37 -228 0
95 31 35 90 33 97 37 -230 0
95 31 35 90 33 97 37 -227 0
95 31 35 90 33 97 37 -232 0
95 20 96 18 90 23 97 -189 0
95 20 96 18 90 23 97 -188 0
95 20 96 18 90 23 97 -193 0
95 20 96 18 90 23 97 -191 0
95 20 96 18 90 23 97 -192 0
95 20 96 18 90 23 97 -190 0
95 96 7 90 6 97 3 -91 0
95 96 7 90 6 97 3 -93 0
95 96 7 90 6 97 3 -94 0
95 96 7 90 6 97 3 -92 0
95 96 7 90 6 97 3 -89 0
95 96 7 90 6 97 3 -88 0
95 96 9 90 13 97 11 -146 0
95 96 9 90 13 97 11 -147 0
95 96 9 90 13 97 11 -143 0
95 96 9 90 13 97 11 -148 0
95 96 9 90 13 97 11 -144 0
95 96 9 90 13 97 11 -145 0
95 96 46 90 43 97 45 -261 0
95 96 46 90 43 97 45 -265 0
95 96 46 90 43 97 45 -263 0
95 96 46 90 43 97 45 -260 0
95 96 46 90 43 97 45 -262 0
95 96 46 90 43 97 45 -264 0
95 96 50 90 52 97 49 -292 0
95 96 50 90 52 97 49 -290 0
95 96 50 90 52 97 49 -287 0
95 96 50 90 52 97 49 -289 0
95 96 50 90 52 97 49 -288 0
95 96 50 90 52 97 49 -291 0
95 96 78 90 86 97 80 -337 0
95 96 78 90 86 97 80 -334 0
95 96 78 90 86 97 80 -332 0
95 96 78 90 86 97 80 -335 0
95 96 78 90 86 97 80 -336 0
95 96 78 90 86 97 80 -333 0
95 96 59 90 67 97 62 -313 0
95 96 59 90 67 97 62 -310 0
95 96 59 90 67 97 62 -308 0
95 96 59 90 67 97 62 -312 0
95 96 59 90 67 97 62 -309 0
95 96 59 90 67 97 62 -311 0
95 96 76 90 75 97 68 -326 0
95 96 76 90 75 97 68 -325 0
95 96 76 90 75 97 68 -328 0
95 96 76 90 75 97 68 -323 0
95 96 76 90 75 97 68 -327 0
95 96 76 90 75 97 68 -324 0
95 96 35 90 33 97 37 -231 0
95 96 35 90 33 97 37 -229 0
95 96 35 90 33 97 37 -228 0
95 96 35 90 33 97 37 -230 0
95 96 35 90 33 97 37 -227 0
95 96 35 90 33 97 37 -232 0
2 8 7 9 6 13 3 -12 0
2 8 7 9 6 13 3 -17 0
2 8 7 9 6 13 3 -15 0
2 8 7 9 6 13 3 -16 0
2 8 7 9 6 13 3 -10 0
2 8 7 9 6 13 3 -14 0
2 8 7 9 6 13 11 -12 0
2 8 7 9 6 13 11 -17 0
2 8 7 9 6 13 11 -15 0
2 8 7 9 6 13 11 -16 0
2 8 7 9 6 13 11 -10 0
2 8 7 9 6 13 11 -14 0
2 8 7 9 6 3 11 -12 0
2 8 7 9 6 3 11 -17 0
2 8 7 9 6 3 11 -15 0
2 8 7 9 6 3 11 -16 0
2 8 7 9 6 3 11 -10 0
2 8 7 9 6 3 11 -14 0
2 8 7 9 13 3 11 -12 0
2 8 7 9 13 3 11 -17 0
2 8 7 9 13 3 11 -15 0
2 8 7 9 13 3 11 -16 0
2 8 7 9 13 3 11 -10 0
2 8 7 9 13 3 11 -14 0
2 8 7 6 13 3 11 -12 0
2 8 7 6 13 3 11 -17 0
2 8 7 6 13 3 11 -15 0
2 8 7 6 13 3 11 -16 0
2 8 7 6 13 3 11 -10 0
2 8 7 6 13 3 11 -14 0
2 8 9 6 13 3 11 -12 0
2 8 9 6 13 3 11 -17 0
2 8 9 6 13 3 11 -15 0
2 8 9 6 13 3 11 -16 0
2 8 9 6 13 3 11 -10 0
2 8 9 6 13 3 11 -14 0
2 41 7 46 6 43 3 -44 0
2 41 7 46 6 43 3 -39 0
2 41 7 46 6 43 3 -38 0
2 41 7 46 6 43 3 -47 0
2 41 7 46 6 43 3 -40 0
2 41 7 46 6 43 3 -42 0
2 41 7 46 6 43 45 -44 0
2 41 7 46 6 43 45 -39 0
2 41 7 46 6 43 45 -38 0
2 41 7 46 6 43 45 -47 0
2 41 7 46 6 43 45 -40 0
2 41 7 46 6 43 45 -42 0
2 41 7 46 6 3 45 -44 0
2 41 7 46 6 3 45 -39 0
2 41 7 46 6 3 45 -38 0
2 41 7 46 6 3 45 -47 0
2 41 7 46 6 3 45 -40 0
2 41 7 46 6 3 45 -42 0
2 41 7 46 43 3 45 -44 0
2 41 7 46 43 3 45 -39 0
2 41 7 46 43 3 45 -38 0
2 41 7 46 43 3 45 -47 0
2 41 7 46 43 3 45 -40 0
2 41 7 46 43 3 45 -42 0
2 41 7 6 43 3 45 -44 0
2 41 7 6 43 3 45 -39 0
2 41 7 6 43 3 45 -38 0
2 41 7 6 43 3 45 -47 0
2 41 7 6 43 3 45 -40 0
2 41 7 6 43 3 45 -42 0
2 41 46 6 43 3 45 -44 0
2 41 46 6 43 3 45 -39 0
2 41 46 6 43 3 45 -38 0
2 41 46 6 43 3 45 -47 0
2 41 46 6 43 3 45 -40 0
2 41 46 6 43 3 45 -42 0
2 57 7 50 6 52 3 -54 0
2 57 7 50 6 52 3 -48 0
2 57 7 50 6 52 3 -56 0
2 57 7 50 6 52 3 -51 0
2 57 7 50 6 52 3 -55 0
2 57 7 50 6 52 3 -53 0
2 57 7 50 6 52 49 -54 0
2 57 7 50 6 52 49 -48 0
2 57 7 50 6 52 49 -56 0
2 57 7 50 6 52 49 -51 0
2 57 7 50 6 52 49 -55 0
2 57 7 50 6 52 49 -53 0
2 57 7 50 6 3 49 -54 0
2 57 7 50 6 3 49 -48 0
2 57 7 50 6 3 49 -56 0
2 57 7 50 6 3 49 -51 0
2 57 7 50 6 3 49 -55 0
2 57 7 50 6 3 49 -53 0
2 57 7 50 52 3 49 -54 0
2 57 7 50 52 3 49 -48 0
2 57 7 50 52 3 49 -56 0
2 57 7 50 52 3 49 -51 0
2 57 7 50 52 3 49 -55 0
2 57 7 50 52 3 49 -53 0
2 57 7 6 52 3 49 -54 0
2 57 7 6 52 3 49 -48 0
2 57 7 6 52 3 49 -56 0
2 57 7 6 52 3 49 -51 0
2 57 7 6 52 3 49 -55 0
2 57 7 6 52 3 49 -53 0
2 57 50 6 52 3 49 -54 0
2 57 50 6 52 3 49 -48 0
2 57 50 6 52 3 49 -56 0
2 57 50 6 52 3 49 -51 0
2 57 50 6 52 3 49 -55 0
2 57 50 6 52 3 49 -53 0
2 83 7 78 6 86 3 -85 0
2 83 7 78 6 86 3 -84 0
2 83 7 78 6 86 3 -79 0
2 83 7 78 6 86 3 -87 0
2 83 7 78 6 86 3 -81 0
2 83 7 78 6 86 3 -82 0
2 83 7 78 6 86 80 -85 0
2 83 7 78 6 86 80 -84 0
2 83 7 78 6 86 80 -79 0
2 83 7 78 6 86 80 -87 0
2 83 7 78 6 86 80 -81 0
2 83 7 78 6 86 80 -82 0
2 83 7 78 6 3 80 -85 0
2 83 7 78 6 3 80 -84 0
2 83 7 78 6 3 80 -79 0
2 83 7 78 6 3 80 -87 0
2 83 7 78 6 3 80 -81 0
2 83 7 78 6 3 80 -82 0
2 83 7 78 86 3 80 -85 0
2 83 7 78 86 3 80 -84 0
2 83 7 78 86 3 80 -79 0
2 83 7 78 86 3 80 -87 0
2 83 7 78 86 3 80 -81 0
2 83 7 78 86 3 80 -82 0
2 83 7 6 86 3 80 -85 0
2 83 7 6 86 3 80 -84 0
2 83 7 6 86 3 80 -79 0
2 83 7 6 86 3 80 -87 0
2 83 7 6 86 3 80 -81 0
2 83 7 6 86 3 80 -82 0
2 83 78 6 86 3 80 -85 0
2 83 78 6 86 3 80 -84 0
2 83 78 6 86 3 80 -79 0
2 83 78 6 86 3 80 -87 0
2 83 78 6 86 3 80 -81 0
2 83 78 6 86 3 80 -82 0
2 63 7 59 6 67 3 -58 0
2 63 7 59 6 67 3 -60 0
2 63 7 59 6 67 3 -61 0
2 63 7 59 6 67 3 -64 0
2 63 7 59 6 67 3 -65 0
2 63 7 59 6 67 3 -66 0
2 63 7 59 6 67 62 -58 0
2 63 7 59 6 67 62 -60 0
2 63 7 59 6 67 62 -61 0
2 63 7 59 6 67 62 -64 0
2 63 7 59 6 67 62 -65 0
2 63 7 59 6 67 62 -66 0
2 63 7 59 6 3 62 -58 0
2 63 7 59 6 3 62 -60 0
2 63 7 59 6 3 62 -61 0
2 63 7 59 6 3 62 -64 0
2 63 7 59 6 3 62 -65 0
2 63 7 59 6 3 62 -66 0
2 63 7 59 67 3 62 -58 0
2 63 7 59 67 3 62 -60 0
2 63 7 59 67 3 62 -61 0
2 63 7 59 67 3 62 -64 0
2 63 7 59 67 3 62 -65 0
2 63 7 59 67 3 62 -66 0
2 63 7 6 67 3 62 -58 0
2 63 7 6 67 3 62 -60 0
2 63 7 6 67 3 62 -61 0
2 63 7 6 67 3 62 -64 0
2 63 7 6 67 3 62 -65 0
2 63 7 6 67 3 62 -66 0
2 63 59 6 67 3 62 -58 0
2 63 59 6 67 3 62 -60 0
2 63 59 6 67 3 62 -61 0
2 63 59 6 67 3 62 -64 0
2 63 59 6 67 3 62 -65 0
2 63 59 6 67 3 62 -66 0
2 69 7 76 6 75 3 -74 0
2 69 7 76 6 75 3 -70 0
2 69 7 76 6 75 3 -77 0
2 69 7 76 6 75 3 -72 0
2 69 7 76 6 75 3 -71 0
2 69 7 76 6 75 3 -73 0
2 69 7 76 6 75 68 -74 0
2 69 7 76 6 75 68 -70 0
2 69 7 76 6 75 68 -77 0
2 69 7 76 6 75 68 -72 0
2 69 7 76 6 75 68 -71 0
2 69 7 76 6 75 68 -73 0
2 69 7 76 6 3 68 -74 0
2 69 7 76 6 3 68 -70 0
2 69 7 76 6 3 68 -77 0
2 69 7 76 6 3 68 -72 0
2 69 7 76 6 3 68 -71 0
2 69 7 76 6 3 68 -73 0
2 69 7 76 75 3 68 -74 0
2 69 7 76 75 3 68 -70 0
2 69 7 76 75 3 68 -77 0
2 69 7 76 75 3 68 -72 0
2 69 7 76 75 3 68 -71 0
2 69 7 76 75 3 68 -73 0
2 69 7 6 75 3 68 -74 0
2 69 7 6 75 3 68 -70 0
2 69 7 6 75 3 68 -77 0
2 69 7 6 75 3 68 -72 0
2 69 7 6 75 3 68 -71 0
2 69 7 6 75 3 68 -73 0
2 69 76 6 75 3 68 -74 0
2 69 76 6 75 3 68 -70 0
2 69 76 6 75 3 68 -77 0
2 69 76 6 75 3 68 -72 0
2 69 76 6 75 3 68 -71 0
2 69 76 6 75 3 68 -73 0
2 31 7 35 6 33 3 -32 0
2 31 7 35 6 33 3 -30 0
2 31 7 35 6 33 3 -36 0
2 31 7 35 6 33 3 -34 0
2 31 7 35 6 33 3 -29 0
2 31 7 35 6 33 3 -28 0
2 31 7 35 6 33 37 -32 0
2 31 7 35 6 33 37 -30 0
2 31 7 35 6 33 37 -36 0
2 31 7 35 6 33 37 -34 0
2 31 7 35 6 33 37 -29 0
2 31 7 35 6 33 37 -28 0
2 31 7 35 6 3 37 -32 0
2 31 7 35 6 3 37 -30 0
2 31 7 35 6 3 37 -36 0
2 31 7 35 6 3 37 -34 0
2 31 7 35 6 3 37 -29 0
2 31 7 35 6 3 37 -28 0
2 31 7 35 33 3 37 -32 0
2 31 7 35 33 3 37 -30 0
2 31 7 35 33 3 37 -36 0
2 31 7 35 33 3 37 -34 0
2 31 7 35 33 3 37 -29 0
2 31 7 35 33 3 37 -28 0
2 31 7 6 33 3 37 -32 0
2 31 7 6 33 3 37 -30 0
2 31 7 6 33 3 37 -36 0
2 31 7 6 33 3 37 -34 0
2 31 7 6 33 3 37 -29 0
2 31 7 6 33 3 37 -28 0
2 31 35 6 33 3 37 -32 0
2 31 35 6 33 3 37 -30 0
2 31 35 6 33 3 37 -36 0
2 31 35 6 33 3 37 -34 0
2 31 35 6 33 3 37 -29 0
2 31 35 6 33 3 37 -28 0
2 20 7 18 6 23 3 -21 0
2 20 7 18 6 23 3 -19 0
2 20 7 18 6 23 3 -25 0
2 20 7 18 6 23 3 -22 0
2 20 7 18 6 23 3 -24 0
2 20 7 18 6 23 3 -26 0
2 96 7 90 6 97 3 -91 0
2 96 7 90 6 97 3 -93 0
2 96 7 90 6 97 3 -94 0
2 96 7 90 6 97 3 -92 0
2 96 7 90 6 97 3 -89 0
2 96 7 90 6 97 3 -88 0
2 7 9 6 13 3 11 -12 0
2 7 9 6 13 3 11 -17 0
2 7 9 6 13 3 11 -15 0
2 7 9 6 13 3 11 -16 0
2 7 9 6 13 3 11 -10 0
2 7 9 6 13 3 11 -14 0
2 7 46 6 43 3 45 -44 0
2 7 46 6 43 3 45 -39 0
2 7 46 6 43 3 45 -38 0
2 7 46 6 43 3 45 -47 0
2 7 46 6 43 3 45 -40 0
2 7 46 6 43 3 45 -42 0
2 7 50 6 52 3 49 -54 0
2 7 50 6 52 3 49 -48 0
2 7 50 6 52 3 49 -56 0
2 7 50 6 52 3 49 -51 0
2 7 50 6 52 3 49 -55 0
2 7 50 6 52 3 49 -53 0
2 7 78 6 86 3 80 -85 0
2 7 78 6 86 3 80 -84 0
2 7 78 6 86 3 80 -79 0
2 7 78 6 86 3 80 -87 0
2 7 78 6 86 3 80 -81 0
2 7 78 6 86 3 80 -82 0
2 7 59 6 67 3 62 -58 0
2 7 59 6 67 3 62 -60 0
2 7 59 6 67 3 62 -61 0
2 7 59 6 67 3 62 -64 0
2 7 59 6 67 3 62 -65 0
2 7 59 6 67 3 62 -66 0
2 7 76 6 75 3 68 -74 0
2 7 76 6 75 3 68 -70 0
2 7 76 6 75 3 68 -77 0
2 7 76 6 75 3 68 -72 0
2 7 76 6 75 3 68 -71 0
2 7 76 6 75 3 68 -73 0
2 7 35 6 33 3 37 -32 0
2 7 35 6 33 3 37 -30 0
2 7 35 6 33 3 37 -36 0
2 7 35 6 33 3 37 -34 0
2 7 35 6 33 3 37 -29 0
2 7 35 6 33 3 37 -28 0
8 41 9 46 13 43 11 -114 0
8 41 9 46 13 43 11 -113 0
8 41 9 46 13 43 11 -115 0
8 41 9 46 13 43 11 -117 0
8 41 9 46 13 43 11 -116 0
8 41 9 46 13 43 11 -118 0
8 41 9 46 13 43 45 -114 0
8 41 9 46 13 43 45 -113 0
8 41 9 46 13 43 45 -115 0
8 41 9 46 13 43 45 -117 0
8 41 9 46 13 43 45 -116 0
8 41 9 46 13 43 45 -118 0
8 41 9 46 13 11 45 -114 0
8 41 9 46 13 11 45 -113 0
8 41 9 46 13 11 45 -115 0
8 41 9 46 13 11 45 -117 0
8 41 9 46 13 11 45 -116 0
8 41 9 46 13 11 45 -118 0
8 41 9 46 43 11 45 -114 0
8 41 9 46 43 11 45 -113 0
8 41 9 46 43 11 45 -115 0
8 41 9 46 43 11 45 -117 0
8 41 9 46 43 11 45 -116 0
8 41 9 46 43 11 45 -118 0
8 41 9 13 43 11 45 -114 0
8 41 9 13 43 11 45 -113 0
8 41 9 13 43 11 45 -115 0
8 41 9 13 43 11 45 -117 0
8 41 9 13 43 11 45 -116 0
8 41 9 13 43 11 45 -118 0
8 41 46 13 43 11 45 -114 0
8 41 46 13 43 11 45 -113 0
8 41 46 13 43 11 45 -115 0
8 41 46 13 43 11 45 -117 0
8 41 46 13 43 11 45 -116 0
8 41 46 13 43 11 45 -118 0
8 57 9 50 13 52 11 -124 0
8 57 9 50 13 52 11 -123 0
8 57 9 50 13 52 11 -120 0
8 57 9 50 13 52 11 -121 0
8 57 9 50 13 52 11 -119 0
8 57 9 50 13 52 11 -122 0
8 57 9 50 13 52 49 -124 0
8 57 9 50 13 52 49 -123 0
8 57 9 50 13 52 49 -120 0
8 57 9 50 13 52 49 -121 0
8 57 9 50 13 52 49 -119 0
8 57 9 50 13 52 49 -122 0
8 57 9 50 13 11 49 -124 0
8 57 9 50 13 11 49 -123 0
8 57 9 50 13 11 49 -120 0
8 57 9 50 13 11 49 -121 0
8 57 9 50 13 11 49 -119 0
8 57 9 50 13 11 49 -122 0
8 57 9 50 52 11 49 -124 0
8 57 9 50 52 11 49 -123 0
8 57 9 50 52 11 49 -120 0
8 57 9 50 52 11 49 -121 0
8 57 9 50 52 11 49 -119 0
8 57 9 50 52 11 49 -122 0
8 57 9 13 52 11 49 -124 0
8 57 9 13 52 11 49 -123 0
8 57 9 13 52 11 49 -120 0
8 57 9 13 52 11 49 -121 0
8 57 9 13 52 11 49 -119 0
8 57 9 13 52 11 49 -122 0
8 57 50 13 52 11 49 -124 0
8 57 50 13 52 11 49 -123 0
8 57 50 13 52 11 49 -120 0
8 57 50 13 52 11 49 -121 0
8 57 50 13 52 11 49 -119 0
8 57 50 13 52 11 49 -122 0
8 83 9 78 13 86 11 -139 0
8 83 9 78 13 86 11 -142 0
8 83 9 78 13 86 11 -138 0
8 83 9 78 13 86 11 -140 0
8 83 9 78 13 86 11 -141 0
8 83 9 78 13 86 11 -137 0
8 83 9 78 13 86 80 -139 0
8 83 9 78 13 86 80 -142 0
8 83 9 78 13 86 80 -138 0
8 83 9 78 13 86 80 -140 0
8 83 9 78 13 86 80 -141 0
8 83 9 78 13 86 80 -137 0
8 83 9 78 13 11 80 -139 0
8 83 9 78 13 11 80 -142 0
8 83 9 78 13 11 80 -138 0
8 83 9 78 13 11 80 -140 0
8 83 9 78 13 11 80 -141 0
8 83 9 78 13 11 80 -137 0
8 83 9 78 86 11 80 -139 0
8 83 9 78 86 11 80 -142 0
8 83 9 78 86 11 80 -138 0
8 83 9 78 86 11 80 -140 0
8 83 9 78 86 11 80 -141 0
8 83 9 78 86 11 80 -137 0
8 83 9 13 86 11 80 -139 0
8 83 9 13 86 11 80 -142 0
8 83 9 13 86 11 80 -138 0
8 83 9 13 86 11 80 -140 0
8 83 9 13 86 11 80 -141 0
8 83 9 13 86 11 80 -137 0
8 83 78 13 86 11 80 -139 0
8 83 78 13 86 11 80 -142 0
8 83 78 13 86 11 80 -138 0
8 83 78 13 86 11 80 -140 0
8 83 78 13 86 11 80 -141 0
8 83 78 13 86 11 80 -137 0
8 63 9 59 13 67 11 -127 0
8 63 9 59 13 67 11 -130 0
8 63 9 59 13 67 11 -128 0
8 63 9 59 13 67 11 -125 0
8 63 9 59 13 67 11 -126 0
8 63 9 59 13 67 11 -129 0
8 63 9 59 13 67 62 -127 0
8 63 9 59 13 67 62 -130 0
8 63 9 59 13 67 62 -128 0
8 63 9 59 13 67 62 -125 0
8 63 9 59 13 67 62 -126 0
8 63 9 59 13 67 62 -129 0
8 63 9 59 13 11 62 -127 0
8 63 9 59 13 11 62 -130 0
8 63 9 59 13 11 62 -128 0
8 63 9 59 13 11 62 -125 0
8 63 9 59 13 11 62 -126 0
8 63 9 59 13 11 62 -129 0
8 63 9 59 67 11 62 -127 0
8 63 9 59 67 11 62 -130 0
8 63 9 59 67 11 62 -128 0
8 63 9 59 67 11 62 -125 0
8 63 9 59 67 11 62 -126 0
8 63 9 59 67 11 62 -129 0
8 63 9 13 67 11 62 -127 0
8 63 9 13 67 11 62 -130 0
8 63 9 13 67 11 62 -128 0
8 63 9 13 67 11 62 -125 0
8 63 9 13 67 11 62 -126 0
8 63 9 13 67 11 62 -129 0
8 63 59 13 67 11 62 -127 0
8 63 59 13 67 11 62 -130 0
8 63 59 13 67 11 62 -128 0
8 63 59 13 67 11 62 -125 0
8 63 59 13 67 11 62 -126 0
8 63 59 13 67 11 62 -129 0
8 69 9 76 13 75 11 -136 0
8 69 9 76 13 75 11 -132 0
8 69 9 76 13 75 11 -131 0
8 69 9 76 13 75 11 -133 0
8 69 9 76 13 75 11 -135 0
8 69 9 76 13 75 11 -134 0
8 69 9 76 13 75 68 -136 0
8 69 9 76 13 75 68 -132 0
8 69 9 76 13 75 68 -131 0
8 69 9 76 13 75 68 -133 0
8 69 9 76 13 75 68 -135 0
8 69 9 76 13 75 68 -134 0
8 69 9 76 13 11 68 -136 0
8 69 9 76 13 11 68 -132 0
8 69 9 76 13 11 68 -131 0
8 69 9 76 13 11 68 -133 0
8 69 9 76 13 11 68 -135 0
8 69 9 76 13 11 68 -134 0
8 69 9 76 75 11 68 -136 0
8 69 9 76 75 11 68 -132 0
8 69 9 76 75 11 68 -131 0
8 69 9 76 75 11 68 -133 0
8 69 9 76 75 11 68 -135 0
8 69 9 76 75 11 68 -134 0
8 69 9 13 75 11 68 -136 0
8 69 9 13 75 11 68 -132 0
8 69 9 13 75 11 68 -131 0
8 69 9 13 75 11 68 -133 0
8 69 9 13 75 11 68 -135 0
8 69 9 13 75 11 68 -134 0
8 69 76 13 75 11 68 -136 0
8 69 76 13 75 11 68 -132 0
8 69 76 13 75 11 68 -131 0
8 69 76 13 75 11 68 -133 0
8 69 76 13 75 11 68 -135 0
8 69 76 13 75 11 68 -134 0
8 31 9 35 13 33 11 -107 0
8 31 9 35 13 33 11 -109 0
8 31 9 35 13 33 11 -108 0
8 31 9 35 13 33 11 -110 0
8 31 9 35 13 33 11 -112 0
8 31 9 35 13 33 11 -111 0
8 31 9 35 13 33 37 -107 0
8 31 9 35 13 33 37 -109 0
8 31 9 35 13 33 37 -108 0
8 31 9 35 13 33 37 -110 0
8 31 9 35 13 33 37 -112 0
8 31 9 35 13 33 37 -111 0
8 31 9 35 13 11 37 -107 0
8 31 9 35 13 11 37 -109 0
8 31 9 35 13 11 37 -108 0
8 31 9 35 13 11 37 -110 0
8 31 9 35 13 11 37 -112 0
8 31 9 35 13 11 37 -111 0
8 31 9 35 33 11 37 -107 0
8 31 9 35 33 11 37 -109 0
8 31 9 35 33 11 37 -108 0
8 31 9 35 33 11 37 -110 0
8 31 9 35 33 11 37 -112 0
8 31 9 35 33 11 37 -111 0
8 31 9 13 33 11 37 -107 0
8 31 9 13 33 11 37 -109 0
8 31 9 13 33 11 37 -108 0
8 31 9 13 33 11 37 -110 0
8 31 9 13 33 11 37 -112 0
8 31 9 13 33 11 37 -111 0
8 31 35 13 33 11 37 -107 0
8 31 35 13 33 11 37 -109 0
8 31 35 13 33 11 37 -108 0
8 31 35 13 33 11 37 -110 0
8 31 35 13 33 11 37 -112 0
8 31 35 13 33 11 37 -111 0
8 20 9 18 13 23 11 -103 0
8 20 9 18 13 23 11 -102 0
8 20 9 18 13 23 11 -106 0
8 20 9 18 13 23 11 -105 0
8 20 9 18 13 23 11 -101 0
8 20 9 18 13 23 11 -104 0
8 96 9 90 13 97 11 -146 0
8 96 9 90 13 97 11 -147 0
8 96 9 90 13 97 11 -143 0
8 96 9 90 13 97 11 -148 0
8 96 9 90 13 97 11 -144 0
8 96 9 90 13 97 11 -145 0
8 7 9 6 13 3 11 -12 0
8 7 9 6 13 3 11 -17 0
8 7 9 6 13 3 11 -15 0
8 7 9 6 13 3 11 -16 0
8 7 9 6 13 3 11 -10 0
8 7 9 6 13 3 11 -14 0
8 9 46 13 43 11 45 -114 0
8 9 46 13 43 11 45 -113 0
8 9 46 13 43 11 45 -115 0
8 9 46 13 43 11 45 -117 0
8 9 46 13 43 11 45 -116 0
8 9 46 13 43 11 45 -118 0
8 9 50 13 52 11 49 -124 0
8 9 50 13 52 11 49 -123 0
8 9 50 13 52 11 49 -120 0
8 9 50 13 52 11 49 -121 0
8 9 50 13 52 11 49 -119 0
8 9 50 13 52 11 49 -122 0
8 9 78 13 86 11 80 -139 0
8 9 78 13 86 11 80 -142 0
8 9 78 13 86 11 80 -138 0
8 9 78 13 86 11 80 -140 0
8 9 78 13 86 11 80 -141 0
8 9 78 13 86 11 80 -137 0
8 9 59 13 67 11 62 -127 0
8 9 59 13 67 11 62 -130 0
8 9 59 13 67 11 62 -128 0
8 9 59 13 67 11 62 -125 0
8 9 59 13 67 11 62 -126 0
8 9 59 13 67 11 62 -129 0
8 9 76 13 75 11 68 -136 0
8 9 76 13 75 11 68 -132 0
8 9 76 13 75 11 68 -131 0
8 9 76 13 75 11 68 -133 0
8 9 76 13 75 11 68 -135 0
8 9 76 13 75 11 68 -134 0
8 9 35 13 33 11 37 -107 0
8 9 35 13 33 11 37 -109 0
8 9 35 13 33 11 37 -108 0
8 9 35 13 33 11 37 -110 0
8 9 35 13 33 11 37 -112 0
8 9 35 13 33 11 37 -111 0
41 57 46 50 43 52 45 -237 0
41 57 46 50 43 52 45 -236 0
41 57 46 50 43 52 45 -240 0
41 57 46 50 43 52 45 -238 0
41 57 46 50 43 52 45 -241 0
41 57 46 50 43 52 45 -239 0
41 57 46 50 43 52 49 -237 0
41 57 46 50 43 52 49 -236 0
41 57 46 50 43 52 49 -240 0
41 57 46 50 43 52 49 -238 0
41 57 46 50 43 52 49 -241 0
41 57 46 50 43 52 49 -239 0
41 57 46 50 43 45 49 -237 0
41 57 46 50 43 45 49 -236 0
41 57 46 50 43 45 49 -240 0
41 57 46 50 43 45 49 -238 0
41 57 46 50 43 45 49 -241 0
41 57 46 50 43 45 49 -239 0
41 57 46 50 52 45 49 -237 0
41 57 46 50 52 45 49 -236 0
41 57 46 50 52 45 49 -240 0
41 57 46 50 52 45 49 -238 0
41 57 46 50 52 45 49 -241 0
41 57 46 50 52 45 49 -239 0
41 57 46 43 52 45 49 -237 0
41 57 46 43 52 45 49 -236 0
41 57 46 43 52 45 49 -240 0
41 57 46 43 52 45 49 -238 0
41 57 46 43 52 45 49 -241 0
41 57 46 43 52 45 49 -239 0
41 57 50 43 52 45 49 -237 0
41 57 50 43 52 45 49 -236 0
41 57 50 43 52 45 49 -240 0
41 57 50 43 52 45 49 -238 0
41 57 50 43 52 45 49 -241 0
41 57 50 43 52 45 49 -239 0
41 83 46 78 43 86 45 -255 0
41 83 46 78 43 86 45 -258 0
41 83 46 78 43 86 45 -256 0
41 83 46 78 43 86 45 -259 0
41 83 46 78 43 86 45 -257 0
41 83 46 78 43 86 45 -254 0
41 83 46 78 43 86 80 -255 0
41 83 46 78 43 86 80 -258 0
41 83 46 78 43 86 80 -256 0
41 83 46 78 43 86 80 -259 0
41 83 46 78 43 86 80 -257 0
41 83 46 78 43 86 80 -254 0
41 83 46 78 43 45 80 -255 0
41 83 46 78 43 45 80 -258 0
41 83 46 78 43 45 80 -256 0
41 83 46 78 43 45 80 -259 0
41 83 46 78 43 45 80 -257 0
41 83 46 78 43 45 80 -254 0
41 83 46 78 86 45 80 -255 0
41 83 46 78 86 45 80 -258 0
41 83 46 78 86 45 80 -256 0
41 83 46 78 86 45 80 -259 0
41 83 46 78 86 45 80 -257 0
41 83 46 78 86 45 80 -254 0
41 83 46 43 86 45 80 -255 0
41 83 46 43 86 45 80 -258 0
41 83 46 43 86 45 80 -256 0
41 83 46 43 86 45 80 -259 0
41 83 46 43 86 45 80 -257 0
41 83 46 43 86 45 80 -254 0
41 83 78 43 86 45 80 -255 0
41 83 78 43 86 45 80 -258 0
41 83 78 43 86 45 80 -256 0
41 83 78 43 86 45 80 -259 0
41 83 78 43 86 45 80 -257 0
41 83 78 43 86 45 80 -254 0
41 63 46 59 43 67 45 -242 0
41 63 46 59 43 67 45 -247 0
41 63 46 59 43 67 45 -244 0
41 63 46 59 43 67 45 -245 0
41 63 46 59 43 67 45 -243 0
41 63 46 59 43 67 45 -246 0
41 63 46 59 43 67 62 -242 0
41 63 46 59 43 67 62 -247 0
41 63 46 59 43 67 62 -244 0
41 63 46 59 43 67 62 -245 0
41 63 46 59 43 67 62 -243 0
41 63 46 59 43 67 62 -246 0
41 63 46 59 43 45 62 -242 0
41 63 46 59 43 45 62 -247 0
41 63 46 59 43 45 62 -244 0
41 63 46 59 43 45 62 -245 0
41 63 46 59 43 45 62 -243 0
41 63 46 59 43 45 62 -246 0
41 63 46 59 67 45 62 -242 0
41 63 46 59 67 45 62 -247 0
41 63 46 59 67 45 62 -244 0
41 63 46 59 67 45 62 -245 0
41 63 46 59 67 45 62 -243 0
41 63 46 59 67 45 62 -246 0
41 63 46 43 67 45 62 -242 0
41 63 46 43 67 45 62 -247 0
41 63 46 43 67 45 62 -244 0
41 63 46 43 67 45 62 -245 0
41 63 46 43 67 45 62 -243 0
41 63 46 43 67 45 62 -246 0
41 63 59 43 67 45 62 -242 0
41 63 59 43 67 45 62 -247 0
41 63 59 43 67 45 62 -244 0
41 63 59 43 67 45 62 -245 0
41 63 59 43 67 45 62 -243 0
41 63 59 43 67 45 62 -246 0
41 69 46 76 43 75 45 -252 0
41 69 46 76 43 75 45 -251 0
41 69 46 76 43 75 45 -250 0
41 69 46 76 43 75 45 -248 0
41 69 46 76 43 75 45 -253 0
41 69 46 76 43 75 45 -249 0
41 69 46 76 43 75 68 -252 0
41 69 46 76 43 75 68 -251 0
41 69 46 76 43 75 68 -250 0
41 69 46 76 43 75 68 -248 0
41 69 46 76 43 75 68 -253 0
41 69 46 76 43 75 68 -249 0
41 69 46 76 43 45 68 -252 0
41 69 46 76 43 45 68 -251 0
41 69 46 76 43 45 68 -250 0
41 69 46 76 43 45 68 -248 0
41 69 46 76 43 45 68 -253 0
41 69 46 76 43 45 68 -249 0
41 69 46 76 75 45 68 -252 0
41 69 46 76 75 45 68 -251 0
41 69 46 76 75 45 68 -250 0
41 69 46 76 75 45 68 -248 0
41 69 46 76 75 45 68 -253 0
41 69 46 76 75 45 68 -249 0
41 69 46 43 75 45 68 -252 0
41 69 46 43 75 45 68 -251 0
41 69 46 43 75 45 68 -250 0
41 69 46 43 75 45 68 -248 0
41 69 46 43 75 45 68 -253 0
41 69 46 43 75 45 68 -249 0
41 69 76 43 75 45 68 -252 0
41 69 76 43 75 45 68 -251 0
41 69 76 43 75 45 68 -250 0
41 69 76 43 75 45 68 -248 0
41 69 76 43 75 45 68 -253 0
41 69 76 43 75 45 68 -249 0
41 31 46 35 43 33 45 -198 0
41 31 46 35 43 33 45 -200 0
41 31 46 35 43 33 45 -202 0
41 31 46 35 43 33 45 -197 0
41 31 46 35 43 33 45 -199 0
41 31 46 35 43 33 45 -201 0
41 31 46 35 43 33 37 -198 0
41 31 46 35 43 33 37 -200 0
41 31 46 35 43 33 37 -202 0
41 31 46 35 43 33 37 -197 0
41 31 46 35 43 33 37 -199 0
41 31 46 35 43 33 37 -201 0
41 31 46 35 43 45 37 -198 0
41 31 46 35 43 45 37 -200 0
41 31 46 35 43 45 37 -202 0
41 31 46 35 43 45 37 -197 0
41 31 46 35 43 45 37 -199 0
41 31 46 35 43 45 37 -201 0
41 31 46 35 33 45 37 -198 0
41 31 46 35 33 45 37 -200 0
41 31 46 35 33 45 37 -202 0
41 31 46 35 33 45 37 -197 0
41 31 46 35 33 45 37 -199 0
41 31 46 35 33 45 37 -201 0
41 31 46 43 33 45 37 -198 0
41 31 46 43 33 45 37 -200 0
41 31 46 43 33 45 37 -202 0
41 31 46 43 33 45 37 -197 0
41 31 46 43 33 45 37 -199 0
41 31 46 43 33 45 37 -201 0
41 31 35 43 33 45 37 -198 0
41 31 35 43 33 45 37 -200 0
41 31 35 43 33 45 37 -202 0
41 31 35 43 33 45 37 -197 0
41 31 35 43 33 45 37 -199 0
41 31 35 43 33 45 37 -201 0
41 20 46 18 43 23 45 -158 0
41 20 46 18 43 23 45 -161 0
41 20 46 18 43 23 45 -162 0
41 20 46 18 43 23 45 -159 0
41 20 46 18 43 23 45 -163 0
41 20 46 18 43 23 45 -160 0
41 96 46 90 43 97 45 -261 0
41 96 46 90 43 97 45 -265 0
41 96 46 90 43 97 45 -263 0
41 96 46 90 43 97 45 -260 0
41 96 46 90 43 97 45 -262 0
41 96 46 90 43 97 45 -264 0
41 7 46 6 43 3 45 -44 0
41 7 46 6 43 3 45 -39 0
41 7 46 6 43 3 45 -38 0
41 7 46 6 43 3 45 -47 0
41 7 46 6 43 3 45 -40 0
41 7 46 6 43 3 45 -42 0
41 9 46 13 43 11 45 -114 0
41 9 46 13 43 11 45 -113 0
41 9 46 13 43 11 45 -115 0
41 9 46 13 43 11 45 -117 0
41 9 46 13 43 11 45 -116 0
41 9 46 13 43 11 45 -118 0
41 46 50 43 52 45 49 -237 0
41 46 50 43 52 45 49 -236 0
41 46 50 43 52 45 49 -240 0
41 46 50 43 52 45 49 -238 0
41 46 50 43 52 45 49 -241 0
41 46 50 43 52 45 49 -239 0
41 46 78 43 86 45 80 -255 0
41 46 78 43 86 45 80 -258 0
41 46 78 43 86 45 80 -256 0
41 46 78 43 86 45 80 -259 0
41 46 78 43 86 45 80 -257 0
41 46 78 43 86 45 80 -254 0
41 46 59 43 67 45 62 -242 0
41 46 59 43 67 45 62 -247 0
41 46 59 43 67 45 62 -244 0
41 46 59 43 67 45 62 -245 0
41 46 59 43 67 45 62 -243 0
41 46 59 43 67 45 62 -246 0
41 46 76 43 75 45 68 -252 0
41 46 76 43 75 45 68 -251 0
41 46 76 43 75 45 68 -250 0
41 46 76 43 75 45 68 -248 0
41 46 76 43 75 45 68 -253 0
41 46 76 43 75 45 68 -249 0
41 46 35 43 33 45 37 -198 0
41 46 35 43 33 45 37 -200 0
41 46 35 43 33 45 37 -202 0
41 46 35 43 33 45 37 -197 0
41 46 35 43 33 45 37 -199 0
41 46 35 43 33 45 37 -201 0
57 83 50 78 52 86 49 -284 0
57 83 50 78 52 86 49 -282 0
57 83 50 78 52 86 49 -281 0
57 83 50 78 52 86 49 -283 0
57 83 50 78 52 86 49 -286 0
57 83 50 78 52 86 49 -285 0
57 83 50 78 52 86 80 -284 0
57 83 50 78 52 86 80 -282 0
57 83 50 78 52 86 80 -281 0
57 83 50 78 52 86 80 -283 0
57 83 50 78 52 86 80 -286 0
57 83 50 78 52 86 80 -285 0
57 83 50 78 52 49 80 -284 0
57 83 50 78 52 49 80 -282 0
57 83 50 78 52 49 80 -281 0
57 83 50 78 52 49 80 -283 0
57 83 50 78 52 49 80 -286 0
57 83 50 78 52 49 80 -285 0
57 83 50 78 86 49 80 -284 0
57 83 50 78 86 49 80 -282 0
57 83 50 78 86 49 80 -281 0
57 83 50 78 86 49 80 -283 0
57 83 50 78 86 49 80 -286 0
57 83 50 78 86 49 80 -285 0
57 83 50 52 86 49 80 -284 0
57 83 50 52 86 49 80 -282 0
57 83 50 52 86 49 80 -281 0
57 83 50 52 86 49 80 -283 0
57 83 50 52 86 49 80 -286 0
57 83 50 52 86 49 80 -285 0
57 83 78 52 86 49 80 -284 0
57 83 78 52 86 49 80 -282 0
57 83 78 52 86 49 80 -281 0
57 83 78 52 86 49 80 -283 0
57 83 78 52 86 49 80 -286 0
57 83 78 52 86 49 80 -285 0
57 63 50 59 52 67 49 -270 0
57 63 50 59 52 67 49 -269 0
57 63 50 59 52 67 49 -271 0
57 63 50 59 52 67 49 -272 0
57 63 50 59 52 67 49 -273 0
57 63 50 59 52 67 49 -274 0
57 63 50 59 52 67 62 -270 0
57 63 50 59 52 67 62 -269 0
57 63 50 59 52 67 62 -271 0
57 63 50 59 52 67 62 -272 0
57 63 50 59 52 67 62 -273 0
57 63 50 59 52 67 62 -274 0
57 63 50 59 52 49 62 -270 0
57 63 50 59 52 49 62 -269 0
57 63 50 59 52 49 62 -271 0
57 63 50 59 52 49 62 -272 0
57 63 50 59 52 49 62 -273 0
57 63 50 59 52 49 62 -274 0
57 63 50 59 67 49 62 -270 0
57 63 50 59 67 49 62 -269 0
57 63 50 59 67 49 62 -271 0
57 63 50 59 67 49 62 -272 0
57 63 50 59 67 49 62 -273 0
57 63 50 59 67 49 62 -274 0
57 63 50 52 67 49 62 -270 0
57 63 50 52 67 49 62 -269 0
57 63 50 52 67 49 62 -271 0
57 63 50 52 67 49 62 -272 0
57 63 50 52 67 49 62 -273 0
57 63 50 52 67 49 62 -274 0
57 63 59 52 67 49 62 -270 0
57 63 59 52 67 49 62 -269 0
57 63 59 52 67 49 62 -271 0
57 63 59 52 67 49 62 -272 0
57 63 59 52 67 49 62 -273 0
57 63 59 52 67 49 62 -274 0
57 69 50 76 52 75 49 -277 0
57 69 50 76 52 75 49 -278 0
57 69 50 76 52 75 49 -280 0
57 69 50 76 52 75 49 -279 0
57 69 50 76 52 75 49 -276 0
57 69 50 76 52 75 49 -275 0
57 69 50 76 52 75 68 -277 0
57 69 50 76 52 75 68 -278 0
57 69 50 76 52 75 68 -280 0
57 69 50 76 52 75 68 -279 0
57 69 50 76 52 75 68 -276 0
57 69 50 76 52 75 68 -275 0
57 69 50 76 52 49 68 -277 0
57 69 50 76 52 49 68 -278 0
57 69 50 76 52 49 68 -280 0
57 69 50 76 52 49 68 -279 0
57 69 50 76 52 49 68 -276 0
57 69 50 76 52 49 68 -275 0
57 69 50 76 75 49 68 -277 0
57 69 50 76 75 49 68 -278 0
57 69 50 76 75 49 68 -280 0
57 69 50 76 75 49 68 -279 0
57 69 50 76 75 49 68 -276 0
57 69 50 76 75 49 68 -275 0
57 69 50 52 75 49 68 -277 0
57 69 50 52 75 49 68 -278 0
57 69 50 52 75 49 68 -280 0
57 69 50 52 75 49 68 -279 0
57 69 50 52 75 49 68 -276 0
57 69 50 52 75 49 68 -275 0
57 69 76 52 75 49 68 -277 0
57 69 76 52 75 49 68 -278 0
57 69 76 52 75 49 68 -280 0
57 69 76 52 75 49 68 -279 0
57 69 76 52 75 49 68 -276 0
57 69 76 52 75 49 68 -275 0
57 31 50 35 52 33 49 -206 0
57 31 50 35 52 33 49 -204 0
57 31 50 35 52 33 49 -208 0
57 31 50 35 52 33 49 -203 0
57 31 50 35 52 33 49 -205 0
57 31 50 35 52 33 49 -207 0
57 31 50 35 52 33 37 -206 0
57 31 50 35 52 33 37 -204 0
57 31 50 35 52 33 37 -208 0
57 31 50 35 52 33 37 -203 0
57 31 50 35 52 33 37 -205 0
57 31 50 35 52 33 37 -207 0
57 31 50 35 52 49 37 -206 0
57 31 50 35 52 49 37 -204 0
57 31 50 35 52 49 37 -208 0
57 31 50 35 52 49 37 -203 0
57 31 50 35 52 49 37 -205 0
57 31 50 35 52 49 37 -207 0
57 31 50 35 33 49 37 -206 0
57 31 50 35 33 49 37 -204 0
57 31 50 35 33 49 37 -208 0
57 31 50 35 33 49 37 -203 0
57 31 50 35 33 49 37 -205 0
57 31 50 35 33 49 37 -207 0
57 31 50 52 33 49 37 -206 0
57 31 50 52 33 49 37 -204 0
57 31 50 52 33 49 37 -208 0
57 31 50 52 33 49 37 -203 0
57 31 50 52 33 49 37 -205 0
57 31 50 52 33 49 37 -207 0
57 31 35 52 33 49 37 -206 0
57 31 35 52 33 49 37 -204 0
57 31 35 52 33 49 37 -208 0
57 31 35 52 33 49 37 -203 0
57 31 35 52 33 49 37 -205 0
57 31 35 52 33 49 37 -207 0
57 20 50 18 52 23 49 -165 0
57 20 50 18 52 23 49 -164 0
57 20 50 18 52 23 49 -166 0
57 20 50 18 52 23 49 -167 0
57 20 50 18 52 23 49 -168 0
57 20 50 18 52 23 49 -169 0
57 96 50 90 52 97 49 -292 0
57 96 50 90 52 97 49 -290 0
57 96 50 90 52 97 49 -287 0
57 96 50 90 52 97 49 -289 0
57 96 50 90 52 97 49 -288 0
57 96 50 90 52 97 49 -291 0
57 7 50 6 52 3 49 -54 0
57 7 50 6 52 3 49 -48 0
57 7 50 6 52 3 49 -56 0
57 7 50 6 52 3 49 -51 0
57 7 50 6 52 3 49 -55 0
57 7 50 6 52 3 49 -53 0
57 9 50 13 52 11 49 -124 0
57 9 50 13 52 11 49 -123 0
57 9 50 13 52 11 49 -120 0
57 9 50 13 52 11 49 -121 0
57 9 50 13 52 11 49 -119 0
57 9 50 13 52 11 49 -122 0
57 46 50 43 52 45 49 -237 0
57 46 50 43 52 45 49 -236 0
57 46 50 43 52 45 49 -240 0
57 46 50 43 52 45 49 -238 0
57 46 50 43 52 45 49 -241 0
57 46 50 43 52 45 49 -239 0
57 50 78 52 86 49 80 -284 0
57 50 78 52 86 49 80 -282 0
57 50 78 52 86 49 80 -281 0
57 50 78 52 86 49 80 -283 0
57 50 78 52 86 49 80 -286 0
57 50 78 52 86 49 80 -285 0
57 50 59 52 67 49 62 -270 0
57 50 59 52 67 49 62 -269 0
57 50 59 52 67 49 62 -271 0
57 50 59 52 67 49 62 -272 0
57 50 59 52 67 49 62 -273 0
57 50 59 52 67 49 62 -274 0
57 50 76 52 75 49 68 -277 0
57 50 76 52 75 49 68 -278 0
57 50 76 52 75 49 68 -280 0
57 50 76 52 75 49 68 -279 0
57 50 76 52 75 49 68 -276 0
57 50 76 52 75 49 68 -275 0
57 50 35 52 33 49 37 -206 0
57 50 35 52 33 49 37 -204 0
57 50 35 52 33 49 37 -208 0
57 50 35 52 33 49 37 -203 0
57 50 35 52 33 49 37 -205 0
57 50 35 52 33 49 37 -207 0
83 63 78 59 86 67 80 -307 0
83 63 78 59 86 67 80 -305 0
83 63 78 59 86 67 80 -303 0
83 63 78 59 86 67 80 -306 0
83 63 78 59 86 67 80 -304 0
83 63 78 59 86 67 80 -302 0
83 63 78 59 86 67 62 -307 0
83 63 78 59 86 67 62 -305 0
83 63 78 59 86 67 62 -303 0
83 63 78 59 86 67 62 -306 0
83 63 78 59 86 67 62 -304 0
83 63 78 59 86 67 62 -302 0
83 63 78 59 86 80 62 -307 0
83 63 78 59 86 80 62 -305 0
83 63 78 59 86 80 62 -303 0
83 63 78 59 86 80 62 -306 0
83 63 78 59 86 80 62 -304 0
83 63 78 59 86 80 62 -302 0
83 63 78 59 67 80 62 -307 0
83 63 78 59 67 80 62 -305 0
83 63 78 59 67 80 62 -303 0
83 63 78 59 67 80 62 -306 0
83 63 78 59 67 80 62 -304 0
83 63 78 59 67 80 62 -302 0
83 63 78 86 67 80 62 -307 0
83 63 78 86 67 80 62 -305 0
83 63 78 86 67 80 62 -303 0
83 63 78 86 67 80 62 -306 0
83 63 78 86 67 80 62 -304 0
83 63 78 86 67 80 62 -302 0
83 63 59 86 67 80 62 -307 0
83 63 59 86 67 80 62 -305 0
83 63 59 86 67 80 62 -303 0
83 63 59 86 67 80 62 -306 0
83 63 59 86 67 80 62 -304 0
83 63 59 86 67 80 62 -302 0
83 69 78 76 86 75 80 -317 0
83 69 78 76 86 75 80 -319 0
83 69 78 76 86 75 80 -318 0
83 69 78 76 86 75 80 -322 0
83 69 78 76 86 75 80 -320 0
83 69 78 76 86 75 80 -321 0
83 69 78 76 86 75 68 -317 0
83 69 78 76 86 75 68 -319 0
83 69 78 76 86 75 68 -318 0
83 69 78 76 86 75 68 -322 0
83 69 78 76 86 75 68 -320 0
83 69 78 76 86 75 68 -321 0
83 69 78 76 86 80 68 -317 0
83 69 78 76 86 80 68 -319 0
83 69 78 76 86 80 68 -318 0
83 69 78 76 86 80 68 -322 0
83 69 78 76 86 80 68 -320 0
83 69 78 76 86 80 68 -321 0
83 69 78 76 75 80 68 -317 0
83 69 78 76 75 80 68 -319 0
83 69 78 76 75 80 68 -318 0
83 69 78 76 75 80 68 -322 0
83 69 78 76 75 80 68 -320 0
83 69 78 76 75 80 68 -321 0
83 69 78 86 75 80 68 -317 0
83 69 78 86 75 80 68 -319 0
83 69 78 86 75 80 68 -318 0
83 69 78 86 75 80 68 -322 0
83 69 78 86 75 80 68 -320 0
83 69 78 86 75 80 68 -321 0
83 69 76 86 75 80 68 -317 0
83 69 76 86 75 80 68 -319 0
83 69 76 86 75 80 68 -318 0
83 69 76 86 75 80 68 -322 0
83 69 76 86 75 80 68 -320 0
83 69 76 86 75 80 68 -321 0
83 31 78 35 86 33 80 -223 0
83 31 78 35 86 33 80 -224 0
83 31 78 35 86 33 80 -222 0
83 31 78 35 86 33 80 -226 0
83 31 78 35 86 33 80 -225 0
83 31 78 35 86 33 80 -221 0
83 31 78 35 86 33 37 -223 0
83 31 78 35 86 33 37 -224 0
83 31 78 35 86 33 37 -222 0
83 31 78 35 86 33 37 -226 0
83 31 78 35 86 33 37 -225 0
83 31 78 35 86 33 37 -221 0
83 31 78 35 86 80 37 -223 0
83 31 78 35 86 80 37 -224 0
83 31 78 35 86 80 37 -222 0
83 31 78 35 86 80 37 -226 0
83 31 78 35 86 80 37 -225 0
83 31 78 35 86 80 37 -221 0
83 31 78 35 33 80 37 -223 0
83 31 78 35 33 80 37 -224 0
83 31 78 35 33 80 37 -222 0
83 31 78 35 33 80 37 -226 0
83 31 78 35 33 80 37 -225 0
83 31 78 35 33 80 37 -221 0
83 31 78 86 33 80 37 -223 0
83 31 78 86 33 80 37 -224 0
83 31 78 86 33 80 37 -222 0
83 31 78 86 33 80 37 -226 0
83 31 78 86 33 80 37 -225 0
83 31 78 86 33 80 37 -221 0
83 31 35 86 33 80 37 -223 0
83 31 35 86 33 80 37 -224 0
83 31 35 86 33 80 37 -222 0
83 31 35 86 33 80 37 -226 0
83 31 35 86 33 80 37 -225 0
83 31 35 86 33 80 37 -221 0
83 20 78 18 86 23 80 -186 0
83 20 78 18 86 23 80 -187 0
83 20 78 18 86 23 80 -183 0
83 20 78 18 86 23 80 -184 0
83 20 78 18 86 23 80 -182 0
83 20 78 18 86 23 80 -185 0
83 96 78 90 86 97 80 -337 0
83 96 78 90 86 97 80 -334 0
83 96 78 90 86 97 80 -332 0
83 96 78 90 86 97 80 -335 0
83 96 78 90 86 97 80 -336 0
83 96 78 90 86 97 80 -333 0
83 7 78 6 86 3 80 -85 0
83 7 78 6 86 3 80 -84 0
83 7 78 6 86 3 80 -79 0
83 7 78 6 86 3 80 -87 0
83 7 78 6 86 3 80 -81 0
83 7 78 6 86 3 80 -82 0
83 9 78 13 86 11 80 -139 0
83 9 78 13 86 11 80 -142 0
83 9 78 13 86 11 80 -138 0
83 9 78 13 86 11 80 -140 0
83 9 78 13 86 11 80 -141 0
83 9 78 13 86 11 80 -137 0
83 46 78 43 86 45 80 -255 0
83 46 78 43 86 45 80 -258 0
83 46 78 43 86 45 80 -256 0
83 46 78 43 86 45 80 -259 0
83 46 78 43 86 45 80 -257 0
83 46 78 43 86 45 80 -254 0
83 50 78 52 86 49 80 -284 0
83 50 78 52 86 49 80 -282 0
83 50 78 52 86 49 80 -281 0
83 50 78 52 86 49 80 -283 0
83 50 78 52 86 49 80 -286 0
83 50 78 52 86 49 80 -285 0
83 78 59 86 67 80 62 -307 0
83 78 59 86 67 80 62 -305 0
83 78 59 86 67 80 62 -303 0
83 78 59 86 67 80 62 -306 0
83 78 59 86 67 80 62 -304 0
83 78 59 86 67 80 62 -302 0
83 78 76 86 75 80 68 -317 0
83 78 76 86 75 80 68 -319 0
83 78 76 86 75 80 68 -318 0
83 78 76 86 75 80 68 -322 0
83 78 76 86 75 80 68 -320 0
83 78 76 86 75 80 68 -321 0
83 78 35 86 33 80 37 -223 0
83 78 35 86 33 80 37 -224 0
83 78 35 86 33 80 37 -222 0
83 78 35 86 33 80 37 -226 0
83 78 35 86 33 80 37 -225 0
83 78 35 86 33 80 37 -221 0
63 69 59 76 67 75 62 -300 0
63 69 59 76 67 75 62 -296 0
63 69 59 76 67 75 62 -297 0
63 69 59 76 67 75 62 -298 0
63 69 59 76 67 75 62 -299 0
63 69 59 76 67 75 62 -301 0
63 69 59 76 67 75 68 -300 0
63 69 59 76 67 75 68 -296 0
63 69 59 76 67 75 68 -297 0
63 69 59 76 67 75 68 -298 0
63 69 59 76 67 75 68 -299 0
63 69 59 76 67 75 68 -301 0
63 69 59 76 67 62 68 -300 0
63 69 59 76 67 62 68 -296 0
63 69 59 76 67 62 68 -297 0
63 69 59 76 67 62 68 -298 0
63 69 59 76 67 62 68 -299 0
63 69 59 76 67 62 68 -301 0
63 69 59 76 75 62 68 -300 0
63 69 59 76 75 62 68 -296 0
63 69 59 76 75 62 68 -297 0
63 69 59 76 75 62 68 -298 0
63 69 59 76 75 62 68 -299 0
63 69 59 76 75 62 68 -301 0
63 69 59 67 75 62 68 -300 0
63 69 59 67 75 62 68 -296 0
63 69 59 67 75 62 68 -297 0
63 69 59 67 75 62 68 -298 0
63 69 59 67 75 62 68 -299 0
63 69 59 67 75 62 68 -301 0
63 69 76 67 75 62 68 -300 0
63 69 76 67 75 62 68 -296 0
63 69 76 67 75 62 68 -297 0
63 69 76 67 75 62 68 -298 0
63 69 76 67 75 62 68 -299 0
63 69 76 67 75 62 68 -301 0
63 31 59 35 67 33 62 -210 0
63 31 59 35 67 33 62 -212 0
63 31 59 35 67 33 62 -209 0
63 31 59 35 67 33 62 -213 0
63 31 59 35 67 33 62 -214 0
63 31 59 35 67 33 62 -211 0
63 31 59 35 67 33 37 -210 0
63 31 59 35 67 33 37 -212 0
63 31 59 35 67 33 37 -209 0
63 31 59 35 67 33 37 -213 0
63 31 59 35 67 33 37 -214 0
63 31 59 35 67 33 37 -211 0
63 31 59 35 67 62 37 -210 0
63 31 59 35 67 62 37 -212 0
63 31 59 35 67 62 37 -209 0
63 31 59 35 67 62 37 -213 0
63 31 59 35 67 62 37 -214 0
63 31 59 35 67 62 37 -211 0
63 31 59 35 33 62 37 -210 0
63 31 59 35 33 62 37 -212 0
63 31 59 35 33 62 37 -209 0
63 31 59 35 33 62 37 -213 0
63 31 59 35 33 62 37 -214 0
63 31 59 35 33 62 37 -211 0
63 31 59 67 33 62 37 -210 0
63 31 59 67 33 62 37 -212 0
63 31 59 67 33 62 37 -209 0
63 31 59 67 33 62 37 -213 0
63 31 59 67 33 62 37 -214 0
63 31 59 67 33 62 37 -211 0
63 31 35 67 33 62 37 -210 0
63 31 35 67 33 62 37 -212 0
63 31 35 67 33 62 37 -209 0
63 31 35 67 33 62 37 -213 0
63 31 35 67 33 62 37 -214 0
63 31 35 67 33 62 37 -211 0
63 20 59 18 67 23 62 -173 0
63 20 59 18 67 23 62 -171 0
63 20 59 18 67 23 62 -172 0
63 20 59 18 67 23 62 -174 0
63 20 59 18 67 23 62 -175 0
63 20 59 18 67 23 62 -170 0
63 96 59 90 67 97 62 -313 0
63 96 59 90 67 97 62 -310 0
63 96 59 90 67 97 62 -308 0
63 96 59 90 67 97 62 -312 0
63 96 59 90 67 97 62 -309 0
63 96 59 90 67 97 62 -311 0
63 7 59 6 67 3 62 -58 0
63 7 59 6 67 3 62 -60 0
63 7 59 6 67 3 62 -61 0
63 7 59 6 67 3 62 -64 0
63 7 59 6 67 3 62 -65 0
63 7 59 6 67 3 62 -66 0
63 9 59 13 67 11 62 -127 0
63 9 59 13 67 11 62 -130 0
63 9 59 13 67 11 62 -128 0
63 9 59 13 67 11 62 -125 0
63 9 59 13 67 11 62 -126 0
63 9 59 13 67 11 62 -129 0
63 46 59 43 67 45 62 -242 0
63 46 59 43 67 45 62 -247 0
63 46 59 43 67 45 62 -244 0
63 46 59 43 67 45 62 -245 0
63 46 59 43 67 45 62 -243 0
63 46 59 43 67 45 62 -246 0
63 50 59 52 67 49 62 -270 0
63 50 59 52 67 49 62 -269 0
63 50 59 52 67 49 62 -271 0
63 50 59 52 67 49 62 -272 0
63 50 59 52 67 49 62 -273 0
63 50 59 52 67 49 62 -274 0
63 78 59 86 67 80 62 -307 0
63 78 59 86 67 80 62 -305 0
63 78 59 86 67 80 62 -303 0
63 78 59 86 67 80 62 -306 0
63 78 59 86 67 80 62 -304 0
63 78 59 86 67 80 62 -302 0
63 59 76 67 75 62 68 -300 0
63 59 76 67 75 62 68 -296 0
63 59 76 67 75 62 68 -297 0
63 59 76 67 75 62 68 -298 0
63 59 76 67 75 62 68 -299 0
63 59 76 67 75 62 68 -301 0
63 59 35 67 33 62 37 -210 0
63 59 35 67 33 62 37 -212 0
63 59 35 67 33 62 37 -209 0
63 59 35 67 33 62 37 -213 0
63 59 35 67 33 62 37 -214 0
63 59 35 67 33 62 37 -211 0
69 31 76 35 75 33 68 -219 0
69 31 76 35 75 33 68 -215 0
69 31 76 35 75 33 68 -218 0
69 31 76 35 75 33 68 -220 0
69 31 76 35 75 33 68 -216 0
69 31 76 35 75 33 68 -217 0
69 31 76 35 75 33 37 -219 0
69 31 76 35 75 33 37 -215 0
69 31 76 35 75 33 37 -218 0
69 31 76 35 75 33 37 -220 0
69 31 76 35 75 33 37 -216 0
69 31 76 35 75 33 37 -217 0
69 31 76 35 75 68 37 -219 0
69 31 76 35 75 68 37 -215 0
69 31 76 35 75 68 37 -218 0
69 31 76 35 75 68 37 -220 0
69 31 76 35 75 68 37 -216 0
69 31 76 35 75 68 37 -217 0
69 31 76 35 33 68 37 -219 0
69 31 76 35 33 68 37 -215 0
69 31 76 35 33 68 37 -218 0
69 31 76 35 33 68 37 -220 0
69 31 76 35 33 68 37 -216 0
69 31 76 35 33 68 37 -217 0
69 31 76 75 33 68 37 -219 0
69 31 76 75 33 68 37 -215 0
69 31 76 75 33 68 37 -218 0
69 31 76 75 33 68 37 -220 0
69 31 76 75 33 68 37 -216 0
69 31 76 75 33 68 37 -217 0
69 31 35 75 33 68 37 -219 0
69 31 35 75 33 68 37 -215 0
69 31 35 75 33 68 37 -218 0
69 31 35 75 33 68 37 -220 0
69 31 35 75 33 68 37 -216 0
69 31 35 75 33 68 37 -217 0
69 20 76 18 75 23 68 -181 0
69 20 76 18 75 23 68 -178 0
69 20 76 18 75 23 68 -177 0
69 20 76 18 75 23 68 -179 0
69 20 76 18 75 23 68 -180 0
69 20 76 18 75 23 68 -176 0
69 96 76 90 75 97 68 -326 0
69 96 76 90 75 97 68 -325 0
69 96 76 90 75 97 68 -328 0
69 96 76 90 75 97 68 -323 0
69 96 76 90 75 97 68 -327 0
69 96 76 90 75 97 68 -324 0
69 7 76 6 75 3 68 -74 0
69 7 76 6 75 3 68 -70 0
69 7 76 6 75 3 68 -77 0
69 7 76 6 75 3 68 -72 0
69 7 76 6 75 3 68 -71 0
69 7 76 6 75 3 68 -73 0
69 9 76 13 75 11 68 -136 0
69 9 76 13 75 11 68 -132 0
69 9 76 13 75 11 68 -131 0
69 9 76 13 75 11 68 -133 0
69 9 76 13 75 11 68 -135 0
69 9 76 13 75 11 68 -134 0
69 46 76 43 75 45 68 -252 0
69 46 76 43 75 45 68 -251 0
69 46 76 43 75 45 68 -250 0
69 46 76 43 75 45 68 -248 0
69 46 76 43 75 45 68 -253 0
69 46 76 43 75 45 68 -249 0
69 50 76 52 75 49 68 -277 0
69 50 76 52 75 49 68 -278 0
69 50 76 52 75 49 68 -280 0
69 50 76 52 75 49 68 -279 0
69 50 76 52 75 49 68 -276 0
69 50 76 52 75 49 68 -275 0
69 78 76 86 75 80 68 -317 0
69 78 76 86 75 80 68 -319 0
69 78 76 86 75 80 68 -318 0
69 78 76 86 75 80 68 -322 0
69 78 76 86 75 80 68 -320 0
69 78 76 86 75 80 68 -321 0
69 59 76 67 75 62 68 -300 0
69 59 76 67 75 62 68 -296 0
69 59 76 67 75 62 68 -297 0
69 59 76 67 75 62 68 -298 0
69 59 76 67 75 62 68 -299 0
69 59 76 67 75 62 68 -301 0
69 76 35 75 33 68 37 -219 0
69 76 35 75 33 68 37 -215 0
69 76 35 75 33 68 37 -218 0
69 76 35 75 33 68 37 -220 0
69 76 35 75 33 68 37 -216 0
69 76 35 75 33 68 37 -217 0
31 20 35 18 33 23 37 -154 0
31 20 35 18 33 23 37 -156 0
31 20 35 18 33 23 37 -155 0
31 20 35 18 33 23 37 -153 0
31 20 35 18 33 23 37 -157 0
31 20 35 18 33 23 37 -152 0
31 96 35 90 33 97 37 -231 0
31 96 35 90 33 97 37 -229 0
31 96 35 90 33 97 37 -228 0
31 96 35 90 33 97 37 -230 0
31 96 35 90 33 97 37 -227 0
31 96 35 90 33 97 37 -232 0
31 7 35 6 33 3 37 -32 0
31 7 35 6 33 3 37 -30 0
31 7 35 6 33 3 37 -36 0
31 7 35 6 33 3 37 -34 0
31 7 35 6 33 3 37 -29 0
31 7 35 6 33 3 37 -28 0
31 9 35 13 33 11 37 -107 0
31 9 35 13 33 11 37 -109 0
31 9 35 13 33 11 37 -108 0
31 9 35 13 33 11 37 -110 0
31 9 35 13 33 11 37 -112 0
31 9 35 13 33 11 37 -111 0
31 46 35 43 33 45 37 -198 0
31 46 35 43 33 45 37 -200 0
31 46 35 43 33 45 37 -202 0
31 46 35 43 33 45 37 -197 0
31 46 35 43 33 45 37 -199 0
31 46 35 43 33 45 37 -201 0
31 50 35 52 33 49 37 -206 0
31 50 35 52 33 49 37 -204 0
31 50 35 52 33 49 37 -208 0
31 50 35 52 33 49 37 -203 0
31 50 35 52 33 49 37 -205 0
31 50 35 52 33 49 37 -207 0
31 78 35 86 33 80 37 -223 0
31 78 35 86 33 80 37 -224 0
31 78 35 86 33 80 37 -222 0
31 78 35 86 33 80 37 -226 0
31 78 35 86 33 80 37 -225 0
31 78 35 86 33 80 37 -221 0
31 59 35 67 33 62 37 -210 0
31 59 35 67 33 62 37 -212 0
31 59 35 67 33 62 37 -209 0
31 59 35 67 33 62 37 -213 0
31 59 35 67 33 62 37 -214 0
31 59 35 67 33 62 37 -211 0
31 76 35 75 33 68 37 -219 0
31 76 35 75 33 68 37 -215 0
31 76 35 75 33 68 37 -218 0
31 76 35 75 33 68 37 -220 0
31 76 35 75 33 68 37 -216 0
31 76 35 75 33 68 37 -217 0
27 95 20 96 18 90 23 97 -189 0
27 95 20 96 18 90 23 97 -188 0
27 95 20 96 18 90 23 97 -193 0
27 95 20 96 18 90 23 97 -191 0
27 95 20 96 18 90 23 97 -192 0
27 95 20 96 18 90 23 97 -190 0
27 2 20 7 18 6 23 3 -21 0
27 2 20 7 18 6 23 3 -19 0
27 2 20 7 18 6 23 3 -25 0
27 2 20 7 18 6 23 3 -22 0
27 2 20 7 18 6 23 3 -24 0
27 2 20 7 18 6 23 3 -26 0
27 8 20 9 18 13 23 11 -103 0
27 8 20 9 18 13 23 11 -102 0
27 8 20 9 18 13 23 11 -106 0
27 8 20 9 18 13 23 11 -105 0
27 8 20 9 18 13 23 11 -101 0
27 8 20 9 18 13 23 11 -104 0
27 41 20 46 18 43 23 45 -158 0
27 41 20 46 18 43 23 45 -161 0
27 41 20 46 18 43 23 45 -162 0
27 41 20 46 18 43 23 45 -159 0
27 41 20 46 18 43 23 45 -163 0
27 41 20 46 18 43 23 45 -160 0
27 57 20 50 18 52 23 49 -165 0
27 57 20 50 18 52 23 49 -164 0
27 57 20 50 18 52 23 49 -166 0
27 57 20 50 18 52 23 49 -167 0
27 57 20 50 18 52 23 49 -168 0
27 57 20 50 18 52 23 49 -169 0
27 83 20 78 18 86 23 80 -186 0
27 83 20 78 18 86 23 80 -187 0
27 83 20 78 18 86 23 80 -183 0
27 83 20 78 18 86 23 80 -184 0
27 83 20 78 18 86 23 80 -182 0
27 83 20 78 18 86 23 80 -185 0
27 63 20 59 18 67 23 62 -173 0
27 63 20 59 18 67 23 62 -171 0
27 63 20 59 18 67 23 62 -172 0
27 63 20 59 18 67 23 62 -174 0
27 63 20 59 18 67 23 62 -175 0
27 63 20 59 18 67 23 62 -170 0
27 69 20 76 18 75 23 68 -181 0
27 69 20 76 18 75 23 68 -178 0
27 69 20 76 18 75 23 68 -177 0
27 69 20 76 18 75 23 68 -179 0
27 69 20 76 18 75 23 68 -180 0
27 69 20 76 18 75 23 68 -176 0
27 31 20 35 18 33 23 37 -154 0
27 31 20 35 18 33 23 37 -156 0
27 31 20 35 18 33 23 37 -155 0
27 31 20 35 18 33 23 37 -153 0
27 31 20 35 18 33 23 37 -157 0
27 31 20 35 18 33 23 37 -152 0
95 2 96 7 90 6 97 3 -91 0
95 2 96 7 90 6 97 3 -93 0
95 2 96 7 90 6 97 3 -94 0
95 2 96 7 90 6 97 3 -92 0
95 2 96 7 90 6 97 3 -89 0
95 2 96 7 90 6 97 3 -88 0
95 8 96 9 90 13 97 11 -146 0
95 8 96 9 90 13 97 11 -147 0
95 8 96 9 90 13 97 11 -143 0
95 8 96 9 90 13 97 11 -148 0
95 8 96 9 90 13 97 11 -144 0
95 8 96 9 90 13 97 11 -145 0
95 41 96 46 90 43 97 45 -261 0
95 41 96 46 90 43 97 45 -265 0
95 41 96 46 90 43 97 45 -263 0
95 41 96 46 90 43 97 45 -260 0
95 41 96 46 90 43 97 45 -262 0
95 41 96 46 90 43 97 45 -264 0
95 57 96 50 90 52 97 49 -292 0
95 57 96 50 90 52 97 49 -290 0
95 57 96 50 90 52 97 49 -287 0
95 57 96 50 90 52 97 49 -289 0
95 57 96 50 90 52 97 49 -288 0
95 57 96 50 90 52 97 49 -291 0
95 83 96 78 90 86 97 80 -337 0
95 83 96 78 90 86 97 80 -334 0
95 83 96 78 90 86 97 80 -332 0
95 83 96 78 90 86 97 80 -335 0
95 83 96 78 90 86 97 80 -336 0
95 83 96 78 90 86 97 80 -333 0
95 63 96 59 90 67 97 62 -313 0
95 63 96 59 90 67 97 62 -310 0
95 63 96 59 90 67 97 62 -308 0
95 63 96 59 90 67 97 62 -312 0
95 63 96 59 90 67 97 62 -309 0
95 63 96 59 90 67 97 62 -311 0
95 69 96 76 90 75 97 68 -326 0
95 69 96 76 90 75 97 68 -325 0
95 69 96 76 90 75 97 68 -328 0
95 69 96 76 90 75 97 68 -323 0
95 69 96 76 90 75 97 68 -327 0
95 69 96 76 90 75 97 68 -324 0
95 31 96 35 90 33 97 37 -231 0
95 31 96 35 90 33 97 37 -229 0
95 31 96 35 90 33 97 37 -228 0
95 31 96 35 90 33 97 37 -230 0
95 31 96 35 90 33 97 37 -227 0
95 31 96 35 90 33 97 37 -232 0
2 8 7 9 6 13 3 11 -12 0
2 8 7 9 6 13 3 11 -17 0
2 8 7 9 6 13 3 11 -15 0
2 8 7 9 6 13 3 11 -16 0
2 8 7 9 6 13 3 11 -10 0
2 8 7 9 6 13 3 11 -14 0
2 41 7 46 6 43 3 45 -44 0
2 41 7 46 6 43 3 45 -39 0
2 41 7 46 6 43 3 45 -38 0
2 41 7 46 6 43 3 45 -47 0
2 41 7 46 6 43 3 45 -40 0
2 41 7 46 6 43 3 45 -42 0
2 57 7 50 6 52 3 49 -54 0
2 57 7 50 6 52 3 49 -48 0
2 57 7 50 6 52 3 49 -56 0
2 57 7 50 6 52 3 49 -51 0
2 57 7 50 6 52 3 49 -55 0
2 57 7 50 6 52 3 49 -53 0
2 83 7 78 6 86 3 80 -85 0
2 83 7 78 6 86 3 80 -84 0
2 83 7 78 6 86 3 80 -79 0
2 83 7 78 6 86 3 80 -87 0
2 83 7 78 6 86 3 80 -81 0
2 83 7 78 6 86 3 80 -82 0
2 63 7 59 6 67 3 62 -58 0
2 63 7 59 6 67 3 62 -60 0
2 63 7 59 6 67 3 62 -61 0
2 63 7 59 6 67 3 62 -64 0
2 63 7 59 6 67 3 62 -65 0
2 63 7 59 6 67 3 62 -66 0
2 69 7 76 6 75 3 68 -74 0
2 69 7 76 6 75 3 68 -70 0
2 69 7 76 6 75 3 68 -77 0
2 69 7 76 6 75 3 68 -72 0
2 69 7 76 6 75 3 68 -71 0
2 69 7 76 6 75 3 68 -73 0
2 31 7 35 6 33 3 37 -32 0
2 31 7 35 6 33 3 37 -30 0
2 31 7 35 6 33 3 37 -36 0
2 31 7 35 6 33 3 37 -34 0
2 31 7 35 6 33 3 37 -29 0
2 31 7 35 6 33 3 37 -28 0
8 41 9 46 13 43 11 45 -114 0
8 41 9 46 13 43 11 45 -113 0
8 41 9 46 13 43 11 45 -115 0
8 41 9 46 13 43 11 45 -117 0
8 41 9 46 13 43 11 45 -116 0
8 41 9 46 13 43 11 45 -118 0
8 57 9 50 13 52 11 49 -124 0
8 57 9 50 13 52 11 49 -123 0
8 57 9 50 13 52 11 49 -120 0
8 57 9 50 13 52 11 49 -121 0
8 57 9 50 13 52 11 49 -119 0
8 57 9 50 13 52 11 49 -122 0
8 83 9 78 13 86 11 80 -139 0
8 83 9 78 13 86 11 80 -142 0
8 83 9 78 13 86 11 80 -138 0
8 83 9 78 13 86 11 80 -140 0
8 83 9 78 13 86 11 80 -141 0
8 83 9 78 13 86 11 80 -137 0
8 63 9 59 13 67 11 62 -127 0
8 63 9 59 13 67 11 62 -130 0
8 63 9 59 13 67 11 62 -128 0
8 63 9 59 13 67 11 62 -125 0
8 63 9 59 13 67 11 62 -126 0
8 63 9 59 13 67 11 62 -129 0
8 69 9 76 13 75 11 68 -136 0
8 69 9 76 13 75 11 68 -132 0
8 69 9 76 13 75 11 68 -131 0
8 69 9 76 13 75 11 68 -133 0
8 69 9 76 13 75 11 68 -135 0
8 69 9 76 13 75 11 68 -134 0
8 31 9 35 13 33 11 37 -107 0
8 31 9 35 13 33 11 37 -109 0
8 31 9 35 13 33 11 37 -108 0
8 31 9 35 13 33 11 37 -110 0
8 31 9 35 13 33 11 37 -112 0
8 31 9 35 13 33 11 37 -111 0
41 57 46 50 43 52 45 49 -237 0
41 57 46 50 43 52 45 49 -236 0
41 57 46 50 43 52 45 49 -240 0
41 57 46 50 43 52 45 49 -238 0
41 57 46 50 43 52 45 49 -241 0
41 57 46 50 43 52 45 49 -239 0
41 83 46 78 43 86 45 80 -255 0
41 83 46 78 43 86 45 80 -258 0
41 83 46 78 43 86 45 80 -256 0
41 83 46 78 43 86 45 80 -259 0
41 83 46 78 43 86 45 80 -257 0
41 83 46 78 43 86 45 80 -254 0
41 63 46 59 43 67 45 62 -242 0
41 63 46 59 43 67 45 62 -247 0
41 63 46 59 43 67 45 62 -244 0
41 63 46 59 43 67 45 62 -245 0
41 63 46 59 43 67 45 62 -243 0
41 63 46 59 43 67 45 62 -246 0
41 69 46 76 43 75 45 68 -252 0
41 69 46 76 43 75 45 68 -251 0
41 69 46 76 43 75 45 68 -250 0
41 69 46 76 43 75 45 68 -248 0
41 69 46 76 43 75 45 68 -253 0
41 69 46 76 43 75 45 68 -249 0
41 31 46 35 43 33 45 37 -198 0
41 31 46 35 43 33 45 37 -200 0
41 31 46 35 43 33 45 37 -202 0
41 31 46 35 43 33 45 37 -197 0
41 31 46 35 43 33 45 37 -199 0
41 31 46 35 43 33 45 37 -201 0
57 83 50 78 52 86 49 80 -284 0
57 83 50 78 52 86 49 80 -282 0
57 83 50 78 52 86 49 80 -281 0
57 83 50 78 52 86 49 80 -283 0
57 83 50 78 52 86 49 80 -286 0
57 83 50 78 52 86 49 80 -285 0
57 63 50 59 52 67 49 62 -270 0
57 63 50 59 52 67 49 62 -269 0
57 63 50 59 52 67 49 62 -271 0
57 63 50 59 52 67 49 62 -272 0
57 63 50 59 52 67 49 62 -273 0
57 63 50 59 52 67 49 62 -274 0
57 69 50 76 52 75 49 68 -277 0
57 69 50 76 52 75 49 68 -278 0
57 69 50 76 52 75 49 68 -280 0
57 69 50 76 52 75 49 68 -279 0
57 69 50 76 52 75 49 68 -276 0
57 69 50 76 52 75 49 68 -275 0
57 31 50 35 52 33 49 37 -206 0
57 31 50 35 52 33 49 37 -204 0
57 31 50 35 52 33 49 37 -208 0
57 31 50 35 52 33 49 37 -203 0
57 31 50 35 52 33 49 37 -205 0
57 31 50 35 52 33 49 37 -207 0
83 63 78 59 86 67 80 62 -307 0
83 63 78 59 86 67 80 62 -305 0
83 63 78 59 86 67 80 62 -303 0
83 63 78 59 86 67 80 62 -306 0
83 63 78 59 86 67 80 62 -304 0
83 63 78 59 86 67 80 62 -302 0
83 69 78 76 86 75 80 68 -317 0
83 69 78 76 86 75 80 68 -319 0
83 69 78 76 86 75 80 68 -318 0
83 69 78 76 86 75 80 68 -322 0
83 69 78 76 86 75 80 68 -320 0
83 69 78 76 86 75 80 68 -321 0
83 31 78 35 86 33 80 37 -223 0
83 31 78 35 86 33 80 37 -224 0
83 31 78 35 86 33 80 37 -222 0
83 31 78 35 86 33 80 37 -226 0
83 31 78 35 86 33 80 37 -225 0
83 31 78 35 86 33 80 37 -221 0
63 69 59 76 67 75 62 68 -300 0
63 69 59 76 67 75 62 68 -296 0
63 69 59 76 67 75 62 68 -297 0
63 69 59 76 67 75 62 68 -298 0
63 69 59 76 67 75 62 68 -299 0
63 69 59 76 67 75 62 68 -301 0
63 31 59 35 67 33 62 37 -210 0
63 31 59 35 67 33 62 37 -212 0
63 31 59 35 67 33 62 37 -209 0
63 31 59 35 67 33 62 37 -213 0
63 31 59 35 67 33 62 37 -214 0
63 31 59 35 67 33 62 37 -211 0
69 31 76 35 75 33 68 37 -219 0
69 31 76 35 75 33 68 37 -215 0
69 31 76 35 75 33 68 37 -218 0
69 31 76 35 75 33 68 37 -220 0
69 31 76 35 75 33 68 37 -216 0
69 31 76 35 75 33 68 37 -217 0
151 189 21 103 158 165 186 173 181 154 0
188 339 91 146 261 292 337 313 326 231 0
19 93 1 12 44 54 85 58 74 32 0
102 147 17 100 114 124 139 127 136 107 0
161 265 39 113 233 237 255 242 252 198 0
164 290 48 123 236 267 284 270 277 206 0
187 334 84 142 258 282 331 307 317 223 0
171 310 60 130 247 269 305 293 300 210 0
178 325 70 132 251 278 319 296 315 219 0
156 229 30 109 200 204 224 212 215 194 0
149 193 25 106 162 166 183 172 177 155 0
191 338 94 143 263 287 332 308 328 228 0
22 92 5 15 38 56 79 61 77 36 0
105 148 16 98 115 120 138 128 131 108 0
159 260 47 117 235 240 256 244 250 202 0
167 289 51 121 238 268 281 271 280 208 0
184 335 87 140 259 283 329 303 318 222 0
174 312 64 125 245 272 306 295 297 209 0
179 323 72 133 248 279 322 298 314 218 0
153 230 34 110 197 203 226 213 220 196 0
150 192 24 101 163 168 182 175 180 157 0
190 340 89 144 262 288 336 309 327 227 0
26 88 4 10 40 55 81 65 71 29 0
104 145 14 99 116 119 141 126 135 112 0
160 264 42 118 234 241 257 243 253 199 0
169 291 53 122 239 266 286 273 276 205 0
185 333 82 137 254 285 330 304 320 225 0
170 311 66 129 246 274 302 294 299 214 0
176 324 73 134 249 275 321 301 316 216 0
152 232 28 111 201 207 221 211 217 195 0
