c E2(3,3) U4(3) E1(3,3) E3(3,3) U3(3) U2(3) U1(3) E2(3,1) U1(1) U4(1) E1(1,3) E2(1,3) U2(1) U3(1) E3(1,3) E3(3,1) E1(3,1) E3(3,0) U2(0) U4(0) E3(0,3) E1(0,3) E1(3,0) U3(0) E2(0,3) U1(0) E2(3,0) U2(2) E3(3,2) E1(3,2) U3(2) U1(2) E2(3,2) E3(2,3) E1(2,3) E2(2,3) U4(2) E1(1,1) E2(1,1) E3(1,1) E1(1,0) E2(1,0) E2(0,1) E1(0,1) E3(0,1) E3(1,0) E1(1,2) E3(2,1) E2(1,2) E2(2,1) E1(2,1) E3(1,2) E3(0,0) E1(0,0) E2(0,0) E3(0,2) E2(2,0) E2(0,2) E3(2,0) E1(2,0) E1(0,2) E2(2,2) E3(2,2) E1(2,2)
c 1 2 3 4 5 6 7 8 9 10 11 12 13 14 15 16 17 18 19 20 21 22 23 24 25 26 27 28 29 30 31 32 33 34 35 36 37 38 39 40 41 42 43 44 45 46 47 48 49 50 51 52 53 54 55 56 57 58 59 60 61 62 63 64
p cnf 64 1456
54 -54 0
44 -41 0
61 -60 0
22 -23 0
41 -44 0
38 -38 0
47 -51 0
11 -17 0
60 -61 0
51 -47 0
64 -64 0
35 -30 0
23 -22 0
17 -11 0
30 -35 0
3 -3 0
55 -55 0
43 -42 0
58 -57 0
25 -27 0
42 -43 0
39 -39 0
49 -50 0
12 -8 0
57 -58 0
50 -49 0
62 -62 0
36 -33 0
27 -25 0
8 -12 0
33 -36 0
1 -1 0
53 -53 0
45 -46 0
56 -59 0
21 -18 0
46 -45 0
40 -40 0
52 -48 0
15 -16 0
59 -56 0
48 -52 0
63 -63 0
34 -29 0
18 -21 0
16 -15 0
29 -34 0
4 -4 0
-54 -55 0
-54 -53 0
-44 -43 0
-44 -45 0
-61 -58 0
-61 -56 0
-22 -25 0
-22 -21 0
-41 -42 0
-41 -46 0
-38 -39 0
-38 -40 0
-47 -49 0
-47 -52 0
-11 -12 0
-11 -15 0
-60 -57 0
-60 -59 0
-51 -50 0
-51 -48 0
-64 -62 0
-64 -63 0
-35 -36 0
-35 -34 0
-23 -27 0
-23 -18 0
-17 -8 0
-17 -16 0
-30 -33 0
-30 -29 0
-3 -1 0
-3 -4 0
-55 -53 0
-43 -45 0
-58 -56 0
-25 -21 0
-42 -46 0
-39 -40 0
-49 -52 0
-12 -15 0
-57 -59 0
-50 -48 0
-62 -63 0
-36 -34 0
-27 -18 0
-8 -16 0
-33 -29 0
-1 -4 0
-26 -19 0
-26 -24 0
-26 -20 0
-9 -13 0
-9 -14 0
-9 -10 0
-32 -28 0
-32 -31 0
-32 -37 0
-7 -6 0
-7 -5 0
-7 -2 0
-19 -24 0
-19 -20 0
-13 -14 0
-13 -10 0
-28 -31 0
-28 -37 0
-6 -5 0
-6 -2 0
-24 -20 0
-14 -10 0
-31 -37 0
-5 -2 0
54 44 61 22 0
41 38 47 11 0
60 51 64 35 0
23 17 30 3 0
55 43 58 25 0
42 39 49 12 0
57 50 62 36 0
27 8 33 1 0
53 45 56 21 0
46 40 52 15 0
59 48 63 34 0
18 16 29 4 0
26 19 24 20 0
9 13 14 10 0
32 28 31 37 0
7 6 5 2 0
26 19 24 -54 0
26 19 24 -55 0
26 19 24 -53 0
26 19 20 -54 0
26 19 20 -55 0
26 19 20 -53 0
26 24 20 -54 0
26 24 20 -55 0
26 24 20 -53 0
9 13 14 -38 0
9 13 14 -39 0
9 13 14 -40 0
9 13 10 -38 0
9 13 10 -39 0
9 13 10 -40 0
9 14 10 -38 0
9 14 10 -39 0
9 14 10 -40 0
32 28 31 -64 0
32 28 31 -62 0
32 28 31 -63 0
32 28 37 -64 0
32 28 37 -62 0
32 28 37 -63 0
32 31 37 -64 0
32 31 37 -62 0
32 31 37 -63 0
7 6 5 -3 0
7 6 5 -1 0
7 6 5 -4 0
7 6 2 -3 0
7 6 2 -1 0
7 6 2 -4 0
7 5 2 -3 0
7 5 2 -1 0
7 5 2 -4 0
19 24 20 -54 0
19 24 20 -55 0
19 24 20 -53 0
13 14 10 -38 0
13 14 10 -39 0
13 14 10 -40 0
28 31 37 -64 0
28 31 37 -62 0
28 31 37 -63 0
6 5 2 -3 0
6 5 2 -1 0
6 5 2 -4 0
26 19 24 20 -54 0
26 19 24 20 -44 0
26 19 24 20 -61 0
26 19 24 20 -22 0
26 19 24 20 -41 0
26 19 24 20 -60 0
26 19 24 20 -23 0
26 19 24 20 -55 0
26 19 24 20 -43 0
26 19 24 20 -58 0
26 19 24 20 -25 0
26 19 24 20 -42 0
26 19 24 20 -57 0
26 19 24 20 -27 0
26 19 24 20 -53 0
26 19 24 20 -45 0
26 19 24 20 -56 0
26 19 24 20 -21 0
26 19 24 20 -46 0
26 19 24 20 -59 0
26 19 24 20 -18 0
9 13 14 10 -44 0
9 13 14 10 -41 0
9 13 14 10 -38 0
9 13 14 10 -47 0
9 13 14 10 -11 0
9 13 14 10 -51 0
9 13 14 10 -17 0
9 13 14 10 -43 0
9 13 14 10 -42 0
9 13 14 10 -39 0
9 13 14 10 -49 0
9 13 14 10 -12 0
9 13 14 10 -50 0
9 13 14 10 -8 0
9 13 14 10 -45 0
9 13 14 10 -46 0
9 13 14 10 -40 0
9 13 14 10 -52 0
9 13 14 10 -15 0
9 13 14 10 -48 0
9 13 14 10 -16 0
32 28 31 37 -61 0
32 28 31 37 -47 0
32 28 31 37 -60 0
32 28 31 37 -51 0
32 28 31 37 -64 0
32 28 31 37 -35 0
32 28 31 37 -30 0
32 28 31 37 -58 0
32 28 31 37 -49 0
32 28 31 37 -57 0
32 28 31 37 -50 0
32 28 31 37 -62 0
32 28 31 37 -36 0
32 28 31 37 -33 0
32 28 31 37 -56 0
32 28 31 37 -52 0
32 28 31 37 -59 0
32 28 31 37 -48 0
32 28 31 37 -63 0
32 28 31 37 -34 0
32 28 31 37 -29 0
7 6 5 2 -22 0
7 6 5 2 -11 0
7 6 5 2 -35 0
7 6 5 2 -23 0
7 6 5 2 -17 0
7 6 5 2 -30 0
7 6 5 2 -3 0
7 6 5 2 -25 0
7 6 5 2 -12 0
7 6 5 2 -36 0
7 6 5 2 -27 0
7 6 5 2 -8 0
7 6 5 2 -33 0
7 6 5 2 -1 0
7 6 5 2 -21 0
7 6 5 2 -15 0
7 6 5 2 -34 0
7 6 5 2 -18 0
7 6 5 2 -16 0
7 6 5 2 -29 0
7 6 5 2 -4 0
26 9 19 24 20 -44 0
26 9 19 24 20 -41 0
26 9 19 24 20 -43 0
26 9 19 24 20 -42 0
26 9 19 24 20 -45 0
26 9 19 24 20 -46 0
26 9 13 14 10 -44 0
26 9 13 14 10 -41 0
26 9 13 14 10 -43 0
26 9 13 14 10 -42 0
26 9 13 14 10 -45 0
26 9 13 14 10 -46 0
26 32 19 24 20 -61 0
26 32 19 24 20 -60 0
26 32 19 24 20 -58 0
26 32 19 24 20 -57 0
26 32 19 24 20 -56 0
26 32 19 24 20 -59 0
26 32 28 31 37 -61 0
26 32 28 31 37 -60 0
26 32 28 31 37 -58 0
26 32 28 31 37 -57 0
26 32 28 31 37 -56 0
26 32 28 31 37 -59 0
26 7 19 24 20 -22 0
26 7 19 24 20 -23 0
26 7 19 24 20 -25 0
26 7 19 24 20 -27 0
26 7 19 24 20 -21 0
26 7 19 24 20 -18 0
26 7 6 5 2 -22 0
26 7 6 5 2 -23 0
26 7 6 5 2 -25 0
26 7 6 5 2 -27 0
26 7 6 5 2 -21 0
26 7 6 5 2 -18 0
26 19 13 24 20 -44 0
26 19 13 24 20 -41 0
26 19 13 24 20 -43 0
26 19 13 24 20 -42 0
26 19 13 24 20 -45 0
26 19 13 24 20 -46 0
26 19 28 24 20 -61 0
26 19 28 24 20 -60 0
26 19 28 24 20 -58 0
26 19 28 24 20 -57 0
26 19 28 24 20 -56 0
26 19 28 24 20 -59 0
26 19 6 24 20 -22 0
26 19 6 24 20 -23 0
26 19 6 24 20 -25 0
26 19 6 24 20 -27 0
26 19 6 24 20 -21 0
26 19 6 24 20 -18 0
26 19 24 14 20 -44 0
26 19 24 14 20 -41 0
26 19 24 14 20 -43 0
26 19 24 14 20 -42 0
26 19 24 14 20 -45 0
26 19 24 14 20 -46 0
26 19 24 31 20 -61 0
26 19 24 31 20 -60 0
26 19 24 31 20 -58 0
26 19 24 31 20 -57 0
26 19 24 31 20 -56 0
26 19 24 31 20 -59 0
26 19 24 5 20 -22 0
26 19 24 5 20 -23 0
26 19 24 5 20 -25 0
26 19 24 5 20 -27 0
26 19 24 5 20 -21 0
26 19 24 5 20 -18 0
26 19 24 20 10 -44 0
26 19 24 20 10 -41 0
26 19 24 20 10 -43 0
26 19 24 20 10 -42 0
26 19 24 20 10 -45 0
26 19 24 20 10 -46 0
26 19 24 20 37 -61 0
26 19 24 20 37 -60 0
26 19 24 20 37 -58 0
26 19 24 20 37 -57 0
26 19 24 20 37 -56 0
26 19 24 20 37 -59 0
26 19 24 20 2 -22 0
26 19 24 20 2 -23 0
26 19 24 20 2 -25 0
26 19 24 20 2 -27 0
26 19 24 20 2 -21 0
26 19 24 20 2 -18 0
9 32 13 14 10 -47 0
9 32 13 14 10 -51 0
9 32 13 14 10 -49 0
9 32 13 14 10 -50 0
9 32 13 14 10 -52 0
9 32 13 14 10 -48 0
9 32 28 31 37 -47 0
9 32 28 31 37 -51 0
9 32 28 31 37 -49 0
9 32 28 31 37 -50 0
9 32 28 31 37 -52 0
9 32 28 31 37 -48 0
9 7 13 14 10 -11 0
9 7 13 14 10 -17 0
9 7 13 14 10 -12 0
9 7 13 14 10 -8 0
9 7 13 14 10 -15 0
9 7 13 14 10 -16 0
9 7 6 5 2 -11 0
9 7 6 5 2 -17 0
9 7 6 5 2 -12 0
9 7 6 5 2 -8 0
9 7 6 5 2 -15 0
9 7 6 5 2 -16 0
9 19 13 14 10 -44 0
9 19 13 14 10 -41 0
9 19 13 14 10 -43 0
9 19 13 14 10 -42 0
9 19 13 14 10 -45 0
9 19 13 14 10 -46 0
9 13 28 14 10 -47 0
9 13 28 14 10 -51 0
9 13 28 14 10 -49 0
9 13 28 14 10 -50 0
9 13 28 14 10 -52 0
9 13 28 14 10 -48 0
9 13 6 14 10 -11 0
9 13 6 14 10 -17 0
9 13 6 14 10 -12 0
9 13 6 14 10 -8 0
9 13 6 14 10 -15 0
9 13 6 14 10 -16 0
9 13 24 14 10 -44 0
9 13 24 14 10 -41 0
9 13 24 14 10 -43 0
9 13 24 14 10 -42 0
9 13 24 14 10 -45 0
9 13 24 14 10 -46 0
9 13 14 31 10 -47 0
9 13 14 31 10 -51 0
9 13 14 31 10 -49 0
9 13 14 31 10 -50 0
9 13 14 31 10 -52 0
9 13 14 31 10 -48 0
9 13 14 5 10 -11 0
9 13 14 5 10 -17 0
9 13 14 5 10 -12 0
9 13 14 5 10 -8 0
9 13 14 5 10 -15 0
9 13 14 5 10 -16 0
9 13 14 20 10 -44 0
9 13 14 20 10 -41 0
9 13 14 20 10 -43 0
9 13 14 20 10 -42 0
9 13 14 20 10 -45 0
9 13 14 20 10 -46 0
9 13 14 10 37 -47 0
9 13 14 10 37 -51 0
9 13 14 10 37 -49 0
9 13 14 10 37 -50 0
9 13 14 10 37 -52 0
9 13 14 10 37 -48 0
9 13 14 10 2 -11 0
9 13 14 10 2 -17 0
9 13 14 10 2 -12 0
9 13 14 10 2 -8 0
9 13 14 10 2 -15 0
9 13 14 10 2 -16 0
32 7 28 31 37 -35 0
32 7 28 31 37 -30 0
32 7 28 31 37 -36 0
32 7 28 31 37 -33 0
32 7 28 31 37 -34 0
32 7 28 31 37 -29 0
32 7 6 5 2 -35 0
32 7 6 5 2 -30 0
32 7 6 5 2 -36 0
32 7 6 5 2 -33 0
32 7 6 5 2 -34 0
32 7 6 5 2 -29 0
32 19 28 31 37 -61 0
32 19 28 31 37 -60 0
32 19 28 31 37 -58 0
32 19 28 31 37 -57 0
32 19 28 31 37 -56 0
32 19 28 31 37 -59 0
32 13 28 31 37 -47 0
32 13 28 31 37 -51 0
32 13 28 31 37 -49 0
32 13 28 31 37 -50 0
32 13 28 31 37 -52 0
32 13 28 31 37 -48 0
32 28 6 31 37 -35 0
32 28 6 31 37 -30 0
32 28 6 31 37 -36 0
32 28 6 31 37 -33 0
32 28 6 31 37 -34 0
32 28 6 31 37 -29 0
32 28 24 31 37 -61 0
32 28 24 31 37 -60 0
32 28 24 31 37 -58 0
32 28 24 31 37 -57 0
32 28 24 31 37 -56 0
32 28 24 31 37 -59 0
32 28 14 31 37 -47 0
32 28 14 31 37 -51 0
32 28 14 31 37 -49 0
32 28 14 31 37 -50 0
32 28 14 31 37 -52 0
32 28 14 31 37 -48 0
32 28 31 5 37 -35 0
32 28 31 5 37 -30 0
32 28 31 5 37 -36 0
32 28 31 5 37 -33 0
32 28 31 5 37 -34 0
32 28 31 5 37 -29 0
32 28 31 20 37 -61 0
32 28 31 20 37 -60 0
32 28 31 20 37 -58 0
32 28 31 20 37 -57 0
32 28 31 20 37 -56 0
32 28 31 20 37 -59 0
32 28 31 10 37 -47 0
32 28 31 10 37 -51 0
32 28 31 10 37 -49 0
32 28 31 10 37 -50 0
32 28 31 10 37 -52 0
32 28 31 10 37 -48 0
32 28 31 37 2 -35 0
32 28 31 37 2 -30 0
32 28 31 37 2 -36 0
32 28 31 37 2 -33 0
32 28 31 37 2 -34 0
32 28 31 37 2 -29 0
7 19 6 5 2 -22 0
7 19 6 5 2 -23 0
7 19 6 5 2 -25 0
7 19 6 5 2 -27 0
7 19 6 5 2 -21 0
7 19 6 5 2 -18 0
7 13 6 5 2 -11 0
7 13 6 5 2 -17 0
7 13 6 5 2 -12 0
7 13 6 5 2 -8 0
7 13 6 5 2 -15 0
7 13 6 5 2 -16 0
7 28 6 5 2 -35 0
7 28 6 5 2 -30 0
7 28 6 5 2 -36 0
7 28 6 5 2 -33 0
7 28 6 5 2 -34 0
7 28 6 5 2 -29 0
7 6 24 5 2 -22 0
7 6 24 5 2 -23 0
7 6 24 5 2 -25 0
7 6 24 5 2 -27 0
7 6 24 5 2 -21 0
7 6 24 5 2 -18 0
7 6 14 5 2 -11 0
7 6 14 5 2 -17 0
7 6 14 5 2 -12 0
7 6 14 5 2 -8 0
7 6 14 5 2 -15 0
7 6 14 5 2 -16 0
7 6 31 5 2 -35 0
7 6 31 5 2 -30 0
7 6 31 5 2 -36 0
7 6 31 5 2 -33 0
7 6 31 5 2 -34 0
7 6 31 5 2 -29 0
7 6 5 20 2 -22 0
7 6 5 20 2 -23 0
7 6 5 20 2 -25 0
7 6 5 20 2 -27 0
7 6 5 20 2 -21 0
7 6 5 20 2 -18 0
7 6 5 10 2 -11 0
7 6 5 10 2 -17 0
7 6 5 10 2 -12 0
7 6 5 10 2 -8 0
7 6 5 10 2 -15 0
7 6 5 10 2 -16 0
7 6 5 37 2 -35 0
7 6 5 37 2 -30 0
7 6 5 37 2 -36 0
7 6 5 37 2 -33 0
7 6 5 37 2 -34 0
7 6 5 37 2 -29 0
26 9 19 13 24 14 -44 0
26 9 19 13 24 14 -41 0
26 9 19 13 24 14 -43 0
26 9 19 13 24 14 -42 0
26 9 19 13 24 14 -45 0
26 9 19 13 24 14 -46 0
26 9 19 13 24 20 -44 0
26 9 19 13 24 20 -41 0
26 9 19 13 24 20 -43 0
26 9 19 13 24 20 -42 0
26 9 19 13 24 20 -45 0
26 9 19 13 24 20 -46 0
26 9 19 13 14 10 -44 0
26 9 19 13 14 10 -41 0
26 9 19 13 14 10 -43 0
26 9 19 13 14 10 -42 0
26 9 19 13 14 10 -45 0
26 9 19 13 14 10 -46 0
26 9 19 13 20 10 -44 0
26 9 19 13 20 10 -41 0
26 9 19 13 20 10 -43 0
26 9 19 13 20 10 -42 0
26 9 19 13 20 10 -45 0
26 9 19 13 20 10 -46 0
26 9 19 24 14 20 -44 0
26 9 19 24 14 20 -41 0
26 9 19 24 14 20 -43 0
26 9 19 24 14 20 -42 0
26 9 19 24 14 20 -45 0
26 9 19 24 14 20 -46 0
26 9 19 24 20 10 -44 0
26 9 19 24 20 10 -41 0
26 9 19 24 20 10 -43 0
26 9 19 24 20 10 -42 0
26 9 19 24 20 10 -45 0
26 9 19 24 20 10 -46 0
26 9 13 24 14 10 -44 0
26 9 13 24 14 10 -41 0
26 9 13 24 14 10 -43 0
26 9 13 24 14 10 -42 0
26 9 13 24 14 10 -45 0
26 9 13 24 14 10 -46 0
26 9 13 14 20 10 -44 0
26 9 13 14 20 10 -41 0
26 9 13 14 20 10 -43 0
26 9 13 14 20 10 -42 0
26 9 13 14 20 10 -45 0
26 9 13 14 20 10 -46 0
26 9 24 14 20 10 -44 0
26 9 24 14 20 10 -41 0
26 9 24 14 20 10 -43 0
26 9 24 14 20 10 -42 0
26 9 24 14 20 10 -45 0
26 9 24 14 20 10 -46 0
26 32 19 28 24 31 -61 0
26 32 19 28 24 31 -60 0
26 32 19 28 24 31 -58 0
26 32 19 28 24 31 -57 0
26 32 19 28 24 31 -56 0
26 32 19 28 24 31 -59 0
26 32 19 28 24 20 -61 0
26 32 19 28 24 20 -60 0
26 32 19 28 24 20 -58 0
26 32 19 28 24 20 -57 0
26 32 19 28 24 20 -56 0
26 32 19 28 24 20 -59 0
26 32 19 28 31 37 -61 0
26 32 19 28 31 37 -60 0
26 32 19 28 31 37 -58 0
26 32 19 28 31 37 -57 0
26 32 19 28 31 37 -56 0
26 32 19 28 31 37 -59 0
26 32 19 28 20 37 -61 0
26 32 19 28 20 37 -60 0
26 32 19 28 20 37 -58 0
26 32 19 28 20 37 -57 0
26 32 19 28 20 37 -56 0
26 32 19 28 20 37 -59 0
26 32 19 24 31 20 -61 0
26 32 19 24 31 20 -60 0
26 32 19 24 31 20 -58 0
26 32 19 24 31 20 -57 0
26 32 19 24 31 20 -56 0
26 32 19 24 31 20 -59 0
26 32 19 24 20 37 -61 0
26 32 19 24 20 37 -60 0
26 32 19 24 20 37 -58 0
26 32 19 24 20 37 -57 0
26 32 19 24 20 37 -56 0
26 32 19 24 20 37 -59 0
26 32 28 24 31 37 -61 0
26 32 28 24 31 37 -60 0
26 32 28 24 31 37 -58 0
26 32 28 24 31 37 -57 0
26 32 28 24 31 37 -56 0
26 32 28 24 31 37 -59 0
26 32 28 31 20 37 -61 0
26 32 28 31 20 37 -60 0
26 32 28 31 20 37 -58 0
26 32 28 31 20 37 -57 0
26 32 28 31 20 37 -56 0
26 32 28 31 20 37 -59 0
26 32 24 31 20 37 -61 0
26 32 24 31 20 37 -60 0
26 32 24 31 20 37 -58 0
26 32 24 31 20 37 -57 0
26 32 24 31 20 37 -56 0
26 32 24 31 20 37 -59 0
26 7 19 6 24 5 -22 0
26 7 19 6 24 5 -23 0
26 7 19 6 24 5 -25 0
26 7 19 6 24 5 -27 0
26 7 19 6 24 5 -21 0
26 7 19 6 24 5 -18 0
26 7 19 6 24 20 -22 0
26 7 19 6 24 20 -23 0
26 7 19 6 24 20 -25 0
26 7 19 6 24 20 -27 0
26 7 19 6 24 20 -21 0
26 7 19 6 24 20 -18 0
26 7 19 6 5 2 -22 0
26 7 19 6 5 2 -23 0
26 7 19 6 5 2 -25 0
26 7 19 6 5 2 -27 0
26 7 19 6 5 2 -21 0
26 7 19 6 5 2 -18 0
26 7 19 6 20 2 -22 0
26 7 19 6 20 2 -23 0
26 7 19 6 20 2 -25 0
26 7 19 6 20 2 -27 0
26 7 19 6 20 2 -21 0
26 7 19 6 20 2 -18 0
26 7 19 24 5 20 -22 0
26 7 19 24 5 20 -23 0
26 7 19 24 5 20 -25 0
26 7 19 24 5 20 -27 0
26 7 19 24 5 20 -21 0
26 7 19 24 5 20 -18 0
26 7 19 24 20 2 -22 0
26 7 19 24 20 2 -23 0
26 7 19 24 20 2 -25 0
26 7 19 24 20 2 -27 0
26 7 19 24 20 2 -21 0
26 7 19 24 20 2 -18 0
26 7 6 24 5 2 -22 0
26 7 6 24 5 2 -23 0
26 7 6 24 5 2 -25 0
26 7 6 24 5 2 -27 0
26 7 6 24 5 2 -21 0
26 7 6 24 5 2 -18 0
26 7 6 5 20 2 -22 0
26 7 6 5 20 2 -23 0
26 7 6 5 20 2 -25 0
26 7 6 5 20 2 -27 0
26 7 6 5 20 2 -21 0
26 7 6 5 20 2 -18 0
26 7 24 5 20 2 -22 0
26 7 24 5 20 2 -23 0
26 7 24 5 20 2 -25 0
26 7 24 5 20 2 -27 0
26 7 24 5 20 2 -21 0
26 7 24 5 20 2 -18 0
26 19 13 24 14 20 -44 0
26 19 13 24 14 20 -41 0
26 19 13 24 14 20 -43 0
26 19 13 24 14 20 -42 0
26 19 13 24 14 20 -45 0
26 19 13 24 14 20 -46 0
26 19 13 24 20 10 -44 0
26 19 13 24 20 10 -41 0
26 19 13 24 20 10 -43 0
26 19 13 24 20 10 -42 0
26 19 13 24 20 10 -45 0
26 19 13 24 20 10 -46 0
26 19 28 24 31 20 -61 0
26 19 28 24 31 20 -60 0
26 19 28 24 31 20 -58 0
26 19 28 24 31 20 -57 0
26 19 28 24 31 20 -56 0
26 19 28 24 31 20 -59 0
26 19 28 24 20 37 -61 0
26 19 28 24 20 37 -60 0
26 19 28 24 20 37 -58 0
26 19 28 24 20 37 -57 0
26 19 28 24 20 37 -56 0
26 19 28 24 20 37 -59 0
26 19 6 24 5 20 -22 0
26 19 6 24 5 20 -23 0
26 19 6 24 5 20 -25 0
26 19 6 24 5 20 -27 0
26 19 6 24 5 20 -21 0
26 19 6 24 5 20 -18 0
26 19 6 24 20 2 -22 0
26 19 6 24 20 2 -23 0
26 19 6 24 20 2 -25 0
26 19 6 24 20 2 -27 0
26 19 6 24 20 2 -21 0
26 19 6 24 20 2 -18 0
26 19 24 14 20 10 -44 0
26 19 24 14 20 10 -41 0
26 19 24 14 20 10 -43 0
26 19 24 14 20 10 -42 0
26 19 24 14 20 10 -45 0
26 19 24 14 20 10 -46 0
26 19 24 31 20 37 -61 0
26 19 24 31 20 37 -60 0
26 19 24 31 20 37 -58 0
26 19 24 31 20 37 -57 0
26 19 24 31 20 37 -56 0
26 19 24 31 20 37 -59 0
26 19 24 5 20 2 -22 0
26 19 24 5 20 2 -23 0
26 19 24 5 20 2 -25 0
26 19 24 5 20 2 -27 0
26 19 24 5 20 2 -21 0
26 19 24 5 20 2 -18 0
9 32 13 28 14 31 -47 0
9 32 13 28 14 31 -51 0
9 32 13 28 14 31 -49 0
9 32 13 28 14 31 -50 0
9 32 13 28 14 31 -52 0
9 32 13 28 14 31 -48 0
9 32 13 28 14 10 -47 0
9 32 13 28 14 10 -51 0
9 32 13 28 14 10 -49 0
9 32 13 28 14 10 -50 0
9 32 13 28 14 10 -52 0
9 32 13 28 14 10 -48 0
9 32 13 28 31 37 -47 0
9 32 13 28 31 37 -51 0
9 32 13 28 31 37 -49 0
9 32 13 28 31 37 -50 0
9 32 13 28 31 37 -52 0
9 32 13 28 31 37 -48 0
9 32 13 28 10 37 -47 0
9 32 13 28 10 37 -51 0
9 32 13 28 10 37 -49 0
9 32 13 28 10 37 -50 0
9 32 13 28 10 37 -52 0
9 32 13 28 10 37 -48 0
9 32 13 14 31 10 -47 0
9 32 13 14 31 10 -51 0
9 32 13 14 31 10 -49 0
9 32 13 14 31 10 -50 0
9 32 13 14 31 10 -52 0
9 32 13 14 31 10 -48 0
9 32 13 14 10 37 -47 0
9 32 13 14 10 37 -51 0
9 32 13 14 10 37 -49 0
9 32 13 14 10 37 -50 0
9 32 13 14 10 37 -52 0
9 32 13 14 10 37 -48 0
9 32 28 14 31 37 -47 0
9 32 28 14 31 37 -51 0
9 32 28 14 31 37 -49 0
9 32 28 14 31 37 -50 0
9 32 28 14 31 37 -52 0
9 32 28 14 31 37 -48 0
9 32 28 31 10 37 -47 0
9 32 28 31 10 37 -51 0
9 32 28 31 10 37 -49 0
9 32 28 31 10 37 -50 0
9 32 28 31 10 37 -52 0
9 32 28 31 10 37 -48 0
9 32 14 31 10 37 -47 0
9 32 14 31 10 37 -51 0
9 32 14 31 10 37 -49 0
9 32 14 31 10 37 -50 0
9 32 14 31 10 37 -52 0
9 32 14 31 10 37 -48 0
9 7 13 6 14 5 -11 0
9 7 13 6 14 5 -17 0
9 7 13 6 14 5 -12 0
9 7 13 6 14 5 -8 0
9 7 13 6 14 5 -15 0
9 7 13 6 14 5 -16 0
9 7 13 6 14 10 -11 0
9 7 13 6 14 10 -17 0
9 7 13 6 14 10 -12 0
9 7 13 6 14 10 -8 0
9 7 13 6 14 10 -15 0
9 7 13 6 14 10 -16 0
9 7 13 6 5 2 -11 0
9 7 13 6 5 2 -17 0
9 7 13 6 5 2 -12 0
9 7 13 6 5 2 -8 0
9 7 13 6 5 2 -15 0
9 7 13 6 5 2 -16 0
9 7 13 6 10 2 -11 0
9 7 13 6 10 2 -17 0
9 7 13 6 10 2 -12 0
9 7 13 6 10 2 -8 0
9 7 13 6 10 2 -15 0
9 7 13 6 10 2 -16 0
9 7 13 14 5 10 -11 0
9 7 13 14 5 10 -17 0
9 7 13 14 5 10 -12 0
9 7 13 14 5 10 -8 0
9 7 13 14 5 10 -15 0
9 7 13 14 5 10 -16 0
9 7 13 14 10 2 -11 0
9 7 13 14 10 2 -17 0
9 7 13 14 10 2 -12 0
9 7 13 14 10 2 -8 0
9 7 13 14 10 2 -15 0
9 7 13 14 10 2 -16 0
9 7 6 14 5 2 -11 0
9 7 6 14 5 2 -17 0
9 7 6 14 5 2 -12 0
9 7 6 14 5 2 -8 0
9 7 6 14 5 2 -15 0
9 7 6 14 5 2 -16 0
9 7 6 5 10 2 -11 0
9 7 6 5 10 2 -17 0
9 7 6 5 10 2 -12 0
9 7 6 5 10 2 -8 0
9 7 6 5 10 2 -15 0
9 7 6 5 10 2 -16 0
9 7 14 5 10 2 -11 0
9 7 14 5 10 2 -17 0
9 7 14 5 10 2 -12 0
9 7 14 5 10 2 -8 0
9 7 14 5 10 2 -15 0
9 7 14 5 10 2 -16 0
9 19 13 24 14 10 -44 0
9 19 13 24 14 10 -41 0
9 19 13 24 14 10 -43 0
9 19 13 24 14 10 -42 0
9 19 13 24 14 10 -45 0
9 19 13 24 14 10 -46 0
9 19 13 14 20 10 -44 0
9 19 13 14 20 10 -41 0
9 19 13 14 20 10 -43 0
9 19 13 14 20 10 -42 0
9 19 13 14 20 10 -45 0
9 19 13 14 20 10 -46 0
9 13 28 14 31 10 -47 0
9 13 28 14 31 10 -51 0
9 13 28 14 31 10 -49 0
9 13 28 14 31 10 -50 0
9 13 28 14 31 10 -52 0
9 13 28 14 31 10 -48 0
9 13 28 14 10 37 -47 0
9 13 28 14 10 37 -51 0
9 13 28 14 10 37 -49 0
9 13 28 14 10 37 -50 0
9 13 28 14 10 37 -52 0
9 13 28 14 10 37 -48 0
9 13 6 14 5 10 -11 0
9 13 6 14 5 10 -17 0
9 13 6 14 5 10 -12 0
9 13 6 14 5 10 -8 0
9 13 6 14 5 10 -15 0
9 13 6 14 5 10 -16 0
9 13 6 14 10 2 -11 0
9 13 6 14 10 2 -17 0
9 13 6 14 10 2 -12 0
9 13 6 14 10 2 -8 0
9 13 6 14 10 2 -15 0
9 13 6 14 10 2 -16 0
9 13 24 14 20 10 -44 0
9 13 24 14 20 10 -41 0
9 13 24 14 20 10 -43 0
9 13 24 14 20 10 -42 0
9 13 24 14 20 10 -45 0
9 13 24 14 20 10 -46 0
9 13 14 31 10 37 -47 0
9 13 14 31 10 37 -51 0
9 13 14 31 10 37 -49 0
9 13 14 31 10 37 -50 0
9 13 14 31 10 37 -52 0
9 13 14 31 10 37 -48 0
9 13 14 5 10 2 -11 0
9 13 14 5 10 2 -17 0
9 13 14 5 10 2 -12 0
9 13 14 5 10 2 -8 0
9 13 14 5 10 2 -15 0
9 13 14 5 10 2 -16 0
32 7 28 6 31 5 -35 0
32 7 28 6 31 5 -30 0
32 7 28 6 31 5 -36 0
32 7 28 6 31 5 -33 0
32 7 28 6 31 5 -34 0
32 7 28 6 31 5 -29 0
32 7 28 6 31 37 -35 0
32 7 28 6 31 37 -30 0
32 7 28 6 31 37 -36 0
32 7 28 6 31 37 -33 0
32 7 28 6 31 37 -34 0
32 7 28 6 31 37 -29 0
32 7 28 6 5 2 -35 0
32 7 28 6 5 2 -30 0
32 7 28 6 5 2 -36 0
32 7 28 6 5 2 -33 0
32 7 28 6 5 2 -34 0
32 7 28 6 5 2 -29 0
32 7 28 6 37 2 -35 0
32 7 28 6 37 2 -30 0
32 7 28 6 37 2 -36 0
32 7 28 6 37 2 -33 0
32 7 28 6 37 2 -34 0
32 7 28 6 37 2 -29 0
32 7 28 31 5 37 -35 0
32 7 28 31 5 37 -30 0
32 7 28 31 5 37 -36 0
32 7 28 31 5 37 -33 0
32 7 28 31 5 37 -34 0
32 7 28 31 5 37 -29 0
32 7 28 31 37 2 -35 0
32 7 28 31 37 2 -30 0
32 7 28 31 37 2 -36 0
32 7 28 31 37 2 -33 0
32 7 28 31 37 2 -34 0
32 7 28 31 37 2 -29 0
32 7 6 31 5 2 -35 0
32 7 6 31 5 2 -30 0
32 7 6 31 5 2 -36 0
32 7 6 31 5 2 -33 0
32 7 6 31 5 2 -34 0
32 7 6 31 5 2 -29 0
32 7 6 5 37 2 -35 0
32 7 6 5 37 2 -30 0
32 7 6 5 37 2 -36 0
32 7 6 5 37 2 -33 0
32 7 6 5 37 2 -34 0
32 7 6 5 37 2 -29 0
32 7 31 5 37 2 -35 0
32 7 31 5 37 2 -30 0
32 7 31 5 37 2 -36 0
32 7 31 5 37 2 -33 0
32 7 31 5 37 2 -34 0
32 7 31 5 37 2 -29 0
32 19 28 24 31 37 -61 0
32 19 28 24 31 37 -60 0
32 19 28 24 31 37 -58 0
32 19 28 24 31 37 -57 0
32 19 28 24 31 37 -56 0
32 19 28 24 31 37 -59 0
32 19 28 31 20 37 -61 0
32 19 28 31 20 37 -60 0
32 19 28 31 20 37 -58 0
32 19 28 31 20 37 -57 0
32 19 28 31 20 37 -56 0
32 19 28 31 20 37 -59 0
32 13 28 14 31 37 -47 0
32 13 28 14 31 37 -51 0
32 13 28 14 31 37 -49 0
32 13 28 14 31 37 -50 0
32 13 28 14 31 37 -52 0
32 13 28 14 31 37 -48 0
32 13 28 31 10 37 -47 0
32 13 28 31 10 37 -51 0
32 13 28 31 10 37 -49 0
32 13 28 31 10 37 -50 0
32 13 28 31 10 37 -52 0
32 13 28 31 10 37 -48 0
32 28 6 31 5 37 -35 0
32 28 6 31 5 37 -30 0
32 28 6 31 5 37 -36 0
32 28 6 31 5 37 -33 0
32 28 6 31 5 37 -34 0
32 28 6 31 5 37 -29 0
32 28 6 31 37 2 -35 0
32 28 6 31 37 2 -30 0
32 28 6 31 37 2 -36 0
32 28 6 31 37 2 -33 0
32 28 6 31 37 2 -34 0
32 28 6 31 37 2 -29 0
32 28 24 31 20 37 -61 0
32 28 24 31 20 37 -60 0
32 28 24 31 20 37 -58 0
32 28 24 31 20 37 -57 0
32 28 24 31 20 37 -56 0
32 28 24 31 20 37 -59 0
32 28 14 31 10 37 -47 0
32 28 14 31 10 37 -51 0
32 28 14 31 10 37 -49 0
32 28 14 31 10 37 -50 0
32 28 14 31 10 37 -52 0
32 28 14 31 10 37 -48 0
32 28 31 5 37 2 -35 0
32 28 31 5 37 2 -30 0
32 28 31 5 37 2 -36 0
32 28 31 5 37 2 -33 0
32 28 31 5 37 2 -34 0
32 28 31 5 37 2 -29 0
7 19 6 24 5 2 -22 0
7 19 6 24 5 2 -23 0
7 19 6 24 5 2 -25 0
7 19 6 24 5 2 -27 0
7 19 6 24 5 2 -21 0
7 19 6 24 5 2 -18 0
7 19 6 5 20 2 -22 0
7 19 6 5 20 2 -23 0
7 19 6 5 20 2 -25 0
7 19 6 5 20 2 -27 0
7 19 6 5 20 2 -21 0
7 19 6 5 20 2 -18 0
7 13 6 14 5 2 -11 0
7 13 6 14 5 2 -17 0
7 13 6 14 5 2 -12 0
7 13 6 14 5 2 -8 0
7 13 6 14 5 2 -15 0
7 13 6 14 5 2 -16 0
7 13 6 5 10 2 -11 0
7 13 6 5 10 2 -17 0
7 13 6 5 10 2 -12 0
7 13 6 5 10 2 -8 0
7 13 6 5 10 2 -15 0
7 13 6 5 10 2 -16 0
7 28 6 31 5 2 -35 0
7 28 6 31 5 2 -30 0
7 28 6 31 5 2 -36 0
7 28 6 31 5 2 -33 0
7 28 6 31 5 2 -34 0
7 28 6 31 5 2 -29 0
7 28 6 5 37 2 -35 0
7 28 6 5 37 2 -30 0
7 28 6 5 37 2 -36 0
7 28 6 5 37 2 -33 0
7 28 6 5 37 2 -34 0
7 28 6 5 37 2 -29 0
7 6 24 5 20 2 -22 0
7 6 24 5 20 2 -23 0
7 6 24 5 20 2 -25 0
7 6 24 5 20 2 -27 0
7 6 24 5 20 2 -21 0
7 6 24 5 20 2 -18 0
7 6 14 5 10 2 -11 0
7 6 14 5 10 2 -17 0
7 6 14 5 10 2 -12 0
7 6 14 5 10 2 -8 0
7 6 14 5 10 2 -15 0
7 6 14 5 10 2 -16 0
7 6 31 5 37 2 -35 0
7 6 31 5 37 2 -30 0
7 6 31 5 37 2 -36 0
7 6 31 5 37 2 -33 0
7 6 31 5 37 2 -34 0
7 6 31 5 37 2 -29 0
19 13 24 14 20 10 -44 0
19 13 24 14 20 10 -41 0
19 13 24 14 20 10 -43 0
19 13 24 14 20 10 -42 0
19 13 24 14 20 10 -45 0
19 13 24 14 20 10 -46 0
19 28 24 31 20 37 -61 0
19 28 24 31 20 37 -60 0
19 28 24 31 20 37 -58 0
19 28 24 31 20 37 -57 0
19 28 24 31 20 37 -56 0
19 28 24 31 20 37 -59 0
19 6 24 5 20 2 -22 0
19 6 24 5 20 2 -23 0
19 6 24 5 20 2 -25 0
19 6 24 5 20 2 -27 0
19 6 24 5 20 2 -21 0
19 6 24 5 20 2 -18 0
13 28 14 31 10 37 -47 0
13 28 14 31 10 37 -51 0
13 28 14 31 10 37 -49 0
13 28 14 31 10 37 -50 0
13 28 14 31 10 37 -52 0
13 28 14 31 10 37 -48 0
13 6 14 5 10 2 -11 0
13 6 14 5 10 2 -17 0
13 6 14 5 10 2 -12 0
13 6 14 5 10 2 -8 0
13 6 14 5 10 2 -15 0
13 6 14 5 10 2 -16 0
28 6 31 5 37 2 -35 0
28 6 31 5 37 2 -30 0
28 6 31 5 37 2 -36 0
28 6 31 5 37 2 -33 0
28 6 31 5 37 2 -34 0
28 6 31 5 37 2 -29 0
26 9 19 13 24 14 20 -44 0
26 9 19 13 24 14 20 -41 0
26 9 19 13 24 14 20 -43 0
26 9 19 13 24 14 20 -42 0
26 9 19 13 24 14 20 -45 0
26 9 19 13 24 14 20 -46 0
26 9 19 13 24 14 10 -44 0
26 9 19 13 24 14 10 -41 0
26 9 19 13 24 14 10 -43 0
26 9 19 13 24 14 10 -42 0
26 9 19 13 24 14 10 -45 0
26 9 19 13 24 14 10 -46 0
26 9 19 13 24 20 10 -44 0
26 9 19 13 24 20 10 -41 0
26 9 19 13 24 20 10 -43 0
26 9 19 13 24 20 10 -42 0
26 9 19 13 24 20 10 -45 0
26 9 19 13 24 20 10 -46 0
26 9 19 13 14 20 10 -44 0
26 9 19 13 14 20 10 -41 0
26 9 19 13 14 20 10 -43 0
26 9 19 13 14 20 10 -42 0
26 9 19 13 14 20 10 -45 0
26 9 19 13 14 20 10 -46 0
26 9 19 24 14 20 10 -44 0
26 9 19 24 14 20 10 -41 0
26 9 19 24 14 20 10 -43 0
26 9 19 24 14 20 10 -42 0
26 9 19 24 14 20 10 -45 0
26 9 19 24 14 20 10 -46 0
26 9 13 24 14 20 10 -44 0
26 9 13 24 14 20 10 -41 0
26 9 13 24 14 20 10 -43 0
26 9 13 24 14 20 10 -42 0
26 9 13 24 14 20 10 -45 0
26 9 13 24 14 20 10 -46 0
26 32 19 28 24 31 20 -61 0
26 32 19 28 24 31 20 -60 0
26 32 19 28 24 31 20 -58 0
26 32 19 28 24 31 20 -57 0
26 32 19 28 24 31 20 -56 0
26 32 19 28 24 31 20 -59 0
26 32 19 28 24 31 37 -61 0
26 32 19 28 24 31 37 -60 0
26 32 19 28 24 31 37 -58 0
26 32 19 28 24 31 37 -57 0
26 32 19 28 24 31 37 -56 0
26 32 19 28 24 31 37 -59 0
26 32 19 28 24 20 37 -61 0
26 32 19 28 24 20 37 -60 0
26 32 19 28 24 20 37 -58 0
26 32 19 28 24 20 37 -57 0
26 32 19 28 24 20 37 -56 0
26 32 19 28 24 20 37 -59 0
26 32 19 28 31 20 37 -61 0
26 32 19 28 31 20 37 -60 0
26 32 19 28 31 20 37 -58 0
26 32 19 28 31 20 37 -57 0
26 32 19 28 31 20 37 -56 0
26 32 19 28 31 20 37 -59 0
26 32 19 24 31 20 37 -61 0
26 32 19 24 31 20 37 -60 0
26 32 19 24 31 20 37 -58 0
26 32 19 24 31 20 37 -57 0
26 32 19 24 31 20 37 -56 0
26 32 19 24 31 20 37 -59 0
26 32 28 24 31 20 37 -61 0
26 32 28 24 31 20 37 -60 0
26 32 28 24 31 20 37 -58 0
26 32 28 24 31 20 37 -57 0
26 32 28 24 31 20 37 -56 0
26 32 28 24 31 20 37 -59 0
26 7 19 6 24 5 20 -22 0
26 7 19 6 24 5 20 -23 0
26 7 19 6 24 5 20 -25 0
26 7 19 6 24 5 20 -27 0
26 7 19 6 24 5 20 -21 0
26 7 19 6 24 5 20 -18 0
26 7 19 6 24 5 2 -22 0
26 7 19 6 24 5 2 -23 0
26 7 19 6 24 5 2 -25 0
26 7 19 6 24 5 2 -27 0
26 7 19 6 24 5 2 -21 0
26 7 19 6 24 5 2 -18 0
26 7 19 6 24 20 2 -22 0
26 7 19 6 24 20 2 -23 0
26 7 19 6 24 20 2 -25 0
26 7 19 6 24 20 2 -27 0
26 7 19 6 24 20 2 -21 0
26 7 19 6 24 20 2 -18 0
26 7 19 6 5 20 2 -22 0
26 7 19 6 5 20 2 -23 0
26 7 19 6 5 20 2 -25 0
26 7 19 6 5 20 2 -27 0
26 7 19 6 5 20 2 -21 0
26 7 19 6 5 20 2 -18 0
26 7 19 24 5 20 2 -22 0
26 7 19 24 5 20 2 -23 0
26 7 19 24 5 20 2 -25 0
26 7 19 24 5 20 2 -27 0
26 7 19 24 5 20 2 -21 0
26 7 19 24 5 20 2 -18 0
26 7 6 24 5 20 2 -22 0
26 7 6 24 5 20 2 -23 0
26 7 6 24 5 20 2 -25 0
26 7 6 24 5 20 2 -27 0
26 7 6 24 5 20 2 -21 0
26 7 6 24 5 20 2 -18 0
26 19 13 24 14 20 10 -44 0
26 19 13 24 14 20 10 -41 0
26 19 13 24 14 20 10 -43 0
26 19 13 24 14 20 10 -42 0
26 19 13 24 14 20 10 -45 0
26 19 13 24 14 20 10 -46 0
26 19 28 24 31 20 37 -61 0
26 19 28 24 31 20 37 -60 0
26 19 28 24 31 20 37 -58 0
26 19 28 24 31 20 37 -57 0
26 19 28 24 31 20 37 -56 0
26 19 28 24 31 20 37 -59 0
26 19 6 24 5 20 2 -22 0
26 19 6 24 5 20 2 -23 0
26 19 6 24 5 20 2 -25 0
26 19 6 24 5 20 2 -27 0
26 19 6 24 5 20 2 -21 0
26 19 6 24 5 20 2 -18 0
9 32 13 28 14 31 10 -47 0
9 32 13 28 14 31 10 -51 0
9 32 13 28 14 31 10 -49 0
9 32 13 28 14 31 10 -50 0
9 32 13 28 14 31 10 -52 0
9 32 13 28 14 31 10 -48 0
9 32 13 28 14 31 37 -47 0
9 32 13 28 14 31 37 -51 0
9 32 13 28 14 31 37 -49 0
9 32 13 28 14 31 37 -50 0
9 32 13 28 14 31 37 -52 0
9 32 13 28 14 31 37 -48 0
9 32 13 28 14 10 37 -47 0
9 32 13 28 14 10 37 -51 0
9 32 13 28 14 10 37 -49 0
9 32 13 28 14 10 37 -50 0
9 32 13 28 14 10 37 -52 0
9 32 13 28 14 10 37 -48 0
9 32 13 28 31 10 37 -47 0
9 32 13 28 31 10 37 -51 0
9 32 13 28 31 10 37 -49 0
9 32 13 28 31 10 37 -50 0
9 32 13 28 31 10 37 -52 0
9 32 13 28 31 10 37 -48 0
9 32 13 14 31 10 37 -47 0
9 32 13 14 31 10 37 -51 0
9 32 13 14 31 10 37 -49 0
9 32 13 14 31 10 37 -50 0
9 32 13 14 31 10 37 -52 0
9 32 13 14 31 10 37 -48 0
9 32 28 14 31 10 37 -47 0
9 32 28 14 31 10 37 -51 0
9 32 28 14 31 10 37 -49 0
9 32 28 14 31 10 37 -50 0
9 32 28 14 31 10 37 -52 0
9 32 28 14 31 10 37 -48 0
9 7 13 6 14 5 10 -11 0
9 7 13 6 14 5 10 -17 0
9 7 13 6 14 5 10 -12 0
9 7 13 6 14 5 10 -8 0
9 7 13 6 14 5 10 -15 0
9 7 13 6 14 5 10 -16 0
9 7 13 6 14 5 2 -11 0
9 7 13 6 14 5 2 -17 0
9 7 13 6 14 5 2 -12 0
9 7 13 6 14 5 2 -8 0
9 7 13 6 14 5 2 -15 0
9 7 13 6 14 5 2 -16 0
9 7 13 6 14 10 2 -11 0
9 7 13 6 14 10 2 -17 0
9 7 13 6 14 10 2 -12 0
9 7 13 6 14 10 2 -8 0
9 7 13 6 14 10 2 -15 0
9 7 13 6 14 10 2 -16 0
9 7 13 6 5 10 2 -11 0
9 7 13 6 5 10 2 -17 0
9 7 13 6 5 10 2 -12 0
9 7 13 6 5 10 2 -8 0
9 7 13 6 5 10 2 -15 0
9 7 13 6 5 10 2 -16 0
9 7 13 14 5 10 2 -11 0
9 7 13 14 5 10 2 -17 0
9 7 13 14 5 10 2 -12 0
9 7 13 14 5 10 2 -8 0
9 7 13 14 5 10 2 -15 0
9 7 13 14 5 10 2 -16 0
9 7 6 14 5 10 2 -11 0
9 7 6 14 5 10 2 -17 0
9 7 6 14 5 10 2 -12 0
9 7 6 14 5 10 2 -8 0
9 7 6 14 5 10 2 -15 0
9 7 6 14 5 10 2 -16 0
9 19 13 24 14 20 10 -44 0
9 19 13 24 14 20 10 -41 0
9 19 13 24 14 20 10 -43 0
9 19 13 24 14 20 10 -42 0
9 19 13 24 14 20 10 -45 0
9 19 13 24 14 20 10 -46 0
9 13 28 14 31 10 37 -47 0
9 13 28 14 31 10 37 -51 0
9 13 28 14 31 10 37 -49 0
9 13 28 14 31 10 37 -50 0
9 13 28 14 31 10 37 -52 0
9 13 28 14 31 10 37 -48 0
9 13 6 14 5 10 2 -11 0
9 13 6 14 5 10 2 -17 0
9 13 6 14 5 10 2 -12 0
9 13 6 14 5 10 2 -8 0
9 13 6 14 5 10 2 -15 0
9 13 6 14 5 10 2 -16 0
32 7 28 6 31 5 37 -35 0
32 7 28 6 31 5 37 -30 0
32 7 28 6 31 5 37 -36 0
32 7 28 6 31 5 37 -33 0
32 7 28 6 31 5 37 -34 0
32 7 28 6 31 5 37 -29 0
32 7 28 6 31 5 2 -35 0
32 7 28 6 31 5 2 -30 0
32 7 28 6 31 5 2 -36 0
32 7 28 6 31 5 2 -33 0
32 7 28 6 31 5 2 -34 0
32 7 28 6 31 5 2 -29 0
32 7 28 6 31 37 2 -35 0
32 7 28 6 31 37 2 -30 0
32 7 28 6 31 37 2 -36 0
32 7 28 6 31 37 2 -33 0
32 7 28 6 31 37 2 -34 0
32 7 28 6 31 37 2 -29 0
32 7 28 6 5 37 2 -35 0
32 7 28 6 5 37 2 -30 0
32 7 28 6 5 37 2 -36 0
32 7 28 6 5 37 2 -33 0
32 7 28 6 5 37 2 -34 0
32 7 28 6 5 37 2 -29 0
32 7 28 31 5 37 2 -35 0
32 7 28 31 5 37 2 -30 0
32 7 28 31 5 37 2 -36 0
32 7 28 31 5 37 2 -33 0
32 7 28 31 5 37 2 -34 0
32 7 28 31 5 37 2 -29 0
32 7 6 31 5 37 2 -35 0
32 7 6 31 5 37 2 -30 0
32 7 6 31 5 37 2 -36 0
32 7 6 31 5 37 2 -33 0
32 7 6 31 5 37 2 -34 0
32 7 6 31 5 37 2 -29 0
32 19 28 24 31 20 37 -61 0
32 19 28 24 31 20 37 -60 0
32 19 28 24 31 20 37 -58 0
32 19 28 24 31 20 37 -57 0
32 19 28 24 31 20 37 -56 0
32 19 28 24 31 20 37 -59 0
32 13 28 14 31 10 37 -47 0
32 13 28 14 31 10 37 -51 0
32 13 28 14 31 10 37 -49 0
32 13 28 14 31 10 37 -50 0
32 13 28 14 31 10 37 -52 0
32 13 28 14 31 10 37 -48 0
32 28 6 31 5 37 2 -35 0
32 28 6 31 5 37 2 -30 0
32 28 6 31 5 37 2 -36 0
32 28 6 31 5 37 2 -33 0
32 28 6 31 5 37 2 -34 0
32 28 6 31 5 37 2 -29 0
7 19 6 24 5 20 2 -22 0
7 19 6 24 5 20 2 -23 0
7 19 6 24 5 20 2 -25 0
7 19 6 24 5 20 2 -27 0
7 19 6 24 5 20 2 -21 0
7 19 6 24 5 20 2 -18 0
7 13 6 14 5 10 2 -11 0
7 13 6 14 5 10 2 -17 0
7 13 6 14 5 10 2 -12 0
7 13 6 14 5 10 2 -8 0
7 13 6 14 5 10 2 -15 0
7 13 6 14 5 10 2 -16 0
7 28 6 31 5 37 2 -35 0
7 28 6 31 5 37 2 -30 0
7 28 6 31 5 37 2 -36 0
7 28 6 31 5 37 2 -33 0
7 28 6 31 5 37 2 -34 0
7 28 6 31 5 37 2 -29 0
26 9 19 13 24 14 20 10 -44 0
26 9 19 13 24 14 20 10 -41 0
26 9 19 13 24 14 20 10 -43 0
26 9 19 13 24 14 20 10 -42 0
26 9 19 13 24 14 20 10 -45 0
26 9 19 13 24 14 20 10 -46 0
26 32 19 28 24 31 20 37 -61 0
26 32 19 28 24 31 20 37 -60 0
26 32 19 28 24 31 20 37 -58 0
26 32 19 28 24 31 20 37 -57 0
26 32 19 28 24 31 20 37 -56 0
26 32 19 28 24 31 20 37 -59 0
26 7 19 6 24 5 20 2 -22 0
26 7 19 6 24 5 20 2 -23 0
26 7 19 6 24 5 20 2 -25 0
26 7 19 6 24 5 20 2 -27 0
26 7 19 6 24 5 20 2 -21 0
26 7 19 6 24 5 20 2 -18 0
9 32 13 28 14 31 10 37 -47 0
9 32 13 28 14 31 10 37 -51 0
9 32 13 28 14 31 10 37 -49 0
9 32 13 28 14 31 10 37 -50 0
9 32 13 28 14 31 10 37 -52 0
9 32 13 28 14 31 10 37 -48 0
9 7 13 6 14 5 10 2 -11 0
9 7 13 6 14 5 10 2 -17 0
9 7 13 6 14 5 10 2 -12 0
9 7 13 6 14 5 10 2 -8 0
9 7 13 6 14 5 10 2 -15 0
9 7 13 6 14 5 10 2 -16 0
32 7 28 6 31 5 37 2 -35 0
32 7 28 6 31 5 37 2 -30 0
32 7 28 6 31 5 37 2 -36 0
32 7 28 6 31 5 37 2 -33 0
32 7 28 6 31 5 37 2 -34 0
32 7 28 6 31 5 37 2 -29 0
