c E2(3,3) U3(3) E1(3,3) U2(3) U4(3) U1(3) E3(3,3) E1(3,0) U1(0) E2(0,3) E3(3,0) U2(0) U4(0) U3(0) E3(0,3) E1(0,3) E2(3,0) E1(2,3) E3(2,3) U3(2) U2(2) E2(2,3) E2(3,2) E1(3,2) U1(2) E3(3,2) U4(2) E2(1,3) U2(1) E1(3,1) E3(1,3) U3(1) E2(3,1) E3(3,1) E1(1,3) U4(1) U1(1) E2(3,4) U4(4) E1(3,4) U2(4) E3(3,4) E1(4,3) E3(4,3) U3(4) E2(4,3) U1(4) E2(0,0) E1(0,0) E3(0,0) E3(0,2) E1(0,2) E2(0,2) E3(2,0) E2(2,0) E1(2,0) E2(1,0) E1(0,1) E3(0,1) E1(1,0) E2(0,1) E3(1,0) E3(4,0) E1(4,0) E3(0,4) E1(0,4) E2(4,0) E2(0,4) E2(2,2) E1(2,2) E3(2,2) E3(1,2) E1(1,2) E2(2,1) E3(2,1) E1(2,1) E2(1,2) E2(2,4) E1(2,4) E3(2,4) E1(4,2) E3(4,2) E2(4,2) E1(1,1) E3(1,1) E2(1,1) E1(4,1) E3(4,1) E3(1,4) E1(1,4) E2(1,4) E2(4,1) E2(4,4) E1(4,4) E3(4,4)
c 1 2 3 4 5 6 7 8 9 10 11 12 13 14 15 16 17 18 19 20 21 22 23 24 25 26 27 28 29 30 31 32 33 34 35 36 37 38 39 40 41 42 43 44 45 46 47 48 49 50 51 52 53 54 55 56 57 58 59 60 61 62 63 64 65 66 67 68 69 70 71 72 73 74 75 76 77 78 79 80 81 82 83 84 85 86 87 88 89 90 91 92 93 94 95
p cnf 95 2375
49 -49 0
58 -60 0
52 -56 0
16 -8 0
66 -64 0
60 -58 0
84 -84 0
73 -76 0
35 -30 0
90 -87 0
56 -52 0
76 -73 0
70 -70 0
18 -24 0
79 -81 0
8 -16 0
30 -35 0
24 -18 0
3 -3 0
40 -43 0
64 -66 0
87 -90 0
81 -79 0
43 -40 0
94 -94 0
48 -48 0
61 -57 0
53 -55 0
10 -17 0
68 -67 0
57 -61 0
86 -86 0
77 -74 0
28 -33 0
91 -92 0
55 -53 0
74 -77 0
69 -69 0
22 -23 0
78 -83 0
17 -10 0
33 -28 0
23 -22 0
1 -1 0
38 -46 0
67 -68 0
92 -91 0
83 -78 0
46 -38 0
93 -93 0
50 -50 0
59 -62 0
51 -54 0
15 -11 0
65 -63 0
62 -59 0
85 -85 0
72 -75 0
31 -34 0
89 -88 0
54 -51 0
75 -72 0
71 -71 0
19 -26 0
80 -82 0
11 -15 0
34 -31 0
26 -19 0
7 -7 0
42 -44 0
63 -65 0
88 -89 0
82 -80 0
44 -42 0
95 -95 0
-49 -48 0
-49 -50 0
-58 -61 0
-58 -59 0
-52 -53 0
-52 -51 0
-16 -10 0
-16 -15 0
-66 -68 0
-66 -65 0
-60 -57 0
-60 -62 0
-84 -86 0
-84 -85 0
-73 -77 0
-73 -72 0
-35 -28 0
-35 -31 0
-90 -91 0
-90 -89 0
-56 -55 0
-56 -54 0
-76 -74 0
-76 -75 0
-70 -69 0
-70 -71 0
-18 -22 0
-18 -19 0
-79 -78 0
-79 -80 0
-8 -17 0
-8 -11 0
-30 -33 0
-30 -34 0
-24 -23 0
-24 -26 0
-3 -1 0
-3 -7 0
-40 -38 0
-40 -42 0
-64 -67 0
-64 -63 0
-87 -92 0
-87 -88 0
-81 -83 0
-81 -82 0
-43 -46 0
-43 -44 0
-94 -93 0
-94 -95 0
-48 -50 0
-61 -59 0
-53 -51 0
-10 -15 0
-68 -65 0
-57 -62 0
-86 -85 0
-77 -72 0
-28 -31 0
-91 -89 0
-55 -54 0
-74 -75 0
-69 -71 0
-22 -19 0
-78 -80 0
-17 -11 0
-33 -34 0
-23 -26 0
-1 -7 0
-38 -42 0
-67 -63 0
-92 -88 0
-83 -82 0
-46 -44 0
-93 -95 0
-9 -12 0
-9 -14 0
-9 -13 0
-37 -29 0
-37 -32 0
-37 -36 0
-25 -21 0
-25 -20 0
-25 -27 0
-6 -4 0
-6 -2 0
-6 -5 0
-47 -41 0
-47 -45 0
-47 -39 0
-12 -14 0
-12 -13 0
-29 -32 0
-29 -36 0
-21 -20 0
-21 -27 0
-4 -2 0
-4 -5 0
-41 -45 0
-41 -39 0
-14 -13 0
-32 -36 0
-20 -27 0
-2 -5 0
-45 -39 0
9 12 14 13 0
37 29 32 36 0
25 21 20 27 0
6 4 2 5 0
47 41 45 39 0
9 12 14 -49 0
9 12 14 -48 0
9 12 14 -50 0
9 12 13 -49 0
9 12 13 -48 0
9 12 13 -50 0
9 14 13 -49 0
9 14 13 -48 0
9 14 13 -50 0
37 29 32 -84 0
37 29 32 -86 0
37 29 32 -85 0
37 29 36 -84 0
37 29 36 -86 0
37 29 36 -85 0
37 32 36 -84 0
37 32 36 -86 0
37 32 36 -85 0
25 21 20 -70 0
25 21 20 -69 0
25 21 20 -71 0
25 21 27 -70 0
25 21 27 -69 0
25 21 27 -71 0
25 20 27 -70 0
25 20 27 -69 0
25 20 27 -71 0
6 4 2 -3 0
6 4 2 -1 0
6 4 2 -7 0
6 4 5 -3 0
6 4 5 -1 0
6 4 5 -7 0
6 2 5 -3 0
6 2 5 -1 0
6 2 5 -7 0
47 41 45 -94 0
47 41 45 -93 0
47 41 45 -95 0
47 41 39 -94 0
47 41 39 -93 0
47 41 39 -95 0
47 45 39 -94 0
47 45 39 -93 0
47 45 39 -95 0
12 14 13 -49 0
12 14 13 -48 0
12 14 13 -50 0
29 32 36 -84 0
29 32 36 -86 0
29 32 36 -85 0
21 20 27 -70 0
21 20 27 -69 0
21 20 27 -71 0
4 2 5 -3 0
4 2 5 -1 0
4 2 5 -7 0
41 45 39 -94 0
41 45 39 -93 0
41 45 39 -95 0
49 58 52 16 66 0
60 84 73 35 90 0
56 76 70 18 79 0
8 30 24 3 40 0
64 87 81 43 94 0
48 61 53 10 68 0
57 86 77 28 91 0
55 74 69 22 78 0
17 33 23 1 38 0
67 92 83 46 93 0
50 59 51 15 65 0
62 85 72 31 89 0
54 75 71 19 80 0
11 34 26 7 42 0
63 88 82 44 95 0
9 12 14 13 -49 0
9 12 14 13 -58 0
9 12 14 13 -52 0
9 12 14 13 -16 0
9 12 14 13 -66 0
9 12 14 13 -60 0
9 12 14 13 -56 0
9 12 14 13 -8 0
9 12 14 13 -64 0
9 12 14 13 -48 0
9 12 14 13 -61 0
9 12 14 13 -53 0
9 12 14 13 -10 0
9 12 14 13 -68 0
9 12 14 13 -57 0
9 12 14 13 -55 0
9 12 14 13 -17 0
9 12 14 13 -67 0
9 12 14 13 -50 0
9 12 14 13 -59 0
9 12 14 13 -51 0
9 12 14 13 -15 0
9 12 14 13 -65 0
9 12 14 13 -62 0
9 12 14 13 -54 0
9 12 14 13 -11 0
9 12 14 13 -63 0
37 29 32 36 -58 0
37 29 32 36 -60 0
37 29 32 36 -84 0
37 29 32 36 -73 0
37 29 32 36 -35 0
37 29 32 36 -90 0
37 29 32 36 -76 0
37 29 32 36 -30 0
37 29 32 36 -87 0
37 29 32 36 -61 0
37 29 32 36 -57 0
37 29 32 36 -86 0
37 29 32 36 -77 0
37 29 32 36 -28 0
37 29 32 36 -91 0
37 29 32 36 -74 0
37 29 32 36 -33 0
37 29 32 36 -92 0
37 29 32 36 -59 0
37 29 32 36 -62 0
37 29 32 36 -85 0
37 29 32 36 -72 0
37 29 32 36 -31 0
37 29 32 36 -89 0
37 29 32 36 -75 0
37 29 32 36 -34 0
37 29 32 36 -88 0
25 21 20 27 -52 0
25 21 20 27 -73 0
25 21 20 27 -56 0
25 21 20 27 -76 0
25 21 20 27 -70 0
25 21 20 27 -18 0
25 21 20 27 -79 0
25 21 20 27 -24 0
25 21 20 27 -81 0
25 21 20 27 -53 0
25 21 20 27 -77 0
25 21 20 27 -55 0
25 21 20 27 -74 0
25 21 20 27 -69 0
25 21 20 27 -22 0
25 21 20 27 -78 0
25 21 20 27 -23 0
25 21 20 27 -83 0
25 21 20 27 -51 0
25 21 20 27 -72 0
25 21 20 27 -54 0
25 21 20 27 -75 0
25 21 20 27 -71 0
25 21 20 27 -19 0
25 21 20 27 -80 0
25 21 20 27 -26 0
25 21 20 27 -82 0
6 4 2 5 -16 0
6 4 2 5 -35 0
6 4 2 5 -18 0
6 4 2 5 -8 0
6 4 2 5 -30 0
6 4 2 5 -24 0
6 4 2 5 -3 0
6 4 2 5 -40 0
6 4 2 5 -43 0
6 4 2 5 -10 0
6 4 2 5 -28 0
6 4 2 5 -22 0
6 4 2 5 -17 0
6 4 2 5 -33 0
6 4 2 5 -23 0
6 4 2 5 -1 0
6 4 2 5 -38 0
6 4 2 5 -46 0
6 4 2 5 -15 0
6 4 2 5 -31 0
6 4 2 5 -19 0
6 4 2 5 -11 0
6 4 2 5 -34 0
6 4 2 5 -26 0
6 4 2 5 -7 0
6 4 2 5 -42 0
6 4 2 5 -44 0
47 41 45 39 -66 0
47 41 45 39 -90 0
47 41 45 39 -79 0
47 41 45 39 -40 0
47 41 45 39 -64 0
47 41 45 39 -87 0
47 41 45 39 -81 0
47 41 45 39 -43 0
47 41 45 39 -94 0
47 41 45 39 -68 0
47 41 45 39 -91 0
47 41 45 39 -78 0
47 41 45 39 -38 0
47 41 45 39 -67 0
47 41 45 39 -92 0
47 41 45 39 -83 0
47 41 45 39 -46 0
47 41 45 39 -93 0
47 41 45 39 -65 0
47 41 45 39 -89 0
47 41 45 39 -80 0
47 41 45 39 -42 0
47 41 45 39 -63 0
47 41 45 39 -88 0
47 41 45 39 -82 0
47 41 45 39 -44 0
47 41 45 39 -95 0
9 37 12 14 13 -58 0
9 37 12 14 13 -60 0
9 37 12 14 13 -61 0
9 37 12 14 13 -57 0
9 37 12 14 13 -59 0
9 37 12 14 13 -62 0
9 37 29 32 36 -58 0
9 37 29 32 36 -60 0
9 37 29 32 36 -61 0
9 37 29 32 36 -57 0
9 37 29 32 36 -59 0
9 37 29 32 36 -62 0
9 25 12 14 13 -52 0
9 25 12 14 13 -56 0
9 25 12 14 13 -53 0
9 25 12 14 13 -55 0
9 25 12 14 13 -51 0
9 25 12 14 13 -54 0
9 25 21 20 27 -52 0
9 25 21 20 27 -56 0
9 25 21 20 27 -53 0
9 25 21 20 27 -55 0
9 25 21 20 27 -51 0
9 25 21 20 27 -54 0
9 6 12 14 13 -16 0
9 6 12 14 13 -8 0
9 6 12 14 13 -10 0
9 6 12 14 13 -17 0
9 6 12 14 13 -15 0
9 6 12 14 13 -11 0
9 6 4 2 5 -16 0
9 6 4 2 5 -8 0
9 6 4 2 5 -10 0
9 6 4 2 5 -17 0
9 6 4 2 5 -15 0
9 6 4 2 5 -11 0
9 47 12 14 13 -66 0
9 47 12 14 13 -64 0
9 47 12 14 13 -68 0
9 47 12 14 13 -67 0
9 47 12 14 13 -65 0
9 47 12 14 13 -63 0
9 47 41 45 39 -66 0
9 47 41 45 39 -64 0
9 47 41 45 39 -68 0
9 47 41 45 39 -67 0
9 47 41 45 39 -65 0
9 47 41 45 39 -63 0
9 12 29 14 13 -58 0
9 12 29 14 13 -60 0
9 12 29 14 13 -61 0
9 12 29 14 13 -57 0
9 12 29 14 13 -59 0
9 12 29 14 13 -62 0
9 12 21 14 13 -52 0
9 12 21 14 13 -56 0
9 12 21 14 13 -53 0
9 12 21 14 13 -55 0
9 12 21 14 13 -51 0
9 12 21 14 13 -54 0
9 12 4 14 13 -16 0
9 12 4 14 13 -8 0
9 12 4 14 13 -10 0
9 12 4 14 13 -17 0
9 12 4 14 13 -15 0
9 12 4 14 13 -11 0
9 12 41 14 13 -66 0
9 12 41 14 13 -64 0
9 12 41 14 13 -68 0
9 12 41 14 13 -67 0
9 12 41 14 13 -65 0
9 12 41 14 13 -63 0
9 12 14 32 13 -58 0
9 12 14 32 13 -60 0
9 12 14 32 13 -61 0
9 12 14 32 13 -57 0
9 12 14 32 13 -59 0
9 12 14 32 13 -62 0
9 12 14 20 13 -52 0
9 12 14 20 13 -56 0
9 12 14 20 13 -53 0
9 12 14 20 13 -55 0
9 12 14 20 13 -51 0
9 12 14 20 13 -54 0
9 12 14 2 13 -16 0
9 12 14 2 13 -8 0
9 12 14 2 13 -10 0
9 12 14 2 13 -17 0
9 12 14 2 13 -15 0
9 12 14 2 13 -11 0
9 12 14 45 13 -66 0
9 12 14 45 13 -64 0
9 12 14 45 13 -68 0
9 12 14 45 13 -67 0
9 12 14 45 13 -65 0
9 12 14 45 13 -63 0
9 12 14 13 36 -58 0
9 12 14 13 36 -60 0
9 12 14 13 36 -61 0
9 12 14 13 36 -57 0
9 12 14 13 36 -59 0
9 12 14 13 36 -62 0
9 12 14 13 27 -52 0
9 12 14 13 27 -56 0
9 12 14 13 27 -53 0
9 12 14 13 27 -55 0
9 12 14 13 27 -51 0
9 12 14 13 27 -54 0
9 12 14 13 5 -16 0
9 12 14 13 5 -8 0
9 12 14 13 5 -10 0
9 12 14 13 5 -17 0
9 12 14 13 5 -15 0
9 12 14 13 5 -11 0
9 12 14 13 39 -66 0
9 12 14 13 39 -64 0
9 12 14 13 39 -68 0
9 12 14 13 39 -67 0
9 12 14 13 39 -65 0
9 12 14 13 39 -63 0
37 25 29 32 36 -73 0
37 25 29 32 36 -76 0
37 25 29 32 36 -77 0
37 25 29 32 36 -74 0
37 25 29 32 36 -72 0
37 25 29 32 36 -75 0
37 25 21 20 27 -73 0
37 25 21 20 27 -76 0
37 25 21 20 27 -77 0
37 25 21 20 27 -74 0
37 25 21 20 27 -72 0
37 25 21 20 27 -75 0
37 6 29 32 36 -35 0
37 6 29 32 36 -30 0
37 6 29 32 36 -28 0
37 6 29 32 36 -33 0
37 6 29 32 36 -31 0
37 6 29 32 36 -34 0
37 6 4 2 5 -35 0
37 6 4 2 5 -30 0
37 6 4 2 5 -28 0
37 6 4 2 5 -33 0
37 6 4 2 5 -31 0
37 6 4 2 5 -34 0
37 47 29 32 36 -90 0
37 47 29 32 36 -87 0
37 47 29 32 36 -91 0
37 47 29 32 36 -92 0
37 47 29 32 36 -89 0
37 47 29 32 36 -88 0
37 47 41 45 39 -90 0
37 47 41 45 39 -87 0
37 47 41 45 39 -91 0
37 47 41 45 39 -92 0
37 47 41 45 39 -89 0
37 47 41 45 39 -88 0
37 12 29 32 36 -58 0
37 12 29 32 36 -60 0
37 12 29 32 36 -61 0
37 12 29 32 36 -57 0
37 12 29 32 36 -59 0
37 12 29 32 36 -62 0
37 29 21 32 36 -73 0
37 29 21 32 36 -76 0
37 29 21 32 36 -77 0
37 29 21 32 36 -74 0
37 29 21 32 36 -72 0
37 29 21 32 36 -75 0
37 29 4 32 36 -35 0
37 29 4 32 36 -30 0
37 29 4 32 36 -28 0
37 29 4 32 36 -33 0
37 29 4 32 36 -31 0
37 29 4 32 36 -34 0
37 29 41 32 36 -90 0
37 29 41 32 36 -87 0
37 29 41 32 36 -91 0
37 29 41 32 36 -92 0
37 29 41 32 36 -89 0
37 29 41 32 36 -88 0
37 29 14 32 36 -58 0
37 29 14 32 36 -60 0
37 29 14 32 36 -61 0
37 29 14 32 36 -57 0
37 29 14 32 36 -59 0
37 29 14 32 36 -62 0
37 29 32 20 36 -73 0
37 29 32 20 36 -76 0
37 29 32 20 36 -77 0
37 29 32 20 36 -74 0
37 29 32 20 36 -72 0
37 29 32 20 36 -75 0
37 29 32 2 36 -35 0
37 29 32 2 36 -30 0
37 29 32 2 36 -28 0
37 29 32 2 36 -33 0
37 29 32 2 36 -31 0
37 29 32 2 36 -34 0
37 29 32 45 36 -90 0
37 29 32 45 36 -87 0
37 29 32 45 36 -91 0
37 29 32 45 36 -92 0
37 29 32 45 36 -89 0
37 29 32 45 36 -88 0
37 29 32 13 36 -58 0
37 29 32 13 36 -60 0
37 29 32 13 36 -61 0
37 29 32 13 36 -57 0
37 29 32 13 36 -59 0
37 29 32 13 36 -62 0
37 29 32 36 27 -73 0
37 29 32 36 27 -76 0
37 29 32 36 27 -77 0
37 29 32 36 27 -74 0
37 29 32 36 27 -72 0
37 29 32 36 27 -75 0
37 29 32 36 5 -35 0
37 29 32 36 5 -30 0
37 29 32 36 5 -28 0
37 29 32 36 5 -33 0
37 29 32 36 5 -31 0
37 29 32 36 5 -34 0
37 29 32 36 39 -90 0
37 29 32 36 39 -87 0
37 29 32 36 39 -91 0
37 29 32 36 39 -92 0
37 29 32 36 39 -89 0
37 29 32 36 39 -88 0
25 6 21 20 27 -18 0
25 6 21 20 27 -24 0
25 6 21 20 27 -22 0
25 6 21 20 27 -23 0
25 6 21 20 27 -19 0
25 6 21 20 27 -26 0
25 6 4 2 5 -18 0
25 6 4 2 5 -24 0
25 6 4 2 5 -22 0
25 6 4 2 5 -23 0
25 6 4 2 5 -19 0
25 6 4 2 5 -26 0
25 47 21 20 27 -79 0
25 47 21 20 27 -81 0
25 47 21 20 27 -78 0
25 47 21 20 27 -83 0
25 47 21 20 27 -80 0
25 47 21 20 27 -82 0
25 47 41 45 39 -79 0
25 47 41 45 39 -81 0
25 47 41 45 39 -78 0
25 47 41 45 39 -83 0
25 47 41 45 39 -80 0
25 47 41 45 39 -82 0
25 12 21 20 27 -52 0
25 12 21 20 27 -56 0
25 12 21 20 27 -53 0
25 12 21 20 27 -55 0
25 12 21 20 27 -51 0
25 12 21 20 27 -54 0
25 29 21 20 27 -73 0
25 29 21 20 27 -76 0
25 29 21 20 27 -77 0
25 29 21 20 27 -74 0
25 29 21 20 27 -72 0
25 29 21 20 27 -75 0
25 21 4 20 27 -18 0
25 21 4 20 27 -24 0
25 21 4 20 27 -22 0
25 21 4 20 27 -23 0
25 21 4 20 27 -19 0
25 21 4 20 27 -26 0
25 21 41 20 27 -79 0
25 21 41 20 27 -81 0
25 21 41 20 27 -78 0
25 21 41 20 27 -83 0
25 21 41 20 27 -80 0
25 21 41 20 27 -82 0
25 21 14 20 27 -52 0
25 21 14 20 27 -56 0
25 21 14 20 27 -53 0
25 21 14 20 27 -55 0
25 21 14 20 27 -51 0
25 21 14 20 27 -54 0
25 21 32 20 27 -73 0
25 21 32 20 27 -76 0
25 21 32 20 27 -77 0
25 21 32 20 27 -74 0
25 21 32 20 27 -72 0
25 21 32 20 27 -75 0
25 21 20 2 27 -18 0
25 21 20 2 27 -24 0
25 21 20 2 27 -22 0
25 21 20 2 27 -23 0
25 21 20 2 27 -19 0
25 21 20 2 27 -26 0
25 21 20 45 27 -79 0
25 21 20 45 27 -81 0
25 21 20 45 27 -78 0
25 21 20 45 27 -83 0
25 21 20 45 27 -80 0
25 21 20 45 27 -82 0
25 21 20 13 27 -52 0
25 21 20 13 27 -56 0
25 21 20 13 27 -53 0
25 21 20 13 27 -55 0
25 21 20 13 27 -51 0
25 21 20 13 27 -54 0
25 21 20 36 27 -73 0
25 21 20 36 27 -76 0
25 21 20 36 27 -77 0
25 21 20 36 27 -74 0
25 21 20 36 27 -72 0
25 21 20 36 27 -75 0
25 21 20 27 5 -18 0
25 21 20 27 5 -24 0
25 21 20 27 5 -22 0
25 21 20 27 5 -23 0
25 21 20 27 5 -19 0
25 21 20 27 5 -26 0
25 21 20 27 39 -79 0
25 21 20 27 39 -81 0
25 21 20 27 39 -78 0
25 21 20 27 39 -83 0
25 21 20 27 39 -80 0
25 21 20 27 39 -82 0
6 47 4 2 5 -40 0
6 47 4 2 5 -43 0
6 47 4 2 5 -38 0
6 47 4 2 5 -46 0
6 47 4 2 5 -42 0
6 47 4 2 5 -44 0
6 47 41 45 39 -40 0
6 47 41 45 39 -43 0
6 47 41 45 39 -38 0
6 47 41 45 39 -46 0
6 47 41 45 39 -42 0
6 47 41 45 39 -44 0
6 12 4 2 5 -16 0
6 12 4 2 5 -8 0
6 12 4 2 5 -10 0
6 12 4 2 5 -17 0
6 12 4 2 5 -15 0
6 12 4 2 5 -11 0
6 29 4 2 5 -35 0
6 29 4 2 5 -30 0
6 29 4 2 5 -28 0
6 29 4 2 5 -33 0
6 29 4 2 5 -31 0
6 29 4 2 5 -34 0
6 21 4 2 5 -18 0
6 21 4 2 5 -24 0
6 21 4 2 5 -22 0
6 21 4 2 5 -23 0
6 21 4 2 5 -19 0
6 21 4 2 5 -26 0
6 4 41 2 5 -40 0
6 4 41 2 5 -43 0
6 4 41 2 5 -38 0
6 4 41 2 5 -46 0
6 4 41 2 5 -42 0
6 4 41 2 5 -44 0
6 4 14 2 5 -16 0
6 4 14 2 5 -8 0
6 4 14 2 5 -10 0
6 4 14 2 5 -17 0
6 4 14 2 5 -15 0
6 4 14 2 5 -11 0
6 4 32 2 5 -35 0
6 4 32 2 5 -30 0
6 4 32 2 5 -28 0
6 4 32 2 5 -33 0
6 4 32 2 5 -31 0
6 4 32 2 5 -34 0
6 4 20 2 5 -18 0
6 4 20 2 5 -24 0
6 4 20 2 5 -22 0
6 4 20 2 5 -23 0
6 4 20 2 5 -19 0
6 4 20 2 5 -26 0
6 4 2 45 5 -40 0
6 4 2 45 5 -43 0
6 4 2 45 5 -38 0
6 4 2 45 5 -46 0
6 4 2 45 5 -42 0
6 4 2 45 5 -44 0
6 4 2 13 5 -16 0
6 4 2 13 5 -8 0
6 4 2 13 5 -10 0
6 4 2 13 5 -17 0
6 4 2 13 5 -15 0
6 4 2 13 5 -11 0
6 4 2 36 5 -35 0
6 4 2 36 5 -30 0
6 4 2 36 5 -28 0
6 4 2 36 5 -33 0
6 4 2 36 5 -31 0
6 4 2 36 5 -34 0
6 4 2 27 5 -18 0
6 4 2 27 5 -24 0
6 4 2 27 5 -22 0
6 4 2 27 5 -23 0
6 4 2 27 5 -19 0
6 4 2 27 5 -26 0
6 4 2 5 39 -40 0
6 4 2 5 39 -43 0
6 4 2 5 39 -38 0
6 4 2 5 39 -46 0
6 4 2 5 39 -42 0
6 4 2 5 39 -44 0
47 12 41 45 39 -66 0
47 12 41 45 39 -64 0
47 12 41 45 39 -68 0
47 12 41 45 39 -67 0
47 12 41 45 39 -65 0
47 12 41 45 39 -63 0
47 29 41 45 39 -90 0
47 29 41 45 39 -87 0
47 29 41 45 39 -91 0
47 29 41 45 39 -92 0
47 29 41 45 39 -89 0
47 29 41 45 39 -88 0
47 21 41 45 39 -79 0
47 21 41 45 39 -81 0
47 21 41 45 39 -78 0
47 21 41 45 39 -83 0
47 21 41 45 39 -80 0
47 21 41 45 39 -82 0
47 4 41 45 39 -40 0
47 4 41 45 39 -43 0
47 4 41 45 39 -38 0
47 4 41 45 39 -46 0
47 4 41 45 39 -42 0
47 4 41 45 39 -44 0
47 41 14 45 39 -66 0
47 41 14 45 39 -64 0
47 41 14 45 39 -68 0
47 41 14 45 39 -67 0
47 41 14 45 39 -65 0
47 41 14 45 39 -63 0
47 41 32 45 39 -90 0
47 41 32 45 39 -87 0
47 41 32 45 39 -91 0
47 41 32 45 39 -92 0
47 41 32 45 39 -89 0
47 41 32 45 39 -88 0
47 41 20 45 39 -79 0
47 41 20 45 39 -81 0
47 41 20 45 39 -78 0
47 41 20 45 39 -83 0
47 41 20 45 39 -80 0
47 41 20 45 39 -82 0
47 41 2 45 39 -40 0
47 41 2 45 39 -43 0
47 41 2 45 39 -38 0
47 41 2 45 39 -46 0
47 41 2 45 39 -42 0
47 41 2 45 39 -44 0
47 41 45 13 39 -66 0
47 41 45 13 39 -64 0
47 41 45 13 39 -68 0
47 41 45 13 39 -67 0
47 41 45 13 39 -65 0
47 41 45 13 39 -63 0
47 41 45 36 39 -90 0
47 41 45 36 39 -87 0
47 41 45 36 39 -91 0
47 41 45 36 39 -92 0
47 41 45 36 39 -89 0
47 41 45 36 39 -88 0
47 41 45 27 39 -79 0
47 41 45 27 39 -81 0
47 41 45 27 39 -78 0
47 41 45 27 39 -83 0
47 41 45 27 39 -80 0
47 41 45 27 39 -82 0
47 41 45 5 39 -40 0
47 41 45 5 39 -43 0
47 41 45 5 39 -38 0
47 41 45 5 39 -46 0
47 41 45 5 39 -42 0
47 41 45 5 39 -44 0
9 37 12 29 14 32 -58 0
9 37 12 29 14 32 -60 0
9 37 12 29 14 32 -61 0
9 37 12 29 14 32 -57 0
9 37 12 29 14 32 -59 0
9 37 12 29 14 32 -62 0
9 37 12 29 14 13 -58 0
9 37 12 29 14 13 -60 0
9 37 12 29 14 13 -61 0
9 37 12 29 14 13 -57 0
9 37 12 29 14 13 -59 0
9 37 12 29 14 13 -62 0
9 37 12 29 32 36 -58 0
9 37 12 29 32 36 -60 0
9 37 12 29 32 36 -61 0
9 37 12 29 32 36 -57 0
9 37 12 29 32 36 -59 0
9 37 12 29 32 36 -62 0
9 37 12 29 13 36 -58 0
9 37 12 29 13 36 -60 0
9 37 12 29 13 36 -61 0
9 37 12 29 13 36 -57 0
9 37 12 29 13 36 -59 0
9 37 12 29 13 36 -62 0
9 37 12 14 32 13 -58 0
9 37 12 14 32 13 -60 0
9 37 12 14 32 13 -61 0
9 37 12 14 32 13 -57 0
9 37 12 14 32 13 -59 0
9 37 12 14 32 13 -62 0
9 37 12 14 13 36 -58 0
9 37 12 14 13 36 -60 0
9 37 12 14 13 36 -61 0
9 37 12 14 13 36 -57 0
9 37 12 14 13 36 -59 0
9 37 12 14 13 36 -62 0
9 37 29 14 32 36 -58 0
9 37 29 14 32 36 -60 0
9 37 29 14 32 36 -61 0
9 37 29 14 32 36 -57 0
9 37 29 14 32 36 -59 0
9 37 29 14 32 36 -62 0
9 37 29 32 13 36 -58 0
9 37 29 32 13 36 -60 0
9 37 29 32 13 36 -61 0
9 37 29 32 13 36 -57 0
9 37 29 32 13 36 -59 0
9 37 29 32 13 36 -62 0
9 37 14 32 13 36 -58 0
9 37 14 32 13 36 -60 0
9 37 14 32 13 36 -61 0
9 37 14 32 13 36 -57 0
9 37 14 32 13 36 -59 0
9 37 14 32 13 36 -62 0
9 25 12 21 14 20 -52 0
9 25 12 21 14 20 -56 0
9 25 12 21 14 20 -53 0
9 25 12 21 14 20 -55 0
9 25 12 21 14 20 -51 0
9 25 12 21 14 20 -54 0
9 25 12 21 14 13 -52 0
9 25 12 21 14 13 -56 0
9 25 12 21 14 13 -53 0
9 25 12 21 14 13 -55 0
9 25 12 21 14 13 -51 0
9 25 12 21 14 13 -54 0
9 25 12 21 20 27 -52 0
9 25 12 21 20 27 -56 0
9 25 12 21 20 27 -53 0
9 25 12 21 20 27 -55 0
9 25 12 21 20 27 -51 0
9 25 12 21 20 27 -54 0
9 25 12 21 13 27 -52 0
9 25 12 21 13 27 -56 0
9 25 12 21 13 27 -53 0
9 25 12 21 13 27 -55 0
9 25 12 21 13 27 -51 0
9 25 12 21 13 27 -54 0
9 25 12 14 20 13 -52 0
9 25 12 14 20 13 -56 0
9 25 12 14 20 13 -53 0
9 25 12 14 20 13 -55 0
9 25 12 14 20 13 -51 0
9 25 12 14 20 13 -54 0
9 25 12 14 13 27 -52 0
9 25 12 14 13 27 -56 0
9 25 12 14 13 27 -53 0
9 25 12 14 13 27 -55 0
9 25 12 14 13 27 -51 0
9 25 12 14 13 27 -54 0
9 25 21 14 20 27 -52 0
9 25 21 14 20 27 -56 0
9 25 21 14 20 27 -53 0
9 25 21 14 20 27 -55 0
9 25 21 14 20 27 -51 0
9 25 21 14 20 27 -54 0
9 25 21 20 13 27 -52 0
9 25 21 20 13 27 -56 0
9 25 21 20 13 27 -53 0
9 25 21 20 13 27 -55 0
9 25 21 20 13 27 -51 0
9 25 21 20 13 27 -54 0
9 25 14 20 13 27 -52 0
9 25 14 20 13 27 -56 0
9 25 14 20 13 27 -53 0
9 25 14 20 13 27 -55 0
9 25 14 20 13 27 -51 0
9 25 14 20 13 27 -54 0
9 6 12 4 14 2 -16 0
9 6 12 4 14 2 -8 0
9 6 12 4 14 2 -10 0
9 6 12 4 14 2 -17 0
9 6 12 4 14 2 -15 0
9 6 12 4 14 2 -11 0
9 6 12 4 14 13 -16 0
9 6 12 4 14 13 -8 0
9 6 12 4 14 13 -10 0
9 6 12 4 14 13 -17 0
9 6 12 4 14 13 -15 0
9 6 12 4 14 13 -11 0
9 6 12 4 2 5 -16 0
9 6 12 4 2 5 -8 0
9 6 12 4 2 5 -10 0
9 6 12 4 2 5 -17 0
9 6 12 4 2 5 -15 0
9 6 12 4 2 5 -11 0
9 6 12 4 13 5 -16 0
9 6 12 4 13 5 -8 0
9 6 12 4 13 5 -10 0
9 6 12 4 13 5 -17 0
9 6 12 4 13 5 -15 0
9 6 12 4 13 5 -11 0
9 6 12 14 2 13 -16 0
9 6 12 14 2 13 -8 0
9 6 12 14 2 13 -10 0
9 6 12 14 2 13 -17 0
9 6 12 14 2 13 -15 0
9 6 12 14 2 13 -11 0
9 6 12 14 13 5 -16 0
9 6 12 14 13 5 -8 0
9 6 12 14 13 5 -10 0
9 6 12 14 13 5 -17 0
9 6 12 14 13 5 -15 0
9 6 12 14 13 5 -11 0
9 6 4 14 2 5 -16 0
9 6 4 14 2 5 -8 0
9 6 4 14 2 5 -10 0
9 6 4 14 2 5 -17 0
9 6 4 14 2 5 -15 0
9 6 4 14 2 5 -11 0
9 6 4 2 13 5 -16 0
9 6 4 2 13 5 -8 0
9 6 4 2 13 5 -10 0
9 6 4 2 13 5 -17 0
9 6 4 2 13 5 -15 0
9 6 4 2 13 5 -11 0
9 6 14 2 13 5 -16 0
9 6 14 2 13 5 -8 0
9 6 14 2 13 5 -10 0
9 6 14 2 13 5 -17 0
9 6 14 2 13 5 -15 0
9 6 14 2 13 5 -11 0
9 47 12 41 14 45 -66 0
9 47 12 41 14 45 -64 0
9 47 12 41 14 45 -68 0
9 47 12 41 14 45 -67 0
9 47 12 41 14 45 -65 0
9 47 12 41 14 45 -63 0
9 47 12 41 14 13 -66 0
9 47 12 41 14 13 -64 0
9 47 12 41 14 13 -68 0
9 47 12 41 14 13 -67 0
9 47 12 41 14 13 -65 0
9 47 12 41 14 13 -63 0
9 47 12 41 45 39 -66 0
9 47 12 41 45 39 -64 0
9 47 12 41 45 39 -68 0
9 47 12 41 45 39 -67 0
9 47 12 41 45 39 -65 0
9 47 12 41 45 39 -63 0
9 47 12 41 13 39 -66 0
9 47 12 41 13 39 -64 0
9 47 12 41 13 39 -68 0
9 47 12 41 13 39 -67 0
9 47 12 41 13 39 -65 0
9 47 12 41 13 39 -63 0
9 47 12 14 45 13 -66 0
9 47 12 14 45 13 -64 0
9 47 12 14 45 13 -68 0
9 47 12 14 45 13 -67 0
9 47 12 14 45 13 -65 0
9 47 12 14 45 13 -63 0
9 47 12 14 13 39 -66 0
9 47 12 14 13 39 -64 0
9 47 12 14 13 39 -68 0
9 47 12 14 13 39 -67 0
9 47 12 14 13 39 -65 0
9 47 12 14 13 39 -63 0
9 47 41 14 45 39 -66 0
9 47 41 14 45 39 -64 0
9 47 41 14 45 39 -68 0
9 47 41 14 45 39 -67 0
9 47 41 14 45 39 -65 0
9 47 41 14 45 39 -63 0
9 47 41 45 13 39 -66 0
9 47 41 45 13 39 -64 0
9 47 41 45 13 39 -68 0
9 47 41 45 13 39 -67 0
9 47 41 45 13 39 -65 0
9 47 41 45 13 39 -63 0
9 47 14 45 13 39 -66 0
9 47 14 45 13 39 -64 0
9 47 14 45 13 39 -68 0
9 47 14 45 13 39 -67 0
9 47 14 45 13 39 -65 0
9 47 14 45 13 39 -63 0
9 12 29 14 32 13 -58 0
9 12 29 14 32 13 -60 0
9 12 29 14 32 13 -61 0
9 12 29 14 32 13 -57 0
9 12 29 14 32 13 -59 0
9 12 29 14 32 13 -62 0
9 12 29 14 13 36 -58 0
9 12 29 14 13 36 -60 0
9 12 29 14 13 36 -61 0
9 12 29 14 13 36 -57 0
9 12 29 14 13 36 -59 0
9 12 29 14 13 36 -62 0
9 12 21 14 20 13 -52 0
9 12 21 14 20 13 -56 0
9 12 21 14 20 13 -53 0
9 12 21 14 20 13 -55 0
9 12 21 14 20 13 -51 0
9 12 21 14 20 13 -54 0
9 12 21 14 13 27 -52 0
9 12 21 14 13 27 -56 0
9 12 21 14 13 27 -53 0
9 12 21 14 13 27 -55 0
9 12 21 14 13 27 -51 0
9 12 21 14 13 27 -54 0
9 12 4 14 2 13 -16 0
9 12 4 14 2 13 -8 0
9 12 4 14 2 13 -10 0
9 12 4 14 2 13 -17 0
9 12 4 14 2 13 -15 0
9 12 4 14 2 13 -11 0
9 12 4 14 13 5 -16 0
9 12 4 14 13 5 -8 0
9 12 4 14 13 5 -10 0
9 12 4 14 13 5 -17 0
9 12 4 14 13 5 -15 0
9 12 4 14 13 5 -11 0
9 12 41 14 45 13 -66 0
9 12 41 14 45 13 -64 0
9 12 41 14 45 13 -68 0
9 12 41 14 45 13 -67 0
9 12 41 14 45 13 -65 0
9 12 41 14 45 13 -63 0
9 12 41 14 13 39 -66 0
9 12 41 14 13 39 -64 0
9 12 41 14 13 39 -68 0
9 12 41 14 13 39 -67 0
9 12 41 14 13 39 -65 0
9 12 41 14 13 39 -63 0
9 12 14 32 13 36 -58 0
9 12 14 32 13 36 -60 0
9 12 14 32 13 36 -61 0
9 12 14 32 13 36 -57 0
9 12 14 32 13 36 -59 0
9 12 14 32 13 36 -62 0
9 12 14 20 13 27 -52 0
9 12 14 20 13 27 -56 0
9 12 14 20 13 27 -53 0
9 12 14 20 13 27 -55 0
9 12 14 20 13 27 -51 0
9 12 14 20 13 27 -54 0
9 12 14 2 13 5 -16 0
9 12 14 2 13 5 -8 0
9 12 14 2 13 5 -10 0
9 12 14 2 13 5 -17 0
9 12 14 2 13 5 -15 0
9 12 14 2 13 5 -11 0
9 12 14 45 13 39 -66 0
9 12 14 45 13 39 -64 0
9 12 14 45 13 39 -68 0
9 12 14 45 13 39 -67 0
9 12 14 45 13 39 -65 0
9 12 14 45 13 39 -63 0
37 25 29 21 32 20 -73 0
37 25 29 21 32 20 -76 0
37 25 29 21 32 20 -77 0
37 25 29 21 32 20 -74 0
37 25 29 21 32 20 -72 0
37 25 29 21 32 20 -75 0
37 25 29 21 32 36 -73 0
37 25 29 21 32 36 -76 0
37 25 29 21 32 36 -77 0
37 25 29 21 32 36 -74 0
37 25 29 21 32 36 -72 0
37 25 29 21 32 36 -75 0
37 25 29 21 20 27 -73 0
37 25 29 21 20 27 -76 0
37 25 29 21 20 27 -77 0
37 25 29 21 20 27 -74 0
37 25 29 21 20 27 -72 0
37 25 29 21 20 27 -75 0
37 25 29 21 36 27 -73 0
37 25 29 21 36 27 -76 0
37 25 29 21 36 27 -77 0
37 25 29 21 36 27 -74 0
37 25 29 21 36 27 -72 0
37 25 29 21 36 27 -75 0
37 25 29 32 20 36 -73 0
37 25 29 32 20 36 -76 0
37 25 29 32 20 36 -77 0
37 25 29 32 20 36 -74 0
37 25 29 32 20 36 -72 0
37 25 29 32 20 36 -75 0
37 25 29 32 36 27 -73 0
37 25 29 32 36 27 -76 0
37 25 29 32 36 27 -77 0
37 25 29 32 36 27 -74 0
37 25 29 32 36 27 -72 0
37 25 29 32 36 27 -75 0
37 25 21 32 20 27 -73 0
37 25 21 32 20 27 -76 0
37 25 21 32 20 27 -77 0
37 25 21 32 20 27 -74 0
37 25 21 32 20 27 -72 0
37 25 21 32 20 27 -75 0
37 25 21 20 36 27 -73 0
37 25 21 20 36 27 -76 0
37 25 21 20 36 27 -77 0
37 25 21 20 36 27 -74 0
37 25 21 20 36 27 -72 0
37 25 21 20 36 27 -75 0
37 25 32 20 36 27 -73 0
37 25 32 20 36 27 -76 0
37 25 32 20 36 27 -77 0
37 25 32 20 36 27 -74 0
37 25 32 20 36 27 -72 0
37 25 32 20 36 27 -75 0
37 6 29 4 32 2 -35 0
37 6 29 4 32 2 -30 0
37 6 29 4 32 2 -28 0
37 6 29 4 32 2 -33 0
37 6 29 4 32 2 -31 0
37 6 29 4 32 2 -34 0
37 6 29 4 32 36 -35 0
37 6 29 4 32 36 -30 0
37 6 29 4 32 36 -28 0
37 6 29 4 32 36 -33 0
37 6 29 4 32 36 -31 0
37 6 29 4 32 36 -34 0
37 6 29 4 2 5 -35 0
37 6 29 4 2 5 -30 0
37 6 29 4 2 5 -28 0
37 6 29 4 2 5 -33 0
37 6 29 4 2 5 -31 0
37 6 29 4 2 5 -34 0
37 6 29 4 36 5 -35 0
37 6 29 4 36 5 -30 0
37 6 29 4 36 5 -28 0
37 6 29 4 36 5 -33 0
37 6 29 4 36 5 -31 0
37 6 29 4 36 5 -34 0
37 6 29 32 2 36 -35 0
37 6 29 32 2 36 -30 0
37 6 29 32 2 36 -28 0
37 6 29 32 2 36 -33 0
37 6 29 32 2 36 -31 0
37 6 29 32 2 36 -34 0
37 6 29 32 36 5 -35 0
37 6 29 32 36 5 -30 0
37 6 29 32 36 5 -28 0
37 6 29 32 36 5 -33 0
37 6 29 32 36 5 -31 0
37 6 29 32 36 5 -34 0
37 6 4 32 2 5 -35 0
37 6 4 32 2 5 -30 0
37 6 4 32 2 5 -28 0
37 6 4 32 2 5 -33 0
37 6 4 32 2 5 -31 0
37 6 4 32 2 5 -34 0
37 6 4 2 36 5 -35 0
37 6 4 2 36 5 -30 0
37 6 4 2 36 5 -28 0
37 6 4 2 36 5 -33 0
37 6 4 2 36 5 -31 0
37 6 4 2 36 5 -34 0
37 6 32 2 36 5 -35 0
37 6 32 2 36 5 -30 0
37 6 32 2 36 5 -28 0
37 6 32 2 36 5 -33 0
37 6 32 2 36 5 -31 0
37 6 32 2 36 5 -34 0
37 47 29 41 32 45 -90 0
37 47 29 41 32 45 -87 0
37 47 29 41 32 45 -91 0
37 47 29 41 32 45 -92 0
37 47 29 41 32 45 -89 0
37 47 29 41 32 45 -88 0
37 47 29 41 32 36 -90 0
37 47 29 41 32 36 -87 0
37 47 29 41 32 36 -91 0
37 47 29 41 32 36 -92 0
37 47 29 41 32 36 -89 0
37 47 29 41 32 36 -88 0
37 47 29 41 45 39 -90 0
37 47 29 41 45 39 -87 0
37 47 29 41 45 39 -91 0
37 47 29 41 45 39 -92 0
37 47 29 41 45 39 -89 0
37 47 29 41 45 39 -88 0
37 47 29 41 36 39 -90 0
37 47 29 41 36 39 -87 0
37 47 29 41 36 39 -91 0
37 47 29 41 36 39 -92 0
37 47 29 41 36 39 -89 0
37 47 29 41 36 39 -88 0
37 47 29 32 45 36 -90 0
37 47 29 32 45 36 -87 0
37 47 29 32 45 36 -91 0
37 47 29 32 45 36 -92 0
37 47 29 32 45 36 -89 0
37 47 29 32 45 36 -88 0
37 47 29 32 36 39 -90 0
37 47 29 32 36 39 -87 0
37 47 29 32 36 39 -91 0
37 47 29 32 36 39 -92 0
37 47 29 32 36 39 -89 0
37 47 29 32 36 39 -88 0
37 47 41 32 45 39 -90 0
37 47 41 32 45 39 -87 0
37 47 41 32 45 39 -91 0
37 47 41 32 45 39 -92 0
37 47 41 32 45 39 -89 0
37 47 41 32 45 39 -88 0
37 47 41 45 36 39 -90 0
37 47 41 45 36 39 -87 0
37 47 41 45 36 39 -91 0
37 47 41 45 36 39 -92 0
37 47 41 45 36 39 -89 0
37 47 41 45 36 39 -88 0
37 47 32 45 36 39 -90 0
37 47 32 45 36 39 -87 0
37 47 32 45 36 39 -91 0
37 47 32 45 36 39 -92 0
37 47 32 45 36 39 -89 0
37 47 32 45 36 39 -88 0
37 12 29 14 32 36 -58 0
37 12 29 14 32 36 -60 0
37 12 29 14 32 36 -61 0
37 12 29 14 32 36 -57 0
37 12 29 14 32 36 -59 0
37 12 29 14 32 36 -62 0
37 12 29 32 13 36 -58 0
37 12 29 32 13 36 -60 0
37 12 29 32 13 36 -61 0
37 12 29 32 13 36 -57 0
37 12 29 32 13 36 -59 0
37 12 29 32 13 36 -62 0
37 29 21 32 20 36 -73 0
37 29 21 32 20 36 -76 0
37 29 21 32 20 36 -77 0
37 29 21 32 20 36 -74 0
37 29 21 32 20 36 -72 0
37 29 21 32 20 36 -75 0
37 29 21 32 36 27 -73 0
37 29 21 32 36 27 -76 0
37 29 21 32 36 27 -77 0
37 29 21 32 36 27 -74 0
37 29 21 32 36 27 -72 0
37 29 21 32 36 27 -75 0
37 29 4 32 2 36 -35 0
37 29 4 32 2 36 -30 0
37 29 4 32 2 36 -28 0
37 29 4 32 2 36 -33 0
37 29 4 32 2 36 -31 0
37 29 4 32 2 36 -34 0
37 29 4 32 36 5 -35 0
37 29 4 32 36 5 -30 0
37 29 4 32 36 5 -28 0
37 29 4 32 36 5 -33 0
37 29 4 32 36 5 -31 0
37 29 4 32 36 5 -34 0
37 29 41 32 45 36 -90 0
37 29 41 32 45 36 -87 0
37 29 41 32 45 36 -91 0
37 29 41 32 45 36 -92 0
37 29 41 32 45 36 -89 0
37 29 41 32 45 36 -88 0
37 29 41 32 36 39 -90 0
37 29 41 32 36 39 -87 0
37 29 41 32 36 39 -91 0
37 29 41 32 36 39 -92 0
37 29 41 32 36 39 -89 0
37 29 41 32 36 39 -88 0
37 29 14 32 13 36 -58 0
37 29 14 32 13 36 -60 0
37 29 14 32 13 36 -61 0
37 29 14 32 13 36 -57 0
37 29 14 32 13 36 -59 0
37 29 14 32 13 36 -62 0
37 29 32 20 36 27 -73 0
37 29 32 20 36 27 -76 0
37 29 32 20 36 27 -77 0
37 29 32 20 36 27 -74 0
37 29 32 20 36 27 -72 0
37 29 32 20 36 27 -75 0
37 29 32 2 36 5 -35 0
37 29 32 2 36 5 -30 0
37 29 32 2 36 5 -28 0
37 29 32 2 36 5 -33 0
37 29 32 2 36 5 -31 0
37 29 32 2 36 5 -34 0
37 29 32 45 36 39 -90 0
37 29 32 45 36 39 -87 0
37 29 32 45 36 39 -91 0
37 29 32 45 36 39 -92 0
37 29 32 45 36 39 -89 0
37 29 32 45 36 39 -88 0
25 6 21 4 20 2 -18 0
25 6 21 4 20 2 -24 0
25 6 21 4 20 2 -22 0
25 6 21 4 20 2 -23 0
25 6 21 4 20 2 -19 0
25 6 21 4 20 2 -26 0
25 6 21 4 20 27 -18 0
25 6 21 4 20 27 -24 0
25 6 21 4 20 27 -22 0
25 6 21 4 20 27 -23 0
25 6 21 4 20 27 -19 0
25 6 21 4 20 27 -26 0
25 6 21 4 2 5 -18 0
25 6 21 4 2 5 -24 0
25 6 21 4 2 5 -22 0
25 6 21 4 2 5 -23 0
25 6 21 4 2 5 -19 0
25 6 21 4 2 5 -26 0
25 6 21 4 27 5 -18 0
25 6 21 4 27 5 -24 0
25 6 21 4 27 5 -22 0
25 6 21 4 27 5 -23 0
25 6 21 4 27 5 -19 0
25 6 21 4 27 5 -26 0
25 6 21 20 2 27 -18 0
25 6 21 20 2 27 -24 0
25 6 21 20 2 27 -22 0
25 6 21 20 2 27 -23 0
25 6 21 20 2 27 -19 0
25 6 21 20 2 27 -26 0
25 6 21 20 27 5 -18 0
25 6 21 20 27 5 -24 0
25 6 21 20 27 5 -22 0
25 6 21 20 27 5 -23 0
25 6 21 20 27 5 -19 0
25 6 21 20 27 5 -26 0
25 6 4 20 2 5 -18 0
25 6 4 20 2 5 -24 0
25 6 4 20 2 5 -22 0
25 6 4 20 2 5 -23 0
25 6 4 20 2 5 -19 0
25 6 4 20 2 5 -26 0
25 6 4 2 27 5 -18 0
25 6 4 2 27 5 -24 0
25 6 4 2 27 5 -22 0
25 6 4 2 27 5 -23 0
25 6 4 2 27 5 -19 0
25 6 4 2 27 5 -26 0
25 6 20 2 27 5 -18 0
25 6 20 2 27 5 -24 0
25 6 20 2 27 5 -22 0
25 6 20 2 27 5 -23 0
25 6 20 2 27 5 -19 0
25 6 20 2 27 5 -26 0
25 47 21 41 20 45 -79 0
25 47 21 41 20 45 -81 0
25 47 21 41 20 45 -78 0
25 47 21 41 20 45 -83 0
25 47 21 41 20 45 -80 0
25 47 21 41 20 45 -82 0
25 47 21 41 20 27 -79 0
25 47 21 41 20 27 -81 0
25 47 21 41 20 27 -78 0
25 47 21 41 20 27 -83 0
25 47 21 41 20 27 -80 0
25 47 21 41 20 27 -82 0
25 47 21 41 45 39 -79 0
25 47 21 41 45 39 -81 0
25 47 21 41 45 39 -78 0
25 47 21 41 45 39 -83 0
25 47 21 41 45 39 -80 0
25 47 21 41 45 39 -82 0
25 47 21 41 27 39 -79 0
25 47 21 41 27 39 -81 0
25 47 21 41 27 39 -78 0
25 47 21 41 27 39 -83 0
25 47 21 41 27 39 -80 0
25 47 21 41 27 39 -82 0
25 47 21 20 45 27 -79 0
25 47 21 20 45 27 -81 0
25 47 21 20 45 27 -78 0
25 47 21 20 45 27 -83 0
25 47 21 20 45 27 -80 0
25 47 21 20 45 27 -82 0
25 47 21 20 27 39 -79 0
25 47 21 20 27 39 -81 0
25 47 21 20 27 39 -78 0
25 47 21 20 27 39 -83 0
25 47 21 20 27 39 -80 0
25 47 21 20 27 39 -82 0
25 47 41 20 45 39 -79 0
25 47 41 20 45 39 -81 0
25 47 41 20 45 39 -78 0
25 47 41 20 45 39 -83 0
25 47 41 20 45 39 -80 0
25 47 41 20 45 39 -82 0
25 47 41 45 27 39 -79 0
25 47 41 45 27 39 -81 0
25 47 41 45 27 39 -78 0
25 47 41 45 27 39 -83 0
25 47 41 45 27 39 -80 0
25 47 41 45 27 39 -82 0
25 47 20 45 27 39 -79 0
25 47 20 45 27 39 -81 0
25 47 20 45 27 39 -78 0
25 47 20 45 27 39 -83 0
25 47 20 45 27 39 -80 0
25 47 20 45 27 39 -82 0
25 12 21 14 20 27 -52 0
25 12 21 14 20 27 -56 0
25 12 21 14 20 27 -53 0
25 12 21 14 20 27 -55 0
25 12 21 14 20 27 -51 0
25 12 21 14 20 27 -54 0
25 12 21 20 13 27 -52 0
25 12 21 20 13 27 -56 0
25 12 21 20 13 27 -53 0
25 12 21 20 13 27 -55 0
25 12 21 20 13 27 -51 0
25 12 21 20 13 27 -54 0
25 29 21 32 20 27 -73 0
25 29 21 32 20 27 -76 0
25 29 21 32 20 27 -77 0
25 29 21 32 20 27 -74 0
25 29 21 32 20 27 -72 0
25 29 21 32 20 27 -75 0
25 29 21 20 36 27 -73 0
25 29 21 20 36 27 -76 0
25 29 21 20 36 27 -77 0
25 29 21 20 36 27 -74 0
25 29 21 20 36 27 -72 0
25 29 21 20 36 27 -75 0
25 21 4 20 2 27 -18 0
25 21 4 20 2 27 -24 0
25 21 4 20 2 27 -22 0
25 21 4 20 2 27 -23 0
25 21 4 20 2 27 -19 0
25 21 4 20 2 27 -26 0
25 21 4 20 27 5 -18 0
25 21 4 20 27 5 -24 0
25 21 4 20 27 5 -22 0
25 21 4 20 27 5 -23 0
25 21 4 20 27 5 -19 0
25 21 4 20 27 5 -26 0
25 21 41 20 45 27 -79 0
25 21 41 20 45 27 -81 0
25 21 41 20 45 27 -78 0
25 21 41 20 45 27 -83 0
25 21 41 20 45 27 -80 0
25 21 41 20 45 27 -82 0
25 21 41 20 27 39 -79 0
25 21 41 20 27 39 -81 0
25 21 41 20 27 39 -78 0
25 21 41 20 27 39 -83 0
25 21 41 20 27 39 -80 0
25 21 41 20 27 39 -82 0
25 21 14 20 13 27 -52 0
25 21 14 20 13 27 -56 0
25 21 14 20 13 27 -53 0
25 21 14 20 13 27 -55 0
25 21 14 20 13 27 -51 0
25 21 14 20 13 27 -54 0
25 21 32 20 36 27 -73 0
25 21 32 20 36 27 -76 0
25 21 32 20 36 27 -77 0
25 21 32 20 36 27 -74 0
25 21 32 20 36 27 -72 0
25 21 32 20 36 27 -75 0
25 21 20 2 27 5 -18 0
25 21 20 2 27 5 -24 0
25 21 20 2 27 5 -22 0
25 21 20 2 27 5 -23 0
25 21 20 2 27 5 -19 0
25 21 20 2 27 5 -26 0
25 21 20 45 27 39 -79 0
25 21 20 45 27 39 -81 0
25 21 20 45 27 39 -78 0
25 21 20 45 27 39 -83 0
25 21 20 45 27 39 -80 0
25 21 20 45 27 39 -82 0
6 47 4 41 2 45 -40 0
6 47 4 41 2 45 -43 0
6 47 4 41 2 45 -38 0
6 47 4 41 2 45 -46 0
6 47 4 41 2 45 -42 0
6 47 4 41 2 45 -44 0
6 47 4 41 2 5 -40 0
6 47 4 41 2 5 -43 0
6 47 4 41 2 5 -38 0
6 47 4 41 2 5 -46 0
6 47 4 41 2 5 -42 0
6 47 4 41 2 5 -44 0
6 47 4 41 45 39 -40 0
6 47 4 41 45 39 -43 0
6 47 4 41 45 39 -38 0
6 47 4 41 45 39 -46 0
6 47 4 41 45 39 -42 0
6 47 4 41 45 39 -44 0
6 47 4 41 5 39 -40 0
6 47 4 41 5 39 -43 0
6 47 4 41 5 39 -38 0
6 47 4 41 5 39 -46 0
6 47 4 41 5 39 -42 0
6 47 4 41 5 39 -44 0
6 47 4 2 45 5 -40 0
6 47 4 2 45 5 -43 0
6 47 4 2 45 5 -38 0
6 47 4 2 45 5 -46 0
6 47 4 2 45 5 -42 0
6 47 4 2 45 5 -44 0
6 47 4 2 5 39 -40 0
6 47 4 2 5 39 -43 0
6 47 4 2 5 39 -38 0
6 47 4 2 5 39 -46 0
6 47 4 2 5 39 -42 0
6 47 4 2 5 39 -44 0
6 47 41 2 45 39 -40 0
6 47 41 2 45 39 -43 0
6 47 41 2 45 39 -38 0
6 47 41 2 45 39 -46 0
6 47 41 2 45 39 -42 0
6 47 41 2 45 39 -44 0
6 47 41 45 5 39 -40 0
6 47 41 45 5 39 -43 0
6 47 41 45 5 39 -38 0
6 47 41 45 5 39 -46 0
6 47 41 45 5 39 -42 0
6 47 41 45 5 39 -44 0
6 47 2 45 5 39 -40 0
6 47 2 45 5 39 -43 0
6 47 2 45 5 39 -38 0
6 47 2 45 5 39 -46 0
6 47 2 45 5 39 -42 0
6 47 2 45 5 39 -44 0
6 12 4 14 2 5 -16 0
6 12 4 14 2 5 -8 0
6 12 4 14 2 5 -10 0
6 12 4 14 2 5 -17 0
6 12 4 14 2 5 -15 0
6 12 4 14 2 5 -11 0
6 12 4 2 13 5 -16 0
6 12 4 2 13 5 -8 0
6 12 4 2 13 5 -10 0
6 12 4 2 13 5 -17 0
6 12 4 2 13 5 -15 0
6 12 4 2 13 5 -11 0
6 29 4 32 2 5 -35 0
6 29 4 32 2 5 -30 0
6 29 4 32 2 5 -28 0
6 29 4 32 2 5 -33 0
6 29 4 32 2 5 -31 0
6 29 4 32 2 5 -34 0
6 29 4 2 36 5 -35 0
6 29 4 2 36 5 -30 0
6 29 4 2 36 5 -28 0
6 29 4 2 36 5 -33 0
6 29 4 2 36 5 -31 0
6 29 4 2 36 5 -34 0
6 21 4 20 2 5 -18 0
6 21 4 20 2 5 -24 0
6 21 4 20 2 5 -22 0
6 21 4 20 2 5 -23 0
6 21 4 20 2 5 -19 0
6 21 4 20 2 5 -26 0
6 21 4 2 27 5 -18 0
6 21 4 2 27 5 -24 0
6 21 4 2 27 5 -22 0
6 21 4 2 27 5 -23 0
6 21 4 2 27 5 -19 0
6 21 4 2 27 5 -26 0
6 4 41 2 45 5 -40 0
6 4 41 2 45 5 -43 0
6 4 41 2 45 5 -38 0
6 4 41 2 45 5 -46 0
6 4 41 2 45 5 -42 0
6 4 41 2 45 5 -44 0
6 4 41 2 5 39 -40 0
6 4 41 2 5 39 -43 0
6 4 41 2 5 39 -38 0
6 4 41 2 5 39 -46 0
6 4 41 2 5 39 -42 0
6 4 41 2 5 39 -44 0
6 4 14 2 13 5 -16 0
6 4 14 2 13 5 -8 0
6 4 14 2 13 5 -10 0
6 4 14 2 13 5 -17 0
6 4 14 2 13 5 -15 0
6 4 14 2 13 5 -11 0
6 4 32 2 36 5 -35 0
6 4 32 2 36 5 -30 0
6 4 32 2 36 5 -28 0
6 4 32 2 36 5 -33 0
6 4 32 2 36 5 -31 0
6 4 32 2 36 5 -34 0
6 4 20 2 27 5 -18 0
6 4 20 2 27 5 -24 0
6 4 20 2 27 5 -22 0
6 4 20 2 27 5 -23 0
6 4 20 2 27 5 -19 0
6 4 20 2 27 5 -26 0
6 4 2 45 5 39 -40 0
6 4 2 45 5 39 -43 0
6 4 2 45 5 39 -38 0
6 4 2 45 5 39 -46 0
6 4 2 45 5 39 -42 0
6 4 2 45 5 39 -44 0
47 12 41 14 45 39 -66 0
47 12 41 14 45 39 -64 0
47 12 41 14 45 39 -68 0
47 12 41 14 45 39 -67 0
47 12 41 14 45 39 -65 0
47 12 41 14 45 39 -63 0
47 12 41 45 13 39 -66 0
47 12 41 45 13 39 -64 0
47 12 41 45 13 39 -68 0
47 12 41 45 13 39 -67 0
47 12 41 45 13 39 -65 0
47 12 41 45 13 39 -63 0
47 29 41 32 45 39 -90 0
47 29 41 32 45 39 -87 0
47 29 41 32 45 39 -91 0
47 29 41 32 45 39 -92 0
47 29 41 32 45 39 -89 0
47 29 41 32 45 39 -88 0
47 29 41 45 36 39 -90 0
47 29 41 45 36 39 -87 0
47 29 41 45 36 39 -91 0
47 29 41 45 36 39 -92 0
47 29 41 45 36 39 -89 0
47 29 41 45 36 39 -88 0
47 21 41 20 45 39 -79 0
47 21 41 20 45 39 -81 0
47 21 41 20 45 39 -78 0
47 21 41 20 45 39 -83 0
47 21 41 20 45 39 -80 0
47 21 41 20 45 39 -82 0
47 21 41 45 27 39 -79 0
47 21 41 45 27 39 -81 0
47 21 41 45 27 39 -78 0
47 21 41 45 27 39 -83 0
47 21 41 45 27 39 -80 0
47 21 41 45 27 39 -82 0
47 4 41 2 45 39 -40 0
47 4 41 2 45 39 -43 0
47 4 41 2 45 39 -38 0
47 4 41 2 45 39 -46 0
47 4 41 2 45 39 -42 0
47 4 41 2 45 39 -44 0
47 4 41 45 5 39 -40 0
47 4 41 45 5 39 -43 0
47 4 41 45 5 39 -38 0
47 4 41 45 5 39 -46 0
47 4 41 45 5 39 -42 0
47 4 41 45 5 39 -44 0
47 41 14 45 13 39 -66 0
47 41 14 45 13 39 -64 0
47 41 14 45 13 39 -68 0
47 41 14 45 13 39 -67 0
47 41 14 45 13 39 -65 0
47 41 14 45 13 39 -63 0
47 41 32 45 36 39 -90 0
47 41 32 45 36 39 -87 0
47 41 32 45 36 39 -91 0
47 41 32 45 36 39 -92 0
47 41 32 45 36 39 -89 0
47 41 32 45 36 39 -88 0
47 41 20 45 27 39 -79 0
47 41 20 45 27 39 -81 0
47 41 20 45 27 39 -78 0
47 41 20 45 27 39 -83 0
47 41 20 45 27 39 -80 0
47 41 20 45 27 39 -82 0
47 41 2 45 5 39 -40 0
47 41 2 45 5 39 -43 0
47 41 2 45 5 39 -38 0
47 41 2 45 5 39 -46 0
47 41 2 45 5 39 -42 0
47 41 2 45 5 39 -44 0
12 29 14 32 13 36 -58 0
12 29 14 32 13 36 -60 0
12 29 14 32 13 36 -61 0
12 29 14 32 13 36 -57 0
12 29 14 32 13 36 -59 0
12 29 14 32 13 36 -62 0
12 21 14 20 13 27 -52 0
12 21 14 20 13 27 -56 0
12 21 14 20 13 27 -53 0
12 21 14 20 13 27 -55 0
12 21 14 20 13 27 -51 0
12 21 14 20 13 27 -54 0
12 4 14 2 13 5 -16 0
12 4 14 2 13 5 -8 0
12 4 14 2 13 5 -10 0
12 4 14 2 13 5 -17 0
12 4 14 2 13 5 -15 0
12 4 14 2 13 5 -11 0
12 41 14 45 13 39 -66 0
12 41 14 45 13 39 -64 0
12 41 14 45 13 39 -68 0
12 41 14 45 13 39 -67 0
12 41 14 45 13 39 -65 0
12 41 14 45 13 39 -63 0
29 21 32 20 36 27 -73 0
29 21 32 20 36 27 -76 0
29 21 32 20 36 27 -77 0
29 21 32 20 36 27 -74 0
29 21 32 20 36 27 -72 0
29 21 32 20 36 27 -75 0
29 4 32 2 36 5 -35 0
29 4 32 2 36 5 -30 0
29 4 32 2 36 5 -28 0
29 4 32 2 36 5 -33 0
29 4 32 2 36 5 -31 0
29 4 32 2 36 5 -34 0
29 41 32 45 36 39 -90 0
29 41 32 45 36 39 -87 0
29 41 32 45 36 39 -91 0
29 41 32 45 36 39 -92 0
29 41 32 45 36 39 -89 0
29 41 32 45 36 39 -88 0
21 4 20 2 27 5 -18 0
21 4 20 2 27 5 -24 0
21 4 20 2 27 5 -22 0
21 4 20 2 27 5 -23 0
21 4 20 2 27 5 -19 0
21 4 20 2 27 5 -26 0
21 41 20 45 27 39 -79 0
21 41 20 45 27 39 -81 0
21 41 20 45 27 39 -78 0
21 41 20 45 27 39 -83 0
21 41 20 45 27 39 -80 0
21 41 20 45 27 39 -82 0
4 41 2 45 5 39 -40 0
4 41 2 45 5 39 -43 0
4 41 2 45 5 39 -38 0
4 41 2 45 5 39 -46 0
4 41 2 45 5 39 -42 0
4 41 2 45 5 39 -44 0
9 37 12 29 14 32 13 -58 0
9 37 12 29 14 32 13 -60 0
9 37 12 29 14 32 13 -61 0
9 37 12 29 14 32 13 -57 0
9 37 12 29 14 32 13 -59 0
9 37 12 29 14 32 13 -62 0
9 37 12 29 14 32 36 -58 0
9 37 12 29 14 32 36 -60 0
9 37 12 29 14 32 36 -61 0
9 37 12 29 14 32 36 -57 0
9 37 12 29 14 32 36 -59 0
9 37 12 29 14 32 36 -62 0
9 37 12 29 14 13 36 -58 0
9 37 12 29 14 13 36 -60 0
9 37 12 29 14 13 36 -61 0
9 37 12 29 14 13 36 -57 0
9 37 12 29 14 13 36 -59 0
9 37 12 29 14 13 36 -62 0
9 37 12 29 32 13 36 -58 0
9 37 12 29 32 13 36 -60 0
9 37 12 29 32 13 36 -61 0
9 37 12 29 32 13 36 -57 0
9 37 12 29 32 13 36 -59 0
9 37 12 29 32 13 36 -62 0
9 37 12 14 32 13 36 -58 0
9 37 12 14 32 13 36 -60 0
9 37 12 14 32 13 36 -61 0
9 37 12 14 32 13 36 -57 0
9 37 12 14 32 13 36 -59 0
9 37 12 14 32 13 36 -62 0
9 37 29 14 32 13 36 -58 0
9 37 29 14 32 13 36 -60 0
9 37 29 14 32 13 36 -61 0
9 37 29 14 32 13 36 -57 0
9 37 29 14 32 13 36 -59 0
9 37 29 14 32 13 36 -62 0
9 25 12 21 14 20 13 -52 0
9 25 12 21 14 20 13 -56 0
9 25 12 21 14 20 13 -53 0
9 25 12 21 14 20 13 -55 0
9 25 12 21 14 20 13 -51 0
9 25 12 21 14 20 13 -54 0
9 25 12 21 14 20 27 -52 0
9 25 12 21 14 20 27 -56 0
9 25 12 21 14 20 27 -53 0
9 25 12 21 14 20 27 -55 0
9 25 12 21 14 20 27 -51 0
9 25 12 21 14 20 27 -54 0
9 25 12 21 14 13 27 -52 0
9 25 12 21 14 13 27 -56 0
9 25 12 21 14 13 27 -53 0
9 25 12 21 14 13 27 -55 0
9 25 12 21 14 13 27 -51 0
9 25 12 21 14 13 27 -54 0
9 25 12 21 20 13 27 -52 0
9 25 12 21 20 13 27 -56 0
9 25 12 21 20 13 27 -53 0
9 25 12 21 20 13 27 -55 0
9 25 12 21 20 13 27 -51 0
9 25 12 21 20 13 27 -54 0
9 25 12 14 20 13 27 -52 0
9 25 12 14 20 13 27 -56 0
9 25 12 14 20 13 27 -53 0
9 25 12 14 20 13 27 -55 0
9 25 12 14 20 13 27 -51 0
9 25 12 14 20 13 27 -54 0
9 25 21 14 20 13 27 -52 0
9 25 21 14 20 13 27 -56 0
9 25 21 14 20 13 27 -53 0
9 25 21 14 20 13 27 -55 0
9 25 21 14 20 13 27 -51 0
9 25 21 14 20 13 27 -54 0
9 6 12 4 14 2 13 -16 0
9 6 12 4 14 2 13 -8 0
9 6 12 4 14 2 13 -10 0
9 6 12 4 14 2 13 -17 0
9 6 12 4 14 2 13 -15 0
9 6 12 4 14 2 13 -11 0
9 6 12 4 14 2 5 -16 0
9 6 12 4 14 2 5 -8 0
9 6 12 4 14 2 5 -10 0
9 6 12 4 14 2 5 -17 0
9 6 12 4 14 2 5 -15 0
9 6 12 4 14 2 5 -11 0
9 6 12 4 14 13 5 -16 0
9 6 12 4 14 13 5 -8 0
9 6 12 4 14 13 5 -10 0
9 6 12 4 14 13 5 -17 0
9 6 12 4 14 13 5 -15 0
9 6 12 4 14 13 5 -11 0
9 6 12 4 2 13 5 -16 0
9 6 12 4 2 13 5 -8 0
9 6 12 4 2 13 5 -10 0
9 6 12 4 2 13 5 -17 0
9 6 12 4 2 13 5 -15 0
9 6 12 4 2 13 5 -11 0
9 6 12 14 2 13 5 -16 0
9 6 12 14 2 13 5 -8 0
9 6 12 14 2 13 5 -10 0
9 6 12 14 2 13 5 -17 0
9 6 12 14 2 13 5 -15 0
9 6 12 14 2 13 5 -11 0
9 6 4 14 2 13 5 -16 0
9 6 4 14 2 13 5 -8 0
9 6 4 14 2 13 5 -10 0
9 6 4 14 2 13 5 -17 0
9 6 4 14 2 13 5 -15 0
9 6 4 14 2 13 5 -11 0
9 47 12 41 14 45 13 -66 0
9 47 12 41 14 45 13 -64 0
9 47 12 41 14 45 13 -68 0
9 47 12 41 14 45 13 -67 0
9 47 12 41 14 45 13 -65 0
9 47 12 41 14 45 13 -63 0
9 47 12 41 14 45 39 -66 0
9 47 12 41 14 45 39 -64 0
9 47 12 41 14 45 39 -68 0
9 47 12 41 14 45 39 -67 0
9 47 12 41 14 45 39 -65 0
9 47 12 41 14 45 39 -63 0
9 47 12 41 14 13 39 -66 0
9 47 12 41 14 13 39 -64 0
9 47 12 41 14 13 39 -68 0
9 47 12 41 14 13 39 -67 0
9 47 12 41 14 13 39 -65 0
9 47 12 41 14 13 39 -63 0
9 47 12 41 45 13 39 -66 0
9 47 12 41 45 13 39 -64 0
9 47 12 41 45 13 39 -68 0
9 47 12 41 45 13 39 -67 0
9 47 12 41 45 13 39 -65 0
9 47 12 41 45 13 39 -63 0
9 47 12 14 45 13 39 -66 0
9 47 12 14 45 13 39 -64 0
9 47 12 14 45 13 39 -68 0
9 47 12 14 45 13 39 -67 0
9 47 12 14 45 13 39 -65 0
9 47 12 14 45 13 39 -63 0
9 47 41 14 45 13 39 -66 0
9 47 41 14 45 13 39 -64 0
9 47 41 14 45 13 39 -68 0
9 47 41 14 45 13 39 -67 0
9 47 41 14 45 13 39 -65 0
9 47 41 14 45 13 39 -63 0
9 12 29 14 32 13 36 -58 0
9 12 29 14 32 13 36 -60 0
9 12 29 14 32 13 36 -61 0
9 12 29 14 32 13 36 -57 0
9 12 29 14 32 13 36 -59 0
9 12 29 14 32 13 36 -62 0
9 12 21 14 20 13 27 -52 0
9 12 21 14 20 13 27 -56 0
9 12 21 14 20 13 27 -53 0
9 12 21 14 20 13 27 -55 0
9 12 21 14 20 13 27 -51 0
9 12 21 14 20 13 27 -54 0
9 12 4 14 2 13 5 -16 0
9 12 4 14 2 13 5 -8 0
9 12 4 14 2 13 5 -10 0
9 12 4 14 2 13 5 -17 0
9 12 4 14 2 13 5 -15 0
9 12 4 14 2 13 5 -11 0
9 12 41 14 45 13 39 -66 0
9 12 41 14 45 13 39 -64 0
9 12 41 14 45 13 39 -68 0
9 12 41 14 45 13 39 -67 0
9 12 41 14 45 13 39 -65 0
9 12 41 14 45 13 39 -63 0
37 25 29 21 32 20 36 -73 0
37 25 29 21 32 20 36 -76 0
37 25 29 21 32 20 36 -77 0
37 25 29 21 32 20 36 -74 0
37 25 29 21 32 20 36 -72 0
37 25 29 21 32 20 36 -75 0
37 25 29 21 32 20 27 -73 0
37 25 29 21 32 20 27 -76 0
37 25 29 21 32 20 27 -77 0
37 25 29 21 32 20 27 -74 0
37 25 29 21 32 20 27 -72 0
37 25 29 21 32 20 27 -75 0
37 25 29 21 32 36 27 -73 0
37 25 29 21 32 36 27 -76 0
37 25 29 21 32 36 27 -77 0
37 25 29 21 32 36 27 -74 0
37 25 29 21 32 36 27 -72 0
37 25 29 21 32 36 27 -75 0
37 25 29 21 20 36 27 -73 0
37 25 29 21 20 36 27 -76 0
37 25 29 21 20 36 27 -77 0
37 25 29 21 20 36 27 -74 0
37 25 29 21 20 36 27 -72 0
37 25 29 21 20 36 27 -75 0
37 25 29 32 20 36 27 -73 0
37 25 29 32 20 36 27 -76 0
37 25 29 32 20 36 27 -77 0
37 25 29 32 20 36 27 -74 0
37 25 29 32 20 36 27 -72 0
37 25 29 32 20 36 27 -75 0
37 25 21 32 20 36 27 -73 0
37 25 21 32 20 36 27 -76 0
37 25 21 32 20 36 27 -77 0
37 25 21 32 20 36 27 -74 0
37 25 21 32 20 36 27 -72 0
37 25 21 32 20 36 27 -75 0
37 6 29 4 32 2 36 -35 0
37 6 29 4 32 2 36 -30 0
37 6 29 4 32 2 36 -28 0
37 6 29 4 32 2 36 -33 0
37 6 29 4 32 2 36 -31 0
37 6 29 4 32 2 36 -34 0
37 6 29 4 32 2 5 -35 0
37 6 29 4 32 2 5 -30 0
37 6 29 4 32 2 5 -28 0
37 6 29 4 32 2 5 -33 0
37 6 29 4 32 2 5 -31 0
37 6 29 4 32 2 5 -34 0
37 6 29 4 32 36 5 -35 0
37 6 29 4 32 36 5 -30 0
37 6 29 4 32 36 5 -28 0
37 6 29 4 32 36 5 -33 0
37 6 29 4 32 36 5 -31 0
37 6 29 4 32 36 5 -34 0
37 6 29 4 2 36 5 -35 0
37 6 29 4 2 36 5 -30 0
37 6 29 4 2 36 5 -28 0
37 6 29 4 2 36 5 -33 0
37 6 29 4 2 36 5 -31 0
37 6 29 4 2 36 5 -34 0
37 6 29 32 2 36 5 -35 0
37 6 29 32 2 36 5 -30 0
37 6 29 32 2 36 5 -28 0
37 6 29 32 2 36 5 -33 0
37 6 29 32 2 36 5 -31 0
37 6 29 32 2 36 5 -34 0
37 6 4 32 2 36 5 -35 0
37 6 4 32 2 36 5 -30 0
37 6 4 32 2 36 5 -28 0
37 6 4 32 2 36 5 -33 0
37 6 4 32 2 36 5 -31 0
37 6 4 32 2 36 5 -34 0
37 47 29 41 32 45 36 -90 0
37 47 29 41 32 45 36 -87 0
37 47 29 41 32 45 36 -91 0
37 47 29 41 32 45 36 -92 0
37 47 29 41 32 45 36 -89 0
37 47 29 41 32 45 36 -88 0
37 47 29 41 32 45 39 -90 0
37 47 29 41 32 45 39 -87 0
37 47 29 41 32 45 39 -91 0
37 47 29 41 32 45 39 -92 0
37 47 29 41 32 45 39 -89 0
37 47 29 41 32 45 39 -88 0
37 47 29 41 32 36 39 -90 0
37 47 29 41 32 36 39 -87 0
37 47 29 41 32 36 39 -91 0
37 47 29 41 32 36 39 -92 0
37 47 29 41 32 36 39 -89 0
37 47 29 41 32 36 39 -88 0
37 47 29 41 45 36 39 -90 0
37 47 29 41 45 36 39 -87 0
37 47 29 41 45 36 39 -91 0
37 47 29 41 45 36 39 -92 0
37 47 29 41 45 36 39 -89 0
37 47 29 41 45 36 39 -88 0
37 47 29 32 45 36 39 -90 0
37 47 29 32 45 36 39 -87 0
37 47 29 32 45 36 39 -91 0
37 47 29 32 45 36 39 -92 0
37 47 29 32 45 36 39 -89 0
37 47 29 32 45 36 39 -88 0
37 47 41 32 45 36 39 -90 0
37 47 41 32 45 36 39 -87 0
37 47 41 32 45 36 39 -91 0
37 47 41 32 45 36 39 -92 0
37 47 41 32 45 36 39 -89 0
37 47 41 32 45 36 39 -88 0
37 12 29 14 32 13 36 -58 0
37 12 29 14 32 13 36 -60 0
37 12 29 14 32 13 36 -61 0
37 12 29 14 32 13 36 -57 0
37 12 29 14 32 13 36 -59 0
37 12 29 14 32 13 36 -62 0
37 29 21 32 20 36 27 -73 0
37 29 21 32 20 36 27 -76 0
37 29 21 32 20 36 27 -77 0
37 29 21 32 20 36 27 -74 0
37 29 21 32 20 36 27 -72 0
37 29 21 32 20 36 27 -75 0
37 29 4 32 2 36 5 -35 0
37 29 4 32 2 36 5 -30 0
37 29 4 32 2 36 5 -28 0
37 29 4 32 2 36 5 -33 0
37 29 4 32 2 36 5 -31 0
37 29 4 32 2 36 5 -34 0
37 29 41 32 45 36 39 -90 0
37 29 41 32 45 36 39 -87 0
37 29 41 32 45 36 39 -91 0
37 29 41 32 45 36 39 -92 0
37 29 41 32 45 36 39 -89 0
37 29 41 32 45 36 39 -88 0
25 6 21 4 20 2 27 -18 0
25 6 21 4 20 2 27 -24 0
25 6 21 4 20 2 27 -22 0
25 6 21 4 20 2 27 -23 0
25 6 21 4 20 2 27 -19 0
25 6 21 4 20 2 27 -26 0
25 6 21 4 20 2 5 -18 0
25 6 21 4 20 2 5 -24 0
25 6 21 4 20 2 5 -22 0
25 6 21 4 20 2 5 -23 0
25 6 21 4 20 2 5 -19 0
25 6 21 4 20 2 5 -26 0
25 6 21 4 20 27 5 -18 0
25 6 21 4 20 27 5 -24 0
25 6 21 4 20 27 5 -22 0
25 6 21 4 20 27 5 -23 0
25 6 21 4 20 27 5 -19 0
25 6 21 4 20 27 5 -26 0
25 6 21 4 2 27 5 -18 0
25 6 21 4 2 27 5 -24 0
25 6 21 4 2 27 5 -22 0
25 6 21 4 2 27 5 -23 0
25 6 21 4 2 27 5 -19 0
25 6 21 4 2 27 5 -26 0
25 6 21 20 2 27 5 -18 0
25 6 21 20 2 27 5 -24 0
25 6 21 20 2 27 5 -22 0
25 6 21 20 2 27 5 -23 0
25 6 21 20 2 27 5 -19 0
25 6 21 20 2 27 5 -26 0
25 6 4 20 2 27 5 -18 0
25 6 4 20 2 27 5 -24 0
25 6 4 20 2 27 5 -22 0
25 6 4 20 2 27 5 -23 0
25 6 4 20 2 27 5 -19 0
25 6 4 20 2 27 5 -26 0
25 47 21 41 20 45 27 -79 0
25 47 21 41 20 45 27 -81 0
25 47 21 41 20 45 27 -78 0
25 47 21 41 20 45 27 -83 0
25 47 21 41 20 45 27 -80 0
25 47 21 41 20 45 27 -82 0
25 47 21 41 20 45 39 -79 0
25 47 21 41 20 45 39 -81 0
25 47 21 41 20 45 39 -78 0
25 47 21 41 20 45 39 -83 0
25 47 21 41 20 45 39 -80 0
25 47 21 41 20 45 39 -82 0
25 47 21 41 20 27 39 -79 0
25 47 21 41 20 27 39 -81 0
25 47 21 41 20 27 39 -78 0
25 47 21 41 20 27 39 -83 0
25 47 21 41 20 27 39 -80 0
25 47 21 41 20 27 39 -82 0
25 47 21 41 45 27 39 -79 0
25 47 21 41 45 27 39 -81 0
25 47 21 41 45 27 39 -78 0
25 47 21 41 45 27 39 -83 0
25 47 21 41 45 27 39 -80 0
25 47 21 41 45 27 39 -82 0
25 47 21 20 45 27 39 -79 0
25 47 21 20 45 27 39 -81 0
25 47 21 20 45 27 39 -78 0
25 47 21 20 45 27 39 -83 0
25 47 21 20 45 27 39 -80 0
25 47 21 20 45 27 39 -82 0
25 47 41 20 45 27 39 -79 0
25 47 41 20 45 27 39 -81 0
25 47 41 20 45 27 39 -78 0
25 47 41 20 45 27 39 -83 0
25 47 41 20 45 27 39 -80 0
25 47 41 20 45 27 39 -82 0
25 12 21 14 20 13 27 -52 0
25 12 21 14 20 13 27 -56 0
25 12 21 14 20 13 27 -53 0
25 12 21 14 20 13 27 -55 0
25 12 21 14 20 13 27 -51 0
25 12 21 14 20 13 27 -54 0
25 29 21 32 20 36 27 -73 0
25 29 21 32 20 36 27 -76 0
25 29 21 32 20 36 27 -77 0
25 29 21 32 20 36 27 -74 0
25 29 21 32 20 36 27 -72 0
25 29 21 32 20 36 27 -75 0
25 21 4 20 2 27 5 -18 0
25 21 4 20 2 27 5 -24 0
25 21 4 20 2 27 5 -22 0
25 21 4 20 2 27 5 -23 0
25 21 4 20 2 27 5 -19 0
25 21 4 20 2 27 5 -26 0
25 21 41 20 45 27 39 -79 0
25 21 41 20 45 27 39 -81 0
25 21 41 20 45 27 39 -78 0
25 21 41 20 45 27 39 -83 0
25 21 41 20 45 27 39 -80 0
25 21 41 20 45 27 39 -82 0
6 47 4 41 2 45 5 -40 0
6 47 4 41 2 45 5 -43 0
6 47 4 41 2 45 5 -38 0
6 47 4 41 2 45 5 -46 0
6 47 4 41 2 45 5 -42 0
6 47 4 41 2 45 5 -44 0
6 47 4 41 2 45 39 -40 0
6 47 4 41 2 45 39 -43 0
6 47 4 41 2 45 39 -38 0
6 47 4 41 2 45 39 -46 0
6 47 4 41 2 45 39 -42 0
6 47 4 41 2 45 39 -44 0
6 47 4 41 2 5 39 -40 0
6 47 4 41 2 5 39 -43 0
6 47 4 41 2 5 39 -38 0
6 47 4 41 2 5 39 -46 0
6 47 4 41 2 5 39 -42 0
6 47 4 41 2 5 39 -44 0
6 47 4 41 45 5 39 -40 0
6 47 4 41 45 5 39 -43 0
6 47 4 41 45 5 39 -38 0
6 47 4 41 45 5 39 -46 0
6 47 4 41 45 5 39 -42 0
6 47 4 41 45 5 39 -44 0
6 47 4 2 45 5 39 -40 0
6 47 4 2 45 5 39 -43 0
6 47 4 2 45 5 39 -38 0
6 47 4 2 45 5 39 -46 0
6 47 4 2 45 5 39 -42 0
6 47 4 2 45 5 39 -44 0
6 47 41 2 45 5 39 -40 0
6 47 41 2 45 5 39 -43 0
6 47 41 2 45 5 39 -38 0
6 47 41 2 45 5 39 -46 0
6 47 41 2 45 5 39 -42 0
6 47 41 2 45 5 39 -44 0
6 12 4 14 2 13 5 -16 0
6 12 4 14 2 13 5 -8 0
6 12 4 14 2 13 5 -10 0
6 12 4 14 2 13 5 -17 0
6 12 4 14 2 13 5 -15 0
6 12 4 14 2 13 5 -11 0
6 29 4 32 2 36 5 -35 0
6 29 4 32 2 36 5 -30 0
6 29 4 32 2 36 5 -28 0
6 29 4 32 2 36 5 -33 0
6 29 4 32 2 36 5 -31 0
6 29 4 32 2 36 5 -34 0
6 21 4 20 2 27 5 -18 0
6 21 4 20 2 27 5 -24 0
6 21 4 20 2 27 5 -22 0
6 21 4 20 2 27 5 -23 0
6 21 4 20 2 27 5 -19 0
6 21 4 20 2 27 5 -26 0
6 4 41 2 45 5 39 -40 0
6 4 41 2 45 5 39 -43 0
6 4 41 2 45 5 39 -38 0
6 4 41 2 45 5 39 -46 0
6 4 41 2 45 5 39 -42 0
6 4 41 2 45 5 39 -44 0
47 12 41 14 45 13 39 -66 0
47 12 41 14 45 13 39 -64 0
47 12 41 14 45 13 39 -68 0
47 12 41 14 45 13 39 -67 0
47 12 41 14 45 13 39 -65 0
47 12 41 14 45 13 39 -63 0
47 29 41 32 45 36 39 -90 0
47 29 41 32 45 36 39 -87 0
47 29 41 32 45 36 39 -91 0
47 29 41 32 45 36 39 -92 0
47 29 41 32 45 36 39 -89 0
47 29 41 32 45 36 39 -88 0
47 21 41 20 45 27 39 -79 0
47 21 41 20 45 27 39 -81 0
47 21 41 20 45 27 39 -78 0
47 21 41 20 45 27 39 -83 0
47 21 41 20 45 27 39 -80 0
47 21 41 20 45 27 39 -82 0
47 4 41 2 45 5 39 -40 0
47 4 41 2 45 5 39 -43 0
47 4 41 2 45 5 39 -38 0
47 4 41 2 45 5 39 -46 0
47 4 41 2 45 5 39 -42 0
47 4 41 2 45 5 39 -44 0
9 37 12 29 14 32 13 36 -58 0
9 37 12 29 14 32 13 36 -60 0
9 37 12 29 14 32 13 36 -61 0
9 37 12 29 14 32 13 36 -57 0
9 37 12 29 14 32 13 36 -59 0
9 37 12 29 14 32 13 36 -62 0
9 25 12 21 14 20 13 27 -52 0
9 25 12 21 14 20 13 27 -56 0
9 25 12 21 14 20 13 27 -53 0
9 25 12 21 14 20 13 27 -55 0
9 25 12 21 14 20 13 27 -51 0
9 25 12 21 14 20 13 27 -54 0
9 6 12 4 14 2 13 5 -16 0
9 6 12 4 14 2 13 5 -8 0
9 6 12 4 14 2 13 5 -10 0
9 6 12 4 14 2 13 5 -17 0
9 6 12 4 14 2 13 5 -15 0
9 6 12 4 14 2 13 5 -11 0
9 47 12 41 14 45 13 39 -66 0
9 47 12 41 14 45 13 39 -64 0
9 47 12 41 14 45 13 39 -68 0
9 47 12 41 14 45 13 39 -67 0
9 47 12 41 14 45 13 39 -65 0
9 47 12 41 14 45 13 39 -63 0
37 25 29 21 32 20 36 27 -73 0
37 25 29 21 32 20 36 27 -76 0
37 25 29 21 32 20 36 27 -77 0
37 25 29 21 32 20 36 27 -74 0
37 25 29 21 32 20 36 27 -72 0
37 25 29 21 32 20 36 27 -75 0
37 6 29 4 32 2 36 5 -35 0
37 6 29 4 32 2 36 5 -30 0
37 6 29 4 32 2 36 5 -28 0
37 6 29 4 32 2 36 5 -33 0
37 6 29 4 32 2 36 5 -31 0
37 6 29 4 32 2 36 5 -34 0
37 47 29 41 32 45 36 39 -90 0
37 47 29 41 32 45 36 39 -87 0
37 47 29 41 32 45 36 39 -91 0
37 47 29 41 32 45 36 39 -92 0
37 47 29 41 32 45 36 39 -89 0
37 47 29 41 32 45 36 39 -88 0
25 6 21 4 20 2 27 5 -18 0
25 6 21 4 20 2 27 5 -24 0
25 6 21 4 20 2 27 5 -22 0
25 6 21 4 20 2 27 5 -23 0
25 6 21 4 20 2 27 5 -19 0
25 6 21 4 20 2 27 5 -26 0
25 47 21 41 20 45 27 39 -79 0
25 47 21 41 20 45 27 39 -81 0
25 47 21 41 20 45 27 39 -78 0
25 47 21 41 20 45 27 39 -83 0
25 47 21 41 20 45 27 39 -80 0
25 47 21 41 20 45 27 39 -82 0
6 47 4 41 2 45 5 39 -40 0
6 47 4 41 2 45 5 39 -43 0
6 47 4 41 2 45 5 39 -38 0
6 47 4 41 2 45 5 39 -46 0
6 47 4 41 2 45 5 39 -42 0
6 47 4 41 2 45 5 39 -44 0
