c U3(4) E2(4,4) E3(4,4) U2(4) U4(4) U1(4) E1(4,4) U1(2) U3(2) E2(2,4) E1(2,4) E1(4,2) E2(4,2) U4(2) E3(2,4) E3(4,2) U2(2) U4(3) E3(4,3) E1(4,3) U1(3) E2(4,3) U3(3) E3(3,4) E1(3,4) U2(3) E2(3,4) U2(0) U1(0) U4(0) E3(4,0) E1(4,0) E1(0,4) E2(0,4) E2(4,0) E3(0,4) U3(0) U4(1) U3(1) E3(4,1) E3(1,4) E1(1,4) U2(1) U1(1) E1(4,1) E2(4,1) E2(1,4) E2(4,5) U2(5) U3(5) E3(5,4) U1(5) U4(5) E1(5,4) E3(4,5) E2(5,4) E1(4,5) E1(2,2) E3(2,2) E2(2,2) E1(3,2) E3(2,3) E1(2,3) E2(2,3) E3(3,2) E2(3,2) E2(0,2) E3(2,0) E1(0,2) E1(2,0) E2(2,0) E3(0,2) E1(1,2) E3(1,2) E2(1,2) E3(2,1) E1(2,1) E2(2,1) E3(5,2) E3(2,5) E2(5,2) E2(2,5) E1(2,5) E1(5,2) E1(3,3) E2(3,3) E3(3,3) E2(0,3) E2(3,0) E1(0,3) E3(3,0) E3(0,3) E1(3,0) E3(3,1) E3(1,3) E1(3,1) E2(3,1) E2(1,3) E1(1,3) E1(3,5) E2(3,5) E3(5,3) E3(3,5) E1(5,3) E2(5,3) E1(0,0) E2(0,0) E3(0,0) E3(1,0) E1(0,1) E2(0,1) E2(1,0) E1(1,0) E3(0,1) E1(0,5) E3(5,0) E1(5,0) E3(0,5) E2(5,0) E2(0,5) E3(1,1) E1(1,1) E2(1,1) E2(1,5) E1(5,1) E2(5,1) E3(1,5) E3(5,1) E1(1,5) E1(5,5) E2(5,5) E3(5,5)
c 1 2 3 4 5 6 7 8 9 10 11 12 13 14 15 16 17 18 19 20 21 22 23 24 25 26 27 28 29 30 31 32 33 34 35 36 37 38 39 40 41 42 43 44 45 46 47 48 49 50 51 52 53 54 55 56 57 58 59 60 61 62 63 64 65 66 67 68 69 70 71 72 73 74 75 76 77 78 79 80 81 82 83 84 85 86 87 88 89 90 91 92 93 94 95 96 97 98 99 100 101 102 103 104 105 106 107 108 109 110 111 112 113 114 115 116 117 118 119 120 121 122 123 124 125 126 127 128 129 130 131 132
p cnf 132 3516
106 -106 0
110 -113 0
69 -70 0
90 -93 0
33 -32 0
115 -117 0
113 -110 0
122 -122 0
73 -77 0
99 -96 0
42 -45 0
129 -125 0
70 -69 0
77 -73 0
58 -58 0
63 -61 0
11 -12 0
83 -84 0
93 -90 0
96 -99 0
61 -63 0
85 -85 0
25 -20 0
100 -104 0
32 -33 0
45 -42 0
12 -11 0
20 -25 0
7 -7 0
57 -54 0
117 -115 0
125 -129 0
84 -83 0
104 -100 0
54 -57 0
130 -130 0
107 -107 0
111 -112 0
67 -71 0
88 -89 0
34 -35 0
120 -119 0
112 -111 0
123 -123 0
75 -78 0
98 -97 0
47 -46 0
124 -126 0
71 -67 0
78 -75 0
60 -60 0
64 -66 0
10 -13 0
82 -81 0
89 -88 0
97 -98 0
66 -64 0
86 -86 0
27 -22 0
101 -105 0
35 -34 0
46 -47 0
13 -10 0
22 -27 0
2 -2 0
48 -56 0
119 -120 0
126 -124 0
81 -82 0
105 -101 0
56 -48 0
131 -131 0
108 -108 0
114 -109 0
72 -68 0
92 -91 0
36 -31 0
118 -116 0
109 -114 0
121 -121 0
74 -76 0
95 -94 0
41 -40 0
127 -128 0
68 -72 0
76 -74 0
59 -59 0
62 -65 0
15 -16 0
80 -79 0
91 -92 0
94 -95 0
65 -62 0
87 -87 0
24 -19 0
103 -102 0
31 -36 0
40 -41 0
16 -15 0
19 -24 0
3 -3 0
55 -51 0
116 -118 0
128 -127 0
79 -80 0
102 -103 0
51 -55 0
132 -132 0
-106 -107 0
-106 -108 0
-110 -111 0
-110 -114 0
-69 -67 0
-69 -72 0
-90 -88 0
-90 -92 0
-33 -34 0
-33 -36 0
-115 -120 0
-115 -118 0
-113 -112 0
-113 -109 0
-122 -123 0
-122 -121 0
-73 -75 0
-73 -74 0
-99 -98 0
-99 -95 0
-42 -47 0
-42 -41 0
-129 -124 0
-129 -127 0
-70 -71 0
-70 -68 0
-77 -78 0
-77 -76 0
-58 -60 0
-58 -59 0
-63 -64 0
-63 -62 0
-11 -10 0
-11 -15 0
-83 -82 0
-83 -80 0
-93 -89 0
-93 -91 0
-96 -97 0
-96 -94 0
-61 -66 0
-61 -65 0
-85 -86 0
-85 -87 0
-25 -27 0
-25 -24 0
-100 -101 0
-100 -103 0
-32 -35 0
-32 -31 0
-45 -46 0
-45 -40 0
-12 -13 0
-12 -16 0
-20 -22 0
-20 -19 0
-7 -2 0
-7 -3 0
-57 -48 0
-57 -55 0
-117 -119 0
-117 -116 0
-125 -126 0
-125 -128 0
-84 -81 0
-84 -79 0
-104 -105 0
-104 -102 0
-54 -56 0
-54 -51 0
-130 -131 0
-130 -132 0
-107 -108 0
-111 -114 0
-67 -72 0
-88 -92 0
-34 -36 0
-120 -118 0
-112 -109 0
-123 -121 0
-75 -74 0
-98 -95 0
-47 -41 0
-124 -127 0
-71 -68 0
-78 -76 0
-60 -59 0
-64 -62 0
-10 -15 0
-82 -80 0
-89 -91 0
-97 -94 0
-66 -65 0
-86 -87 0
-27 -24 0
-101 -103 0
-35 -31 0
-46 -40 0
-13 -16 0
-22 -19 0
-2 -3 0
-48 -55 0
-119 -116 0
-126 -128 0
-81 -79 0
-105 -102 0
-56 -51 0
-131 -132 0
-29 -28 0
-29 -37 0
-29 -30 0
-44 -43 0
-44 -39 0
-44 -38 0
-8 -17 0
-8 -9 0
-8 -14 0
-21 -26 0
-21 -23 0
-21 -18 0
-6 -4 0
-6 -1 0
-6 -5 0
-52 -49 0
-52 -50 0
-52 -53 0
-28 -37 0
-28 -30 0
-43 -39 0
-43 -38 0
-17 -9 0
-17 -14 0
-26 -23 0
-26 -18 0
-4 -1 0
-4 -5 0
-49 -50 0
-49 -53 0
-37 -30 0
-39 -38 0
-9 -14 0
-23 -18 0
-1 -5 0
-50 -53 0
29 28 37 30 0
44 43 39 38 0
8 17 9 14 0
21 26 23 18 0
6 4 1 5 0
52 49 50 53 0
29 28 37 -106 0
29 28 37 -107 0
29 28 37 -108 0
29 28 30 -106 0
29 28 30 -107 0
29 28 30 -108 0
29 37 30 -106 0
29 37 30 -107 0
29 37 30 -108 0
44 43 39 -122 0
44 43 39 -123 0
44 43 39 -121 0
44 43 38 -122 0
44 43 38 -123 0
44 43 38 -121 0
44 39 38 -122 0
44 39 38 -123 0
44 39 38 -121 0
8 17 9 -58 0
8 17 9 -60 0
8 17 9 -59 0
8 17 14 -58 0
8 17 14 -60 0
8 17 14 -59 0
8 9 14 -58 0
8 9 14 -60 0
8 9 14 -59 0
21 26 23 -85 0
21 26 23 -86 0
21 26 23 -87 0
21 26 18 -85 0
21 26 18 -86 0
21 26 18 -87 0
21 23 18 -85 0
21 23 18 -86 0
21 23 18 -87 0
6 4 1 -7 0
6 4 1 -2 0
6 4 1 -3 0
6 4 5 -7 0
6 4 5 -2 0
6 4 5 -3 0
6 1 5 -7 0
6 1 5 -2 0
6 1 5 -3 0
52 49 50 -130 0
52 49 50 -131 0
52 49 50 -132 0
52 49 53 -130 0
52 49 53 -131 0
52 49 53 -132 0
52 50 53 -130 0
52 50 53 -131 0
52 50 53 -132 0
28 37 30 -106 0
28 37 30 -107 0
28 37 30 -108 0
43 39 38 -122 0
43 39 38 -123 0
43 39 38 -121 0
17 9 14 -58 0
17 9 14 -60 0
17 9 14 -59 0
26 23 18 -85 0
26 23 18 -86 0
26 23 18 -87 0
4 1 5 -7 0
4 1 5 -2 0
4 1 5 -3 0
49 50 53 -130 0
49 50 53 -131 0
49 50 53 -132 0
29 28 37 30 -106 0
29 28 37 30 -110 0
29 28 37 30 -69 0
29 28 37 30 -90 0
29 28 37 30 -33 0
29 28 37 30 -115 0
29 28 37 30 -113 0
29 28 37 30 -70 0
29 28 37 30 -93 0
29 28 37 30 -32 0
29 28 37 30 -117 0
29 28 37 30 -107 0
29 28 37 30 -111 0
29 28 37 30 -67 0
29 28 37 30 -88 0
29 28 37 30 -34 0
29 28 37 30 -120 0
29 28 37 30 -112 0
29 28 37 30 -71 0
29 28 37 30 -89 0
29 28 37 30 -35 0
29 28 37 30 -119 0
29 28 37 30 -108 0
29 28 37 30 -114 0
29 28 37 30 -72 0
29 28 37 30 -92 0
29 28 37 30 -36 0
29 28 37 30 -118 0
29 28 37 30 -109 0
29 28 37 30 -68 0
29 28 37 30 -91 0
29 28 37 30 -31 0
29 28 37 30 -116 0
44 43 39 38 -110 0
44 43 39 38 -113 0
44 43 39 38 -122 0
44 43 39 38 -73 0
44 43 39 38 -99 0
44 43 39 38 -42 0
44 43 39 38 -129 0
44 43 39 38 -77 0
44 43 39 38 -96 0
44 43 39 38 -45 0
44 43 39 38 -125 0
44 43 39 38 -111 0
44 43 39 38 -112 0
44 43 39 38 -123 0
44 43 39 38 -75 0
44 43 39 38 -98 0
44 43 39 38 -47 0
44 43 39 38 -124 0
44 43 39 38 -78 0
44 43 39 38 -97 0
44 43 39 38 -46 0
44 43 39 38 -126 0
44 43 39 38 -114 0
44 43 39 38 -109 0
44 43 39 38 -121 0
44 43 39 38 -74 0
44 43 39 38 -95 0
44 43 39 38 -41 0
44 43 39 38 -127 0
44 43 39 38 -76 0
44 43 39 38 -94 0
44 43 39 38 -40 0
44 43 39 38 -128 0
8 17 9 14 -69 0
8 17 9 14 -73 0
8 17 9 14 -70 0
8 17 9 14 -77 0
8 17 9 14 -58 0
8 17 9 14 -63 0
8 17 9 14 -11 0
8 17 9 14 -83 0
8 17 9 14 -61 0
8 17 9 14 -12 0
8 17 9 14 -84 0
8 17 9 14 -67 0
8 17 9 14 -75 0
8 17 9 14 -71 0
8 17 9 14 -78 0
8 17 9 14 -60 0
8 17 9 14 -64 0
8 17 9 14 -10 0
8 17 9 14 -82 0
8 17 9 14 -66 0
8 17 9 14 -13 0
8 17 9 14 -81 0
8 17 9 14 -72 0
8 17 9 14 -74 0
8 17 9 14 -68 0
8 17 9 14 -76 0
8 17 9 14 -59 0
8 17 9 14 -62 0
8 17 9 14 -15 0
8 17 9 14 -80 0
8 17 9 14 -65 0
8 17 9 14 -16 0
8 17 9 14 -79 0
21 26 23 18 -90 0
21 26 23 18 -99 0
21 26 23 18 -63 0
21 26 23 18 -93 0
21 26 23 18 -96 0
21 26 23 18 -61 0
21 26 23 18 -85 0
21 26 23 18 -25 0
21 26 23 18 -100 0
21 26 23 18 -20 0
21 26 23 18 -104 0
21 26 23 18 -88 0
21 26 23 18 -98 0
21 26 23 18 -64 0
21 26 23 18 -89 0
21 26 23 18 -97 0
21 26 23 18 -66 0
21 26 23 18 -86 0
21 26 23 18 -27 0
21 26 23 18 -101 0
21 26 23 18 -22 0
21 26 23 18 -105 0
21 26 23 18 -92 0
21 26 23 18 -95 0
21 26 23 18 -62 0
21 26 23 18 -91 0
21 26 23 18 -94 0
21 26 23 18 -65 0
21 26 23 18 -87 0
21 26 23 18 -24 0
21 26 23 18 -103 0
21 26 23 18 -19 0
21 26 23 18 -102 0
6 4 1 5 -33 0
6 4 1 5 -42 0
6 4 1 5 -11 0
6 4 1 5 -25 0
6 4 1 5 -32 0
6 4 1 5 -45 0
6 4 1 5 -12 0
6 4 1 5 -20 0
6 4 1 5 -7 0
6 4 1 5 -57 0
6 4 1 5 -54 0
6 4 1 5 -34 0
6 4 1 5 -47 0
6 4 1 5 -10 0
6 4 1 5 -27 0
6 4 1 5 -35 0
6 4 1 5 -46 0
6 4 1 5 -13 0
6 4 1 5 -22 0
6 4 1 5 -2 0
6 4 1 5 -48 0
6 4 1 5 -56 0
6 4 1 5 -36 0
6 4 1 5 -41 0
6 4 1 5 -15 0
6 4 1 5 -24 0
6 4 1 5 -31 0
6 4 1 5 -40 0
6 4 1 5 -16 0
6 4 1 5 -19 0
6 4 1 5 -3 0
6 4 1 5 -55 0
6 4 1 5 -51 0
52 49 50 53 -115 0
52 49 50 53 -129 0
52 49 50 53 -83 0
52 49 50 53 -100 0
52 49 50 53 -57 0
52 49 50 53 -117 0
52 49 50 53 -125 0
52 49 50 53 -84 0
52 49 50 53 -104 0
52 49 50 53 -54 0
52 49 50 53 -130 0
52 49 50 53 -120 0
52 49 50 53 -124 0
52 49 50 53 -82 0
52 49 50 53 -101 0
52 49 50 53 -48 0
52 49 50 53 -119 0
52 49 50 53 -126 0
52 49 50 53 -81 0
52 49 50 53 -105 0
52 49 50 53 -56 0
52 49 50 53 -131 0
52 49 50 53 -118 0
52 49 50 53 -127 0
52 49 50 53 -80 0
52 49 50 53 -103 0
52 49 50 53 -55 0
52 49 50 53 -116 0
52 49 50 53 -128 0
52 49 50 53 -79 0
52 49 50 53 -102 0
52 49 50 53 -51 0
52 49 50 53 -132 0
106 110 69 90 33 115 0
113 122 73 99 42 129 0
70 77 58 63 11 83 0
93 96 61 85 25 100 0
32 45 12 20 7 57 0
117 125 84 104 54 130 0
107 111 67 88 34 120 0
112 123 75 98 47 124 0
71 78 60 64 10 82 0
89 97 66 86 27 101 0
35 46 13 22 2 48 0
119 126 81 105 56 131 0
108 114 72 92 36 118 0
109 121 74 95 41 127 0
68 76 59 62 15 80 0
91 94 65 87 24 103 0
31 40 16 19 3 55 0
116 128 79 102 51 132 0
29 44 28 37 30 -110 0
29 44 28 37 30 -113 0
29 44 28 37 30 -111 0
29 44 28 37 30 -112 0
29 44 28 37 30 -114 0
29 44 28 37 30 -109 0
29 44 43 39 38 -110 0
29 44 43 39 38 -113 0
29 44 43 39 38 -111 0
29 44 43 39 38 -112 0
29 44 43 39 38 -114 0
29 44 43 39 38 -109 0
29 8 28 37 30 -69 0
29 8 28 37 30 -70 0
29 8 28 37 30 -67 0
29 8 28 37 30 -71 0
29 8 28 37 30 -72 0
29 8 28 37 30 -68 0
29 8 17 9 14 -69 0
29 8 17 9 14 -70 0
29 8 17 9 14 -67 0
29 8 17 9 14 -71 0
29 8 17 9 14 -72 0
29 8 17 9 14 -68 0
29 21 28 37 30 -90 0
29 21 28 37 30 -93 0
29 21 28 37 30 -88 0
29 21 28 37 30 -89 0
29 21 28 37 30 -92 0
29 21 28 37 30 -91 0
29 21 26 23 18 -90 0
29 21 26 23 18 -93 0
29 21 26 23 18 -88 0
29 21 26 23 18 -89 0
29 21 26 23 18 -92 0
29 21 26 23 18 -91 0
29 6 28 37 30 -33 0
29 6 28 37 30 -32 0
29 6 28 37 30 -34 0
29 6 28 37 30 -35 0
29 6 28 37 30 -36 0
29 6 28 37 30 -31 0
29 6 4 1 5 -33 0
29 6 4 1 5 -32 0
29 6 4 1 5 -34 0
29 6 4 1 5 -35 0
29 6 4 1 5 -36 0
29 6 4 1 5 -31 0
29 52 28 37 30 -115 0
29 52 28 37 30 -117 0
29 52 28 37 30 -120 0
29 52 28 37 30 -119 0
29 52 28 37 30 -118 0
29 52 28 37 30 -116 0
29 52 49 50 53 -115 0
29 52 49 50 53 -117 0
29 52 49 50 53 -120 0
29 52 49 50 53 -119 0
29 52 49 50 53 -118 0
29 52 49 50 53 -116 0
29 28 43 37 30 -110 0
29 28 43 37 30 -113 0
29 28 43 37 30 -111 0
29 28 43 37 30 -112 0
29 28 43 37 30 -114 0
29 28 43 37 30 -109 0
29 28 17 37 30 -69 0
29 28 17 37 30 -70 0
29 28 17 37 30 -67 0
29 28 17 37 30 -71 0
29 28 17 37 30 -72 0
29 28 17 37 30 -68 0
29 28 26 37 30 -90 0
29 28 26 37 30 -93 0
29 28 26 37 30 -88 0
29 28 26 37 30 -89 0
29 28 26 37 30 -92 0
29 28 26 37 30 -91 0
29 28 4 37 30 -33 0
29 28 4 37 30 -32 0
29 28 4 37 30 -34 0
29 28 4 37 30 -35 0
29 28 4 37 30 -36 0
29 28 4 37 30 -31 0
29 28 49 37 30 -115 0
29 28 49 37 30 -117 0
29 28 49 37 30 -120 0
29 28 49 37 30 -119 0
29 28 49 37 30 -118 0
29 28 49 37 30 -116 0
29 28 37 39 30 -110 0
29 28 37 39 30 -113 0
29 28 37 39 30 -111 0
29 28 37 39 30 -112 0
29 28 37 39 30 -114 0
29 28 37 39 30 -109 0
29 28 37 9 30 -69 0
29 28 37 9 30 -70 0
29 28 37 9 30 -67 0
29 28 37 9 30 -71 0
29 28 37 9 30 -72 0
29 28 37 9 30 -68 0
29 28 37 23 30 -90 0
29 28 37 23 30 -93 0
29 28 37 23 30 -88 0
29 28 37 23 30 -89 0
29 28 37 23 30 -92 0
29 28 37 23 30 -91 0
29 28 37 1 30 -33 0
29 28 37 1 30 -32 0
29 28 37 1 30 -34 0
29 28 37 1 30 -35 0
29 28 37 1 30 -36 0
29 28 37 1 30 -31 0
29 28 37 50 30 -115 0
29 28 37 50 30 -117 0
29 28 37 50 30 -120 0
29 28 37 50 30 -119 0
29 28 37 50 30 -118 0
29 28 37 50 30 -116 0
29 28 37 30 38 -110 0
29 28 37 30 38 -113 0
29 28 37 30 38 -111 0
29 28 37 30 38 -112 0
29 28 37 30 38 -114 0
29 28 37 30 38 -109 0
29 28 37 30 14 -69 0
29 28 37 30 14 -70 0
29 28 37 30 14 -67 0
29 28 37 30 14 -71 0
29 28 37 30 14 -72 0
29 28 37 30 14 -68 0
29 28 37 30 18 -90 0
29 28 37 30 18 -93 0
29 28 37 30 18 -88 0
29 28 37 30 18 -89 0
29 28 37 30 18 -92 0
29 28 37 30 18 -91 0
29 28 37 30 5 -33 0
29 28 37 30 5 -32 0
29 28 37 30 5 -34 0
29 28 37 30 5 -35 0
29 28 37 30 5 -36 0
29 28 37 30 5 -31 0
29 28 37 30 53 -115 0
29 28 37 30 53 -117 0
29 28 37 30 53 -120 0
29 28 37 30 53 -119 0
29 28 37 30 53 -118 0
29 28 37 30 53 -116 0
44 8 43 39 38 -73 0
44 8 43 39 38 -77 0
44 8 43 39 38 -75 0
44 8 43 39 38 -78 0
44 8 43 39 38 -74 0
44 8 43 39 38 -76 0
44 8 17 9 14 -73 0
44 8 17 9 14 -77 0
44 8 17 9 14 -75 0
44 8 17 9 14 -78 0
44 8 17 9 14 -74 0
44 8 17 9 14 -76 0
44 21 43 39 38 -99 0
44 21 43 39 38 -96 0
44 21 43 39 38 -98 0
44 21 43 39 38 -97 0
44 21 43 39 38 -95 0
44 21 43 39 38 -94 0
44 21 26 23 18 -99 0
44 21 26 23 18 -96 0
44 21 26 23 18 -98 0
44 21 26 23 18 -97 0
44 21 26 23 18 -95 0
44 21 26 23 18 -94 0
44 6 43 39 38 -42 0
44 6 43 39 38 -45 0
44 6 43 39 38 -47 0
44 6 43 39 38 -46 0
44 6 43 39 38 -41 0
44 6 43 39 38 -40 0
44 6 4 1 5 -42 0
44 6 4 1 5 -45 0
44 6 4 1 5 -47 0
44 6 4 1 5 -46 0
44 6 4 1 5 -41 0
44 6 4 1 5 -40 0
44 52 43 39 38 -129 0
44 52 43 39 38 -125 0
44 52 43 39 38 -124 0
44 52 43 39 38 -126 0
44 52 43 39 38 -127 0
44 52 43 39 38 -128 0
44 52 49 50 53 -129 0
44 52 49 50 53 -125 0
44 52 49 50 53 -124 0
44 52 49 50 53 -126 0
44 52 49 50 53 -127 0
44 52 49 50 53 -128 0
44 28 43 39 38 -110 0
44 28 43 39 38 -113 0
44 28 43 39 38 -111 0
44 28 43 39 38 -112 0
44 28 43 39 38 -114 0
44 28 43 39 38 -109 0
44 43 17 39 38 -73 0
44 43 17 39 38 -77 0
44 43 17 39 38 -75 0
44 43 17 39 38 -78 0
44 43 17 39 38 -74 0
44 43 17 39 38 -76 0
44 43 26 39 38 -99 0
44 43 26 39 38 -96 0
44 43 26 39 38 -98 0
44 43 26 39 38 -97 0
44 43 26 39 38 -95 0
44 43 26 39 38 -94 0
44 43 4 39 38 -42 0
44 43 4 39 38 -45 0
44 43 4 39 38 -47 0
44 43 4 39 38 -46 0
44 43 4 39 38 -41 0
44 43 4 39 38 -40 0
44 43 49 39 38 -129 0
44 43 49 39 38 -125 0
44 43 49 39 38 -124 0
44 43 49 39 38 -126 0
44 43 49 39 38 -127 0
44 43 49 39 38 -128 0
44 43 37 39 38 -110 0
44 43 37 39 38 -113 0
44 43 37 39 38 -111 0
44 43 37 39 38 -112 0
44 43 37 39 38 -114 0
44 43 37 39 38 -109 0
44 43 39 9 38 -73 0
44 43 39 9 38 -77 0
44 43 39 9 38 -75 0
44 43 39 9 38 -78 0
44 43 39 9 38 -74 0
44 43 39 9 38 -76 0
44 43 39 23 38 -99 0
44 43 39 23 38 -96 0
44 43 39 23 38 -98 0
44 43 39 23 38 -97 0
44 43 39 23 38 -95 0
44 43 39 23 38 -94 0
44 43 39 1 38 -42 0
44 43 39 1 38 -45 0
44 43 39 1 38 -47 0
44 43 39 1 38 -46 0
44 43 39 1 38 -41 0
44 43 39 1 38 -40 0
44 43 39 50 38 -129 0
44 43 39 50 38 -125 0
44 43 39 50 38 -124 0
44 43 39 50 38 -126 0
44 43 39 50 38 -127 0
44 43 39 50 38 -128 0
44 43 39 30 38 -110 0
44 43 39 30 38 -113 0
44 43 39 30 38 -111 0
44 43 39 30 38 -112 0
44 43 39 30 38 -114 0
44 43 39 30 38 -109 0
44 43 39 38 14 -73 0
44 43 39 38 14 -77 0
44 43 39 38 14 -75 0
44 43 39 38 14 -78 0
44 43 39 38 14 -74 0
44 43 39 38 14 -76 0
44 43 39 38 18 -99 0
44 43 39 38 18 -96 0
44 43 39 38 18 -98 0
44 43 39 38 18 -97 0
44 43 39 38 18 -95 0
44 43 39 38 18 -94 0
44 43 39 38 5 -42 0
44 43 39 38 5 -45 0
44 43 39 38 5 -47 0
44 43 39 38 5 -46 0
44 43 39 38 5 -41 0
44 43 39 38 5 -40 0
44 43 39 38 53 -129 0
44 43 39 38 53 -125 0
44 43 39 38 53 -124 0
44 43 39 38 53 -126 0
44 43 39 38 53 -127 0
44 43 39 38 53 -128 0
8 21 17 9 14 -63 0
8 21 17 9 14 -61 0
8 21 17 9 14 -64 0
8 21 17 9 14 -66 0
8 21 17 9 14 -62 0
8 21 17 9 14 -65 0
8 21 26 23 18 -63 0
8 21 26 23 18 -61 0
8 21 26 23 18 -64 0
8 21 26 23 18 -66 0
8 21 26 23 18 -62 0
8 21 26 23 18 -65 0
8 6 17 9 14 -11 0
8 6 17 9 14 -12 0
8 6 17 9 14 -10 0
8 6 17 9 14 -13 0
8 6 17 9 14 -15 0
8 6 17 9 14 -16 0
8 6 4 1 5 -11 0
8 6 4 1 5 -12 0
8 6 4 1 5 -10 0
8 6 4 1 5 -13 0
8 6 4 1 5 -15 0
8 6 4 1 5 -16 0
8 52 17 9 14 -83 0
8 52 17 9 14 -84 0
8 52 17 9 14 -82 0
8 52 17 9 14 -81 0
8 52 17 9 14 -80 0
8 52 17 9 14 -79 0
8 52 49 50 53 -83 0
8 52 49 50 53 -84 0
8 52 49 50 53 -82 0
8 52 49 50 53 -81 0
8 52 49 50 53 -80 0
8 52 49 50 53 -79 0
8 28 17 9 14 -69 0
8 28 17 9 14 -70 0
8 28 17 9 14 -67 0
8 28 17 9 14 -71 0
8 28 17 9 14 -72 0
8 28 17 9 14 -68 0
8 43 17 9 14 -73 0
8 43 17 9 14 -77 0
8 43 17 9 14 -75 0
8 43 17 9 14 -78 0
8 43 17 9 14 -74 0
8 43 17 9 14 -76 0
8 17 26 9 14 -63 0
8 17 26 9 14 -61 0
8 17 26 9 14 -64 0
8 17 26 9 14 -66 0
8 17 26 9 14 -62 0
8 17 26 9 14 -65 0
8 17 4 9 14 -11 0
8 17 4 9 14 -12 0
8 17 4 9 14 -10 0
8 17 4 9 14 -13 0
8 17 4 9 14 -15 0
8 17 4 9 14 -16 0
8 17 49 9 14 -83 0
8 17 49 9 14 -84 0
8 17 49 9 14 -82 0
8 17 49 9 14 -81 0
8 17 49 9 14 -80 0
8 17 49 9 14 -79 0
8 17 37 9 14 -69 0
8 17 37 9 14 -70 0
8 17 37 9 14 -67 0
8 17 37 9 14 -71 0
8 17 37 9 14 -72 0
8 17 37 9 14 -68 0
8 17 39 9 14 -73 0
8 17 39 9 14 -77 0
8 17 39 9 14 -75 0
8 17 39 9 14 -78 0
8 17 39 9 14 -74 0
8 17 39 9 14 -76 0
8 17 9 23 14 -63 0
8 17 9 23 14 -61 0
8 17 9 23 14 -64 0
8 17 9 23 14 -66 0
8 17 9 23 14 -62 0
8 17 9 23 14 -65 0
8 17 9 1 14 -11 0
8 17 9 1 14 -12 0
8 17 9 1 14 -10 0
8 17 9 1 14 -13 0
8 17 9 1 14 -15 0
8 17 9 1 14 -16 0
8 17 9 50 14 -83 0
8 17 9 50 14 -84 0
8 17 9 50 14 -82 0
8 17 9 50 14 -81 0
8 17 9 50 14 -80 0
8 17 9 50 14 -79 0
8 17 9 30 14 -69 0
8 17 9 30 14 -70 0
8 17 9 30 14 -67 0
8 17 9 30 14 -71 0
8 17 9 30 14 -72 0
8 17 9 30 14 -68 0
8 17 9 38 14 -73 0
8 17 9 38 14 -77 0
8 17 9 38 14 -75 0
8 17 9 38 14 -78 0
8 17 9 38 14 -74 0
8 17 9 38 14 -76 0
8 17 9 14 18 -63 0
8 17 9 14 18 -61 0
8 17 9 14 18 -64 0
8 17 9 14 18 -66 0
8 17 9 14 18 -62 0
8 17 9 14 18 -65 0
8 17 9 14 5 -11 0
8 17 9 14 5 -12 0
8 17 9 14 5 -10 0
8 17 9 14 5 -13 0
8 17 9 14 5 -15 0
8 17 9 14 5 -16 0
8 17 9 14 53 -83 0
8 17 9 14 53 -84 0
8 17 9 14 53 -82 0
8 17 9 14 53 -81 0
8 17 9 14 53 -80 0
8 17 9 14 53 -79 0
21 6 26 23 18 -25 0
21 6 26 23 18 -20 0
21 6 26 23 18 -27 0
21 6 26 23 18 -22 0
21 6 26 23 18 -24 0
21 6 26 23 18 -19 0
21 6 4 1 5 -25 0
21 6 4 1 5 -20 0
21 6 4 1 5 -27 0
21 6 4 1 5 -22 0
21 6 4 1 5 -24 0
21 6 4 1 5 -19 0
21 52 26 23 18 -100 0
21 52 26 23 18 -104 0
21 52 26 23 18 -101 0
21 52 26 23 18 -105 0
21 52 26 23 18 -103 0
21 52 26 23 18 -102 0
21 52 49 50 53 -100 0
21 52 49 50 53 -104 0
21 52 49 50 53 -101 0
21 52 49 50 53 -105 0
21 52 49 50 53 -103 0
21 52 49 50 53 -102 0
21 28 26 23 18 -90 0
21 28 26 23 18 -93 0
21 28 26 23 18 -88 0
21 28 26 23 18 -89 0
21 28 26 23 18 -92 0
21 28 26 23 18 -91 0
21 43 26 23 18 -99 0
21 43 26 23 18 -96 0
21 43 26 23 18 -98 0
21 43 26 23 18 -97 0
21 43 26 23 18 -95 0
21 43 26 23 18 -94 0
21 17 26 23 18 -63 0
21 17 26 23 18 -61 0
21 17 26 23 18 -64 0
21 17 26 23 18 -66 0
21 17 26 23 18 -62 0
21 17 26 23 18 -65 0
21 26 4 23 18 -25 0
21 26 4 23 18 -20 0
21 26 4 23 18 -27 0
21 26 4 23 18 -22 0
21 26 4 23 18 -24 0
21 26 4 23 18 -19 0
21 26 49 23 18 -100 0
21 26 49 23 18 -104 0
21 26 49 23 18 -101 0
21 26 49 23 18 -105 0
21 26 49 23 18 -103 0
21 26 49 23 18 -102 0
21 26 37 23 18 -90 0
21 26 37 23 18 -93 0
21 26 37 23 18 -88 0
21 26 37 23 18 -89 0
21 26 37 23 18 -92 0
21 26 37 23 18 -91 0
21 26 39 23 18 -99 0
21 26 39 23 18 -96 0
21 26 39 23 18 -98 0
21 26 39 23 18 -97 0
21 26 39 23 18 -95 0
21 26 39 23 18 -94 0
21 26 9 23 18 -63 0
21 26 9 23 18 -61 0
21 26 9 23 18 -64 0
21 26 9 23 18 -66 0
21 26 9 23 18 -62 0
21 26 9 23 18 -65 0
21 26 23 1 18 -25 0
21 26 23 1 18 -20 0
21 26 23 1 18 -27 0
21 26 23 1 18 -22 0
21 26 23 1 18 -24 0
21 26 23 1 18 -19 0
21 26 23 50 18 -100 0
21 26 23 50 18 -104 0
21 26 23 50 18 -101 0
21 26 23 50 18 -105 0
21 26 23 50 18 -103 0
21 26 23 50 18 -102 0
21 26 23 30 18 -90 0
21 26 23 30 18 -93 0
21 26 23 30 18 -88 0
21 26 23 30 18 -89 0
21 26 23 30 18 -92 0
21 26 23 30 18 -91 0
21 26 23 38 18 -99 0
21 26 23 38 18 -96 0
21 26 23 38 18 -98 0
21 26 23 38 18 -97 0
21 26 23 38 18 -95 0
21 26 23 38 18 -94 0
21 26 23 14 18 -63 0
21 26 23 14 18 -61 0
21 26 23 14 18 -64 0
21 26 23 14 18 -66 0
21 26 23 14 18 -62 0
21 26 23 14 18 -65 0
21 26 23 18 5 -25 0
21 26 23 18 5 -20 0
21 26 23 18 5 -27 0
21 26 23 18 5 -22 0
21 26 23 18 5 -24 0
21 26 23 18 5 -19 0
21 26 23 18 53 -100 0
21 26 23 18 53 -104 0
21 26 23 18 53 -101 0
21 26 23 18 53 -105 0
21 26 23 18 53 -103 0
21 26 23 18 53 -102 0
6 52 4 1 5 -57 0
6 52 4 1 5 -54 0
6 52 4 1 5 -48 0
6 52 4 1 5 -56 0
6 52 4 1 5 -55 0
6 52 4 1 5 -51 0
6 52 49 50 53 -57 0
6 52 49 50 53 -54 0
6 52 49 50 53 -48 0
6 52 49 50 53 -56 0
6 52 49 50 53 -55 0
6 52 49 50 53 -51 0
6 28 4 1 5 -33 0
6 28 4 1 5 -32 0
6 28 4 1 5 -34 0
6 28 4 1 5 -35 0
6 28 4 1 5 -36 0
6 28 4 1 5 -31 0
6 43 4 1 5 -42 0
6 43 4 1 5 -45 0
6 43 4 1 5 -47 0
6 43 4 1 5 -46 0
6 43 4 1 5 -41 0
6 43 4 1 5 -40 0
6 17 4 1 5 -11 0
6 17 4 1 5 -12 0
6 17 4 1 5 -10 0
6 17 4 1 5 -13 0
6 17 4 1 5 -15 0
6 17 4 1 5 -16 0
6 26 4 1 5 -25 0
6 26 4 1 5 -20 0
6 26 4 1 5 -27 0
6 26 4 1 5 -22 0
6 26 4 1 5 -24 0
6 26 4 1 5 -19 0
6 4 49 1 5 -57 0
6 4 49 1 5 -54 0
6 4 49 1 5 -48 0
6 4 49 1 5 -56 0
6 4 49 1 5 -55 0
6 4 49 1 5 -51 0
6 4 37 1 5 -33 0
6 4 37 1 5 -32 0
6 4 37 1 5 -34 0
6 4 37 1 5 -35 0
6 4 37 1 5 -36 0
6 4 37 1 5 -31 0
6 4 39 1 5 -42 0
6 4 39 1 5 -45 0
6 4 39 1 5 -47 0
6 4 39 1 5 -46 0
6 4 39 1 5 -41 0
6 4 39 1 5 -40 0
6 4 9 1 5 -11 0
6 4 9 1 5 -12 0
6 4 9 1 5 -10 0
6 4 9 1 5 -13 0
6 4 9 1 5 -15 0
6 4 9 1 5 -16 0
6 4 23 1 5 -25 0
6 4 23 1 5 -20 0
6 4 23 1 5 -27 0
6 4 23 1 5 -22 0
6 4 23 1 5 -24 0
6 4 23 1 5 -19 0
6 4 1 50 5 -57 0
6 4 1 50 5 -54 0
6 4 1 50 5 -48 0
6 4 1 50 5 -56 0
6 4 1 50 5 -55 0
6 4 1 50 5 -51 0
6 4 1 30 5 -33 0
6 4 1 30 5 -32 0
6 4 1 30 5 -34 0
6 4 1 30 5 -35 0
6 4 1 30 5 -36 0
6 4 1 30 5 -31 0
6 4 1 38 5 -42 0
6 4 1 38 5 -45 0
6 4 1 38 5 -47 0
6 4 1 38 5 -46 0
6 4 1 38 5 -41 0
6 4 1 38 5 -40 0
6 4 1 14 5 -11 0
6 4 1 14 5 -12 0
6 4 1 14 5 -10 0
6 4 1 14 5 -13 0
6 4 1 14 5 -15 0
6 4 1 14 5 -16 0
6 4 1 18 5 -25 0
6 4 1 18 5 -20 0
6 4 1 18 5 -27 0
6 4 1 18 5 -22 0
6 4 1 18 5 -24 0
6 4 1 18 5 -19 0
6 4 1 5 53 -57 0
6 4 1 5 53 -54 0
6 4 1 5 53 -48 0
6 4 1 5 53 -56 0
6 4 1 5 53 -55 0
6 4 1 5 53 -51 0
52 28 49 50 53 -115 0
52 28 49 50 53 -117 0
52 28 49 50 53 -120 0
52 28 49 50 53 -119 0
52 28 49 50 53 -118 0
52 28 49 50 53 -116 0
52 43 49 50 53 -129 0
52 43 49 50 53 -125 0
52 43 49 50 53 -124 0
52 43 49 50 53 -126 0
52 43 49 50 53 -127 0
52 43 49 50 53 -128 0
52 17 49 50 53 -83 0
52 17 49 50 53 -84 0
52 17 49 50 53 -82 0
52 17 49 50 53 -81 0
52 17 49 50 53 -80 0
52 17 49 50 53 -79 0
52 26 49 50 53 -100 0
52 26 49 50 53 -104 0
52 26 49 50 53 -101 0
52 26 49 50 53 -105 0
52 26 49 50 53 -103 0
52 26 49 50 53 -102 0
52 4 49 50 53 -57 0
52 4 49 50 53 -54 0
52 4 49 50 53 -48 0
52 4 49 50 53 -56 0
52 4 49 50 53 -55 0
52 4 49 50 53 -51 0
52 49 37 50 53 -115 0
52 49 37 50 53 -117 0
52 49 37 50 53 -120 0
52 49 37 50 53 -119 0
52 49 37 50 53 -118 0
52 49 37 50 53 -116 0
52 49 39 50 53 -129 0
52 49 39 50 53 -125 0
52 49 39 50 53 -124 0
52 49 39 50 53 -126 0
52 49 39 50 53 -127 0
52 49 39 50 53 -128 0
52 49 9 50 53 -83 0
52 49 9 50 53 -84 0
52 49 9 50 53 -82 0
52 49 9 50 53 -81 0
52 49 9 50 53 -80 0
52 49 9 50 53 -79 0
52 49 23 50 53 -100 0
52 49 23 50 53 -104 0
52 49 23 50 53 -101 0
52 49 23 50 53 -105 0
52 49 23 50 53 -103 0
52 49 23 50 53 -102 0
52 49 1 50 53 -57 0
52 49 1 50 53 -54 0
52 49 1 50 53 -48 0
52 49 1 50 53 -56 0
52 49 1 50 53 -55 0
52 49 1 50 53 -51 0
52 49 50 30 53 -115 0
52 49 50 30 53 -117 0
52 49 50 30 53 -120 0
52 49 50 30 53 -119 0
52 49 50 30 53 -118 0
52 49 50 30 53 -116 0
52 49 50 38 53 -129 0
52 49 50 38 53 -125 0
52 49 50 38 53 -124 0
52 49 50 38 53 -126 0
52 49 50 38 53 -127 0
52 49 50 38 53 -128 0
52 49 50 14 53 -83 0
52 49 50 14 53 -84 0
52 49 50 14 53 -82 0
52 49 50 14 53 -81 0
52 49 50 14 53 -80 0
52 49 50 14 53 -79 0
52 49 50 18 53 -100 0
52 49 50 18 53 -104 0
52 49 50 18 53 -101 0
52 49 50 18 53 -105 0
52 49 50 18 53 -103 0
52 49 50 18 53 -102 0
52 49 50 5 53 -57 0
52 49 50 5 53 -54 0
52 49 50 5 53 -48 0
52 49 50 5 53 -56 0
52 49 50 5 53 -55 0
52 49 50 5 53 -51 0
29 44 28 43 37 39 -110 0
29 44 28 43 37 39 -113 0
29 44 28 43 37 39 -111 0
29 44 28 43 37 39 -112 0
29 44 28 43 37 39 -114 0
29 44 28 43 37 39 -109 0
29 44 28 43 37 30 -110 0
29 44 28 43 37 30 -113 0
29 44 28 43 37 30 -111 0
29 44 28 43 37 30 -112 0
29 44 28 43 37 30 -114 0
29 44 28 43 37 30 -109 0
29 44 28 43 39 38 -110 0
29 44 28 43 39 38 -113 0
29 44 28 43 39 38 -111 0
29 44 28 43 39 38 -112 0
29 44 28 43 39 38 -114 0
29 44 28 43 39 38 -109 0
29 44 28 43 30 38 -110 0
29 44 28 43 30 38 -113 0
29 44 28 43 30 38 -111 0
29 44 28 43 30 38 -112 0
29 44 28 43 30 38 -114 0
29 44 28 43 30 38 -109 0
29 44 28 37 39 30 -110 0
29 44 28 37 39 30 -113 0
29 44 28 37 39 30 -111 0
29 44 28 37 39 30 -112 0
29 44 28 37 39 30 -114 0
29 44 28 37 39 30 -109 0
29 44 28 37 30 38 -110 0
29 44 28 37 30 38 -113 0
29 44 28 37 30 38 -111 0
29 44 28 37 30 38 -112 0
29 44 28 37 30 38 -114 0
29 44 28 37 30 38 -109 0
29 44 43 37 39 38 -110 0
29 44 43 37 39 38 -113 0
29 44 43 37 39 38 -111 0
29 44 43 37 39 38 -112 0
29 44 43 37 39 38 -114 0
29 44 43 37 39 38 -109 0
29 44 43 39 30 38 -110 0
29 44 43 39 30 38 -113 0
29 44 43 39 30 38 -111 0
29 44 43 39 30 38 -112 0
29 44 43 39 30 38 -114 0
29 44 43 39 30 38 -109 0
29 44 37 39 30 38 -110 0
29 44 37 39 30 38 -113 0
29 44 37 39 30 38 -111 0
29 44 37 39 30 38 -112 0
29 44 37 39 30 38 -114 0
29 44 37 39 30 38 -109 0
29 8 28 17 37 9 -69 0
29 8 28 17 37 9 -70 0
29 8 28 17 37 9 -67 0
29 8 28 17 37 9 -71 0
29 8 28 17 37 9 -72 0
29 8 28 17 37 9 -68 0
29 8 28 17 37 30 -69 0
29 8 28 17 37 30 -70 0
29 8 28 17 37 30 -67 0
29 8 28 17 37 30 -71 0
29 8 28 17 37 30 -72 0
29 8 28 17 37 30 -68 0
29 8 28 17 9 14 -69 0
29 8 28 17 9 14 -70 0
29 8 28 17 9 14 -67 0
29 8 28 17 9 14 -71 0
29 8 28 17 9 14 -72 0
29 8 28 17 9 14 -68 0
29 8 28 17 30 14 -69 0
29 8 28 17 30 14 -70 0
29 8 28 17 30 14 -67 0
29 8 28 17 30 14 -71 0
29 8 28 17 30 14 -72 0
29 8 28 17 30 14 -68 0
29 8 28 37 9 30 -69 0
29 8 28 37 9 30 -70 0
29 8 28 37 9 30 -67 0
29 8 28 37 9 30 -71 0
29 8 28 37 9 30 -72 0
29 8 28 37 9 30 -68 0
29 8 28 37 30 14 -69 0
29 8 28 37 30 14 -70 0
29 8 28 37 30 14 -67 0
29 8 28 37 30 14 -71 0
29 8 28 37 30 14 -72 0
29 8 28 37 30 14 -68 0
29 8 17 37 9 14 -69 0
29 8 17 37 9 14 -70 0
29 8 17 37 9 14 -67 0
29 8 17 37 9 14 -71 0
29 8 17 37 9 14 -72 0
29 8 17 37 9 14 -68 0
29 8 17 9 30 14 -69 0
29 8 17 9 30 14 -70 0
29 8 17 9 30 14 -67 0
29 8 17 9 30 14 -71 0
29 8 17 9 30 14 -72 0
29 8 17 9 30 14 -68 0
29 8 37 9 30 14 -69 0
29 8 37 9 30 14 -70 0
29 8 37 9 30 14 -67 0
29 8 37 9 30 14 -71 0
29 8 37 9 30 14 -72 0
29 8 37 9 30 14 -68 0
29 21 28 26 37 23 -90 0
29 21 28 26 37 23 -93 0
29 21 28 26 37 23 -88 0
29 21 28 26 37 23 -89 0
29 21 28 26 37 23 -92 0
29 21 28 26 37 23 -91 0
29 21 28 26 37 30 -90 0
29 21 28 26 37 30 -93 0
29 21 28 26 37 30 -88 0
29 21 28 26 37 30 -89 0
29 21 28 26 37 30 -92 0
29 21 28 26 37 30 -91 0
29 21 28 26 23 18 -90 0
29 21 28 26 23 18 -93 0
29 21 28 26 23 18 -88 0
29 21 28 26 23 18 -89 0
29 21 28 26 23 18 -92 0
29 21 28 26 23 18 -91 0
29 21 28 26 30 18 -90 0
29 21 28 26 30 18 -93 0
29 21 28 26 30 18 -88 0
29 21 28 26 30 18 -89 0
29 21 28 26 30 18 -92 0
29 21 28 26 30 18 -91 0
29 21 28 37 23 30 -90 0
29 21 28 37 23 30 -93 0
29 21 28 37 23 30 -88 0
29 21 28 37 23 30 -89 0
29 21 28 37 23 30 -92 0
29 21 28 37 23 30 -91 0
29 21 28 37 30 18 -90 0
29 21 28 37 30 18 -93 0
29 21 28 37 30 18 -88 0
29 21 28 37 30 18 -89 0
29 21 28 37 30 18 -92 0
29 21 28 37 30 18 -91 0
29 21 26 37 23 18 -90 0
29 21 26 37 23 18 -93 0
29 21 26 37 23 18 -88 0
29 21 26 37 23 18 -89 0
29 21 26 37 23 18 -92 0
29 21 26 37 23 18 -91 0
29 21 26 23 30 18 -90 0
29 21 26 23 30 18 -93 0
29 21 26 23 30 18 -88 0
29 21 26 23 30 18 -89 0
29 21 26 23 30 18 -92 0
29 21 26 23 30 18 -91 0
29 21 37 23 30 18 -90 0
29 21 37 23 30 18 -93 0
29 21 37 23 30 18 -88 0
29 21 37 23 30 18 -89 0
29 21 37 23 30 18 -92 0
29 21 37 23 30 18 -91 0
29 6 28 4 37 1 -33 0
29 6 28 4 37 1 -32 0
29 6 28 4 37 1 -34 0
29 6 28 4 37 1 -35 0
29 6 28 4 37 1 -36 0
29 6 28 4 37 1 -31 0
29 6 28 4 37 30 -33 0
29 6 28 4 37 30 -32 0
29 6 28 4 37 30 -34 0
29 6 28 4 37 30 -35 0
29 6 28 4 37 30 -36 0
29 6 28 4 37 30 -31 0
29 6 28 4 1 5 -33 0
29 6 28 4 1 5 -32 0
29 6 28 4 1 5 -34 0
29 6 28 4 1 5 -35 0
29 6 28 4 1 5 -36 0
29 6 28 4 1 5 -31 0
29 6 28 4 30 5 -33 0
29 6 28 4 30 5 -32 0
29 6 28 4 30 5 -34 0
29 6 28 4 30 5 -35 0
29 6 28 4 30 5 -36 0
29 6 28 4 30 5 -31 0
29 6 28 37 1 30 -33 0
29 6 28 37 1 30 -32 0
29 6 28 37 1 30 -34 0
29 6 28 37 1 30 -35 0
29 6 28 37 1 30 -36 0
29 6 28 37 1 30 -31 0
29 6 28 37 30 5 -33 0
29 6 28 37 30 5 -32 0
29 6 28 37 30 5 -34 0
29 6 28 37 30 5 -35 0
29 6 28 37 30 5 -36 0
29 6 28 37 30 5 -31 0
29 6 4 37 1 5 -33 0
29 6 4 37 1 5 -32 0
29 6 4 37 1 5 -34 0
29 6 4 37 1 5 -35 0
29 6 4 37 1 5 -36 0
29 6 4 37 1 5 -31 0
29 6 4 1 30 5 -33 0
29 6 4 1 30 5 -32 0
29 6 4 1 30 5 -34 0
29 6 4 1 30 5 -35 0
29 6 4 1 30 5 -36 0
29 6 4 1 30 5 -31 0
29 6 37 1 30 5 -33 0
29 6 37 1 30 5 -32 0
29 6 37 1 30 5 -34 0
29 6 37 1 30 5 -35 0
29 6 37 1 30 5 -36 0
29 6 37 1 30 5 -31 0
29 52 28 49 37 50 -115 0
29 52 28 49 37 50 -117 0
29 52 28 49 37 50 -120 0
29 52 28 49 37 50 -119 0
29 52 28 49 37 50 -118 0
29 52 28 49 37 50 -116 0
29 52 28 49 37 30 -115 0
29 52 28 49 37 30 -117 0
29 52 28 49 37 30 -120 0
29 52 28 49 37 30 -119 0
29 52 28 49 37 30 -118 0
29 52 28 49 37 30 -116 0
29 52 28 49 50 53 -115 0
29 52 28 49 50 53 -117 0
29 52 28 49 50 53 -120 0
29 52 28 49 50 53 -119 0
29 52 28 49 50 53 -118 0
29 52 28 49 50 53 -116 0
29 52 28 49 30 53 -115 0
29 52 28 49 30 53 -117 0
29 52 28 49 30 53 -120 0
29 52 28 49 30 53 -119 0
29 52 28 49 30 53 -118 0
29 52 28 49 30 53 -116 0
29 52 28 37 50 30 -115 0
29 52 28 37 50 30 -117 0
29 52 28 37 50 30 -120 0
29 52 28 37 50 30 -119 0
29 52 28 37 50 30 -118 0
29 52 28 37 50 30 -116 0
29 52 28 37 30 53 -115 0
29 52 28 37 30 53 -117 0
29 52 28 37 30 53 -120 0
29 52 28 37 30 53 -119 0
29 52 28 37 30 53 -118 0
29 52 28 37 30 53 -116 0
29 52 49 37 50 53 -115 0
29 52 49 37 50 53 -117 0
29 52 49 37 50 53 -120 0
29 52 49 37 50 53 -119 0
29 52 49 37 50 53 -118 0
29 52 49 37 50 53 -116 0
29 52 49 50 30 53 -115 0
29 52 49 50 30 53 -117 0
29 52 49 50 30 53 -120 0
29 52 49 50 30 53 -119 0
29 52 49 50 30 53 -118 0
29 52 49 50 30 53 -116 0
29 52 37 50 30 53 -115 0
29 52 37 50 30 53 -117 0
29 52 37 50 30 53 -120 0
29 52 37 50 30 53 -119 0
29 52 37 50 30 53 -118 0
29 52 37 50 30 53 -116 0
29 28 43 37 39 30 -110 0
29 28 43 37 39 30 -113 0
29 28 43 37 39 30 -111 0
29 28 43 37 39 30 -112 0
29 28 43 37 39 30 -114 0
29 28 43 37 39 30 -109 0
29 28 43 37 30 38 -110 0
29 28 43 37 30 38 -113 0
29 28 43 37 30 38 -111 0
29 28 43 37 30 38 -112 0
29 28 43 37 30 38 -114 0
29 28 43 37 30 38 -109 0
29 28 17 37 9 30 -69 0
29 28 17 37 9 30 -70 0
29 28 17 37 9 30 -67 0
29 28 17 37 9 30 -71 0
29 28 17 37 9 30 -72 0
29 28 17 37 9 30 -68 0
29 28 17 37 30 14 -69 0
29 28 17 37 30 14 -70 0
29 28 17 37 30 14 -67 0
29 28 17 37 30 14 -71 0
29 28 17 37 30 14 -72 0
29 28 17 37 30 14 -68 0
29 28 26 37 23 30 -90 0
29 28 26 37 23 30 -93 0
29 28 26 37 23 30 -88 0
29 28 26 37 23 30 -89 0
29 28 26 37 23 30 -92 0
29 28 26 37 23 30 -91 0
29 28 26 37 30 18 -90 0
29 28 26 37 30 18 -93 0
29 28 26 37 30 18 -88 0
29 28 26 37 30 18 -89 0
29 28 26 37 30 18 -92 0
29 28 26 37 30 18 -91 0
29 28 4 37 1 30 -33 0
29 28 4 37 1 30 -32 0
29 28 4 37 1 30 -34 0
29 28 4 37 1 30 -35 0
29 28 4 37 1 30 -36 0
29 28 4 37 1 30 -31 0
29 28 4 37 30 5 -33 0
29 28 4 37 30 5 -32 0
29 28 4 37 30 5 -34 0
29 28 4 37 30 5 -35 0
29 28 4 37 30 5 -36 0
29 28 4 37 30 5 -31 0
29 28 49 37 50 30 -115 0
29 28 49 37 50 30 -117 0
29 28 49 37 50 30 -120 0
29 28 49 37 50 30 -119 0
29 28 49 37 50 30 -118 0
29 28 49 37 50 30 -116 0
29 28 49 37 30 53 -115 0
29 28 49 37 30 53 -117 0
29 28 49 37 30 53 -120 0
29 28 49 37 30 53 -119 0
29 28 49 37 30 53 -118 0
29 28 49 37 30 53 -116 0
29 28 37 39 30 38 -110 0
29 28 37 39 30 38 -113 0
29 28 37 39 30 38 -111 0
29 28 37 39 30 38 -112 0
29 28 37 39 30 38 -114 0
29 28 37 39 30 38 -109 0
29 28 37 9 30 14 -69 0
29 28 37 9 30 14 -70 0
29 28 37 9 30 14 -67 0
29 28 37 9 30 14 -71 0
29 28 37 9 30 14 -72 0
29 28 37 9 30 14 -68 0
29 28 37 23 30 18 -90 0
29 28 37 23 30 18 -93 0
29 28 37 23 30 18 -88 0
29 28 37 23 30 18 -89 0
29 28 37 23 30 18 -92 0
29 28 37 23 30 18 -91 0
29 28 37 1 30 5 -33 0
29 28 37 1 30 5 -32 0
29 28 37 1 30 5 -34 0
29 28 37 1 30 5 -35 0
29 28 37 1 30 5 -36 0
29 28 37 1 30 5 -31 0
29 28 37 50 30 53 -115 0
29 28 37 50 30 53 -117 0
29 28 37 50 30 53 -120 0
29 28 37 50 30 53 -119 0
29 28 37 50 30 53 -118 0
29 28 37 50 30 53 -116 0
44 8 43 17 39 9 -73 0
44 8 43 17 39 9 -77 0
44 8 43 17 39 9 -75 0
44 8 43 17 39 9 -78 0
44 8 43 17 39 9 -74 0
44 8 43 17 39 9 -76 0
44 8 43 17 39 38 -73 0
44 8 43 17 39 38 -77 0
44 8 43 17 39 38 -75 0
44 8 43 17 39 38 -78 0
44 8 43 17 39 38 -74 0
44 8 43 17 39 38 -76 0
44 8 43 17 9 14 -73 0
44 8 43 17 9 14 -77 0
44 8 43 17 9 14 -75 0
44 8 43 17 9 14 -78 0
44 8 43 17 9 14 -74 0
44 8 43 17 9 14 -76 0
44 8 43 17 38 14 -73 0
44 8 43 17 38 14 -77 0
44 8 43 17 38 14 -75 0
44 8 43 17 38 14 -78 0
44 8 43 17 38 14 -74 0
44 8 43 17 38 14 -76 0
44 8 43 39 9 38 -73 0
44 8 43 39 9 38 -77 0
44 8 43 39 9 38 -75 0
44 8 43 39 9 38 -78 0
44 8 43 39 9 38 -74 0
44 8 43 39 9 38 -76 0
44 8 43 39 38 14 -73 0
44 8 43 39 38 14 -77 0
44 8 43 39 38 14 -75 0
44 8 43 39 38 14 -78 0
44 8 43 39 38 14 -74 0
44 8 43 39 38 14 -76 0
44 8 17 39 9 14 -73 0
44 8 17 39 9 14 -77 0
44 8 17 39 9 14 -75 0
44 8 17 39 9 14 -78 0
44 8 17 39 9 14 -74 0
44 8 17 39 9 14 -76 0
44 8 17 9 38 14 -73 0
44 8 17 9 38 14 -77 0
44 8 17 9 38 14 -75 0
44 8 17 9 38 14 -78 0
44 8 17 9 38 14 -74 0
44 8 17 9 38 14 -76 0
44 8 39 9 38 14 -73 0
44 8 39 9 38 14 -77 0
44 8 39 9 38 14 -75 0
44 8 39 9 38 14 -78 0
44 8 39 9 38 14 -74 0
44 8 39 9 38 14 -76 0
44 21 43 26 39 23 -99 0
44 21 43 26 39 23 -96 0
44 21 43 26 39 23 -98 0
44 21 43 26 39 23 -97 0
44 21 43 26 39 23 -95 0
44 21 43 26 39 23 -94 0
44 21 43 26 39 38 -99 0
44 21 43 26 39 38 -96 0
44 21 43 26 39 38 -98 0
44 21 43 26 39 38 -97 0
44 21 43 26 39 38 -95 0
44 21 43 26 39 38 -94 0
44 21 43 26 23 18 -99 0
44 21 43 26 23 18 -96 0
44 21 43 26 23 18 -98 0
44 21 43 26 23 18 -97 0
44 21 43 26 23 18 -95 0
44 21 43 26 23 18 -94 0
44 21 43 26 38 18 -99 0
44 21 43 26 38 18 -96 0
44 21 43 26 38 18 -98 0
44 21 43 26 38 18 -97 0
44 21 43 26 38 18 -95 0
44 21 43 26 38 18 -94 0
44 21 43 39 23 38 -99 0
44 21 43 39 23 38 -96 0
44 21 43 39 23 38 -98 0
44 21 43 39 23 38 -97 0
44 21 43 39 23 38 -95 0
44 21 43 39 23 38 -94 0
44 21 43 39 38 18 -99 0
44 21 43 39 38 18 -96 0
44 21 43 39 38 18 -98 0
44 21 43 39 38 18 -97 0
44 21 43 39 38 18 -95 0
44 21 43 39 38 18 -94 0
44 21 26 39 23 18 -99 0
44 21 26 39 23 18 -96 0
44 21 26 39 23 18 -98 0
44 21 26 39 23 18 -97 0
44 21 26 39 23 18 -95 0
44 21 26 39 23 18 -94 0
44 21 26 23 38 18 -99 0
44 21 26 23 38 18 -96 0
44 21 26 23 38 18 -98 0
44 21 26 23 38 18 -97 0
44 21 26 23 38 18 -95 0
44 21 26 23 38 18 -94 0
44 21 39 23 38 18 -99 0
44 21 39 23 38 18 -96 0
44 21 39 23 38 18 -98 0
44 21 39 23 38 18 -97 0
44 21 39 23 38 18 -95 0
44 21 39 23 38 18 -94 0
44 6 43 4 39 1 -42 0
44 6 43 4 39 1 -45 0
44 6 43 4 39 1 -47 0
44 6 43 4 39 1 -46 0
44 6 43 4 39 1 -41 0
44 6 43 4 39 1 -40 0
44 6 43 4 39 38 -42 0
44 6 43 4 39 38 -45 0
44 6 43 4 39 38 -47 0
44 6 43 4 39 38 -46 0
44 6 43 4 39 38 -41 0
44 6 43 4 39 38 -40 0
44 6 43 4 1 5 -42 0
44 6 43 4 1 5 -45 0
44 6 43 4 1 5 -47 0
44 6 43 4 1 5 -46 0
44 6 43 4 1 5 -41 0
44 6 43 4 1 5 -40 0
44 6 43 4 38 5 -42 0
44 6 43 4 38 5 -45 0
44 6 43 4 38 5 -47 0
44 6 43 4 38 5 -46 0
44 6 43 4 38 5 -41 0
44 6 43 4 38 5 -40 0
44 6 43 39 1 38 -42 0
44 6 43 39 1 38 -45 0
44 6 43 39 1 38 -47 0
44 6 43 39 1 38 -46 0
44 6 43 39 1 38 -41 0
44 6 43 39 1 38 -40 0
44 6 43 39 38 5 -42 0
44 6 43 39 38 5 -45 0
44 6 43 39 38 5 -47 0
44 6 43 39 38 5 -46 0
44 6 43 39 38 5 -41 0
44 6 43 39 38 5 -40 0
44 6 4 39 1 5 -42 0
44 6 4 39 1 5 -45 0
44 6 4 39 1 5 -47 0
44 6 4 39 1 5 -46 0
44 6 4 39 1 5 -41 0
44 6 4 39 1 5 -40 0
44 6 4 1 38 5 -42 0
44 6 4 1 38 5 -45 0
44 6 4 1 38 5 -47 0
44 6 4 1 38 5 -46 0
44 6 4 1 38 5 -41 0
44 6 4 1 38 5 -40 0
44 6 39 1 38 5 -42 0
44 6 39 1 38 5 -45 0
44 6 39 1 38 5 -47 0
44 6 39 1 38 5 -46 0
44 6 39 1 38 5 -41 0
44 6 39 1 38 5 -40 0
44 52 43 49 39 50 -129 0
44 52 43 49 39 50 -125 0
44 52 43 49 39 50 -124 0
44 52 43 49 39 50 -126 0
44 52 43 49 39 50 -127 0
44 52 43 49 39 50 -128 0
44 52 43 49 39 38 -129 0
44 52 43 49 39 38 -125 0
44 52 43 49 39 38 -124 0
44 52 43 49 39 38 -126 0
44 52 43 49 39 38 -127 0
44 52 43 49 39 38 -128 0
44 52 43 49 50 53 -129 0
44 52 43 49 50 53 -125 0
44 52 43 49 50 53 -124 0
44 52 43 49 50 53 -126 0
44 52 43 49 50 53 -127 0
44 52 43 49 50 53 -128 0
44 52 43 49 38 53 -129 0
44 52 43 49 38 53 -125 0
44 52 43 49 38 53 -124 0
44 52 43 49 38 53 -126 0
44 52 43 49 38 53 -127 0
44 52 43 49 38 53 -128 0
44 52 43 39 50 38 -129 0
44 52 43 39 50 38 -125 0
44 52 43 39 50 38 -124 0
44 52 43 39 50 38 -126 0
44 52 43 39 50 38 -127 0
44 52 43 39 50 38 -128 0
44 52 43 39 38 53 -129 0
44 52 43 39 38 53 -125 0
44 52 43 39 38 53 -124 0
44 52 43 39 38 53 -126 0
44 52 43 39 38 53 -127 0
44 52 43 39 38 53 -128 0
44 52 49 39 50 53 -129 0
44 52 49 39 50 53 -125 0
44 52 49 39 50 53 -124 0
44 52 49 39 50 53 -126 0
44 52 49 39 50 53 -127 0
44 52 49 39 50 53 -128 0
44 52 49 50 38 53 -129 0
44 52 49 50 38 53 -125 0
44 52 49 50 38 53 -124 0
44 52 49 50 38 53 -126 0
44 52 49 50 38 53 -127 0
44 52 49 50 38 53 -128 0
44 52 39 50 38 53 -129 0
44 52 39 50 38 53 -125 0
44 52 39 50 38 53 -124 0
44 52 39 50 38 53 -126 0
44 52 39 50 38 53 -127 0
44 52 39 50 38 53 -128 0
44 28 43 37 39 38 -110 0
44 28 43 37 39 38 -113 0
44 28 43 37 39 38 -111 0
44 28 43 37 39 38 -112 0
44 28 43 37 39 38 -114 0
44 28 43 37 39 38 -109 0
44 28 43 39 30 38 -110 0
44 28 43 39 30 38 -113 0
44 28 43 39 30 38 -111 0
44 28 43 39 30 38 -112 0
44 28 43 39 30 38 -114 0
44 28 43 39 30 38 -109 0
44 43 17 39 9 38 -73 0
44 43 17 39 9 38 -77 0
44 43 17 39 9 38 -75 0
44 43 17 39 9 38 -78 0
44 43 17 39 9 38 -74 0
44 43 17 39 9 38 -76 0
44 43 17 39 38 14 -73 0
44 43 17 39 38 14 -77 0
44 43 17 39 38 14 -75 0
44 43 17 39 38 14 -78 0
44 43 17 39 38 14 -74 0
44 43 17 39 38 14 -76 0
44 43 26 39 23 38 -99 0
44 43 26 39 23 38 -96 0
44 43 26 39 23 38 -98 0
44 43 26 39 23 38 -97 0
44 43 26 39 23 38 -95 0
44 43 26 39 23 38 -94 0
44 43 26 39 38 18 -99 0
44 43 26 39 38 18 -96 0
44 43 26 39 38 18 -98 0
44 43 26 39 38 18 -97 0
44 43 26 39 38 18 -95 0
44 43 26 39 38 18 -94 0
44 43 4 39 1 38 -42 0
44 43 4 39 1 38 -45 0
44 43 4 39 1 38 -47 0
44 43 4 39 1 38 -46 0
44 43 4 39 1 38 -41 0
44 43 4 39 1 38 -40 0
44 43 4 39 38 5 -42 0
44 43 4 39 38 5 -45 0
44 43 4 39 38 5 -47 0
44 43 4 39 38 5 -46 0
44 43 4 39 38 5 -41 0
44 43 4 39 38 5 -40 0
44 43 49 39 50 38 -129 0
44 43 49 39 50 38 -125 0
44 43 49 39 50 38 -124 0
44 43 49 39 50 38 -126 0
44 43 49 39 50 38 -127 0
44 43 49 39 50 38 -128 0
44 43 49 39 38 53 -129 0
44 43 49 39 38 53 -125 0
44 43 49 39 38 53 -124 0
44 43 49 39 38 53 -126 0
44 43 49 39 38 53 -127 0
44 43 49 39 38 53 -128 0
44 43 37 39 30 38 -110 0
44 43 37 39 30 38 -113 0
44 43 37 39 30 38 -111 0
44 43 37 39 30 38 -112 0
44 43 37 39 30 38 -114 0
44 43 37 39 30 38 -109 0
44 43 39 9 38 14 -73 0
44 43 39 9 38 14 -77 0
44 43 39 9 38 14 -75 0
44 43 39 9 38 14 -78 0
44 43 39 9 38 14 -74 0
44 43 39 9 38 14 -76 0
44 43 39 23 38 18 -99 0
44 43 39 23 38 18 -96 0
44 43 39 23 38 18 -98 0
44 43 39 23 38 18 -97 0
44 43 39 23 38 18 -95 0
44 43 39 23 38 18 -94 0
44 43 39 1 38 5 -42 0
44 43 39 1 38 5 -45 0
44 43 39 1 38 5 -47 0
44 43 39 1 38 5 -46 0
44 43 39 1 38 5 -41 0
44 43 39 1 38 5 -40 0
44 43 39 50 38 53 -129 0
44 43 39 50 38 53 -125 0
44 43 39 50 38 53 -124 0
44 43 39 50 38 53 -126 0
44 43 39 50 38 53 -127 0
44 43 39 50 38 53 -128 0
8 21 17 26 9 23 -63 0
8 21 17 26 9 23 -61 0
8 21 17 26 9 23 -64 0
8 21 17 26 9 23 -66 0
8 21 17 26 9 23 -62 0
8 21 17 26 9 23 -65 0
8 21 17 26 9 14 -63 0
8 21 17 26 9 14 -61 0
8 21 17 26 9 14 -64 0
8 21 17 26 9 14 -66 0
8 21 17 26 9 14 -62 0
8 21 17 26 9 14 -65 0
8 21 17 26 23 18 -63 0
8 21 17 26 23 18 -61 0
8 21 17 26 23 18 -64 0
8 21 17 26 23 18 -66 0
8 21 17 26 23 18 -62 0
8 21 17 26 23 18 -65 0
8 21 17 26 14 18 -63 0
8 21 17 26 14 18 -61 0
8 21 17 26 14 18 -64 0
8 21 17 26 14 18 -66 0
8 21 17 26 14 18 -62 0
8 21 17 26 14 18 -65 0
8 21 17 9 23 14 -63 0
8 21 17 9 23 14 -61 0
8 21 17 9 23 14 -64 0
8 21 17 9 23 14 -66 0
8 21 17 9 23 14 -62 0
8 21 17 9 23 14 -65 0
8 21 17 9 14 18 -63 0
8 21 17 9 14 18 -61 0
8 21 17 9 14 18 -64 0
8 21 17 9 14 18 -66 0
8 21 17 9 14 18 -62 0
8 21 17 9 14 18 -65 0
8 21 26 9 23 18 -63 0
8 21 26 9 23 18 -61 0
8 21 26 9 23 18 -64 0
8 21 26 9 23 18 -66 0
8 21 26 9 23 18 -62 0
8 21 26 9 23 18 -65 0
8 21 26 23 14 18 -63 0
8 21 26 23 14 18 -61 0
8 21 26 23 14 18 -64 0
8 21 26 23 14 18 -66 0
8 21 26 23 14 18 -62 0
8 21 26 23 14 18 -65 0
8 21 9 23 14 18 -63 0
8 21 9 23 14 18 -61 0
8 21 9 23 14 18 -64 0
8 21 9 23 14 18 -66 0
8 21 9 23 14 18 -62 0
8 21 9 23 14 18 -65 0
8 6 17 4 9 1 -11 0
8 6 17 4 9 1 -12 0
8 6 17 4 9 1 -10 0
8 6 17 4 9 1 -13 0
8 6 17 4 9 1 -15 0
8 6 17 4 9 1 -16 0
8 6 17 4 9 14 -11 0
8 6 17 4 9 14 -12 0
8 6 17 4 9 14 -10 0
8 6 17 4 9 14 -13 0
8 6 17 4 9 14 -15 0
8 6 17 4 9 14 -16 0
8 6 17 4 1 5 -11 0
8 6 17 4 1 5 -12 0
8 6 17 4 1 5 -10 0
8 6 17 4 1 5 -13 0
8 6 17 4 1 5 -15 0
8 6 17 4 1 5 -16 0
8 6 17 4 14 5 -11 0
8 6 17 4 14 5 -12 0
8 6 17 4 14 5 -10 0
8 6 17 4 14 5 -13 0
8 6 17 4 14 5 -15 0
8 6 17 4 14 5 -16 0
8 6 17 9 1 14 -11 0
8 6 17 9 1 14 -12 0
8 6 17 9 1 14 -10 0
8 6 17 9 1 14 -13 0
8 6 17 9 1 14 -15 0
8 6 17 9 1 14 -16 0
8 6 17 9 14 5 -11 0
8 6 17 9 14 5 -12 0
8 6 17 9 14 5 -10 0
8 6 17 9 14 5 -13 0
8 6 17 9 14 5 -15 0
8 6 17 9 14 5 -16 0
8 6 4 9 1 5 -11 0
8 6 4 9 1 5 -12 0
8 6 4 9 1 5 -10 0
8 6 4 9 1 5 -13 0
8 6 4 9 1 5 -15 0
8 6 4 9 1 5 -16 0
8 6 4 1 14 5 -11 0
8 6 4 1 14 5 -12 0
8 6 4 1 14 5 -10 0
8 6 4 1 14 5 -13 0
8 6 4 1 14 5 -15 0
8 6 4 1 14 5 -16 0
8 6 9 1 14 5 -11 0
8 6 9 1 14 5 -12 0
8 6 9 1 14 5 -10 0
8 6 9 1 14 5 -13 0
8 6 9 1 14 5 -15 0
8 6 9 1 14 5 -16 0
8 52 17 49 9 50 -83 0
8 52 17 49 9 50 -84 0
8 52 17 49 9 50 -82 0
8 52 17 49 9 50 -81 0
8 52 17 49 9 50 -80 0
8 52 17 49 9 50 -79 0
8 52 17 49 9 14 -83 0
8 52 17 49 9 14 -84 0
8 52 17 49 9 14 -82 0
8 52 17 49 9 14 -81 0
8 52 17 49 9 14 -80 0
8 52 17 49 9 14 -79 0
8 52 17 49 50 53 -83 0
8 52 17 49 50 53 -84 0
8 52 17 49 50 53 -82 0
8 52 17 49 50 53 -81 0
8 52 17 49 50 53 -80 0
8 52 17 49 50 53 -79 0
8 52 17 49 14 53 -83 0
8 52 17 49 14 53 -84 0
8 52 17 49 14 53 -82 0
8 52 17 49 14 53 -81 0
8 52 17 49 14 53 -80 0
8 52 17 49 14 53 -79 0
8 52 17 9 50 14 -83 0
8 52 17 9 50 14 -84 0
8 52 17 9 50 14 -82 0
8 52 17 9 50 14 -81 0
8 52 17 9 50 14 -80 0
8 52 17 9 50 14 -79 0
8 52 17 9 14 53 -83 0
8 52 17 9 14 53 -84 0
8 52 17 9 14 53 -82 0
8 52 17 9 14 53 -81 0
8 52 17 9 14 53 -80 0
8 52 17 9 14 53 -79 0
8 52 49 9 50 53 -83 0
8 52 49 9 50 53 -84 0
8 52 49 9 50 53 -82 0
8 52 49 9 50 53 -81 0
8 52 49 9 50 53 -80 0
8 52 49 9 50 53 -79 0
8 52 49 50 14 53 -83 0
8 52 49 50 14 53 -84 0
8 52 49 50 14 53 -82 0
8 52 49 50 14 53 -81 0
8 52 49 50 14 53 -80 0
8 52 49 50 14 53 -79 0
8 52 9 50 14 53 -83 0
8 52 9 50 14 53 -84 0
8 52 9 50 14 53 -82 0
8 52 9 50 14 53 -81 0
8 52 9 50 14 53 -80 0
8 52 9 50 14 53 -79 0
8 28 17 37 9 14 -69 0
8 28 17 37 9 14 -70 0
8 28 17 37 9 14 -67 0
8 28 17 37 9 14 -71 0
8 28 17 37 9 14 -72 0
8 28 17 37 9 14 -68 0
8 28 17 9 30 14 -69 0
8 28 17 9 30 14 -70 0
8 28 17 9 30 14 -67 0
8 28 17 9 30 14 -71 0
8 28 17 9 30 14 -72 0
8 28 17 9 30 14 -68 0
8 43 17 39 9 14 -73 0
8 43 17 39 9 14 -77 0
8 43 17 39 9 14 -75 0
8 43 17 39 9 14 -78 0
8 43 17 39 9 14 -74 0
8 43 17 39 9 14 -76 0
8 43 17 9 38 14 -73 0
8 43 17 9 38 14 -77 0
8 43 17 9 38 14 -75 0
8 43 17 9 38 14 -78 0
8 43 17 9 38 14 -74 0
8 43 17 9 38 14 -76 0
8 17 26 9 23 14 -63 0
8 17 26 9 23 14 -61 0
8 17 26 9 23 14 -64 0
8 17 26 9 23 14 -66 0
8 17 26 9 23 14 -62 0
8 17 26 9 23 14 -65 0
8 17 26 9 14 18 -63 0
8 17 26 9 14 18 -61 0
8 17 26 9 14 18 -64 0
8 17 26 9 14 18 -66 0
8 17 26 9 14 18 -62 0
8 17 26 9 14 18 -65 0
8 17 4 9 1 14 -11 0
8 17 4 9 1 14 -12 0
8 17 4 9 1 14 -10 0
8 17 4 9 1 14 -13 0
8 17 4 9 1 14 -15 0
8 17 4 9 1 14 -16 0
8 17 4 9 14 5 -11 0
8 17 4 9 14 5 -12 0
8 17 4 9 14 5 -10 0
8 17 4 9 14 5 -13 0
8 17 4 9 14 5 -15 0
8 17 4 9 14 5 -16 0
8 17 49 9 50 14 -83 0
8 17 49 9 50 14 -84 0
8 17 49 9 50 14 -82 0
8 17 49 9 50 14 -81 0
8 17 49 9 50 14 -80 0
8 17 49 9 50 14 -79 0
8 17 49 9 14 53 -83 0
8 17 49 9 14 53 -84 0
8 17 49 9 14 53 -82 0
8 17 49 9 14 53 -81 0
8 17 49 9 14 53 -80 0
8 17 49 9 14 53 -79 0
8 17 37 9 30 14 -69 0
8 17 37 9 30 14 -70 0
8 17 37 9 30 14 -67 0
8 17 37 9 30 14 -71 0
8 17 37 9 30 14 -72 0
8 17 37 9 30 14 -68 0
8 17 39 9 38 14 -73 0
8 17 39 9 38 14 -77 0
8 17 39 9 38 14 -75 0
8 17 39 9 38 14 -78 0
8 17 39 9 38 14 -74 0
8 17 39 9 38 14 -76 0
8 17 9 23 14 18 -63 0
8 17 9 23 14 18 -61 0
8 17 9 23 14 18 -64 0
8 17 9 23 14 18 -66 0
8 17 9 23 14 18 -62 0
8 17 9 23 14 18 -65 0
8 17 9 1 14 5 -11 0
8 17 9 1 14 5 -12 0
8 17 9 1 14 5 -10 0
8 17 9 1 14 5 -13 0
8 17 9 1 14 5 -15 0
8 17 9 1 14 5 -16 0
8 17 9 50 14 53 -83 0
8 17 9 50 14 53 -84 0
8 17 9 50 14 53 -82 0
8 17 9 50 14 53 -81 0
8 17 9 50 14 53 -80 0
8 17 9 50 14 53 -79 0
21 6 26 4 23 1 -25 0
21 6 26 4 23 1 -20 0
21 6 26 4 23 1 -27 0
21 6 26 4 23 1 -22 0
21 6 26 4 23 1 -24 0
21 6 26 4 23 1 -19 0
21 6 26 4 23 18 -25 0
21 6 26 4 23 18 -20 0
21 6 26 4 23 18 -27 0
21 6 26 4 23 18 -22 0
21 6 26 4 23 18 -24 0
21 6 26 4 23 18 -19 0
21 6 26 4 1 5 -25 0
21 6 26 4 1 5 -20 0
21 6 26 4 1 5 -27 0
21 6 26 4 1 5 -22 0
21 6 26 4 1 5 -24 0
21 6 26 4 1 5 -19 0
21 6 26 4 18 5 -25 0
21 6 26 4 18 5 -20 0
21 6 26 4 18 5 -27 0
21 6 26 4 18 5 -22 0
21 6 26 4 18 5 -24 0
21 6 26 4 18 5 -19 0
21 6 26 23 1 18 -25 0
21 6 26 23 1 18 -20 0
21 6 26 23 1 18 -27 0
21 6 26 23 1 18 -22 0
21 6 26 23 1 18 -24 0
21 6 26 23 1 18 -19 0
21 6 26 23 18 5 -25 0
21 6 26 23 18 5 -20 0
21 6 26 23 18 5 -27 0
21 6 26 23 18 5 -22 0
21 6 26 23 18 5 -24 0
21 6 26 23 18 5 -19 0
21 6 4 23 1 5 -25 0
21 6 4 23 1 5 -20 0
21 6 4 23 1 5 -27 0
21 6 4 23 1 5 -22 0
21 6 4 23 1 5 -24 0
21 6 4 23 1 5 -19 0
21 6 4 1 18 5 -25 0
21 6 4 1 18 5 -20 0
21 6 4 1 18 5 -27 0
21 6 4 1 18 5 -22 0
21 6 4 1 18 5 -24 0
21 6 4 1 18 5 -19 0
21 6 23 1 18 5 -25 0
21 6 23 1 18 5 -20 0
21 6 23 1 18 5 -27 0
21 6 23 1 18 5 -22 0
21 6 23 1 18 5 -24 0
21 6 23 1 18 5 -19 0
21 52 26 49 23 50 -100 0
21 52 26 49 23 50 -104 0
21 52 26 49 23 50 -101 0
21 52 26 49 23 50 -105 0
21 52 26 49 23 50 -103 0
21 52 26 49 23 50 -102 0
21 52 26 49 23 18 -100 0
21 52 26 49 23 18 -104 0
21 52 26 49 23 18 -101 0
21 52 26 49 23 18 -105 0
21 52 26 49 23 18 -103 0
21 52 26 49 23 18 -102 0
21 52 26 49 50 53 -100 0
21 52 26 49 50 53 -104 0
21 52 26 49 50 53 -101 0
21 52 26 49 50 53 -105 0
21 52 26 49 50 53 -103 0
21 52 26 49 50 53 -102 0
21 52 26 49 18 53 -100 0
21 52 26 49 18 53 -104 0
21 52 26 49 18 53 -101 0
21 52 26 49 18 53 -105 0
21 52 26 49 18 53 -103 0
21 52 26 49 18 53 -102 0
21 52 26 23 50 18 -100 0
21 52 26 23 50 18 -104 0
21 52 26 23 50 18 -101 0
21 52 26 23 50 18 -105 0
21 52 26 23 50 18 -103 0
21 52 26 23 50 18 -102 0
21 52 26 23 18 53 -100 0
21 52 26 23 18 53 -104 0
21 52 26 23 18 53 -101 0
21 52 26 23 18 53 -105 0
21 52 26 23 18 53 -103 0
21 52 26 23 18 53 -102 0
21 52 49 23 50 53 -100 0
21 52 49 23 50 53 -104 0
21 52 49 23 50 53 -101 0
21 52 49 23 50 53 -105 0
21 52 49 23 50 53 -103 0
21 52 49 23 50 53 -102 0
21 52 49 50 18 53 -100 0
21 52 49 50 18 53 -104 0
21 52 49 50 18 53 -101 0
21 52 49 50 18 53 -105 0
21 52 49 50 18 53 -103 0
21 52 49 50 18 53 -102 0
21 52 23 50 18 53 -100 0
21 52 23 50 18 53 -104 0
21 52 23 50 18 53 -101 0
21 52 23 50 18 53 -105 0
21 52 23 50 18 53 -103 0
21 52 23 50 18 53 -102 0
21 28 26 37 23 18 -90 0
21 28 26 37 23 18 -93 0
21 28 26 37 23 18 -88 0
21 28 26 37 23 18 -89 0
21 28 26 37 23 18 -92 0
21 28 26 37 23 18 -91 0
21 28 26 23 30 18 -90 0
21 28 26 23 30 18 -93 0
21 28 26 23 30 18 -88 0
21 28 26 23 30 18 -89 0
21 28 26 23 30 18 -92 0
21 28 26 23 30 18 -91 0
21 43 26 39 23 18 -99 0
21 43 26 39 23 18 -96 0
21 43 26 39 23 18 -98 0
21 43 26 39 23 18 -97 0
21 43 26 39 23 18 -95 0
21 43 26 39 23 18 -94 0
21 43 26 23 38 18 -99 0
21 43 26 23 38 18 -96 0
21 43 26 23 38 18 -98 0
21 43 26 23 38 18 -97 0
21 43 26 23 38 18 -95 0
21 43 26 23 38 18 -94 0
21 17 26 9 23 18 -63 0
21 17 26 9 23 18 -61 0
21 17 26 9 23 18 -64 0
21 17 26 9 23 18 -66 0
21 17 26 9 23 18 -62 0
21 17 26 9 23 18 -65 0
21 17 26 23 14 18 -63 0
21 17 26 23 14 18 -61 0
21 17 26 23 14 18 -64 0
21 17 26 23 14 18 -66 0
21 17 26 23 14 18 -62 0
21 17 26 23 14 18 -65 0
21 26 4 23 1 18 -25 0
21 26 4 23 1 18 -20 0
21 26 4 23 1 18 -27 0
21 26 4 23 1 18 -22 0
21 26 4 23 1 18 -24 0
21 26 4 23 1 18 -19 0
21 26 4 23 18 5 -25 0
21 26 4 23 18 5 -20 0
21 26 4 23 18 5 -27 0
21 26 4 23 18 5 -22 0
21 26 4 23 18 5 -24 0
21 26 4 23 18 5 -19 0
21 26 49 23 50 18 -100 0
21 26 49 23 50 18 -104 0
21 26 49 23 50 18 -101 0
21 26 49 23 50 18 -105 0
21 26 49 23 50 18 -103 0
21 26 49 23 50 18 -102 0
21 26 49 23 18 53 -100 0
21 26 49 23 18 53 -104 0
21 26 49 23 18 53 -101 0
21 26 49 23 18 53 -105 0
21 26 49 23 18 53 -103 0
21 26 49 23 18 53 -102 0
21 26 37 23 30 18 -90 0
21 26 37 23 30 18 -93 0
21 26 37 23 30 18 -88 0
21 26 37 23 30 18 -89 0
21 26 37 23 30 18 -92 0
21 26 37 23 30 18 -91 0
21 26 39 23 38 18 -99 0
21 26 39 23 38 18 -96 0
21 26 39 23 38 18 -98 0
21 26 39 23 38 18 -97 0
21 26 39 23 38 18 -95 0
21 26 39 23 38 18 -94 0
21 26 9 23 14 18 -63 0
21 26 9 23 14 18 -61 0
21 26 9 23 14 18 -64 0
21 26 9 23 14 18 -66 0
21 26 9 23 14 18 -62 0
21 26 9 23 14 18 -65 0
21 26 23 1 18 5 -25 0
21 26 23 1 18 5 -20 0
21 26 23 1 18 5 -27 0
21 26 23 1 18 5 -22 0
21 26 23 1 18 5 -24 0
21 26 23 1 18 5 -19 0
21 26 23 50 18 53 -100 0
21 26 23 50 18 53 -104 0
21 26 23 50 18 53 -101 0
21 26 23 50 18 53 -105 0
21 26 23 50 18 53 -103 0
21 26 23 50 18 53 -102 0
6 52 4 49 1 50 -57 0
6 52 4 49 1 50 -54 0
6 52 4 49 1 50 -48 0
6 52 4 49 1 50 -56 0
6 52 4 49 1 50 -55 0
6 52 4 49 1 50 -51 0
6 52 4 49 1 5 -57 0
6 52 4 49 1 5 -54 0
6 52 4 49 1 5 -48 0
6 52 4 49 1 5 -56 0
6 52 4 49 1 5 -55 0
6 52 4 49 1 5 -51 0
6 52 4 49 50 53 -57 0
6 52 4 49 50 53 -54 0
6 52 4 49 50 53 -48 0
6 52 4 49 50 53 -56 0
6 52 4 49 50 53 -55 0
6 52 4 49 50 53 -51 0
6 52 4 49 5 53 -57 0
6 52 4 49 5 53 -54 0
6 52 4 49 5 53 -48 0
6 52 4 49 5 53 -56 0
6 52 4 49 5 53 -55 0
6 52 4 49 5 53 -51 0
6 52 4 1 50 5 -57 0
6 52 4 1 50 5 -54 0
6 52 4 1 50 5 -48 0
6 52 4 1 50 5 -56 0
6 52 4 1 50 5 -55 0
6 52 4 1 50 5 -51 0
6 52 4 1 5 53 -57 0
6 52 4 1 5 53 -54 0
6 52 4 1 5 53 -48 0
6 52 4 1 5 53 -56 0
6 52 4 1 5 53 -55 0
6 52 4 1 5 53 -51 0
6 52 49 1 50 53 -57 0
6 52 49 1 50 53 -54 0
6 52 49 1 50 53 -48 0
6 52 49 1 50 53 -56 0
6 52 49 1 50 53 -55 0
6 52 49 1 50 53 -51 0
6 52 49 50 5 53 -57 0
6 52 49 50 5 53 -54 0
6 52 49 50 5 53 -48 0
6 52 49 50 5 53 -56 0
6 52 49 50 5 53 -55 0
6 52 49 50 5 53 -51 0
6 52 1 50 5 53 -57 0
6 52 1 50 5 53 -54 0
6 52 1 50 5 53 -48 0
6 52 1 50 5 53 -56 0
6 52 1 50 5 53 -55 0
6 52 1 50 5 53 -51 0
6 28 4 37 1 5 -33 0
6 28 4 37 1 5 -32 0
6 28 4 37 1 5 -34 0
6 28 4 37 1 5 -35 0
6 28 4 37 1 5 -36 0
6 28 4 37 1 5 -31 0
6 28 4 1 30 5 -33 0
6 28 4 1 30 5 -32 0
6 28 4 1 30 5 -34 0
6 28 4 1 30 5 -35 0
6 28 4 1 30 5 -36 0
6 28 4 1 30 5 -31 0
6 43 4 39 1 5 -42 0
6 43 4 39 1 5 -45 0
6 43 4 39 1 5 -47 0
6 43 4 39 1 5 -46 0
6 43 4 39 1 5 -41 0
6 43 4 39 1 5 -40 0
6 43 4 1 38 5 -42 0
6 43 4 1 38 5 -45 0
6 43 4 1 38 5 -47 0
6 43 4 1 38 5 -46 0
6 43 4 1 38 5 -41 0
6 43 4 1 38 5 -40 0
6 17 4 9 1 5 -11 0
6 17 4 9 1 5 -12 0
6 17 4 9 1 5 -10 0
6 17 4 9 1 5 -13 0
6 17 4 9 1 5 -15 0
6 17 4 9 1 5 -16 0
6 17 4 1 14 5 -11 0
6 17 4 1 14 5 -12 0
6 17 4 1 14 5 -10 0
6 17 4 1 14 5 -13 0
6 17 4 1 14 5 -15 0
6 17 4 1 14 5 -16 0
6 26 4 23 1 5 -25 0
6 26 4 23 1 5 -20 0
6 26 4 23 1 5 -27 0
6 26 4 23 1 5 -22 0
6 26 4 23 1 5 -24 0
6 26 4 23 1 5 -19 0
6 26 4 1 18 5 -25 0
6 26 4 1 18 5 -20 0
6 26 4 1 18 5 -27 0
6 26 4 1 18 5 -22 0
6 26 4 1 18 5 -24 0
6 26 4 1 18 5 -19 0
6 4 49 1 50 5 -57 0
6 4 49 1 50 5 -54 0
6 4 49 1 50 5 -48 0
6 4 49 1 50 5 -56 0
6 4 49 1 50 5 -55 0
6 4 49 1 50 5 -51 0
6 4 49 1 5 53 -57 0
6 4 49 1 5 53 -54 0
6 4 49 1 5 53 -48 0
6 4 49 1 5 53 -56 0
6 4 49 1 5 53 -55 0
6 4 49 1 5 53 -51 0
6 4 37 1 30 5 -33 0
6 4 37 1 30 5 -32 0
6 4 37 1 30 5 -34 0
6 4 37 1 30 5 -35 0
6 4 37 1 30 5 -36 0
6 4 37 1 30 5 -31 0
6 4 39 1 38 5 -42 0
6 4 39 1 38 5 -45 0
6 4 39 1 38 5 -47 0
6 4 39 1 38 5 -46 0
6 4 39 1 38 5 -41 0
6 4 39 1 38 5 -40 0
6 4 9 1 14 5 -11 0
6 4 9 1 14 5 -12 0
6 4 9 1 14 5 -10 0
6 4 9 1 14 5 -13 0
6 4 9 1 14 5 -15 0
6 4 9 1 14 5 -16 0
6 4 23 1 18 5 -25 0
6 4 23 1 18 5 -20 0
6 4 23 1 18 5 -27 0
6 4 23 1 18 5 -22 0
6 4 23 1 18 5 -24 0
6 4 23 1 18 5 -19 0
6 4 1 50 5 53 -57 0
6 4 1 50 5 53 -54 0
6 4 1 50 5 53 -48 0
6 4 1 50 5 53 -56 0
6 4 1 50 5 53 -55 0
6 4 1 50 5 53 -51 0
52 28 49 37 50 53 -115 0
52 28 49 37 50 53 -117 0
52 28 49 37 50 53 -120 0
52 28 49 37 50 53 -119 0
52 28 49 37 50 53 -118 0
52 28 49 37 50 53 -116 0
52 28 49 50 30 53 -115 0
52 28 49 50 30 53 -117 0
52 28 49 50 30 53 -120 0
52 28 49 50 30 53 -119 0
52 28 49 50 30 53 -118 0
52 28 49 50 30 53 -116 0
52 43 49 39 50 53 -129 0
52 43 49 39 50 53 -125 0
52 43 49 39 50 53 -124 0
52 43 49 39 50 53 -126 0
52 43 49 39 50 53 -127 0
52 43 49 39 50 53 -128 0
52 43 49 50 38 53 -129 0
52 43 49 50 38 53 -125 0
52 43 49 50 38 53 -124 0
52 43 49 50 38 53 -126 0
52 43 49 50 38 53 -127 0
52 43 49 50 38 53 -128 0
52 17 49 9 50 53 -83 0
52 17 49 9 50 53 -84 0
52 17 49 9 50 53 -82 0
52 17 49 9 50 53 -81 0
52 17 49 9 50 53 -80 0
52 17 49 9 50 53 -79 0
52 17 49 50 14 53 -83 0
52 17 49 50 14 53 -84 0
52 17 49 50 14 53 -82 0
52 17 49 50 14 53 -81 0
52 17 49 50 14 53 -80 0
52 17 49 50 14 53 -79 0
52 26 49 23 50 53 -100 0
52 26 49 23 50 53 -104 0
52 26 49 23 50 53 -101 0
52 26 49 23 50 53 -105 0
52 26 49 23 50 53 -103 0
52 26 49 23 50 53 -102 0
52 26 49 50 18 53 -100 0
52 26 49 50 18 53 -104 0
52 26 49 50 18 53 -101 0
52 26 49 50 18 53 -105 0
52 26 49 50 18 53 -103 0
52 26 49 50 18 53 -102 0
52 4 49 1 50 53 -57 0
52 4 49 1 50 53 -54 0
52 4 49 1 50 53 -48 0
52 4 49 1 50 53 -56 0
52 4 49 1 50 53 -55 0
52 4 49 1 50 53 -51 0
52 4 49 50 5 53 -57 0
52 4 49 50 5 53 -54 0
52 4 49 50 5 53 -48 0
52 4 49 50 5 53 -56 0
52 4 49 50 5 53 -55 0
52 4 49 50 5 53 -51 0
52 49 37 50 30 53 -115 0
52 49 37 50 30 53 -117 0
52 49 37 50 30 53 -120 0
52 49 37 50 30 53 -119 0
52 49 37 50 30 53 -118 0
52 49 37 50 30 53 -116 0
52 49 39 50 38 53 -129 0
52 49 39 50 38 53 -125 0
52 49 39 50 38 53 -124 0
52 49 39 50 38 53 -126 0
52 49 39 50 38 53 -127 0
52 49 39 50 38 53 -128 0
52 49 9 50 14 53 -83 0
52 49 9 50 14 53 -84 0
52 49 9 50 14 53 -82 0
52 49 9 50 14 53 -81 0
52 49 9 50 14 53 -80 0
52 49 9 50 14 53 -79 0
52 49 23 50 18 53 -100 0
52 49 23 50 18 53 -104 0
52 49 23 50 18 53 -101 0
52 49 23 50 18 53 -105 0
52 49 23 50 18 53 -103 0
52 49 23 50 18 53 -102 0
52 49 1 50 5 53 -57 0
52 49 1 50 5 53 -54 0
52 49 1 50 5 53 -48 0
52 49 1 50 5 53 -56 0
52 49 1 50 5 53 -55 0
52 49 1 50 5 53 -51 0
28 43 37 39 30 38 -110 0
28 43 37 39 30 38 -113 0
28 43 37 39 30 38 -111 0
28 43 37 39 30 38 -112 0
28 43 37 39 30 38 -114 0
28 43 37 39 30 38 -109 0
28 17 37 9 30 14 -69 0
28 17 37 9 30 14 -70 0
28 17 37 9 30 14 -67 0
28 17 37 9 30 14 -71 0
28 17 37 9 30 14 -72 0
28 17 37 9 30 14 -68 0
28 26 37 23 30 18 -90 0
28 26 37 23 30 18 -93 0
28 26 37 23 30 18 -88 0
28 26 37 23 30 18 -89 0
28 26 37 23 30 18 -92 0
28 26 37 23 30 18 -91 0
28 4 37 1 30 5 -33 0
28 4 37 1 30 5 -32 0
28 4 37 1 30 5 -34 0
28 4 37 1 30 5 -35 0
28 4 37 1 30 5 -36 0
28 4 37 1 30 5 -31 0
28 49 37 50 30 53 -115 0
28 49 37 50 30 53 -117 0
28 49 37 50 30 53 -120 0
28 49 37 50 30 53 -119 0
28 49 37 50 30 53 -118 0
28 49 37 50 30 53 -116 0
43 17 39 9 38 14 -73 0
43 17 39 9 38 14 -77 0
43 17 39 9 38 14 -75 0
43 17 39 9 38 14 -78 0
43 17 39 9 38 14 -74 0
43 17 39 9 38 14 -76 0
43 26 39 23 38 18 -99 0
43 26 39 23 38 18 -96 0
43 26 39 23 38 18 -98 0
43 26 39 23 38 18 -97 0
43 26 39 23 38 18 -95 0
43 26 39 23 38 18 -94 0
43 4 39 1 38 5 -42 0
43 4 39 1 38 5 -45 0
43 4 39 1 38 5 -47 0
43 4 39 1 38 5 -46 0
43 4 39 1 38 5 -41 0
43 4 39 1 38 5 -40 0
43 49 39 50 38 53 -129 0
43 49 39 50 38 53 -125 0
43 49 39 50 38 53 -124 0
43 49 39 50 38 53 -126 0
43 49 39 50 38 53 -127 0
43 49 39 50 38 53 -128 0
17 26 9 23 14 18 -63 0
17 26 9 23 14 18 -61 0
17 26 9 23 14 18 -64 0
17 26 9 23 14 18 -66 0
17 26 9 23 14 18 -62 0
17 26 9 23 14 18 -65 0
17 4 9 1 14 5 -11 0
17 4 9 1 14 5 -12 0
17 4 9 1 14 5 -10 0
17 4 9 1 14 5 -13 0
17 4 9 1 14 5 -15 0
17 4 9 1 14 5 -16 0
17 49 9 50 14 53 -83 0
17 49 9 50 14 53 -84 0
17 49 9 50 14 53 -82 0
17 49 9 50 14 53 -81 0
17 49 9 50 14 53 -80 0
17 49 9 50 14 53 -79 0
26 4 23 1 18 5 -25 0
26 4 23 1 18 5 -20 0
26 4 23 1 18 5 -27 0
26 4 23 1 18 5 -22 0
26 4 23 1 18 5 -24 0
26 4 23 1 18 5 -19 0
26 49 23 50 18 53 -100 0
26 49 23 50 18 53 -104 0
26 49 23 50 18 53 -101 0
26 49 23 50 18 53 -105 0
26 49 23 50 18 53 -103 0
26 49 23 50 18 53 -102 0
4 49 1 50 5 53 -57 0
4 49 1 50 5 53 -54 0
4 49 1 50 5 53 -48 0
4 49 1 50 5 53 -56 0
4 49 1 50 5 53 -55 0
4 49 1 50 5 53 -51 0
29 44 28 43 37 39 30 -110 0
29 44 28 43 37 39 30 -113 0
29 44 28 43 37 39 30 -111 0
29 44 28 43 37 39 30 -112 0
29 44 28 43 37 39 30 -114 0
29 44 28 43 37 39 30 -109 0
29 44 28 43 37 39 38 -110 0
29 44 28 43 37 39 38 -113 0
29 44 28 43 37 39 38 -111 0
29 44 28 43 37 39 38 -112 0
29 44 28 43 37 39 38 -114 0
29 44 28 43 37 39 38 -109 0
29 44 28 43 37 30 38 -110 0
29 44 28 43 37 30 38 -113 0
29 44 28 43 37 30 38 -111 0
29 44 28 43 37 30 38 -112 0
29 44 28 43 37 30 38 -114 0
29 44 28 43 37 30 38 -109 0
29 44 28 43 39 30 38 -110 0
29 44 28 43 39 30 38 -113 0
29 44 28 43 39 30 38 -111 0
29 44 28 43 39 30 38 -112 0
29 44 28 43 39 30 38 -114 0
29 44 28 43 39 30 38 -109 0
29 44 28 37 39 30 38 -110 0
29 44 28 37 39 30 38 -113 0
29 44 28 37 39 30 38 -111 0
29 44 28 37 39 30 38 -112 0
29 44 28 37 39 30 38 -114 0
29 44 28 37 39 30 38 -109 0
29 44 43 37 39 30 38 -110 0
29 44 43 37 39 30 38 -113 0
29 44 43 37 39 30 38 -111 0
29 44 43 37 39 30 38 -112 0
29 44 43 37 39 30 38 -114 0
29 44 43 37 39 30 38 -109 0
29 8 28 17 37 9 30 -69 0
29 8 28 17 37 9 30 -70 0
29 8 28 17 37 9 30 -67 0
29 8 28 17 37 9 30 -71 0
29 8 28 17 37 9 30 -72 0
29 8 28 17 37 9 30 -68 0
29 8 28 17 37 9 14 -69 0
29 8 28 17 37 9 14 -70 0
29 8 28 17 37 9 14 -67 0
29 8 28 17 37 9 14 -71 0
29 8 28 17 37 9 14 -72 0
29 8 28 17 37 9 14 -68 0
29 8 28 17 37 30 14 -69 0
29 8 28 17 37 30 14 -70 0
29 8 28 17 37 30 14 -67 0
29 8 28 17 37 30 14 -71 0
29 8 28 17 37 30 14 -72 0
29 8 28 17 37 30 14 -68 0
29 8 28 17 9 30 14 -69 0
29 8 28 17 9 30 14 -70 0
29 8 28 17 9 30 14 -67 0
29 8 28 17 9 30 14 -71 0
29 8 28 17 9 30 14 -72 0
29 8 28 17 9 30 14 -68 0
29 8 28 37 9 30 14 -69 0
29 8 28 37 9 30 14 -70 0
29 8 28 37 9 30 14 -67 0
29 8 28 37 9 30 14 -71 0
29 8 28 37 9 30 14 -72 0
29 8 28 37 9 30 14 -68 0
29 8 17 37 9 30 14 -69 0
29 8 17 37 9 30 14 -70 0
29 8 17 37 9 30 14 -67 0
29 8 17 37 9 30 14 -71 0
29 8 17 37 9 30 14 -72 0
29 8 17 37 9 30 14 -68 0
29 21 28 26 37 23 30 -90 0
29 21 28 26 37 23 30 -93 0
29 21 28 26 37 23 30 -88 0
29 21 28 26 37 23 30 -89 0
29 21 28 26 37 23 30 -92 0
29 21 28 26 37 23 30 -91 0
29 21 28 26 37 23 18 -90 0
29 21 28 26 37 23 18 -93 0
29 21 28 26 37 23 18 -88 0
29 21 28 26 37 23 18 -89 0
29 21 28 26 37 23 18 -92 0
29 21 28 26 37 23 18 -91 0
29 21 28 26 37 30 18 -90 0
29 21 28 26 37 30 18 -93 0
29 21 28 26 37 30 18 -88 0
29 21 28 26 37 30 18 -89 0
29 21 28 26 37 30 18 -92 0
29 21 28 26 37 30 18 -91 0
29 21 28 26 23 30 18 -90 0
29 21 28 26 23 30 18 -93 0
29 21 28 26 23 30 18 -88 0
29 21 28 26 23 30 18 -89 0
29 21 28 26 23 30 18 -92 0
29 21 28 26 23 30 18 -91 0
29 21 28 37 23 30 18 -90 0
29 21 28 37 23 30 18 -93 0
29 21 28 37 23 30 18 -88 0
29 21 28 37 23 30 18 -89 0
29 21 28 37 23 30 18 -92 0
29 21 28 37 23 30 18 -91 0
29 21 26 37 23 30 18 -90 0
29 21 26 37 23 30 18 -93 0
29 21 26 37 23 30 18 -88 0
29 21 26 37 23 30 18 -89 0
29 21 26 37 23 30 18 -92 0
29 21 26 37 23 30 18 -91 0
29 6 28 4 37 1 30 -33 0
29 6 28 4 37 1 30 -32 0
29 6 28 4 37 1 30 -34 0
29 6 28 4 37 1 30 -35 0
29 6 28 4 37 1 30 -36 0
29 6 28 4 37 1 30 -31 0
29 6 28 4 37 1 5 -33 0
29 6 28 4 37 1 5 -32 0
29 6 28 4 37 1 5 -34 0
29 6 28 4 37 1 5 -35 0
29 6 28 4 37 1 5 -36 0
29 6 28 4 37 1 5 -31 0
29 6 28 4 37 30 5 -33 0
29 6 28 4 37 30 5 -32 0
29 6 28 4 37 30 5 -34 0
29 6 28 4 37 30 5 -35 0
29 6 28 4 37 30 5 -36 0
29 6 28 4 37 30 5 -31 0
29 6 28 4 1 30 5 -33 0
29 6 28 4 1 30 5 -32 0
29 6 28 4 1 30 5 -34 0
29 6 28 4 1 30 5 -35 0
29 6 28 4 1 30 5 -36 0
29 6 28 4 1 30 5 -31 0
29 6 28 37 1 30 5 -33 0
29 6 28 37 1 30 5 -32 0
29 6 28 37 1 30 5 -34 0
29 6 28 37 1 30 5 -35 0
29 6 28 37 1 30 5 -36 0
29 6 28 37 1 30 5 -31 0
29 6 4 37 1 30 5 -33 0
29 6 4 37 1 30 5 -32 0
29 6 4 37 1 30 5 -34 0
29 6 4 37 1 30 5 -35 0
29 6 4 37 1 30 5 -36 0
29 6 4 37 1 30 5 -31 0
29 52 28 49 37 50 30 -115 0
29 52 28 49 37 50 30 -117 0
29 52 28 49 37 50 30 -120 0
29 52 28 49 37 50 30 -119 0
29 52 28 49 37 50 30 -118 0
29 52 28 49 37 50 30 -116 0
29 52 28 49 37 50 53 -115 0
29 52 28 49 37 50 53 -117 0
29 52 28 49 37 50 53 -120 0
29 52 28 49 37 50 53 -119 0
29 52 28 49 37 50 53 -118 0
29 52 28 49 37 50 53 -116 0
29 52 28 49 37 30 53 -115 0
29 52 28 49 37 30 53 -117 0
29 52 28 49 37 30 53 -120 0
29 52 28 49 37 30 53 -119 0
29 52 28 49 37 30 53 -118 0
29 52 28 49 37 30 53 -116 0
29 52 28 49 50 30 53 -115 0
29 52 28 49 50 30 53 -117 0
29 52 28 49 50 30 53 -120 0
29 52 28 49 50 30 53 -119 0
29 52 28 49 50 30 53 -118 0
29 52 28 49 50 30 53 -116 0
29 52 28 37 50 30 53 -115 0
29 52 28 37 50 30 53 -117 0
29 52 28 37 50 30 53 -120 0
29 52 28 37 50 30 53 -119 0
29 52 28 37 50 30 53 -118 0
29 52 28 37 50 30 53 -116 0
29 52 49 37 50 30 53 -115 0
29 52 49 37 50 30 53 -117 0
29 52 49 37 50 30 53 -120 0
29 52 49 37 50 30 53 -119 0
29 52 49 37 50 30 53 -118 0
29 52 49 37 50 30 53 -116 0
29 28 43 37 39 30 38 -110 0
29 28 43 37 39 30 38 -113 0
29 28 43 37 39 30 38 -111 0
29 28 43 37 39 30 38 -112 0
29 28 43 37 39 30 38 -114 0
29 28 43 37 39 30 38 -109 0
29 28 17 37 9 30 14 -69 0
29 28 17 37 9 30 14 -70 0
29 28 17 37 9 30 14 -67 0
29 28 17 37 9 30 14 -71 0
29 28 17 37 9 30 14 -72 0
29 28 17 37 9 30 14 -68 0
29 28 26 37 23 30 18 -90 0
29 28 26 37 23 30 18 -93 0
29 28 26 37 23 30 18 -88 0
29 28 26 37 23 30 18 -89 0
29 28 26 37 23 30 18 -92 0
29 28 26 37 23 30 18 -91 0
29 28 4 37 1 30 5 -33 0
29 28 4 37 1 30 5 -32 0
29 28 4 37 1 30 5 -34 0
29 28 4 37 1 30 5 -35 0
29 28 4 37 1 30 5 -36 0
29 28 4 37 1 30 5 -31 0
29 28 49 37 50 30 53 -115 0
29 28 49 37 50 30 53 -117 0
29 28 49 37 50 30 53 -120 0
29 28 49 37 50 30 53 -119 0
29 28 49 37 50 30 53 -118 0
29 28 49 37 50 30 53 -116 0
44 8 43 17 39 9 38 -73 0
44 8 43 17 39 9 38 -77 0
44 8 43 17 39 9 38 -75 0
44 8 43 17 39 9 38 -78 0
44 8 43 17 39 9 38 -74 0
44 8 43 17 39 9 38 -76 0
44 8 43 17 39 9 14 -73 0
44 8 43 17 39 9 14 -77 0
44 8 43 17 39 9 14 -75 0
44 8 43 17 39 9 14 -78 0
44 8 43 17 39 9 14 -74 0
44 8 43 17 39 9 14 -76 0
44 8 43 17 39 38 14 -73 0
44 8 43 17 39 38 14 -77 0
44 8 43 17 39 38 14 -75 0
44 8 43 17 39 38 14 -78 0
44 8 43 17 39 38 14 -74 0
44 8 43 17 39 38 14 -76 0
44 8 43 17 9 38 14 -73 0
44 8 43 17 9 38 14 -77 0
44 8 43 17 9 38 14 -75 0
44 8 43 17 9 38 14 -78 0
44 8 43 17 9 38 14 -74 0
44 8 43 17 9 38 14 -76 0
44 8 43 39 9 38 14 -73 0
44 8 43 39 9 38 14 -77 0
44 8 43 39 9 38 14 -75 0
44 8 43 39 9 38 14 -78 0
44 8 43 39 9 38 14 -74 0
44 8 43 39 9 38 14 -76 0
44 8 17 39 9 38 14 -73 0
44 8 17 39 9 38 14 -77 0
44 8 17 39 9 38 14 -75 0
44 8 17 39 9 38 14 -78 0
44 8 17 39 9 38 14 -74 0
44 8 17 39 9 38 14 -76 0
44 21 43 26 39 23 38 -99 0
44 21 43 26 39 23 38 -96 0
44 21 43 26 39 23 38 -98 0
44 21 43 26 39 23 38 -97 0
44 21 43 26 39 23 38 -95 0
44 21 43 26 39 23 38 -94 0
44 21 43 26 39 23 18 -99 0
44 21 43 26 39 23 18 -96 0
44 21 43 26 39 23 18 -98 0
44 21 43 26 39 23 18 -97 0
44 21 43 26 39 23 18 -95 0
44 21 43 26 39 23 18 -94 0
44 21 43 26 39 38 18 -99 0
44 21 43 26 39 38 18 -96 0
44 21 43 26 39 38 18 -98 0
44 21 43 26 39 38 18 -97 0
44 21 43 26 39 38 18 -95 0
44 21 43 26 39 38 18 -94 0
44 21 43 26 23 38 18 -99 0
44 21 43 26 23 38 18 -96 0
44 21 43 26 23 38 18 -98 0
44 21 43 26 23 38 18 -97 0
44 21 43 26 23 38 18 -95 0
44 21 43 26 23 38 18 -94 0
44 21 43 39 23 38 18 -99 0
44 21 43 39 23 38 18 -96 0
44 21 43 39 23 38 18 -98 0
44 21 43 39 23 38 18 -97 0
44 21 43 39 23 38 18 -95 0
44 21 43 39 23 38 18 -94 0
44 21 26 39 23 38 18 -99 0
44 21 26 39 23 38 18 -96 0
44 21 26 39 23 38 18 -98 0
44 21 26 39 23 38 18 -97 0
44 21 26 39 23 38 18 -95 0
44 21 26 39 23 38 18 -94 0
44 6 43 4 39 1 38 -42 0
44 6 43 4 39 1 38 -45 0
44 6 43 4 39 1 38 -47 0
44 6 43 4 39 1 38 -46 0
44 6 43 4 39 1 38 -41 0
44 6 43 4 39 1 38 -40 0
44 6 43 4 39 1 5 -42 0
44 6 43 4 39 1 5 -45 0
44 6 43 4 39 1 5 -47 0
44 6 43 4 39 1 5 -46 0
44 6 43 4 39 1 5 -41 0
44 6 43 4 39 1 5 -40 0
44 6 43 4 39 38 5 -42 0
44 6 43 4 39 38 5 -45 0
44 6 43 4 39 38 5 -47 0
44 6 43 4 39 38 5 -46 0
44 6 43 4 39 38 5 -41 0
44 6 43 4 39 38 5 -40 0
44 6 43 4 1 38 5 -42 0
44 6 43 4 1 38 5 -45 0
44 6 43 4 1 38 5 -47 0
44 6 43 4 1 38 5 -46 0
44 6 43 4 1 38 5 -41 0
44 6 43 4 1 38 5 -40 0
44 6 43 39 1 38 5 -42 0
44 6 43 39 1 38 5 -45 0
44 6 43 39 1 38 5 -47 0
44 6 43 39 1 38 5 -46 0
44 6 43 39 1 38 5 -41 0
44 6 43 39 1 38 5 -40 0
44 6 4 39 1 38 5 -42 0
44 6 4 39 1 38 5 -45 0
44 6 4 39 1 38 5 -47 0
44 6 4 39 1 38 5 -46 0
44 6 4 39 1 38 5 -41 0
44 6 4 39 1 38 5 -40 0
44 52 43 49 39 50 38 -129 0
44 52 43 49 39 50 38 -125 0
44 52 43 49 39 50 38 -124 0
44 52 43 49 39 50 38 -126 0
44 52 43 49 39 50 38 -127 0
44 52 43 49 39 50 38 -128 0
44 52 43 49 39 50 53 -129 0
44 52 43 49 39 50 53 -125 0
44 52 43 49 39 50 53 -124 0
44 52 43 49 39 50 53 -126 0
44 52 43 49 39 50 53 -127 0
44 52 43 49 39 50 53 -128 0
44 52 43 49 39 38 53 -129 0
44 52 43 49 39 38 53 -125 0
44 52 43 49 39 38 53 -124 0
44 52 43 49 39 38 53 -126 0
44 52 43 49 39 38 53 -127 0
44 52 43 49 39 38 53 -128 0
44 52 43 49 50 38 53 -129 0
44 52 43 49 50 38 53 -125 0
44 52 43 49 50 38 53 -124 0
44 52 43 49 50 38 53 -126 0
44 52 43 49 50 38 53 -127 0
44 52 43 49 50 38 53 -128 0
44 52 43 39 50 38 53 -129 0
44 52 43 39 50 38 53 -125 0
44 52 43 39 50 38 53 -124 0
44 52 43 39 50 38 53 -126 0
44 52 43 39 50 38 53 -127 0
44 52 43 39 50 38 53 -128 0
44 52 49 39 50 38 53 -129 0
44 52 49 39 50 38 53 -125 0
44 52 49 39 50 38 53 -124 0
44 52 49 39 50 38 53 -126 0
44 52 49 39 50 38 53 -127 0
44 52 49 39 50 38 53 -128 0
44 28 43 37 39 30 38 -110 0
44 28 43 37 39 30 38 -113 0
44 28 43 37 39 30 38 -111 0
44 28 43 37 39 30 38 -112 0
44 28 43 37 39 30 38 -114 0
44 28 43 37 39 30 38 -109 0
44 43 17 39 9 38 14 -73 0
44 43 17 39 9 38 14 -77 0
44 43 17 39 9 38 14 -75 0
44 43 17 39 9 38 14 -78 0
44 43 17 39 9 38 14 -74 0
44 43 17 39 9 38 14 -76 0
44 43 26 39 23 38 18 -99 0
44 43 26 39 23 38 18 -96 0
44 43 26 39 23 38 18 -98 0
44 43 26 39 23 38 18 -97 0
44 43 26 39 23 38 18 -95 0
44 43 26 39 23 38 18 -94 0
44 43 4 39 1 38 5 -42 0
44 43 4 39 1 38 5 -45 0
44 43 4 39 1 38 5 -47 0
44 43 4 39 1 38 5 -46 0
44 43 4 39 1 38 5 -41 0
44 43 4 39 1 38 5 -40 0
44 43 49 39 50 38 53 -129 0
44 43 49 39 50 38 53 -125 0
44 43 49 39 50 38 53 -124 0
44 43 49 39 50 38 53 -126 0
44 43 49 39 50 38 53 -127 0
44 43 49 39 50 38 53 -128 0
8 21 17 26 9 23 14 -63 0
8 21 17 26 9 23 14 -61 0
8 21 17 26 9 23 14 -64 0
8 21 17 26 9 23 14 -66 0
8 21 17 26 9 23 14 -62 0
8 21 17 26 9 23 14 -65 0
8 21 17 26 9 23 18 -63 0
8 21 17 26 9 23 18 -61 0
8 21 17 26 9 23 18 -64 0
8 21 17 26 9 23 18 -66 0
8 21 17 26 9 23 18 -62 0
8 21 17 26 9 23 18 -65 0
8 21 17 26 9 14 18 -63 0
8 21 17 26 9 14 18 -61 0
8 21 17 26 9 14 18 -64 0
8 21 17 26 9 14 18 -66 0
8 21 17 26 9 14 18 -62 0
8 21 17 26 9 14 18 -65 0
8 21 17 26 23 14 18 -63 0
8 21 17 26 23 14 18 -61 0
8 21 17 26 23 14 18 -64 0
8 21 17 26 23 14 18 -66 0
8 21 17 26 23 14 18 -62 0
8 21 17 26 23 14 18 -65 0
8 21 17 9 23 14 18 -63 0
8 21 17 9 23 14 18 -61 0
8 21 17 9 23 14 18 -64 0
8 21 17 9 23 14 18 -66 0
8 21 17 9 23 14 18 -62 0
8 21 17 9 23 14 18 -65 0
8 21 26 9 23 14 18 -63 0
8 21 26 9 23 14 18 -61 0
8 21 26 9 23 14 18 -64 0
8 21 26 9 23 14 18 -66 0
8 21 26 9 23 14 18 -62 0
8 21 26 9 23 14 18 -65 0
8 6 17 4 9 1 14 -11 0
8 6 17 4 9 1 14 -12 0
8 6 17 4 9 1 14 -10 0
8 6 17 4 9 1 14 -13 0
8 6 17 4 9 1 14 -15 0
8 6 17 4 9 1 14 -16 0
8 6 17 4 9 1 5 -11 0
8 6 17 4 9 1 5 -12 0
8 6 17 4 9 1 5 -10 0
8 6 17 4 9 1 5 -13 0
8 6 17 4 9 1 5 -15 0
8 6 17 4 9 1 5 -16 0
8 6 17 4 9 14 5 -11 0
8 6 17 4 9 14 5 -12 0
8 6 17 4 9 14 5 -10 0
8 6 17 4 9 14 5 -13 0
8 6 17 4 9 14 5 -15 0
8 6 17 4 9 14 5 -16 0
8 6 17 4 1 14 5 -11 0
8 6 17 4 1 14 5 -12 0
8 6 17 4 1 14 5 -10 0
8 6 17 4 1 14 5 -13 0
8 6 17 4 1 14 5 -15 0
8 6 17 4 1 14 5 -16 0
8 6 17 9 1 14 5 -11 0
8 6 17 9 1 14 5 -12 0
8 6 17 9 1 14 5 -10 0
8 6 17 9 1 14 5 -13 0
8 6 17 9 1 14 5 -15 0
8 6 17 9 1 14 5 -16 0
8 6 4 9 1 14 5 -11 0
8 6 4 9 1 14 5 -12 0
8 6 4 9 1 14 5 -10 0
8 6 4 9 1 14 5 -13 0
8 6 4 9 1 14 5 -15 0
8 6 4 9 1 14 5 -16 0
8 52 17 49 9 50 14 -83 0
8 52 17 49 9 50 14 -84 0
8 52 17 49 9 50 14 -82 0
8 52 17 49 9 50 14 -81 0
8 52 17 49 9 50 14 -80 0
8 52 17 49 9 50 14 -79 0
8 52 17 49 9 50 53 -83 0
8 52 17 49 9 50 53 -84 0
8 52 17 49 9 50 53 -82 0
8 52 17 49 9 50 53 -81 0
8 52 17 49 9 50 53 -80 0
8 52 17 49 9 50 53 -79 0
8 52 17 49 9 14 53 -83 0
8 52 17 49 9 14 53 -84 0
8 52 17 49 9 14 53 -82 0
8 52 17 49 9 14 53 -81 0
8 52 17 49 9 14 53 -80 0
8 52 17 49 9 14 53 -79 0
8 52 17 49 50 14 53 -83 0
8 52 17 49 50 14 53 -84 0
8 52 17 49 50 14 53 -82 0
8 52 17 49 50 14 53 -81 0
8 52 17 49 50 14 53 -80 0
8 52 17 49 50 14 53 -79 0
8 52 17 9 50 14 53 -83 0
8 52 17 9 50 14 53 -84 0
8 52 17 9 50 14 53 -82 0
8 52 17 9 50 14 53 -81 0
8 52 17 9 50 14 53 -80 0
8 52 17 9 50 14 53 -79 0
8 52 49 9 50 14 53 -83 0
8 52 49 9 50 14 53 -84 0
8 52 49 9 50 14 53 -82 0
8 52 49 9 50 14 53 -81 0
8 52 49 9 50 14 53 -80 0
8 52 49 9 50 14 53 -79 0
8 28 17 37 9 30 14 -69 0
8 28 17 37 9 30 14 -70 0
8 28 17 37 9 30 14 -67 0
8 28 17 37 9 30 14 -71 0
8 28 17 37 9 30 14 -72 0
8 28 17 37 9 30 14 -68 0
8 43 17 39 9 38 14 -73 0
8 43 17 39 9 38 14 -77 0
8 43 17 39 9 38 14 -75 0
8 43 17 39 9 38 14 -78 0
8 43 17 39 9 38 14 -74 0
8 43 17 39 9 38 14 -76 0
8 17 26 9 23 14 18 -63 0
8 17 26 9 23 14 18 -61 0
8 17 26 9 23 14 18 -64 0
8 17 26 9 23 14 18 -66 0
8 17 26 9 23 14 18 -62 0
8 17 26 9 23 14 18 -65 0
8 17 4 9 1 14 5 -11 0
8 17 4 9 1 14 5 -12 0
8 17 4 9 1 14 5 -10 0
8 17 4 9 1 14 5 -13 0
8 17 4 9 1 14 5 -15 0
8 17 4 9 1 14 5 -16 0
8 17 49 9 50 14 53 -83 0
8 17 49 9 50 14 53 -84 0
8 17 49 9 50 14 53 -82 0
8 17 49 9 50 14 53 -81 0
8 17 49 9 50 14 53 -80 0
8 17 49 9 50 14 53 -79 0
21 6 26 4 23 1 18 -25 0
21 6 26 4 23 1 18 -20 0
21 6 26 4 23 1 18 -27 0
21 6 26 4 23 1 18 -22 0
21 6 26 4 23 1 18 -24 0
21 6 26 4 23 1 18 -19 0
21 6 26 4 23 1 5 -25 0
21 6 26 4 23 1 5 -20 0
21 6 26 4 23 1 5 -27 0
21 6 26 4 23 1 5 -22 0
21 6 26 4 23 1 5 -24 0
21 6 26 4 23 1 5 -19 0
21 6 26 4 23 18 5 -25 0
21 6 26 4 23 18 5 -20 0
21 6 26 4 23 18 5 -27 0
21 6 26 4 23 18 5 -22 0
21 6 26 4 23 18 5 -24 0
21 6 26 4 23 18 5 -19 0
21 6 26 4 1 18 5 -25 0
21 6 26 4 1 18 5 -20 0
21 6 26 4 1 18 5 -27 0
21 6 26 4 1 18 5 -22 0
21 6 26 4 1 18 5 -24 0
21 6 26 4 1 18 5 -19 0
21 6 26 23 1 18 5 -25 0
21 6 26 23 1 18 5 -20 0
21 6 26 23 1 18 5 -27 0
21 6 26 23 1 18 5 -22 0
21 6 26 23 1 18 5 -24 0
21 6 26 23 1 18 5 -19 0
21 6 4 23 1 18 5 -25 0
21 6 4 23 1 18 5 -20 0
21 6 4 23 1 18 5 -27 0
21 6 4 23 1 18 5 -22 0
21 6 4 23 1 18 5 -24 0
21 6 4 23 1 18 5 -19 0
21 52 26 49 23 50 18 -100 0
21 52 26 49 23 50 18 -104 0
21 52 26 49 23 50 18 -101 0
21 52 26 49 23 50 18 -105 0
21 52 26 49 23 50 18 -103 0
21 52 26 49 23 50 18 -102 0
21 52 26 49 23 50 53 -100 0
21 52 26 49 23 50 53 -104 0
21 52 26 49 23 50 53 -101 0
21 52 26 49 23 50 53 -105 0
21 52 26 49 23 50 53 -103 0
21 52 26 49 23 50 53 -102 0
21 52 26 49 23 18 53 -100 0
21 52 26 49 23 18 53 -104 0
21 52 26 49 23 18 53 -101 0
21 52 26 49 23 18 53 -105 0
21 52 26 49 23 18 53 -103 0
21 52 26 49 23 18 53 -102 0
21 52 26 49 50 18 53 -100 0
21 52 26 49 50 18 53 -104 0
21 52 26 49 50 18 53 -101 0
21 52 26 49 50 18 53 -105 0
21 52 26 49 50 18 53 -103 0
21 52 26 49 50 18 53 -102 0
21 52 26 23 50 18 53 -100 0
21 52 26 23 50 18 53 -104 0
21 52 26 23 50 18 53 -101 0
21 52 26 23 50 18 53 -105 0
21 52 26 23 50 18 53 -103 0
21 52 26 23 50 18 53 -102 0
21 52 49 23 50 18 53 -100 0
21 52 49 23 50 18 53 -104 0
21 52 49 23 50 18 53 -101 0
21 52 49 23 50 18 53 -105 0
21 52 49 23 50 18 53 -103 0
21 52 49 23 50 18 53 -102 0
21 28 26 37 23 30 18 -90 0
21 28 26 37 23 30 18 -93 0
21 28 26 37 23 30 18 -88 0
21 28 26 37 23 30 18 -89 0
21 28 26 37 23 30 18 -92 0
21 28 26 37 23 30 18 -91 0
21 43 26 39 23 38 18 -99 0
21 43 26 39 23 38 18 -96 0
21 43 26 39 23 38 18 -98 0
21 43 26 39 23 38 18 -97 0
21 43 26 39 23 38 18 -95 0
21 43 26 39 23 38 18 -94 0
21 17 26 9 23 14 18 -63 0
21 17 26 9 23 14 18 -61 0
21 17 26 9 23 14 18 -64 0
21 17 26 9 23 14 18 -66 0
21 17 26 9 23 14 18 -62 0
21 17 26 9 23 14 18 -65 0
21 26 4 23 1 18 5 -25 0
21 26 4 23 1 18 5 -20 0
21 26 4 23 1 18 5 -27 0
21 26 4 23 1 18 5 -22 0
21 26 4 23 1 18 5 -24 0
21 26 4 23 1 18 5 -19 0
21 26 49 23 50 18 53 -100 0
21 26 49 23 50 18 53 -104 0
21 26 49 23 50 18 53 -101 0
21 26 49 23 50 18 53 -105 0
21 26 49 23 50 18 53 -103 0
21 26 49 23 50 18 53 -102 0
6 52 4 49 1 50 5 -57 0
6 52 4 49 1 50 5 -54 0
6 52 4 49 1 50 5 -48 0
6 52 4 49 1 50 5 -56 0
6 52 4 49 1 50 5 -55 0
6 52 4 49 1 50 5 -51 0
6 52 4 49 1 50 53 -57 0
6 52 4 49 1 50 53 -54 0
6 52 4 49 1 50 53 -48 0
6 52 4 49 1 50 53 -56 0
6 52 4 49 1 50 53 -55 0
6 52 4 49 1 50 53 -51 0
6 52 4 49 1 5 53 -57 0
6 52 4 49 1 5 53 -54 0
6 52 4 49 1 5 53 -48 0
6 52 4 49 1 5 53 -56 0
6 52 4 49 1 5 53 -55 0
6 52 4 49 1 5 53 -51 0
6 52 4 49 50 5 53 -57 0
6 52 4 49 50 5 53 -54 0
6 52 4 49 50 5 53 -48 0
6 52 4 49 50 5 53 -56 0
6 52 4 49 50 5 53 -55 0
6 52 4 49 50 5 53 -51 0
6 52 4 1 50 5 53 -57 0
6 52 4 1 50 5 53 -54 0
6 52 4 1 50 5 53 -48 0
6 52 4 1 50 5 53 -56 0
6 52 4 1 50 5 53 -55 0
6 52 4 1 50 5 53 -51 0
6 52 49 1 50 5 53 -57 0
6 52 49 1 50 5 53 -54 0
6 52 49 1 50 5 53 -48 0
6 52 49 1 50 5 53 -56 0
6 52 49 1 50 5 53 -55 0
6 52 49 1 50 5 53 -51 0
6 28 4 37 1 30 5 -33 0
6 28 4 37 1 30 5 -32 0
6 28 4 37 1 30 5 -34 0
6 28 4 37 1 30 5 -35 0
6 28 4 37 1 30 5 -36 0
6 28 4 37 1 30 5 -31 0
6 43 4 39 1 38 5 -42 0
6 43 4 39 1 38 5 -45 0
6 43 4 39 1 38 5 -47 0
6 43 4 39 1 38 5 -46 0
6 43 4 39 1 38 5 -41 0
6 43 4 39 1 38 5 -40 0
6 17 4 9 1 14 5 -11 0
6 17 4 9 1 14 5 -12 0
6 17 4 9 1 14 5 -10 0
6 17 4 9 1 14 5 -13 0
6 17 4 9 1 14 5 -15 0
6 17 4 9 1 14 5 -16 0
6 26 4 23 1 18 5 -25 0
6 26 4 23 1 18 5 -20 0
6 26 4 23 1 18 5 -27 0
6 26 4 23 1 18 5 -22 0
6 26 4 23 1 18 5 -24 0
6 26 4 23 1 18 5 -19 0
6 4 49 1 50 5 53 -57 0
6 4 49 1 50 5 53 -54 0
6 4 49 1 50 5 53 -48 0
6 4 49 1 50 5 53 -56 0
6 4 49 1 50 5 53 -55 0
6 4 49 1 50 5 53 -51 0
52 28 49 37 50 30 53 -115 0
52 28 49 37 50 30 53 -117 0
52 28 49 37 50 30 53 -120 0
52 28 49 37 50 30 53 -119 0
52 28 49 37 50 30 53 -118 0
52 28 49 37 50 30 53 -116 0
52 43 49 39 50 38 53 -129 0
52 43 49 39 50 38 53 -125 0
52 43 49 39 50 38 53 -124 0
52 43 49 39 50 38 53 -126 0
52 43 49 39 50 38 53 -127 0
52 43 49 39 50 38 53 -128 0
52 17 49 9 50 14 53 -83 0
52 17 49 9 50 14 53 -84 0
52 17 49 9 50 14 53 -82 0
52 17 49 9 50 14 53 -81 0
52 17 49 9 50 14 53 -80 0
52 17 49 9 50 14 53 -79 0
52 26 49 23 50 18 53 -100 0
52 26 49 23 50 18 53 -104 0
52 26 49 23 50 18 53 -101 0
52 26 49 23 50 18 53 -105 0
52 26 49 23 50 18 53 -103 0
52 26 49 23 50 18 53 -102 0
52 4 49 1 50 5 53 -57 0
52 4 49 1 50 5 53 -54 0
52 4 49 1 50 5 53 -48 0
52 4 49 1 50 5 53 -56 0
52 4 49 1 50 5 53 -55 0
52 4 49 1 50 5 53 -51 0
29 44 28 43 37 39 30 38 -110 0
29 44 28 43 37 39 30 38 -113 0
29 44 28 43 37 39 30 38 -111 0
29 44 28 43 37 39 30 38 -112 0
29 44 28 43 37 39 30 38 -114 0
29 44 28 43 37 39 30 38 -109 0
29 8 28 17 37 9 30 14 -69 0
29 8 28 17 37 9 30 14 -70 0
29 8 28 17 37 9 30 14 -67 0
29 8 28 17 37 9 30 14 -71 0
29 8 28 17 37 9 30 14 -72 0
29 8 28 17 37 9 30 14 -68 0
29 21 28 26 37 23 30 18 -90 0
29 21 28 26 37 23 30 18 -93 0
29 21 28 26 37 23 30 18 -88 0
29 21 28 26 37 23 30 18 -89 0
29 21 28 26 37 23 30 18 -92 0
29 21 28 26 37 23 30 18 -91 0
29 6 28 4 37 1 30 5 -33 0
29 6 28 4 37 1 30 5 -32 0
29 6 28 4 37 1 30 5 -34 0
29 6 28 4 37 1 30 5 -35 0
29 6 28 4 37 1 30 5 -36 0
29 6 28 4 37 1 30 5 -31 0
29 52 28 49 37 50 30 53 -115 0
29 52 28 49 37 50 30 53 -117 0
29 52 28 49 37 50 30 53 -120 0
29 52 28 49 37 50 30 53 -119 0
29 52 28 49 37 50 30 53 -118 0
29 52 28 49 37 50 30 53 -116 0
44 8 43 17 39 9 38 14 -73 0
44 8 43 17 39 9 38 14 -77 0
44 8 43 17 39 9 38 14 -75 0
44 8 43 17 39 9 38 14 -78 0
44 8 43 17 39 9 38 14 -74 0
44 8 43 17 39 9 38 14 -76 0
44 21 43 26 39 23 38 18 -99 0
44 21 43 26 39 23 38 18 -96 0
44 21 43 26 39 23 38 18 -98 0
44 21 43 26 39 23 38 18 -97 0
44 21 43 26 39 23 38 18 -95 0
44 21 43 26 39 23 38 18 -94 0
44 6 43 4 39 1 38 5 -42 0
44 6 43 4 39 1 38 5 -45 0
44 6 43 4 39 1 38 5 -47 0
44 6 43 4 39 1 38 5 -46 0
44 6 43 4 39 1 38 5 -41 0
44 6 43 4 39 1 38 5 -40 0
44 52 43 49 39 50 38 53 -129 0
44 52 43 49 39 50 38 53 -125 0
44 52 43 49 39 50 38 53 -124 0
44 52 43 49 39 50 38 53 -126 0
44 52 43 49 39 50 38 53 -127 0
44 52 43 49 39 50 38 53 -128 0
8 21 17 26 9 23 14 18 -63 0
8 21 17 26 9 23 14 18 -61 0
8 21 17 26 9 23 14 18 -64 0
8 21 17 26 9 23 14 18 -66 0
8 21 17 26 9 23 14 18 -62 0
8 21 17 26 9 23 14 18 -65 0
8 6 17 4 9 1 14 5 -11 0
8 6 17 4 9 1 14 5 -12 0
8 6 17 4 9 1 14 5 -10 0
8 6 17 4 9 1 14 5 -13 0
8 6 17 4 9 1 14 5 -15 0
8 6 17 4 9 1 14 5 -16 0
8 52 17 49 9 50 14 53 -83 0
8 52 17 49 9 50 14 53 -84 0
8 52 17 49 9 50 14 53 -82 0
8 52 17 49 9 50 14 53 -81 0
8 52 17 49 9 50 14 53 -80 0
8 52 17 49 9 50 14 53 -79 0
21 6 26 4 23 1 18 5 -25 0
21 6 26 4 23 1 18 5 -20 0
21 6 26 4 23 1 18 5 -27 0
21 6 26 4 23 1 18 5 -22 0
21 6 26 4 23 1 18 5 -24 0
21 6 26 4 23 1 18 5 -19 0
21 52 26 49 23 50 18 53 -100 0
21 52 26 49 23 50 18 53 -104 0
21 52 26 49 23 50 18 53 -101 0
21 52 26 49 23 50 18 53 -105 0
21 52 26 49 23 50 18 53 -103 0
21 52 26 49 23 50 18 53 -102 0
6 52 4 49 1 50 5 53 -57 0
6 52 4 49 1 50 5 53 -54 0
6 52 4 49 1 50 5 53 -48 0
6 52 4 49 1 50 5 53 -56 0
6 52 4 49 1 50 5 53 -55 0
6 52 4 49 1 50 5 53 -51 0
