c E2(6,6) U1(6) E3(6,6) E1(6,6) U4(6) U3(6) U2(6) U4(0) E1(6,0) U1(0) E2(0,6) E3(6,0) U3(0) U2(0) E3(0,6) E2(6,0) E1(0,6) E2(6,1) E3(1,6) E3(6,1) E1(1,6) E2(1,6) E1(6,1) U3(1) U2(1) U4(1) U1(1) E1(6,2) U4(2) E2(2,6) E1(2,6) U2(2) U3(2) U1(2) E2(6,2) E3(2,6) E3(6,2) E3(6,3) E2(6,3) E1(6,3) E1(3,6) E2(3,6) U4(3) U3(3) U2(3) U1(3) E3(3,6) E2(5,6) U1(5) E1(5,6) E3(6,5) U3(5) U2(5) E2(6,5) E1(6,5) E3(5,6) U4(5) E3(6,4) U4(4) E2(4,6) U3(4) U2(4) E3(4,6) E2(6,4) E1(4,6) U1(4) E1(6,4) E3(0,0) E1(0,0) E2(0,0) E2(0,1) E1(0,1) E2(1,0) E3(0,1) E3(1,0) E1(1,0) E2(2,0) E3(0,2) E3(2,0) E1(2,0) E2(0,2) E1(0,2) E1(0,3) E1(3,0) E3(3,0) E3(0,3) E2(0,3) E2(3,0) E2(5,0) E1(0,5) E1(5,0) E3(0,5) E2(0,5) E3(5,0) E2(4,0) E3(4,0) E1(0,4) E2(0,4) E1(4,0) E3(0,4) E3(1,1) E1(1,1) E2(1,1) E3(2,1) E1(2,1) E3(1,2) E1(1,2) E2(1,2) E2(2,1) E2(1,3) E3(3,1) E2(3,1) E1(1,3) E3(1,3) E1(3,1) E1(5,1) E2(5,1) E3(5,1) E1(1,5) E3(1,5) E2(1,5) E1(1,4) E2(1,4) E3(1,4) E2(4,1) E3(4,1) E1(4,1) E2(2,2) E3(2,2) E1(2,2) E1(3,2) E3(3,2) E1(2,3) E2(2,3) E2(3,2) E3(2,3) E2(5,2) E2(2,5) E3(2,5) E1(2,5) E1(5,2) E3(5,2) E1(2,4) E3(4,2) E1(4,2) E2(4,2) E3(2,4) E2(2,4) E3(3,3) E1(3,3) E2(3,3) E2(3,5) E1(3,5) E1(5,3) E2(5,3) E3(3,5) E3(5,3) E1(3,4) E3(3,4) E2(3,4) E1(4,3) E3(4,3) E2(4,3) E2(5,5) E3(5,5) E1(5,5) E1(5,4) E2(5,4) E3(5,4) E2(4,5) E3(4,5) E1(4,5) E2(4,4) E3(4,4) E1(4,4)
c 1 2 3 4 5 6 7 8 9 10 11 12 13 14 15 16 17 18 19 20 21 22 23 24 25 26 27 28 29 30 31 32 33 34 35 36 37 38 39 40 41 42 43 44 45 46 47 48 49 50 51 52 53 54 55 56 57 58 59 60 61 62 63 64 65 66 67 68 69 70 71 72 73 74 75 76 77 78 79 80 81 82 83 84 85 86 87 88 89 90 91 92 93 94 95 96 97 98 99 100 101 102 103 104 105 106 107 108 109 110 111 112 113 114 115 116 117 118 119 120 121 122 123 124 125 126 127 128 129 130 131 132 133 134 135 136 137 138 139 140 141 142 143 144 145 146 147 148 149 150 151 152 153 154 155 156 157 158 159 160 161 162 163 164 165 166 167 168 169 170 171 172 173 174 175
p cnf 175 4879
69 -69 0
72 -76 0
82 -80 0
83 -84 0
97 -99 0
90 -91 0
17 -9 0
76 -72 0
102 -102 0
107 -105 0
113 -115 0
122 -127 0
119 -116 0
21 -23 0
80 -82 0
105 -107 0
130 -130 0
133 -131 0
143 -145 0
140 -141 0
31 -28 0
84 -83 0
115 -113 0
131 -133 0
150 -150 0
158 -161 0
153 -154 0
41 -40 0
99 -97 0
127 -122 0
145 -143 0
161 -158 0
175 -175 0
172 -167 0
65 -67 0
91 -90 0
116 -119 0
141 -140 0
154 -153 0
167 -172 0
166 -166 0
50 -55 0
9 -17 0
23 -21 0
28 -31 0
40 -41 0
67 -65 0
55 -50 0
4 -4 0
70 -70 0
71 -73 0
81 -77 0
87 -88 0
98 -95 0
93 -89 0
11 -16 0
73 -71 0
103 -103 0
108 -109 0
110 -112 0
123 -125 0
121 -117 0
22 -18 0
77 -81 0
109 -108 0
128 -128 0
134 -135 0
148 -146 0
138 -137 0
30 -35 0
88 -87 0
112 -110 0
135 -134 0
151 -151 0
160 -163 0
152 -155 0
42 -39 0
95 -98 0
125 -123 0
146 -148 0
163 -160 0
173 -173 0
170 -168 0
60 -64 0
89 -93 0
117 -121 0
137 -138 0
155 -152 0
168 -170 0
164 -164 0
48 -54 0
16 -11 0
18 -22 0
35 -30 0
39 -42 0
64 -60 0
54 -48 0
1 -1 0
68 -68 0
74 -75 0
78 -79 0
86 -85 0
100 -96 0
92 -94 0
15 -12 0
75 -74 0
101 -101 0
106 -104 0
114 -111 0
124 -126 0
120 -118 0
19 -20 0
79 -78 0
104 -106 0
129 -129 0
136 -132 0
147 -144 0
139 -142 0
36 -37 0
85 -86 0
111 -114 0
132 -136 0
149 -149 0
159 -162 0
156 -157 0
47 -38 0
96 -100 0
126 -124 0
144 -147 0
162 -159 0
174 -174 0
171 -169 0
63 -58 0
94 -92 0
118 -120 0
142 -139 0
157 -156 0
169 -171 0
165 -165 0
56 -51 0
12 -15 0
20 -19 0
37 -36 0
38 -47 0
58 -63 0
51 -56 0
3 -3 0
-69 -70 0
-69 -68 0
-72 -71 0
-72 -74 0
-82 -81 0
-82 -78 0
-83 -87 0
-83 -86 0
-97 -98 0
-97 -100 0
-90 -93 0
-90 -92 0
-17 -11 0
-17 -15 0
-76 -73 0
-76 -75 0
-102 -103 0
-102 -101 0
-107 -108 0
-107 -106 0
-113 -110 0
-113 -114 0
-122 -123 0
-122 -124 0
-119 -121 0
-119 -120 0
-21 -22 0
-21 -19 0
-80 -77 0
-80 -79 0
-105 -109 0
-105 -104 0
-130 -128 0
-130 -129 0
-133 -134 0
-133 -136 0
-143 -148 0
-143 -147 0
-140 -138 0
-140 -139 0
-31 -30 0
-31 -36 0
-84 -88 0
-84 -85 0
-115 -112 0
-115 -111 0
-131 -135 0
-131 -132 0
-150 -151 0
-150 -149 0
-158 -160 0
-158 -159 0
-153 -152 0
-153 -156 0
-41 -42 0
-41 -47 0
-99 -95 0
-99 -96 0
-127 -125 0
-127 -126 0
-145 -146 0
-145 -144 0
-161 -163 0
-161 -162 0
-175 -173 0
-175 -174 0
-172 -170 0
-172 -171 0
-65 -60 0
-65 -63 0
-91 -89 0
-91 -94 0
-116 -117 0
-116 -118 0
-141 -137 0
-141 -142 0
-154 -155 0
-154 -157 0
-167 -168 0
-167 -169 0
-166 -164 0
-166 -165 0
-50 -48 0
-50 -56 0
-9 -16 0
-9 -12 0
-23 -18 0
-23 -20 0
-28 -35 0
-28 -37 0
-40 -39 0
-40 -38 0
-67 -64 0
-67 -58 0
-55 -54 0
-55 -51 0
-4 -1 0
-4 -3 0
-70 -68 0
-71 -74 0
-81 -78 0
-87 -86 0
-98 -100 0
-93 -92 0
-11 -15 0
-73 -75 0
-103 -101 0
-108 -106 0
-110 -114 0
-123 -124 0
-121 -120 0
-22 -19 0
-77 -79 0
-109 -104 0
-128 -129 0
-134 -136 0
-148 -147 0
-138 -139 0
-30 -36 0
-88 -85 0
-112 -111 0
-135 -132 0
-151 -149 0
-160 -159 0
-152 -156 0
-42 -47 0
-95 -96 0
-125 -126 0
-146 -144 0
-163 -162 0
-173 -174 0
-170 -171 0
-60 -63 0
-89 -94 0
-117 -118 0
-137 -142 0
-155 -157 0
-168 -169 0
-164 -165 0
-48 -56 0
-16 -12 0
-18 -20 0
-35 -37 0
-39 -38 0
-64 -58 0
-54 -51 0
-1 -3 0
-10 -14 0
-10 -13 0
-10 -8 0
-27 -25 0
-27 -24 0
-27 -26 0
-34 -32 0
-34 -33 0
-34 -29 0
-46 -45 0
-46 -44 0
-46 -43 0
-66 -62 0
-66 -61 0
-66 -59 0
-49 -53 0
-49 -52 0
-49 -57 0
-2 -7 0
-2 -6 0
-2 -5 0
-14 -13 0
-14 -8 0
-25 -24 0
-25 -26 0
-32 -33 0
-32 -29 0
-45 -44 0
-45 -43 0
-62 -61 0
-62 -59 0
-53 -52 0
-53 -57 0
-7 -6 0
-7 -5 0
-13 -8 0
-24 -26 0
-33 -29 0
-44 -43 0
-61 -59 0
-52 -57 0
-6 -5 0
10 14 13 8 0
27 25 24 26 0
34 32 33 29 0
46 45 44 43 0
66 62 61 59 0
49 53 52 57 0
2 7 6 5 0
10 14 13 -69 0
10 14 13 -70 0
10 14 13 -68 0
10 14 8 -69 0
10 14 8 -70 0
10 14 8 -68 0
10 13 8 -69 0
10 13 8 -70 0
10 13 8 -68 0
27 25 24 -102 0
27 25 24 -103 0
27 25 24 -101 0
27 25 26 -102 0
27 25 26 -103 0
27 25 26 -101 0
27 24 26 -102 0
27 24 26 -103 0
27 24 26 -101 0
34 32 33 -130 0
34 32 33 -128 0
34 32 33 -129 0
34 32 29 -130 0
34 32 29 -128 0
34 32 29 -129 0
34 33 29 -130 0
34 33 29 -128 0
34 33 29 -129 0
46 45 44 -150 0
46 45 44 -151 0
46 45 44 -149 0
46 45 43 -150 0
46 45 43 -151 0
46 45 43 -149 0
46 44 43 -150 0
46 44 43 -151 0
46 44 43 -149 0
66 62 61 -175 0
66 62 61 -173 0
66 62 61 -174 0
66 62 59 -175 0
66 62 59 -173 0
66 62 59 -174 0
66 61 59 -175 0
66 61 59 -173 0
66 61 59 -174 0
49 53 52 -166 0
49 53 52 -164 0
49 53 52 -165 0
49 53 57 -166 0
49 53 57 -164 0
49 53 57 -165 0
49 52 57 -166 0
49 52 57 -164 0
49 52 57 -165 0
2 7 6 -4 0
2 7 6 -1 0
2 7 6 -3 0
2 7 5 -4 0
2 7 5 -1 0
2 7 5 -3 0
2 6 5 -4 0
2 6 5 -1 0
2 6 5 -3 0
14 13 8 -69 0
14 13 8 -70 0
14 13 8 -68 0
25 24 26 -102 0
25 24 26 -103 0
25 24 26 -101 0
32 33 29 -130 0
32 33 29 -128 0
32 33 29 -129 0
45 44 43 -150 0
45 44 43 -151 0
45 44 43 -149 0
62 61 59 -175 0
62 61 59 -173 0
62 61 59 -174 0
53 52 57 -166 0
53 52 57 -164 0
53 52 57 -165 0
7 6 5 -4 0
7 6 5 -1 0
7 6 5 -3 0
10 14 13 8 -69 0
10 14 13 8 -72 0
10 14 13 8 -82 0
10 14 13 8 -83 0
10 14 13 8 -97 0
10 14 13 8 -90 0
10 14 13 8 -17 0
10 14 13 8 -76 0
10 14 13 8 -80 0
10 14 13 8 -84 0
10 14 13 8 -99 0
10 14 13 8 -91 0
10 14 13 8 -9 0
10 14 13 8 -70 0
10 14 13 8 -71 0
10 14 13 8 -81 0
10 14 13 8 -87 0
10 14 13 8 -98 0
10 14 13 8 -93 0
10 14 13 8 -11 0
10 14 13 8 -73 0
10 14 13 8 -77 0
10 14 13 8 -88 0
10 14 13 8 -95 0
10 14 13 8 -89 0
10 14 13 8 -16 0
10 14 13 8 -68 0
10 14 13 8 -74 0
10 14 13 8 -78 0
10 14 13 8 -86 0
10 14 13 8 -100 0
10 14 13 8 -92 0
10 14 13 8 -15 0
10 14 13 8 -75 0
10 14 13 8 -79 0
10 14 13 8 -85 0
10 14 13 8 -96 0
10 14 13 8 -94 0
10 14 13 8 -12 0
27 25 24 26 -72 0
27 25 24 26 -76 0
27 25 24 26 -102 0
27 25 24 26 -107 0
27 25 24 26 -113 0
27 25 24 26 -122 0
27 25 24 26 -119 0
27 25 24 26 -21 0
27 25 24 26 -105 0
27 25 24 26 -115 0
27 25 24 26 -127 0
27 25 24 26 -116 0
27 25 24 26 -23 0
27 25 24 26 -71 0
27 25 24 26 -73 0
27 25 24 26 -103 0
27 25 24 26 -108 0
27 25 24 26 -110 0
27 25 24 26 -123 0
27 25 24 26 -121 0
27 25 24 26 -22 0
27 25 24 26 -109 0
27 25 24 26 -112 0
27 25 24 26 -125 0
27 25 24 26 -117 0
27 25 24 26 -18 0
27 25 24 26 -74 0
27 25 24 26 -75 0
27 25 24 26 -101 0
27 25 24 26 -106 0
27 25 24 26 -114 0
27 25 24 26 -124 0
27 25 24 26 -120 0
27 25 24 26 -19 0
27 25 24 26 -104 0
27 25 24 26 -111 0
27 25 24 26 -126 0
27 25 24 26 -118 0
27 25 24 26 -20 0
34 32 33 29 -82 0
34 32 33 29 -107 0
34 32 33 29 -80 0
34 32 33 29 -105 0
34 32 33 29 -130 0
34 32 33 29 -133 0
34 32 33 29 -143 0
34 32 33 29 -140 0
34 32 33 29 -31 0
34 32 33 29 -131 0
34 32 33 29 -145 0
34 32 33 29 -141 0
34 32 33 29 -28 0
34 32 33 29 -81 0
34 32 33 29 -108 0
34 32 33 29 -77 0
34 32 33 29 -109 0
34 32 33 29 -128 0
34 32 33 29 -134 0
34 32 33 29 -148 0
34 32 33 29 -138 0
34 32 33 29 -30 0
34 32 33 29 -135 0
34 32 33 29 -146 0
34 32 33 29 -137 0
34 32 33 29 -35 0
34 32 33 29 -78 0
34 32 33 29 -106 0
34 32 33 29 -79 0
34 32 33 29 -104 0
34 32 33 29 -129 0
34 32 33 29 -136 0
34 32 33 29 -147 0
34 32 33 29 -139 0
34 32 33 29 -36 0
34 32 33 29 -132 0
34 32 33 29 -144 0
34 32 33 29 -142 0
34 32 33 29 -37 0
46 45 44 43 -83 0
46 45 44 43 -113 0
46 45 44 43 -133 0
46 45 44 43 -84 0
46 45 44 43 -115 0
46 45 44 43 -131 0
46 45 44 43 -150 0
46 45 44 43 -158 0
46 45 44 43 -153 0
46 45 44 43 -41 0
46 45 44 43 -161 0
46 45 44 43 -154 0
46 45 44 43 -40 0
46 45 44 43 -87 0
46 45 44 43 -110 0
46 45 44 43 -134 0
46 45 44 43 -88 0
46 45 44 43 -112 0
46 45 44 43 -135 0
46 45 44 43 -151 0
46 45 44 43 -160 0
46 45 44 43 -152 0
46 45 44 43 -42 0
46 45 44 43 -163 0
46 45 44 43 -155 0
46 45 44 43 -39 0
46 45 44 43 -86 0
46 45 44 43 -114 0
46 45 44 43 -136 0
46 45 44 43 -85 0
46 45 44 43 -111 0
46 45 44 43 -132 0
46 45 44 43 -149 0
46 45 44 43 -159 0
46 45 44 43 -156 0
46 45 44 43 -47 0
46 45 44 43 -162 0
46 45 44 43 -157 0
46 45 44 43 -38 0
66 62 61 59 -97 0
66 62 61 59 -122 0
66 62 61 59 -143 0
66 62 61 59 -158 0
66 62 61 59 -99 0
66 62 61 59 -127 0
66 62 61 59 -145 0
66 62 61 59 -161 0
66 62 61 59 -175 0
66 62 61 59 -172 0
66 62 61 59 -65 0
66 62 61 59 -167 0
66 62 61 59 -67 0
66 62 61 59 -98 0
66 62 61 59 -123 0
66 62 61 59 -148 0
66 62 61 59 -160 0
66 62 61 59 -95 0
66 62 61 59 -125 0
66 62 61 59 -146 0
66 62 61 59 -163 0
66 62 61 59 -173 0
66 62 61 59 -170 0
66 62 61 59 -60 0
66 62 61 59 -168 0
66 62 61 59 -64 0
66 62 61 59 -100 0
66 62 61 59 -124 0
66 62 61 59 -147 0
66 62 61 59 -159 0
66 62 61 59 -96 0
66 62 61 59 -126 0
66 62 61 59 -144 0
66 62 61 59 -162 0
66 62 61 59 -174 0
66 62 61 59 -171 0
66 62 61 59 -63 0
66 62 61 59 -169 0
66 62 61 59 -58 0
49 53 52 57 -90 0
49 53 52 57 -119 0
49 53 52 57 -140 0
49 53 52 57 -153 0
49 53 52 57 -172 0
49 53 52 57 -91 0
49 53 52 57 -116 0
49 53 52 57 -141 0
49 53 52 57 -154 0
49 53 52 57 -167 0
49 53 52 57 -166 0
49 53 52 57 -50 0
49 53 52 57 -55 0
49 53 52 57 -93 0
49 53 52 57 -121 0
49 53 52 57 -138 0
49 53 52 57 -152 0
49 53 52 57 -170 0
49 53 52 57 -89 0
49 53 52 57 -117 0
49 53 52 57 -137 0
49 53 52 57 -155 0
49 53 52 57 -168 0
49 53 52 57 -164 0
49 53 52 57 -48 0
49 53 52 57 -54 0
49 53 52 57 -92 0
49 53 52 57 -120 0
49 53 52 57 -139 0
49 53 52 57 -156 0
49 53 52 57 -171 0
49 53 52 57 -94 0
49 53 52 57 -118 0
49 53 52 57 -142 0
49 53 52 57 -157 0
49 53 52 57 -169 0
49 53 52 57 -165 0
49 53 52 57 -56 0
49 53 52 57 -51 0
2 7 6 5 -17 0
2 7 6 5 -21 0
2 7 6 5 -31 0
2 7 6 5 -41 0
2 7 6 5 -65 0
2 7 6 5 -50 0
2 7 6 5 -9 0
2 7 6 5 -23 0
2 7 6 5 -28 0
2 7 6 5 -40 0
2 7 6 5 -67 0
2 7 6 5 -55 0
2 7 6 5 -4 0
2 7 6 5 -11 0
2 7 6 5 -22 0
2 7 6 5 -30 0
2 7 6 5 -42 0
2 7 6 5 -60 0
2 7 6 5 -48 0
2 7 6 5 -16 0
2 7 6 5 -18 0
2 7 6 5 -35 0
2 7 6 5 -39 0
2 7 6 5 -64 0
2 7 6 5 -54 0
2 7 6 5 -1 0
2 7 6 5 -15 0
2 7 6 5 -19 0
2 7 6 5 -36 0
2 7 6 5 -47 0
2 7 6 5 -63 0
2 7 6 5 -56 0
2 7 6 5 -12 0
2 7 6 5 -20 0
2 7 6 5 -37 0
2 7 6 5 -38 0
2 7 6 5 -58 0
2 7 6 5 -51 0
2 7 6 5 -3 0
10 27 14 13 8 -72 0
10 27 14 13 8 -76 0
10 27 14 13 8 -71 0
10 27 14 13 8 -73 0
10 27 14 13 8 -74 0
10 27 14 13 8 -75 0
10 27 25 24 26 -72 0
10 27 25 24 26 -76 0
10 27 25 24 26 -71 0
10 27 25 24 26 -73 0
10 27 25 24 26 -74 0
10 27 25 24 26 -75 0
10 34 14 13 8 -82 0
10 34 14 13 8 -80 0
10 34 14 13 8 -81 0
10 34 14 13 8 -77 0
10 34 14 13 8 -78 0
10 34 14 13 8 -79 0
10 34 32 33 29 -82 0
10 34 32 33 29 -80 0
10 34 32 33 29 -81 0
10 34 32 33 29 -77 0
10 34 32 33 29 -78 0
10 34 32 33 29 -79 0
10 46 14 13 8 -83 0
10 46 14 13 8 -84 0
10 46 14 13 8 -87 0
10 46 14 13 8 -88 0
10 46 14 13 8 -86 0
10 46 14 13 8 -85 0
10 46 45 44 43 -83 0
10 46 45 44 43 -84 0
10 46 45 44 43 -87 0
10 46 45 44 43 -88 0
10 46 45 44 43 -86 0
10 46 45 44 43 -85 0
10 66 14 13 8 -97 0
10 66 14 13 8 -99 0
10 66 14 13 8 -98 0
10 66 14 13 8 -95 0
10 66 14 13 8 -100 0
10 66 14 13 8 -96 0
10 66 62 61 59 -97 0
10 66 62 61 59 -99 0
10 66 62 61 59 -98 0
10 66 62 61 59 -95 0
10 66 62 61 59 -100 0
10 66 62 61 59 -96 0
10 49 14 13 8 -90 0
10 49 14 13 8 -91 0
10 49 14 13 8 -93 0
10 49 14 13 8 -89 0
10 49 14 13 8 -92 0
10 49 14 13 8 -94 0
10 49 53 52 57 -90 0
10 49 53 52 57 -91 0
10 49 53 52 57 -93 0
10 49 53 52 57 -89 0
10 49 53 52 57 -92 0
10 49 53 52 57 -94 0
10 2 14 13 8 -17 0
10 2 14 13 8 -9 0
10 2 14 13 8 -11 0
10 2 14 13 8 -16 0
10 2 14 13 8 -15 0
10 2 14 13 8 -12 0
10 2 7 6 5 -17 0
10 2 7 6 5 -9 0
10 2 7 6 5 -11 0
10 2 7 6 5 -16 0
10 2 7 6 5 -15 0
10 2 7 6 5 -12 0
10 14 25 13 8 -72 0
10 14 25 13 8 -76 0
10 14 25 13 8 -71 0
10 14 25 13 8 -73 0
10 14 25 13 8 -74 0
10 14 25 13 8 -75 0
10 14 32 13 8 -82 0
10 14 32 13 8 -80 0
10 14 32 13 8 -81 0
10 14 32 13 8 -77 0
10 14 32 13 8 -78 0
10 14 32 13 8 -79 0
10 14 45 13 8 -83 0
10 14 45 13 8 -84 0
10 14 45 13 8 -87 0
10 14 45 13 8 -88 0
10 14 45 13 8 -86 0
10 14 45 13 8 -85 0
10 14 62 13 8 -97 0
10 14 62 13 8 -99 0
10 14 62 13 8 -98 0
10 14 62 13 8 -95 0
10 14 62 13 8 -100 0
10 14 62 13 8 -96 0
10 14 53 13 8 -90 0
10 14 53 13 8 -91 0
10 14 53 13 8 -93 0
10 14 53 13 8 -89 0
10 14 53 13 8 -92 0
10 14 53 13 8 -94 0
10 14 7 13 8 -17 0
10 14 7 13 8 -9 0
10 14 7 13 8 -11 0
10 14 7 13 8 -16 0
10 14 7 13 8 -15 0
10 14 7 13 8 -12 0
10 14 13 24 8 -72 0
10 14 13 24 8 -76 0
10 14 13 24 8 -71 0
10 14 13 24 8 -73 0
10 14 13 24 8 -74 0
10 14 13 24 8 -75 0
10 14 13 33 8 -82 0
10 14 13 33 8 -80 0
10 14 13 33 8 -81 0
10 14 13 33 8 -77 0
10 14 13 33 8 -78 0
10 14 13 33 8 -79 0
10 14 13 44 8 -83 0
10 14 13 44 8 -84 0
10 14 13 44 8 -87 0
10 14 13 44 8 -88 0
10 14 13 44 8 -86 0
10 14 13 44 8 -85 0
10 14 13 61 8 -97 0
10 14 13 61 8 -99 0
10 14 13 61 8 -98 0
10 14 13 61 8 -95 0
10 14 13 61 8 -100 0
10 14 13 61 8 -96 0
10 14 13 52 8 -90 0
10 14 13 52 8 -91 0
10 14 13 52 8 -93 0
10 14 13 52 8 -89 0
10 14 13 52 8 -92 0
10 14 13 52 8 -94 0
10 14 13 6 8 -17 0
10 14 13 6 8 -9 0
10 14 13 6 8 -11 0
10 14 13 6 8 -16 0
10 14 13 6 8 -15 0
10 14 13 6 8 -12 0
10 14 13 8 26 -72 0
10 14 13 8 26 -76 0
10 14 13 8 26 -71 0
10 14 13 8 26 -73 0
10 14 13 8 26 -74 0
10 14 13 8 26 -75 0
10 14 13 8 29 -82 0
10 14 13 8 29 -80 0
10 14 13 8 29 -81 0
10 14 13 8 29 -77 0
10 14 13 8 29 -78 0
10 14 13 8 29 -79 0
10 14 13 8 43 -83 0
10 14 13 8 43 -84 0
10 14 13 8 43 -87 0
10 14 13 8 43 -88 0
10 14 13 8 43 -86 0
10 14 13 8 43 -85 0
10 14 13 8 59 -97 0
10 14 13 8 59 -99 0
10 14 13 8 59 -98 0
10 14 13 8 59 -95 0
10 14 13 8 59 -100 0
10 14 13 8 59 -96 0
10 14 13 8 57 -90 0
10 14 13 8 57 -91 0
10 14 13 8 57 -93 0
10 14 13 8 57 -89 0
10 14 13 8 57 -92 0
10 14 13 8 57 -94 0
10 14 13 8 5 -17 0
10 14 13 8 5 -9 0
10 14 13 8 5 -11 0
10 14 13 8 5 -16 0
10 14 13 8 5 -15 0
10 14 13 8 5 -12 0
27 34 25 24 26 -107 0
27 34 25 24 26 -105 0
27 34 25 24 26 -108 0
27 34 25 24 26 -109 0
27 34 25 24 26 -106 0
27 34 25 24 26 -104 0
27 34 32 33 29 -107 0
27 34 32 33 29 -105 0
27 34 32 33 29 -108 0
27 34 32 33 29 -109 0
27 34 32 33 29 -106 0
27 34 32 33 29 -104 0
27 46 25 24 26 -113 0
27 46 25 24 26 -115 0
27 46 25 24 26 -110 0
27 46 25 24 26 -112 0
27 46 25 24 26 -114 0
27 46 25 24 26 -111 0
27 46 45 44 43 -113 0
27 46 45 44 43 -115 0
27 46 45 44 43 -110 0
27 46 45 44 43 -112 0
27 46 45 44 43 -114 0
27 46 45 44 43 -111 0
27 66 25 24 26 -122 0
27 66 25 24 26 -127 0
27 66 25 24 26 -123 0
27 66 25 24 26 -125 0
27 66 25 24 26 -124 0
27 66 25 24 26 -126 0
27 66 62 61 59 -122 0
27 66 62 61 59 -127 0
27 66 62 61 59 -123 0
27 66 62 61 59 -125 0
27 66 62 61 59 -124 0
27 66 62 61 59 -126 0
27 49 25 24 26 -119 0
27 49 25 24 26 -116 0
27 49 25 24 26 -121 0
27 49 25 24 26 -117 0
27 49 25 24 26 -120 0
27 49 25 24 26 -118 0
27 49 53 52 57 -119 0
27 49 53 52 57 -116 0
27 49 53 52 57 -121 0
27 49 53 52 57 -117 0
27 49 53 52 57 -120 0
27 49 53 52 57 -118 0
27 2 25 24 26 -21 0
27 2 25 24 26 -23 0
27 2 25 24 26 -22 0
27 2 25 24 26 -18 0
27 2 25 24 26 -19 0
27 2 25 24 26 -20 0
27 2 7 6 5 -21 0
27 2 7 6 5 -23 0
27 2 7 6 5 -22 0
27 2 7 6 5 -18 0
27 2 7 6 5 -19 0
27 2 7 6 5 -20 0
27 14 25 24 26 -72 0
27 14 25 24 26 -76 0
27 14 25 24 26 -71 0
27 14 25 24 26 -73 0
27 14 25 24 26 -74 0
27 14 25 24 26 -75 0
27 25 32 24 26 -107 0
27 25 32 24 26 -105 0
27 25 32 24 26 -108 0
27 25 32 24 26 -109 0
27 25 32 24 26 -106 0
27 25 32 24 26 -104 0
27 25 45 24 26 -113 0
27 25 45 24 26 -115 0
27 25 45 24 26 -110 0
27 25 45 24 26 -112 0
27 25 45 24 26 -114 0
27 25 45 24 26 -111 0
27 25 62 24 26 -122 0
27 25 62 24 26 -127 0
27 25 62 24 26 -123 0
27 25 62 24 26 -125 0
27 25 62 24 26 -124 0
27 25 62 24 26 -126 0
27 25 53 24 26 -119 0
27 25 53 24 26 -116 0
27 25 53 24 26 -121 0
27 25 53 24 26 -117 0
27 25 53 24 26 -120 0
27 25 53 24 26 -118 0
27 25 7 24 26 -21 0
27 25 7 24 26 -23 0
27 25 7 24 26 -22 0
27 25 7 24 26 -18 0
27 25 7 24 26 -19 0
27 25 7 24 26 -20 0
27 25 13 24 26 -72 0
27 25 13 24 26 -76 0
27 25 13 24 26 -71 0
27 25 13 24 26 -73 0
27 25 13 24 26 -74 0
27 25 13 24 26 -75 0
27 25 24 33 26 -107 0
27 25 24 33 26 -105 0
27 25 24 33 26 -108 0
27 25 24 33 26 -109 0
27 25 24 33 26 -106 0
27 25 24 33 26 -104 0
27 25 24 44 26 -113 0
27 25 24 44 26 -115 0
27 25 24 44 26 -110 0
27 25 24 44 26 -112 0
27 25 24 44 26 -114 0
27 25 24 44 26 -111 0
27 25 24 61 26 -122 0
27 25 24 61 26 -127 0
27 25 24 61 26 -123 0
27 25 24 61 26 -125 0
27 25 24 61 26 -124 0
27 25 24 61 26 -126 0
27 25 24 52 26 -119 0
27 25 24 52 26 -116 0
27 25 24 52 26 -121 0
27 25 24 52 26 -117 0
27 25 24 52 26 -120 0
27 25 24 52 26 -118 0
27 25 24 6 26 -21 0
27 25 24 6 26 -23 0
27 25 24 6 26 -22 0
27 25 24 6 26 -18 0
27 25 24 6 26 -19 0
27 25 24 6 26 -20 0
27 25 24 8 26 -72 0
27 25 24 8 26 -76 0
27 25 24 8 26 -71 0
27 25 24 8 26 -73 0
27 25 24 8 26 -74 0
27 25 24 8 26 -75 0
27 25 24 26 29 -107 0
27 25 24 26 29 -105 0
27 25 24 26 29 -108 0
27 25 24 26 29 -109 0
27 25 24 26 29 -106 0
27 25 24 26 29 -104 0
27 25 24 26 43 -113 0
27 25 24 26 43 -115 0
27 25 24 26 43 -110 0
27 25 24 26 43 -112 0
27 25 24 26 43 -114 0
27 25 24 26 43 -111 0
27 25 24 26 59 -122 0
27 25 24 26 59 -127 0
27 25 24 26 59 -123 0
27 25 24 26 59 -125 0
27 25 24 26 59 -124 0
27 25 24 26 59 -126 0
27 25 24 26 57 -119 0
27 25 24 26 57 -116 0
27 25 24 26 57 -121 0
27 25 24 26 57 -117 0
27 25 24 26 57 -120 0
27 25 24 26 57 -118 0
27 25 24 26 5 -21 0
27 25 24 26 5 -23 0
27 25 24 26 5 -22 0
27 25 24 26 5 -18 0
27 25 24 26 5 -19 0
27 25 24 26 5 -20 0
34 46 32 33 29 -133 0
34 46 32 33 29 -131 0
34 46 32 33 29 -134 0
34 46 32 33 29 -135 0
34 46 32 33 29 -136 0
34 46 32 33 29 -132 0
34 46 45 44 43 -133 0
34 46 45 44 43 -131 0
34 46 45 44 43 -134 0
34 46 45 44 43 -135 0
34 46 45 44 43 -136 0
34 46 45 44 43 -132 0
34 66 32 33 29 -143 0
34 66 32 33 29 -145 0
34 66 32 33 29 -148 0
34 66 32 33 29 -146 0
34 66 32 33 29 -147 0
34 66 32 33 29 -144 0
34 66 62 61 59 -143 0
34 66 62 61 59 -145 0
34 66 62 61 59 -148 0
34 66 62 61 59 -146 0
34 66 62 61 59 -147 0
34 66 62 61 59 -144 0
34 49 32 33 29 -140 0
34 49 32 33 29 -141 0
34 49 32 33 29 -138 0
34 49 32 33 29 -137 0
34 49 32 33 29 -139 0
34 49 32 33 29 -142 0
34 49 53 52 57 -140 0
34 49 53 52 57 -141 0
34 49 53 52 57 -138 0
34 49 53 52 57 -137 0
34 49 53 52 57 -139 0
34 49 53 52 57 -142 0
34 2 32 33 29 -31 0
34 2 32 33 29 -28 0
34 2 32 33 29 -30 0
34 2 32 33 29 -35 0
34 2 32 33 29 -36 0
34 2 32 33 29 -37 0
34 2 7 6 5 -31 0
34 2 7 6 5 -28 0
34 2 7 6 5 -30 0
34 2 7 6 5 -35 0
34 2 7 6 5 -36 0
34 2 7 6 5 -37 0
34 14 32 33 29 -82 0
34 14 32 33 29 -80 0
34 14 32 33 29 -81 0
34 14 32 33 29 -77 0
34 14 32 33 29 -78 0
34 14 32 33 29 -79 0
34 25 32 33 29 -107 0
34 25 32 33 29 -105 0
34 25 32 33 29 -108 0
34 25 32 33 29 -109 0
34 25 32 33 29 -106 0
34 25 32 33 29 -104 0
34 32 45 33 29 -133 0
34 32 45 33 29 -131 0
34 32 45 33 29 -134 0
34 32 45 33 29 -135 0
34 32 45 33 29 -136 0
34 32 45 33 29 -132 0
34 32 62 33 29 -143 0
34 32 62 33 29 -145 0
34 32 62 33 29 -148 0
34 32 62 33 29 -146 0
34 32 62 33 29 -147 0
34 32 62 33 29 -144 0
34 32 53 33 29 -140 0
34 32 53 33 29 -141 0
34 32 53 33 29 -138 0
34 32 53 33 29 -137 0
34 32 53 33 29 -139 0
34 32 53 33 29 -142 0
34 32 7 33 29 -31 0
34 32 7 33 29 -28 0
34 32 7 33 29 -30 0
34 32 7 33 29 -35 0
34 32 7 33 29 -36 0
34 32 7 33 29 -37 0
34 32 13 33 29 -82 0
34 32 13 33 29 -80 0
34 32 13 33 29 -81 0
34 32 13 33 29 -77 0
34 32 13 33 29 -78 0
34 32 13 33 29 -79 0
34 32 24 33 29 -107 0
34 32 24 33 29 -105 0
34 32 24 33 29 -108 0
34 32 24 33 29 -109 0
34 32 24 33 29 -106 0
34 32 24 33 29 -104 0
34 32 33 44 29 -133 0
34 32 33 44 29 -131 0
34 32 33 44 29 -134 0
34 32 33 44 29 -135 0
34 32 33 44 29 -136 0
34 32 33 44 29 -132 0
34 32 33 61 29 -143 0
34 32 33 61 29 -145 0
34 32 33 61 29 -148 0
34 32 33 61 29 -146 0
34 32 33 61 29 -147 0
34 32 33 61 29 -144 0
34 32 33 52 29 -140 0
34 32 33 52 29 -141 0
34 32 33 52 29 -138 0
34 32 33 52 29 -137 0
34 32 33 52 29 -139 0
34 32 33 52 29 -142 0
34 32 33 6 29 -31 0
34 32 33 6 29 -28 0
34 32 33 6 29 -30 0
34 32 33 6 29 -35 0
34 32 33 6 29 -36 0
34 32 33 6 29 -37 0
34 32 33 8 29 -82 0
34 32 33 8 29 -80 0
34 32 33 8 29 -81 0
34 32 33 8 29 -77 0
34 32 33 8 29 -78 0
34 32 33 8 29 -79 0
34 32 33 26 29 -107 0
34 32 33 26 29 -105 0
34 32 33 26 29 -108 0
34 32 33 26 29 -109 0
34 32 33 26 29 -106 0
34 32 33 26 29 -104 0
34 32 33 29 43 -133 0
34 32 33 29 43 -131 0
34 32 33 29 43 -134 0
34 32 33 29 43 -135 0
34 32 33 29 43 -136 0
34 32 33 29 43 -132 0
34 32 33 29 59 -143 0
34 32 33 29 59 -145 0
34 32 33 29 59 -148 0
34 32 33 29 59 -146 0
34 32 33 29 59 -147 0
34 32 33 29 59 -144 0
34 32 33 29 57 -140 0
34 32 33 29 57 -141 0
34 32 33 29 57 -138 0
34 32 33 29 57 -137 0
34 32 33 29 57 -139 0
34 32 33 29 57 -142 0
34 32 33 29 5 -31 0
34 32 33 29 5 -28 0
34 32 33 29 5 -30 0
34 32 33 29 5 -35 0
34 32 33 29 5 -36 0
34 32 33 29 5 -37 0
46 66 45 44 43 -158 0
46 66 45 44 43 -161 0
46 66 45 44 43 -160 0
46 66 45 44 43 -163 0
46 66 45 44 43 -159 0
46 66 45 44 43 -162 0
46 66 62 61 59 -158 0
46 66 62 61 59 -161 0
46 66 62 61 59 -160 0
46 66 62 61 59 -163 0
46 66 62 61 59 -159 0
46 66 62 61 59 -162 0
46 49 45 44 43 -153 0
46 49 45 44 43 -154 0
46 49 45 44 43 -152 0
46 49 45 44 43 -155 0
46 49 45 44 43 -156 0
46 49 45 44 43 -157 0
46 49 53 52 57 -153 0
46 49 53 52 57 -154 0
46 49 53 52 57 -152 0
46 49 53 52 57 -155 0
46 49 53 52 57 -156 0
46 49 53 52 57 -157 0
46 2 45 44 43 -41 0
46 2 45 44 43 -40 0
46 2 45 44 43 -42 0
46 2 45 44 43 -39 0
46 2 45 44 43 -47 0
46 2 45 44 43 -38 0
46 2 7 6 5 -41 0
46 2 7 6 5 -40 0
46 2 7 6 5 -42 0
46 2 7 6 5 -39 0
46 2 7 6 5 -47 0
46 2 7 6 5 -38 0
46 14 45 44 43 -83 0
46 14 45 44 43 -84 0
46 14 45 44 43 -87 0
46 14 45 44 43 -88 0
46 14 45 44 43 -86 0
46 14 45 44 43 -85 0
46 25 45 44 43 -113 0
46 25 45 44 43 -115 0
46 25 45 44 43 -110 0
46 25 45 44 43 -112 0
46 25 45 44 43 -114 0
46 25 45 44 43 -111 0
46 32 45 44 43 -133 0
46 32 45 44 43 -131 0
46 32 45 44 43 -134 0
46 32 45 44 43 -135 0
46 32 45 44 43 -136 0
46 32 45 44 43 -132 0
46 45 62 44 43 -158 0
46 45 62 44 43 -161 0
46 45 62 44 43 -160 0
46 45 62 44 43 -163 0
46 45 62 44 43 -159 0
46 45 62 44 43 -162 0
46 45 53 44 43 -153 0
46 45 53 44 43 -154 0
46 45 53 44 43 -152 0
46 45 53 44 43 -155 0
46 45 53 44 43 -156 0
46 45 53 44 43 -157 0
46 45 7 44 43 -41 0
46 45 7 44 43 -40 0
46 45 7 44 43 -42 0
46 45 7 44 43 -39 0
46 45 7 44 43 -47 0
46 45 7 44 43 -38 0
46 45 13 44 43 -83 0
46 45 13 44 43 -84 0
46 45 13 44 43 -87 0
46 45 13 44 43 -88 0
46 45 13 44 43 -86 0
46 45 13 44 43 -85 0
46 45 24 44 43 -113 0
46 45 24 44 43 -115 0
46 45 24 44 43 -110 0
46 45 24 44 43 -112 0
46 45 24 44 43 -114 0
46 45 24 44 43 -111 0
46 45 33 44 43 -133 0
46 45 33 44 43 -131 0
46 45 33 44 43 -134 0
46 45 33 44 43 -135 0
46 45 33 44 43 -136 0
46 45 33 44 43 -132 0
46 45 44 61 43 -158 0
46 45 44 61 43 -161 0
46 45 44 61 43 -160 0
46 45 44 61 43 -163 0
46 45 44 61 43 -159 0
46 45 44 61 43 -162 0
46 45 44 52 43 -153 0
46 45 44 52 43 -154 0
46 45 44 52 43 -152 0
46 45 44 52 43 -155 0
46 45 44 52 43 -156 0
46 45 44 52 43 -157 0
46 45 44 6 43 -41 0
46 45 44 6 43 -40 0
46 45 44 6 43 -42 0
46 45 44 6 43 -39 0
46 45 44 6 43 -47 0
46 45 44 6 43 -38 0
46 45 44 8 43 -83 0
46 45 44 8 43 -84 0
46 45 44 8 43 -87 0
46 45 44 8 43 -88 0
46 45 44 8 43 -86 0
46 45 44 8 43 -85 0
46 45 44 26 43 -113 0
46 45 44 26 43 -115 0
46 45 44 26 43 -110 0
46 45 44 26 43 -112 0
46 45 44 26 43 -114 0
46 45 44 26 43 -111 0
46 45 44 29 43 -133 0
46 45 44 29 43 -131 0
46 45 44 29 43 -134 0
46 45 44 29 43 -135 0
46 45 44 29 43 -136 0
46 45 44 29 43 -132 0
46 45 44 43 59 -158 0
46 45 44 43 59 -161 0
46 45 44 43 59 -160 0
46 45 44 43 59 -163 0
46 45 44 43 59 -159 0
46 45 44 43 59 -162 0
46 45 44 43 57 -153 0
46 45 44 43 57 -154 0
46 45 44 43 57 -152 0
46 45 44 43 57 -155 0
46 45 44 43 57 -156 0
46 45 44 43 57 -157 0
46 45 44 43 5 -41 0
46 45 44 43 5 -40 0
46 45 44 43 5 -42 0
46 45 44 43 5 -39 0
46 45 44 43 5 -47 0
46 45 44 43 5 -38 0
66 49 62 61 59 -172 0
66 49 62 61 59 -167 0
66 49 62 61 59 -170 0
66 49 62 61 59 -168 0
66 49 62 61 59 -171 0
66 49 62 61 59 -169 0
66 49 53 52 57 -172 0
66 49 53 52 57 -167 0
66 49 53 52 57 -170 0
66 49 53 52 57 -168 0
66 49 53 52 57 -171 0
66 49 53 52 57 -169 0
66 2 62 61 59 -65 0
66 2 62 61 59 -67 0
66 2 62 61 59 -60 0
66 2 62 61 59 -64 0
66 2 62 61 59 -63 0
66 2 62 61 59 -58 0
66 2 7 6 5 -65 0
66 2 7 6 5 -67 0
66 2 7 6 5 -60 0
66 2 7 6 5 -64 0
66 2 7 6 5 -63 0
66 2 7 6 5 -58 0
66 14 62 61 59 -97 0
66 14 62 61 59 -99 0
66 14 62 61 59 -98 0
66 14 62 61 59 -95 0
66 14 62 61 59 -100 0
66 14 62 61 59 -96 0
66 25 62 61 59 -122 0
66 25 62 61 59 -127 0
66 25 62 61 59 -123 0
66 25 62 61 59 -125 0
66 25 62 61 59 -124 0
66 25 62 61 59 -126 0
66 32 62 61 59 -143 0
66 32 62 61 59 -145 0
66 32 62 61 59 -148 0
66 32 62 61 59 -146 0
66 32 62 61 59 -147 0
66 32 62 61 59 -144 0
66 45 62 61 59 -158 0
66 45 62 61 59 -161 0
66 45 62 61 59 -160 0
66 45 62 61 59 -163 0
66 45 62 61 59 -159 0
66 45 62 61 59 -162 0
66 62 53 61 59 -172 0
66 62 53 61 59 -167 0
66 62 53 61 59 -170 0
66 62 53 61 59 -168 0
66 62 53 61 59 -171 0
66 62 53 61 59 -169 0
66 62 7 61 59 -65 0
66 62 7 61 59 -67 0
66 62 7 61 59 -60 0
66 62 7 61 59 -64 0
66 62 7 61 59 -63 0
66 62 7 61 59 -58 0
66 62 13 61 59 -97 0
66 62 13 61 59 -99 0
66 62 13 61 59 -98 0
66 62 13 61 59 -95 0
66 62 13 61 59 -100 0
66 62 13 61 59 -96 0
66 62 24 61 59 -122 0
66 62 24 61 59 -127 0
66 62 24 61 59 -123 0
66 62 24 61 59 -125 0
66 62 24 61 59 -124 0
66 62 24 61 59 -126 0
66 62 33 61 59 -143 0
66 62 33 61 59 -145 0
66 62 33 61 59 -148 0
66 62 33 61 59 -146 0
66 62 33 61 59 -147 0
66 62 33 61 59 -144 0
66 62 44 61 59 -158 0
66 62 44 61 59 -161 0
66 62 44 61 59 -160 0
66 62 44 61 59 -163 0
66 62 44 61 59 -159 0
66 62 44 61 59 -162 0
66 62 61 52 59 -172 0
66 62 61 52 59 -167 0
66 62 61 52 59 -170 0
66 62 61 52 59 -168 0
66 62 61 52 59 -171 0
66 62 61 52 59 -169 0
66 62 61 6 59 -65 0
66 62 61 6 59 -67 0
66 62 61 6 59 -60 0
66 62 61 6 59 -64 0
66 62 61 6 59 -63 0
66 62 61 6 59 -58 0
66 62 61 8 59 -97 0
66 62 61 8 59 -99 0
66 62 61 8 59 -98 0
66 62 61 8 59 -95 0
66 62 61 8 59 -100 0
66 62 61 8 59 -96 0
66 62 61 26 59 -122 0
66 62 61 26 59 -127 0
66 62 61 26 59 -123 0
66 62 61 26 59 -125 0
66 62 61 26 59 -124 0
66 62 61 26 59 -126 0
66 62 61 29 59 -143 0
66 62 61 29 59 -145 0
66 62 61 29 59 -148 0
66 62 61 29 59 -146 0
66 62 61 29 59 -147 0
66 62 61 29 59 -144 0
66 62 61 43 59 -158 0
66 62 61 43 59 -161 0
66 62 61 43 59 -160 0
66 62 61 43 59 -163 0
66 62 61 43 59 -159 0
66 62 61 43 59 -162 0
66 62 61 59 57 -172 0
66 62 61 59 57 -167 0
66 62 61 59 57 -170 0
66 62 61 59 57 -168 0
66 62 61 59 57 -171 0
66 62 61 59 57 -169 0
66 62 61 59 5 -65 0
66 62 61 59 5 -67 0
66 62 61 59 5 -60 0
66 62 61 59 5 -64 0
66 62 61 59 5 -63 0
66 62 61 59 5 -58 0
49 2 53 52 57 -50 0
49 2 53 52 57 -55 0
49 2 53 52 57 -48 0
49 2 53 52 57 -54 0
49 2 53 52 57 -56 0
49 2 53 52 57 -51 0
49 2 7 6 5 -50 0
49 2 7 6 5 -55 0
49 2 7 6 5 -48 0
49 2 7 6 5 -54 0
49 2 7 6 5 -56 0
49 2 7 6 5 -51 0
49 14 53 52 57 -90 0
49 14 53 52 57 -91 0
49 14 53 52 57 -93 0
49 14 53 52 57 -89 0
49 14 53 52 57 -92 0
49 14 53 52 57 -94 0
49 25 53 52 57 -119 0
49 25 53 52 57 -116 0
49 25 53 52 57 -121 0
49 25 53 52 57 -117 0
49 25 53 52 57 -120 0
49 25 53 52 57 -118 0
49 32 53 52 57 -140 0
49 32 53 52 57 -141 0
49 32 53 52 57 -138 0
49 32 53 52 57 -137 0
49 32 53 52 57 -139 0
49 32 53 52 57 -142 0
49 45 53 52 57 -153 0
49 45 53 52 57 -154 0
49 45 53 52 57 -152 0
49 45 53 52 57 -155 0
49 45 53 52 57 -156 0
49 45 53 52 57 -157 0
49 62 53 52 57 -172 0
49 62 53 52 57 -167 0
49 62 53 52 57 -170 0
49 62 53 52 57 -168 0
49 62 53 52 57 -171 0
49 62 53 52 57 -169 0
49 53 7 52 57 -50 0
49 53 7 52 57 -55 0
49 53 7 52 57 -48 0
49 53 7 52 57 -54 0
49 53 7 52 57 -56 0
49 53 7 52 57 -51 0
49 53 13 52 57 -90 0
49 53 13 52 57 -91 0
49 53 13 52 57 -93 0
49 53 13 52 57 -89 0
49 53 13 52 57 -92 0
49 53 13 52 57 -94 0
49 53 24 52 57 -119 0
49 53 24 52 57 -116 0
49 53 24 52 57 -121 0
49 53 24 52 57 -117 0
49 53 24 52 57 -120 0
49 53 24 52 57 -118 0
49 53 33 52 57 -140 0
49 53 33 52 57 -141 0
49 53 33 52 57 -138 0
49 53 33 52 57 -137 0
49 53 33 52 57 -139 0
49 53 33 52 57 -142 0
49 53 44 52 57 -153 0
49 53 44 52 57 -154 0
49 53 44 52 57 -152 0
49 53 44 52 57 -155 0
49 53 44 52 57 -156 0
49 53 44 52 57 -157 0
49 53 61 52 57 -172 0
49 53 61 52 57 -167 0
49 53 61 52 57 -170 0
49 53 61 52 57 -168 0
49 53 61 52 57 -171 0
49 53 61 52 57 -169 0
49 53 52 6 57 -50 0
49 53 52 6 57 -55 0
49 53 52 6 57 -48 0
49 53 52 6 57 -54 0
49 53 52 6 57 -56 0
49 53 52 6 57 -51 0
49 53 52 8 57 -90 0
49 53 52 8 57 -91 0
49 53 52 8 57 -93 0
49 53 52 8 57 -89 0
49 53 52 8 57 -92 0
49 53 52 8 57 -94 0
49 53 52 26 57 -119 0
49 53 52 26 57 -116 0
49 53 52 26 57 -121 0
49 53 52 26 57 -117 0
49 53 52 26 57 -120 0
49 53 52 26 57 -118 0
49 53 52 29 57 -140 0
49 53 52 29 57 -141 0
49 53 52 29 57 -138 0
49 53 52 29 57 -137 0
49 53 52 29 57 -139 0
49 53 52 29 57 -142 0
49 53 52 43 57 -153 0
49 53 52 43 57 -154 0
49 53 52 43 57 -152 0
49 53 52 43 57 -155 0
49 53 52 43 57 -156 0
49 53 52 43 57 -157 0
49 53 52 59 57 -172 0
49 53 52 59 57 -167 0
49 53 52 59 57 -170 0
49 53 52 59 57 -168 0
49 53 52 59 57 -171 0
49 53 52 59 57 -169 0
49 53 52 57 5 -50 0
49 53 52 57 5 -55 0
49 53 52 57 5 -48 0
49 53 52 57 5 -54 0
49 53 52 57 5 -56 0
49 53 52 57 5 -51 0
2 14 7 6 5 -17 0
2 14 7 6 5 -9 0
2 14 7 6 5 -11 0
2 14 7 6 5 -16 0
2 14 7 6 5 -15 0
2 14 7 6 5 -12 0
2 25 7 6 5 -21 0
2 25 7 6 5 -23 0
2 25 7 6 5 -22 0
2 25 7 6 5 -18 0
2 25 7 6 5 -19 0
2 25 7 6 5 -20 0
2 32 7 6 5 -31 0
2 32 7 6 5 -28 0
2 32 7 6 5 -30 0
2 32 7 6 5 -35 0
2 32 7 6 5 -36 0
2 32 7 6 5 -37 0
2 45 7 6 5 -41 0
2 45 7 6 5 -40 0
2 45 7 6 5 -42 0
2 45 7 6 5 -39 0
2 45 7 6 5 -47 0
2 45 7 6 5 -38 0
2 62 7 6 5 -65 0
2 62 7 6 5 -67 0
2 62 7 6 5 -60 0
2 62 7 6 5 -64 0
2 62 7 6 5 -63 0
2 62 7 6 5 -58 0
2 53 7 6 5 -50 0
2 53 7 6 5 -55 0
2 53 7 6 5 -48 0
2 53 7 6 5 -54 0
2 53 7 6 5 -56 0
2 53 7 6 5 -51 0
2 7 13 6 5 -17 0
2 7 13 6 5 -9 0
2 7 13 6 5 -11 0
2 7 13 6 5 -16 0
2 7 13 6 5 -15 0
2 7 13 6 5 -12 0
2 7 24 6 5 -21 0
2 7 24 6 5 -23 0
2 7 24 6 5 -22 0
2 7 24 6 5 -18 0
2 7 24 6 5 -19 0
2 7 24 6 5 -20 0
2 7 33 6 5 -31 0
2 7 33 6 5 -28 0
2 7 33 6 5 -30 0
2 7 33 6 5 -35 0
2 7 33 6 5 -36 0
2 7 33 6 5 -37 0
2 7 44 6 5 -41 0
2 7 44 6 5 -40 0
2 7 44 6 5 -42 0
2 7 44 6 5 -39 0
2 7 44 6 5 -47 0
2 7 44 6 5 -38 0
2 7 61 6 5 -65 0
2 7 61 6 5 -67 0
2 7 61 6 5 -60 0
2 7 61 6 5 -64 0
2 7 61 6 5 -63 0
2 7 61 6 5 -58 0
2 7 52 6 5 -50 0
2 7 52 6 5 -55 0
2 7 52 6 5 -48 0
2 7 52 6 5 -54 0
2 7 52 6 5 -56 0
2 7 52 6 5 -51 0
2 7 6 8 5 -17 0
2 7 6 8 5 -9 0
2 7 6 8 5 -11 0
2 7 6 8 5 -16 0
2 7 6 8 5 -15 0
2 7 6 8 5 -12 0
2 7 6 26 5 -21 0
2 7 6 26 5 -23 0
2 7 6 26 5 -22 0
2 7 6 26 5 -18 0
2 7 6 26 5 -19 0
2 7 6 26 5 -20 0
2 7 6 29 5 -31 0
2 7 6 29 5 -28 0
2 7 6 29 5 -30 0
2 7 6 29 5 -35 0
2 7 6 29 5 -36 0
2 7 6 29 5 -37 0
2 7 6 43 5 -41 0
2 7 6 43 5 -40 0
2 7 6 43 5 -42 0
2 7 6 43 5 -39 0
2 7 6 43 5 -47 0
2 7 6 43 5 -38 0
2 7 6 59 5 -65 0
2 7 6 59 5 -67 0
2 7 6 59 5 -60 0
2 7 6 59 5 -64 0
2 7 6 59 5 -63 0
2 7 6 59 5 -58 0
2 7 6 57 5 -50 0
2 7 6 57 5 -55 0
2 7 6 57 5 -48 0
2 7 6 57 5 -54 0
2 7 6 57 5 -56 0
2 7 6 57 5 -51 0
69 72 82 83 97 90 17 0
76 102 107 113 122 119 21 0
80 105 130 133 143 140 31 0
84 115 131 150 158 153 41 0
99 127 145 161 175 172 65 0
91 116 141 154 167 166 50 0
9 23 28 40 67 55 4 0
70 71 81 87 98 93 11 0
73 103 108 110 123 121 22 0
77 109 128 134 148 138 30 0
88 112 135 151 160 152 42 0
95 125 146 163 173 170 60 0
89 117 137 155 168 164 48 0
16 18 35 39 64 54 1 0
68 74 78 86 100 92 15 0
75 101 106 114 124 120 19 0
79 104 129 136 147 139 36 0
85 111 132 149 159 156 47 0
96 126 144 162 174 171 63 0
94 118 142 157 169 165 56 0
12 20 37 38 58 51 3 0
10 27 14 25 13 24 -72 0
10 27 14 25 13 24 -76 0
10 27 14 25 13 24 -71 0
10 27 14 25 13 24 -73 0
10 27 14 25 13 24 -74 0
10 27 14 25 13 24 -75 0
10 27 14 25 13 8 -72 0
10 27 14 25 13 8 -76 0
10 27 14 25 13 8 -71 0
10 27 14 25 13 8 -73 0
10 27 14 25 13 8 -74 0
10 27 14 25 13 8 -75 0
10 27 14 25 24 26 -72 0
10 27 14 25 24 26 -76 0
10 27 14 25 24 26 -71 0
10 27 14 25 24 26 -73 0
10 27 14 25 24 26 -74 0
10 27 14 25 24 26 -75 0
10 27 14 25 8 26 -72 0
10 27 14 25 8 26 -76 0
10 27 14 25 8 26 -71 0
10 27 14 25 8 26 -73 0
10 27 14 25 8 26 -74 0
10 27 14 25 8 26 -75 0
10 27 14 13 24 8 -72 0
10 27 14 13 24 8 -76 0
10 27 14 13 24 8 -71 0
10 27 14 13 24 8 -73 0
10 27 14 13 24 8 -74 0
10 27 14 13 24 8 -75 0
10 27 14 13 8 26 -72 0
10 27 14 13 8 26 -76 0
10 27 14 13 8 26 -71 0
10 27 14 13 8 26 -73 0
10 27 14 13 8 26 -74 0
10 27 14 13 8 26 -75 0
10 27 25 13 24 26 -72 0
10 27 25 13 24 26 -76 0
10 27 25 13 24 26 -71 0
10 27 25 13 24 26 -73 0
10 27 25 13 24 26 -74 0
10 27 25 13 24 26 -75 0
10 27 25 24 8 26 -72 0
10 27 25 24 8 26 -76 0
10 27 25 24 8 26 -71 0
10 27 25 24 8 26 -73 0
10 27 25 24 8 26 -74 0
10 27 25 24 8 26 -75 0
10 27 13 24 8 26 -72 0
10 27 13 24 8 26 -76 0
10 27 13 24 8 26 -71 0
10 27 13 24 8 26 -73 0
10 27 13 24 8 26 -74 0
10 27 13 24 8 26 -75 0
10 34 14 32 13 33 -82 0
10 34 14 32 13 33 -80 0
10 34 14 32 13 33 -81 0
10 34 14 32 13 33 -77 0
10 34 14 32 13 33 -78 0
10 34 14 32 13 33 -79 0
10 34 14 32 13 8 -82 0
10 34 14 32 13 8 -80 0
10 34 14 32 13 8 -81 0
10 34 14 32 13 8 -77 0
10 34 14 32 13 8 -78 0
10 34 14 32 13 8 -79 0
10 34 14 32 33 29 -82 0
10 34 14 32 33 29 -80 0
10 34 14 32 33 29 -81 0
10 34 14 32 33 29 -77 0
10 34 14 32 33 29 -78 0
10 34 14 32 33 29 -79 0
10 34 14 32 8 29 -82 0
10 34 14 32 8 29 -80 0
10 34 14 32 8 29 -81 0
10 34 14 32 8 29 -77 0
10 34 14 32 8 29 -78 0
10 34 14 32 8 29 -79 0
10 34 14 13 33 8 -82 0
10 34 14 13 33 8 -80 0
10 34 14 13 33 8 -81 0
10 34 14 13 33 8 -77 0
10 34 14 13 33 8 -78 0
10 34 14 13 33 8 -79 0
10 34 14 13 8 29 -82 0
10 34 14 13 8 29 -80 0
10 34 14 13 8 29 -81 0
10 34 14 13 8 29 -77 0
10 34 14 13 8 29 -78 0
10 34 14 13 8 29 -79 0
10 34 32 13 33 29 -82 0
10 34 32 13 33 29 -80 0
10 34 32 13 33 29 -81 0
10 34 32 13 33 29 -77 0
10 34 32 13 33 29 -78 0
10 34 32 13 33 29 -79 0
10 34 32 33 8 29 -82 0
10 34 32 33 8 29 -80 0
10 34 32 33 8 29 -81 0
10 34 32 33 8 29 -77 0
10 34 32 33 8 29 -78 0
10 34 32 33 8 29 -79 0
10 34 13 33 8 29 -82 0
10 34 13 33 8 29 -80 0
10 34 13 33 8 29 -81 0
10 34 13 33 8 29 -77 0
10 34 13 33 8 29 -78 0
10 34 13 33 8 29 -79 0
10 46 14 45 13 44 -83 0
10 46 14 45 13 44 -84 0
10 46 14 45 13 44 -87 0
10 46 14 45 13 44 -88 0
10 46 14 45 13 44 -86 0
10 46 14 45 13 44 -85 0
10 46 14 45 13 8 -83 0
10 46 14 45 13 8 -84 0
10 46 14 45 13 8 -87 0
10 46 14 45 13 8 -88 0
10 46 14 45 13 8 -86 0
10 46 14 45 13 8 -85 0
10 46 14 45 44 43 -83 0
10 46 14 45 44 43 -84 0
10 46 14 45 44 43 -87 0
10 46 14 45 44 43 -88 0
10 46 14 45 44 43 -86 0
10 46 14 45 44 43 -85 0
10 46 14 45 8 43 -83 0
10 46 14 45 8 43 -84 0
10 46 14 45 8 43 -87 0
10 46 14 45 8 43 -88 0
10 46 14 45 8 43 -86 0
10 46 14 45 8 43 -85 0
10 46 14 13 44 8 -83 0
10 46 14 13 44 8 -84 0
10 46 14 13 44 8 -87 0
10 46 14 13 44 8 -88 0
10 46 14 13 44 8 -86 0
10 46 14 13 44 8 -85 0
10 46 14 13 8 43 -83 0
10 46 14 13 8 43 -84 0
10 46 14 13 8 43 -87 0
10 46 14 13 8 43 -88 0
10 46 14 13 8 43 -86 0
10 46 14 13 8 43 -85 0
10 46 45 13 44 43 -83 0
10 46 45 13 44 43 -84 0
10 46 45 13 44 43 -87 0
10 46 45 13 44 43 -88 0
10 46 45 13 44 43 -86 0
10 46 45 13 44 43 -85 0
10 46 45 44 8 43 -83 0
10 46 45 44 8 43 -84 0
10 46 45 44 8 43 -87 0
10 46 45 44 8 43 -88 0
10 46 45 44 8 43 -86 0
10 46 45 44 8 43 -85 0
10 46 13 44 8 43 -83 0
10 46 13 44 8 43 -84 0
10 46 13 44 8 43 -87 0
10 46 13 44 8 43 -88 0
10 46 13 44 8 43 -86 0
10 46 13 44 8 43 -85 0
10 66 14 62 13 61 -97 0
10 66 14 62 13 61 -99 0
10 66 14 62 13 61 -98 0
10 66 14 62 13 61 -95 0
10 66 14 62 13 61 -100 0
10 66 14 62 13 61 -96 0
10 66 14 62 13 8 -97 0
10 66 14 62 13 8 -99 0
10 66 14 62 13 8 -98 0
10 66 14 62 13 8 -95 0
10 66 14 62 13 8 -100 0
10 66 14 62 13 8 -96 0
10 66 14 62 61 59 -97 0
10 66 14 62 61 59 -99 0
10 66 14 62 61 59 -98 0
10 66 14 62 61 59 -95 0
10 66 14 62 61 59 -100 0
10 66 14 62 61 59 -96 0
10 66 14 62 8 59 -97 0
10 66 14 62 8 59 -99 0
10 66 14 62 8 59 -98 0
10 66 14 62 8 59 -95 0
10 66 14 62 8 59 -100 0
10 66 14 62 8 59 -96 0
10 66 14 13 61 8 -97 0
10 66 14 13 61 8 -99 0
10 66 14 13 61 8 -98 0
10 66 14 13 61 8 -95 0
10 66 14 13 61 8 -100 0
10 66 14 13 61 8 -96 0
10 66 14 13 8 59 -97 0
10 66 14 13 8 59 -99 0
10 66 14 13 8 59 -98 0
10 66 14 13 8 59 -95 0
10 66 14 13 8 59 -100 0
10 66 14 13 8 59 -96 0
10 66 62 13 61 59 -97 0
10 66 62 13 61 59 -99 0
10 66 62 13 61 59 -98 0
10 66 62 13 61 59 -95 0
10 66 62 13 61 59 -100 0
10 66 62 13 61 59 -96 0
10 66 62 61 8 59 -97 0
10 66 62 61 8 59 -99 0
10 66 62 61 8 59 -98 0
10 66 62 61 8 59 -95 0
10 66 62 61 8 59 -100 0
10 66 62 61 8 59 -96 0
10 66 13 61 8 59 -97 0
10 66 13 61 8 59 -99 0
10 66 13 61 8 59 -98 0
10 66 13 61 8 59 -95 0
10 66 13 61 8 59 -100 0
10 66 13 61 8 59 -96 0
10 49 14 53 13 52 -90 0
10 49 14 53 13 52 -91 0
10 49 14 53 13 52 -93 0
10 49 14 53 13 52 -89 0
10 49 14 53 13 52 -92 0
10 49 14 53 13 52 -94 0
10 49 14 53 13 8 -90 0
10 49 14 53 13 8 -91 0
10 49 14 53 13 8 -93 0
10 49 14 53 13 8 -89 0
10 49 14 53 13 8 -92 0
10 49 14 53 13 8 -94 0
10 49 14 53 52 57 -90 0
10 49 14 53 52 57 -91 0
10 49 14 53 52 57 -93 0
10 49 14 53 52 57 -89 0
10 49 14 53 52 57 -92 0
10 49 14 53 52 57 -94 0
10 49 14 53 8 57 -90 0
10 49 14 53 8 57 -91 0
10 49 14 53 8 57 -93 0
10 49 14 53 8 57 -89 0
10 49 14 53 8 57 -92 0
10 49 14 53 8 57 -94 0
10 49 14 13 52 8 -90 0
10 49 14 13 52 8 -91 0
10 49 14 13 52 8 -93 0
10 49 14 13 52 8 -89 0
10 49 14 13 52 8 -92 0
10 49 14 13 52 8 -94 0
10 49 14 13 8 57 -90 0
10 49 14 13 8 57 -91 0
10 49 14 13 8 57 -93 0
10 49 14 13 8 57 -89 0
10 49 14 13 8 57 -92 0
10 49 14 13 8 57 -94 0
10 49 53 13 52 57 -90 0
10 49 53 13 52 57 -91 0
10 49 53 13 52 57 -93 0
10 49 53 13 52 57 -89 0
10 49 53 13 52 57 -92 0
10 49 53 13 52 57 -94 0
10 49 53 52 8 57 -90 0
10 49 53 52 8 57 -91 0
10 49 53 52 8 57 -93 0
10 49 53 52 8 57 -89 0
10 49 53 52 8 57 -92 0
10 49 53 52 8 57 -94 0
10 49 13 52 8 57 -90 0
10 49 13 52 8 57 -91 0
10 49 13 52 8 57 -93 0
10 49 13 52 8 57 -89 0
10 49 13 52 8 57 -92 0
10 49 13 52 8 57 -94 0
10 2 14 7 13 6 -17 0
10 2 14 7 13 6 -9 0
10 2 14 7 13 6 -11 0
10 2 14 7 13 6 -16 0
10 2 14 7 13 6 -15 0
10 2 14 7 13 6 -12 0
10 2 14 7 13 8 -17 0
10 2 14 7 13 8 -9 0
10 2 14 7 13 8 -11 0
10 2 14 7 13 8 -16 0
10 2 14 7 13 8 -15 0
10 2 14 7 13 8 -12 0
10 2 14 7 6 5 -17 0
10 2 14 7 6 5 -9 0
10 2 14 7 6 5 -11 0
10 2 14 7 6 5 -16 0
10 2 14 7 6 5 -15 0
10 2 14 7 6 5 -12 0
10 2 14 7 8 5 -17 0
10 2 14 7 8 5 -9 0
10 2 14 7 8 5 -11 0
10 2 14 7 8 5 -16 0
10 2 14 7 8 5 -15 0
10 2 14 7 8 5 -12 0
10 2 14 13 6 8 -17 0
10 2 14 13 6 8 -9 0
10 2 14 13 6 8 -11 0
10 2 14 13 6 8 -16 0
10 2 14 13 6 8 -15 0
10 2 14 13 6 8 -12 0
10 2 14 13 8 5 -17 0
10 2 14 13 8 5 -9 0
10 2 14 13 8 5 -11 0
10 2 14 13 8 5 -16 0
10 2 14 13 8 5 -15 0
10 2 14 13 8 5 -12 0
10 2 7 13 6 5 -17 0
10 2 7 13 6 5 -9 0
10 2 7 13 6 5 -11 0
10 2 7 13 6 5 -16 0
10 2 7 13 6 5 -15 0
10 2 7 13 6 5 -12 0
10 2 7 6 8 5 -17 0
10 2 7 6 8 5 -9 0
10 2 7 6 8 5 -11 0
10 2 7 6 8 5 -16 0
10 2 7 6 8 5 -15 0
10 2 7 6 8 5 -12 0
10 2 13 6 8 5 -17 0
10 2 13 6 8 5 -9 0
10 2 13 6 8 5 -11 0
10 2 13 6 8 5 -16 0
10 2 13 6 8 5 -15 0
10 2 13 6 8 5 -12 0
10 14 25 13 24 8 -72 0
10 14 25 13 24 8 -76 0
10 14 25 13 24 8 -71 0
10 14 25 13 24 8 -73 0
10 14 25 13 24 8 -74 0
10 14 25 13 24 8 -75 0
10 14 25 13 8 26 -72 0
10 14 25 13 8 26 -76 0
10 14 25 13 8 26 -71 0
10 14 25 13 8 26 -73 0
10 14 25 13 8 26 -74 0
10 14 25 13 8 26 -75 0
10 14 32 13 33 8 -82 0
10 14 32 13 33 8 -80 0
10 14 32 13 33 8 -81 0
10 14 32 13 33 8 -77 0
10 14 32 13 33 8 -78 0
10 14 32 13 33 8 -79 0
10 14 32 13 8 29 -82 0
10 14 32 13 8 29 -80 0
10 14 32 13 8 29 -81 0
10 14 32 13 8 29 -77 0
10 14 32 13 8 29 -78 0
10 14 32 13 8 29 -79 0
10 14 45 13 44 8 -83 0
10 14 45 13 44 8 -84 0
10 14 45 13 44 8 -87 0
10 14 45 13 44 8 -88 0
10 14 45 13 44 8 -86 0
10 14 45 13 44 8 -85 0
10 14 45 13 8 43 -83 0
10 14 45 13 8 43 -84 0
10 14 45 13 8 43 -87 0
10 14 45 13 8 43 -88 0
10 14 45 13 8 43 -86 0
10 14 45 13 8 43 -85 0
10 14 62 13 61 8 -97 0
10 14 62 13 61 8 -99 0
10 14 62 13 61 8 -98 0
10 14 62 13 61 8 -95 0
10 14 62 13 61 8 -100 0
10 14 62 13 61 8 -96 0
10 14 62 13 8 59 -97 0
10 14 62 13 8 59 -99 0
10 14 62 13 8 59 -98 0
10 14 62 13 8 59 -95 0
10 14 62 13 8 59 -100 0
10 14 62 13 8 59 -96 0
10 14 53 13 52 8 -90 0
10 14 53 13 52 8 -91 0
10 14 53 13 52 8 -93 0
10 14 53 13 52 8 -89 0
10 14 53 13 52 8 -92 0
10 14 53 13 52 8 -94 0
10 14 53 13 8 57 -90 0
10 14 53 13 8 57 -91 0
10 14 53 13 8 57 -93 0
10 14 53 13 8 57 -89 0
10 14 53 13 8 57 -92 0
10 14 53 13 8 57 -94 0
10 14 7 13 6 8 -17 0
10 14 7 13 6 8 -9 0
10 14 7 13 6 8 -11 0
10 14 7 13 6 8 -16 0
10 14 7 13 6 8 -15 0
10 14 7 13 6 8 -12 0
10 14 7 13 8 5 -17 0
10 14 7 13 8 5 -9 0
10 14 7 13 8 5 -11 0
10 14 7 13 8 5 -16 0
10 14 7 13 8 5 -15 0
10 14 7 13 8 5 -12 0
10 14 13 24 8 26 -72 0
10 14 13 24 8 26 -76 0
10 14 13 24 8 26 -71 0
10 14 13 24 8 26 -73 0
10 14 13 24 8 26 -74 0
10 14 13 24 8 26 -75 0
10 14 13 33 8 29 -82 0
10 14 13 33 8 29 -80 0
10 14 13 33 8 29 -81 0
10 14 13 33 8 29 -77 0
10 14 13 33 8 29 -78 0
10 14 13 33 8 29 -79 0
10 14 13 44 8 43 -83 0
10 14 13 44 8 43 -84 0
10 14 13 44 8 43 -87 0
10 14 13 44 8 43 -88 0
10 14 13 44 8 43 -86 0
10 14 13 44 8 43 -85 0
10 14 13 61 8 59 -97 0
10 14 13 61 8 59 -99 0
10 14 13 61 8 59 -98 0
10 14 13 61 8 59 -95 0
10 14 13 61 8 59 -100 0
10 14 13 61 8 59 -96 0
10 14 13 52 8 57 -90 0
10 14 13 52 8 57 -91 0
10 14 13 52 8 57 -93 0
10 14 13 52 8 57 -89 0
10 14 13 52 8 57 -92 0
10 14 13 52 8 57 -94 0
10 14 13 6 8 5 -17 0
10 14 13 6 8 5 -9 0
10 14 13 6 8 5 -11 0
10 14 13 6 8 5 -16 0
10 14 13 6 8 5 -15 0
10 14 13 6 8 5 -12 0
27 34 25 32 24 33 -107 0
27 34 25 32 24 33 -105 0
27 34 25 32 24 33 -108 0
27 34 25 32 24 33 -109 0
27 34 25 32 24 33 -106 0
27 34 25 32 24 33 -104 0
27 34 25 32 24 26 -107 0
27 34 25 32 24 26 -105 0
27 34 25 32 24 26 -108 0
27 34 25 32 24 26 -109 0
27 34 25 32 24 26 -106 0
27 34 25 32 24 26 -104 0
27 34 25 32 33 29 -107 0
27 34 25 32 33 29 -105 0
27 34 25 32 33 29 -108 0
27 34 25 32 33 29 -109 0
27 34 25 32 33 29 -106 0
27 34 25 32 33 29 -104 0
27 34 25 32 26 29 -107 0
27 34 25 32 26 29 -105 0
27 34 25 32 26 29 -108 0
27 34 25 32 26 29 -109 0
27 34 25 32 26 29 -106 0
27 34 25 32 26 29 -104 0
27 34 25 24 33 26 -107 0
27 34 25 24 33 26 -105 0
27 34 25 24 33 26 -108 0
27 34 25 24 33 26 -109 0
27 34 25 24 33 26 -106 0
27 34 25 24 33 26 -104 0
27 34 25 24 26 29 -107 0
27 34 25 24 26 29 -105 0
27 34 25 24 26 29 -108 0
27 34 25 24 26 29 -109 0
27 34 25 24 26 29 -106 0
27 34 25 24 26 29 -104 0
27 34 32 24 33 29 -107 0
27 34 32 24 33 29 -105 0
27 34 32 24 33 29 -108 0
27 34 32 24 33 29 -109 0
27 34 32 24 33 29 -106 0
27 34 32 24 33 29 -104 0
27 34 32 33 26 29 -107 0
27 34 32 33 26 29 -105 0
27 34 32 33 26 29 -108 0
27 34 32 33 26 29 -109 0
27 34 32 33 26 29 -106 0
27 34 32 33 26 29 -104 0
27 34 24 33 26 29 -107 0
27 34 24 33 26 29 -105 0
27 34 24 33 26 29 -108 0
27 34 24 33 26 29 -109 0
27 34 24 33 26 29 -106 0
27 34 24 33 26 29 -104 0
27 46 25 45 24 44 -113 0
27 46 25 45 24 44 -115 0
27 46 25 45 24 44 -110 0
27 46 25 45 24 44 -112 0
27 46 25 45 24 44 -114 0
27 46 25 45 24 44 -111 0
27 46 25 45 24 26 -113 0
27 46 25 45 24 26 -115 0
27 46 25 45 24 26 -110 0
27 46 25 45 24 26 -112 0
27 46 25 45 24 26 -114 0
27 46 25 45 24 26 -111 0
27 46 25 45 44 43 -113 0
27 46 25 45 44 43 -115 0
27 46 25 45 44 43 -110 0
27 46 25 45 44 43 -112 0
27 46 25 45 44 43 -114 0
27 46 25 45 44 43 -111 0
27 46 25 45 26 43 -113 0
27 46 25 45 26 43 -115 0
27 46 25 45 26 43 -110 0
27 46 25 45 26 43 -112 0
27 46 25 45 26 43 -114 0
27 46 25 45 26 43 -111 0
27 46 25 24 44 26 -113 0
27 46 25 24 44 26 -115 0
27 46 25 24 44 26 -110 0
27 46 25 24 44 26 -112 0
27 46 25 24 44 26 -114 0
27 46 25 24 44 26 -111 0
27 46 25 24 26 43 -113 0
27 46 25 24 26 43 -115 0
27 46 25 24 26 43 -110 0
27 46 25 24 26 43 -112 0
27 46 25 24 26 43 -114 0
27 46 25 24 26 43 -111 0
27 46 45 24 44 43 -113 0
27 46 45 24 44 43 -115 0
27 46 45 24 44 43 -110 0
27 46 45 24 44 43 -112 0
27 46 45 24 44 43 -114 0
27 46 45 24 44 43 -111 0
27 46 45 44 26 43 -113 0
27 46 45 44 26 43 -115 0
27 46 45 44 26 43 -110 0
27 46 45 44 26 43 -112 0
27 46 45 44 26 43 -114 0
27 46 45 44 26 43 -111 0
27 46 24 44 26 43 -113 0
27 46 24 44 26 43 -115 0
27 46 24 44 26 43 -110 0
27 46 24 44 26 43 -112 0
27 46 24 44 26 43 -114 0
27 46 24 44 26 43 -111 0
27 66 25 62 24 61 -122 0
27 66 25 62 24 61 -127 0
27 66 25 62 24 61 -123 0
27 66 25 62 24 61 -125 0
27 66 25 62 24 61 -124 0
27 66 25 62 24 61 -126 0
27 66 25 62 24 26 -122 0
27 66 25 62 24 26 -127 0
27 66 25 62 24 26 -123 0
27 66 25 62 24 26 -125 0
27 66 25 62 24 26 -124 0
27 66 25 62 24 26 -126 0
27 66 25 62 61 59 -122 0
27 66 25 62 61 59 -127 0
27 66 25 62 61 59 -123 0
27 66 25 62 61 59 -125 0
27 66 25 62 61 59 -124 0
27 66 25 62 61 59 -126 0
27 66 25 62 26 59 -122 0
27 66 25 62 26 59 -127 0
27 66 25 62 26 59 -123 0
27 66 25 62 26 59 -125 0
27 66 25 62 26 59 -124 0
27 66 25 62 26 59 -126 0
27 66 25 24 61 26 -122 0
27 66 25 24 61 26 -127 0
27 66 25 24 61 26 -123 0
27 66 25 24 61 26 -125 0
27 66 25 24 61 26 -124 0
27 66 25 24 61 26 -126 0
27 66 25 24 26 59 -122 0
27 66 25 24 26 59 -127 0
27 66 25 24 26 59 -123 0
27 66 25 24 26 59 -125 0
27 66 25 24 26 59 -124 0
27 66 25 24 26 59 -126 0
27 66 62 24 61 59 -122 0
27 66 62 24 61 59 -127 0
27 66 62 24 61 59 -123 0
27 66 62 24 61 59 -125 0
27 66 62 24 61 59 -124 0
27 66 62 24 61 59 -126 0
27 66 62 61 26 59 -122 0
27 66 62 61 26 59 -127 0
27 66 62 61 26 59 -123 0
27 66 62 61 26 59 -125 0
27 66 62 61 26 59 -124 0
27 66 62 61 26 59 -126 0
27 66 24 61 26 59 -122 0
27 66 24 61 26 59 -127 0
27 66 24 61 26 59 -123 0
27 66 24 61 26 59 -125 0
27 66 24 61 26 59 -124 0
27 66 24 61 26 59 -126 0
27 49 25 53 24 52 -119 0
27 49 25 53 24 52 -116 0
27 49 25 53 24 52 -121 0
27 49 25 53 24 52 -117 0
27 49 25 53 24 52 -120 0
27 49 25 53 24 52 -118 0
27 49 25 53 24 26 -119 0
27 49 25 53 24 26 -116 0
27 49 25 53 24 26 -121 0
27 49 25 53 24 26 -117 0
27 49 25 53 24 26 -120 0
27 49 25 53 24 26 -118 0
27 49 25 53 52 57 -119 0
27 49 25 53 52 57 -116 0
27 49 25 53 52 57 -121 0
27 49 25 53 52 57 -117 0
27 49 25 53 52 57 -120 0
27 49 25 53 52 57 -118 0
27 49 25 53 26 57 -119 0
27 49 25 53 26 57 -116 0
27 49 25 53 26 57 -121 0
27 49 25 53 26 57 -117 0
27 49 25 53 26 57 -120 0
27 49 25 53 26 57 -118 0
27 49 25 24 52 26 -119 0
27 49 25 24 52 26 -116 0
27 49 25 24 52 26 -121 0
27 49 25 24 52 26 -117 0
27 49 25 24 52 26 -120 0
27 49 25 24 52 26 -118 0
27 49 25 24 26 57 -119 0
27 49 25 24 26 57 -116 0
27 49 25 24 26 57 -121 0
27 49 25 24 26 57 -117 0
27 49 25 24 26 57 -120 0
27 49 25 24 26 57 -118 0
27 49 53 24 52 57 -119 0
27 49 53 24 52 57 -116 0
27 49 53 24 52 57 -121 0
27 49 53 24 52 57 -117 0
27 49 53 24 52 57 -120 0
27 49 53 24 52 57 -118 0
27 49 53 52 26 57 -119 0
27 49 53 52 26 57 -116 0
27 49 53 52 26 57 -121 0
27 49 53 52 26 57 -117 0
27 49 53 52 26 57 -120 0
27 49 53 52 26 57 -118 0
27 49 24 52 26 57 -119 0
27 49 24 52 26 57 -116 0
27 49 24 52 26 57 -121 0
27 49 24 52 26 57 -117 0
27 49 24 52 26 57 -120 0
27 49 24 52 26 57 -118 0
27 2 25 7 24 6 -21 0
27 2 25 7 24 6 -23 0
27 2 25 7 24 6 -22 0
27 2 25 7 24 6 -18 0
27 2 25 7 24 6 -19 0
27 2 25 7 24 6 -20 0
27 2 25 7 24 26 -21 0
27 2 25 7 24 26 -23 0
27 2 25 7 24 26 -22 0
27 2 25 7 24 26 -18 0
27 2 25 7 24 26 -19 0
27 2 25 7 24 26 -20 0
27 2 25 7 6 5 -21 0
27 2 25 7 6 5 -23 0
27 2 25 7 6 5 -22 0
27 2 25 7 6 5 -18 0
27 2 25 7 6 5 -19 0
27 2 25 7 6 5 -20 0
27 2 25 7 26 5 -21 0
27 2 25 7 26 5 -23 0
27 2 25 7 26 5 -22 0
27 2 25 7 26 5 -18 0
27 2 25 7 26 5 -19 0
27 2 25 7 26 5 -20 0
27 2 25 24 6 26 -21 0
27 2 25 24 6 26 -23 0
27 2 25 24 6 26 -22 0
27 2 25 24 6 26 -18 0
27 2 25 24 6 26 -19 0
27 2 25 24 6 26 -20 0
27 2 25 24 26 5 -21 0
27 2 25 24 26 5 -23 0
27 2 25 24 26 5 -22 0
27 2 25 24 26 5 -18 0
27 2 25 24 26 5 -19 0
27 2 25 24 26 5 -20 0
27 2 7 24 6 5 -21 0
27 2 7 24 6 5 -23 0
27 2 7 24 6 5 -22 0
27 2 7 24 6 5 -18 0
27 2 7 24 6 5 -19 0
27 2 7 24 6 5 -20 0
27 2 7 6 26 5 -21 0
27 2 7 6 26 5 -23 0
27 2 7 6 26 5 -22 0
27 2 7 6 26 5 -18 0
27 2 7 6 26 5 -19 0
27 2 7 6 26 5 -20 0
27 2 24 6 26 5 -21 0
27 2 24 6 26 5 -23 0
27 2 24 6 26 5 -22 0
27 2 24 6 26 5 -18 0
27 2 24 6 26 5 -19 0
27 2 24 6 26 5 -20 0
27 14 25 13 24 26 -72 0
27 14 25 13 24 26 -76 0
27 14 25 13 24 26 -71 0
27 14 25 13 24 26 -73 0
27 14 25 13 24 26 -74 0
27 14 25 13 24 26 -75 0
27 14 25 24 8 26 -72 0
27 14 25 24 8 26 -76 0
27 14 25 24 8 26 -71 0
27 14 25 24 8 26 -73 0
27 14 25 24 8 26 -74 0
27 14 25 24 8 26 -75 0
27 25 32 24 33 26 -107 0
27 25 32 24 33 26 -105 0
27 25 32 24 33 26 -108 0
27 25 32 24 33 26 -109 0
27 25 32 24 33 26 -106 0
27 25 32 24 33 26 -104 0
27 25 32 24 26 29 -107 0
27 25 32 24 26 29 -105 0
27 25 32 24 26 29 -108 0
27 25 32 24 26 29 -109 0
27 25 32 24 26 29 -106 0
27 25 32 24 26 29 -104 0
27 25 45 24 44 26 -113 0
27 25 45 24 44 26 -115 0
27 25 45 24 44 26 -110 0
27 25 45 24 44 26 -112 0
27 25 45 24 44 26 -114 0
27 25 45 24 44 26 -111 0
27 25 45 24 26 43 -113 0
27 25 45 24 26 43 -115 0
27 25 45 24 26 43 -110 0
27 25 45 24 26 43 -112 0
27 25 45 24 26 43 -114 0
27 25 45 24 26 43 -111 0
27 25 62 24 61 26 -122 0
27 25 62 24 61 26 -127 0
27 25 62 24 61 26 -123 0
27 25 62 24 61 26 -125 0
27 25 62 24 61 26 -124 0
27 25 62 24 61 26 -126 0
27 25 62 24 26 59 -122 0
27 25 62 24 26 59 -127 0
27 25 62 24 26 59 -123 0
27 25 62 24 26 59 -125 0
27 25 62 24 26 59 -124 0
27 25 62 24 26 59 -126 0
27 25 53 24 52 26 -119 0
27 25 53 24 52 26 -116 0
27 25 53 24 52 26 -121 0
27 25 53 24 52 26 -117 0
27 25 53 24 52 26 -120 0
27 25 53 24 52 26 -118 0
27 25 53 24 26 57 -119 0
27 25 53 24 26 57 -116 0
27 25 53 24 26 57 -121 0
27 25 53 24 26 57 -117 0
27 25 53 24 26 57 -120 0
27 25 53 24 26 57 -118 0
27 25 7 24 6 26 -21 0
27 25 7 24 6 26 -23 0
27 25 7 24 6 26 -22 0
27 25 7 24 6 26 -18 0
27 25 7 24 6 26 -19 0
27 25 7 24 6 26 -20 0
27 25 7 24 26 5 -21 0
27 25 7 24 26 5 -23 0
27 25 7 24 26 5 -22 0
27 25 7 24 26 5 -18 0
27 25 7 24 26 5 -19 0
27 25 7 24 26 5 -20 0
27 25 13 24 8 26 -72 0
27 25 13 24 8 26 -76 0
27 25 13 24 8 26 -71 0
27 25 13 24 8 26 -73 0
27 25 13 24 8 26 -74 0
27 25 13 24 8 26 -75 0
27 25 24 33 26 29 -107 0
27 25 24 33 26 29 -105 0
27 25 24 33 26 29 -108 0
27 25 24 33 26 29 -109 0
27 25 24 33 26 29 -106 0
27 25 24 33 26 29 -104 0
27 25 24 44 26 43 -113 0
27 25 24 44 26 43 -115 0
27 25 24 44 26 43 -110 0
27 25 24 44 26 43 -112 0
27 25 24 44 26 43 -114 0
27 25 24 44 26 43 -111 0
27 25 24 61 26 59 -122 0
27 25 24 61 26 59 -127 0
27 25 24 61 26 59 -123 0
27 25 24 61 26 59 -125 0
27 25 24 61 26 59 -124 0
27 25 24 61 26 59 -126 0
27 25 24 52 26 57 -119 0
27 25 24 52 26 57 -116 0
27 25 24 52 26 57 -121 0
27 25 24 52 26 57 -117 0
27 25 24 52 26 57 -120 0
27 25 24 52 26 57 -118 0
27 25 24 6 26 5 -21 0
27 25 24 6 26 5 -23 0
27 25 24 6 26 5 -22 0
27 25 24 6 26 5 -18 0
27 25 24 6 26 5 -19 0
27 25 24 6 26 5 -20 0
34 46 32 45 33 44 -133 0
34 46 32 45 33 44 -131 0
34 46 32 45 33 44 -134 0
34 46 32 45 33 44 -135 0
34 46 32 45 33 44 -136 0
34 46 32 45 33 44 -132 0
34 46 32 45 33 29 -133 0
34 46 32 45 33 29 -131 0
34 46 32 45 33 29 -134 0
34 46 32 45 33 29 -135 0
34 46 32 45 33 29 -136 0
34 46 32 45 33 29 -132 0
34 46 32 45 44 43 -133 0
34 46 32 45 44 43 -131 0
34 46 32 45 44 43 -134 0
34 46 32 45 44 43 -135 0
34 46 32 45 44 43 -136 0
34 46 32 45 44 43 -132 0
34 46 32 45 29 43 -133 0
34 46 32 45 29 43 -131 0
34 46 32 45 29 43 -134 0
34 46 32 45 29 43 -135 0
34 46 32 45 29 43 -136 0
34 46 32 45 29 43 -132 0
34 46 32 33 44 29 -133 0
34 46 32 33 44 29 -131 0
34 46 32 33 44 29 -134 0
34 46 32 33 44 29 -135 0
34 46 32 33 44 29 -136 0
34 46 32 33 44 29 -132 0
34 46 32 33 29 43 -133 0
34 46 32 33 29 43 -131 0
34 46 32 33 29 43 -134 0
34 46 32 33 29 43 -135 0
34 46 32 33 29 43 -136 0
34 46 32 33 29 43 -132 0
34 46 45 33 44 43 -133 0
34 46 45 33 44 43 -131 0
34 46 45 33 44 43 -134 0
34 46 45 33 44 43 -135 0
34 46 45 33 44 43 -136 0
34 46 45 33 44 43 -132 0
34 46 45 44 29 43 -133 0
34 46 45 44 29 43 -131 0
34 46 45 44 29 43 -134 0
34 46 45 44 29 43 -135 0
34 46 45 44 29 43 -136 0
34 46 45 44 29 43 -132 0
34 46 33 44 29 43 -133 0
34 46 33 44 29 43 -131 0
34 46 33 44 29 43 -134 0
34 46 33 44 29 43 -135 0
34 46 33 44 29 43 -136 0
34 46 33 44 29 43 -132 0
34 66 32 62 33 61 -143 0
34 66 32 62 33 61 -145 0
34 66 32 62 33 61 -148 0
34 66 32 62 33 61 -146 0
34 66 32 62 33 61 -147 0
34 66 32 62 33 61 -144 0
34 66 32 62 33 29 -143 0
34 66 32 62 33 29 -145 0
34 66 32 62 33 29 -148 0
34 66 32 62 33 29 -146 0
34 66 32 62 33 29 -147 0
34 66 32 62 33 29 -144 0
34 66 32 62 61 59 -143 0
34 66 32 62 61 59 -145 0
34 66 32 62 61 59 -148 0
34 66 32 62 61 59 -146 0
34 66 32 62 61 59 -147 0
34 66 32 62 61 59 -144 0
34 66 32 62 29 59 -143 0
34 66 32 62 29 59 -145 0
34 66 32 62 29 59 -148 0
34 66 32 62 29 59 -146 0
34 66 32 62 29 59 -147 0
34 66 32 62 29 59 -144 0
34 66 32 33 61 29 -143 0
34 66 32 33 61 29 -145 0
34 66 32 33 61 29 -148 0
34 66 32 33 61 29 -146 0
34 66 32 33 61 29 -147 0
34 66 32 33 61 29 -144 0
34 66 32 33 29 59 -143 0
34 66 32 33 29 59 -145 0
34 66 32 33 29 59 -148 0
34 66 32 33 29 59 -146 0
34 66 32 33 29 59 -147 0
34 66 32 33 29 59 -144 0
34 66 62 33 61 59 -143 0
34 66 62 33 61 59 -145 0
34 66 62 33 61 59 -148 0
34 66 62 33 61 59 -146 0
34 66 62 33 61 59 -147 0
34 66 62 33 61 59 -144 0
34 66 62 61 29 59 -143 0
34 66 62 61 29 59 -145 0
34 66 62 61 29 59 -148 0
34 66 62 61 29 59 -146 0
34 66 62 61 29 59 -147 0
34 66 62 61 29 59 -144 0
34 66 33 61 29 59 -143 0
34 66 33 61 29 59 -145 0
34 66 33 61 29 59 -148 0
34 66 33 61 29 59 -146 0
34 66 33 61 29 59 -147 0
34 66 33 61 29 59 -144 0
34 49 32 53 33 52 -140 0
34 49 32 53 33 52 -141 0
34 49 32 53 33 52 -138 0
34 49 32 53 33 52 -137 0
34 49 32 53 33 52 -139 0
34 49 32 53 33 52 -142 0
34 49 32 53 33 29 -140 0
34 49 32 53 33 29 -141 0
34 49 32 53 33 29 -138 0
34 49 32 53 33 29 -137 0
34 49 32 53 33 29 -139 0
34 49 32 53 33 29 -142 0
34 49 32 53 52 57 -140 0
34 49 32 53 52 57 -141 0
34 49 32 53 52 57 -138 0
34 49 32 53 52 57 -137 0
34 49 32 53 52 57 -139 0
34 49 32 53 52 57 -142 0
34 49 32 53 29 57 -140 0
34 49 32 53 29 57 -141 0
34 49 32 53 29 57 -138 0
34 49 32 53 29 57 -137 0
34 49 32 53 29 57 -139 0
34 49 32 53 29 57 -142 0
34 49 32 33 52 29 -140 0
34 49 32 33 52 29 -141 0
34 49 32 33 52 29 -138 0
34 49 32 33 52 29 -137 0
34 49 32 33 52 29 -139 0
34 49 32 33 52 29 -142 0
34 49 32 33 29 57 -140 0
34 49 32 33 29 57 -141 0
34 49 32 33 29 57 -138 0
34 49 32 33 29 57 -137 0
34 49 32 33 29 57 -139 0
34 49 32 33 29 57 -142 0
34 49 53 33 52 57 -140 0
34 49 53 33 52 57 -141 0
34 49 53 33 52 57 -138 0
34 49 53 33 52 57 -137 0
34 49 53 33 52 57 -139 0
34 49 53 33 52 57 -142 0
34 49 53 52 29 57 -140 0
34 49 53 52 29 57 -141 0
34 49 53 52 29 57 -138 0
34 49 53 52 29 57 -137 0
34 49 53 52 29 57 -139 0
34 49 53 52 29 57 -142 0
34 49 33 52 29 57 -140 0
34 49 33 52 29 57 -141 0
34 49 33 52 29 57 -138 0
34 49 33 52 29 57 -137 0
34 49 33 52 29 57 -139 0
34 49 33 52 29 57 -142 0
34 2 32 7 33 6 -31 0
34 2 32 7 33 6 -28 0
34 2 32 7 33 6 -30 0
34 2 32 7 33 6 -35 0
34 2 32 7 33 6 -36 0
34 2 32 7 33 6 -37 0
34 2 32 7 33 29 -31 0
34 2 32 7 33 29 -28 0
34 2 32 7 33 29 -30 0
34 2 32 7 33 29 -35 0
34 2 32 7 33 29 -36 0
34 2 32 7 33 29 -37 0
34 2 32 7 6 5 -31 0
34 2 32 7 6 5 -28 0
34 2 32 7 6 5 -30 0
34 2 32 7 6 5 -35 0
34 2 32 7 6 5 -36 0
34 2 32 7 6 5 -37 0
34 2 32 7 29 5 -31 0
34 2 32 7 29 5 -28 0
34 2 32 7 29 5 -30 0
34 2 32 7 29 5 -35 0
34 2 32 7 29 5 -36 0
34 2 32 7 29 5 -37 0
34 2 32 33 6 29 -31 0
34 2 32 33 6 29 -28 0
34 2 32 33 6 29 -30 0
34 2 32 33 6 29 -35 0
34 2 32 33 6 29 -36 0
34 2 32 33 6 29 -37 0
34 2 32 33 29 5 -31 0
34 2 32 33 29 5 -28 0
34 2 32 33 29 5 -30 0
34 2 32 33 29 5 -35 0
34 2 32 33 29 5 -36 0
34 2 32 33 29 5 -37 0
34 2 7 33 6 5 -31 0
34 2 7 33 6 5 -28 0
34 2 7 33 6 5 -30 0
34 2 7 33 6 5 -35 0
34 2 7 33 6 5 -36 0
34 2 7 33 6 5 -37 0
34 2 7 6 29 5 -31 0
34 2 7 6 29 5 -28 0
34 2 7 6 29 5 -30 0
34 2 7 6 29 5 -35 0
34 2 7 6 29 5 -36 0
34 2 7 6 29 5 -37 0
34 2 33 6 29 5 -31 0
34 2 33 6 29 5 -28 0
34 2 33 6 29 5 -30 0
34 2 33 6 29 5 -35 0
34 2 33 6 29 5 -36 0
34 2 33 6 29 5 -37 0
34 14 32 13 33 29 -82 0
34 14 32 13 33 29 -80 0
34 14 32 13 33 29 -81 0
34 14 32 13 33 29 -77 0
34 14 32 13 33 29 -78 0
34 14 32 13 33 29 -79 0
34 14 32 33 8 29 -82 0
34 14 32 33 8 29 -80 0
34 14 32 33 8 29 -81 0
34 14 32 33 8 29 -77 0
34 14 32 33 8 29 -78 0
34 14 32 33 8 29 -79 0
34 25 32 24 33 29 -107 0
34 25 32 24 33 29 -105 0
34 25 32 24 33 29 -108 0
34 25 32 24 33 29 -109 0
34 25 32 24 33 29 -106 0
34 25 32 24 33 29 -104 0
34 25 32 33 26 29 -107 0
34 25 32 33 26 29 -105 0
34 25 32 33 26 29 -108 0
34 25 32 33 26 29 -109 0
34 25 32 33 26 29 -106 0
34 25 32 33 26 29 -104 0
34 32 45 33 44 29 -133 0
34 32 45 33 44 29 -131 0
34 32 45 33 44 29 -134 0
34 32 45 33 44 29 -135 0
34 32 45 33 44 29 -136 0
34 32 45 33 44 29 -132 0
34 32 45 33 29 43 -133 0
34 32 45 33 29 43 -131 0
34 32 45 33 29 43 -134 0
34 32 45 33 29 43 -135 0
34 32 45 33 29 43 -136 0
34 32 45 33 29 43 -132 0
34 32 62 33 61 29 -143 0
34 32 62 33 61 29 -145 0
34 32 62 33 61 29 -148 0
34 32 62 33 61 29 -146 0
34 32 62 33 61 29 -147 0
34 32 62 33 61 29 -144 0
34 32 62 33 29 59 -143 0
34 32 62 33 29 59 -145 0
34 32 62 33 29 59 -148 0
34 32 62 33 29 59 -146 0
34 32 62 33 29 59 -147 0
34 32 62 33 29 59 -144 0
34 32 53 33 52 29 -140 0
34 32 53 33 52 29 -141 0
34 32 53 33 52 29 -138 0
34 32 53 33 52 29 -137 0
34 32 53 33 52 29 -139 0
34 32 53 33 52 29 -142 0
34 32 53 33 29 57 -140 0
34 32 53 33 29 57 -141 0
34 32 53 33 29 57 -138 0
34 32 53 33 29 57 -137 0
34 32 53 33 29 57 -139 0
34 32 53 33 29 57 -142 0
34 32 7 33 6 29 -31 0
34 32 7 33 6 29 -28 0
34 32 7 33 6 29 -30 0
34 32 7 33 6 29 -35 0
34 32 7 33 6 29 -36 0
34 32 7 33 6 29 -37 0
34 32 7 33 29 5 -31 0
34 32 7 33 29 5 -28 0
34 32 7 33 29 5 -30 0
34 32 7 33 29 5 -35 0
34 32 7 33 29 5 -36 0
34 32 7 33 29 5 -37 0
34 32 13 33 8 29 -82 0
34 32 13 33 8 29 -80 0
34 32 13 33 8 29 -81 0
34 32 13 33 8 29 -77 0
34 32 13 33 8 29 -78 0
34 32 13 33 8 29 -79 0
34 32 24 33 26 29 -107 0
34 32 24 33 26 29 -105 0
34 32 24 33 26 29 -108 0
34 32 24 33 26 29 -109 0
34 32 24 33 26 29 -106 0
34 32 24 33 26 29 -104 0
34 32 33 44 29 43 -133 0
34 32 33 44 29 43 -131 0
34 32 33 44 29 43 -134 0
34 32 33 44 29 43 -135 0
34 32 33 44 29 43 -136 0
34 32 33 44 29 43 -132 0
34 32 33 61 29 59 -143 0
34 32 33 61 29 59 -145 0
34 32 33 61 29 59 -148 0
34 32 33 61 29 59 -146 0
34 32 33 61 29 59 -147 0
34 32 33 61 29 59 -144 0
34 32 33 52 29 57 -140 0
34 32 33 52 29 57 -141 0
34 32 33 52 29 57 -138 0
34 32 33 52 29 57 -137 0
34 32 33 52 29 57 -139 0
34 32 33 52 29 57 -142 0
34 32 33 6 29 5 -31 0
34 32 33 6 29 5 -28 0
34 32 33 6 29 5 -30 0
34 32 33 6 29 5 -35 0
34 32 33 6 29 5 -36 0
34 32 33 6 29 5 -37 0
46 66 45 62 44 61 -158 0
46 66 45 62 44 61 -161 0
46 66 45 62 44 61 -160 0
46 66 45 62 44 61 -163 0
46 66 45 62 44 61 -159 0
46 66 45 62 44 61 -162 0
46 66 45 62 44 43 -158 0
46 66 45 62 44 43 -161 0
46 66 45 62 44 43 -160 0
46 66 45 62 44 43 -163 0
46 66 45 62 44 43 -159 0
46 66 45 62 44 43 -162 0
46 66 45 62 61 59 -158 0
46 66 45 62 61 59 -161 0
46 66 45 62 61 59 -160 0
46 66 45 62 61 59 -163 0
46 66 45 62 61 59 -159 0
46 66 45 62 61 59 -162 0
46 66 45 62 43 59 -158 0
46 66 45 62 43 59 -161 0
46 66 45 62 43 59 -160 0
46 66 45 62 43 59 -163 0
46 66 45 62 43 59 -159 0
46 66 45 62 43 59 -162 0
46 66 45 44 61 43 -158 0
46 66 45 44 61 43 -161 0
46 66 45 44 61 43 -160 0
46 66 45 44 61 43 -163 0
46 66 45 44 61 43 -159 0
46 66 45 44 61 43 -162 0
46 66 45 44 43 59 -158 0
46 66 45 44 43 59 -161 0
46 66 45 44 43 59 -160 0
46 66 45 44 43 59 -163 0
46 66 45 44 43 59 -159 0
46 66 45 44 43 59 -162 0
46 66 62 44 61 59 -158 0
46 66 62 44 61 59 -161 0
46 66 62 44 61 59 -160 0
46 66 62 44 61 59 -163 0
46 66 62 44 61 59 -159 0
46 66 62 44 61 59 -162 0
46 66 62 61 43 59 -158 0
46 66 62 61 43 59 -161 0
46 66 62 61 43 59 -160 0
46 66 62 61 43 59 -163 0
46 66 62 61 43 59 -159 0
46 66 62 61 43 59 -162 0
46 66 44 61 43 59 -158 0
46 66 44 61 43 59 -161 0
46 66 44 61 43 59 -160 0
46 66 44 61 43 59 -163 0
46 66 44 61 43 59 -159 0
46 66 44 61 43 59 -162 0
46 49 45 53 44 52 -153 0
46 49 45 53 44 52 -154 0
46 49 45 53 44 52 -152 0
46 49 45 53 44 52 -155 0
46 49 45 53 44 52 -156 0
46 49 45 53 44 52 -157 0
46 49 45 53 44 43 -153 0
46 49 45 53 44 43 -154 0
46 49 45 53 44 43 -152 0
46 49 45 53 44 43 -155 0
46 49 45 53 44 43 -156 0
46 49 45 53 44 43 -157 0
46 49 45 53 52 57 -153 0
46 49 45 53 52 57 -154 0
46 49 45 53 52 57 -152 0
46 49 45 53 52 57 -155 0
46 49 45 53 52 57 -156 0
46 49 45 53 52 57 -157 0
46 49 45 53 43 57 -153 0
46 49 45 53 43 57 -154 0
46 49 45 53 43 57 -152 0
46 49 45 53 43 57 -155 0
46 49 45 53 43 57 -156 0
46 49 45 53 43 57 -157 0
46 49 45 44 52 43 -153 0
46 49 45 44 52 43 -154 0
46 49 45 44 52 43 -152 0
46 49 45 44 52 43 -155 0
46 49 45 44 52 43 -156 0
46 49 45 44 52 43 -157 0
46 49 45 44 43 57 -153 0
46 49 45 44 43 57 -154 0
46 49 45 44 43 57 -152 0
46 49 45 44 43 57 -155 0
46 49 45 44 43 57 -156 0
46 49 45 44 43 57 -157 0
46 49 53 44 52 57 -153 0
46 49 53 44 52 57 -154 0
46 49 53 44 52 57 -152 0
46 49 53 44 52 57 -155 0
46 49 53 44 52 57 -156 0
46 49 53 44 52 57 -157 0
46 49 53 52 43 57 -153 0
46 49 53 52 43 57 -154 0
46 49 53 52 43 57 -152 0
46 49 53 52 43 57 -155 0
46 49 53 52 43 57 -156 0
46 49 53 52 43 57 -157 0
46 49 44 52 43 57 -153 0
46 49 44 52 43 57 -154 0
46 49 44 52 43 57 -152 0
46 49 44 52 43 57 -155 0
46 49 44 52 43 57 -156 0
46 49 44 52 43 57 -157 0
46 2 45 7 44 6 -41 0
46 2 45 7 44 6 -40 0
46 2 45 7 44 6 -42 0
46 2 45 7 44 6 -39 0
46 2 45 7 44 6 -47 0
46 2 45 7 44 6 -38 0
46 2 45 7 44 43 -41 0
46 2 45 7 44 43 -40 0
46 2 45 7 44 43 -42 0
46 2 45 7 44 43 -39 0
46 2 45 7 44 43 -47 0
46 2 45 7 44 43 -38 0
46 2 45 7 6 5 -41 0
46 2 45 7 6 5 -40 0
46 2 45 7 6 5 -42 0
46 2 45 7 6 5 -39 0
46 2 45 7 6 5 -47 0
46 2 45 7 6 5 -38 0
46 2 45 7 43 5 -41 0
46 2 45 7 43 5 -40 0
46 2 45 7 43 5 -42 0
46 2 45 7 43 5 -39 0
46 2 45 7 43 5 -47 0
46 2 45 7 43 5 -38 0
46 2 45 44 6 43 -41 0
46 2 45 44 6 43 -40 0
46 2 45 44 6 43 -42 0
46 2 45 44 6 43 -39 0
46 2 45 44 6 43 -47 0
46 2 45 44 6 43 -38 0
46 2 45 44 43 5 -41 0
46 2 45 44 43 5 -40 0
46 2 45 44 43 5 -42 0
46 2 45 44 43 5 -39 0
46 2 45 44 43 5 -47 0
46 2 45 44 43 5 -38 0
46 2 7 44 6 5 -41 0
46 2 7 44 6 5 -40 0
46 2 7 44 6 5 -42 0
46 2 7 44 6 5 -39 0
46 2 7 44 6 5 -47 0
46 2 7 44 6 5 -38 0
46 2 7 6 43 5 -41 0
46 2 7 6 43 5 -40 0
46 2 7 6 43 5 -42 0
46 2 7 6 43 5 -39 0
46 2 7 6 43 5 -47 0
46 2 7 6 43 5 -38 0
46 2 44 6 43 5 -41 0
46 2 44 6 43 5 -40 0
46 2 44 6 43 5 -42 0
46 2 44 6 43 5 -39 0
46 2 44 6 43 5 -47 0
46 2 44 6 43 5 -38 0
46 14 45 13 44 43 -83 0
46 14 45 13 44 43 -84 0
46 14 45 13 44 43 -87 0
46 14 45 13 44 43 -88 0
46 14 45 13 44 43 -86 0
46 14 45 13 44 43 -85 0
46 14 45 44 8 43 -83 0
46 14 45 44 8 43 -84 0
46 14 45 44 8 43 -87 0
46 14 45 44 8 43 -88 0
46 14 45 44 8 43 -86 0
46 14 45 44 8 43 -85 0
46 25 45 24 44 43 -113 0
46 25 45 24 44 43 -115 0
46 25 45 24 44 43 -110 0
46 25 45 24 44 43 -112 0
46 25 45 24 44 43 -114 0
46 25 45 24 44 43 -111 0
46 25 45 44 26 43 -113 0
46 25 45 44 26 43 -115 0
46 25 45 44 26 43 -110 0
46 25 45 44 26 43 -112 0
46 25 45 44 26 43 -114 0
46 25 45 44 26 43 -111 0
46 32 45 33 44 43 -133 0
46 32 45 33 44 43 -131 0
46 32 45 33 44 43 -134 0
46 32 45 33 44 43 -135 0
46 32 45 33 44 43 -136 0
46 32 45 33 44 43 -132 0
46 32 45 44 29 43 -133 0
46 32 45 44 29 43 -131 0
46 32 45 44 29 43 -134 0
46 32 45 44 29 43 -135 0
46 32 45 44 29 43 -136 0
46 32 45 44 29 43 -132 0
46 45 62 44 61 43 -158 0
46 45 62 44 61 43 -161 0
46 45 62 44 61 43 -160 0
46 45 62 44 61 43 -163 0
46 45 62 44 61 43 -159 0
46 45 62 44 61 43 -162 0
46 45 62 44 43 59 -158 0
46 45 62 44 43 59 -161 0
46 45 62 44 43 59 -160 0
46 45 62 44 43 59 -163 0
46 45 62 44 43 59 -159 0
46 45 62 44 43 59 -162 0
46 45 53 44 52 43 -153 0
46 45 53 44 52 43 -154 0
46 45 53 44 52 43 -152 0
46 45 53 44 52 43 -155 0
46 45 53 44 52 43 -156 0
46 45 53 44 52 43 -157 0
46 45 53 44 43 57 -153 0
46 45 53 44 43 57 -154 0
46 45 53 44 43 57 -152 0
46 45 53 44 43 57 -155 0
46 45 53 44 43 57 -156 0
46 45 53 44 43 57 -157 0
46 45 7 44 6 43 -41 0
46 45 7 44 6 43 -40 0
46 45 7 44 6 43 -42 0
46 45 7 44 6 43 -39 0
46 45 7 44 6 43 -47 0
46 45 7 44 6 43 -38 0
46 45 7 44 43 5 -41 0
46 45 7 44 43 5 -40 0
46 45 7 44 43 5 -42 0
46 45 7 44 43 5 -39 0
46 45 7 44 43 5 -47 0
46 45 7 44 43 5 -38 0
46 45 13 44 8 43 -83 0
46 45 13 44 8 43 -84 0
46 45 13 44 8 43 -87 0
46 45 13 44 8 43 -88 0
46 45 13 44 8 43 -86 0
46 45 13 44 8 43 -85 0
46 45 24 44 26 43 -113 0
46 45 24 44 26 43 -115 0
46 45 24 44 26 43 -110 0
46 45 24 44 26 43 -112 0
46 45 24 44 26 43 -114 0
46 45 24 44 26 43 -111 0
46 45 33 44 29 43 -133 0
46 45 33 44 29 43 -131 0
46 45 33 44 29 43 -134 0
46 45 33 44 29 43 -135 0
46 45 33 44 29 43 -136 0
46 45 33 44 29 43 -132 0
46 45 44 61 43 59 -158 0
46 45 44 61 43 59 -161 0
46 45 44 61 43 59 -160 0
46 45 44 61 43 59 -163 0
46 45 44 61 43 59 -159 0
46 45 44 61 43 59 -162 0
46 45 44 52 43 57 -153 0
46 45 44 52 43 57 -154 0
46 45 44 52 43 57 -152 0
46 45 44 52 43 57 -155 0
46 45 44 52 43 57 -156 0
46 45 44 52 43 57 -157 0
46 45 44 6 43 5 -41 0
46 45 44 6 43 5 -40 0
46 45 44 6 43 5 -42 0
46 45 44 6 43 5 -39 0
46 45 44 6 43 5 -47 0
46 45 44 6 43 5 -38 0
66 49 62 53 61 52 -172 0
66 49 62 53 61 52 -167 0
66 49 62 53 61 52 -170 0
66 49 62 53 61 52 -168 0
66 49 62 53 61 52 -171 0
66 49 62 53 61 52 -169 0
66 49 62 53 61 59 -172 0
66 49 62 53 61 59 -167 0
66 49 62 53 61 59 -170 0
66 49 62 53 61 59 -168 0
66 49 62 53 61 59 -171 0
66 49 62 53 61 59 -169 0
66 49 62 53 52 57 -172 0
66 49 62 53 52 57 -167 0
66 49 62 53 52 57 -170 0
66 49 62 53 52 57 -168 0
66 49 62 53 52 57 -171 0
66 49 62 53 52 57 -169 0
66 49 62 53 59 57 -172 0
66 49 62 53 59 57 -167 0
66 49 62 53 59 57 -170 0
66 49 62 53 59 57 -168 0
66 49 62 53 59 57 -171 0
66 49 62 53 59 57 -169 0
66 49 62 61 52 59 -172 0
66 49 62 61 52 59 -167 0
66 49 62 61 52 59 -170 0
66 49 62 61 52 59 -168 0
66 49 62 61 52 59 -171 0
66 49 62 61 52 59 -169 0
66 49 62 61 59 57 -172 0
66 49 62 61 59 57 -167 0
66 49 62 61 59 57 -170 0
66 49 62 61 59 57 -168 0
66 49 62 61 59 57 -171 0
66 49 62 61 59 57 -169 0
66 49 53 61 52 57 -172 0
66 49 53 61 52 57 -167 0
66 49 53 61 52 57 -170 0
66 49 53 61 52 57 -168 0
66 49 53 61 52 57 -171 0
66 49 53 61 52 57 -169 0
66 49 53 52 59 57 -172 0
66 49 53 52 59 57 -167 0
66 49 53 52 59 57 -170 0
66 49 53 52 59 57 -168 0
66 49 53 52 59 57 -171 0
66 49 53 52 59 57 -169 0
66 49 61 52 59 57 -172 0
66 49 61 52 59 57 -167 0
66 49 61 52 59 57 -170 0
66 49 61 52 59 57 -168 0
66 49 61 52 59 57 -171 0
66 49 61 52 59 57 -169 0
66 2 62 7 61 6 -65 0
66 2 62 7 61 6 -67 0
66 2 62 7 61 6 -60 0
66 2 62 7 61 6 -64 0
66 2 62 7 61 6 -63 0
66 2 62 7 61 6 -58 0
66 2 62 7 61 59 -65 0
66 2 62 7 61 59 -67 0
66 2 62 7 61 59 -60 0
66 2 62 7 61 59 -64 0
66 2 62 7 61 59 -63 0
66 2 62 7 61 59 -58 0
66 2 62 7 6 5 -65 0
66 2 62 7 6 5 -67 0
66 2 62 7 6 5 -60 0
66 2 62 7 6 5 -64 0
66 2 62 7 6 5 -63 0
66 2 62 7 6 5 -58 0
66 2 62 7 59 5 -65 0
66 2 62 7 59 5 -67 0
66 2 62 7 59 5 -60 0
66 2 62 7 59 5 -64 0
66 2 62 7 59 5 -63 0
66 2 62 7 59 5 -58 0
66 2 62 61 6 59 -65 0
66 2 62 61 6 59 -67 0
66 2 62 61 6 59 -60 0
66 2 62 61 6 59 -64 0
66 2 62 61 6 59 -63 0
66 2 62 61 6 59 -58 0
66 2 62 61 59 5 -65 0
66 2 62 61 59 5 -67 0
66 2 62 61 59 5 -60 0
66 2 62 61 59 5 -64 0
66 2 62 61 59 5 -63 0
66 2 62 61 59 5 -58 0
66 2 7 61 6 5 -65 0
66 2 7 61 6 5 -67 0
66 2 7 61 6 5 -60 0
66 2 7 61 6 5 -64 0
66 2 7 61 6 5 -63 0
66 2 7 61 6 5 -58 0
66 2 7 6 59 5 -65 0
66 2 7 6 59 5 -67 0
66 2 7 6 59 5 -60 0
66 2 7 6 59 5 -64 0
66 2 7 6 59 5 -63 0
66 2 7 6 59 5 -58 0
66 2 61 6 59 5 -65 0
66 2 61 6 59 5 -67 0
66 2 61 6 59 5 -60 0
66 2 61 6 59 5 -64 0
66 2 61 6 59 5 -63 0
66 2 61 6 59 5 -58 0
66 14 62 13 61 59 -97 0
66 14 62 13 61 59 -99 0
66 14 62 13 61 59 -98 0
66 14 62 13 61 59 -95 0
66 14 62 13 61 59 -100 0
66 14 62 13 61 59 -96 0
66 14 62 61 8 59 -97 0
66 14 62 61 8 59 -99 0
66 14 62 61 8 59 -98 0
66 14 62 61 8 59 -95 0
66 14 62 61 8 59 -100 0
66 14 62 61 8 59 -96 0
66 25 62 24 61 59 -122 0
66 25 62 24 61 59 -127 0
66 25 62 24 61 59 -123 0
66 25 62 24 61 59 -125 0
66 25 62 24 61 59 -124 0
66 25 62 24 61 59 -126 0
66 25 62 61 26 59 -122 0
66 25 62 61 26 59 -127 0
66 25 62 61 26 59 -123 0
66 25 62 61 26 59 -125 0
66 25 62 61 26 59 -124 0
66 25 62 61 26 59 -126 0
66 32 62 33 61 59 -143 0
66 32 62 33 61 59 -145 0
66 32 62 33 61 59 -148 0
66 32 62 33 61 59 -146 0
66 32 62 33 61 59 -147 0
66 32 62 33 61 59 -144 0
66 32 62 61 29 59 -143 0
66 32 62 61 29 59 -145 0
66 32 62 61 29 59 -148 0
66 32 62 61 29 59 -146 0
66 32 62 61 29 59 -147 0
66 32 62 61 29 59 -144 0
66 45 62 44 61 59 -158 0
66 45 62 44 61 59 -161 0
66 45 62 44 61 59 -160 0
66 45 62 44 61 59 -163 0
66 45 62 44 61 59 -159 0
66 45 62 44 61 59 -162 0
66 45 62 61 43 59 -158 0
66 45 62 61 43 59 -161 0
66 45 62 61 43 59 -160 0
66 45 62 61 43 59 -163 0
66 45 62 61 43 59 -159 0
66 45 62 61 43 59 -162 0
66 62 53 61 52 59 -172 0
66 62 53 61 52 59 -167 0
66 62 53 61 52 59 -170 0
66 62 53 61 52 59 -168 0
66 62 53 61 52 59 -171 0
66 62 53 61 52 59 -169 0
66 62 53 61 59 57 -172 0
66 62 53 61 59 57 -167 0
66 62 53 61 59 57 -170 0
66 62 53 61 59 57 -168 0
66 62 53 61 59 57 -171 0
66 62 53 61 59 57 -169 0
66 62 7 61 6 59 -65 0
66 62 7 61 6 59 -67 0
66 62 7 61 6 59 -60 0
66 62 7 61 6 59 -64 0
66 62 7 61 6 59 -63 0
66 62 7 61 6 59 -58 0
66 62 7 61 59 5 -65 0
66 62 7 61 59 5 -67 0
66 62 7 61 59 5 -60 0
66 62 7 61 59 5 -64 0
66 62 7 61 59 5 -63 0
66 62 7 61 59 5 -58 0
66 62 13 61 8 59 -97 0
66 62 13 61 8 59 -99 0
66 62 13 61 8 59 -98 0
66 62 13 61 8 59 -95 0
66 62 13 61 8 59 -100 0
66 62 13 61 8 59 -96 0
66 62 24 61 26 59 -122 0
66 62 24 61 26 59 -127 0
66 62 24 61 26 59 -123 0
66 62 24 61 26 59 -125 0
66 62 24 61 26 59 -124 0
66 62 24 61 26 59 -126 0
66 62 33 61 29 59 -143 0
66 62 33 61 29 59 -145 0
66 62 33 61 29 59 -148 0
66 62 33 61 29 59 -146 0
66 62 33 61 29 59 -147 0
66 62 33 61 29 59 -144 0
66 62 44 61 43 59 -158 0
66 62 44 61 43 59 -161 0
66 62 44 61 43 59 -160 0
66 62 44 61 43 59 -163 0
66 62 44 61 43 59 -159 0
66 62 44 61 43 59 -162 0
66 62 61 52 59 57 -172 0
66 62 61 52 59 57 -167 0
66 62 61 52 59 57 -170 0
66 62 61 52 59 57 -168 0
66 62 61 52 59 57 -171 0
66 62 61 52 59 57 -169 0
66 62 61 6 59 5 -65 0
66 62 61 6 59 5 -67 0
66 62 61 6 59 5 -60 0
66 62 61 6 59 5 -64 0
66 62 61 6 59 5 -63 0
66 62 61 6 59 5 -58 0
49 2 53 7 52 6 -50 0
49 2 53 7 52 6 -55 0
49 2 53 7 52 6 -48 0
49 2 53 7 52 6 -54 0
49 2 53 7 52 6 -56 0
49 2 53 7 52 6 -51 0
49 2 53 7 52 57 -50 0
49 2 53 7 52 57 -55 0
49 2 53 7 52 57 -48 0
49 2 53 7 52 57 -54 0
49 2 53 7 52 57 -56 0
49 2 53 7 52 57 -51 0
49 2 53 7 6 5 -50 0
49 2 53 7 6 5 -55 0
49 2 53 7 6 5 -48 0
49 2 53 7 6 5 -54 0
49 2 53 7 6 5 -56 0
49 2 53 7 6 5 -51 0
49 2 53 7 57 5 -50 0
49 2 53 7 57 5 -55 0
49 2 53 7 57 5 -48 0
49 2 53 7 57 5 -54 0
49 2 53 7 57 5 -56 0
49 2 53 7 57 5 -51 0
49 2 53 52 6 57 -50 0
49 2 53 52 6 57 -55 0
49 2 53 52 6 57 -48 0
49 2 53 52 6 57 -54 0
49 2 53 52 6 57 -56 0
49 2 53 52 6 57 -51 0
49 2 53 52 57 5 -50 0
49 2 53 52 57 5 -55 0
49 2 53 52 57 5 -48 0
49 2 53 52 57 5 -54 0
49 2 53 52 57 5 -56 0
49 2 53 52 57 5 -51 0
49 2 7 52 6 5 -50 0
49 2 7 52 6 5 -55 0
49 2 7 52 6 5 -48 0
49 2 7 52 6 5 -54 0
49 2 7 52 6 5 -56 0
49 2 7 52 6 5 -51 0
49 2 7 6 57 5 -50 0
49 2 7 6 57 5 -55 0
49 2 7 6 57 5 -48 0
49 2 7 6 57 5 -54 0
49 2 7 6 57 5 -56 0
49 2 7 6 57 5 -51 0
49 2 52 6 57 5 -50 0
49 2 52 6 57 5 -55 0
49 2 52 6 57 5 -48 0
49 2 52 6 57 5 -54 0
49 2 52 6 57 5 -56 0
49 2 52 6 57 5 -51 0
49 14 53 13 52 57 -90 0
49 14 53 13 52 57 -91 0
49 14 53 13 52 57 -93 0
49 14 53 13 52 57 -89 0
49 14 53 13 52 57 -92 0
49 14 53 13 52 57 -94 0
49 14 53 52 8 57 -90 0
49 14 53 52 8 57 -91 0
49 14 53 52 8 57 -93 0
49 14 53 52 8 57 -89 0
49 14 53 52 8 57 -92 0
49 14 53 52 8 57 -94 0
49 25 53 24 52 57 -119 0
49 25 53 24 52 57 -116 0
49 25 53 24 52 57 -121 0
49 25 53 24 52 57 -117 0
49 25 53 24 52 57 -120 0
49 25 53 24 52 57 -118 0
49 25 53 52 26 57 -119 0
49 25 53 52 26 57 -116 0
49 25 53 52 26 57 -121 0
49 25 53 52 26 57 -117 0
49 25 53 52 26 57 -120 0
49 25 53 52 26 57 -118 0
49 32 53 33 52 57 -140 0
49 32 53 33 52 57 -141 0
49 32 53 33 52 57 -138 0
49 32 53 33 52 57 -137 0
49 32 53 33 52 57 -139 0
49 32 53 33 52 57 -142 0
49 32 53 52 29 57 -140 0
49 32 53 52 29 57 -141 0
49 32 53 52 29 57 -138 0
49 32 53 52 29 57 -137 0
49 32 53 52 29 57 -139 0
49 32 53 52 29 57 -142 0
49 45 53 44 52 57 -153 0
49 45 53 44 52 57 -154 0
49 45 53 44 52 57 -152 0
49 45 53 44 52 57 -155 0
49 45 53 44 52 57 -156 0
49 45 53 44 52 57 -157 0
49 45 53 52 43 57 -153 0
49 45 53 52 43 57 -154 0
49 45 53 52 43 57 -152 0
49 45 53 52 43 57 -155 0
49 45 53 52 43 57 -156 0
49 45 53 52 43 57 -157 0
49 62 53 61 52 57 -172 0
49 62 53 61 52 57 -167 0
49 62 53 61 52 57 -170 0
49 62 53 61 52 57 -168 0
49 62 53 61 52 57 -171 0
49 62 53 61 52 57 -169 0
49 62 53 52 59 57 -172 0
49 62 53 52 59 57 -167 0
49 62 53 52 59 57 -170 0
49 62 53 52 59 57 -168 0
49 62 53 52 59 57 -171 0
49 62 53 52 59 57 -169 0
49 53 7 52 6 57 -50 0
49 53 7 52 6 57 -55 0
49 53 7 52 6 57 -48 0
49 53 7 52 6 57 -54 0
49 53 7 52 6 57 -56 0
49 53 7 52 6 57 -51 0
49 53 7 52 57 5 -50 0
49 53 7 52 57 5 -55 0
49 53 7 52 57 5 -48 0
49 53 7 52 57 5 -54 0
49 53 7 52 57 5 -56 0
49 53 7 52 57 5 -51 0
49 53 13 52 8 57 -90 0
49 53 13 52 8 57 -91 0
49 53 13 52 8 57 -93 0
49 53 13 52 8 57 -89 0
49 53 13 52 8 57 -92 0
49 53 13 52 8 57 -94 0
49 53 24 52 26 57 -119 0
49 53 24 52 26 57 -116 0
49 53 24 52 26 57 -121 0
49 53 24 52 26 57 -117 0
49 53 24 52 26 57 -120 0
49 53 24 52 26 57 -118 0
49 53 33 52 29 57 -140 0
49 53 33 52 29 57 -141 0
49 53 33 52 29 57 -138 0
49 53 33 52 29 57 -137 0
49 53 33 52 29 57 -139 0
49 53 33 52 29 57 -142 0
49 53 44 52 43 57 -153 0
49 53 44 52 43 57 -154 0
49 53 44 52 43 57 -152 0
49 53 44 52 43 57 -155 0
49 53 44 52 43 57 -156 0
49 53 44 52 43 57 -157 0
49 53 61 52 59 57 -172 0
49 53 61 52 59 57 -167 0
49 53 61 52 59 57 -170 0
49 53 61 52 59 57 -168 0
49 53 61 52 59 57 -171 0
49 53 61 52 59 57 -169 0
49 53 52 6 57 5 -50 0
49 53 52 6 57 5 -55 0
49 53 52 6 57 5 -48 0
49 53 52 6 57 5 -54 0
49 53 52 6 57 5 -56 0
49 53 52 6 57 5 -51 0
2 14 7 13 6 5 -17 0
2 14 7 13 6 5 -9 0
2 14 7 13 6 5 -11 0
2 14 7 13 6 5 -16 0
2 14 7 13 6 5 -15 0
2 14 7 13 6 5 -12 0
2 14 7 6 8 5 -17 0
2 14 7 6 8 5 -9 0
2 14 7 6 8 5 -11 0
2 14 7 6 8 5 -16 0
2 14 7 6 8 5 -15 0
2 14 7 6 8 5 -12 0
2 25 7 24 6 5 -21 0
2 25 7 24 6 5 -23 0
2 25 7 24 6 5 -22 0
2 25 7 24 6 5 -18 0
2 25 7 24 6 5 -19 0
2 25 7 24 6 5 -20 0
2 25 7 6 26 5 -21 0
2 25 7 6 26 5 -23 0
2 25 7 6 26 5 -22 0
2 25 7 6 26 5 -18 0
2 25 7 6 26 5 -19 0
2 25 7 6 26 5 -20 0
2 32 7 33 6 5 -31 0
2 32 7 33 6 5 -28 0
2 32 7 33 6 5 -30 0
2 32 7 33 6 5 -35 0
2 32 7 33 6 5 -36 0
2 32 7 33 6 5 -37 0
2 32 7 6 29 5 -31 0
2 32 7 6 29 5 -28 0
2 32 7 6 29 5 -30 0
2 32 7 6 29 5 -35 0
2 32 7 6 29 5 -36 0
2 32 7 6 29 5 -37 0
2 45 7 44 6 5 -41 0
2 45 7 44 6 5 -40 0
2 45 7 44 6 5 -42 0
2 45 7 44 6 5 -39 0
2 45 7 44 6 5 -47 0
2 45 7 44 6 5 -38 0
2 45 7 6 43 5 -41 0
2 45 7 6 43 5 -40 0
2 45 7 6 43 5 -42 0
2 45 7 6 43 5 -39 0
2 45 7 6 43 5 -47 0
2 45 7 6 43 5 -38 0
2 62 7 61 6 5 -65 0
2 62 7 61 6 5 -67 0
2 62 7 61 6 5 -60 0
2 62 7 61 6 5 -64 0
2 62 7 61 6 5 -63 0
2 62 7 61 6 5 -58 0
2 62 7 6 59 5 -65 0
2 62 7 6 59 5 -67 0
2 62 7 6 59 5 -60 0
2 62 7 6 59 5 -64 0
2 62 7 6 59 5 -63 0
2 62 7 6 59 5 -58 0
2 53 7 52 6 5 -50 0
2 53 7 52 6 5 -55 0
2 53 7 52 6 5 -48 0
2 53 7 52 6 5 -54 0
2 53 7 52 6 5 -56 0
2 53 7 52 6 5 -51 0
2 53 7 6 57 5 -50 0
2 53 7 6 57 5 -55 0
2 53 7 6 57 5 -48 0
2 53 7 6 57 5 -54 0
2 53 7 6 57 5 -56 0
2 53 7 6 57 5 -51 0
2 7 13 6 8 5 -17 0
2 7 13 6 8 5 -9 0
2 7 13 6 8 5 -11 0
2 7 13 6 8 5 -16 0
2 7 13 6 8 5 -15 0
2 7 13 6 8 5 -12 0
2 7 24 6 26 5 -21 0
2 7 24 6 26 5 -23 0
2 7 24 6 26 5 -22 0
2 7 24 6 26 5 -18 0
2 7 24 6 26 5 -19 0
2 7 24 6 26 5 -20 0
2 7 33 6 29 5 -31 0
2 7 33 6 29 5 -28 0
2 7 33 6 29 5 -30 0
2 7 33 6 29 5 -35 0
2 7 33 6 29 5 -36 0
2 7 33 6 29 5 -37 0
2 7 44 6 43 5 -41 0
2 7 44 6 43 5 -40 0
2 7 44 6 43 5 -42 0
2 7 44 6 43 5 -39 0
2 7 44 6 43 5 -47 0
2 7 44 6 43 5 -38 0
2 7 61 6 59 5 -65 0
2 7 61 6 59 5 -67 0
2 7 61 6 59 5 -60 0
2 7 61 6 59 5 -64 0
2 7 61 6 59 5 -63 0
2 7 61 6 59 5 -58 0
2 7 52 6 57 5 -50 0
2 7 52 6 57 5 -55 0
2 7 52 6 57 5 -48 0
2 7 52 6 57 5 -54 0
2 7 52 6 57 5 -56 0
2 7 52 6 57 5 -51 0
14 25 13 24 8 26 -72 0
14 25 13 24 8 26 -76 0
14 25 13 24 8 26 -71 0
14 25 13 24 8 26 -73 0
14 25 13 24 8 26 -74 0
14 25 13 24 8 26 -75 0
14 32 13 33 8 29 -82 0
14 32 13 33 8 29 -80 0
14 32 13 33 8 29 -81 0
14 32 13 33 8 29 -77 0
14 32 13 33 8 29 -78 0
14 32 13 33 8 29 -79 0
14 45 13 44 8 43 -83 0
14 45 13 44 8 43 -84 0
14 45 13 44 8 43 -87 0
14 45 13 44 8 43 -88 0
14 45 13 44 8 43 -86 0
14 45 13 44 8 43 -85 0
14 62 13 61 8 59 -97 0
14 62 13 61 8 59 -99 0
14 62 13 61 8 59 -98 0
14 62 13 61 8 59 -95 0
14 62 13 61 8 59 -100 0
14 62 13 61 8 59 -96 0
14 53 13 52 8 57 -90 0
14 53 13 52 8 57 -91 0
14 53 13 52 8 57 -93 0
14 53 13 52 8 57 -89 0
14 53 13 52 8 57 -92 0
14 53 13 52 8 57 -94 0
14 7 13 6 8 5 -17 0
14 7 13 6 8 5 -9 0
14 7 13 6 8 5 -11 0
14 7 13 6 8 5 -16 0
14 7 13 6 8 5 -15 0
14 7 13 6 8 5 -12 0
25 32 24 33 26 29 -107 0
25 32 24 33 26 29 -105 0
25 32 24 33 26 29 -108 0
25 32 24 33 26 29 -109 0
25 32 24 33 26 29 -106 0
25 32 24 33 26 29 -104 0
25 45 24 44 26 43 -113 0
25 45 24 44 26 43 -115 0
25 45 24 44 26 43 -110 0
25 45 24 44 26 43 -112 0
25 45 24 44 26 43 -114 0
25 45 24 44 26 43 -111 0
25 62 24 61 26 59 -122 0
25 62 24 61 26 59 -127 0
25 62 24 61 26 59 -123 0
25 62 24 61 26 59 -125 0
25 62 24 61 26 59 -124 0
25 62 24 61 26 59 -126 0
25 53 24 52 26 57 -119 0
25 53 24 52 26 57 -116 0
25 53 24 52 26 57 -121 0
25 53 24 52 26 57 -117 0
25 53 24 52 26 57 -120 0
25 53 24 52 26 57 -118 0
25 7 24 6 26 5 -21 0
25 7 24 6 26 5 -23 0
25 7 24 6 26 5 -22 0
25 7 24 6 26 5 -18 0
25 7 24 6 26 5 -19 0
25 7 24 6 26 5 -20 0
32 45 33 44 29 43 -133 0
32 45 33 44 29 43 -131 0
32 45 33 44 29 43 -134 0
32 45 33 44 29 43 -135 0
32 45 33 44 29 43 -136 0
32 45 33 44 29 43 -132 0
32 62 33 61 29 59 -143 0
32 62 33 61 29 59 -145 0
32 62 33 61 29 59 -148 0
32 62 33 61 29 59 -146 0
32 62 33 61 29 59 -147 0
32 62 33 61 29 59 -144 0
32 53 33 52 29 57 -140 0
32 53 33 52 29 57 -141 0
32 53 33 52 29 57 -138 0
32 53 33 52 29 57 -137 0
32 53 33 52 29 57 -139 0
32 53 33 52 29 57 -142 0
32 7 33 6 29 5 -31 0
32 7 33 6 29 5 -28 0
32 7 33 6 29 5 -30 0
32 7 33 6 29 5 -35 0
32 7 33 6 29 5 -36 0
32 7 33 6 29 5 -37 0
45 62 44 61 43 59 -158 0
45 62 44 61 43 59 -161 0
45 62 44 61 43 59 -160 0
45 62 44 61 43 59 -163 0
45 62 44 61 43 59 -159 0
45 62 44 61 43 59 -162 0
45 53 44 52 43 57 -153 0
45 53 44 52 43 57 -154 0
45 53 44 52 43 57 -152 0
45 53 44 52 43 57 -155 0
45 53 44 52 43 57 -156 0
45 53 44 52 43 57 -157 0
45 7 44 6 43 5 -41 0
45 7 44 6 43 5 -40 0
45 7 44 6 43 5 -42 0
45 7 44 6 43 5 -39 0
45 7 44 6 43 5 -47 0
45 7 44 6 43 5 -38 0
62 53 61 52 59 57 -172 0
62 53 61 52 59 57 -167 0
62 53 61 52 59 57 -170 0
62 53 61 52 59 57 -168 0
62 53 61 52 59 57 -171 0
62 53 61 52 59 57 -169 0
62 7 61 6 59 5 -65 0
62 7 61 6 59 5 -67 0
62 7 61 6 59 5 -60 0
62 7 61 6 59 5 -64 0
62 7 61 6 59 5 -63 0
62 7 61 6 59 5 -58 0
53 7 52 6 57 5 -50 0
53 7 52 6 57 5 -55 0
53 7 52 6 57 5 -48 0
53 7 52 6 57 5 -54 0
53 7 52 6 57 5 -56 0
53 7 52 6 57 5 -51 0
10 27 14 25 13 24 8 -72 0
10 27 14 25 13 24 8 -76 0
10 27 14 25 13 24 8 -71 0
10 27 14 25 13 24 8 -73 0
10 27 14 25 13 24 8 -74 0
10 27 14 25 13 24 8 -75 0
10 27 14 25 13 24 26 -72 0
10 27 14 25 13 24 26 -76 0
10 27 14 25 13 24 26 -71 0
10 27 14 25 13 24 26 -73 0
10 27 14 25 13 24 26 -74 0
10 27 14 25 13 24 26 -75 0
10 27 14 25 13 8 26 -72 0
10 27 14 25 13 8 26 -76 0
10 27 14 25 13 8 26 -71 0
10 27 14 25 13 8 26 -73 0
10 27 14 25 13 8 26 -74 0
10 27 14 25 13 8 26 -75 0
10 27 14 25 24 8 26 -72 0
10 27 14 25 24 8 26 -76 0
10 27 14 25 24 8 26 -71 0
10 27 14 25 24 8 26 -73 0
10 27 14 25 24 8 26 -74 0
10 27 14 25 24 8 26 -75 0
10 27 14 13 24 8 26 -72 0
10 27 14 13 24 8 26 -76 0
10 27 14 13 24 8 26 -71 0
10 27 14 13 24 8 26 -73 0
10 27 14 13 24 8 26 -74 0
10 27 14 13 24 8 26 -75 0
10 27 25 13 24 8 26 -72 0
10 27 25 13 24 8 26 -76 0
10 27 25 13 24 8 26 -71 0
10 27 25 13 24 8 26 -73 0
10 27 25 13 24 8 26 -74 0
10 27 25 13 24 8 26 -75 0
10 34 14 32 13 33 8 -82 0
10 34 14 32 13 33 8 -80 0
10 34 14 32 13 33 8 -81 0
10 34 14 32 13 33 8 -77 0
10 34 14 32 13 33 8 -78 0
10 34 14 32 13 33 8 -79 0
10 34 14 32 13 33 29 -82 0
10 34 14 32 13 33 29 -80 0
10 34 14 32 13 33 29 -81 0
10 34 14 32 13 33 29 -77 0
10 34 14 32 13 33 29 -78 0
10 34 14 32 13 33 29 -79 0
10 34 14 32 13 8 29 -82 0
10 34 14 32 13 8 29 -80 0
10 34 14 32 13 8 29 -81 0
10 34 14 32 13 8 29 -77 0
10 34 14 32 13 8 29 -78 0
10 34 14 32 13 8 29 -79 0
10 34 14 32 33 8 29 -82 0
10 34 14 32 33 8 29 -80 0
10 34 14 32 33 8 29 -81 0
10 34 14 32 33 8 29 -77 0
10 34 14 32 33 8 29 -78 0
10 34 14 32 33 8 29 -79 0
10 34 14 13 33 8 29 -82 0
10 34 14 13 33 8 29 -80 0
10 34 14 13 33 8 29 -81 0
10 34 14 13 33 8 29 -77 0
10 34 14 13 33 8 29 -78 0
10 34 14 13 33 8 29 -79 0
10 34 32 13 33 8 29 -82 0
10 34 32 13 33 8 29 -80 0
10 34 32 13 33 8 29 -81 0
10 34 32 13 33 8 29 -77 0
10 34 32 13 33 8 29 -78 0
10 34 32 13 33 8 29 -79 0
10 46 14 45 13 44 8 -83 0
10 46 14 45 13 44 8 -84 0
10 46 14 45 13 44 8 -87 0
10 46 14 45 13 44 8 -88 0
10 46 14 45 13 44 8 -86 0
10 46 14 45 13 44 8 -85 0
10 46 14 45 13 44 43 -83 0
10 46 14 45 13 44 43 -84 0
10 46 14 45 13 44 43 -87 0
10 46 14 45 13 44 43 -88 0
10 46 14 45 13 44 43 -86 0
10 46 14 45 13 44 43 -85 0
10 46 14 45 13 8 43 -83 0
10 46 14 45 13 8 43 -84 0
10 46 14 45 13 8 43 -87 0
10 46 14 45 13 8 43 -88 0
10 46 14 45 13 8 43 -86 0
10 46 14 45 13 8 43 -85 0
10 46 14 45 44 8 43 -83 0
10 46 14 45 44 8 43 -84 0
10 46 14 45 44 8 43 -87 0
10 46 14 45 44 8 43 -88 0
10 46 14 45 44 8 43 -86 0
10 46 14 45 44 8 43 -85 0
10 46 14 13 44 8 43 -83 0
10 46 14 13 44 8 43 -84 0
10 46 14 13 44 8 43 -87 0
10 46 14 13 44 8 43 -88 0
10 46 14 13 44 8 43 -86 0
10 46 14 13 44 8 43 -85 0
10 46 45 13 44 8 43 -83 0
10 46 45 13 44 8 43 -84 0
10 46 45 13 44 8 43 -87 0
10 46 45 13 44 8 43 -88 0
10 46 45 13 44 8 43 -86 0
10 46 45 13 44 8 43 -85 0
10 66 14 62 13 61 8 -97 0
10 66 14 62 13 61 8 -99 0
10 66 14 62 13 61 8 -98 0
10 66 14 62 13 61 8 -95 0
10 66 14 62 13 61 8 -100 0
10 66 14 62 13 61 8 -96 0
10 66 14 62 13 61 59 -97 0
10 66 14 62 13 61 59 -99 0
10 66 14 62 13 61 59 -98 0
10 66 14 62 13 61 59 -95 0
10 66 14 62 13 61 59 -100 0
10 66 14 62 13 61 59 -96 0
10 66 14 62 13 8 59 -97 0
10 66 14 62 13 8 59 -99 0
10 66 14 62 13 8 59 -98 0
10 66 14 62 13 8 59 -95 0
10 66 14 62 13 8 59 -100 0
10 66 14 62 13 8 59 -96 0
10 66 14 62 61 8 59 -97 0
10 66 14 62 61 8 59 -99 0
10 66 14 62 61 8 59 -98 0
10 66 14 62 61 8 59 -95 0
10 66 14 62 61 8 59 -100 0
10 66 14 62 61 8 59 -96 0
10 66 14 13 61 8 59 -97 0
10 66 14 13 61 8 59 -99 0
10 66 14 13 61 8 59 -98 0
10 66 14 13 61 8 59 -95 0
10 66 14 13 61 8 59 -100 0
10 66 14 13 61 8 59 -96 0
10 66 62 13 61 8 59 -97 0
10 66 62 13 61 8 59 -99 0
10 66 62 13 61 8 59 -98 0
10 66 62 13 61 8 59 -95 0
10 66 62 13 61 8 59 -100 0
10 66 62 13 61 8 59 -96 0
10 49 14 53 13 52 8 -90 0
10 49 14 53 13 52 8 -91 0
10 49 14 53 13 52 8 -93 0
10 49 14 53 13 52 8 -89 0
10 49 14 53 13 52 8 -92 0
10 49 14 53 13 52 8 -94 0
10 49 14 53 13 52 57 -90 0
10 49 14 53 13 52 57 -91 0
10 49 14 53 13 52 57 -93 0
10 49 14 53 13 52 57 -89 0
10 49 14 53 13 52 57 -92 0
10 49 14 53 13 52 57 -94 0
10 49 14 53 13 8 57 -90 0
10 49 14 53 13 8 57 -91 0
10 49 14 53 13 8 57 -93 0
10 49 14 53 13 8 57 -89 0
10 49 14 53 13 8 57 -92 0
10 49 14 53 13 8 57 -94 0
10 49 14 53 52 8 57 -90 0
10 49 14 53 52 8 57 -91 0
10 49 14 53 52 8 57 -93 0
10 49 14 53 52 8 57 -89 0
10 49 14 53 52 8 57 -92 0
10 49 14 53 52 8 57 -94 0
10 49 14 13 52 8 57 -90 0
10 49 14 13 52 8 57 -91 0
10 49 14 13 52 8 57 -93 0
10 49 14 13 52 8 57 -89 0
10 49 14 13 52 8 57 -92 0
10 49 14 13 52 8 57 -94 0
10 49 53 13 52 8 57 -90 0
10 49 53 13 52 8 57 -91 0
10 49 53 13 52 8 57 -93 0
10 49 53 13 52 8 57 -89 0
10 49 53 13 52 8 57 -92 0
10 49 53 13 52 8 57 -94 0
10 2 14 7 13 6 8 -17 0
10 2 14 7 13 6 8 -9 0
10 2 14 7 13 6 8 -11 0
10 2 14 7 13 6 8 -16 0
10 2 14 7 13 6 8 -15 0
10 2 14 7 13 6 8 -12 0
10 2 14 7 13 6 5 -17 0
10 2 14 7 13 6 5 -9 0
10 2 14 7 13 6 5 -11 0
10 2 14 7 13 6 5 -16 0
10 2 14 7 13 6 5 -15 0
10 2 14 7 13 6 5 -12 0
10 2 14 7 13 8 5 -17 0
10 2 14 7 13 8 5 -9 0
10 2 14 7 13 8 5 -11 0
10 2 14 7 13 8 5 -16 0
10 2 14 7 13 8 5 -15 0
10 2 14 7 13 8 5 -12 0
10 2 14 7 6 8 5 -17 0
10 2 14 7 6 8 5 -9 0
10 2 14 7 6 8 5 -11 0
10 2 14 7 6 8 5 -16 0
10 2 14 7 6 8 5 -15 0
10 2 14 7 6 8 5 -12 0
10 2 14 13 6 8 5 -17 0
10 2 14 13 6 8 5 -9 0
10 2 14 13 6 8 5 -11 0
10 2 14 13 6 8 5 -16 0
10 2 14 13 6 8 5 -15 0
10 2 14 13 6 8 5 -12 0
10 2 7 13 6 8 5 -17 0
10 2 7 13 6 8 5 -9 0
10 2 7 13 6 8 5 -11 0
10 2 7 13 6 8 5 -16 0
10 2 7 13 6 8 5 -15 0
10 2 7 13 6 8 5 -12 0
10 14 25 13 24 8 26 -72 0
10 14 25 13 24 8 26 -76 0
10 14 25 13 24 8 26 -71 0
10 14 25 13 24 8 26 -73 0
10 14 25 13 24 8 26 -74 0
10 14 25 13 24 8 26 -75 0
10 14 32 13 33 8 29 -82 0
10 14 32 13 33 8 29 -80 0
10 14 32 13 33 8 29 -81 0
10 14 32 13 33 8 29 -77 0
10 14 32 13 33 8 29 -78 0
10 14 32 13 33 8 29 -79 0
10 14 45 13 44 8 43 -83 0
10 14 45 13 44 8 43 -84 0
10 14 45 13 44 8 43 -87 0
10 14 45 13 44 8 43 -88 0
10 14 45 13 44 8 43 -86 0
10 14 45 13 44 8 43 -85 0
10 14 62 13 61 8 59 -97 0
10 14 62 13 61 8 59 -99 0
10 14 62 13 61 8 59 -98 0
10 14 62 13 61 8 59 -95 0
10 14 62 13 61 8 59 -100 0
10 14 62 13 61 8 59 -96 0
10 14 53 13 52 8 57 -90 0
10 14 53 13 52 8 57 -91 0
10 14 53 13 52 8 57 -93 0
10 14 53 13 52 8 57 -89 0
10 14 53 13 52 8 57 -92 0
10 14 53 13 52 8 57 -94 0
10 14 7 13 6 8 5 -17 0
10 14 7 13 6 8 5 -9 0
10 14 7 13 6 8 5 -11 0
10 14 7 13 6 8 5 -16 0
10 14 7 13 6 8 5 -15 0
10 14 7 13 6 8 5 -12 0
27 34 25 32 24 33 26 -107 0
27 34 25 32 24 33 26 -105 0
27 34 25 32 24 33 26 -108 0
27 34 25 32 24 33 26 -109 0
27 34 25 32 24 33 26 -106 0
27 34 25 32 24 33 26 -104 0
27 34 25 32 24 33 29 -107 0
27 34 25 32 24 33 29 -105 0
27 34 25 32 24 33 29 -108 0
27 34 25 32 24 33 29 -109 0
27 34 25 32 24 33 29 -106 0
27 34 25 32 24 33 29 -104 0
27 34 25 32 24 26 29 -107 0
27 34 25 32 24 26 29 -105 0
27 34 25 32 24 26 29 -108 0
27 34 25 32 24 26 29 -109 0
27 34 25 32 24 26 29 -106 0
27 34 25 32 24 26 29 -104 0
27 34 25 32 33 26 29 -107 0
27 34 25 32 33 26 29 -105 0
27 34 25 32 33 26 29 -108 0
27 34 25 32 33 26 29 -109 0
27 34 25 32 33 26 29 -106 0
27 34 25 32 33 26 29 -104 0
27 34 25 24 33 26 29 -107 0
27 34 25 24 33 26 29 -105 0
27 34 25 24 33 26 29 -108 0
27 34 25 24 33 26 29 -109 0
27 34 25 24 33 26 29 -106 0
27 34 25 24 33 26 29 -104 0
27 34 32 24 33 26 29 -107 0
27 34 32 24 33 26 29 -105 0
27 34 32 24 33 26 29 -108 0
27 34 32 24 33 26 29 -109 0
27 34 32 24 33 26 29 -106 0
27 34 32 24 33 26 29 -104 0
27 46 25 45 24 44 26 -113 0
27 46 25 45 24 44 26 -115 0
27 46 25 45 24 44 26 -110 0
27 46 25 45 24 44 26 -112 0
27 46 25 45 24 44 26 -114 0
27 46 25 45 24 44 26 -111 0
27 46 25 45 24 44 43 -113 0
27 46 25 45 24 44 43 -115 0
27 46 25 45 24 44 43 -110 0
27 46 25 45 24 44 43 -112 0
27 46 25 45 24 44 43 -114 0
27 46 25 45 24 44 43 -111 0
27 46 25 45 24 26 43 -113 0
27 46 25 45 24 26 43 -115 0
27 46 25 45 24 26 43 -110 0
27 46 25 45 24 26 43 -112 0
27 46 25 45 24 26 43 -114 0
27 46 25 45 24 26 43 -111 0
27 46 25 45 44 26 43 -113 0
27 46 25 45 44 26 43 -115 0
27 46 25 45 44 26 43 -110 0
27 46 25 45 44 26 43 -112 0
27 46 25 45 44 26 43 -114 0
27 46 25 45 44 26 43 -111 0
27 46 25 24 44 26 43 -113 0
27 46 25 24 44 26 43 -115 0
27 46 25 24 44 26 43 -110 0
27 46 25 24 44 26 43 -112 0
27 46 25 24 44 26 43 -114 0
27 46 25 24 44 26 43 -111 0
27 46 45 24 44 26 43 -113 0
27 46 45 24 44 26 43 -115 0
27 46 45 24 44 26 43 -110 0
27 46 45 24 44 26 43 -112 0
27 46 45 24 44 26 43 -114 0
27 46 45 24 44 26 43 -111 0
27 66 25 62 24 61 26 -122 0
27 66 25 62 24 61 26 -127 0
27 66 25 62 24 61 26 -123 0
27 66 25 62 24 61 26 -125 0
27 66 25 62 24 61 26 -124 0
27 66 25 62 24 61 26 -126 0
27 66 25 62 24 61 59 -122 0
27 66 25 62 24 61 59 -127 0
27 66 25 62 24 61 59 -123 0
27 66 25 62 24 61 59 -125 0
27 66 25 62 24 61 59 -124 0
27 66 25 62 24 61 59 -126 0
27 66 25 62 24 26 59 -122 0
27 66 25 62 24 26 59 -127 0
27 66 25 62 24 26 59 -123 0
27 66 25 62 24 26 59 -125 0
27 66 25 62 24 26 59 -124 0
27 66 25 62 24 26 59 -126 0
27 66 25 62 61 26 59 -122 0
27 66 25 62 61 26 59 -127 0
27 66 25 62 61 26 59 -123 0
27 66 25 62 61 26 59 -125 0
27 66 25 62 61 26 59 -124 0
27 66 25 62 61 26 59 -126 0
27 66 25 24 61 26 59 -122 0
27 66 25 24 61 26 59 -127 0
27 66 25 24 61 26 59 -123 0
27 66 25 24 61 26 59 -125 0
27 66 25 24 61 26 59 -124 0
27 66 25 24 61 26 59 -126 0
27 66 62 24 61 26 59 -122 0
27 66 62 24 61 26 59 -127 0
27 66 62 24 61 26 59 -123 0
27 66 62 24 61 26 59 -125 0
27 66 62 24 61 26 59 -124 0
27 66 62 24 61 26 59 -126 0
27 49 25 53 24 52 26 -119 0
27 49 25 53 24 52 26 -116 0
27 49 25 53 24 52 26 -121 0
27 49 25 53 24 52 26 -117 0
27 49 25 53 24 52 26 -120 0
27 49 25 53 24 52 26 -118 0
27 49 25 53 24 52 57 -119 0
27 49 25 53 24 52 57 -116 0
27 49 25 53 24 52 57 -121 0
27 49 25 53 24 52 57 -117 0
27 49 25 53 24 52 57 -120 0
27 49 25 53 24 52 57 -118 0
27 49 25 53 24 26 57 -119 0
27 49 25 53 24 26 57 -116 0
27 49 25 53 24 26 57 -121 0
27 49 25 53 24 26 57 -117 0
27 49 25 53 24 26 57 -120 0
27 49 25 53 24 26 57 -118 0
27 49 25 53 52 26 57 -119 0
27 49 25 53 52 26 57 -116 0
27 49 25 53 52 26 57 -121 0
27 49 25 53 52 26 57 -117 0
27 49 25 53 52 26 57 -120 0
27 49 25 53 52 26 57 -118 0
27 49 25 24 52 26 57 -119 0
27 49 25 24 52 26 57 -116 0
27 49 25 24 52 26 57 -121 0
27 49 25 24 52 26 57 -117 0
27 49 25 24 52 26 57 -120 0
27 49 25 24 52 26 57 -118 0
27 49 53 24 52 26 57 -119 0
27 49 53 24 52 26 57 -116 0
27 49 53 24 52 26 57 -121 0
27 49 53 24 52 26 57 -117 0
27 49 53 24 52 26 57 -120 0
27 49 53 24 52 26 57 -118 0
27 2 25 7 24 6 26 -21 0
27 2 25 7 24 6 26 -23 0
27 2 25 7 24 6 26 -22 0
27 2 25 7 24 6 26 -18 0
27 2 25 7 24 6 26 -19 0
27 2 25 7 24 6 26 -20 0
27 2 25 7 24 6 5 -21 0
27 2 25 7 24 6 5 -23 0
27 2 25 7 24 6 5 -22 0
27 2 25 7 24 6 5 -18 0
27 2 25 7 24 6 5 -19 0
27 2 25 7 24 6 5 -20 0
27 2 25 7 24 26 5 -21 0
27 2 25 7 24 26 5 -23 0
27 2 25 7 24 26 5 -22 0
27 2 25 7 24 26 5 -18 0
27 2 25 7 24 26 5 -19 0
27 2 25 7 24 26 5 -20 0
27 2 25 7 6 26 5 -21 0
27 2 25 7 6 26 5 -23 0
27 2 25 7 6 26 5 -22 0
27 2 25 7 6 26 5 -18 0
27 2 25 7 6 26 5 -19 0
27 2 25 7 6 26 5 -20 0
27 2 25 24 6 26 5 -21 0
27 2 25 24 6 26 5 -23 0
27 2 25 24 6 26 5 -22 0
27 2 25 24 6 26 5 -18 0
27 2 25 24 6 26 5 -19 0
27 2 25 24 6 26 5 -20 0
27 2 7 24 6 26 5 -21 0
27 2 7 24 6 26 5 -23 0
27 2 7 24 6 26 5 -22 0
27 2 7 24 6 26 5 -18 0
27 2 7 24 6 26 5 -19 0
27 2 7 24 6 26 5 -20 0
27 14 25 13 24 8 26 -72 0
27 14 25 13 24 8 26 -76 0
27 14 25 13 24 8 26 -71 0
27 14 25 13 24 8 26 -73 0
27 14 25 13 24 8 26 -74 0
27 14 25 13 24 8 26 -75 0
27 25 32 24 33 26 29 -107 0
27 25 32 24 33 26 29 -105 0
27 25 32 24 33 26 29 -108 0
27 25 32 24 33 26 29 -109 0
27 25 32 24 33 26 29 -106 0
27 25 32 24 33 26 29 -104 0
27 25 45 24 44 26 43 -113 0
27 25 45 24 44 26 43 -115 0
27 25 45 24 44 26 43 -110 0
27 25 45 24 44 26 43 -112 0
27 25 45 24 44 26 43 -114 0
27 25 45 24 44 26 43 -111 0
27 25 62 24 61 26 59 -122 0
27 25 62 24 61 26 59 -127 0
27 25 62 24 61 26 59 -123 0
27 25 62 24 61 26 59 -125 0
27 25 62 24 61 26 59 -124 0
27 25 62 24 61 26 59 -126 0
27 25 53 24 52 26 57 -119 0
27 25 53 24 52 26 57 -116 0
27 25 53 24 52 26 57 -121 0
27 25 53 24 52 26 57 -117 0
27 25 53 24 52 26 57 -120 0
27 25 53 24 52 26 57 -118 0
27 25 7 24 6 26 5 -21 0
27 25 7 24 6 26 5 -23 0
27 25 7 24 6 26 5 -22 0
27 25 7 24 6 26 5 -18 0
27 25 7 24 6 26 5 -19 0
27 25 7 24 6 26 5 -20 0
34 46 32 45 33 44 29 -133 0
34 46 32 45 33 44 29 -131 0
34 46 32 45 33 44 29 -134 0
34 46 32 45 33 44 29 -135 0
34 46 32 45 33 44 29 -136 0
34 46 32 45 33 44 29 -132 0
34 46 32 45 33 44 43 -133 0
34 46 32 45 33 44 43 -131 0
34 46 32 45 33 44 43 -134 0
34 46 32 45 33 44 43 -135 0
34 46 32 45 33 44 43 -136 0
34 46 32 45 33 44 43 -132 0
34 46 32 45 33 29 43 -133 0
34 46 32 45 33 29 43 -131 0
34 46 32 45 33 29 43 -134 0
34 46 32 45 33 29 43 -135 0
34 46 32 45 33 29 43 -136 0
34 46 32 45 33 29 43 -132 0
34 46 32 45 44 29 43 -133 0
34 46 32 45 44 29 43 -131 0
34 46 32 45 44 29 43 -134 0
34 46 32 45 44 29 43 -135 0
34 46 32 45 44 29 43 -136 0
34 46 32 45 44 29 43 -132 0
34 46 32 33 44 29 43 -133 0
34 46 32 33 44 29 43 -131 0
34 46 32 33 44 29 43 -134 0
34 46 32 33 44 29 43 -135 0
34 46 32 33 44 29 43 -136 0
34 46 32 33 44 29 43 -132 0
34 46 45 33 44 29 43 -133 0
34 46 45 33 44 29 43 -131 0
34 46 45 33 44 29 43 -134 0
34 46 45 33 44 29 43 -135 0
34 46 45 33 44 29 43 -136 0
34 46 45 33 44 29 43 -132 0
34 66 32 62 33 61 29 -143 0
34 66 32 62 33 61 29 -145 0
34 66 32 62 33 61 29 -148 0
34 66 32 62 33 61 29 -146 0
34 66 32 62 33 61 29 -147 0
34 66 32 62 33 61 29 -144 0
34 66 32 62 33 61 59 -143 0
34 66 32 62 33 61 59 -145 0
34 66 32 62 33 61 59 -148 0
34 66 32 62 33 61 59 -146 0
34 66 32 62 33 61 59 -147 0
34 66 32 62 33 61 59 -144 0
34 66 32 62 33 29 59 -143 0
34 66 32 62 33 29 59 -145 0
34 66 32 62 33 29 59 -148 0
34 66 32 62 33 29 59 -146 0
34 66 32 62 33 29 59 -147 0
34 66 32 62 33 29 59 -144 0
34 66 32 62 61 29 59 -143 0
34 66 32 62 61 29 59 -145 0
34 66 32 62 61 29 59 -148 0
34 66 32 62 61 29 59 -146 0
34 66 32 62 61 29 59 -147 0
34 66 32 62 61 29 59 -144 0
34 66 32 33 61 29 59 -143 0
34 66 32 33 61 29 59 -145 0
34 66 32 33 61 29 59 -148 0
34 66 32 33 61 29 59 -146 0
34 66 32 33 61 29 59 -147 0
34 66 32 33 61 29 59 -144 0
34 66 62 33 61 29 59 -143 0
34 66 62 33 61 29 59 -145 0
34 66 62 33 61 29 59 -148 0
34 66 62 33 61 29 59 -146 0
34 66 62 33 61 29 59 -147 0
34 66 62 33 61 29 59 -144 0
34 49 32 53 33 52 29 -140 0
34 49 32 53 33 52 29 -141 0
34 49 32 53 33 52 29 -138 0
34 49 32 53 33 52 29 -137 0
34 49 32 53 33 52 29 -139 0
34 49 32 53 33 52 29 -142 0
34 49 32 53 33 52 57 -140 0
34 49 32 53 33 52 57 -141 0
34 49 32 53 33 52 57 -138 0
34 49 32 53 33 52 57 -137 0
34 49 32 53 33 52 57 -139 0
34 49 32 53 33 52 57 -142 0
34 49 32 53 33 29 57 -140 0
34 49 32 53 33 29 57 -141 0
34 49 32 53 33 29 57 -138 0
34 49 32 53 33 29 57 -137 0
34 49 32 53 33 29 57 -139 0
34 49 32 53 33 29 57 -142 0
34 49 32 53 52 29 57 -140 0
34 49 32 53 52 29 57 -141 0
34 49 32 53 52 29 57 -138 0
34 49 32 53 52 29 57 -137 0
34 49 32 53 52 29 57 -139 0
34 49 32 53 52 29 57 -142 0
34 49 32 33 52 29 57 -140 0
34 49 32 33 52 29 57 -141 0
34 49 32 33 52 29 57 -138 0
34 49 32 33 52 29 57 -137 0
34 49 32 33 52 29 57 -139 0
34 49 32 33 52 29 57 -142 0
34 49 53 33 52 29 57 -140 0
34 49 53 33 52 29 57 -141 0
34 49 53 33 52 29 57 -138 0
34 49 53 33 52 29 57 -137 0
34 49 53 33 52 29 57 -139 0
34 49 53 33 52 29 57 -142 0
34 2 32 7 33 6 29 -31 0
34 2 32 7 33 6 29 -28 0
34 2 32 7 33 6 29 -30 0
34 2 32 7 33 6 29 -35 0
34 2 32 7 33 6 29 -36 0
34 2 32 7 33 6 29 -37 0
34 2 32 7 33 6 5 -31 0
34 2 32 7 33 6 5 -28 0
34 2 32 7 33 6 5 -30 0
34 2 32 7 33 6 5 -35 0
34 2 32 7 33 6 5 -36 0
34 2 32 7 33 6 5 -37 0
34 2 32 7 33 29 5 -31 0
34 2 32 7 33 29 5 -28 0
34 2 32 7 33 29 5 -30 0
34 2 32 7 33 29 5 -35 0
34 2 32 7 33 29 5 -36 0
34 2 32 7 33 29 5 -37 0
34 2 32 7 6 29 5 -31 0
34 2 32 7 6 29 5 -28 0
34 2 32 7 6 29 5 -30 0
34 2 32 7 6 29 5 -35 0
34 2 32 7 6 29 5 -36 0
34 2 32 7 6 29 5 -37 0
34 2 32 33 6 29 5 -31 0
34 2 32 33 6 29 5 -28 0
34 2 32 33 6 29 5 -30 0
34 2 32 33 6 29 5 -35 0
34 2 32 33 6 29 5 -36 0
34 2 32 33 6 29 5 -37 0
34 2 7 33 6 29 5 -31 0
34 2 7 33 6 29 5 -28 0
34 2 7 33 6 29 5 -30 0
34 2 7 33 6 29 5 -35 0
34 2 7 33 6 29 5 -36 0
34 2 7 33 6 29 5 -37 0
34 14 32 13 33 8 29 -82 0
34 14 32 13 33 8 29 -80 0
34 14 32 13 33 8 29 -81 0
34 14 32 13 33 8 29 -77 0
34 14 32 13 33 8 29 -78 0
34 14 32 13 33 8 29 -79 0
34 25 32 24 33 26 29 -107 0
34 25 32 24 33 26 29 -105 0
34 25 32 24 33 26 29 -108 0
34 25 32 24 33 26 29 -109 0
34 25 32 24 33 26 29 -106 0
34 25 32 24 33 26 29 -104 0
34 32 45 33 44 29 43 -133 0
34 32 45 33 44 29 43 -131 0
34 32 45 33 44 29 43 -134 0
34 32 45 33 44 29 43 -135 0
34 32 45 33 44 29 43 -136 0
34 32 45 33 44 29 43 -132 0
34 32 62 33 61 29 59 -143 0
34 32 62 33 61 29 59 -145 0
34 32 62 33 61 29 59 -148 0
34 32 62 33 61 29 59 -146 0
34 32 62 33 61 29 59 -147 0
34 32 62 33 61 29 59 -144 0
34 32 53 33 52 29 57 -140 0
34 32 53 33 52 29 57 -141 0
34 32 53 33 52 29 57 -138 0
34 32 53 33 52 29 57 -137 0
34 32 53 33 52 29 57 -139 0
34 32 53 33 52 29 57 -142 0
34 32 7 33 6 29 5 -31 0
34 32 7 33 6 29 5 -28 0
34 32 7 33 6 29 5 -30 0
34 32 7 33 6 29 5 -35 0
34 32 7 33 6 29 5 -36 0
34 32 7 33 6 29 5 -37 0
46 66 45 62 44 61 43 -158 0
46 66 45 62 44 61 43 -161 0
46 66 45 62 44 61 43 -160 0
46 66 45 62 44 61 43 -163 0
46 66 45 62 44 61 43 -159 0
46 66 45 62 44 61 43 -162 0
46 66 45 62 44 61 59 -158 0
46 66 45 62 44 61 59 -161 0
46 66 45 62 44 61 59 -160 0
46 66 45 62 44 61 59 -163 0
46 66 45 62 44 61 59 -159 0
46 66 45 62 44 61 59 -162 0
46 66 45 62 44 43 59 -158 0
46 66 45 62 44 43 59 -161 0
46 66 45 62 44 43 59 -160 0
46 66 45 62 44 43 59 -163 0
46 66 45 62 44 43 59 -159 0
46 66 45 62 44 43 59 -162 0
46 66 45 62 61 43 59 -158 0
46 66 45 62 61 43 59 -161 0
46 66 45 62 61 43 59 -160 0
46 66 45 62 61 43 59 -163 0
46 66 45 62 61 43 59 -159 0
46 66 45 62 61 43 59 -162 0
46 66 45 44 61 43 59 -158 0
46 66 45 44 61 43 59 -161 0
46 66 45 44 61 43 59 -160 0
46 66 45 44 61 43 59 -163 0
46 66 45 44 61 43 59 -159 0
46 66 45 44 61 43 59 -162 0
46 66 62 44 61 43 59 -158 0
46 66 62 44 61 43 59 -161 0
46 66 62 44 61 43 59 -160 0
46 66 62 44 61 43 59 -163 0
46 66 62 44 61 43 59 -159 0
46 66 62 44 61 43 59 -162 0
46 49 45 53 44 52 43 -153 0
46 49 45 53 44 52 43 -154 0
46 49 45 53 44 52 43 -152 0
46 49 45 53 44 52 43 -155 0
46 49 45 53 44 52 43 -156 0
46 49 45 53 44 52 43 -157 0
46 49 45 53 44 52 57 -153 0
46 49 45 53 44 52 57 -154 0
46 49 45 53 44 52 57 -152 0
46 49 45 53 44 52 57 -155 0
46 49 45 53 44 52 57 -156 0
46 49 45 53 44 52 57 -157 0
46 49 45 53 44 43 57 -153 0
46 49 45 53 44 43 57 -154 0
46 49 45 53 44 43 57 -152 0
46 49 45 53 44 43 57 -155 0
46 49 45 53 44 43 57 -156 0
46 49 45 53 44 43 57 -157 0
46 49 45 53 52 43 57 -153 0
46 49 45 53 52 43 57 -154 0
46 49 45 53 52 43 57 -152 0
46 49 45 53 52 43 57 -155 0
46 49 45 53 52 43 57 -156 0
46 49 45 53 52 43 57 -157 0
46 49 45 44 52 43 57 -153 0
46 49 45 44 52 43 57 -154 0
46 49 45 44 52 43 57 -152 0
46 49 45 44 52 43 57 -155 0
46 49 45 44 52 43 57 -156 0
46 49 45 44 52 43 57 -157 0
46 49 53 44 52 43 57 -153 0
46 49 53 44 52 43 57 -154 0
46 49 53 44 52 43 57 -152 0
46 49 53 44 52 43 57 -155 0
46 49 53 44 52 43 57 -156 0
46 49 53 44 52 43 57 -157 0
46 2 45 7 44 6 43 -41 0
46 2 45 7 44 6 43 -40 0
46 2 45 7 44 6 43 -42 0
46 2 45 7 44 6 43 -39 0
46 2 45 7 44 6 43 -47 0
46 2 45 7 44 6 43 -38 0
46 2 45 7 44 6 5 -41 0
46 2 45 7 44 6 5 -40 0
46 2 45 7 44 6 5 -42 0
46 2 45 7 44 6 5 -39 0
46 2 45 7 44 6 5 -47 0
46 2 45 7 44 6 5 -38 0
46 2 45 7 44 43 5 -41 0
46 2 45 7 44 43 5 -40 0
46 2 45 7 44 43 5 -42 0
46 2 45 7 44 43 5 -39 0
46 2 45 7 44 43 5 -47 0
46 2 45 7 44 43 5 -38 0
46 2 45 7 6 43 5 -41 0
46 2 45 7 6 43 5 -40 0
46 2 45 7 6 43 5 -42 0
46 2 45 7 6 43 5 -39 0
46 2 45 7 6 43 5 -47 0
46 2 45 7 6 43 5 -38 0
46 2 45 44 6 43 5 -41 0
46 2 45 44 6 43 5 -40 0
46 2 45 44 6 43 5 -42 0
46 2 45 44 6 43 5 -39 0
46 2 45 44 6 43 5 -47 0
46 2 45 44 6 43 5 -38 0
46 2 7 44 6 43 5 -41 0
46 2 7 44 6 43 5 -40 0
46 2 7 44 6 43 5 -42 0
46 2 7 44 6 43 5 -39 0
46 2 7 44 6 43 5 -47 0
46 2 7 44 6 43 5 -38 0
46 14 45 13 44 8 43 -83 0
46 14 45 13 44 8 43 -84 0
46 14 45 13 44 8 43 -87 0
46 14 45 13 44 8 43 -88 0
46 14 45 13 44 8 43 -86 0
46 14 45 13 44 8 43 -85 0
46 25 45 24 44 26 43 -113 0
46 25 45 24 44 26 43 -115 0
46 25 45 24 44 26 43 -110 0
46 25 45 24 44 26 43 -112 0
46 25 45 24 44 26 43 -114 0
46 25 45 24 44 26 43 -111 0
46 32 45 33 44 29 43 -133 0
46 32 45 33 44 29 43 -131 0
46 32 45 33 44 29 43 -134 0
46 32 45 33 44 29 43 -135 0
46 32 45 33 44 29 43 -136 0
46 32 45 33 44 29 43 -132 0
46 45 62 44 61 43 59 -158 0
46 45 62 44 61 43 59 -161 0
46 45 62 44 61 43 59 -160 0
46 45 62 44 61 43 59 -163 0
46 45 62 44 61 43 59 -159 0
46 45 62 44 61 43 59 -162 0
46 45 53 44 52 43 57 -153 0
46 45 53 44 52 43 57 -154 0
46 45 53 44 52 43 57 -152 0
46 45 53 44 52 43 57 -155 0
46 45 53 44 52 43 57 -156 0
46 45 53 44 52 43 57 -157 0
46 45 7 44 6 43 5 -41 0
46 45 7 44 6 43 5 -40 0
46 45 7 44 6 43 5 -42 0
46 45 7 44 6 43 5 -39 0
46 45 7 44 6 43 5 -47 0
46 45 7 44 6 43 5 -38 0
66 49 62 53 61 52 59 -172 0
66 49 62 53 61 52 59 -167 0
66 49 62 53 61 52 59 -170 0
66 49 62 53 61 52 59 -168 0
66 49 62 53 61 52 59 -171 0
66 49 62 53 61 52 59 -169 0
66 49 62 53 61 52 57 -172 0
66 49 62 53 61 52 57 -167 0
66 49 62 53 61 52 57 -170 0
66 49 62 53 61 52 57 -168 0
66 49 62 53 61 52 57 -171 0
66 49 62 53 61 52 57 -169 0
66 49 62 53 61 59 57 -172 0
66 49 62 53 61 59 57 -167 0
66 49 62 53 61 59 57 -170 0
66 49 62 53 61 59 57 -168 0
66 49 62 53 61 59 57 -171 0
66 49 62 53 61 59 57 -169 0
66 49 62 53 52 59 57 -172 0
66 49 62 53 52 59 57 -167 0
66 49 62 53 52 59 57 -170 0
66 49 62 53 52 59 57 -168 0
66 49 62 53 52 59 57 -171 0
66 49 62 53 52 59 57 -169 0
66 49 62 61 52 59 57 -172 0
66 49 62 61 52 59 57 -167 0
66 49 62 61 52 59 57 -170 0
66 49 62 61 52 59 57 -168 0
66 49 62 61 52 59 57 -171 0
66 49 62 61 52 59 57 -169 0
66 49 53 61 52 59 57 -172 0
66 49 53 61 52 59 57 -167 0
66 49 53 61 52 59 57 -170 0
66 49 53 61 52 59 57 -168 0
66 49 53 61 52 59 57 -171 0
66 49 53 61 52 59 57 -169 0
66 2 62 7 61 6 59 -65 0
66 2 62 7 61 6 59 -67 0
66 2 62 7 61 6 59 -60 0
66 2 62 7 61 6 59 -64 0
66 2 62 7 61 6 59 -63 0
66 2 62 7 61 6 59 -58 0
66 2 62 7 61 6 5 -65 0
66 2 62 7 61 6 5 -67 0
66 2 62 7 61 6 5 -60 0
66 2 62 7 61 6 5 -64 0
66 2 62 7 61 6 5 -63 0
66 2 62 7 61 6 5 -58 0
66 2 62 7 61 59 5 -65 0
66 2 62 7 61 59 5 -67 0
66 2 62 7 61 59 5 -60 0
66 2 62 7 61 59 5 -64 0
66 2 62 7 61 59 5 -63 0
66 2 62 7 61 59 5 -58 0
66 2 62 7 6 59 5 -65 0
66 2 62 7 6 59 5 -67 0
66 2 62 7 6 59 5 -60 0
66 2 62 7 6 59 5 -64 0
66 2 62 7 6 59 5 -63 0
66 2 62 7 6 59 5 -58 0
66 2 62 61 6 59 5 -65 0
66 2 62 61 6 59 5 -67 0
66 2 62 61 6 59 5 -60 0
66 2 62 61 6 59 5 -64 0
66 2 62 61 6 59 5 -63 0
66 2 62 61 6 59 5 -58 0
66 2 7 61 6 59 5 -65 0
66 2 7 61 6 59 5 -67 0
66 2 7 61 6 59 5 -60 0
66 2 7 61 6 59 5 -64 0
66 2 7 61 6 59 5 -63 0
66 2 7 61 6 59 5 -58 0
66 14 62 13 61 8 59 -97 0
66 14 62 13 61 8 59 -99 0
66 14 62 13 61 8 59 -98 0
66 14 62 13 61 8 59 -95 0
66 14 62 13 61 8 59 -100 0
66 14 62 13 61 8 59 -96 0
66 25 62 24 61 26 59 -122 0
66 25 62 24 61 26 59 -127 0
66 25 62 24 61 26 59 -123 0
66 25 62 24 61 26 59 -125 0
66 25 62 24 61 26 59 -124 0
66 25 62 24 61 26 59 -126 0
66 32 62 33 61 29 59 -143 0
66 32 62 33 61 29 59 -145 0
66 32 62 33 61 29 59 -148 0
66 32 62 33 61 29 59 -146 0
66 32 62 33 61 29 59 -147 0
66 32 62 33 61 29 59 -144 0
66 45 62 44 61 43 59 -158 0
66 45 62 44 61 43 59 -161 0
66 45 62 44 61 43 59 -160 0
66 45 62 44 61 43 59 -163 0
66 45 62 44 61 43 59 -159 0
66 45 62 44 61 43 59 -162 0
66 62 53 61 52 59 57 -172 0
66 62 53 61 52 59 57 -167 0
66 62 53 61 52 59 57 -170 0
66 62 53 61 52 59 57 -168 0
66 62 53 61 52 59 57 -171 0
66 62 53 61 52 59 57 -169 0
66 62 7 61 6 59 5 -65 0
66 62 7 61 6 59 5 -67 0
66 62 7 61 6 59 5 -60 0
66 62 7 61 6 59 5 -64 0
66 62 7 61 6 59 5 -63 0
66 62 7 61 6 59 5 -58 0
49 2 53 7 52 6 57 -50 0
49 2 53 7 52 6 57 -55 0
49 2 53 7 52 6 57 -48 0
49 2 53 7 52 6 57 -54 0
49 2 53 7 52 6 57 -56 0
49 2 53 7 52 6 57 -51 0
49 2 53 7 52 6 5 -50 0
49 2 53 7 52 6 5 -55 0
49 2 53 7 52 6 5 -48 0
49 2 53 7 52 6 5 -54 0
49 2 53 7 52 6 5 -56 0
49 2 53 7 52 6 5 -51 0
49 2 53 7 52 57 5 -50 0
49 2 53 7 52 57 5 -55 0
49 2 53 7 52 57 5 -48 0
49 2 53 7 52 57 5 -54 0
49 2 53 7 52 57 5 -56 0
49 2 53 7 52 57 5 -51 0
49 2 53 7 6 57 5 -50 0
49 2 53 7 6 57 5 -55 0
49 2 53 7 6 57 5 -48 0
49 2 53 7 6 57 5 -54 0
49 2 53 7 6 57 5 -56 0
49 2 53 7 6 57 5 -51 0
49 2 53 52 6 57 5 -50 0
49 2 53 52 6 57 5 -55 0
49 2 53 52 6 57 5 -48 0
49 2 53 52 6 57 5 -54 0
49 2 53 52 6 57 5 -56 0
49 2 53 52 6 57 5 -51 0
49 2 7 52 6 57 5 -50 0
49 2 7 52 6 57 5 -55 0
49 2 7 52 6 57 5 -48 0
49 2 7 52 6 57 5 -54 0
49 2 7 52 6 57 5 -56 0
49 2 7 52 6 57 5 -51 0
49 14 53 13 52 8 57 -90 0
49 14 53 13 52 8 57 -91 0
49 14 53 13 52 8 57 -93 0
49 14 53 13 52 8 57 -89 0
49 14 53 13 52 8 57 -92 0
49 14 53 13 52 8 57 -94 0
49 25 53 24 52 26 57 -119 0
49 25 53 24 52 26 57 -116 0
49 25 53 24 52 26 57 -121 0
49 25 53 24 52 26 57 -117 0
49 25 53 24 52 26 57 -120 0
49 25 53 24 52 26 57 -118 0
49 32 53 33 52 29 57 -140 0
49 32 53 33 52 29 57 -141 0
49 32 53 33 52 29 57 -138 0
49 32 53 33 52 29 57 -137 0
49 32 53 33 52 29 57 -139 0
49 32 53 33 52 29 57 -142 0
49 45 53 44 52 43 57 -153 0
49 45 53 44 52 43 57 -154 0
49 45 53 44 52 43 57 -152 0
49 45 53 44 52 43 57 -155 0
49 45 53 44 52 43 57 -156 0
49 45 53 44 52 43 57 -157 0
49 62 53 61 52 59 57 -172 0
49 62 53 61 52 59 57 -167 0
49 62 53 61 52 59 57 -170 0
49 62 53 61 52 59 57 -168 0
49 62 53 61 52 59 57 -171 0
49 62 53 61 52 59 57 -169 0
49 53 7 52 6 57 5 -50 0
49 53 7 52 6 57 5 -55 0
49 53 7 52 6 57 5 -48 0
49 53 7 52 6 57 5 -54 0
49 53 7 52 6 57 5 -56 0
49 53 7 52 6 57 5 -51 0
2 14 7 13 6 8 5 -17 0
2 14 7 13 6 8 5 -9 0
2 14 7 13 6 8 5 -11 0
2 14 7 13 6 8 5 -16 0
2 14 7 13 6 8 5 -15 0
2 14 7 13 6 8 5 -12 0
2 25 7 24 6 26 5 -21 0
2 25 7 24 6 26 5 -23 0
2 25 7 24 6 26 5 -22 0
2 25 7 24 6 26 5 -18 0
2 25 7 24 6 26 5 -19 0
2 25 7 24 6 26 5 -20 0
2 32 7 33 6 29 5 -31 0
2 32 7 33 6 29 5 -28 0
2 32 7 33 6 29 5 -30 0
2 32 7 33 6 29 5 -35 0
2 32 7 33 6 29 5 -36 0
2 32 7 33 6 29 5 -37 0
2 45 7 44 6 43 5 -41 0
2 45 7 44 6 43 5 -40 0
2 45 7 44 6 43 5 -42 0
2 45 7 44 6 43 5 -39 0
2 45 7 44 6 43 5 -47 0
2 45 7 44 6 43 5 -38 0
2 62 7 61 6 59 5 -65 0
2 62 7 61 6 59 5 -67 0
2 62 7 61 6 59 5 -60 0
2 62 7 61 6 59 5 -64 0
2 62 7 61 6 59 5 -63 0
2 62 7 61 6 59 5 -58 0
2 53 7 52 6 57 5 -50 0
2 53 7 52 6 57 5 -55 0
2 53 7 52 6 57 5 -48 0
2 53 7 52 6 57 5 -54 0
2 53 7 52 6 57 5 -56 0
2 53 7 52 6 57 5 -51 0
10 27 14 25 13 24 8 26 -72 0
10 27 14 25 13 24 8 26 -76 0
10 27 14 25 13 24 8 26 -71 0
10 27 14 25 13 24 8 26 -73 0
10 27 14 25 13 24 8 26 -74 0
10 27 14 25 13 24 8 26 -75 0
10 34 14 32 13 33 8 29 -82 0
10 34 14 32 13 33 8 29 -80 0
10 34 14 32 13 33 8 29 -81 0
10 34 14 32 13 33 8 29 -77 0
10 34 14 32 13 33 8 29 -78 0
10 34 14 32 13 33 8 29 -79 0
10 46 14 45 13 44 8 43 -83 0
10 46 14 45 13 44 8 43 -84 0
10 46 14 45 13 44 8 43 -87 0
10 46 14 45 13 44 8 43 -88 0
10 46 14 45 13 44 8 43 -86 0
10 46 14 45 13 44 8 43 -85 0
10 66 14 62 13 61 8 59 -97 0
10 66 14 62 13 61 8 59 -99 0
10 66 14 62 13 61 8 59 -98 0
10 66 14 62 13 61 8 59 -95 0
10 66 14 62 13 61 8 59 -100 0
10 66 14 62 13 61 8 59 -96 0
10 49 14 53 13 52 8 57 -90 0
10 49 14 53 13 52 8 57 -91 0
10 49 14 53 13 52 8 57 -93 0
10 49 14 53 13 52 8 57 -89 0
10 49 14 53 13 52 8 57 -92 0
10 49 14 53 13 52 8 57 -94 0
10 2 14 7 13 6 8 5 -17 0
10 2 14 7 13 6 8 5 -9 0
10 2 14 7 13 6 8 5 -11 0
10 2 14 7 13 6 8 5 -16 0
10 2 14 7 13 6 8 5 -15 0
10 2 14 7 13 6 8 5 -12 0
27 34 25 32 24 33 26 29 -107 0
27 34 25 32 24 33 26 29 -105 0
27 34 25 32 24 33 26 29 -108 0
27 34 25 32 24 33 26 29 -109 0
27 34 25 32 24 33 26 29 -106 0
27 34 25 32 24 33 26 29 -104 0
27 46 25 45 24 44 26 43 -113 0
27 46 25 45 24 44 26 43 -115 0
27 46 25 45 24 44 26 43 -110 0
27 46 25 45 24 44 26 43 -112 0
27 46 25 45 24 44 26 43 -114 0
27 46 25 45 24 44 26 43 -111 0
27 66 25 62 24 61 26 59 -122 0
27 66 25 62 24 61 26 59 -127 0
27 66 25 62 24 61 26 59 -123 0
27 66 25 62 24 61 26 59 -125 0
27 66 25 62 24 61 26 59 -124 0
27 66 25 62 24 61 26 59 -126 0
27 49 25 53 24 52 26 57 -119 0
27 49 25 53 24 52 26 57 -116 0
27 49 25 53 24 52 26 57 -121 0
27 49 25 53 24 52 26 57 -117 0
27 49 25 53 24 52 26 57 -120 0
27 49 25 53 24 52 26 57 -118 0
27 2 25 7 24 6 26 5 -21 0
27 2 25 7 24 6 26 5 -23 0
27 2 25 7 24 6 26 5 -22 0
27 2 25 7 24 6 26 5 -18 0
27 2 25 7 24 6 26 5 -19 0
27 2 25 7 24 6 26 5 -20 0
34 46 32 45 33 44 29 43 -133 0
34 46 32 45 33 44 29 43 -131 0
34 46 32 45 33 44 29 43 -134 0
34 46 32 45 33 44 29 43 -135 0
34 46 32 45 33 44 29 43 -136 0
34 46 32 45 33 44 29 43 -132 0
34 66 32 62 33 61 29 59 -143 0
34 66 32 62 33 61 29 59 -145 0
34 66 32 62 33 61 29 59 -148 0
34 66 32 62 33 61 29 59 -146 0
34 66 32 62 33 61 29 59 -147 0
34 66 32 62 33 61 29 59 -144 0
34 49 32 53 33 52 29 57 -140 0
34 49 32 53 33 52 29 57 -141 0
34 49 32 53 33 52 29 57 -138 0
34 49 32 53 33 52 29 57 -137 0
34 49 32 53 33 52 29 57 -139 0
34 49 32 53 33 52 29 57 -142 0
34 2 32 7 33 6 29 5 -31 0
34 2 32 7 33 6 29 5 -28 0
34 2 32 7 33 6 29 5 -30 0
34 2 32 7 33 6 29 5 -35 0
34 2 32 7 33 6 29 5 -36 0
34 2 32 7 33 6 29 5 -37 0
46 66 45 62 44 61 43 59 -158 0
46 66 45 62 44 61 43 59 -161 0
46 66 45 62 44 61 43 59 -160 0
46 66 45 62 44 61 43 59 -163 0
46 66 45 62 44 61 43 59 -159 0
46 66 45 62 44 61 43 59 -162 0
46 49 45 53 44 52 43 57 -153 0
46 49 45 53 44 52 43 57 -154 0
46 49 45 53 44 52 43 57 -152 0
46 49 45 53 44 52 43 57 -155 0
46 49 45 53 44 52 43 57 -156 0
46 49 45 53 44 52 43 57 -157 0
46 2 45 7 44 6 43 5 -41 0
46 2 45 7 44 6 43 5 -40 0
46 2 45 7 44 6 43 5 -42 0
46 2 45 7 44 6 43 5 -39 0
46 2 45 7 44 6 43 5 -47 0
46 2 45 7 44 6 43 5 -38 0
66 49 62 53 61 52 59 57 -172 0
66 49 62 53 61 52 59 57 -167 0
66 49 62 53 61 52 59 57 -170 0
66 49 62 53 61 52 59 57 -168 0
66 49 62 53 61 52 59 57 -171 0
66 49 62 53 61 52 59 57 -169 0
66 2 62 7 61 6 59 5 -65 0
66 2 62 7 61 6 59 5 -67 0
66 2 62 7 61 6 59 5 -60 0
66 2 62 7 61 6 59 5 -64 0
66 2 62 7 61 6 59 5 -63 0
66 2 62 7 61 6 59 5 -58 0
49 2 53 7 52 6 57 5 -50 0
49 2 53 7 52 6 57 5 -55 0
49 2 53 7 52 6 57 5 -48 0
49 2 53 7 52 6 57 5 -54 0
49 2 53 7 52 6 57 5 -56 0
49 2 53 7 52 6 57 5 -51 0
