c U1(7) U2(7) U4(7) E1(7,7) U3(7) E2(7,7) E3(7,7) U1(4) E1(4,7) E1(7,4) E3(7,4) U2(4) E3(4,7) U3(4) E2(7,4) E2(4,7) U4(4) U2(6) U4(6) U3(6) E3(6,7) U1(6) E1(6,7) E1(7,6) E3(7,6) E2(6,7) E2(7,6) E2(7,0) U2(0) U4(0) E1(0,7) U1(0) E3(0,7) U3(0) E3(7,0) E2(0,7) E1(7,0) E3(5,7) E1(7,5) U4(5) U1(5) U2(5) E2(7,5) E1(5,7) E3(7,5) U3(5) E2(5,7) E3(3,7) E2(3,7) U1(3) U2(3) E2(7,3) U4(3) U3(3) E1(7,3) E3(7,3) E1(3,7) E2(2,7) U4(2) E1(7,2) E3(2,7) U1(2) E2(7,2) E3(7,2) U2(2) U3(2) E1(2,7) E3(7,1) E3(1,7) U3(1) E1(1,7) E2(1,7) U4(1) E1(7,1) U1(1) U2(1) E2(7,1) E1(4,4) E2(4,4) E3(4,4) E3(4,6) E3(6,4) E2(4,6) E2(6,4) E1(4,6) E1(6,4) E3(4,0) E3(0,4) E1(4,0) E2(4,0) E1(0,4) E2(0,4) E1(4,5) E2(5,4) E2(4,5) E1(5,4) E3(5,4) E3(4,5) E3(4,3) E1(3,4) E3(3,4) E1(4,3) E2(3,4) E2(4,3) E1(4,2) E1(2,4) E2(2,4) E3(2,4) E2(4,2) E3(4,2) E2(1,4) E3(4,1) E1(4,1) E2(4,1) E3(1,4) E1(1,4) E3(6,6) E1(6,6) E2(6,6) E3(0,6) E1(0,6) E2(0,6) E1(6,0) E2(6,0) E3(6,0) E3(6,5) E2(6,5) E3(5,6) E1(6,5) E2(5,6) E1(5,6) E1(6,3) E3(3,6) E2(6,3) E1(3,6) E2(3,6) E3(6,3) E2(6,2) E1(6,2) E3(2,6) E2(2,6) E3(6,2) E1(2,6) E1(6,1) E3(1,6) E2(1,6) E3(6,1) E2(6,1) E1(1,6) E2(0,0) E3(0,0) E1(0,0) E1(5,0) E2(0,5) E1(0,5) E2(5,0) E3(5,0) E3(0,5) E1(3,0) E1(0,3) E2(0,3) E3(3,0) E3(0,3) E2(3,0) E3(2,0) E1(0,2) E1(2,0) E3(0,2) E2(2,0) E2(0,2) E1(1,0) E2(1,0) E3(1,0) E3(0,1) E2(0,1) E1(0,1) E1(5,5) E2(5,5) E3(5,5) E1(5,3) E2(3,5) E2(5,3) E3(5,3) E3(3,5) E1(3,5) E3(2,5) E1(2,5) E1(5,2) E2(2,5) E2(5,2) E3(5,2) E1(1,5) E3(5,1) E2(5,1) E1(5,1) E3(1,5) E2(1,5) E2(3,3) E1(3,3) E3(3,3) E2(2,3) E1(3,2) E3(2,3) E2(3,2) E1(2,3) E3(3,2) E1(1,3) E2(1,3) E1(3,1) E3(3,1) E3(1,3) E2(3,1) E3(2,2) E1(2,2) E2(2,2) E2(2,1) E3(1,2) E1(1,2) E2(1,2) E3(2,1) E1(2,1) E1(1,1) E3(1,1) E2(1,1)
c 1 2 3 4 5 6 7 8 9 10 11 12 13 14 15 16 17 18 19 20 21 22 23 24 25 26 27 28 29 30 31 32 33 34 35 36 37 38 39 40 41 42 43 44 45 46 47 48 49 50 51 52 53 54 55 56 57 58 59 60 61 62 63 64 65 66 67 68 69 70 71 72 73 74 75 76 77 78 79 80 81 82 83 84 85 86 87 88 89 90 91 92 93 94 95 96 97 98 99 100 101 102 103 104 105 106 107 108 109 110 111 112 113 114 115 116 117 118 119 120 121 122 123 124 125 126 127 128 129 130 131 132 133 134 135 136 137 138 139 140 141 142 143 144 145 146 147 148 149 150 151 152 153 154 155 156 157 158 159 160 161 162 163 164 165 166 167 168 169 170 171 172 173 174 175 176 177 178 179 180 181 182 183 184 185 186 187 188 189 190 191 192 193 194 195 196 197 198 199 200 201 202 203 204 205 206 207 208 209 210 211 212 213 214 215 216 217 218 219 220 221 222 223 224
p cnf 224 6464
152 -152 0
176 -171 0
166 -167 0
160 -159 0
91 -89 0
155 -153 0
121 -123 0
31 -37 0
171 -176 0
222 -222 0
218 -221 0
207 -209 0
116 -113 0
192 -195 0
149 -144 0
71 -74 0
167 -166 0
221 -218 0
214 -214 0
205 -202 0
106 -105 0
187 -188 0
143 -139 0
67 -60 0
159 -160 0
209 -207 0
202 -205 0
199 -199 0
100 -102 0
185 -180 0
135 -132 0
57 -55 0
89 -91 0
113 -116 0
105 -106 0
102 -100 0
78 -78 0
93 -96 0
85 -86 0
9 -10 0
153 -155 0
195 -192 0
188 -187 0
180 -185 0
96 -93 0
177 -177 0
131 -129 0
44 -39 0
123 -121 0
144 -149 0
139 -143 0
132 -135 0
86 -85 0
129 -131 0
118 -118 0
23 -24 0
37 -31 0
74 -71 0
60 -67 0
55 -57 0
10 -9 0
39 -44 0
24 -23 0
4 -4 0
150 -150 0
175 -172 0
170 -169 0
161 -164 0
92 -90 0
154 -156 0
122 -124 0
36 -28 0
172 -175 0
224 -224 0
219 -216 0
208 -212 0
111 -114 0
197 -194 0
146 -148 0
72 -77 0
169 -170 0
216 -219 0
215 -215 0
201 -204 0
107 -109 0
189 -190 0
141 -138 0
58 -63 0
164 -161 0
212 -208 0
204 -201 0
198 -198 0
103 -104 0
181 -182 0
136 -134 0
49 -52 0
90 -92 0
114 -111 0
109 -107 0
104 -103 0
79 -79 0
95 -94 0
83 -84 0
16 -15 0
156 -154 0
194 -197 0
190 -189 0
182 -181 0
94 -95 0
178 -178 0
130 -127 0
47 -43 0
124 -122 0
148 -146 0
138 -141 0
134 -136 0
84 -83 0
127 -130 0
119 -119 0
26 -27 0
28 -36 0
77 -72 0
63 -58 0
52 -49 0
15 -16 0
43 -47 0
27 -26 0
6 -6 0
151 -151 0
174 -173 0
168 -165 0
163 -162 0
88 -87 0
158 -157 0
120 -125 0
33 -35 0
173 -174 0
223 -223 0
217 -220 0
211 -210 0
115 -112 0
196 -193 0
145 -147 0
69 -68 0
165 -168 0
220 -217 0
213 -213 0
203 -206 0
108 -110 0
186 -191 0
140 -142 0
61 -64 0
162 -163 0
210 -211 0
206 -203 0
200 -200 0
101 -99 0
184 -183 0
133 -137 0
48 -56 0
87 -88 0
112 -115 0
110 -108 0
99 -101 0
80 -80 0
98 -97 0
81 -82 0
13 -11 0
157 -158 0
193 -196 0
191 -186 0
183 -184 0
97 -98 0
179 -179 0
128 -126 0
38 -45 0
125 -120 0
147 -145 0
142 -140 0
137 -133 0
82 -81 0
126 -128 0
117 -117 0
21 -25 0
35 -33 0
68 -69 0
64 -61 0
56 -48 0
11 -13 0
45 -38 0
25 -21 0
7 -7 0
-152 -150 0
-152 -151 0
-176 -175 0
-176 -174 0
-166 -170 0
-166 -168 0
-160 -161 0
-160 -163 0
-91 -92 0
-91 -88 0
-155 -154 0
-155 -158 0
-121 -122 0
-121 -120 0
-31 -36 0
-31 -33 0
-171 -172 0
-171 -173 0
-222 -224 0
-222 -223 0
-218 -219 0
-218 -217 0
-207 -208 0
-207 -211 0
-116 -111 0
-116 -115 0
-192 -197 0
-192 -196 0
-149 -146 0
-149 -145 0
-71 -72 0
-71 -69 0
-167 -169 0
-167 -165 0
-221 -216 0
-221 -220 0
-214 -215 0
-214 -213 0
-205 -201 0
-205 -203 0
-106 -107 0
-106 -108 0
-187 -189 0
-187 -186 0
-143 -141 0
-143 -140 0
-67 -58 0
-67 -61 0
-159 -164 0
-159 -162 0
-209 -212 0
-209 -210 0
-202 -204 0
-202 -206 0
-199 -198 0
-199 -200 0
-100 -103 0
-100 -101 0
-185 -181 0
-185 -184 0
-135 -136 0
-135 -133 0
-57 -49 0
-57 -48 0
-89 -90 0
-89 -87 0
-113 -114 0
-113 -112 0
-105 -109 0
-105 -110 0
-102 -104 0
-102 -99 0
-78 -79 0
-78 -80 0
-93 -95 0
-93 -98 0
-85 -83 0
-85 -81 0
-9 -16 0
-9 -13 0
-153 -156 0
-153 -157 0
-195 -194 0
-195 -193 0
-188 -190 0
-188 -191 0
-180 -182 0
-180 -183 0
-96 -94 0
-96 -97 0
-177 -178 0
-177 -179 0
-131 -130 0
-131 -128 0
-44 -47 0
-44 -38 0
-123 -124 0
-123 -125 0
-144 -148 0
-144 -147 0
-139 -138 0
-139 -142 0
-132 -134 0
-132 -137 0
-86 -84 0
-86 -82 0
-129 -127 0
-129 -126 0
-118 -119 0
-118 -117 0
-23 -26 0
-23 -21 0
-37 -28 0
-37 -35 0
-74 -77 0
-74 -68 0
-60 -63 0
-60 -64 0
-55 -52 0
-55 -56 0
-10 -15 0
-10 -11 0
-39 -43 0
-39 -45 0
-24 -27 0
-24 -25 0
-4 -6 0
-4 -7 0
-150 -151 0
-175 -174 0
-170 -168 0
-161 -163 0
-92 -88 0
-154 -158 0
-122 -120 0
-36 -33 0
-172 -173 0
-224 -223 0
-219 -217 0
-208 -211 0
-111 -115 0
-197 -196 0
-146 -145 0
-72 -69 0
-169 -165 0
-216 -220 0
-215 -213 0
-201 -203 0
-107 -108 0
-189 -186 0
-141 -140 0
-58 -61 0
-164 -162 0
-212 -210 0
-204 -206 0
-198 -200 0
-103 -101 0
-181 -184 0
-136 -133 0
-49 -48 0
-90 -87 0
-114 -112 0
-109 -110 0
-104 -99 0
-79 -80 0
-95 -98 0
-83 -81 0
-16 -13 0
-156 -157 0
-194 -193 0
-190 -191 0
-182 -183 0
-94 -97 0
-178 -179 0
-130 -128 0
-47 -38 0
-124 -125 0
-148 -147 0
-138 -142 0
-134 -137 0
-84 -82 0
-127 -126 0
-119 -117 0
-26 -21 0
-28 -35 0
-77 -68 0
-63 -64 0
-52 -56 0
-15 -11 0
-43 -45 0
-27 -25 0
-6 -7 0
-32 -29 0
-32 -34 0
-32 -30 0
-75 -76 0
-75 -70 0
-75 -73 0
-62 -65 0
-62 -66 0
-62 -59 0
-50 -51 0
-50 -54 0
-50 -53 0
-8 -12 0
-8 -14 0
-8 -17 0
-41 -42 0
-41 -46 0
-41 -40 0
-22 -18 0
-22 -20 0
-22 -19 0
-1 -2 0
-1 -5 0
-1 -3 0
-29 -34 0
-29 -30 0
-76 -70 0
-76 -73 0
-65 -66 0
-65 -59 0
-51 -54 0
-51 -53 0
-12 -14 0
-12 -17 0
-42 -46 0
-42 -40 0
-18 -20 0
-18 -19 0
-2 -5 0
-2 -3 0
-34 -30 0
-70 -73 0
-66 -59 0
-54 -53 0
-14 -17 0
-46 -40 0
-20 -19 0
-5 -3 0
32 29 34 30 0
75 76 70 73 0
62 65 66 59 0
50 51 54 53 0
8 12 14 17 0
41 42 46 40 0
22 18 20 19 0
1 2 5 3 0
32 29 34 -152 0
32 29 34 -150 0
32 29 34 -151 0
32 29 30 -152 0
32 29 30 -150 0
32 29 30 -151 0
32 34 30 -152 0
32 34 30 -150 0
32 34 30 -151 0
75 76 70 -222 0
75 76 70 -224 0
75 76 70 -223 0
75 76 73 -222 0
75 76 73 -224 0
75 76 73 -223 0
75 70 73 -222 0
75 70 73 -224 0
75 70 73 -223 0
62 65 66 -214 0
62 65 66 -215 0
62 65 66 -213 0
62 65 59 -214 0
62 65 59 -215 0
62 65 59 -213 0
62 66 59 -214 0
62 66 59 -215 0
62 66 59 -213 0
50 51 54 -199 0
50 51 54 -198 0
50 51 54 -200 0
50 51 53 -199 0
50 51 53 -198 0
50 51 53 -200 0
50 54 53 -199 0
50 54 53 -198 0
50 54 53 -200 0
8 12 14 -78 0
8 12 14 -79 0
8 12 14 -80 0
8 12 17 -78 0
8 12 17 -79 0
8 12 17 -80 0
8 14 17 -78 0
8 14 17 -79 0
8 14 17 -80 0
41 42 46 -177 0
41 42 46 -178 0
41 42 46 -179 0
41 42 40 -177 0
41 42 40 -178 0
41 42 40 -179 0
41 46 40 -177 0
41 46 40 -178 0
41 46 40 -179 0
22 18 20 -118 0
22 18 20 -119 0
22 18 20 -117 0
22 18 19 -118 0
22 18 19 -119 0
22 18 19 -117 0
22 20 19 -118 0
22 20 19 -119 0
22 20 19 -117 0
1 2 5 -4 0
1 2 5 -6 0
1 2 5 -7 0
1 2 3 -4 0
1 2 3 -6 0
1 2 3 -7 0
1 5 3 -4 0
1 5 3 -6 0
1 5 3 -7 0
29 34 30 -152 0
29 34 30 -150 0
29 34 30 -151 0
76 70 73 -222 0
76 70 73 -224 0
76 70 73 -223 0
65 66 59 -214 0
65 66 59 -215 0
65 66 59 -213 0
51 54 53 -199 0
51 54 53 -198 0
51 54 53 -200 0
12 14 17 -78 0
12 14 17 -79 0
12 14 17 -80 0
42 46 40 -177 0
42 46 40 -178 0
42 46 40 -179 0
18 20 19 -118 0
18 20 19 -119 0
18 20 19 -117 0
2 5 3 -4 0
2 5 3 -6 0
2 5 3 -7 0
32 29 34 30 -152 0
32 29 34 30 -176 0
32 29 34 30 -166 0
32 29 34 30 -160 0
32 29 34 30 -91 0
32 29 34 30 -155 0
32 29 34 30 -121 0
32 29 34 30 -31 0
32 29 34 30 -171 0
32 29 34 30 -167 0
32 29 34 30 -159 0
32 29 34 30 -89 0
32 29 34 30 -153 0
32 29 34 30 -123 0
32 29 34 30 -37 0
32 29 34 30 -150 0
32 29 34 30 -175 0
32 29 34 30 -170 0
32 29 34 30 -161 0
32 29 34 30 -92 0
32 29 34 30 -154 0
32 29 34 30 -122 0
32 29 34 30 -36 0
32 29 34 30 -172 0
32 29 34 30 -169 0
32 29 34 30 -164 0
32 29 34 30 -90 0
32 29 34 30 -156 0
32 29 34 30 -124 0
32 29 34 30 -28 0
32 29 34 30 -151 0
32 29 34 30 -174 0
32 29 34 30 -168 0
32 29 34 30 -163 0
32 29 34 30 -88 0
32 29 34 30 -158 0
32 29 34 30 -120 0
32 29 34 30 -33 0
32 29 34 30 -173 0
32 29 34 30 -165 0
32 29 34 30 -162 0
32 29 34 30 -87 0
32 29 34 30 -157 0
32 29 34 30 -125 0
32 29 34 30 -35 0
75 76 70 73 -176 0
75 76 70 73 -171 0
75 76 70 73 -222 0
75 76 70 73 -218 0
75 76 70 73 -207 0
75 76 70 73 -116 0
75 76 70 73 -192 0
75 76 70 73 -149 0
75 76 70 73 -71 0
75 76 70 73 -221 0
75 76 70 73 -209 0
75 76 70 73 -113 0
75 76 70 73 -195 0
75 76 70 73 -144 0
75 76 70 73 -74 0
75 76 70 73 -175 0
75 76 70 73 -172 0
75 76 70 73 -224 0
75 76 70 73 -219 0
75 76 70 73 -208 0
75 76 70 73 -111 0
75 76 70 73 -197 0
75 76 70 73 -146 0
75 76 70 73 -72 0
75 76 70 73 -216 0
75 76 70 73 -212 0
75 76 70 73 -114 0
75 76 70 73 -194 0
75 76 70 73 -148 0
75 76 70 73 -77 0
75 76 70 73 -174 0
75 76 70 73 -173 0
75 76 70 73 -223 0
75 76 70 73 -217 0
75 76 70 73 -211 0
75 76 70 73 -115 0
75 76 70 73 -196 0
75 76 70 73 -145 0
75 76 70 73 -69 0
75 76 70 73 -220 0
75 76 70 73 -210 0
75 76 70 73 -112 0
75 76 70 73 -193 0
75 76 70 73 -147 0
75 76 70 73 -68 0
62 65 66 59 -166 0
62 65 66 59 -218 0
62 65 66 59 -167 0
62 65 66 59 -221 0
62 65 66 59 -214 0
62 65 66 59 -205 0
62 65 66 59 -106 0
62 65 66 59 -187 0
62 65 66 59 -143 0
62 65 66 59 -67 0
62 65 66 59 -202 0
62 65 66 59 -105 0
62 65 66 59 -188 0
62 65 66 59 -139 0
62 65 66 59 -60 0
62 65 66 59 -170 0
62 65 66 59 -219 0
62 65 66 59 -169 0
62 65 66 59 -216 0
62 65 66 59 -215 0
62 65 66 59 -201 0
62 65 66 59 -107 0
62 65 66 59 -189 0
62 65 66 59 -141 0
62 65 66 59 -58 0
62 65 66 59 -204 0
62 65 66 59 -109 0
62 65 66 59 -190 0
62 65 66 59 -138 0
62 65 66 59 -63 0
62 65 66 59 -168 0
62 65 66 59 -217 0
62 65 66 59 -165 0
62 65 66 59 -220 0
62 65 66 59 -213 0
62 65 66 59 -203 0
62 65 66 59 -108 0
62 65 66 59 -186 0
62 65 66 59 -140 0
62 65 66 59 -61 0
62 65 66 59 -206 0
62 65 66 59 -110 0
62 65 66 59 -191 0
62 65 66 59 -142 0
62 65 66 59 -64 0
50 51 54 53 -160 0
50 51 54 53 -207 0
50 51 54 53 -205 0
50 51 54 53 -159 0
50 51 54 53 -209 0
50 51 54 53 -202 0
50 51 54 53 -199 0
50 51 54 53 -100 0
50 51 54 53 -185 0
50 51 54 53 -135 0
50 51 54 53 -57 0
50 51 54 53 -102 0
50 51 54 53 -180 0
50 51 54 53 -132 0
50 51 54 53 -55 0
50 51 54 53 -161 0
50 51 54 53 -208 0
50 51 54 53 -201 0
50 51 54 53 -164 0
50 51 54 53 -212 0
50 51 54 53 -204 0
50 51 54 53 -198 0
50 51 54 53 -103 0
50 51 54 53 -181 0
50 51 54 53 -136 0
50 51 54 53 -49 0
50 51 54 53 -104 0
50 51 54 53 -182 0
50 51 54 53 -134 0
50 51 54 53 -52 0
50 51 54 53 -163 0
50 51 54 53 -211 0
50 51 54 53 -203 0
50 51 54 53 -162 0
50 51 54 53 -210 0
50 51 54 53 -206 0
50 51 54 53 -200 0
50 51 54 53 -101 0
50 51 54 53 -184 0
50 51 54 53 -133 0
50 51 54 53 -48 0
50 51 54 53 -99 0
50 51 54 53 -183 0
50 51 54 53 -137 0
50 51 54 53 -56 0
8 12 14 17 -91 0
8 12 14 17 -116 0
8 12 14 17 -106 0
8 12 14 17 -100 0
8 12 14 17 -89 0
8 12 14 17 -113 0
8 12 14 17 -105 0
8 12 14 17 -102 0
8 12 14 17 -78 0
8 12 14 17 -93 0
8 12 14 17 -85 0
8 12 14 17 -9 0
8 12 14 17 -96 0
8 12 14 17 -86 0
8 12 14 17 -10 0
8 12 14 17 -92 0
8 12 14 17 -111 0
8 12 14 17 -107 0
8 12 14 17 -103 0
8 12 14 17 -90 0
8 12 14 17 -114 0
8 12 14 17 -109 0
8 12 14 17 -104 0
8 12 14 17 -79 0
8 12 14 17 -95 0
8 12 14 17 -83 0
8 12 14 17 -16 0
8 12 14 17 -94 0
8 12 14 17 -84 0
8 12 14 17 -15 0
8 12 14 17 -88 0
8 12 14 17 -115 0
8 12 14 17 -108 0
8 12 14 17 -101 0
8 12 14 17 -87 0
8 12 14 17 -112 0
8 12 14 17 -110 0
8 12 14 17 -99 0
8 12 14 17 -80 0
8 12 14 17 -98 0
8 12 14 17 -81 0
8 12 14 17 -13 0
8 12 14 17 -97 0
8 12 14 17 -82 0
8 12 14 17 -11 0
41 42 46 40 -155 0
41 42 46 40 -192 0
41 42 46 40 -187 0
41 42 46 40 -185 0
41 42 46 40 -93 0
41 42 46 40 -153 0
41 42 46 40 -195 0
41 42 46 40 -188 0
41 42 46 40 -180 0
41 42 46 40 -96 0
41 42 46 40 -177 0
41 42 46 40 -131 0
41 42 46 40 -44 0
41 42 46 40 -129 0
41 42 46 40 -39 0
41 42 46 40 -154 0
41 42 46 40 -197 0
41 42 46 40 -189 0
41 42 46 40 -181 0
41 42 46 40 -95 0
41 42 46 40 -156 0
41 42 46 40 -194 0
41 42 46 40 -190 0
41 42 46 40 -182 0
41 42 46 40 -94 0
41 42 46 40 -178 0
41 42 46 40 -130 0
41 42 46 40 -47 0
41 42 46 40 -127 0
41 42 46 40 -43 0
41 42 46 40 -158 0
41 42 46 40 -196 0
41 42 46 40 -186 0
41 42 46 40 -184 0
41 42 46 40 -98 0
41 42 46 40 -157 0
41 42 46 40 -193 0
41 42 46 40 -191 0
41 42 46 40 -183 0
41 42 46 40 -97 0
41 42 46 40 -179 0
41 42 46 40 -128 0
41 42 46 40 -38 0
41 42 46 40 -126 0
41 42 46 40 -45 0
22 18 20 19 -121 0
22 18 20 19 -149 0
22 18 20 19 -143 0
22 18 20 19 -135 0
22 18 20 19 -85 0
22 18 20 19 -131 0
22 18 20 19 -123 0
22 18 20 19 -144 0
22 18 20 19 -139 0
22 18 20 19 -132 0
22 18 20 19 -86 0
22 18 20 19 -129 0
22 18 20 19 -118 0
22 18 20 19 -23 0
22 18 20 19 -24 0
22 18 20 19 -122 0
22 18 20 19 -146 0
22 18 20 19 -141 0
22 18 20 19 -136 0
22 18 20 19 -83 0
22 18 20 19 -130 0
22 18 20 19 -124 0
22 18 20 19 -148 0
22 18 20 19 -138 0
22 18 20 19 -134 0
22 18 20 19 -84 0
22 18 20 19 -127 0
22 18 20 19 -119 0
22 18 20 19 -26 0
22 18 20 19 -27 0
22 18 20 19 -120 0
22 18 20 19 -145 0
22 18 20 19 -140 0
22 18 20 19 -133 0
22 18 20 19 -81 0
22 18 20 19 -128 0
22 18 20 19 -125 0
22 18 20 19 -147 0
22 18 20 19 -142 0
22 18 20 19 -137 0
22 18 20 19 -82 0
22 18 20 19 -126 0
22 18 20 19 -117 0
22 18 20 19 -21 0
22 18 20 19 -25 0
1 2 5 3 -31 0
1 2 5 3 -71 0
1 2 5 3 -67 0
1 2 5 3 -57 0
1 2 5 3 -9 0
1 2 5 3 -44 0
1 2 5 3 -23 0
1 2 5 3 -37 0
1 2 5 3 -74 0
1 2 5 3 -60 0
1 2 5 3 -55 0
1 2 5 3 -10 0
1 2 5 3 -39 0
1 2 5 3 -24 0
1 2 5 3 -4 0
1 2 5 3 -36 0
1 2 5 3 -72 0
1 2 5 3 -58 0
1 2 5 3 -49 0
1 2 5 3 -16 0
1 2 5 3 -47 0
1 2 5 3 -26 0
1 2 5 3 -28 0
1 2 5 3 -77 0
1 2 5 3 -63 0
1 2 5 3 -52 0
1 2 5 3 -15 0
1 2 5 3 -43 0
1 2 5 3 -27 0
1 2 5 3 -6 0
1 2 5 3 -33 0
1 2 5 3 -69 0
1 2 5 3 -61 0
1 2 5 3 -48 0
1 2 5 3 -13 0
1 2 5 3 -38 0
1 2 5 3 -21 0
1 2 5 3 -35 0
1 2 5 3 -68 0
1 2 5 3 -64 0
1 2 5 3 -56 0
1 2 5 3 -11 0
1 2 5 3 -45 0
1 2 5 3 -25 0
1 2 5 3 -7 0
32 75 29 34 30 -176 0
32 75 29 34 30 -171 0
32 75 29 34 30 -175 0
32 75 29 34 30 -172 0
32 75 29 34 30 -174 0
32 75 29 34 30 -173 0
32 75 76 70 73 -176 0
32 75 76 70 73 -171 0
32 75 76 70 73 -175 0
32 75 76 70 73 -172 0
32 75 76 70 73 -174 0
32 75 76 70 73 -173 0
32 62 29 34 30 -166 0
32 62 29 34 30 -167 0
32 62 29 34 30 -170 0
32 62 29 34 30 -169 0
32 62 29 34 30 -168 0
32 62 29 34 30 -165 0
32 62 65 66 59 -166 0
32 62 65 66 59 -167 0
32 62 65 66 59 -170 0
32 62 65 66 59 -169 0
32 62 65 66 59 -168 0
32 62 65 66 59 -165 0
32 50 29 34 30 -160 0
32 50 29 34 30 -159 0
32 50 29 34 30 -161 0
32 50 29 34 30 -164 0
32 50 29 34 30 -163 0
32 50 29 34 30 -162 0
32 50 51 54 53 -160 0
32 50 51 54 53 -159 0
32 50 51 54 53 -161 0
32 50 51 54 53 -164 0
32 50 51 54 53 -163 0
32 50 51 54 53 -162 0
32 8 29 34 30 -91 0
32 8 29 34 30 -89 0
32 8 29 34 30 -92 0
32 8 29 34 30 -90 0
32 8 29 34 30 -88 0
32 8 29 34 30 -87 0
32 8 12 14 17 -91 0
32 8 12 14 17 -89 0
32 8 12 14 17 -92 0
32 8 12 14 17 -90 0
32 8 12 14 17 -88 0
32 8 12 14 17 -87 0
32 41 29 34 30 -155 0
32 41 29 34 30 -153 0
32 41 29 34 30 -154 0
32 41 29 34 30 -156 0
32 41 29 34 30 -158 0
32 41 29 34 30 -157 0
32 41 42 46 40 -155 0
32 41 42 46 40 -153 0
32 41 42 46 40 -154 0
32 41 42 46 40 -156 0
32 41 42 46 40 -158 0
32 41 42 46 40 -157 0
32 22 29 34 30 -121 0
32 22 29 34 30 -123 0
32 22 29 34 30 -122 0
32 22 29 34 30 -124 0
32 22 29 34 30 -120 0
32 22 29 34 30 -125 0
32 22 18 20 19 -121 0
32 22 18 20 19 -123 0
32 22 18 20 19 -122 0
32 22 18 20 19 -124 0
32 22 18 20 19 -120 0
32 22 18 20 19 -125 0
32 1 29 34 30 -31 0
32 1 29 34 30 -37 0
32 1 29 34 30 -36 0
32 1 29 34 30 -28 0
32 1 29 34 30 -33 0
32 1 29 34 30 -35 0
32 1 2 5 3 -31 0
32 1 2 5 3 -37 0
32 1 2 5 3 -36 0
32 1 2 5 3 -28 0
32 1 2 5 3 -33 0
32 1 2 5 3 -35 0
32 29 76 34 30 -176 0
32 29 76 34 30 -171 0
32 29 76 34 30 -175 0
32 29 76 34 30 -172 0
32 29 76 34 30 -174 0
32 29 76 34 30 -173 0
32 29 65 34 30 -166 0
32 29 65 34 30 -167 0
32 29 65 34 30 -170 0
32 29 65 34 30 -169 0
32 29 65 34 30 -168 0
32 29 65 34 30 -165 0
32 29 51 34 30 -160 0
32 29 51 34 30 -159 0
32 29 51 34 30 -161 0
32 29 51 34 30 -164 0
32 29 51 34 30 -163 0
32 29 51 34 30 -162 0
32 29 12 34 30 -91 0
32 29 12 34 30 -89 0
32 29 12 34 30 -92 0
32 29 12 34 30 -90 0
32 29 12 34 30 -88 0
32 29 12 34 30 -87 0
32 29 42 34 30 -155 0
32 29 42 34 30 -153 0
32 29 42 34 30 -154 0
32 29 42 34 30 -156 0
32 29 42 34 30 -158 0
32 29 42 34 30 -157 0
32 29 18 34 30 -121 0
32 29 18 34 30 -123 0
32 29 18 34 30 -122 0
32 29 18 34 30 -124 0
32 29 18 34 30 -120 0
32 29 18 34 30 -125 0
32 29 2 34 30 -31 0
32 29 2 34 30 -37 0
32 29 2 34 30 -36 0
32 29 2 34 30 -28 0
32 29 2 34 30 -33 0
32 29 2 34 30 -35 0
32 29 34 70 30 -176 0
32 29 34 70 30 -171 0
32 29 34 70 30 -175 0
32 29 34 70 30 -172 0
32 29 34 70 30 -174 0
32 29 34 70 30 -173 0
32 29 34 66 30 -166 0
32 29 34 66 30 -167 0
32 29 34 66 30 -170 0
32 29 34 66 30 -169 0
32 29 34 66 30 -168 0
32 29 34 66 30 -165 0
32 29 34 54 30 -160 0
32 29 34 54 30 -159 0
32 29 34 54 30 -161 0
32 29 34 54 30 -164 0
32 29 34 54 30 -163 0
32 29 34 54 30 -162 0
32 29 34 14 30 -91 0
32 29 34 14 30 -89 0
32 29 34 14 30 -92 0
32 29 34 14 30 -90 0
32 29 34 14 30 -88 0
32 29 34 14 30 -87 0
32 29 34 46 30 -155 0
32 29 34 46 30 -153 0
32 29 34 46 30 -154 0
32 29 34 46 30 -156 0
32 29 34 46 30 -158 0
32 29 34 46 30 -157 0
32 29 34 20 30 -121 0
32 29 34 20 30 -123 0
32 29 34 20 30 -122 0
32 29 34 20 30 -124 0
32 29 34 20 30 -120 0
32 29 34 20 30 -125 0
32 29 34 5 30 -31 0
32 29 34 5 30 -37 0
32 29 34 5 30 -36 0
32 29 34 5 30 -28 0
32 29 34 5 30 -33 0
32 29 34 5 30 -35 0
32 29 34 30 73 -176 0
32 29 34 30 73 -171 0
32 29 34 30 73 -175 0
32 29 34 30 73 -172 0
32 29 34 30 73 -174 0
32 29 34 30 73 -173 0
32 29 34 30 59 -166 0
32 29 34 30 59 -167 0
32 29 34 30 59 -170 0
32 29 34 30 59 -169 0
32 29 34 30 59 -168 0
32 29 34 30 59 -165 0
32 29 34 30 53 -160 0
32 29 34 30 53 -159 0
32 29 34 30 53 -161 0
32 29 34 30 53 -164 0
32 29 34 30 53 -163 0
32 29 34 30 53 -162 0
32 29 34 30 17 -91 0
32 29 34 30 17 -89 0
32 29 34 30 17 -92 0
32 29 34 30 17 -90 0
32 29 34 30 17 -88 0
32 29 34 30 17 -87 0
32 29 34 30 40 -155 0
32 29 34 30 40 -153 0
32 29 34 30 40 -154 0
32 29 34 30 40 -156 0
32 29 34 30 40 -158 0
32 29 34 30 40 -157 0
32 29 34 30 19 -121 0
32 29 34 30 19 -123 0
32 29 34 30 19 -122 0
32 29 34 30 19 -124 0
32 29 34 30 19 -120 0
32 29 34 30 19 -125 0
32 29 34 30 3 -31 0
32 29 34 30 3 -37 0
32 29 34 30 3 -36 0
32 29 34 30 3 -28 0
32 29 34 30 3 -33 0
32 29 34 30 3 -35 0
75 62 76 70 73 -218 0
75 62 76 70 73 -221 0
75 62 76 70 73 -219 0
75 62 76 70 73 -216 0
75 62 76 70 73 -217 0
75 62 76 70 73 -220 0
75 62 65 66 59 -218 0
75 62 65 66 59 -221 0
75 62 65 66 59 -219 0
75 62 65 66 59 -216 0
75 62 65 66 59 -217 0
75 62 65 66 59 -220 0
75 50 76 70 73 -207 0
75 50 76 70 73 -209 0
75 50 76 70 73 -208 0
75 50 76 70 73 -212 0
75 50 76 70 73 -211 0
75 50 76 70 73 -210 0
75 50 51 54 53 -207 0
75 50 51 54 53 -209 0
75 50 51 54 53 -208 0
75 50 51 54 53 -212 0
75 50 51 54 53 -211 0
75 50 51 54 53 -210 0
75 8 76 70 73 -116 0
75 8 76 70 73 -113 0
75 8 76 70 73 -111 0
75 8 76 70 73 -114 0
75 8 76 70 73 -115 0
75 8 76 70 73 -112 0
75 8 12 14 17 -116 0
75 8 12 14 17 -113 0
75 8 12 14 17 -111 0
75 8 12 14 17 -114 0
75 8 12 14 17 -115 0
75 8 12 14 17 -112 0
75 41 76 70 73 -192 0
75 41 76 70 73 -195 0
75 41 76 70 73 -197 0
75 41 76 70 73 -194 0
75 41 76 70 73 -196 0
75 41 76 70 73 -193 0
75 41 42 46 40 -192 0
75 41 42 46 40 -195 0
75 41 42 46 40 -197 0
75 41 42 46 40 -194 0
75 41 42 46 40 -196 0
75 41 42 46 40 -193 0
75 22 76 70 73 -149 0
75 22 76 70 73 -144 0
75 22 76 70 73 -146 0
75 22 76 70 73 -148 0
75 22 76 70 73 -145 0
75 22 76 70 73 -147 0
75 22 18 20 19 -149 0
75 22 18 20 19 -144 0
75 22 18 20 19 -146 0
75 22 18 20 19 -148 0
75 22 18 20 19 -145 0
75 22 18 20 19 -147 0
75 1 76 70 73 -71 0
75 1 76 70 73 -74 0
75 1 76 70 73 -72 0
75 1 76 70 73 -77 0
75 1 76 70 73 -69 0
75 1 76 70 73 -68 0
75 1 2 5 3 -71 0
75 1 2 5 3 -74 0
75 1 2 5 3 -72 0
75 1 2 5 3 -77 0
75 1 2 5 3 -69 0
75 1 2 5 3 -68 0
75 29 76 70 73 -176 0
75 29 76 70 73 -171 0
75 29 76 70 73 -175 0
75 29 76 70 73 -172 0
75 29 76 70 73 -174 0
75 29 76 70 73 -173 0
75 76 65 70 73 -218 0
75 76 65 70 73 -221 0
75 76 65 70 73 -219 0
75 76 65 70 73 -216 0
75 76 65 70 73 -217 0
75 76 65 70 73 -220 0
75 76 51 70 73 -207 0
75 76 51 70 73 -209 0
75 76 51 70 73 -208 0
75 76 51 70 73 -212 0
75 76 51 70 73 -211 0
75 76 51 70 73 -210 0
75 76 12 70 73 -116 0
75 76 12 70 73 -113 0
75 76 12 70 73 -111 0
75 76 12 70 73 -114 0
75 76 12 70 73 -115 0
75 76 12 70 73 -112 0
75 76 42 70 73 -192 0
75 76 42 70 73 -195 0
75 76 42 70 73 -197 0
75 76 42 70 73 -194 0
75 76 42 70 73 -196 0
75 76 42 70 73 -193 0
75 76 18 70 73 -149 0
75 76 18 70 73 -144 0
75 76 18 70 73 -146 0
75 76 18 70 73 -148 0
75 76 18 70 73 -145 0
75 76 18 70 73 -147 0
75 76 2 70 73 -71 0
75 76 2 70 73 -74 0
75 76 2 70 73 -72 0
75 76 2 70 73 -77 0
75 76 2 70 73 -69 0
75 76 2 70 73 -68 0
75 76 34 70 73 -176 0
75 76 34 70 73 -171 0
75 76 34 70 73 -175 0
75 76 34 70 73 -172 0
75 76 34 70 73 -174 0
75 76 34 70 73 -173 0
75 76 70 66 73 -218 0
75 76 70 66 73 -221 0
75 76 70 66 73 -219 0
75 76 70 66 73 -216 0
75 76 70 66 73 -217 0
75 76 70 66 73 -220 0
75 76 70 54 73 -207 0
75 76 70 54 73 -209 0
75 76 70 54 73 -208 0
75 76 70 54 73 -212 0
75 76 70 54 73 -211 0
75 76 70 54 73 -210 0
75 76 70 14 73 -116 0
75 76 70 14 73 -113 0
75 76 70 14 73 -111 0
75 76 70 14 73 -114 0
75 76 70 14 73 -115 0
75 76 70 14 73 -112 0
75 76 70 46 73 -192 0
75 76 70 46 73 -195 0
75 76 70 46 73 -197 0
75 76 70 46 73 -194 0
75 76 70 46 73 -196 0
75 76 70 46 73 -193 0
75 76 70 20 73 -149 0
75 76 70 20 73 -144 0
75 76 70 20 73 -146 0
75 76 70 20 73 -148 0
75 76 70 20 73 -145 0
75 76 70 20 73 -147 0
75 76 70 5 73 -71 0
75 76 70 5 73 -74 0
75 76 70 5 73 -72 0
75 76 70 5 73 -77 0
75 76 70 5 73 -69 0
75 76 70 5 73 -68 0
75 76 70 30 73 -176 0
75 76 70 30 73 -171 0
75 76 70 30 73 -175 0
75 76 70 30 73 -172 0
75 76 70 30 73 -174 0
75 76 70 30 73 -173 0
75 76 70 73 59 -218 0
75 76 70 73 59 -221 0
75 76 70 73 59 -219 0
75 76 70 73 59 -216 0
75 76 70 73 59 -217 0
75 76 70 73 59 -220 0
75 76 70 73 53 -207 0
75 76 70 73 53 -209 0
75 76 70 73 53 -208 0
75 76 70 73 53 -212 0
75 76 70 73 53 -211 0
75 76 70 73 53 -210 0
75 76 70 73 17 -116 0
75 76 70 73 17 -113 0
75 76 70 73 17 -111 0
75 76 70 73 17 -114 0
75 76 70 73 17 -115 0
75 76 70 73 17 -112 0
75 76 70 73 40 -192 0
75 76 70 73 40 -195 0
75 76 70 73 40 -197 0
75 76 70 73 40 -194 0
75 76 70 73 40 -196 0
75 76 70 73 40 -193 0
75 76 70 73 19 -149 0
75 76 70 73 19 -144 0
75 76 70 73 19 -146 0
75 76 70 73 19 -148 0
75 76 70 73 19 -145 0
75 76 70 73 19 -147 0
75 76 70 73 3 -71 0
75 76 70 73 3 -74 0
75 76 70 73 3 -72 0
75 76 70 73 3 -77 0
75 76 70 73 3 -69 0
75 76 70 73 3 -68 0
62 50 65 66 59 -205 0
62 50 65 66 59 -202 0
62 50 65 66 59 -201 0
62 50 65 66 59 -204 0
62 50 65 66 59 -203 0
62 50 65 66 59 -206 0
62 50 51 54 53 -205 0
62 50 51 54 53 -202 0
62 50 51 54 53 -201 0
62 50 51 54 53 -204 0
62 50 51 54 53 -203 0
62 50 51 54 53 -206 0
62 8 65 66 59 -106 0
62 8 65 66 59 -105 0
62 8 65 66 59 -107 0
62 8 65 66 59 -109 0
62 8 65 66 59 -108 0
62 8 65 66 59 -110 0
62 8 12 14 17 -106 0
62 8 12 14 17 -105 0
62 8 12 14 17 -107 0
62 8 12 14 17 -109 0
62 8 12 14 17 -108 0
62 8 12 14 17 -110 0
62 41 65 66 59 -187 0
62 41 65 66 59 -188 0
62 41 65 66 59 -189 0
62 41 65 66 59 -190 0
62 41 65 66 59 -186 0
62 41 65 66 59 -191 0
62 41 42 46 40 -187 0
62 41 42 46 40 -188 0
62 41 42 46 40 -189 0
62 41 42 46 40 -190 0
62 41 42 46 40 -186 0
62 41 42 46 40 -191 0
62 22 65 66 59 -143 0
62 22 65 66 59 -139 0
62 22 65 66 59 -141 0
62 22 65 66 59 -138 0
62 22 65 66 59 -140 0
62 22 65 66 59 -142 0
62 22 18 20 19 -143 0
62 22 18 20 19 -139 0
62 22 18 20 19 -141 0
62 22 18 20 19 -138 0
62 22 18 20 19 -140 0
62 22 18 20 19 -142 0
62 1 65 66 59 -67 0
62 1 65 66 59 -60 0
62 1 65 66 59 -58 0
62 1 65 66 59 -63 0
62 1 65 66 59 -61 0
62 1 65 66 59 -64 0
62 1 2 5 3 -67 0
62 1 2 5 3 -60 0
62 1 2 5 3 -58 0
62 1 2 5 3 -63 0
62 1 2 5 3 -61 0
62 1 2 5 3 -64 0
62 29 65 66 59 -166 0
62 29 65 66 59 -167 0
62 29 65 66 59 -170 0
62 29 65 66 59 -169 0
62 29 65 66 59 -168 0
62 29 65 66 59 -165 0
62 76 65 66 59 -218 0
62 76 65 66 59 -221 0
62 76 65 66 59 -219 0
62 76 65 66 59 -216 0
62 76 65 66 59 -217 0
62 76 65 66 59 -220 0
62 65 51 66 59 -205 0
62 65 51 66 59 -202 0
62 65 51 66 59 -201 0
62 65 51 66 59 -204 0
62 65 51 66 59 -203 0
62 65 51 66 59 -206 0
62 65 12 66 59 -106 0
62 65 12 66 59 -105 0
62 65 12 66 59 -107 0
62 65 12 66 59 -109 0
62 65 12 66 59 -108 0
62 65 12 66 59 -110 0
62 65 42 66 59 -187 0
62 65 42 66 59 -188 0
62 65 42 66 59 -189 0
62 65 42 66 59 -190 0
62 65 42 66 59 -186 0
62 65 42 66 59 -191 0
62 65 18 66 59 -143 0
62 65 18 66 59 -139 0
62 65 18 66 59 -141 0
62 65 18 66 59 -138 0
62 65 18 66 59 -140 0
62 65 18 66 59 -142 0
62 65 2 66 59 -67 0
62 65 2 66 59 -60 0
62 65 2 66 59 -58 0
62 65 2 66 59 -63 0
62 65 2 66 59 -61 0
62 65 2 66 59 -64 0
62 65 34 66 59 -166 0
62 65 34 66 59 -167 0
62 65 34 66 59 -170 0
62 65 34 66 59 -169 0
62 65 34 66 59 -168 0
62 65 34 66 59 -165 0
62 65 70 66 59 -218 0
62 65 70 66 59 -221 0
62 65 70 66 59 -219 0
62 65 70 66 59 -216 0
62 65 70 66 59 -217 0
62 65 70 66 59 -220 0
62 65 66 54 59 -205 0
62 65 66 54 59 -202 0
62 65 66 54 59 -201 0
62 65 66 54 59 -204 0
62 65 66 54 59 -203 0
62 65 66 54 59 -206 0
62 65 66 14 59 -106 0
62 65 66 14 59 -105 0
62 65 66 14 59 -107 0
62 65 66 14 59 -109 0
62 65 66 14 59 -108 0
62 65 66 14 59 -110 0
62 65 66 46 59 -187 0
62 65 66 46 59 -188 0
62 65 66 46 59 -189 0
62 65 66 46 59 -190 0
62 65 66 46 59 -186 0
62 65 66 46 59 -191 0
62 65 66 20 59 -143 0
62 65 66 20 59 -139 0
62 65 66 20 59 -141 0
62 65 66 20 59 -138 0
62 65 66 20 59 -140 0
62 65 66 20 59 -142 0
62 65 66 5 59 -67 0
62 65 66 5 59 -60 0
62 65 66 5 59 -58 0
62 65 66 5 59 -63 0
62 65 66 5 59 -61 0
62 65 66 5 59 -64 0
62 65 66 30 59 -166 0
62 65 66 30 59 -167 0
62 65 66 30 59 -170 0
62 65 66 30 59 -169 0
62 65 66 30 59 -168 0
62 65 66 30 59 -165 0
62 65 66 73 59 -218 0
62 65 66 73 59 -221 0
62 65 66 73 59 -219 0
62 65 66 73 59 -216 0
62 65 66 73 59 -217 0
62 65 66 73 59 -220 0
62 65 66 59 53 -205 0
62 65 66 59 53 -202 0
62 65 66 59 53 -201 0
62 65 66 59 53 -204 0
62 65 66 59 53 -203 0
62 65 66 59 53 -206 0
62 65 66 59 17 -106 0
62 65 66 59 17 -105 0
62 65 66 59 17 -107 0
62 65 66 59 17 -109 0
62 65 66 59 17 -108 0
62 65 66 59 17 -110 0
62 65 66 59 40 -187 0
62 65 66 59 40 -188 0
62 65 66 59 40 -189 0
62 65 66 59 40 -190 0
62 65 66 59 40 -186 0
62 65 66 59 40 -191 0
62 65 66 59 19 -143 0
62 65 66 59 19 -139 0
62 65 66 59 19 -141 0
62 65 66 59 19 -138 0
62 65 66 59 19 -140 0
62 65 66 59 19 -142 0
62 65 66 59 3 -67 0
62 65 66 59 3 -60 0
62 65 66 59 3 -58 0
62 65 66 59 3 -63 0
62 65 66 59 3 -61 0
62 65 66 59 3 -64 0
50 8 51 54 53 -100 0
50 8 51 54 53 -102 0
50 8 51 54 53 -103 0
50 8 51 54 53 -104 0
50 8 51 54 53 -101 0
50 8 51 54 53 -99 0
50 8 12 14 17 -100 0
50 8 12 14 17 -102 0
50 8 12 14 17 -103 0
50 8 12 14 17 -104 0
50 8 12 14 17 -101 0
50 8 12 14 17 -99 0
50 41 51 54 53 -185 0
50 41 51 54 53 -180 0
50 41 51 54 53 -181 0
50 41 51 54 53 -182 0
50 41 51 54 53 -184 0
50 41 51 54 53 -183 0
50 41 42 46 40 -185 0
50 41 42 46 40 -180 0
50 41 42 46 40 -181 0
50 41 42 46 40 -182 0
50 41 42 46 40 -184 0
50 41 42 46 40 -183 0
50 22 51 54 53 -135 0
50 22 51 54 53 -132 0
50 22 51 54 53 -136 0
50 22 51 54 53 -134 0
50 22 51 54 53 -133 0
50 22 51 54 53 -137 0
50 22 18 20 19 -135 0
50 22 18 20 19 -132 0
50 22 18 20 19 -136 0
50 22 18 20 19 -134 0
50 22 18 20 19 -133 0
50 22 18 20 19 -137 0
50 1 51 54 53 -57 0
50 1 51 54 53 -55 0
50 1 51 54 53 -49 0
50 1 51 54 53 -52 0
50 1 51 54 53 -48 0
50 1 51 54 53 -56 0
50 1 2 5 3 -57 0
50 1 2 5 3 -55 0
50 1 2 5 3 -49 0
50 1 2 5 3 -52 0
50 1 2 5 3 -48 0
50 1 2 5 3 -56 0
50 29 51 54 53 -160 0
50 29 51 54 53 -159 0
50 29 51 54 53 -161 0
50 29 51 54 53 -164 0
50 29 51 54 53 -163 0
50 29 51 54 53 -162 0
50 76 51 54 53 -207 0
50 76 51 54 53 -209 0
50 76 51 54 53 -208 0
50 76 51 54 53 -212 0
50 76 51 54 53 -211 0
50 76 51 54 53 -210 0
50 65 51 54 53 -205 0
50 65 51 54 53 -202 0
50 65 51 54 53 -201 0
50 65 51 54 53 -204 0
50 65 51 54 53 -203 0
50 65 51 54 53 -206 0
50 51 12 54 53 -100 0
50 51 12 54 53 -102 0
50 51 12 54 53 -103 0
50 51 12 54 53 -104 0
50 51 12 54 53 -101 0
50 51 12 54 53 -99 0
50 51 42 54 53 -185 0
50 51 42 54 53 -180 0
50 51 42 54 53 -181 0
50 51 42 54 53 -182 0
50 51 42 54 53 -184 0
50 51 42 54 53 -183 0
50 51 18 54 53 -135 0
50 51 18 54 53 -132 0
50 51 18 54 53 -136 0
50 51 18 54 53 -134 0
50 51 18 54 53 -133 0
50 51 18 54 53 -137 0
50 51 2 54 53 -57 0
50 51 2 54 53 -55 0
50 51 2 54 53 -49 0
50 51 2 54 53 -52 0
50 51 2 54 53 -48 0
50 51 2 54 53 -56 0
50 51 34 54 53 -160 0
50 51 34 54 53 -159 0
50 51 34 54 53 -161 0
50 51 34 54 53 -164 0
50 51 34 54 53 -163 0
50 51 34 54 53 -162 0
50 51 70 54 53 -207 0
50 51 70 54 53 -209 0
50 51 70 54 53 -208 0
50 51 70 54 53 -212 0
50 51 70 54 53 -211 0
50 51 70 54 53 -210 0
50 51 66 54 53 -205 0
50 51 66 54 53 -202 0
50 51 66 54 53 -201 0
50 51 66 54 53 -204 0
50 51 66 54 53 -203 0
50 51 66 54 53 -206 0
50 51 54 14 53 -100 0
50 51 54 14 53 -102 0
50 51 54 14 53 -103 0
50 51 54 14 53 -104 0
50 51 54 14 53 -101 0
50 51 54 14 53 -99 0
50 51 54 46 53 -185 0
50 51 54 46 53 -180 0
50 51 54 46 53 -181 0
50 51 54 46 53 -182 0
50 51 54 46 53 -184 0
50 51 54 46 53 -183 0
50 51 54 20 53 -135 0
50 51 54 20 53 -132 0
50 51 54 20 53 -136 0
50 51 54 20 53 -134 0
50 51 54 20 53 -133 0
50 51 54 20 53 -137 0
50 51 54 5 53 -57 0
50 51 54 5 53 -55 0
50 51 54 5 53 -49 0
50 51 54 5 53 -52 0
50 51 54 5 53 -48 0
50 51 54 5 53 -56 0
50 51 54 30 53 -160 0
50 51 54 30 53 -159 0
50 51 54 30 53 -161 0
50 51 54 30 53 -164 0
50 51 54 30 53 -163 0
50 51 54 30 53 -162 0
50 51 54 73 53 -207 0
50 51 54 73 53 -209 0
50 51 54 73 53 -208 0
50 51 54 73 53 -212 0
50 51 54 73 53 -211 0
50 51 54 73 53 -210 0
50 51 54 59 53 -205 0
50 51 54 59 53 -202 0
50 51 54 59 53 -201 0
50 51 54 59 53 -204 0
50 51 54 59 53 -203 0
50 51 54 59 53 -206 0
50 51 54 53 17 -100 0
50 51 54 53 17 -102 0
50 51 54 53 17 -103 0
50 51 54 53 17 -104 0
50 51 54 53 17 -101 0
50 51 54 53 17 -99 0
50 51 54 53 40 -185 0
50 51 54 53 40 -180 0
50 51 54 53 40 -181 0
50 51 54 53 40 -182 0
50 51 54 53 40 -184 0
50 51 54 53 40 -183 0
50 51 54 53 19 -135 0
50 51 54 53 19 -132 0
50 51 54 53 19 -136 0
50 51 54 53 19 -134 0
50 51 54 53 19 -133 0
50 51 54 53 19 -137 0
50 51 54 53 3 -57 0
50 51 54 53 3 -55 0
50 51 54 53 3 -49 0
50 51 54 53 3 -52 0
50 51 54 53 3 -48 0
50 51 54 53 3 -56 0
8 41 12 14 17 -93 0
8 41 12 14 17 -96 0
8 41 12 14 17 -95 0
8 41 12 14 17 -94 0
8 41 12 14 17 -98 0
8 41 12 14 17 -97 0
8 41 42 46 40 -93 0
8 41 42 46 40 -96 0
8 41 42 46 40 -95 0
8 41 42 46 40 -94 0
8 41 42 46 40 -98 0
8 41 42 46 40 -97 0
8 22 12 14 17 -85 0
8 22 12 14 17 -86 0
8 22 12 14 17 -83 0
8 22 12 14 17 -84 0
8 22 12 14 17 -81 0
8 22 12 14 17 -82 0
8 22 18 20 19 -85 0
8 22 18 20 19 -86 0
8 22 18 20 19 -83 0
8 22 18 20 19 -84 0
8 22 18 20 19 -81 0
8 22 18 20 19 -82 0
8 1 12 14 17 -9 0
8 1 12 14 17 -10 0
8 1 12 14 17 -16 0
8 1 12 14 17 -15 0
8 1 12 14 17 -13 0
8 1 12 14 17 -11 0
8 1 2 5 3 -9 0
8 1 2 5 3 -10 0
8 1 2 5 3 -16 0
8 1 2 5 3 -15 0
8 1 2 5 3 -13 0
8 1 2 5 3 -11 0
8 29 12 14 17 -91 0
8 29 12 14 17 -89 0
8 29 12 14 17 -92 0
8 29 12 14 17 -90 0
8 29 12 14 17 -88 0
8 29 12 14 17 -87 0
8 76 12 14 17 -116 0
8 76 12 14 17 -113 0
8 76 12 14 17 -111 0
8 76 12 14 17 -114 0
8 76 12 14 17 -115 0
8 76 12 14 17 -112 0
8 65 12 14 17 -106 0
8 65 12 14 17 -105 0
8 65 12 14 17 -107 0
8 65 12 14 17 -109 0
8 65 12 14 17 -108 0
8 65 12 14 17 -110 0
8 51 12 14 17 -100 0
8 51 12 14 17 -102 0
8 51 12 14 17 -103 0
8 51 12 14 17 -104 0
8 51 12 14 17 -101 0
8 51 12 14 17 -99 0
8 12 42 14 17 -93 0
8 12 42 14 17 -96 0
8 12 42 14 17 -95 0
8 12 42 14 17 -94 0
8 12 42 14 17 -98 0
8 12 42 14 17 -97 0
8 12 18 14 17 -85 0
8 12 18 14 17 -86 0
8 12 18 14 17 -83 0
8 12 18 14 17 -84 0
8 12 18 14 17 -81 0
8 12 18 14 17 -82 0
8 12 2 14 17 -9 0
8 12 2 14 17 -10 0
8 12 2 14 17 -16 0
8 12 2 14 17 -15 0
8 12 2 14 17 -13 0
8 12 2 14 17 -11 0
8 12 34 14 17 -91 0
8 12 34 14 17 -89 0
8 12 34 14 17 -92 0
8 12 34 14 17 -90 0
8 12 34 14 17 -88 0
8 12 34 14 17 -87 0
8 12 70 14 17 -116 0
8 12 70 14 17 -113 0
8 12 70 14 17 -111 0
8 12 70 14 17 -114 0
8 12 70 14 17 -115 0
8 12 70 14 17 -112 0
8 12 66 14 17 -106 0
8 12 66 14 17 -105 0
8 12 66 14 17 -107 0
8 12 66 14 17 -109 0
8 12 66 14 17 -108 0
8 12 66 14 17 -110 0
8 12 54 14 17 -100 0
8 12 54 14 17 -102 0
8 12 54 14 17 -103 0
8 12 54 14 17 -104 0
8 12 54 14 17 -101 0
8 12 54 14 17 -99 0
8 12 14 46 17 -93 0
8 12 14 46 17 -96 0
8 12 14 46 17 -95 0
8 12 14 46 17 -94 0
8 12 14 46 17 -98 0
8 12 14 46 17 -97 0
8 12 14 20 17 -85 0
8 12 14 20 17 -86 0
8 12 14 20 17 -83 0
8 12 14 20 17 -84 0
8 12 14 20 17 -81 0
8 12 14 20 17 -82 0
8 12 14 5 17 -9 0
8 12 14 5 17 -10 0
8 12 14 5 17 -16 0
8 12 14 5 17 -15 0
8 12 14 5 17 -13 0
8 12 14 5 17 -11 0
8 12 14 30 17 -91 0
8 12 14 30 17 -89 0
8 12 14 30 17 -92 0
8 12 14 30 17 -90 0
8 12 14 30 17 -88 0
8 12 14 30 17 -87 0
8 12 14 73 17 -116 0
8 12 14 73 17 -113 0
8 12 14 73 17 -111 0
8 12 14 73 17 -114 0
8 12 14 73 17 -115 0
8 12 14 73 17 -112 0
8 12 14 59 17 -106 0
8 12 14 59 17 -105 0
8 12 14 59 17 -107 0
8 12 14 59 17 -109 0
8 12 14 59 17 -108 0
8 12 14 59 17 -110 0
8 12 14 53 17 -100 0
8 12 14 53 17 -102 0
8 12 14 53 17 -103 0
8 12 14 53 17 -104 0
8 12 14 53 17 -101 0
8 12 14 53 17 -99 0
8 12 14 17 40 -93 0
8 12 14 17 40 -96 0
8 12 14 17 40 -95 0
8 12 14 17 40 -94 0
8 12 14 17 40 -98 0
8 12 14 17 40 -97 0
8 12 14 17 19 -85 0
8 12 14 17 19 -86 0
8 12 14 17 19 -83 0
8 12 14 17 19 -84 0
8 12 14 17 19 -81 0
8 12 14 17 19 -82 0
8 12 14 17 3 -9 0
8 12 14 17 3 -10 0
8 12 14 17 3 -16 0
8 12 14 17 3 -15 0
8 12 14 17 3 -13 0
8 12 14 17 3 -11 0
41 22 42 46 40 -131 0
41 22 42 46 40 -129 0
41 22 42 46 40 -130 0
41 22 42 46 40 -127 0
41 22 42 46 40 -128 0
41 22 42 46 40 -126 0
41 22 18 20 19 -131 0
41 22 18 20 19 -129 0
41 22 18 20 19 -130 0
41 22 18 20 19 -127 0
41 22 18 20 19 -128 0
41 22 18 20 19 -126 0
41 1 42 46 40 -44 0
41 1 42 46 40 -39 0
41 1 42 46 40 -47 0
41 1 42 46 40 -43 0
41 1 42 46 40 -38 0
41 1 42 46 40 -45 0
41 1 2 5 3 -44 0
41 1 2 5 3 -39 0
41 1 2 5 3 -47 0
41 1 2 5 3 -43 0
41 1 2 5 3 -38 0
41 1 2 5 3 -45 0
41 29 42 46 40 -155 0
41 29 42 46 40 -153 0
41 29 42 46 40 -154 0
41 29 42 46 40 -156 0
41 29 42 46 40 -158 0
41 29 42 46 40 -157 0
41 76 42 46 40 -192 0
41 76 42 46 40 -195 0
41 76 42 46 40 -197 0
41 76 42 46 40 -194 0
41 76 42 46 40 -196 0
41 76 42 46 40 -193 0
41 65 42 46 40 -187 0
41 65 42 46 40 -188 0
41 65 42 46 40 -189 0
41 65 42 46 40 -190 0
41 65 42 46 40 -186 0
41 65 42 46 40 -191 0
41 51 42 46 40 -185 0
41 51 42 46 40 -180 0
41 51 42 46 40 -181 0
41 51 42 46 40 -182 0
41 51 42 46 40 -184 0
41 51 42 46 40 -183 0
41 12 42 46 40 -93 0
41 12 42 46 40 -96 0
41 12 42 46 40 -95 0
41 12 42 46 40 -94 0
41 12 42 46 40 -98 0
41 12 42 46 40 -97 0
41 42 18 46 40 -131 0
41 42 18 46 40 -129 0
41 42 18 46 40 -130 0
41 42 18 46 40 -127 0
41 42 18 46 40 -128 0
41 42 18 46 40 -126 0
41 42 2 46 40 -44 0
41 42 2 46 40 -39 0
41 42 2 46 40 -47 0
41 42 2 46 40 -43 0
41 42 2 46 40 -38 0
41 42 2 46 40 -45 0
41 42 34 46 40 -155 0
41 42 34 46 40 -153 0
41 42 34 46 40 -154 0
41 42 34 46 40 -156 0
41 42 34 46 40 -158 0
41 42 34 46 40 -157 0
41 42 70 46 40 -192 0
41 42 70 46 40 -195 0
41 42 70 46 40 -197 0
41 42 70 46 40 -194 0
41 42 70 46 40 -196 0
41 42 70 46 40 -193 0
41 42 66 46 40 -187 0
41 42 66 46 40 -188 0
41 42 66 46 40 -189 0
41 42 66 46 40 -190 0
41 42 66 46 40 -186 0
41 42 66 46 40 -191 0
41 42 54 46 40 -185 0
41 42 54 46 40 -180 0
41 42 54 46 40 -181 0
41 42 54 46 40 -182 0
41 42 54 46 40 -184 0
41 42 54 46 40 -183 0
41 42 14 46 40 -93 0
41 42 14 46 40 -96 0
41 42 14 46 40 -95 0
41 42 14 46 40 -94 0
41 42 14 46 40 -98 0
41 42 14 46 40 -97 0
41 42 46 20 40 -131 0
41 42 46 20 40 -129 0
41 42 46 20 40 -130 0
41 42 46 20 40 -127 0
41 42 46 20 40 -128 0
41 42 46 20 40 -126 0
41 42 46 5 40 -44 0
41 42 46 5 40 -39 0
41 42 46 5 40 -47 0
41 42 46 5 40 -43 0
41 42 46 5 40 -38 0
41 42 46 5 40 -45 0
41 42 46 30 40 -155 0
41 42 46 30 40 -153 0
41 42 46 30 40 -154 0
41 42 46 30 40 -156 0
41 42 46 30 40 -158 0
41 42 46 30 40 -157 0
41 42 46 73 40 -192 0
41 42 46 73 40 -195 0
41 42 46 73 40 -197 0
41 42 46 73 40 -194 0
41 42 46 73 40 -196 0
41 42 46 73 40 -193 0
41 42 46 59 40 -187 0
41 42 46 59 40 -188 0
41 42 46 59 40 -189 0
41 42 46 59 40 -190 0
41 42 46 59 40 -186 0
41 42 46 59 40 -191 0
41 42 46 53 40 -185 0
41 42 46 53 40 -180 0
41 42 46 53 40 -181 0
41 42 46 53 40 -182 0
41 42 46 53 40 -184 0
41 42 46 53 40 -183 0
41 42 46 17 40 -93 0
41 42 46 17 40 -96 0
41 42 46 17 40 -95 0
41 42 46 17 40 -94 0
41 42 46 17 40 -98 0
41 42 46 17 40 -97 0
41 42 46 40 19 -131 0
41 42 46 40 19 -129 0
41 42 46 40 19 -130 0
41 42 46 40 19 -127 0
41 42 46 40 19 -128 0
41 42 46 40 19 -126 0
41 42 46 40 3 -44 0
41 42 46 40 3 -39 0
41 42 46 40 3 -47 0
41 42 46 40 3 -43 0
41 42 46 40 3 -38 0
41 42 46 40 3 -45 0
22 1 18 20 19 -23 0
22 1 18 20 19 -24 0
22 1 18 20 19 -26 0
22 1 18 20 19 -27 0
22 1 18 20 19 -21 0
22 1 18 20 19 -25 0
22 1 2 5 3 -23 0
22 1 2 5 3 -24 0
22 1 2 5 3 -26 0
22 1 2 5 3 -27 0
22 1 2 5 3 -21 0
22 1 2 5 3 -25 0
22 29 18 20 19 -121 0
22 29 18 20 19 -123 0
22 29 18 20 19 -122 0
22 29 18 20 19 -124 0
22 29 18 20 19 -120 0
22 29 18 20 19 -125 0
22 76 18 20 19 -149 0
22 76 18 20 19 -144 0
22 76 18 20 19 -146 0
22 76 18 20 19 -148 0
22 76 18 20 19 -145 0
22 76 18 20 19 -147 0
22 65 18 20 19 -143 0
22 65 18 20 19 -139 0
22 65 18 20 19 -141 0
22 65 18 20 19 -138 0
22 65 18 20 19 -140 0
22 65 18 20 19 -142 0
22 51 18 20 19 -135 0
22 51 18 20 19 -132 0
22 51 18 20 19 -136 0
22 51 18 20 19 -134 0
22 51 18 20 19 -133 0
22 51 18 20 19 -137 0
22 12 18 20 19 -85 0
22 12 18 20 19 -86 0
22 12 18 20 19 -83 0
22 12 18 20 19 -84 0
22 12 18 20 19 -81 0
22 12 18 20 19 -82 0
22 42 18 20 19 -131 0
22 42 18 20 19 -129 0
22 42 18 20 19 -130 0
22 42 18 20 19 -127 0
22 42 18 20 19 -128 0
22 42 18 20 19 -126 0
22 18 2 20 19 -23 0
22 18 2 20 19 -24 0
22 18 2 20 19 -26 0
22 18 2 20 19 -27 0
22 18 2 20 19 -21 0
22 18 2 20 19 -25 0
22 18 34 20 19 -121 0
22 18 34 20 19 -123 0
22 18 34 20 19 -122 0
22 18 34 20 19 -124 0
22 18 34 20 19 -120 0
22 18 34 20 19 -125 0
22 18 70 20 19 -149 0
22 18 70 20 19 -144 0
22 18 70 20 19 -146 0
22 18 70 20 19 -148 0
22 18 70 20 19 -145 0
22 18 70 20 19 -147 0
22 18 66 20 19 -143 0
22 18 66 20 19 -139 0
22 18 66 20 19 -141 0
22 18 66 20 19 -138 0
22 18 66 20 19 -140 0
22 18 66 20 19 -142 0
22 18 54 20 19 -135 0
22 18 54 20 19 -132 0
22 18 54 20 19 -136 0
22 18 54 20 19 -134 0
22 18 54 20 19 -133 0
22 18 54 20 19 -137 0
22 18 14 20 19 -85 0
22 18 14 20 19 -86 0
22 18 14 20 19 -83 0
22 18 14 20 19 -84 0
22 18 14 20 19 -81 0
22 18 14 20 19 -82 0
22 18 46 20 19 -131 0
22 18 46 20 19 -129 0
22 18 46 20 19 -130 0
22 18 46 20 19 -127 0
22 18 46 20 19 -128 0
22 18 46 20 19 -126 0
22 18 20 5 19 -23 0
22 18 20 5 19 -24 0
22 18 20 5 19 -26 0
22 18 20 5 19 -27 0
22 18 20 5 19 -21 0
22 18 20 5 19 -25 0
22 18 20 30 19 -121 0
22 18 20 30 19 -123 0
22 18 20 30 19 -122 0
22 18 20 30 19 -124 0
22 18 20 30 19 -120 0
22 18 20 30 19 -125 0
22 18 20 73 19 -149 0
22 18 20 73 19 -144 0
22 18 20 73 19 -146 0
22 18 20 73 19 -148 0
22 18 20 73 19 -145 0
22 18 20 73 19 -147 0
22 18 20 59 19 -143 0
22 18 20 59 19 -139 0
22 18 20 59 19 -141 0
22 18 20 59 19 -138 0
22 18 20 59 19 -140 0
22 18 20 59 19 -142 0
22 18 20 53 19 -135 0
22 18 20 53 19 -132 0
22 18 20 53 19 -136 0
22 18 20 53 19 -134 0
22 18 20 53 19 -133 0
22 18 20 53 19 -137 0
22 18 20 17 19 -85 0
22 18 20 17 19 -86 0
22 18 20 17 19 -83 0
22 18 20 17 19 -84 0
22 18 20 17 19 -81 0
22 18 20 17 19 -82 0
22 18 20 40 19 -131 0
22 18 20 40 19 -129 0
22 18 20 40 19 -130 0
22 18 20 40 19 -127 0
22 18 20 40 19 -128 0
22 18 20 40 19 -126 0
22 18 20 19 3 -23 0
22 18 20 19 3 -24 0
22 18 20 19 3 -26 0
22 18 20 19 3 -27 0
22 18 20 19 3 -21 0
22 18 20 19 3 -25 0
1 29 2 5 3 -31 0
1 29 2 5 3 -37 0
1 29 2 5 3 -36 0
1 29 2 5 3 -28 0
1 29 2 5 3 -33 0
1 29 2 5 3 -35 0
1 76 2 5 3 -71 0
1 76 2 5 3 -74 0
1 76 2 5 3 -72 0
1 76 2 5 3 -77 0
1 76 2 5 3 -69 0
1 76 2 5 3 -68 0
1 65 2 5 3 -67 0
1 65 2 5 3 -60 0
1 65 2 5 3 -58 0
1 65 2 5 3 -63 0
1 65 2 5 3 -61 0
1 65 2 5 3 -64 0
1 51 2 5 3 -57 0
1 51 2 5 3 -55 0
1 51 2 5 3 -49 0
1 51 2 5 3 -52 0
1 51 2 5 3 -48 0
1 51 2 5 3 -56 0
1 12 2 5 3 -9 0
1 12 2 5 3 -10 0
1 12 2 5 3 -16 0
1 12 2 5 3 -15 0
1 12 2 5 3 -13 0
1 12 2 5 3 -11 0
1 42 2 5 3 -44 0
1 42 2 5 3 -39 0
1 42 2 5 3 -47 0
1 42 2 5 3 -43 0
1 42 2 5 3 -38 0
1 42 2 5 3 -45 0
1 18 2 5 3 -23 0
1 18 2 5 3 -24 0
1 18 2 5 3 -26 0
1 18 2 5 3 -27 0
1 18 2 5 3 -21 0
1 18 2 5 3 -25 0
1 2 34 5 3 -31 0
1 2 34 5 3 -37 0
1 2 34 5 3 -36 0
1 2 34 5 3 -28 0
1 2 34 5 3 -33 0
1 2 34 5 3 -35 0
1 2 70 5 3 -71 0
1 2 70 5 3 -74 0
1 2 70 5 3 -72 0
1 2 70 5 3 -77 0
1 2 70 5 3 -69 0
1 2 70 5 3 -68 0
1 2 66 5 3 -67 0
1 2 66 5 3 -60 0
1 2 66 5 3 -58 0
1 2 66 5 3 -63 0
1 2 66 5 3 -61 0
1 2 66 5 3 -64 0
1 2 54 5 3 -57 0
1 2 54 5 3 -55 0
1 2 54 5 3 -49 0
1 2 54 5 3 -52 0
1 2 54 5 3 -48 0
1 2 54 5 3 -56 0
1 2 14 5 3 -9 0
1 2 14 5 3 -10 0
1 2 14 5 3 -16 0
1 2 14 5 3 -15 0
1 2 14 5 3 -13 0
1 2 14 5 3 -11 0
1 2 46 5 3 -44 0
1 2 46 5 3 -39 0
1 2 46 5 3 -47 0
1 2 46 5 3 -43 0
1 2 46 5 3 -38 0
1 2 46 5 3 -45 0
1 2 20 5 3 -23 0
1 2 20 5 3 -24 0
1 2 20 5 3 -26 0
1 2 20 5 3 -27 0
1 2 20 5 3 -21 0
1 2 20 5 3 -25 0
1 2 5 30 3 -31 0
1 2 5 30 3 -37 0
1 2 5 30 3 -36 0
1 2 5 30 3 -28 0
1 2 5 30 3 -33 0
1 2 5 30 3 -35 0
1 2 5 73 3 -71 0
1 2 5 73 3 -74 0
1 2 5 73 3 -72 0
1 2 5 73 3 -77 0
1 2 5 73 3 -69 0
1 2 5 73 3 -68 0
1 2 5 59 3 -67 0
1 2 5 59 3 -60 0
1 2 5 59 3 -58 0
1 2 5 59 3 -63 0
1 2 5 59 3 -61 0
1 2 5 59 3 -64 0
1 2 5 53 3 -57 0
1 2 5 53 3 -55 0
1 2 5 53 3 -49 0
1 2 5 53 3 -52 0
1 2 5 53 3 -48 0
1 2 5 53 3 -56 0
1 2 5 17 3 -9 0
1 2 5 17 3 -10 0
1 2 5 17 3 -16 0
1 2 5 17 3 -15 0
1 2 5 17 3 -13 0
1 2 5 17 3 -11 0
1 2 5 40 3 -44 0
1 2 5 40 3 -39 0
1 2 5 40 3 -47 0
1 2 5 40 3 -43 0
1 2 5 40 3 -38 0
1 2 5 40 3 -45 0
1 2 5 19 3 -23 0
1 2 5 19 3 -24 0
1 2 5 19 3 -26 0
1 2 5 19 3 -27 0
1 2 5 19 3 -21 0
1 2 5 19 3 -25 0
32 75 29 76 34 70 -176 0
32 75 29 76 34 70 -171 0
32 75 29 76 34 70 -175 0
32 75 29 76 34 70 -172 0
32 75 29 76 34 70 -174 0
32 75 29 76 34 70 -173 0
32 75 29 76 34 30 -176 0
32 75 29 76 34 30 -171 0
32 75 29 76 34 30 -175 0
32 75 29 76 34 30 -172 0
32 75 29 76 34 30 -174 0
32 75 29 76 34 30 -173 0
32 75 29 76 70 73 -176 0
32 75 29 76 70 73 -171 0
32 75 29 76 70 73 -175 0
32 75 29 76 70 73 -172 0
32 75 29 76 70 73 -174 0
32 75 29 76 70 73 -173 0
32 75 29 76 30 73 -176 0
32 75 29 76 30 73 -171 0
32 75 29 76 30 73 -175 0
32 75 29 76 30 73 -172 0
32 75 29 76 30 73 -174 0
32 75 29 76 30 73 -173 0
32 75 29 34 70 30 -176 0
32 75 29 34 70 30 -171 0
32 75 29 34 70 30 -175 0
32 75 29 34 70 30 -172 0
32 75 29 34 70 30 -174 0
32 75 29 34 70 30 -173 0
32 75 29 34 30 73 -176 0
32 75 29 34 30 73 -171 0
32 75 29 34 30 73 -175 0
32 75 29 34 30 73 -172 0
32 75 29 34 30 73 -174 0
32 75 29 34 30 73 -173 0
32 75 76 34 70 73 -176 0
32 75 76 34 70 73 -171 0
32 75 76 34 70 73 -175 0
32 75 76 34 70 73 -172 0
32 75 76 34 70 73 -174 0
32 75 76 34 70 73 -173 0
32 75 76 70 30 73 -176 0
32 75 76 70 30 73 -171 0
32 75 76 70 30 73 -175 0
32 75 76 70 30 73 -172 0
32 75 76 70 30 73 -174 0
32 75 76 70 30 73 -173 0
32 75 34 70 30 73 -176 0
32 75 34 70 30 73 -171 0
32 75 34 70 30 73 -175 0
32 75 34 70 30 73 -172 0
32 75 34 70 30 73 -174 0
32 75 34 70 30 73 -173 0
32 62 29 65 34 66 -166 0
32 62 29 65 34 66 -167 0
32 62 29 65 34 66 -170 0
32 62 29 65 34 66 -169 0
32 62 29 65 34 66 -168 0
32 62 29 65 34 66 -165 0
32 62 29 65 34 30 -166 0
32 62 29 65 34 30 -167 0
32 62 29 65 34 30 -170 0
32 62 29 65 34 30 -169 0
32 62 29 65 34 30 -168 0
32 62 29 65 34 30 -165 0
32 62 29 65 66 59 -166 0
32 62 29 65 66 59 -167 0
32 62 29 65 66 59 -170 0
32 62 29 65 66 59 -169 0
32 62 29 65 66 59 -168 0
32 62 29 65 66 59 -165 0
32 62 29 65 30 59 -166 0
32 62 29 65 30 59 -167 0
32 62 29 65 30 59 -170 0
32 62 29 65 30 59 -169 0
32 62 29 65 30 59 -168 0
32 62 29 65 30 59 -165 0
32 62 29 34 66 30 -166 0
32 62 29 34 66 30 -167 0
32 62 29 34 66 30 -170 0
32 62 29 34 66 30 -169 0
32 62 29 34 66 30 -168 0
32 62 29 34 66 30 -165 0
32 62 29 34 30 59 -166 0
32 62 29 34 30 59 -167 0
32 62 29 34 30 59 -170 0
32 62 29 34 30 59 -169 0
32 62 29 34 30 59 -168 0
32 62 29 34 30 59 -165 0
32 62 65 34 66 59 -166 0
32 62 65 34 66 59 -167 0
32 62 65 34 66 59 -170 0
32 62 65 34 66 59 -169 0
32 62 65 34 66 59 -168 0
32 62 65 34 66 59 -165 0
32 62 65 66 30 59 -166 0
32 62 65 66 30 59 -167 0
32 62 65 66 30 59 -170 0
32 62 65 66 30 59 -169 0
32 62 65 66 30 59 -168 0
32 62 65 66 30 59 -165 0
32 62 34 66 30 59 -166 0
32 62 34 66 30 59 -167 0
32 62 34 66 30 59 -170 0
32 62 34 66 30 59 -169 0
32 62 34 66 30 59 -168 0
32 62 34 66 30 59 -165 0
32 50 29 51 34 54 -160 0
32 50 29 51 34 54 -159 0
32 50 29 51 34 54 -161 0
32 50 29 51 34 54 -164 0
32 50 29 51 34 54 -163 0
32 50 29 51 34 54 -162 0
32 50 29 51 34 30 -160 0
32 50 29 51 34 30 -159 0
32 50 29 51 34 30 -161 0
32 50 29 51 34 30 -164 0
32 50 29 51 34 30 -163 0
32 50 29 51 34 30 -162 0
32 50 29 51 54 53 -160 0
32 50 29 51 54 53 -159 0
32 50 29 51 54 53 -161 0
32 50 29 51 54 53 -164 0
32 50 29 51 54 53 -163 0
32 50 29 51 54 53 -162 0
32 50 29 51 30 53 -160 0
32 50 29 51 30 53 -159 0
32 50 29 51 30 53 -161 0
32 50 29 51 30 53 -164 0
32 50 29 51 30 53 -163 0
32 50 29 51 30 53 -162 0
32 50 29 34 54 30 -160 0
32 50 29 34 54 30 -159 0
32 50 29 34 54 30 -161 0
32 50 29 34 54 30 -164 0
32 50 29 34 54 30 -163 0
32 50 29 34 54 30 -162 0
32 50 29 34 30 53 -160 0
32 50 29 34 30 53 -159 0
32 50 29 34 30 53 -161 0
32 50 29 34 30 53 -164 0
32 50 29 34 30 53 -163 0
32 50 29 34 30 53 -162 0
32 50 51 34 54 53 -160 0
32 50 51 34 54 53 -159 0
32 50 51 34 54 53 -161 0
32 50 51 34 54 53 -164 0
32 50 51 34 54 53 -163 0
32 50 51 34 54 53 -162 0
32 50 51 54 30 53 -160 0
32 50 51 54 30 53 -159 0
32 50 51 54 30 53 -161 0
32 50 51 54 30 53 -164 0
32 50 51 54 30 53 -163 0
32 50 51 54 30 53 -162 0
32 50 34 54 30 53 -160 0
32 50 34 54 30 53 -159 0
32 50 34 54 30 53 -161 0
32 50 34 54 30 53 -164 0
32 50 34 54 30 53 -163 0
32 50 34 54 30 53 -162 0
32 8 29 12 34 14 -91 0
32 8 29 12 34 14 -89 0
32 8 29 12 34 14 -92 0
32 8 29 12 34 14 -90 0
32 8 29 12 34 14 -88 0
32 8 29 12 34 14 -87 0
32 8 29 12 34 30 -91 0
32 8 29 12 34 30 -89 0
32 8 29 12 34 30 -92 0
32 8 29 12 34 30 -90 0
32 8 29 12 34 30 -88 0
32 8 29 12 34 30 -87 0
32 8 29 12 14 17 -91 0
32 8 29 12 14 17 -89 0
32 8 29 12 14 17 -92 0
32 8 29 12 14 17 -90 0
32 8 29 12 14 17 -88 0
32 8 29 12 14 17 -87 0
32 8 29 12 30 17 -91 0
32 8 29 12 30 17 -89 0
32 8 29 12 30 17 -92 0
32 8 29 12 30 17 -90 0
32 8 29 12 30 17 -88 0
32 8 29 12 30 17 -87 0
32 8 29 34 14 30 -91 0
32 8 29 34 14 30 -89 0
32 8 29 34 14 30 -92 0
32 8 29 34 14 30 -90 0
32 8 29 34 14 30 -88 0
32 8 29 34 14 30 -87 0
32 8 29 34 30 17 -91 0
32 8 29 34 30 17 -89 0
32 8 29 34 30 17 -92 0
32 8 29 34 30 17 -90 0
32 8 29 34 30 17 -88 0
32 8 29 34 30 17 -87 0
32 8 12 34 14 17 -91 0
32 8 12 34 14 17 -89 0
32 8 12 34 14 17 -92 0
32 8 12 34 14 17 -90 0
32 8 12 34 14 17 -88 0
32 8 12 34 14 17 -87 0
32 8 12 14 30 17 -91 0
32 8 12 14 30 17 -89 0
32 8 12 14 30 17 -92 0
32 8 12 14 30 17 -90 0
32 8 12 14 30 17 -88 0
32 8 12 14 30 17 -87 0
32 8 34 14 30 17 -91 0
32 8 34 14 30 17 -89 0
32 8 34 14 30 17 -92 0
32 8 34 14 30 17 -90 0
32 8 34 14 30 17 -88 0
32 8 34 14 30 17 -87 0
32 41 29 42 34 46 -155 0
32 41 29 42 34 46 -153 0
32 41 29 42 34 46 -154 0
32 41 29 42 34 46 -156 0
32 41 29 42 34 46 -158 0
32 41 29 42 34 46 -157 0
32 41 29 42 34 30 -155 0
32 41 29 42 34 30 -153 0
32 41 29 42 34 30 -154 0
32 41 29 42 34 30 -156 0
32 41 29 42 34 30 -158 0
32 41 29 42 34 30 -157 0
32 41 29 42 46 40 -155 0
32 41 29 42 46 40 -153 0
32 41 29 42 46 40 -154 0
32 41 29 42 46 40 -156 0
32 41 29 42 46 40 -158 0
32 41 29 42 46 40 -157 0
32 41 29 42 30 40 -155 0
32 41 29 42 30 40 -153 0
32 41 29 42 30 40 -154 0
32 41 29 42 30 40 -156 0
32 41 29 42 30 40 -158 0
32 41 29 42 30 40 -157 0
32 41 29 34 46 30 -155 0
32 41 29 34 46 30 -153 0
32 41 29 34 46 30 -154 0
32 41 29 34 46 30 -156 0
32 41 29 34 46 30 -158 0
32 41 29 34 46 30 -157 0
32 41 29 34 30 40 -155 0
32 41 29 34 30 40 -153 0
32 41 29 34 30 40 -154 0
32 41 29 34 30 40 -156 0
32 41 29 34 30 40 -158 0
32 41 29 34 30 40 -157 0
32 41 42 34 46 40 -155 0
32 41 42 34 46 40 -153 0
32 41 42 34 46 40 -154 0
32 41 42 34 46 40 -156 0
32 41 42 34 46 40 -158 0
32 41 42 34 46 40 -157 0
32 41 42 46 30 40 -155 0
32 41 42 46 30 40 -153 0
32 41 42 46 30 40 -154 0
32 41 42 46 30 40 -156 0
32 41 42 46 30 40 -158 0
32 41 42 46 30 40 -157 0
32 41 34 46 30 40 -155 0
32 41 34 46 30 40 -153 0
32 41 34 46 30 40 -154 0
32 41 34 46 30 40 -156 0
32 41 34 46 30 40 -158 0
32 41 34 46 30 40 -157 0
32 22 29 18 34 20 -121 0
32 22 29 18 34 20 -123 0
32 22 29 18 34 20 -122 0
32 22 29 18 34 20 -124 0
32 22 29 18 34 20 -120 0
32 22 29 18 34 20 -125 0
32 22 29 18 34 30 -121 0
32 22 29 18 34 30 -123 0
32 22 29 18 34 30 -122 0
32 22 29 18 34 30 -124 0
32 22 29 18 34 30 -120 0
32 22 29 18 34 30 -125 0
32 22 29 18 20 19 -121 0
32 22 29 18 20 19 -123 0
32 22 29 18 20 19 -122 0
32 22 29 18 20 19 -124 0
32 22 29 18 20 19 -120 0
32 22 29 18 20 19 -125 0
32 22 29 18 30 19 -121 0
32 22 29 18 30 19 -123 0
32 22 29 18 30 19 -122 0
32 22 29 18 30 19 -124 0
32 22 29 18 30 19 -120 0
32 22 29 18 30 19 -125 0
32 22 29 34 20 30 -121 0
32 22 29 34 20 30 -123 0
32 22 29 34 20 30 -122 0
32 22 29 34 20 30 -124 0
32 22 29 34 20 30 -120 0
32 22 29 34 20 30 -125 0
32 22 29 34 30 19 -121 0
32 22 29 34 30 19 -123 0
32 22 29 34 30 19 -122 0
32 22 29 34 30 19 -124 0
32 22 29 34 30 19 -120 0
32 22 29 34 30 19 -125 0
32 22 18 34 20 19 -121 0
32 22 18 34 20 19 -123 0
32 22 18 34 20 19 -122 0
32 22 18 34 20 19 -124 0
32 22 18 34 20 19 -120 0
32 22 18 34 20 19 -125 0
32 22 18 20 30 19 -121 0
32 22 18 20 30 19 -123 0
32 22 18 20 30 19 -122 0
32 22 18 20 30 19 -124 0
32 22 18 20 30 19 -120 0
32 22 18 20 30 19 -125 0
32 22 34 20 30 19 -121 0
32 22 34 20 30 19 -123 0
32 22 34 20 30 19 -122 0
32 22 34 20 30 19 -124 0
32 22 34 20 30 19 -120 0
32 22 34 20 30 19 -125 0
32 1 29 2 34 5 -31 0
32 1 29 2 34 5 -37 0
32 1 29 2 34 5 -36 0
32 1 29 2 34 5 -28 0
32 1 29 2 34 5 -33 0
32 1 29 2 34 5 -35 0
32 1 29 2 34 30 -31 0
32 1 29 2 34 30 -37 0
32 1 29 2 34 30 -36 0
32 1 29 2 34 30 -28 0
32 1 29 2 34 30 -33 0
32 1 29 2 34 30 -35 0
32 1 29 2 5 3 -31 0
32 1 29 2 5 3 -37 0
32 1 29 2 5 3 -36 0
32 1 29 2 5 3 -28 0
32 1 29 2 5 3 -33 0
32 1 29 2 5 3 -35 0
32 1 29 2 30 3 -31 0
32 1 29 2 30 3 -37 0
32 1 29 2 30 3 -36 0
32 1 29 2 30 3 -28 0
32 1 29 2 30 3 -33 0
32 1 29 2 30 3 -35 0
32 1 29 34 5 30 -31 0
32 1 29 34 5 30 -37 0
32 1 29 34 5 30 -36 0
32 1 29 34 5 30 -28 0
32 1 29 34 5 30 -33 0
32 1 29 34 5 30 -35 0
32 1 29 34 30 3 -31 0
32 1 29 34 30 3 -37 0
32 1 29 34 30 3 -36 0
32 1 29 34 30 3 -28 0
32 1 29 34 30 3 -33 0
32 1 29 34 30 3 -35 0
32 1 2 34 5 3 -31 0
32 1 2 34 5 3 -37 0
32 1 2 34 5 3 -36 0
32 1 2 34 5 3 -28 0
32 1 2 34 5 3 -33 0
32 1 2 34 5 3 -35 0
32 1 2 5 30 3 -31 0
32 1 2 5 30 3 -37 0
32 1 2 5 30 3 -36 0
32 1 2 5 30 3 -28 0
32 1 2 5 30 3 -33 0
32 1 2 5 30 3 -35 0
32 1 34 5 30 3 -31 0
32 1 34 5 30 3 -37 0
32 1 34 5 30 3 -36 0
32 1 34 5 30 3 -28 0
32 1 34 5 30 3 -33 0
32 1 34 5 30 3 -35 0
32 29 76 34 70 30 -176 0
32 29 76 34 70 30 -171 0
32 29 76 34 70 30 -175 0
32 29 76 34 70 30 -172 0
32 29 76 34 70 30 -174 0
32 29 76 34 70 30 -173 0
32 29 76 34 30 73 -176 0
32 29 76 34 30 73 -171 0
32 29 76 34 30 73 -175 0
32 29 76 34 30 73 -172 0
32 29 76 34 30 73 -174 0
32 29 76 34 30 73 -173 0
32 29 65 34 66 30 -166 0
32 29 65 34 66 30 -167 0
32 29 65 34 66 30 -170 0
32 29 65 34 66 30 -169 0
32 29 65 34 66 30 -168 0
32 29 65 34 66 30 -165 0
32 29 65 34 30 59 -166 0
32 29 65 34 30 59 -167 0
32 29 65 34 30 59 -170 0
32 29 65 34 30 59 -169 0
32 29 65 34 30 59 -168 0
32 29 65 34 30 59 -165 0
32 29 51 34 54 30 -160 0
32 29 51 34 54 30 -159 0
32 29 51 34 54 30 -161 0
32 29 51 34 54 30 -164 0
32 29 51 34 54 30 -163 0
32 29 51 34 54 30 -162 0
32 29 51 34 30 53 -160 0
32 29 51 34 30 53 -159 0
32 29 51 34 30 53 -161 0
32 29 51 34 30 53 -164 0
32 29 51 34 30 53 -163 0
32 29 51 34 30 53 -162 0
32 29 12 34 14 30 -91 0
32 29 12 34 14 30 -89 0
32 29 12 34 14 30 -92 0
32 29 12 34 14 30 -90 0
32 29 12 34 14 30 -88 0
32 29 12 34 14 30 -87 0
32 29 12 34 30 17 -91 0
32 29 12 34 30 17 -89 0
32 29 12 34 30 17 -92 0
32 29 12 34 30 17 -90 0
32 29 12 34 30 17 -88 0
32 29 12 34 30 17 -87 0
32 29 42 34 46 30 -155 0
32 29 42 34 46 30 -153 0
32 29 42 34 46 30 -154 0
32 29 42 34 46 30 -156 0
32 29 42 34 46 30 -158 0
32 29 42 34 46 30 -157 0
32 29 42 34 30 40 -155 0
32 29 42 34 30 40 -153 0
32 29 42 34 30 40 -154 0
32 29 42 34 30 40 -156 0
32 29 42 34 30 40 -158 0
32 29 42 34 30 40 -157 0
32 29 18 34 20 30 -121 0
32 29 18 34 20 30 -123 0
32 29 18 34 20 30 -122 0
32 29 18 34 20 30 -124 0
32 29 18 34 20 30 -120 0
32 29 18 34 20 30 -125 0
32 29 18 34 30 19 -121 0
32 29 18 34 30 19 -123 0
32 29 18 34 30 19 -122 0
32 29 18 34 30 19 -124 0
32 29 18 34 30 19 -120 0
32 29 18 34 30 19 -125 0
32 29 2 34 5 30 -31 0
32 29 2 34 5 30 -37 0
32 29 2 34 5 30 -36 0
32 29 2 34 5 30 -28 0
32 29 2 34 5 30 -33 0
32 29 2 34 5 30 -35 0
32 29 2 34 30 3 -31 0
32 29 2 34 30 3 -37 0
32 29 2 34 30 3 -36 0
32 29 2 34 30 3 -28 0
32 29 2 34 30 3 -33 0
32 29 2 34 30 3 -35 0
32 29 34 70 30 73 -176 0
32 29 34 70 30 73 -171 0
32 29 34 70 30 73 -175 0
32 29 34 70 30 73 -172 0
32 29 34 70 30 73 -174 0
32 29 34 70 30 73 -173 0
32 29 34 66 30 59 -166 0
32 29 34 66 30 59 -167 0
32 29 34 66 30 59 -170 0
32 29 34 66 30 59 -169 0
32 29 34 66 30 59 -168 0
32 29 34 66 30 59 -165 0
32 29 34 54 30 53 -160 0
32 29 34 54 30 53 -159 0
32 29 34 54 30 53 -161 0
32 29 34 54 30 53 -164 0
32 29 34 54 30 53 -163 0
32 29 34 54 30 53 -162 0
32 29 34 14 30 17 -91 0
32 29 34 14 30 17 -89 0
32 29 34 14 30 17 -92 0
32 29 34 14 30 17 -90 0
32 29 34 14 30 17 -88 0
32 29 34 14 30 17 -87 0
32 29 34 46 30 40 -155 0
32 29 34 46 30 40 -153 0
32 29 34 46 30 40 -154 0
32 29 34 46 30 40 -156 0
32 29 34 46 30 40 -158 0
32 29 34 46 30 40 -157 0
32 29 34 20 30 19 -121 0
32 29 34 20 30 19 -123 0
32 29 34 20 30 19 -122 0
32 29 34 20 30 19 -124 0
32 29 34 20 30 19 -120 0
32 29 34 20 30 19 -125 0
32 29 34 5 30 3 -31 0
32 29 34 5 30 3 -37 0
32 29 34 5 30 3 -36 0
32 29 34 5 30 3 -28 0
32 29 34 5 30 3 -33 0
32 29 34 5 30 3 -35 0
75 62 76 65 70 66 -218 0
75 62 76 65 70 66 -221 0
75 62 76 65 70 66 -219 0
75 62 76 65 70 66 -216 0
75 62 76 65 70 66 -217 0
75 62 76 65 70 66 -220 0
75 62 76 65 70 73 -218 0
75 62 76 65 70 73 -221 0
75 62 76 65 70 73 -219 0
75 62 76 65 70 73 -216 0
75 62 76 65 70 73 -217 0
75 62 76 65 70 73 -220 0
75 62 76 65 66 59 -218 0
75 62 76 65 66 59 -221 0
75 62 76 65 66 59 -219 0
75 62 76 65 66 59 -216 0
75 62 76 65 66 59 -217 0
75 62 76 65 66 59 -220 0
75 62 76 65 73 59 -218 0
75 62 76 65 73 59 -221 0
75 62 76 65 73 59 -219 0
75 62 76 65 73 59 -216 0
75 62 76 65 73 59 -217 0
75 62 76 65 73 59 -220 0
75 62 76 70 66 73 -218 0
75 62 76 70 66 73 -221 0
75 62 76 70 66 73 -219 0
75 62 76 70 66 73 -216 0
75 62 76 70 66 73 -217 0
75 62 76 70 66 73 -220 0
75 62 76 70 73 59 -218 0
75 62 76 70 73 59 -221 0
75 62 76 70 73 59 -219 0
75 62 76 70 73 59 -216 0
75 62 76 70 73 59 -217 0
75 62 76 70 73 59 -220 0
75 62 65 70 66 59 -218 0
75 62 65 70 66 59 -221 0
75 62 65 70 66 59 -219 0
75 62 65 70 66 59 -216 0
75 62 65 70 66 59 -217 0
75 62 65 70 66 59 -220 0
75 62 65 66 73 59 -218 0
75 62 65 66 73 59 -221 0
75 62 65 66 73 59 -219 0
75 62 65 66 73 59 -216 0
75 62 65 66 73 59 -217 0
75 62 65 66 73 59 -220 0
75 62 70 66 73 59 -218 0
75 62 70 66 73 59 -221 0
75 62 70 66 73 59 -219 0
75 62 70 66 73 59 -216 0
75 62 70 66 73 59 -217 0
75 62 70 66 73 59 -220 0
75 50 76 51 70 54 -207 0
75 50 76 51 70 54 -209 0
75 50 76 51 70 54 -208 0
75 50 76 51 70 54 -212 0
75 50 76 51 70 54 -211 0
75 50 76 51 70 54 -210 0
75 50 76 51 70 73 -207 0
75 50 76 51 70 73 -209 0
75 50 76 51 70 73 -208 0
75 50 76 51 70 73 -212 0
75 50 76 51 70 73 -211 0
75 50 76 51 70 73 -210 0
75 50 76 51 54 53 -207 0
75 50 76 51 54 53 -209 0
75 50 76 51 54 53 -208 0
75 50 76 51 54 53 -212 0
75 50 76 51 54 53 -211 0
75 50 76 51 54 53 -210 0
75 50 76 51 73 53 -207 0
75 50 76 51 73 53 -209 0
75 50 76 51 73 53 -208 0
75 50 76 51 73 53 -212 0
75 50 76 51 73 53 -211 0
75 50 76 51 73 53 -210 0
75 50 76 70 54 73 -207 0
75 50 76 70 54 73 -209 0
75 50 76 70 54 73 -208 0
75 50 76 70 54 73 -212 0
75 50 76 70 54 73 -211 0
75 50 76 70 54 73 -210 0
75 50 76 70 73 53 -207 0
75 50 76 70 73 53 -209 0
75 50 76 70 73 53 -208 0
75 50 76 70 73 53 -212 0
75 50 76 70 73 53 -211 0
75 50 76 70 73 53 -210 0
75 50 51 70 54 53 -207 0
75 50 51 70 54 53 -209 0
75 50 51 70 54 53 -208 0
75 50 51 70 54 53 -212 0
75 50 51 70 54 53 -211 0
75 50 51 70 54 53 -210 0
75 50 51 54 73 53 -207 0
75 50 51 54 73 53 -209 0
75 50 51 54 73 53 -208 0
75 50 51 54 73 53 -212 0
75 50 51 54 73 53 -211 0
75 50 51 54 73 53 -210 0
75 50 70 54 73 53 -207 0
75 50 70 54 73 53 -209 0
75 50 70 54 73 53 -208 0
75 50 70 54 73 53 -212 0
75 50 70 54 73 53 -211 0
75 50 70 54 73 53 -210 0
75 8 76 12 70 14 -116 0
75 8 76 12 70 14 -113 0
75 8 76 12 70 14 -111 0
75 8 76 12 70 14 -114 0
75 8 76 12 70 14 -115 0
75 8 76 12 70 14 -112 0
75 8 76 12 70 73 -116 0
75 8 76 12 70 73 -113 0
75 8 76 12 70 73 -111 0
75 8 76 12 70 73 -114 0
75 8 76 12 70 73 -115 0
75 8 76 12 70 73 -112 0
75 8 76 12 14 17 -116 0
75 8 76 12 14 17 -113 0
75 8 76 12 14 17 -111 0
75 8 76 12 14 17 -114 0
75 8 76 12 14 17 -115 0
75 8 76 12 14 17 -112 0
75 8 76 12 73 17 -116 0
75 8 76 12 73 17 -113 0
75 8 76 12 73 17 -111 0
75 8 76 12 73 17 -114 0
75 8 76 12 73 17 -115 0
75 8 76 12 73 17 -112 0
75 8 76 70 14 73 -116 0
75 8 76 70 14 73 -113 0
75 8 76 70 14 73 -111 0
75 8 76 70 14 73 -114 0
75 8 76 70 14 73 -115 0
75 8 76 70 14 73 -112 0
75 8 76 70 73 17 -116 0
75 8 76 70 73 17 -113 0
75 8 76 70 73 17 -111 0
75 8 76 70 73 17 -114 0
75 8 76 70 73 17 -115 0
75 8 76 70 73 17 -112 0
75 8 12 70 14 17 -116 0
75 8 12 70 14 17 -113 0
75 8 12 70 14 17 -111 0
75 8 12 70 14 17 -114 0
75 8 12 70 14 17 -115 0
75 8 12 70 14 17 -112 0
75 8 12 14 73 17 -116 0
75 8 12 14 73 17 -113 0
75 8 12 14 73 17 -111 0
75 8 12 14 73 17 -114 0
75 8 12 14 73 17 -115 0
75 8 12 14 73 17 -112 0
75 8 70 14 73 17 -116 0
75 8 70 14 73 17 -113 0
75 8 70 14 73 17 -111 0
75 8 70 14 73 17 -114 0
75 8 70 14 73 17 -115 0
75 8 70 14 73 17 -112 0
75 41 76 42 70 46 -192 0
75 41 76 42 70 46 -195 0
75 41 76 42 70 46 -197 0
75 41 76 42 70 46 -194 0
75 41 76 42 70 46 -196 0
75 41 76 42 70 46 -193 0
75 41 76 42 70 73 -192 0
75 41 76 42 70 73 -195 0
75 41 76 42 70 73 -197 0
75 41 76 42 70 73 -194 0
75 41 76 42 70 73 -196 0
75 41 76 42 70 73 -193 0
75 41 76 42 46 40 -192 0
75 41 76 42 46 40 -195 0
75 41 76 42 46 40 -197 0
75 41 76 42 46 40 -194 0
75 41 76 42 46 40 -196 0
75 41 76 42 46 40 -193 0
75 41 76 42 73 40 -192 0
75 41 76 42 73 40 -195 0
75 41 76 42 73 40 -197 0
75 41 76 42 73 40 -194 0
75 41 76 42 73 40 -196 0
75 41 76 42 73 40 -193 0
75 41 76 70 46 73 -192 0
75 41 76 70 46 73 -195 0
75 41 76 70 46 73 -197 0
75 41 76 70 46 73 -194 0
75 41 76 70 46 73 -196 0
75 41 76 70 46 73 -193 0
75 41 76 70 73 40 -192 0
75 41 76 70 73 40 -195 0
75 41 76 70 73 40 -197 0
75 41 76 70 73 40 -194 0
75 41 76 70 73 40 -196 0
75 41 76 70 73 40 -193 0
75 41 42 70 46 40 -192 0
75 41 42 70 46 40 -195 0
75 41 42 70 46 40 -197 0
75 41 42 70 46 40 -194 0
75 41 42 70 46 40 -196 0
75 41 42 70 46 40 -193 0
75 41 42 46 73 40 -192 0
75 41 42 46 73 40 -195 0
75 41 42 46 73 40 -197 0
75 41 42 46 73 40 -194 0
75 41 42 46 73 40 -196 0
75 41 42 46 73 40 -193 0
75 41 70 46 73 40 -192 0
75 41 70 46 73 40 -195 0
75 41 70 46 73 40 -197 0
75 41 70 46 73 40 -194 0
75 41 70 46 73 40 -196 0
75 41 70 46 73 40 -193 0
75 22 76 18 70 20 -149 0
75 22 76 18 70 20 -144 0
75 22 76 18 70 20 -146 0
75 22 76 18 70 20 -148 0
75 22 76 18 70 20 -145 0
75 22 76 18 70 20 -147 0
75 22 76 18 70 73 -149 0
75 22 76 18 70 73 -144 0
75 22 76 18 70 73 -146 0
75 22 76 18 70 73 -148 0
75 22 76 18 70 73 -145 0
75 22 76 18 70 73 -147 0
75 22 76 18 20 19 -149 0
75 22 76 18 20 19 -144 0
75 22 76 18 20 19 -146 0
75 22 76 18 20 19 -148 0
75 22 76 18 20 19 -145 0
75 22 76 18 20 19 -147 0
75 22 76 18 73 19 -149 0
75 22 76 18 73 19 -144 0
75 22 76 18 73 19 -146 0
75 22 76 18 73 19 -148 0
75 22 76 18 73 19 -145 0
75 22 76 18 73 19 -147 0
75 22 76 70 20 73 -149 0
75 22 76 70 20 73 -144 0
75 22 76 70 20 73 -146 0
75 22 76 70 20 73 -148 0
75 22 76 70 20 73 -145 0
75 22 76 70 20 73 -147 0
75 22 76 70 73 19 -149 0
75 22 76 70 73 19 -144 0
75 22 76 70 73 19 -146 0
75 22 76 70 73 19 -148 0
75 22 76 70 73 19 -145 0
75 22 76 70 73 19 -147 0
75 22 18 70 20 19 -149 0
75 22 18 70 20 19 -144 0
75 22 18 70 20 19 -146 0
75 22 18 70 20 19 -148 0
75 22 18 70 20 19 -145 0
75 22 18 70 20 19 -147 0
75 22 18 20 73 19 -149 0
75 22 18 20 73 19 -144 0
75 22 18 20 73 19 -146 0
75 22 18 20 73 19 -148 0
75 22 18 20 73 19 -145 0
75 22 18 20 73 19 -147 0
75 22 70 20 73 19 -149 0
75 22 70 20 73 19 -144 0
75 22 70 20 73 19 -146 0
75 22 70 20 73 19 -148 0
75 22 70 20 73 19 -145 0
75 22 70 20 73 19 -147 0
75 1 76 2 70 5 -71 0
75 1 76 2 70 5 -74 0
75 1 76 2 70 5 -72 0
75 1 76 2 70 5 -77 0
75 1 76 2 70 5 -69 0
75 1 76 2 70 5 -68 0
75 1 76 2 70 73 -71 0
75 1 76 2 70 73 -74 0
75 1 76 2 70 73 -72 0
75 1 76 2 70 73 -77 0
75 1 76 2 70 73 -69 0
75 1 76 2 70 73 -68 0
75 1 76 2 5 3 -71 0
75 1 76 2 5 3 -74 0
75 1 76 2 5 3 -72 0
75 1 76 2 5 3 -77 0
75 1 76 2 5 3 -69 0
75 1 76 2 5 3 -68 0
75 1 76 2 73 3 -71 0
75 1 76 2 73 3 -74 0
75 1 76 2 73 3 -72 0
75 1 76 2 73 3 -77 0
75 1 76 2 73 3 -69 0
75 1 76 2 73 3 -68 0
75 1 76 70 5 73 -71 0
75 1 76 70 5 73 -74 0
75 1 76 70 5 73 -72 0
75 1 76 70 5 73 -77 0
75 1 76 70 5 73 -69 0
75 1 76 70 5 73 -68 0
75 1 76 70 73 3 -71 0
75 1 76 70 73 3 -74 0
75 1 76 70 73 3 -72 0
75 1 76 70 73 3 -77 0
75 1 76 70 73 3 -69 0
75 1 76 70 73 3 -68 0
75 1 2 70 5 3 -71 0
75 1 2 70 5 3 -74 0
75 1 2 70 5 3 -72 0
75 1 2 70 5 3 -77 0
75 1 2 70 5 3 -69 0
75 1 2 70 5 3 -68 0
75 1 2 5 73 3 -71 0
75 1 2 5 73 3 -74 0
75 1 2 5 73 3 -72 0
75 1 2 5 73 3 -77 0
75 1 2 5 73 3 -69 0
75 1 2 5 73 3 -68 0
75 1 70 5 73 3 -71 0
75 1 70 5 73 3 -74 0
75 1 70 5 73 3 -72 0
75 1 70 5 73 3 -77 0
75 1 70 5 73 3 -69 0
75 1 70 5 73 3 -68 0
75 29 76 34 70 73 -176 0
75 29 76 34 70 73 -171 0
75 29 76 34 70 73 -175 0
75 29 76 34 70 73 -172 0
75 29 76 34 70 73 -174 0
75 29 76 34 70 73 -173 0
75 29 76 70 30 73 -176 0
75 29 76 70 30 73 -171 0
75 29 76 70 30 73 -175 0
75 29 76 70 30 73 -172 0
75 29 76 70 30 73 -174 0
75 29 76 70 30 73 -173 0
75 76 65 70 66 73 -218 0
75 76 65 70 66 73 -221 0
75 76 65 70 66 73 -219 0
75 76 65 70 66 73 -216 0
75 76 65 70 66 73 -217 0
75 76 65 70 66 73 -220 0
75 76 65 70 73 59 -218 0
75 76 65 70 73 59 -221 0
75 76 65 70 73 59 -219 0
75 76 65 70 73 59 -216 0
75 76 65 70 73 59 -217 0
75 76 65 70 73 59 -220 0
75 76 51 70 54 73 -207 0
75 76 51 70 54 73 -209 0
75 76 51 70 54 73 -208 0
75 76 51 70 54 73 -212 0
75 76 51 70 54 73 -211 0
75 76 51 70 54 73 -210 0
75 76 51 70 73 53 -207 0
75 76 51 70 73 53 -209 0
75 76 51 70 73 53 -208 0
75 76 51 70 73 53 -212 0
75 76 51 70 73 53 -211 0
75 76 51 70 73 53 -210 0
75 76 12 70 14 73 -116 0
75 76 12 70 14 73 -113 0
75 76 12 70 14 73 -111 0
75 76 12 70 14 73 -114 0
75 76 12 70 14 73 -115 0
75 76 12 70 14 73 -112 0
75 76 12 70 73 17 -116 0
75 76 12 70 73 17 -113 0
75 76 12 70 73 17 -111 0
75 76 12 70 73 17 -114 0
75 76 12 70 73 17 -115 0
75 76 12 70 73 17 -112 0
75 76 42 70 46 73 -192 0
75 76 42 70 46 73 -195 0
75 76 42 70 46 73 -197 0
75 76 42 70 46 73 -194 0
75 76 42 70 46 73 -196 0
75 76 42 70 46 73 -193 0
75 76 42 70 73 40 -192 0
75 76 42 70 73 40 -195 0
75 76 42 70 73 40 -197 0
75 76 42 70 73 40 -194 0
75 76 42 70 73 40 -196 0
75 76 42 70 73 40 -193 0
75 76 18 70 20 73 -149 0
75 76 18 70 20 73 -144 0
75 76 18 70 20 73 -146 0
75 76 18 70 20 73 -148 0
75 76 18 70 20 73 -145 0
75 76 18 70 20 73 -147 0
75 76 18 70 73 19 -149 0
75 76 18 70 73 19 -144 0
75 76 18 70 73 19 -146 0
75 76 18 70 73 19 -148 0
75 76 18 70 73 19 -145 0
75 76 18 70 73 19 -147 0
75 76 2 70 5 73 -71 0
75 76 2 70 5 73 -74 0
75 76 2 70 5 73 -72 0
75 76 2 70 5 73 -77 0
75 76 2 70 5 73 -69 0
75 76 2 70 5 73 -68 0
75 76 2 70 73 3 -71 0
75 76 2 70 73 3 -74 0
75 76 2 70 73 3 -72 0
75 76 2 70 73 3 -77 0
75 76 2 70 73 3 -69 0
75 76 2 70 73 3 -68 0
75 76 34 70 30 73 -176 0
75 76 34 70 30 73 -171 0
75 76 34 70 30 73 -175 0
75 76 34 70 30 73 -172 0
75 76 34 70 30 73 -174 0
75 76 34 70 30 73 -173 0
75 76 70 66 73 59 -218 0
75 76 70 66 73 59 -221 0
75 76 70 66 73 59 -219 0
75 76 70 66 73 59 -216 0
75 76 70 66 73 59 -217 0
75 76 70 66 73 59 -220 0
75 76 70 54 73 53 -207 0
75 76 70 54 73 53 -209 0
75 76 70 54 73 53 -208 0
75 76 70 54 73 53 -212 0
75 76 70 54 73 53 -211 0
75 76 70 54 73 53 -210 0
75 76 70 14 73 17 -116 0
75 76 70 14 73 17 -113 0
75 76 70 14 73 17 -111 0
75 76 70 14 73 17 -114 0
75 76 70 14 73 17 -115 0
75 76 70 14 73 17 -112 0
75 76 70 46 73 40 -192 0
75 76 70 46 73 40 -195 0
75 76 70 46 73 40 -197 0
75 76 70 46 73 40 -194 0
75 76 70 46 73 40 -196 0
75 76 70 46 73 40 -193 0
75 76 70 20 73 19 -149 0
75 76 70 20 73 19 -144 0
75 76 70 20 73 19 -146 0
75 76 70 20 73 19 -148 0
75 76 70 20 73 19 -145 0
75 76 70 20 73 19 -147 0
75 76 70 5 73 3 -71 0
75 76 70 5 73 3 -74 0
75 76 70 5 73 3 -72 0
75 76 70 5 73 3 -77 0
75 76 70 5 73 3 -69 0
75 76 70 5 73 3 -68 0
62 50 65 51 66 54 -205 0
62 50 65 51 66 54 -202 0
62 50 65 51 66 54 -201 0
62 50 65 51 66 54 -204 0
62 50 65 51 66 54 -203 0
62 50 65 51 66 54 -206 0
62 50 65 51 66 59 -205 0
62 50 65 51 66 59 -202 0
62 50 65 51 66 59 -201 0
62 50 65 51 66 59 -204 0
62 50 65 51 66 59 -203 0
62 50 65 51 66 59 -206 0
62 50 65 51 54 53 -205 0
62 50 65 51 54 53 -202 0
62 50 65 51 54 53 -201 0
62 50 65 51 54 53 -204 0
62 50 65 51 54 53 -203 0
62 50 65 51 54 53 -206 0
62 50 65 51 59 53 -205 0
62 50 65 51 59 53 -202 0
62 50 65 51 59 53 -201 0
62 50 65 51 59 53 -204 0
62 50 65 51 59 53 -203 0
62 50 65 51 59 53 -206 0
62 50 65 66 54 59 -205 0
62 50 65 66 54 59 -202 0
62 50 65 66 54 59 -201 0
62 50 65 66 54 59 -204 0
62 50 65 66 54 59 -203 0
62 50 65 66 54 59 -206 0
62 50 65 66 59 53 -205 0
62 50 65 66 59 53 -202 0
62 50 65 66 59 53 -201 0
62 50 65 66 59 53 -204 0
62 50 65 66 59 53 -203 0
62 50 65 66 59 53 -206 0
62 50 51 66 54 53 -205 0
62 50 51 66 54 53 -202 0
62 50 51 66 54 53 -201 0
62 50 51 66 54 53 -204 0
62 50 51 66 54 53 -203 0
62 50 51 66 54 53 -206 0
62 50 51 54 59 53 -205 0
62 50 51 54 59 53 -202 0
62 50 51 54 59 53 -201 0
62 50 51 54 59 53 -204 0
62 50 51 54 59 53 -203 0
62 50 51 54 59 53 -206 0
62 50 66 54 59 53 -205 0
62 50 66 54 59 53 -202 0
62 50 66 54 59 53 -201 0
62 50 66 54 59 53 -204 0
62 50 66 54 59 53 -203 0
62 50 66 54 59 53 -206 0
62 8 65 12 66 14 -106 0
62 8 65 12 66 14 -105 0
62 8 65 12 66 14 -107 0
62 8 65 12 66 14 -109 0
62 8 65 12 66 14 -108 0
62 8 65 12 66 14 -110 0
62 8 65 12 66 59 -106 0
62 8 65 12 66 59 -105 0
62 8 65 12 66 59 -107 0
62 8 65 12 66 59 -109 0
62 8 65 12 66 59 -108 0
62 8 65 12 66 59 -110 0
62 8 65 12 14 17 -106 0
62 8 65 12 14 17 -105 0
62 8 65 12 14 17 -107 0
62 8 65 12 14 17 -109 0
62 8 65 12 14 17 -108 0
62 8 65 12 14 17 -110 0
62 8 65 12 59 17 -106 0
62 8 65 12 59 17 -105 0
62 8 65 12 59 17 -107 0
62 8 65 12 59 17 -109 0
62 8 65 12 59 17 -108 0
62 8 65 12 59 17 -110 0
62 8 65 66 14 59 -106 0
62 8 65 66 14 59 -105 0
62 8 65 66 14 59 -107 0
62 8 65 66 14 59 -109 0
62 8 65 66 14 59 -108 0
62 8 65 66 14 59 -110 0
62 8 65 66 59 17 -106 0
62 8 65 66 59 17 -105 0
62 8 65 66 59 17 -107 0
62 8 65 66 59 17 -109 0
62 8 65 66 59 17 -108 0
62 8 65 66 59 17 -110 0
62 8 12 66 14 17 -106 0
62 8 12 66 14 17 -105 0
62 8 12 66 14 17 -107 0
62 8 12 66 14 17 -109 0
62 8 12 66 14 17 -108 0
62 8 12 66 14 17 -110 0
62 8 12 14 59 17 -106 0
62 8 12 14 59 17 -105 0
62 8 12 14 59 17 -107 0
62 8 12 14 59 17 -109 0
62 8 12 14 59 17 -108 0
62 8 12 14 59 17 -110 0
62 8 66 14 59 17 -106 0
62 8 66 14 59 17 -105 0
62 8 66 14 59 17 -107 0
62 8 66 14 59 17 -109 0
62 8 66 14 59 17 -108 0
62 8 66 14 59 17 -110 0
62 41 65 42 66 46 -187 0
62 41 65 42 66 46 -188 0
62 41 65 42 66 46 -189 0
62 41 65 42 66 46 -190 0
62 41 65 42 66 46 -186 0
62 41 65 42 66 46 -191 0
62 41 65 42 66 59 -187 0
62 41 65 42 66 59 -188 0
62 41 65 42 66 59 -189 0
62 41 65 42 66 59 -190 0
62 41 65 42 66 59 -186 0
62 41 65 42 66 59 -191 0
62 41 65 42 46 40 -187 0
62 41 65 42 46 40 -188 0
62 41 65 42 46 40 -189 0
62 41 65 42 46 40 -190 0
62 41 65 42 46 40 -186 0
62 41 65 42 46 40 -191 0
62 41 65 42 59 40 -187 0
62 41 65 42 59 40 -188 0
62 41 65 42 59 40 -189 0
62 41 65 42 59 40 -190 0
62 41 65 42 59 40 -186 0
62 41 65 42 59 40 -191 0
62 41 65 66 46 59 -187 0
62 41 65 66 46 59 -188 0
62 41 65 66 46 59 -189 0
62 41 65 66 46 59 -190 0
62 41 65 66 46 59 -186 0
62 41 65 66 46 59 -191 0
62 41 65 66 59 40 -187 0
62 41 65 66 59 40 -188 0
62 41 65 66 59 40 -189 0
62 41 65 66 59 40 -190 0
62 41 65 66 59 40 -186 0
62 41 65 66 59 40 -191 0
62 41 42 66 46 40 -187 0
62 41 42 66 46 40 -188 0
62 41 42 66 46 40 -189 0
62 41 42 66 46 40 -190 0
62 41 42 66 46 40 -186 0
62 41 42 66 46 40 -191 0
62 41 42 46 59 40 -187 0
62 41 42 46 59 40 -188 0
62 41 42 46 59 40 -189 0
62 41 42 46 59 40 -190 0
62 41 42 46 59 40 -186 0
62 41 42 46 59 40 -191 0
62 41 66 46 59 40 -187 0
62 41 66 46 59 40 -188 0
62 41 66 46 59 40 -189 0
62 41 66 46 59 40 -190 0
62 41 66 46 59 40 -186 0
62 41 66 46 59 40 -191 0
62 22 65 18 66 20 -143 0
62 22 65 18 66 20 -139 0
62 22 65 18 66 20 -141 0
62 22 65 18 66 20 -138 0
62 22 65 18 66 20 -140 0
62 22 65 18 66 20 -142 0
62 22 65 18 66 59 -143 0
62 22 65 18 66 59 -139 0
62 22 65 18 66 59 -141 0
62 22 65 18 66 59 -138 0
62 22 65 18 66 59 -140 0
62 22 65 18 66 59 -142 0
62 22 65 18 20 19 -143 0
62 22 65 18 20 19 -139 0
62 22 65 18 20 19 -141 0
62 22 65 18 20 19 -138 0
62 22 65 18 20 19 -140 0
62 22 65 18 20 19 -142 0
62 22 65 18 59 19 -143 0
62 22 65 18 59 19 -139 0
62 22 65 18 59 19 -141 0
62 22 65 18 59 19 -138 0
62 22 65 18 59 19 -140 0
62 22 65 18 59 19 -142 0
62 22 65 66 20 59 -143 0
62 22 65 66 20 59 -139 0
62 22 65 66 20 59 -141 0
62 22 65 66 20 59 -138 0
62 22 65 66 20 59 -140 0
62 22 65 66 20 59 -142 0
62 22 65 66 59 19 -143 0
62 22 65 66 59 19 -139 0
62 22 65 66 59 19 -141 0
62 22 65 66 59 19 -138 0
62 22 65 66 59 19 -140 0
62 22 65 66 59 19 -142 0
62 22 18 66 20 19 -143 0
62 22 18 66 20 19 -139 0
62 22 18 66 20 19 -141 0
62 22 18 66 20 19 -138 0
62 22 18 66 20 19 -140 0
62 22 18 66 20 19 -142 0
62 22 18 20 59 19 -143 0
62 22 18 20 59 19 -139 0
62 22 18 20 59 19 -141 0
62 22 18 20 59 19 -138 0
62 22 18 20 59 19 -140 0
62 22 18 20 59 19 -142 0
62 22 66 20 59 19 -143 0
62 22 66 20 59 19 -139 0
62 22 66 20 59 19 -141 0
62 22 66 20 59 19 -138 0
62 22 66 20 59 19 -140 0
62 22 66 20 59 19 -142 0
62 1 65 2 66 5 -67 0
62 1 65 2 66 5 -60 0
62 1 65 2 66 5 -58 0
62 1 65 2 66 5 -63 0
62 1 65 2 66 5 -61 0
62 1 65 2 66 5 -64 0
62 1 65 2 66 59 -67 0
62 1 65 2 66 59 -60 0
62 1 65 2 66 59 -58 0
62 1 65 2 66 59 -63 0
62 1 65 2 66 59 -61 0
62 1 65 2 66 59 -64 0
62 1 65 2 5 3 -67 0
62 1 65 2 5 3 -60 0
62 1 65 2 5 3 -58 0
62 1 65 2 5 3 -63 0
62 1 65 2 5 3 -61 0
62 1 65 2 5 3 -64 0
62 1 65 2 59 3 -67 0
62 1 65 2 59 3 -60 0
62 1 65 2 59 3 -58 0
62 1 65 2 59 3 -63 0
62 1 65 2 59 3 -61 0
62 1 65 2 59 3 -64 0
62 1 65 66 5 59 -67 0
62 1 65 66 5 59 -60 0
62 1 65 66 5 59 -58 0
62 1 65 66 5 59 -63 0
62 1 65 66 5 59 -61 0
62 1 65 66 5 59 -64 0
62 1 65 66 59 3 -67 0
62 1 65 66 59 3 -60 0
62 1 65 66 59 3 -58 0
62 1 65 66 59 3 -63 0
62 1 65 66 59 3 -61 0
62 1 65 66 59 3 -64 0
62 1 2 66 5 3 -67 0
62 1 2 66 5 3 -60 0
62 1 2 66 5 3 -58 0
62 1 2 66 5 3 -63 0
62 1 2 66 5 3 -61 0
62 1 2 66 5 3 -64 0
62 1 2 5 59 3 -67 0
62 1 2 5 59 3 -60 0
62 1 2 5 59 3 -58 0
62 1 2 5 59 3 -63 0
62 1 2 5 59 3 -61 0
62 1 2 5 59 3 -64 0
62 1 66 5 59 3 -67 0
62 1 66 5 59 3 -60 0
62 1 66 5 59 3 -58 0
62 1 66 5 59 3 -63 0
62 1 66 5 59 3 -61 0
62 1 66 5 59 3 -64 0
62 29 65 34 66 59 -166 0
62 29 65 34 66 59 -167 0
62 29 65 34 66 59 -170 0
62 29 65 34 66 59 -169 0
62 29 65 34 66 59 -168 0
62 29 65 34 66 59 -165 0
62 29 65 66 30 59 -166 0
62 29 65 66 30 59 -167 0
62 29 65 66 30 59 -170 0
62 29 65 66 30 59 -169 0
62 29 65 66 30 59 -168 0
62 29 65 66 30 59 -165 0
62 76 65 70 66 59 -218 0
62 76 65 70 66 59 -221 0
62 76 65 70 66 59 -219 0
62 76 65 70 66 59 -216 0
62 76 65 70 66 59 -217 0
62 76 65 70 66 59 -220 0
62 76 65 66 73 59 -218 0
62 76 65 66 73 59 -221 0
62 76 65 66 73 59 -219 0
62 76 65 66 73 59 -216 0
62 76 65 66 73 59 -217 0
62 76 65 66 73 59 -220 0
62 65 51 66 54 59 -205 0
62 65 51 66 54 59 -202 0
62 65 51 66 54 59 -201 0
62 65 51 66 54 59 -204 0
62 65 51 66 54 59 -203 0
62 65 51 66 54 59 -206 0
62 65 51 66 59 53 -205 0
62 65 51 66 59 53 -202 0
62 65 51 66 59 53 -201 0
62 65 51 66 59 53 -204 0
62 65 51 66 59 53 -203 0
62 65 51 66 59 53 -206 0
62 65 12 66 14 59 -106 0
62 65 12 66 14 59 -105 0
62 65 12 66 14 59 -107 0
62 65 12 66 14 59 -109 0
62 65 12 66 14 59 -108 0
62 65 12 66 14 59 -110 0
62 65 12 66 59 17 -106 0
62 65 12 66 59 17 -105 0
62 65 12 66 59 17 -107 0
62 65 12 66 59 17 -109 0
62 65 12 66 59 17 -108 0
62 65 12 66 59 17 -110 0
62 65 42 66 46 59 -187 0
62 65 42 66 46 59 -188 0
62 65 42 66 46 59 -189 0
62 65 42 66 46 59 -190 0
62 65 42 66 46 59 -186 0
62 65 42 66 46 59 -191 0
62 65 42 66 59 40 -187 0
62 65 42 66 59 40 -188 0
62 65 42 66 59 40 -189 0
62 65 42 66 59 40 -190 0
62 65 42 66 59 40 -186 0
62 65 42 66 59 40 -191 0
62 65 18 66 20 59 -143 0
62 65 18 66 20 59 -139 0
62 65 18 66 20 59 -141 0
62 65 18 66 20 59 -138 0
62 65 18 66 20 59 -140 0
62 65 18 66 20 59 -142 0
62 65 18 66 59 19 -143 0
62 65 18 66 59 19 -139 0
62 65 18 66 59 19 -141 0
62 65 18 66 59 19 -138 0
62 65 18 66 59 19 -140 0
62 65 18 66 59 19 -142 0
62 65 2 66 5 59 -67 0
62 65 2 66 5 59 -60 0
62 65 2 66 5 59 -58 0
62 65 2 66 5 59 -63 0
62 65 2 66 5 59 -61 0
62 65 2 66 5 59 -64 0
62 65 2 66 59 3 -67 0
62 65 2 66 59 3 -60 0
62 65 2 66 59 3 -58 0
62 65 2 66 59 3 -63 0
62 65 2 66 59 3 -61 0
62 65 2 66 59 3 -64 0
62 65 34 66 30 59 -166 0
62 65 34 66 30 59 -167 0
62 65 34 66 30 59 -170 0
62 65 34 66 30 59 -169 0
62 65 34 66 30 59 -168 0
62 65 34 66 30 59 -165 0
62 65 70 66 73 59 -218 0
62 65 70 66 73 59 -221 0
62 65 70 66 73 59 -219 0
62 65 70 66 73 59 -216 0
62 65 70 66 73 59 -217 0
62 65 70 66 73 59 -220 0
62 65 66 54 59 53 -205 0
62 65 66 54 59 53 -202 0
62 65 66 54 59 53 -201 0
62 65 66 54 59 53 -204 0
62 65 66 54 59 53 -203 0
62 65 66 54 59 53 -206 0
62 65 66 14 59 17 -106 0
62 65 66 14 59 17 -105 0
62 65 66 14 59 17 -107 0
62 65 66 14 59 17 -109 0
62 65 66 14 59 17 -108 0
62 65 66 14 59 17 -110 0
62 65 66 46 59 40 -187 0
62 65 66 46 59 40 -188 0
62 65 66 46 59 40 -189 0
62 65 66 46 59 40 -190 0
62 65 66 46 59 40 -186 0
62 65 66 46 59 40 -191 0
62 65 66 20 59 19 -143 0
62 65 66 20 59 19 -139 0
62 65 66 20 59 19 -141 0
62 65 66 20 59 19 -138 0
62 65 66 20 59 19 -140 0
62 65 66 20 59 19 -142 0
62 65 66 5 59 3 -67 0
62 65 66 5 59 3 -60 0
62 65 66 5 59 3 -58 0
62 65 66 5 59 3 -63 0
62 65 66 5 59 3 -61 0
62 65 66 5 59 3 -64 0
50 8 51 12 54 14 -100 0
50 8 51 12 54 14 -102 0
50 8 51 12 54 14 -103 0
50 8 51 12 54 14 -104 0
50 8 51 12 54 14 -101 0
50 8 51 12 54 14 -99 0
50 8 51 12 54 53 -100 0
50 8 51 12 54 53 -102 0
50 8 51 12 54 53 -103 0
50 8 51 12 54 53 -104 0
50 8 51 12 54 53 -101 0
50 8 51 12 54 53 -99 0
50 8 51 12 14 17 -100 0
50 8 51 12 14 17 -102 0
50 8 51 12 14 17 -103 0
50 8 51 12 14 17 -104 0
50 8 51 12 14 17 -101 0
50 8 51 12 14 17 -99 0
50 8 51 12 53 17 -100 0
50 8 51 12 53 17 -102 0
50 8 51 12 53 17 -103 0
50 8 51 12 53 17 -104 0
50 8 51 12 53 17 -101 0
50 8 51 12 53 17 -99 0
50 8 51 54 14 53 -100 0
50 8 51 54 14 53 -102 0
50 8 51 54 14 53 -103 0
50 8 51 54 14 53 -104 0
50 8 51 54 14 53 -101 0
50 8 51 54 14 53 -99 0
50 8 51 54 53 17 -100 0
50 8 51 54 53 17 -102 0
50 8 51 54 53 17 -103 0
50 8 51 54 53 17 -104 0
50 8 51 54 53 17 -101 0
50 8 51 54 53 17 -99 0
50 8 12 54 14 17 -100 0
50 8 12 54 14 17 -102 0
50 8 12 54 14 17 -103 0
50 8 12 54 14 17 -104 0
50 8 12 54 14 17 -101 0
50 8 12 54 14 17 -99 0
50 8 12 14 53 17 -100 0
50 8 12 14 53 17 -102 0
50 8 12 14 53 17 -103 0
50 8 12 14 53 17 -104 0
50 8 12 14 53 17 -101 0
50 8 12 14 53 17 -99 0
50 8 54 14 53 17 -100 0
50 8 54 14 53 17 -102 0
50 8 54 14 53 17 -103 0
50 8 54 14 53 17 -104 0
50 8 54 14 53 17 -101 0
50 8 54 14 53 17 -99 0
50 41 51 42 54 46 -185 0
50 41 51 42 54 46 -180 0
50 41 51 42 54 46 -181 0
50 41 51 42 54 46 -182 0
50 41 51 42 54 46 -184 0
50 41 51 42 54 46 -183 0
50 41 51 42 54 53 -185 0
50 41 51 42 54 53 -180 0
50 41 51 42 54 53 -181 0
50 41 51 42 54 53 -182 0
50 41 51 42 54 53 -184 0
50 41 51 42 54 53 -183 0
50 41 51 42 46 40 -185 0
50 41 51 42 46 40 -180 0
50 41 51 42 46 40 -181 0
50 41 51 42 46 40 -182 0
50 41 51 42 46 40 -184 0
50 41 51 42 46 40 -183 0
50 41 51 42 53 40 -185 0
50 41 51 42 53 40 -180 0
50 41 51 42 53 40 -181 0
50 41 51 42 53 40 -182 0
50 41 51 42 53 40 -184 0
50 41 51 42 53 40 -183 0
50 41 51 54 46 53 -185 0
50 41 51 54 46 53 -180 0
50 41 51 54 46 53 -181 0
50 41 51 54 46 53 -182 0
50 41 51 54 46 53 -184 0
50 41 51 54 46 53 -183 0
50 41 51 54 53 40 -185 0
50 41 51 54 53 40 -180 0
50 41 51 54 53 40 -181 0
50 41 51 54 53 40 -182 0
50 41 51 54 53 40 -184 0
50 41 51 54 53 40 -183 0
50 41 42 54 46 40 -185 0
50 41 42 54 46 40 -180 0
50 41 42 54 46 40 -181 0
50 41 42 54 46 40 -182 0
50 41 42 54 46 40 -184 0
50 41 42 54 46 40 -183 0
50 41 42 46 53 40 -185 0
50 41 42 46 53 40 -180 0
50 41 42 46 53 40 -181 0
50 41 42 46 53 40 -182 0
50 41 42 46 53 40 -184 0
50 41 42 46 53 40 -183 0
50 41 54 46 53 40 -185 0
50 41 54 46 53 40 -180 0
50 41 54 46 53 40 -181 0
50 41 54 46 53 40 -182 0
50 41 54 46 53 40 -184 0
50 41 54 46 53 40 -183 0
50 22 51 18 54 20 -135 0
50 22 51 18 54 20 -132 0
50 22 51 18 54 20 -136 0
50 22 51 18 54 20 -134 0
50 22 51 18 54 20 -133 0
50 22 51 18 54 20 -137 0
50 22 51 18 54 53 -135 0
50 22 51 18 54 53 -132 0
50 22 51 18 54 53 -136 0
50 22 51 18 54 53 -134 0
50 22 51 18 54 53 -133 0
50 22 51 18 54 53 -137 0
50 22 51 18 20 19 -135 0
50 22 51 18 20 19 -132 0
50 22 51 18 20 19 -136 0
50 22 51 18 20 19 -134 0
50 22 51 18 20 19 -133 0
50 22 51 18 20 19 -137 0
50 22 51 18 53 19 -135 0
50 22 51 18 53 19 -132 0
50 22 51 18 53 19 -136 0
50 22 51 18 53 19 -134 0
50 22 51 18 53 19 -133 0
50 22 51 18 53 19 -137 0
50 22 51 54 20 53 -135 0
50 22 51 54 20 53 -132 0
50 22 51 54 20 53 -136 0
50 22 51 54 20 53 -134 0
50 22 51 54 20 53 -133 0
50 22 51 54 20 53 -137 0
50 22 51 54 53 19 -135 0
50 22 51 54 53 19 -132 0
50 22 51 54 53 19 -136 0
50 22 51 54 53 19 -134 0
50 22 51 54 53 19 -133 0
50 22 51 54 53 19 -137 0
50 22 18 54 20 19 -135 0
50 22 18 54 20 19 -132 0
50 22 18 54 20 19 -136 0
50 22 18 54 20 19 -134 0
50 22 18 54 20 19 -133 0
50 22 18 54 20 19 -137 0
50 22 18 20 53 19 -135 0
50 22 18 20 53 19 -132 0
50 22 18 20 53 19 -136 0
50 22 18 20 53 19 -134 0
50 22 18 20 53 19 -133 0
50 22 18 20 53 19 -137 0
50 22 54 20 53 19 -135 0
50 22 54 20 53 19 -132 0
50 22 54 20 53 19 -136 0
50 22 54 20 53 19 -134 0
50 22 54 20 53 19 -133 0
50 22 54 20 53 19 -137 0
50 1 51 2 54 5 -57 0
50 1 51 2 54 5 -55 0
50 1 51 2 54 5 -49 0
50 1 51 2 54 5 -52 0
50 1 51 2 54 5 -48 0
50 1 51 2 54 5 -56 0
50 1 51 2 54 53 -57 0
50 1 51 2 54 53 -55 0
50 1 51 2 54 53 -49 0
50 1 51 2 54 53 -52 0
50 1 51 2 54 53 -48 0
50 1 51 2 54 53 -56 0
50 1 51 2 5 3 -57 0
50 1 51 2 5 3 -55 0
50 1 51 2 5 3 -49 0
50 1 51 2 5 3 -52 0
50 1 51 2 5 3 -48 0
50 1 51 2 5 3 -56 0
50 1 51 2 53 3 -57 0
50 1 51 2 53 3 -55 0
50 1 51 2 53 3 -49 0
50 1 51 2 53 3 -52 0
50 1 51 2 53 3 -48 0
50 1 51 2 53 3 -56 0
50 1 51 54 5 53 -57 0
50 1 51 54 5 53 -55 0
50 1 51 54 5 53 -49 0
50 1 51 54 5 53 -52 0
50 1 51 54 5 53 -48 0
50 1 51 54 5 53 -56 0
50 1 51 54 53 3 -57 0
50 1 51 54 53 3 -55 0
50 1 51 54 53 3 -49 0
50 1 51 54 53 3 -52 0
50 1 51 54 53 3 -48 0
50 1 51 54 53 3 -56 0
50 1 2 54 5 3 -57 0
50 1 2 54 5 3 -55 0
50 1 2 54 5 3 -49 0
50 1 2 54 5 3 -52 0
50 1 2 54 5 3 -48 0
50 1 2 54 5 3 -56 0
50 1 2 5 53 3 -57 0
50 1 2 5 53 3 -55 0
50 1 2 5 53 3 -49 0
50 1 2 5 53 3 -52 0
50 1 2 5 53 3 -48 0
50 1 2 5 53 3 -56 0
50 1 54 5 53 3 -57 0
50 1 54 5 53 3 -55 0
50 1 54 5 53 3 -49 0
50 1 54 5 53 3 -52 0
50 1 54 5 53 3 -48 0
50 1 54 5 53 3 -56 0
50 29 51 34 54 53 -160 0
50 29 51 34 54 53 -159 0
50 29 51 34 54 53 -161 0
50 29 51 34 54 53 -164 0
50 29 51 34 54 53 -163 0
50 29 51 34 54 53 -162 0
50 29 51 54 30 53 -160 0
50 29 51 54 30 53 -159 0
50 29 51 54 30 53 -161 0
50 29 51 54 30 53 -164 0
50 29 51 54 30 53 -163 0
50 29 51 54 30 53 -162 0
50 76 51 70 54 53 -207 0
50 76 51 70 54 53 -209 0
50 76 51 70 54 53 -208 0
50 76 51 70 54 53 -212 0
50 76 51 70 54 53 -211 0
50 76 51 70 54 53 -210 0
50 76 51 54 73 53 -207 0
50 76 51 54 73 53 -209 0
50 76 51 54 73 53 -208 0
50 76 51 54 73 53 -212 0
50 76 51 54 73 53 -211 0
50 76 51 54 73 53 -210 0
50 65 51 66 54 53 -205 0
50 65 51 66 54 53 -202 0
50 65 51 66 54 53 -201 0
50 65 51 66 54 53 -204 0
50 65 51 66 54 53 -203 0
50 65 51 66 54 53 -206 0
50 65 51 54 59 53 -205 0
50 65 51 54 59 53 -202 0
50 65 51 54 59 53 -201 0
50 65 51 54 59 53 -204 0
50 65 51 54 59 53 -203 0
50 65 51 54 59 53 -206 0
50 51 12 54 14 53 -100 0
50 51 12 54 14 53 -102 0
50 51 12 54 14 53 -103 0
50 51 12 54 14 53 -104 0
50 51 12 54 14 53 -101 0
50 51 12 54 14 53 -99 0
50 51 12 54 53 17 -100 0
50 51 12 54 53 17 -102 0
50 51 12 54 53 17 -103 0
50 51 12 54 53 17 -104 0
50 51 12 54 53 17 -101 0
50 51 12 54 53 17 -99 0
50 51 42 54 46 53 -185 0
50 51 42 54 46 53 -180 0
50 51 42 54 46 53 -181 0
50 51 42 54 46 53 -182 0
50 51 42 54 46 53 -184 0
50 51 42 54 46 53 -183 0
50 51 42 54 53 40 -185 0
50 51 42 54 53 40 -180 0
50 51 42 54 53 40 -181 0
50 51 42 54 53 40 -182 0
50 51 42 54 53 40 -184 0
50 51 42 54 53 40 -183 0
50 51 18 54 20 53 -135 0
50 51 18 54 20 53 -132 0
50 51 18 54 20 53 -136 0
50 51 18 54 20 53 -134 0
50 51 18 54 20 53 -133 0
50 51 18 54 20 53 -137 0
50 51 18 54 53 19 -135 0
50 51 18 54 53 19 -132 0
50 51 18 54 53 19 -136 0
50 51 18 54 53 19 -134 0
50 51 18 54 53 19 -133 0
50 51 18 54 53 19 -137 0
50 51 2 54 5 53 -57 0
50 51 2 54 5 53 -55 0
50 51 2 54 5 53 -49 0
50 51 2 54 5 53 -52 0
50 51 2 54 5 53 -48 0
50 51 2 54 5 53 -56 0
50 51 2 54 53 3 -57 0
50 51 2 54 53 3 -55 0
50 51 2 54 53 3 -49 0
50 51 2 54 53 3 -52 0
50 51 2 54 53 3 -48 0
50 51 2 54 53 3 -56 0
50 51 34 54 30 53 -160 0
50 51 34 54 30 53 -159 0
50 51 34 54 30 53 -161 0
50 51 34 54 30 53 -164 0
50 51 34 54 30 53 -163 0
50 51 34 54 30 53 -162 0
50 51 70 54 73 53 -207 0
50 51 70 54 73 53 -209 0
50 51 70 54 73 53 -208 0
50 51 70 54 73 53 -212 0
50 51 70 54 73 53 -211 0
50 51 70 54 73 53 -210 0
50 51 66 54 59 53 -205 0
50 51 66 54 59 53 -202 0
50 51 66 54 59 53 -201 0
50 51 66 54 59 53 -204 0
50 51 66 54 59 53 -203 0
50 51 66 54 59 53 -206 0
50 51 54 14 53 17 -100 0
50 51 54 14 53 17 -102 0
50 51 54 14 53 17 -103 0
50 51 54 14 53 17 -104 0
50 51 54 14 53 17 -101 0
50 51 54 14 53 17 -99 0
50 51 54 46 53 40 -185 0
50 51 54 46 53 40 -180 0
50 51 54 46 53 40 -181 0
50 51 54 46 53 40 -182 0
50 51 54 46 53 40 -184 0
50 51 54 46 53 40 -183 0
50 51 54 20 53 19 -135 0
50 51 54 20 53 19 -132 0
50 51 54 20 53 19 -136 0
50 51 54 20 53 19 -134 0
50 51 54 20 53 19 -133 0
50 51 54 20 53 19 -137 0
50 51 54 5 53 3 -57 0
50 51 54 5 53 3 -55 0
50 51 54 5 53 3 -49 0
50 51 54 5 53 3 -52 0
50 51 54 5 53 3 -48 0
50 51 54 5 53 3 -56 0
8 41 12 42 14 46 -93 0
8 41 12 42 14 46 -96 0
8 41 12 42 14 46 -95 0
8 41 12 42 14 46 -94 0
8 41 12 42 14 46 -98 0
8 41 12 42 14 46 -97 0
8 41 12 42 14 17 -93 0
8 41 12 42 14 17 -96 0
8 41 12 42 14 17 -95 0
8 41 12 42 14 17 -94 0
8 41 12 42 14 17 -98 0
8 41 12 42 14 17 -97 0
8 41 12 42 46 40 -93 0
8 41 12 42 46 40 -96 0
8 41 12 42 46 40 -95 0
8 41 12 42 46 40 -94 0
8 41 12 42 46 40 -98 0
8 41 12 42 46 40 -97 0
8 41 12 42 17 40 -93 0
8 41 12 42 17 40 -96 0
8 41 12 42 17 40 -95 0
8 41 12 42 17 40 -94 0
8 41 12 42 17 40 -98 0
8 41 12 42 17 40 -97 0
8 41 12 14 46 17 -93 0
8 41 12 14 46 17 -96 0
8 41 12 14 46 17 -95 0
8 41 12 14 46 17 -94 0
8 41 12 14 46 17 -98 0
8 41 12 14 46 17 -97 0
8 41 12 14 17 40 -93 0
8 41 12 14 17 40 -96 0
8 41 12 14 17 40 -95 0
8 41 12 14 17 40 -94 0
8 41 12 14 17 40 -98 0
8 41 12 14 17 40 -97 0
8 41 42 14 46 40 -93 0
8 41 42 14 46 40 -96 0
8 41 42 14 46 40 -95 0
8 41 42 14 46 40 -94 0
8 41 42 14 46 40 -98 0
8 41 42 14 46 40 -97 0
8 41 42 46 17 40 -93 0
8 41 42 46 17 40 -96 0
8 41 42 46 17 40 -95 0
8 41 42 46 17 40 -94 0
8 41 42 46 17 40 -98 0
8 41 42 46 17 40 -97 0
8 41 14 46 17 40 -93 0
8 41 14 46 17 40 -96 0
8 41 14 46 17 40 -95 0
8 41 14 46 17 40 -94 0
8 41 14 46 17 40 -98 0
8 41 14 46 17 40 -97 0
8 22 12 18 14 20 -85 0
8 22 12 18 14 20 -86 0
8 22 12 18 14 20 -83 0
8 22 12 18 14 20 -84 0
8 22 12 18 14 20 -81 0
8 22 12 18 14 20 -82 0
8 22 12 18 14 17 -85 0
8 22 12 18 14 17 -86 0
8 22 12 18 14 17 -83 0
8 22 12 18 14 17 -84 0
8 22 12 18 14 17 -81 0
8 22 12 18 14 17 -82 0
8 22 12 18 20 19 -85 0
8 22 12 18 20 19 -86 0
8 22 12 18 20 19 -83 0
8 22 12 18 20 19 -84 0
8 22 12 18 20 19 -81 0
8 22 12 18 20 19 -82 0
8 22 12 18 17 19 -85 0
8 22 12 18 17 19 -86 0
8 22 12 18 17 19 -83 0
8 22 12 18 17 19 -84 0
8 22 12 18 17 19 -81 0
8 22 12 18 17 19 -82 0
8 22 12 14 20 17 -85 0
8 22 12 14 20 17 -86 0
8 22 12 14 20 17 -83 0
8 22 12 14 20 17 -84 0
8 22 12 14 20 17 -81 0
8 22 12 14 20 17 -82 0
8 22 12 14 17 19 -85 0
8 22 12 14 17 19 -86 0
8 22 12 14 17 19 -83 0
8 22 12 14 17 19 -84 0
8 22 12 14 17 19 -81 0
8 22 12 14 17 19 -82 0
8 22 18 14 20 19 -85 0
8 22 18 14 20 19 -86 0
8 22 18 14 20 19 -83 0
8 22 18 14 20 19 -84 0
8 22 18 14 20 19 -81 0
8 22 18 14 20 19 -82 0
8 22 18 20 17 19 -85 0
8 22 18 20 17 19 -86 0
8 22 18 20 17 19 -83 0
8 22 18 20 17 19 -84 0
8 22 18 20 17 19 -81 0
8 22 18 20 17 19 -82 0
8 22 14 20 17 19 -85 0
8 22 14 20 17 19 -86 0
8 22 14 20 17 19 -83 0
8 22 14 20 17 19 -84 0
8 22 14 20 17 19 -81 0
8 22 14 20 17 19 -82 0
8 1 12 2 14 5 -9 0
8 1 12 2 14 5 -10 0
8 1 12 2 14 5 -16 0
8 1 12 2 14 5 -15 0
8 1 12 2 14 5 -13 0
8 1 12 2 14 5 -11 0
8 1 12 2 14 17 -9 0
8 1 12 2 14 17 -10 0
8 1 12 2 14 17 -16 0
8 1 12 2 14 17 -15 0
8 1 12 2 14 17 -13 0
8 1 12 2 14 17 -11 0
8 1 12 2 5 3 -9 0
8 1 12 2 5 3 -10 0
8 1 12 2 5 3 -16 0
8 1 12 2 5 3 -15 0
8 1 12 2 5 3 -13 0
8 1 12 2 5 3 -11 0
8 1 12 2 17 3 -9 0
8 1 12 2 17 3 -10 0
8 1 12 2 17 3 -16 0
8 1 12 2 17 3 -15 0
8 1 12 2 17 3 -13 0
8 1 12 2 17 3 -11 0
8 1 12 14 5 17 -9 0
8 1 12 14 5 17 -10 0
8 1 12 14 5 17 -16 0
8 1 12 14 5 17 -15 0
8 1 12 14 5 17 -13 0
8 1 12 14 5 17 -11 0
8 1 12 14 17 3 -9 0
8 1 12 14 17 3 -10 0
8 1 12 14 17 3 -16 0
8 1 12 14 17 3 -15 0
8 1 12 14 17 3 -13 0
8 1 12 14 17 3 -11 0
8 1 2 14 5 3 -9 0
8 1 2 14 5 3 -10 0
8 1 2 14 5 3 -16 0
8 1 2 14 5 3 -15 0
8 1 2 14 5 3 -13 0
8 1 2 14 5 3 -11 0
8 1 2 5 17 3 -9 0
8 1 2 5 17 3 -10 0
8 1 2 5 17 3 -16 0
8 1 2 5 17 3 -15 0
8 1 2 5 17 3 -13 0
8 1 2 5 17 3 -11 0
8 1 14 5 17 3 -9 0
8 1 14 5 17 3 -10 0
8 1 14 5 17 3 -16 0
8 1 14 5 17 3 -15 0
8 1 14 5 17 3 -13 0
8 1 14 5 17 3 -11 0
8 29 12 34 14 17 -91 0
8 29 12 34 14 17 -89 0
8 29 12 34 14 17 -92 0
8 29 12 34 14 17 -90 0
8 29 12 34 14 17 -88 0
8 29 12 34 14 17 -87 0
8 29 12 14 30 17 -91 0
8 29 12 14 30 17 -89 0
8 29 12 14 30 17 -92 0
8 29 12 14 30 17 -90 0
8 29 12 14 30 17 -88 0
8 29 12 14 30 17 -87 0
8 76 12 70 14 17 -116 0
8 76 12 70 14 17 -113 0
8 76 12 70 14 17 -111 0
8 76 12 70 14 17 -114 0
8 76 12 70 14 17 -115 0
8 76 12 70 14 17 -112 0
8 76 12 14 73 17 -116 0
8 76 12 14 73 17 -113 0
8 76 12 14 73 17 -111 0
8 76 12 14 73 17 -114 0
8 76 12 14 73 17 -115 0
8 76 12 14 73 17 -112 0
8 65 12 66 14 17 -106 0
8 65 12 66 14 17 -105 0
8 65 12 66 14 17 -107 0
8 65 12 66 14 17 -109 0
8 65 12 66 14 17 -108 0
8 65 12 66 14 17 -110 0
8 65 12 14 59 17 -106 0
8 65 12 14 59 17 -105 0
8 65 12 14 59 17 -107 0
8 65 12 14 59 17 -109 0
8 65 12 14 59 17 -108 0
8 65 12 14 59 17 -110 0
8 51 12 54 14 17 -100 0
8 51 12 54 14 17 -102 0
8 51 12 54 14 17 -103 0
8 51 12 54 14 17 -104 0
8 51 12 54 14 17 -101 0
8 51 12 54 14 17 -99 0
8 51 12 14 53 17 -100 0
8 51 12 14 53 17 -102 0
8 51 12 14 53 17 -103 0
8 51 12 14 53 17 -104 0
8 51 12 14 53 17 -101 0
8 51 12 14 53 17 -99 0
8 12 42 14 46 17 -93 0
8 12 42 14 46 17 -96 0
8 12 42 14 46 17 -95 0
8 12 42 14 46 17 -94 0
8 12 42 14 46 17 -98 0
8 12 42 14 46 17 -97 0
8 12 42 14 17 40 -93 0
8 12 42 14 17 40 -96 0
8 12 42 14 17 40 -95 0
8 12 42 14 17 40 -94 0
8 12 42 14 17 40 -98 0
8 12 42 14 17 40 -97 0
8 12 18 14 20 17 -85 0
8 12 18 14 20 17 -86 0
8 12 18 14 20 17 -83 0
8 12 18 14 20 17 -84 0
8 12 18 14 20 17 -81 0
8 12 18 14 20 17 -82 0
8 12 18 14 17 19 -85 0
8 12 18 14 17 19 -86 0
8 12 18 14 17 19 -83 0
8 12 18 14 17 19 -84 0
8 12 18 14 17 19 -81 0
8 12 18 14 17 19 -82 0
8 12 2 14 5 17 -9 0
8 12 2 14 5 17 -10 0
8 12 2 14 5 17 -16 0
8 12 2 14 5 17 -15 0
8 12 2 14 5 17 -13 0
8 12 2 14 5 17 -11 0
8 12 2 14 17 3 -9 0
8 12 2 14 17 3 -10 0
8 12 2 14 17 3 -16 0
8 12 2 14 17 3 -15 0
8 12 2 14 17 3 -13 0
8 12 2 14 17 3 -11 0
8 12 34 14 30 17 -91 0
8 12 34 14 30 17 -89 0
8 12 34 14 30 17 -92 0
8 12 34 14 30 17 -90 0
8 12 34 14 30 17 -88 0
8 12 34 14 30 17 -87 0
8 12 70 14 73 17 -116 0
8 12 70 14 73 17 -113 0
8 12 70 14 73 17 -111 0
8 12 70 14 73 17 -114 0
8 12 70 14 73 17 -115 0
8 12 70 14 73 17 -112 0
8 12 66 14 59 17 -106 0
8 12 66 14 59 17 -105 0
8 12 66 14 59 17 -107 0
8 12 66 14 59 17 -109 0
8 12 66 14 59 17 -108 0
8 12 66 14 59 17 -110 0
8 12 54 14 53 17 -100 0
8 12 54 14 53 17 -102 0
8 12 54 14 53 17 -103 0
8 12 54 14 53 17 -104 0
8 12 54 14 53 17 -101 0
8 12 54 14 53 17 -99 0
8 12 14 46 17 40 -93 0
8 12 14 46 17 40 -96 0
8 12 14 46 17 40 -95 0
8 12 14 46 17 40 -94 0
8 12 14 46 17 40 -98 0
8 12 14 46 17 40 -97 0
8 12 14 20 17 19 -85 0
8 12 14 20 17 19 -86 0
8 12 14 20 17 19 -83 0
8 12 14 20 17 19 -84 0
8 12 14 20 17 19 -81 0
8 12 14 20 17 19 -82 0
8 12 14 5 17 3 -9 0
8 12 14 5 17 3 -10 0
8 12 14 5 17 3 -16 0
8 12 14 5 17 3 -15 0
8 12 14 5 17 3 -13 0
8 12 14 5 17 3 -11 0
41 22 42 18 46 20 -131 0
41 22 42 18 46 20 -129 0
41 22 42 18 46 20 -130 0
41 22 42 18 46 20 -127 0
41 22 42 18 46 20 -128 0
41 22 42 18 46 20 -126 0
41 22 42 18 46 40 -131 0
41 22 42 18 46 40 -129 0
41 22 42 18 46 40 -130 0
41 22 42 18 46 40 -127 0
41 22 42 18 46 40 -128 0
41 22 42 18 46 40 -126 0
41 22 42 18 20 19 -131 0
41 22 42 18 20 19 -129 0
41 22 42 18 20 19 -130 0
41 22 42 18 20 19 -127 0
41 22 42 18 20 19 -128 0
41 22 42 18 20 19 -126 0
41 22 42 18 40 19 -131 0
41 22 42 18 40 19 -129 0
41 22 42 18 40 19 -130 0
41 22 42 18 40 19 -127 0
41 22 42 18 40 19 -128 0
41 22 42 18 40 19 -126 0
41 22 42 46 20 40 -131 0
41 22 42 46 20 40 -129 0
41 22 42 46 20 40 -130 0
41 22 42 46 20 40 -127 0
41 22 42 46 20 40 -128 0
41 22 42 46 20 40 -126 0
41 22 42 46 40 19 -131 0
41 22 42 46 40 19 -129 0
41 22 42 46 40 19 -130 0
41 22 42 46 40 19 -127 0
41 22 42 46 40 19 -128 0
41 22 42 46 40 19 -126 0
41 22 18 46 20 19 -131 0
41 22 18 46 20 19 -129 0
41 22 18 46 20 19 -130 0
41 22 18 46 20 19 -127 0
41 22 18 46 20 19 -128 0
41 22 18 46 20 19 -126 0
41 22 18 20 40 19 -131 0
41 22 18 20 40 19 -129 0
41 22 18 20 40 19 -130 0
41 22 18 20 40 19 -127 0
41 22 18 20 40 19 -128 0
41 22 18 20 40 19 -126 0
41 22 46 20 40 19 -131 0
41 22 46 20 40 19 -129 0
41 22 46 20 40 19 -130 0
41 22 46 20 40 19 -127 0
41 22 46 20 40 19 -128 0
41 22 46 20 40 19 -126 0
41 1 42 2 46 5 -44 0
41 1 42 2 46 5 -39 0
41 1 42 2 46 5 -47 0
41 1 42 2 46 5 -43 0
41 1 42 2 46 5 -38 0
41 1 42 2 46 5 -45 0
41 1 42 2 46 40 -44 0
41 1 42 2 46 40 -39 0
41 1 42 2 46 40 -47 0
41 1 42 2 46 40 -43 0
41 1 42 2 46 40 -38 0
41 1 42 2 46 40 -45 0
41 1 42 2 5 3 -44 0
41 1 42 2 5 3 -39 0
41 1 42 2 5 3 -47 0
41 1 42 2 5 3 -43 0
41 1 42 2 5 3 -38 0
41 1 42 2 5 3 -45 0
41 1 42 2 40 3 -44 0
41 1 42 2 40 3 -39 0
41 1 42 2 40 3 -47 0
41 1 42 2 40 3 -43 0
41 1 42 2 40 3 -38 0
41 1 42 2 40 3 -45 0
41 1 42 46 5 40 -44 0
41 1 42 46 5 40 -39 0
41 1 42 46 5 40 -47 0
41 1 42 46 5 40 -43 0
41 1 42 46 5 40 -38 0
41 1 42 46 5 40 -45 0
41 1 42 46 40 3 -44 0
41 1 42 46 40 3 -39 0
41 1 42 46 40 3 -47 0
41 1 42 46 40 3 -43 0
41 1 42 46 40 3 -38 0
41 1 42 46 40 3 -45 0
41 1 2 46 5 3 -44 0
41 1 2 46 5 3 -39 0
41 1 2 46 5 3 -47 0
41 1 2 46 5 3 -43 0
41 1 2 46 5 3 -38 0
41 1 2 46 5 3 -45 0
41 1 2 5 40 3 -44 0
41 1 2 5 40 3 -39 0
41 1 2 5 40 3 -47 0
41 1 2 5 40 3 -43 0
41 1 2 5 40 3 -38 0
41 1 2 5 40 3 -45 0
41 1 46 5 40 3 -44 0
41 1 46 5 40 3 -39 0
41 1 46 5 40 3 -47 0
41 1 46 5 40 3 -43 0
41 1 46 5 40 3 -38 0
41 1 46 5 40 3 -45 0
41 29 42 34 46 40 -155 0
41 29 42 34 46 40 -153 0
41 29 42 34 46 40 -154 0
41 29 42 34 46 40 -156 0
41 29 42 34 46 40 -158 0
41 29 42 34 46 40 -157 0
41 29 42 46 30 40 -155 0
41 29 42 46 30 40 -153 0
41 29 42 46 30 40 -154 0
41 29 42 46 30 40 -156 0
41 29 42 46 30 40 -158 0
41 29 42 46 30 40 -157 0
41 76 42 70 46 40 -192 0
41 76 42 70 46 40 -195 0
41 76 42 70 46 40 -197 0
41 76 42 70 46 40 -194 0
41 76 42 70 46 40 -196 0
41 76 42 70 46 40 -193 0
41 76 42 46 73 40 -192 0
41 76 42 46 73 40 -195 0
41 76 42 46 73 40 -197 0
41 76 42 46 73 40 -194 0
41 76 42 46 73 40 -196 0
41 76 42 46 73 40 -193 0
41 65 42 66 46 40 -187 0
41 65 42 66 46 40 -188 0
41 65 42 66 46 40 -189 0
41 65 42 66 46 40 -190 0
41 65 42 66 46 40 -186 0
41 65 42 66 46 40 -191 0
41 65 42 46 59 40 -187 0
41 65 42 46 59 40 -188 0
41 65 42 46 59 40 -189 0
41 65 42 46 59 40 -190 0
41 65 42 46 59 40 -186 0
41 65 42 46 59 40 -191 0
41 51 42 54 46 40 -185 0
41 51 42 54 46 40 -180 0
41 51 42 54 46 40 -181 0
41 51 42 54 46 40 -182 0
41 51 42 54 46 40 -184 0
41 51 42 54 46 40 -183 0
41 51 42 46 53 40 -185 0
41 51 42 46 53 40 -180 0
41 51 42 46 53 40 -181 0
41 51 42 46 53 40 -182 0
41 51 42 46 53 40 -184 0
41 51 42 46 53 40 -183 0
41 12 42 14 46 40 -93 0
41 12 42 14 46 40 -96 0
41 12 42 14 46 40 -95 0
41 12 42 14 46 40 -94 0
41 12 42 14 46 40 -98 0
41 12 42 14 46 40 -97 0
41 12 42 46 17 40 -93 0
41 12 42 46 17 40 -96 0
41 12 42 46 17 40 -95 0
41 12 42 46 17 40 -94 0
41 12 42 46 17 40 -98 0
41 12 42 46 17 40 -97 0
41 42 18 46 20 40 -131 0
41 42 18 46 20 40 -129 0
41 42 18 46 20 40 -130 0
41 42 18 46 20 40 -127 0
41 42 18 46 20 40 -128 0
41 42 18 46 20 40 -126 0
41 42 18 46 40 19 -131 0
41 42 18 46 40 19 -129 0
41 42 18 46 40 19 -130 0
41 42 18 46 40 19 -127 0
41 42 18 46 40 19 -128 0
41 42 18 46 40 19 -126 0
41 42 2 46 5 40 -44 0
41 42 2 46 5 40 -39 0
41 42 2 46 5 40 -47 0
41 42 2 46 5 40 -43 0
41 42 2 46 5 40 -38 0
41 42 2 46 5 40 -45 0
41 42 2 46 40 3 -44 0
41 42 2 46 40 3 -39 0
41 42 2 46 40 3 -47 0
41 42 2 46 40 3 -43 0
41 42 2 46 40 3 -38 0
41 42 2 46 40 3 -45 0
41 42 34 46 30 40 -155 0
41 42 34 46 30 40 -153 0
41 42 34 46 30 40 -154 0
41 42 34 46 30 40 -156 0
41 42 34 46 30 40 -158 0
41 42 34 46 30 40 -157 0
41 42 70 46 73 40 -192 0
41 42 70 46 73 40 -195 0
41 42 70 46 73 40 -197 0
41 42 70 46 73 40 -194 0
41 42 70 46 73 40 -196 0
41 42 70 46 73 40 -193 0
41 42 66 46 59 40 -187 0
41 42 66 46 59 40 -188 0
41 42 66 46 59 40 -189 0
41 42 66 46 59 40 -190 0
41 42 66 46 59 40 -186 0
41 42 66 46 59 40 -191 0
41 42 54 46 53 40 -185 0
41 42 54 46 53 40 -180 0
41 42 54 46 53 40 -181 0
41 42 54 46 53 40 -182 0
41 42 54 46 53 40 -184 0
41 42 54 46 53 40 -183 0
41 42 14 46 17 40 -93 0
41 42 14 46 17 40 -96 0
41 42 14 46 17 40 -95 0
41 42 14 46 17 40 -94 0
41 42 14 46 17 40 -98 0
41 42 14 46 17 40 -97 0
41 42 46 20 40 19 -131 0
41 42 46 20 40 19 -129 0
41 42 46 20 40 19 -130 0
41 42 46 20 40 19 -127 0
41 42 46 20 40 19 -128 0
41 42 46 20 40 19 -126 0
41 42 46 5 40 3 -44 0
41 42 46 5 40 3 -39 0
41 42 46 5 40 3 -47 0
41 42 46 5 40 3 -43 0
41 42 46 5 40 3 -38 0
41 42 46 5 40 3 -45 0
22 1 18 2 20 5 -23 0
22 1 18 2 20 5 -24 0
22 1 18 2 20 5 -26 0
22 1 18 2 20 5 -27 0
22 1 18 2 20 5 -21 0
22 1 18 2 20 5 -25 0
22 1 18 2 20 19 -23 0
22 1 18 2 20 19 -24 0
22 1 18 2 20 19 -26 0
22 1 18 2 20 19 -27 0
22 1 18 2 20 19 -21 0
22 1 18 2 20 19 -25 0
22 1 18 2 5 3 -23 0
22 1 18 2 5 3 -24 0
22 1 18 2 5 3 -26 0
22 1 18 2 5 3 -27 0
22 1 18 2 5 3 -21 0
22 1 18 2 5 3 -25 0
22 1 18 2 19 3 -23 0
22 1 18 2 19 3 -24 0
22 1 18 2 19 3 -26 0
22 1 18 2 19 3 -27 0
22 1 18 2 19 3 -21 0
22 1 18 2 19 3 -25 0
22 1 18 20 5 19 -23 0
22 1 18 20 5 19 -24 0
22 1 18 20 5 19 -26 0
22 1 18 20 5 19 -27 0
22 1 18 20 5 19 -21 0
22 1 18 20 5 19 -25 0
22 1 18 20 19 3 -23 0
22 1 18 20 19 3 -24 0
22 1 18 20 19 3 -26 0
22 1 18 20 19 3 -27 0
22 1 18 20 19 3 -21 0
22 1 18 20 19 3 -25 0
22 1 2 20 5 3 -23 0
22 1 2 20 5 3 -24 0
22 1 2 20 5 3 -26 0
22 1 2 20 5 3 -27 0
22 1 2 20 5 3 -21 0
22 1 2 20 5 3 -25 0
22 1 2 5 19 3 -23 0
22 1 2 5 19 3 -24 0
22 1 2 5 19 3 -26 0
22 1 2 5 19 3 -27 0
22 1 2 5 19 3 -21 0
22 1 2 5 19 3 -25 0
22 1 20 5 19 3 -23 0
22 1 20 5 19 3 -24 0
22 1 20 5 19 3 -26 0
22 1 20 5 19 3 -27 0
22 1 20 5 19 3 -21 0
22 1 20 5 19 3 -25 0
22 29 18 34 20 19 -121 0
22 29 18 34 20 19 -123 0
22 29 18 34 20 19 -122 0
22 29 18 34 20 19 -124 0
22 29 18 34 20 19 -120 0
22 29 18 34 20 19 -125 0
22 29 18 20 30 19 -121 0
22 29 18 20 30 19 -123 0
22 29 18 20 30 19 -122 0
22 29 18 20 30 19 -124 0
22 29 18 20 30 19 -120 0
22 29 18 20 30 19 -125 0
22 76 18 70 20 19 -149 0
22 76 18 70 20 19 -144 0
22 76 18 70 20 19 -146 0
22 76 18 70 20 19 -148 0
22 76 18 70 20 19 -145 0
22 76 18 70 20 19 -147 0
22 76 18 20 73 19 -149 0
22 76 18 20 73 19 -144 0
22 76 18 20 73 19 -146 0
22 76 18 20 73 19 -148 0
22 76 18 20 73 19 -145 0
22 76 18 20 73 19 -147 0
22 65 18 66 20 19 -143 0
22 65 18 66 20 19 -139 0
22 65 18 66 20 19 -141 0
22 65 18 66 20 19 -138 0
22 65 18 66 20 19 -140 0
22 65 18 66 20 19 -142 0
22 65 18 20 59 19 -143 0
22 65 18 20 59 19 -139 0
22 65 18 20 59 19 -141 0
22 65 18 20 59 19 -138 0
22 65 18 20 59 19 -140 0
22 65 18 20 59 19 -142 0
22 51 18 54 20 19 -135 0
22 51 18 54 20 19 -132 0
22 51 18 54 20 19 -136 0
22 51 18 54 20 19 -134 0
22 51 18 54 20 19 -133 0
22 51 18 54 20 19 -137 0
22 51 18 20 53 19 -135 0
22 51 18 20 53 19 -132 0
22 51 18 20 53 19 -136 0
22 51 18 20 53 19 -134 0
22 51 18 20 53 19 -133 0
22 51 18 20 53 19 -137 0
22 12 18 14 20 19 -85 0
22 12 18 14 20 19 -86 0
22 12 18 14 20 19 -83 0
22 12 18 14 20 19 -84 0
22 12 18 14 20 19 -81 0
22 12 18 14 20 19 -82 0
22 12 18 20 17 19 -85 0
22 12 18 20 17 19 -86 0
22 12 18 20 17 19 -83 0
22 12 18 20 17 19 -84 0
22 12 18 20 17 19 -81 0
22 12 18 20 17 19 -82 0
22 42 18 46 20 19 -131 0
22 42 18 46 20 19 -129 0
22 42 18 46 20 19 -130 0
22 42 18 46 20 19 -127 0
22 42 18 46 20 19 -128 0
22 42 18 46 20 19 -126 0
22 42 18 20 40 19 -131 0
22 42 18 20 40 19 -129 0
22 42 18 20 40 19 -130 0
22 42 18 20 40 19 -127 0
22 42 18 20 40 19 -128 0
22 42 18 20 40 19 -126 0
22 18 2 20 5 19 -23 0
22 18 2 20 5 19 -24 0
22 18 2 20 5 19 -26 0
22 18 2 20 5 19 -27 0
22 18 2 20 5 19 -21 0
22 18 2 20 5 19 -25 0
22 18 2 20 19 3 -23 0
22 18 2 20 19 3 -24 0
22 18 2 20 19 3 -26 0
22 18 2 20 19 3 -27 0
22 18 2 20 19 3 -21 0
22 18 2 20 19 3 -25 0
22 18 34 20 30 19 -121 0
22 18 34 20 30 19 -123 0
22 18 34 20 30 19 -122 0
22 18 34 20 30 19 -124 0
22 18 34 20 30 19 -120 0
22 18 34 20 30 19 -125 0
22 18 70 20 73 19 -149 0
22 18 70 20 73 19 -144 0
22 18 70 20 73 19 -146 0
22 18 70 20 73 19 -148 0
22 18 70 20 73 19 -145 0
22 18 70 20 73 19 -147 0
22 18 66 20 59 19 -143 0
22 18 66 20 59 19 -139 0
22 18 66 20 59 19 -141 0
22 18 66 20 59 19 -138 0
22 18 66 20 59 19 -140 0
22 18 66 20 59 19 -142 0
22 18 54 20 53 19 -135 0
22 18 54 20 53 19 -132 0
22 18 54 20 53 19 -136 0
22 18 54 20 53 19 -134 0
22 18 54 20 53 19 -133 0
22 18 54 20 53 19 -137 0
22 18 14 20 17 19 -85 0
22 18 14 20 17 19 -86 0
22 18 14 20 17 19 -83 0
22 18 14 20 17 19 -84 0
22 18 14 20 17 19 -81 0
22 18 14 20 17 19 -82 0
22 18 46 20 40 19 -131 0
22 18 46 20 40 19 -129 0
22 18 46 20 40 19 -130 0
22 18 46 20 40 19 -127 0
22 18 46 20 40 19 -128 0
22 18 46 20 40 19 -126 0
22 18 20 5 19 3 -23 0
22 18 20 5 19 3 -24 0
22 18 20 5 19 3 -26 0
22 18 20 5 19 3 -27 0
22 18 20 5 19 3 -21 0
22 18 20 5 19 3 -25 0
1 29 2 34 5 3 -31 0
1 29 2 34 5 3 -37 0
1 29 2 34 5 3 -36 0
1 29 2 34 5 3 -28 0
1 29 2 34 5 3 -33 0
1 29 2 34 5 3 -35 0
1 29 2 5 30 3 -31 0
1 29 2 5 30 3 -37 0
1 29 2 5 30 3 -36 0
1 29 2 5 30 3 -28 0
1 29 2 5 30 3 -33 0
1 29 2 5 30 3 -35 0
1 76 2 70 5 3 -71 0
1 76 2 70 5 3 -74 0
1 76 2 70 5 3 -72 0
1 76 2 70 5 3 -77 0
1 76 2 70 5 3 -69 0
1 76 2 70 5 3 -68 0
1 76 2 5 73 3 -71 0
1 76 2 5 73 3 -74 0
1 76 2 5 73 3 -72 0
1 76 2 5 73 3 -77 0
1 76 2 5 73 3 -69 0
1 76 2 5 73 3 -68 0
1 65 2 66 5 3 -67 0
1 65 2 66 5 3 -60 0
1 65 2 66 5 3 -58 0
1 65 2 66 5 3 -63 0
1 65 2 66 5 3 -61 0
1 65 2 66 5 3 -64 0
1 65 2 5 59 3 -67 0
1 65 2 5 59 3 -60 0
1 65 2 5 59 3 -58 0
1 65 2 5 59 3 -63 0
1 65 2 5 59 3 -61 0
1 65 2 5 59 3 -64 0
1 51 2 54 5 3 -57 0
1 51 2 54 5 3 -55 0
1 51 2 54 5 3 -49 0
1 51 2 54 5 3 -52 0
1 51 2 54 5 3 -48 0
1 51 2 54 5 3 -56 0
1 51 2 5 53 3 -57 0
1 51 2 5 53 3 -55 0
1 51 2 5 53 3 -49 0
1 51 2 5 53 3 -52 0
1 51 2 5 53 3 -48 0
1 51 2 5 53 3 -56 0
1 12 2 14 5 3 -9 0
1 12 2 14 5 3 -10 0
1 12 2 14 5 3 -16 0
1 12 2 14 5 3 -15 0
1 12 2 14 5 3 -13 0
1 12 2 14 5 3 -11 0
1 12 2 5 17 3 -9 0
1 12 2 5 17 3 -10 0
1 12 2 5 17 3 -16 0
1 12 2 5 17 3 -15 0
1 12 2 5 17 3 -13 0
1 12 2 5 17 3 -11 0
1 42 2 46 5 3 -44 0
1 42 2 46 5 3 -39 0
1 42 2 46 5 3 -47 0
1 42 2 46 5 3 -43 0
1 42 2 46 5 3 -38 0
1 42 2 46 5 3 -45 0
1 42 2 5 40 3 -44 0
1 42 2 5 40 3 -39 0
1 42 2 5 40 3 -47 0
1 42 2 5 40 3 -43 0
1 42 2 5 40 3 -38 0
1 42 2 5 40 3 -45 0
1 18 2 20 5 3 -23 0
1 18 2 20 5 3 -24 0
1 18 2 20 5 3 -26 0
1 18 2 20 5 3 -27 0
1 18 2 20 5 3 -21 0
1 18 2 20 5 3 -25 0
1 18 2 5 19 3 -23 0
1 18 2 5 19 3 -24 0
1 18 2 5 19 3 -26 0
1 18 2 5 19 3 -27 0
1 18 2 5 19 3 -21 0
1 18 2 5 19 3 -25 0
1 2 34 5 30 3 -31 0
1 2 34 5 30 3 -37 0
1 2 34 5 30 3 -36 0
1 2 34 5 30 3 -28 0
1 2 34 5 30 3 -33 0
1 2 34 5 30 3 -35 0
1 2 70 5 73 3 -71 0
1 2 70 5 73 3 -74 0
1 2 70 5 73 3 -72 0
1 2 70 5 73 3 -77 0
1 2 70 5 73 3 -69 0
1 2 70 5 73 3 -68 0
1 2 66 5 59 3 -67 0
1 2 66 5 59 3 -60 0
1 2 66 5 59 3 -58 0
1 2 66 5 59 3 -63 0
1 2 66 5 59 3 -61 0
1 2 66 5 59 3 -64 0
1 2 54 5 53 3 -57 0
1 2 54 5 53 3 -55 0
1 2 54 5 53 3 -49 0
1 2 54 5 53 3 -52 0
1 2 54 5 53 3 -48 0
1 2 54 5 53 3 -56 0
1 2 14 5 17 3 -9 0
1 2 14 5 17 3 -10 0
1 2 14 5 17 3 -16 0
1 2 14 5 17 3 -15 0
1 2 14 5 17 3 -13 0
1 2 14 5 17 3 -11 0
1 2 46 5 40 3 -44 0
1 2 46 5 40 3 -39 0
1 2 46 5 40 3 -47 0
1 2 46 5 40 3 -43 0
1 2 46 5 40 3 -38 0
1 2 46 5 40 3 -45 0
1 2 20 5 19 3 -23 0
1 2 20 5 19 3 -24 0
1 2 20 5 19 3 -26 0
1 2 20 5 19 3 -27 0
1 2 20 5 19 3 -21 0
1 2 20 5 19 3 -25 0
29 76 34 70 30 73 -176 0
29 76 34 70 30 73 -171 0
29 76 34 70 30 73 -175 0
29 76 34 70 30 73 -172 0
29 76 34 70 30 73 -174 0
29 76 34 70 30 73 -173 0
29 65 34 66 30 59 -166 0
29 65 34 66 30 59 -167 0
29 65 34 66 30 59 -170 0
29 65 34 66 30 59 -169 0
29 65 34 66 30 59 -168 0
29 65 34 66 30 59 -165 0
29 51 34 54 30 53 -160 0
29 51 34 54 30 53 -159 0
29 51 34 54 30 53 -161 0
29 51 34 54 30 53 -164 0
29 51 34 54 30 53 -163 0
29 51 34 54 30 53 -162 0
29 12 34 14 30 17 -91 0
29 12 34 14 30 17 -89 0
29 12 34 14 30 17 -92 0
29 12 34 14 30 17 -90 0
29 12 34 14 30 17 -88 0
29 12 34 14 30 17 -87 0
29 42 34 46 30 40 -155 0
29 42 34 46 30 40 -153 0
29 42 34 46 30 40 -154 0
29 42 34 46 30 40 -156 0
29 42 34 46 30 40 -158 0
29 42 34 46 30 40 -157 0
29 18 34 20 30 19 -121 0
29 18 34 20 30 19 -123 0
29 18 34 20 30 19 -122 0
29 18 34 20 30 19 -124 0
29 18 34 20 30 19 -120 0
29 18 34 20 30 19 -125 0
29 2 34 5 30 3 -31 0
29 2 34 5 30 3 -37 0
29 2 34 5 30 3 -36 0
29 2 34 5 30 3 -28 0
29 2 34 5 30 3 -33 0
29 2 34 5 30 3 -35 0
76 65 70 66 73 59 -218 0
76 65 70 66 73 59 -221 0
76 65 70 66 73 59 -219 0
76 65 70 66 73 59 -216 0
76 65 70 66 73 59 -217 0
76 65 70 66 73 59 -220 0
76 51 70 54 73 53 -207 0
76 51 70 54 73 53 -209 0
76 51 70 54 73 53 -208 0
76 51 70 54 73 53 -212 0
76 51 70 54 73 53 -211 0
76 51 70 54 73 53 -210 0
76 12 70 14 73 17 -116 0
76 12 70 14 73 17 -113 0
76 12 70 14 73 17 -111 0
76 12 70 14 73 17 -114 0
76 12 70 14 73 17 -115 0
76 12 70 14 73 17 -112 0
76 42 70 46 73 40 -192 0
76 42 70 46 73 40 -195 0
76 42 70 46 73 40 -197 0
76 42 70 46 73 40 -194 0
76 42 70 46 73 40 -196 0
76 42 70 46 73 40 -193 0
76 18 70 20 73 19 -149 0
76 18 70 20 73 19 -144 0
76 18 70 20 73 19 -146 0
76 18 70 20 73 19 -148 0
76 18 70 20 73 19 -145 0
76 18 70 20 73 19 -147 0
76 2 70 5 73 3 -71 0
76 2 70 5 73 3 -74 0
76 2 70 5 73 3 -72 0
76 2 70 5 73 3 -77 0
76 2 70 5 73 3 -69 0
76 2 70 5 73 3 -68 0
65 51 66 54 59 53 -205 0
65 51 66 54 59 53 -202 0
65 51 66 54 59 53 -201 0
65 51 66 54 59 53 -204 0
65 51 66 54 59 53 -203 0
65 51 66 54 59 53 -206 0
65 12 66 14 59 17 -106 0
65 12 66 14 59 17 -105 0
65 12 66 14 59 17 -107 0
65 12 66 14 59 17 -109 0
65 12 66 14 59 17 -108 0
65 12 66 14 59 17 -110 0
65 42 66 46 59 40 -187 0
65 42 66 46 59 40 -188 0
65 42 66 46 59 40 -189 0
65 42 66 46 59 40 -190 0
65 42 66 46 59 40 -186 0
65 42 66 46 59 40 -191 0
65 18 66 20 59 19 -143 0
65 18 66 20 59 19 -139 0
65 18 66 20 59 19 -141 0
65 18 66 20 59 19 -138 0
65 18 66 20 59 19 -140 0
65 18 66 20 59 19 -142 0
65 2 66 5 59 3 -67 0
65 2 66 5 59 3 -60 0
65 2 66 5 59 3 -58 0
65 2 66 5 59 3 -63 0
65 2 66 5 59 3 -61 0
65 2 66 5 59 3 -64 0
51 12 54 14 53 17 -100 0
51 12 54 14 53 17 -102 0
51 12 54 14 53 17 -103 0
51 12 54 14 53 17 -104 0
51 12 54 14 53 17 -101 0
51 12 54 14 53 17 -99 0
51 42 54 46 53 40 -185 0
51 42 54 46 53 40 -180 0
51 42 54 46 53 40 -181 0
51 42 54 46 53 40 -182 0
51 42 54 46 53 40 -184 0
51 42 54 46 53 40 -183 0
51 18 54 20 53 19 -135 0
51 18 54 20 53 19 -132 0
51 18 54 20 53 19 -136 0
51 18 54 20 53 19 -134 0
51 18 54 20 53 19 -133 0
51 18 54 20 53 19 -137 0
51 2 54 5 53 3 -57 0
51 2 54 5 53 3 -55 0
51 2 54 5 53 3 -49 0
51 2 54 5 53 3 -52 0
51 2 54 5 53 3 -48 0
51 2 54 5 53 3 -56 0
12 42 14 46 17 40 -93 0
12 42 14 46 17 40 -96 0
12 42 14 46 17 40 -95 0
12 42 14 46 17 40 -94 0
12 42 14 46 17 40 -98 0
12 42 14 46 17 40 -97 0
12 18 14 20 17 19 -85 0
12 18 14 20 17 19 -86 0
12 18 14 20 17 19 -83 0
12 18 14 20 17 19 -84 0
12 18 14 20 17 19 -81 0
12 18 14 20 17 19 -82 0
12 2 14 5 17 3 -9 0
12 2 14 5 17 3 -10 0
12 2 14 5 17 3 -16 0
12 2 14 5 17 3 -15 0
12 2 14 5 17 3 -13 0
12 2 14 5 17 3 -11 0
42 18 46 20 40 19 -131 0
42 18 46 20 40 19 -129 0
42 18 46 20 40 19 -130 0
42 18 46 20 40 19 -127 0
42 18 46 20 40 19 -128 0
42 18 46 20 40 19 -126 0
42 2 46 5 40 3 -44 0
42 2 46 5 40 3 -39 0
42 2 46 5 40 3 -47 0
42 2 46 5 40 3 -43 0
42 2 46 5 40 3 -38 0
42 2 46 5 40 3 -45 0
18 2 20 5 19 3 -23 0
18 2 20 5 19 3 -24 0
18 2 20 5 19 3 -26 0
18 2 20 5 19 3 -27 0
18 2 20 5 19 3 -21 0
18 2 20 5 19 3 -25 0
152 176 166 160 91 155 121 31 0
171 222 218 207 116 192 149 71 0
167 221 214 205 106 187 143 67 0
159 209 202 199 100 185 135 57 0
89 113 105 102 78 93 85 9 0
153 195 188 180 96 177 131 44 0
123 144 139 132 86 129 118 23 0
37 74 60 55 10 39 24 4 0
150 175 170 161 92 154 122 36 0
172 224 219 208 111 197 146 72 0
169 216 215 201 107 189 141 58 0
164 212 204 198 103 181 136 49 0
90 114 109 104 79 95 83 16 0
156 194 190 182 94 178 130 47 0
124 148 138 134 84 127 119 26 0
28 77 63 52 15 43 27 6 0
151 174 168 163 88 158 120 33 0
173 223 217 211 115 196 145 69 0
165 220 213 203 108 186 140 61 0
162 210 206 200 101 184 133 48 0
87 112 110 99 80 98 81 13 0
157 193 191 183 97 179 128 38 0
125 147 142 137 82 126 117 21 0
35 68 64 56 11 45 25 7 0
32 75 29 76 34 70 30 -176 0
32 75 29 76 34 70 30 -171 0
32 75 29 76 34 70 30 -175 0
32 75 29 76 34 70 30 -172 0
32 75 29 76 34 70 30 -174 0
32 75 29 76 34 70 30 -173 0
32 75 29 76 34 70 73 -176 0
32 75 29 76 34 70 73 -171 0
32 75 29 76 34 70 73 -175 0
32 75 29 76 34 70 73 -172 0
32 75 29 76 34 70 73 -174 0
32 75 29 76 34 70 73 -173 0
32 75 29 76 34 30 73 -176 0
32 75 29 76 34 30 73 -171 0
32 75 29 76 34 30 73 -175 0
32 75 29 76 34 30 73 -172 0
32 75 29 76 34 30 73 -174 0
32 75 29 76 34 30 73 -173 0
32 75 29 76 70 30 73 -176 0
32 75 29 76 70 30 73 -171 0
32 75 29 76 70 30 73 -175 0
32 75 29 76 70 30 73 -172 0
32 75 29 76 70 30 73 -174 0
32 75 29 76 70 30 73 -173 0
32 75 29 34 70 30 73 -176 0
32 75 29 34 70 30 73 -171 0
32 75 29 34 70 30 73 -175 0
32 75 29 34 70 30 73 -172 0
32 75 29 34 70 30 73 -174 0
32 75 29 34 70 30 73 -173 0
32 75 76 34 70 30 73 -176 0
32 75 76 34 70 30 73 -171 0
32 75 76 34 70 30 73 -175 0
32 75 76 34 70 30 73 -172 0
32 75 76 34 70 30 73 -174 0
32 75 76 34 70 30 73 -173 0
32 62 29 65 34 66 30 -166 0
32 62 29 65 34 66 30 -167 0
32 62 29 65 34 66 30 -170 0
32 62 29 65 34 66 30 -169 0
32 62 29 65 34 66 30 -168 0
32 62 29 65 34 66 30 -165 0
32 62 29 65 34 66 59 -166 0
32 62 29 65 34 66 59 -167 0
32 62 29 65 34 66 59 -170 0
32 62 29 65 34 66 59 -169 0
32 62 29 65 34 66 59 -168 0
32 62 29 65 34 66 59 -165 0
32 62 29 65 34 30 59 -166 0
32 62 29 65 34 30 59 -167 0
32 62 29 65 34 30 59 -170 0
32 62 29 65 34 30 59 -169 0
32 62 29 65 34 30 59 -168 0
32 62 29 65 34 30 59 -165 0
32 62 29 65 66 30 59 -166 0
32 62 29 65 66 30 59 -167 0
32 62 29 65 66 30 59 -170 0
32 62 29 65 66 30 59 -169 0
32 62 29 65 66 30 59 -168 0
32 62 29 65 66 30 59 -165 0
32 62 29 34 66 30 59 -166 0
32 62 29 34 66 30 59 -167 0
32 62 29 34 66 30 59 -170 0
32 62 29 34 66 30 59 -169 0
32 62 29 34 66 30 59 -168 0
32 62 29 34 66 30 59 -165 0
32 62 65 34 66 30 59 -166 0
32 62 65 34 66 30 59 -167 0
32 62 65 34 66 30 59 -170 0
32 62 65 34 66 30 59 -169 0
32 62 65 34 66 30 59 -168 0
32 62 65 34 66 30 59 -165 0
32 50 29 51 34 54 30 -160 0
32 50 29 51 34 54 30 -159 0
32 50 29 51 34 54 30 -161 0
32 50 29 51 34 54 30 -164 0
32 50 29 51 34 54 30 -163 0
32 50 29 51 34 54 30 -162 0
32 50 29 51 34 54 53 -160 0
32 50 29 51 34 54 53 -159 0
32 50 29 51 34 54 53 -161 0
32 50 29 51 34 54 53 -164 0
32 50 29 51 34 54 53 -163 0
32 50 29 51 34 54 53 -162 0
32 50 29 51 34 30 53 -160 0
32 50 29 51 34 30 53 -159 0
32 50 29 51 34 30 53 -161 0
32 50 29 51 34 30 53 -164 0
32 50 29 51 34 30 53 -163 0
32 50 29 51 34 30 53 -162 0
32 50 29 51 54 30 53 -160 0
32 50 29 51 54 30 53 -159 0
32 50 29 51 54 30 53 -161 0
32 50 29 51 54 30 53 -164 0
32 50 29 51 54 30 53 -163 0
32 50 29 51 54 30 53 -162 0
32 50 29 34 54 30 53 -160 0
32 50 29 34 54 30 53 -159 0
32 50 29 34 54 30 53 -161 0
32 50 29 34 54 30 53 -164 0
32 50 29 34 54 30 53 -163 0
32 50 29 34 54 30 53 -162 0
32 50 51 34 54 30 53 -160 0
32 50 51 34 54 30 53 -159 0
32 50 51 34 54 30 53 -161 0
32 50 51 34 54 30 53 -164 0
32 50 51 34 54 30 53 -163 0
32 50 51 34 54 30 53 -162 0
32 8 29 12 34 14 30 -91 0
32 8 29 12 34 14 30 -89 0
32 8 29 12 34 14 30 -92 0
32 8 29 12 34 14 30 -90 0
32 8 29 12 34 14 30 -88 0
32 8 29 12 34 14 30 -87 0
32 8 29 12 34 14 17 -91 0
32 8 29 12 34 14 17 -89 0
32 8 29 12 34 14 17 -92 0
32 8 29 12 34 14 17 -90 0
32 8 29 12 34 14 17 -88 0
32 8 29 12 34 14 17 -87 0
32 8 29 12 34 30 17 -91 0
32 8 29 12 34 30 17 -89 0
32 8 29 12 34 30 17 -92 0
32 8 29 12 34 30 17 -90 0
32 8 29 12 34 30 17 -88 0
32 8 29 12 34 30 17 -87 0
32 8 29 12 14 30 17 -91 0
32 8 29 12 14 30 17 -89 0
32 8 29 12 14 30 17 -92 0
32 8 29 12 14 30 17 -90 0
32 8 29 12 14 30 17 -88 0
32 8 29 12 14 30 17 -87 0
32 8 29 34 14 30 17 -91 0
32 8 29 34 14 30 17 -89 0
32 8 29 34 14 30 17 -92 0
32 8 29 34 14 30 17 -90 0
32 8 29 34 14 30 17 -88 0
32 8 29 34 14 30 17 -87 0
32 8 12 34 14 30 17 -91 0
32 8 12 34 14 30 17 -89 0
32 8 12 34 14 30 17 -92 0
32 8 12 34 14 30 17 -90 0
32 8 12 34 14 30 17 -88 0
32 8 12 34 14 30 17 -87 0
32 41 29 42 34 46 30 -155 0
32 41 29 42 34 46 30 -153 0
32 41 29 42 34 46 30 -154 0
32 41 29 42 34 46 30 -156 0
32 41 29 42 34 46 30 -158 0
32 41 29 42 34 46 30 -157 0
32 41 29 42 34 46 40 -155 0
32 41 29 42 34 46 40 -153 0
32 41 29 42 34 46 40 -154 0
32 41 29 42 34 46 40 -156 0
32 41 29 42 34 46 40 -158 0
32 41 29 42 34 46 40 -157 0
32 41 29 42 34 30 40 -155 0
32 41 29 42 34 30 40 -153 0
32 41 29 42 34 30 40 -154 0
32 41 29 42 34 30 40 -156 0
32 41 29 42 34 30 40 -158 0
32 41 29 42 34 30 40 -157 0
32 41 29 42 46 30 40 -155 0
32 41 29 42 46 30 40 -153 0
32 41 29 42 46 30 40 -154 0
32 41 29 42 46 30 40 -156 0
32 41 29 42 46 30 40 -158 0
32 41 29 42 46 30 40 -157 0
32 41 29 34 46 30 40 -155 0
32 41 29 34 46 30 40 -153 0
32 41 29 34 46 30 40 -154 0
32 41 29 34 46 30 40 -156 0
32 41 29 34 46 30 40 -158 0
32 41 29 34 46 30 40 -157 0
32 41 42 34 46 30 40 -155 0
32 41 42 34 46 30 40 -153 0
32 41 42 34 46 30 40 -154 0
32 41 42 34 46 30 40 -156 0
32 41 42 34 46 30 40 -158 0
32 41 42 34 46 30 40 -157 0
32 22 29 18 34 20 30 -121 0
32 22 29 18 34 20 30 -123 0
32 22 29 18 34 20 30 -122 0
32 22 29 18 34 20 30 -124 0
32 22 29 18 34 20 30 -120 0
32 22 29 18 34 20 30 -125 0
32 22 29 18 34 20 19 -121 0
32 22 29 18 34 20 19 -123 0
32 22 29 18 34 20 19 -122 0
32 22 29 18 34 20 19 -124 0
32 22 29 18 34 20 19 -120 0
32 22 29 18 34 20 19 -125 0
32 22 29 18 34 30 19 -121 0
32 22 29 18 34 30 19 -123 0
32 22 29 18 34 30 19 -122 0
32 22 29 18 34 30 19 -124 0
32 22 29 18 34 30 19 -120 0
32 22 29 18 34 30 19 -125 0
32 22 29 18 20 30 19 -121 0
32 22 29 18 20 30 19 -123 0
32 22 29 18 20 30 19 -122 0
32 22 29 18 20 30 19 -124 0
32 22 29 18 20 30 19 -120 0
32 22 29 18 20 30 19 -125 0
32 22 29 34 20 30 19 -121 0
32 22 29 34 20 30 19 -123 0
32 22 29 34 20 30 19 -122 0
32 22 29 34 20 30 19 -124 0
32 22 29 34 20 30 19 -120 0
32 22 29 34 20 30 19 -125 0
32 22 18 34 20 30 19 -121 0
32 22 18 34 20 30 19 -123 0
32 22 18 34 20 30 19 -122 0
32 22 18 34 20 30 19 -124 0
32 22 18 34 20 30 19 -120 0
32 22 18 34 20 30 19 -125 0
32 1 29 2 34 5 30 -31 0
32 1 29 2 34 5 30 -37 0
32 1 29 2 34 5 30 -36 0
32 1 29 2 34 5 30 -28 0
32 1 29 2 34 5 30 -33 0
32 1 29 2 34 5 30 -35 0
32 1 29 2 34 5 3 -31 0
32 1 29 2 34 5 3 -37 0
32 1 29 2 34 5 3 -36 0
32 1 29 2 34 5 3 -28 0
32 1 29 2 34 5 3 -33 0
32 1 29 2 34 5 3 -35 0
32 1 29 2 34 30 3 -31 0
32 1 29 2 34 30 3 -37 0
32 1 29 2 34 30 3 -36 0
32 1 29 2 34 30 3 -28 0
32 1 29 2 34 30 3 -33 0
32 1 29 2 34 30 3 -35 0
32 1 29 2 5 30 3 -31 0
32 1 29 2 5 30 3 -37 0
32 1 29 2 5 30 3 -36 0
32 1 29 2 5 30 3 -28 0
32 1 29 2 5 30 3 -33 0
32 1 29 2 5 30 3 -35 0
32 1 29 34 5 30 3 -31 0
32 1 29 34 5 30 3 -37 0
32 1 29 34 5 30 3 -36 0
32 1 29 34 5 30 3 -28 0
32 1 29 34 5 30 3 -33 0
32 1 29 34 5 30 3 -35 0
32 1 2 34 5 30 3 -31 0
32 1 2 34 5 30 3 -37 0
32 1 2 34 5 30 3 -36 0
32 1 2 34 5 30 3 -28 0
32 1 2 34 5 30 3 -33 0
32 1 2 34 5 30 3 -35 0
32 29 76 34 70 30 73 -176 0
32 29 76 34 70 30 73 -171 0
32 29 76 34 70 30 73 -175 0
32 29 76 34 70 30 73 -172 0
32 29 76 34 70 30 73 -174 0
32 29 76 34 70 30 73 -173 0
32 29 65 34 66 30 59 -166 0
32 29 65 34 66 30 59 -167 0
32 29 65 34 66 30 59 -170 0
32 29 65 34 66 30 59 -169 0
32 29 65 34 66 30 59 -168 0
32 29 65 34 66 30 59 -165 0
32 29 51 34 54 30 53 -160 0
32 29 51 34 54 30 53 -159 0
32 29 51 34 54 30 53 -161 0
32 29 51 34 54 30 53 -164 0
32 29 51 34 54 30 53 -163 0
32 29 51 34 54 30 53 -162 0
32 29 12 34 14 30 17 -91 0
32 29 12 34 14 30 17 -89 0
32 29 12 34 14 30 17 -92 0
32 29 12 34 14 30 17 -90 0
32 29 12 34 14 30 17 -88 0
32 29 12 34 14 30 17 -87 0
32 29 42 34 46 30 40 -155 0
32 29 42 34 46 30 40 -153 0
32 29 42 34 46 30 40 -154 0
32 29 42 34 46 30 40 -156 0
32 29 42 34 46 30 40 -158 0
32 29 42 34 46 30 40 -157 0
32 29 18 34 20 30 19 -121 0
32 29 18 34 20 30 19 -123 0
32 29 18 34 20 30 19 -122 0
32 29 18 34 20 30 19 -124 0
32 29 18 34 20 30 19 -120 0
32 29 18 34 20 30 19 -125 0
32 29 2 34 5 30 3 -31 0
32 29 2 34 5 30 3 -37 0
32 29 2 34 5 30 3 -36 0
32 29 2 34 5 30 3 -28 0
32 29 2 34 5 30 3 -33 0
32 29 2 34 5 30 3 -35 0
75 62 76 65 70 66 73 -218 0
75 62 76 65 70 66 73 -221 0
75 62 76 65 70 66 73 -219 0
75 62 76 65 70 66 73 -216 0
75 62 76 65 70 66 73 -217 0
75 62 76 65 70 66 73 -220 0
75 62 76 65 70 66 59 -218 0
75 62 76 65 70 66 59 -221 0
75 62 76 65 70 66 59 -219 0
75 62 76 65 70 66 59 -216 0
75 62 76 65 70 66 59 -217 0
75 62 76 65 70 66 59 -220 0
75 62 76 65 70 73 59 -218 0
75 62 76 65 70 73 59 -221 0
75 62 76 65 70 73 59 -219 0
75 62 76 65 70 73 59 -216 0
75 62 76 65 70 73 59 -217 0
75 62 76 65 70 73 59 -220 0
75 62 76 65 66 73 59 -218 0
75 62 76 65 66 73 59 -221 0
75 62 76 65 66 73 59 -219 0
75 62 76 65 66 73 59 -216 0
75 62 76 65 66 73 59 -217 0
75 62 76 65 66 73 59 -220 0
75 62 76 70 66 73 59 -218 0
75 62 76 70 66 73 59 -221 0
75 62 76 70 66 73 59 -219 0
75 62 76 70 66 73 59 -216 0
75 62 76 70 66 73 59 -217 0
75 62 76 70 66 73 59 -220 0
75 62 65 70 66 73 59 -218 0
75 62 65 70 66 73 59 -221 0
75 62 65 70 66 73 59 -219 0
75 62 65 70 66 73 59 -216 0
75 62 65 70 66 73 59 -217 0
75 62 65 70 66 73 59 -220 0
75 50 76 51 70 54 73 -207 0
75 50 76 51 70 54 73 -209 0
75 50 76 51 70 54 73 -208 0
75 50 76 51 70 54 73 -212 0
75 50 76 51 70 54 73 -211 0
75 50 76 51 70 54 73 -210 0
75 50 76 51 70 54 53 -207 0
75 50 76 51 70 54 53 -209 0
75 50 76 51 70 54 53 -208 0
75 50 76 51 70 54 53 -212 0
75 50 76 51 70 54 53 -211 0
75 50 76 51 70 54 53 -210 0
75 50 76 51 70 73 53 -207 0
75 50 76 51 70 73 53 -209 0
75 50 76 51 70 73 53 -208 0
75 50 76 51 70 73 53 -212 0
75 50 76 51 70 73 53 -211 0
75 50 76 51 70 73 53 -210 0
75 50 76 51 54 73 53 -207 0
75 50 76 51 54 73 53 -209 0
75 50 76 51 54 73 53 -208 0
75 50 76 51 54 73 53 -212 0
75 50 76 51 54 73 53 -211 0
75 50 76 51 54 73 53 -210 0
75 50 76 70 54 73 53 -207 0
75 50 76 70 54 73 53 -209 0
75 50 76 70 54 73 53 -208 0
75 50 76 70 54 73 53 -212 0
75 50 76 70 54 73 53 -211 0
75 50 76 70 54 73 53 -210 0
75 50 51 70 54 73 53 -207 0
75 50 51 70 54 73 53 -209 0
75 50 51 70 54 73 53 -208 0
75 50 51 70 54 73 53 -212 0
75 50 51 70 54 73 53 -211 0
75 50 51 70 54 73 53 -210 0
75 8 76 12 70 14 73 -116 0
75 8 76 12 70 14 73 -113 0
75 8 76 12 70 14 73 -111 0
75 8 76 12 70 14 73 -114 0
75 8 76 12 70 14 73 -115 0
75 8 76 12 70 14 73 -112 0
75 8 76 12 70 14 17 -116 0
75 8 76 12 70 14 17 -113 0
75 8 76 12 70 14 17 -111 0
75 8 76 12 70 14 17 -114 0
75 8 76 12 70 14 17 -115 0
75 8 76 12 70 14 17 -112 0
75 8 76 12 70 73 17 -116 0
75 8 76 12 70 73 17 -113 0
75 8 76 12 70 73 17 -111 0
75 8 76 12 70 73 17 -114 0
75 8 76 12 70 73 17 -115 0
75 8 76 12 70 73 17 -112 0
75 8 76 12 14 73 17 -116 0
75 8 76 12 14 73 17 -113 0
75 8 76 12 14 73 17 -111 0
75 8 76 12 14 73 17 -114 0
75 8 76 12 14 73 17 -115 0
75 8 76 12 14 73 17 -112 0
75 8 76 70 14 73 17 -116 0
75 8 76 70 14 73 17 -113 0
75 8 76 70 14 73 17 -111 0
75 8 76 70 14 73 17 -114 0
75 8 76 70 14 73 17 -115 0
75 8 76 70 14 73 17 -112 0
75 8 12 70 14 73 17 -116 0
75 8 12 70 14 73 17 -113 0
75 8 12 70 14 73 17 -111 0
75 8 12 70 14 73 17 -114 0
75 8 12 70 14 73 17 -115 0
75 8 12 70 14 73 17 -112 0
75 41 76 42 70 46 73 -192 0
75 41 76 42 70 46 73 -195 0
75 41 76 42 70 46 73 -197 0
75 41 76 42 70 46 73 -194 0
75 41 76 42 70 46 73 -196 0
75 41 76 42 70 46 73 -193 0
75 41 76 42 70 46 40 -192 0
75 41 76 42 70 46 40 -195 0
75 41 76 42 70 46 40 -197 0
75 41 76 42 70 46 40 -194 0
75 41 76 42 70 46 40 -196 0
75 41 76 42 70 46 40 -193 0
75 41 76 42 70 73 40 -192 0
75 41 76 42 70 73 40 -195 0
75 41 76 42 70 73 40 -197 0
75 41 76 42 70 73 40 -194 0
75 41 76 42 70 73 40 -196 0
75 41 76 42 70 73 40 -193 0
75 41 76 42 46 73 40 -192 0
75 41 76 42 46 73 40 -195 0
75 41 76 42 46 73 40 -197 0
75 41 76 42 46 73 40 -194 0
75 41 76 42 46 73 40 -196 0
75 41 76 42 46 73 40 -193 0
75 41 76 70 46 73 40 -192 0
75 41 76 70 46 73 40 -195 0
75 41 76 70 46 73 40 -197 0
75 41 76 70 46 73 40 -194 0
75 41 76 70 46 73 40 -196 0
75 41 76 70 46 73 40 -193 0
75 41 42 70 46 73 40 -192 0
75 41 42 70 46 73 40 -195 0
75 41 42 70 46 73 40 -197 0
75 41 42 70 46 73 40 -194 0
75 41 42 70 46 73 40 -196 0
75 41 42 70 46 73 40 -193 0
75 22 76 18 70 20 73 -149 0
75 22 76 18 70 20 73 -144 0
75 22 76 18 70 20 73 -146 0
75 22 76 18 70 20 73 -148 0
75 22 76 18 70 20 73 -145 0
75 22 76 18 70 20 73 -147 0
75 22 76 18 70 20 19 -149 0
75 22 76 18 70 20 19 -144 0
75 22 76 18 70 20 19 -146 0
75 22 76 18 70 20 19 -148 0
75 22 76 18 70 20 19 -145 0
75 22 76 18 70 20 19 -147 0
75 22 76 18 70 73 19 -149 0
75 22 76 18 70 73 19 -144 0
75 22 76 18 70 73 19 -146 0
75 22 76 18 70 73 19 -148 0
75 22 76 18 70 73 19 -145 0
75 22 76 18 70 73 19 -147 0
75 22 76 18 20 73 19 -149 0
75 22 76 18 20 73 19 -144 0
75 22 76 18 20 73 19 -146 0
75 22 76 18 20 73 19 -148 0
75 22 76 18 20 73 19 -145 0
75 22 76 18 20 73 19 -147 0
75 22 76 70 20 73 19 -149 0
75 22 76 70 20 73 19 -144 0
75 22 76 70 20 73 19 -146 0
75 22 76 70 20 73 19 -148 0
75 22 76 70 20 73 19 -145 0
75 22 76 70 20 73 19 -147 0
75 22 18 70 20 73 19 -149 0
75 22 18 70 20 73 19 -144 0
75 22 18 70 20 73 19 -146 0
75 22 18 70 20 73 19 -148 0
75 22 18 70 20 73 19 -145 0
75 22 18 70 20 73 19 -147 0
75 1 76 2 70 5 73 -71 0
75 1 76 2 70 5 73 -74 0
75 1 76 2 70 5 73 -72 0
75 1 76 2 70 5 73 -77 0
75 1 76 2 70 5 73 -69 0
75 1 76 2 70 5 73 -68 0
75 1 76 2 70 5 3 -71 0
75 1 76 2 70 5 3 -74 0
75 1 76 2 70 5 3 -72 0
75 1 76 2 70 5 3 -77 0
75 1 76 2 70 5 3 -69 0
75 1 76 2 70 5 3 -68 0
75 1 76 2 70 73 3 -71 0
75 1 76 2 70 73 3 -74 0
75 1 76 2 70 73 3 -72 0
75 1 76 2 70 73 3 -77 0
75 1 76 2 70 73 3 -69 0
75 1 76 2 70 73 3 -68 0
75 1 76 2 5 73 3 -71 0
75 1 76 2 5 73 3 -74 0
75 1 76 2 5 73 3 -72 0
75 1 76 2 5 73 3 -77 0
75 1 76 2 5 73 3 -69 0
75 1 76 2 5 73 3 -68 0
75 1 76 70 5 73 3 -71 0
75 1 76 70 5 73 3 -74 0
75 1 76 70 5 73 3 -72 0
75 1 76 70 5 73 3 -77 0
75 1 76 70 5 73 3 -69 0
75 1 76 70 5 73 3 -68 0
75 1 2 70 5 73 3 -71 0
75 1 2 70 5 73 3 -74 0
75 1 2 70 5 73 3 -72 0
75 1 2 70 5 73 3 -77 0
75 1 2 70 5 73 3 -69 0
75 1 2 70 5 73 3 -68 0
75 29 76 34 70 30 73 -176 0
75 29 76 34 70 30 73 -171 0
75 29 76 34 70 30 73 -175 0
75 29 76 34 70 30 73 -172 0
75 29 76 34 70 30 73 -174 0
75 29 76 34 70 30 73 -173 0
75 76 65 70 66 73 59 -218 0
75 76 65 70 66 73 59 -221 0
75 76 65 70 66 73 59 -219 0
75 76 65 70 66 73 59 -216 0
75 76 65 70 66 73 59 -217 0
75 76 65 70 66 73 59 -220 0
75 76 51 70 54 73 53 -207 0
75 76 51 70 54 73 53 -209 0
75 76 51 70 54 73 53 -208 0
75 76 51 70 54 73 53 -212 0
75 76 51 70 54 73 53 -211 0
75 76 51 70 54 73 53 -210 0
75 76 12 70 14 73 17 -116 0
75 76 12 70 14 73 17 -113 0
75 76 12 70 14 73 17 -111 0
75 76 12 70 14 73 17 -114 0
75 76 12 70 14 73 17 -115 0
75 76 12 70 14 73 17 -112 0
75 76 42 70 46 73 40 -192 0
75 76 42 70 46 73 40 -195 0
75 76 42 70 46 73 40 -197 0
75 76 42 70 46 73 40 -194 0
75 76 42 70 46 73 40 -196 0
75 76 42 70 46 73 40 -193 0
75 76 18 70 20 73 19 -149 0
75 76 18 70 20 73 19 -144 0
75 76 18 70 20 73 19 -146 0
75 76 18 70 20 73 19 -148 0
75 76 18 70 20 73 19 -145 0
75 76 18 70 20 73 19 -147 0
75 76 2 70 5 73 3 -71 0
75 76 2 70 5 73 3 -74 0
75 76 2 70 5 73 3 -72 0
75 76 2 70 5 73 3 -77 0
75 76 2 70 5 73 3 -69 0
75 76 2 70 5 73 3 -68 0
62 50 65 51 66 54 59 -205 0
62 50 65 51 66 54 59 -202 0
62 50 65 51 66 54 59 -201 0
62 50 65 51 66 54 59 -204 0
62 50 65 51 66 54 59 -203 0
62 50 65 51 66 54 59 -206 0
62 50 65 51 66 54 53 -205 0
62 50 65 51 66 54 53 -202 0
62 50 65 51 66 54 53 -201 0
62 50 65 51 66 54 53 -204 0
62 50 65 51 66 54 53 -203 0
62 50 65 51 66 54 53 -206 0
62 50 65 51 66 59 53 -205 0
62 50 65 51 66 59 53 -202 0
62 50 65 51 66 59 53 -201 0
62 50 65 51 66 59 53 -204 0
62 50 65 51 66 59 53 -203 0
62 50 65 51 66 59 53 -206 0
62 50 65 51 54 59 53 -205 0
62 50 65 51 54 59 53 -202 0
62 50 65 51 54 59 53 -201 0
62 50 65 51 54 59 53 -204 0
62 50 65 51 54 59 53 -203 0
62 50 65 51 54 59 53 -206 0
62 50 65 66 54 59 53 -205 0
62 50 65 66 54 59 53 -202 0
62 50 65 66 54 59 53 -201 0
62 50 65 66 54 59 53 -204 0
62 50 65 66 54 59 53 -203 0
62 50 65 66 54 59 53 -206 0
62 50 51 66 54 59 53 -205 0
62 50 51 66 54 59 53 -202 0
62 50 51 66 54 59 53 -201 0
62 50 51 66 54 59 53 -204 0
62 50 51 66 54 59 53 -203 0
62 50 51 66 54 59 53 -206 0
62 8 65 12 66 14 59 -106 0
62 8 65 12 66 14 59 -105 0
62 8 65 12 66 14 59 -107 0
62 8 65 12 66 14 59 -109 0
62 8 65 12 66 14 59 -108 0
62 8 65 12 66 14 59 -110 0
62 8 65 12 66 14 17 -106 0
62 8 65 12 66 14 17 -105 0
62 8 65 12 66 14 17 -107 0
62 8 65 12 66 14 17 -109 0
62 8 65 12 66 14 17 -108 0
62 8 65 12 66 14 17 -110 0
62 8 65 12 66 59 17 -106 0
62 8 65 12 66 59 17 -105 0
62 8 65 12 66 59 17 -107 0
62 8 65 12 66 59 17 -109 0
62 8 65 12 66 59 17 -108 0
62 8 65 12 66 59 17 -110 0
62 8 65 12 14 59 17 -106 0
62 8 65 12 14 59 17 -105 0
62 8 65 12 14 59 17 -107 0
62 8 65 12 14 59 17 -109 0
62 8 65 12 14 59 17 -108 0
62 8 65 12 14 59 17 -110 0
62 8 65 66 14 59 17 -106 0
62 8 65 66 14 59 17 -105 0
62 8 65 66 14 59 17 -107 0
62 8 65 66 14 59 17 -109 0
62 8 65 66 14 59 17 -108 0
62 8 65 66 14 59 17 -110 0
62 8 12 66 14 59 17 -106 0
62 8 12 66 14 59 17 -105 0
62 8 12 66 14 59 17 -107 0
62 8 12 66 14 59 17 -109 0
62 8 12 66 14 59 17 -108 0
62 8 12 66 14 59 17 -110 0
62 41 65 42 66 46 59 -187 0
62 41 65 42 66 46 59 -188 0
62 41 65 42 66 46 59 -189 0
62 41 65 42 66 46 59 -190 0
62 41 65 42 66 46 59 -186 0
62 41 65 42 66 46 59 -191 0
62 41 65 42 66 46 40 -187 0
62 41 65 42 66 46 40 -188 0
62 41 65 42 66 46 40 -189 0
62 41 65 42 66 46 40 -190 0
62 41 65 42 66 46 40 -186 0
62 41 65 42 66 46 40 -191 0
62 41 65 42 66 59 40 -187 0
62 41 65 42 66 59 40 -188 0
62 41 65 42 66 59 40 -189 0
62 41 65 42 66 59 40 -190 0
62 41 65 42 66 59 40 -186 0
62 41 65 42 66 59 40 -191 0
62 41 65 42 46 59 40 -187 0
62 41 65 42 46 59 40 -188 0
62 41 65 42 46 59 40 -189 0
62 41 65 42 46 59 40 -190 0
62 41 65 42 46 59 40 -186 0
62 41 65 42 46 59 40 -191 0
62 41 65 66 46 59 40 -187 0
62 41 65 66 46 59 40 -188 0
62 41 65 66 46 59 40 -189 0
62 41 65 66 46 59 40 -190 0
62 41 65 66 46 59 40 -186 0
62 41 65 66 46 59 40 -191 0
62 41 42 66 46 59 40 -187 0
62 41 42 66 46 59 40 -188 0
62 41 42 66 46 59 40 -189 0
62 41 42 66 46 59 40 -190 0
62 41 42 66 46 59 40 -186 0
62 41 42 66 46 59 40 -191 0
62 22 65 18 66 20 59 -143 0
62 22 65 18 66 20 59 -139 0
62 22 65 18 66 20 59 -141 0
62 22 65 18 66 20 59 -138 0
62 22 65 18 66 20 59 -140 0
62 22 65 18 66 20 59 -142 0
62 22 65 18 66 20 19 -143 0
62 22 65 18 66 20 19 -139 0
62 22 65 18 66 20 19 -141 0
62 22 65 18 66 20 19 -138 0
62 22 65 18 66 20 19 -140 0
62 22 65 18 66 20 19 -142 0
62 22 65 18 66 59 19 -143 0
62 22 65 18 66 59 19 -139 0
62 22 65 18 66 59 19 -141 0
62 22 65 18 66 59 19 -138 0
62 22 65 18 66 59 19 -140 0
62 22 65 18 66 59 19 -142 0
62 22 65 18 20 59 19 -143 0
62 22 65 18 20 59 19 -139 0
62 22 65 18 20 59 19 -141 0
62 22 65 18 20 59 19 -138 0
62 22 65 18 20 59 19 -140 0
62 22 65 18 20 59 19 -142 0
62 22 65 66 20 59 19 -143 0
62 22 65 66 20 59 19 -139 0
62 22 65 66 20 59 19 -141 0
62 22 65 66 20 59 19 -138 0
62 22 65 66 20 59 19 -140 0
62 22 65 66 20 59 19 -142 0
62 22 18 66 20 59 19 -143 0
62 22 18 66 20 59 19 -139 0
62 22 18 66 20 59 19 -141 0
62 22 18 66 20 59 19 -138 0
62 22 18 66 20 59 19 -140 0
62 22 18 66 20 59 19 -142 0
62 1 65 2 66 5 59 -67 0
62 1 65 2 66 5 59 -60 0
62 1 65 2 66 5 59 -58 0
62 1 65 2 66 5 59 -63 0
62 1 65 2 66 5 59 -61 0
62 1 65 2 66 5 59 -64 0
62 1 65 2 66 5 3 -67 0
62 1 65 2 66 5 3 -60 0
62 1 65 2 66 5 3 -58 0
62 1 65 2 66 5 3 -63 0
62 1 65 2 66 5 3 -61 0
62 1 65 2 66 5 3 -64 0
62 1 65 2 66 59 3 -67 0
62 1 65 2 66 59 3 -60 0
62 1 65 2 66 59 3 -58 0
62 1 65 2 66 59 3 -63 0
62 1 65 2 66 59 3 -61 0
62 1 65 2 66 59 3 -64 0
62 1 65 2 5 59 3 -67 0
62 1 65 2 5 59 3 -60 0
62 1 65 2 5 59 3 -58 0
62 1 65 2 5 59 3 -63 0
62 1 65 2 5 59 3 -61 0
62 1 65 2 5 59 3 -64 0
62 1 65 66 5 59 3 -67 0
62 1 65 66 5 59 3 -60 0
62 1 65 66 5 59 3 -58 0
62 1 65 66 5 59 3 -63 0
62 1 65 66 5 59 3 -61 0
62 1 65 66 5 59 3 -64 0
62 1 2 66 5 59 3 -67 0
62 1 2 66 5 59 3 -60 0
62 1 2 66 5 59 3 -58 0
62 1 2 66 5 59 3 -63 0
62 1 2 66 5 59 3 -61 0
62 1 2 66 5 59 3 -64 0
62 29 65 34 66 30 59 -166 0
62 29 65 34 66 30 59 -167 0
62 29 65 34 66 30 59 -170 0
62 29 65 34 66 30 59 -169 0
62 29 65 34 66 30 59 -168 0
62 29 65 34 66 30 59 -165 0
62 76 65 70 66 73 59 -218 0
62 76 65 70 66 73 59 -221 0
62 76 65 70 66 73 59 -219 0
62 76 65 70 66 73 59 -216 0
62 76 65 70 66 73 59 -217 0
62 76 65 70 66 73 59 -220 0
62 65 51 66 54 59 53 -205 0
62 65 51 66 54 59 53 -202 0
62 65 51 66 54 59 53 -201 0
62 65 51 66 54 59 53 -204 0
62 65 51 66 54 59 53 -203 0
62 65 51 66 54 59 53 -206 0
62 65 12 66 14 59 17 -106 0
62 65 12 66 14 59 17 -105 0
62 65 12 66 14 59 17 -107 0
62 65 12 66 14 59 17 -109 0
62 65 12 66 14 59 17 -108 0
62 65 12 66 14 59 17 -110 0
62 65 42 66 46 59 40 -187 0
62 65 42 66 46 59 40 -188 0
62 65 42 66 46 59 40 -189 0
62 65 42 66 46 59 40 -190 0
62 65 42 66 46 59 40 -186 0
62 65 42 66 46 59 40 -191 0
62 65 18 66 20 59 19 -143 0
62 65 18 66 20 59 19 -139 0
62 65 18 66 20 59 19 -141 0
62 65 18 66 20 59 19 -138 0
62 65 18 66 20 59 19 -140 0
62 65 18 66 20 59 19 -142 0
62 65 2 66 5 59 3 -67 0
62 65 2 66 5 59 3 -60 0
62 65 2 66 5 59 3 -58 0
62 65 2 66 5 59 3 -63 0
62 65 2 66 5 59 3 -61 0
62 65 2 66 5 59 3 -64 0
50 8 51 12 54 14 53 -100 0
50 8 51 12 54 14 53 -102 0
50 8 51 12 54 14 53 -103 0
50 8 51 12 54 14 53 -104 0
50 8 51 12 54 14 53 -101 0
50 8 51 12 54 14 53 -99 0
50 8 51 12 54 14 17 -100 0
50 8 51 12 54 14 17 -102 0
50 8 51 12 54 14 17 -103 0
50 8 51 12 54 14 17 -104 0
50 8 51 12 54 14 17 -101 0
50 8 51 12 54 14 17 -99 0
50 8 51 12 54 53 17 -100 0
50 8 51 12 54 53 17 -102 0
50 8 51 12 54 53 17 -103 0
50 8 51 12 54 53 17 -104 0
50 8 51 12 54 53 17 -101 0
50 8 51 12 54 53 17 -99 0
50 8 51 12 14 53 17 -100 0
50 8 51 12 14 53 17 -102 0
50 8 51 12 14 53 17 -103 0
50 8 51 12 14 53 17 -104 0
50 8 51 12 14 53 17 -101 0
50 8 51 12 14 53 17 -99 0
50 8 51 54 14 53 17 -100 0
50 8 51 54 14 53 17 -102 0
50 8 51 54 14 53 17 -103 0
50 8 51 54 14 53 17 -104 0
50 8 51 54 14 53 17 -101 0
50 8 51 54 14 53 17 -99 0
50 8 12 54 14 53 17 -100 0
50 8 12 54 14 53 17 -102 0
50 8 12 54 14 53 17 -103 0
50 8 12 54 14 53 17 -104 0
50 8 12 54 14 53 17 -101 0
50 8 12 54 14 53 17 -99 0
50 41 51 42 54 46 53 -185 0
50 41 51 42 54 46 53 -180 0
50 41 51 42 54 46 53 -181 0
50 41 51 42 54 46 53 -182 0
50 41 51 42 54 46 53 -184 0
50 41 51 42 54 46 53 -183 0
50 41 51 42 54 46 40 -185 0
50 41 51 42 54 46 40 -180 0
50 41 51 42 54 46 40 -181 0
50 41 51 42 54 46 40 -182 0
50 41 51 42 54 46 40 -184 0
50 41 51 42 54 46 40 -183 0
50 41 51 42 54 53 40 -185 0
50 41 51 42 54 53 40 -180 0
50 41 51 42 54 53 40 -181 0
50 41 51 42 54 53 40 -182 0
50 41 51 42 54 53 40 -184 0
50 41 51 42 54 53 40 -183 0
50 41 51 42 46 53 40 -185 0
50 41 51 42 46 53 40 -180 0
50 41 51 42 46 53 40 -181 0
50 41 51 42 46 53 40 -182 0
50 41 51 42 46 53 40 -184 0
50 41 51 42 46 53 40 -183 0
50 41 51 54 46 53 40 -185 0
50 41 51 54 46 53 40 -180 0
50 41 51 54 46 53 40 -181 0
50 41 51 54 46 53 40 -182 0
50 41 51 54 46 53 40 -184 0
50 41 51 54 46 53 40 -183 0
50 41 42 54 46 53 40 -185 0
50 41 42 54 46 53 40 -180 0
50 41 42 54 46 53 40 -181 0
50 41 42 54 46 53 40 -182 0
50 41 42 54 46 53 40 -184 0
50 41 42 54 46 53 40 -183 0
50 22 51 18 54 20 53 -135 0
50 22 51 18 54 20 53 -132 0
50 22 51 18 54 20 53 -136 0
50 22 51 18 54 20 53 -134 0
50 22 51 18 54 20 53 -133 0
50 22 51 18 54 20 53 -137 0
50 22 51 18 54 20 19 -135 0
50 22 51 18 54 20 19 -132 0
50 22 51 18 54 20 19 -136 0
50 22 51 18 54 20 19 -134 0
50 22 51 18 54 20 19 -133 0
50 22 51 18 54 20 19 -137 0
50 22 51 18 54 53 19 -135 0
50 22 51 18 54 53 19 -132 0
50 22 51 18 54 53 19 -136 0
50 22 51 18 54 53 19 -134 0
50 22 51 18 54 53 19 -133 0
50 22 51 18 54 53 19 -137 0
50 22 51 18 20 53 19 -135 0
50 22 51 18 20 53 19 -132 0
50 22 51 18 20 53 19 -136 0
50 22 51 18 20 53 19 -134 0
50 22 51 18 20 53 19 -133 0
50 22 51 18 20 53 19 -137 0
50 22 51 54 20 53 19 -135 0
50 22 51 54 20 53 19 -132 0
50 22 51 54 20 53 19 -136 0
50 22 51 54 20 53 19 -134 0
50 22 51 54 20 53 19 -133 0
50 22 51 54 20 53 19 -137 0
50 22 18 54 20 53 19 -135 0
50 22 18 54 20 53 19 -132 0
50 22 18 54 20 53 19 -136 0
50 22 18 54 20 53 19 -134 0
50 22 18 54 20 53 19 -133 0
50 22 18 54 20 53 19 -137 0
50 1 51 2 54 5 53 -57 0
50 1 51 2 54 5 53 -55 0
50 1 51 2 54 5 53 -49 0
50 1 51 2 54 5 53 -52 0
50 1 51 2 54 5 53 -48 0
50 1 51 2 54 5 53 -56 0
50 1 51 2 54 5 3 -57 0
50 1 51 2 54 5 3 -55 0
50 1 51 2 54 5 3 -49 0
50 1 51 2 54 5 3 -52 0
50 1 51 2 54 5 3 -48 0
50 1 51 2 54 5 3 -56 0
50 1 51 2 54 53 3 -57 0
50 1 51 2 54 53 3 -55 0
50 1 51 2 54 53 3 -49 0
50 1 51 2 54 53 3 -52 0
50 1 51 2 54 53 3 -48 0
50 1 51 2 54 53 3 -56 0
50 1 51 2 5 53 3 -57 0
50 1 51 2 5 53 3 -55 0
50 1 51 2 5 53 3 -49 0
50 1 51 2 5 53 3 -52 0
50 1 51 2 5 53 3 -48 0
50 1 51 2 5 53 3 -56 0
50 1 51 54 5 53 3 -57 0
50 1 51 54 5 53 3 -55 0
50 1 51 54 5 53 3 -49 0
50 1 51 54 5 53 3 -52 0
50 1 51 54 5 53 3 -48 0
50 1 51 54 5 53 3 -56 0
50 1 2 54 5 53 3 -57 0
50 1 2 54 5 53 3 -55 0
50 1 2 54 5 53 3 -49 0
50 1 2 54 5 53 3 -52 0
50 1 2 54 5 53 3 -48 0
50 1 2 54 5 53 3 -56 0
50 29 51 34 54 30 53 -160 0
50 29 51 34 54 30 53 -159 0
50 29 51 34 54 30 53 -161 0
50 29 51 34 54 30 53 -164 0
50 29 51 34 54 30 53 -163 0
50 29 51 34 54 30 53 -162 0
50 76 51 70 54 73 53 -207 0
50 76 51 70 54 73 53 -209 0
50 76 51 70 54 73 53 -208 0
50 76 51 70 54 73 53 -212 0
50 76 51 70 54 73 53 -211 0
50 76 51 70 54 73 53 -210 0
50 65 51 66 54 59 53 -205 0
50 65 51 66 54 59 53 -202 0
50 65 51 66 54 59 53 -201 0
50 65 51 66 54 59 53 -204 0
50 65 51 66 54 59 53 -203 0
50 65 51 66 54 59 53 -206 0
50 51 12 54 14 53 17 -100 0
50 51 12 54 14 53 17 -102 0
50 51 12 54 14 53 17 -103 0
50 51 12 54 14 53 17 -104 0
50 51 12 54 14 53 17 -101 0
50 51 12 54 14 53 17 -99 0
50 51 42 54 46 53 40 -185 0
50 51 42 54 46 53 40 -180 0
50 51 42 54 46 53 40 -181 0
50 51 42 54 46 53 40 -182 0
50 51 42 54 46 53 40 -184 0
50 51 42 54 46 53 40 -183 0
50 51 18 54 20 53 19 -135 0
50 51 18 54 20 53 19 -132 0
50 51 18 54 20 53 19 -136 0
50 51 18 54 20 53 19 -134 0
50 51 18 54 20 53 19 -133 0
50 51 18 54 20 53 19 -137 0
50 51 2 54 5 53 3 -57 0
50 51 2 54 5 53 3 -55 0
50 51 2 54 5 53 3 -49 0
50 51 2 54 5 53 3 -52 0
50 51 2 54 5 53 3 -48 0
50 51 2 54 5 53 3 -56 0
8 41 12 42 14 46 17 -93 0
8 41 12 42 14 46 17 -96 0
8 41 12 42 14 46 17 -95 0
8 41 12 42 14 46 17 -94 0
8 41 12 42 14 46 17 -98 0
8 41 12 42 14 46 17 -97 0
8 41 12 42 14 46 40 -93 0
8 41 12 42 14 46 40 -96 0
8 41 12 42 14 46 40 -95 0
8 41 12 42 14 46 40 -94 0
8 41 12 42 14 46 40 -98 0
8 41 12 42 14 46 40 -97 0
8 41 12 42 14 17 40 -93 0
8 41 12 42 14 17 40 -96 0
8 41 12 42 14 17 40 -95 0
8 41 12 42 14 17 40 -94 0
8 41 12 42 14 17 40 -98 0
8 41 12 42 14 17 40 -97 0
8 41 12 42 46 17 40 -93 0
8 41 12 42 46 17 40 -96 0
8 41 12 42 46 17 40 -95 0
8 41 12 42 46 17 40 -94 0
8 41 12 42 46 17 40 -98 0
8 41 12 42 46 17 40 -97 0
8 41 12 14 46 17 40 -93 0
8 41 12 14 46 17 40 -96 0
8 41 12 14 46 17 40 -95 0
8 41 12 14 46 17 40 -94 0
8 41 12 14 46 17 40 -98 0
8 41 12 14 46 17 40 -97 0
8 41 42 14 46 17 40 -93 0
8 41 42 14 46 17 40 -96 0
8 41 42 14 46 17 40 -95 0
8 41 42 14 46 17 40 -94 0
8 41 42 14 46 17 40 -98 0
8 41 42 14 46 17 40 -97 0
8 22 12 18 14 20 17 -85 0
8 22 12 18 14 20 17 -86 0
8 22 12 18 14 20 17 -83 0
8 22 12 18 14 20 17 -84 0
8 22 12 18 14 20 17 -81 0
8 22 12 18 14 20 17 -82 0
8 22 12 18 14 20 19 -85 0
8 22 12 18 14 20 19 -86 0
8 22 12 18 14 20 19 -83 0
8 22 12 18 14 20 19 -84 0
8 22 12 18 14 20 19 -81 0
8 22 12 18 14 20 19 -82 0
8 22 12 18 14 17 19 -85 0
8 22 12 18 14 17 19 -86 0
8 22 12 18 14 17 19 -83 0
8 22 12 18 14 17 19 -84 0
8 22 12 18 14 17 19 -81 0
8 22 12 18 14 17 19 -82 0
8 22 12 18 20 17 19 -85 0
8 22 12 18 20 17 19 -86 0
8 22 12 18 20 17 19 -83 0
8 22 12 18 20 17 19 -84 0
8 22 12 18 20 17 19 -81 0
8 22 12 18 20 17 19 -82 0
8 22 12 14 20 17 19 -85 0
8 22 12 14 20 17 19 -86 0
8 22 12 14 20 17 19 -83 0
8 22 12 14 20 17 19 -84 0
8 22 12 14 20 17 19 -81 0
8 22 12 14 20 17 19 -82 0
8 22 18 14 20 17 19 -85 0
8 22 18 14 20 17 19 -86 0
8 22 18 14 20 17 19 -83 0
8 22 18 14 20 17 19 -84 0
8 22 18 14 20 17 19 -81 0
8 22 18 14 20 17 19 -82 0
8 1 12 2 14 5 17 -9 0
8 1 12 2 14 5 17 -10 0
8 1 12 2 14 5 17 -16 0
8 1 12 2 14 5 17 -15 0
8 1 12 2 14 5 17 -13 0
8 1 12 2 14 5 17 -11 0
8 1 12 2 14 5 3 -9 0
8 1 12 2 14 5 3 -10 0
8 1 12 2 14 5 3 -16 0
8 1 12 2 14 5 3 -15 0
8 1 12 2 14 5 3 -13 0
8 1 12 2 14 5 3 -11 0
8 1 12 2 14 17 3 -9 0
8 1 12 2 14 17 3 -10 0
8 1 12 2 14 17 3 -16 0
8 1 12 2 14 17 3 -15 0
8 1 12 2 14 17 3 -13 0
8 1 12 2 14 17 3 -11 0
8 1 12 2 5 17 3 -9 0
8 1 12 2 5 17 3 -10 0
8 1 12 2 5 17 3 -16 0
8 1 12 2 5 17 3 -15 0
8 1 12 2 5 17 3 -13 0
8 1 12 2 5 17 3 -11 0
8 1 12 14 5 17 3 -9 0
8 1 12 14 5 17 3 -10 0
8 1 12 14 5 17 3 -16 0
8 1 12 14 5 17 3 -15 0
8 1 12 14 5 17 3 -13 0
8 1 12 14 5 17 3 -11 0
8 1 2 14 5 17 3 -9 0
8 1 2 14 5 17 3 -10 0
8 1 2 14 5 17 3 -16 0
8 1 2 14 5 17 3 -15 0
8 1 2 14 5 17 3 -13 0
8 1 2 14 5 17 3 -11 0
8 29 12 34 14 30 17 -91 0
8 29 12 34 14 30 17 -89 0
8 29 12 34 14 30 17 -92 0
8 29 12 34 14 30 17 -90 0
8 29 12 34 14 30 17 -88 0
8 29 12 34 14 30 17 -87 0
8 76 12 70 14 73 17 -116 0
8 76 12 70 14 73 17 -113 0
8 76 12 70 14 73 17 -111 0
8 76 12 70 14 73 17 -114 0
8 76 12 70 14 73 17 -115 0
8 76 12 70 14 73 17 -112 0
8 65 12 66 14 59 17 -106 0
8 65 12 66 14 59 17 -105 0
8 65 12 66 14 59 17 -107 0
8 65 12 66 14 59 17 -109 0
8 65 12 66 14 59 17 -108 0
8 65 12 66 14 59 17 -110 0
8 51 12 54 14 53 17 -100 0
8 51 12 54 14 53 17 -102 0
8 51 12 54 14 53 17 -103 0
8 51 12 54 14 53 17 -104 0
8 51 12 54 14 53 17 -101 0
8 51 12 54 14 53 17 -99 0
8 12 42 14 46 17 40 -93 0
8 12 42 14 46 17 40 -96 0
8 12 42 14 46 17 40 -95 0
8 12 42 14 46 17 40 -94 0
8 12 42 14 46 17 40 -98 0
8 12 42 14 46 17 40 -97 0
8 12 18 14 20 17 19 -85 0
8 12 18 14 20 17 19 -86 0
8 12 18 14 20 17 19 -83 0
8 12 18 14 20 17 19 -84 0
8 12 18 14 20 17 19 -81 0
8 12 18 14 20 17 19 -82 0
8 12 2 14 5 17 3 -9 0
8 12 2 14 5 17 3 -10 0
8 12 2 14 5 17 3 -16 0
8 12 2 14 5 17 3 -15 0
8 12 2 14 5 17 3 -13 0
8 12 2 14 5 17 3 -11 0
41 22 42 18 46 20 40 -131 0
41 22 42 18 46 20 40 -129 0
41 22 42 18 46 20 40 -130 0
41 22 42 18 46 20 40 -127 0
41 22 42 18 46 20 40 -128 0
41 22 42 18 46 20 40 -126 0
41 22 42 18 46 20 19 -131 0
41 22 42 18 46 20 19 -129 0
41 22 42 18 46 20 19 -130 0
41 22 42 18 46 20 19 -127 0
41 22 42 18 46 20 19 -128 0
41 22 42 18 46 20 19 -126 0
41 22 42 18 46 40 19 -131 0
41 22 42 18 46 40 19 -129 0
41 22 42 18 46 40 19 -130 0
41 22 42 18 46 40 19 -127 0
41 22 42 18 46 40 19 -128 0
41 22 42 18 46 40 19 -126 0
41 22 42 18 20 40 19 -131 0
41 22 42 18 20 40 19 -129 0
41 22 42 18 20 40 19 -130 0
41 22 42 18 20 40 19 -127 0
41 22 42 18 20 40 19 -128 0
41 22 42 18 20 40 19 -126 0
41 22 42 46 20 40 19 -131 0
41 22 42 46 20 40 19 -129 0
41 22 42 46 20 40 19 -130 0
41 22 42 46 20 40 19 -127 0
41 22 42 46 20 40 19 -128 0
41 22 42 46 20 40 19 -126 0
41 22 18 46 20 40 19 -131 0
41 22 18 46 20 40 19 -129 0
41 22 18 46 20 40 19 -130 0
41 22 18 46 20 40 19 -127 0
41 22 18 46 20 40 19 -128 0
41 22 18 46 20 40 19 -126 0
41 1 42 2 46 5 40 -44 0
41 1 42 2 46 5 40 -39 0
41 1 42 2 46 5 40 -47 0
41 1 42 2 46 5 40 -43 0
41 1 42 2 46 5 40 -38 0
41 1 42 2 46 5 40 -45 0
41 1 42 2 46 5 3 -44 0
41 1 42 2 46 5 3 -39 0
41 1 42 2 46 5 3 -47 0
41 1 42 2 46 5 3 -43 0
41 1 42 2 46 5 3 -38 0
41 1 42 2 46 5 3 -45 0
41 1 42 2 46 40 3 -44 0
41 1 42 2 46 40 3 -39 0
41 1 42 2 46 40 3 -47 0
41 1 42 2 46 40 3 -43 0
41 1 42 2 46 40 3 -38 0
41 1 42 2 46 40 3 -45 0
41 1 42 2 5 40 3 -44 0
41 1 42 2 5 40 3 -39 0
41 1 42 2 5 40 3 -47 0
41 1 42 2 5 40 3 -43 0
41 1 42 2 5 40 3 -38 0
41 1 42 2 5 40 3 -45 0
41 1 42 46 5 40 3 -44 0
41 1 42 46 5 40 3 -39 0
41 1 42 46 5 40 3 -47 0
41 1 42 46 5 40 3 -43 0
41 1 42 46 5 40 3 -38 0
41 1 42 46 5 40 3 -45 0
41 1 2 46 5 40 3 -44 0
41 1 2 46 5 40 3 -39 0
41 1 2 46 5 40 3 -47 0
41 1 2 46 5 40 3 -43 0
41 1 2 46 5 40 3 -38 0
41 1 2 46 5 40 3 -45 0
41 29 42 34 46 30 40 -155 0
41 29 42 34 46 30 40 -153 0
41 29 42 34 46 30 40 -154 0
41 29 42 34 46 30 40 -156 0
41 29 42 34 46 30 40 -158 0
41 29 42 34 46 30 40 -157 0
41 76 42 70 46 73 40 -192 0
41 76 42 70 46 73 40 -195 0
41 76 42 70 46 73 40 -197 0
41 76 42 70 46 73 40 -194 0
41 76 42 70 46 73 40 -196 0
41 76 42 70 46 73 40 -193 0
41 65 42 66 46 59 40 -187 0
41 65 42 66 46 59 40 -188 0
41 65 42 66 46 59 40 -189 0
41 65 42 66 46 59 40 -190 0
41 65 42 66 46 59 40 -186 0
41 65 42 66 46 59 40 -191 0
41 51 42 54 46 53 40 -185 0
41 51 42 54 46 53 40 -180 0
41 51 42 54 46 53 40 -181 0
41 51 42 54 46 53 40 -182 0
41 51 42 54 46 53 40 -184 0
41 51 42 54 46 53 40 -183 0
41 12 42 14 46 17 40 -93 0
41 12 42 14 46 17 40 -96 0
41 12 42 14 46 17 40 -95 0
41 12 42 14 46 17 40 -94 0
41 12 42 14 46 17 40 -98 0
41 12 42 14 46 17 40 -97 0
41 42 18 46 20 40 19 -131 0
41 42 18 46 20 40 19 -129 0
41 42 18 46 20 40 19 -130 0
41 42 18 46 20 40 19 -127 0
41 42 18 46 20 40 19 -128 0
41 42 18 46 20 40 19 -126 0
41 42 2 46 5 40 3 -44 0
41 42 2 46 5 40 3 -39 0
41 42 2 46 5 40 3 -47 0
41 42 2 46 5 40 3 -43 0
41 42 2 46 5 40 3 -38 0
41 42 2 46 5 40 3 -45 0
22 1 18 2 20 5 19 -23 0
22 1 18 2 20 5 19 -24 0
22 1 18 2 20 5 19 -26 0
22 1 18 2 20 5 19 -27 0
22 1 18 2 20 5 19 -21 0
22 1 18 2 20 5 19 -25 0
22 1 18 2 20 5 3 -23 0
22 1 18 2 20 5 3 -24 0
22 1 18 2 20 5 3 -26 0
22 1 18 2 20 5 3 -27 0
22 1 18 2 20 5 3 -21 0
22 1 18 2 20 5 3 -25 0
22 1 18 2 20 19 3 -23 0
22 1 18 2 20 19 3 -24 0
22 1 18 2 20 19 3 -26 0
22 1 18 2 20 19 3 -27 0
22 1 18 2 20 19 3 -21 0
22 1 18 2 20 19 3 -25 0
22 1 18 2 5 19 3 -23 0
22 1 18 2 5 19 3 -24 0
22 1 18 2 5 19 3 -26 0
22 1 18 2 5 19 3 -27 0
22 1 18 2 5 19 3 -21 0
22 1 18 2 5 19 3 -25 0
22 1 18 20 5 19 3 -23 0
22 1 18 20 5 19 3 -24 0
22 1 18 20 5 19 3 -26 0
22 1 18 20 5 19 3 -27 0
22 1 18 20 5 19 3 -21 0
22 1 18 20 5 19 3 -25 0
22 1 2 20 5 19 3 -23 0
22 1 2 20 5 19 3 -24 0
22 1 2 20 5 19 3 -26 0
22 1 2 20 5 19 3 -27 0
22 1 2 20 5 19 3 -21 0
22 1 2 20 5 19 3 -25 0
22 29 18 34 20 30 19 -121 0
22 29 18 34 20 30 19 -123 0
22 29 18 34 20 30 19 -122 0
22 29 18 34 20 30 19 -124 0
22 29 18 34 20 30 19 -120 0
22 29 18 34 20 30 19 -125 0
22 76 18 70 20 73 19 -149 0
22 76 18 70 20 73 19 -144 0
22 76 18 70 20 73 19 -146 0
22 76 18 70 20 73 19 -148 0
22 76 18 70 20 73 19 -145 0
22 76 18 70 20 73 19 -147 0
22 65 18 66 20 59 19 -143 0
22 65 18 66 20 59 19 -139 0
22 65 18 66 20 59 19 -141 0
22 65 18 66 20 59 19 -138 0
22 65 18 66 20 59 19 -140 0
22 65 18 66 20 59 19 -142 0
22 51 18 54 20 53 19 -135 0
22 51 18 54 20 53 19 -132 0
22 51 18 54 20 53 19 -136 0
22 51 18 54 20 53 19 -134 0
22 51 18 54 20 53 19 -133 0
22 51 18 54 20 53 19 -137 0
22 12 18 14 20 17 19 -85 0
22 12 18 14 20 17 19 -86 0
22 12 18 14 20 17 19 -83 0
22 12 18 14 20 17 19 -84 0
22 12 18 14 20 17 19 -81 0
22 12 18 14 20 17 19 -82 0
22 42 18 46 20 40 19 -131 0
22 42 18 46 20 40 19 -129 0
22 42 18 46 20 40 19 -130 0
22 42 18 46 20 40 19 -127 0
22 42 18 46 20 40 19 -128 0
22 42 18 46 20 40 19 -126 0
22 18 2 20 5 19 3 -23 0
22 18 2 20 5 19 3 -24 0
22 18 2 20 5 19 3 -26 0
22 18 2 20 5 19 3 -27 0
22 18 2 20 5 19 3 -21 0
22 18 2 20 5 19 3 -25 0
1 29 2 34 5 30 3 -31 0
1 29 2 34 5 30 3 -37 0
1 29 2 34 5 30 3 -36 0
1 29 2 34 5 30 3 -28 0
1 29 2 34 5 30 3 -33 0
1 29 2 34 5 30 3 -35 0
1 76 2 70 5 73 3 -71 0
1 76 2 70 5 73 3 -74 0
1 76 2 70 5 73 3 -72 0
1 76 2 70 5 73 3 -77 0
1 76 2 70 5 73 3 -69 0
1 76 2 70 5 73 3 -68 0
1 65 2 66 5 59 3 -67 0
1 65 2 66 5 59 3 -60 0
1 65 2 66 5 59 3 -58 0
1 65 2 66 5 59 3 -63 0
1 65 2 66 5 59 3 -61 0
1 65 2 66 5 59 3 -64 0
1 51 2 54 5 53 3 -57 0
1 51 2 54 5 53 3 -55 0
1 51 2 54 5 53 3 -49 0
1 51 2 54 5 53 3 -52 0
1 51 2 54 5 53 3 -48 0
1 51 2 54 5 53 3 -56 0
1 12 2 14 5 17 3 -9 0
1 12 2 14 5 17 3 -10 0
1 12 2 14 5 17 3 -16 0
1 12 2 14 5 17 3 -15 0
1 12 2 14 5 17 3 -13 0
1 12 2 14 5 17 3 -11 0
1 42 2 46 5 40 3 -44 0
1 42 2 46 5 40 3 -39 0
1 42 2 46 5 40 3 -47 0
1 42 2 46 5 40 3 -43 0
1 42 2 46 5 40 3 -38 0
1 42 2 46 5 40 3 -45 0
1 18 2 20 5 19 3 -23 0
1 18 2 20 5 19 3 -24 0
1 18 2 20 5 19 3 -26 0
1 18 2 20 5 19 3 -27 0
1 18 2 20 5 19 3 -21 0
1 18 2 20 5 19 3 -25 0
32 75 29 76 34 70 30 73 -176 0
32 75 29 76 34 70 30 73 -171 0
32 75 29 76 34 70 30 73 -175 0
32 75 29 76 34 70 30 73 -172 0
32 75 29 76 34 70 30 73 -174 0
32 75 29 76 34 70 30 73 -173 0
32 62 29 65 34 66 30 59 -166 0
32 62 29 65 34 66 30 59 -167 0
32 62 29 65 34 66 30 59 -170 0
32 62 29 65 34 66 30 59 -169 0
32 62 29 65 34 66 30 59 -168 0
32 62 29 65 34 66 30 59 -165 0
32 50 29 51 34 54 30 53 -160 0
32 50 29 51 34 54 30 53 -159 0
32 50 29 51 34 54 30 53 -161 0
32 50 29 51 34 54 30 53 -164 0
32 50 29 51 34 54 30 53 -163 0
32 50 29 51 34 54 30 53 -162 0
32 8 29 12 34 14 30 17 -91 0
32 8 29 12 34 14 30 17 -89 0
32 8 29 12 34 14 30 17 -92 0
32 8 29 12 34 14 30 17 -90 0
32 8 29 12 34 14 30 17 -88 0
32 8 29 12 34 14 30 17 -87 0
32 41 29 42 34 46 30 40 -155 0
32 41 29 42 34 46 30 40 -153 0
32 41 29 42 34 46 30 40 -154 0
32 41 29 42 34 46 30 40 -156 0
32 41 29 42 34 46 30 40 -158 0
32 41 29 42 34 46 30 40 -157 0
32 22 29 18 34 20 30 19 -121 0
32 22 29 18 34 20 30 19 -123 0
32 22 29 18 34 20 30 19 -122 0
32 22 29 18 34 20 30 19 -124 0
32 22 29 18 34 20 30 19 -120 0
32 22 29 18 34 20 30 19 -125 0
32 1 29 2 34 5 30 3 -31 0
32 1 29 2 34 5 30 3 -37 0
32 1 29 2 34 5 30 3 -36 0
32 1 29 2 34 5 30 3 -28 0
32 1 29 2 34 5 30 3 -33 0
32 1 29 2 34 5 30 3 -35 0
75 62 76 65 70 66 73 59 -218 0
75 62 76 65 70 66 73 59 -221 0
75 62 76 65 70 66 73 59 -219 0
75 62 76 65 70 66 73 59 -216 0
75 62 76 65 70 66 73 59 -217 0
75 62 76 65 70 66 73 59 -220 0
75 50 76 51 70 54 73 53 -207 0
75 50 76 51 70 54 73 53 -209 0
75 50 76 51 70 54 73 53 -208 0
75 50 76 51 70 54 73 53 -212 0
75 50 76 51 70 54 73 53 -211 0
75 50 76 51 70 54 73 53 -210 0
75 8 76 12 70 14 73 17 -116 0
75 8 76 12 70 14 73 17 -113 0
75 8 76 12 70 14 73 17 -111 0
75 8 76 12 70 14 73 17 -114 0
75 8 76 12 70 14 73 17 -115 0
75 8 76 12 70 14 73 17 -112 0
75 41 76 42 70 46 73 40 -192 0
75 41 76 42 70 46 73 40 -195 0
75 41 76 42 70 46 73 40 -197 0
75 41 76 42 70 46 73 40 -194 0
75 41 76 42 70 46 73 40 -196 0
75 41 76 42 70 46 73 40 -193 0
75 22 76 18 70 20 73 19 -149 0
75 22 76 18 70 20 73 19 -144 0
75 22 76 18 70 20 73 19 -146 0
75 22 76 18 70 20 73 19 -148 0
75 22 76 18 70 20 73 19 -145 0
75 22 76 18 70 20 73 19 -147 0
75 1 76 2 70 5 73 3 -71 0
75 1 76 2 70 5 73 3 -74 0
75 1 76 2 70 5 73 3 -72 0
75 1 76 2 70 5 73 3 -77 0
75 1 76 2 70 5 73 3 -69 0
75 1 76 2 70 5 73 3 -68 0
62 50 65 51 66 54 59 53 -205 0
62 50 65 51 66 54 59 53 -202 0
62 50 65 51 66 54 59 53 -201 0
62 50 65 51 66 54 59 53 -204 0
62 50 65 51 66 54 59 53 -203 0
62 50 65 51 66 54 59 53 -206 0
62 8 65 12 66 14 59 17 -106 0
62 8 65 12 66 14 59 17 -105 0
62 8 65 12 66 14 59 17 -107 0
62 8 65 12 66 14 59 17 -109 0
62 8 65 12 66 14 59 17 -108 0
62 8 65 12 66 14 59 17 -110 0
62 41 65 42 66 46 59 40 -187 0
62 41 65 42 66 46 59 40 -188 0
62 41 65 42 66 46 59 40 -189 0
62 41 65 42 66 46 59 40 -190 0
62 41 65 42 66 46 59 40 -186 0
62 41 65 42 66 46 59 40 -191 0
62 22 65 18 66 20 59 19 -143 0
62 22 65 18 66 20 59 19 -139 0
62 22 65 18 66 20 59 19 -141 0
62 22 65 18 66 20 59 19 -138 0
62 22 65 18 66 20 59 19 -140 0
62 22 65 18 66 20 59 19 -142 0
62 1 65 2 66 5 59 3 -67 0
62 1 65 2 66 5 59 3 -60 0
62 1 65 2 66 5 59 3 -58 0
62 1 65 2 66 5 59 3 -63 0
62 1 65 2 66 5 59 3 -61 0
62 1 65 2 66 5 59 3 -64 0
50 8 51 12 54 14 53 17 -100 0
50 8 51 12 54 14 53 17 -102 0
50 8 51 12 54 14 53 17 -103 0
50 8 51 12 54 14 53 17 -104 0
50 8 51 12 54 14 53 17 -101 0
50 8 51 12 54 14 53 17 -99 0
50 41 51 42 54 46 53 40 -185 0
50 41 51 42 54 46 53 40 -180 0
50 41 51 42 54 46 53 40 -181 0
50 41 51 42 54 46 53 40 -182 0
50 41 51 42 54 46 53 40 -184 0
50 41 51 42 54 46 53 40 -183 0
50 22 51 18 54 20 53 19 -135 0
50 22 51 18 54 20 53 19 -132 0
50 22 51 18 54 20 53 19 -136 0
50 22 51 18 54 20 53 19 -134 0
50 22 51 18 54 20 53 19 -133 0
50 22 51 18 54 20 53 19 -137 0
50 1 51 2 54 5 53 3 -57 0
50 1 51 2 54 5 53 3 -55 0
50 1 51 2 54 5 53 3 -49 0
50 1 51 2 54 5 53 3 -52 0
50 1 51 2 54 5 53 3 -48 0
50 1 51 2 54 5 53 3 -56 0
8 41 12 42 14 46 17 40 -93 0
8 41 12 42 14 46 17 40 -96 0
8 41 12 42 14 46 17 40 -95 0
8 41 12 42 14 46 17 40 -94 0
8 41 12 42 14 46 17 40 -98 0
8 41 12 42 14 46 17 40 -97 0
8 22 12 18 14 20 17 19 -85 0
8 22 12 18 14 20 17 19 -86 0
8 22 12 18 14 20 17 19 -83 0
8 22 12 18 14 20 17 19 -84 0
8 22 12 18 14 20 17 19 -81 0
8 22 12 18 14 20 17 19 -82 0
8 1 12 2 14 5 17 3 -9 0
8 1 12 2 14 5 17 3 -10 0
8 1 12 2 14 5 17 3 -16 0
8 1 12 2 14 5 17 3 -15 0
8 1 12 2 14 5 17 3 -13 0
8 1 12 2 14 5 17 3 -11 0
41 22 42 18 46 20 40 19 -131 0
41 22 42 18 46 20 40 19 -129 0
41 22 42 18 46 20 40 19 -130 0
41 22 42 18 46 20 40 19 -127 0
41 22 42 18 46 20 40 19 -128 0
41 22 42 18 46 20 40 19 -126 0
41 1 42 2 46 5 40 3 -44 0
41 1 42 2 46 5 40 3 -39 0
41 1 42 2 46 5 40 3 -47 0
41 1 42 2 46 5 40 3 -43 0
41 1 42 2 46 5 40 3 -38 0
41 1 42 2 46 5 40 3 -45 0
22 1 18 2 20 5 19 3 -23 0
22 1 18 2 20 5 19 3 -24 0
22 1 18 2 20 5 19 3 -26 0
22 1 18 2 20 5 19 3 -27 0
22 1 18 2 20 5 19 3 -21 0
22 1 18 2 20 5 19 3 -25 0
