c E1(8,8) E2(8,8) U2(8) U3(8) U1(8) E3(8,8) U4(8) U2(0) E1(0,8) E2(0,8) U1(0) E3(8,0) E3(0,8) U3(0) E1(8,0) U4(0) E2(8,0) U3(6) E1(8,6) U1(6) E1(6,8) E2(8,6) E3(6,8) U4(6) E2(6,8) E3(8,6) U2(6) E3(5,8) U3(5) E2(5,8) E3(8,5) U4(5) E1(5,8) U2(5) U1(5) E1(8,5) E2(8,5) E2(8,4) U2(4) E2(4,8) U3(4) U1(4) E3(8,4) E1(8,4) E1(4,8) E3(4,8) U4(4) E3(7,8) E3(8,7) U3(7) E1(7,8) E2(7,8) U4(7) U1(7) E2(8,7) E1(8,7) U2(7) E3(8,1) E1(8,1) U2(1) E2(8,1) U1(1) E3(1,8) E1(1,8) E2(1,8) U4(1) U3(1) U2(2) E1(8,2) E2(2,8) U1(2) U4(2) E3(8,2) U3(2) E3(2,8) E2(8,2) E1(2,8) E1(8,3) E3(8,3) E3(3,8) U3(3) U4(3) U1(3) E2(8,3) U2(3) E2(3,8) E1(3,8) E2(0,0) E1(0,0) E3(0,0) E3(6,0) E3(0,6) E2(0,6) E2(6,0) E1(0,6) E1(6,0) E3(5,0) E2(5,0) E3(0,5) E1(5,0) E2(0,5) E1(0,5) E3(4,0) E1(4,0) E2(0,4) E1(0,4) E3(0,4) E2(4,0) E3(7,0) E1(0,7) E2(0,7) E2(7,0) E3(0,7) E1(7,0) E3(0,1) E3(1,0) E2(0,1) E2(1,0) E1(1,0) E1(0,1) E1(0,2) E2(0,2) E2(2,0) E3(0,2) E1(2,0) E3(2,0) E1(0,3) E2(3,0) E3(3,0) E1(3,0) E2(0,3) E3(0,3) E3(6,6) E2(6,6) E1(6,6) E3(5,6) E1(6,5) E2(6,5) E1(5,6) E2(5,6) E3(6,5) E1(6,4) E2(6,4) E3(6,4) E3(4,6) E1(4,6) E2(4,6) E3(7,6) E1(6,7) E2(6,7) E2(7,6) E3(6,7) E1(7,6) E1(6,1) E2(6,1) E2(1,6) E1(1,6) E3(1,6) E3(6,1) E3(6,2) E3(2,6) E2(2,6) E1(6,2) E2(6,2) E1(2,6) E1(3,6) E2(3,6) E1(6,3) E2(6,3) E3(3,6) E3(6,3) E1(5,5) E2(5,5) E3(5,5) E3(4,5) E2(4,5) E1(4,5) E2(5,4) E1(5,4) E3(5,4) E1(7,5) E2(7,5) E2(5,7) E3(5,7) E3(7,5) E1(5,7) E3(1,5) E1(1,5) E3(5,1) E2(1,5) E1(5,1) E2(5,1) E1(2,5) E2(5,2) E1(5,2) E3(2,5) E3(5,2) E2(2,5) E2(3,5) E1(3,5) E3(5,3) E1(5,3) E2(5,3) E3(3,5) E2(4,4) E1(4,4) E3(4,4) E3(4,7) E2(4,7) E1(4,7) E2(7,4) E1(7,4) E3(7,4) E1(1,4) E1(4,1) E2(4,1) E3(1,4) E3(4,1) E2(1,4) E3(2,4) E3(4,2) E1(2,4) E2(2,4) E1(4,2) E2(4,2) E2(3,4) E1(4,3) E2(4,3) E3(3,4) E1(3,4) E3(4,3) E3(7,7) E2(7,7) E1(7,7) E2(1,7) E3(7,1) E1(1,7) E1(7,1) E2(7,1) E3(1,7) E3(2,7) E3(7,2) E1(7,2) E2(7,2) E1(2,7) E2(2,7) E1(7,3) E2(7,3) E3(3,7) E3(7,3) E1(3,7) E2(3,7) E1(1,1) E3(1,1) E2(1,1) E1(2,1) E3(2,1) E3(1,2) E2(1,2) E2(2,1) E1(1,2) E3(1,3) E1(3,1) E3(3,1) E2(1,3) E1(1,3) E2(3,1) E2(2,2) E3(2,2) E1(2,2) E2(2,3) E2(3,2) E3(3,2) E1(3,2) E3(2,3) E1(2,3) E2(3,3) E3(3,3) E1(3,3)
c 1 2 3 4 5 6 7 8 9 10 11 12 13 14 15 16 17 18 19 20 21 22 23 24 25 26 27 28 29 30 31 32 33 34 35 36 37 38 39 40 41 42 43 44 45 46 47 48 49 50 51 52 53 54 55 56 57 58 59 60 61 62 63 64 65 66 67 68 69 70 71 72 73 74 75 76 77 78 79 80 81 82 83 84 85 86 87 88 89 90 91 92 93 94 95 96 97 98 99 100 101 102 103 104 105 106 107 108 109 110 111 112 113 114 115 116 117 118 119 120 121 122 123 124 125 126 127 128 129 130 131 132 133 134 135 136 137 138 139 140 141 142 143 144 145 146 147 148 149 150 151 152 153 154 155 156 157 158 159 160 161 162 163 164 165 166 167 168 169 170 171 172 173 174 175 176 177 178 179 180 181 182 183 184 185 186 187 188 189 190 191 192 193 194 195 196 197 198 199 200 201 202 203 204 205 206 207 208 209 210 211 212 213 214 215 216 217 218 219 220 221 222 223 224 225 226 227 228 229 230 231 232 233 234 235 236 237 238 239 240 241 242 243 244 245 246 247 248 249 250 251 252 253 254 255 256 257 258 259 260 261 262 263 264 265 266 267 268 269 270 271 272 273 274 275 276 277 278 279
p cnf 279 8271
89 -89 0
120 -119 0
121 -125 0
127 -130 0
106 -104 0
102 -100 0
95 -96 0
110 -114 0
9 -15 0
119 -120 0
253 -253 0
261 -256 0
266 -263 0
214 -215 0
188 -191 0
157 -154 0
237 -238 0
64 -59 0
125 -121 0
256 -261 0
270 -270 0
276 -274 0
222 -224 0
193 -195 0
165 -163 0
245 -243 0
77 -69 0
130 -127 0
263 -266 0
274 -276 0
279 -279 0
230 -227 0
200 -202 0
166 -168 0
251 -247 0
87 -78 0
104 -106 0
215 -214 0
224 -222 0
227 -230 0
206 -206 0
177 -179 0
146 -142 0
210 -212 0
45 -44 0
100 -102 0
191 -188 0
195 -193 0
202 -200 0
179 -177 0
172 -172 0
139 -137 0
186 -181 0
33 -36 0
96 -95 0
154 -157 0
163 -165 0
168 -166 0
142 -146 0
137 -139 0
135 -135 0
149 -153 0
21 -19 0
114 -110 0
238 -237 0
243 -245 0
247 -251 0
212 -210 0
181 -186 0
153 -149 0
234 -234 0
51 -56 0
15 -9 0
59 -64 0
69 -77 0
78 -87 0
44 -45 0
36 -33 0
19 -21 0
56 -51 0
1 -1 0
88 -88 0
117 -118 0
122 -123 0
131 -128 0
105 -108 0
101 -98 0
93 -94 0
111 -112 0
10 -17 0
118 -117 0
255 -255 0
259 -260 0
265 -267 0
219 -216 0
190 -192 0
156 -155 0
235 -239 0
65 -61 0
123 -122 0
260 -259 0
268 -268 0
271 -272 0
223 -225 0
198 -194 0
162 -164 0
246 -244 0
70 -76 0
128 -131 0
267 -265 0
272 -271 0
277 -277 0
226 -228 0
199 -203 0
167 -169 0
252 -248 0
86 -84 0
108 -105 0
216 -219 0
225 -223 0
228 -226 0
205 -205 0
176 -178 0
147 -143 0
209 -211 0
40 -38 0
98 -101 0
192 -190 0
194 -198 0
203 -199 0
178 -176 0
173 -173 0
140 -138 0
183 -182 0
30 -37 0
94 -93 0
155 -156 0
164 -162 0
169 -167 0
143 -147 0
138 -140 0
134 -134 0
150 -151 0
25 -22 0
112 -111 0
239 -235 0
244 -246 0
248 -252 0
211 -209 0
182 -183 0
151 -150 0
233 -233 0
52 -55 0
17 -10 0
61 -65 0
76 -70 0
84 -86 0
38 -40 0
37 -30 0
22 -25 0
55 -52 0
2 -2 0
90 -90 0
115 -116 0
124 -126 0
132 -129 0
107 -103 0
99 -97 0
92 -91 0
113 -109 0
13 -12 0
116 -115 0
254 -254 0
258 -257 0
262 -264 0
217 -218 0
187 -189 0
158 -159 0
240 -236 0
63 -58 0
126 -124 0
257 -258 0
269 -269 0
275 -273 0
220 -221 0
196 -197 0
161 -160 0
241 -242 0
75 -73 0
129 -132 0
264 -262 0
273 -275 0
278 -278 0
229 -231 0
204 -201 0
170 -171 0
249 -250 0
80 -79 0
103 -107 0
218 -217 0
221 -220 0
231 -229 0
207 -207 0
175 -180 0
145 -144 0
208 -213 0
46 -43 0
97 -99 0
189 -187 0
197 -196 0
201 -204 0
180 -175 0
174 -174 0
136 -141 0
184 -185 0
28 -31 0
91 -92 0
159 -158 0
160 -161 0
171 -170 0
144 -145 0
141 -136 0
133 -133 0
152 -148 0
23 -26 0
109 -113 0
236 -240 0
242 -241 0
250 -249 0
213 -208 0
185 -184 0
148 -152 0
232 -232 0
48 -49 0
12 -13 0
58 -63 0
73 -75 0
79 -80 0
43 -46 0
31 -28 0
26 -23 0
49 -48 0
6 -6 0
-89 -88 0
-89 -90 0
-120 -117 0
-120 -115 0
-121 -122 0
-121 -124 0
-127 -131 0
-127 -132 0
-106 -105 0
-106 -107 0
-102 -101 0
-102 -99 0
-95 -93 0
-95 -92 0
-110 -111 0
-110 -113 0
-9 -10 0
-9 -13 0
-119 -118 0
-119 -116 0
-253 -255 0
-253 -254 0
-261 -259 0
-261 -258 0
-266 -265 0
-266 -262 0
-214 -219 0
-214 -217 0
-188 -190 0
-188 -187 0
-157 -156 0
-157 -158 0
-237 -235 0
-237 -240 0
-64 -65 0
-64 -63 0
-125 -123 0
-125 -126 0
-256 -260 0
-256 -257 0
-270 -268 0
-270 -269 0
-276 -271 0
-276 -275 0
-222 -223 0
-222 -220 0
-193 -198 0
-193 -196 0
-165 -162 0
-165 -161 0
-245 -246 0
-245 -241 0
-77 -70 0
-77 -75 0
-130 -128 0
-130 -129 0
-263 -267 0
-263 -264 0
-274 -272 0
-274 -273 0
-279 -277 0
-279 -278 0
-230 -226 0
-230 -229 0
-200 -199 0
-200 -204 0
-166 -167 0
-166 -170 0
-251 -252 0
-251 -249 0
-87 -86 0
-87 -80 0
-104 -108 0
-104 -103 0
-215 -216 0
-215 -218 0
-224 -225 0
-224 -221 0
-227 -228 0
-227 -231 0
-206 -205 0
-206 -207 0
-177 -176 0
-177 -175 0
-146 -147 0
-146 -145 0
-210 -209 0
-210 -208 0
-45 -40 0
-45 -46 0
-100 -98 0
-100 -97 0
-191 -192 0
-191 -189 0
-195 -194 0
-195 -197 0
-202 -203 0
-202 -201 0
-179 -178 0
-179 -180 0
-172 -173 0
-172 -174 0
-139 -140 0
-139 -136 0
-186 -183 0
-186 -184 0
-33 -30 0
-33 -28 0
-96 -94 0
-96 -91 0
-154 -155 0
-154 -159 0
-163 -164 0
-163 -160 0
-168 -169 0
-168 -171 0
-142 -143 0
-142 -144 0
-137 -138 0
-137 -141 0
-135 -134 0
-135 -133 0
-149 -150 0
-149 -152 0
-21 -25 0
-21 -23 0
-114 -112 0
-114 -109 0
-238 -239 0
-238 -236 0
-243 -244 0
-243 -242 0
-247 -248 0
-247 -250 0
-212 -211 0
-212 -213 0
-181 -182 0
-181 -185 0
-153 -151 0
-153 -148 0
-234 -233 0
-234 -232 0
-51 -52 0
-51 -48 0
-15 -17 0
-15 -12 0
-59 -61 0
-59 -58 0
-69 -76 0
-69 -73 0
-78 -84 0
-78 -79 0
-44 -38 0
-44 -43 0
-36 -37 0
-36 -31 0
-19 -22 0
-19 -26 0
-56 -55 0
-56 -49 0
-1 -2 0
-1 -6 0
-88 -90 0
-117 -115 0
-122 -124 0
-131 -132 0
-105 -107 0
-101 -99 0
-93 -92 0
-111 -113 0
-10 -13 0
-118 -116 0
-255 -254 0
-259 -258 0
-265 -262 0
-219 -217 0
-190 -187 0
-156 -158 0
-235 -240 0
-65 -63 0
-123 -126 0
-260 -257 0
-268 -269 0
-271 -275 0
-223 -220 0
-198 -196 0
-162 -161 0
-246 -241 0
-70 -75 0
-128 -129 0
-267 -264 0
-272 -273 0
-277 -278 0
-226 -229 0
-199 -204 0
-167 -170 0
-252 -249 0
-86 -80 0
-108 -103 0
-216 -218 0
-225 -221 0
-228 -231 0
-205 -207 0
-176 -175 0
-147 -145 0
-209 -208 0
-40 -46 0
-98 -97 0
-192 -189 0
-194 -197 0
-203 -201 0
-178 -180 0
-173 -174 0
-140 -136 0
-183 -184 0
-30 -28 0
-94 -91 0
-155 -159 0
-164 -160 0
-169 -171 0
-143 -144 0
-138 -141 0
-134 -133 0
-150 -152 0
-25 -23 0
-112 -109 0
-239 -236 0
-244 -242 0
-248 -250 0
-211 -213 0
-182 -185 0
-151 -148 0
-233 -232 0
-52 -48 0
-17 -12 0
-61 -58 0
-76 -73 0
-84 -79 0
-38 -43 0
-37 -31 0
-22 -26 0
-55 -49 0
-2 -6 0
-11 -8 0
-11 -14 0
-11 -16 0
-62 -60 0
-62 -67 0
-62 -66 0
-71 -68 0
-71 -74 0
-71 -72 0
-83 -85 0
-83 -81 0
-83 -82 0
-42 -39 0
-42 -41 0
-42 -47 0
-35 -34 0
-35 -29 0
-35 -32 0
-20 -27 0
-20 -18 0
-20 -24 0
-54 -57 0
-54 -50 0
-54 -53 0
-5 -3 0
-5 -4 0
-5 -7 0
-8 -14 0
-8 -16 0
-60 -67 0
-60 -66 0
-68 -74 0
-68 -72 0
-85 -81 0
-85 -82 0
-39 -41 0
-39 -47 0
-34 -29 0
-34 -32 0
-27 -18 0
-27 -24 0
-57 -50 0
-57 -53 0
-3 -4 0
-3 -7 0
-14 -16 0
-67 -66 0
-74 -72 0
-81 -82 0
-41 -47 0
-29 -32 0
-18 -24 0
-50 -53 0
-4 -7 0
11 8 14 16 0
62 60 67 66 0
71 68 74 72 0
83 85 81 82 0
42 39 41 47 0
35 34 29 32 0
20 27 18 24 0
54 57 50 53 0
5 3 4 7 0
11 8 14 -89 0
11 8 14 -88 0
11 8 14 -90 0
11 8 16 -89 0
11 8 16 -88 0
11 8 16 -90 0
11 14 16 -89 0
11 14 16 -88 0
11 14 16 -90 0
62 60 67 -253 0
62 60 67 -255 0
62 60 67 -254 0
62 60 66 -253 0
62 60 66 -255 0
62 60 66 -254 0
62 67 66 -253 0
62 67 66 -255 0
62 67 66 -254 0
71 68 74 -270 0
71 68 74 -268 0
71 68 74 -269 0
71 68 72 -270 0
71 68 72 -268 0
71 68 72 -269 0
71 74 72 -270 0
71 74 72 -268 0
71 74 72 -269 0
83 85 81 -279 0
83 85 81 -277 0
83 85 81 -278 0
83 85 82 -279 0
83 85 82 -277 0
83 85 82 -278 0
83 81 82 -279 0
83 81 82 -277 0
83 81 82 -278 0
42 39 41 -206 0
42 39 41 -205 0
42 39 41 -207 0
42 39 47 -206 0
42 39 47 -205 0
42 39 47 -207 0
42 41 47 -206 0
42 41 47 -205 0
42 41 47 -207 0
35 34 29 -172 0
35 34 29 -173 0
35 34 29 -174 0
35 34 32 -172 0
35 34 32 -173 0
35 34 32 -174 0
35 29 32 -172 0
35 29 32 -173 0
35 29 32 -174 0
20 27 18 -135 0
20 27 18 -134 0
20 27 18 -133 0
20 27 24 -135 0
20 27 24 -134 0
20 27 24 -133 0
20 18 24 -135 0
20 18 24 -134 0
20 18 24 -133 0
54 57 50 -234 0
54 57 50 -233 0
54 57 50 -232 0
54 57 53 -234 0
54 57 53 -233 0
54 57 53 -232 0
54 50 53 -234 0
54 50 53 -233 0
54 50 53 -232 0
5 3 4 -1 0
5 3 4 -2 0
5 3 4 -6 0
5 3 7 -1 0
5 3 7 -2 0
5 3 7 -6 0
5 4 7 -1 0
5 4 7 -2 0
5 4 7 -6 0
8 14 16 -89 0
8 14 16 -88 0
8 14 16 -90 0
60 67 66 -253 0
60 67 66 -255 0
60 67 66 -254 0
68 74 72 -270 0
68 74 72 -268 0
68 74 72 -269 0
85 81 82 -279 0
85 81 82 -277 0
85 81 82 -278 0
39 41 47 -206 0
39 41 47 -205 0
39 41 47 -207 0
34 29 32 -172 0
34 29 32 -173 0
34 29 32 -174 0
27 18 24 -135 0
27 18 24 -134 0
27 18 24 -133 0
57 50 53 -234 0
57 50 53 -233 0
57 50 53 -232 0
3 4 7 -1 0
3 4 7 -2 0
3 4 7 -6 0
11 8 14 16 -89 0
11 8 14 16 -120 0
11 8 14 16 -121 0
11 8 14 16 -127 0
11 8 14 16 -106 0
11 8 14 16 -102 0
11 8 14 16 -95 0
11 8 14 16 -110 0
11 8 14 16 -9 0
11 8 14 16 -119 0
11 8 14 16 -125 0
11 8 14 16 -130 0
11 8 14 16 -104 0
11 8 14 16 -100 0
11 8 14 16 -96 0
11 8 14 16 -114 0
11 8 14 16 -15 0
11 8 14 16 -88 0
11 8 14 16 -117 0
11 8 14 16 -122 0
11 8 14 16 -131 0
11 8 14 16 -105 0
11 8 14 16 -101 0
11 8 14 16 -93 0
11 8 14 16 -111 0
11 8 14 16 -10 0
11 8 14 16 -118 0
11 8 14 16 -123 0
11 8 14 16 -128 0
11 8 14 16 -108 0
11 8 14 16 -98 0
11 8 14 16 -94 0
11 8 14 16 -112 0
11 8 14 16 -17 0
11 8 14 16 -90 0
11 8 14 16 -115 0
11 8 14 16 -124 0
11 8 14 16 -132 0
11 8 14 16 -107 0
11 8 14 16 -99 0
11 8 14 16 -92 0
11 8 14 16 -113 0
11 8 14 16 -13 0
11 8 14 16 -116 0
11 8 14 16 -126 0
11 8 14 16 -129 0
11 8 14 16 -103 0
11 8 14 16 -97 0
11 8 14 16 -91 0
11 8 14 16 -109 0
11 8 14 16 -12 0
62 60 67 66 -120 0
62 60 67 66 -119 0
62 60 67 66 -253 0
62 60 67 66 -261 0
62 60 67 66 -266 0
62 60 67 66 -214 0
62 60 67 66 -188 0
62 60 67 66 -157 0
62 60 67 66 -237 0
62 60 67 66 -64 0
62 60 67 66 -256 0
62 60 67 66 -263 0
62 60 67 66 -215 0
62 60 67 66 -191 0
62 60 67 66 -154 0
62 60 67 66 -238 0
62 60 67 66 -59 0
62 60 67 66 -117 0
62 60 67 66 -118 0
62 60 67 66 -255 0
62 60 67 66 -259 0
62 60 67 66 -265 0
62 60 67 66 -219 0
62 60 67 66 -190 0
62 60 67 66 -156 0
62 60 67 66 -235 0
62 60 67 66 -65 0
62 60 67 66 -260 0
62 60 67 66 -267 0
62 60 67 66 -216 0
62 60 67 66 -192 0
62 60 67 66 -155 0
62 60 67 66 -239 0
62 60 67 66 -61 0
62 60 67 66 -115 0
62 60 67 66 -116 0
62 60 67 66 -254 0
62 60 67 66 -258 0
62 60 67 66 -262 0
62 60 67 66 -217 0
62 60 67 66 -187 0
62 60 67 66 -158 0
62 60 67 66 -240 0
62 60 67 66 -63 0
62 60 67 66 -257 0
62 60 67 66 -264 0
62 60 67 66 -218 0
62 60 67 66 -189 0
62 60 67 66 -159 0
62 60 67 66 -236 0
62 60 67 66 -58 0
71 68 74 72 -121 0
71 68 74 72 -261 0
71 68 74 72 -125 0
71 68 74 72 -256 0
71 68 74 72 -270 0
71 68 74 72 -276 0
71 68 74 72 -222 0
71 68 74 72 -193 0
71 68 74 72 -165 0
71 68 74 72 -245 0
71 68 74 72 -77 0
71 68 74 72 -274 0
71 68 74 72 -224 0
71 68 74 72 -195 0
71 68 74 72 -163 0
71 68 74 72 -243 0
71 68 74 72 -69 0
71 68 74 72 -122 0
71 68 74 72 -259 0
71 68 74 72 -123 0
71 68 74 72 -260 0
71 68 74 72 -268 0
71 68 74 72 -271 0
71 68 74 72 -223 0
71 68 74 72 -198 0
71 68 74 72 -162 0
71 68 74 72 -246 0
71 68 74 72 -70 0
71 68 74 72 -272 0
71 68 74 72 -225 0
71 68 74 72 -194 0
71 68 74 72 -164 0
71 68 74 72 -244 0
71 68 74 72 -76 0
71 68 74 72 -124 0
71 68 74 72 -258 0
71 68 74 72 -126 0
71 68 74 72 -257 0
71 68 74 72 -269 0
71 68 74 72 -275 0
71 68 74 72 -220 0
71 68 74 72 -196 0
71 68 74 72 -161 0
71 68 74 72 -241 0
71 68 74 72 -75 0
71 68 74 72 -273 0
71 68 74 72 -221 0
71 68 74 72 -197 0
71 68 74 72 -160 0
71 68 74 72 -242 0
71 68 74 72 -73 0
83 85 81 82 -127 0
83 85 81 82 -266 0
83 85 81 82 -276 0
83 85 81 82 -130 0
83 85 81 82 -263 0
83 85 81 82 -274 0
83 85 81 82 -279 0
83 85 81 82 -230 0
83 85 81 82 -200 0
83 85 81 82 -166 0
83 85 81 82 -251 0
83 85 81 82 -87 0
83 85 81 82 -227 0
83 85 81 82 -202 0
83 85 81 82 -168 0
83 85 81 82 -247 0
83 85 81 82 -78 0
83 85 81 82 -131 0
83 85 81 82 -265 0
83 85 81 82 -271 0
83 85 81 82 -128 0
83 85 81 82 -267 0
83 85 81 82 -272 0
83 85 81 82 -277 0
83 85 81 82 -226 0
83 85 81 82 -199 0
83 85 81 82 -167 0
83 85 81 82 -252 0
83 85 81 82 -86 0
83 85 81 82 -228 0
83 85 81 82 -203 0
83 85 81 82 -169 0
83 85 81 82 -248 0
83 85 81 82 -84 0
83 85 81 82 -132 0
83 85 81 82 -262 0
83 85 81 82 -275 0
83 85 81 82 -129 0
83 85 81 82 -264 0
83 85 81 82 -273 0
83 85 81 82 -278 0
83 85 81 82 -229 0
83 85 81 82 -204 0
83 85 81 82 -170 0
83 85 81 82 -249 0
83 85 81 82 -80 0
83 85 81 82 -231 0
83 85 81 82 -201 0
83 85 81 82 -171 0
83 85 81 82 -250 0
83 85 81 82 -79 0
42 39 41 47 -106 0
42 39 41 47 -214 0
42 39 41 47 -222 0
42 39 41 47 -230 0
42 39 41 47 -104 0
42 39 41 47 -215 0
42 39 41 47 -224 0
42 39 41 47 -227 0
42 39 41 47 -206 0
42 39 41 47 -177 0
42 39 41 47 -146 0
42 39 41 47 -210 0
42 39 41 47 -45 0
42 39 41 47 -179 0
42 39 41 47 -142 0
42 39 41 47 -212 0
42 39 41 47 -44 0
42 39 41 47 -105 0
42 39 41 47 -219 0
42 39 41 47 -223 0
42 39 41 47 -226 0
42 39 41 47 -108 0
42 39 41 47 -216 0
42 39 41 47 -225 0
42 39 41 47 -228 0
42 39 41 47 -205 0
42 39 41 47 -176 0
42 39 41 47 -147 0
42 39 41 47 -209 0
42 39 41 47 -40 0
42 39 41 47 -178 0
42 39 41 47 -143 0
42 39 41 47 -211 0
42 39 41 47 -38 0
42 39 41 47 -107 0
42 39 41 47 -217 0
42 39 41 47 -220 0
42 39 41 47 -229 0
42 39 41 47 -103 0
42 39 41 47 -218 0
42 39 41 47 -221 0
42 39 41 47 -231 0
42 39 41 47 -207 0
42 39 41 47 -175 0
42 39 41 47 -145 0
42 39 41 47 -208 0
42 39 41 47 -46 0
42 39 41 47 -180 0
42 39 41 47 -144 0
42 39 41 47 -213 0
42 39 41 47 -43 0
35 34 29 32 -102 0
35 34 29 32 -188 0
35 34 29 32 -193 0
35 34 29 32 -200 0
35 34 29 32 -177 0
35 34 29 32 -100 0
35 34 29 32 -191 0
35 34 29 32 -195 0
35 34 29 32 -202 0
35 34 29 32 -179 0
35 34 29 32 -172 0
35 34 29 32 -139 0
35 34 29 32 -186 0
35 34 29 32 -33 0
35 34 29 32 -137 0
35 34 29 32 -181 0
35 34 29 32 -36 0
35 34 29 32 -101 0
35 34 29 32 -190 0
35 34 29 32 -198 0
35 34 29 32 -199 0
35 34 29 32 -176 0
35 34 29 32 -98 0
35 34 29 32 -192 0
35 34 29 32 -194 0
35 34 29 32 -203 0
35 34 29 32 -178 0
35 34 29 32 -173 0
35 34 29 32 -140 0
35 34 29 32 -183 0
35 34 29 32 -30 0
35 34 29 32 -138 0
35 34 29 32 -182 0
35 34 29 32 -37 0
35 34 29 32 -99 0
35 34 29 32 -187 0
35 34 29 32 -196 0
35 34 29 32 -204 0
35 34 29 32 -175 0
35 34 29 32 -97 0
35 34 29 32 -189 0
35 34 29 32 -197 0
35 34 29 32 -201 0
35 34 29 32 -180 0
35 34 29 32 -174 0
35 34 29 32 -136 0
35 34 29 32 -184 0
35 34 29 32 -28 0
35 34 29 32 -141 0
35 34 29 32 -185 0
35 34 29 32 -31 0
20 27 18 24 -95 0
20 27 18 24 -157 0
20 27 18 24 -165 0
20 27 18 24 -166 0
20 27 18 24 -146 0
20 27 18 24 -139 0
20 27 18 24 -96 0
20 27 18 24 -154 0
20 27 18 24 -163 0
20 27 18 24 -168 0
20 27 18 24 -142 0
20 27 18 24 -137 0
20 27 18 24 -135 0
20 27 18 24 -149 0
20 27 18 24 -21 0
20 27 18 24 -153 0
20 27 18 24 -19 0
20 27 18 24 -93 0
20 27 18 24 -156 0
20 27 18 24 -162 0
20 27 18 24 -167 0
20 27 18 24 -147 0
20 27 18 24 -140 0
20 27 18 24 -94 0
20 27 18 24 -155 0
20 27 18 24 -164 0
20 27 18 24 -169 0
20 27 18 24 -143 0
20 27 18 24 -138 0
20 27 18 24 -134 0
20 27 18 24 -150 0
20 27 18 24 -25 0
20 27 18 24 -151 0
20 27 18 24 -22 0
20 27 18 24 -92 0
20 27 18 24 -158 0
20 27 18 24 -161 0
20 27 18 24 -170 0
20 27 18 24 -145 0
20 27 18 24 -136 0
20 27 18 24 -91 0
20 27 18 24 -159 0
20 27 18 24 -160 0
20 27 18 24 -171 0
20 27 18 24 -144 0
20 27 18 24 -141 0
20 27 18 24 -133 0
20 27 18 24 -152 0
20 27 18 24 -23 0
20 27 18 24 -148 0
20 27 18 24 -26 0
54 57 50 53 -110 0
54 57 50 53 -237 0
54 57 50 53 -245 0
54 57 50 53 -251 0
54 57 50 53 -210 0
54 57 50 53 -186 0
54 57 50 53 -149 0
54 57 50 53 -114 0
54 57 50 53 -238 0
54 57 50 53 -243 0
54 57 50 53 -247 0
54 57 50 53 -212 0
54 57 50 53 -181 0
54 57 50 53 -153 0
54 57 50 53 -234 0
54 57 50 53 -51 0
54 57 50 53 -56 0
54 57 50 53 -111 0
54 57 50 53 -235 0
54 57 50 53 -246 0
54 57 50 53 -252 0
54 57 50 53 -209 0
54 57 50 53 -183 0
54 57 50 53 -150 0
54 57 50 53 -112 0
54 57 50 53 -239 0
54 57 50 53 -244 0
54 57 50 53 -248 0
54 57 50 53 -211 0
54 57 50 53 -182 0
54 57 50 53 -151 0
54 57 50 53 -233 0
54 57 50 53 -52 0
54 57 50 53 -55 0
54 57 50 53 -113 0
54 57 50 53 -240 0
54 57 50 53 -241 0
54 57 50 53 -249 0
54 57 50 53 -208 0
54 57 50 53 -184 0
54 57 50 53 -152 0
54 57 50 53 -109 0
54 57 50 53 -236 0
54 57 50 53 -242 0
54 57 50 53 -250 0
54 57 50 53 -213 0
54 57 50 53 -185 0
54 57 50 53 -148 0
54 57 50 53 -232 0
54 57 50 53 -48 0
54 57 50 53 -49 0
5 3 4 7 -9 0
5 3 4 7 -64 0
5 3 4 7 -77 0
5 3 4 7 -87 0
5 3 4 7 -45 0
5 3 4 7 -33 0
5 3 4 7 -21 0
5 3 4 7 -51 0
5 3 4 7 -15 0
5 3 4 7 -59 0
5 3 4 7 -69 0
5 3 4 7 -78 0
5 3 4 7 -44 0
5 3 4 7 -36 0
5 3 4 7 -19 0
5 3 4 7 -56 0
5 3 4 7 -1 0
5 3 4 7 -10 0
5 3 4 7 -65 0
5 3 4 7 -70 0
5 3 4 7 -86 0
5 3 4 7 -40 0
5 3 4 7 -30 0
5 3 4 7 -25 0
5 3 4 7 -52 0
5 3 4 7 -17 0
5 3 4 7 -61 0
5 3 4 7 -76 0
5 3 4 7 -84 0
5 3 4 7 -38 0
5 3 4 7 -37 0
5 3 4 7 -22 0
5 3 4 7 -55 0
5 3 4 7 -2 0
5 3 4 7 -13 0
5 3 4 7 -63 0
5 3 4 7 -75 0
5 3 4 7 -80 0
5 3 4 7 -46 0
5 3 4 7 -28 0
5 3 4 7 -23 0
5 3 4 7 -48 0
5 3 4 7 -12 0
5 3 4 7 -58 0
5 3 4 7 -73 0
5 3 4 7 -79 0
5 3 4 7 -43 0
5 3 4 7 -31 0
5 3 4 7 -26 0
5 3 4 7 -49 0
5 3 4 7 -6 0
11 62 8 14 16 -120 0
11 62 8 14 16 -119 0
11 62 8 14 16 -117 0
11 62 8 14 16 -118 0
11 62 8 14 16 -115 0
11 62 8 14 16 -116 0
11 62 60 67 66 -120 0
11 62 60 67 66 -119 0
11 62 60 67 66 -117 0
11 62 60 67 66 -118 0
11 62 60 67 66 -115 0
11 62 60 67 66 -116 0
11 71 8 14 16 -121 0
11 71 8 14 16 -125 0
11 71 8 14 16 -122 0
11 71 8 14 16 -123 0
11 71 8 14 16 -124 0
11 71 8 14 16 -126 0
11 71 68 74 72 -121 0
11 71 68 74 72 -125 0
11 71 68 74 72 -122 0
11 71 68 74 72 -123 0
11 71 68 74 72 -124 0
11 71 68 74 72 -126 0
11 83 8 14 16 -127 0
11 83 8 14 16 -130 0
11 83 8 14 16 -131 0
11 83 8 14 16 -128 0
11 83 8 14 16 -132 0
11 83 8 14 16 -129 0
11 83 85 81 82 -127 0
11 83 85 81 82 -130 0
11 83 85 81 82 -131 0
11 83 85 81 82 -128 0
11 83 85 81 82 -132 0
11 83 85 81 82 -129 0
11 42 8 14 16 -106 0
11 42 8 14 16 -104 0
11 42 8 14 16 -105 0
11 42 8 14 16 -108 0
11 42 8 14 16 -107 0
11 42 8 14 16 -103 0
11 42 39 41 47 -106 0
11 42 39 41 47 -104 0
11 42 39 41 47 -105 0
11 42 39 41 47 -108 0
11 42 39 41 47 -107 0
11 42 39 41 47 -103 0
11 35 8 14 16 -102 0
11 35 8 14 16 -100 0
11 35 8 14 16 -101 0
11 35 8 14 16 -98 0
11 35 8 14 16 -99 0
11 35 8 14 16 -97 0
11 35 34 29 32 -102 0
11 35 34 29 32 -100 0
11 35 34 29 32 -101 0
11 35 34 29 32 -98 0
11 35 34 29 32 -99 0
11 35 34 29 32 -97 0
11 20 8 14 16 -95 0
11 20 8 14 16 -96 0
11 20 8 14 16 -93 0
11 20 8 14 16 -94 0
11 20 8 14 16 -92 0
11 20 8 14 16 -91 0
11 20 27 18 24 -95 0
11 20 27 18 24 -96 0
11 20 27 18 24 -93 0
11 20 27 18 24 -94 0
11 20 27 18 24 -92 0
11 20 27 18 24 -91 0
11 54 8 14 16 -110 0
11 54 8 14 16 -114 0
11 54 8 14 16 -111 0
11 54 8 14 16 -112 0
11 54 8 14 16 -113 0
11 54 8 14 16 -109 0
11 54 57 50 53 -110 0
11 54 57 50 53 -114 0
11 54 57 50 53 -111 0
11 54 57 50 53 -112 0
11 54 57 50 53 -113 0
11 54 57 50 53 -109 0
11 5 8 14 16 -9 0
11 5 8 14 16 -15 0
11 5 8 14 16 -10 0
11 5 8 14 16 -17 0
11 5 8 14 16 -13 0
11 5 8 14 16 -12 0
11 5 3 4 7 -9 0
11 5 3 4 7 -15 0
11 5 3 4 7 -10 0
11 5 3 4 7 -17 0
11 5 3 4 7 -13 0
11 5 3 4 7 -12 0
11 8 60 14 16 -120 0
11 8 60 14 16 -119 0
11 8 60 14 16 -117 0
11 8 60 14 16 -118 0
11 8 60 14 16 -115 0
11 8 60 14 16 -116 0
11 8 68 14 16 -121 0
11 8 68 14 16 -125 0
11 8 68 14 16 -122 0
11 8 68 14 16 -123 0
11 8 68 14 16 -124 0
11 8 68 14 16 -126 0
11 8 85 14 16 -127 0
11 8 85 14 16 -130 0
11 8 85 14 16 -131 0
11 8 85 14 16 -128 0
11 8 85 14 16 -132 0
11 8 85 14 16 -129 0
11 8 39 14 16 -106 0
11 8 39 14 16 -104 0
11 8 39 14 16 -105 0
11 8 39 14 16 -108 0
11 8 39 14 16 -107 0
11 8 39 14 16 -103 0
11 8 34 14 16 -102 0
11 8 34 14 16 -100 0
11 8 34 14 16 -101 0
11 8 34 14 16 -98 0
11 8 34 14 16 -99 0
11 8 34 14 16 -97 0
11 8 27 14 16 -95 0
11 8 27 14 16 -96 0
11 8 27 14 16 -93 0
11 8 27 14 16 -94 0
11 8 27 14 16 -92 0
11 8 27 14 16 -91 0
11 8 57 14 16 -110 0
11 8 57 14 16 -114 0
11 8 57 14 16 -111 0
11 8 57 14 16 -112 0
11 8 57 14 16 -113 0
11 8 57 14 16 -109 0
11 8 3 14 16 -9 0
11 8 3 14 16 -15 0
11 8 3 14 16 -10 0
11 8 3 14 16 -17 0
11 8 3 14 16 -13 0
11 8 3 14 16 -12 0
11 8 14 67 16 -120 0
11 8 14 67 16 -119 0
11 8 14 67 16 -117 0
11 8 14 67 16 -118 0
11 8 14 67 16 -115 0
11 8 14 67 16 -116 0
11 8 14 74 16 -121 0
11 8 14 74 16 -125 0
11 8 14 74 16 -122 0
11 8 14 74 16 -123 0
11 8 14 74 16 -124 0
11 8 14 74 16 -126 0
11 8 14 81 16 -127 0
11 8 14 81 16 -130 0
11 8 14 81 16 -131 0
11 8 14 81 16 -128 0
11 8 14 81 16 -132 0
11 8 14 81 16 -129 0
11 8 14 41 16 -106 0
11 8 14 41 16 -104 0
11 8 14 41 16 -105 0
11 8 14 41 16 -108 0
11 8 14 41 16 -107 0
11 8 14 41 16 -103 0
11 8 14 29 16 -102 0
11 8 14 29 16 -100 0
11 8 14 29 16 -101 0
11 8 14 29 16 -98 0
11 8 14 29 16 -99 0
11 8 14 29 16 -97 0
11 8 14 18 16 -95 0
11 8 14 18 16 -96 0
11 8 14 18 16 -93 0
11 8 14 18 16 -94 0
11 8 14 18 16 -92 0
11 8 14 18 16 -91 0
11 8 14 50 16 -110 0
11 8 14 50 16 -114 0
11 8 14 50 16 -111 0
11 8 14 50 16 -112 0
11 8 14 50 16 -113 0
11 8 14 50 16 -109 0
11 8 14 4 16 -9 0
11 8 14 4 16 -15 0
11 8 14 4 16 -10 0
11 8 14 4 16 -17 0
11 8 14 4 16 -13 0
11 8 14 4 16 -12 0
11 8 14 16 66 -120 0
11 8 14 16 66 -119 0
11 8 14 16 66 -117 0
11 8 14 16 66 -118 0
11 8 14 16 66 -115 0
11 8 14 16 66 -116 0
11 8 14 16 72 -121 0
11 8 14 16 72 -125 0
11 8 14 16 72 -122 0
11 8 14 16 72 -123 0
11 8 14 16 72 -124 0
11 8 14 16 72 -126 0
11 8 14 16 82 -127 0
11 8 14 16 82 -130 0
11 8 14 16 82 -131 0
11 8 14 16 82 -128 0
11 8 14 16 82 -132 0
11 8 14 16 82 -129 0
11 8 14 16 47 -106 0
11 8 14 16 47 -104 0
11 8 14 16 47 -105 0
11 8 14 16 47 -108 0
11 8 14 16 47 -107 0
11 8 14 16 47 -103 0
11 8 14 16 32 -102 0
11 8 14 16 32 -100 0
11 8 14 16 32 -101 0
11 8 14 16 32 -98 0
11 8 14 16 32 -99 0
11 8 14 16 32 -97 0
11 8 14 16 24 -95 0
11 8 14 16 24 -96 0
11 8 14 16 24 -93 0
11 8 14 16 24 -94 0
11 8 14 16 24 -92 0
11 8 14 16 24 -91 0
11 8 14 16 53 -110 0
11 8 14 16 53 -114 0
11 8 14 16 53 -111 0
11 8 14 16 53 -112 0
11 8 14 16 53 -113 0
11 8 14 16 53 -109 0
11 8 14 16 7 -9 0
11 8 14 16 7 -15 0
11 8 14 16 7 -10 0
11 8 14 16 7 -17 0
11 8 14 16 7 -13 0
11 8 14 16 7 -12 0
62 71 60 67 66 -261 0
62 71 60 67 66 -256 0
62 71 60 67 66 -259 0
62 71 60 67 66 -260 0
62 71 60 67 66 -258 0
62 71 60 67 66 -257 0
62 71 68 74 72 -261 0
62 71 68 74 72 -256 0
62 71 68 74 72 -259 0
62 71 68 74 72 -260 0
62 71 68 74 72 -258 0
62 71 68 74 72 -257 0
62 83 60 67 66 -266 0
62 83 60 67 66 -263 0
62 83 60 67 66 -265 0
62 83 60 67 66 -267 0
62 83 60 67 66 -262 0
62 83 60 67 66 -264 0
62 83 85 81 82 -266 0
62 83 85 81 82 -263 0
62 83 85 81 82 -265 0
62 83 85 81 82 -267 0
62 83 85 81 82 -262 0
62 83 85 81 82 -264 0
62 42 60 67 66 -214 0
62 42 60 67 66 -215 0
62 42 60 67 66 -219 0
62 42 60 67 66 -216 0
62 42 60 67 66 -217 0
62 42 60 67 66 -218 0
62 42 39 41 47 -214 0
62 42 39 41 47 -215 0
62 42 39 41 47 -219 0
62 42 39 41 47 -216 0
62 42 39 41 47 -217 0
62 42 39 41 47 -218 0
62 35 60 67 66 -188 0
62 35 60 67 66 -191 0
62 35 60 67 66 -190 0
62 35 60 67 66 -192 0
62 35 60 67 66 -187 0
62 35 60 67 66 -189 0
62 35 34 29 32 -188 0
62 35 34 29 32 -191 0
62 35 34 29 32 -190 0
62 35 34 29 32 -192 0
62 35 34 29 32 -187 0
62 35 34 29 32 -189 0
62 20 60 67 66 -157 0
62 20 60 67 66 -154 0
62 20 60 67 66 -156 0
62 20 60 67 66 -155 0
62 20 60 67 66 -158 0
62 20 60 67 66 -159 0
62 20 27 18 24 -157 0
62 20 27 18 24 -154 0
62 20 27 18 24 -156 0
62 20 27 18 24 -155 0
62 20 27 18 24 -158 0
62 20 27 18 24 -159 0
62 54 60 67 66 -237 0
62 54 60 67 66 -238 0
62 54 60 67 66 -235 0
62 54 60 67 66 -239 0
62 54 60 67 66 -240 0
62 54 60 67 66 -236 0
62 54 57 50 53 -237 0
62 54 57 50 53 -238 0
62 54 57 50 53 -235 0
62 54 57 50 53 -239 0
62 54 57 50 53 -240 0
62 54 57 50 53 -236 0
62 5 60 67 66 -64 0
62 5 60 67 66 -59 0
62 5 60 67 66 -65 0
62 5 60 67 66 -61 0
62 5 60 67 66 -63 0
62 5 60 67 66 -58 0
62 5 3 4 7 -64 0
62 5 3 4 7 -59 0
62 5 3 4 7 -65 0
62 5 3 4 7 -61 0
62 5 3 4 7 -63 0
62 5 3 4 7 -58 0
62 8 60 67 66 -120 0
62 8 60 67 66 -119 0
62 8 60 67 66 -117 0
62 8 60 67 66 -118 0
62 8 60 67 66 -115 0
62 8 60 67 66 -116 0
62 60 68 67 66 -261 0
62 60 68 67 66 -256 0
62 60 68 67 66 -259 0
62 60 68 67 66 -260 0
62 60 68 67 66 -258 0
62 60 68 67 66 -257 0
62 60 85 67 66 -266 0
62 60 85 67 66 -263 0
62 60 85 67 66 -265 0
62 60 85 67 66 -267 0
62 60 85 67 66 -262 0
62 60 85 67 66 -264 0
62 60 39 67 66 -214 0
62 60 39 67 66 -215 0
62 60 39 67 66 -219 0
62 60 39 67 66 -216 0
62 60 39 67 66 -217 0
62 60 39 67 66 -218 0
62 60 34 67 66 -188 0
62 60 34 67 66 -191 0
62 60 34 67 66 -190 0
62 60 34 67 66 -192 0
62 60 34 67 66 -187 0
62 60 34 67 66 -189 0
62 60 27 67 66 -157 0
62 60 27 67 66 -154 0
62 60 27 67 66 -156 0
62 60 27 67 66 -155 0
62 60 27 67 66 -158 0
62 60 27 67 66 -159 0
62 60 57 67 66 -237 0
62 60 57 67 66 -238 0
62 60 57 67 66 -235 0
62 60 57 67 66 -239 0
62 60 57 67 66 -240 0
62 60 57 67 66 -236 0
62 60 3 67 66 -64 0
62 60 3 67 66 -59 0
62 60 3 67 66 -65 0
62 60 3 67 66 -61 0
62 60 3 67 66 -63 0
62 60 3 67 66 -58 0
62 60 14 67 66 -120 0
62 60 14 67 66 -119 0
62 60 14 67 66 -117 0
62 60 14 67 66 -118 0
62 60 14 67 66 -115 0
62 60 14 67 66 -116 0
62 60 67 74 66 -261 0
62 60 67 74 66 -256 0
62 60 67 74 66 -259 0
62 60 67 74 66 -260 0
62 60 67 74 66 -258 0
62 60 67 74 66 -257 0
62 60 67 81 66 -266 0
62 60 67 81 66 -263 0
62 60 67 81 66 -265 0
62 60 67 81 66 -267 0
62 60 67 81 66 -262 0
62 60 67 81 66 -264 0
62 60 67 41 66 -214 0
62 60 67 41 66 -215 0
62 60 67 41 66 -219 0
62 60 67 41 66 -216 0
62 60 67 41 66 -217 0
62 60 67 41 66 -218 0
62 60 67 29 66 -188 0
62 60 67 29 66 -191 0
62 60 67 29 66 -190 0
62 60 67 29 66 -192 0
62 60 67 29 66 -187 0
62 60 67 29 66 -189 0
62 60 67 18 66 -157 0
62 60 67 18 66 -154 0
62 60 67 18 66 -156 0
62 60 67 18 66 -155 0
62 60 67 18 66 -158 0
62 60 67 18 66 -159 0
62 60 67 50 66 -237 0
62 60 67 50 66 -238 0
62 60 67 50 66 -235 0
62 60 67 50 66 -239 0
62 60 67 50 66 -240 0
62 60 67 50 66 -236 0
62 60 67 4 66 -64 0
62 60 67 4 66 -59 0
62 60 67 4 66 -65 0
62 60 67 4 66 -61 0
62 60 67 4 66 -63 0
62 60 67 4 66 -58 0
62 60 67 16 66 -120 0
62 60 67 16 66 -119 0
62 60 67 16 66 -117 0
62 60 67 16 66 -118 0
62 60 67 16 66 -115 0
62 60 67 16 66 -116 0
62 60 67 66 72 -261 0
62 60 67 66 72 -256 0
62 60 67 66 72 -259 0
62 60 67 66 72 -260 0
62 60 67 66 72 -258 0
62 60 67 66 72 -257 0
62 60 67 66 82 -266 0
62 60 67 66 82 -263 0
62 60 67 66 82 -265 0
62 60 67 66 82 -267 0
62 60 67 66 82 -262 0
62 60 67 66 82 -264 0
62 60 67 66 47 -214 0
62 60 67 66 47 -215 0
62 60 67 66 47 -219 0
62 60 67 66 47 -216 0
62 60 67 66 47 -217 0
62 60 67 66 47 -218 0
62 60 67 66 32 -188 0
62 60 67 66 32 -191 0
62 60 67 66 32 -190 0
62 60 67 66 32 -192 0
62 60 67 66 32 -187 0
62 60 67 66 32 -189 0
62 60 67 66 24 -157 0
62 60 67 66 24 -154 0
62 60 67 66 24 -156 0
62 60 67 66 24 -155 0
62 60 67 66 24 -158 0
62 60 67 66 24 -159 0
62 60 67 66 53 -237 0
62 60 67 66 53 -238 0
62 60 67 66 53 -235 0
62 60 67 66 53 -239 0
62 60 67 66 53 -240 0
62 60 67 66 53 -236 0
62 60 67 66 7 -64 0
62 60 67 66 7 -59 0
62 60 67 66 7 -65 0
62 60 67 66 7 -61 0
62 60 67 66 7 -63 0
62 60 67 66 7 -58 0
71 83 68 74 72 -276 0
71 83 68 74 72 -274 0
71 83 68 74 72 -271 0
71 83 68 74 72 -272 0
71 83 68 74 72 -275 0
71 83 68 74 72 -273 0
71 83 85 81 82 -276 0
71 83 85 81 82 -274 0
71 83 85 81 82 -271 0
71 83 85 81 82 -272 0
71 83 85 81 82 -275 0
71 83 85 81 82 -273 0
71 42 68 74 72 -222 0
71 42 68 74 72 -224 0
71 42 68 74 72 -223 0
71 42 68 74 72 -225 0
71 42 68 74 72 -220 0
71 42 68 74 72 -221 0
71 42 39 41 47 -222 0
71 42 39 41 47 -224 0
71 42 39 41 47 -223 0
71 42 39 41 47 -225 0
71 42 39 41 47 -220 0
71 42 39 41 47 -221 0
71 35 68 74 72 -193 0
71 35 68 74 72 -195 0
71 35 68 74 72 -198 0
71 35 68 74 72 -194 0
71 35 68 74 72 -196 0
71 35 68 74 72 -197 0
71 35 34 29 32 -193 0
71 35 34 29 32 -195 0
71 35 34 29 32 -198 0
71 35 34 29 32 -194 0
71 35 34 29 32 -196 0
71 35 34 29 32 -197 0
71 20 68 74 72 -165 0
71 20 68 74 72 -163 0
71 20 68 74 72 -162 0
71 20 68 74 72 -164 0
71 20 68 74 72 -161 0
71 20 68 74 72 -160 0
71 20 27 18 24 -165 0
71 20 27 18 24 -163 0
71 20 27 18 24 -162 0
71 20 27 18 24 -164 0
71 20 27 18 24 -161 0
71 20 27 18 24 -160 0
71 54 68 74 72 -245 0
71 54 68 74 72 -243 0
71 54 68 74 72 -246 0
71 54 68 74 72 -244 0
71 54 68 74 72 -241 0
71 54 68 74 72 -242 0
71 54 57 50 53 -245 0
71 54 57 50 53 -243 0
71 54 57 50 53 -246 0
71 54 57 50 53 -244 0
71 54 57 50 53 -241 0
71 54 57 50 53 -242 0
71 5 68 74 72 -77 0
71 5 68 74 72 -69 0
71 5 68 74 72 -70 0
71 5 68 74 72 -76 0
71 5 68 74 72 -75 0
71 5 68 74 72 -73 0
71 5 3 4 7 -77 0
71 5 3 4 7 -69 0
71 5 3 4 7 -70 0
71 5 3 4 7 -76 0
71 5 3 4 7 -75 0
71 5 3 4 7 -73 0
71 8 68 74 72 -121 0
71 8 68 74 72 -125 0
71 8 68 74 72 -122 0
71 8 68 74 72 -123 0
71 8 68 74 72 -124 0
71 8 68 74 72 -126 0
71 60 68 74 72 -261 0
71 60 68 74 72 -256 0
71 60 68 74 72 -259 0
71 60 68 74 72 -260 0
71 60 68 74 72 -258 0
71 60 68 74 72 -257 0
71 68 85 74 72 -276 0
71 68 85 74 72 -274 0
71 68 85 74 72 -271 0
71 68 85 74 72 -272 0
71 68 85 74 72 -275 0
71 68 85 74 72 -273 0
71 68 39 74 72 -222 0
71 68 39 74 72 -224 0
71 68 39 74 72 -223 0
71 68 39 74 72 -225 0
71 68 39 74 72 -220 0
71 68 39 74 72 -221 0
71 68 34 74 72 -193 0
71 68 34 74 72 -195 0
71 68 34 74 72 -198 0
71 68 34 74 72 -194 0
71 68 34 74 72 -196 0
71 68 34 74 72 -197 0
71 68 27 74 72 -165 0
71 68 27 74 72 -163 0
71 68 27 74 72 -162 0
71 68 27 74 72 -164 0
71 68 27 74 72 -161 0
71 68 27 74 72 -160 0
71 68 57 74 72 -245 0
71 68 57 74 72 -243 0
71 68 57 74 72 -246 0
71 68 57 74 72 -244 0
71 68 57 74 72 -241 0
71 68 57 74 72 -242 0
71 68 3 74 72 -77 0
71 68 3 74 72 -69 0
71 68 3 74 72 -70 0
71 68 3 74 72 -76 0
71 68 3 74 72 -75 0
71 68 3 74 72 -73 0
71 68 14 74 72 -121 0
71 68 14 74 72 -125 0
71 68 14 74 72 -122 0
71 68 14 74 72 -123 0
71 68 14 74 72 -124 0
71 68 14 74 72 -126 0
71 68 67 74 72 -261 0
71 68 67 74 72 -256 0
71 68 67 74 72 -259 0
71 68 67 74 72 -260 0
71 68 67 74 72 -258 0
71 68 67 74 72 -257 0
71 68 74 81 72 -276 0
71 68 74 81 72 -274 0
71 68 74 81 72 -271 0
71 68 74 81 72 -272 0
71 68 74 81 72 -275 0
71 68 74 81 72 -273 0
71 68 74 41 72 -222 0
71 68 74 41 72 -224 0
71 68 74 41 72 -223 0
71 68 74 41 72 -225 0
71 68 74 41 72 -220 0
71 68 74 41 72 -221 0
71 68 74 29 72 -193 0
71 68 74 29 72 -195 0
71 68 74 29 72 -198 0
71 68 74 29 72 -194 0
71 68 74 29 72 -196 0
71 68 74 29 72 -197 0
71 68 74 18 72 -165 0
71 68 74 18 72 -163 0
71 68 74 18 72 -162 0
71 68 74 18 72 -164 0
71 68 74 18 72 -161 0
71 68 74 18 72 -160 0
71 68 74 50 72 -245 0
71 68 74 50 72 -243 0
71 68 74 50 72 -246 0
71 68 74 50 72 -244 0
71 68 74 50 72 -241 0
71 68 74 50 72 -242 0
71 68 74 4 72 -77 0
71 68 74 4 72 -69 0
71 68 74 4 72 -70 0
71 68 74 4 72 -76 0
71 68 74 4 72 -75 0
71 68 74 4 72 -73 0
71 68 74 16 72 -121 0
71 68 74 16 72 -125 0
71 68 74 16 72 -122 0
71 68 74 16 72 -123 0
71 68 74 16 72 -124 0
71 68 74 16 72 -126 0
71 68 74 66 72 -261 0
71 68 74 66 72 -256 0
71 68 74 66 72 -259 0
71 68 74 66 72 -260 0
71 68 74 66 72 -258 0
71 68 74 66 72 -257 0
71 68 74 72 82 -276 0
71 68 74 72 82 -274 0
71 68 74 72 82 -271 0
71 68 74 72 82 -272 0
71 68 74 72 82 -275 0
71 68 74 72 82 -273 0
71 68 74 72 47 -222 0
71 68 74 72 47 -224 0
71 68 74 72 47 -223 0
71 68 74 72 47 -225 0
71 68 74 72 47 -220 0
71 68 74 72 47 -221 0
71 68 74 72 32 -193 0
71 68 74 72 32 -195 0
71 68 74 72 32 -198 0
71 68 74 72 32 -194 0
71 68 74 72 32 -196 0
71 68 74 72 32 -197 0
71 68 74 72 24 -165 0
71 68 74 72 24 -163 0
71 68 74 72 24 -162 0
71 68 74 72 24 -164 0
71 68 74 72 24 -161 0
71 68 74 72 24 -160 0
71 68 74 72 53 -245 0
71 68 74 72 53 -243 0
71 68 74 72 53 -246 0
71 68 74 72 53 -244 0
71 68 74 72 53 -241 0
71 68 74 72 53 -242 0
71 68 74 72 7 -77 0
71 68 74 72 7 -69 0
71 68 74 72 7 -70 0
71 68 74 72 7 -76 0
71 68 74 72 7 -75 0
71 68 74 72 7 -73 0
83 42 85 81 82 -230 0
83 42 85 81 82 -227 0
83 42 85 81 82 -226 0
83 42 85 81 82 -228 0
83 42 85 81 82 -229 0
83 42 85 81 82 -231 0
83 42 39 41 47 -230 0
83 42 39 41 47 -227 0
83 42 39 41 47 -226 0
83 42 39 41 47 -228 0
83 42 39 41 47 -229 0
83 42 39 41 47 -231 0
83 35 85 81 82 -200 0
83 35 85 81 82 -202 0
83 35 85 81 82 -199 0
83 35 85 81 82 -203 0
83 35 85 81 82 -204 0
83 35 85 81 82 -201 0
83 35 34 29 32 -200 0
83 35 34 29 32 -202 0
83 35 34 29 32 -199 0
83 35 34 29 32 -203 0
83 35 34 29 32 -204 0
83 35 34 29 32 -201 0
83 20 85 81 82 -166 0
83 20 85 81 82 -168 0
83 20 85 81 82 -167 0
83 20 85 81 82 -169 0
83 20 85 81 82 -170 0
83 20 85 81 82 -171 0
83 20 27 18 24 -166 0
83 20 27 18 24 -168 0
83 20 27 18 24 -167 0
83 20 27 18 24 -169 0
83 20 27 18 24 -170 0
83 20 27 18 24 -171 0
83 54 85 81 82 -251 0
83 54 85 81 82 -247 0
83 54 85 81 82 -252 0
83 54 85 81 82 -248 0
83 54 85 81 82 -249 0
83 54 85 81 82 -250 0
83 54 57 50 53 -251 0
83 54 57 50 53 -247 0
83 54 57 50 53 -252 0
83 54 57 50 53 -248 0
83 54 57 50 53 -249 0
83 54 57 50 53 -250 0
83 5 85 81 82 -87 0
83 5 85 81 82 -78 0
83 5 85 81 82 -86 0
83 5 85 81 82 -84 0
83 5 85 81 82 -80 0
83 5 85 81 82 -79 0
83 5 3 4 7 -87 0
83 5 3 4 7 -78 0
83 5 3 4 7 -86 0
83 5 3 4 7 -84 0
83 5 3 4 7 -80 0
83 5 3 4 7 -79 0
83 8 85 81 82 -127 0
83 8 85 81 82 -130 0
83 8 85 81 82 -131 0
83 8 85 81 82 -128 0
83 8 85 81 82 -132 0
83 8 85 81 82 -129 0
83 60 85 81 82 -266 0
83 60 85 81 82 -263 0
83 60 85 81 82 -265 0
83 60 85 81 82 -267 0
83 60 85 81 82 -262 0
83 60 85 81 82 -264 0
83 68 85 81 82 -276 0
83 68 85 81 82 -274 0
83 68 85 81 82 -271 0
83 68 85 81 82 -272 0
83 68 85 81 82 -275 0
83 68 85 81 82 -273 0
83 85 39 81 82 -230 0
83 85 39 81 82 -227 0
83 85 39 81 82 -226 0
83 85 39 81 82 -228 0
83 85 39 81 82 -229 0
83 85 39 81 82 -231 0
83 85 34 81 82 -200 0
83 85 34 81 82 -202 0
83 85 34 81 82 -199 0
83 85 34 81 82 -203 0
83 85 34 81 82 -204 0
83 85 34 81 82 -201 0
83 85 27 81 82 -166 0
83 85 27 81 82 -168 0
83 85 27 81 82 -167 0
83 85 27 81 82 -169 0
83 85 27 81 82 -170 0
83 85 27 81 82 -171 0
83 85 57 81 82 -251 0
83 85 57 81 82 -247 0
83 85 57 81 82 -252 0
83 85 57 81 82 -248 0
83 85 57 81 82 -249 0
83 85 57 81 82 -250 0
83 85 3 81 82 -87 0
83 85 3 81 82 -78 0
83 85 3 81 82 -86 0
83 85 3 81 82 -84 0
83 85 3 81 82 -80 0
83 85 3 81 82 -79 0
83 85 14 81 82 -127 0
83 85 14 81 82 -130 0
83 85 14 81 82 -131 0
83 85 14 81 82 -128 0
83 85 14 81 82 -132 0
83 85 14 81 82 -129 0
83 85 67 81 82 -266 0
83 85 67 81 82 -263 0
83 85 67 81 82 -265 0
83 85 67 81 82 -267 0
83 85 67 81 82 -262 0
83 85 67 81 82 -264 0
83 85 74 81 82 -276 0
83 85 74 81 82 -274 0
83 85 74 81 82 -271 0
83 85 74 81 82 -272 0
83 85 74 81 82 -275 0
83 85 74 81 82 -273 0
83 85 81 41 82 -230 0
83 85 81 41 82 -227 0
83 85 81 41 82 -226 0
83 85 81 41 82 -228 0
83 85 81 41 82 -229 0
83 85 81 41 82 -231 0
83 85 81 29 82 -200 0
83 85 81 29 82 -202 0
83 85 81 29 82 -199 0
83 85 81 29 82 -203 0
83 85 81 29 82 -204 0
83 85 81 29 82 -201 0
83 85 81 18 82 -166 0
83 85 81 18 82 -168 0
83 85 81 18 82 -167 0
83 85 81 18 82 -169 0
83 85 81 18 82 -170 0
83 85 81 18 82 -171 0
83 85 81 50 82 -251 0
83 85 81 50 82 -247 0
83 85 81 50 82 -252 0
83 85 81 50 82 -248 0
83 85 81 50 82 -249 0
83 85 81 50 82 -250 0
83 85 81 4 82 -87 0
83 85 81 4 82 -78 0
83 85 81 4 82 -86 0
83 85 81 4 82 -84 0
83 85 81 4 82 -80 0
83 85 81 4 82 -79 0
83 85 81 16 82 -127 0
83 85 81 16 82 -130 0
83 85 81 16 82 -131 0
83 85 81 16 82 -128 0
83 85 81 16 82 -132 0
83 85 81 16 82 -129 0
83 85 81 66 82 -266 0
83 85 81 66 82 -263 0
83 85 81 66 82 -265 0
83 85 81 66 82 -267 0
83 85 81 66 82 -262 0
83 85 81 66 82 -264 0
83 85 81 72 82 -276 0
83 85 81 72 82 -274 0
83 85 81 72 82 -271 0
83 85 81 72 82 -272 0
83 85 81 72 82 -275 0
83 85 81 72 82 -273 0
83 85 81 82 47 -230 0
83 85 81 82 47 -227 0
83 85 81 82 47 -226 0
83 85 81 82 47 -228 0
83 85 81 82 47 -229 0
83 85 81 82 47 -231 0
83 85 81 82 32 -200 0
83 85 81 82 32 -202 0
83 85 81 82 32 -199 0
83 85 81 82 32 -203 0
83 85 81 82 32 -204 0
83 85 81 82 32 -201 0
83 85 81 82 24 -166 0
83 85 81 82 24 -168 0
83 85 81 82 24 -167 0
83 85 81 82 24 -169 0
83 85 81 82 24 -170 0
83 85 81 82 24 -171 0
83 85 81 82 53 -251 0
83 85 81 82 53 -247 0
83 85 81 82 53 -252 0
83 85 81 82 53 -248 0
83 85 81 82 53 -249 0
83 85 81 82 53 -250 0
83 85 81 82 7 -87 0
83 85 81 82 7 -78 0
83 85 81 82 7 -86 0
83 85 81 82 7 -84 0
83 85 81 82 7 -80 0
83 85 81 82 7 -79 0
42 35 39 41 47 -177 0
42 35 39 41 47 -179 0
42 35 39 41 47 -176 0
42 35 39 41 47 -178 0
42 35 39 41 47 -175 0
42 35 39 41 47 -180 0
42 35 34 29 32 -177 0
42 35 34 29 32 -179 0
42 35 34 29 32 -176 0
42 35 34 29 32 -178 0
42 35 34 29 32 -175 0
42 35 34 29 32 -180 0
42 20 39 41 47 -146 0
42 20 39 41 47 -142 0
42 20 39 41 47 -147 0
42 20 39 41 47 -143 0
42 20 39 41 47 -145 0
42 20 39 41 47 -144 0
42 20 27 18 24 -146 0
42 20 27 18 24 -142 0
42 20 27 18 24 -147 0
42 20 27 18 24 -143 0
42 20 27 18 24 -145 0
42 20 27 18 24 -144 0
42 54 39 41 47 -210 0
42 54 39 41 47 -212 0
42 54 39 41 47 -209 0
42 54 39 41 47 -211 0
42 54 39 41 47 -208 0
42 54 39 41 47 -213 0
42 54 57 50 53 -210 0
42 54 57 50 53 -212 0
42 54 57 50 53 -209 0
42 54 57 50 53 -211 0
42 54 57 50 53 -208 0
42 54 57 50 53 -213 0
42 5 39 41 47 -45 0
42 5 39 41 47 -44 0
42 5 39 41 47 -40 0
42 5 39 41 47 -38 0
42 5 39 41 47 -46 0
42 5 39 41 47 -43 0
42 5 3 4 7 -45 0
42 5 3 4 7 -44 0
42 5 3 4 7 -40 0
42 5 3 4 7 -38 0
42 5 3 4 7 -46 0
42 5 3 4 7 -43 0
42 8 39 41 47 -106 0
42 8 39 41 47 -104 0
42 8 39 41 47 -105 0
42 8 39 41 47 -108 0
42 8 39 41 47 -107 0
42 8 39 41 47 -103 0
42 60 39 41 47 -214 0
42 60 39 41 47 -215 0
42 60 39 41 47 -219 0
42 60 39 41 47 -216 0
42 60 39 41 47 -217 0
42 60 39 41 47 -218 0
42 68 39 41 47 -222 0
42 68 39 41 47 -224 0
42 68 39 41 47 -223 0
42 68 39 41 47 -225 0
42 68 39 41 47 -220 0
42 68 39 41 47 -221 0
42 85 39 41 47 -230 0
42 85 39 41 47 -227 0
42 85 39 41 47 -226 0
42 85 39 41 47 -228 0
42 85 39 41 47 -229 0
42 85 39 41 47 -231 0
42 39 34 41 47 -177 0
42 39 34 41 47 -179 0
42 39 34 41 47 -176 0
42 39 34 41 47 -178 0
42 39 34 41 47 -175 0
42 39 34 41 47 -180 0
42 39 27 41 47 -146 0
42 39 27 41 47 -142 0
42 39 27 41 47 -147 0
42 39 27 41 47 -143 0
42 39 27 41 47 -145 0
42 39 27 41 47 -144 0
42 39 57 41 47 -210 0
42 39 57 41 47 -212 0
42 39 57 41 47 -209 0
42 39 57 41 47 -211 0
42 39 57 41 47 -208 0
42 39 57 41 47 -213 0
42 39 3 41 47 -45 0
42 39 3 41 47 -44 0
42 39 3 41 47 -40 0
42 39 3 41 47 -38 0
42 39 3 41 47 -46 0
42 39 3 41 47 -43 0
42 39 14 41 47 -106 0
42 39 14 41 47 -104 0
42 39 14 41 47 -105 0
42 39 14 41 47 -108 0
42 39 14 41 47 -107 0
42 39 14 41 47 -103 0
42 39 67 41 47 -214 0
42 39 67 41 47 -215 0
42 39 67 41 47 -219 0
42 39 67 41 47 -216 0
42 39 67 41 47 -217 0
42 39 67 41 47 -218 0
42 39 74 41 47 -222 0
42 39 74 41 47 -224 0
42 39 74 41 47 -223 0
42 39 74 41 47 -225 0
42 39 74 41 47 -220 0
42 39 74 41 47 -221 0
42 39 81 41 47 -230 0
42 39 81 41 47 -227 0
42 39 81 41 47 -226 0
42 39 81 41 47 -228 0
42 39 81 41 47 -229 0
42 39 81 41 47 -231 0
42 39 41 29 47 -177 0
42 39 41 29 47 -179 0
42 39 41 29 47 -176 0
42 39 41 29 47 -178 0
42 39 41 29 47 -175 0
42 39 41 29 47 -180 0
42 39 41 18 47 -146 0
42 39 41 18 47 -142 0
42 39 41 18 47 -147 0
42 39 41 18 47 -143 0
42 39 41 18 47 -145 0
42 39 41 18 47 -144 0
42 39 41 50 47 -210 0
42 39 41 50 47 -212 0
42 39 41 50 47 -209 0
42 39 41 50 47 -211 0
42 39 41 50 47 -208 0
42 39 41 50 47 -213 0
42 39 41 4 47 -45 0
42 39 41 4 47 -44 0
42 39 41 4 47 -40 0
42 39 41 4 47 -38 0
42 39 41 4 47 -46 0
42 39 41 4 47 -43 0
42 39 41 16 47 -106 0
42 39 41 16 47 -104 0
42 39 41 16 47 -105 0
42 39 41 16 47 -108 0
42 39 41 16 47 -107 0
42 39 41 16 47 -103 0
42 39 41 66 47 -214 0
42 39 41 66 47 -215 0
42 39 41 66 47 -219 0
42 39 41 66 47 -216 0
42 39 41 66 47 -217 0
42 39 41 66 47 -218 0
42 39 41 72 47 -222 0
42 39 41 72 47 -224 0
42 39 41 72 47 -223 0
42 39 41 72 47 -225 0
42 39 41 72 47 -220 0
42 39 41 72 47 -221 0
42 39 41 82 47 -230 0
42 39 41 82 47 -227 0
42 39 41 82 47 -226 0
42 39 41 82 47 -228 0
42 39 41 82 47 -229 0
42 39 41 82 47 -231 0
42 39 41 47 32 -177 0
42 39 41 47 32 -179 0
42 39 41 47 32 -176 0
42 39 41 47 32 -178 0
42 39 41 47 32 -175 0
42 39 41 47 32 -180 0
42 39 41 47 24 -146 0
42 39 41 47 24 -142 0
42 39 41 47 24 -147 0
42 39 41 47 24 -143 0
42 39 41 47 24 -145 0
42 39 41 47 24 -144 0
42 39 41 47 53 -210 0
42 39 41 47 53 -212 0
42 39 41 47 53 -209 0
42 39 41 47 53 -211 0
42 39 41 47 53 -208 0
42 39 41 47 53 -213 0
42 39 41 47 7 -45 0
42 39 41 47 7 -44 0
42 39 41 47 7 -40 0
42 39 41 47 7 -38 0
42 39 41 47 7 -46 0
42 39 41 47 7 -43 0
35 20 34 29 32 -139 0
35 20 34 29 32 -137 0
35 20 34 29 32 -140 0
35 20 34 29 32 -138 0
35 20 34 29 32 -136 0
35 20 34 29 32 -141 0
35 20 27 18 24 -139 0
35 20 27 18 24 -137 0
35 20 27 18 24 -140 0
35 20 27 18 24 -138 0
35 20 27 18 24 -136 0
35 20 27 18 24 -141 0
35 54 34 29 32 -186 0
35 54 34 29 32 -181 0
35 54 34 29 32 -183 0
35 54 34 29 32 -182 0
35 54 34 29 32 -184 0
35 54 34 29 32 -185 0
35 54 57 50 53 -186 0
35 54 57 50 53 -181 0
35 54 57 50 53 -183 0
35 54 57 50 53 -182 0
35 54 57 50 53 -184 0
35 54 57 50 53 -185 0
35 5 34 29 32 -33 0
35 5 34 29 32 -36 0
35 5 34 29 32 -30 0
35 5 34 29 32 -37 0
35 5 34 29 32 -28 0
35 5 34 29 32 -31 0
35 5 3 4 7 -33 0
35 5 3 4 7 -36 0
35 5 3 4 7 -30 0
35 5 3 4 7 -37 0
35 5 3 4 7 -28 0
35 5 3 4 7 -31 0
35 8 34 29 32 -102 0
35 8 34 29 32 -100 0
35 8 34 29 32 -101 0
35 8 34 29 32 -98 0
35 8 34 29 32 -99 0
35 8 34 29 32 -97 0
35 60 34 29 32 -188 0
35 60 34 29 32 -191 0
35 60 34 29 32 -190 0
35 60 34 29 32 -192 0
35 60 34 29 32 -187 0
35 60 34 29 32 -189 0
35 68 34 29 32 -193 0
35 68 34 29 32 -195 0
35 68 34 29 32 -198 0
35 68 34 29 32 -194 0
35 68 34 29 32 -196 0
35 68 34 29 32 -197 0
35 85 34 29 32 -200 0
35 85 34 29 32 -202 0
35 85 34 29 32 -199 0
35 85 34 29 32 -203 0
35 85 34 29 32 -204 0
35 85 34 29 32 -201 0
35 39 34 29 32 -177 0
35 39 34 29 32 -179 0
35 39 34 29 32 -176 0
35 39 34 29 32 -178 0
35 39 34 29 32 -175 0
35 39 34 29 32 -180 0
35 34 27 29 32 -139 0
35 34 27 29 32 -137 0
35 34 27 29 32 -140 0
35 34 27 29 32 -138 0
35 34 27 29 32 -136 0
35 34 27 29 32 -141 0
35 34 57 29 32 -186 0
35 34 57 29 32 -181 0
35 34 57 29 32 -183 0
35 34 57 29 32 -182 0
35 34 57 29 32 -184 0
35 34 57 29 32 -185 0
35 34 3 29 32 -33 0
35 34 3 29 32 -36 0
35 34 3 29 32 -30 0
35 34 3 29 32 -37 0
35 34 3 29 32 -28 0
35 34 3 29 32 -31 0
35 34 14 29 32 -102 0
35 34 14 29 32 -100 0
35 34 14 29 32 -101 0
35 34 14 29 32 -98 0
35 34 14 29 32 -99 0
35 34 14 29 32 -97 0
35 34 67 29 32 -188 0
35 34 67 29 32 -191 0
35 34 67 29 32 -190 0
35 34 67 29 32 -192 0
35 34 67 29 32 -187 0
35 34 67 29 32 -189 0
35 34 74 29 32 -193 0
35 34 74 29 32 -195 0
35 34 74 29 32 -198 0
35 34 74 29 32 -194 0
35 34 74 29 32 -196 0
35 34 74 29 32 -197 0
35 34 81 29 32 -200 0
35 34 81 29 32 -202 0
35 34 81 29 32 -199 0
35 34 81 29 32 -203 0
35 34 81 29 32 -204 0
35 34 81 29 32 -201 0
35 34 41 29 32 -177 0
35 34 41 29 32 -179 0
35 34 41 29 32 -176 0
35 34 41 29 32 -178 0
35 34 41 29 32 -175 0
35 34 41 29 32 -180 0
35 34 29 18 32 -139 0
35 34 29 18 32 -137 0
35 34 29 18 32 -140 0
35 34 29 18 32 -138 0
35 34 29 18 32 -136 0
35 34 29 18 32 -141 0
35 34 29 50 32 -186 0
35 34 29 50 32 -181 0
35 34 29 50 32 -183 0
35 34 29 50 32 -182 0
35 34 29 50 32 -184 0
35 34 29 50 32 -185 0
35 34 29 4 32 -33 0
35 34 29 4 32 -36 0
35 34 29 4 32 -30 0
35 34 29 4 32 -37 0
35 34 29 4 32 -28 0
35 34 29 4 32 -31 0
35 34 29 16 32 -102 0
35 34 29 16 32 -100 0
35 34 29 16 32 -101 0
35 34 29 16 32 -98 0
35 34 29 16 32 -99 0
35 34 29 16 32 -97 0
35 34 29 66 32 -188 0
35 34 29 66 32 -191 0
35 34 29 66 32 -190 0
35 34 29 66 32 -192 0
35 34 29 66 32 -187 0
35 34 29 66 32 -189 0
35 34 29 72 32 -193 0
35 34 29 72 32 -195 0
35 34 29 72 32 -198 0
35 34 29 72 32 -194 0
35 34 29 72 32 -196 0
35 34 29 72 32 -197 0
35 34 29 82 32 -200 0
35 34 29 82 32 -202 0
35 34 29 82 32 -199 0
35 34 29 82 32 -203 0
35 34 29 82 32 -204 0
35 34 29 82 32 -201 0
35 34 29 47 32 -177 0
35 34 29 47 32 -179 0
35 34 29 47 32 -176 0
35 34 29 47 32 -178 0
35 34 29 47 32 -175 0
35 34 29 47 32 -180 0
35 34 29 32 24 -139 0
35 34 29 32 24 -137 0
35 34 29 32 24 -140 0
35 34 29 32 24 -138 0
35 34 29 32 24 -136 0
35 34 29 32 24 -141 0
35 34 29 32 53 -186 0
35 34 29 32 53 -181 0
35 34 29 32 53 -183 0
35 34 29 32 53 -182 0
35 34 29 32 53 -184 0
35 34 29 32 53 -185 0
35 34 29 32 7 -33 0
35 34 29 32 7 -36 0
35 34 29 32 7 -30 0
35 34 29 32 7 -37 0
35 34 29 32 7 -28 0
35 34 29 32 7 -31 0
20 54 27 18 24 -149 0
20 54 27 18 24 -153 0
20 54 27 18 24 -150 0
20 54 27 18 24 -151 0
20 54 27 18 24 -152 0
20 54 27 18 24 -148 0
20 54 57 50 53 -149 0
20 54 57 50 53 -153 0
20 54 57 50 53 -150 0
20 54 57 50 53 -151 0
20 54 57 50 53 -152 0
20 54 57 50 53 -148 0
20 5 27 18 24 -21 0
20 5 27 18 24 -19 0
20 5 27 18 24 -25 0
20 5 27 18 24 -22 0
20 5 27 18 24 -23 0
20 5 27 18 24 -26 0
20 5 3 4 7 -21 0
20 5 3 4 7 -19 0
20 5 3 4 7 -25 0
20 5 3 4 7 -22 0
20 5 3 4 7 -23 0
20 5 3 4 7 -26 0
20 8 27 18 24 -95 0
20 8 27 18 24 -96 0
20 8 27 18 24 -93 0
20 8 27 18 24 -94 0
20 8 27 18 24 -92 0
20 8 27 18 24 -91 0
20 60 27 18 24 -157 0
20 60 27 18 24 -154 0
20 60 27 18 24 -156 0
20 60 27 18 24 -155 0
20 60 27 18 24 -158 0
20 60 27 18 24 -159 0
20 68 27 18 24 -165 0
20 68 27 18 24 -163 0
20 68 27 18 24 -162 0
20 68 27 18 24 -164 0
20 68 27 18 24 -161 0
20 68 27 18 24 -160 0
20 85 27 18 24 -166 0
20 85 27 18 24 -168 0
20 85 27 18 24 -167 0
20 85 27 18 24 -169 0
20 85 27 18 24 -170 0
20 85 27 18 24 -171 0
20 39 27 18 24 -146 0
20 39 27 18 24 -142 0
20 39 27 18 24 -147 0
20 39 27 18 24 -143 0
20 39 27 18 24 -145 0
20 39 27 18 24 -144 0
20 34 27 18 24 -139 0
20 34 27 18 24 -137 0
20 34 27 18 24 -140 0
20 34 27 18 24 -138 0
20 34 27 18 24 -136 0
20 34 27 18 24 -141 0
20 27 57 18 24 -149 0
20 27 57 18 24 -153 0
20 27 57 18 24 -150 0
20 27 57 18 24 -151 0
20 27 57 18 24 -152 0
20 27 57 18 24 -148 0
20 27 3 18 24 -21 0
20 27 3 18 24 -19 0
20 27 3 18 24 -25 0
20 27 3 18 24 -22 0
20 27 3 18 24 -23 0
20 27 3 18 24 -26 0
20 27 14 18 24 -95 0
20 27 14 18 24 -96 0
20 27 14 18 24 -93 0
20 27 14 18 24 -94 0
20 27 14 18 24 -92 0
20 27 14 18 24 -91 0
20 27 67 18 24 -157 0
20 27 67 18 24 -154 0
20 27 67 18 24 -156 0
20 27 67 18 24 -155 0
20 27 67 18 24 -158 0
20 27 67 18 24 -159 0
20 27 74 18 24 -165 0
20 27 74 18 24 -163 0
20 27 74 18 24 -162 0
20 27 74 18 24 -164 0
20 27 74 18 24 -161 0
20 27 74 18 24 -160 0
20 27 81 18 24 -166 0
20 27 81 18 24 -168 0
20 27 81 18 24 -167 0
20 27 81 18 24 -169 0
20 27 81 18 24 -170 0
20 27 81 18 24 -171 0
20 27 41 18 24 -146 0
20 27 41 18 24 -142 0
20 27 41 18 24 -147 0
20 27 41 18 24 -143 0
20 27 41 18 24 -145 0
20 27 41 18 24 -144 0
20 27 29 18 24 -139 0
20 27 29 18 24 -137 0
20 27 29 18 24 -140 0
20 27 29 18 24 -138 0
20 27 29 18 24 -136 0
20 27 29 18 24 -141 0
20 27 18 50 24 -149 0
20 27 18 50 24 -153 0
20 27 18 50 24 -150 0
20 27 18 50 24 -151 0
20 27 18 50 24 -152 0
20 27 18 50 24 -148 0
20 27 18 4 24 -21 0
20 27 18 4 24 -19 0
20 27 18 4 24 -25 0
20 27 18 4 24 -22 0
20 27 18 4 24 -23 0
20 27 18 4 24 -26 0
20 27 18 16 24 -95 0
20 27 18 16 24 -96 0
20 27 18 16 24 -93 0
20 27 18 16 24 -94 0
20 27 18 16 24 -92 0
20 27 18 16 24 -91 0
20 27 18 66 24 -157 0
20 27 18 66 24 -154 0
20 27 18 66 24 -156 0
20 27 18 66 24 -155 0
20 27 18 66 24 -158 0
20 27 18 66 24 -159 0
20 27 18 72 24 -165 0
20 27 18 72 24 -163 0
20 27 18 72 24 -162 0
20 27 18 72 24 -164 0
20 27 18 72 24 -161 0
20 27 18 72 24 -160 0
20 27 18 82 24 -166 0
20 27 18 82 24 -168 0
20 27 18 82 24 -167 0
20 27 18 82 24 -169 0
20 27 18 82 24 -170 0
20 27 18 82 24 -171 0
20 27 18 47 24 -146 0
20 27 18 47 24 -142 0
20 27 18 47 24 -147 0
20 27 18 47 24 -143 0
20 27 18 47 24 -145 0
20 27 18 47 24 -144 0
20 27 18 32 24 -139 0
20 27 18 32 24 -137 0
20 27 18 32 24 -140 0
20 27 18 32 24 -138 0
20 27 18 32 24 -136 0
20 27 18 32 24 -141 0
20 27 18 24 53 -149 0
20 27 18 24 53 -153 0
20 27 18 24 53 -150 0
20 27 18 24 53 -151 0
20 27 18 24 53 -152 0
20 27 18 24 53 -148 0
20 27 18 24 7 -21 0
20 27 18 24 7 -19 0
20 27 18 24 7 -25 0
20 27 18 24 7 -22 0
20 27 18 24 7 -23 0
20 27 18 24 7 -26 0
54 5 57 50 53 -51 0
54 5 57 50 53 -56 0
54 5 57 50 53 -52 0
54 5 57 50 53 -55 0
54 5 57 50 53 -48 0
54 5 57 50 53 -49 0
54 5 3 4 7 -51 0
54 5 3 4 7 -56 0
54 5 3 4 7 -52 0
54 5 3 4 7 -55 0
54 5 3 4 7 -48 0
54 5 3 4 7 -49 0
54 8 57 50 53 -110 0
54 8 57 50 53 -114 0
54 8 57 50 53 -111 0
54 8 57 50 53 -112 0
54 8 57 50 53 -113 0
54 8 57 50 53 -109 0
54 60 57 50 53 -237 0
54 60 57 50 53 -238 0
54 60 57 50 53 -235 0
54 60 57 50 53 -239 0
54 60 57 50 53 -240 0
54 60 57 50 53 -236 0
54 68 57 50 53 -245 0
54 68 57 50 53 -243 0
54 68 57 50 53 -246 0
54 68 57 50 53 -244 0
54 68 57 50 53 -241 0
54 68 57 50 53 -242 0
54 85 57 50 53 -251 0
54 85 57 50 53 -247 0
54 85 57 50 53 -252 0
54 85 57 50 53 -248 0
54 85 57 50 53 -249 0
54 85 57 50 53 -250 0
54 39 57 50 53 -210 0
54 39 57 50 53 -212 0
54 39 57 50 53 -209 0
54 39 57 50 53 -211 0
54 39 57 50 53 -208 0
54 39 57 50 53 -213 0
54 34 57 50 53 -186 0
54 34 57 50 53 -181 0
54 34 57 50 53 -183 0
54 34 57 50 53 -182 0
54 34 57 50 53 -184 0
54 34 57 50 53 -185 0
54 27 57 50 53 -149 0
54 27 57 50 53 -153 0
54 27 57 50 53 -150 0
54 27 57 50 53 -151 0
54 27 57 50 53 -152 0
54 27 57 50 53 -148 0
54 57 3 50 53 -51 0
54 57 3 50 53 -56 0
54 57 3 50 53 -52 0
54 57 3 50 53 -55 0
54 57 3 50 53 -48 0
54 57 3 50 53 -49 0
54 57 14 50 53 -110 0
54 57 14 50 53 -114 0
54 57 14 50 53 -111 0
54 57 14 50 53 -112 0
54 57 14 50 53 -113 0
54 57 14 50 53 -109 0
54 57 67 50 53 -237 0
54 57 67 50 53 -238 0
54 57 67 50 53 -235 0
54 57 67 50 53 -239 0
54 57 67 50 53 -240 0
54 57 67 50 53 -236 0
54 57 74 50 53 -245 0
54 57 74 50 53 -243 0
54 57 74 50 53 -246 0
54 57 74 50 53 -244 0
54 57 74 50 53 -241 0
54 57 74 50 53 -242 0
54 57 81 50 53 -251 0
54 57 81 50 53 -247 0
54 57 81 50 53 -252 0
54 57 81 50 53 -248 0
54 57 81 50 53 -249 0
54 57 81 50 53 -250 0
54 57 41 50 53 -210 0
54 57 41 50 53 -212 0
54 57 41 50 53 -209 0
54 57 41 50 53 -211 0
54 57 41 50 53 -208 0
54 57 41 50 53 -213 0
54 57 29 50 53 -186 0
54 57 29 50 53 -181 0
54 57 29 50 53 -183 0
54 57 29 50 53 -182 0
54 57 29 50 53 -184 0
54 57 29 50 53 -185 0
54 57 18 50 53 -149 0
54 57 18 50 53 -153 0
54 57 18 50 53 -150 0
54 57 18 50 53 -151 0
54 57 18 50 53 -152 0
54 57 18 50 53 -148 0
54 57 50 4 53 -51 0
54 57 50 4 53 -56 0
54 57 50 4 53 -52 0
54 57 50 4 53 -55 0
54 57 50 4 53 -48 0
54 57 50 4 53 -49 0
54 57 50 16 53 -110 0
54 57 50 16 53 -114 0
54 57 50 16 53 -111 0
54 57 50 16 53 -112 0
54 57 50 16 53 -113 0
54 57 50 16 53 -109 0
54 57 50 66 53 -237 0
54 57 50 66 53 -238 0
54 57 50 66 53 -235 0
54 57 50 66 53 -239 0
54 57 50 66 53 -240 0
54 57 50 66 53 -236 0
54 57 50 72 53 -245 0
54 57 50 72 53 -243 0
54 57 50 72 53 -246 0
54 57 50 72 53 -244 0
54 57 50 72 53 -241 0
54 57 50 72 53 -242 0
54 57 50 82 53 -251 0
54 57 50 82 53 -247 0
54 57 50 82 53 -252 0
54 57 50 82 53 -248 0
54 57 50 82 53 -249 0
54 57 50 82 53 -250 0
54 57 50 47 53 -210 0
54 57 50 47 53 -212 0
54 57 50 47 53 -209 0
54 57 50 47 53 -211 0
54 57 50 47 53 -208 0
54 57 50 47 53 -213 0
54 57 50 32 53 -186 0
54 57 50 32 53 -181 0
54 57 50 32 53 -183 0
54 57 50 32 53 -182 0
54 57 50 32 53 -184 0
54 57 50 32 53 -185 0
54 57 50 24 53 -149 0
54 57 50 24 53 -153 0
54 57 50 24 53 -150 0
54 57 50 24 53 -151 0
54 57 50 24 53 -152 0
54 57 50 24 53 -148 0
54 57 50 53 7 -51 0
54 57 50 53 7 -56 0
54 57 50 53 7 -52 0
54 57 50 53 7 -55 0
54 57 50 53 7 -48 0
54 57 50 53 7 -49 0
5 8 3 4 7 -9 0
5 8 3 4 7 -15 0
5 8 3 4 7 -10 0
5 8 3 4 7 -17 0
5 8 3 4 7 -13 0
5 8 3 4 7 -12 0
5 60 3 4 7 -64 0
5 60 3 4 7 -59 0
5 60 3 4 7 -65 0
5 60 3 4 7 -61 0
5 60 3 4 7 -63 0
5 60 3 4 7 -58 0
5 68 3 4 7 -77 0
5 68 3 4 7 -69 0
5 68 3 4 7 -70 0
5 68 3 4 7 -76 0
5 68 3 4 7 -75 0
5 68 3 4 7 -73 0
5 85 3 4 7 -87 0
5 85 3 4 7 -78 0
5 85 3 4 7 -86 0
5 85 3 4 7 -84 0
5 85 3 4 7 -80 0
5 85 3 4 7 -79 0
5 39 3 4 7 -45 0
5 39 3 4 7 -44 0
5 39 3 4 7 -40 0
5 39 3 4 7 -38 0
5 39 3 4 7 -46 0
5 39 3 4 7 -43 0
5 34 3 4 7 -33 0
5 34 3 4 7 -36 0
5 34 3 4 7 -30 0
5 34 3 4 7 -37 0
5 34 3 4 7 -28 0
5 34 3 4 7 -31 0
5 27 3 4 7 -21 0
5 27 3 4 7 -19 0
5 27 3 4 7 -25 0
5 27 3 4 7 -22 0
5 27 3 4 7 -23 0
5 27 3 4 7 -26 0
5 57 3 4 7 -51 0
5 57 3 4 7 -56 0
5 57 3 4 7 -52 0
5 57 3 4 7 -55 0
5 57 3 4 7 -48 0
5 57 3 4 7 -49 0
5 3 14 4 7 -9 0
5 3 14 4 7 -15 0
5 3 14 4 7 -10 0
5 3 14 4 7 -17 0
5 3 14 4 7 -13 0
5 3 14 4 7 -12 0
5 3 67 4 7 -64 0
5 3 67 4 7 -59 0
5 3 67 4 7 -65 0
5 3 67 4 7 -61 0
5 3 67 4 7 -63 0
5 3 67 4 7 -58 0
5 3 74 4 7 -77 0
5 3 74 4 7 -69 0
5 3 74 4 7 -70 0
5 3 74 4 7 -76 0
5 3 74 4 7 -75 0
5 3 74 4 7 -73 0
5 3 81 4 7 -87 0
5 3 81 4 7 -78 0
5 3 81 4 7 -86 0
5 3 81 4 7 -84 0
5 3 81 4 7 -80 0
5 3 81 4 7 -79 0
5 3 41 4 7 -45 0
5 3 41 4 7 -44 0
5 3 41 4 7 -40 0
5 3 41 4 7 -38 0
5 3 41 4 7 -46 0
5 3 41 4 7 -43 0
5 3 29 4 7 -33 0
5 3 29 4 7 -36 0
5 3 29 4 7 -30 0
5 3 29 4 7 -37 0
5 3 29 4 7 -28 0
5 3 29 4 7 -31 0
5 3 18 4 7 -21 0
5 3 18 4 7 -19 0
5 3 18 4 7 -25 0
5 3 18 4 7 -22 0
5 3 18 4 7 -23 0
5 3 18 4 7 -26 0
5 3 50 4 7 -51 0
5 3 50 4 7 -56 0
5 3 50 4 7 -52 0
5 3 50 4 7 -55 0
5 3 50 4 7 -48 0
5 3 50 4 7 -49 0
5 3 4 16 7 -9 0
5 3 4 16 7 -15 0
5 3 4 16 7 -10 0
5 3 4 16 7 -17 0
5 3 4 16 7 -13 0
5 3 4 16 7 -12 0
5 3 4 66 7 -64 0
5 3 4 66 7 -59 0
5 3 4 66 7 -65 0
5 3 4 66 7 -61 0
5 3 4 66 7 -63 0
5 3 4 66 7 -58 0
5 3 4 72 7 -77 0
5 3 4 72 7 -69 0
5 3 4 72 7 -70 0
5 3 4 72 7 -76 0
5 3 4 72 7 -75 0
5 3 4 72 7 -73 0
5 3 4 82 7 -87 0
5 3 4 82 7 -78 0
5 3 4 82 7 -86 0
5 3 4 82 7 -84 0
5 3 4 82 7 -80 0
5 3 4 82 7 -79 0
5 3 4 47 7 -45 0
5 3 4 47 7 -44 0
5 3 4 47 7 -40 0
5 3 4 47 7 -38 0
5 3 4 47 7 -46 0
5 3 4 47 7 -43 0
5 3 4 32 7 -33 0
5 3 4 32 7 -36 0
5 3 4 32 7 -30 0
5 3 4 32 7 -37 0
5 3 4 32 7 -28 0
5 3 4 32 7 -31 0
5 3 4 24 7 -21 0
5 3 4 24 7 -19 0
5 3 4 24 7 -25 0
5 3 4 24 7 -22 0
5 3 4 24 7 -23 0
5 3 4 24 7 -26 0
5 3 4 53 7 -51 0
5 3 4 53 7 -56 0
5 3 4 53 7 -52 0
5 3 4 53 7 -55 0
5 3 4 53 7 -48 0
5 3 4 53 7 -49 0
11 62 8 60 14 67 -120 0
11 62 8 60 14 67 -119 0
11 62 8 60 14 67 -117 0
11 62 8 60 14 67 -118 0
11 62 8 60 14 67 -115 0
11 62 8 60 14 67 -116 0
11 62 8 60 14 16 -120 0
11 62 8 60 14 16 -119 0
11 62 8 60 14 16 -117 0
11 62 8 60 14 16 -118 0
11 62 8 60 14 16 -115 0
11 62 8 60 14 16 -116 0
11 62 8 60 67 66 -120 0
11 62 8 60 67 66 -119 0
11 62 8 60 67 66 -117 0
11 62 8 60 67 66 -118 0
11 62 8 60 67 66 -115 0
11 62 8 60 67 66 -116 0
11 62 8 60 16 66 -120 0
11 62 8 60 16 66 -119 0
11 62 8 60 16 66 -117 0
11 62 8 60 16 66 -118 0
11 62 8 60 16 66 -115 0
11 62 8 60 16 66 -116 0
11 62 8 14 67 16 -120 0
11 62 8 14 67 16 -119 0
11 62 8 14 67 16 -117 0
11 62 8 14 67 16 -118 0
11 62 8 14 67 16 -115 0
11 62 8 14 67 16 -116 0
11 62 8 14 16 66 -120 0
11 62 8 14 16 66 -119 0
11 62 8 14 16 66 -117 0
11 62 8 14 16 66 -118 0
11 62 8 14 16 66 -115 0
11 62 8 14 16 66 -116 0
11 62 60 14 67 66 -120 0
11 62 60 14 67 66 -119 0
11 62 60 14 67 66 -117 0
11 62 60 14 67 66 -118 0
11 62 60 14 67 66 -115 0
11 62 60 14 67 66 -116 0
11 62 60 67 16 66 -120 0
11 62 60 67 16 66 -119 0
11 62 60 67 16 66 -117 0
11 62 60 67 16 66 -118 0
11 62 60 67 16 66 -115 0
11 62 60 67 16 66 -116 0
11 62 14 67 16 66 -120 0
11 62 14 67 16 66 -119 0
11 62 14 67 16 66 -117 0
11 62 14 67 16 66 -118 0
11 62 14 67 16 66 -115 0
11 62 14 67 16 66 -116 0
11 71 8 68 14 74 -121 0
11 71 8 68 14 74 -125 0
11 71 8 68 14 74 -122 0
11 71 8 68 14 74 -123 0
11 71 8 68 14 74 -124 0
11 71 8 68 14 74 -126 0
11 71 8 68 14 16 -121 0
11 71 8 68 14 16 -125 0
11 71 8 68 14 16 -122 0
11 71 8 68 14 16 -123 0
11 71 8 68 14 16 -124 0
11 71 8 68 14 16 -126 0
11 71 8 68 74 72 -121 0
11 71 8 68 74 72 -125 0
11 71 8 68 74 72 -122 0
11 71 8 68 74 72 -123 0
11 71 8 68 74 72 -124 0
11 71 8 68 74 72 -126 0
11 71 8 68 16 72 -121 0
11 71 8 68 16 72 -125 0
11 71 8 68 16 72 -122 0
11 71 8 68 16 72 -123 0
11 71 8 68 16 72 -124 0
11 71 8 68 16 72 -126 0
11 71 8 14 74 16 -121 0
11 71 8 14 74 16 -125 0
11 71 8 14 74 16 -122 0
11 71 8 14 74 16 -123 0
11 71 8 14 74 16 -124 0
11 71 8 14 74 16 -126 0
11 71 8 14 16 72 -121 0
11 71 8 14 16 72 -125 0
11 71 8 14 16 72 -122 0
11 71 8 14 16 72 -123 0
11 71 8 14 16 72 -124 0
11 71 8 14 16 72 -126 0
11 71 68 14 74 72 -121 0
11 71 68 14 74 72 -125 0
11 71 68 14 74 72 -122 0
11 71 68 14 74 72 -123 0
11 71 68 14 74 72 -124 0
11 71 68 14 74 72 -126 0
11 71 68 74 16 72 -121 0
11 71 68 74 16 72 -125 0
11 71 68 74 16 72 -122 0
11 71 68 74 16 72 -123 0
11 71 68 74 16 72 -124 0
11 71 68 74 16 72 -126 0
11 71 14 74 16 72 -121 0
11 71 14 74 16 72 -125 0
11 71 14 74 16 72 -122 0
11 71 14 74 16 72 -123 0
11 71 14 74 16 72 -124 0
11 71 14 74 16 72 -126 0
11 83 8 85 14 81 -127 0
11 83 8 85 14 81 -130 0
11 83 8 85 14 81 -131 0
11 83 8 85 14 81 -128 0
11 83 8 85 14 81 -132 0
11 83 8 85 14 81 -129 0
11 83 8 85 14 16 -127 0
11 83 8 85 14 16 -130 0
11 83 8 85 14 16 -131 0
11 83 8 85 14 16 -128 0
11 83 8 85 14 16 -132 0
11 83 8 85 14 16 -129 0
11 83 8 85 81 82 -127 0
11 83 8 85 81 82 -130 0
11 83 8 85 81 82 -131 0
11 83 8 85 81 82 -128 0
11 83 8 85 81 82 -132 0
11 83 8 85 81 82 -129 0
11 83 8 85 16 82 -127 0
11 83 8 85 16 82 -130 0
11 83 8 85 16 82 -131 0
11 83 8 85 16 82 -128 0
11 83 8 85 16 82 -132 0
11 83 8 85 16 82 -129 0
11 83 8 14 81 16 -127 0
11 83 8 14 81 16 -130 0
11 83 8 14 81 16 -131 0
11 83 8 14 81 16 -128 0
11 83 8 14 81 16 -132 0
11 83 8 14 81 16 -129 0
11 83 8 14 16 82 -127 0
11 83 8 14 16 82 -130 0
11 83 8 14 16 82 -131 0
11 83 8 14 16 82 -128 0
11 83 8 14 16 82 -132 0
11 83 8 14 16 82 -129 0
11 83 85 14 81 82 -127 0
11 83 85 14 81 82 -130 0
11 83 85 14 81 82 -131 0
11 83 85 14 81 82 -128 0
11 83 85 14 81 82 -132 0
11 83 85 14 81 82 -129 0
11 83 85 81 16 82 -127 0
11 83 85 81 16 82 -130 0
11 83 85 81 16 82 -131 0
11 83 85 81 16 82 -128 0
11 83 85 81 16 82 -132 0
11 83 85 81 16 82 -129 0
11 83 14 81 16 82 -127 0
11 83 14 81 16 82 -130 0
11 83 14 81 16 82 -131 0
11 83 14 81 16 82 -128 0
11 83 14 81 16 82 -132 0
11 83 14 81 16 82 -129 0
11 42 8 39 14 41 -106 0
11 42 8 39 14 41 -104 0
11 42 8 39 14 41 -105 0
11 42 8 39 14 41 -108 0
11 42 8 39 14 41 -107 0
11 42 8 39 14 41 -103 0
11 42 8 39 14 16 -106 0
11 42 8 39 14 16 -104 0
11 42 8 39 14 16 -105 0
11 42 8 39 14 16 -108 0
11 42 8 39 14 16 -107 0
11 42 8 39 14 16 -103 0
11 42 8 39 41 47 -106 0
11 42 8 39 41 47 -104 0
11 42 8 39 41 47 -105 0
11 42 8 39 41 47 -108 0
11 42 8 39 41 47 -107 0
11 42 8 39 41 47 -103 0
11 42 8 39 16 47 -106 0
11 42 8 39 16 47 -104 0
11 42 8 39 16 47 -105 0
11 42 8 39 16 47 -108 0
11 42 8 39 16 47 -107 0
11 42 8 39 16 47 -103 0
11 42 8 14 41 16 -106 0
11 42 8 14 41 16 -104 0
11 42 8 14 41 16 -105 0
11 42 8 14 41 16 -108 0
11 42 8 14 41 16 -107 0
11 42 8 14 41 16 -103 0
11 42 8 14 16 47 -106 0
11 42 8 14 16 47 -104 0
11 42 8 14 16 47 -105 0
11 42 8 14 16 47 -108 0
11 42 8 14 16 47 -107 0
11 42 8 14 16 47 -103 0
11 42 39 14 41 47 -106 0
11 42 39 14 41 47 -104 0
11 42 39 14 41 47 -105 0
11 42 39 14 41 47 -108 0
11 42 39 14 41 47 -107 0
11 42 39 14 41 47 -103 0
11 42 39 41 16 47 -106 0
11 42 39 41 16 47 -104 0
11 42 39 41 16 47 -105 0
11 42 39 41 16 47 -108 0
11 42 39 41 16 47 -107 0
11 42 39 41 16 47 -103 0
11 42 14 41 16 47 -106 0
11 42 14 41 16 47 -104 0
11 42 14 41 16 47 -105 0
11 42 14 41 16 47 -108 0
11 42 14 41 16 47 -107 0
11 42 14 41 16 47 -103 0
11 35 8 34 14 29 -102 0
11 35 8 34 14 29 -100 0
11 35 8 34 14 29 -101 0
11 35 8 34 14 29 -98 0
11 35 8 34 14 29 -99 0
11 35 8 34 14 29 -97 0
11 35 8 34 14 16 -102 0
11 35 8 34 14 16 -100 0
11 35 8 34 14 16 -101 0
11 35 8 34 14 16 -98 0
11 35 8 34 14 16 -99 0
11 35 8 34 14 16 -97 0
11 35 8 34 29 32 -102 0
11 35 8 34 29 32 -100 0
11 35 8 34 29 32 -101 0
11 35 8 34 29 32 -98 0
11 35 8 34 29 32 -99 0
11 35 8 34 29 32 -97 0
11 35 8 34 16 32 -102 0
11 35 8 34 16 32 -100 0
11 35 8 34 16 32 -101 0
11 35 8 34 16 32 -98 0
11 35 8 34 16 32 -99 0
11 35 8 34 16 32 -97 0
11 35 8 14 29 16 -102 0
11 35 8 14 29 16 -100 0
11 35 8 14 29 16 -101 0
11 35 8 14 29 16 -98 0
11 35 8 14 29 16 -99 0
11 35 8 14 29 16 -97 0
11 35 8 14 16 32 -102 0
11 35 8 14 16 32 -100 0
11 35 8 14 16 32 -101 0
11 35 8 14 16 32 -98 0
11 35 8 14 16 32 -99 0
11 35 8 14 16 32 -97 0
11 35 34 14 29 32 -102 0
11 35 34 14 29 32 -100 0
11 35 34 14 29 32 -101 0
11 35 34 14 29 32 -98 0
11 35 34 14 29 32 -99 0
11 35 34 14 29 32 -97 0
11 35 34 29 16 32 -102 0
11 35 34 29 16 32 -100 0
11 35 34 29 16 32 -101 0
11 35 34 29 16 32 -98 0
11 35 34 29 16 32 -99 0
11 35 34 29 16 32 -97 0
11 35 14 29 16 32 -102 0
11 35 14 29 16 32 -100 0
11 35 14 29 16 32 -101 0
11 35 14 29 16 32 -98 0
11 35 14 29 16 32 -99 0
11 35 14 29 16 32 -97 0
11 20 8 27 14 18 -95 0
11 20 8 27 14 18 -96 0
11 20 8 27 14 18 -93 0
11 20 8 27 14 18 -94 0
11 20 8 27 14 18 -92 0
11 20 8 27 14 18 -91 0
11 20 8 27 14 16 -95 0
11 20 8 27 14 16 -96 0
11 20 8 27 14 16 -93 0
11 20 8 27 14 16 -94 0
11 20 8 27 14 16 -92 0
11 20 8 27 14 16 -91 0
11 20 8 27 18 24 -95 0
11 20 8 27 18 24 -96 0
11 20 8 27 18 24 -93 0
11 20 8 27 18 24 -94 0
11 20 8 27 18 24 -92 0
11 20 8 27 18 24 -91 0
11 20 8 27 16 24 -95 0
11 20 8 27 16 24 -96 0
11 20 8 27 16 24 -93 0
11 20 8 27 16 24 -94 0
11 20 8 27 16 24 -92 0
11 20 8 27 16 24 -91 0
11 20 8 14 18 16 -95 0
11 20 8 14 18 16 -96 0
11 20 8 14 18 16 -93 0
11 20 8 14 18 16 -94 0
11 20 8 14 18 16 -92 0
11 20 8 14 18 16 -91 0
11 20 8 14 16 24 -95 0
11 20 8 14 16 24 -96 0
11 20 8 14 16 24 -93 0
11 20 8 14 16 24 -94 0
11 20 8 14 16 24 -92 0
11 20 8 14 16 24 -91 0
11 20 27 14 18 24 -95 0
11 20 27 14 18 24 -96 0
11 20 27 14 18 24 -93 0
11 20 27 14 18 24 -94 0
11 20 27 14 18 24 -92 0
11 20 27 14 18 24 -91 0
11 20 27 18 16 24 -95 0
11 20 27 18 16 24 -96 0
11 20 27 18 16 24 -93 0
11 20 27 18 16 24 -94 0
11 20 27 18 16 24 -92 0
11 20 27 18 16 24 -91 0
11 20 14 18 16 24 -95 0
11 20 14 18 16 24 -96 0
11 20 14 18 16 24 -93 0
11 20 14 18 16 24 -94 0
11 20 14 18 16 24 -92 0
11 20 14 18 16 24 -91 0
11 54 8 57 14 50 -110 0
11 54 8 57 14 50 -114 0
11 54 8 57 14 50 -111 0
11 54 8 57 14 50 -112 0
11 54 8 57 14 50 -113 0
11 54 8 57 14 50 -109 0
11 54 8 57 14 16 -110 0
11 54 8 57 14 16 -114 0
11 54 8 57 14 16 -111 0
11 54 8 57 14 16 -112 0
11 54 8 57 14 16 -113 0
11 54 8 57 14 16 -109 0
11 54 8 57 50 53 -110 0
11 54 8 57 50 53 -114 0
11 54 8 57 50 53 -111 0
11 54 8 57 50 53 -112 0
11 54 8 57 50 53 -113 0
11 54 8 57 50 53 -109 0
11 54 8 57 16 53 -110 0
11 54 8 57 16 53 -114 0
11 54 8 57 16 53 -111 0
11 54 8 57 16 53 -112 0
11 54 8 57 16 53 -113 0
11 54 8 57 16 53 -109 0
11 54 8 14 50 16 -110 0
11 54 8 14 50 16 -114 0
11 54 8 14 50 16 -111 0
11 54 8 14 50 16 -112 0
11 54 8 14 50 16 -113 0
11 54 8 14 50 16 -109 0
11 54 8 14 16 53 -110 0
11 54 8 14 16 53 -114 0
11 54 8 14 16 53 -111 0
11 54 8 14 16 53 -112 0
11 54 8 14 16 53 -113 0
11 54 8 14 16 53 -109 0
11 54 57 14 50 53 -110 0
11 54 57 14 50 53 -114 0
11 54 57 14 50 53 -111 0
11 54 57 14 50 53 -112 0
11 54 57 14 50 53 -113 0
11 54 57 14 50 53 -109 0
11 54 57 50 16 53 -110 0
11 54 57 50 16 53 -114 0
11 54 57 50 16 53 -111 0
11 54 57 50 16 53 -112 0
11 54 57 50 16 53 -113 0
11 54 57 50 16 53 -109 0
11 54 14 50 16 53 -110 0
11 54 14 50 16 53 -114 0
11 54 14 50 16 53 -111 0
11 54 14 50 16 53 -112 0
11 54 14 50 16 53 -113 0
11 54 14 50 16 53 -109 0
11 5 8 3 14 4 -9 0
11 5 8 3 14 4 -15 0
11 5 8 3 14 4 -10 0
11 5 8 3 14 4 -17 0
11 5 8 3 14 4 -13 0
11 5 8 3 14 4 -12 0
11 5 8 3 14 16 -9 0
11 5 8 3 14 16 -15 0
11 5 8 3 14 16 -10 0
11 5 8 3 14 16 -17 0
11 5 8 3 14 16 -13 0
11 5 8 3 14 16 -12 0
11 5 8 3 4 7 -9 0
11 5 8 3 4 7 -15 0
11 5 8 3 4 7 -10 0
11 5 8 3 4 7 -17 0
11 5 8 3 4 7 -13 0
11 5 8 3 4 7 -12 0
11 5 8 3 16 7 -9 0
11 5 8 3 16 7 -15 0
11 5 8 3 16 7 -10 0
11 5 8 3 16 7 -17 0
11 5 8 3 16 7 -13 0
11 5 8 3 16 7 -12 0
11 5 8 14 4 16 -9 0
11 5 8 14 4 16 -15 0
11 5 8 14 4 16 -10 0
11 5 8 14 4 16 -17 0
11 5 8 14 4 16 -13 0
11 5 8 14 4 16 -12 0
11 5 8 14 16 7 -9 0
11 5 8 14 16 7 -15 0
11 5 8 14 16 7 -10 0
11 5 8 14 16 7 -17 0
11 5 8 14 16 7 -13 0
11 5 8 14 16 7 -12 0
11 5 3 14 4 7 -9 0
11 5 3 14 4 7 -15 0
11 5 3 14 4 7 -10 0
11 5 3 14 4 7 -17 0
11 5 3 14 4 7 -13 0
11 5 3 14 4 7 -12 0
11 5 3 4 16 7 -9 0
11 5 3 4 16 7 -15 0
11 5 3 4 16 7 -10 0
11 5 3 4 16 7 -17 0
11 5 3 4 16 7 -13 0
11 5 3 4 16 7 -12 0
11 5 14 4 16 7 -9 0
11 5 14 4 16 7 -15 0
11 5 14 4 16 7 -10 0
11 5 14 4 16 7 -17 0
11 5 14 4 16 7 -13 0
11 5 14 4 16 7 -12 0
11 8 60 14 67 16 -120 0
11 8 60 14 67 16 -119 0
11 8 60 14 67 16 -117 0
11 8 60 14 67 16 -118 0
11 8 60 14 67 16 -115 0
11 8 60 14 67 16 -116 0
11 8 60 14 16 66 -120 0
11 8 60 14 16 66 -119 0
11 8 60 14 16 66 -117 0
11 8 60 14 16 66 -118 0
11 8 60 14 16 66 -115 0
11 8 60 14 16 66 -116 0
11 8 68 14 74 16 -121 0
11 8 68 14 74 16 -125 0
11 8 68 14 74 16 -122 0
11 8 68 14 74 16 -123 0
11 8 68 14 74 16 -124 0
11 8 68 14 74 16 -126 0
11 8 68 14 16 72 -121 0
11 8 68 14 16 72 -125 0
11 8 68 14 16 72 -122 0
11 8 68 14 16 72 -123 0
11 8 68 14 16 72 -124 0
11 8 68 14 16 72 -126 0
11 8 85 14 81 16 -127 0
11 8 85 14 81 16 -130 0
11 8 85 14 81 16 -131 0
11 8 85 14 81 16 -128 0
11 8 85 14 81 16 -132 0
11 8 85 14 81 16 -129 0
11 8 85 14 16 82 -127 0
11 8 85 14 16 82 -130 0
11 8 85 14 16 82 -131 0
11 8 85 14 16 82 -128 0
11 8 85 14 16 82 -132 0
11 8 85 14 16 82 -129 0
11 8 39 14 41 16 -106 0
11 8 39 14 41 16 -104 0
11 8 39 14 41 16 -105 0
11 8 39 14 41 16 -108 0
11 8 39 14 41 16 -107 0
11 8 39 14 41 16 -103 0
11 8 39 14 16 47 -106 0
11 8 39 14 16 47 -104 0
11 8 39 14 16 47 -105 0
11 8 39 14 16 47 -108 0
11 8 39 14 16 47 -107 0
11 8 39 14 16 47 -103 0
11 8 34 14 29 16 -102 0
11 8 34 14 29 16 -100 0
11 8 34 14 29 16 -101 0
11 8 34 14 29 16 -98 0
11 8 34 14 29 16 -99 0
11 8 34 14 29 16 -97 0
11 8 34 14 16 32 -102 0
11 8 34 14 16 32 -100 0
11 8 34 14 16 32 -101 0
11 8 34 14 16 32 -98 0
11 8 34 14 16 32 -99 0
11 8 34 14 16 32 -97 0
11 8 27 14 18 16 -95 0
11 8 27 14 18 16 -96 0
11 8 27 14 18 16 -93 0
11 8 27 14 18 16 -94 0
11 8 27 14 18 16 -92 0
11 8 27 14 18 16 -91 0
11 8 27 14 16 24 -95 0
11 8 27 14 16 24 -96 0
11 8 27 14 16 24 -93 0
11 8 27 14 16 24 -94 0
11 8 27 14 16 24 -92 0
11 8 27 14 16 24 -91 0
11 8 57 14 50 16 -110 0
11 8 57 14 50 16 -114 0
11 8 57 14 50 16 -111 0
11 8 57 14 50 16 -112 0
11 8 57 14 50 16 -113 0
11 8 57 14 50 16 -109 0
11 8 57 14 16 53 -110 0
11 8 57 14 16 53 -114 0
11 8 57 14 16 53 -111 0
11 8 57 14 16 53 -112 0
11 8 57 14 16 53 -113 0
11 8 57 14 16 53 -109 0
11 8 3 14 4 16 -9 0
11 8 3 14 4 16 -15 0
11 8 3 14 4 16 -10 0
11 8 3 14 4 16 -17 0
11 8 3 14 4 16 -13 0
11 8 3 14 4 16 -12 0
11 8 3 14 16 7 -9 0
11 8 3 14 16 7 -15 0
11 8 3 14 16 7 -10 0
11 8 3 14 16 7 -17 0
11 8 3 14 16 7 -13 0
11 8 3 14 16 7 -12 0
11 8 14 67 16 66 -120 0
11 8 14 67 16 66 -119 0
11 8 14 67 16 66 -117 0
11 8 14 67 16 66 -118 0
11 8 14 67 16 66 -115 0
11 8 14 67 16 66 -116 0
11 8 14 74 16 72 -121 0
11 8 14 74 16 72 -125 0
11 8 14 74 16 72 -122 0
11 8 14 74 16 72 -123 0
11 8 14 74 16 72 -124 0
11 8 14 74 16 72 -126 0
11 8 14 81 16 82 -127 0
11 8 14 81 16 82 -130 0
11 8 14 81 16 82 -131 0
11 8 14 81 16 82 -128 0
11 8 14 81 16 82 -132 0
11 8 14 81 16 82 -129 0
11 8 14 41 16 47 -106 0
11 8 14 41 16 47 -104 0
11 8 14 41 16 47 -105 0
11 8 14 41 16 47 -108 0
11 8 14 41 16 47 -107 0
11 8 14 41 16 47 -103 0
11 8 14 29 16 32 -102 0
11 8 14 29 16 32 -100 0
11 8 14 29 16 32 -101 0
11 8 14 29 16 32 -98 0
11 8 14 29 16 32 -99 0
11 8 14 29 16 32 -97 0
11 8 14 18 16 24 -95 0
11 8 14 18 16 24 -96 0
11 8 14 18 16 24 -93 0
11 8 14 18 16 24 -94 0
11 8 14 18 16 24 -92 0
11 8 14 18 16 24 -91 0
11 8 14 50 16 53 -110 0
11 8 14 50 16 53 -114 0
11 8 14 50 16 53 -111 0
11 8 14 50 16 53 -112 0
11 8 14 50 16 53 -113 0
11 8 14 50 16 53 -109 0
11 8 14 4 16 7 -9 0
11 8 14 4 16 7 -15 0
11 8 14 4 16 7 -10 0
11 8 14 4 16 7 -17 0
11 8 14 4 16 7 -13 0
11 8 14 4 16 7 -12 0
62 71 60 68 67 74 -261 0
62 71 60 68 67 74 -256 0
62 71 60 68 67 74 -259 0
62 71 60 68 67 74 -260 0
62 71 60 68 67 74 -258 0
62 71 60 68 67 74 -257 0
62 71 60 68 67 66 -261 0
62 71 60 68 67 66 -256 0
62 71 60 68 67 66 -259 0
62 71 60 68 67 66 -260 0
62 71 60 68 67 66 -258 0
62 71 60 68 67 66 -257 0
62 71 60 68 74 72 -261 0
62 71 60 68 74 72 -256 0
62 71 60 68 74 72 -259 0
62 71 60 68 74 72 -260 0
62 71 60 68 74 72 -258 0
62 71 60 68 74 72 -257 0
62 71 60 68 66 72 -261 0
62 71 60 68 66 72 -256 0
62 71 60 68 66 72 -259 0
62 71 60 68 66 72 -260 0
62 71 60 68 66 72 -258 0
62 71 60 68 66 72 -257 0
62 71 60 67 74 66 -261 0
62 71 60 67 74 66 -256 0
62 71 60 67 74 66 -259 0
62 71 60 67 74 66 -260 0
62 71 60 67 74 66 -258 0
62 71 60 67 74 66 -257 0
62 71 60 67 66 72 -261 0
62 71 60 67 66 72 -256 0
62 71 60 67 66 72 -259 0
62 71 60 67 66 72 -260 0
62 71 60 67 66 72 -258 0
62 71 60 67 66 72 -257 0
62 71 68 67 74 72 -261 0
62 71 68 67 74 72 -256 0
62 71 68 67 74 72 -259 0
62 71 68 67 74 72 -260 0
62 71 68 67 74 72 -258 0
62 71 68 67 74 72 -257 0
62 71 68 74 66 72 -261 0
62 71 68 74 66 72 -256 0
62 71 68 74 66 72 -259 0
62 71 68 74 66 72 -260 0
62 71 68 74 66 72 -258 0
62 71 68 74 66 72 -257 0
62 71 67 74 66 72 -261 0
62 71 67 74 66 72 -256 0
62 71 67 74 66 72 -259 0
62 71 67 74 66 72 -260 0
62 71 67 74 66 72 -258 0
62 71 67 74 66 72 -257 0
62 83 60 85 67 81 -266 0
62 83 60 85 67 81 -263 0
62 83 60 85 67 81 -265 0
62 83 60 85 67 81 -267 0
62 83 60 85 67 81 -262 0
62 83 60 85 67 81 -264 0
62 83 60 85 67 66 -266 0
62 83 60 85 67 66 -263 0
62 83 60 85 67 66 -265 0
62 83 60 85 67 66 -267 0
62 83 60 85 67 66 -262 0
62 83 60 85 67 66 -264 0
62 83 60 85 81 82 -266 0
62 83 60 85 81 82 -263 0
62 83 60 85 81 82 -265 0
62 83 60 85 81 82 -267 0
62 83 60 85 81 82 -262 0
62 83 60 85 81 82 -264 0
62 83 60 85 66 82 -266 0
62 83 60 85 66 82 -263 0
62 83 60 85 66 82 -265 0
62 83 60 85 66 82 -267 0
62 83 60 85 66 82 -262 0
62 83 60 85 66 82 -264 0
62 83 60 67 81 66 -266 0
62 83 60 67 81 66 -263 0
62 83 60 67 81 66 -265 0
62 83 60 67 81 66 -267 0
62 83 60 67 81 66 -262 0
62 83 60 67 81 66 -264 0
62 83 60 67 66 82 -266 0
62 83 60 67 66 82 -263 0
62 83 60 67 66 82 -265 0
62 83 60 67 66 82 -267 0
62 83 60 67 66 82 -262 0
62 83 60 67 66 82 -264 0
62 83 85 67 81 82 -266 0
62 83 85 67 81 82 -263 0
62 83 85 67 81 82 -265 0
62 83 85 67 81 82 -267 0
62 83 85 67 81 82 -262 0
62 83 85 67 81 82 -264 0
62 83 85 81 66 82 -266 0
62 83 85 81 66 82 -263 0
62 83 85 81 66 82 -265 0
62 83 85 81 66 82 -267 0
62 83 85 81 66 82 -262 0
62 83 85 81 66 82 -264 0
62 83 67 81 66 82 -266 0
62 83 67 81 66 82 -263 0
62 83 67 81 66 82 -265 0
62 83 67 81 66 82 -267 0
62 83 67 81 66 82 -262 0
62 83 67 81 66 82 -264 0
62 42 60 39 67 41 -214 0
62 42 60 39 67 41 -215 0
62 42 60 39 67 41 -219 0
62 42 60 39 67 41 -216 0
62 42 60 39 67 41 -217 0
62 42 60 39 67 41 -218 0
62 42 60 39 67 66 -214 0
62 42 60 39 67 66 -215 0
62 42 60 39 67 66 -219 0
62 42 60 39 67 66 -216 0
62 42 60 39 67 66 -217 0
62 42 60 39 67 66 -218 0
62 42 60 39 41 47 -214 0
62 42 60 39 41 47 -215 0
62 42 60 39 41 47 -219 0
62 42 60 39 41 47 -216 0
62 42 60 39 41 47 -217 0
62 42 60 39 41 47 -218 0
62 42 60 39 66 47 -214 0
62 42 60 39 66 47 -215 0
62 42 60 39 66 47 -219 0
62 42 60 39 66 47 -216 0
62 42 60 39 66 47 -217 0
62 42 60 39 66 47 -218 0
62 42 60 67 41 66 -214 0
62 42 60 67 41 66 -215 0
62 42 60 67 41 66 -219 0
62 42 60 67 41 66 -216 0
62 42 60 67 41 66 -217 0
62 42 60 67 41 66 -218 0
62 42 60 67 66 47 -214 0
62 42 60 67 66 47 -215 0
62 42 60 67 66 47 -219 0
62 42 60 67 66 47 -216 0
62 42 60 67 66 47 -217 0
62 42 60 67 66 47 -218 0
62 42 39 67 41 47 -214 0
62 42 39 67 41 47 -215 0
62 42 39 67 41 47 -219 0
62 42 39 67 41 47 -216 0
62 42 39 67 41 47 -217 0
62 42 39 67 41 47 -218 0
62 42 39 41 66 47 -214 0
62 42 39 41 66 47 -215 0
62 42 39 41 66 47 -219 0
62 42 39 41 66 47 -216 0
62 42 39 41 66 47 -217 0
62 42 39 41 66 47 -218 0
62 42 67 41 66 47 -214 0
62 42 67 41 66 47 -215 0
62 42 67 41 66 47 -219 0
62 42 67 41 66 47 -216 0
62 42 67 41 66 47 -217 0
62 42 67 41 66 47 -218 0
62 35 60 34 67 29 -188 0
62 35 60 34 67 29 -191 0
62 35 60 34 67 29 -190 0
62 35 60 34 67 29 -192 0
62 35 60 34 67 29 -187 0
62 35 60 34 67 29 -189 0
62 35 60 34 67 66 -188 0
62 35 60 34 67 66 -191 0
62 35 60 34 67 66 -190 0
62 35 60 34 67 66 -192 0
62 35 60 34 67 66 -187 0
62 35 60 34 67 66 -189 0
62 35 60 34 29 32 -188 0
62 35 60 34 29 32 -191 0
62 35 60 34 29 32 -190 0
62 35 60 34 29 32 -192 0
62 35 60 34 29 32 -187 0
62 35 60 34 29 32 -189 0
62 35 60 34 66 32 -188 0
62 35 60 34 66 32 -191 0
62 35 60 34 66 32 -190 0
62 35 60 34 66 32 -192 0
62 35 60 34 66 32 -187 0
62 35 60 34 66 32 -189 0
62 35 60 67 29 66 -188 0
62 35 60 67 29 66 -191 0
62 35 60 67 29 66 -190 0
62 35 60 67 29 66 -192 0
62 35 60 67 29 66 -187 0
62 35 60 67 29 66 -189 0
62 35 60 67 66 32 -188 0
62 35 60 67 66 32 -191 0
62 35 60 67 66 32 -190 0
62 35 60 67 66 32 -192 0
62 35 60 67 66 32 -187 0
62 35 60 67 66 32 -189 0
62 35 34 67 29 32 -188 0
62 35 34 67 29 32 -191 0
62 35 34 67 29 32 -190 0
62 35 34 67 29 32 -192 0
62 35 34 67 29 32 -187 0
62 35 34 67 29 32 -189 0
62 35 34 29 66 32 -188 0
62 35 34 29 66 32 -191 0
62 35 34 29 66 32 -190 0
62 35 34 29 66 32 -192 0
62 35 34 29 66 32 -187 0
62 35 34 29 66 32 -189 0
62 35 67 29 66 32 -188 0
62 35 67 29 66 32 -191 0
62 35 67 29 66 32 -190 0
62 35 67 29 66 32 -192 0
62 35 67 29 66 32 -187 0
62 35 67 29 66 32 -189 0
62 20 60 27 67 18 -157 0
62 20 60 27 67 18 -154 0
62 20 60 27 67 18 -156 0
62 20 60 27 67 18 -155 0
62 20 60 27 67 18 -158 0
62 20 60 27 67 18 -159 0
62 20 60 27 67 66 -157 0
62 20 60 27 67 66 -154 0
62 20 60 27 67 66 -156 0
62 20 60 27 67 66 -155 0
62 20 60 27 67 66 -158 0
62 20 60 27 67 66 -159 0
62 20 60 27 18 24 -157 0
62 20 60 27 18 24 -154 0
62 20 60 27 18 24 -156 0
62 20 60 27 18 24 -155 0
62 20 60 27 18 24 -158 0
62 20 60 27 18 24 -159 0
62 20 60 27 66 24 -157 0
62 20 60 27 66 24 -154 0
62 20 60 27 66 24 -156 0
62 20 60 27 66 24 -155 0
62 20 60 27 66 24 -158 0
62 20 60 27 66 24 -159 0
62 20 60 67 18 66 -157 0
62 20 60 67 18 66 -154 0
62 20 60 67 18 66 -156 0
62 20 60 67 18 66 -155 0
62 20 60 67 18 66 -158 0
62 20 60 67 18 66 -159 0
62 20 60 67 66 24 -157 0
62 20 60 67 66 24 -154 0
62 20 60 67 66 24 -156 0
62 20 60 67 66 24 -155 0
62 20 60 67 66 24 -158 0
62 20 60 67 66 24 -159 0
62 20 27 67 18 24 -157 0
62 20 27 67 18 24 -154 0
62 20 27 67 18 24 -156 0
62 20 27 67 18 24 -155 0
62 20 27 67 18 24 -158 0
62 20 27 67 18 24 -159 0
62 20 27 18 66 24 -157 0
62 20 27 18 66 24 -154 0
62 20 27 18 66 24 -156 0
62 20 27 18 66 24 -155 0
62 20 27 18 66 24 -158 0
62 20 27 18 66 24 -159 0
62 20 67 18 66 24 -157 0
62 20 67 18 66 24 -154 0
62 20 67 18 66 24 -156 0
62 20 67 18 66 24 -155 0
62 20 67 18 66 24 -158 0
62 20 67 18 66 24 -159 0
62 54 60 57 67 50 -237 0
62 54 60 57 67 50 -238 0
62 54 60 57 67 50 -235 0
62 54 60 57 67 50 -239 0
62 54 60 57 67 50 -240 0
62 54 60 57 67 50 -236 0
62 54 60 57 67 66 -237 0
62 54 60 57 67 66 -238 0
62 54 60 57 67 66 -235 0
62 54 60 57 67 66 -239 0
62 54 60 57 67 66 -240 0
62 54 60 57 67 66 -236 0
62 54 60 57 50 53 -237 0
62 54 60 57 50 53 -238 0
62 54 60 57 50 53 -235 0
62 54 60 57 50 53 -239 0
62 54 60 57 50 53 -240 0
62 54 60 57 50 53 -236 0
62 54 60 57 66 53 -237 0
62 54 60 57 66 53 -238 0
62 54 60 57 66 53 -235 0
62 54 60 57 66 53 -239 0
62 54 60 57 66 53 -240 0
62 54 60 57 66 53 -236 0
62 54 60 67 50 66 -237 0
62 54 60 67 50 66 -238 0
62 54 60 67 50 66 -235 0
62 54 60 67 50 66 -239 0
62 54 60 67 50 66 -240 0
62 54 60 67 50 66 -236 0
62 54 60 67 66 53 -237 0
62 54 60 67 66 53 -238 0
62 54 60 67 66 53 -235 0
62 54 60 67 66 53 -239 0
62 54 60 67 66 53 -240 0
62 54 60 67 66 53 -236 0
62 54 57 67 50 53 -237 0
62 54 57 67 50 53 -238 0
62 54 57 67 50 53 -235 0
62 54 57 67 50 53 -239 0
62 54 57 67 50 53 -240 0
62 54 57 67 50 53 -236 0
62 54 57 50 66 53 -237 0
62 54 57 50 66 53 -238 0
62 54 57 50 66 53 -235 0
62 54 57 50 66 53 -239 0
62 54 57 50 66 53 -240 0
62 54 57 50 66 53 -236 0
62 54 67 50 66 53 -237 0
62 54 67 50 66 53 -238 0
62 54 67 50 66 53 -235 0
62 54 67 50 66 53 -239 0
62 54 67 50 66 53 -240 0
62 54 67 50 66 53 -236 0
62 5 60 3 67 4 -64 0
62 5 60 3 67 4 -59 0
62 5 60 3 67 4 -65 0
62 5 60 3 67 4 -61 0
62 5 60 3 67 4 -63 0
62 5 60 3 67 4 -58 0
62 5 60 3 67 66 -64 0
62 5 60 3 67 66 -59 0
62 5 60 3 67 66 -65 0
62 5 60 3 67 66 -61 0
62 5 60 3 67 66 -63 0
62 5 60 3 67 66 -58 0
62 5 60 3 4 7 -64 0
62 5 60 3 4 7 -59 0
62 5 60 3 4 7 -65 0
62 5 60 3 4 7 -61 0
62 5 60 3 4 7 -63 0
62 5 60 3 4 7 -58 0
62 5 60 3 66 7 -64 0
62 5 60 3 66 7 -59 0
62 5 60 3 66 7 -65 0
62 5 60 3 66 7 -61 0
62 5 60 3 66 7 -63 0
62 5 60 3 66 7 -58 0
62 5 60 67 4 66 -64 0
62 5 60 67 4 66 -59 0
62 5 60 67 4 66 -65 0
62 5 60 67 4 66 -61 0
62 5 60 67 4 66 -63 0
62 5 60 67 4 66 -58 0
62 5 60 67 66 7 -64 0
62 5 60 67 66 7 -59 0
62 5 60 67 66 7 -65 0
62 5 60 67 66 7 -61 0
62 5 60 67 66 7 -63 0
62 5 60 67 66 7 -58 0
62 5 3 67 4 7 -64 0
62 5 3 67 4 7 -59 0
62 5 3 67 4 7 -65 0
62 5 3 67 4 7 -61 0
62 5 3 67 4 7 -63 0
62 5 3 67 4 7 -58 0
62 5 3 4 66 7 -64 0
62 5 3 4 66 7 -59 0
62 5 3 4 66 7 -65 0
62 5 3 4 66 7 -61 0
62 5 3 4 66 7 -63 0
62 5 3 4 66 7 -58 0
62 5 67 4 66 7 -64 0
62 5 67 4 66 7 -59 0
62 5 67 4 66 7 -65 0
62 5 67 4 66 7 -61 0
62 5 67 4 66 7 -63 0
62 5 67 4 66 7 -58 0
62 8 60 14 67 66 -120 0
62 8 60 14 67 66 -119 0
62 8 60 14 67 66 -117 0
62 8 60 14 67 66 -118 0
62 8 60 14 67 66 -115 0
62 8 60 14 67 66 -116 0
62 8 60 67 16 66 -120 0
62 8 60 67 16 66 -119 0
62 8 60 67 16 66 -117 0
62 8 60 67 16 66 -118 0
62 8 60 67 16 66 -115 0
62 8 60 67 16 66 -116 0
62 60 68 67 74 66 -261 0
62 60 68 67 74 66 -256 0
62 60 68 67 74 66 -259 0
62 60 68 67 74 66 -260 0
62 60 68 67 74 66 -258 0
62 60 68 67 74 66 -257 0
62 60 68 67 66 72 -261 0
62 60 68 67 66 72 -256 0
62 60 68 67 66 72 -259 0
62 60 68 67 66 72 -260 0
62 60 68 67 66 72 -258 0
62 60 68 67 66 72 -257 0
62 60 85 67 81 66 -266 0
62 60 85 67 81 66 -263 0
62 60 85 67 81 66 -265 0
62 60 85 67 81 66 -267 0
62 60 85 67 81 66 -262 0
62 60 85 67 81 66 -264 0
62 60 85 67 66 82 -266 0
62 60 85 67 66 82 -263 0
62 60 85 67 66 82 -265 0
62 60 85 67 66 82 -267 0
62 60 85 67 66 82 -262 0
62 60 85 67 66 82 -264 0
62 60 39 67 41 66 -214 0
62 60 39 67 41 66 -215 0
62 60 39 67 41 66 -219 0
62 60 39 67 41 66 -216 0
62 60 39 67 41 66 -217 0
62 60 39 67 41 66 -218 0
62 60 39 67 66 47 -214 0
62 60 39 67 66 47 -215 0
62 60 39 67 66 47 -219 0
62 60 39 67 66 47 -216 0
62 60 39 67 66 47 -217 0
62 60 39 67 66 47 -218 0
62 60 34 67 29 66 -188 0
62 60 34 67 29 66 -191 0
62 60 34 67 29 66 -190 0
62 60 34 67 29 66 -192 0
62 60 34 67 29 66 -187 0
62 60 34 67 29 66 -189 0
62 60 34 67 66 32 -188 0
62 60 34 67 66 32 -191 0
62 60 34 67 66 32 -190 0
62 60 34 67 66 32 -192 0
62 60 34 67 66 32 -187 0
62 60 34 67 66 32 -189 0
62 60 27 67 18 66 -157 0
62 60 27 67 18 66 -154 0
62 60 27 67 18 66 -156 0
62 60 27 67 18 66 -155 0
62 60 27 67 18 66 -158 0
62 60 27 67 18 66 -159 0
62 60 27 67 66 24 -157 0
62 60 27 67 66 24 -154 0
62 60 27 67 66 24 -156 0
62 60 27 67 66 24 -155 0
62 60 27 67 66 24 -158 0
62 60 27 67 66 24 -159 0
62 60 57 67 50 66 -237 0
62 60 57 67 50 66 -238 0
62 60 57 67 50 66 -235 0
62 60 57 67 50 66 -239 0
62 60 57 67 50 66 -240 0
62 60 57 67 50 66 -236 0
62 60 57 67 66 53 -237 0
62 60 57 67 66 53 -238 0
62 60 57 67 66 53 -235 0
62 60 57 67 66 53 -239 0
62 60 57 67 66 53 -240 0
62 60 57 67 66 53 -236 0
62 60 3 67 4 66 -64 0
62 60 3 67 4 66 -59 0
62 60 3 67 4 66 -65 0
62 60 3 67 4 66 -61 0
62 60 3 67 4 66 -63 0
62 60 3 67 4 66 -58 0
62 60 3 67 66 7 -64 0
62 60 3 67 66 7 -59 0
62 60 3 67 66 7 -65 0
62 60 3 67 66 7 -61 0
62 60 3 67 66 7 -63 0
62 60 3 67 66 7 -58 0
62 60 14 67 16 66 -120 0
62 60 14 67 16 66 -119 0
62 60 14 67 16 66 -117 0
62 60 14 67 16 66 -118 0
62 60 14 67 16 66 -115 0
62 60 14 67 16 66 -116 0
62 60 67 74 66 72 -261 0
62 60 67 74 66 72 -256 0
62 60 67 74 66 72 -259 0
62 60 67 74 66 72 -260 0
62 60 67 74 66 72 -258 0
62 60 67 74 66 72 -257 0
62 60 67 81 66 82 -266 0
62 60 67 81 66 82 -263 0
62 60 67 81 66 82 -265 0
62 60 67 81 66 82 -267 0
62 60 67 81 66 82 -262 0
62 60 67 81 66 82 -264 0
62 60 67 41 66 47 -214 0
62 60 67 41 66 47 -215 0
62 60 67 41 66 47 -219 0
62 60 67 41 66 47 -216 0
62 60 67 41 66 47 -217 0
62 60 67 41 66 47 -218 0
62 60 67 29 66 32 -188 0
62 60 67 29 66 32 -191 0
62 60 67 29 66 32 -190 0
62 60 67 29 66 32 -192 0
62 60 67 29 66 32 -187 0
62 60 67 29 66 32 -189 0
62 60 67 18 66 24 -157 0
62 60 67 18 66 24 -154 0
62 60 67 18 66 24 -156 0
62 60 67 18 66 24 -155 0
62 60 67 18 66 24 -158 0
62 60 67 18 66 24 -159 0
62 60 67 50 66 53 -237 0
62 60 67 50 66 53 -238 0
62 60 67 50 66 53 -235 0
62 60 67 50 66 53 -239 0
62 60 67 50 66 53 -240 0
62 60 67 50 66 53 -236 0
62 60 67 4 66 7 -64 0
62 60 67 4 66 7 -59 0
62 60 67 4 66 7 -65 0
62 60 67 4 66 7 -61 0
62 60 67 4 66 7 -63 0
62 60 67 4 66 7 -58 0
71 83 68 85 74 81 -276 0
71 83 68 85 74 81 -274 0
71 83 68 85 74 81 -271 0
71 83 68 85 74 81 -272 0
71 83 68 85 74 81 -275 0
71 83 68 85 74 81 -273 0
71 83 68 85 74 72 -276 0
71 83 68 85 74 72 -274 0
71 83 68 85 74 72 -271 0
71 83 68 85 74 72 -272 0
71 83 68 85 74 72 -275 0
71 83 68 85 74 72 -273 0
71 83 68 85 81 82 -276 0
71 83 68 85 81 82 -274 0
71 83 68 85 81 82 -271 0
71 83 68 85 81 82 -272 0
71 83 68 85 81 82 -275 0
71 83 68 85 81 82 -273 0
71 83 68 85 72 82 -276 0
71 83 68 85 72 82 -274 0
71 83 68 85 72 82 -271 0
71 83 68 85 72 82 -272 0
71 83 68 85 72 82 -275 0
71 83 68 85 72 82 -273 0
71 83 68 74 81 72 -276 0
71 83 68 74 81 72 -274 0
71 83 68 74 81 72 -271 0
71 83 68 74 81 72 -272 0
71 83 68 74 81 72 -275 0
71 83 68 74 81 72 -273 0
71 83 68 74 72 82 -276 0
71 83 68 74 72 82 -274 0
71 83 68 74 72 82 -271 0
71 83 68 74 72 82 -272 0
71 83 68 74 72 82 -275 0
71 83 68 74 72 82 -273 0
71 83 85 74 81 82 -276 0
71 83 85 74 81 82 -274 0
71 83 85 74 81 82 -271 0
71 83 85 74 81 82 -272 0
71 83 85 74 81 82 -275 0
71 83 85 74 81 82 -273 0
71 83 85 81 72 82 -276 0
71 83 85 81 72 82 -274 0
71 83 85 81 72 82 -271 0
71 83 85 81 72 82 -272 0
71 83 85 81 72 82 -275 0
71 83 85 81 72 82 -273 0
71 83 74 81 72 82 -276 0
71 83 74 81 72 82 -274 0
71 83 74 81 72 82 -271 0
71 83 74 81 72 82 -272 0
71 83 74 81 72 82 -275 0
71 83 74 81 72 82 -273 0
71 42 68 39 74 41 -222 0
71 42 68 39 74 41 -224 0
71 42 68 39 74 41 -223 0
71 42 68 39 74 41 -225 0
71 42 68 39 74 41 -220 0
71 42 68 39 74 41 -221 0
71 42 68 39 74 72 -222 0
71 42 68 39 74 72 -224 0
71 42 68 39 74 72 -223 0
71 42 68 39 74 72 -225 0
71 42 68 39 74 72 -220 0
71 42 68 39 74 72 -221 0
71 42 68 39 41 47 -222 0
71 42 68 39 41 47 -224 0
71 42 68 39 41 47 -223 0
71 42 68 39 41 47 -225 0
71 42 68 39 41 47 -220 0
71 42 68 39 41 47 -221 0
71 42 68 39 72 47 -222 0
71 42 68 39 72 47 -224 0
71 42 68 39 72 47 -223 0
71 42 68 39 72 47 -225 0
71 42 68 39 72 47 -220 0
71 42 68 39 72 47 -221 0
71 42 68 74 41 72 -222 0
71 42 68 74 41 72 -224 0
71 42 68 74 41 72 -223 0
71 42 68 74 41 72 -225 0
71 42 68 74 41 72 -220 0
71 42 68 74 41 72 -221 0
71 42 68 74 72 47 -222 0
71 42 68 74 72 47 -224 0
71 42 68 74 72 47 -223 0
71 42 68 74 72 47 -225 0
71 42 68 74 72 47 -220 0
71 42 68 74 72 47 -221 0
71 42 39 74 41 47 -222 0
71 42 39 74 41 47 -224 0
71 42 39 74 41 47 -223 0
71 42 39 74 41 47 -225 0
71 42 39 74 41 47 -220 0
71 42 39 74 41 47 -221 0
71 42 39 41 72 47 -222 0
71 42 39 41 72 47 -224 0
71 42 39 41 72 47 -223 0
71 42 39 41 72 47 -225 0
71 42 39 41 72 47 -220 0
71 42 39 41 72 47 -221 0
71 42 74 41 72 47 -222 0
71 42 74 41 72 47 -224 0
71 42 74 41 72 47 -223 0
71 42 74 41 72 47 -225 0
71 42 74 41 72 47 -220 0
71 42 74 41 72 47 -221 0
71 35 68 34 74 29 -193 0
71 35 68 34 74 29 -195 0
71 35 68 34 74 29 -198 0
71 35 68 34 74 29 -194 0
71 35 68 34 74 29 -196 0
71 35 68 34 74 29 -197 0
71 35 68 34 74 72 -193 0
71 35 68 34 74 72 -195 0
71 35 68 34 74 72 -198 0
71 35 68 34 74 72 -194 0
71 35 68 34 74 72 -196 0
71 35 68 34 74 72 -197 0
71 35 68 34 29 32 -193 0
71 35 68 34 29 32 -195 0
71 35 68 34 29 32 -198 0
71 35 68 34 29 32 -194 0
71 35 68 34 29 32 -196 0
71 35 68 34 29 32 -197 0
71 35 68 34 72 32 -193 0
71 35 68 34 72 32 -195 0
71 35 68 34 72 32 -198 0
71 35 68 34 72 32 -194 0
71 35 68 34 72 32 -196 0
71 35 68 34 72 32 -197 0
71 35 68 74 29 72 -193 0
71 35 68 74 29 72 -195 0
71 35 68 74 29 72 -198 0
71 35 68 74 29 72 -194 0
71 35 68 74 29 72 -196 0
71 35 68 74 29 72 -197 0
71 35 68 74 72 32 -193 0
71 35 68 74 72 32 -195 0
71 35 68 74 72 32 -198 0
71 35 68 74 72 32 -194 0
71 35 68 74 72 32 -196 0
71 35 68 74 72 32 -197 0
71 35 34 74 29 32 -193 0
71 35 34 74 29 32 -195 0
71 35 34 74 29 32 -198 0
71 35 34 74 29 32 -194 0
71 35 34 74 29 32 -196 0
71 35 34 74 29 32 -197 0
71 35 34 29 72 32 -193 0
71 35 34 29 72 32 -195 0
71 35 34 29 72 32 -198 0
71 35 34 29 72 32 -194 0
71 35 34 29 72 32 -196 0
71 35 34 29 72 32 -197 0
71 35 74 29 72 32 -193 0
71 35 74 29 72 32 -195 0
71 35 74 29 72 32 -198 0
71 35 74 29 72 32 -194 0
71 35 74 29 72 32 -196 0
71 35 74 29 72 32 -197 0
71 20 68 27 74 18 -165 0
71 20 68 27 74 18 -163 0
71 20 68 27 74 18 -162 0
71 20 68 27 74 18 -164 0
71 20 68 27 74 18 -161 0
71 20 68 27 74 18 -160 0
71 20 68 27 74 72 -165 0
71 20 68 27 74 72 -163 0
71 20 68 27 74 72 -162 0
71 20 68 27 74 72 -164 0
71 20 68 27 74 72 -161 0
71 20 68 27 74 72 -160 0
71 20 68 27 18 24 -165 0
71 20 68 27 18 24 -163 0
71 20 68 27 18 24 -162 0
71 20 68 27 18 24 -164 0
71 20 68 27 18 24 -161 0
71 20 68 27 18 24 -160 0
71 20 68 27 72 24 -165 0
71 20 68 27 72 24 -163 0
71 20 68 27 72 24 -162 0
71 20 68 27 72 24 -164 0
71 20 68 27 72 24 -161 0
71 20 68 27 72 24 -160 0
71 20 68 74 18 72 -165 0
71 20 68 74 18 72 -163 0
71 20 68 74 18 72 -162 0
71 20 68 74 18 72 -164 0
71 20 68 74 18 72 -161 0
71 20 68 74 18 72 -160 0
71 20 68 74 72 24 -165 0
71 20 68 74 72 24 -163 0
71 20 68 74 72 24 -162 0
71 20 68 74 72 24 -164 0
71 20 68 74 72 24 -161 0
71 20 68 74 72 24 -160 0
71 20 27 74 18 24 -165 0
71 20 27 74 18 24 -163 0
71 20 27 74 18 24 -162 0
71 20 27 74 18 24 -164 0
71 20 27 74 18 24 -161 0
71 20 27 74 18 24 -160 0
71 20 27 18 72 24 -165 0
71 20 27 18 72 24 -163 0
71 20 27 18 72 24 -162 0
71 20 27 18 72 24 -164 0
71 20 27 18 72 24 -161 0
71 20 27 18 72 24 -160 0
71 20 74 18 72 24 -165 0
71 20 74 18 72 24 -163 0
71 20 74 18 72 24 -162 0
71 20 74 18 72 24 -164 0
71 20 74 18 72 24 -161 0
71 20 74 18 72 24 -160 0
71 54 68 57 74 50 -245 0
71 54 68 57 74 50 -243 0
71 54 68 57 74 50 -246 0
71 54 68 57 74 50 -244 0
71 54 68 57 74 50 -241 0
71 54 68 57 74 50 -242 0
71 54 68 57 74 72 -245 0
71 54 68 57 74 72 -243 0
71 54 68 57 74 72 -246 0
71 54 68 57 74 72 -244 0
71 54 68 57 74 72 -241 0
71 54 68 57 74 72 -242 0
71 54 68 57 50 53 -245 0
71 54 68 57 50 53 -243 0
71 54 68 57 50 53 -246 0
71 54 68 57 50 53 -244 0
71 54 68 57 50 53 -241 0
71 54 68 57 50 53 -242 0
71 54 68 57 72 53 -245 0
71 54 68 57 72 53 -243 0
71 54 68 57 72 53 -246 0
71 54 68 57 72 53 -244 0
71 54 68 57 72 53 -241 0
71 54 68 57 72 53 -242 0
71 54 68 74 50 72 -245 0
71 54 68 74 50 72 -243 0
71 54 68 74 50 72 -246 0
71 54 68 74 50 72 -244 0
71 54 68 74 50 72 -241 0
71 54 68 74 50 72 -242 0
71 54 68 74 72 53 -245 0
71 54 68 74 72 53 -243 0
71 54 68 74 72 53 -246 0
71 54 68 74 72 53 -244 0
71 54 68 74 72 53 -241 0
71 54 68 74 72 53 -242 0
71 54 57 74 50 53 -245 0
71 54 57 74 50 53 -243 0
71 54 57 74 50 53 -246 0
71 54 57 74 50 53 -244 0
71 54 57 74 50 53 -241 0
71 54 57 74 50 53 -242 0
71 54 57 50 72 53 -245 0
71 54 57 50 72 53 -243 0
71 54 57 50 72 53 -246 0
71 54 57 50 72 53 -244 0
71 54 57 50 72 53 -241 0
71 54 57 50 72 53 -242 0
71 54 74 50 72 53 -245 0
71 54 74 50 72 53 -243 0
71 54 74 50 72 53 -246 0
71 54 74 50 72 53 -244 0
71 54 74 50 72 53 -241 0
71 54 74 50 72 53 -242 0
71 5 68 3 74 4 -77 0
71 5 68 3 74 4 -69 0
71 5 68 3 74 4 -70 0
71 5 68 3 74 4 -76 0
71 5 68 3 74 4 -75 0
71 5 68 3 74 4 -73 0
71 5 68 3 74 72 -77 0
71 5 68 3 74 72 -69 0
71 5 68 3 74 72 -70 0
71 5 68 3 74 72 -76 0
71 5 68 3 74 72 -75 0
71 5 68 3 74 72 -73 0
71 5 68 3 4 7 -77 0
71 5 68 3 4 7 -69 0
71 5 68 3 4 7 -70 0
71 5 68 3 4 7 -76 0
71 5 68 3 4 7 -75 0
71 5 68 3 4 7 -73 0
71 5 68 3 72 7 -77 0
71 5 68 3 72 7 -69 0
71 5 68 3 72 7 -70 0
71 5 68 3 72 7 -76 0
71 5 68 3 72 7 -75 0
71 5 68 3 72 7 -73 0
71 5 68 74 4 72 -77 0
71 5 68 74 4 72 -69 0
71 5 68 74 4 72 -70 0
71 5 68 74 4 72 -76 0
71 5 68 74 4 72 -75 0
71 5 68 74 4 72 -73 0
71 5 68 74 72 7 -77 0
71 5 68 74 72 7 -69 0
71 5 68 74 72 7 -70 0
71 5 68 74 72 7 -76 0
71 5 68 74 72 7 -75 0
71 5 68 74 72 7 -73 0
71 5 3 74 4 7 -77 0
71 5 3 74 4 7 -69 0
71 5 3 74 4 7 -70 0
71 5 3 74 4 7 -76 0
71 5 3 74 4 7 -75 0
71 5 3 74 4 7 -73 0
71 5 3 4 72 7 -77 0
71 5 3 4 72 7 -69 0
71 5 3 4 72 7 -70 0
71 5 3 4 72 7 -76 0
71 5 3 4 72 7 -75 0
71 5 3 4 72 7 -73 0
71 5 74 4 72 7 -77 0
71 5 74 4 72 7 -69 0
71 5 74 4 72 7 -70 0
71 5 74 4 72 7 -76 0
71 5 74 4 72 7 -75 0
71 5 74 4 72 7 -73 0
71 8 68 14 74 72 -121 0
71 8 68 14 74 72 -125 0
71 8 68 14 74 72 -122 0
71 8 68 14 74 72 -123 0
71 8 68 14 74 72 -124 0
71 8 68 14 74 72 -126 0
71 8 68 74 16 72 -121 0
71 8 68 74 16 72 -125 0
71 8 68 74 16 72 -122 0
71 8 68 74 16 72 -123 0
71 8 68 74 16 72 -124 0
71 8 68 74 16 72 -126 0
71 60 68 67 74 72 -261 0
71 60 68 67 74 72 -256 0
71 60 68 67 74 72 -259 0
71 60 68 67 74 72 -260 0
71 60 68 67 74 72 -258 0
71 60 68 67 74 72 -257 0
71 60 68 74 66 72 -261 0
71 60 68 74 66 72 -256 0
71 60 68 74 66 72 -259 0
71 60 68 74 66 72 -260 0
71 60 68 74 66 72 -258 0
71 60 68 74 66 72 -257 0
71 68 85 74 81 72 -276 0
71 68 85 74 81 72 -274 0
71 68 85 74 81 72 -271 0
71 68 85 74 81 72 -272 0
71 68 85 74 81 72 -275 0
71 68 85 74 81 72 -273 0
71 68 85 74 72 82 -276 0
71 68 85 74 72 82 -274 0
71 68 85 74 72 82 -271 0
71 68 85 74 72 82 -272 0
71 68 85 74 72 82 -275 0
71 68 85 74 72 82 -273 0
71 68 39 74 41 72 -222 0
71 68 39 74 41 72 -224 0
71 68 39 74 41 72 -223 0
71 68 39 74 41 72 -225 0
71 68 39 74 41 72 -220 0
71 68 39 74 41 72 -221 0
71 68 39 74 72 47 -222 0
71 68 39 74 72 47 -224 0
71 68 39 74 72 47 -223 0
71 68 39 74 72 47 -225 0
71 68 39 74 72 47 -220 0
71 68 39 74 72 47 -221 0
71 68 34 74 29 72 -193 0
71 68 34 74 29 72 -195 0
71 68 34 74 29 72 -198 0
71 68 34 74 29 72 -194 0
71 68 34 74 29 72 -196 0
71 68 34 74 29 72 -197 0
71 68 34 74 72 32 -193 0
71 68 34 74 72 32 -195 0
71 68 34 74 72 32 -198 0
71 68 34 74 72 32 -194 0
71 68 34 74 72 32 -196 0
71 68 34 74 72 32 -197 0
71 68 27 74 18 72 -165 0
71 68 27 74 18 72 -163 0
71 68 27 74 18 72 -162 0
71 68 27 74 18 72 -164 0
71 68 27 74 18 72 -161 0
71 68 27 74 18 72 -160 0
71 68 27 74 72 24 -165 0
71 68 27 74 72 24 -163 0
71 68 27 74 72 24 -162 0
71 68 27 74 72 24 -164 0
71 68 27 74 72 24 -161 0
71 68 27 74 72 24 -160 0
71 68 57 74 50 72 -245 0
71 68 57 74 50 72 -243 0
71 68 57 74 50 72 -246 0
71 68 57 74 50 72 -244 0
71 68 57 74 50 72 -241 0
71 68 57 74 50 72 -242 0
71 68 57 74 72 53 -245 0
71 68 57 74 72 53 -243 0
71 68 57 74 72 53 -246 0
71 68 57 74 72 53 -244 0
71 68 57 74 72 53 -241 0
71 68 57 74 72 53 -242 0
71 68 3 74 4 72 -77 0
71 68 3 74 4 72 -69 0
71 68 3 74 4 72 -70 0
71 68 3 74 4 72 -76 0
71 68 3 74 4 72 -75 0
71 68 3 74 4 72 -73 0
71 68 3 74 72 7 -77 0
71 68 3 74 72 7 -69 0
71 68 3 74 72 7 -70 0
71 68 3 74 72 7 -76 0
71 68 3 74 72 7 -75 0
71 68 3 74 72 7 -73 0
71 68 14 74 16 72 -121 0
71 68 14 74 16 72 -125 0
71 68 14 74 16 72 -122 0
71 68 14 74 16 72 -123 0
71 68 14 74 16 72 -124 0
71 68 14 74 16 72 -126 0
71 68 67 74 66 72 -261 0
71 68 67 74 66 72 -256 0
71 68 67 74 66 72 -259 0
71 68 67 74 66 72 -260 0
71 68 67 74 66 72 -258 0
71 68 67 74 66 72 -257 0
71 68 74 81 72 82 -276 0
71 68 74 81 72 82 -274 0
71 68 74 81 72 82 -271 0
71 68 74 81 72 82 -272 0
71 68 74 81 72 82 -275 0
71 68 74 81 72 82 -273 0
71 68 74 41 72 47 -222 0
71 68 74 41 72 47 -224 0
71 68 74 41 72 47 -223 0
71 68 74 41 72 47 -225 0
71 68 74 41 72 47 -220 0
71 68 74 41 72 47 -221 0
71 68 74 29 72 32 -193 0
71 68 74 29 72 32 -195 0
71 68 74 29 72 32 -198 0
71 68 74 29 72 32 -194 0
71 68 74 29 72 32 -196 0
71 68 74 29 72 32 -197 0
71 68 74 18 72 24 -165 0
71 68 74 18 72 24 -163 0
71 68 74 18 72 24 -162 0
71 68 74 18 72 24 -164 0
71 68 74 18 72 24 -161 0
71 68 74 18 72 24 -160 0
71 68 74 50 72 53 -245 0
71 68 74 50 72 53 -243 0
71 68 74 50 72 53 -246 0
71 68 74 50 72 53 -244 0
71 68 74 50 72 53 -241 0
71 68 74 50 72 53 -242 0
71 68 74 4 72 7 -77 0
71 68 74 4 72 7 -69 0
71 68 74 4 72 7 -70 0
71 68 74 4 72 7 -76 0
71 68 74 4 72 7 -75 0
71 68 74 4 72 7 -73 0
83 42 85 39 81 41 -230 0
83 42 85 39 81 41 -227 0
83 42 85 39 81 41 -226 0
83 42 85 39 81 41 -228 0
83 42 85 39 81 41 -229 0
83 42 85 39 81 41 -231 0
83 42 85 39 81 82 -230 0
83 42 85 39 81 82 -227 0
83 42 85 39 81 82 -226 0
83 42 85 39 81 82 -228 0
83 42 85 39 81 82 -229 0
83 42 85 39 81 82 -231 0
83 42 85 39 41 47 -230 0
83 42 85 39 41 47 -227 0
83 42 85 39 41 47 -226 0
83 42 85 39 41 47 -228 0
83 42 85 39 41 47 -229 0
83 42 85 39 41 47 -231 0
83 42 85 39 82 47 -230 0
83 42 85 39 82 47 -227 0
83 42 85 39 82 47 -226 0
83 42 85 39 82 47 -228 0
83 42 85 39 82 47 -229 0
83 42 85 39 82 47 -231 0
83 42 85 81 41 82 -230 0
83 42 85 81 41 82 -227 0
83 42 85 81 41 82 -226 0
83 42 85 81 41 82 -228 0
83 42 85 81 41 82 -229 0
83 42 85 81 41 82 -231 0
83 42 85 81 82 47 -230 0
83 42 85 81 82 47 -227 0
83 42 85 81 82 47 -226 0
83 42 85 81 82 47 -228 0
83 42 85 81 82 47 -229 0
83 42 85 81 82 47 -231 0
83 42 39 81 41 47 -230 0
83 42 39 81 41 47 -227 0
83 42 39 81 41 47 -226 0
83 42 39 81 41 47 -228 0
83 42 39 81 41 47 -229 0
83 42 39 81 41 47 -231 0
83 42 39 41 82 47 -230 0
83 42 39 41 82 47 -227 0
83 42 39 41 82 47 -226 0
83 42 39 41 82 47 -228 0
83 42 39 41 82 47 -229 0
83 42 39 41 82 47 -231 0
83 42 81 41 82 47 -230 0
83 42 81 41 82 47 -227 0
83 42 81 41 82 47 -226 0
83 42 81 41 82 47 -228 0
83 42 81 41 82 47 -229 0
83 42 81 41 82 47 -231 0
83 35 85 34 81 29 -200 0
83 35 85 34 81 29 -202 0
83 35 85 34 81 29 -199 0
83 35 85 34 81 29 -203 0
83 35 85 34 81 29 -204 0
83 35 85 34 81 29 -201 0
83 35 85 34 81 82 -200 0
83 35 85 34 81 82 -202 0
83 35 85 34 81 82 -199 0
83 35 85 34 81 82 -203 0
83 35 85 34 81 82 -204 0
83 35 85 34 81 82 -201 0
83 35 85 34 29 32 -200 0
83 35 85 34 29 32 -202 0
83 35 85 34 29 32 -199 0
83 35 85 34 29 32 -203 0
83 35 85 34 29 32 -204 0
83 35 85 34 29 32 -201 0
83 35 85 34 82 32 -200 0
83 35 85 34 82 32 -202 0
83 35 85 34 82 32 -199 0
83 35 85 34 82 32 -203 0
83 35 85 34 82 32 -204 0
83 35 85 34 82 32 -201 0
83 35 85 81 29 82 -200 0
83 35 85 81 29 82 -202 0
83 35 85 81 29 82 -199 0
83 35 85 81 29 82 -203 0
83 35 85 81 29 82 -204 0
83 35 85 81 29 82 -201 0
83 35 85 81 82 32 -200 0
83 35 85 81 82 32 -202 0
83 35 85 81 82 32 -199 0
83 35 85 81 82 32 -203 0
83 35 85 81 82 32 -204 0
83 35 85 81 82 32 -201 0
83 35 34 81 29 32 -200 0
83 35 34 81 29 32 -202 0
83 35 34 81 29 32 -199 0
83 35 34 81 29 32 -203 0
83 35 34 81 29 32 -204 0
83 35 34 81 29 32 -201 0
83 35 34 29 82 32 -200 0
83 35 34 29 82 32 -202 0
83 35 34 29 82 32 -199 0
83 35 34 29 82 32 -203 0
83 35 34 29 82 32 -204 0
83 35 34 29 82 32 -201 0
83 35 81 29 82 32 -200 0
83 35 81 29 82 32 -202 0
83 35 81 29 82 32 -199 0
83 35 81 29 82 32 -203 0
83 35 81 29 82 32 -204 0
83 35 81 29 82 32 -201 0
83 20 85 27 81 18 -166 0
83 20 85 27 81 18 -168 0
83 20 85 27 81 18 -167 0
83 20 85 27 81 18 -169 0
83 20 85 27 81 18 -170 0
83 20 85 27 81 18 -171 0
83 20 85 27 81 82 -166 0
83 20 85 27 81 82 -168 0
83 20 85 27 81 82 -167 0
83 20 85 27 81 82 -169 0
83 20 85 27 81 82 -170 0
83 20 85 27 81 82 -171 0
83 20 85 27 18 24 -166 0
83 20 85 27 18 24 -168 0
83 20 85 27 18 24 -167 0
83 20 85 27 18 24 -169 0
83 20 85 27 18 24 -170 0
83 20 85 27 18 24 -171 0
83 20 85 27 82 24 -166 0
83 20 85 27 82 24 -168 0
83 20 85 27 82 24 -167 0
83 20 85 27 82 24 -169 0
83 20 85 27 82 24 -170 0
83 20 85 27 82 24 -171 0
83 20 85 81 18 82 -166 0
83 20 85 81 18 82 -168 0
83 20 85 81 18 82 -167 0
83 20 85 81 18 82 -169 0
83 20 85 81 18 82 -170 0
83 20 85 81 18 82 -171 0
83 20 85 81 82 24 -166 0
83 20 85 81 82 24 -168 0
83 20 85 81 82 24 -167 0
83 20 85 81 82 24 -169 0
83 20 85 81 82 24 -170 0
83 20 85 81 82 24 -171 0
83 20 27 81 18 24 -166 0
83 20 27 81 18 24 -168 0
83 20 27 81 18 24 -167 0
83 20 27 81 18 24 -169 0
83 20 27 81 18 24 -170 0
83 20 27 81 18 24 -171 0
83 20 27 18 82 24 -166 0
83 20 27 18 82 24 -168 0
83 20 27 18 82 24 -167 0
83 20 27 18 82 24 -169 0
83 20 27 18 82 24 -170 0
83 20 27 18 82 24 -171 0
83 20 81 18 82 24 -166 0
83 20 81 18 82 24 -168 0
83 20 81 18 82 24 -167 0
83 20 81 18 82 24 -169 0
83 20 81 18 82 24 -170 0
83 20 81 18 82 24 -171 0
83 54 85 57 81 50 -251 0
83 54 85 57 81 50 -247 0
83 54 85 57 81 50 -252 0
83 54 85 57 81 50 -248 0
83 54 85 57 81 50 -249 0
83 54 85 57 81 50 -250 0
83 54 85 57 81 82 -251 0
83 54 85 57 81 82 -247 0
83 54 85 57 81 82 -252 0
83 54 85 57 81 82 -248 0
83 54 85 57 81 82 -249 0
83 54 85 57 81 82 -250 0
83 54 85 57 50 53 -251 0
83 54 85 57 50 53 -247 0
83 54 85 57 50 53 -252 0
83 54 85 57 50 53 -248 0
83 54 85 57 50 53 -249 0
83 54 85 57 50 53 -250 0
83 54 85 57 82 53 -251 0
83 54 85 57 82 53 -247 0
83 54 85 57 82 53 -252 0
83 54 85 57 82 53 -248 0
83 54 85 57 82 53 -249 0
83 54 85 57 82 53 -250 0
83 54 85 81 50 82 -251 0
83 54 85 81 50 82 -247 0
83 54 85 81 50 82 -252 0
83 54 85 81 50 82 -248 0
83 54 85 81 50 82 -249 0
83 54 85 81 50 82 -250 0
83 54 85 81 82 53 -251 0
83 54 85 81 82 53 -247 0
83 54 85 81 82 53 -252 0
83 54 85 81 82 53 -248 0
83 54 85 81 82 53 -249 0
83 54 85 81 82 53 -250 0
83 54 57 81 50 53 -251 0
83 54 57 81 50 53 -247 0
83 54 57 81 50 53 -252 0
83 54 57 81 50 53 -248 0
83 54 57 81 50 53 -249 0
83 54 57 81 50 53 -250 0
83 54 57 50 82 53 -251 0
83 54 57 50 82 53 -247 0
83 54 57 50 82 53 -252 0
83 54 57 50 82 53 -248 0
83 54 57 50 82 53 -249 0
83 54 57 50 82 53 -250 0
83 54 81 50 82 53 -251 0
83 54 81 50 82 53 -247 0
83 54 81 50 82 53 -252 0
83 54 81 50 82 53 -248 0
83 54 81 50 82 53 -249 0
83 54 81 50 82 53 -250 0
83 5 85 3 81 4 -87 0
83 5 85 3 81 4 -78 0
83 5 85 3 81 4 -86 0
83 5 85 3 81 4 -84 0
83 5 85 3 81 4 -80 0
83 5 85 3 81 4 -79 0
83 5 85 3 81 82 -87 0
83 5 85 3 81 82 -78 0
83 5 85 3 81 82 -86 0
83 5 85 3 81 82 -84 0
83 5 85 3 81 82 -80 0
83 5 85 3 81 82 -79 0
83 5 85 3 4 7 -87 0
83 5 85 3 4 7 -78 0
83 5 85 3 4 7 -86 0
83 5 85 3 4 7 -84 0
83 5 85 3 4 7 -80 0
83 5 85 3 4 7 -79 0
83 5 85 3 82 7 -87 0
83 5 85 3 82 7 -78 0
83 5 85 3 82 7 -86 0
83 5 85 3 82 7 -84 0
83 5 85 3 82 7 -80 0
83 5 85 3 82 7 -79 0
83 5 85 81 4 82 -87 0
83 5 85 81 4 82 -78 0
83 5 85 81 4 82 -86 0
83 5 85 81 4 82 -84 0
83 5 85 81 4 82 -80 0
83 5 85 81 4 82 -79 0
83 5 85 81 82 7 -87 0
83 5 85 81 82 7 -78 0
83 5 85 81 82 7 -86 0
83 5 85 81 82 7 -84 0
83 5 85 81 82 7 -80 0
83 5 85 81 82 7 -79 0
83 5 3 81 4 7 -87 0
83 5 3 81 4 7 -78 0
83 5 3 81 4 7 -86 0
83 5 3 81 4 7 -84 0
83 5 3 81 4 7 -80 0
83 5 3 81 4 7 -79 0
83 5 3 4 82 7 -87 0
83 5 3 4 82 7 -78 0
83 5 3 4 82 7 -86 0
83 5 3 4 82 7 -84 0
83 5 3 4 82 7 -80 0
83 5 3 4 82 7 -79 0
83 5 81 4 82 7 -87 0
83 5 81 4 82 7 -78 0
83 5 81 4 82 7 -86 0
83 5 81 4 82 7 -84 0
83 5 81 4 82 7 -80 0
83 5 81 4 82 7 -79 0
83 8 85 14 81 82 -127 0
83 8 85 14 81 82 -130 0
83 8 85 14 81 82 -131 0
83 8 85 14 81 82 -128 0
83 8 85 14 81 82 -132 0
83 8 85 14 81 82 -129 0
83 8 85 81 16 82 -127 0
83 8 85 81 16 82 -130 0
83 8 85 81 16 82 -131 0
83 8 85 81 16 82 -128 0
83 8 85 81 16 82 -132 0
83 8 85 81 16 82 -129 0
83 60 85 67 81 82 -266 0
83 60 85 67 81 82 -263 0
83 60 85 67 81 82 -265 0
83 60 85 67 81 82 -267 0
83 60 85 67 81 82 -262 0
83 60 85 67 81 82 -264 0
83 60 85 81 66 82 -266 0
83 60 85 81 66 82 -263 0
83 60 85 81 66 82 -265 0
83 60 85 81 66 82 -267 0
83 60 85 81 66 82 -262 0
83 60 85 81 66 82 -264 0
83 68 85 74 81 82 -276 0
83 68 85 74 81 82 -274 0
83 68 85 74 81 82 -271 0
83 68 85 74 81 82 -272 0
83 68 85 74 81 82 -275 0
83 68 85 74 81 82 -273 0
83 68 85 81 72 82 -276 0
83 68 85 81 72 82 -274 0
83 68 85 81 72 82 -271 0
83 68 85 81 72 82 -272 0
83 68 85 81 72 82 -275 0
83 68 85 81 72 82 -273 0
83 85 39 81 41 82 -230 0
83 85 39 81 41 82 -227 0
83 85 39 81 41 82 -226 0
83 85 39 81 41 82 -228 0
83 85 39 81 41 82 -229 0
83 85 39 81 41 82 -231 0
83 85 39 81 82 47 -230 0
83 85 39 81 82 47 -227 0
83 85 39 81 82 47 -226 0
83 85 39 81 82 47 -228 0
83 85 39 81 82 47 -229 0
83 85 39 81 82 47 -231 0
83 85 34 81 29 82 -200 0
83 85 34 81 29 82 -202 0
83 85 34 81 29 82 -199 0
83 85 34 81 29 82 -203 0
83 85 34 81 29 82 -204 0
83 85 34 81 29 82 -201 0
83 85 34 81 82 32 -200 0
83 85 34 81 82 32 -202 0
83 85 34 81 82 32 -199 0
83 85 34 81 82 32 -203 0
83 85 34 81 82 32 -204 0
83 85 34 81 82 32 -201 0
83 85 27 81 18 82 -166 0
83 85 27 81 18 82 -168 0
83 85 27 81 18 82 -167 0
83 85 27 81 18 82 -169 0
83 85 27 81 18 82 -170 0
83 85 27 81 18 82 -171 0
83 85 27 81 82 24 -166 0
83 85 27 81 82 24 -168 0
83 85 27 81 82 24 -167 0
83 85 27 81 82 24 -169 0
83 85 27 81 82 24 -170 0
83 85 27 81 82 24 -171 0
83 85 57 81 50 82 -251 0
83 85 57 81 50 82 -247 0
83 85 57 81 50 82 -252 0
83 85 57 81 50 82 -248 0
83 85 57 81 50 82 -249 0
83 85 57 81 50 82 -250 0
83 85 57 81 82 53 -251 0
83 85 57 81 82 53 -247 0
83 85 57 81 82 53 -252 0
83 85 57 81 82 53 -248 0
83 85 57 81 82 53 -249 0
83 85 57 81 82 53 -250 0
83 85 3 81 4 82 -87 0
83 85 3 81 4 82 -78 0
83 85 3 81 4 82 -86 0
83 85 3 81 4 82 -84 0
83 85 3 81 4 82 -80 0
83 85 3 81 4 82 -79 0
83 85 3 81 82 7 -87 0
83 85 3 81 82 7 -78 0
83 85 3 81 82 7 -86 0
83 85 3 81 82 7 -84 0
83 85 3 81 82 7 -80 0
83 85 3 81 82 7 -79 0
83 85 14 81 16 82 -127 0
83 85 14 81 16 82 -130 0
83 85 14 81 16 82 -131 0
83 85 14 81 16 82 -128 0
83 85 14 81 16 82 -132 0
83 85 14 81 16 82 -129 0
83 85 67 81 66 82 -266 0
83 85 67 81 66 82 -263 0
83 85 67 81 66 82 -265 0
83 85 67 81 66 82 -267 0
83 85 67 81 66 82 -262 0
83 85 67 81 66 82 -264 0
83 85 74 81 72 82 -276 0
83 85 74 81 72 82 -274 0
83 85 74 81 72 82 -271 0
83 85 74 81 72 82 -272 0
83 85 74 81 72 82 -275 0
83 85 74 81 72 82 -273 0
83 85 81 41 82 47 -230 0
83 85 81 41 82 47 -227 0
83 85 81 41 82 47 -226 0
83 85 81 41 82 47 -228 0
83 85 81 41 82 47 -229 0
83 85 81 41 82 47 -231 0
83 85 81 29 82 32 -200 0
83 85 81 29 82 32 -202 0
83 85 81 29 82 32 -199 0
83 85 81 29 82 32 -203 0
83 85 81 29 82 32 -204 0
83 85 81 29 82 32 -201 0
83 85 81 18 82 24 -166 0
83 85 81 18 82 24 -168 0
83 85 81 18 82 24 -167 0
83 85 81 18 82 24 -169 0
83 85 81 18 82 24 -170 0
83 85 81 18 82 24 -171 0
83 85 81 50 82 53 -251 0
83 85 81 50 82 53 -247 0
83 85 81 50 82 53 -252 0
83 85 81 50 82 53 -248 0
83 85 81 50 82 53 -249 0
83 85 81 50 82 53 -250 0
83 85 81 4 82 7 -87 0
83 85 81 4 82 7 -78 0
83 85 81 4 82 7 -86 0
83 85 81 4 82 7 -84 0
83 85 81 4 82 7 -80 0
83 85 81 4 82 7 -79 0
42 35 39 34 41 29 -177 0
42 35 39 34 41 29 -179 0
42 35 39 34 41 29 -176 0
42 35 39 34 41 29 -178 0
42 35 39 34 41 29 -175 0
42 35 39 34 41 29 -180 0
42 35 39 34 41 47 -177 0
42 35 39 34 41 47 -179 0
42 35 39 34 41 47 -176 0
42 35 39 34 41 47 -178 0
42 35 39 34 41 47 -175 0
42 35 39 34 41 47 -180 0
42 35 39 34 29 32 -177 0
42 35 39 34 29 32 -179 0
42 35 39 34 29 32 -176 0
42 35 39 34 29 32 -178 0
42 35 39 34 29 32 -175 0
42 35 39 34 29 32 -180 0
42 35 39 34 47 32 -177 0
42 35 39 34 47 32 -179 0
42 35 39 34 47 32 -176 0
42 35 39 34 47 32 -178 0
42 35 39 34 47 32 -175 0
42 35 39 34 47 32 -180 0
42 35 39 41 29 47 -177 0
42 35 39 41 29 47 -179 0
42 35 39 41 29 47 -176 0
42 35 39 41 29 47 -178 0
42 35 39 41 29 47 -175 0
42 35 39 41 29 47 -180 0
42 35 39 41 47 32 -177 0
42 35 39 41 47 32 -179 0
42 35 39 41 47 32 -176 0
42 35 39 41 47 32 -178 0
42 35 39 41 47 32 -175 0
42 35 39 41 47 32 -180 0
42 35 34 41 29 32 -177 0
42 35 34 41 29 32 -179 0
42 35 34 41 29 32 -176 0
42 35 34 41 29 32 -178 0
42 35 34 41 29 32 -175 0
42 35 34 41 29 32 -180 0
42 35 34 29 47 32 -177 0
42 35 34 29 47 32 -179 0
42 35 34 29 47 32 -176 0
42 35 34 29 47 32 -178 0
42 35 34 29 47 32 -175 0
42 35 34 29 47 32 -180 0
42 35 41 29 47 32 -177 0
42 35 41 29 47 32 -179 0
42 35 41 29 47 32 -176 0
42 35 41 29 47 32 -178 0
42 35 41 29 47 32 -175 0
42 35 41 29 47 32 -180 0
42 20 39 27 41 18 -146 0
42 20 39 27 41 18 -142 0
42 20 39 27 41 18 -147 0
42 20 39 27 41 18 -143 0
42 20 39 27 41 18 -145 0
42 20 39 27 41 18 -144 0
42 20 39 27 41 47 -146 0
42 20 39 27 41 47 -142 0
42 20 39 27 41 47 -147 0
42 20 39 27 41 47 -143 0
42 20 39 27 41 47 -145 0
42 20 39 27 41 47 -144 0
42 20 39 27 18 24 -146 0
42 20 39 27 18 24 -142 0
42 20 39 27 18 24 -147 0
42 20 39 27 18 24 -143 0
42 20 39 27 18 24 -145 0
42 20 39 27 18 24 -144 0
42 20 39 27 47 24 -146 0
42 20 39 27 47 24 -142 0
42 20 39 27 47 24 -147 0
42 20 39 27 47 24 -143 0
42 20 39 27 47 24 -145 0
42 20 39 27 47 24 -144 0
42 20 39 41 18 47 -146 0
42 20 39 41 18 47 -142 0
42 20 39 41 18 47 -147 0
42 20 39 41 18 47 -143 0
42 20 39 41 18 47 -145 0
42 20 39 41 18 47 -144 0
42 20 39 41 47 24 -146 0
42 20 39 41 47 24 -142 0
42 20 39 41 47 24 -147 0
42 20 39 41 47 24 -143 0
42 20 39 41 47 24 -145 0
42 20 39 41 47 24 -144 0
42 20 27 41 18 24 -146 0
42 20 27 41 18 24 -142 0
42 20 27 41 18 24 -147 0
42 20 27 41 18 24 -143 0
42 20 27 41 18 24 -145 0
42 20 27 41 18 24 -144 0
42 20 27 18 47 24 -146 0
42 20 27 18 47 24 -142 0
42 20 27 18 47 24 -147 0
42 20 27 18 47 24 -143 0
42 20 27 18 47 24 -145 0
42 20 27 18 47 24 -144 0
42 20 41 18 47 24 -146 0
42 20 41 18 47 24 -142 0
42 20 41 18 47 24 -147 0
42 20 41 18 47 24 -143 0
42 20 41 18 47 24 -145 0
42 20 41 18 47 24 -144 0
42 54 39 57 41 50 -210 0
42 54 39 57 41 50 -212 0
42 54 39 57 41 50 -209 0
42 54 39 57 41 50 -211 0
42 54 39 57 41 50 -208 0
42 54 39 57 41 50 -213 0
42 54 39 57 41 47 -210 0
42 54 39 57 41 47 -212 0
42 54 39 57 41 47 -209 0
42 54 39 57 41 47 -211 0
42 54 39 57 41 47 -208 0
42 54 39 57 41 47 -213 0
42 54 39 57 50 53 -210 0
42 54 39 57 50 53 -212 0
42 54 39 57 50 53 -209 0
42 54 39 57 50 53 -211 0
42 54 39 57 50 53 -208 0
42 54 39 57 50 53 -213 0
42 54 39 57 47 53 -210 0
42 54 39 57 47 53 -212 0
42 54 39 57 47 53 -209 0
42 54 39 57 47 53 -211 0
42 54 39 57 47 53 -208 0
42 54 39 57 47 53 -213 0
42 54 39 41 50 47 -210 0
42 54 39 41 50 47 -212 0
42 54 39 41 50 47 -209 0
42 54 39 41 50 47 -211 0
42 54 39 41 50 47 -208 0
42 54 39 41 50 47 -213 0
42 54 39 41 47 53 -210 0
42 54 39 41 47 53 -212 0
42 54 39 41 47 53 -209 0
42 54 39 41 47 53 -211 0
42 54 39 41 47 53 -208 0
42 54 39 41 47 53 -213 0
42 54 57 41 50 53 -210 0
42 54 57 41 50 53 -212 0
42 54 57 41 50 53 -209 0
42 54 57 41 50 53 -211 0
42 54 57 41 50 53 -208 0
42 54 57 41 50 53 -213 0
42 54 57 50 47 53 -210 0
42 54 57 50 47 53 -212 0
42 54 57 50 47 53 -209 0
42 54 57 50 47 53 -211 0
42 54 57 50 47 53 -208 0
42 54 57 50 47 53 -213 0
42 54 41 50 47 53 -210 0
42 54 41 50 47 53 -212 0
42 54 41 50 47 53 -209 0
42 54 41 50 47 53 -211 0
42 54 41 50 47 53 -208 0
42 54 41 50 47 53 -213 0
42 5 39 3 41 4 -45 0
42 5 39 3 41 4 -44 0
42 5 39 3 41 4 -40 0
42 5 39 3 41 4 -38 0
42 5 39 3 41 4 -46 0
42 5 39 3 41 4 -43 0
42 5 39 3 41 47 -45 0
42 5 39 3 41 47 -44 0
42 5 39 3 41 47 -40 0
42 5 39 3 41 47 -38 0
42 5 39 3 41 47 -46 0
42 5 39 3 41 47 -43 0
42 5 39 3 4 7 -45 0
42 5 39 3 4 7 -44 0
42 5 39 3 4 7 -40 0
42 5 39 3 4 7 -38 0
42 5 39 3 4 7 -46 0
42 5 39 3 4 7 -43 0
42 5 39 3 47 7 -45 0
42 5 39 3 47 7 -44 0
42 5 39 3 47 7 -40 0
42 5 39 3 47 7 -38 0
42 5 39 3 47 7 -46 0
42 5 39 3 47 7 -43 0
42 5 39 41 4 47 -45 0
42 5 39 41 4 47 -44 0
42 5 39 41 4 47 -40 0
42 5 39 41 4 47 -38 0
42 5 39 41 4 47 -46 0
42 5 39 41 4 47 -43 0
42 5 39 41 47 7 -45 0
42 5 39 41 47 7 -44 0
42 5 39 41 47 7 -40 0
42 5 39 41 47 7 -38 0
42 5 39 41 47 7 -46 0
42 5 39 41 47 7 -43 0
42 5 3 41 4 7 -45 0
42 5 3 41 4 7 -44 0
42 5 3 41 4 7 -40 0
42 5 3 41 4 7 -38 0
42 5 3 41 4 7 -46 0
42 5 3 41 4 7 -43 0
42 5 3 4 47 7 -45 0
42 5 3 4 47 7 -44 0
42 5 3 4 47 7 -40 0
42 5 3 4 47 7 -38 0
42 5 3 4 47 7 -46 0
42 5 3 4 47 7 -43 0
42 5 41 4 47 7 -45 0
42 5 41 4 47 7 -44 0
42 5 41 4 47 7 -40 0
42 5 41 4 47 7 -38 0
42 5 41 4 47 7 -46 0
42 5 41 4 47 7 -43 0
42 8 39 14 41 47 -106 0
42 8 39 14 41 47 -104 0
42 8 39 14 41 47 -105 0
42 8 39 14 41 47 -108 0
42 8 39 14 41 47 -107 0
42 8 39 14 41 47 -103 0
42 8 39 41 16 47 -106 0
42 8 39 41 16 47 -104 0
42 8 39 41 16 47 -105 0
42 8 39 41 16 47 -108 0
42 8 39 41 16 47 -107 0
42 8 39 41 16 47 -103 0
42 60 39 67 41 47 -214 0
42 60 39 67 41 47 -215 0
42 60 39 67 41 47 -219 0
42 60 39 67 41 47 -216 0
42 60 39 67 41 47 -217 0
42 60 39 67 41 47 -218 0
42 60 39 41 66 47 -214 0
42 60 39 41 66 47 -215 0
42 60 39 41 66 47 -219 0
42 60 39 41 66 47 -216 0
42 60 39 41 66 47 -217 0
42 60 39 41 66 47 -218 0
42 68 39 74 41 47 -222 0
42 68 39 74 41 47 -224 0
42 68 39 74 41 47 -223 0
42 68 39 74 41 47 -225 0
42 68 39 74 41 47 -220 0
42 68 39 74 41 47 -221 0
42 68 39 41 72 47 -222 0
42 68 39 41 72 47 -224 0
42 68 39 41 72 47 -223 0
42 68 39 41 72 47 -225 0
42 68 39 41 72 47 -220 0
42 68 39 41 72 47 -221 0
42 85 39 81 41 47 -230 0
42 85 39 81 41 47 -227 0
42 85 39 81 41 47 -226 0
42 85 39 81 41 47 -228 0
42 85 39 81 41 47 -229 0
42 85 39 81 41 47 -231 0
42 85 39 41 82 47 -230 0
42 85 39 41 82 47 -227 0
42 85 39 41 82 47 -226 0
42 85 39 41 82 47 -228 0
42 85 39 41 82 47 -229 0
42 85 39 41 82 47 -231 0
42 39 34 41 29 47 -177 0
42 39 34 41 29 47 -179 0
42 39 34 41 29 47 -176 0
42 39 34 41 29 47 -178 0
42 39 34 41 29 47 -175 0
42 39 34 41 29 47 -180 0
42 39 34 41 47 32 -177 0
42 39 34 41 47 32 -179 0
42 39 34 41 47 32 -176 0
42 39 34 41 47 32 -178 0
42 39 34 41 47 32 -175 0
42 39 34 41 47 32 -180 0
42 39 27 41 18 47 -146 0
42 39 27 41 18 47 -142 0
42 39 27 41 18 47 -147 0
42 39 27 41 18 47 -143 0
42 39 27 41 18 47 -145 0
42 39 27 41 18 47 -144 0
42 39 27 41 47 24 -146 0
42 39 27 41 47 24 -142 0
42 39 27 41 47 24 -147 0
42 39 27 41 47 24 -143 0
42 39 27 41 47 24 -145 0
42 39 27 41 47 24 -144 0
42 39 57 41 50 47 -210 0
42 39 57 41 50 47 -212 0
42 39 57 41 50 47 -209 0
42 39 57 41 50 47 -211 0
42 39 57 41 50 47 -208 0
42 39 57 41 50 47 -213 0
42 39 57 41 47 53 -210 0
42 39 57 41 47 53 -212 0
42 39 57 41 47 53 -209 0
42 39 57 41 47 53 -211 0
42 39 57 41 47 53 -208 0
42 39 57 41 47 53 -213 0
42 39 3 41 4 47 -45 0
42 39 3 41 4 47 -44 0
42 39 3 41 4 47 -40 0
42 39 3 41 4 47 -38 0
42 39 3 41 4 47 -46 0
42 39 3 41 4 47 -43 0
42 39 3 41 47 7 -45 0
42 39 3 41 47 7 -44 0
42 39 3 41 47 7 -40 0
42 39 3 41 47 7 -38 0
42 39 3 41 47 7 -46 0
42 39 3 41 47 7 -43 0
42 39 14 41 16 47 -106 0
42 39 14 41 16 47 -104 0
42 39 14 41 16 47 -105 0
42 39 14 41 16 47 -108 0
42 39 14 41 16 47 -107 0
42 39 14 41 16 47 -103 0
42 39 67 41 66 47 -214 0
42 39 67 41 66 47 -215 0
42 39 67 41 66 47 -219 0
42 39 67 41 66 47 -216 0
42 39 67 41 66 47 -217 0
42 39 67 41 66 47 -218 0
42 39 74 41 72 47 -222 0
42 39 74 41 72 47 -224 0
42 39 74 41 72 47 -223 0
42 39 74 41 72 47 -225 0
42 39 74 41 72 47 -220 0
42 39 74 41 72 47 -221 0
42 39 81 41 82 47 -230 0
42 39 81 41 82 47 -227 0
42 39 81 41 82 47 -226 0
42 39 81 41 82 47 -228 0
42 39 81 41 82 47 -229 0
42 39 81 41 82 47 -231 0
42 39 41 29 47 32 -177 0
42 39 41 29 47 32 -179 0
42 39 41 29 47 32 -176 0
42 39 41 29 47 32 -178 0
42 39 41 29 47 32 -175 0
42 39 41 29 47 32 -180 0
42 39 41 18 47 24 -146 0
42 39 41 18 47 24 -142 0
42 39 41 18 47 24 -147 0
42 39 41 18 47 24 -143 0
42 39 41 18 47 24 -145 0
42 39 41 18 47 24 -144 0
42 39 41 50 47 53 -210 0
42 39 41 50 47 53 -212 0
42 39 41 50 47 53 -209 0
42 39 41 50 47 53 -211 0
42 39 41 50 47 53 -208 0
42 39 41 50 47 53 -213 0
42 39 41 4 47 7 -45 0
42 39 41 4 47 7 -44 0
42 39 41 4 47 7 -40 0
42 39 41 4 47 7 -38 0
42 39 41 4 47 7 -46 0
42 39 41 4 47 7 -43 0
35 20 34 27 29 18 -139 0
35 20 34 27 29 18 -137 0
35 20 34 27 29 18 -140 0
35 20 34 27 29 18 -138 0
35 20 34 27 29 18 -136 0
35 20 34 27 29 18 -141 0
35 20 34 27 29 32 -139 0
35 20 34 27 29 32 -137 0
35 20 34 27 29 32 -140 0
35 20 34 27 29 32 -138 0
35 20 34 27 29 32 -136 0
35 20 34 27 29 32 -141 0
35 20 34 27 18 24 -139 0
35 20 34 27 18 24 -137 0
35 20 34 27 18 24 -140 0
35 20 34 27 18 24 -138 0
35 20 34 27 18 24 -136 0
35 20 34 27 18 24 -141 0
35 20 34 27 32 24 -139 0
35 20 34 27 32 24 -137 0
35 20 34 27 32 24 -140 0
35 20 34 27 32 24 -138 0
35 20 34 27 32 24 -136 0
35 20 34 27 32 24 -141 0
35 20 34 29 18 32 -139 0
35 20 34 29 18 32 -137 0
35 20 34 29 18 32 -140 0
35 20 34 29 18 32 -138 0
35 20 34 29 18 32 -136 0
35 20 34 29 18 32 -141 0
35 20 34 29 32 24 -139 0
35 20 34 29 32 24 -137 0
35 20 34 29 32 24 -140 0
35 20 34 29 32 24 -138 0
35 20 34 29 32 24 -136 0
35 20 34 29 32 24 -141 0
35 20 27 29 18 24 -139 0
35 20 27 29 18 24 -137 0
35 20 27 29 18 24 -140 0
35 20 27 29 18 24 -138 0
35 20 27 29 18 24 -136 0
35 20 27 29 18 24 -141 0
35 20 27 18 32 24 -139 0
35 20 27 18 32 24 -137 0
35 20 27 18 32 24 -140 0
35 20 27 18 32 24 -138 0
35 20 27 18 32 24 -136 0
35 20 27 18 32 24 -141 0
35 20 29 18 32 24 -139 0
35 20 29 18 32 24 -137 0
35 20 29 18 32 24 -140 0
35 20 29 18 32 24 -138 0
35 20 29 18 32 24 -136 0
35 20 29 18 32 24 -141 0
35 54 34 57 29 50 -186 0
35 54 34 57 29 50 -181 0
35 54 34 57 29 50 -183 0
35 54 34 57 29 50 -182 0
35 54 34 57 29 50 -184 0
35 54 34 57 29 50 -185 0
35 54 34 57 29 32 -186 0
35 54 34 57 29 32 -181 0
35 54 34 57 29 32 -183 0
35 54 34 57 29 32 -182 0
35 54 34 57 29 32 -184 0
35 54 34 57 29 32 -185 0
35 54 34 57 50 53 -186 0
35 54 34 57 50 53 -181 0
35 54 34 57 50 53 -183 0
35 54 34 57 50 53 -182 0
35 54 34 57 50 53 -184 0
35 54 34 57 50 53 -185 0
35 54 34 57 32 53 -186 0
35 54 34 57 32 53 -181 0
35 54 34 57 32 53 -183 0
35 54 34 57 32 53 -182 0
35 54 34 57 32 53 -184 0
35 54 34 57 32 53 -185 0
35 54 34 29 50 32 -186 0
35 54 34 29 50 32 -181 0
35 54 34 29 50 32 -183 0
35 54 34 29 50 32 -182 0
35 54 34 29 50 32 -184 0
35 54 34 29 50 32 -185 0
35 54 34 29 32 53 -186 0
35 54 34 29 32 53 -181 0
35 54 34 29 32 53 -183 0
35 54 34 29 32 53 -182 0
35 54 34 29 32 53 -184 0
35 54 34 29 32 53 -185 0
35 54 57 29 50 53 -186 0
35 54 57 29 50 53 -181 0
35 54 57 29 50 53 -183 0
35 54 57 29 50 53 -182 0
35 54 57 29 50 53 -184 0
35 54 57 29 50 53 -185 0
35 54 57 50 32 53 -186 0
35 54 57 50 32 53 -181 0
35 54 57 50 32 53 -183 0
35 54 57 50 32 53 -182 0
35 54 57 50 32 53 -184 0
35 54 57 50 32 53 -185 0
35 54 29 50 32 53 -186 0
35 54 29 50 32 53 -181 0
35 54 29 50 32 53 -183 0
35 54 29 50 32 53 -182 0
35 54 29 50 32 53 -184 0
35 54 29 50 32 53 -185 0
35 5 34 3 29 4 -33 0
35 5 34 3 29 4 -36 0
35 5 34 3 29 4 -30 0
35 5 34 3 29 4 -37 0
35 5 34 3 29 4 -28 0
35 5 34 3 29 4 -31 0
35 5 34 3 29 32 -33 0
35 5 34 3 29 32 -36 0
35 5 34 3 29 32 -30 0
35 5 34 3 29 32 -37 0
35 5 34 3 29 32 -28 0
35 5 34 3 29 32 -31 0
35 5 34 3 4 7 -33 0
35 5 34 3 4 7 -36 0
35 5 34 3 4 7 -30 0
35 5 34 3 4 7 -37 0
35 5 34 3 4 7 -28 0
35 5 34 3 4 7 -31 0
35 5 34 3 32 7 -33 0
35 5 34 3 32 7 -36 0
35 5 34 3 32 7 -30 0
35 5 34 3 32 7 -37 0
35 5 34 3 32 7 -28 0
35 5 34 3 32 7 -31 0
35 5 34 29 4 32 -33 0
35 5 34 29 4 32 -36 0
35 5 34 29 4 32 -30 0
35 5 34 29 4 32 -37 0
35 5 34 29 4 32 -28 0
35 5 34 29 4 32 -31 0
35 5 34 29 32 7 -33 0
35 5 34 29 32 7 -36 0
35 5 34 29 32 7 -30 0
35 5 34 29 32 7 -37 0
35 5 34 29 32 7 -28 0
35 5 34 29 32 7 -31 0
35 5 3 29 4 7 -33 0
35 5 3 29 4 7 -36 0
35 5 3 29 4 7 -30 0
35 5 3 29 4 7 -37 0
35 5 3 29 4 7 -28 0
35 5 3 29 4 7 -31 0
35 5 3 4 32 7 -33 0
35 5 3 4 32 7 -36 0
35 5 3 4 32 7 -30 0
35 5 3 4 32 7 -37 0
35 5 3 4 32 7 -28 0
35 5 3 4 32 7 -31 0
35 5 29 4 32 7 -33 0
35 5 29 4 32 7 -36 0
35 5 29 4 32 7 -30 0
35 5 29 4 32 7 -37 0
35 5 29 4 32 7 -28 0
35 5 29 4 32 7 -31 0
35 8 34 14 29 32 -102 0
35 8 34 14 29 32 -100 0
35 8 34 14 29 32 -101 0
35 8 34 14 29 32 -98 0
35 8 34 14 29 32 -99 0
35 8 34 14 29 32 -97 0
35 8 34 29 16 32 -102 0
35 8 34 29 16 32 -100 0
35 8 34 29 16 32 -101 0
35 8 34 29 16 32 -98 0
35 8 34 29 16 32 -99 0
35 8 34 29 16 32 -97 0
35 60 34 67 29 32 -188 0
35 60 34 67 29 32 -191 0
35 60 34 67 29 32 -190 0
35 60 34 67 29 32 -192 0
35 60 34 67 29 32 -187 0
35 60 34 67 29 32 -189 0
35 60 34 29 66 32 -188 0
35 60 34 29 66 32 -191 0
35 60 34 29 66 32 -190 0
35 60 34 29 66 32 -192 0
35 60 34 29 66 32 -187 0
35 60 34 29 66 32 -189 0
35 68 34 74 29 32 -193 0
35 68 34 74 29 32 -195 0
35 68 34 74 29 32 -198 0
35 68 34 74 29 32 -194 0
35 68 34 74 29 32 -196 0
35 68 34 74 29 32 -197 0
35 68 34 29 72 32 -193 0
35 68 34 29 72 32 -195 0
35 68 34 29 72 32 -198 0
35 68 34 29 72 32 -194 0
35 68 34 29 72 32 -196 0
35 68 34 29 72 32 -197 0
35 85 34 81 29 32 -200 0
35 85 34 81 29 32 -202 0
35 85 34 81 29 32 -199 0
35 85 34 81 29 32 -203 0
35 85 34 81 29 32 -204 0
35 85 34 81 29 32 -201 0
35 85 34 29 82 32 -200 0
35 85 34 29 82 32 -202 0
35 85 34 29 82 32 -199 0
35 85 34 29 82 32 -203 0
35 85 34 29 82 32 -204 0
35 85 34 29 82 32 -201 0
35 39 34 41 29 32 -177 0
35 39 34 41 29 32 -179 0
35 39 34 41 29 32 -176 0
35 39 34 41 29 32 -178 0
35 39 34 41 29 32 -175 0
35 39 34 41 29 32 -180 0
35 39 34 29 47 32 -177 0
35 39 34 29 47 32 -179 0
35 39 34 29 47 32 -176 0
35 39 34 29 47 32 -178 0
35 39 34 29 47 32 -175 0
35 39 34 29 47 32 -180 0
35 34 27 29 18 32 -139 0
35 34 27 29 18 32 -137 0
35 34 27 29 18 32 -140 0
35 34 27 29 18 32 -138 0
35 34 27 29 18 32 -136 0
35 34 27 29 18 32 -141 0
35 34 27 29 32 24 -139 0
35 34 27 29 32 24 -137 0
35 34 27 29 32 24 -140 0
35 34 27 29 32 24 -138 0
35 34 27 29 32 24 -136 0
35 34 27 29 32 24 -141 0
35 34 57 29 50 32 -186 0
35 34 57 29 50 32 -181 0
35 34 57 29 50 32 -183 0
35 34 57 29 50 32 -182 0
35 34 57 29 50 32 -184 0
35 34 57 29 50 32 -185 0
35 34 57 29 32 53 -186 0
35 34 57 29 32 53 -181 0
35 34 57 29 32 53 -183 0
35 34 57 29 32 53 -182 0
35 34 57 29 32 53 -184 0
35 34 57 29 32 53 -185 0
35 34 3 29 4 32 -33 0
35 34 3 29 4 32 -36 0
35 34 3 29 4 32 -30 0
35 34 3 29 4 32 -37 0
35 34 3 29 4 32 -28 0
35 34 3 29 4 32 -31 0
35 34 3 29 32 7 -33 0
35 34 3 29 32 7 -36 0
35 34 3 29 32 7 -30 0
35 34 3 29 32 7 -37 0
35 34 3 29 32 7 -28 0
35 34 3 29 32 7 -31 0
35 34 14 29 16 32 -102 0
35 34 14 29 16 32 -100 0
35 34 14 29 16 32 -101 0
35 34 14 29 16 32 -98 0
35 34 14 29 16 32 -99 0
35 34 14 29 16 32 -97 0
35 34 67 29 66 32 -188 0
35 34 67 29 66 32 -191 0
35 34 67 29 66 32 -190 0
35 34 67 29 66 32 -192 0
35 34 67 29 66 32 -187 0
35 34 67 29 66 32 -189 0
35 34 74 29 72 32 -193 0
35 34 74 29 72 32 -195 0
35 34 74 29 72 32 -198 0
35 34 74 29 72 32 -194 0
35 34 74 29 72 32 -196 0
35 34 74 29 72 32 -197 0
35 34 81 29 82 32 -200 0
35 34 81 29 82 32 -202 0
35 34 81 29 82 32 -199 0
35 34 81 29 82 32 -203 0
35 34 81 29 82 32 -204 0
35 34 81 29 82 32 -201 0
35 34 41 29 47 32 -177 0
35 34 41 29 47 32 -179 0
35 34 41 29 47 32 -176 0
35 34 41 29 47 32 -178 0
35 34 41 29 47 32 -175 0
35 34 41 29 47 32 -180 0
35 34 29 18 32 24 -139 0
35 34 29 18 32 24 -137 0
35 34 29 18 32 24 -140 0
35 34 29 18 32 24 -138 0
35 34 29 18 32 24 -136 0
35 34 29 18 32 24 -141 0
35 34 29 50 32 53 -186 0
35 34 29 50 32 53 -181 0
35 34 29 50 32 53 -183 0
35 34 29 50 32 53 -182 0
35 34 29 50 32 53 -184 0
35 34 29 50 32 53 -185 0
35 34 29 4 32 7 -33 0
35 34 29 4 32 7 -36 0
35 34 29 4 32 7 -30 0
35 34 29 4 32 7 -37 0
35 34 29 4 32 7 -28 0
35 34 29 4 32 7 -31 0
20 54 27 57 18 50 -149 0
20 54 27 57 18 50 -153 0
20 54 27 57 18 50 -150 0
20 54 27 57 18 50 -151 0
20 54 27 57 18 50 -152 0
20 54 27 57 18 50 -148 0
20 54 27 57 18 24 -149 0
20 54 27 57 18 24 -153 0
20 54 27 57 18 24 -150 0
20 54 27 57 18 24 -151 0
20 54 27 57 18 24 -152 0
20 54 27 57 18 24 -148 0
20 54 27 57 50 53 -149 0
20 54 27 57 50 53 -153 0
20 54 27 57 50 53 -150 0
20 54 27 57 50 53 -151 0
20 54 27 57 50 53 -152 0
20 54 27 57 50 53 -148 0
20 54 27 57 24 53 -149 0
20 54 27 57 24 53 -153 0
20 54 27 57 24 53 -150 0
20 54 27 57 24 53 -151 0
20 54 27 57 24 53 -152 0
20 54 27 57 24 53 -148 0
20 54 27 18 50 24 -149 0
20 54 27 18 50 24 -153 0
20 54 27 18 50 24 -150 0
20 54 27 18 50 24 -151 0
20 54 27 18 50 24 -152 0
20 54 27 18 50 24 -148 0
20 54 27 18 24 53 -149 0
20 54 27 18 24 53 -153 0
20 54 27 18 24 53 -150 0
20 54 27 18 24 53 -151 0
20 54 27 18 24 53 -152 0
20 54 27 18 24 53 -148 0
20 54 57 18 50 53 -149 0
20 54 57 18 50 53 -153 0
20 54 57 18 50 53 -150 0
20 54 57 18 50 53 -151 0
20 54 57 18 50 53 -152 0
20 54 57 18 50 53 -148 0
20 54 57 50 24 53 -149 0
20 54 57 50 24 53 -153 0
20 54 57 50 24 53 -150 0
20 54 57 50 24 53 -151 0
20 54 57 50 24 53 -152 0
20 54 57 50 24 53 -148 0
20 54 18 50 24 53 -149 0
20 54 18 50 24 53 -153 0
20 54 18 50 24 53 -150 0
20 54 18 50 24 53 -151 0
20 54 18 50 24 53 -152 0
20 54 18 50 24 53 -148 0
20 5 27 3 18 4 -21 0
20 5 27 3 18 4 -19 0
20 5 27 3 18 4 -25 0
20 5 27 3 18 4 -22 0
20 5 27 3 18 4 -23 0
20 5 27 3 18 4 -26 0
20 5 27 3 18 24 -21 0
20 5 27 3 18 24 -19 0
20 5 27 3 18 24 -25 0
20 5 27 3 18 24 -22 0
20 5 27 3 18 24 -23 0
20 5 27 3 18 24 -26 0
20 5 27 3 4 7 -21 0
20 5 27 3 4 7 -19 0
20 5 27 3 4 7 -25 0
20 5 27 3 4 7 -22 0
20 5 27 3 4 7 -23 0
20 5 27 3 4 7 -26 0
20 5 27 3 24 7 -21 0
20 5 27 3 24 7 -19 0
20 5 27 3 24 7 -25 0
20 5 27 3 24 7 -22 0
20 5 27 3 24 7 -23 0
20 5 27 3 24 7 -26 0
20 5 27 18 4 24 -21 0
20 5 27 18 4 24 -19 0
20 5 27 18 4 24 -25 0
20 5 27 18 4 24 -22 0
20 5 27 18 4 24 -23 0
20 5 27 18 4 24 -26 0
20 5 27 18 24 7 -21 0
20 5 27 18 24 7 -19 0
20 5 27 18 24 7 -25 0
20 5 27 18 24 7 -22 0
20 5 27 18 24 7 -23 0
20 5 27 18 24 7 -26 0
20 5 3 18 4 7 -21 0
20 5 3 18 4 7 -19 0
20 5 3 18 4 7 -25 0
20 5 3 18 4 7 -22 0
20 5 3 18 4 7 -23 0
20 5 3 18 4 7 -26 0
20 5 3 4 24 7 -21 0
20 5 3 4 24 7 -19 0
20 5 3 4 24 7 -25 0
20 5 3 4 24 7 -22 0
20 5 3 4 24 7 -23 0
20 5 3 4 24 7 -26 0
20 5 18 4 24 7 -21 0
20 5 18 4 24 7 -19 0
20 5 18 4 24 7 -25 0
20 5 18 4 24 7 -22 0
20 5 18 4 24 7 -23 0
20 5 18 4 24 7 -26 0
20 8 27 14 18 24 -95 0
20 8 27 14 18 24 -96 0
20 8 27 14 18 24 -93 0
20 8 27 14 18 24 -94 0
20 8 27 14 18 24 -92 0
20 8 27 14 18 24 -91 0
20 8 27 18 16 24 -95 0
20 8 27 18 16 24 -96 0
20 8 27 18 16 24 -93 0
20 8 27 18 16 24 -94 0
20 8 27 18 16 24 -92 0
20 8 27 18 16 24 -91 0
20 60 27 67 18 24 -157 0
20 60 27 67 18 24 -154 0
20 60 27 67 18 24 -156 0
20 60 27 67 18 24 -155 0
20 60 27 67 18 24 -158 0
20 60 27 67 18 24 -159 0
20 60 27 18 66 24 -157 0
20 60 27 18 66 24 -154 0
20 60 27 18 66 24 -156 0
20 60 27 18 66 24 -155 0
20 60 27 18 66 24 -158 0
20 60 27 18 66 24 -159 0
20 68 27 74 18 24 -165 0
20 68 27 74 18 24 -163 0
20 68 27 74 18 24 -162 0
20 68 27 74 18 24 -164 0
20 68 27 74 18 24 -161 0
20 68 27 74 18 24 -160 0
20 68 27 18 72 24 -165 0
20 68 27 18 72 24 -163 0
20 68 27 18 72 24 -162 0
20 68 27 18 72 24 -164 0
20 68 27 18 72 24 -161 0
20 68 27 18 72 24 -160 0
20 85 27 81 18 24 -166 0
20 85 27 81 18 24 -168 0
20 85 27 81 18 24 -167 0
20 85 27 81 18 24 -169 0
20 85 27 81 18 24 -170 0
20 85 27 81 18 24 -171 0
20 85 27 18 82 24 -166 0
20 85 27 18 82 24 -168 0
20 85 27 18 82 24 -167 0
20 85 27 18 82 24 -169 0
20 85 27 18 82 24 -170 0
20 85 27 18 82 24 -171 0
20 39 27 41 18 24 -146 0
20 39 27 41 18 24 -142 0
20 39 27 41 18 24 -147 0
20 39 27 41 18 24 -143 0
20 39 27 41 18 24 -145 0
20 39 27 41 18 24 -144 0
20 39 27 18 47 24 -146 0
20 39 27 18 47 24 -142 0
20 39 27 18 47 24 -147 0
20 39 27 18 47 24 -143 0
20 39 27 18 47 24 -145 0
20 39 27 18 47 24 -144 0
20 34 27 29 18 24 -139 0
20 34 27 29 18 24 -137 0
20 34 27 29 18 24 -140 0
20 34 27 29 18 24 -138 0
20 34 27 29 18 24 -136 0
20 34 27 29 18 24 -141 0
20 34 27 18 32 24 -139 0
20 34 27 18 32 24 -137 0
20 34 27 18 32 24 -140 0
20 34 27 18 32 24 -138 0
20 34 27 18 32 24 -136 0
20 34 27 18 32 24 -141 0
20 27 57 18 50 24 -149 0
20 27 57 18 50 24 -153 0
20 27 57 18 50 24 -150 0
20 27 57 18 50 24 -151 0
20 27 57 18 50 24 -152 0
20 27 57 18 50 24 -148 0
20 27 57 18 24 53 -149 0
20 27 57 18 24 53 -153 0
20 27 57 18 24 53 -150 0
20 27 57 18 24 53 -151 0
20 27 57 18 24 53 -152 0
20 27 57 18 24 53 -148 0
20 27 3 18 4 24 -21 0
20 27 3 18 4 24 -19 0
20 27 3 18 4 24 -25 0
20 27 3 18 4 24 -22 0
20 27 3 18 4 24 -23 0
20 27 3 18 4 24 -26 0
20 27 3 18 24 7 -21 0
20 27 3 18 24 7 -19 0
20 27 3 18 24 7 -25 0
20 27 3 18 24 7 -22 0
20 27 3 18 24 7 -23 0
20 27 3 18 24 7 -26 0
20 27 14 18 16 24 -95 0
20 27 14 18 16 24 -96 0
20 27 14 18 16 24 -93 0
20 27 14 18 16 24 -94 0
20 27 14 18 16 24 -92 0
20 27 14 18 16 24 -91 0
20 27 67 18 66 24 -157 0
20 27 67 18 66 24 -154 0
20 27 67 18 66 24 -156 0
20 27 67 18 66 24 -155 0
20 27 67 18 66 24 -158 0
20 27 67 18 66 24 -159 0
20 27 74 18 72 24 -165 0
20 27 74 18 72 24 -163 0
20 27 74 18 72 24 -162 0
20 27 74 18 72 24 -164 0
20 27 74 18 72 24 -161 0
20 27 74 18 72 24 -160 0
20 27 81 18 82 24 -166 0
20 27 81 18 82 24 -168 0
20 27 81 18 82 24 -167 0
20 27 81 18 82 24 -169 0
20 27 81 18 82 24 -170 0
20 27 81 18 82 24 -171 0
20 27 41 18 47 24 -146 0
20 27 41 18 47 24 -142 0
20 27 41 18 47 24 -147 0
20 27 41 18 47 24 -143 0
20 27 41 18 47 24 -145 0
20 27 41 18 47 24 -144 0
20 27 29 18 32 24 -139 0
20 27 29 18 32 24 -137 0
20 27 29 18 32 24 -140 0
20 27 29 18 32 24 -138 0
20 27 29 18 32 24 -136 0
20 27 29 18 32 24 -141 0
20 27 18 50 24 53 -149 0
20 27 18 50 24 53 -153 0
20 27 18 50 24 53 -150 0
20 27 18 50 24 53 -151 0
20 27 18 50 24 53 -152 0
20 27 18 50 24 53 -148 0
20 27 18 4 24 7 -21 0
20 27 18 4 24 7 -19 0
20 27 18 4 24 7 -25 0
20 27 18 4 24 7 -22 0
20 27 18 4 24 7 -23 0
20 27 18 4 24 7 -26 0
54 5 57 3 50 4 -51 0
54 5 57 3 50 4 -56 0
54 5 57 3 50 4 -52 0
54 5 57 3 50 4 -55 0
54 5 57 3 50 4 -48 0
54 5 57 3 50 4 -49 0
54 5 57 3 50 53 -51 0
54 5 57 3 50 53 -56 0
54 5 57 3 50 53 -52 0
54 5 57 3 50 53 -55 0
54 5 57 3 50 53 -48 0
54 5 57 3 50 53 -49 0
54 5 57 3 4 7 -51 0
54 5 57 3 4 7 -56 0
54 5 57 3 4 7 -52 0
54 5 57 3 4 7 -55 0
54 5 57 3 4 7 -48 0
54 5 57 3 4 7 -49 0
54 5 57 3 53 7 -51 0
54 5 57 3 53 7 -56 0
54 5 57 3 53 7 -52 0
54 5 57 3 53 7 -55 0
54 5 57 3 53 7 -48 0
54 5 57 3 53 7 -49 0
54 5 57 50 4 53 -51 0
54 5 57 50 4 53 -56 0
54 5 57 50 4 53 -52 0
54 5 57 50 4 53 -55 0
54 5 57 50 4 53 -48 0
54 5 57 50 4 53 -49 0
54 5 57 50 53 7 -51 0
54 5 57 50 53 7 -56 0
54 5 57 50 53 7 -52 0
54 5 57 50 53 7 -55 0
54 5 57 50 53 7 -48 0
54 5 57 50 53 7 -49 0
54 5 3 50 4 7 -51 0
54 5 3 50 4 7 -56 0
54 5 3 50 4 7 -52 0
54 5 3 50 4 7 -55 0
54 5 3 50 4 7 -48 0
54 5 3 50 4 7 -49 0
54 5 3 4 53 7 -51 0
54 5 3 4 53 7 -56 0
54 5 3 4 53 7 -52 0
54 5 3 4 53 7 -55 0
54 5 3 4 53 7 -48 0
54 5 3 4 53 7 -49 0
54 5 50 4 53 7 -51 0
54 5 50 4 53 7 -56 0
54 5 50 4 53 7 -52 0
54 5 50 4 53 7 -55 0
54 5 50 4 53 7 -48 0
54 5 50 4 53 7 -49 0
54 8 57 14 50 53 -110 0
54 8 57 14 50 53 -114 0
54 8 57 14 50 53 -111 0
54 8 57 14 50 53 -112 0
54 8 57 14 50 53 -113 0
54 8 57 14 50 53 -109 0
54 8 57 50 16 53 -110 0
54 8 57 50 16 53 -114 0
54 8 57 50 16 53 -111 0
54 8 57 50 16 53 -112 0
54 8 57 50 16 53 -113 0
54 8 57 50 16 53 -109 0
54 60 57 67 50 53 -237 0
54 60 57 67 50 53 -238 0
54 60 57 67 50 53 -235 0
54 60 57 67 50 53 -239 0
54 60 57 67 50 53 -240 0
54 60 57 67 50 53 -236 0
54 60 57 50 66 53 -237 0
54 60 57 50 66 53 -238 0
54 60 57 50 66 53 -235 0
54 60 57 50 66 53 -239 0
54 60 57 50 66 53 -240 0
54 60 57 50 66 53 -236 0
54 68 57 74 50 53 -245 0
54 68 57 74 50 53 -243 0
54 68 57 74 50 53 -246 0
54 68 57 74 50 53 -244 0
54 68 57 74 50 53 -241 0
54 68 57 74 50 53 -242 0
54 68 57 50 72 53 -245 0
54 68 57 50 72 53 -243 0
54 68 57 50 72 53 -246 0
54 68 57 50 72 53 -244 0
54 68 57 50 72 53 -241 0
54 68 57 50 72 53 -242 0
54 85 57 81 50 53 -251 0
54 85 57 81 50 53 -247 0
54 85 57 81 50 53 -252 0
54 85 57 81 50 53 -248 0
54 85 57 81 50 53 -249 0
54 85 57 81 50 53 -250 0
54 85 57 50 82 53 -251 0
54 85 57 50 82 53 -247 0
54 85 57 50 82 53 -252 0
54 85 57 50 82 53 -248 0
54 85 57 50 82 53 -249 0
54 85 57 50 82 53 -250 0
54 39 57 41 50 53 -210 0
54 39 57 41 50 53 -212 0
54 39 57 41 50 53 -209 0
54 39 57 41 50 53 -211 0
54 39 57 41 50 53 -208 0
54 39 57 41 50 53 -213 0
54 39 57 50 47 53 -210 0
54 39 57 50 47 53 -212 0
54 39 57 50 47 53 -209 0
54 39 57 50 47 53 -211 0
54 39 57 50 47 53 -208 0
54 39 57 50 47 53 -213 0
54 34 57 29 50 53 -186 0
54 34 57 29 50 53 -181 0
54 34 57 29 50 53 -183 0
54 34 57 29 50 53 -182 0
54 34 57 29 50 53 -184 0
54 34 57 29 50 53 -185 0
54 34 57 50 32 53 -186 0
54 34 57 50 32 53 -181 0
54 34 57 50 32 53 -183 0
54 34 57 50 32 53 -182 0
54 34 57 50 32 53 -184 0
54 34 57 50 32 53 -185 0
54 27 57 18 50 53 -149 0
54 27 57 18 50 53 -153 0
54 27 57 18 50 53 -150 0
54 27 57 18 50 53 -151 0
54 27 57 18 50 53 -152 0
54 27 57 18 50 53 -148 0
54 27 57 50 24 53 -149 0
54 27 57 50 24 53 -153 0
54 27 57 50 24 53 -150 0
54 27 57 50 24 53 -151 0
54 27 57 50 24 53 -152 0
54 27 57 50 24 53 -148 0
54 57 3 50 4 53 -51 0
54 57 3 50 4 53 -56 0
54 57 3 50 4 53 -52 0
54 57 3 50 4 53 -55 0
54 57 3 50 4 53 -48 0
54 57 3 50 4 53 -49 0
54 57 3 50 53 7 -51 0
54 57 3 50 53 7 -56 0
54 57 3 50 53 7 -52 0
54 57 3 50 53 7 -55 0
54 57 3 50 53 7 -48 0
54 57 3 50 53 7 -49 0
54 57 14 50 16 53 -110 0
54 57 14 50 16 53 -114 0
54 57 14 50 16 53 -111 0
54 57 14 50 16 53 -112 0
54 57 14 50 16 53 -113 0
54 57 14 50 16 53 -109 0
54 57 67 50 66 53 -237 0
54 57 67 50 66 53 -238 0
54 57 67 50 66 53 -235 0
54 57 67 50 66 53 -239 0
54 57 67 50 66 53 -240 0
54 57 67 50 66 53 -236 0
54 57 74 50 72 53 -245 0
54 57 74 50 72 53 -243 0
54 57 74 50 72 53 -246 0
54 57 74 50 72 53 -244 0
54 57 74 50 72 53 -241 0
54 57 74 50 72 53 -242 0
54 57 81 50 82 53 -251 0
54 57 81 50 82 53 -247 0
54 57 81 50 82 53 -252 0
54 57 81 50 82 53 -248 0
54 57 81 50 82 53 -249 0
54 57 81 50 82 53 -250 0
54 57 41 50 47 53 -210 0
54 57 41 50 47 53 -212 0
54 57 41 50 47 53 -209 0
54 57 41 50 47 53 -211 0
54 57 41 50 47 53 -208 0
54 57 41 50 47 53 -213 0
54 57 29 50 32 53 -186 0
54 57 29 50 32 53 -181 0
54 57 29 50 32 53 -183 0
54 57 29 50 32 53 -182 0
54 57 29 50 32 53 -184 0
54 57 29 50 32 53 -185 0
54 57 18 50 24 53 -149 0
54 57 18 50 24 53 -153 0
54 57 18 50 24 53 -150 0
54 57 18 50 24 53 -151 0
54 57 18 50 24 53 -152 0
54 57 18 50 24 53 -148 0
54 57 50 4 53 7 -51 0
54 57 50 4 53 7 -56 0
54 57 50 4 53 7 -52 0
54 57 50 4 53 7 -55 0
54 57 50 4 53 7 -48 0
54 57 50 4 53 7 -49 0
5 8 3 14 4 7 -9 0
5 8 3 14 4 7 -15 0
5 8 3 14 4 7 -10 0
5 8 3 14 4 7 -17 0
5 8 3 14 4 7 -13 0
5 8 3 14 4 7 -12 0
5 8 3 4 16 7 -9 0
5 8 3 4 16 7 -15 0
5 8 3 4 16 7 -10 0
5 8 3 4 16 7 -17 0
5 8 3 4 16 7 -13 0
5 8 3 4 16 7 -12 0
5 60 3 67 4 7 -64 0
5 60 3 67 4 7 -59 0
5 60 3 67 4 7 -65 0
5 60 3 67 4 7 -61 0
5 60 3 67 4 7 -63 0
5 60 3 67 4 7 -58 0
5 60 3 4 66 7 -64 0
5 60 3 4 66 7 -59 0
5 60 3 4 66 7 -65 0
5 60 3 4 66 7 -61 0
5 60 3 4 66 7 -63 0
5 60 3 4 66 7 -58 0
5 68 3 74 4 7 -77 0
5 68 3 74 4 7 -69 0
5 68 3 74 4 7 -70 0
5 68 3 74 4 7 -76 0
5 68 3 74 4 7 -75 0
5 68 3 74 4 7 -73 0
5 68 3 4 72 7 -77 0
5 68 3 4 72 7 -69 0
5 68 3 4 72 7 -70 0
5 68 3 4 72 7 -76 0
5 68 3 4 72 7 -75 0
5 68 3 4 72 7 -73 0
5 85 3 81 4 7 -87 0
5 85 3 81 4 7 -78 0
5 85 3 81 4 7 -86 0
5 85 3 81 4 7 -84 0
5 85 3 81 4 7 -80 0
5 85 3 81 4 7 -79 0
5 85 3 4 82 7 -87 0
5 85 3 4 82 7 -78 0
5 85 3 4 82 7 -86 0
5 85 3 4 82 7 -84 0
5 85 3 4 82 7 -80 0
5 85 3 4 82 7 -79 0
5 39 3 41 4 7 -45 0
5 39 3 41 4 7 -44 0
5 39 3 41 4 7 -40 0
5 39 3 41 4 7 -38 0
5 39 3 41 4 7 -46 0
5 39 3 41 4 7 -43 0
5 39 3 4 47 7 -45 0
5 39 3 4 47 7 -44 0
5 39 3 4 47 7 -40 0
5 39 3 4 47 7 -38 0
5 39 3 4 47 7 -46 0
5 39 3 4 47 7 -43 0
5 34 3 29 4 7 -33 0
5 34 3 29 4 7 -36 0
5 34 3 29 4 7 -30 0
5 34 3 29 4 7 -37 0
5 34 3 29 4 7 -28 0
5 34 3 29 4 7 -31 0
5 34 3 4 32 7 -33 0
5 34 3 4 32 7 -36 0
5 34 3 4 32 7 -30 0
5 34 3 4 32 7 -37 0
5 34 3 4 32 7 -28 0
5 34 3 4 32 7 -31 0
5 27 3 18 4 7 -21 0
5 27 3 18 4 7 -19 0
5 27 3 18 4 7 -25 0
5 27 3 18 4 7 -22 0
5 27 3 18 4 7 -23 0
5 27 3 18 4 7 -26 0
5 27 3 4 24 7 -21 0
5 27 3 4 24 7 -19 0
5 27 3 4 24 7 -25 0
5 27 3 4 24 7 -22 0
5 27 3 4 24 7 -23 0
5 27 3 4 24 7 -26 0
5 57 3 50 4 7 -51 0
5 57 3 50 4 7 -56 0
5 57 3 50 4 7 -52 0
5 57 3 50 4 7 -55 0
5 57 3 50 4 7 -48 0
5 57 3 50 4 7 -49 0
5 57 3 4 53 7 -51 0
5 57 3 4 53 7 -56 0
5 57 3 4 53 7 -52 0
5 57 3 4 53 7 -55 0
5 57 3 4 53 7 -48 0
5 57 3 4 53 7 -49 0
5 3 14 4 16 7 -9 0
5 3 14 4 16 7 -15 0
5 3 14 4 16 7 -10 0
5 3 14 4 16 7 -17 0
5 3 14 4 16 7 -13 0
5 3 14 4 16 7 -12 0
5 3 67 4 66 7 -64 0
5 3 67 4 66 7 -59 0
5 3 67 4 66 7 -65 0
5 3 67 4 66 7 -61 0
5 3 67 4 66 7 -63 0
5 3 67 4 66 7 -58 0
5 3 74 4 72 7 -77 0
5 3 74 4 72 7 -69 0
5 3 74 4 72 7 -70 0
5 3 74 4 72 7 -76 0
5 3 74 4 72 7 -75 0
5 3 74 4 72 7 -73 0
5 3 81 4 82 7 -87 0
5 3 81 4 82 7 -78 0
5 3 81 4 82 7 -86 0
5 3 81 4 82 7 -84 0
5 3 81 4 82 7 -80 0
5 3 81 4 82 7 -79 0
5 3 41 4 47 7 -45 0
5 3 41 4 47 7 -44 0
5 3 41 4 47 7 -40 0
5 3 41 4 47 7 -38 0
5 3 41 4 47 7 -46 0
5 3 41 4 47 7 -43 0
5 3 29 4 32 7 -33 0
5 3 29 4 32 7 -36 0
5 3 29 4 32 7 -30 0
5 3 29 4 32 7 -37 0
5 3 29 4 32 7 -28 0
5 3 29 4 32 7 -31 0
5 3 18 4 24 7 -21 0
5 3 18 4 24 7 -19 0
5 3 18 4 24 7 -25 0
5 3 18 4 24 7 -22 0
5 3 18 4 24 7 -23 0
5 3 18 4 24 7 -26 0
5 3 50 4 53 7 -51 0
5 3 50 4 53 7 -56 0
5 3 50 4 53 7 -52 0
5 3 50 4 53 7 -55 0
5 3 50 4 53 7 -48 0
5 3 50 4 53 7 -49 0
8 60 14 67 16 66 -120 0
8 60 14 67 16 66 -119 0
8 60 14 67 16 66 -117 0
8 60 14 67 16 66 -118 0
8 60 14 67 16 66 -115 0
8 60 14 67 16 66 -116 0
8 68 14 74 16 72 -121 0
8 68 14 74 16 72 -125 0
8 68 14 74 16 72 -122 0
8 68 14 74 16 72 -123 0
8 68 14 74 16 72 -124 0
8 68 14 74 16 72 -126 0
8 85 14 81 16 82 -127 0
8 85 14 81 16 82 -130 0
8 85 14 81 16 82 -131 0
8 85 14 81 16 82 -128 0
8 85 14 81 16 82 -132 0
8 85 14 81 16 82 -129 0
8 39 14 41 16 47 -106 0
8 39 14 41 16 47 -104 0
8 39 14 41 16 47 -105 0
8 39 14 41 16 47 -108 0
8 39 14 41 16 47 -107 0
8 39 14 41 16 47 -103 0
8 34 14 29 16 32 -102 0
8 34 14 29 16 32 -100 0
8 34 14 29 16 32 -101 0
8 34 14 29 16 32 -98 0
8 34 14 29 16 32 -99 0
8 34 14 29 16 32 -97 0
8 27 14 18 16 24 -95 0
8 27 14 18 16 24 -96 0
8 27 14 18 16 24 -93 0
8 27 14 18 16 24 -94 0
8 27 14 18 16 24 -92 0
8 27 14 18 16 24 -91 0
8 57 14 50 16 53 -110 0
8 57 14 50 16 53 -114 0
8 57 14 50 16 53 -111 0
8 57 14 50 16 53 -112 0
8 57 14 50 16 53 -113 0
8 57 14 50 16 53 -109 0
8 3 14 4 16 7 -9 0
8 3 14 4 16 7 -15 0
8 3 14 4 16 7 -10 0
8 3 14 4 16 7 -17 0
8 3 14 4 16 7 -13 0
8 3 14 4 16 7 -12 0
60 68 67 74 66 72 -261 0
60 68 67 74 66 72 -256 0
60 68 67 74 66 72 -259 0
60 68 67 74 66 72 -260 0
60 68 67 74 66 72 -258 0
60 68 67 74 66 72 -257 0
60 85 67 81 66 82 -266 0
60 85 67 81 66 82 -263 0
60 85 67 81 66 82 -265 0
60 85 67 81 66 82 -267 0
60 85 67 81 66 82 -262 0
60 85 67 81 66 82 -264 0
60 39 67 41 66 47 -214 0
60 39 67 41 66 47 -215 0
60 39 67 41 66 47 -219 0
60 39 67 41 66 47 -216 0
60 39 67 41 66 47 -217 0
60 39 67 41 66 47 -218 0
60 34 67 29 66 32 -188 0
60 34 67 29 66 32 -191 0
60 34 67 29 66 32 -190 0
60 34 67 29 66 32 -192 0
60 34 67 29 66 32 -187 0
60 34 67 29 66 32 -189 0
60 27 67 18 66 24 -157 0
60 27 67 18 66 24 -154 0
60 27 67 18 66 24 -156 0
60 27 67 18 66 24 -155 0
60 27 67 18 66 24 -158 0
60 27 67 18 66 24 -159 0
60 57 67 50 66 53 -237 0
60 57 67 50 66 53 -238 0
60 57 67 50 66 53 -235 0
60 57 67 50 66 53 -239 0
60 57 67 50 66 53 -240 0
60 57 67 50 66 53 -236 0
60 3 67 4 66 7 -64 0
60 3 67 4 66 7 -59 0
60 3 67 4 66 7 -65 0
60 3 67 4 66 7 -61 0
60 3 67 4 66 7 -63 0
60 3 67 4 66 7 -58 0
68 85 74 81 72 82 -276 0
68 85 74 81 72 82 -274 0
68 85 74 81 72 82 -271 0
68 85 74 81 72 82 -272 0
68 85 74 81 72 82 -275 0
68 85 74 81 72 82 -273 0
68 39 74 41 72 47 -222 0
68 39 74 41 72 47 -224 0
68 39 74 41 72 47 -223 0
68 39 74 41 72 47 -225 0
68 39 74 41 72 47 -220 0
68 39 74 41 72 47 -221 0
68 34 74 29 72 32 -193 0
68 34 74 29 72 32 -195 0
68 34 74 29 72 32 -198 0
68 34 74 29 72 32 -194 0
68 34 74 29 72 32 -196 0
68 34 74 29 72 32 -197 0
68 27 74 18 72 24 -165 0
68 27 74 18 72 24 -163 0
68 27 74 18 72 24 -162 0
68 27 74 18 72 24 -164 0
68 27 74 18 72 24 -161 0
68 27 74 18 72 24 -160 0
68 57 74 50 72 53 -245 0
68 57 74 50 72 53 -243 0
68 57 74 50 72 53 -246 0
68 57 74 50 72 53 -244 0
68 57 74 50 72 53 -241 0
68 57 74 50 72 53 -242 0
68 3 74 4 72 7 -77 0
68 3 74 4 72 7 -69 0
68 3 74 4 72 7 -70 0
68 3 74 4 72 7 -76 0
68 3 74 4 72 7 -75 0
68 3 74 4 72 7 -73 0
85 39 81 41 82 47 -230 0
85 39 81 41 82 47 -227 0
85 39 81 41 82 47 -226 0
85 39 81 41 82 47 -228 0
85 39 81 41 82 47 -229 0
85 39 81 41 82 47 -231 0
85 34 81 29 82 32 -200 0
85 34 81 29 82 32 -202 0
85 34 81 29 82 32 -199 0
85 34 81 29 82 32 -203 0
85 34 81 29 82 32 -204 0
85 34 81 29 82 32 -201 0
85 27 81 18 82 24 -166 0
85 27 81 18 82 24 -168 0
85 27 81 18 82 24 -167 0
85 27 81 18 82 24 -169 0
85 27 81 18 82 24 -170 0
85 27 81 18 82 24 -171 0
85 57 81 50 82 53 -251 0
85 57 81 50 82 53 -247 0
85 57 81 50 82 53 -252 0
85 57 81 50 82 53 -248 0
85 57 81 50 82 53 -249 0
85 57 81 50 82 53 -250 0
85 3 81 4 82 7 -87 0
85 3 81 4 82 7 -78 0
85 3 81 4 82 7 -86 0
85 3 81 4 82 7 -84 0
85 3 81 4 82 7 -80 0
85 3 81 4 82 7 -79 0
39 34 41 29 47 32 -177 0
39 34 41 29 47 32 -179 0
39 34 41 29 47 32 -176 0
39 34 41 29 47 32 -178 0
39 34 41 29 47 32 -175 0
39 34 41 29 47 32 -180 0
39 27 41 18 47 24 -146 0
39 27 41 18 47 24 -142 0
39 27 41 18 47 24 -147 0
39 27 41 18 47 24 -143 0
39 27 41 18 47 24 -145 0
39 27 41 18 47 24 -144 0
39 57 41 50 47 53 -210 0
39 57 41 50 47 53 -212 0
39 57 41 50 47 53 -209 0
39 57 41 50 47 53 -211 0
39 57 41 50 47 53 -208 0
39 57 41 50 47 53 -213 0
39 3 41 4 47 7 -45 0
39 3 41 4 47 7 -44 0
39 3 41 4 47 7 -40 0
39 3 41 4 47 7 -38 0
39 3 41 4 47 7 -46 0
39 3 41 4 47 7 -43 0
34 27 29 18 32 24 -139 0
34 27 29 18 32 24 -137 0
34 27 29 18 32 24 -140 0
34 27 29 18 32 24 -138 0
34 27 29 18 32 24 -136 0
34 27 29 18 32 24 -141 0
34 57 29 50 32 53 -186 0
34 57 29 50 32 53 -181 0
34 57 29 50 32 53 -183 0
34 57 29 50 32 53 -182 0
34 57 29 50 32 53 -184 0
34 57 29 50 32 53 -185 0
34 3 29 4 32 7 -33 0
34 3 29 4 32 7 -36 0
34 3 29 4 32 7 -30 0
34 3 29 4 32 7 -37 0
34 3 29 4 32 7 -28 0
34 3 29 4 32 7 -31 0
27 57 18 50 24 53 -149 0
27 57 18 50 24 53 -153 0
27 57 18 50 24 53 -150 0
27 57 18 50 24 53 -151 0
27 57 18 50 24 53 -152 0
27 57 18 50 24 53 -148 0
27 3 18 4 24 7 -21 0
27 3 18 4 24 7 -19 0
27 3 18 4 24 7 -25 0
27 3 18 4 24 7 -22 0
27 3 18 4 24 7 -23 0
27 3 18 4 24 7 -26 0
57 3 50 4 53 7 -51 0
57 3 50 4 53 7 -56 0
57 3 50 4 53 7 -52 0
57 3 50 4 53 7 -55 0
57 3 50 4 53 7 -48 0
57 3 50 4 53 7 -49 0
11 62 8 60 14 67 16 -120 0
11 62 8 60 14 67 16 -119 0
11 62 8 60 14 67 16 -117 0
11 62 8 60 14 67 16 -118 0
11 62 8 60 14 67 16 -115 0
11 62 8 60 14 67 16 -116 0
11 62 8 60 14 67 66 -120 0
11 62 8 60 14 67 66 -119 0
11 62 8 60 14 67 66 -117 0
11 62 8 60 14 67 66 -118 0
11 62 8 60 14 67 66 -115 0
11 62 8 60 14 67 66 -116 0
11 62 8 60 14 16 66 -120 0
11 62 8 60 14 16 66 -119 0
11 62 8 60 14 16 66 -117 0
11 62 8 60 14 16 66 -118 0
11 62 8 60 14 16 66 -115 0
11 62 8 60 14 16 66 -116 0
11 62 8 60 67 16 66 -120 0
11 62 8 60 67 16 66 -119 0
11 62 8 60 67 16 66 -117 0
11 62 8 60 67 16 66 -118 0
11 62 8 60 67 16 66 -115 0
11 62 8 60 67 16 66 -116 0
11 62 8 14 67 16 66 -120 0
11 62 8 14 67 16 66 -119 0
11 62 8 14 67 16 66 -117 0
11 62 8 14 67 16 66 -118 0
11 62 8 14 67 16 66 -115 0
11 62 8 14 67 16 66 -116 0
11 62 60 14 67 16 66 -120 0
11 62 60 14 67 16 66 -119 0
11 62 60 14 67 16 66 -117 0
11 62 60 14 67 16 66 -118 0
11 62 60 14 67 16 66 -115 0
11 62 60 14 67 16 66 -116 0
11 71 8 68 14 74 16 -121 0
11 71 8 68 14 74 16 -125 0
11 71 8 68 14 74 16 -122 0
11 71 8 68 14 74 16 -123 0
11 71 8 68 14 74 16 -124 0
11 71 8 68 14 74 16 -126 0
11 71 8 68 14 74 72 -121 0
11 71 8 68 14 74 72 -125 0
11 71 8 68 14 74 72 -122 0
11 71 8 68 14 74 72 -123 0
11 71 8 68 14 74 72 -124 0
11 71 8 68 14 74 72 -126 0
11 71 8 68 14 16 72 -121 0
11 71 8 68 14 16 72 -125 0
11 71 8 68 14 16 72 -122 0
11 71 8 68 14 16 72 -123 0
11 71 8 68 14 16 72 -124 0
11 71 8 68 14 16 72 -126 0
11 71 8 68 74 16 72 -121 0
11 71 8 68 74 16 72 -125 0
11 71 8 68 74 16 72 -122 0
11 71 8 68 74 16 72 -123 0
11 71 8 68 74 16 72 -124 0
11 71 8 68 74 16 72 -126 0
11 71 8 14 74 16 72 -121 0
11 71 8 14 74 16 72 -125 0
11 71 8 14 74 16 72 -122 0
11 71 8 14 74 16 72 -123 0
11 71 8 14 74 16 72 -124 0
11 71 8 14 74 16 72 -126 0
11 71 68 14 74 16 72 -121 0
11 71 68 14 74 16 72 -125 0
11 71 68 14 74 16 72 -122 0
11 71 68 14 74 16 72 -123 0
11 71 68 14 74 16 72 -124 0
11 71 68 14 74 16 72 -126 0
11 83 8 85 14 81 16 -127 0
11 83 8 85 14 81 16 -130 0
11 83 8 85 14 81 16 -131 0
11 83 8 85 14 81 16 -128 0
11 83 8 85 14 81 16 -132 0
11 83 8 85 14 81 16 -129 0
11 83 8 85 14 81 82 -127 0
11 83 8 85 14 81 82 -130 0
11 83 8 85 14 81 82 -131 0
11 83 8 85 14 81 82 -128 0
11 83 8 85 14 81 82 -132 0
11 83 8 85 14 81 82 -129 0
11 83 8 85 14 16 82 -127 0
11 83 8 85 14 16 82 -130 0
11 83 8 85 14 16 82 -131 0
11 83 8 85 14 16 82 -128 0
11 83 8 85 14 16 82 -132 0
11 83 8 85 14 16 82 -129 0
11 83 8 85 81 16 82 -127 0
11 83 8 85 81 16 82 -130 0
11 83 8 85 81 16 82 -131 0
11 83 8 85 81 16 82 -128 0
11 83 8 85 81 16 82 -132 0
11 83 8 85 81 16 82 -129 0
11 83 8 14 81 16 82 -127 0
11 83 8 14 81 16 82 -130 0
11 83 8 14 81 16 82 -131 0
11 83 8 14 81 16 82 -128 0
11 83 8 14 81 16 82 -132 0
11 83 8 14 81 16 82 -129 0
11 83 85 14 81 16 82 -127 0
11 83 85 14 81 16 82 -130 0
11 83 85 14 81 16 82 -131 0
11 83 85 14 81 16 82 -128 0
11 83 85 14 81 16 82 -132 0
11 83 85 14 81 16 82 -129 0
11 42 8 39 14 41 16 -106 0
11 42 8 39 14 41 16 -104 0
11 42 8 39 14 41 16 -105 0
11 42 8 39 14 41 16 -108 0
11 42 8 39 14 41 16 -107 0
11 42 8 39 14 41 16 -103 0
11 42 8 39 14 41 47 -106 0
11 42 8 39 14 41 47 -104 0
11 42 8 39 14 41 47 -105 0
11 42 8 39 14 41 47 -108 0
11 42 8 39 14 41 47 -107 0
11 42 8 39 14 41 47 -103 0
11 42 8 39 14 16 47 -106 0
11 42 8 39 14 16 47 -104 0
11 42 8 39 14 16 47 -105 0
11 42 8 39 14 16 47 -108 0
11 42 8 39 14 16 47 -107 0
11 42 8 39 14 16 47 -103 0
11 42 8 39 41 16 47 -106 0
11 42 8 39 41 16 47 -104 0
11 42 8 39 41 16 47 -105 0
11 42 8 39 41 16 47 -108 0
11 42 8 39 41 16 47 -107 0
11 42 8 39 41 16 47 -103 0
11 42 8 14 41 16 47 -106 0
11 42 8 14 41 16 47 -104 0
11 42 8 14 41 16 47 -105 0
11 42 8 14 41 16 47 -108 0
11 42 8 14 41 16 47 -107 0
11 42 8 14 41 16 47 -103 0
11 42 39 14 41 16 47 -106 0
11 42 39 14 41 16 47 -104 0
11 42 39 14 41 16 47 -105 0
11 42 39 14 41 16 47 -108 0
11 42 39 14 41 16 47 -107 0
11 42 39 14 41 16 47 -103 0
11 35 8 34 14 29 16 -102 0
11 35 8 34 14 29 16 -100 0
11 35 8 34 14 29 16 -101 0
11 35 8 34 14 29 16 -98 0
11 35 8 34 14 29 16 -99 0
11 35 8 34 14 29 16 -97 0
11 35 8 34 14 29 32 -102 0
11 35 8 34 14 29 32 -100 0
11 35 8 34 14 29 32 -101 0
11 35 8 34 14 29 32 -98 0
11 35 8 34 14 29 32 -99 0
11 35 8 34 14 29 32 -97 0
11 35 8 34 14 16 32 -102 0
11 35 8 34 14 16 32 -100 0
11 35 8 34 14 16 32 -101 0
11 35 8 34 14 16 32 -98 0
11 35 8 34 14 16 32 -99 0
11 35 8 34 14 16 32 -97 0
11 35 8 34 29 16 32 -102 0
11 35 8 34 29 16 32 -100 0
11 35 8 34 29 16 32 -101 0
11 35 8 34 29 16 32 -98 0
11 35 8 34 29 16 32 -99 0
11 35 8 34 29 16 32 -97 0
11 35 8 14 29 16 32 -102 0
11 35 8 14 29 16 32 -100 0
11 35 8 14 29 16 32 -101 0
11 35 8 14 29 16 32 -98 0
11 35 8 14 29 16 32 -99 0
11 35 8 14 29 16 32 -97 0
11 35 34 14 29 16 32 -102 0
11 35 34 14 29 16 32 -100 0
11 35 34 14 29 16 32 -101 0
11 35 34 14 29 16 32 -98 0
11 35 34 14 29 16 32 -99 0
11 35 34 14 29 16 32 -97 0
11 20 8 27 14 18 16 -95 0
11 20 8 27 14 18 16 -96 0
11 20 8 27 14 18 16 -93 0
11 20 8 27 14 18 16 -94 0
11 20 8 27 14 18 16 -92 0
11 20 8 27 14 18 16 -91 0
11 20 8 27 14 18 24 -95 0
11 20 8 27 14 18 24 -96 0
11 20 8 27 14 18 24 -93 0
11 20 8 27 14 18 24 -94 0
11 20 8 27 14 18 24 -92 0
11 20 8 27 14 18 24 -91 0
11 20 8 27 14 16 24 -95 0
11 20 8 27 14 16 24 -96 0
11 20 8 27 14 16 24 -93 0
11 20 8 27 14 16 24 -94 0
11 20 8 27 14 16 24 -92 0
11 20 8 27 14 16 24 -91 0
11 20 8 27 18 16 24 -95 0
11 20 8 27 18 16 24 -96 0
11 20 8 27 18 16 24 -93 0
11 20 8 27 18 16 24 -94 0
11 20 8 27 18 16 24 -92 0
11 20 8 27 18 16 24 -91 0
11 20 8 14 18 16 24 -95 0
11 20 8 14 18 16 24 -96 0
11 20 8 14 18 16 24 -93 0
11 20 8 14 18 16 24 -94 0
11 20 8 14 18 16 24 -92 0
11 20 8 14 18 16 24 -91 0
11 20 27 14 18 16 24 -95 0
11 20 27 14 18 16 24 -96 0
11 20 27 14 18 16 24 -93 0
11 20 27 14 18 16 24 -94 0
11 20 27 14 18 16 24 -92 0
11 20 27 14 18 16 24 -91 0
11 54 8 57 14 50 16 -110 0
11 54 8 57 14 50 16 -114 0
11 54 8 57 14 50 16 -111 0
11 54 8 57 14 50 16 -112 0
11 54 8 57 14 50 16 -113 0
11 54 8 57 14 50 16 -109 0
11 54 8 57 14 50 53 -110 0
11 54 8 57 14 50 53 -114 0
11 54 8 57 14 50 53 -111 0
11 54 8 57 14 50 53 -112 0
11 54 8 57 14 50 53 -113 0
11 54 8 57 14 50 53 -109 0
11 54 8 57 14 16 53 -110 0
11 54 8 57 14 16 53 -114 0
11 54 8 57 14 16 53 -111 0
11 54 8 57 14 16 53 -112 0
11 54 8 57 14 16 53 -113 0
11 54 8 57 14 16 53 -109 0
11 54 8 57 50 16 53 -110 0
11 54 8 57 50 16 53 -114 0
11 54 8 57 50 16 53 -111 0
11 54 8 57 50 16 53 -112 0
11 54 8 57 50 16 53 -113 0
11 54 8 57 50 16 53 -109 0
11 54 8 14 50 16 53 -110 0
11 54 8 14 50 16 53 -114 0
11 54 8 14 50 16 53 -111 0
11 54 8 14 50 16 53 -112 0
11 54 8 14 50 16 53 -113 0
11 54 8 14 50 16 53 -109 0
11 54 57 14 50 16 53 -110 0
11 54 57 14 50 16 53 -114 0
11 54 57 14 50 16 53 -111 0
11 54 57 14 50 16 53 -112 0
11 54 57 14 50 16 53 -113 0
11 54 57 14 50 16 53 -109 0
11 5 8 3 14 4 16 -9 0
11 5 8 3 14 4 16 -15 0
11 5 8 3 14 4 16 -10 0
11 5 8 3 14 4 16 -17 0
11 5 8 3 14 4 16 -13 0
11 5 8 3 14 4 16 -12 0
11 5 8 3 14 4 7 -9 0
11 5 8 3 14 4 7 -15 0
11 5 8 3 14 4 7 -10 0
11 5 8 3 14 4 7 -17 0
11 5 8 3 14 4 7 -13 0
11 5 8 3 14 4 7 -12 0
11 5 8 3 14 16 7 -9 0
11 5 8 3 14 16 7 -15 0
11 5 8 3 14 16 7 -10 0
11 5 8 3 14 16 7 -17 0
11 5 8 3 14 16 7 -13 0
11 5 8 3 14 16 7 -12 0
11 5 8 3 4 16 7 -9 0
11 5 8 3 4 16 7 -15 0
11 5 8 3 4 16 7 -10 0
11 5 8 3 4 16 7 -17 0
11 5 8 3 4 16 7 -13 0
11 5 8 3 4 16 7 -12 0
11 5 8 14 4 16 7 -9 0
11 5 8 14 4 16 7 -15 0
11 5 8 14 4 16 7 -10 0
11 5 8 14 4 16 7 -17 0
11 5 8 14 4 16 7 -13 0
11 5 8 14 4 16 7 -12 0
11 5 3 14 4 16 7 -9 0
11 5 3 14 4 16 7 -15 0
11 5 3 14 4 16 7 -10 0
11 5 3 14 4 16 7 -17 0
11 5 3 14 4 16 7 -13 0
11 5 3 14 4 16 7 -12 0
11 8 60 14 67 16 66 -120 0
11 8 60 14 67 16 66 -119 0
11 8 60 14 67 16 66 -117 0
11 8 60 14 67 16 66 -118 0
11 8 60 14 67 16 66 -115 0
11 8 60 14 67 16 66 -116 0
11 8 68 14 74 16 72 -121 0
11 8 68 14 74 16 72 -125 0
11 8 68 14 74 16 72 -122 0
11 8 68 14 74 16 72 -123 0
11 8 68 14 74 16 72 -124 0
11 8 68 14 74 16 72 -126 0
11 8 85 14 81 16 82 -127 0
11 8 85 14 81 16 82 -130 0
11 8 85 14 81 16 82 -131 0
11 8 85 14 81 16 82 -128 0
11 8 85 14 81 16 82 -132 0
11 8 85 14 81 16 82 -129 0
11 8 39 14 41 16 47 -106 0
11 8 39 14 41 16 47 -104 0
11 8 39 14 41 16 47 -105 0
11 8 39 14 41 16 47 -108 0
11 8 39 14 41 16 47 -107 0
11 8 39 14 41 16 47 -103 0
11 8 34 14 29 16 32 -102 0
11 8 34 14 29 16 32 -100 0
11 8 34 14 29 16 32 -101 0
11 8 34 14 29 16 32 -98 0
11 8 34 14 29 16 32 -99 0
11 8 34 14 29 16 32 -97 0
11 8 27 14 18 16 24 -95 0
11 8 27 14 18 16 24 -96 0
11 8 27 14 18 16 24 -93 0
11 8 27 14 18 16 24 -94 0
11 8 27 14 18 16 24 -92 0
11 8 27 14 18 16 24 -91 0
11 8 57 14 50 16 53 -110 0
11 8 57 14 50 16 53 -114 0
11 8 57 14 50 16 53 -111 0
11 8 57 14 50 16 53 -112 0
11 8 57 14 50 16 53 -113 0
11 8 57 14 50 16 53 -109 0
11 8 3 14 4 16 7 -9 0
11 8 3 14 4 16 7 -15 0
11 8 3 14 4 16 7 -10 0
11 8 3 14 4 16 7 -17 0
11 8 3 14 4 16 7 -13 0
11 8 3 14 4 16 7 -12 0
62 71 60 68 67 74 66 -261 0
62 71 60 68 67 74 66 -256 0
62 71 60 68 67 74 66 -259 0
62 71 60 68 67 74 66 -260 0
62 71 60 68 67 74 66 -258 0
62 71 60 68 67 74 66 -257 0
62 71 60 68 67 74 72 -261 0
62 71 60 68 67 74 72 -256 0
62 71 60 68 67 74 72 -259 0
62 71 60 68 67 74 72 -260 0
62 71 60 68 67 74 72 -258 0
62 71 60 68 67 74 72 -257 0
62 71 60 68 67 66 72 -261 0
62 71 60 68 67 66 72 -256 0
62 71 60 68 67 66 72 -259 0
62 71 60 68 67 66 72 -260 0
62 71 60 68 67 66 72 -258 0
62 71 60 68 67 66 72 -257 0
62 71 60 68 74 66 72 -261 0
62 71 60 68 74 66 72 -256 0
62 71 60 68 74 66 72 -259 0
62 71 60 68 74 66 72 -260 0
62 71 60 68 74 66 72 -258 0
62 71 60 68 74 66 72 -257 0
62 71 60 67 74 66 72 -261 0
62 71 60 67 74 66 72 -256 0
62 71 60 67 74 66 72 -259 0
62 71 60 67 74 66 72 -260 0
62 71 60 67 74 66 72 -258 0
62 71 60 67 74 66 72 -257 0
62 71 68 67 74 66 72 -261 0
62 71 68 67 74 66 72 -256 0
62 71 68 67 74 66 72 -259 0
62 71 68 67 74 66 72 -260 0
62 71 68 67 74 66 72 -258 0
62 71 68 67 74 66 72 -257 0
62 83 60 85 67 81 66 -266 0
62 83 60 85 67 81 66 -263 0
62 83 60 85 67 81 66 -265 0
62 83 60 85 67 81 66 -267 0
62 83 60 85 67 81 66 -262 0
62 83 60 85 67 81 66 -264 0
62 83 60 85 67 81 82 -266 0
62 83 60 85 67 81 82 -263 0
62 83 60 85 67 81 82 -265 0
62 83 60 85 67 81 82 -267 0
62 83 60 85 67 81 82 -262 0
62 83 60 85 67 81 82 -264 0
62 83 60 85 67 66 82 -266 0
62 83 60 85 67 66 82 -263 0
62 83 60 85 67 66 82 -265 0
62 83 60 85 67 66 82 -267 0
62 83 60 85 67 66 82 -262 0
62 83 60 85 67 66 82 -264 0
62 83 60 85 81 66 82 -266 0
62 83 60 85 81 66 82 -263 0
62 83 60 85 81 66 82 -265 0
62 83 60 85 81 66 82 -267 0
62 83 60 85 81 66 82 -262 0
62 83 60 85 81 66 82 -264 0
62 83 60 67 81 66 82 -266 0
62 83 60 67 81 66 82 -263 0
62 83 60 67 81 66 82 -265 0
62 83 60 67 81 66 82 -267 0
62 83 60 67 81 66 82 -262 0
62 83 60 67 81 66 82 -264 0
62 83 85 67 81 66 82 -266 0
62 83 85 67 81 66 82 -263 0
62 83 85 67 81 66 82 -265 0
62 83 85 67 81 66 82 -267 0
62 83 85 67 81 66 82 -262 0
62 83 85 67 81 66 82 -264 0
62 42 60 39 67 41 66 -214 0
62 42 60 39 67 41 66 -215 0
62 42 60 39 67 41 66 -219 0
62 42 60 39 67 41 66 -216 0
62 42 60 39 67 41 66 -217 0
62 42 60 39 67 41 66 -218 0
62 42 60 39 67 41 47 -214 0
62 42 60 39 67 41 47 -215 0
62 42 60 39 67 41 47 -219 0
62 42 60 39 67 41 47 -216 0
62 42 60 39 67 41 47 -217 0
62 42 60 39 67 41 47 -218 0
62 42 60 39 67 66 47 -214 0
62 42 60 39 67 66 47 -215 0
62 42 60 39 67 66 47 -219 0
62 42 60 39 67 66 47 -216 0
62 42 60 39 67 66 47 -217 0
62 42 60 39 67 66 47 -218 0
62 42 60 39 41 66 47 -214 0
62 42 60 39 41 66 47 -215 0
62 42 60 39 41 66 47 -219 0
62 42 60 39 41 66 47 -216 0
62 42 60 39 41 66 47 -217 0
62 42 60 39 41 66 47 -218 0
62 42 60 67 41 66 47 -214 0
62 42 60 67 41 66 47 -215 0
62 42 60 67 41 66 47 -219 0
62 42 60 67 41 66 47 -216 0
62 42 60 67 41 66 47 -217 0
62 42 60 67 41 66 47 -218 0
62 42 39 67 41 66 47 -214 0
62 42 39 67 41 66 47 -215 0
62 42 39 67 41 66 47 -219 0
62 42 39 67 41 66 47 -216 0
62 42 39 67 41 66 47 -217 0
62 42 39 67 41 66 47 -218 0
62 35 60 34 67 29 66 -188 0
62 35 60 34 67 29 66 -191 0
62 35 60 34 67 29 66 -190 0
62 35 60 34 67 29 66 -192 0
62 35 60 34 67 29 66 -187 0
62 35 60 34 67 29 66 -189 0
62 35 60 34 67 29 32 -188 0
62 35 60 34 67 29 32 -191 0
62 35 60 34 67 29 32 -190 0
62 35 60 34 67 29 32 -192 0
62 35 60 34 67 29 32 -187 0
62 35 60 34 67 29 32 -189 0
62 35 60 34 67 66 32 -188 0
62 35 60 34 67 66 32 -191 0
62 35 60 34 67 66 32 -190 0
62 35 60 34 67 66 32 -192 0
62 35 60 34 67 66 32 -187 0
62 35 60 34 67 66 32 -189 0
62 35 60 34 29 66 32 -188 0
62 35 60 34 29 66 32 -191 0
62 35 60 34 29 66 32 -190 0
62 35 60 34 29 66 32 -192 0
62 35 60 34 29 66 32 -187 0
62 35 60 34 29 66 32 -189 0
62 35 60 67 29 66 32 -188 0
62 35 60 67 29 66 32 -191 0
62 35 60 67 29 66 32 -190 0
62 35 60 67 29 66 32 -192 0
62 35 60 67 29 66 32 -187 0
62 35 60 67 29 66 32 -189 0
62 35 34 67 29 66 32 -188 0
62 35 34 67 29 66 32 -191 0
62 35 34 67 29 66 32 -190 0
62 35 34 67 29 66 32 -192 0
62 35 34 67 29 66 32 -187 0
62 35 34 67 29 66 32 -189 0
62 20 60 27 67 18 66 -157 0
62 20 60 27 67 18 66 -154 0
62 20 60 27 67 18 66 -156 0
62 20 60 27 67 18 66 -155 0
62 20 60 27 67 18 66 -158 0
62 20 60 27 67 18 66 -159 0
62 20 60 27 67 18 24 -157 0
62 20 60 27 67 18 24 -154 0
62 20 60 27 67 18 24 -156 0
62 20 60 27 67 18 24 -155 0
62 20 60 27 67 18 24 -158 0
62 20 60 27 67 18 24 -159 0
62 20 60 27 67 66 24 -157 0
62 20 60 27 67 66 24 -154 0
62 20 60 27 67 66 24 -156 0
62 20 60 27 67 66 24 -155 0
62 20 60 27 67 66 24 -158 0
62 20 60 27 67 66 24 -159 0
62 20 60 27 18 66 24 -157 0
62 20 60 27 18 66 24 -154 0
62 20 60 27 18 66 24 -156 0
62 20 60 27 18 66 24 -155 0
62 20 60 27 18 66 24 -158 0
62 20 60 27 18 66 24 -159 0
62 20 60 67 18 66 24 -157 0
62 20 60 67 18 66 24 -154 0
62 20 60 67 18 66 24 -156 0
62 20 60 67 18 66 24 -155 0
62 20 60 67 18 66 24 -158 0
62 20 60 67 18 66 24 -159 0
62 20 27 67 18 66 24 -157 0
62 20 27 67 18 66 24 -154 0
62 20 27 67 18 66 24 -156 0
62 20 27 67 18 66 24 -155 0
62 20 27 67 18 66 24 -158 0
62 20 27 67 18 66 24 -159 0
62 54 60 57 67 50 66 -237 0
62 54 60 57 67 50 66 -238 0
62 54 60 57 67 50 66 -235 0
62 54 60 57 67 50 66 -239 0
62 54 60 57 67 50 66 -240 0
62 54 60 57 67 50 66 -236 0
62 54 60 57 67 50 53 -237 0
62 54 60 57 67 50 53 -238 0
62 54 60 57 67 50 53 -235 0
62 54 60 57 67 50 53 -239 0
62 54 60 57 67 50 53 -240 0
62 54 60 57 67 50 53 -236 0
62 54 60 57 67 66 53 -237 0
62 54 60 57 67 66 53 -238 0
62 54 60 57 67 66 53 -235 0
62 54 60 57 67 66 53 -239 0
62 54 60 57 67 66 53 -240 0
62 54 60 57 67 66 53 -236 0
62 54 60 57 50 66 53 -237 0
62 54 60 57 50 66 53 -238 0
62 54 60 57 50 66 53 -235 0
62 54 60 57 50 66 53 -239 0
62 54 60 57 50 66 53 -240 0
62 54 60 57 50 66 53 -236 0
62 54 60 67 50 66 53 -237 0
62 54 60 67 50 66 53 -238 0
62 54 60 67 50 66 53 -235 0
62 54 60 67 50 66 53 -239 0
62 54 60 67 50 66 53 -240 0
62 54 60 67 50 66 53 -236 0
62 54 57 67 50 66 53 -237 0
62 54 57 67 50 66 53 -238 0
62 54 57 67 50 66 53 -235 0
62 54 57 67 50 66 53 -239 0
62 54 57 67 50 66 53 -240 0
62 54 57 67 50 66 53 -236 0
62 5 60 3 67 4 66 -64 0
62 5 60 3 67 4 66 -59 0
62 5 60 3 67 4 66 -65 0
62 5 60 3 67 4 66 -61 0
62 5 60 3 67 4 66 -63 0
62 5 60 3 67 4 66 -58 0
62 5 60 3 67 4 7 -64 0
62 5 60 3 67 4 7 -59 0
62 5 60 3 67 4 7 -65 0
62 5 60 3 67 4 7 -61 0
62 5 60 3 67 4 7 -63 0
62 5 60 3 67 4 7 -58 0
62 5 60 3 67 66 7 -64 0
62 5 60 3 67 66 7 -59 0
62 5 60 3 67 66 7 -65 0
62 5 60 3 67 66 7 -61 0
62 5 60 3 67 66 7 -63 0
62 5 60 3 67 66 7 -58 0
62 5 60 3 4 66 7 -64 0
62 5 60 3 4 66 7 -59 0
62 5 60 3 4 66 7 -65 0
62 5 60 3 4 66 7 -61 0
62 5 60 3 4 66 7 -63 0
62 5 60 3 4 66 7 -58 0
62 5 60 67 4 66 7 -64 0
62 5 60 67 4 66 7 -59 0
62 5 60 67 4 66 7 -65 0
62 5 60 67 4 66 7 -61 0
62 5 60 67 4 66 7 -63 0
62 5 60 67 4 66 7 -58 0
62 5 3 67 4 66 7 -64 0
62 5 3 67 4 66 7 -59 0
62 5 3 67 4 66 7 -65 0
62 5 3 67 4 66 7 -61 0
62 5 3 67 4 66 7 -63 0
62 5 3 67 4 66 7 -58 0
62 8 60 14 67 16 66 -120 0
62 8 60 14 67 16 66 -119 0
62 8 60 14 67 16 66 -117 0
62 8 60 14 67 16 66 -118 0
62 8 60 14 67 16 66 -115 0
62 8 60 14 67 16 66 -116 0
62 60 68 67 74 66 72 -261 0
62 60 68 67 74 66 72 -256 0
62 60 68 67 74 66 72 -259 0
62 60 68 67 74 66 72 -260 0
62 60 68 67 74 66 72 -258 0
62 60 68 67 74 66 72 -257 0
62 60 85 67 81 66 82 -266 0
62 60 85 67 81 66 82 -263 0
62 60 85 67 81 66 82 -265 0
62 60 85 67 81 66 82 -267 0
62 60 85 67 81 66 82 -262 0
62 60 85 67 81 66 82 -264 0
62 60 39 67 41 66 47 -214 0
62 60 39 67 41 66 47 -215 0
62 60 39 67 41 66 47 -219 0
62 60 39 67 41 66 47 -216 0
62 60 39 67 41 66 47 -217 0
62 60 39 67 41 66 47 -218 0
62 60 34 67 29 66 32 -188 0
62 60 34 67 29 66 32 -191 0
62 60 34 67 29 66 32 -190 0
62 60 34 67 29 66 32 -192 0
62 60 34 67 29 66 32 -187 0
62 60 34 67 29 66 32 -189 0
62 60 27 67 18 66 24 -157 0
62 60 27 67 18 66 24 -154 0
62 60 27 67 18 66 24 -156 0
62 60 27 67 18 66 24 -155 0
62 60 27 67 18 66 24 -158 0
62 60 27 67 18 66 24 -159 0
62 60 57 67 50 66 53 -237 0
62 60 57 67 50 66 53 -238 0
62 60 57 67 50 66 53 -235 0
62 60 57 67 50 66 53 -239 0
62 60 57 67 50 66 53 -240 0
62 60 57 67 50 66 53 -236 0
62 60 3 67 4 66 7 -64 0
62 60 3 67 4 66 7 -59 0
62 60 3 67 4 66 7 -65 0
62 60 3 67 4 66 7 -61 0
62 60 3 67 4 66 7 -63 0
62 60 3 67 4 66 7 -58 0
71 83 68 85 74 81 72 -276 0
71 83 68 85 74 81 72 -274 0
71 83 68 85 74 81 72 -271 0
71 83 68 85 74 81 72 -272 0
71 83 68 85 74 81 72 -275 0
71 83 68 85 74 81 72 -273 0
71 83 68 85 74 81 82 -276 0
71 83 68 85 74 81 82 -274 0
71 83 68 85 74 81 82 -271 0
71 83 68 85 74 81 82 -272 0
71 83 68 85 74 81 82 -275 0
71 83 68 85 74 81 82 -273 0
71 83 68 85 74 72 82 -276 0
71 83 68 85 74 72 82 -274 0
71 83 68 85 74 72 82 -271 0
71 83 68 85 74 72 82 -272 0
71 83 68 85 74 72 82 -275 0
71 83 68 85 74 72 82 -273 0
71 83 68 85 81 72 82 -276 0
71 83 68 85 81 72 82 -274 0
71 83 68 85 81 72 82 -271 0
71 83 68 85 81 72 82 -272 0
71 83 68 85 81 72 82 -275 0
71 83 68 85 81 72 82 -273 0
71 83 68 74 81 72 82 -276 0
71 83 68 74 81 72 82 -274 0
71 83 68 74 81 72 82 -271 0
71 83 68 74 81 72 82 -272 0
71 83 68 74 81 72 82 -275 0
71 83 68 74 81 72 82 -273 0
71 83 85 74 81 72 82 -276 0
71 83 85 74 81 72 82 -274 0
71 83 85 74 81 72 82 -271 0
71 83 85 74 81 72 82 -272 0
71 83 85 74 81 72 82 -275 0
71 83 85 74 81 72 82 -273 0
71 42 68 39 74 41 72 -222 0
71 42 68 39 74 41 72 -224 0
71 42 68 39 74 41 72 -223 0
71 42 68 39 74 41 72 -225 0
71 42 68 39 74 41 72 -220 0
71 42 68 39 74 41 72 -221 0
71 42 68 39 74 41 47 -222 0
71 42 68 39 74 41 47 -224 0
71 42 68 39 74 41 47 -223 0
71 42 68 39 74 41 47 -225 0
71 42 68 39 74 41 47 -220 0
71 42 68 39 74 41 47 -221 0
71 42 68 39 74 72 47 -222 0
71 42 68 39 74 72 47 -224 0
71 42 68 39 74 72 47 -223 0
71 42 68 39 74 72 47 -225 0
71 42 68 39 74 72 47 -220 0
71 42 68 39 74 72 47 -221 0
71 42 68 39 41 72 47 -222 0
71 42 68 39 41 72 47 -224 0
71 42 68 39 41 72 47 -223 0
71 42 68 39 41 72 47 -225 0
71 42 68 39 41 72 47 -220 0
71 42 68 39 41 72 47 -221 0
71 42 68 74 41 72 47 -222 0
71 42 68 74 41 72 47 -224 0
71 42 68 74 41 72 47 -223 0
71 42 68 74 41 72 47 -225 0
71 42 68 74 41 72 47 -220 0
71 42 68 74 41 72 47 -221 0
71 42 39 74 41 72 47 -222 0
71 42 39 74 41 72 47 -224 0
71 42 39 74 41 72 47 -223 0
71 42 39 74 41 72 47 -225 0
71 42 39 74 41 72 47 -220 0
71 42 39 74 41 72 47 -221 0
71 35 68 34 74 29 72 -193 0
71 35 68 34 74 29 72 -195 0
71 35 68 34 74 29 72 -198 0
71 35 68 34 74 29 72 -194 0
71 35 68 34 74 29 72 -196 0
71 35 68 34 74 29 72 -197 0
71 35 68 34 74 29 32 -193 0
71 35 68 34 74 29 32 -195 0
71 35 68 34 74 29 32 -198 0
71 35 68 34 74 29 32 -194 0
71 35 68 34 74 29 32 -196 0
71 35 68 34 74 29 32 -197 0
71 35 68 34 74 72 32 -193 0
71 35 68 34 74 72 32 -195 0
71 35 68 34 74 72 32 -198 0
71 35 68 34 74 72 32 -194 0
71 35 68 34 74 72 32 -196 0
71 35 68 34 74 72 32 -197 0
71 35 68 34 29 72 32 -193 0
71 35 68 34 29 72 32 -195 0
71 35 68 34 29 72 32 -198 0
71 35 68 34 29 72 32 -194 0
71 35 68 34 29 72 32 -196 0
71 35 68 34 29 72 32 -197 0
71 35 68 74 29 72 32 -193 0
71 35 68 74 29 72 32 -195 0
71 35 68 74 29 72 32 -198 0
71 35 68 74 29 72 32 -194 0
71 35 68 74 29 72 32 -196 0
71 35 68 74 29 72 32 -197 0
71 35 34 74 29 72 32 -193 0
71 35 34 74 29 72 32 -195 0
71 35 34 74 29 72 32 -198 0
71 35 34 74 29 72 32 -194 0
71 35 34 74 29 72 32 -196 0
71 35 34 74 29 72 32 -197 0
71 20 68 27 74 18 72 -165 0
71 20 68 27 74 18 72 -163 0
71 20 68 27 74 18 72 -162 0
71 20 68 27 74 18 72 -164 0
71 20 68 27 74 18 72 -161 0
71 20 68 27 74 18 72 -160 0
71 20 68 27 74 18 24 -165 0
71 20 68 27 74 18 24 -163 0
71 20 68 27 74 18 24 -162 0
71 20 68 27 74 18 24 -164 0
71 20 68 27 74 18 24 -161 0
71 20 68 27 74 18 24 -160 0
71 20 68 27 74 72 24 -165 0
71 20 68 27 74 72 24 -163 0
71 20 68 27 74 72 24 -162 0
71 20 68 27 74 72 24 -164 0
71 20 68 27 74 72 24 -161 0
71 20 68 27 74 72 24 -160 0
71 20 68 27 18 72 24 -165 0
71 20 68 27 18 72 24 -163 0
71 20 68 27 18 72 24 -162 0
71 20 68 27 18 72 24 -164 0
71 20 68 27 18 72 24 -161 0
71 20 68 27 18 72 24 -160 0
71 20 68 74 18 72 24 -165 0
71 20 68 74 18 72 24 -163 0
71 20 68 74 18 72 24 -162 0
71 20 68 74 18 72 24 -164 0
71 20 68 74 18 72 24 -161 0
71 20 68 74 18 72 24 -160 0
71 20 27 74 18 72 24 -165 0
71 20 27 74 18 72 24 -163 0
71 20 27 74 18 72 24 -162 0
71 20 27 74 18 72 24 -164 0
71 20 27 74 18 72 24 -161 0
71 20 27 74 18 72 24 -160 0
71 54 68 57 74 50 72 -245 0
71 54 68 57 74 50 72 -243 0
71 54 68 57 74 50 72 -246 0
71 54 68 57 74 50 72 -244 0
71 54 68 57 74 50 72 -241 0
71 54 68 57 74 50 72 -242 0
71 54 68 57 74 50 53 -245 0
71 54 68 57 74 50 53 -243 0
71 54 68 57 74 50 53 -246 0
71 54 68 57 74 50 53 -244 0
71 54 68 57 74 50 53 -241 0
71 54 68 57 74 50 53 -242 0
71 54 68 57 74 72 53 -245 0
71 54 68 57 74 72 53 -243 0
71 54 68 57 74 72 53 -246 0
71 54 68 57 74 72 53 -244 0
71 54 68 57 74 72 53 -241 0
71 54 68 57 74 72 53 -242 0
71 54 68 57 50 72 53 -245 0
71 54 68 57 50 72 53 -243 0
71 54 68 57 50 72 53 -246 0
71 54 68 57 50 72 53 -244 0
71 54 68 57 50 72 53 -241 0
71 54 68 57 50 72 53 -242 0
71 54 68 74 50 72 53 -245 0
71 54 68 74 50 72 53 -243 0
71 54 68 74 50 72 53 -246 0
71 54 68 74 50 72 53 -244 0
71 54 68 74 50 72 53 -241 0
71 54 68 74 50 72 53 -242 0
71 54 57 74 50 72 53 -245 0
71 54 57 74 50 72 53 -243 0
71 54 57 74 50 72 53 -246 0
71 54 57 74 50 72 53 -244 0
71 54 57 74 50 72 53 -241 0
71 54 57 74 50 72 53 -242 0
71 5 68 3 74 4 72 -77 0
71 5 68 3 74 4 72 -69 0
71 5 68 3 74 4 72 -70 0
71 5 68 3 74 4 72 -76 0
71 5 68 3 74 4 72 -75 0
71 5 68 3 74 4 72 -73 0
71 5 68 3 74 4 7 -77 0
71 5 68 3 74 4 7 -69 0
71 5 68 3 74 4 7 -70 0
71 5 68 3 74 4 7 -76 0
71 5 68 3 74 4 7 -75 0
71 5 68 3 74 4 7 -73 0
71 5 68 3 74 72 7 -77 0
71 5 68 3 74 72 7 -69 0
71 5 68 3 74 72 7 -70 0
71 5 68 3 74 72 7 -76 0
71 5 68 3 74 72 7 -75 0
71 5 68 3 74 72 7 -73 0
71 5 68 3 4 72 7 -77 0
71 5 68 3 4 72 7 -69 0
71 5 68 3 4 72 7 -70 0
71 5 68 3 4 72 7 -76 0
71 5 68 3 4 72 7 -75 0
71 5 68 3 4 72 7 -73 0
71 5 68 74 4 72 7 -77 0
71 5 68 74 4 72 7 -69 0
71 5 68 74 4 72 7 -70 0
71 5 68 74 4 72 7 -76 0
71 5 68 74 4 72 7 -75 0
71 5 68 74 4 72 7 -73 0
71 5 3 74 4 72 7 -77 0
71 5 3 74 4 72 7 -69 0
71 5 3 74 4 72 7 -70 0
71 5 3 74 4 72 7 -76 0
71 5 3 74 4 72 7 -75 0
71 5 3 74 4 72 7 -73 0
71 8 68 14 74 16 72 -121 0
71 8 68 14 74 16 72 -125 0
71 8 68 14 74 16 72 -122 0
71 8 68 14 74 16 72 -123 0
71 8 68 14 74 16 72 -124 0
71 8 68 14 74 16 72 -126 0
71 60 68 67 74 66 72 -261 0
71 60 68 67 74 66 72 -256 0
71 60 68 67 74 66 72 -259 0
71 60 68 67 74 66 72 -260 0
71 60 68 67 74 66 72 -258 0
71 60 68 67 74 66 72 -257 0
71 68 85 74 81 72 82 -276 0
71 68 85 74 81 72 82 -274 0
71 68 85 74 81 72 82 -271 0
71 68 85 74 81 72 82 -272 0
71 68 85 74 81 72 82 -275 0
71 68 85 74 81 72 82 -273 0
71 68 39 74 41 72 47 -222 0
71 68 39 74 41 72 47 -224 0
71 68 39 74 41 72 47 -223 0
71 68 39 74 41 72 47 -225 0
71 68 39 74 41 72 47 -220 0
71 68 39 74 41 72 47 -221 0
71 68 34 74 29 72 32 -193 0
71 68 34 74 29 72 32 -195 0
71 68 34 74 29 72 32 -198 0
71 68 34 74 29 72 32 -194 0
71 68 34 74 29 72 32 -196 0
71 68 34 74 29 72 32 -197 0
71 68 27 74 18 72 24 -165 0
71 68 27 74 18 72 24 -163 0
71 68 27 74 18 72 24 -162 0
71 68 27 74 18 72 24 -164 0
71 68 27 74 18 72 24 -161 0
71 68 27 74 18 72 24 -160 0
71 68 57 74 50 72 53 -245 0
71 68 57 74 50 72 53 -243 0
71 68 57 74 50 72 53 -246 0
71 68 57 74 50 72 53 -244 0
71 68 57 74 50 72 53 -241 0
71 68 57 74 50 72 53 -242 0
71 68 3 74 4 72 7 -77 0
71 68 3 74 4 72 7 -69 0
71 68 3 74 4 72 7 -70 0
71 68 3 74 4 72 7 -76 0
71 68 3 74 4 72 7 -75 0
71 68 3 74 4 72 7 -73 0
83 42 85 39 81 41 82 -230 0
83 42 85 39 81 41 82 -227 0
83 42 85 39 81 41 82 -226 0
83 42 85 39 81 41 82 -228 0
83 42 85 39 81 41 82 -229 0
83 42 85 39 81 41 82 -231 0
83 42 85 39 81 41 47 -230 0
83 42 85 39 81 41 47 -227 0
83 42 85 39 81 41 47 -226 0
83 42 85 39 81 41 47 -228 0
83 42 85 39 81 41 47 -229 0
83 42 85 39 81 41 47 -231 0
83 42 85 39 81 82 47 -230 0
83 42 85 39 81 82 47 -227 0
83 42 85 39 81 82 47 -226 0
83 42 85 39 81 82 47 -228 0
83 42 85 39 81 82 47 -229 0
83 42 85 39 81 82 47 -231 0
83 42 85 39 41 82 47 -230 0
83 42 85 39 41 82 47 -227 0
83 42 85 39 41 82 47 -226 0
83 42 85 39 41 82 47 -228 0
83 42 85 39 41 82 47 -229 0
83 42 85 39 41 82 47 -231 0
83 42 85 81 41 82 47 -230 0
83 42 85 81 41 82 47 -227 0
83 42 85 81 41 82 47 -226 0
83 42 85 81 41 82 47 -228 0
83 42 85 81 41 82 47 -229 0
83 42 85 81 41 82 47 -231 0
83 42 39 81 41 82 47 -230 0
83 42 39 81 41 82 47 -227 0
83 42 39 81 41 82 47 -226 0
83 42 39 81 41 82 47 -228 0
83 42 39 81 41 82 47 -229 0
83 42 39 81 41 82 47 -231 0
83 35 85 34 81 29 82 -200 0
83 35 85 34 81 29 82 -202 0
83 35 85 34 81 29 82 -199 0
83 35 85 34 81 29 82 -203 0
83 35 85 34 81 29 82 -204 0
83 35 85 34 81 29 82 -201 0
83 35 85 34 81 29 32 -200 0
83 35 85 34 81 29 32 -202 0
83 35 85 34 81 29 32 -199 0
83 35 85 34 81 29 32 -203 0
83 35 85 34 81 29 32 -204 0
83 35 85 34 81 29 32 -201 0
83 35 85 34 81 82 32 -200 0
83 35 85 34 81 82 32 -202 0
83 35 85 34 81 82 32 -199 0
83 35 85 34 81 82 32 -203 0
83 35 85 34 81 82 32 -204 0
83 35 85 34 81 82 32 -201 0
83 35 85 34 29 82 32 -200 0
83 35 85 34 29 82 32 -202 0
83 35 85 34 29 82 32 -199 0
83 35 85 34 29 82 32 -203 0
83 35 85 34 29 82 32 -204 0
83 35 85 34 29 82 32 -201 0
83 35 85 81 29 82 32 -200 0
83 35 85 81 29 82 32 -202 0
83 35 85 81 29 82 32 -199 0
83 35 85 81 29 82 32 -203 0
83 35 85 81 29 82 32 -204 0
83 35 85 81 29 82 32 -201 0
83 35 34 81 29 82 32 -200 0
83 35 34 81 29 82 32 -202 0
83 35 34 81 29 82 32 -199 0
83 35 34 81 29 82 32 -203 0
83 35 34 81 29 82 32 -204 0
83 35 34 81 29 82 32 -201 0
83 20 85 27 81 18 82 -166 0
83 20 85 27 81 18 82 -168 0
83 20 85 27 81 18 82 -167 0
83 20 85 27 81 18 82 -169 0
83 20 85 27 81 18 82 -170 0
83 20 85 27 81 18 82 -171 0
83 20 85 27 81 18 24 -166 0
83 20 85 27 81 18 24 -168 0
83 20 85 27 81 18 24 -167 0
83 20 85 27 81 18 24 -169 0
83 20 85 27 81 18 24 -170 0
83 20 85 27 81 18 24 -171 0
83 20 85 27 81 82 24 -166 0
83 20 85 27 81 82 24 -168 0
83 20 85 27 81 82 24 -167 0
83 20 85 27 81 82 24 -169 0
83 20 85 27 81 82 24 -170 0
83 20 85 27 81 82 24 -171 0
83 20 85 27 18 82 24 -166 0
83 20 85 27 18 82 24 -168 0
83 20 85 27 18 82 24 -167 0
83 20 85 27 18 82 24 -169 0
83 20 85 27 18 82 24 -170 0
83 20 85 27 18 82 24 -171 0
83 20 85 81 18 82 24 -166 0
83 20 85 81 18 82 24 -168 0
83 20 85 81 18 82 24 -167 0
83 20 85 81 18 82 24 -169 0
83 20 85 81 18 82 24 -170 0
83 20 85 81 18 82 24 -171 0
83 20 27 81 18 82 24 -166 0
83 20 27 81 18 82 24 -168 0
83 20 27 81 18 82 24 -167 0
83 20 27 81 18 82 24 -169 0
83 20 27 81 18 82 24 -170 0
83 20 27 81 18 82 24 -171 0
83 54 85 57 81 50 82 -251 0
83 54 85 57 81 50 82 -247 0
83 54 85 57 81 50 82 -252 0
83 54 85 57 81 50 82 -248 0
83 54 85 57 81 50 82 -249 0
83 54 85 57 81 50 82 -250 0
83 54 85 57 81 50 53 -251 0
83 54 85 57 81 50 53 -247 0
83 54 85 57 81 50 53 -252 0
83 54 85 57 81 50 53 -248 0
83 54 85 57 81 50 53 -249 0
83 54 85 57 81 50 53 -250 0
83 54 85 57 81 82 53 -251 0
83 54 85 57 81 82 53 -247 0
83 54 85 57 81 82 53 -252 0
83 54 85 57 81 82 53 -248 0
83 54 85 57 81 82 53 -249 0
83 54 85 57 81 82 53 -250 0
83 54 85 57 50 82 53 -251 0
83 54 85 57 50 82 53 -247 0
83 54 85 57 50 82 53 -252 0
83 54 85 57 50 82 53 -248 0
83 54 85 57 50 82 53 -249 0
83 54 85 57 50 82 53 -250 0
83 54 85 81 50 82 53 -251 0
83 54 85 81 50 82 53 -247 0
83 54 85 81 50 82 53 -252 0
83 54 85 81 50 82 53 -248 0
83 54 85 81 50 82 53 -249 0
83 54 85 81 50 82 53 -250 0
83 54 57 81 50 82 53 -251 0
83 54 57 81 50 82 53 -247 0
83 54 57 81 50 82 53 -252 0
83 54 57 81 50 82 53 -248 0
83 54 57 81 50 82 53 -249 0
83 54 57 81 50 82 53 -250 0
83 5 85 3 81 4 82 -87 0
83 5 85 3 81 4 82 -78 0
83 5 85 3 81 4 82 -86 0
83 5 85 3 81 4 82 -84 0
83 5 85 3 81 4 82 -80 0
83 5 85 3 81 4 82 -79 0
83 5 85 3 81 4 7 -87 0
83 5 85 3 81 4 7 -78 0
83 5 85 3 81 4 7 -86 0
83 5 85 3 81 4 7 -84 0
83 5 85 3 81 4 7 -80 0
83 5 85 3 81 4 7 -79 0
83 5 85 3 81 82 7 -87 0
83 5 85 3 81 82 7 -78 0
83 5 85 3 81 82 7 -86 0
83 5 85 3 81 82 7 -84 0
83 5 85 3 81 82 7 -80 0
83 5 85 3 81 82 7 -79 0
83 5 85 3 4 82 7 -87 0
83 5 85 3 4 82 7 -78 0
83 5 85 3 4 82 7 -86 0
83 5 85 3 4 82 7 -84 0
83 5 85 3 4 82 7 -80 0
83 5 85 3 4 82 7 -79 0
83 5 85 81 4 82 7 -87 0
83 5 85 81 4 82 7 -78 0
83 5 85 81 4 82 7 -86 0
83 5 85 81 4 82 7 -84 0
83 5 85 81 4 82 7 -80 0
83 5 85 81 4 82 7 -79 0
83 5 3 81 4 82 7 -87 0
83 5 3 81 4 82 7 -78 0
83 5 3 81 4 82 7 -86 0
83 5 3 81 4 82 7 -84 0
83 5 3 81 4 82 7 -80 0
83 5 3 81 4 82 7 -79 0
83 8 85 14 81 16 82 -127 0
83 8 85 14 81 16 82 -130 0
83 8 85 14 81 16 82 -131 0
83 8 85 14 81 16 82 -128 0
83 8 85 14 81 16 82 -132 0
83 8 85 14 81 16 82 -129 0
83 60 85 67 81 66 82 -266 0
83 60 85 67 81 66 82 -263 0
83 60 85 67 81 66 82 -265 0
83 60 85 67 81 66 82 -267 0
83 60 85 67 81 66 82 -262 0
83 60 85 67 81 66 82 -264 0
83 68 85 74 81 72 82 -276 0
83 68 85 74 81 72 82 -274 0
83 68 85 74 81 72 82 -271 0
83 68 85 74 81 72 82 -272 0
83 68 85 74 81 72 82 -275 0
83 68 85 74 81 72 82 -273 0
83 85 39 81 41 82 47 -230 0
83 85 39 81 41 82 47 -227 0
83 85 39 81 41 82 47 -226 0
83 85 39 81 41 82 47 -228 0
83 85 39 81 41 82 47 -229 0
83 85 39 81 41 82 47 -231 0
83 85 34 81 29 82 32 -200 0
83 85 34 81 29 82 32 -202 0
83 85 34 81 29 82 32 -199 0
83 85 34 81 29 82 32 -203 0
83 85 34 81 29 82 32 -204 0
83 85 34 81 29 82 32 -201 0
83 85 27 81 18 82 24 -166 0
83 85 27 81 18 82 24 -168 0
83 85 27 81 18 82 24 -167 0
83 85 27 81 18 82 24 -169 0
83 85 27 81 18 82 24 -170 0
83 85 27 81 18 82 24 -171 0
83 85 57 81 50 82 53 -251 0
83 85 57 81 50 82 53 -247 0
83 85 57 81 50 82 53 -252 0
83 85 57 81 50 82 53 -248 0
83 85 57 81 50 82 53 -249 0
83 85 57 81 50 82 53 -250 0
83 85 3 81 4 82 7 -87 0
83 85 3 81 4 82 7 -78 0
83 85 3 81 4 82 7 -86 0
83 85 3 81 4 82 7 -84 0
83 85 3 81 4 82 7 -80 0
83 85 3 81 4 82 7 -79 0
42 35 39 34 41 29 47 -177 0
42 35 39 34 41 29 47 -179 0
42 35 39 34 41 29 47 -176 0
42 35 39 34 41 29 47 -178 0
42 35 39 34 41 29 47 -175 0
42 35 39 34 41 29 47 -180 0
42 35 39 34 41 29 32 -177 0
42 35 39 34 41 29 32 -179 0
42 35 39 34 41 29 32 -176 0
42 35 39 34 41 29 32 -178 0
42 35 39 34 41 29 32 -175 0
42 35 39 34 41 29 32 -180 0
42 35 39 34 41 47 32 -177 0
42 35 39 34 41 47 32 -179 0
42 35 39 34 41 47 32 -176 0
42 35 39 34 41 47 32 -178 0
42 35 39 34 41 47 32 -175 0
42 35 39 34 41 47 32 -180 0
42 35 39 34 29 47 32 -177 0
42 35 39 34 29 47 32 -179 0
42 35 39 34 29 47 32 -176 0
42 35 39 34 29 47 32 -178 0
42 35 39 34 29 47 32 -175 0
42 35 39 34 29 47 32 -180 0
42 35 39 41 29 47 32 -177 0
42 35 39 41 29 47 32 -179 0
42 35 39 41 29 47 32 -176 0
42 35 39 41 29 47 32 -178 0
42 35 39 41 29 47 32 -175 0
42 35 39 41 29 47 32 -180 0
42 35 34 41 29 47 32 -177 0
42 35 34 41 29 47 32 -179 0
42 35 34 41 29 47 32 -176 0
42 35 34 41 29 47 32 -178 0
42 35 34 41 29 47 32 -175 0
42 35 34 41 29 47 32 -180 0
42 20 39 27 41 18 47 -146 0
42 20 39 27 41 18 47 -142 0
42 20 39 27 41 18 47 -147 0
42 20 39 27 41 18 47 -143 0
42 20 39 27 41 18 47 -145 0
42 20 39 27 41 18 47 -144 0
42 20 39 27 41 18 24 -146 0
42 20 39 27 41 18 24 -142 0
42 20 39 27 41 18 24 -147 0
42 20 39 27 41 18 24 -143 0
42 20 39 27 41 18 24 -145 0
42 20 39 27 41 18 24 -144 0
42 20 39 27 41 47 24 -146 0
42 20 39 27 41 47 24 -142 0
42 20 39 27 41 47 24 -147 0
42 20 39 27 41 47 24 -143 0
42 20 39 27 41 47 24 -145 0
42 20 39 27 41 47 24 -144 0
42 20 39 27 18 47 24 -146 0
42 20 39 27 18 47 24 -142 0
42 20 39 27 18 47 24 -147 0
42 20 39 27 18 47 24 -143 0
42 20 39 27 18 47 24 -145 0
42 20 39 27 18 47 24 -144 0
42 20 39 41 18 47 24 -146 0
42 20 39 41 18 47 24 -142 0
42 20 39 41 18 47 24 -147 0
42 20 39 41 18 47 24 -143 0
42 20 39 41 18 47 24 -145 0
42 20 39 41 18 47 24 -144 0
42 20 27 41 18 47 24 -146 0
42 20 27 41 18 47 24 -142 0
42 20 27 41 18 47 24 -147 0
42 20 27 41 18 47 24 -143 0
42 20 27 41 18 47 24 -145 0
42 20 27 41 18 47 24 -144 0
42 54 39 57 41 50 47 -210 0
42 54 39 57 41 50 47 -212 0
42 54 39 57 41 50 47 -209 0
42 54 39 57 41 50 47 -211 0
42 54 39 57 41 50 47 -208 0
42 54 39 57 41 50 47 -213 0
42 54 39 57 41 50 53 -210 0
42 54 39 57 41 50 53 -212 0
42 54 39 57 41 50 53 -209 0
42 54 39 57 41 50 53 -211 0
42 54 39 57 41 50 53 -208 0
42 54 39 57 41 50 53 -213 0
42 54 39 57 41 47 53 -210 0
42 54 39 57 41 47 53 -212 0
42 54 39 57 41 47 53 -209 0
42 54 39 57 41 47 53 -211 0
42 54 39 57 41 47 53 -208 0
42 54 39 57 41 47 53 -213 0
42 54 39 57 50 47 53 -210 0
42 54 39 57 50 47 53 -212 0
42 54 39 57 50 47 53 -209 0
42 54 39 57 50 47 53 -211 0
42 54 39 57 50 47 53 -208 0
42 54 39 57 50 47 53 -213 0
42 54 39 41 50 47 53 -210 0
42 54 39 41 50 47 53 -212 0
42 54 39 41 50 47 53 -209 0
42 54 39 41 50 47 53 -211 0
42 54 39 41 50 47 53 -208 0
42 54 39 41 50 47 53 -213 0
42 54 57 41 50 47 53 -210 0
42 54 57 41 50 47 53 -212 0
42 54 57 41 50 47 53 -209 0
42 54 57 41 50 47 53 -211 0
42 54 57 41 50 47 53 -208 0
42 54 57 41 50 47 53 -213 0
42 5 39 3 41 4 47 -45 0
42 5 39 3 41 4 47 -44 0
42 5 39 3 41 4 47 -40 0
42 5 39 3 41 4 47 -38 0
42 5 39 3 41 4 47 -46 0
42 5 39 3 41 4 47 -43 0
42 5 39 3 41 4 7 -45 0
42 5 39 3 41 4 7 -44 0
42 5 39 3 41 4 7 -40 0
42 5 39 3 41 4 7 -38 0
42 5 39 3 41 4 7 -46 0
42 5 39 3 41 4 7 -43 0
42 5 39 3 41 47 7 -45 0
42 5 39 3 41 47 7 -44 0
42 5 39 3 41 47 7 -40 0
42 5 39 3 41 47 7 -38 0
42 5 39 3 41 47 7 -46 0
42 5 39 3 41 47 7 -43 0
42 5 39 3 4 47 7 -45 0
42 5 39 3 4 47 7 -44 0
42 5 39 3 4 47 7 -40 0
42 5 39 3 4 47 7 -38 0
42 5 39 3 4 47 7 -46 0
42 5 39 3 4 47 7 -43 0
42 5 39 41 4 47 7 -45 0
42 5 39 41 4 47 7 -44 0
42 5 39 41 4 47 7 -40 0
42 5 39 41 4 47 7 -38 0
42 5 39 41 4 47 7 -46 0
42 5 39 41 4 47 7 -43 0
42 5 3 41 4 47 7 -45 0
42 5 3 41 4 47 7 -44 0
42 5 3 41 4 47 7 -40 0
42 5 3 41 4 47 7 -38 0
42 5 3 41 4 47 7 -46 0
42 5 3 41 4 47 7 -43 0
42 8 39 14 41 16 47 -106 0
42 8 39 14 41 16 47 -104 0
42 8 39 14 41 16 47 -105 0
42 8 39 14 41 16 47 -108 0
42 8 39 14 41 16 47 -107 0
42 8 39 14 41 16 47 -103 0
42 60 39 67 41 66 47 -214 0
42 60 39 67 41 66 47 -215 0
42 60 39 67 41 66 47 -219 0
42 60 39 67 41 66 47 -216 0
42 60 39 67 41 66 47 -217 0
42 60 39 67 41 66 47 -218 0
42 68 39 74 41 72 47 -222 0
42 68 39 74 41 72 47 -224 0
42 68 39 74 41 72 47 -223 0
42 68 39 74 41 72 47 -225 0
42 68 39 74 41 72 47 -220 0
42 68 39 74 41 72 47 -221 0
42 85 39 81 41 82 47 -230 0
42 85 39 81 41 82 47 -227 0
42 85 39 81 41 82 47 -226 0
42 85 39 81 41 82 47 -228 0
42 85 39 81 41 82 47 -229 0
42 85 39 81 41 82 47 -231 0
42 39 34 41 29 47 32 -177 0
42 39 34 41 29 47 32 -179 0
42 39 34 41 29 47 32 -176 0
42 39 34 41 29 47 32 -178 0
42 39 34 41 29 47 32 -175 0
42 39 34 41 29 47 32 -180 0
42 39 27 41 18 47 24 -146 0
42 39 27 41 18 47 24 -142 0
42 39 27 41 18 47 24 -147 0
42 39 27 41 18 47 24 -143 0
42 39 27 41 18 47 24 -145 0
42 39 27 41 18 47 24 -144 0
42 39 57 41 50 47 53 -210 0
42 39 57 41 50 47 53 -212 0
42 39 57 41 50 47 53 -209 0
42 39 57 41 50 47 53 -211 0
42 39 57 41 50 47 53 -208 0
42 39 57 41 50 47 53 -213 0
42 39 3 41 4 47 7 -45 0
42 39 3 41 4 47 7 -44 0
42 39 3 41 4 47 7 -40 0
42 39 3 41 4 47 7 -38 0
42 39 3 41 4 47 7 -46 0
42 39 3 41 4 47 7 -43 0
35 20 34 27 29 18 32 -139 0
35 20 34 27 29 18 32 -137 0
35 20 34 27 29 18 32 -140 0
35 20 34 27 29 18 32 -138 0
35 20 34 27 29 18 32 -136 0
35 20 34 27 29 18 32 -141 0
35 20 34 27 29 18 24 -139 0
35 20 34 27 29 18 24 -137 0
35 20 34 27 29 18 24 -140 0
35 20 34 27 29 18 24 -138 0
35 20 34 27 29 18 24 -136 0
35 20 34 27 29 18 24 -141 0
35 20 34 27 29 32 24 -139 0
35 20 34 27 29 32 24 -137 0
35 20 34 27 29 32 24 -140 0
35 20 34 27 29 32 24 -138 0
35 20 34 27 29 32 24 -136 0
35 20 34 27 29 32 24 -141 0
35 20 34 27 18 32 24 -139 0
35 20 34 27 18 32 24 -137 0
35 20 34 27 18 32 24 -140 0
35 20 34 27 18 32 24 -138 0
35 20 34 27 18 32 24 -136 0
35 20 34 27 18 32 24 -141 0
35 20 34 29 18 32 24 -139 0
35 20 34 29 18 32 24 -137 0
35 20 34 29 18 32 24 -140 0
35 20 34 29 18 32 24 -138 0
35 20 34 29 18 32 24 -136 0
35 20 34 29 18 32 24 -141 0
35 20 27 29 18 32 24 -139 0
35 20 27 29 18 32 24 -137 0
35 20 27 29 18 32 24 -140 0
35 20 27 29 18 32 24 -138 0
35 20 27 29 18 32 24 -136 0
35 20 27 29 18 32 24 -141 0
35 54 34 57 29 50 32 -186 0
35 54 34 57 29 50 32 -181 0
35 54 34 57 29 50 32 -183 0
35 54 34 57 29 50 32 -182 0
35 54 34 57 29 50 32 -184 0
35 54 34 57 29 50 32 -185 0
35 54 34 57 29 50 53 -186 0
35 54 34 57 29 50 53 -181 0
35 54 34 57 29 50 53 -183 0
35 54 34 57 29 50 53 -182 0
35 54 34 57 29 50 53 -184 0
35 54 34 57 29 50 53 -185 0
35 54 34 57 29 32 53 -186 0
35 54 34 57 29 32 53 -181 0
35 54 34 57 29 32 53 -183 0
35 54 34 57 29 32 53 -182 0
35 54 34 57 29 32 53 -184 0
35 54 34 57 29 32 53 -185 0
35 54 34 57 50 32 53 -186 0
35 54 34 57 50 32 53 -181 0
35 54 34 57 50 32 53 -183 0
35 54 34 57 50 32 53 -182 0
35 54 34 57 50 32 53 -184 0
35 54 34 57 50 32 53 -185 0
35 54 34 29 50 32 53 -186 0
35 54 34 29 50 32 53 -181 0
35 54 34 29 50 32 53 -183 0
35 54 34 29 50 32 53 -182 0
35 54 34 29 50 32 53 -184 0
35 54 34 29 50 32 53 -185 0
35 54 57 29 50 32 53 -186 0
35 54 57 29 50 32 53 -181 0
35 54 57 29 50 32 53 -183 0
35 54 57 29 50 32 53 -182 0
35 54 57 29 50 32 53 -184 0
35 54 57 29 50 32 53 -185 0
35 5 34 3 29 4 32 -33 0
35 5 34 3 29 4 32 -36 0
35 5 34 3 29 4 32 -30 0
35 5 34 3 29 4 32 -37 0
35 5 34 3 29 4 32 -28 0
35 5 34 3 29 4 32 -31 0
35 5 34 3 29 4 7 -33 0
35 5 34 3 29 4 7 -36 0
35 5 34 3 29 4 7 -30 0
35 5 34 3 29 4 7 -37 0
35 5 34 3 29 4 7 -28 0
35 5 34 3 29 4 7 -31 0
35 5 34 3 29 32 7 -33 0
35 5 34 3 29 32 7 -36 0
35 5 34 3 29 32 7 -30 0
35 5 34 3 29 32 7 -37 0
35 5 34 3 29 32 7 -28 0
35 5 34 3 29 32 7 -31 0
35 5 34 3 4 32 7 -33 0
35 5 34 3 4 32 7 -36 0
35 5 34 3 4 32 7 -30 0
35 5 34 3 4 32 7 -37 0
35 5 34 3 4 32 7 -28 0
35 5 34 3 4 32 7 -31 0
35 5 34 29 4 32 7 -33 0
35 5 34 29 4 32 7 -36 0
35 5 34 29 4 32 7 -30 0
35 5 34 29 4 32 7 -37 0
35 5 34 29 4 32 7 -28 0
35 5 34 29 4 32 7 -31 0
35 5 3 29 4 32 7 -33 0
35 5 3 29 4 32 7 -36 0
35 5 3 29 4 32 7 -30 0
35 5 3 29 4 32 7 -37 0
35 5 3 29 4 32 7 -28 0
35 5 3 29 4 32 7 -31 0
35 8 34 14 29 16 32 -102 0
35 8 34 14 29 16 32 -100 0
35 8 34 14 29 16 32 -101 0
35 8 34 14 29 16 32 -98 0
35 8 34 14 29 16 32 -99 0
35 8 34 14 29 16 32 -97 0
35 60 34 67 29 66 32 -188 0
35 60 34 67 29 66 32 -191 0
35 60 34 67 29 66 32 -190 0
35 60 34 67 29 66 32 -192 0
35 60 34 67 29 66 32 -187 0
35 60 34 67 29 66 32 -189 0
35 68 34 74 29 72 32 -193 0
35 68 34 74 29 72 32 -195 0
35 68 34 74 29 72 32 -198 0
35 68 34 74 29 72 32 -194 0
35 68 34 74 29 72 32 -196 0
35 68 34 74 29 72 32 -197 0
35 85 34 81 29 82 32 -200 0
35 85 34 81 29 82 32 -202 0
35 85 34 81 29 82 32 -199 0
35 85 34 81 29 82 32 -203 0
35 85 34 81 29 82 32 -204 0
35 85 34 81 29 82 32 -201 0
35 39 34 41 29 47 32 -177 0
35 39 34 41 29 47 32 -179 0
35 39 34 41 29 47 32 -176 0
35 39 34 41 29 47 32 -178 0
35 39 34 41 29 47 32 -175 0
35 39 34 41 29 47 32 -180 0
35 34 27 29 18 32 24 -139 0
35 34 27 29 18 32 24 -137 0
35 34 27 29 18 32 24 -140 0
35 34 27 29 18 32 24 -138 0
35 34 27 29 18 32 24 -136 0
35 34 27 29 18 32 24 -141 0
35 34 57 29 50 32 53 -186 0
35 34 57 29 50 32 53 -181 0
35 34 57 29 50 32 53 -183 0
35 34 57 29 50 32 53 -182 0
35 34 57 29 50 32 53 -184 0
35 34 57 29 50 32 53 -185 0
35 34 3 29 4 32 7 -33 0
35 34 3 29 4 32 7 -36 0
35 34 3 29 4 32 7 -30 0
35 34 3 29 4 32 7 -37 0
35 34 3 29 4 32 7 -28 0
35 34 3 29 4 32 7 -31 0
20 54 27 57 18 50 24 -149 0
20 54 27 57 18 50 24 -153 0
20 54 27 57 18 50 24 -150 0
20 54 27 57 18 50 24 -151 0
20 54 27 57 18 50 24 -152 0
20 54 27 57 18 50 24 -148 0
20 54 27 57 18 50 53 -149 0
20 54 27 57 18 50 53 -153 0
20 54 27 57 18 50 53 -150 0
20 54 27 57 18 50 53 -151 0
20 54 27 57 18 50 53 -152 0
20 54 27 57 18 50 53 -148 0
20 54 27 57 18 24 53 -149 0
20 54 27 57 18 24 53 -153 0
20 54 27 57 18 24 53 -150 0
20 54 27 57 18 24 53 -151 0
20 54 27 57 18 24 53 -152 0
20 54 27 57 18 24 53 -148 0
20 54 27 57 50 24 53 -149 0
20 54 27 57 50 24 53 -153 0
20 54 27 57 50 24 53 -150 0
20 54 27 57 50 24 53 -151 0
20 54 27 57 50 24 53 -152 0
20 54 27 57 50 24 53 -148 0
20 54 27 18 50 24 53 -149 0
20 54 27 18 50 24 53 -153 0
20 54 27 18 50 24 53 -150 0
20 54 27 18 50 24 53 -151 0
20 54 27 18 50 24 53 -152 0
20 54 27 18 50 24 53 -148 0
20 54 57 18 50 24 53 -149 0
20 54 57 18 50 24 53 -153 0
20 54 57 18 50 24 53 -150 0
20 54 57 18 50 24 53 -151 0
20 54 57 18 50 24 53 -152 0
20 54 57 18 50 24 53 -148 0
20 5 27 3 18 4 24 -21 0
20 5 27 3 18 4 24 -19 0
20 5 27 3 18 4 24 -25 0
20 5 27 3 18 4 24 -22 0
20 5 27 3 18 4 24 -23 0
20 5 27 3 18 4 24 -26 0
20 5 27 3 18 4 7 -21 0
20 5 27 3 18 4 7 -19 0
20 5 27 3 18 4 7 -25 0
20 5 27 3 18 4 7 -22 0
20 5 27 3 18 4 7 -23 0
20 5 27 3 18 4 7 -26 0
20 5 27 3 18 24 7 -21 0
20 5 27 3 18 24 7 -19 0
20 5 27 3 18 24 7 -25 0
20 5 27 3 18 24 7 -22 0
20 5 27 3 18 24 7 -23 0
20 5 27 3 18 24 7 -26 0
20 5 27 3 4 24 7 -21 0
20 5 27 3 4 24 7 -19 0
20 5 27 3 4 24 7 -25 0
20 5 27 3 4 24 7 -22 0
20 5 27 3 4 24 7 -23 0
20 5 27 3 4 24 7 -26 0
20 5 27 18 4 24 7 -21 0
20 5 27 18 4 24 7 -19 0
20 5 27 18 4 24 7 -25 0
20 5 27 18 4 24 7 -22 0
20 5 27 18 4 24 7 -23 0
20 5 27 18 4 24 7 -26 0
20 5 3 18 4 24 7 -21 0
20 5 3 18 4 24 7 -19 0
20 5 3 18 4 24 7 -25 0
20 5 3 18 4 24 7 -22 0
20 5 3 18 4 24 7 -23 0
20 5 3 18 4 24 7 -26 0
20 8 27 14 18 16 24 -95 0
20 8 27 14 18 16 24 -96 0
20 8 27 14 18 16 24 -93 0
20 8 27 14 18 16 24 -94 0
20 8 27 14 18 16 24 -92 0
20 8 27 14 18 16 24 -91 0
20 60 27 67 18 66 24 -157 0
20 60 27 67 18 66 24 -154 0
20 60 27 67 18 66 24 -156 0
20 60 27 67 18 66 24 -155 0
20 60 27 67 18 66 24 -158 0
20 60 27 67 18 66 24 -159 0
20 68 27 74 18 72 24 -165 0
20 68 27 74 18 72 24 -163 0
20 68 27 74 18 72 24 -162 0
20 68 27 74 18 72 24 -164 0
20 68 27 74 18 72 24 -161 0
20 68 27 74 18 72 24 -160 0
20 85 27 81 18 82 24 -166 0
20 85 27 81 18 82 24 -168 0
20 85 27 81 18 82 24 -167 0
20 85 27 81 18 82 24 -169 0
20 85 27 81 18 82 24 -170 0
20 85 27 81 18 82 24 -171 0
20 39 27 41 18 47 24 -146 0
20 39 27 41 18 47 24 -142 0
20 39 27 41 18 47 24 -147 0
20 39 27 41 18 47 24 -143 0
20 39 27 41 18 47 24 -145 0
20 39 27 41 18 47 24 -144 0
20 34 27 29 18 32 24 -139 0
20 34 27 29 18 32 24 -137 0
20 34 27 29 18 32 24 -140 0
20 34 27 29 18 32 24 -138 0
20 34 27 29 18 32 24 -136 0
20 34 27 29 18 32 24 -141 0
20 27 57 18 50 24 53 -149 0
20 27 57 18 50 24 53 -153 0
20 27 57 18 50 24 53 -150 0
20 27 57 18 50 24 53 -151 0
20 27 57 18 50 24 53 -152 0
20 27 57 18 50 24 53 -148 0
20 27 3 18 4 24 7 -21 0
20 27 3 18 4 24 7 -19 0
20 27 3 18 4 24 7 -25 0
20 27 3 18 4 24 7 -22 0
20 27 3 18 4 24 7 -23 0
20 27 3 18 4 24 7 -26 0
54 5 57 3 50 4 53 -51 0
54 5 57 3 50 4 53 -56 0
54 5 57 3 50 4 53 -52 0
54 5 57 3 50 4 53 -55 0
54 5 57 3 50 4 53 -48 0
54 5 57 3 50 4 53 -49 0
54 5 57 3 50 4 7 -51 0
54 5 57 3 50 4 7 -56 0
54 5 57 3 50 4 7 -52 0
54 5 57 3 50 4 7 -55 0
54 5 57 3 50 4 7 -48 0
54 5 57 3 50 4 7 -49 0
54 5 57 3 50 53 7 -51 0
54 5 57 3 50 53 7 -56 0
54 5 57 3 50 53 7 -52 0
54 5 57 3 50 53 7 -55 0
54 5 57 3 50 53 7 -48 0
54 5 57 3 50 53 7 -49 0
54 5 57 3 4 53 7 -51 0
54 5 57 3 4 53 7 -56 0
54 5 57 3 4 53 7 -52 0
54 5 57 3 4 53 7 -55 0
54 5 57 3 4 53 7 -48 0
54 5 57 3 4 53 7 -49 0
54 5 57 50 4 53 7 -51 0
54 5 57 50 4 53 7 -56 0
54 5 57 50 4 53 7 -52 0
54 5 57 50 4 53 7 -55 0
54 5 57 50 4 53 7 -48 0
54 5 57 50 4 53 7 -49 0
54 5 3 50 4 53 7 -51 0
54 5 3 50 4 53 7 -56 0
54 5 3 50 4 53 7 -52 0
54 5 3 50 4 53 7 -55 0
54 5 3 50 4 53 7 -48 0
54 5 3 50 4 53 7 -49 0
54 8 57 14 50 16 53 -110 0
54 8 57 14 50 16 53 -114 0
54 8 57 14 50 16 53 -111 0
54 8 57 14 50 16 53 -112 0
54 8 57 14 50 16 53 -113 0
54 8 57 14 50 16 53 -109 0
54 60 57 67 50 66 53 -237 0
54 60 57 67 50 66 53 -238 0
54 60 57 67 50 66 53 -235 0
54 60 57 67 50 66 53 -239 0
54 60 57 67 50 66 53 -240 0
54 60 57 67 50 66 53 -236 0
54 68 57 74 50 72 53 -245 0
54 68 57 74 50 72 53 -243 0
54 68 57 74 50 72 53 -246 0
54 68 57 74 50 72 53 -244 0
54 68 57 74 50 72 53 -241 0
54 68 57 74 50 72 53 -242 0
54 85 57 81 50 82 53 -251 0
54 85 57 81 50 82 53 -247 0
54 85 57 81 50 82 53 -252 0
54 85 57 81 50 82 53 -248 0
54 85 57 81 50 82 53 -249 0
54 85 57 81 50 82 53 -250 0
54 39 57 41 50 47 53 -210 0
54 39 57 41 50 47 53 -212 0
54 39 57 41 50 47 53 -209 0
54 39 57 41 50 47 53 -211 0
54 39 57 41 50 47 53 -208 0
54 39 57 41 50 47 53 -213 0
54 34 57 29 50 32 53 -186 0
54 34 57 29 50 32 53 -181 0
54 34 57 29 50 32 53 -183 0
54 34 57 29 50 32 53 -182 0
54 34 57 29 50 32 53 -184 0
54 34 57 29 50 32 53 -185 0
54 27 57 18 50 24 53 -149 0
54 27 57 18 50 24 53 -153 0
54 27 57 18 50 24 53 -150 0
54 27 57 18 50 24 53 -151 0
54 27 57 18 50 24 53 -152 0
54 27 57 18 50 24 53 -148 0
54 57 3 50 4 53 7 -51 0
54 57 3 50 4 53 7 -56 0
54 57 3 50 4 53 7 -52 0
54 57 3 50 4 53 7 -55 0
54 57 3 50 4 53 7 -48 0
54 57 3 50 4 53 7 -49 0
5 8 3 14 4 16 7 -9 0
5 8 3 14 4 16 7 -15 0
5 8 3 14 4 16 7 -10 0
5 8 3 14 4 16 7 -17 0
5 8 3 14 4 16 7 -13 0
5 8 3 14 4 16 7 -12 0
5 60 3 67 4 66 7 -64 0
5 60 3 67 4 66 7 -59 0
5 60 3 67 4 66 7 -65 0
5 60 3 67 4 66 7 -61 0
5 60 3 67 4 66 7 -63 0
5 60 3 67 4 66 7 -58 0
5 68 3 74 4 72 7 -77 0
5 68 3 74 4 72 7 -69 0
5 68 3 74 4 72 7 -70 0
5 68 3 74 4 72 7 -76 0
5 68 3 74 4 72 7 -75 0
5 68 3 74 4 72 7 -73 0
5 85 3 81 4 82 7 -87 0
5 85 3 81 4 82 7 -78 0
5 85 3 81 4 82 7 -86 0
5 85 3 81 4 82 7 -84 0
5 85 3 81 4 82 7 -80 0
5 85 3 81 4 82 7 -79 0
5 39 3 41 4 47 7 -45 0
5 39 3 41 4 47 7 -44 0
5 39 3 41 4 47 7 -40 0
5 39 3 41 4 47 7 -38 0
5 39 3 41 4 47 7 -46 0
5 39 3 41 4 47 7 -43 0
5 34 3 29 4 32 7 -33 0
5 34 3 29 4 32 7 -36 0
5 34 3 29 4 32 7 -30 0
5 34 3 29 4 32 7 -37 0
5 34 3 29 4 32 7 -28 0
5 34 3 29 4 32 7 -31 0
5 27 3 18 4 24 7 -21 0
5 27 3 18 4 24 7 -19 0
5 27 3 18 4 24 7 -25 0
5 27 3 18 4 24 7 -22 0
5 27 3 18 4 24 7 -23 0
5 27 3 18 4 24 7 -26 0
5 57 3 50 4 53 7 -51 0
5 57 3 50 4 53 7 -56 0
5 57 3 50 4 53 7 -52 0
5 57 3 50 4 53 7 -55 0
5 57 3 50 4 53 7 -48 0
5 57 3 50 4 53 7 -49 0
89 120 121 127 106 102 95 110 9 0
119 253 261 266 214 188 157 237 64 0
125 256 270 276 222 193 165 245 77 0
130 263 274 279 230 200 166 251 87 0
104 215 224 227 206 177 146 210 45 0
100 191 195 202 179 172 139 186 33 0
96 154 163 168 142 137 135 149 21 0
114 238 243 247 212 181 153 234 51 0
15 59 69 78 44 36 19 56 1 0
88 117 122 131 105 101 93 111 10 0
118 255 259 265 219 190 156 235 65 0
123 260 268 271 223 198 162 246 70 0
128 267 272 277 226 199 167 252 86 0
108 216 225 228 205 176 147 209 40 0
98 192 194 203 178 173 140 183 30 0
94 155 164 169 143 138 134 150 25 0
112 239 244 248 211 182 151 233 52 0
17 61 76 84 38 37 22 55 2 0
90 115 124 132 107 99 92 113 13 0
116 254 258 262 217 187 158 240 63 0
126 257 269 275 220 196 161 241 75 0
129 264 273 278 229 204 170 249 80 0
103 218 221 231 207 175 145 208 46 0
97 189 197 201 180 174 136 184 28 0
91 159 160 171 144 141 133 152 23 0
109 236 242 250 213 185 148 232 48 0
12 58 73 79 43 31 26 49 6 0
11 62 8 60 14 67 16 66 -120 0
11 62 8 60 14 67 16 66 -119 0
11 62 8 60 14 67 16 66 -117 0
11 62 8 60 14 67 16 66 -118 0
11 62 8 60 14 67 16 66 -115 0
11 62 8 60 14 67 16 66 -116 0
11 71 8 68 14 74 16 72 -121 0
11 71 8 68 14 74 16 72 -125 0
11 71 8 68 14 74 16 72 -122 0
11 71 8 68 14 74 16 72 -123 0
11 71 8 68 14 74 16 72 -124 0
11 71 8 68 14 74 16 72 -126 0
11 83 8 85 14 81 16 82 -127 0
11 83 8 85 14 81 16 82 -130 0
11 83 8 85 14 81 16 82 -131 0
11 83 8 85 14 81 16 82 -128 0
11 83 8 85 14 81 16 82 -132 0
11 83 8 85 14 81 16 82 -129 0
11 42 8 39 14 41 16 47 -106 0
11 42 8 39 14 41 16 47 -104 0
11 42 8 39 14 41 16 47 -105 0
11 42 8 39 14 41 16 47 -108 0
11 42 8 39 14 41 16 47 -107 0
11 42 8 39 14 41 16 47 -103 0
11 35 8 34 14 29 16 32 -102 0
11 35 8 34 14 29 16 32 -100 0
11 35 8 34 14 29 16 32 -101 0
11 35 8 34 14 29 16 32 -98 0
11 35 8 34 14 29 16 32 -99 0
11 35 8 34 14 29 16 32 -97 0
11 20 8 27 14 18 16 24 -95 0
11 20 8 27 14 18 16 24 -96 0
11 20 8 27 14 18 16 24 -93 0
11 20 8 27 14 18 16 24 -94 0
11 20 8 27 14 18 16 24 -92 0
11 20 8 27 14 18 16 24 -91 0
11 54 8 57 14 50 16 53 -110 0
11 54 8 57 14 50 16 53 -114 0
11 54 8 57 14 50 16 53 -111 0
11 54 8 57 14 50 16 53 -112 0
11 54 8 57 14 50 16 53 -113 0
11 54 8 57 14 50 16 53 -109 0
11 5 8 3 14 4 16 7 -9 0
11 5 8 3 14 4 16 7 -15 0
11 5 8 3 14 4 16 7 -10 0
11 5 8 3 14 4 16 7 -17 0
11 5 8 3 14 4 16 7 -13 0
11 5 8 3 14 4 16 7 -12 0
62 71 60 68 67 74 66 72 -261 0
62 71 60 68 67 74 66 72 -256 0
62 71 60 68 67 74 66 72 -259 0
62 71 60 68 67 74 66 72 -260 0
62 71 60 68 67 74 66 72 -258 0
62 71 60 68 67 74 66 72 -257 0
62 83 60 85 67 81 66 82 -266 0
62 83 60 85 67 81 66 82 -263 0
62 83 60 85 67 81 66 82 -265 0
62 83 60 85 67 81 66 82 -267 0
62 83 60 85 67 81 66 82 -262 0
62 83 60 85 67 81 66 82 -264 0
62 42 60 39 67 41 66 47 -214 0
62 42 60 39 67 41 66 47 -215 0
62 42 60 39 67 41 66 47 -219 0
62 42 60 39 67 41 66 47 -216 0
62 42 60 39 67 41 66 47 -217 0
62 42 60 39 67 41 66 47 -218 0
62 35 60 34 67 29 66 32 -188 0
62 35 60 34 67 29 66 32 -191 0
62 35 60 34 67 29 66 32 -190 0
62 35 60 34 67 29 66 32 -192 0
62 35 60 34 67 29 66 32 -187 0
62 35 60 34 67 29 66 32 -189 0
62 20 60 27 67 18 66 24 -157 0
62 20 60 27 67 18 66 24 -154 0
62 20 60 27 67 18 66 24 -156 0
62 20 60 27 67 18 66 24 -155 0
62 20 60 27 67 18 66 24 -158 0
62 20 60 27 67 18 66 24 -159 0
62 54 60 57 67 50 66 53 -237 0
62 54 60 57 67 50 66 53 -238 0
62 54 60 57 67 50 66 53 -235 0
62 54 60 57 67 50 66 53 -239 0
62 54 60 57 67 50 66 53 -240 0
62 54 60 57 67 50 66 53 -236 0
62 5 60 3 67 4 66 7 -64 0
62 5 60 3 67 4 66 7 -59 0
62 5 60 3 67 4 66 7 -65 0
62 5 60 3 67 4 66 7 -61 0
62 5 60 3 67 4 66 7 -63 0
62 5 60 3 67 4 66 7 -58 0
71 83 68 85 74 81 72 82 -276 0
71 83 68 85 74 81 72 82 -274 0
71 83 68 85 74 81 72 82 -271 0
71 83 68 85 74 81 72 82 -272 0
71 83 68 85 74 81 72 82 -275 0
71 83 68 85 74 81 72 82 -273 0
71 42 68 39 74 41 72 47 -222 0
71 42 68 39 74 41 72 47 -224 0
71 42 68 39 74 41 72 47 -223 0
71 42 68 39 74 41 72 47 -225 0
71 42 68 39 74 41 72 47 -220 0
71 42 68 39 74 41 72 47 -221 0
71 35 68 34 74 29 72 32 -193 0
71 35 68 34 74 29 72 32 -195 0
71 35 68 34 74 29 72 32 -198 0
71 35 68 34 74 29 72 32 -194 0
71 35 68 34 74 29 72 32 -196 0
71 35 68 34 74 29 72 32 -197 0
71 20 68 27 74 18 72 24 -165 0
71 20 68 27 74 18 72 24 -163 0
71 20 68 27 74 18 72 24 -162 0
71 20 68 27 74 18 72 24 -164 0
71 20 68 27 74 18 72 24 -161 0
71 20 68 27 74 18 72 24 -160 0
71 54 68 57 74 50 72 53 -245 0
71 54 68 57 74 50 72 53 -243 0
71 54 68 57 74 50 72 53 -246 0
71 54 68 57 74 50 72 53 -244 0
71 54 68 57 74 50 72 53 -241 0
71 54 68 57 74 50 72 53 -242 0
71 5 68 3 74 4 72 7 -77 0
71 5 68 3 74 4 72 7 -69 0
71 5 68 3 74 4 72 7 -70 0
71 5 68 3 74 4 72 7 -76 0
71 5 68 3 74 4 72 7 -75 0
71 5 68 3 74 4 72 7 -73 0
83 42 85 39 81 41 82 47 -230 0
83 42 85 39 81 41 82 47 -227 0
83 42 85 39 81 41 82 47 -226 0
83 42 85 39 81 41 82 47 -228 0
83 42 85 39 81 41 82 47 -229 0
83 42 85 39 81 41 82 47 -231 0
83 35 85 34 81 29 82 32 -200 0
83 35 85 34 81 29 82 32 -202 0
83 35 85 34 81 29 82 32 -199 0
83 35 85 34 81 29 82 32 -203 0
83 35 85 34 81 29 82 32 -204 0
83 35 85 34 81 29 82 32 -201 0
83 20 85 27 81 18 82 24 -166 0
83 20 85 27 81 18 82 24 -168 0
83 20 85 27 81 18 82 24 -167 0
83 20 85 27 81 18 82 24 -169 0
83 20 85 27 81 18 82 24 -170 0
83 20 85 27 81 18 82 24 -171 0
83 54 85 57 81 50 82 53 -251 0
83 54 85 57 81 50 82 53 -247 0
83 54 85 57 81 50 82 53 -252 0
83 54 85 57 81 50 82 53 -248 0
83 54 85 57 81 50 82 53 -249 0
83 54 85 57 81 50 82 53 -250 0
83 5 85 3 81 4 82 7 -87 0
83 5 85 3 81 4 82 7 -78 0
83 5 85 3 81 4 82 7 -86 0
83 5 85 3 81 4 82 7 -84 0
83 5 85 3 81 4 82 7 -80 0
83 5 85 3 81 4 82 7 -79 0
42 35 39 34 41 29 47 32 -177 0
42 35 39 34 41 29 47 32 -179 0
42 35 39 34 41 29 47 32 -176 0
42 35 39 34 41 29 47 32 -178 0
42 35 39 34 41 29 47 32 -175 0
42 35 39 34 41 29 47 32 -180 0
42 20 39 27 41 18 47 24 -146 0
42 20 39 27 41 18 47 24 -142 0
42 20 39 27 41 18 47 24 -147 0
42 20 39 27 41 18 47 24 -143 0
42 20 39 27 41 18 47 24 -145 0
42 20 39 27 41 18 47 24 -144 0
42 54 39 57 41 50 47 53 -210 0
42 54 39 57 41 50 47 53 -212 0
42 54 39 57 41 50 47 53 -209 0
42 54 39 57 41 50 47 53 -211 0
42 54 39 57 41 50 47 53 -208 0
42 54 39 57 41 50 47 53 -213 0
42 5 39 3 41 4 47 7 -45 0
42 5 39 3 41 4 47 7 -44 0
42 5 39 3 41 4 47 7 -40 0
42 5 39 3 41 4 47 7 -38 0
42 5 39 3 41 4 47 7 -46 0
42 5 39 3 41 4 47 7 -43 0
35 20 34 27 29 18 32 24 -139 0
35 20 34 27 29 18 32 24 -137 0
35 20 34 27 29 18 32 24 -140 0
35 20 34 27 29 18 32 24 -138 0
35 20 34 27 29 18 32 24 -136 0
35 20 34 27 29 18 32 24 -141 0
35 54 34 57 29 50 32 53 -186 0
35 54 34 57 29 50 32 53 -181 0
35 54 34 57 29 50 32 53 -183 0
35 54 34 57 29 50 32 53 -182 0
35 54 34 57 29 50 32 53 -184 0
35 54 34 57 29 50 32 53 -185 0
35 5 34 3 29 4 32 7 -33 0
35 5 34 3 29 4 32 7 -36 0
35 5 34 3 29 4 32 7 -30 0
35 5 34 3 29 4 32 7 -37 0
35 5 34 3 29 4 32 7 -28 0
35 5 34 3 29 4 32 7 -31 0
20 54 27 57 18 50 24 53 -149 0
20 54 27 57 18 50 24 53 -153 0
20 54 27 57 18 50 24 53 -150 0
20 54 27 57 18 50 24 53 -151 0
20 54 27 57 18 50 24 53 -152 0
20 54 27 57 18 50 24 53 -148 0
20 5 27 3 18 4 24 7 -21 0
20 5 27 3 18 4 24 7 -19 0
20 5 27 3 18 4 24 7 -25 0
20 5 27 3 18 4 24 7 -22 0
20 5 27 3 18 4 24 7 -23 0
20 5 27 3 18 4 24 7 -26 0
54 5 57 3 50 4 53 7 -51 0
54 5 57 3 50 4 53 7 -56 0
54 5 57 3 50 4 53 7 -52 0
54 5 57 3 50 4 53 7 -55 0
54 5 57 3 50 4 53 7 -48 0
54 5 57 3 50 4 53 7 -49 0
