c E1(e1,e1) E1(e1,e10) E1(e1,e2) E1(e1,e3) E1(e1,e4) E1(e1,e5) E1(e1,e6) E1(e1,e7) E1(e1,e8) E1(e1,e9) E1(e10,e1) E1(e10,e10) E1(e10,e2) E1(e10,e3) E1(e10,e4) E1(e10,e5) E1(e10,e6) E1(e10,e7) E1(e10,e8) E1(e10,e9) E1(e2,e1) E1(e2,e10) E1(e2,e2) E1(e2,e3) E1(e2,e4) E1(e2,e5) E1(e2,e6) E1(e2,e7) E1(e2,e8) E1(e2,e9) E1(e3,e1) E1(e3,e10) E1(e3,e2) E1(e3,e3) E1(e3,e4) E1(e3,e5) E1(e3,e6) E1(e3,e7) E1(e3,e8) E1(e3,e9) E1(e4,e1) E1(e4,e10) E1(e4,e2) E1(e4,e3) E1(e4,e4) E1(e4,e5) E1(e4,e6) E1(e4,e7) E1(e4,e8) E1(e4,e9) E1(e5,e1) E1(e5,e10) E1(e5,e2) E1(e5,e3) E1(e5,e4) E1(e5,e5) E1(e5,e6) E1(e5,e7) E1(e5,e8) E1(e5,e9) E1(e6,e1) E1(e6,e10) E1(e6,e2) E1(e6,e3) E1(e6,e4) E1(e6,e5) E1(e6,e6) E1(e6,e7) E1(e6,e8) E1(e6,e9) E1(e7,e1) E1(e7,e10) E1(e7,e2) E1(e7,e3) E1(e7,e4) E1(e7,e5) E1(e7,e6) E1(e7,e7) E1(e7,e8) E1(e7,e9) E1(e8,e1) E1(e8,e10) E1(e8,e2) E1(e8,e3) E1(e8,e4) E1(e8,e5) E1(e8,e6) E1(e8,e7) E1(e8,e8) E1(e8,e9) E1(e9,e1) E1(e9,e10) E1(e9,e2) E1(e9,e3) E1(e9,e4) E1(e9,e5) E1(e9,e6) E1(e9,e7) E1(e9,e8) E1(e9,e9) E2(e1,e1) E2(e1,e10) E2(e1,e2) E2(e1,e3) E2(e1,e4) E2(e1,e5) E2(e1,e6) E2(e1,e7) E2(e1,e8) E2(e1,e9) E2(e10,e1) E2(e10,e10) E2(e10,e2) E2(e10,e3) E2(e10,e4) E2(e10,e5) E2(e10,e6) E2(e10,e7) E2(e10,e8) E2(e10,e9) E2(e2,e1) E2(e2,e10) E2(e2,e2) E2(e2,e3) E2(e2,e4) E2(e2,e5) E2(e2,e6) E2(e2,e7) E2(e2,e8) E2(e2,e9) E2(e3,e1) E2(e3,e10) E2(e3,e2) E2(e3,e3) E2(e3,e4) E2(e3,e5) E2(e3,e6) E2(e3,e7) E2(e3,e8) E2(e3,e9) E2(e4,e1) E2(e4,e10) E2(e4,e2) E2(e4,e3) E2(e4,e4) E2(e4,e5) E2(e4,e6) E2(e4,e7) E2(e4,e8) E2(e4,e9) E2(e5,e1) E2(e5,e10) E2(e5,e2) E2(e5,e3) E2(e5,e4) E2(e5,e5) E2(e5,e6) E2(e5,e7) E2(e5,e8) E2(e5,e9) E2(e6,e1) E2(e6,e10) E2(e6,e2) E2(e6,e3) E2(e6,e4) E2(e6,e5) E2(e6,e6) E2(e6,e7) E2(e6,e8) E2(e6,e9) E2(e7,e1) E2(e7,e10) E2(e7,e2) E2(e7,e3) E2(e7,e4) E2(e7,e5) E2(e7,e6) E2(e7,e7) E2(e7,e8) E2(e7,e9) E2(e8,e1) E2(e8,e10) E2(e8,e2) E2(e8,e3) E2(e8,e4) E2(e8,e5) E2(e8,e6) E2(e8,e7) E2(e8,e8) E2(e8,e9) E2(e9,e1) E2(e9,e10) E2(e9,e2) E2(e9,e3) E2(e9,e4) E2(e9,e5) E2(e9,e6) E2(e9,e7) E2(e9,e8) E2(e9,e9) U1(e1) U1(e10) U1(e2) U1(e3) U1(e4) U1(e5) U1(e6) U1(e7) U1(e8) U1(e9) U2(e1) U2(e10) U2(e2) U2(e3) U2(e4) U2(e5) U2(e6) U2(e7) U2(e8) U2(e9) U3(e1) U3(e10) U3(e2) U3(e3) U3(e4) U3(e5) U3(e6) U3(e7) U3(e8) U3(e9) U4(e1) U4(e10) U4(e2) U4(e3) U4(e4) U4(e5) U4(e6) U4(e7) U4(e8) U4(e9) U5(e1) U5(e10) U5(e2) U5(e3) U5(e4) U5(e5) U5(e6) U5(e7) U5(e8) U5(e9) U6(e1) U6(e10) U6(e2) U6(e3) U6(e4) U6(e5) U6(e6) U6(e7) U6(e8) U6(e9)
c 1 2 3 4 5 6 7 8 9 10 11 12 13 14 15 16 17 18 19 20 21 22 23 24 25 26 27 28 29 30 31 32 33 34 35 36 37 38 39 40 41 42 43 44 45 46 47 48 49 50 51 52 53 54 55 56 57 58 59 60 61 62 63 64 65 66 67 68 69 70 71 72 73 74 75 76 77 78 79 80 81 82 83 84 85 86 87 88 89 90 91 92 93 94 95 96 97 98 99 100 101 102 103 104 105 106 107 108 109 110 111 112 113 114 115 116 117 118 119 120 121 122 123 124 125 126 127 128 129 130 131 132 133 134 135 136 137 138 139 140 141 142 143 144 145 146 147 148 149 150 151 152 153 154 155 156 157 158 159 160 161 162 163 164 165 166 167 168 169 170 171 172 173 174 175 176 177 178 179 180 181 182 183 184 185 186 187 188 189 190 191 192 193 194 195 196 197 198 199 200 201 202 203 204 205 206 207 208 209 210 211 212 213 214 215 216 217 218 219 220 221 222 223 224 225 226 227 228 229 230 231 232 233 234 235 236 237 238 239 240 241 242 243 244 245 246 247 248 249 250 251 252 253 254 255 256 257 258 259 260
p cnf 260 1740
-260 260 0
-259 259 0
-258 258 0
-257 257 0
-256 256 0
-255 255 0
-254 254 0
-253 253 0
-252 252 0
-251 251 0
-250 -260 0
-250 250 0
-249 -259 0
-249 249 0
-248 -258 0
-248 248 0
-247 -257 0
-247 247 0
-246 -256 0
-246 246 0
-245 -255 0
-245 245 0
-244 -254 0
-244 244 0
-243 -253 0
-243 243 0
-242 -252 0
-242 242 0
-241 -251 0
-241 241 0
-240 -260 0
-240 -250 0
-240 240 0
-239 -259 0
-239 -249 0
-239 239 0
-238 -258 0
-238 -248 0
-238 238 0
-237 -257 0
-237 -247 0
-237 237 0
-236 -256 0
-236 -246 0
-236 236 0
-235 -255 0
-235 -245 0
-235 235 0
-234 -254 0
-234 -244 0
-234 234 0
-233 -253 0
-233 -243 0
-233 233 0
-232 -252 0
-232 -242 0
-232 232 0
-231 -251 0
-231 -241 0
-231 231 0
-230 -260 0
-230 -250 0
-230 -240 0
-230 230 0
-229 -259 0
-229 -249 0
-229 -239 0
-229 229 0
-228 -258 0
-228 -248 0
-228 -238 0
-228 228 0
-227 -257 0
-227 -247 0
-227 -237 0
-227 227 0
-226 -256 0
-226 -246 0
-226 -236 0
-226 226 0
-225 -255 0
-225 -245 0
-225 -235 0
-225 225 0
-224 -254 0
-224 -244 0
-224 -234 0
-224 224 0
-223 -253 0
-223 -243 0
-223 -233 0
-223 223 0
-222 -252 0
-222 -242 0
-222 -232 0
-222 222 0
-221 -251 0
-221 -241 0
-221 -231 0
-221 221 0
-220 -260 0
-220 -250 0
-220 -240 0
-220 -230 0
-220 220 0
-219 -259 0
-219 -249 0
-219 -239 0
-219 -229 0
-219 219 0
-218 -258 0
-218 -248 0
-218 -238 0
-218 -228 0
-218 218 0
-217 -257 0
-217 -247 0
-217 -237 0
-217 -227 0
-217 217 0
-216 -256 0
-216 -246 0
-216 -236 0
-216 -226 0
-216 216 0
-215 -255 0
-215 -245 0
-215 -235 0
-215 -225 0
-215 215 0
-214 -254 0
-214 -244 0
-214 -234 0
-214 -224 0
-214 214 0
-213 -253 0
-213 -243 0
-213 -233 0
-213 -223 0
-213 213 0
-212 -252 0
-212 -242 0
-212 -232 0
-212 -222 0
-212 212 0
-211 -251 0
-211 -241 0
-211 -231 0
-211 -221 0
-211 211 0
-210 -260 0
-210 -250 0
-210 -240 0
-210 -230 0
-210 -220 0
-210 210 0
-209 -259 0
-209 -249 0
-209 -239 0
-209 -229 0
-209 -219 0
-209 209 0
-208 -258 0
-208 -248 0
-208 -238 0
-208 -228 0
-208 -218 0
-208 208 0
-207 -257 0
-207 -247 0
-207 -237 0
-207 -227 0
-207 -217 0
-207 207 0
-206 -256 0
-206 -246 0
-206 -236 0
-206 -226 0
-206 -216 0
-206 206 0
-205 -255 0
-205 -245 0
-205 -235 0
-205 -225 0
-205 -215 0
-205 205 0
-204 -254 0
-204 -244 0
-204 -234 0
-204 -224 0
-204 -214 0
-204 204 0
-203 -253 0
-203 -243 0
-203 -233 0
-203 -223 0
-203 -213 0
-203 203 0
-202 -252 0
-202 -242 0
-202 -232 0
-202 -222 0
-202 -212 0
-202 202 0
-201 -251 0
-201 -241 0
-201 -231 0
-201 -221 0
-201 -211 0
-201 201 0
-200 -260 0
-200 -250 0
-200 -240 0
-200 -230 0
-200 -220 0
-200 -210 0
-200 200 0
-190 199 0
-189 -259 0
-189 -249 0
-189 -239 0
-189 -229 0
-189 -219 0
-189 -209 0
-189 189 0
-180 198 0
-179 188 0
-178 -258 0
-178 -248 0
-178 -238 0
-178 -228 0
-178 -218 0
-178 -208 0
-178 178 0
-170 197 0
-169 187 0
-168 177 0
-167 -257 0
-167 -247 0
-167 -237 0
-167 -227 0
-167 -217 0
-167 -207 0
-167 167 0
-160 196 0
-159 186 0
-158 176 0
-157 166 0
-156 -256 0
-156 -246 0
-156 -236 0
-156 -226 0
-156 -216 0
-156 -206 0
-156 156 0
-150 195 0
-149 185 0
-148 175 0
-147 165 0
-146 155 0
-145 -255 0
-145 -245 0
-145 -235 0
-145 -225 0
-145 -215 0
-145 -205 0
-145 145 0
-140 194 0
-139 184 0
-138 174 0
-137 164 0
-136 154 0
-135 144 0
-134 -254 0
-134 -244 0
-134 -234 0
-134 -224 0
-134 -214 0
-134 -204 0
-134 134 0
-130 193 0
-129 183 0
-128 173 0
-127 163 0
-126 153 0
-125 143 0
-124 133 0
-123 -253 0
-123 -243 0
-123 -233 0
-123 -223 0
-123 -213 0
-123 -203 0
-123 123 0
-120 192 0
-119 182 0
-118 172 0
-117 162 0
-116 152 0
-115 142 0
-114 132 0
-113 122 0
-112 -252 0
-112 -242 0
-112 -232 0
-112 -222 0
-112 -212 0
-112 -202 0
-112 112 0
-110 191 0
-109 181 0
-108 171 0
-107 161 0
-106 151 0
-105 141 0
-104 131 0
-103 121 0
-102 111 0
-101 -251 0
-101 -241 0
-101 -231 0
-101 -221 0
-101 -211 0
-101 -201 0
-101 101 0
-100 -260 0
-100 -250 0
-100 -240 0
-100 -230 0
-100 -220 0
-100 -210 0
-100 -200 0
-100 100 0
-99 -199 0
-98 -198 0
-97 -197 0
-96 -196 0
-95 -195 0
-94 -194 0
-93 -193 0
-92 -192 0
-91 -191 0
-90 -190 0
-90 99 0
-89 -259 0
-89 -249 0
-89 -239 0
-89 -229 0
-89 -219 0
-89 -209 0
-89 -189 0
-89 89 0
-88 -188 0
-87 -187 0
-86 -186 0
-85 -185 0
-84 -184 0
-83 -183 0
-82 -182 0
-81 -181 0
-80 -180 0
-80 98 0
-79 -179 0
-79 88 0
-78 -258 0
-78 -248 0
-78 -238 0
-78 -228 0
-78 -218 0
-78 -208 0
-78 -178 0
-78 78 0
-77 -177 0
-76 -176 0
-75 -175 0
-74 -174 0
-73 -173 0
-72 -172 0
-71 -171 0
-70 -170 0
-70 97 0
-69 -169 0
-69 87 0
-68 -168 0
-68 77 0
-67 -257 0
-67 -247 0
-67 -237 0
-67 -227 0
-67 -217 0
-67 -207 0
-67 -167 0
-67 67 0
-66 -166 0
-65 -165 0
-64 -164 0
-63 -163 0
-62 -162 0
-61 -161 0
-60 -160 0
-60 96 0
-59 -159 0
-59 86 0
-58 -158 0
-58 76 0
-57 -157 0
-57 66 0
-56 -256 0
-56 -246 0
-56 -236 0
-56 -226 0
-56 -216 0
-56 -206 0
-56 -156 0
-56 56 0
-55 -155 0
-54 -154 0
-53 -153 0
-52 -152 0
-51 -151 0
-50 -150 0
-50 95 0
-49 -149 0
-49 85 0
-48 -148 0
-48 75 0
-47 -147 0
-47 65 0
-46 -146 0
-46 55 0
-45 -255 0
-45 -245 0
-45 -235 0
-45 -225 0
-45 -215 0
-45 -205 0
-45 -145 0
-45 45 0
-44 -144 0
-43 -143 0
-42 -142 0
-41 -141 0
-40 -140 0
-40 94 0
-39 -139 0
-39 84 0
-38 -138 0
-38 74 0
-37 -137 0
-37 64 0
-36 -136 0
-36 54 0
-35 -135 0
-35 44 0
-34 -254 0
-34 -244 0
-34 -234 0
-34 -224 0
-34 -214 0
-34 -204 0
-34 -134 0
-34 34 0
-33 -133 0
-32 -132 0
-31 -131 0
-30 -130 0
-30 93 0
-29 -129 0
-29 83 0
-28 -128 0
-28 73 0
-27 -127 0
-27 63 0
-26 -126 0
-26 53 0
-25 -125 0
-25 43 0
-24 -124 0
-24 33 0
-23 -253 0
-23 -243 0
-23 -233 0
-23 -223 0
-23 -213 0
-23 -203 0
-23 -123 0
-23 23 0
-22 -122 0
-21 -121 0
-20 -120 0
-20 92 0
-19 -119 0
-19 82 0
-18 -118 0
-18 72 0
-17 -117 0
-17 62 0
-16 -116 0
-16 52 0
-15 -115 0
-15 42 0
-14 -114 0
-14 32 0
-13 -113 0
-13 22 0
-12 -252 0
-12 -242 0
-12 -232 0
-12 -222 0
-12 -212 0
-12 -202 0
-12 -112 0
-12 12 0
-11 -111 0
-10 -110 0
-10 91 0
-9 -109 0
-9 81 0
-8 -108 0
-8 71 0
-7 -107 0
-7 61 0
-6 -106 0
-6 51 0
-5 -105 0
-5 41 0
-4 -104 0
-4 31 0
-3 -103 0
-3 21 0
-2 -102 0
-2 11 0
-1 -251 0
-1 -241 0
-1 -231 0
-1 -221 0
-1 -211 0
-1 -201 0
-1 -101 0
-1 1 0
2 -11 0
3 -21 0
4 -31 0
5 -41 0
6 -51 0
7 -61 0
8 -71 0
9 -81 0
10 -91 0
13 -22 0
14 -32 0
15 -42 0
16 -52 0
17 -62 0
18 -72 0
19 -82 0
20 -92 0
24 -33 0
25 -43 0
26 -53 0
27 -63 0
28 -73 0
29 -83 0
30 -93 0
35 -44 0
36 -54 0
37 -64 0
38 -74 0
39 -84 0
40 -94 0
46 -55 0
47 -65 0
48 -75 0
49 -85 0
50 -95 0
57 -66 0
58 -76 0
59 -86 0
60 -96 0
68 -77 0
69 -87 0
70 -97 0
79 -88 0
80 -98 0
90 -99 0
102 -111 0
103 -121 0
104 -131 0
105 -141 0
106 -151 0
107 -161 0
108 -171 0
109 -181 0
110 -191 0
113 -122 0
114 -132 0
115 -142 0
116 -152 0
117 -162 0
118 -172 0
119 -182 0
120 -192 0
124 -133 0
125 -143 0
126 -153 0
127 -163 0
128 -173 0
129 -183 0
130 -193 0
135 -144 0
136 -154 0
137 -164 0
138 -174 0
139 -184 0
140 -194 0
146 -155 0
147 -165 0
148 -175 0
149 -185 0
150 -195 0
157 -166 0
158 -176 0
159 -186 0
160 -196 0
168 -177 0
169 -187 0
170 -197 0
179 -188 0
180 -198 0
190 -199 0
-199 -259 -260 0
-199 -249 -250 0
-199 -239 -240 0
-199 -229 -230 0
-199 -219 -220 0
-199 -209 -210 0
-198 -258 -260 0
-198 -248 -250 0
-198 -238 -240 0
-198 -228 -230 0
-198 -218 -220 0
-198 -208 -210 0
-197 -257 -260 0
-197 -247 -250 0
-197 -237 -240 0
-197 -227 -230 0
-197 -217 -220 0
-197 -207 -210 0
-196 -256 -260 0
-196 -246 -250 0
-196 -236 -240 0
-196 -226 -230 0
-196 -216 -220 0
-196 -206 -210 0
-195 -255 -260 0
-195 -245 -250 0
-195 -235 -240 0
-195 -225 -230 0
-195 -215 -220 0
-195 -205 -210 0
-194 -254 -260 0
-194 -244 -250 0
-194 -234 -240 0
-194 -224 -230 0
-194 -214 -220 0
-194 -204 -210 0
-193 -253 -260 0
-193 -243 -250 0
-193 -233 -240 0
-193 -223 -230 0
-193 -213 -220 0
-193 -203 -210 0
-192 -252 -260 0
-192 -242 -250 0
-192 -232 -240 0
-192 -222 -230 0
-192 -212 -220 0
-192 -202 -210 0
-191 -251 -260 0
-191 -241 -250 0
-191 -231 -240 0
-191 -221 -230 0
-191 -211 -220 0
-191 -201 -210 0
-190 -259 -260 0
-190 -249 -250 0
-190 -239 -240 0
-190 -229 -230 0
-190 -219 -220 0
-190 -209 -210 0
-188 -258 -259 0
-188 -248 -249 0
-188 -238 -239 0
-188 -228 -229 0
-188 -218 -219 0
-188 -208 -209 0
-187 -257 -259 0
-187 -247 -249 0
-187 -237 -239 0
-187 -227 -229 0
-187 -217 -219 0
-187 -207 -209 0
-186 -256 -259 0
-186 -246 -249 0
-186 -236 -239 0
-186 -226 -229 0
-186 -216 -219 0
-186 -206 -209 0
-185 -255 -259 0
-185 -245 -249 0
-185 -235 -239 0
-185 -225 -229 0
-185 -215 -219 0
-185 -205 -209 0
-184 -254 -259 0
-184 -244 -249 0
-184 -234 -239 0
-184 -224 -229 0
-184 -214 -219 0
-184 -204 -209 0
-183 -253 -259 0
-183 -243 -249 0
-183 -233 -239 0
-183 -223 -229 0
-183 -213 -219 0
-183 -203 -209 0
-182 -252 -259 0
-182 -242 -249 0
-182 -232 -239 0
-182 -222 -229 0
-182 -212 -219 0
-182 -202 -209 0
-181 -251 -259 0
-181 -241 -249 0
-181 -231 -239 0
-181 -221 -229 0
-181 -211 -219 0
-181 -201 -209 0
-180 -258 -260 0
-180 -248 -250 0
-180 -238 -240 0
-180 -228 -230 0
-180 -218 -220 0
-180 -208 -210 0
-179 -258 -259 0
-179 -248 -249 0
-179 -238 -239 0
-179 -228 -229 0
-179 -218 -219 0
-179 -208 -209 0
-177 -257 -258 0
-177 -247 -248 0
-177 -237 -238 0
-177 -227 -228 0
-177 -217 -218 0
-177 -207 -208 0
-176 -256 -258 0
-176 -246 -248 0
-176 -236 -238 0
-176 -226 -228 0
-176 -216 -218 0
-176 -206 -208 0
-175 -255 -258 0
-175 -245 -248 0
-175 -235 -238 0
-175 -225 -228 0
-175 -215 -218 0
-175 -205 -208 0
-174 -254 -258 0
-174 -244 -248 0
-174 -234 -238 0
-174 -224 -228 0
-174 -214 -218 0
-174 -204 -208 0
-173 -253 -258 0
-173 -243 -248 0
-173 -233 -238 0
-173 -223 -228 0
-173 -213 -218 0
-173 -203 -208 0
-172 -252 -258 0
-172 -242 -248 0
-172 -232 -238 0
-172 -222 -228 0
-172 -212 -218 0
-172 -202 -208 0
-171 -251 -258 0
-171 -241 -248 0
-171 -231 -238 0
-171 -221 -228 0
-171 -211 -218 0
-171 -201 -208 0
-170 -257 -260 0
-170 -247 -250 0
-170 -237 -240 0
-170 -227 -230 0
-170 -217 -220 0
-170 -207 -210 0
-169 -257 -259 0
-169 -247 -249 0
-169 -237 -239 0
-169 -227 -229 0
-169 -217 -219 0
-169 -207 -209 0
-168 -257 -258 0
-168 -247 -248 0
-168 -237 -238 0
-168 -227 -228 0
-168 -217 -218 0
-168 -207 -208 0
-166 -256 -257 0
-166 -246 -247 0
-166 -236 -237 0
-166 -226 -227 0
-166 -216 -217 0
-166 -206 -207 0
-165 -255 -257 0
-165 -245 -247 0
-165 -235 -237 0
-165 -225 -227 0
-165 -215 -217 0
-165 -205 -207 0
-164 -254 -257 0
-164 -244 -247 0
-164 -234 -237 0
-164 -224 -227 0
-164 -214 -217 0
-164 -204 -207 0
-163 -253 -257 0
-163 -243 -247 0
-163 -233 -237 0
-163 -223 -227 0
-163 -213 -217 0
-163 -203 -207 0
-162 -252 -257 0
-162 -242 -247 0
-162 -232 -237 0
-162 -222 -227 0
-162 -212 -217 0
-162 -202 -207 0
-161 -251 -257 0
-161 -241 -247 0
-161 -231 -237 0
-161 -221 -227 0
-161 -211 -217 0
-161 -201 -207 0
-160 -256 -260 0
-160 -246 -250 0
-160 -236 -240 0
-160 -226 -230 0
-160 -216 -220 0
-160 -206 -210 0
-159 -256 -259 0
-159 -246 -249 0
-159 -236 -239 0
-159 -226 -229 0
-159 -216 -219 0
-159 -206 -209 0
-158 -256 -258 0
-158 -246 -248 0
-158 -236 -238 0
-158 -226 -228 0
-158 -216 -218 0
-158 -206 -208 0
-157 -256 -257 0
-157 -246 -247 0
-157 -236 -237 0
-157 -226 -227 0
-157 -216 -217 0
-157 -206 -207 0
-155 -255 -256 0
-155 -245 -246 0
-155 -235 -236 0
-155 -225 -226 0
-155 -215 -216 0
-155 -205 -206 0
-154 -254 -256 0
-154 -244 -246 0
-154 -234 -236 0
-154 -224 -226 0
-154 -214 -216 0
-154 -204 -206 0
-153 -253 -256 0
-153 -243 -246 0
-153 -233 -236 0
-153 -223 -226 0
-153 -213 -216 0
-153 -203 -206 0
-152 -252 -256 0
-152 -242 -246 0
-152 -232 -236 0
-152 -222 -226 0
-152 -212 -216 0
-152 -202 -206 0
-151 -251 -256 0
-151 -241 -246 0
-151 -231 -236 0
-151 -221 -226 0
-151 -211 -216 0
-151 -201 -206 0
-150 -255 -260 0
-150 -245 -250 0
-150 -235 -240 0
-150 -225 -230 0
-150 -215 -220 0
-150 -205 -210 0
-149 -255 -259 0
-149 -245 -249 0
-149 -235 -239 0
-149 -225 -229 0
-149 -215 -219 0
-149 -205 -209 0
-148 -255 -258 0
-148 -245 -248 0
-148 -235 -238 0
-148 -225 -228 0
-148 -215 -218 0
-148 -205 -208 0
-147 -255 -257 0
-147 -245 -247 0
-147 -235 -237 0
-147 -225 -227 0
-147 -215 -217 0
-147 -205 -207 0
-146 -255 -256 0
-146 -245 -246 0
-146 -235 -236 0
-146 -225 -226 0
-146 -215 -216 0
-146 -205 -206 0
-144 -254 -255 0
-144 -244 -245 0
-144 -234 -235 0
-144 -224 -225 0
-144 -214 -215 0
-144 -204 -205 0
-143 -253 -255 0
-143 -243 -245 0
-143 -233 -235 0
-143 -223 -225 0
-143 -213 -215 0
-143 -203 -205 0
-142 -252 -255 0
-142 -242 -245 0
-142 -232 -235 0
-142 -222 -225 0
-142 -212 -215 0
-142 -202 -205 0
-141 -251 -255 0
-141 -241 -245 0
-141 -231 -235 0
-141 -221 -225 0
-141 -211 -215 0
-141 -201 -205 0
-140 -254 -260 0
-140 -244 -250 0
-140 -234 -240 0
-140 -224 -230 0
-140 -214 -220 0
-140 -204 -210 0
-139 -254 -259 0
-139 -244 -249 0
-139 -234 -239 0
-139 -224 -229 0
-139 -214 -219 0
-139 -204 -209 0
-138 -254 -258 0
-138 -244 -248 0
-138 -234 -238 0
-138 -224 -228 0
-138 -214 -218 0
-138 -204 -208 0
-137 -254 -257 0
-137 -244 -247 0
-137 -234 -237 0
-137 -224 -227 0
-137 -214 -217 0
-137 -204 -207 0
-136 -254 -256 0
-136 -244 -246 0
-136 -234 -236 0
-136 -224 -226 0
-136 -214 -216 0
-136 -204 -206 0
-135 -254 -255 0
-135 -244 -245 0
-135 -234 -235 0
-135 -224 -225 0
-135 -214 -215 0
-135 -204 -205 0
-133 -253 -254 0
-133 -243 -244 0
-133 -233 -234 0
-133 -223 -224 0
-133 -213 -214 0
-133 -203 -204 0
-132 -252 -254 0
-132 -242 -244 0
-132 -232 -234 0
-132 -222 -224 0
-132 -212 -214 0
-132 -202 -204 0
-131 -251 -254 0
-131 -241 -244 0
-131 -231 -234 0
-131 -221 -224 0
-131 -211 -214 0
-131 -201 -204 0
-130 -253 -260 0
-130 -243 -250 0
-130 -233 -240 0
-130 -223 -230 0
-130 -213 -220 0
-130 -203 -210 0
-129 -253 -259 0
-129 -243 -249 0
-129 -233 -239 0
-129 -223 -229 0
-129 -213 -219 0
-129 -203 -209 0
-128 -253 -258 0
-128 -243 -248 0
-128 -233 -238 0
-128 -223 -228 0
-128 -213 -218 0
-128 -203 -208 0
-127 -253 -257 0
-127 -243 -247 0
-127 -233 -237 0
-127 -223 -227 0
-127 -213 -217 0
-127 -203 -207 0
-126 -253 -256 0
-126 -243 -246 0
-126 -233 -236 0
-126 -223 -226 0
-126 -213 -216 0
-126 -203 -206 0
-125 -253 -255 0
-125 -243 -245 0
-125 -233 -235 0
-125 -223 -225 0
-125 -213 -215 0
-125 -203 -205 0
-124 -253 -254 0
-124 -243 -244 0
-124 -233 -234 0
-124 -223 -224 0
-124 -213 -214 0
-124 -203 -204 0
-122 -252 -253 0
-122 -242 -243 0
-122 -232 -233 0
-122 -222 -223 0
-122 -212 -213 0
-122 -202 -203 0
-121 -251 -253 0
-121 -241 -243 0
-121 -231 -233 0
-121 -221 -223 0
-121 -211 -213 0
-121 -201 -203 0
-120 -252 -260 0
-120 -242 -250 0
-120 -232 -240 0
-120 -222 -230 0
-120 -212 -220 0
-120 -202 -210 0
-119 -252 -259 0
-119 -242 -249 0
-119 -232 -239 0
-119 -222 -229 0
-119 -212 -219 0
-119 -202 -209 0
-118 -252 -258 0
-118 -242 -248 0
-118 -232 -238 0
-118 -222 -228 0
-118 -212 -218 0
-118 -202 -208 0
-117 -252 -257 0
-117 -242 -247 0
-117 -232 -237 0
-117 -222 -227 0
-117 -212 -217 0
-117 -202 -207 0
-116 -252 -256 0
-116 -242 -246 0
-116 -232 -236 0
-116 -222 -226 0
-116 -212 -216 0
-116 -202 -206 0
-115 -252 -255 0
-115 -242 -245 0
-115 -232 -235 0
-115 -222 -225 0
-115 -212 -215 0
-115 -202 -205 0
-114 -252 -254 0
-114 -242 -244 0
-114 -232 -234 0
-114 -222 -224 0
-114 -212 -214 0
-114 -202 -204 0
-113 -252 -253 0
-113 -242 -243 0
-113 -232 -233 0
-113 -222 -223 0
-113 -212 -213 0
-113 -202 -203 0
-111 -251 -252 0
-111 -241 -242 0
-111 -231 -232 0
-111 -221 -222 0
-111 -211 -212 0
-111 -201 -202 0
-110 -251 -260 0
-110 -241 -250 0
-110 -231 -240 0
-110 -221 -230 0
-110 -211 -220 0
-110 -201 -210 0
-109 -251 -259 0
-109 -241 -249 0
-109 -231 -239 0
-109 -221 -229 0
-109 -211 -219 0
-109 -201 -209 0
-108 -251 -258 0
-108 -241 -248 0
-108 -231 -238 0
-108 -221 -228 0
-108 -211 -218 0
-108 -201 -208 0
-107 -251 -257 0
-107 -241 -247 0
-107 -231 -237 0
-107 -221 -227 0
-107 -211 -217 0
-107 -201 -207 0
-106 -251 -256 0
-106 -241 -246 0
-106 -231 -236 0
-106 -221 -226 0
-106 -211 -216 0
-106 -201 -206 0
-105 -251 -255 0
-105 -241 -245 0
-105 -231 -235 0
-105 -221 -225 0
-105 -211 -215 0
-105 -201 -205 0
-104 -251 -254 0
-104 -241 -244 0
-104 -231 -234 0
-104 -221 -224 0
-104 -211 -214 0
-104 -201 -204 0
-103 -251 -253 0
-103 -241 -243 0
-103 -231 -233 0
-103 -221 -223 0
-103 -211 -213 0
-103 -201 -203 0
-102 -251 -252 0
-102 -241 -242 0
-102 -231 -232 0
-102 -221 -222 0
-102 -211 -212 0
-102 -201 -202 0
-99 -259 -260 0
-99 -249 -250 0
-99 -239 -240 0
-99 -229 -230 0
-99 -219 -220 0
-99 -209 -210 0
-98 -258 -260 0
-98 -248 -250 0
-98 -238 -240 0
-98 -228 -230 0
-98 -218 -220 0
-98 -208 -210 0
-97 -257 -260 0
-97 -247 -250 0
-97 -237 -240 0
-97 -227 -230 0
-97 -217 -220 0
-97 -207 -210 0
-96 -256 -260 0
-96 -246 -250 0
-96 -236 -240 0
-96 -226 -230 0
-96 -216 -220 0
-96 -206 -210 0
-95 -255 -260 0
-95 -245 -250 0
-95 -235 -240 0
-95 -225 -230 0
-95 -215 -220 0
-95 -205 -210 0
-94 -254 -260 0
-94 -244 -250 0
-94 -234 -240 0
-94 -224 -230 0
-94 -214 -220 0
-94 -204 -210 0
-93 -253 -260 0
-93 -243 -250 0
-93 -233 -240 0
-93 -223 -230 0
-93 -213 -220 0
-93 -203 -210 0
-92 -252 -260 0
-92 -242 -250 0
-92 -232 -240 0
-92 -222 -230 0
-92 -212 -220 0
-92 -202 -210 0
-91 -251 -260 0
-91 -241 -250 0
-91 -231 -240 0
-91 -221 -230 0
-91 -211 -220 0
-91 -201 -210 0
-90 -259 -260 0
-90 -249 -250 0
-90 -239 -240 0
-90 -229 -230 0
-90 -219 -220 0
-90 -209 -210 0
-88 -258 -259 0
-88 -248 -249 0
-88 -238 -239 0
-88 -228 -229 0
-88 -218 -219 0
-88 -208 -209 0
-87 -257 -259 0
-87 -247 -249 0
-87 -237 -239 0
-87 -227 -229 0
-87 -217 -219 0
-87 -207 -209 0
-86 -256 -259 0
-86 -246 -249 0
-86 -236 -239 0
-86 -226 -229 0
-86 -216 -219 0
-86 -206 -209 0
-85 -255 -259 0
-85 -245 -249 0
-85 -235 -239 0
-85 -225 -229 0
-85 -215 -219 0
-85 -205 -209 0
-84 -254 -259 0
-84 -244 -249 0
-84 -234 -239 0
-84 -224 -229 0
-84 -214 -219 0
-84 -204 -209 0
-83 -253 -259 0
-83 -243 -249 0
-83 -233 -239 0
-83 -223 -229 0
-83 -213 -219 0
-83 -203 -209 0
-82 -252 -259 0
-82 -242 -249 0
-82 -232 -239 0
-82 -222 -229 0
-82 -212 -219 0
-82 -202 -209 0
-81 -251 -259 0
-81 -241 -249 0
-81 -231 -239 0
-81 -221 -229 0
-81 -211 -219 0
-81 -201 -209 0
-80 -258 -260 0
-80 -248 -250 0
-80 -238 -240 0
-80 -228 -230 0
-80 -218 -220 0
-80 -208 -210 0
-79 -258 -259 0
-79 -248 -249 0
-79 -238 -239 0
-79 -228 -229 0
-79 -218 -219 0
-79 -208 -209 0
-77 -257 -258 0
-77 -247 -248 0
-77 -237 -238 0
-77 -227 -228 0
-77 -217 -218 0
-77 -207 -208 0
-76 -256 -258 0
-76 -246 -248 0
-76 -236 -238 0
-76 -226 -228 0
-76 -216 -218 0
-76 -206 -208 0
-75 -255 -258 0
-75 -245 -248 0
-75 -235 -238 0
-75 -225 -228 0
-75 -215 -218 0
-75 -205 -208 0
-74 -254 -258 0
-74 -244 -248 0
-74 -234 -238 0
-74 -224 -228 0
-74 -214 -218 0
-74 -204 -208 0
-73 -253 -258 0
-73 -243 -248 0
-73 -233 -238 0
-73 -223 -228 0
-73 -213 -218 0
-73 -203 -208 0
-72 -252 -258 0
-72 -242 -248 0
-72 -232 -238 0
-72 -222 -228 0
-72 -212 -218 0
-72 -202 -208 0
-71 -251 -258 0
-71 -241 -248 0
-71 -231 -238 0
-71 -221 -228 0
-71 -211 -218 0
-71 -201 -208 0
-70 -257 -260 0
-70 -247 -250 0
-70 -237 -240 0
-70 -227 -230 0
-70 -217 -220 0
-70 -207 -210 0
-69 -257 -259 0
-69 -247 -249 0
-69 -237 -239 0
-69 -227 -229 0
-69 -217 -219 0
-69 -207 -209 0
-68 -257 -258 0
-68 -247 -248 0
-68 -237 -238 0
-68 -227 -228 0
-68 -217 -218 0
-68 -207 -208 0
-66 -256 -257 0
-66 -246 -247 0
-66 -236 -237 0
-66 -226 -227 0
-66 -216 -217 0
-66 -206 -207 0
-65 -255 -257 0
-65 -245 -247 0
-65 -235 -237 0
-65 -225 -227 0
-65 -215 -217 0
-65 -205 -207 0
-64 -254 -257 0
-64 -244 -247 0
-64 -234 -237 0
-64 -224 -227 0
-64 -214 -217 0
-64 -204 -207 0
-63 -253 -257 0
-63 -243 -247 0
-63 -233 -237 0
-63 -223 -227 0
-63 -213 -217 0
-63 -203 -207 0
-62 -252 -257 0
-62 -242 -247 0
-62 -232 -237 0
-62 -222 -227 0
-62 -212 -217 0
-62 -202 -207 0
-61 -251 -257 0
-61 -241 -247 0
-61 -231 -237 0
-61 -221 -227 0
-61 -211 -217 0
-61 -201 -207 0
-60 -256 -260 0
-60 -246 -250 0
-60 -236 -240 0
-60 -226 -230 0
-60 -216 -220 0
-60 -206 -210 0
-59 -256 -259 0
-59 -246 -249 0
-59 -236 -239 0
-59 -226 -229 0
-59 -216 -219 0
-59 -206 -209 0
-58 -256 -258 0
-58 -246 -248 0
-58 -236 -238 0
-58 -226 -228 0
-58 -216 -218 0
-58 -206 -208 0
-57 -256 -257 0
-57 -246 -247 0
-57 -236 -237 0
-57 -226 -227 0
-57 -216 -217 0
-57 -206 -207 0
-55 -255 -256 0
-55 -245 -246 0
-55 -235 -236 0
-55 -225 -226 0
-55 -215 -216 0
-55 -205 -206 0
-54 -254 -256 0
-54 -244 -246 0
-54 -234 -236 0
-54 -224 -226 0
-54 -214 -216 0
-54 -204 -206 0
-53 -253 -256 0
-53 -243 -246 0
-53 -233 -236 0
-53 -223 -226 0
-53 -213 -216 0
-53 -203 -206 0
-52 -252 -256 0
-52 -242 -246 0
-52 -232 -236 0
-52 -222 -226 0
-52 -212 -216 0
-52 -202 -206 0
-51 -251 -256 0
-51 -241 -246 0
-51 -231 -236 0
-51 -221 -226 0
-51 -211 -216 0
-51 -201 -206 0
-50 -255 -260 0
-50 -245 -250 0
-50 -235 -240 0
-50 -225 -230 0
-50 -215 -220 0
-50 -205 -210 0
-49 -255 -259 0
-49 -245 -249 0
-49 -235 -239 0
-49 -225 -229 0
-49 -215 -219 0
-49 -205 -209 0
-48 -255 -258 0
-48 -245 -248 0
-48 -235 -238 0
-48 -225 -228 0
-48 -215 -218 0
-48 -205 -208 0
-47 -255 -257 0
-47 -245 -247 0
-47 -235 -237 0
-47 -225 -227 0
-47 -215 -217 0
-47 -205 -207 0
-46 -255 -256 0
-46 -245 -246 0
-46 -235 -236 0
-46 -225 -226 0
-46 -215 -216 0
-46 -205 -206 0
-44 -254 -255 0
-44 -244 -245 0
-44 -234 -235 0
-44 -224 -225 0
-44 -214 -215 0
-44 -204 -205 0
-43 -253 -255 0
-43 -243 -245 0
-43 -233 -235 0
-43 -223 -225 0
-43 -213 -215 0
-43 -203 -205 0
-42 -252 -255 0
-42 -242 -245 0
-42 -232 -235 0
-42 -222 -225 0
-42 -212 -215 0
-42 -202 -205 0
-41 -251 -255 0
-41 -241 -245 0
-41 -231 -235 0
-41 -221 -225 0
-41 -211 -215 0
-41 -201 -205 0
-40 -254 -260 0
-40 -244 -250 0
-40 -234 -240 0
-40 -224 -230 0
-40 -214 -220 0
-40 -204 -210 0
-39 -254 -259 0
-39 -244 -249 0
-39 -234 -239 0
-39 -224 -229 0
-39 -214 -219 0
-39 -204 -209 0
-38 -254 -258 0
-38 -244 -248 0
-38 -234 -238 0
-38 -224 -228 0
-38 -214 -218 0
-38 -204 -208 0
-37 -254 -257 0
-37 -244 -247 0
-37 -234 -237 0
-37 -224 -227 0
-37 -214 -217 0
-37 -204 -207 0
-36 -254 -256 0
-36 -244 -246 0
-36 -234 -236 0
-36 -224 -226 0
-36 -214 -216 0
-36 -204 -206 0
-35 -254 -255 0
-35 -244 -245 0
-35 -234 -235 0
-35 -224 -225 0
-35 -214 -215 0
-35 -204 -205 0
-33 -253 -254 0
-33 -243 -244 0
-33 -233 -234 0
-33 -223 -224 0
-33 -213 -214 0
-33 -203 -204 0
-32 -252 -254 0
-32 -242 -244 0
-32 -232 -234 0
-32 -222 -224 0
-32 -212 -214 0
-32 -202 -204 0
-31 -251 -254 0
-31 -241 -244 0
-31 -231 -234 0
-31 -221 -224 0
-31 -211 -214 0
-31 -201 -204 0
-30 -253 -260 0
-30 -243 -250 0
-30 -233 -240 0
-30 -223 -230 0
-30 -213 -220 0
-30 -203 -210 0
-29 -253 -259 0
-29 -243 -249 0
-29 -233 -239 0
-29 -223 -229 0
-29 -213 -219 0
-29 -203 -209 0
-28 -253 -258 0
-28 -243 -248 0
-28 -233 -238 0
-28 -223 -228 0
-28 -213 -218 0
-28 -203 -208 0
-27 -253 -257 0
-27 -243 -247 0
-27 -233 -237 0
-27 -223 -227 0
-27 -213 -217 0
-27 -203 -207 0
-26 -253 -256 0
-26 -243 -246 0
-26 -233 -236 0
-26 -223 -226 0
-26 -213 -216 0
-26 -203 -206 0
-25 -253 -255 0
-25 -243 -245 0
-25 -233 -235 0
-25 -223 -225 0
-25 -213 -215 0
-25 -203 -205 0
-24 -253 -254 0
-24 -243 -244 0
-24 -233 -234 0
-24 -223 -224 0
-24 -213 -214 0
-24 -203 -204 0
-22 -252 -253 0
-22 -242 -243 0
-22 -232 -233 0
-22 -222 -223 0
-22 -212 -213 0
-22 -202 -203 0
-21 -251 -253 0
-21 -241 -243 0
-21 -231 -233 0
-21 -221 -223 0
-21 -211 -213 0
-21 -201 -203 0
-20 -252 -260 0
-20 -242 -250 0
-20 -232 -240 0
-20 -222 -230 0
-20 -212 -220 0
-20 -202 -210 0
-19 -252 -259 0
-19 -242 -249 0
-19 -232 -239 0
-19 -222 -229 0
-19 -212 -219 0
-19 -202 -209 0
-18 -252 -258 0
-18 -242 -248 0
-18 -232 -238 0
-18 -222 -228 0
-18 -212 -218 0
-18 -202 -208 0
-17 -252 -257 0
-17 -242 -247 0
-17 -232 -237 0
-17 -222 -227 0
-17 -212 -217 0
-17 -202 -207 0
-16 -252 -256 0
-16 -242 -246 0
-16 -232 -236 0
-16 -222 -226 0
-16 -212 -216 0
-16 -202 -206 0
-15 -252 -255 0
-15 -242 -245 0
-15 -232 -235 0
-15 -222 -225 0
-15 -212 -215 0
-15 -202 -205 0
-14 -252 -254 0
-14 -242 -244 0
-14 -232 -234 0
-14 -222 -224 0
-14 -212 -214 0
-14 -202 -204 0
-13 -252 -253 0
-13 -242 -243 0
-13 -232 -233 0
-13 -222 -223 0
-13 -212 -213 0
-13 -202 -203 0
-11 -251 -252 0
-11 -241 -242 0
-11 -231 -232 0
-11 -221 -222 0
-11 -211 -212 0
-11 -201 -202 0
-10 -251 -260 0
-10 -241 -250 0
-10 -231 -240 0
-10 -221 -230 0
-10 -211 -220 0
-10 -201 -210 0
-9 -251 -259 0
-9 -241 -249 0
-9 -231 -239 0
-9 -221 -229 0
-9 -211 -219 0
-9 -201 -209 0
-8 -251 -258 0
-8 -241 -248 0
-8 -231 -238 0
-8 -221 -228 0
-8 -211 -218 0
-8 -201 -208 0
-7 -251 -257 0
-7 -241 -247 0
-7 -231 -237 0
-7 -221 -227 0
-7 -211 -217 0
-7 -201 -207 0
-6 -251 -256 0
-6 -241 -246 0
-6 -231 -236 0
-6 -221 -226 0
-6 -211 -216 0
-6 -201 -206 0
-5 -251 -255 0
-5 -241 -245 0
-5 -231 -235 0
-5 -221 -225 0
-5 -211 -215 0
-5 -201 -205 0
-4 -251 -254 0
-4 -241 -244 0
-4 -231 -234 0
-4 -221 -224 0
-4 -211 -214 0
-4 -201 -204 0
-3 -251 -253 0
-3 -241 -243 0
-3 -231 -233 0
-3 -221 -223 0
-3 -211 -213 0
-3 -201 -203 0
-2 -251 -252 0
-2 -241 -242 0
-2 -231 -232 0
-2 -221 -222 0
-2 -211 -212 0
-2 -201 -202 0
201 211 221 231 241 251 0
202 212 222 232 242 252 0
203 213 223 233 243 253 0
204 214 224 234 244 254 0
205 215 225 235 245 255 0
206 216 226 236 246 256 0
207 217 227 237 247 257 0
208 218 228 238 248 258 0
209 219 229 239 249 259 0
210 220 230 240 250 260 0
1 2 3 4 5 6 7 8 9 10 0
11 12 13 14 15 16 17 18 19 20 0
21 22 23 24 25 26 27 28 29 30 0
31 32 33 34 35 36 37 38 39 40 0
41 42 43 44 45 46 47 48 49 50 0
51 52 53 54 55 56 57 58 59 60 0
61 62 63 64 65 66 67 68 69 70 0
71 72 73 74 75 76 77 78 79 80 0
81 82 83 84 85 86 87 88 89 90 0
91 92 93 94 95 96 97 98 99 100 0
101 102 103 104 105 106 107 108 109 110 0
111 112 113 114 115 116 117 118 119 120 0
121 122 123 124 125 126 127 128 129 130 0
131 132 133 134 135 136 137 138 139 140 0
141 142 143 144 145 146 147 148 149 150 0
151 152 153 154 155 156 157 158 159 160 0
161 162 163 164 165 166 167 168 169 170 0
171 172 173 174 175 176 177 178 179 180 0
181 182 183 184 185 186 187 188 189 190 0
191 192 193 194 195 196 197 198 199 200 0
