c E1(e1,e1) E1(e1,e2) E1(e1,e3) E1(e1,e4) E1(e2,e1) E1(e2,e2) E1(e2,e3) E1(e2,e4) E1(e3,e1) E1(e3,e2) E1(e3,e3) E1(e3,e4) E1(e4,e1) E1(e4,e2) E1(e4,e3) E1(e4,e4) E2(e1,e1) E2(e1,e2) E2(e1,e3) E2(e1,e4) E2(e2,e1) E2(e2,e2) E2(e2,e3) E2(e2,e4) E2(e3,e1) E2(e3,e2) E2(e3,e3) E2(e3,e4) E2(e4,e1) E2(e4,e2) E2(e4,e3) E2(e4,e4) U1(e1) U1(e2) U1(e3) U1(e4) U2(e1) U2(e2) U2(e3) U2(e4) U3(e1) U3(e2) U3(e3) U3(e4) U4(e1) U4(e2) U4(e3) U4(e4) U5(e1) U5(e2) U5(e3) U5(e4) U6(e1) U6(e2) U6(e3) U6(e4)
c 1 2 3 4 5 6 7 8 9 10 11 12 13 14 15 16 17 18 19 20 21 22 23 24 25 26 27 28 29 30 31 32 33 34 35 36 37 38 39 40 41 42 43 44 45 46 47 48 49 50 51 52 53 54 55 56
p cnf 56 336
-56 56 0
-55 55 0
-54 54 0
-53 53 0
-52 -56 0
-52 52 0
-51 -55 0
-51 51 0
-50 -54 0
-50 50 0
-49 -53 0
-49 49 0
-48 -56 0
-48 -52 0
-48 48 0
-47 -55 0
-47 -51 0
-47 47 0
-46 -54 0
-46 -50 0
-46 46 0
-45 -53 0
-45 -49 0
-45 45 0
-44 -56 0
-44 -52 0
-44 -48 0
-44 44 0
-43 -55 0
-43 -51 0
-43 -47 0
-43 43 0
-42 -54 0
-42 -50 0
-42 -46 0
-42 42 0
-41 -53 0
-41 -49 0
-41 -45 0
-41 41 0
-40 -56 0
-40 -52 0
-40 -48 0
-40 -44 0
-40 40 0
-39 -55 0
-39 -51 0
-39 -47 0
-39 -43 0
-39 39 0
-38 -54 0
-38 -50 0
-38 -46 0
-38 -42 0
-38 38 0
-37 -53 0
-37 -49 0
-37 -45 0
-37 -41 0
-37 37 0
-36 -56 0
-36 -52 0
-36 -48 0
-36 -44 0
-36 -40 0
-36 36 0
-35 -55 0
-35 -51 0
-35 -47 0
-35 -43 0
-35 -39 0
-35 35 0
-34 -54 0
-34 -50 0
-34 -46 0
-34 -42 0
-34 -38 0
-34 34 0
-33 -53 0
-33 -49 0
-33 -45 0
-33 -41 0
-33 -37 0
-33 33 0
-32 -56 0
-32 -52 0
-32 -48 0
-32 -44 0
-32 -40 0
-32 -36 0
-32 32 0
-28 31 0
-27 -55 0
-27 -51 0
-27 -47 0
-27 -43 0
-27 -39 0
-27 -35 0
-27 27 0
-24 30 0
-23 26 0
-22 -54 0
-22 -50 0
-22 -46 0
-22 -42 0
-22 -38 0
-22 -34 0
-22 22 0
-20 29 0
-19 25 0
-18 21 0
-17 -53 0
-17 -49 0
-17 -45 0
-17 -41 0
-17 -37 0
-17 -33 0
-17 17 0
-16 -56 0
-16 -52 0
-16 -48 0
-16 -44 0
-16 -40 0
-16 -36 0
-16 -32 0
-16 16 0
-15 -31 0
-14 -30 0
-13 -29 0
-12 -28 0
-12 15 0
-11 -55 0
-11 -51 0
-11 -47 0
-11 -43 0
-11 -39 0
-11 -35 0
-11 -27 0
-11 11 0
-10 -26 0
-9 -25 0
-8 -24 0
-8 14 0
-7 -23 0
-7 10 0
-6 -54 0
-6 -50 0
-6 -46 0
-6 -42 0
-6 -38 0
-6 -34 0
-6 -22 0
-6 6 0
-5 -21 0
-4 -20 0
-4 13 0
-3 -19 0
-3 9 0
-2 -18 0
-2 5 0
-1 -53 0
-1 -49 0
-1 -45 0
-1 -41 0
-1 -37 0
-1 -33 0
-1 -17 0
-1 1 0
2 -5 0
3 -9 0
4 -13 0
7 -10 0
8 -14 0
12 -15 0
18 -21 0
19 -25 0
20 -29 0
23 -26 0
24 -30 0
28 -31 0
-31 -55 -56 0
-31 -51 -52 0
-31 -47 -48 0
-31 -43 -44 0
-31 -39 -40 0
-31 -35 -36 0
-30 -54 -56 0
-30 -50 -52 0
-30 -46 -48 0
-30 -42 -44 0
-30 -38 -40 0
-30 -34 -36 0
-29 -53 -56 0
-29 -49 -52 0
-29 -45 -48 0
-29 -41 -44 0
-29 -37 -40 0
-29 -33 -36 0
-28 -55 -56 0
-28 -51 -52 0
-28 -47 -48 0
-28 -43 -44 0
-28 -39 -40 0
-28 -35 -36 0
-26 -54 -55 0
-26 -50 -51 0
-26 -46 -47 0
-26 -42 -43 0
-26 -38 -39 0
-26 -34 -35 0
-25 -53 -55 0
-25 -49 -51 0
-25 -45 -47 0
-25 -41 -43 0
-25 -37 -39 0
-25 -33 -35 0
-24 -54 -56 0
-24 -50 -52 0
-24 -46 -48 0
-24 -42 -44 0
-24 -38 -40 0
-24 -34 -36 0
-23 -54 -55 0
-23 -50 -51 0
-23 -46 -47 0
-23 -42 -43 0
-23 -38 -39 0
-23 -34 -35 0
-21 -53 -54 0
-21 -49 -50 0
-21 -45 -46 0
-21 -41 -42 0
-21 -37 -38 0
-21 -33 -34 0
-20 -53 -56 0
-20 -49 -52 0
-20 -45 -48 0
-20 -41 -44 0
-20 -37 -40 0
-20 -33 -36 0
-19 -53 -55 0
-19 -49 -51 0
-19 -45 -47 0
-19 -41 -43 0
-19 -37 -39 0
-19 -33 -35 0
-18 -53 -54 0
-18 -49 -50 0
-18 -45 -46 0
-18 -41 -42 0
-18 -37 -38 0
-18 -33 -34 0
-15 -55 -56 0
-15 -51 -52 0
-15 -47 -48 0
-15 -43 -44 0
-15 -39 -40 0
-15 -35 -36 0
-14 -54 -56 0
-14 -50 -52 0
-14 -46 -48 0
-14 -42 -44 0
-14 -38 -40 0
-14 -34 -36 0
-13 -53 -56 0
-13 -49 -52 0
-13 -45 -48 0
-13 -41 -44 0
-13 -37 -40 0
-13 -33 -36 0
-12 -55 -56 0
-12 -51 -52 0
-12 -47 -48 0
-12 -43 -44 0
-12 -39 -40 0
-12 -35 -36 0
-10 -54 -55 0
-10 -50 -51 0
-10 -46 -47 0
-10 -42 -43 0
-10 -38 -39 0
-10 -34 -35 0
-9 -53 -55 0
-9 -49 -51 0
-9 -45 -47 0
-9 -41 -43 0
-9 -37 -39 0
-9 -33 -35 0
-8 -54 -56 0
-8 -50 -52 0
-8 -46 -48 0
-8 -42 -44 0
-8 -38 -40 0
-8 -34 -36 0
-7 -54 -55 0
-7 -50 -51 0
-7 -46 -47 0
-7 -42 -43 0
-7 -38 -39 0
-7 -34 -35 0
-5 -53 -54 0
-5 -49 -50 0
-5 -45 -46 0
-5 -41 -42 0
-5 -37 -38 0
-5 -33 -34 0
-4 -53 -56 0
-4 -49 -52 0
-4 -45 -48 0
-4 -41 -44 0
-4 -37 -40 0
-4 -33 -36 0
-3 -53 -55 0
-3 -49 -51 0
-3 -45 -47 0
-3 -41 -43 0
-3 -37 -39 0
-3 -33 -35 0
-2 -53 -54 0
-2 -49 -50 0
-2 -45 -46 0
-2 -41 -42 0
-2 -37 -38 0
-2 -33 -34 0
1 2 3 4 0
5 6 7 8 0
9 10 11 12 0
13 14 15 16 0
17 18 19 20 0
21 22 23 24 0
25 26 27 28 0
29 30 31 32 0
33 37 41 45 49 53 0
34 38 42 46 50 54 0
35 39 43 47 51 55 0
36 40 44 48 52 56 0
