c E1(e1,e1) E1(e1,e2) E1(e1,e3) E1(e1,e4) E1(e1,e5) E1(e2,e1) E1(e2,e2) E1(e2,e3) E1(e2,e4) E1(e2,e5) E1(e3,e1) E1(e3,e2) E1(e3,e3) E1(e3,e4) E1(e3,e5) E1(e4,e1) E1(e4,e2) E1(e4,e3) E1(e4,e4) E1(e4,e5) E1(e5,e1) E1(e5,e2) E1(e5,e3) E1(e5,e4) E1(e5,e5) E2(e1,e1) E2(e1,e2) E2(e1,e3) E2(e1,e4) E2(e1,e5) E2(e2,e1) E2(e2,e2) E2(e2,e3) E2(e2,e4) E2(e2,e5) E2(e3,e1) E2(e3,e2) E2(e3,e3) E2(e3,e4) E2(e3,e5) E2(e4,e1) E2(e4,e2) E2(e4,e3) E2(e4,e4) E2(e4,e5) E2(e5,e1) E2(e5,e2) E2(e5,e3) E2(e5,e4) E2(e5,e5) U1(e1) U1(e2) U1(e3) U1(e4) U1(e5) U2(e1) U2(e2) U2(e3) U2(e4) U2(e5) U3(e1) U3(e2) U3(e3) U3(e4) U3(e5) U4(e1) U4(e2) U4(e3) U4(e4) U4(e5) U5(e1) U5(e2) U5(e3) U5(e4) U5(e5) U6(e1) U6(e2) U6(e3) U6(e4) U6(e5)
c 1 2 3 4 5 6 7 8 9 10 11 12 13 14 15 16 17 18 19 20 21 22 23 24 25 26 27 28 29 30 31 32 33 34 35 36 37 38 39 40 41 42 43 44 45 46 47 48 49 50 51 52 53 54 55 56 57 58 59 60 61 62 63 64 65 66 67 68 69 70 71 72 73 74 75 76 77 78 79 80
p cnf 80 495
-80 80 0
-79 79 0
-78 78 0
-77 77 0
-76 76 0
-75 -80 0
-75 75 0
-74 -79 0
-74 74 0
-73 -78 0
-73 73 0
-72 -77 0
-72 72 0
-71 -76 0
-71 71 0
-70 -80 0
-70 -75 0
-70 70 0
-69 -79 0
-69 -74 0
-69 69 0
-68 -78 0
-68 -73 0
-68 68 0
-67 -77 0
-67 -72 0
-67 67 0
-66 -76 0
-66 -71 0
-66 66 0
-65 -80 0
-65 -75 0
-65 -70 0
-65 65 0
-64 -79 0
-64 -74 0
-64 -69 0
-64 64 0
-63 -78 0
-63 -73 0
-63 -68 0
-63 63 0
-62 -77 0
-62 -72 0
-62 -67 0
-62 62 0
-61 -76 0
-61 -71 0
-61 -66 0
-61 61 0
-60 -80 0
-60 -75 0
-60 -70 0
-60 -65 0
-60 60 0
-59 -79 0
-59 -74 0
-59 -69 0
-59 -64 0
-59 59 0
-58 -78 0
-58 -73 0
-58 -68 0
-58 -63 0
-58 58 0
-57 -77 0
-57 -72 0
-57 -67 0
-57 -62 0
-57 57 0
-56 -76 0
-56 -71 0
-56 -66 0
-56 -61 0
-56 56 0
-55 -80 0
-55 -75 0
-55 -70 0
-55 -65 0
-55 -60 0
-55 55 0
-54 -79 0
-54 -74 0
-54 -69 0
-54 -64 0
-54 -59 0
-54 54 0
-53 -78 0
-53 -73 0
-53 -68 0
-53 -63 0
-53 -58 0
-53 53 0
-52 -77 0
-52 -72 0
-52 -67 0
-52 -62 0
-52 -57 0
-52 52 0
-51 -76 0
-51 -71 0
-51 -66 0
-51 -61 0
-51 -56 0
-51 51 0
-50 -80 0
-50 -75 0
-50 -70 0
-50 -65 0
-50 -60 0
-50 -55 0
-50 50 0
-45 49 0
-44 -79 0
-44 -74 0
-44 -69 0
-44 -64 0
-44 -59 0
-44 -54 0
-44 44 0
-40 48 0
-39 43 0
-38 -78 0
-38 -73 0
-38 -68 0
-38 -63 0
-38 -58 0
-38 -53 0
-38 38 0
-35 47 0
-34 42 0
-33 37 0
-32 -77 0
-32 -72 0
-32 -67 0
-32 -62 0
-32 -57 0
-32 -52 0
-32 32 0
-30 46 0
-29 41 0
-28 36 0
-27 31 0
-26 -76 0
-26 -71 0
-26 -66 0
-26 -61 0
-26 -56 0
-26 -51 0
-26 26 0
-25 -80 0
-25 -75 0
-25 -70 0
-25 -65 0
-25 -60 0
-25 -55 0
-25 -50 0
-25 25 0
-24 -49 0
-23 -48 0
-22 -47 0
-21 -46 0
-20 -45 0
-20 24 0
-19 -79 0
-19 -74 0
-19 -69 0
-19 -64 0
-19 -59 0
-19 -54 0
-19 -44 0
-19 19 0
-18 -43 0
-17 -42 0
-16 -41 0
-15 -40 0
-15 23 0
-14 -39 0
-14 18 0
-13 -78 0
-13 -73 0
-13 -68 0
-13 -63 0
-13 -58 0
-13 -53 0
-13 -38 0
-13 13 0
-12 -37 0
-11 -36 0
-10 -35 0
-10 22 0
-9 -34 0
-9 17 0
-8 -33 0
-8 12 0
-7 -77 0
-7 -72 0
-7 -67 0
-7 -62 0
-7 -57 0
-7 -52 0
-7 -32 0
-7 7 0
-6 -31 0
-5 -30 0
-5 21 0
-4 -29 0
-4 16 0
-3 -28 0
-3 11 0
-2 -27 0
-2 6 0
-1 -76 0
-1 -71 0
-1 -66 0
-1 -61 0
-1 -56 0
-1 -51 0
-1 -26 0
-1 1 0
2 -6 0
3 -11 0
4 -16 0
5 -21 0
8 -12 0
9 -17 0
10 -22 0
14 -18 0
15 -23 0
20 -24 0
27 -31 0
28 -36 0
29 -41 0
30 -46 0
33 -37 0
34 -42 0
35 -47 0
39 -43 0
40 -48 0
45 -49 0
-49 -79 -80 0
-49 -74 -75 0
-49 -69 -70 0
-49 -64 -65 0
-49 -59 -60 0
-49 -54 -55 0
-48 -78 -80 0
-48 -73 -75 0
-48 -68 -70 0
-48 -63 -65 0
-48 -58 -60 0
-48 -53 -55 0
-47 -77 -80 0
-47 -72 -75 0
-47 -67 -70 0
-47 -62 -65 0
-47 -57 -60 0
-47 -52 -55 0
-46 -76 -80 0
-46 -71 -75 0
-46 -66 -70 0
-46 -61 -65 0
-46 -56 -60 0
-46 -51 -55 0
-45 -79 -80 0
-45 -74 -75 0
-45 -69 -70 0
-45 -64 -65 0
-45 -59 -60 0
-45 -54 -55 0
-43 -78 -79 0
-43 -73 -74 0
-43 -68 -69 0
-43 -63 -64 0
-43 -58 -59 0
-43 -53 -54 0
-42 -77 -79 0
-42 -72 -74 0
-42 -67 -69 0
-42 -62 -64 0
-42 -57 -59 0
-42 -52 -54 0
-41 -76 -79 0
-41 -71 -74 0
-41 -66 -69 0
-41 -61 -64 0
-41 -56 -59 0
-41 -51 -54 0
-40 -78 -80 0
-40 -73 -75 0
-40 -68 -70 0
-40 -63 -65 0
-40 -58 -60 0
-40 -53 -55 0
-39 -78 -79 0
-39 -73 -74 0
-39 -68 -69 0
-39 -63 -64 0
-39 -58 -59 0
-39 -53 -54 0
-37 -77 -78 0
-37 -72 -73 0
-37 -67 -68 0
-37 -62 -63 0
-37 -57 -58 0
-37 -52 -53 0
-36 -76 -78 0
-36 -71 -73 0
-36 -66 -68 0
-36 -61 -63 0
-36 -56 -58 0
-36 -51 -53 0
-35 -77 -80 0
-35 -72 -75 0
-35 -67 -70 0
-35 -62 -65 0
-35 -57 -60 0
-35 -52 -55 0
-34 -77 -79 0
-34 -72 -74 0
-34 -67 -69 0
-34 -62 -64 0
-34 -57 -59 0
-34 -52 -54 0
-33 -77 -78 0
-33 -72 -73 0
-33 -67 -68 0
-33 -62 -63 0
-33 -57 -58 0
-33 -52 -53 0
-31 -76 -77 0
-31 -71 -72 0
-31 -66 -67 0
-31 -61 -62 0
-31 -56 -57 0
-31 -51 -52 0
-30 -76 -80 0
-30 -71 -75 0
-30 -66 -70 0
-30 -61 -65 0
-30 -56 -60 0
-30 -51 -55 0
-29 -76 -79 0
-29 -71 -74 0
-29 -66 -69 0
-29 -61 -64 0
-29 -56 -59 0
-29 -51 -54 0
-28 -76 -78 0
-28 -71 -73 0
-28 -66 -68 0
-28 -61 -63 0
-28 -56 -58 0
-28 -51 -53 0
-27 -76 -77 0
-27 -71 -72 0
-27 -66 -67 0
-27 -61 -62 0
-27 -56 -57 0
-27 -51 -52 0
-24 -79 -80 0
-24 -74 -75 0
-24 -69 -70 0
-24 -64 -65 0
-24 -59 -60 0
-24 -54 -55 0
-23 -78 -80 0
-23 -73 -75 0
-23 -68 -70 0
-23 -63 -65 0
-23 -58 -60 0
-23 -53 -55 0
-22 -77 -80 0
-22 -72 -75 0
-22 -67 -70 0
-22 -62 -65 0
-22 -57 -60 0
-22 -52 -55 0
-21 -76 -80 0
-21 -71 -75 0
-21 -66 -70 0
-21 -61 -65 0
-21 -56 -60 0
-21 -51 -55 0
-20 -79 -80 0
-20 -74 -75 0
-20 -69 -70 0
-20 -64 -65 0
-20 -59 -60 0
-20 -54 -55 0
-18 -78 -79 0
-18 -73 -74 0
-18 -68 -69 0
-18 -63 -64 0
-18 -58 -59 0
-18 -53 -54 0
-17 -77 -79 0
-17 -72 -74 0
-17 -67 -69 0
-17 -62 -64 0
-17 -57 -59 0
-17 -52 -54 0
-16 -76 -79 0
-16 -71 -74 0
-16 -66 -69 0
-16 -61 -64 0
-16 -56 -59 0
-16 -51 -54 0
-15 -78 -80 0
-15 -73 -75 0
-15 -68 -70 0
-15 -63 -65 0
-15 -58 -60 0
-15 -53 -55 0
-14 -78 -79 0
-14 -73 -74 0
-14 -68 -69 0
-14 -63 -64 0
-14 -58 -59 0
-14 -53 -54 0
-12 -77 -78 0
-12 -72 -73 0
-12 -67 -68 0
-12 -62 -63 0
-12 -57 -58 0
-12 -52 -53 0
-11 -76 -78 0
-11 -71 -73 0
-11 -66 -68 0
-11 -61 -63 0
-11 -56 -58 0
-11 -51 -53 0
-10 -77 -80 0
-10 -72 -75 0
-10 -67 -70 0
-10 -62 -65 0
-10 -57 -60 0
-10 -52 -55 0
-9 -77 -79 0
-9 -72 -74 0
-9 -67 -69 0
-9 -62 -64 0
-9 -57 -59 0
-9 -52 -54 0
-8 -77 -78 0
-8 -72 -73 0
-8 -67 -68 0
-8 -62 -63 0
-8 -57 -58 0
-8 -52 -53 0
-6 -76 -77 0
-6 -71 -72 0
-6 -66 -67 0
-6 -61 -62 0
-6 -56 -57 0
-6 -51 -52 0
-5 -76 -80 0
-5 -71 -75 0
-5 -66 -70 0
-5 -61 -65 0
-5 -56 -60 0
-5 -51 -55 0
-4 -76 -79 0
-4 -71 -74 0
-4 -66 -69 0
-4 -61 -64 0
-4 -56 -59 0
-4 -51 -54 0
-3 -76 -78 0
-3 -71 -73 0
-3 -66 -68 0
-3 -61 -63 0
-3 -56 -58 0
-3 -51 -53 0
-2 -76 -77 0
-2 -71 -72 0
-2 -66 -67 0
-2 -61 -62 0
-2 -56 -57 0
-2 -51 -52 0
1 2 3 4 5 0
6 7 8 9 10 0
11 12 13 14 15 0
16 17 18 19 20 0
21 22 23 24 25 0
26 27 28 29 30 0
31 32 33 34 35 0
36 37 38 39 40 0
41 42 43 44 45 0
46 47 48 49 50 0
51 56 61 66 71 76 0
52 57 62 67 72 77 0
53 58 63 68 73 78 0
54 59 64 69 74 79 0
55 60 65 70 75 80 0
