c E1(e1,e1) E1(e1,e2) E1(e1,e3) E1(e1,e4) E1(e1,e5) E1(e1,e6) E1(e2,e1) E1(e2,e2) E1(e2,e3) E1(e2,e4) E1(e2,e5) E1(e2,e6) E1(e3,e1) E1(e3,e2) E1(e3,e3) E1(e3,e4) E1(e3,e5) E1(e3,e6) E1(e4,e1) E1(e4,e2) E1(e4,e3) E1(e4,e4) E1(e4,e5) E1(e4,e6) E1(e5,e1) E1(e5,e2) E1(e5,e3) E1(e5,e4) E1(e5,e5) E1(e5,e6) E1(e6,e1) E1(e6,e2) E1(e6,e3) E1(e6,e4) E1(e6,e5) E1(e6,e6) E2(e1,e1) E2(e1,e2) E2(e1,e3) E2(e1,e4) E2(e1,e5) E2(e1,e6) E2(e2,e1) E2(e2,e2) E2(e2,e3) E2(e2,e4) E2(e2,e5) E2(e2,e6) E2(e3,e1) E2(e3,e2) E2(e3,e3) E2(e3,e4) E2(e3,e5) E2(e3,e6) E2(e4,e1) E2(e4,e2) E2(e4,e3) E2(e4,e4) E2(e4,e5) E2(e4,e6) E2(e5,e1) E2(e5,e2) E2(e5,e3) E2(e5,e4) E2(e5,e5) E2(e5,e6) E2(e6,e1) E2(e6,e2) E2(e6,e3) E2(e6,e4) E2(e6,e5) E2(e6,e6) U1(e1) U1(e2) U1(e3) U1(e4) U1(e5) U1(e6) U2(e1) U2(e2) U2(e3) U2(e4) U2(e5) U2(e6) U3(e1) U3(e2) U3(e3) U3(e4) U3(e5) U3(e6) U4(e1) U4(e2) U4(e3) U4(e4) U4(e5) U4(e6) U5(e1) U5(e2) U5(e3) U5(e4) U5(e5) U5(e6) U6(e1) U6(e2) U6(e3) U6(e4) U6(e5) U6(e6)
c 1 2 3 4 5 6 7 8 9 10 11 12 13 14 15 16 17 18 19 20 21 22 23 24 25 26 27 28 29 30 31 32 33 34 35 36 37 38 39 40 41 42 43 44 45 46 47 48 49 50 51 52 53 54 55 56 57 58 59 60 61 62 63 64 65 66 67 68 69 70 71 72 73 74 75 76 77 78 79 80 81 82 83 84 85 86 87 88 89 90 91 92 93 94 95 96 97 98 99 100 101 102 103 104 105 106 107 108
p cnf 108 684
-108 108 0
-107 107 0
-106 106 0
-105 105 0
-104 104 0
-103 103 0
-102 -108 0
-102 102 0
-101 -107 0
-101 101 0
-100 -106 0
-100 100 0
-99 -105 0
-99 99 0
-98 -104 0
-98 98 0
-97 -103 0
-97 97 0
-96 -108 0
-96 -102 0
-96 96 0
-95 -107 0
-95 -101 0
-95 95 0
-94 -106 0
-94 -100 0
-94 94 0
-93 -105 0
-93 -99 0
-93 93 0
-92 -104 0
-92 -98 0
-92 92 0
-91 -103 0
-91 -97 0
-91 91 0
-90 -108 0
-90 -102 0
-90 -96 0
-90 90 0
-89 -107 0
-89 -101 0
-89 -95 0
-89 89 0
-88 -106 0
-88 -100 0
-88 -94 0
-88 88 0
-87 -105 0
-87 -99 0
-87 -93 0
-87 87 0
-86 -104 0
-86 -98 0
-86 -92 0
-86 86 0
-85 -103 0
-85 -97 0
-85 -91 0
-85 85 0
-84 -108 0
-84 -102 0
-84 -96 0
-84 -90 0
-84 84 0
-83 -107 0
-83 -101 0
-83 -95 0
-83 -89 0
-83 83 0
-82 -106 0
-82 -100 0
-82 -94 0
-82 -88 0
-82 82 0
-81 -105 0
-81 -99 0
-81 -93 0
-81 -87 0
-81 81 0
-80 -104 0
-80 -98 0
-80 -92 0
-80 -86 0
-80 80 0
-79 -103 0
-79 -97 0
-79 -91 0
-79 -85 0
-79 79 0
-78 -108 0
-78 -102 0
-78 -96 0
-78 -90 0
-78 -84 0
-78 78 0
-77 -107 0
-77 -101 0
-77 -95 0
-77 -89 0
-77 -83 0
-77 77 0
-76 -106 0
-76 -100 0
-76 -94 0
-76 -88 0
-76 -82 0
-76 76 0
-75 -105 0
-75 -99 0
-75 -93 0
-75 -87 0
-75 -81 0
-75 75 0
-74 -104 0
-74 -98 0
-74 -92 0
-74 -86 0
-74 -80 0
-74 74 0
-73 -103 0
-73 -97 0
-73 -91 0
-73 -85 0
-73 -79 0
-73 73 0
-72 -108 0
-72 -102 0
-72 -96 0
-72 -90 0
-72 -84 0
-72 -78 0
-72 72 0
-66 71 0
-65 -107 0
-65 -101 0
-65 -95 0
-65 -89 0
-65 -83 0
-65 -77 0
-65 65 0
-60 70 0
-59 64 0
-58 -106 0
-58 -100 0
-58 -94 0
-58 -88 0
-58 -82 0
-58 -76 0
-58 58 0
-54 69 0
-53 63 0
-52 57 0
-51 -105 0
-51 -99 0
-51 -93 0
-51 -87 0
-51 -81 0
-51 -75 0
-51 51 0
-48 68 0
-47 62 0
-46 56 0
-45 50 0
-44 -104 0
-44 -98 0
-44 -92 0
-44 -86 0
-44 -80 0
-44 -74 0
-44 44 0
-42 67 0
-41 61 0
-40 55 0
-39 49 0
-38 43 0
-37 -103 0
-37 -97 0
-37 -91 0
-37 -85 0
-37 -79 0
-37 -73 0
-37 37 0
-36 -108 0
-36 -102 0
-36 -96 0
-36 -90 0
-36 -84 0
-36 -78 0
-36 -72 0
-36 36 0
-35 -71 0
-34 -70 0
-33 -69 0
-32 -68 0
-31 -67 0
-30 -66 0
-30 35 0
-29 -107 0
-29 -101 0
-29 -95 0
-29 -89 0
-29 -83 0
-29 -77 0
-29 -65 0
-29 29 0
-28 -64 0
-27 -63 0
-26 -62 0
-25 -61 0
-24 -60 0
-24 34 0
-23 -59 0
-23 28 0
-22 -106 0
-22 -100 0
-22 -94 0
-22 -88 0
-22 -82 0
-22 -76 0
-22 -58 0
-22 22 0
-21 -57 0
-20 -56 0
-19 -55 0
-18 -54 0
-18 33 0
-17 -53 0
-17 27 0
-16 -52 0
-16 21 0
-15 -105 0
-15 -99 0
-15 -93 0
-15 -87 0
-15 -81 0
-15 -75 0
-15 -51 0
-15 15 0
-14 -50 0
-13 -49 0
-12 -48 0
-12 32 0
-11 -47 0
-11 26 0
-10 -46 0
-10 20 0
-9 -45 0
-9 14 0
-8 -104 0
-8 -98 0
-8 -92 0
-8 -86 0
-8 -80 0
-8 -74 0
-8 -44 0
-8 8 0
-7 -43 0
-6 -42 0
-6 31 0
-5 -41 0
-5 25 0
-4 -40 0
-4 19 0
-3 -39 0
-3 13 0
-2 -38 0
-2 7 0
-1 -103 0
-1 -97 0
-1 -91 0
-1 -85 0
-1 -79 0
-1 -73 0
-1 -37 0
-1 1 0
2 -7 0
3 -13 0
4 -19 0
5 -25 0
6 -31 0
9 -14 0
10 -20 0
11 -26 0
12 -32 0
16 -21 0
17 -27 0
18 -33 0
23 -28 0
24 -34 0
30 -35 0
38 -43 0
39 -49 0
40 -55 0
41 -61 0
42 -67 0
45 -50 0
46 -56 0
47 -62 0
48 -68 0
52 -57 0
53 -63 0
54 -69 0
59 -64 0
60 -70 0
66 -71 0
-71 -107 -108 0
-71 -101 -102 0
-71 -95 -96 0
-71 -89 -90 0
-71 -83 -84 0
-71 -77 -78 0
-70 -106 -108 0
-70 -100 -102 0
-70 -94 -96 0
-70 -88 -90 0
-70 -82 -84 0
-70 -76 -78 0
-69 -105 -108 0
-69 -99 -102 0
-69 -93 -96 0
-69 -87 -90 0
-69 -81 -84 0
-69 -75 -78 0
-68 -104 -108 0
-68 -98 -102 0
-68 -92 -96 0
-68 -86 -90 0
-68 -80 -84 0
-68 -74 -78 0
-67 -103 -108 0
-67 -97 -102 0
-67 -91 -96 0
-67 -85 -90 0
-67 -79 -84 0
-67 -73 -78 0
-66 -107 -108 0
-66 -101 -102 0
-66 -95 -96 0
-66 -89 -90 0
-66 -83 -84 0
-66 -77 -78 0
-64 -106 -107 0
-64 -100 -101 0
-64 -94 -95 0
-64 -88 -89 0
-64 -82 -83 0
-64 -76 -77 0
-63 -105 -107 0
-63 -99 -101 0
-63 -93 -95 0
-63 -87 -89 0
-63 -81 -83 0
-63 -75 -77 0
-62 -104 -107 0
-62 -98 -101 0
-62 -92 -95 0
-62 -86 -89 0
-62 -80 -83 0
-62 -74 -77 0
-61 -103 -107 0
-61 -97 -101 0
-61 -91 -95 0
-61 -85 -89 0
-61 -79 -83 0
-61 -73 -77 0
-60 -106 -108 0
-60 -100 -102 0
-60 -94 -96 0
-60 -88 -90 0
-60 -82 -84 0
-60 -76 -78 0
-59 -106 -107 0
-59 -100 -101 0
-59 -94 -95 0
-59 -88 -89 0
-59 -82 -83 0
-59 -76 -77 0
-57 -105 -106 0
-57 -99 -100 0
-57 -93 -94 0
-57 -87 -88 0
-57 -81 -82 0
-57 -75 -76 0
-56 -104 -106 0
-56 -98 -100 0
-56 -92 -94 0
-56 -86 -88 0
-56 -80 -82 0
-56 -74 -76 0
-55 -103 -106 0
-55 -97 -100 0
-55 -91 -94 0
-55 -85 -88 0
-55 -79 -82 0
-55 -73 -76 0
-54 -105 -108 0
-54 -99 -102 0
-54 -93 -96 0
-54 -87 -90 0
-54 -81 -84 0
-54 -75 -78 0
-53 -105 -107 0
-53 -99 -101 0
-53 -93 -95 0
-53 -87 -89 0
-53 -81 -83 0
-53 -75 -77 0
-52 -105 -106 0
-52 -99 -100 0
-52 -93 -94 0
-52 -87 -88 0
-52 -81 -82 0
-52 -75 -76 0
-50 -104 -105 0
-50 -98 -99 0
-50 -92 -93 0
-50 -86 -87 0
-50 -80 -81 0
-50 -74 -75 0
-49 -103 -105 0
-49 -97 -99 0
-49 -91 -93 0
-49 -85 -87 0
-49 -79 -81 0
-49 -73 -75 0
-48 -104 -108 0
-48 -98 -102 0
-48 -92 -96 0
-48 -86 -90 0
-48 -80 -84 0
-48 -74 -78 0
-47 -104 -107 0
-47 -98 -101 0
-47 -92 -95 0
-47 -86 -89 0
-47 -80 -83 0
-47 -74 -77 0
-46 -104 -106 0
-46 -98 -100 0
-46 -92 -94 0
-46 -86 -88 0
-46 -80 -82 0
-46 -74 -76 0
-45 -104 -105 0
-45 -98 -99 0
-45 -92 -93 0
-45 -86 -87 0
-45 -80 -81 0
-45 -74 -75 0
-43 -103 -104 0
-43 -97 -98 0
-43 -91 -92 0
-43 -85 -86 0
-43 -79 -80 0
-43 -73 -74 0
-42 -103 -108 0
-42 -97 -102 0
-42 -91 -96 0
-42 -85 -90 0
-42 -79 -84 0
-42 -73 -78 0
-41 -103 -107 0
-41 -97 -101 0
-41 -91 -95 0
-41 -85 -89 0
-41 -79 -83 0
-41 -73 -77 0
-40 -103 -106 0
-40 -97 -100 0
-40 -91 -94 0
-40 -85 -88 0
-40 -79 -82 0
-40 -73 -76 0
-39 -103 -105 0
-39 -97 -99 0
-39 -91 -93 0
-39 -85 -87 0
-39 -79 -81 0
-39 -73 -75 0
-38 -103 -104 0
-38 -97 -98 0
-38 -91 -92 0
-38 -85 -86 0
-38 -79 -80 0
-38 -73 -74 0
-35 -107 -108 0
-35 -101 -102 0
-35 -95 -96 0
-35 -89 -90 0
-35 -83 -84 0
-35 -77 -78 0
-34 -106 -108 0
-34 -100 -102 0
-34 -94 -96 0
-34 -88 -90 0
-34 -82 -84 0
-34 -76 -78 0
-33 -105 -108 0
-33 -99 -102 0
-33 -93 -96 0
-33 -87 -90 0
-33 -81 -84 0
-33 -75 -78 0
-32 -104 -108 0
-32 -98 -102 0
-32 -92 -96 0
-32 -86 -90 0
-32 -80 -84 0
-32 -74 -78 0
-31 -103 -108 0
-31 -97 -102 0
-31 -91 -96 0
-31 -85 -90 0
-31 -79 -84 0
-31 -73 -78 0
-30 -107 -108 0
-30 -101 -102 0
-30 -95 -96 0
-30 -89 -90 0
-30 -83 -84 0
-30 -77 -78 0
-28 -106 -107 0
-28 -100 -101 0
-28 -94 -95 0
-28 -88 -89 0
-28 -82 -83 0
-28 -76 -77 0
-27 -105 -107 0
-27 -99 -101 0
-27 -93 -95 0
-27 -87 -89 0
-27 -81 -83 0
-27 -75 -77 0
-26 -104 -107 0
-26 -98 -101 0
-26 -92 -95 0
-26 -86 -89 0
-26 -80 -83 0
-26 -74 -77 0
-25 -103 -107 0
-25 -97 -101 0
-25 -91 -95 0
-25 -85 -89 0
-25 -79 -83 0
-25 -73 -77 0
-24 -106 -108 0
-24 -100 -102 0
-24 -94 -96 0
-24 -88 -90 0
-24 -82 -84 0
-24 -76 -78 0
-23 -106 -107 0
-23 -100 -101 0
-23 -94 -95 0
-23 -88 -89 0
-23 -82 -83 0
-23 -76 -77 0
-21 -105 -106 0
-21 -99 -100 0
-21 -93 -94 0
-21 -87 -88 0
-21 -81 -82 0
-21 -75 -76 0
-20 -104 -106 0
-20 -98 -100 0
-20 -92 -94 0
-20 -86 -88 0
-20 -80 -82 0
-20 -74 -76 0
-19 -103 -106 0
-19 -97 -100 0
-19 -91 -94 0
-19 -85 -88 0
-19 -79 -82 0
-19 -73 -76 0
-18 -105 -108 0
-18 -99 -102 0
-18 -93 -96 0
-18 -87 -90 0
-18 -81 -84 0
-18 -75 -78 0
-17 -105 -107 0
-17 -99 -101 0
-17 -93 -95 0
-17 -87 -89 0
-17 -81 -83 0
-17 -75 -77 0
-16 -105 -106 0
-16 -99 -100 0
-16 -93 -94 0
-16 -87 -88 0
-16 -81 -82 0
-16 -75 -76 0
-14 -104 -105 0
-14 -98 -99 0
-14 -92 -93 0
-14 -86 -87 0
-14 -80 -81 0
-14 -74 -75 0
-13 -103 -105 0
-13 -97 -99 0
-13 -91 -93 0
-13 -85 -87 0
-13 -79 -81 0
-13 -73 -75 0
-12 -104 -108 0
-12 -98 -102 0
-12 -92 -96 0
-12 -86 -90 0
-12 -80 -84 0
-12 -74 -78 0
-11 -104 -107 0
-11 -98 -101 0
-11 -92 -95 0
-11 -86 -89 0
-11 -80 -83 0
-11 -74 -77 0
-10 -104 -106 0
-10 -98 -100 0
-10 -92 -94 0
-10 -86 -88 0
-10 -80 -82 0
-10 -74 -76 0
-9 -104 -105 0
-9 -98 -99 0
-9 -92 -93 0
-9 -86 -87 0
-9 -80 -81 0
-9 -74 -75 0
-7 -103 -104 0
-7 -97 -98 0
-7 -91 -92 0
-7 -85 -86 0
-7 -79 -80 0
-7 -73 -74 0
-6 -103 -108 0
-6 -97 -102 0
-6 -91 -96 0
-6 -85 -90 0
-6 -79 -84 0
-6 -73 -78 0
-5 -103 -107 0
-5 -97 -101 0
-5 -91 -95 0
-5 -85 -89 0
-5 -79 -83 0
-5 -73 -77 0
-4 -103 -106 0
-4 -97 -100 0
-4 -91 -94 0
-4 -85 -88 0
-4 -79 -82 0
-4 -73 -76 0
-3 -103 -105 0
-3 -97 -99 0
-3 -91 -93 0
-3 -85 -87 0
-3 -79 -81 0
-3 -73 -75 0
-2 -103 -104 0
-2 -97 -98 0
-2 -91 -92 0
-2 -85 -86 0
-2 -79 -80 0
-2 -73 -74 0
1 2 3 4 5 6 0
7 8 9 10 11 12 0
13 14 15 16 17 18 0
19 20 21 22 23 24 0
25 26 27 28 29 30 0
31 32 33 34 35 36 0
37 38 39 40 41 42 0
43 44 45 46 47 48 0
49 50 51 52 53 54 0
55 56 57 58 59 60 0
61 62 63 64 65 66 0
67 68 69 70 71 72 0
73 79 85 91 97 103 0
74 80 86 92 98 104 0
75 81 87 93 99 105 0
76 82 88 94 100 106 0
77 83 89 95 101 107 0
78 84 90 96 102 108 0
