c E1(e1,e1) E1(e1,e2) E1(e1,e3) E1(e1,e4) E1(e1,e5) E1(e1,e6) E1(e1,e7) E1(e2,e1) E1(e2,e2) E1(e2,e3) E1(e2,e4) E1(e2,e5) E1(e2,e6) E1(e2,e7) E1(e3,e1) E1(e3,e2) E1(e3,e3) E1(e3,e4) E1(e3,e5) E1(e3,e6) E1(e3,e7) E1(e4,e1) E1(e4,e2) E1(e4,e3) E1(e4,e4) E1(e4,e5) E1(e4,e6) E1(e4,e7) E1(e5,e1) E1(e5,e2) E1(e5,e3) E1(e5,e4) E1(e5,e5) E1(e5,e6) E1(e5,e7) E1(e6,e1) E1(e6,e2) E1(e6,e3) E1(e6,e4) E1(e6,e5) E1(e6,e6) E1(e6,e7) E1(e7,e1) E1(e7,e2) E1(e7,e3) E1(e7,e4) E1(e7,e5) E1(e7,e6) E1(e7,e7) E2(e1,e1) E2(e1,e2) E2(e1,e3) E2(e1,e4) E2(e1,e5) E2(e1,e6) E2(e1,e7) E2(e2,e1) E2(e2,e2) E2(e2,e3) E2(e2,e4) E2(e2,e5) E2(e2,e6) E2(e2,e7) E2(e3,e1) E2(e3,e2) E2(e3,e3) E2(e3,e4) E2(e3,e5) E2(e3,e6) E2(e3,e7) E2(e4,e1) E2(e4,e2) E2(e4,e3) E2(e4,e4) E2(e4,e5) E2(e4,e6) E2(e4,e7) E2(e5,e1) E2(e5,e2) E2(e5,e3) E2(e5,e4) E2(e5,e5) E2(e5,e6) E2(e5,e7) E2(e6,e1) E2(e6,e2) E2(e6,e3) E2(e6,e4) E2(e6,e5) E2(e6,e6) E2(e6,e7) E2(e7,e1) E2(e7,e2) E2(e7,e3) E2(e7,e4) E2(e7,e5) E2(e7,e6) E2(e7,e7) U1(e1) U1(e2) U1(e3) U1(e4) U1(e5) U1(e6) U1(e7) U2(e1) U2(e2) U2(e3) U2(e4) U2(e5) U2(e6) U2(e7) U3(e1) U3(e2) U3(e3) U3(e4) U3(e5) U3(e6) U3(e7) U4(e1) U4(e2) U4(e3) U4(e4) U4(e5) U4(e6) U4(e7) U5(e1) U5(e2) U5(e3) U5(e4) U5(e5) U5(e6) U5(e7) U6(e1) U6(e2) U6(e3) U6(e4) U6(e5) U6(e6) U6(e7)
c 1 2 3 4 5 6 7 8 9 10 11 12 13 14 15 16 17 18 19 20 21 22 23 24 25 26 27 28 29 30 31 32 33 34 35 36 37 38 39 40 41 42 43 44 45 46 47 48 49 50 51 52 53 54 55 56 57 58 59 60 61 62 63 64 65 66 67 68 69 70 71 72 73 74 75 76 77 78 79 80 81 82 83 84 85 86 87 88 89 90 91 92 93 94 95 96 97 98 99 100 101 102 103 104 105 106 107 108 109 110 111 112 113 114 115 116 117 118 119 120 121 122 123 124 125 126 127 128 129 130 131 132 133 134 135 136 137 138 139 140
p cnf 140 903
-140 140 0
-139 139 0
-138 138 0
-137 137 0
-136 136 0
-135 135 0
-134 134 0
-133 -140 0
-133 133 0
-132 -139 0
-132 132 0
-131 -138 0
-131 131 0
-130 -137 0
-130 130 0
-129 -136 0
-129 129 0
-128 -135 0
-128 128 0
-127 -134 0
-127 127 0
-126 -140 0
-126 -133 0
-126 126 0
-125 -139 0
-125 -132 0
-125 125 0
-124 -138 0
-124 -131 0
-124 124 0
-123 -137 0
-123 -130 0
-123 123 0
-122 -136 0
-122 -129 0
-122 122 0
-121 -135 0
-121 -128 0
-121 121 0
-120 -134 0
-120 -127 0
-120 120 0
-119 -140 0
-119 -133 0
-119 -126 0
-119 119 0
-118 -139 0
-118 -132 0
-118 -125 0
-118 118 0
-117 -138 0
-117 -131 0
-117 -124 0
-117 117 0
-116 -137 0
-116 -130 0
-116 -123 0
-116 116 0
-115 -136 0
-115 -129 0
-115 -122 0
-115 115 0
-114 -135 0
-114 -128 0
-114 -121 0
-114 114 0
-113 -134 0
-113 -127 0
-113 -120 0
-113 113 0
-112 -140 0
-112 -133 0
-112 -126 0
-112 -119 0
-112 112 0
-111 -139 0
-111 -132 0
-111 -125 0
-111 -118 0
-111 111 0
-110 -138 0
-110 -131 0
-110 -124 0
-110 -117 0
-110 110 0
-109 -137 0
-109 -130 0
-109 -123 0
-109 -116 0
-109 109 0
-108 -136 0
-108 -129 0
-108 -122 0
-108 -115 0
-108 108 0
-107 -135 0
-107 -128 0
-107 -121 0
-107 -114 0
-107 107 0
-106 -134 0
-106 -127 0
-106 -120 0
-106 -113 0
-106 106 0
-105 -140 0
-105 -133 0
-105 -126 0
-105 -119 0
-105 -112 0
-105 105 0
-104 -139 0
-104 -132 0
-104 -125 0
-104 -118 0
-104 -111 0
-104 104 0
-103 -138 0
-103 -131 0
-103 -124 0
-103 -117 0
-103 -110 0
-103 103 0
-102 -137 0
-102 -130 0
-102 -123 0
-102 -116 0
-102 -109 0
-102 102 0
-101 -136 0
-101 -129 0
-101 -122 0
-101 -115 0
-101 -108 0
-101 101 0
-100 -135 0
-100 -128 0
-100 -121 0
-100 -114 0
-100 -107 0
-100 100 0
-99 -134 0
-99 -127 0
-99 -120 0
-99 -113 0
-99 -106 0
-99 99 0
-98 -140 0
-98 -133 0
-98 -126 0
-98 -119 0
-98 -112 0
-98 -105 0
-98 98 0
-91 97 0
-90 -139 0
-90 -132 0
-90 -125 0
-90 -118 0
-90 -111 0
-90 -104 0
-90 90 0
-84 96 0
-83 89 0
-82 -138 0
-82 -131 0
-82 -124 0
-82 -117 0
-82 -110 0
-82 -103 0
-82 82 0
-77 95 0
-76 88 0
-75 81 0
-74 -137 0
-74 -130 0
-74 -123 0
-74 -116 0
-74 -109 0
-74 -102 0
-74 74 0
-70 94 0
-69 87 0
-68 80 0
-67 73 0
-66 -136 0
-66 -129 0
-66 -122 0
-66 -115 0
-66 -108 0
-66 -101 0
-66 66 0
-63 93 0
-62 86 0
-61 79 0
-60 72 0
-59 65 0
-58 -135 0
-58 -128 0
-58 -121 0
-58 -114 0
-58 -107 0
-58 -100 0
-58 58 0
-56 92 0
-55 85 0
-54 78 0
-53 71 0
-52 64 0
-51 57 0
-50 -134 0
-50 -127 0
-50 -120 0
-50 -113 0
-50 -106 0
-50 -99 0
-50 50 0
-49 -140 0
-49 -133 0
-49 -126 0
-49 -119 0
-49 -112 0
-49 -105 0
-49 -98 0
-49 49 0
-48 -97 0
-47 -96 0
-46 -95 0
-45 -94 0
-44 -93 0
-43 -92 0
-42 -91 0
-42 48 0
-41 -139 0
-41 -132 0
-41 -125 0
-41 -118 0
-41 -111 0
-41 -104 0
-41 -90 0
-41 41 0
-40 -89 0
-39 -88 0
-38 -87 0
-37 -86 0
-36 -85 0
-35 -84 0
-35 47 0
-34 -83 0
-34 40 0
-33 -138 0
-33 -131 0
-33 -124 0
-33 -117 0
-33 -110 0
-33 -103 0
-33 -82 0
-33 33 0
-32 -81 0
-31 -80 0
-30 -79 0
-29 -78 0
-28 -77 0
-28 46 0
-27 -76 0
-27 39 0
-26 -75 0
-26 32 0
-25 -137 0
-25 -130 0
-25 -123 0
-25 -116 0
-25 -109 0
-25 -102 0
-25 -74 0
-25 25 0
-24 -73 0
-23 -72 0
-22 -71 0
-21 -70 0
-21 45 0
-20 -69 0
-20 38 0
-19 -68 0
-19 31 0
-18 -67 0
-18 24 0
-17 -136 0
-17 -129 0
-17 -122 0
-17 -115 0
-17 -108 0
-17 -101 0
-17 -66 0
-17 17 0
-16 -65 0
-15 -64 0
-14 -63 0
-14 44 0
-13 -62 0
-13 37 0
-12 -61 0
-12 30 0
-11 -60 0
-11 23 0
-10 -59 0
-10 16 0
-9 -135 0
-9 -128 0
-9 -121 0
-9 -114 0
-9 -107 0
-9 -100 0
-9 -58 0
-9 9 0
-8 -57 0
-7 -56 0
-7 43 0
-6 -55 0
-6 36 0
-5 -54 0
-5 29 0
-4 -53 0
-4 22 0
-3 -52 0
-3 15 0
-2 -51 0
-2 8 0
-1 -134 0
-1 -127 0
-1 -120 0
-1 -113 0
-1 -106 0
-1 -99 0
-1 -50 0
-1 1 0
2 -8 0
3 -15 0
4 -22 0
5 -29 0
6 -36 0
7 -43 0
10 -16 0
11 -23 0
12 -30 0
13 -37 0
14 -44 0
18 -24 0
19 -31 0
20 -38 0
21 -45 0
26 -32 0
27 -39 0
28 -46 0
34 -40 0
35 -47 0
42 -48 0
51 -57 0
52 -64 0
53 -71 0
54 -78 0
55 -85 0
56 -92 0
59 -65 0
60 -72 0
61 -79 0
62 -86 0
63 -93 0
67 -73 0
68 -80 0
69 -87 0
70 -94 0
75 -81 0
76 -88 0
77 -95 0
83 -89 0
84 -96 0
91 -97 0
-97 -139 -140 0
-97 -132 -133 0
-97 -125 -126 0
-97 -118 -119 0
-97 -111 -112 0
-97 -104 -105 0
-96 -138 -140 0
-96 -131 -133 0
-96 -124 -126 0
-96 -117 -119 0
-96 -110 -112 0
-96 -103 -105 0
-95 -137 -140 0
-95 -130 -133 0
-95 -123 -126 0
-95 -116 -119 0
-95 -109 -112 0
-95 -102 -105 0
-94 -136 -140 0
-94 -129 -133 0
-94 -122 -126 0
-94 -115 -119 0
-94 -108 -112 0
-94 -101 -105 0
-93 -135 -140 0
-93 -128 -133 0
-93 -121 -126 0
-93 -114 -119 0
-93 -107 -112 0
-93 -100 -105 0
-92 -134 -140 0
-92 -127 -133 0
-92 -120 -126 0
-92 -113 -119 0
-92 -106 -112 0
-92 -99 -105 0
-91 -139 -140 0
-91 -132 -133 0
-91 -125 -126 0
-91 -118 -119 0
-91 -111 -112 0
-91 -104 -105 0
-89 -138 -139 0
-89 -131 -132 0
-89 -124 -125 0
-89 -117 -118 0
-89 -110 -111 0
-89 -103 -104 0
-88 -137 -139 0
-88 -130 -132 0
-88 -123 -125 0
-88 -116 -118 0
-88 -109 -111 0
-88 -102 -104 0
-87 -136 -139 0
-87 -129 -132 0
-87 -122 -125 0
-87 -115 -118 0
-87 -108 -111 0
-87 -101 -104 0
-86 -135 -139 0
-86 -128 -132 0
-86 -121 -125 0
-86 -114 -118 0
-86 -107 -111 0
-86 -100 -104 0
-85 -134 -139 0
-85 -127 -132 0
-85 -120 -125 0
-85 -113 -118 0
-85 -106 -111 0
-85 -99 -104 0
-84 -138 -140 0
-84 -131 -133 0
-84 -124 -126 0
-84 -117 -119 0
-84 -110 -112 0
-84 -103 -105 0
-83 -138 -139 0
-83 -131 -132 0
-83 -124 -125 0
-83 -117 -118 0
-83 -110 -111 0
-83 -103 -104 0
-81 -137 -138 0
-81 -130 -131 0
-81 -123 -124 0
-81 -116 -117 0
-81 -109 -110 0
-81 -102 -103 0
-80 -136 -138 0
-80 -129 -131 0
-80 -122 -124 0
-80 -115 -117 0
-80 -108 -110 0
-80 -101 -103 0
-79 -135 -138 0
-79 -128 -131 0
-79 -121 -124 0
-79 -114 -117 0
-79 -107 -110 0
-79 -100 -103 0
-78 -134 -138 0
-78 -127 -131 0
-78 -120 -124 0
-78 -113 -117 0
-78 -106 -110 0
-78 -99 -103 0
-77 -137 -140 0
-77 -130 -133 0
-77 -123 -126 0
-77 -116 -119 0
-77 -109 -112 0
-77 -102 -105 0
-76 -137 -139 0
-76 -130 -132 0
-76 -123 -125 0
-76 -116 -118 0
-76 -109 -111 0
-76 -102 -104 0
-75 -137 -138 0
-75 -130 -131 0
-75 -123 -124 0
-75 -116 -117 0
-75 -109 -110 0
-75 -102 -103 0
-73 -136 -137 0
-73 -129 -130 0
-73 -122 -123 0
-73 -115 -116 0
-73 -108 -109 0
-73 -101 -102 0
-72 -135 -137 0
-72 -128 -130 0
-72 -121 -123 0
-72 -114 -116 0
-72 -107 -109 0
-72 -100 -102 0
-71 -134 -137 0
-71 -127 -130 0
-71 -120 -123 0
-71 -113 -116 0
-71 -106 -109 0
-71 -99 -102 0
-70 -136 -140 0
-70 -129 -133 0
-70 -122 -126 0
-70 -115 -119 0
-70 -108 -112 0
-70 -101 -105 0
-69 -136 -139 0
-69 -129 -132 0
-69 -122 -125 0
-69 -115 -118 0
-69 -108 -111 0
-69 -101 -104 0
-68 -136 -138 0
-68 -129 -131 0
-68 -122 -124 0
-68 -115 -117 0
-68 -108 -110 0
-68 -101 -103 0
-67 -136 -137 0
-67 -129 -130 0
-67 -122 -123 0
-67 -115 -116 0
-67 -108 -109 0
-67 -101 -102 0
-65 -135 -136 0
-65 -128 -129 0
-65 -121 -122 0
-65 -114 -115 0
-65 -107 -108 0
-65 -100 -101 0
-64 -134 -136 0
-64 -127 -129 0
-64 -120 -122 0
-64 -113 -115 0
-64 -106 -108 0
-64 -99 -101 0
-63 -135 -140 0
-63 -128 -133 0
-63 -121 -126 0
-63 -114 -119 0
-63 -107 -112 0
-63 -100 -105 0
-62 -135 -139 0
-62 -128 -132 0
-62 -121 -125 0
-62 -114 -118 0
-62 -107 -111 0
-62 -100 -104 0
-61 -135 -138 0
-61 -128 -131 0
-61 -121 -124 0
-61 -114 -117 0
-61 -107 -110 0
-61 -100 -103 0
-60 -135 -137 0
-60 -128 -130 0
-60 -121 -123 0
-60 -114 -116 0
-60 -107 -109 0
-60 -100 -102 0
-59 -135 -136 0
-59 -128 -129 0
-59 -121 -122 0
-59 -114 -115 0
-59 -107 -108 0
-59 -100 -101 0
-57 -134 -135 0
-57 -127 -128 0
-57 -120 -121 0
-57 -113 -114 0
-57 -106 -107 0
-57 -99 -100 0
-56 -134 -140 0
-56 -127 -133 0
-56 -120 -126 0
-56 -113 -119 0
-56 -106 -112 0
-56 -99 -105 0
-55 -134 -139 0
-55 -127 -132 0
-55 -120 -125 0
-55 -113 -118 0
-55 -106 -111 0
-55 -99 -104 0
-54 -134 -138 0
-54 -127 -131 0
-54 -120 -124 0
-54 -113 -117 0
-54 -106 -110 0
-54 -99 -103 0
-53 -134 -137 0
-53 -127 -130 0
-53 -120 -123 0
-53 -113 -116 0
-53 -106 -109 0
-53 -99 -102 0
-52 -134 -136 0
-52 -127 -129 0
-52 -120 -122 0
-52 -113 -115 0
-52 -106 -108 0
-52 -99 -101 0
-51 -134 -135 0
-51 -127 -128 0
-51 -120 -121 0
-51 -113 -114 0
-51 -106 -107 0
-51 -99 -100 0
-48 -139 -140 0
-48 -132 -133 0
-48 -125 -126 0
-48 -118 -119 0
-48 -111 -112 0
-48 -104 -105 0
-47 -138 -140 0
-47 -131 -133 0
-47 -124 -126 0
-47 -117 -119 0
-47 -110 -112 0
-47 -103 -105 0
-46 -137 -140 0
-46 -130 -133 0
-46 -123 -126 0
-46 -116 -119 0
-46 -109 -112 0
-46 -102 -105 0
-45 -136 -140 0
-45 -129 -133 0
-45 -122 -126 0
-45 -115 -119 0
-45 -108 -112 0
-45 -101 -105 0
-44 -135 -140 0
-44 -128 -133 0
-44 -121 -126 0
-44 -114 -119 0
-44 -107 -112 0
-44 -100 -105 0
-43 -134 -140 0
-43 -127 -133 0
-43 -120 -126 0
-43 -113 -119 0
-43 -106 -112 0
-43 -99 -105 0
-42 -139 -140 0
-42 -132 -133 0
-42 -125 -126 0
-42 -118 -119 0
-42 -111 -112 0
-42 -104 -105 0
-40 -138 -139 0
-40 -131 -132 0
-40 -124 -125 0
-40 -117 -118 0
-40 -110 -111 0
-40 -103 -104 0
-39 -137 -139 0
-39 -130 -132 0
-39 -123 -125 0
-39 -116 -118 0
-39 -109 -111 0
-39 -102 -104 0
-38 -136 -139 0
-38 -129 -132 0
-38 -122 -125 0
-38 -115 -118 0
-38 -108 -111 0
-38 -101 -104 0
-37 -135 -139 0
-37 -128 -132 0
-37 -121 -125 0
-37 -114 -118 0
-37 -107 -111 0
-37 -100 -104 0
-36 -134 -139 0
-36 -127 -132 0
-36 -120 -125 0
-36 -113 -118 0
-36 -106 -111 0
-36 -99 -104 0
-35 -138 -140 0
-35 -131 -133 0
-35 -124 -126 0
-35 -117 -119 0
-35 -110 -112 0
-35 -103 -105 0
-34 -138 -139 0
-34 -131 -132 0
-34 -124 -125 0
-34 -117 -118 0
-34 -110 -111 0
-34 -103 -104 0
-32 -137 -138 0
-32 -130 -131 0
-32 -123 -124 0
-32 -116 -117 0
-32 -109 -110 0
-32 -102 -103 0
-31 -136 -138 0
-31 -129 -131 0
-31 -122 -124 0
-31 -115 -117 0
-31 -108 -110 0
-31 -101 -103 0
-30 -135 -138 0
-30 -128 -131 0
-30 -121 -124 0
-30 -114 -117 0
-30 -107 -110 0
-30 -100 -103 0
-29 -134 -138 0
-29 -127 -131 0
-29 -120 -124 0
-29 -113 -117 0
-29 -106 -110 0
-29 -99 -103 0
-28 -137 -140 0
-28 -130 -133 0
-28 -123 -126 0
-28 -116 -119 0
-28 -109 -112 0
-28 -102 -105 0
-27 -137 -139 0
-27 -130 -132 0
-27 -123 -125 0
-27 -116 -118 0
-27 -109 -111 0
-27 -102 -104 0
-26 -137 -138 0
-26 -130 -131 0
-26 -123 -124 0
-26 -116 -117 0
-26 -109 -110 0
-26 -102 -103 0
-24 -136 -137 0
-24 -129 -130 0
-24 -122 -123 0
-24 -115 -116 0
-24 -108 -109 0
-24 -101 -102 0
-23 -135 -137 0
-23 -128 -130 0
-23 -121 -123 0
-23 -114 -116 0
-23 -107 -109 0
-23 -100 -102 0
-22 -134 -137 0
-22 -127 -130 0
-22 -120 -123 0
-22 -113 -116 0
-22 -106 -109 0
-22 -99 -102 0
-21 -136 -140 0
-21 -129 -133 0
-21 -122 -126 0
-21 -115 -119 0
-21 -108 -112 0
-21 -101 -105 0
-20 -136 -139 0
-20 -129 -132 0
-20 -122 -125 0
-20 -115 -118 0
-20 -108 -111 0
-20 -101 -104 0
-19 -136 -138 0
-19 -129 -131 0
-19 -122 -124 0
-19 -115 -117 0
-19 -108 -110 0
-19 -101 -103 0
-18 -136 -137 0
-18 -129 -130 0
-18 -122 -123 0
-18 -115 -116 0
-18 -108 -109 0
-18 -101 -102 0
-16 -135 -136 0
-16 -128 -129 0
-16 -121 -122 0
-16 -114 -115 0
-16 -107 -108 0
-16 -100 -101 0
-15 -134 -136 0
-15 -127 -129 0
-15 -120 -122 0
-15 -113 -115 0
-15 -106 -108 0
-15 -99 -101 0
-14 -135 -140 0
-14 -128 -133 0
-14 -121 -126 0
-14 -114 -119 0
-14 -107 -112 0
-14 -100 -105 0
-13 -135 -139 0
-13 -128 -132 0
-13 -121 -125 0
-13 -114 -118 0
-13 -107 -111 0
-13 -100 -104 0
-12 -135 -138 0
-12 -128 -131 0
-12 -121 -124 0
-12 -114 -117 0
-12 -107 -110 0
-12 -100 -103 0
-11 -135 -137 0
-11 -128 -130 0
-11 -121 -123 0
-11 -114 -116 0
-11 -107 -109 0
-11 -100 -102 0
-10 -135 -136 0
-10 -128 -129 0
-10 -121 -122 0
-10 -114 -115 0
-10 -107 -108 0
-10 -100 -101 0
-8 -134 -135 0
-8 -127 -128 0
-8 -120 -121 0
-8 -113 -114 0
-8 -106 -107 0
-8 -99 -100 0
-7 -134 -140 0
-7 -127 -133 0
-7 -120 -126 0
-7 -113 -119 0
-7 -106 -112 0
-7 -99 -105 0
-6 -134 -139 0
-6 -127 -132 0
-6 -120 -125 0
-6 -113 -118 0
-6 -106 -111 0
-6 -99 -104 0
-5 -134 -138 0
-5 -127 -131 0
-5 -120 -124 0
-5 -113 -117 0
-5 -106 -110 0
-5 -99 -103 0
-4 -134 -137 0
-4 -127 -130 0
-4 -120 -123 0
-4 -113 -116 0
-4 -106 -109 0
-4 -99 -102 0
-3 -134 -136 0
-3 -127 -129 0
-3 -120 -122 0
-3 -113 -115 0
-3 -106 -108 0
-3 -99 -101 0
-2 -134 -135 0
-2 -127 -128 0
-2 -120 -121 0
-2 -113 -114 0
-2 -106 -107 0
-2 -99 -100 0
99 106 113 120 127 134 0
100 107 114 121 128 135 0
101 108 115 122 129 136 0
102 109 116 123 130 137 0
103 110 117 124 131 138 0
104 111 118 125 132 139 0
105 112 119 126 133 140 0
1 2 3 4 5 6 7 0
8 9 10 11 12 13 14 0
15 16 17 18 19 20 21 0
22 23 24 25 26 27 28 0
29 30 31 32 33 34 35 0
36 37 38 39 40 41 42 0
43 44 45 46 47 48 49 0
50 51 52 53 54 55 56 0
57 58 59 60 61 62 63 0
64 65 66 67 68 69 70 0
71 72 73 74 75 76 77 0
78 79 80 81 82 83 84 0
85 86 87 88 89 90 91 0
92 93 94 95 96 97 98 0
