c E1(e1,e1) E1(e1,e2) E1(e1,e3) E1(e1,e4) E1(e1,e5) E1(e1,e6) E1(e1,e7) E1(e1,e8) E1(e2,e1) E1(e2,e2) E1(e2,e3) E1(e2,e4) E1(e2,e5) E1(e2,e6) E1(e2,e7) E1(e2,e8) E1(e3,e1) E1(e3,e2) E1(e3,e3) E1(e3,e4) E1(e3,e5) E1(e3,e6) E1(e3,e7) E1(e3,e8) E1(e4,e1) E1(e4,e2) E1(e4,e3) E1(e4,e4) E1(e4,e5) E1(e4,e6) E1(e4,e7) E1(e4,e8) E1(e5,e1) E1(e5,e2) E1(e5,e3) E1(e5,e4) E1(e5,e5) E1(e5,e6) E1(e5,e7) E1(e5,e8) E1(e6,e1) E1(e6,e2) E1(e6,e3) E1(e6,e4) E1(e6,e5) E1(e6,e6) E1(e6,e7) E1(e6,e8) E1(e7,e1) E1(e7,e2) E1(e7,e3) E1(e7,e4) E1(e7,e5) E1(e7,e6) E1(e7,e7) E1(e7,e8) E1(e8,e1) E1(e8,e2) E1(e8,e3) E1(e8,e4) E1(e8,e5) E1(e8,e6) E1(e8,e7) E1(e8,e8) E2(e1,e1) E2(e1,e2) E2(e1,e3) E2(e1,e4) E2(e1,e5) E2(e1,e6) E2(e1,e7) E2(e1,e8) E2(e2,e1) E2(e2,e2) E2(e2,e3) E2(e2,e4) E2(e2,e5) E2(e2,e6) E2(e2,e7) E2(e2,e8) E2(e3,e1) E2(e3,e2) E2(e3,e3) E2(e3,e4) E2(e3,e5) E2(e3,e6) E2(e3,e7) E2(e3,e8) E2(e4,e1) E2(e4,e2) E2(e4,e3) E2(e4,e4) E2(e4,e5) E2(e4,e6) E2(e4,e7) E2(e4,e8) E2(e5,e1) E2(e5,e2) E2(e5,e3) E2(e5,e4) E2(e5,e5) E2(e5,e6) E2(e5,e7) E2(e5,e8) E2(e6,e1) E2(e6,e2) E2(e6,e3) E2(e6,e4) E2(e6,e5) E2(e6,e6) E2(e6,e7) E2(e6,e8) E2(e7,e1) E2(e7,e2) E2(e7,e3) E2(e7,e4) E2(e7,e5) E2(e7,e6) E2(e7,e7) E2(e7,e8) E2(e8,e1) E2(e8,e2) E2(e8,e3) E2(e8,e4) E2(e8,e5) E2(e8,e6) E2(e8,e7) E2(e8,e8) U1(e1) U1(e2) U1(e3) U1(e4) U1(e5) U1(e6) U1(e7) U1(e8) U2(e1) U2(e2) U2(e3) U2(e4) U2(e5) U2(e6) U2(e7) U2(e8) U3(e1) U3(e2) U3(e3) U3(e4) U3(e5) U3(e6) U3(e7) U3(e8) U4(e1) U4(e2) U4(e3) U4(e4) U4(e5) U4(e6) U4(e7) U4(e8) U5(e1) U5(e2) U5(e3) U5(e4) U5(e5) U5(e6) U5(e7) U5(e8) U6(e1) U6(e2) U6(e3) U6(e4) U6(e5) U6(e6) U6(e7) U6(e8)
c 1 2 3 4 5 6 7 8 9 10 11 12 13 14 15 16 17 18 19 20 21 22 23 24 25 26 27 28 29 30 31 32 33 34 35 36 37 38 39 40 41 42 43 44 45 46 47 48 49 50 51 52 53 54 55 56 57 58 59 60 61 62 63 64 65 66 67 68 69 70 71 72 73 74 75 76 77 78 79 80 81 82 83 84 85 86 87 88 89 90 91 92 93 94 95 96 97 98 99 100 101 102 103 104 105 106 107 108 109 110 111 112 113 114 115 116 117 118 119 120 121 122 123 124 125 126 127 128 129 130 131 132 133 134 135 136 137 138 139 140 141 142 143 144 145 146 147 148 149 150 151 152 153 154 155 156 157 158 159 160 161 162 163 164 165 166 167 168 169 170 171 172 173 174 175 176
p cnf 176 1152
-176 176 0
-175 175 0
-174 174 0
-173 173 0
-172 172 0
-171 171 0
-170 170 0
-169 169 0
-168 -176 0
-168 168 0
-167 -175 0
-167 167 0
-166 -174 0
-166 166 0
-165 -173 0
-165 165 0
-164 -172 0
-164 164 0
-163 -171 0
-163 163 0
-162 -170 0
-162 162 0
-161 -169 0
-161 161 0
-160 -176 0
-160 -168 0
-160 160 0
-159 -175 0
-159 -167 0
-159 159 0
-158 -174 0
-158 -166 0
-158 158 0
-157 -173 0
-157 -165 0
-157 157 0
-156 -172 0
-156 -164 0
-156 156 0
-155 -171 0
-155 -163 0
-155 155 0
-154 -170 0
-154 -162 0
-154 154 0
-153 -169 0
-153 -161 0
-153 153 0
-152 -176 0
-152 -168 0
-152 -160 0
-152 152 0
-151 -175 0
-151 -167 0
-151 -159 0
-151 151 0
-150 -174 0
-150 -166 0
-150 -158 0
-150 150 0
-149 -173 0
-149 -165 0
-149 -157 0
-149 149 0
-148 -172 0
-148 -164 0
-148 -156 0
-148 148 0
-147 -171 0
-147 -163 0
-147 -155 0
-147 147 0
-146 -170 0
-146 -162 0
-146 -154 0
-146 146 0
-145 -169 0
-145 -161 0
-145 -153 0
-145 145 0
-144 -176 0
-144 -168 0
-144 -160 0
-144 -152 0
-144 144 0
-143 -175 0
-143 -167 0
-143 -159 0
-143 -151 0
-143 143 0
-142 -174 0
-142 -166 0
-142 -158 0
-142 -150 0
-142 142 0
-141 -173 0
-141 -165 0
-141 -157 0
-141 -149 0
-141 141 0
-140 -172 0
-140 -164 0
-140 -156 0
-140 -148 0
-140 140 0
-139 -171 0
-139 -163 0
-139 -155 0
-139 -147 0
-139 139 0
-138 -170 0
-138 -162 0
-138 -154 0
-138 -146 0
-138 138 0
-137 -169 0
-137 -161 0
-137 -153 0
-137 -145 0
-137 137 0
-136 -176 0
-136 -168 0
-136 -160 0
-136 -152 0
-136 -144 0
-136 136 0
-135 -175 0
-135 -167 0
-135 -159 0
-135 -151 0
-135 -143 0
-135 135 0
-134 -174 0
-134 -166 0
-134 -158 0
-134 -150 0
-134 -142 0
-134 134 0
-133 -173 0
-133 -165 0
-133 -157 0
-133 -149 0
-133 -141 0
-133 133 0
-132 -172 0
-132 -164 0
-132 -156 0
-132 -148 0
-132 -140 0
-132 132 0
-131 -171 0
-131 -163 0
-131 -155 0
-131 -147 0
-131 -139 0
-131 131 0
-130 -170 0
-130 -162 0
-130 -154 0
-130 -146 0
-130 -138 0
-130 130 0
-129 -169 0
-129 -161 0
-129 -153 0
-129 -145 0
-129 -137 0
-129 129 0
-128 -176 0
-128 -168 0
-128 -160 0
-128 -152 0
-128 -144 0
-128 -136 0
-128 128 0
-120 127 0
-119 -175 0
-119 -167 0
-119 -159 0
-119 -151 0
-119 -143 0
-119 -135 0
-119 119 0
-112 126 0
-111 118 0
-110 -174 0
-110 -166 0
-110 -158 0
-110 -150 0
-110 -142 0
-110 -134 0
-110 110 0
-104 125 0
-103 117 0
-102 109 0
-101 -173 0
-101 -165 0
-101 -157 0
-101 -149 0
-101 -141 0
-101 -133 0
-101 101 0
-96 124 0
-95 116 0
-94 108 0
-93 100 0
-92 -172 0
-92 -164 0
-92 -156 0
-92 -148 0
-92 -140 0
-92 -132 0
-92 92 0
-88 123 0
-87 115 0
-86 107 0
-85 99 0
-84 91 0
-83 -171 0
-83 -163 0
-83 -155 0
-83 -147 0
-83 -139 0
-83 -131 0
-83 83 0
-80 122 0
-79 114 0
-78 106 0
-77 98 0
-76 90 0
-75 82 0
-74 -170 0
-74 -162 0
-74 -154 0
-74 -146 0
-74 -138 0
-74 -130 0
-74 74 0
-72 121 0
-71 113 0
-70 105 0
-69 97 0
-68 89 0
-67 81 0
-66 73 0
-65 -169 0
-65 -161 0
-65 -153 0
-65 -145 0
-65 -137 0
-65 -129 0
-65 65 0
-64 -176 0
-64 -168 0
-64 -160 0
-64 -152 0
-64 -144 0
-64 -136 0
-64 -128 0
-64 64 0
-63 -127 0
-62 -126 0
-61 -125 0
-60 -124 0
-59 -123 0
-58 -122 0
-57 -121 0
-56 -120 0
-56 63 0
-55 -175 0
-55 -167 0
-55 -159 0
-55 -151 0
-55 -143 0
-55 -135 0
-55 -119 0
-55 55 0
-54 -118 0
-53 -117 0
-52 -116 0
-51 -115 0
-50 -114 0
-49 -113 0
-48 -112 0
-48 62 0
-47 -111 0
-47 54 0
-46 -174 0
-46 -166 0
-46 -158 0
-46 -150 0
-46 -142 0
-46 -134 0
-46 -110 0
-46 46 0
-45 -109 0
-44 -108 0
-43 -107 0
-42 -106 0
-41 -105 0
-40 -104 0
-40 61 0
-39 -103 0
-39 53 0
-38 -102 0
-38 45 0
-37 -173 0
-37 -165 0
-37 -157 0
-37 -149 0
-37 -141 0
-37 -133 0
-37 -101 0
-37 37 0
-36 -100 0
-35 -99 0
-34 -98 0
-33 -97 0
-32 -96 0
-32 60 0
-31 -95 0
-31 52 0
-30 -94 0
-30 44 0
-29 -93 0
-29 36 0
-28 -172 0
-28 -164 0
-28 -156 0
-28 -148 0
-28 -140 0
-28 -132 0
-28 -92 0
-28 28 0
-27 -91 0
-26 -90 0
-25 -89 0
-24 -88 0
-24 59 0
-23 -87 0
-23 51 0
-22 -86 0
-22 43 0
-21 -85 0
-21 35 0
-20 -84 0
-20 27 0
-19 -171 0
-19 -163 0
-19 -155 0
-19 -147 0
-19 -139 0
-19 -131 0
-19 -83 0
-19 19 0
-18 -82 0
-17 -81 0
-16 -80 0
-16 58 0
-15 -79 0
-15 50 0
-14 -78 0
-14 42 0
-13 -77 0
-13 34 0
-12 -76 0
-12 26 0
-11 -75 0
-11 18 0
-10 -170 0
-10 -162 0
-10 -154 0
-10 -146 0
-10 -138 0
-10 -130 0
-10 -74 0
-10 10 0
-9 -73 0
-8 -72 0
-8 57 0
-7 -71 0
-7 49 0
-6 -70 0
-6 41 0
-5 -69 0
-5 33 0
-4 -68 0
-4 25 0
-3 -67 0
-3 17 0
-2 -66 0
-2 9 0
-1 -169 0
-1 -161 0
-1 -153 0
-1 -145 0
-1 -137 0
-1 -129 0
-1 -65 0
-1 1 0
2 -9 0
3 -17 0
4 -25 0
5 -33 0
6 -41 0
7 -49 0
8 -57 0
11 -18 0
12 -26 0
13 -34 0
14 -42 0
15 -50 0
16 -58 0
20 -27 0
21 -35 0
22 -43 0
23 -51 0
24 -59 0
29 -36 0
30 -44 0
31 -52 0
32 -60 0
38 -45 0
39 -53 0
40 -61 0
47 -54 0
48 -62 0
56 -63 0
66 -73 0
67 -81 0
68 -89 0
69 -97 0
70 -105 0
71 -113 0
72 -121 0
75 -82 0
76 -90 0
77 -98 0
78 -106 0
79 -114 0
80 -122 0
84 -91 0
85 -99 0
86 -107 0
87 -115 0
88 -123 0
93 -100 0
94 -108 0
95 -116 0
96 -124 0
102 -109 0
103 -117 0
104 -125 0
111 -118 0
112 -126 0
120 -127 0
-127 -175 -176 0
-127 -167 -168 0
-127 -159 -160 0
-127 -151 -152 0
-127 -143 -144 0
-127 -135 -136 0
-126 -174 -176 0
-126 -166 -168 0
-126 -158 -160 0
-126 -150 -152 0
-126 -142 -144 0
-126 -134 -136 0
-125 -173 -176 0
-125 -165 -168 0
-125 -157 -160 0
-125 -149 -152 0
-125 -141 -144 0
-125 -133 -136 0
-124 -172 -176 0
-124 -164 -168 0
-124 -156 -160 0
-124 -148 -152 0
-124 -140 -144 0
-124 -132 -136 0
-123 -171 -176 0
-123 -163 -168 0
-123 -155 -160 0
-123 -147 -152 0
-123 -139 -144 0
-123 -131 -136 0
-122 -170 -176 0
-122 -162 -168 0
-122 -154 -160 0
-122 -146 -152 0
-122 -138 -144 0
-122 -130 -136 0
-121 -169 -176 0
-121 -161 -168 0
-121 -153 -160 0
-121 -145 -152 0
-121 -137 -144 0
-121 -129 -136 0
-120 -175 -176 0
-120 -167 -168 0
-120 -159 -160 0
-120 -151 -152 0
-120 -143 -144 0
-120 -135 -136 0
-118 -174 -175 0
-118 -166 -167 0
-118 -158 -159 0
-118 -150 -151 0
-118 -142 -143 0
-118 -134 -135 0
-117 -173 -175 0
-117 -165 -167 0
-117 -157 -159 0
-117 -149 -151 0
-117 -141 -143 0
-117 -133 -135 0
-116 -172 -175 0
-116 -164 -167 0
-116 -156 -159 0
-116 -148 -151 0
-116 -140 -143 0
-116 -132 -135 0
-115 -171 -175 0
-115 -163 -167 0
-115 -155 -159 0
-115 -147 -151 0
-115 -139 -143 0
-115 -131 -135 0
-114 -170 -175 0
-114 -162 -167 0
-114 -154 -159 0
-114 -146 -151 0
-114 -138 -143 0
-114 -130 -135 0
-113 -169 -175 0
-113 -161 -167 0
-113 -153 -159 0
-113 -145 -151 0
-113 -137 -143 0
-113 -129 -135 0
-112 -174 -176 0
-112 -166 -168 0
-112 -158 -160 0
-112 -150 -152 0
-112 -142 -144 0
-112 -134 -136 0
-111 -174 -175 0
-111 -166 -167 0
-111 -158 -159 0
-111 -150 -151 0
-111 -142 -143 0
-111 -134 -135 0
-109 -173 -174 0
-109 -165 -166 0
-109 -157 -158 0
-109 -149 -150 0
-109 -141 -142 0
-109 -133 -134 0
-108 -172 -174 0
-108 -164 -166 0
-108 -156 -158 0
-108 -148 -150 0
-108 -140 -142 0
-108 -132 -134 0
-107 -171 -174 0
-107 -163 -166 0
-107 -155 -158 0
-107 -147 -150 0
-107 -139 -142 0
-107 -131 -134 0
-106 -170 -174 0
-106 -162 -166 0
-106 -154 -158 0
-106 -146 -150 0
-106 -138 -142 0
-106 -130 -134 0
-105 -169 -174 0
-105 -161 -166 0
-105 -153 -158 0
-105 -145 -150 0
-105 -137 -142 0
-105 -129 -134 0
-104 -173 -176 0
-104 -165 -168 0
-104 -157 -160 0
-104 -149 -152 0
-104 -141 -144 0
-104 -133 -136 0
-103 -173 -175 0
-103 -165 -167 0
-103 -157 -159 0
-103 -149 -151 0
-103 -141 -143 0
-103 -133 -135 0
-102 -173 -174 0
-102 -165 -166 0
-102 -157 -158 0
-102 -149 -150 0
-102 -141 -142 0
-102 -133 -134 0
-100 -172 -173 0
-100 -164 -165 0
-100 -156 -157 0
-100 -148 -149 0
-100 -140 -141 0
-100 -132 -133 0
-99 -171 -173 0
-99 -163 -165 0
-99 -155 -157 0
-99 -147 -149 0
-99 -139 -141 0
-99 -131 -133 0
-98 -170 -173 0
-98 -162 -165 0
-98 -154 -157 0
-98 -146 -149 0
-98 -138 -141 0
-98 -130 -133 0
-97 -169 -173 0
-97 -161 -165 0
-97 -153 -157 0
-97 -145 -149 0
-97 -137 -141 0
-97 -129 -133 0
-96 -172 -176 0
-96 -164 -168 0
-96 -156 -160 0
-96 -148 -152 0
-96 -140 -144 0
-96 -132 -136 0
-95 -172 -175 0
-95 -164 -167 0
-95 -156 -159 0
-95 -148 -151 0
-95 -140 -143 0
-95 -132 -135 0
-94 -172 -174 0
-94 -164 -166 0
-94 -156 -158 0
-94 -148 -150 0
-94 -140 -142 0
-94 -132 -134 0
-93 -172 -173 0
-93 -164 -165 0
-93 -156 -157 0
-93 -148 -149 0
-93 -140 -141 0
-93 -132 -133 0
-91 -171 -172 0
-91 -163 -164 0
-91 -155 -156 0
-91 -147 -148 0
-91 -139 -140 0
-91 -131 -132 0
-90 -170 -172 0
-90 -162 -164 0
-90 -154 -156 0
-90 -146 -148 0
-90 -138 -140 0
-90 -130 -132 0
-89 -169 -172 0
-89 -161 -164 0
-89 -153 -156 0
-89 -145 -148 0
-89 -137 -140 0
-89 -129 -132 0
-88 -171 -176 0
-88 -163 -168 0
-88 -155 -160 0
-88 -147 -152 0
-88 -139 -144 0
-88 -131 -136 0
-87 -171 -175 0
-87 -163 -167 0
-87 -155 -159 0
-87 -147 -151 0
-87 -139 -143 0
-87 -131 -135 0
-86 -171 -174 0
-86 -163 -166 0
-86 -155 -158 0
-86 -147 -150 0
-86 -139 -142 0
-86 -131 -134 0
-85 -171 -173 0
-85 -163 -165 0
-85 -155 -157 0
-85 -147 -149 0
-85 -139 -141 0
-85 -131 -133 0
-84 -171 -172 0
-84 -163 -164 0
-84 -155 -156 0
-84 -147 -148 0
-84 -139 -140 0
-84 -131 -132 0
-82 -170 -171 0
-82 -162 -163 0
-82 -154 -155 0
-82 -146 -147 0
-82 -138 -139 0
-82 -130 -131 0
-81 -169 -171 0
-81 -161 -163 0
-81 -153 -155 0
-81 -145 -147 0
-81 -137 -139 0
-81 -129 -131 0
-80 -170 -176 0
-80 -162 -168 0
-80 -154 -160 0
-80 -146 -152 0
-80 -138 -144 0
-80 -130 -136 0
-79 -170 -175 0
-79 -162 -167 0
-79 -154 -159 0
-79 -146 -151 0
-79 -138 -143 0
-79 -130 -135 0
-78 -170 -174 0
-78 -162 -166 0
-78 -154 -158 0
-78 -146 -150 0
-78 -138 -142 0
-78 -130 -134 0
-77 -170 -173 0
-77 -162 -165 0
-77 -154 -157 0
-77 -146 -149 0
-77 -138 -141 0
-77 -130 -133 0
-76 -170 -172 0
-76 -162 -164 0
-76 -154 -156 0
-76 -146 -148 0
-76 -138 -140 0
-76 -130 -132 0
-75 -170 -171 0
-75 -162 -163 0
-75 -154 -155 0
-75 -146 -147 0
-75 -138 -139 0
-75 -130 -131 0
-73 -169 -170 0
-73 -161 -162 0
-73 -153 -154 0
-73 -145 -146 0
-73 -137 -138 0
-73 -129 -130 0
-72 -169 -176 0
-72 -161 -168 0
-72 -153 -160 0
-72 -145 -152 0
-72 -137 -144 0
-72 -129 -136 0
-71 -169 -175 0
-71 -161 -167 0
-71 -153 -159 0
-71 -145 -151 0
-71 -137 -143 0
-71 -129 -135 0
-70 -169 -174 0
-70 -161 -166 0
-70 -153 -158 0
-70 -145 -150 0
-70 -137 -142 0
-70 -129 -134 0
-69 -169 -173 0
-69 -161 -165 0
-69 -153 -157 0
-69 -145 -149 0
-69 -137 -141 0
-69 -129 -133 0
-68 -169 -172 0
-68 -161 -164 0
-68 -153 -156 0
-68 -145 -148 0
-68 -137 -140 0
-68 -129 -132 0
-67 -169 -171 0
-67 -161 -163 0
-67 -153 -155 0
-67 -145 -147 0
-67 -137 -139 0
-67 -129 -131 0
-66 -169 -170 0
-66 -161 -162 0
-66 -153 -154 0
-66 -145 -146 0
-66 -137 -138 0
-66 -129 -130 0
-63 -175 -176 0
-63 -167 -168 0
-63 -159 -160 0
-63 -151 -152 0
-63 -143 -144 0
-63 -135 -136 0
-62 -174 -176 0
-62 -166 -168 0
-62 -158 -160 0
-62 -150 -152 0
-62 -142 -144 0
-62 -134 -136 0
-61 -173 -176 0
-61 -165 -168 0
-61 -157 -160 0
-61 -149 -152 0
-61 -141 -144 0
-61 -133 -136 0
-60 -172 -176 0
-60 -164 -168 0
-60 -156 -160 0
-60 -148 -152 0
-60 -140 -144 0
-60 -132 -136 0
-59 -171 -176 0
-59 -163 -168 0
-59 -155 -160 0
-59 -147 -152 0
-59 -139 -144 0
-59 -131 -136 0
-58 -170 -176 0
-58 -162 -168 0
-58 -154 -160 0
-58 -146 -152 0
-58 -138 -144 0
-58 -130 -136 0
-57 -169 -176 0
-57 -161 -168 0
-57 -153 -160 0
-57 -145 -152 0
-57 -137 -144 0
-57 -129 -136 0
-56 -175 -176 0
-56 -167 -168 0
-56 -159 -160 0
-56 -151 -152 0
-56 -143 -144 0
-56 -135 -136 0
-54 -174 -175 0
-54 -166 -167 0
-54 -158 -159 0
-54 -150 -151 0
-54 -142 -143 0
-54 -134 -135 0
-53 -173 -175 0
-53 -165 -167 0
-53 -157 -159 0
-53 -149 -151 0
-53 -141 -143 0
-53 -133 -135 0
-52 -172 -175 0
-52 -164 -167 0
-52 -156 -159 0
-52 -148 -151 0
-52 -140 -143 0
-52 -132 -135 0
-51 -171 -175 0
-51 -163 -167 0
-51 -155 -159 0
-51 -147 -151 0
-51 -139 -143 0
-51 -131 -135 0
-50 -170 -175 0
-50 -162 -167 0
-50 -154 -159 0
-50 -146 -151 0
-50 -138 -143 0
-50 -130 -135 0
-49 -169 -175 0
-49 -161 -167 0
-49 -153 -159 0
-49 -145 -151 0
-49 -137 -143 0
-49 -129 -135 0
-48 -174 -176 0
-48 -166 -168 0
-48 -158 -160 0
-48 -150 -152 0
-48 -142 -144 0
-48 -134 -136 0
-47 -174 -175 0
-47 -166 -167 0
-47 -158 -159 0
-47 -150 -151 0
-47 -142 -143 0
-47 -134 -135 0
-45 -173 -174 0
-45 -165 -166 0
-45 -157 -158 0
-45 -149 -150 0
-45 -141 -142 0
-45 -133 -134 0
-44 -172 -174 0
-44 -164 -166 0
-44 -156 -158 0
-44 -148 -150 0
-44 -140 -142 0
-44 -132 -134 0
-43 -171 -174 0
-43 -163 -166 0
-43 -155 -158 0
-43 -147 -150 0
-43 -139 -142 0
-43 -131 -134 0
-42 -170 -174 0
-42 -162 -166 0
-42 -154 -158 0
-42 -146 -150 0
-42 -138 -142 0
-42 -130 -134 0
-41 -169 -174 0
-41 -161 -166 0
-41 -153 -158 0
-41 -145 -150 0
-41 -137 -142 0
-41 -129 -134 0
-40 -173 -176 0
-40 -165 -168 0
-40 -157 -160 0
-40 -149 -152 0
-40 -141 -144 0
-40 -133 -136 0
-39 -173 -175 0
-39 -165 -167 0
-39 -157 -159 0
-39 -149 -151 0
-39 -141 -143 0
-39 -133 -135 0
-38 -173 -174 0
-38 -165 -166 0
-38 -157 -158 0
-38 -149 -150 0
-38 -141 -142 0
-38 -133 -134 0
-36 -172 -173 0
-36 -164 -165 0
-36 -156 -157 0
-36 -148 -149 0
-36 -140 -141 0
-36 -132 -133 0
-35 -171 -173 0
-35 -163 -165 0
-35 -155 -157 0
-35 -147 -149 0
-35 -139 -141 0
-35 -131 -133 0
-34 -170 -173 0
-34 -162 -165 0
-34 -154 -157 0
-34 -146 -149 0
-34 -138 -141 0
-34 -130 -133 0
-33 -169 -173 0
-33 -161 -165 0
-33 -153 -157 0
-33 -145 -149 0
-33 -137 -141 0
-33 -129 -133 0
-32 -172 -176 0
-32 -164 -168 0
-32 -156 -160 0
-32 -148 -152 0
-32 -140 -144 0
-32 -132 -136 0
-31 -172 -175 0
-31 -164 -167 0
-31 -156 -159 0
-31 -148 -151 0
-31 -140 -143 0
-31 -132 -135 0
-30 -172 -174 0
-30 -164 -166 0
-30 -156 -158 0
-30 -148 -150 0
-30 -140 -142 0
-30 -132 -134 0
-29 -172 -173 0
-29 -164 -165 0
-29 -156 -157 0
-29 -148 -149 0
-29 -140 -141 0
-29 -132 -133 0
-27 -171 -172 0
-27 -163 -164 0
-27 -155 -156 0
-27 -147 -148 0
-27 -139 -140 0
-27 -131 -132 0
-26 -170 -172 0
-26 -162 -164 0
-26 -154 -156 0
-26 -146 -148 0
-26 -138 -140 0
-26 -130 -132 0
-25 -169 -172 0
-25 -161 -164 0
-25 -153 -156 0
-25 -145 -148 0
-25 -137 -140 0
-25 -129 -132 0
-24 -171 -176 0
-24 -163 -168 0
-24 -155 -160 0
-24 -147 -152 0
-24 -139 -144 0
-24 -131 -136 0
-23 -171 -175 0
-23 -163 -167 0
-23 -155 -159 0
-23 -147 -151 0
-23 -139 -143 0
-23 -131 -135 0
-22 -171 -174 0
-22 -163 -166 0
-22 -155 -158 0
-22 -147 -150 0
-22 -139 -142 0
-22 -131 -134 0
-21 -171 -173 0
-21 -163 -165 0
-21 -155 -157 0
-21 -147 -149 0
-21 -139 -141 0
-21 -131 -133 0
-20 -171 -172 0
-20 -163 -164 0
-20 -155 -156 0
-20 -147 -148 0
-20 -139 -140 0
-20 -131 -132 0
-18 -170 -171 0
-18 -162 -163 0
-18 -154 -155 0
-18 -146 -147 0
-18 -138 -139 0
-18 -130 -131 0
-17 -169 -171 0
-17 -161 -163 0
-17 -153 -155 0
-17 -145 -147 0
-17 -137 -139 0
-17 -129 -131 0
-16 -170 -176 0
-16 -162 -168 0
-16 -154 -160 0
-16 -146 -152 0
-16 -138 -144 0
-16 -130 -136 0
-15 -170 -175 0
-15 -162 -167 0
-15 -154 -159 0
-15 -146 -151 0
-15 -138 -143 0
-15 -130 -135 0
-14 -170 -174 0
-14 -162 -166 0
-14 -154 -158 0
-14 -146 -150 0
-14 -138 -142 0
-14 -130 -134 0
-13 -170 -173 0
-13 -162 -165 0
-13 -154 -157 0
-13 -146 -149 0
-13 -138 -141 0
-13 -130 -133 0
-12 -170 -172 0
-12 -162 -164 0
-12 -154 -156 0
-12 -146 -148 0
-12 -138 -140 0
-12 -130 -132 0
-11 -170 -171 0
-11 -162 -163 0
-11 -154 -155 0
-11 -146 -147 0
-11 -138 -139 0
-11 -130 -131 0
-9 -169 -170 0
-9 -161 -162 0
-9 -153 -154 0
-9 -145 -146 0
-9 -137 -138 0
-9 -129 -130 0
-8 -169 -176 0
-8 -161 -168 0
-8 -153 -160 0
-8 -145 -152 0
-8 -137 -144 0
-8 -129 -136 0
-7 -169 -175 0
-7 -161 -167 0
-7 -153 -159 0
-7 -145 -151 0
-7 -137 -143 0
-7 -129 -135 0
-6 -169 -174 0
-6 -161 -166 0
-6 -153 -158 0
-6 -145 -150 0
-6 -137 -142 0
-6 -129 -134 0
-5 -169 -173 0
-5 -161 -165 0
-5 -153 -157 0
-5 -145 -149 0
-5 -137 -141 0
-5 -129 -133 0
-4 -169 -172 0
-4 -161 -164 0
-4 -153 -156 0
-4 -145 -148 0
-4 -137 -140 0
-4 -129 -132 0
-3 -169 -171 0
-3 -161 -163 0
-3 -153 -155 0
-3 -145 -147 0
-3 -137 -139 0
-3 -129 -131 0
-2 -169 -170 0
-2 -161 -162 0
-2 -153 -154 0
-2 -145 -146 0
-2 -137 -138 0
-2 -129 -130 0
129 137 145 153 161 169 0
130 138 146 154 162 170 0
131 139 147 155 163 171 0
132 140 148 156 164 172 0
133 141 149 157 165 173 0
134 142 150 158 166 174 0
135 143 151 159 167 175 0
136 144 152 160 168 176 0
1 2 3 4 5 6 7 8 0
9 10 11 12 13 14 15 16 0
17 18 19 20 21 22 23 24 0
25 26 27 28 29 30 31 32 0
33 34 35 36 37 38 39 40 0
41 42 43 44 45 46 47 48 0
49 50 51 52 53 54 55 56 0
57 58 59 60 61 62 63 64 0
65 66 67 68 69 70 71 72 0
73 74 75 76 77 78 79 80 0
81 82 83 84 85 86 87 88 0
89 90 91 92 93 94 95 96 0
97 98 99 100 101 102 103 104 0
105 106 107 108 109 110 111 112 0
113 114 115 116 117 118 119 120 0
121 122 123 124 125 126 127 128 0
