c E1(e1,e1) E1(e1,e2) E1(e1,e3) E1(e1,e4) E1(e1,e5) E1(e1,e6) E1(e1,e7) E1(e1,e8) E1(e1,e9) E1(e2,e1) E1(e2,e2) E1(e2,e3) E1(e2,e4) E1(e2,e5) E1(e2,e6) E1(e2,e7) E1(e2,e8) E1(e2,e9) E1(e3,e1) E1(e3,e2) E1(e3,e3) E1(e3,e4) E1(e3,e5) E1(e3,e6) E1(e3,e7) E1(e3,e8) E1(e3,e9) E1(e4,e1) E1(e4,e2) E1(e4,e3) E1(e4,e4) E1(e4,e5) E1(e4,e6) E1(e4,e7) E1(e4,e8) E1(e4,e9) E1(e5,e1) E1(e5,e2) E1(e5,e3) E1(e5,e4) E1(e5,e5) E1(e5,e6) E1(e5,e7) E1(e5,e8) E1(e5,e9) E1(e6,e1) E1(e6,e2) E1(e6,e3) E1(e6,e4) E1(e6,e5) E1(e6,e6) E1(e6,e7) E1(e6,e8) E1(e6,e9) E1(e7,e1) E1(e7,e2) E1(e7,e3) E1(e7,e4) E1(e7,e5) E1(e7,e6) E1(e7,e7) E1(e7,e8) E1(e7,e9) E1(e8,e1) E1(e8,e2) E1(e8,e3) E1(e8,e4) E1(e8,e5) E1(e8,e6) E1(e8,e7) E1(e8,e8) E1(e8,e9) E1(e9,e1) E1(e9,e2) E1(e9,e3) E1(e9,e4) E1(e9,e5) E1(e9,e6) E1(e9,e7) E1(e9,e8) E1(e9,e9) E2(e1,e1) E2(e1,e2) E2(e1,e3) E2(e1,e4) E2(e1,e5) E2(e1,e6) E2(e1,e7) E2(e1,e8) E2(e1,e9) E2(e2,e1) E2(e2,e2) E2(e2,e3) E2(e2,e4) E2(e2,e5) E2(e2,e6) E2(e2,e7) E2(e2,e8) E2(e2,e9) E2(e3,e1) E2(e3,e2) E2(e3,e3) E2(e3,e4) E2(e3,e5) E2(e3,e6) E2(e3,e7) E2(e3,e8) E2(e3,e9) E2(e4,e1) E2(e4,e2) E2(e4,e3) E2(e4,e4) E2(e4,e5) E2(e4,e6) E2(e4,e7) E2(e4,e8) E2(e4,e9) E2(e5,e1) E2(e5,e2) E2(e5,e3) E2(e5,e4) E2(e5,e5) E2(e5,e6) E2(e5,e7) E2(e5,e8) E2(e5,e9) E2(e6,e1) E2(e6,e2) E2(e6,e3) E2(e6,e4) E2(e6,e5) E2(e6,e6) E2(e6,e7) E2(e6,e8) E2(e6,e9) E2(e7,e1) E2(e7,e2) E2(e7,e3) E2(e7,e4) E2(e7,e5) E2(e7,e6) E2(e7,e7) E2(e7,e8) E2(e7,e9) E2(e8,e1) E2(e8,e2) E2(e8,e3) E2(e8,e4) E2(e8,e5) E2(e8,e6) E2(e8,e7) E2(e8,e8) E2(e8,e9) E2(e9,e1) E2(e9,e2) E2(e9,e3) E2(e9,e4) E2(e9,e5) E2(e9,e6) E2(e9,e7) E2(e9,e8) E2(e9,e9) U1(e1) U1(e2) U1(e3) U1(e4) U1(e5) U1(e6) U1(e7) U1(e8) U1(e9) U2(e1) U2(e2) U2(e3) U2(e4) U2(e5) U2(e6) U2(e7) U2(e8) U2(e9) U3(e1) U3(e2) U3(e3) U3(e4) U3(e5) U3(e6) U3(e7) U3(e8) U3(e9) U4(e1) U4(e2) U4(e3) U4(e4) U4(e5) U4(e6) U4(e7) U4(e8) U4(e9) U5(e1) U5(e2) U5(e3) U5(e4) U5(e5) U5(e6) U5(e7) U5(e8) U5(e9) U6(e1) U6(e2) U6(e3) U6(e4) U6(e5) U6(e6) U6(e7) U6(e8) U6(e9)
c 1 2 3 4 5 6 7 8 9 10 11 12 13 14 15 16 17 18 19 20 21 22 23 24 25 26 27 28 29 30 31 32 33 34 35 36 37 38 39 40 41 42 43 44 45 46 47 48 49 50 51 52 53 54 55 56 57 58 59 60 61 62 63 64 65 66 67 68 69 70 71 72 73 74 75 76 77 78 79 80 81 82 83 84 85 86 87 88 89 90 91 92 93 94 95 96 97 98 99 100 101 102 103 104 105 106 107 108 109 110 111 112 113 114 115 116 117 118 119 120 121 122 123 124 125 126 127 128 129 130 131 132 133 134 135 136 137 138 139 140 141 142 143 144 145 146 147 148 149 150 151 152 153 154 155 156 157 158 159 160 161 162 163 164 165 166 167 168 169 170 171 172 173 174 175 176 177 178 179 180 181 182 183 184 185 186 187 188 189 190 191 192 193 194 195 196 197 198 199 200 201 202 203 204 205 206 207 208 209 210 211 212 213 214 215 216
p cnf 216 1431
-216 216 0
-215 215 0
-214 214 0
-213 213 0
-212 212 0
-211 211 0
-210 210 0
-209 209 0
-208 208 0
-207 -216 0
-207 207 0
-206 -215 0
-206 206 0
-205 -214 0
-205 205 0
-204 -213 0
-204 204 0
-203 -212 0
-203 203 0
-202 -211 0
-202 202 0
-201 -210 0
-201 201 0
-200 -209 0
-200 200 0
-199 -208 0
-199 199 0
-198 -216 0
-198 -207 0
-198 198 0
-197 -215 0
-197 -206 0
-197 197 0
-196 -214 0
-196 -205 0
-196 196 0
-195 -213 0
-195 -204 0
-195 195 0
-194 -212 0
-194 -203 0
-194 194 0
-193 -211 0
-193 -202 0
-193 193 0
-192 -210 0
-192 -201 0
-192 192 0
-191 -209 0
-191 -200 0
-191 191 0
-190 -208 0
-190 -199 0
-190 190 0
-189 -216 0
-189 -207 0
-189 -198 0
-189 189 0
-188 -215 0
-188 -206 0
-188 -197 0
-188 188 0
-187 -214 0
-187 -205 0
-187 -196 0
-187 187 0
-186 -213 0
-186 -204 0
-186 -195 0
-186 186 0
-185 -212 0
-185 -203 0
-185 -194 0
-185 185 0
-184 -211 0
-184 -202 0
-184 -193 0
-184 184 0
-183 -210 0
-183 -201 0
-183 -192 0
-183 183 0
-182 -209 0
-182 -200 0
-182 -191 0
-182 182 0
-181 -208 0
-181 -199 0
-181 -190 0
-181 181 0
-180 -216 0
-180 -207 0
-180 -198 0
-180 -189 0
-180 180 0
-179 -215 0
-179 -206 0
-179 -197 0
-179 -188 0
-179 179 0
-178 -214 0
-178 -205 0
-178 -196 0
-178 -187 0
-178 178 0
-177 -213 0
-177 -204 0
-177 -195 0
-177 -186 0
-177 177 0
-176 -212 0
-176 -203 0
-176 -194 0
-176 -185 0
-176 176 0
-175 -211 0
-175 -202 0
-175 -193 0
-175 -184 0
-175 175 0
-174 -210 0
-174 -201 0
-174 -192 0
-174 -183 0
-174 174 0
-173 -209 0
-173 -200 0
-173 -191 0
-173 -182 0
-173 173 0
-172 -208 0
-172 -199 0
-172 -190 0
-172 -181 0
-172 172 0
-171 -216 0
-171 -207 0
-171 -198 0
-171 -189 0
-171 -180 0
-171 171 0
-170 -215 0
-170 -206 0
-170 -197 0
-170 -188 0
-170 -179 0
-170 170 0
-169 -214 0
-169 -205 0
-169 -196 0
-169 -187 0
-169 -178 0
-169 169 0
-168 -213 0
-168 -204 0
-168 -195 0
-168 -186 0
-168 -177 0
-168 168 0
-167 -212 0
-167 -203 0
-167 -194 0
-167 -185 0
-167 -176 0
-167 167 0
-166 -211 0
-166 -202 0
-166 -193 0
-166 -184 0
-166 -175 0
-166 166 0
-165 -210 0
-165 -201 0
-165 -192 0
-165 -183 0
-165 -174 0
-165 165 0
-164 -209 0
-164 -200 0
-164 -191 0
-164 -182 0
-164 -173 0
-164 164 0
-163 -208 0
-163 -199 0
-163 -190 0
-163 -181 0
-163 -172 0
-163 163 0
-162 -216 0
-162 -207 0
-162 -198 0
-162 -189 0
-162 -180 0
-162 -171 0
-162 162 0
-153 161 0
-152 -215 0
-152 -206 0
-152 -197 0
-152 -188 0
-152 -179 0
-152 -170 0
-152 152 0
-144 160 0
-143 151 0
-142 -214 0
-142 -205 0
-142 -196 0
-142 -187 0
-142 -178 0
-142 -169 0
-142 142 0
-135 159 0
-134 150 0
-133 141 0
-132 -213 0
-132 -204 0
-132 -195 0
-132 -186 0
-132 -177 0
-132 -168 0
-132 132 0
-126 158 0
-125 149 0
-124 140 0
-123 131 0
-122 -212 0
-122 -203 0
-122 -194 0
-122 -185 0
-122 -176 0
-122 -167 0
-122 122 0
-117 157 0
-116 148 0
-115 139 0
-114 130 0
-113 121 0
-112 -211 0
-112 -202 0
-112 -193 0
-112 -184 0
-112 -175 0
-112 -166 0
-112 112 0
-108 156 0
-107 147 0
-106 138 0
-105 129 0
-104 120 0
-103 111 0
-102 -210 0
-102 -201 0
-102 -192 0
-102 -183 0
-102 -174 0
-102 -165 0
-102 102 0
-99 155 0
-98 146 0
-97 137 0
-96 128 0
-95 119 0
-94 110 0
-93 101 0
-92 -209 0
-92 -200 0
-92 -191 0
-92 -182 0
-92 -173 0
-92 -164 0
-92 92 0
-90 154 0
-89 145 0
-88 136 0
-87 127 0
-86 118 0
-85 109 0
-84 100 0
-83 91 0
-82 -208 0
-82 -199 0
-82 -190 0
-82 -181 0
-82 -172 0
-82 -163 0
-82 82 0
-81 -216 0
-81 -207 0
-81 -198 0
-81 -189 0
-81 -180 0
-81 -171 0
-81 -162 0
-81 81 0
-80 -161 0
-79 -160 0
-78 -159 0
-77 -158 0
-76 -157 0
-75 -156 0
-74 -155 0
-73 -154 0
-72 -153 0
-72 80 0
-71 -215 0
-71 -206 0
-71 -197 0
-71 -188 0
-71 -179 0
-71 -170 0
-71 -152 0
-71 71 0
-70 -151 0
-69 -150 0
-68 -149 0
-67 -148 0
-66 -147 0
-65 -146 0
-64 -145 0
-63 -144 0
-63 79 0
-62 -143 0
-62 70 0
-61 -214 0
-61 -205 0
-61 -196 0
-61 -187 0
-61 -178 0
-61 -169 0
-61 -142 0
-61 61 0
-60 -141 0
-59 -140 0
-58 -139 0
-57 -138 0
-56 -137 0
-55 -136 0
-54 -135 0
-54 78 0
-53 -134 0
-53 69 0
-52 -133 0
-52 60 0
-51 -213 0
-51 -204 0
-51 -195 0
-51 -186 0
-51 -177 0
-51 -168 0
-51 -132 0
-51 51 0
-50 -131 0
-49 -130 0
-48 -129 0
-47 -128 0
-46 -127 0
-45 -126 0
-45 77 0
-44 -125 0
-44 68 0
-43 -124 0
-43 59 0
-42 -123 0
-42 50 0
-41 -212 0
-41 -203 0
-41 -194 0
-41 -185 0
-41 -176 0
-41 -167 0
-41 -122 0
-41 41 0
-40 -121 0
-39 -120 0
-38 -119 0
-37 -118 0
-36 -117 0
-36 76 0
-35 -116 0
-35 67 0
-34 -115 0
-34 58 0
-33 -114 0
-33 49 0
-32 -113 0
-32 40 0
-31 -211 0
-31 -202 0
-31 -193 0
-31 -184 0
-31 -175 0
-31 -166 0
-31 -112 0
-31 31 0
-30 -111 0
-29 -110 0
-28 -109 0
-27 -108 0
-27 75 0
-26 -107 0
-26 66 0
-25 -106 0
-25 57 0
-24 -105 0
-24 48 0
-23 -104 0
-23 39 0
-22 -103 0
-22 30 0
-21 -210 0
-21 -201 0
-21 -192 0
-21 -183 0
-21 -174 0
-21 -165 0
-21 -102 0
-21 21 0
-20 -101 0
-19 -100 0
-18 -99 0
-18 74 0
-17 -98 0
-17 65 0
-16 -97 0
-16 56 0
-15 -96 0
-15 47 0
-14 -95 0
-14 38 0
-13 -94 0
-13 29 0
-12 -93 0
-12 20 0
-11 -209 0
-11 -200 0
-11 -191 0
-11 -182 0
-11 -173 0
-11 -164 0
-11 -92 0
-11 11 0
-10 -91 0
-9 -90 0
-9 73 0
-8 -89 0
-8 64 0
-7 -88 0
-7 55 0
-6 -87 0
-6 46 0
-5 -86 0
-5 37 0
-4 -85 0
-4 28 0
-3 -84 0
-3 19 0
-2 -83 0
-2 10 0
-1 -208 0
-1 -199 0
-1 -190 0
-1 -181 0
-1 -172 0
-1 -163 0
-1 -82 0
-1 1 0
2 -10 0
3 -19 0
4 -28 0
5 -37 0
6 -46 0
7 -55 0
8 -64 0
9 -73 0
12 -20 0
13 -29 0
14 -38 0
15 -47 0
16 -56 0
17 -65 0
18 -74 0
22 -30 0
23 -39 0
24 -48 0
25 -57 0
26 -66 0
27 -75 0
32 -40 0
33 -49 0
34 -58 0
35 -67 0
36 -76 0
42 -50 0
43 -59 0
44 -68 0
45 -77 0
52 -60 0
53 -69 0
54 -78 0
62 -70 0
63 -79 0
72 -80 0
83 -91 0
84 -100 0
85 -109 0
86 -118 0
87 -127 0
88 -136 0
89 -145 0
90 -154 0
93 -101 0
94 -110 0
95 -119 0
96 -128 0
97 -137 0
98 -146 0
99 -155 0
103 -111 0
104 -120 0
105 -129 0
106 -138 0
107 -147 0
108 -156 0
113 -121 0
114 -130 0
115 -139 0
116 -148 0
117 -157 0
123 -131 0
124 -140 0
125 -149 0
126 -158 0
133 -141 0
134 -150 0
135 -159 0
143 -151 0
144 -160 0
153 -161 0
-161 -215 -216 0
-161 -206 -207 0
-161 -197 -198 0
-161 -188 -189 0
-161 -179 -180 0
-161 -170 -171 0
-160 -214 -216 0
-160 -205 -207 0
-160 -196 -198 0
-160 -187 -189 0
-160 -178 -180 0
-160 -169 -171 0
-159 -213 -216 0
-159 -204 -207 0
-159 -195 -198 0
-159 -186 -189 0
-159 -177 -180 0
-159 -168 -171 0
-158 -212 -216 0
-158 -203 -207 0
-158 -194 -198 0
-158 -185 -189 0
-158 -176 -180 0
-158 -167 -171 0
-157 -211 -216 0
-157 -202 -207 0
-157 -193 -198 0
-157 -184 -189 0
-157 -175 -180 0
-157 -166 -171 0
-156 -210 -216 0
-156 -201 -207 0
-156 -192 -198 0
-156 -183 -189 0
-156 -174 -180 0
-156 -165 -171 0
-155 -209 -216 0
-155 -200 -207 0
-155 -191 -198 0
-155 -182 -189 0
-155 -173 -180 0
-155 -164 -171 0
-154 -208 -216 0
-154 -199 -207 0
-154 -190 -198 0
-154 -181 -189 0
-154 -172 -180 0
-154 -163 -171 0
-153 -215 -216 0
-153 -206 -207 0
-153 -197 -198 0
-153 -188 -189 0
-153 -179 -180 0
-153 -170 -171 0
-151 -214 -215 0
-151 -205 -206 0
-151 -196 -197 0
-151 -187 -188 0
-151 -178 -179 0
-151 -169 -170 0
-150 -213 -215 0
-150 -204 -206 0
-150 -195 -197 0
-150 -186 -188 0
-150 -177 -179 0
-150 -168 -170 0
-149 -212 -215 0
-149 -203 -206 0
-149 -194 -197 0
-149 -185 -188 0
-149 -176 -179 0
-149 -167 -170 0
-148 -211 -215 0
-148 -202 -206 0
-148 -193 -197 0
-148 -184 -188 0
-148 -175 -179 0
-148 -166 -170 0
-147 -210 -215 0
-147 -201 -206 0
-147 -192 -197 0
-147 -183 -188 0
-147 -174 -179 0
-147 -165 -170 0
-146 -209 -215 0
-146 -200 -206 0
-146 -191 -197 0
-146 -182 -188 0
-146 -173 -179 0
-146 -164 -170 0
-145 -208 -215 0
-145 -199 -206 0
-145 -190 -197 0
-145 -181 -188 0
-145 -172 -179 0
-145 -163 -170 0
-144 -214 -216 0
-144 -205 -207 0
-144 -196 -198 0
-144 -187 -189 0
-144 -178 -180 0
-144 -169 -171 0
-143 -214 -215 0
-143 -205 -206 0
-143 -196 -197 0
-143 -187 -188 0
-143 -178 -179 0
-143 -169 -170 0
-141 -213 -214 0
-141 -204 -205 0
-141 -195 -196 0
-141 -186 -187 0
-141 -177 -178 0
-141 -168 -169 0
-140 -212 -214 0
-140 -203 -205 0
-140 -194 -196 0
-140 -185 -187 0
-140 -176 -178 0
-140 -167 -169 0
-139 -211 -214 0
-139 -202 -205 0
-139 -193 -196 0
-139 -184 -187 0
-139 -175 -178 0
-139 -166 -169 0
-138 -210 -214 0
-138 -201 -205 0
-138 -192 -196 0
-138 -183 -187 0
-138 -174 -178 0
-138 -165 -169 0
-137 -209 -214 0
-137 -200 -205 0
-137 -191 -196 0
-137 -182 -187 0
-137 -173 -178 0
-137 -164 -169 0
-136 -208 -214 0
-136 -199 -205 0
-136 -190 -196 0
-136 -181 -187 0
-136 -172 -178 0
-136 -163 -169 0
-135 -213 -216 0
-135 -204 -207 0
-135 -195 -198 0
-135 -186 -189 0
-135 -177 -180 0
-135 -168 -171 0
-134 -213 -215 0
-134 -204 -206 0
-134 -195 -197 0
-134 -186 -188 0
-134 -177 -179 0
-134 -168 -170 0
-133 -213 -214 0
-133 -204 -205 0
-133 -195 -196 0
-133 -186 -187 0
-133 -177 -178 0
-133 -168 -169 0
-131 -212 -213 0
-131 -203 -204 0
-131 -194 -195 0
-131 -185 -186 0
-131 -176 -177 0
-131 -167 -168 0
-130 -211 -213 0
-130 -202 -204 0
-130 -193 -195 0
-130 -184 -186 0
-130 -175 -177 0
-130 -166 -168 0
-129 -210 -213 0
-129 -201 -204 0
-129 -192 -195 0
-129 -183 -186 0
-129 -174 -177 0
-129 -165 -168 0
-128 -209 -213 0
-128 -200 -204 0
-128 -191 -195 0
-128 -182 -186 0
-128 -173 -177 0
-128 -164 -168 0
-127 -208 -213 0
-127 -199 -204 0
-127 -190 -195 0
-127 -181 -186 0
-127 -172 -177 0
-127 -163 -168 0
-126 -212 -216 0
-126 -203 -207 0
-126 -194 -198 0
-126 -185 -189 0
-126 -176 -180 0
-126 -167 -171 0
-125 -212 -215 0
-125 -203 -206 0
-125 -194 -197 0
-125 -185 -188 0
-125 -176 -179 0
-125 -167 -170 0
-124 -212 -214 0
-124 -203 -205 0
-124 -194 -196 0
-124 -185 -187 0
-124 -176 -178 0
-124 -167 -169 0
-123 -212 -213 0
-123 -203 -204 0
-123 -194 -195 0
-123 -185 -186 0
-123 -176 -177 0
-123 -167 -168 0
-121 -211 -212 0
-121 -202 -203 0
-121 -193 -194 0
-121 -184 -185 0
-121 -175 -176 0
-121 -166 -167 0
-120 -210 -212 0
-120 -201 -203 0
-120 -192 -194 0
-120 -183 -185 0
-120 -174 -176 0
-120 -165 -167 0
-119 -209 -212 0
-119 -200 -203 0
-119 -191 -194 0
-119 -182 -185 0
-119 -173 -176 0
-119 -164 -167 0
-118 -208 -212 0
-118 -199 -203 0
-118 -190 -194 0
-118 -181 -185 0
-118 -172 -176 0
-118 -163 -167 0
-117 -211 -216 0
-117 -202 -207 0
-117 -193 -198 0
-117 -184 -189 0
-117 -175 -180 0
-117 -166 -171 0
-116 -211 -215 0
-116 -202 -206 0
-116 -193 -197 0
-116 -184 -188 0
-116 -175 -179 0
-116 -166 -170 0
-115 -211 -214 0
-115 -202 -205 0
-115 -193 -196 0
-115 -184 -187 0
-115 -175 -178 0
-115 -166 -169 0
-114 -211 -213 0
-114 -202 -204 0
-114 -193 -195 0
-114 -184 -186 0
-114 -175 -177 0
-114 -166 -168 0
-113 -211 -212 0
-113 -202 -203 0
-113 -193 -194 0
-113 -184 -185 0
-113 -175 -176 0
-113 -166 -167 0
-111 -210 -211 0
-111 -201 -202 0
-111 -192 -193 0
-111 -183 -184 0
-111 -174 -175 0
-111 -165 -166 0
-110 -209 -211 0
-110 -200 -202 0
-110 -191 -193 0
-110 -182 -184 0
-110 -173 -175 0
-110 -164 -166 0
-109 -208 -211 0
-109 -199 -202 0
-109 -190 -193 0
-109 -181 -184 0
-109 -172 -175 0
-109 -163 -166 0
-108 -210 -216 0
-108 -201 -207 0
-108 -192 -198 0
-108 -183 -189 0
-108 -174 -180 0
-108 -165 -171 0
-107 -210 -215 0
-107 -201 -206 0
-107 -192 -197 0
-107 -183 -188 0
-107 -174 -179 0
-107 -165 -170 0
-106 -210 -214 0
-106 -201 -205 0
-106 -192 -196 0
-106 -183 -187 0
-106 -174 -178 0
-106 -165 -169 0
-105 -210 -213 0
-105 -201 -204 0
-105 -192 -195 0
-105 -183 -186 0
-105 -174 -177 0
-105 -165 -168 0
-104 -210 -212 0
-104 -201 -203 0
-104 -192 -194 0
-104 -183 -185 0
-104 -174 -176 0
-104 -165 -167 0
-103 -210 -211 0
-103 -201 -202 0
-103 -192 -193 0
-103 -183 -184 0
-103 -174 -175 0
-103 -165 -166 0
-101 -209 -210 0
-101 -200 -201 0
-101 -191 -192 0
-101 -182 -183 0
-101 -173 -174 0
-101 -164 -165 0
-100 -208 -210 0
-100 -199 -201 0
-100 -190 -192 0
-100 -181 -183 0
-100 -172 -174 0
-100 -163 -165 0
-99 -209 -216 0
-99 -200 -207 0
-99 -191 -198 0
-99 -182 -189 0
-99 -173 -180 0
-99 -164 -171 0
-98 -209 -215 0
-98 -200 -206 0
-98 -191 -197 0
-98 -182 -188 0
-98 -173 -179 0
-98 -164 -170 0
-97 -209 -214 0
-97 -200 -205 0
-97 -191 -196 0
-97 -182 -187 0
-97 -173 -178 0
-97 -164 -169 0
-96 -209 -213 0
-96 -200 -204 0
-96 -191 -195 0
-96 -182 -186 0
-96 -173 -177 0
-96 -164 -168 0
-95 -209 -212 0
-95 -200 -203 0
-95 -191 -194 0
-95 -182 -185 0
-95 -173 -176 0
-95 -164 -167 0
-94 -209 -211 0
-94 -200 -202 0
-94 -191 -193 0
-94 -182 -184 0
-94 -173 -175 0
-94 -164 -166 0
-93 -209 -210 0
-93 -200 -201 0
-93 -191 -192 0
-93 -182 -183 0
-93 -173 -174 0
-93 -164 -165 0
-91 -208 -209 0
-91 -199 -200 0
-91 -190 -191 0
-91 -181 -182 0
-91 -172 -173 0
-91 -163 -164 0
-90 -208 -216 0
-90 -199 -207 0
-90 -190 -198 0
-90 -181 -189 0
-90 -172 -180 0
-90 -163 -171 0
-89 -208 -215 0
-89 -199 -206 0
-89 -190 -197 0
-89 -181 -188 0
-89 -172 -179 0
-89 -163 -170 0
-88 -208 -214 0
-88 -199 -205 0
-88 -190 -196 0
-88 -181 -187 0
-88 -172 -178 0
-88 -163 -169 0
-87 -208 -213 0
-87 -199 -204 0
-87 -190 -195 0
-87 -181 -186 0
-87 -172 -177 0
-87 -163 -168 0
-86 -208 -212 0
-86 -199 -203 0
-86 -190 -194 0
-86 -181 -185 0
-86 -172 -176 0
-86 -163 -167 0
-85 -208 -211 0
-85 -199 -202 0
-85 -190 -193 0
-85 -181 -184 0
-85 -172 -175 0
-85 -163 -166 0
-84 -208 -210 0
-84 -199 -201 0
-84 -190 -192 0
-84 -181 -183 0
-84 -172 -174 0
-84 -163 -165 0
-83 -208 -209 0
-83 -199 -200 0
-83 -190 -191 0
-83 -181 -182 0
-83 -172 -173 0
-83 -163 -164 0
-80 -215 -216 0
-80 -206 -207 0
-80 -197 -198 0
-80 -188 -189 0
-80 -179 -180 0
-80 -170 -171 0
-79 -214 -216 0
-79 -205 -207 0
-79 -196 -198 0
-79 -187 -189 0
-79 -178 -180 0
-79 -169 -171 0
-78 -213 -216 0
-78 -204 -207 0
-78 -195 -198 0
-78 -186 -189 0
-78 -177 -180 0
-78 -168 -171 0
-77 -212 -216 0
-77 -203 -207 0
-77 -194 -198 0
-77 -185 -189 0
-77 -176 -180 0
-77 -167 -171 0
-76 -211 -216 0
-76 -202 -207 0
-76 -193 -198 0
-76 -184 -189 0
-76 -175 -180 0
-76 -166 -171 0
-75 -210 -216 0
-75 -201 -207 0
-75 -192 -198 0
-75 -183 -189 0
-75 -174 -180 0
-75 -165 -171 0
-74 -209 -216 0
-74 -200 -207 0
-74 -191 -198 0
-74 -182 -189 0
-74 -173 -180 0
-74 -164 -171 0
-73 -208 -216 0
-73 -199 -207 0
-73 -190 -198 0
-73 -181 -189 0
-73 -172 -180 0
-73 -163 -171 0
-72 -215 -216 0
-72 -206 -207 0
-72 -197 -198 0
-72 -188 -189 0
-72 -179 -180 0
-72 -170 -171 0
-70 -214 -215 0
-70 -205 -206 0
-70 -196 -197 0
-70 -187 -188 0
-70 -178 -179 0
-70 -169 -170 0
-69 -213 -215 0
-69 -204 -206 0
-69 -195 -197 0
-69 -186 -188 0
-69 -177 -179 0
-69 -168 -170 0
-68 -212 -215 0
-68 -203 -206 0
-68 -194 -197 0
-68 -185 -188 0
-68 -176 -179 0
-68 -167 -170 0
-67 -211 -215 0
-67 -202 -206 0
-67 -193 -197 0
-67 -184 -188 0
-67 -175 -179 0
-67 -166 -170 0
-66 -210 -215 0
-66 -201 -206 0
-66 -192 -197 0
-66 -183 -188 0
-66 -174 -179 0
-66 -165 -170 0
-65 -209 -215 0
-65 -200 -206 0
-65 -191 -197 0
-65 -182 -188 0
-65 -173 -179 0
-65 -164 -170 0
-64 -208 -215 0
-64 -199 -206 0
-64 -190 -197 0
-64 -181 -188 0
-64 -172 -179 0
-64 -163 -170 0
-63 -214 -216 0
-63 -205 -207 0
-63 -196 -198 0
-63 -187 -189 0
-63 -178 -180 0
-63 -169 -171 0
-62 -214 -215 0
-62 -205 -206 0
-62 -196 -197 0
-62 -187 -188 0
-62 -178 -179 0
-62 -169 -170 0
-60 -213 -214 0
-60 -204 -205 0
-60 -195 -196 0
-60 -186 -187 0
-60 -177 -178 0
-60 -168 -169 0
-59 -212 -214 0
-59 -203 -205 0
-59 -194 -196 0
-59 -185 -187 0
-59 -176 -178 0
-59 -167 -169 0
-58 -211 -214 0
-58 -202 -205 0
-58 -193 -196 0
-58 -184 -187 0
-58 -175 -178 0
-58 -166 -169 0
-57 -210 -214 0
-57 -201 -205 0
-57 -192 -196 0
-57 -183 -187 0
-57 -174 -178 0
-57 -165 -169 0
-56 -209 -214 0
-56 -200 -205 0
-56 -191 -196 0
-56 -182 -187 0
-56 -173 -178 0
-56 -164 -169 0
-55 -208 -214 0
-55 -199 -205 0
-55 -190 -196 0
-55 -181 -187 0
-55 -172 -178 0
-55 -163 -169 0
-54 -213 -216 0
-54 -204 -207 0
-54 -195 -198 0
-54 -186 -189 0
-54 -177 -180 0
-54 -168 -171 0
-53 -213 -215 0
-53 -204 -206 0
-53 -195 -197 0
-53 -186 -188 0
-53 -177 -179 0
-53 -168 -170 0
-52 -213 -214 0
-52 -204 -205 0
-52 -195 -196 0
-52 -186 -187 0
-52 -177 -178 0
-52 -168 -169 0
-50 -212 -213 0
-50 -203 -204 0
-50 -194 -195 0
-50 -185 -186 0
-50 -176 -177 0
-50 -167 -168 0
-49 -211 -213 0
-49 -202 -204 0
-49 -193 -195 0
-49 -184 -186 0
-49 -175 -177 0
-49 -166 -168 0
-48 -210 -213 0
-48 -201 -204 0
-48 -192 -195 0
-48 -183 -186 0
-48 -174 -177 0
-48 -165 -168 0
-47 -209 -213 0
-47 -200 -204 0
-47 -191 -195 0
-47 -182 -186 0
-47 -173 -177 0
-47 -164 -168 0
-46 -208 -213 0
-46 -199 -204 0
-46 -190 -195 0
-46 -181 -186 0
-46 -172 -177 0
-46 -163 -168 0
-45 -212 -216 0
-45 -203 -207 0
-45 -194 -198 0
-45 -185 -189 0
-45 -176 -180 0
-45 -167 -171 0
-44 -212 -215 0
-44 -203 -206 0
-44 -194 -197 0
-44 -185 -188 0
-44 -176 -179 0
-44 -167 -170 0
-43 -212 -214 0
-43 -203 -205 0
-43 -194 -196 0
-43 -185 -187 0
-43 -176 -178 0
-43 -167 -169 0
-42 -212 -213 0
-42 -203 -204 0
-42 -194 -195 0
-42 -185 -186 0
-42 -176 -177 0
-42 -167 -168 0
-40 -211 -212 0
-40 -202 -203 0
-40 -193 -194 0
-40 -184 -185 0
-40 -175 -176 0
-40 -166 -167 0
-39 -210 -212 0
-39 -201 -203 0
-39 -192 -194 0
-39 -183 -185 0
-39 -174 -176 0
-39 -165 -167 0
-38 -209 -212 0
-38 -200 -203 0
-38 -191 -194 0
-38 -182 -185 0
-38 -173 -176 0
-38 -164 -167 0
-37 -208 -212 0
-37 -199 -203 0
-37 -190 -194 0
-37 -181 -185 0
-37 -172 -176 0
-37 -163 -167 0
-36 -211 -216 0
-36 -202 -207 0
-36 -193 -198 0
-36 -184 -189 0
-36 -175 -180 0
-36 -166 -171 0
-35 -211 -215 0
-35 -202 -206 0
-35 -193 -197 0
-35 -184 -188 0
-35 -175 -179 0
-35 -166 -170 0
-34 -211 -214 0
-34 -202 -205 0
-34 -193 -196 0
-34 -184 -187 0
-34 -175 -178 0
-34 -166 -169 0
-33 -211 -213 0
-33 -202 -204 0
-33 -193 -195 0
-33 -184 -186 0
-33 -175 -177 0
-33 -166 -168 0
-32 -211 -212 0
-32 -202 -203 0
-32 -193 -194 0
-32 -184 -185 0
-32 -175 -176 0
-32 -166 -167 0
-30 -210 -211 0
-30 -201 -202 0
-30 -192 -193 0
-30 -183 -184 0
-30 -174 -175 0
-30 -165 -166 0
-29 -209 -211 0
-29 -200 -202 0
-29 -191 -193 0
-29 -182 -184 0
-29 -173 -175 0
-29 -164 -166 0
-28 -208 -211 0
-28 -199 -202 0
-28 -190 -193 0
-28 -181 -184 0
-28 -172 -175 0
-28 -163 -166 0
-27 -210 -216 0
-27 -201 -207 0
-27 -192 -198 0
-27 -183 -189 0
-27 -174 -180 0
-27 -165 -171 0
-26 -210 -215 0
-26 -201 -206 0
-26 -192 -197 0
-26 -183 -188 0
-26 -174 -179 0
-26 -165 -170 0
-25 -210 -214 0
-25 -201 -205 0
-25 -192 -196 0
-25 -183 -187 0
-25 -174 -178 0
-25 -165 -169 0
-24 -210 -213 0
-24 -201 -204 0
-24 -192 -195 0
-24 -183 -186 0
-24 -174 -177 0
-24 -165 -168 0
-23 -210 -212 0
-23 -201 -203 0
-23 -192 -194 0
-23 -183 -185 0
-23 -174 -176 0
-23 -165 -167 0
-22 -210 -211 0
-22 -201 -202 0
-22 -192 -193 0
-22 -183 -184 0
-22 -174 -175 0
-22 -165 -166 0
-20 -209 -210 0
-20 -200 -201 0
-20 -191 -192 0
-20 -182 -183 0
-20 -173 -174 0
-20 -164 -165 0
-19 -208 -210 0
-19 -199 -201 0
-19 -190 -192 0
-19 -181 -183 0
-19 -172 -174 0
-19 -163 -165 0
-18 -209 -216 0
-18 -200 -207 0
-18 -191 -198 0
-18 -182 -189 0
-18 -173 -180 0
-18 -164 -171 0
-17 -209 -215 0
-17 -200 -206 0
-17 -191 -197 0
-17 -182 -188 0
-17 -173 -179 0
-17 -164 -170 0
-16 -209 -214 0
-16 -200 -205 0
-16 -191 -196 0
-16 -182 -187 0
-16 -173 -178 0
-16 -164 -169 0
-15 -209 -213 0
-15 -200 -204 0
-15 -191 -195 0
-15 -182 -186 0
-15 -173 -177 0
-15 -164 -168 0
-14 -209 -212 0
-14 -200 -203 0
-14 -191 -194 0
-14 -182 -185 0
-14 -173 -176 0
-14 -164 -167 0
-13 -209 -211 0
-13 -200 -202 0
-13 -191 -193 0
-13 -182 -184 0
-13 -173 -175 0
-13 -164 -166 0
-12 -209 -210 0
-12 -200 -201 0
-12 -191 -192 0
-12 -182 -183 0
-12 -173 -174 0
-12 -164 -165 0
-10 -208 -209 0
-10 -199 -200 0
-10 -190 -191 0
-10 -181 -182 0
-10 -172 -173 0
-10 -163 -164 0
-9 -208 -216 0
-9 -199 -207 0
-9 -190 -198 0
-9 -181 -189 0
-9 -172 -180 0
-9 -163 -171 0
-8 -208 -215 0
-8 -199 -206 0
-8 -190 -197 0
-8 -181 -188 0
-8 -172 -179 0
-8 -163 -170 0
-7 -208 -214 0
-7 -199 -205 0
-7 -190 -196 0
-7 -181 -187 0
-7 -172 -178 0
-7 -163 -169 0
-6 -208 -213 0
-6 -199 -204 0
-6 -190 -195 0
-6 -181 -186 0
-6 -172 -177 0
-6 -163 -168 0
-5 -208 -212 0
-5 -199 -203 0
-5 -190 -194 0
-5 -181 -185 0
-5 -172 -176 0
-5 -163 -167 0
-4 -208 -211 0
-4 -199 -202 0
-4 -190 -193 0
-4 -181 -184 0
-4 -172 -175 0
-4 -163 -166 0
-3 -208 -210 0
-3 -199 -201 0
-3 -190 -192 0
-3 -181 -183 0
-3 -172 -174 0
-3 -163 -165 0
-2 -208 -209 0
-2 -199 -200 0
-2 -190 -191 0
-2 -181 -182 0
-2 -172 -173 0
-2 -163 -164 0
163 172 181 190 199 208 0
164 173 182 191 200 209 0
165 174 183 192 201 210 0
166 175 184 193 202 211 0
167 176 185 194 203 212 0
168 177 186 195 204 213 0
169 178 187 196 205 214 0
170 179 188 197 206 215 0
171 180 189 198 207 216 0
1 2 3 4 5 6 7 8 9 0
10 11 12 13 14 15 16 17 18 0
19 20 21 22 23 24 25 26 27 0
28 29 30 31 32 33 34 35 36 0
37 38 39 40 41 42 43 44 45 0
46 47 48 49 50 51 52 53 54 0
55 56 57 58 59 60 61 62 63 0
64 65 66 67 68 69 70 71 72 0
73 74 75 76 77 78 79 80 81 0
82 83 84 85 86 87 88 89 90 0
91 92 93 94 95 96 97 98 99 0
100 101 102 103 104 105 106 107 108 0
109 110 111 112 113 114 115 116 117 0
118 119 120 121 122 123 124 125 126 0
127 128 129 130 131 132 133 134 135 0
136 137 138 139 140 141 142 143 144 0
145 146 147 148 149 150 151 152 153 0
154 155 156 157 158 159 160 161 162 0
