c U2(2) U3(2) E1(2,2) U4(2) U1(2) E2(2,2) E1(2,7) E1(7,2) U1(7) E2(7,2) E2(2,7) U4(7) U2(7) U3(7) U4(6) E2(6,2) U1(6) E1(6,2) E2(2,6) U2(6) E1(2,6) U3(6) U1(1) E1(1,2) E2(2,1) U2(1) E2(1,2) U3(1) E1(2,1) U4(1) U1(8) E1(8,2) U2(8) U3(8) U4(8) E1(2,8) E2(8,2) E2(2,8) U4(5) U2(5) E1(5,2) E1(2,5) E2(5,2) E2(2,5) U1(5) U3(5) U3(9) E2(2,9) E2(9,2) E1(2,9) U4(9) U2(9) U1(9) E1(9,2) E2(3,2) E1(2,3) U4(3) U1(3) U2(3) E2(2,3) U3(3) E1(3,2) U1(4) E2(2,4) E2(4,2) E1(4,2) U2(4) U3(4) U4(4) E1(2,4) E2(2,0) E2(0,2) U2(0) E1(2,0) E1(0,2) U3(0) U1(0) U4(0) E1(7,7) E2(7,7) E1(6,7) E1(7,6) E2(7,6) E2(6,7) E2(1,7) E1(1,7) E2(7,1) E1(7,1) E2(7,8) E1(8,7) E1(7,8) E2(8,7) E1(5,7) E2(7,5) E2(5,7) E1(7,5) E1(7,9) E1(9,7) E2(9,7) E2(7,9) E2(7,3) E1(3,7) E1(7,3) E2(3,7) E1(7,4) E2(7,4) E2(4,7) E1(4,7) E1(7,0) E1(0,7) E2(7,0) E2(0,7) E2(6,6) E1(6,6) E2(1,6) E1(1,6) E2(6,1) E1(6,1) E2(6,8) E1(8,6) E1(6,8) E2(8,6) E2(5,6) E2(6,5) E1(6,5) E1(5,6) E1(6,9) E1(9,6) E2(6,9) E2(9,6) E1(6,3) E2(6,3) E1(3,6) E2(3,6) E1(4,6) E2(4,6) E1(6,4) E2(6,4) E2(0,6) E1(6,0) E2(6,0) E1(0,6) E1(1,1) E2(1,1) E1(1,8) E1(8,1) E2(1,8) E2(8,1) E1(5,1) E2(5,1) E2(1,5) E1(1,5) E1(9,1) E2(1,9) E2(9,1) E1(1,9) E1(3,1) E1(1,3) E2(3,1) E2(1,3) E1(4,1) E1(1,4) E2(1,4) E2(4,1) E1(1,0) E1(0,1) E2(1,0) E2(0,1) E1(8,8) E2(8,8) E2(5,8) E2(8,5) E1(5,8) E1(8,5) E2(9,8) E1(9,8) E1(8,9) E2(8,9) E1(3,8) E2(8,3) E1(8,3) E2(3,8) E2(4,8) E1(8,4) E1(4,8) E2(8,4) E1(8,0) E2(8,0) E2(0,8) E1(0,8) E2(5,5) E1(5,5) E1(5,9) E1(9,5) E2(9,5) E2(5,9) E2(5,3) E1(3,5) E1(5,3) E2(3,5) E1(5,4) E1(4,5) E2(5,4) E2(4,5) E1(5,0) E1(0,5) E2(0,5) E2(5,0) E1(9,9) E2(9,9) E1(3,9) E2(3,9) E1(9,3) E2(9,3) E2(4,9) E1(9,4) E1(4,9) E2(9,4) E1(9,0) E2(9,0) E1(0,9) E2(0,9) E2(3,3) E1(3,3) E2(3,4) E2(4,3) E1(3,4) E1(4,3) E2(0,3) E1(0,3) E2(3,0) E1(3,0) E2(4,4) E1(4,4) E1(4,0) E1(0,4) E2(0,4) E2(4,0) E2(0,0) E1(0,0)
c 1 2 3 4 5 6 7 8 9 10 11 12 13 14 15 16 17 18 19 20 21 22 23 24 25 26 27 28 29 30 31 32 33 34 35 36 37 38 39 40 41 42 43 44 45 46 47 48 49 50 51 52 53 54 55 56 57 58 59 60 61 62 63 64 65 66 67 68 69 70 71 72 73 74 75 76 77 78 79 80 81 82 83 84 85 86 87 88 89 90 91 92 93 94 95 96 97 98 99 100 101 102 103 104 105 106 107 108 109 110 111 112 113 114 115 116 117 118 119 120 121 122 123 124 125 126 127 128 129 130 131 132 133 134 135 136 137 138 139 140 141 142 143 144 145 146 147 148 149 150 151 152 153 154 155 156 157 158 159 160 161 162 163 164 165 166 167 168 169 170 171 172 173 174 175 176 177 178 179 180 181 182 183 184 185 186 187 188 189 190 191 192 193 194 195 196 197 198 199 200 201 202 203 204 205 206 207 208 209 210 211 212 213 214 215 216 217 218 219 220 221 222 223 224 225 226 227 228 229 230 231 232 233 234 235 236 237 238 239 240
p cnf 240 6600
-240 0
-143 0
-3 0
-224 0
-234 0
-192 0
-114 0
-79 0
-169 0
-209 0
-239 0
-144 0
-6 0
-223 0
-233 0
-191 0
-113 0
-80 0
-170 0
-210 0
-166 -165 0
-75 -74 0
-230 -232 0
-236 -235 0
-206 -205 0
-142 -140 0
-110 -109 0
-190 -187 0
-221 -219 0
-24 -29 0
-158 -157 0
-162 -161 0
-152 -149 0
-116 -118 0
-86 -88 0
-145 -146 0
-156 -153 0
-56 -62 0
-70 -66 0
-42 -41 0
-21 -18 0
-7 -8 0
-36 -32 0
-50 -54 0
-227 -228 0
-198 -199 0
-133 -131 0
-102 -103 0
-179 -181 0
-211 -213 0
-202 -201 0
-135 -137 0
-108 -105 0
-185 -184 0
-217 -216 0
-126 -125 0
-93 -96 0
-173 -174 0
-193 -194 0
-81 -82 0
-121 -120 0
-127 -128 0
-91 -90 0
-97 -98 0
-177 -176 0
-168 -167 0
-72 -71 0
-229 -231 0
-237 -238 0
-207 -208 0
-139 -141 0
-112 -111 0
-189 -188 0
-222 -220 0
-27 -25 0
-160 -159 0
-163 -164 0
-151 -150 0
-115 -117 0
-85 -87 0
-147 -148 0
-154 -155 0
-60 -55 0
-64 -65 0
-44 -43 0
-19 -16 0
-11 -10 0
-38 -37 0
-48 -49 0
-225 -226 0
-200 -197 0
-134 -132 0
-104 -101 0
-182 -180 0
-212 -214 0
-204 -203 0
-136 -138 0
-107 -106 0
-183 -186 0
-215 -218 0
-123 -124 0
-95 -94 0
-171 -172 0
-196 -195 0
-84 -83 0
-119 -122 0
-129 -130 0
-89 -92 0
-100 -99 0
-178 -175 0
-77 -73 0
-77 -76 0
-77 -78 0
-23 -26 0
-23 -28 0
-23 -30 0
-5 -1 0
-5 -2 0
-5 -4 0
-58 -59 0
-58 -61 0
-58 -57 0
-63 -67 0
-63 -68 0
-63 -69 0
-45 -40 0
-45 -46 0
-45 -39 0
-17 -20 0
-17 -22 0
-17 -15 0
-9 -13 0
-9 -14 0
-9 -12 0
-31 -33 0
-31 -34 0
-31 -35 0
-53 -52 0
-53 -47 0
-53 -51 0
-73 -76 0
-73 -78 0
-26 -28 0
-26 -30 0
-1 -2 0
-1 -4 0
-59 -61 0
-59 -57 0
-67 -68 0
-67 -69 0
-40 -46 0
-40 -39 0
-20 -22 0
-20 -15 0
-13 -14 0
-13 -12 0
-33 -34 0
-33 -35 0
-52 -47 0
-52 -51 0
-76 -78 0
-28 -30 0
-2 -4 0
-61 -57 0
-68 -69 0
-46 -39 0
-22 -15 0
-14 -12 0
-34 -35 0
-47 -51 0
77 73 76 78 0
23 26 28 30 0
5 1 2 4 0
58 59 61 57 0
63 67 68 69 0
45 40 46 39 0
17 20 22 15 0
9 13 14 12 0
31 33 34 35 0
53 52 47 51 0
77 73 76 -240 0
77 73 76 -239 0
77 73 78 -240 0
77 73 78 -239 0
77 76 78 -240 0
77 76 78 -239 0
23 26 28 -143 0
23 26 28 -144 0
23 26 30 -143 0
23 26 30 -144 0
23 28 30 -143 0
23 28 30 -144 0
5 1 2 -3 0
5 1 2 -6 0
5 1 4 -3 0
5 1 4 -6 0
5 2 4 -3 0
5 2 4 -6 0
58 59 61 -224 0
58 59 61 -223 0
58 59 57 -224 0
58 59 57 -223 0
58 61 57 -224 0
58 61 57 -223 0
63 67 68 -234 0
63 67 68 -233 0
63 67 69 -234 0
63 67 69 -233 0
63 68 69 -234 0
63 68 69 -233 0
45 40 46 -192 0
45 40 46 -191 0
45 40 39 -192 0
45 40 39 -191 0
45 46 39 -192 0
45 46 39 -191 0
17 20 22 -114 0
17 20 22 -113 0
17 20 15 -114 0
17 20 15 -113 0
17 22 15 -114 0
17 22 15 -113 0
9 13 14 -79 0
9 13 14 -80 0
9 13 12 -79 0
9 13 12 -80 0
9 14 12 -79 0
9 14 12 -80 0
31 33 34 -169 0
31 33 34 -170 0
31 33 35 -169 0
31 33 35 -170 0
31 34 35 -169 0
31 34 35 -170 0
53 52 47 -209 0
53 52 47 -210 0
53 52 51 -209 0
53 52 51 -210 0
53 47 51 -209 0
53 47 51 -210 0
73 76 78 -240 0
73 76 78 -239 0
26 28 30 -143 0
26 28 30 -144 0
1 2 4 -3 0
1 2 4 -6 0
59 61 57 -224 0
59 61 57 -223 0
67 68 69 -234 0
67 68 69 -233 0
40 46 39 -192 0
40 46 39 -191 0
20 22 15 -114 0
20 22 15 -113 0
13 14 12 -79 0
13 14 12 -80 0
33 34 35 -169 0
33 34 35 -170 0
52 47 51 -209 0
52 47 51 -210 0
77 73 76 78 -240 0
77 73 76 78 -166 0
77 73 76 78 -75 0
77 73 76 78 -230 0
77 73 76 78 -236 0
77 73 76 78 -206 0
77 73 76 78 -142 0
77 73 76 78 -110 0
77 73 76 78 -190 0
77 73 76 78 -221 0
77 73 76 78 -165 0
77 73 76 78 -74 0
77 73 76 78 -232 0
77 73 76 78 -235 0
77 73 76 78 -205 0
77 73 76 78 -140 0
77 73 76 78 -109 0
77 73 76 78 -187 0
77 73 76 78 -219 0
77 73 76 78 -239 0
77 73 76 78 -168 0
77 73 76 78 -72 0
77 73 76 78 -229 0
77 73 76 78 -237 0
77 73 76 78 -207 0
77 73 76 78 -139 0
77 73 76 78 -112 0
77 73 76 78 -189 0
77 73 76 78 -222 0
77 73 76 78 -167 0
77 73 76 78 -71 0
77 73 76 78 -231 0
77 73 76 78 -238 0
77 73 76 78 -208 0
77 73 76 78 -141 0
77 73 76 78 -111 0
77 73 76 78 -188 0
77 73 76 78 -220 0
23 26 28 30 -166 0
23 26 28 30 -165 0
23 26 28 30 -143 0
23 26 28 30 -24 0
23 26 28 30 -158 0
23 26 28 30 -162 0
23 26 28 30 -152 0
23 26 28 30 -116 0
23 26 28 30 -86 0
23 26 28 30 -145 0
23 26 28 30 -156 0
23 26 28 30 -29 0
23 26 28 30 -157 0
23 26 28 30 -161 0
23 26 28 30 -149 0
23 26 28 30 -118 0
23 26 28 30 -88 0
23 26 28 30 -146 0
23 26 28 30 -153 0
23 26 28 30 -168 0
23 26 28 30 -167 0
23 26 28 30 -144 0
23 26 28 30 -27 0
23 26 28 30 -160 0
23 26 28 30 -163 0
23 26 28 30 -151 0
23 26 28 30 -115 0
23 26 28 30 -85 0
23 26 28 30 -147 0
23 26 28 30 -154 0
23 26 28 30 -25 0
23 26 28 30 -159 0
23 26 28 30 -164 0
23 26 28 30 -150 0
23 26 28 30 -117 0
23 26 28 30 -87 0
23 26 28 30 -148 0
23 26 28 30 -155 0
5 1 2 4 -75 0
5 1 2 4 -24 0
5 1 2 4 -74 0
5 1 2 4 -29 0
5 1 2 4 -3 0
5 1 2 4 -56 0
5 1 2 4 -70 0
5 1 2 4 -42 0
5 1 2 4 -21 0
5 1 2 4 -7 0
5 1 2 4 -36 0
5 1 2 4 -50 0
5 1 2 4 -62 0
5 1 2 4 -66 0
5 1 2 4 -41 0
5 1 2 4 -18 0
5 1 2 4 -8 0
5 1 2 4 -32 0
5 1 2 4 -54 0
5 1 2 4 -72 0
5 1 2 4 -27 0
5 1 2 4 -71 0
5 1 2 4 -25 0
5 1 2 4 -6 0
5 1 2 4 -60 0
5 1 2 4 -64 0
5 1 2 4 -44 0
5 1 2 4 -19 0
5 1 2 4 -11 0
5 1 2 4 -38 0
5 1 2 4 -48 0
5 1 2 4 -55 0
5 1 2 4 -65 0
5 1 2 4 -43 0
5 1 2 4 -16 0
5 1 2 4 -10 0
5 1 2 4 -37 0
5 1 2 4 -49 0
58 59 61 57 -230 0
58 59 61 57 -158 0
58 59 61 57 -56 0
58 59 61 57 -232 0
58 59 61 57 -157 0
58 59 61 57 -62 0
58 59 61 57 -224 0
58 59 61 57 -227 0
58 59 61 57 -198 0
58 59 61 57 -133 0
58 59 61 57 -102 0
58 59 61 57 -179 0
58 59 61 57 -211 0
58 59 61 57 -228 0
58 59 61 57 -199 0
58 59 61 57 -131 0
58 59 61 57 -103 0
58 59 61 57 -181 0
58 59 61 57 -213 0
58 59 61 57 -229 0
58 59 61 57 -160 0
58 59 61 57 -60 0
58 59 61 57 -231 0
58 59 61 57 -159 0
58 59 61 57 -55 0
58 59 61 57 -223 0
58 59 61 57 -225 0
58 59 61 57 -200 0
58 59 61 57 -134 0
58 59 61 57 -104 0
58 59 61 57 -182 0
58 59 61 57 -212 0
58 59 61 57 -226 0
58 59 61 57 -197 0
58 59 61 57 -132 0
58 59 61 57 -101 0
58 59 61 57 -180 0
58 59 61 57 -214 0
63 67 68 69 -236 0
63 67 68 69 -162 0
63 67 68 69 -70 0
63 67 68 69 -227 0
63 67 68 69 -235 0
63 67 68 69 -161 0
63 67 68 69 -66 0
63 67 68 69 -228 0
63 67 68 69 -234 0
63 67 68 69 -202 0
63 67 68 69 -135 0
63 67 68 69 -108 0
63 67 68 69 -185 0
63 67 68 69 -217 0
63 67 68 69 -201 0
63 67 68 69 -137 0
63 67 68 69 -105 0
63 67 68 69 -184 0
63 67 68 69 -216 0
63 67 68 69 -237 0
63 67 68 69 -163 0
63 67 68 69 -64 0
63 67 68 69 -225 0
63 67 68 69 -238 0
63 67 68 69 -164 0
63 67 68 69 -65 0
63 67 68 69 -226 0
63 67 68 69 -233 0
63 67 68 69 -204 0
63 67 68 69 -136 0
63 67 68 69 -107 0
63 67 68 69 -183 0
63 67 68 69 -215 0
63 67 68 69 -203 0
63 67 68 69 -138 0
63 67 68 69 -106 0
63 67 68 69 -186 0
63 67 68 69 -218 0
45 40 46 39 -206 0
45 40 46 39 -152 0
45 40 46 39 -42 0
45 40 46 39 -198 0
45 40 46 39 -202 0
45 40 46 39 -205 0
45 40 46 39 -149 0
45 40 46 39 -41 0
45 40 46 39 -199 0
45 40 46 39 -201 0
45 40 46 39 -192 0
45 40 46 39 -126 0
45 40 46 39 -93 0
45 40 46 39 -173 0
45 40 46 39 -193 0
45 40 46 39 -125 0
45 40 46 39 -96 0
45 40 46 39 -174 0
45 40 46 39 -194 0
45 40 46 39 -207 0
45 40 46 39 -151 0
45 40 46 39 -44 0
45 40 46 39 -200 0
45 40 46 39 -204 0
45 40 46 39 -208 0
45 40 46 39 -150 0
45 40 46 39 -43 0
45 40 46 39 -197 0
45 40 46 39 -203 0
45 40 46 39 -191 0
45 40 46 39 -123 0
45 40 46 39 -95 0
45 40 46 39 -171 0
45 40 46 39 -196 0
45 40 46 39 -124 0
45 40 46 39 -94 0
45 40 46 39 -172 0
45 40 46 39 -195 0
17 20 22 15 -142 0
17 20 22 15 -116 0
17 20 22 15 -21 0
17 20 22 15 -133 0
17 20 22 15 -135 0
17 20 22 15 -126 0
17 20 22 15 -140 0
17 20 22 15 -118 0
17 20 22 15 -18 0
17 20 22 15 -131 0
17 20 22 15 -137 0
17 20 22 15 -125 0
17 20 22 15 -114 0
17 20 22 15 -81 0
17 20 22 15 -121 0
17 20 22 15 -127 0
17 20 22 15 -82 0
17 20 22 15 -120 0
17 20 22 15 -128 0
17 20 22 15 -139 0
17 20 22 15 -115 0
17 20 22 15 -19 0
17 20 22 15 -134 0
17 20 22 15 -136 0
17 20 22 15 -123 0
17 20 22 15 -141 0
17 20 22 15 -117 0
17 20 22 15 -16 0
17 20 22 15 -132 0
17 20 22 15 -138 0
17 20 22 15 -124 0
17 20 22 15 -113 0
17 20 22 15 -84 0
17 20 22 15 -119 0
17 20 22 15 -129 0
17 20 22 15 -83 0
17 20 22 15 -122 0
17 20 22 15 -130 0
9 13 14 12 -110 0
9 13 14 12 -86 0
9 13 14 12 -7 0
9 13 14 12 -102 0
9 13 14 12 -108 0
9 13 14 12 -93 0
9 13 14 12 -81 0
9 13 14 12 -109 0
9 13 14 12 -88 0
9 13 14 12 -8 0
9 13 14 12 -103 0
9 13 14 12 -105 0
9 13 14 12 -96 0
9 13 14 12 -82 0
9 13 14 12 -79 0
9 13 14 12 -91 0
9 13 14 12 -97 0
9 13 14 12 -90 0
9 13 14 12 -98 0
9 13 14 12 -112 0
9 13 14 12 -85 0
9 13 14 12 -11 0
9 13 14 12 -104 0
9 13 14 12 -107 0
9 13 14 12 -95 0
9 13 14 12 -84 0
9 13 14 12 -111 0
9 13 14 12 -87 0
9 13 14 12 -10 0
9 13 14 12 -101 0
9 13 14 12 -106 0
9 13 14 12 -94 0
9 13 14 12 -83 0
9 13 14 12 -80 0
9 13 14 12 -89 0
9 13 14 12 -100 0
9 13 14 12 -92 0
9 13 14 12 -99 0
31 33 34 35 -190 0
31 33 34 35 -145 0
31 33 34 35 -36 0
31 33 34 35 -179 0
31 33 34 35 -185 0
31 33 34 35 -173 0
31 33 34 35 -121 0
31 33 34 35 -91 0
31 33 34 35 -187 0
31 33 34 35 -146 0
31 33 34 35 -32 0
31 33 34 35 -181 0
31 33 34 35 -184 0
31 33 34 35 -174 0
31 33 34 35 -120 0
31 33 34 35 -90 0
31 33 34 35 -169 0
31 33 34 35 -177 0
31 33 34 35 -176 0
31 33 34 35 -189 0
31 33 34 35 -147 0
31 33 34 35 -38 0
31 33 34 35 -182 0
31 33 34 35 -183 0
31 33 34 35 -171 0
31 33 34 35 -119 0
31 33 34 35 -89 0
31 33 34 35 -188 0
31 33 34 35 -148 0
31 33 34 35 -37 0
31 33 34 35 -180 0
31 33 34 35 -186 0
31 33 34 35 -172 0
31 33 34 35 -122 0
31 33 34 35 -92 0
31 33 34 35 -170 0
31 33 34 35 -178 0
31 33 34 35 -175 0
53 52 47 51 -221 0
53 52 47 51 -156 0
53 52 47 51 -50 0
53 52 47 51 -211 0
53 52 47 51 -217 0
53 52 47 51 -193 0
53 52 47 51 -127 0
53 52 47 51 -97 0
53 52 47 51 -177 0
53 52 47 51 -219 0
53 52 47 51 -153 0
53 52 47 51 -54 0
53 52 47 51 -213 0
53 52 47 51 -216 0
53 52 47 51 -194 0
53 52 47 51 -128 0
53 52 47 51 -98 0
53 52 47 51 -176 0
53 52 47 51 -209 0
53 52 47 51 -222 0
53 52 47 51 -154 0
53 52 47 51 -48 0
53 52 47 51 -212 0
53 52 47 51 -215 0
53 52 47 51 -196 0
53 52 47 51 -129 0
53 52 47 51 -100 0
53 52 47 51 -178 0
53 52 47 51 -220 0
53 52 47 51 -155 0
53 52 47 51 -49 0
53 52 47 51 -214 0
53 52 47 51 -218 0
53 52 47 51 -195 0
53 52 47 51 -130 0
53 52 47 51 -99 0
53 52 47 51 -175 0
53 52 47 51 -210 0
77 23 73 76 78 -166 0
77 23 73 76 78 -165 0
77 23 73 76 78 -168 0
77 23 73 76 78 -167 0
77 23 26 28 30 -166 0
77 23 26 28 30 -165 0
77 23 26 28 30 -168 0
77 23 26 28 30 -167 0
77 5 73 76 78 -75 0
77 5 73 76 78 -74 0
77 5 73 76 78 -72 0
77 5 73 76 78 -71 0
77 5 1 2 4 -75 0
77 5 1 2 4 -74 0
77 5 1 2 4 -72 0
77 5 1 2 4 -71 0
77 58 73 76 78 -230 0
77 58 73 76 78 -232 0
77 58 73 76 78 -229 0
77 58 73 76 78 -231 0
77 58 59 61 57 -230 0
77 58 59 61 57 -232 0
77 58 59 61 57 -229 0
77 58 59 61 57 -231 0
77 63 73 76 78 -236 0
77 63 73 76 78 -235 0
77 63 73 76 78 -237 0
77 63 73 76 78 -238 0
77 63 67 68 69 -236 0
77 63 67 68 69 -235 0
77 63 67 68 69 -237 0
77 63 67 68 69 -238 0
77 45 73 76 78 -206 0
77 45 73 76 78 -205 0
77 45 73 76 78 -207 0
77 45 73 76 78 -208 0
77 45 40 46 39 -206 0
77 45 40 46 39 -205 0
77 45 40 46 39 -207 0
77 45 40 46 39 -208 0
77 17 73 76 78 -142 0
77 17 73 76 78 -140 0
77 17 73 76 78 -139 0
77 17 73 76 78 -141 0
77 17 20 22 15 -142 0
77 17 20 22 15 -140 0
77 17 20 22 15 -139 0
77 17 20 22 15 -141 0
77 9 73 76 78 -110 0
77 9 73 76 78 -109 0
77 9 73 76 78 -112 0
77 9 73 76 78 -111 0
77 9 13 14 12 -110 0
77 9 13 14 12 -109 0
77 9 13 14 12 -112 0
77 9 13 14 12 -111 0
77 31 73 76 78 -190 0
77 31 73 76 78 -187 0
77 31 73 76 78 -189 0
77 31 73 76 78 -188 0
77 31 33 34 35 -190 0
77 31 33 34 35 -187 0
77 31 33 34 35 -189 0
77 31 33 34 35 -188 0
77 53 73 76 78 -221 0
77 53 73 76 78 -219 0
77 53 73 76 78 -222 0
77 53 73 76 78 -220 0
77 53 52 47 51 -221 0
77 53 52 47 51 -219 0
77 53 52 47 51 -222 0
77 53 52 47 51 -220 0
77 73 26 76 78 -166 0
77 73 26 76 78 -165 0
77 73 26 76 78 -168 0
77 73 26 76 78 -167 0
77 73 1 76 78 -75 0
77 73 1 76 78 -74 0
77 73 1 76 78 -72 0
77 73 1 76 78 -71 0
77 73 59 76 78 -230 0
77 73 59 76 78 -232 0
77 73 59 76 78 -229 0
77 73 59 76 78 -231 0
77 73 67 76 78 -236 0
77 73 67 76 78 -235 0
77 73 67 76 78 -237 0
77 73 67 76 78 -238 0
77 73 40 76 78 -206 0
77 73 40 76 78 -205 0
77 73 40 76 78 -207 0
77 73 40 76 78 -208 0
77 73 20 76 78 -142 0
77 73 20 76 78 -140 0
77 73 20 76 78 -139 0
77 73 20 76 78 -141 0
77 73 13 76 78 -110 0
77 73 13 76 78 -109 0
77 73 13 76 78 -112 0
77 73 13 76 78 -111 0
77 73 33 76 78 -190 0
77 73 33 76 78 -187 0
77 73 33 76 78 -189 0
77 73 33 76 78 -188 0
77 73 52 76 78 -221 0
77 73 52 76 78 -219 0
77 73 52 76 78 -222 0
77 73 52 76 78 -220 0
77 73 76 28 78 -166 0
77 73 76 28 78 -165 0
77 73 76 28 78 -168 0
77 73 76 28 78 -167 0
77 73 76 2 78 -75 0
77 73 76 2 78 -74 0
77 73 76 2 78 -72 0
77 73 76 2 78 -71 0
77 73 76 61 78 -230 0
77 73 76 61 78 -232 0
77 73 76 61 78 -229 0
77 73 76 61 78 -231 0
77 73 76 68 78 -236 0
77 73 76 68 78 -235 0
77 73 76 68 78 -237 0
77 73 76 68 78 -238 0
77 73 76 46 78 -206 0
77 73 76 46 78 -205 0
77 73 76 46 78 -207 0
77 73 76 46 78 -208 0
77 73 76 22 78 -142 0
77 73 76 22 78 -140 0
77 73 76 22 78 -139 0
77 73 76 22 78 -141 0
77 73 76 14 78 -110 0
77 73 76 14 78 -109 0
77 73 76 14 78 -112 0
77 73 76 14 78 -111 0
77 73 76 34 78 -190 0
77 73 76 34 78 -187 0
77 73 76 34 78 -189 0
77 73 76 34 78 -188 0
77 73 76 47 78 -221 0
77 73 76 47 78 -219 0
77 73 76 47 78 -222 0
77 73 76 47 78 -220 0
77 73 76 78 30 -166 0
77 73 76 78 30 -165 0
77 73 76 78 30 -168 0
77 73 76 78 30 -167 0
77 73 76 78 4 -75 0
77 73 76 78 4 -74 0
77 73 76 78 4 -72 0
77 73 76 78 4 -71 0
77 73 76 78 57 -230 0
77 73 76 78 57 -232 0
77 73 76 78 57 -229 0
77 73 76 78 57 -231 0
77 73 76 78 69 -236 0
77 73 76 78 69 -235 0
77 73 76 78 69 -237 0
77 73 76 78 69 -238 0
77 73 76 78 39 -206 0
77 73 76 78 39 -205 0
77 73 76 78 39 -207 0
77 73 76 78 39 -208 0
77 73 76 78 15 -142 0
77 73 76 78 15 -140 0
77 73 76 78 15 -139 0
77 73 76 78 15 -141 0
77 73 76 78 12 -110 0
77 73 76 78 12 -109 0
77 73 76 78 12 -112 0
77 73 76 78 12 -111 0
77 73 76 78 35 -190 0
77 73 76 78 35 -187 0
77 73 76 78 35 -189 0
77 73 76 78 35 -188 0
77 73 76 78 51 -221 0
77 73 76 78 51 -219 0
77 73 76 78 51 -222 0
77 73 76 78 51 -220 0
23 5 26 28 30 -24 0
23 5 26 28 30 -29 0
23 5 26 28 30 -27 0
23 5 26 28 30 -25 0
23 5 1 2 4 -24 0
23 5 1 2 4 -29 0
23 5 1 2 4 -27 0
23 5 1 2 4 -25 0
23 58 26 28 30 -158 0
23 58 26 28 30 -157 0
23 58 26 28 30 -160 0
23 58 26 28 30 -159 0
23 58 59 61 57 -158 0
23 58 59 61 57 -157 0
23 58 59 61 57 -160 0
23 58 59 61 57 -159 0
23 63 26 28 30 -162 0
23 63 26 28 30 -161 0
23 63 26 28 30 -163 0
23 63 26 28 30 -164 0
23 63 67 68 69 -162 0
23 63 67 68 69 -161 0
23 63 67 68 69 -163 0
23 63 67 68 69 -164 0
23 45 26 28 30 -152 0
23 45 26 28 30 -149 0
23 45 26 28 30 -151 0
23 45 26 28 30 -150 0
23 45 40 46 39 -152 0
23 45 40 46 39 -149 0
23 45 40 46 39 -151 0
23 45 40 46 39 -150 0
23 17 26 28 30 -116 0
23 17 26 28 30 -118 0
23 17 26 28 30 -115 0
23 17 26 28 30 -117 0
23 17 20 22 15 -116 0
23 17 20 22 15 -118 0
23 17 20 22 15 -115 0
23 17 20 22 15 -117 0
23 9 26 28 30 -86 0
23 9 26 28 30 -88 0
23 9 26 28 30 -85 0
23 9 26 28 30 -87 0
23 9 13 14 12 -86 0
23 9 13 14 12 -88 0
23 9 13 14 12 -85 0
23 9 13 14 12 -87 0
23 31 26 28 30 -145 0
23 31 26 28 30 -146 0
23 31 26 28 30 -147 0
23 31 26 28 30 -148 0
23 31 33 34 35 -145 0
23 31 33 34 35 -146 0
23 31 33 34 35 -147 0
23 31 33 34 35 -148 0
23 53 26 28 30 -156 0
23 53 26 28 30 -153 0
23 53 26 28 30 -154 0
23 53 26 28 30 -155 0
23 53 52 47 51 -156 0
23 53 52 47 51 -153 0
23 53 52 47 51 -154 0
23 53 52 47 51 -155 0
23 73 26 28 30 -166 0
23 73 26 28 30 -165 0
23 73 26 28 30 -168 0
23 73 26 28 30 -167 0
23 26 1 28 30 -24 0
23 26 1 28 30 -29 0
23 26 1 28 30 -27 0
23 26 1 28 30 -25 0
23 26 59 28 30 -158 0
23 26 59 28 30 -157 0
23 26 59 28 30 -160 0
23 26 59 28 30 -159 0
23 26 67 28 30 -162 0
23 26 67 28 30 -161 0
23 26 67 28 30 -163 0
23 26 67 28 30 -164 0
23 26 40 28 30 -152 0
23 26 40 28 30 -149 0
23 26 40 28 30 -151 0
23 26 40 28 30 -150 0
23 26 20 28 30 -116 0
23 26 20 28 30 -118 0
23 26 20 28 30 -115 0
23 26 20 28 30 -117 0
23 26 13 28 30 -86 0
23 26 13 28 30 -88 0
23 26 13 28 30 -85 0
23 26 13 28 30 -87 0
23 26 33 28 30 -145 0
23 26 33 28 30 -146 0
23 26 33 28 30 -147 0
23 26 33 28 30 -148 0
23 26 52 28 30 -156 0
23 26 52 28 30 -153 0
23 26 52 28 30 -154 0
23 26 52 28 30 -155 0
23 26 76 28 30 -166 0
23 26 76 28 30 -165 0
23 26 76 28 30 -168 0
23 26 76 28 30 -167 0
23 26 28 2 30 -24 0
23 26 28 2 30 -29 0
23 26 28 2 30 -27 0
23 26 28 2 30 -25 0
23 26 28 61 30 -158 0
23 26 28 61 30 -157 0
23 26 28 61 30 -160 0
23 26 28 61 30 -159 0
23 26 28 68 30 -162 0
23 26 28 68 30 -161 0
23 26 28 68 30 -163 0
23 26 28 68 30 -164 0
23 26 28 46 30 -152 0
23 26 28 46 30 -149 0
23 26 28 46 30 -151 0
23 26 28 46 30 -150 0
23 26 28 22 30 -116 0
23 26 28 22 30 -118 0
23 26 28 22 30 -115 0
23 26 28 22 30 -117 0
23 26 28 14 30 -86 0
23 26 28 14 30 -88 0
23 26 28 14 30 -85 0
23 26 28 14 30 -87 0
23 26 28 34 30 -145 0
23 26 28 34 30 -146 0
23 26 28 34 30 -147 0
23 26 28 34 30 -148 0
23 26 28 47 30 -156 0
23 26 28 47 30 -153 0
23 26 28 47 30 -154 0
23 26 28 47 30 -155 0
23 26 28 78 30 -166 0
23 26 28 78 30 -165 0
23 26 28 78 30 -168 0
23 26 28 78 30 -167 0
23 26 28 30 4 -24 0
23 26 28 30 4 -29 0
23 26 28 30 4 -27 0
23 26 28 30 4 -25 0
23 26 28 30 57 -158 0
23 26 28 30 57 -157 0
23 26 28 30 57 -160 0
23 26 28 30 57 -159 0
23 26 28 30 69 -162 0
23 26 28 30 69 -161 0
23 26 28 30 69 -163 0
23 26 28 30 69 -164 0
23 26 28 30 39 -152 0
23 26 28 30 39 -149 0
23 26 28 30 39 -151 0
23 26 28 30 39 -150 0
23 26 28 30 15 -116 0
23 26 28 30 15 -118 0
23 26 28 30 15 -115 0
23 26 28 30 15 -117 0
23 26 28 30 12 -86 0
23 26 28 30 12 -88 0
23 26 28 30 12 -85 0
23 26 28 30 12 -87 0
23 26 28 30 35 -145 0
23 26 28 30 35 -146 0
23 26 28 30 35 -147 0
23 26 28 30 35 -148 0
23 26 28 30 51 -156 0
23 26 28 30 51 -153 0
23 26 28 30 51 -154 0
23 26 28 30 51 -155 0
5 58 1 2 4 -56 0
5 58 1 2 4 -62 0
5 58 1 2 4 -60 0
5 58 1 2 4 -55 0
5 58 59 61 57 -56 0
5 58 59 61 57 -62 0
5 58 59 61 57 -60 0
5 58 59 61 57 -55 0
5 63 1 2 4 -70 0
5 63 1 2 4 -66 0
5 63 1 2 4 -64 0
5 63 1 2 4 -65 0
5 63 67 68 69 -70 0
5 63 67 68 69 -66 0
5 63 67 68 69 -64 0
5 63 67 68 69 -65 0
5 45 1 2 4 -42 0
5 45 1 2 4 -41 0
5 45 1 2 4 -44 0
5 45 1 2 4 -43 0
5 45 40 46 39 -42 0
5 45 40 46 39 -41 0
5 45 40 46 39 -44 0
5 45 40 46 39 -43 0
5 17 1 2 4 -21 0
5 17 1 2 4 -18 0
5 17 1 2 4 -19 0
5 17 1 2 4 -16 0
5 17 20 22 15 -21 0
5 17 20 22 15 -18 0
5 17 20 22 15 -19 0
5 17 20 22 15 -16 0
5 9 1 2 4 -7 0
5 9 1 2 4 -8 0
5 9 1 2 4 -11 0
5 9 1 2 4 -10 0
5 9 13 14 12 -7 0
5 9 13 14 12 -8 0
5 9 13 14 12 -11 0
5 9 13 14 12 -10 0
5 31 1 2 4 -36 0
5 31 1 2 4 -32 0
5 31 1 2 4 -38 0
5 31 1 2 4 -37 0
5 31 33 34 35 -36 0
5 31 33 34 35 -32 0
5 31 33 34 35 -38 0
5 31 33 34 35 -37 0
5 53 1 2 4 -50 0
5 53 1 2 4 -54 0
5 53 1 2 4 -48 0
5 53 1 2 4 -49 0
5 53 52 47 51 -50 0
5 53 52 47 51 -54 0
5 53 52 47 51 -48 0
5 53 52 47 51 -49 0
5 73 1 2 4 -75 0
5 73 1 2 4 -74 0
5 73 1 2 4 -72 0
5 73 1 2 4 -71 0
5 26 1 2 4 -24 0
5 26 1 2 4 -29 0
5 26 1 2 4 -27 0
5 26 1 2 4 -25 0
5 1 59 2 4 -56 0
5 1 59 2 4 -62 0
5 1 59 2 4 -60 0
5 1 59 2 4 -55 0
5 1 67 2 4 -70 0
5 1 67 2 4 -66 0
5 1 67 2 4 -64 0
5 1 67 2 4 -65 0
5 1 40 2 4 -42 0
5 1 40 2 4 -41 0
5 1 40 2 4 -44 0
5 1 40 2 4 -43 0
5 1 20 2 4 -21 0
5 1 20 2 4 -18 0
5 1 20 2 4 -19 0
5 1 20 2 4 -16 0
5 1 13 2 4 -7 0
5 1 13 2 4 -8 0
5 1 13 2 4 -11 0
5 1 13 2 4 -10 0
5 1 33 2 4 -36 0
5 1 33 2 4 -32 0
5 1 33 2 4 -38 0
5 1 33 2 4 -37 0
5 1 52 2 4 -50 0
5 1 52 2 4 -54 0
5 1 52 2 4 -48 0
5 1 52 2 4 -49 0
5 1 76 2 4 -75 0
5 1 76 2 4 -74 0
5 1 76 2 4 -72 0
5 1 76 2 4 -71 0
5 1 28 2 4 -24 0
5 1 28 2 4 -29 0
5 1 28 2 4 -27 0
5 1 28 2 4 -25 0
5 1 2 61 4 -56 0
5 1 2 61 4 -62 0
5 1 2 61 4 -60 0
5 1 2 61 4 -55 0
5 1 2 68 4 -70 0
5 1 2 68 4 -66 0
5 1 2 68 4 -64 0
5 1 2 68 4 -65 0
5 1 2 46 4 -42 0
5 1 2 46 4 -41 0
5 1 2 46 4 -44 0
5 1 2 46 4 -43 0
5 1 2 22 4 -21 0
5 1 2 22 4 -18 0
5 1 2 22 4 -19 0
5 1 2 22 4 -16 0
5 1 2 14 4 -7 0
5 1 2 14 4 -8 0
5 1 2 14 4 -11 0
5 1 2 14 4 -10 0
5 1 2 34 4 -36 0
5 1 2 34 4 -32 0
5 1 2 34 4 -38 0
5 1 2 34 4 -37 0
5 1 2 47 4 -50 0
5 1 2 47 4 -54 0
5 1 2 47 4 -48 0
5 1 2 47 4 -49 0
5 1 2 78 4 -75 0
5 1 2 78 4 -74 0
5 1 2 78 4 -72 0
5 1 2 78 4 -71 0
5 1 2 30 4 -24 0
5 1 2 30 4 -29 0
5 1 2 30 4 -27 0
5 1 2 30 4 -25 0
5 1 2 4 57 -56 0
5 1 2 4 57 -62 0
5 1 2 4 57 -60 0
5 1 2 4 57 -55 0
5 1 2 4 69 -70 0
5 1 2 4 69 -66 0
5 1 2 4 69 -64 0
5 1 2 4 69 -65 0
5 1 2 4 39 -42 0
5 1 2 4 39 -41 0
5 1 2 4 39 -44 0
5 1 2 4 39 -43 0
5 1 2 4 15 -21 0
5 1 2 4 15 -18 0
5 1 2 4 15 -19 0
5 1 2 4 15 -16 0
5 1 2 4 12 -7 0
5 1 2 4 12 -8 0
5 1 2 4 12 -11 0
5 1 2 4 12 -10 0
5 1 2 4 35 -36 0
5 1 2 4 35 -32 0
5 1 2 4 35 -38 0
5 1 2 4 35 -37 0
5 1 2 4 51 -50 0
5 1 2 4 51 -54 0
5 1 2 4 51 -48 0
5 1 2 4 51 -49 0
58 63 59 61 57 -227 0
58 63 59 61 57 -228 0
58 63 59 61 57 -225 0
58 63 59 61 57 -226 0
58 63 67 68 69 -227 0
58 63 67 68 69 -228 0
58 63 67 68 69 -225 0
58 63 67 68 69 -226 0
58 45 59 61 57 -198 0
58 45 59 61 57 -199 0
58 45 59 61 57 -200 0
58 45 59 61 57 -197 0
58 45 40 46 39 -198 0
58 45 40 46 39 -199 0
58 45 40 46 39 -200 0
58 45 40 46 39 -197 0
58 17 59 61 57 -133 0
58 17 59 61 57 -131 0
58 17 59 61 57 -134 0
58 17 59 61 57 -132 0
58 17 20 22 15 -133 0
58 17 20 22 15 -131 0
58 17 20 22 15 -134 0
58 17 20 22 15 -132 0
58 9 59 61 57 -102 0
58 9 59 61 57 -103 0
58 9 59 61 57 -104 0
58 9 59 61 57 -101 0
58 9 13 14 12 -102 0
58 9 13 14 12 -103 0
58 9 13 14 12 -104 0
58 9 13 14 12 -101 0
58 31 59 61 57 -179 0
58 31 59 61 57 -181 0
58 31 59 61 57 -182 0
58 31 59 61 57 -180 0
58 31 33 34 35 -179 0
58 31 33 34 35 -181 0
58 31 33 34 35 -182 0
58 31 33 34 35 -180 0
58 53 59 61 57 -211 0
58 53 59 61 57 -213 0
58 53 59 61 57 -212 0
58 53 59 61 57 -214 0
58 53 52 47 51 -211 0
58 53 52 47 51 -213 0
58 53 52 47 51 -212 0
58 53 52 47 51 -214 0
58 73 59 61 57 -230 0
58 73 59 61 57 -232 0
58 73 59 61 57 -229 0
58 73 59 61 57 -231 0
58 26 59 61 57 -158 0
58 26 59 61 57 -157 0
58 26 59 61 57 -160 0
58 26 59 61 57 -159 0
58 1 59 61 57 -56 0
58 1 59 61 57 -62 0
58 1 59 61 57 -60 0
58 1 59 61 57 -55 0
58 59 67 61 57 -227 0
58 59 67 61 57 -228 0
58 59 67 61 57 -225 0
58 59 67 61 57 -226 0
58 59 40 61 57 -198 0
58 59 40 61 57 -199 0
58 59 40 61 57 -200 0
58 59 40 61 57 -197 0
58 59 20 61 57 -133 0
58 59 20 61 57 -131 0
58 59 20 61 57 -134 0
58 59 20 61 57 -132 0
58 59 13 61 57 -102 0
58 59 13 61 57 -103 0
58 59 13 61 57 -104 0
58 59 13 61 57 -101 0
58 59 33 61 57 -179 0
58 59 33 61 57 -181 0
58 59 33 61 57 -182 0
58 59 33 61 57 -180 0
58 59 52 61 57 -211 0
58 59 52 61 57 -213 0
58 59 52 61 57 -212 0
58 59 52 61 57 -214 0
58 59 76 61 57 -230 0
58 59 76 61 57 -232 0
58 59 76 61 57 -229 0
58 59 76 61 57 -231 0
58 59 28 61 57 -158 0
58 59 28 61 57 -157 0
58 59 28 61 57 -160 0
58 59 28 61 57 -159 0
58 59 2 61 57 -56 0
58 59 2 61 57 -62 0
58 59 2 61 57 -60 0
58 59 2 61 57 -55 0
58 59 61 68 57 -227 0
58 59 61 68 57 -228 0
58 59 61 68 57 -225 0
58 59 61 68 57 -226 0
58 59 61 46 57 -198 0
58 59 61 46 57 -199 0
58 59 61 46 57 -200 0
58 59 61 46 57 -197 0
58 59 61 22 57 -133 0
58 59 61 22 57 -131 0
58 59 61 22 57 -134 0
58 59 61 22 57 -132 0
58 59 61 14 57 -102 0
58 59 61 14 57 -103 0
58 59 61 14 57 -104 0
58 59 61 14 57 -101 0
58 59 61 34 57 -179 0
58 59 61 34 57 -181 0
58 59 61 34 57 -182 0
58 59 61 34 57 -180 0
58 59 61 47 57 -211 0
58 59 61 47 57 -213 0
58 59 61 47 57 -212 0
58 59 61 47 57 -214 0
58 59 61 78 57 -230 0
58 59 61 78 57 -232 0
58 59 61 78 57 -229 0
58 59 61 78 57 -231 0
58 59 61 30 57 -158 0
58 59 61 30 57 -157 0
58 59 61 30 57 -160 0
58 59 61 30 57 -159 0
58 59 61 4 57 -56 0
58 59 61 4 57 -62 0
58 59 61 4 57 -60 0
58 59 61 4 57 -55 0
58 59 61 57 69 -227 0
58 59 61 57 69 -228 0
58 59 61 57 69 -225 0
58 59 61 57 69 -226 0
58 59 61 57 39 -198 0
58 59 61 57 39 -199 0
58 59 61 57 39 -200 0
58 59 61 57 39 -197 0
58 59 61 57 15 -133 0
58 59 61 57 15 -131 0
58 59 61 57 15 -134 0
58 59 61 57 15 -132 0
58 59 61 57 12 -102 0
58 59 61 57 12 -103 0
58 59 61 57 12 -104 0
58 59 61 57 12 -101 0
58 59 61 57 35 -179 0
58 59 61 57 35 -181 0
58 59 61 57 35 -182 0
58 59 61 57 35 -180 0
58 59 61 57 51 -211 0
58 59 61 57 51 -213 0
58 59 61 57 51 -212 0
58 59 61 57 51 -214 0
63 45 67 68 69 -202 0
63 45 67 68 69 -201 0
63 45 67 68 69 -204 0
63 45 67 68 69 -203 0
63 45 40 46 39 -202 0
63 45 40 46 39 -201 0
63 45 40 46 39 -204 0
63 45 40 46 39 -203 0
63 17 67 68 69 -135 0
63 17 67 68 69 -137 0
63 17 67 68 69 -136 0
63 17 67 68 69 -138 0
63 17 20 22 15 -135 0
63 17 20 22 15 -137 0
63 17 20 22 15 -136 0
63 17 20 22 15 -138 0
63 9 67 68 69 -108 0
63 9 67 68 69 -105 0
63 9 67 68 69 -107 0
63 9 67 68 69 -106 0
63 9 13 14 12 -108 0
63 9 13 14 12 -105 0
63 9 13 14 12 -107 0
63 9 13 14 12 -106 0
63 31 67 68 69 -185 0
63 31 67 68 69 -184 0
63 31 67 68 69 -183 0
63 31 67 68 69 -186 0
63 31 33 34 35 -185 0
63 31 33 34 35 -184 0
63 31 33 34 35 -183 0
63 31 33 34 35 -186 0
63 53 67 68 69 -217 0
63 53 67 68 69 -216 0
63 53 67 68 69 -215 0
63 53 67 68 69 -218 0
63 53 52 47 51 -217 0
63 53 52 47 51 -216 0
63 53 52 47 51 -215 0
63 53 52 47 51 -218 0
63 73 67 68 69 -236 0
63 73 67 68 69 -235 0
63 73 67 68 69 -237 0
63 73 67 68 69 -238 0
63 26 67 68 69 -162 0
63 26 67 68 69 -161 0
63 26 67 68 69 -163 0
63 26 67 68 69 -164 0
63 1 67 68 69 -70 0
63 1 67 68 69 -66 0
63 1 67 68 69 -64 0
63 1 67 68 69 -65 0
63 59 67 68 69 -227 0
63 59 67 68 69 -228 0
63 59 67 68 69 -225 0
63 59 67 68 69 -226 0
63 67 40 68 69 -202 0
63 67 40 68 69 -201 0
63 67 40 68 69 -204 0
63 67 40 68 69 -203 0
63 67 20 68 69 -135 0
63 67 20 68 69 -137 0
63 67 20 68 69 -136 0
63 67 20 68 69 -138 0
63 67 13 68 69 -108 0
63 67 13 68 69 -105 0
63 67 13 68 69 -107 0
63 67 13 68 69 -106 0
63 67 33 68 69 -185 0
63 67 33 68 69 -184 0
63 67 33 68 69 -183 0
63 67 33 68 69 -186 0
63 67 52 68 69 -217 0
63 67 52 68 69 -216 0
63 67 52 68 69 -215 0
63 67 52 68 69 -218 0
63 67 76 68 69 -236 0
63 67 76 68 69 -235 0
63 67 76 68 69 -237 0
63 67 76 68 69 -238 0
63 67 28 68 69 -162 0
63 67 28 68 69 -161 0
63 67 28 68 69 -163 0
63 67 28 68 69 -164 0
63 67 2 68 69 -70 0
63 67 2 68 69 -66 0
63 67 2 68 69 -64 0
63 67 2 68 69 -65 0
63 67 61 68 69 -227 0
63 67 61 68 69 -228 0
63 67 61 68 69 -225 0
63 67 61 68 69 -226 0
63 67 68 46 69 -202 0
63 67 68 46 69 -201 0
63 67 68 46 69 -204 0
63 67 68 46 69 -203 0
63 67 68 22 69 -135 0
63 67 68 22 69 -137 0
63 67 68 22 69 -136 0
63 67 68 22 69 -138 0
63 67 68 14 69 -108 0
63 67 68 14 69 -105 0
63 67 68 14 69 -107 0
63 67 68 14 69 -106 0
63 67 68 34 69 -185 0
63 67 68 34 69 -184 0
63 67 68 34 69 -183 0
63 67 68 34 69 -186 0
63 67 68 47 69 -217 0
63 67 68 47 69 -216 0
63 67 68 47 69 -215 0
63 67 68 47 69 -218 0
63 67 68 78 69 -236 0
63 67 68 78 69 -235 0
63 67 68 78 69 -237 0
63 67 68 78 69 -238 0
63 67 68 30 69 -162 0
63 67 68 30 69 -161 0
63 67 68 30 69 -163 0
63 67 68 30 69 -164 0
63 67 68 4 69 -70 0
63 67 68 4 69 -66 0
63 67 68 4 69 -64 0
63 67 68 4 69 -65 0
63 67 68 57 69 -227 0
63 67 68 57 69 -228 0
63 67 68 57 69 -225 0
63 67 68 57 69 -226 0
63 67 68 69 39 -202 0
63 67 68 69 39 -201 0
63 67 68 69 39 -204 0
63 67 68 69 39 -203 0
63 67 68 69 15 -135 0
63 67 68 69 15 -137 0
63 67 68 69 15 -136 0
63 67 68 69 15 -138 0
63 67 68 69 12 -108 0
63 67 68 69 12 -105 0
63 67 68 69 12 -107 0
63 67 68 69 12 -106 0
63 67 68 69 35 -185 0
63 67 68 69 35 -184 0
63 67 68 69 35 -183 0
63 67 68 69 35 -186 0
63 67 68 69 51 -217 0
63 67 68 69 51 -216 0
63 67 68 69 51 -215 0
63 67 68 69 51 -218 0
45 17 40 46 39 -126 0
45 17 40 46 39 -125 0
45 17 40 46 39 -123 0
45 17 40 46 39 -124 0
45 17 20 22 15 -126 0
45 17 20 22 15 -125 0
45 17 20 22 15 -123 0
45 17 20 22 15 -124 0
45 9 40 46 39 -93 0
45 9 40 46 39 -96 0
45 9 40 46 39 -95 0
45 9 40 46 39 -94 0
45 9 13 14 12 -93 0
45 9 13 14 12 -96 0
45 9 13 14 12 -95 0
45 9 13 14 12 -94 0
45 31 40 46 39 -173 0
45 31 40 46 39 -174 0
45 31 40 46 39 -171 0
45 31 40 46 39 -172 0
45 31 33 34 35 -173 0
45 31 33 34 35 -174 0
45 31 33 34 35 -171 0
45 31 33 34 35 -172 0
45 53 40 46 39 -193 0
45 53 40 46 39 -194 0
45 53 40 46 39 -196 0
45 53 40 46 39 -195 0
45 53 52 47 51 -193 0
45 53 52 47 51 -194 0
45 53 52 47 51 -196 0
45 53 52 47 51 -195 0
45 73 40 46 39 -206 0
45 73 40 46 39 -205 0
45 73 40 46 39 -207 0
45 73 40 46 39 -208 0
45 26 40 46 39 -152 0
45 26 40 46 39 -149 0
45 26 40 46 39 -151 0
45 26 40 46 39 -150 0
45 1 40 46 39 -42 0
45 1 40 46 39 -41 0
45 1 40 46 39 -44 0
45 1 40 46 39 -43 0
45 59 40 46 39 -198 0
45 59 40 46 39 -199 0
45 59 40 46 39 -200 0
45 59 40 46 39 -197 0
45 67 40 46 39 -202 0
45 67 40 46 39 -201 0
45 67 40 46 39 -204 0
45 67 40 46 39 -203 0
45 40 20 46 39 -126 0
45 40 20 46 39 -125 0
45 40 20 46 39 -123 0
45 40 20 46 39 -124 0
45 40 13 46 39 -93 0
45 40 13 46 39 -96 0
45 40 13 46 39 -95 0
45 40 13 46 39 -94 0
45 40 33 46 39 -173 0
45 40 33 46 39 -174 0
45 40 33 46 39 -171 0
45 40 33 46 39 -172 0
45 40 52 46 39 -193 0
45 40 52 46 39 -194 0
45 40 52 46 39 -196 0
45 40 52 46 39 -195 0
45 40 76 46 39 -206 0
45 40 76 46 39 -205 0
45 40 76 46 39 -207 0
45 40 76 46 39 -208 0
45 40 28 46 39 -152 0
45 40 28 46 39 -149 0
45 40 28 46 39 -151 0
45 40 28 46 39 -150 0
45 40 2 46 39 -42 0
45 40 2 46 39 -41 0
45 40 2 46 39 -44 0
45 40 2 46 39 -43 0
45 40 61 46 39 -198 0
45 40 61 46 39 -199 0
45 40 61 46 39 -200 0
45 40 61 46 39 -197 0
45 40 68 46 39 -202 0
45 40 68 46 39 -201 0
45 40 68 46 39 -204 0
45 40 68 46 39 -203 0
45 40 46 22 39 -126 0
45 40 46 22 39 -125 0
45 40 46 22 39 -123 0
45 40 46 22 39 -124 0
45 40 46 14 39 -93 0
45 40 46 14 39 -96 0
45 40 46 14 39 -95 0
45 40 46 14 39 -94 0
45 40 46 34 39 -173 0
45 40 46 34 39 -174 0
45 40 46 34 39 -171 0
45 40 46 34 39 -172 0
45 40 46 47 39 -193 0
45 40 46 47 39 -194 0
45 40 46 47 39 -196 0
45 40 46 47 39 -195 0
45 40 46 78 39 -206 0
45 40 46 78 39 -205 0
45 40 46 78 39 -207 0
45 40 46 78 39 -208 0
45 40 46 30 39 -152 0
45 40 46 30 39 -149 0
45 40 46 30 39 -151 0
45 40 46 30 39 -150 0
45 40 46 4 39 -42 0
45 40 46 4 39 -41 0
45 40 46 4 39 -44 0
45 40 46 4 39 -43 0
45 40 46 57 39 -198 0
45 40 46 57 39 -199 0
45 40 46 57 39 -200 0
45 40 46 57 39 -197 0
45 40 46 69 39 -202 0
45 40 46 69 39 -201 0
45 40 46 69 39 -204 0
45 40 46 69 39 -203 0
45 40 46 39 15 -126 0
45 40 46 39 15 -125 0
45 40 46 39 15 -123 0
45 40 46 39 15 -124 0
45 40 46 39 12 -93 0
45 40 46 39 12 -96 0
45 40 46 39 12 -95 0
45 40 46 39 12 -94 0
45 40 46 39 35 -173 0
45 40 46 39 35 -174 0
45 40 46 39 35 -171 0
45 40 46 39 35 -172 0
45 40 46 39 51 -193 0
45 40 46 39 51 -194 0
45 40 46 39 51 -196 0
45 40 46 39 51 -195 0
17 9 20 22 15 -81 0
17 9 20 22 15 -82 0
17 9 20 22 15 -84 0
17 9 20 22 15 -83 0
17 9 13 14 12 -81 0
17 9 13 14 12 -82 0
17 9 13 14 12 -84 0
17 9 13 14 12 -83 0
17 31 20 22 15 -121 0
17 31 20 22 15 -120 0
17 31 20 22 15 -119 0
17 31 20 22 15 -122 0
17 31 33 34 35 -121 0
17 31 33 34 35 -120 0
17 31 33 34 35 -119 0
17 31 33 34 35 -122 0
17 53 20 22 15 -127 0
17 53 20 22 15 -128 0
17 53 20 22 15 -129 0
17 53 20 22 15 -130 0
17 53 52 47 51 -127 0
17 53 52 47 51 -128 0
17 53 52 47 51 -129 0
17 53 52 47 51 -130 0
17 73 20 22 15 -142 0
17 73 20 22 15 -140 0
17 73 20 22 15 -139 0
17 73 20 22 15 -141 0
17 26 20 22 15 -116 0
17 26 20 22 15 -118 0
17 26 20 22 15 -115 0
17 26 20 22 15 -117 0
17 1 20 22 15 -21 0
17 1 20 22 15 -18 0
17 1 20 22 15 -19 0
17 1 20 22 15 -16 0
17 59 20 22 15 -133 0
17 59 20 22 15 -131 0
17 59 20 22 15 -134 0
17 59 20 22 15 -132 0
17 67 20 22 15 -135 0
17 67 20 22 15 -137 0
17 67 20 22 15 -136 0
17 67 20 22 15 -138 0
17 40 20 22 15 -126 0
17 40 20 22 15 -125 0
17 40 20 22 15 -123 0
17 40 20 22 15 -124 0
17 20 13 22 15 -81 0
17 20 13 22 15 -82 0
17 20 13 22 15 -84 0
17 20 13 22 15 -83 0
17 20 33 22 15 -121 0
17 20 33 22 15 -120 0
17 20 33 22 15 -119 0
17 20 33 22 15 -122 0
17 20 52 22 15 -127 0
17 20 52 22 15 -128 0
17 20 52 22 15 -129 0
17 20 52 22 15 -130 0
17 20 76 22 15 -142 0
17 20 76 22 15 -140 0
17 20 76 22 15 -139 0
17 20 76 22 15 -141 0
17 20 28 22 15 -116 0
17 20 28 22 15 -118 0
17 20 28 22 15 -115 0
17 20 28 22 15 -117 0
17 20 2 22 15 -21 0
17 20 2 22 15 -18 0
17 20 2 22 15 -19 0
17 20 2 22 15 -16 0
17 20 61 22 15 -133 0
17 20 61 22 15 -131 0
17 20 61 22 15 -134 0
17 20 61 22 15 -132 0
17 20 68 22 15 -135 0
17 20 68 22 15 -137 0
17 20 68 22 15 -136 0
17 20 68 22 15 -138 0
17 20 46 22 15 -126 0
17 20 46 22 15 -125 0
17 20 46 22 15 -123 0
17 20 46 22 15 -124 0
17 20 22 14 15 -81 0
17 20 22 14 15 -82 0
17 20 22 14 15 -84 0
17 20 22 14 15 -83 0
17 20 22 34 15 -121 0
17 20 22 34 15 -120 0
17 20 22 34 15 -119 0
17 20 22 34 15 -122 0
17 20 22 47 15 -127 0
17 20 22 47 15 -128 0
17 20 22 47 15 -129 0
17 20 22 47 15 -130 0
17 20 22 78 15 -142 0
17 20 22 78 15 -140 0
17 20 22 78 15 -139 0
17 20 22 78 15 -141 0
17 20 22 30 15 -116 0
17 20 22 30 15 -118 0
17 20 22 30 15 -115 0
17 20 22 30 15 -117 0
17 20 22 4 15 -21 0
17 20 22 4 15 -18 0
17 20 22 4 15 -19 0
17 20 22 4 15 -16 0
17 20 22 57 15 -133 0
17 20 22 57 15 -131 0
17 20 22 57 15 -134 0
17 20 22 57 15 -132 0
17 20 22 69 15 -135 0
17 20 22 69 15 -137 0
17 20 22 69 15 -136 0
17 20 22 69 15 -138 0
17 20 22 39 15 -126 0
17 20 22 39 15 -125 0
17 20 22 39 15 -123 0
17 20 22 39 15 -124 0
17 20 22 15 12 -81 0
17 20 22 15 12 -82 0
17 20 22 15 12 -84 0
17 20 22 15 12 -83 0
17 20 22 15 35 -121 0
17 20 22 15 35 -120 0
17 20 22 15 35 -119 0
17 20 22 15 35 -122 0
17 20 22 15 51 -127 0
17 20 22 15 51 -128 0
17 20 22 15 51 -129 0
17 20 22 15 51 -130 0
9 31 13 14 12 -91 0
9 31 13 14 12 -90 0
9 31 13 14 12 -89 0
9 31 13 14 12 -92 0
9 31 33 34 35 -91 0
9 31 33 34 35 -90 0
9 31 33 34 35 -89 0
9 31 33 34 35 -92 0
9 53 13 14 12 -97 0
9 53 13 14 12 -98 0
9 53 13 14 12 -100 0
9 53 13 14 12 -99 0
9 53 52 47 51 -97 0
9 53 52 47 51 -98 0
9 53 52 47 51 -100 0
9 53 52 47 51 -99 0
9 73 13 14 12 -110 0
9 73 13 14 12 -109 0
9 73 13 14 12 -112 0
9 73 13 14 12 -111 0
9 26 13 14 12 -86 0
9 26 13 14 12 -88 0
9 26 13 14 12 -85 0
9 26 13 14 12 -87 0
9 1 13 14 12 -7 0
9 1 13 14 12 -8 0
9 1 13 14 12 -11 0
9 1 13 14 12 -10 0
9 59 13 14 12 -102 0
9 59 13 14 12 -103 0
9 59 13 14 12 -104 0
9 59 13 14 12 -101 0
9 67 13 14 12 -108 0
9 67 13 14 12 -105 0
9 67 13 14 12 -107 0
9 67 13 14 12 -106 0
9 40 13 14 12 -93 0
9 40 13 14 12 -96 0
9 40 13 14 12 -95 0
9 40 13 14 12 -94 0
9 20 13 14 12 -81 0
9 20 13 14 12 -82 0
9 20 13 14 12 -84 0
9 20 13 14 12 -83 0
9 13 33 14 12 -91 0
9 13 33 14 12 -90 0
9 13 33 14 12 -89 0
9 13 33 14 12 -92 0
9 13 52 14 12 -97 0
9 13 52 14 12 -98 0
9 13 52 14 12 -100 0
9 13 52 14 12 -99 0
9 13 76 14 12 -110 0
9 13 76 14 12 -109 0
9 13 76 14 12 -112 0
9 13 76 14 12 -111 0
9 13 28 14 12 -86 0
9 13 28 14 12 -88 0
9 13 28 14 12 -85 0
9 13 28 14 12 -87 0
9 13 2 14 12 -7 0
9 13 2 14 12 -8 0
9 13 2 14 12 -11 0
9 13 2 14 12 -10 0
9 13 61 14 12 -102 0
9 13 61 14 12 -103 0
9 13 61 14 12 -104 0
9 13 61 14 12 -101 0
9 13 68 14 12 -108 0
9 13 68 14 12 -105 0
9 13 68 14 12 -107 0
9 13 68 14 12 -106 0
9 13 46 14 12 -93 0
9 13 46 14 12 -96 0
9 13 46 14 12 -95 0
9 13 46 14 12 -94 0
9 13 22 14 12 -81 0
9 13 22 14 12 -82 0
9 13 22 14 12 -84 0
9 13 22 14 12 -83 0
9 13 14 34 12 -91 0
9 13 14 34 12 -90 0
9 13 14 34 12 -89 0
9 13 14 34 12 -92 0
9 13 14 47 12 -97 0
9 13 14 47 12 -98 0
9 13 14 47 12 -100 0
9 13 14 47 12 -99 0
9 13 14 78 12 -110 0
9 13 14 78 12 -109 0
9 13 14 78 12 -112 0
9 13 14 78 12 -111 0
9 13 14 30 12 -86 0
9 13 14 30 12 -88 0
9 13 14 30 12 -85 0
9 13 14 30 12 -87 0
9 13 14 4 12 -7 0
9 13 14 4 12 -8 0
9 13 14 4 12 -11 0
9 13 14 4 12 -10 0
9 13 14 57 12 -102 0
9 13 14 57 12 -103 0
9 13 14 57 12 -104 0
9 13 14 57 12 -101 0
9 13 14 69 12 -108 0
9 13 14 69 12 -105 0
9 13 14 69 12 -107 0
9 13 14 69 12 -106 0
9 13 14 39 12 -93 0
9 13 14 39 12 -96 0
9 13 14 39 12 -95 0
9 13 14 39 12 -94 0
9 13 14 15 12 -81 0
9 13 14 15 12 -82 0
9 13 14 15 12 -84 0
9 13 14 15 12 -83 0
9 13 14 12 35 -91 0
9 13 14 12 35 -90 0
9 13 14 12 35 -89 0
9 13 14 12 35 -92 0
9 13 14 12 51 -97 0
9 13 14 12 51 -98 0
9 13 14 12 51 -100 0
9 13 14 12 51 -99 0
31 53 33 34 35 -177 0
31 53 33 34 35 -176 0
31 53 33 34 35 -178 0
31 53 33 34 35 -175 0
31 53 52 47 51 -177 0
31 53 52 47 51 -176 0
31 53 52 47 51 -178 0
31 53 52 47 51 -175 0
31 73 33 34 35 -190 0
31 73 33 34 35 -187 0
31 73 33 34 35 -189 0
31 73 33 34 35 -188 0
31 26 33 34 35 -145 0
31 26 33 34 35 -146 0
31 26 33 34 35 -147 0
31 26 33 34 35 -148 0
31 1 33 34 35 -36 0
31 1 33 34 35 -32 0
31 1 33 34 35 -38 0
31 1 33 34 35 -37 0
31 59 33 34 35 -179 0
31 59 33 34 35 -181 0
31 59 33 34 35 -182 0
31 59 33 34 35 -180 0
31 67 33 34 35 -185 0
31 67 33 34 35 -184 0
31 67 33 34 35 -183 0
31 67 33 34 35 -186 0
31 40 33 34 35 -173 0
31 40 33 34 35 -174 0
31 40 33 34 35 -171 0
31 40 33 34 35 -172 0
31 20 33 34 35 -121 0
31 20 33 34 35 -120 0
31 20 33 34 35 -119 0
31 20 33 34 35 -122 0
31 13 33 34 35 -91 0
31 13 33 34 35 -90 0
31 13 33 34 35 -89 0
31 13 33 34 35 -92 0
31 33 52 34 35 -177 0
31 33 52 34 35 -176 0
31 33 52 34 35 -178 0
31 33 52 34 35 -175 0
31 33 76 34 35 -190 0
31 33 76 34 35 -187 0
31 33 76 34 35 -189 0
31 33 76 34 35 -188 0
31 33 28 34 35 -145 0
31 33 28 34 35 -146 0
31 33 28 34 35 -147 0
31 33 28 34 35 -148 0
31 33 2 34 35 -36 0
31 33 2 34 35 -32 0
31 33 2 34 35 -38 0
31 33 2 34 35 -37 0
31 33 61 34 35 -179 0
31 33 61 34 35 -181 0
31 33 61 34 35 -182 0
31 33 61 34 35 -180 0
31 33 68 34 35 -185 0
31 33 68 34 35 -184 0
31 33 68 34 35 -183 0
31 33 68 34 35 -186 0
31 33 46 34 35 -173 0
31 33 46 34 35 -174 0
31 33 46 34 35 -171 0
31 33 46 34 35 -172 0
31 33 22 34 35 -121 0
31 33 22 34 35 -120 0
31 33 22 34 35 -119 0
31 33 22 34 35 -122 0
31 33 14 34 35 -91 0
31 33 14 34 35 -90 0
31 33 14 34 35 -89 0
31 33 14 34 35 -92 0
31 33 34 47 35 -177 0
31 33 34 47 35 -176 0
31 33 34 47 35 -178 0
31 33 34 47 35 -175 0
31 33 34 78 35 -190 0
31 33 34 78 35 -187 0
31 33 34 78 35 -189 0
31 33 34 78 35 -188 0
31 33 34 30 35 -145 0
31 33 34 30 35 -146 0
31 33 34 30 35 -147 0
31 33 34 30 35 -148 0
31 33 34 4 35 -36 0
31 33 34 4 35 -32 0
31 33 34 4 35 -38 0
31 33 34 4 35 -37 0
31 33 34 57 35 -179 0
31 33 34 57 35 -181 0
31 33 34 57 35 -182 0
31 33 34 57 35 -180 0
31 33 34 69 35 -185 0
31 33 34 69 35 -184 0
31 33 34 69 35 -183 0
31 33 34 69 35 -186 0
31 33 34 39 35 -173 0
31 33 34 39 35 -174 0
31 33 34 39 35 -171 0
31 33 34 39 35 -172 0
31 33 34 15 35 -121 0
31 33 34 15 35 -120 0
31 33 34 15 35 -119 0
31 33 34 15 35 -122 0
31 33 34 12 35 -91 0
31 33 34 12 35 -90 0
31 33 34 12 35 -89 0
31 33 34 12 35 -92 0
31 33 34 35 51 -177 0
31 33 34 35 51 -176 0
31 33 34 35 51 -178 0
31 33 34 35 51 -175 0
53 73 52 47 51 -221 0
53 73 52 47 51 -219 0
53 73 52 47 51 -222 0
53 73 52 47 51 -220 0
53 26 52 47 51 -156 0
53 26 52 47 51 -153 0
53 26 52 47 51 -154 0
53 26 52 47 51 -155 0
53 1 52 47 51 -50 0
53 1 52 47 51 -54 0
53 1 52 47 51 -48 0
53 1 52 47 51 -49 0
53 59 52 47 51 -211 0
53 59 52 47 51 -213 0
53 59 52 47 51 -212 0
53 59 52 47 51 -214 0
53 67 52 47 51 -217 0
53 67 52 47 51 -216 0
53 67 52 47 51 -215 0
53 67 52 47 51 -218 0
53 40 52 47 51 -193 0
53 40 52 47 51 -194 0
53 40 52 47 51 -196 0
53 40 52 47 51 -195 0
53 20 52 47 51 -127 0
53 20 52 47 51 -128 0
53 20 52 47 51 -129 0
53 20 52 47 51 -130 0
53 13 52 47 51 -97 0
53 13 52 47 51 -98 0
53 13 52 47 51 -100 0
53 13 52 47 51 -99 0
53 33 52 47 51 -177 0
53 33 52 47 51 -176 0
53 33 52 47 51 -178 0
53 33 52 47 51 -175 0
53 52 76 47 51 -221 0
53 52 76 47 51 -219 0
53 52 76 47 51 -222 0
53 52 76 47 51 -220 0
53 52 28 47 51 -156 0
53 52 28 47 51 -153 0
53 52 28 47 51 -154 0
53 52 28 47 51 -155 0
53 52 2 47 51 -50 0
53 52 2 47 51 -54 0
53 52 2 47 51 -48 0
53 52 2 47 51 -49 0
53 52 61 47 51 -211 0
53 52 61 47 51 -213 0
53 52 61 47 51 -212 0
53 52 61 47 51 -214 0
53 52 68 47 51 -217 0
53 52 68 47 51 -216 0
53 52 68 47 51 -215 0
53 52 68 47 51 -218 0
53 52 46 47 51 -193 0
53 52 46 47 51 -194 0
53 52 46 47 51 -196 0
53 52 46 47 51 -195 0
53 52 22 47 51 -127 0
53 52 22 47 51 -128 0
53 52 22 47 51 -129 0
53 52 22 47 51 -130 0
53 52 14 47 51 -97 0
53 52 14 47 51 -98 0
53 52 14 47 51 -100 0
53 52 14 47 51 -99 0
53 52 34 47 51 -177 0
53 52 34 47 51 -176 0
53 52 34 47 51 -178 0
53 52 34 47 51 -175 0
53 52 47 78 51 -221 0
53 52 47 78 51 -219 0
53 52 47 78 51 -222 0
53 52 47 78 51 -220 0
53 52 47 30 51 -156 0
53 52 47 30 51 -153 0
53 52 47 30 51 -154 0
53 52 47 30 51 -155 0
53 52 47 4 51 -50 0
53 52 47 4 51 -54 0
53 52 47 4 51 -48 0
53 52 47 4 51 -49 0
53 52 47 57 51 -211 0
53 52 47 57 51 -213 0
53 52 47 57 51 -212 0
53 52 47 57 51 -214 0
53 52 47 69 51 -217 0
53 52 47 69 51 -216 0
53 52 47 69 51 -215 0
53 52 47 69 51 -218 0
53 52 47 39 51 -193 0
53 52 47 39 51 -194 0
53 52 47 39 51 -196 0
53 52 47 39 51 -195 0
53 52 47 15 51 -127 0
53 52 47 15 51 -128 0
53 52 47 15 51 -129 0
53 52 47 15 51 -130 0
53 52 47 12 51 -97 0
53 52 47 12 51 -98 0
53 52 47 12 51 -100 0
53 52 47 12 51 -99 0
53 52 47 35 51 -177 0
53 52 47 35 51 -176 0
53 52 47 35 51 -178 0
53 52 47 35 51 -175 0
77 23 73 26 76 28 -166 0
77 23 73 26 76 28 -165 0
77 23 73 26 76 28 -168 0
77 23 73 26 76 28 -167 0
77 23 73 26 76 78 -166 0
77 23 73 26 76 78 -165 0
77 23 73 26 76 78 -168 0
77 23 73 26 76 78 -167 0
77 23 73 26 28 30 -166 0
77 23 73 26 28 30 -165 0
77 23 73 26 28 30 -168 0
77 23 73 26 28 30 -167 0
77 23 73 26 78 30 -166 0
77 23 73 26 78 30 -165 0
77 23 73 26 78 30 -168 0
77 23 73 26 78 30 -167 0
77 23 73 76 28 78 -166 0
77 23 73 76 28 78 -165 0
77 23 73 76 28 78 -168 0
77 23 73 76 28 78 -167 0
77 23 73 76 78 30 -166 0
77 23 73 76 78 30 -165 0
77 23 73 76 78 30 -168 0
77 23 73 76 78 30 -167 0
77 23 26 76 28 30 -166 0
77 23 26 76 28 30 -165 0
77 23 26 76 28 30 -168 0
77 23 26 76 28 30 -167 0
77 23 26 28 78 30 -166 0
77 23 26 28 78 30 -165 0
77 23 26 28 78 30 -168 0
77 23 26 28 78 30 -167 0
77 23 76 28 78 30 -166 0
77 23 76 28 78 30 -165 0
77 23 76 28 78 30 -168 0
77 23 76 28 78 30 -167 0
77 5 73 1 76 2 -75 0
77 5 73 1 76 2 -74 0
77 5 73 1 76 2 -72 0
77 5 73 1 76 2 -71 0
77 5 73 1 76 78 -75 0
77 5 73 1 76 78 -74 0
77 5 73 1 76 78 -72 0
77 5 73 1 76 78 -71 0
77 5 73 1 2 4 -75 0
77 5 73 1 2 4 -74 0
77 5 73 1 2 4 -72 0
77 5 73 1 2 4 -71 0
77 5 73 1 78 4 -75 0
77 5 73 1 78 4 -74 0
77 5 73 1 78 4 -72 0
77 5 73 1 78 4 -71 0
77 5 73 76 2 78 -75 0
77 5 73 76 2 78 -74 0
77 5 73 76 2 78 -72 0
77 5 73 76 2 78 -71 0
77 5 73 76 78 4 -75 0
77 5 73 76 78 4 -74 0
77 5 73 76 78 4 -72 0
77 5 73 76 78 4 -71 0
77 5 1 76 2 4 -75 0
77 5 1 76 2 4 -74 0
77 5 1 76 2 4 -72 0
77 5 1 76 2 4 -71 0
77 5 1 2 78 4 -75 0
77 5 1 2 78 4 -74 0
77 5 1 2 78 4 -72 0
77 5 1 2 78 4 -71 0
77 5 76 2 78 4 -75 0
77 5 76 2 78 4 -74 0
77 5 76 2 78 4 -72 0
77 5 76 2 78 4 -71 0
77 58 73 59 76 61 -230 0
77 58 73 59 76 61 -232 0
77 58 73 59 76 61 -229 0
77 58 73 59 76 61 -231 0
77 58 73 59 76 78 -230 0
77 58 73 59 76 78 -232 0
77 58 73 59 76 78 -229 0
77 58 73 59 76 78 -231 0
77 58 73 59 61 57 -230 0
77 58 73 59 61 57 -232 0
77 58 73 59 61 57 -229 0
77 58 73 59 61 57 -231 0
77 58 73 59 78 57 -230 0
77 58 73 59 78 57 -232 0
77 58 73 59 78 57 -229 0
77 58 73 59 78 57 -231 0
77 58 73 76 61 78 -230 0
77 58 73 76 61 78 -232 0
77 58 73 76 61 78 -229 0
77 58 73 76 61 78 -231 0
77 58 73 76 78 57 -230 0
77 58 73 76 78 57 -232 0
77 58 73 76 78 57 -229 0
77 58 73 76 78 57 -231 0
77 58 59 76 61 57 -230 0
77 58 59 76 61 57 -232 0
77 58 59 76 61 57 -229 0
77 58 59 76 61 57 -231 0
77 58 59 61 78 57 -230 0
77 58 59 61 78 57 -232 0
77 58 59 61 78 57 -229 0
77 58 59 61 78 57 -231 0
77 58 76 61 78 57 -230 0
77 58 76 61 78 57 -232 0
77 58 76 61 78 57 -229 0
77 58 76 61 78 57 -231 0
77 63 73 67 76 68 -236 0
77 63 73 67 76 68 -235 0
77 63 73 67 76 68 -237 0
77 63 73 67 76 68 -238 0
77 63 73 67 76 78 -236 0
77 63 73 67 76 78 -235 0
77 63 73 67 76 78 -237 0
77 63 73 67 76 78 -238 0
77 63 73 67 68 69 -236 0
77 63 73 67 68 69 -235 0
77 63 73 67 68 69 -237 0
77 63 73 67 68 69 -238 0
77 63 73 67 78 69 -236 0
77 63 73 67 78 69 -235 0
77 63 73 67 78 69 -237 0
77 63 73 67 78 69 -238 0
77 63 73 76 68 78 -236 0
77 63 73 76 68 78 -235 0
77 63 73 76 68 78 -237 0
77 63 73 76 68 78 -238 0
77 63 73 76 78 69 -236 0
77 63 73 76 78 69 -235 0
77 63 73 76 78 69 -237 0
77 63 73 76 78 69 -238 0
77 63 67 76 68 69 -236 0
77 63 67 76 68 69 -235 0
77 63 67 76 68 69 -237 0
77 63 67 76 68 69 -238 0
77 63 67 68 78 69 -236 0
77 63 67 68 78 69 -235 0
77 63 67 68 78 69 -237 0
77 63 67 68 78 69 -238 0
77 63 76 68 78 69 -236 0
77 63 76 68 78 69 -235 0
77 63 76 68 78 69 -237 0
77 63 76 68 78 69 -238 0
77 45 73 40 76 46 -206 0
77 45 73 40 76 46 -205 0
77 45 73 40 76 46 -207 0
77 45 73 40 76 46 -208 0
77 45 73 40 76 78 -206 0
77 45 73 40 76 78 -205 0
77 45 73 40 76 78 -207 0
77 45 73 40 76 78 -208 0
77 45 73 40 46 39 -206 0
77 45 73 40 46 39 -205 0
77 45 73 40 46 39 -207 0
77 45 73 40 46 39 -208 0
77 45 73 40 78 39 -206 0
77 45 73 40 78 39 -205 0
77 45 73 40 78 39 -207 0
77 45 73 40 78 39 -208 0
77 45 73 76 46 78 -206 0
77 45 73 76 46 78 -205 0
77 45 73 76 46 78 -207 0
77 45 73 76 46 78 -208 0
77 45 73 76 78 39 -206 0
77 45 73 76 78 39 -205 0
77 45 73 76 78 39 -207 0
77 45 73 76 78 39 -208 0
77 45 40 76 46 39 -206 0
77 45 40 76 46 39 -205 0
77 45 40 76 46 39 -207 0
77 45 40 76 46 39 -208 0
77 45 40 46 78 39 -206 0
77 45 40 46 78 39 -205 0
77 45 40 46 78 39 -207 0
77 45 40 46 78 39 -208 0
77 45 76 46 78 39 -206 0
77 45 76 46 78 39 -205 0
77 45 76 46 78 39 -207 0
77 45 76 46 78 39 -208 0
77 17 73 20 76 22 -142 0
77 17 73 20 76 22 -140 0
77 17 73 20 76 22 -139 0
77 17 73 20 76 22 -141 0
77 17 73 20 76 78 -142 0
77 17 73 20 76 78 -140 0
77 17 73 20 76 78 -139 0
77 17 73 20 76 78 -141 0
77 17 73 20 22 15 -142 0
77 17 73 20 22 15 -140 0
77 17 73 20 22 15 -139 0
77 17 73 20 22 15 -141 0
77 17 73 20 78 15 -142 0
77 17 73 20 78 15 -140 0
77 17 73 20 78 15 -139 0
77 17 73 20 78 15 -141 0
77 17 73 76 22 78 -142 0
77 17 73 76 22 78 -140 0
77 17 73 76 22 78 -139 0
77 17 73 76 22 78 -141 0
77 17 73 76 78 15 -142 0
77 17 73 76 78 15 -140 0
77 17 73 76 78 15 -139 0
77 17 73 76 78 15 -141 0
77 17 20 76 22 15 -142 0
77 17 20 76 22 15 -140 0
77 17 20 76 22 15 -139 0
77 17 20 76 22 15 -141 0
77 17 20 22 78 15 -142 0
77 17 20 22 78 15 -140 0
77 17 20 22 78 15 -139 0
77 17 20 22 78 15 -141 0
77 17 76 22 78 15 -142 0
77 17 76 22 78 15 -140 0
77 17 76 22 78 15 -139 0
77 17 76 22 78 15 -141 0
77 9 73 13 76 14 -110 0
77 9 73 13 76 14 -109 0
77 9 73 13 76 14 -112 0
77 9 73 13 76 14 -111 0
77 9 73 13 76 78 -110 0
77 9 73 13 76 78 -109 0
77 9 73 13 76 78 -112 0
77 9 73 13 76 78 -111 0
77 9 73 13 14 12 -110 0
77 9 73 13 14 12 -109 0
77 9 73 13 14 12 -112 0
77 9 73 13 14 12 -111 0
77 9 73 13 78 12 -110 0
77 9 73 13 78 12 -109 0
77 9 73 13 78 12 -112 0
77 9 73 13 78 12 -111 0
77 9 73 76 14 78 -110 0
77 9 73 76 14 78 -109 0
77 9 73 76 14 78 -112 0
77 9 73 76 14 78 -111 0
77 9 73 76 78 12 -110 0
77 9 73 76 78 12 -109 0
77 9 73 76 78 12 -112 0
77 9 73 76 78 12 -111 0
77 9 13 76 14 12 -110 0
77 9 13 76 14 12 -109 0
77 9 13 76 14 12 -112 0
77 9 13 76 14 12 -111 0
77 9 13 14 78 12 -110 0
77 9 13 14 78 12 -109 0
77 9 13 14 78 12 -112 0
77 9 13 14 78 12 -111 0
77 9 76 14 78 12 -110 0
77 9 76 14 78 12 -109 0
77 9 76 14 78 12 -112 0
77 9 76 14 78 12 -111 0
77 31 73 33 76 34 -190 0
77 31 73 33 76 34 -187 0
77 31 73 33 76 34 -189 0
77 31 73 33 76 34 -188 0
77 31 73 33 76 78 -190 0
77 31 73 33 76 78 -187 0
77 31 73 33 76 78 -189 0
77 31 73 33 76 78 -188 0
77 31 73 33 34 35 -190 0
77 31 73 33 34 35 -187 0
77 31 73 33 34 35 -189 0
77 31 73 33 34 35 -188 0
77 31 73 33 78 35 -190 0
77 31 73 33 78 35 -187 0
77 31 73 33 78 35 -189 0
77 31 73 33 78 35 -188 0
77 31 73 76 34 78 -190 0
77 31 73 76 34 78 -187 0
77 31 73 76 34 78 -189 0
77 31 73 76 34 78 -188 0
77 31 73 76 78 35 -190 0
77 31 73 76 78 35 -187 0
77 31 73 76 78 35 -189 0
77 31 73 76 78 35 -188 0
77 31 33 76 34 35 -190 0
77 31 33 76 34 35 -187 0
77 31 33 76 34 35 -189 0
77 31 33 76 34 35 -188 0
77 31 33 34 78 35 -190 0
77 31 33 34 78 35 -187 0
77 31 33 34 78 35 -189 0
77 31 33 34 78 35 -188 0
77 31 76 34 78 35 -190 0
77 31 76 34 78 35 -187 0
77 31 76 34 78 35 -189 0
77 31 76 34 78 35 -188 0
77 53 73 52 76 47 -221 0
77 53 73 52 76 47 -219 0
77 53 73 52 76 47 -222 0
77 53 73 52 76 47 -220 0
77 53 73 52 76 78 -221 0
77 53 73 52 76 78 -219 0
77 53 73 52 76 78 -222 0
77 53 73 52 76 78 -220 0
77 53 73 52 47 51 -221 0
77 53 73 52 47 51 -219 0
77 53 73 52 47 51 -222 0
77 53 73 52 47 51 -220 0
77 53 73 52 78 51 -221 0
77 53 73 52 78 51 -219 0
77 53 73 52 78 51 -222 0
77 53 73 52 78 51 -220 0
77 53 73 76 47 78 -221 0
77 53 73 76 47 78 -219 0
77 53 73 76 47 78 -222 0
77 53 73 76 47 78 -220 0
77 53 73 76 78 51 -221 0
77 53 73 76 78 51 -219 0
77 53 73 76 78 51 -222 0
77 53 73 76 78 51 -220 0
77 53 52 76 47 51 -221 0
77 53 52 76 47 51 -219 0
77 53 52 76 47 51 -222 0
77 53 52 76 47 51 -220 0
77 53 52 47 78 51 -221 0
77 53 52 47 78 51 -219 0
77 53 52 47 78 51 -222 0
77 53 52 47 78 51 -220 0
77 53 76 47 78 51 -221 0
77 53 76 47 78 51 -219 0
77 53 76 47 78 51 -222 0
77 53 76 47 78 51 -220 0
77 73 26 76 28 78 -166 0
77 73 26 76 28 78 -165 0
77 73 26 76 28 78 -168 0
77 73 26 76 28 78 -167 0
77 73 26 76 78 30 -166 0
77 73 26 76 78 30 -165 0
77 73 26 76 78 30 -168 0
77 73 26 76 78 30 -167 0
77 73 1 76 2 78 -75 0
77 73 1 76 2 78 -74 0
77 73 1 76 2 78 -72 0
77 73 1 76 2 78 -71 0
77 73 1 76 78 4 -75 0
77 73 1 76 78 4 -74 0
77 73 1 76 78 4 -72 0
77 73 1 76 78 4 -71 0
77 73 59 76 61 78 -230 0
77 73 59 76 61 78 -232 0
77 73 59 76 61 78 -229 0
77 73 59 76 61 78 -231 0
77 73 59 76 78 57 -230 0
77 73 59 76 78 57 -232 0
77 73 59 76 78 57 -229 0
77 73 59 76 78 57 -231 0
77 73 67 76 68 78 -236 0
77 73 67 76 68 78 -235 0
77 73 67 76 68 78 -237 0
77 73 67 76 68 78 -238 0
77 73 67 76 78 69 -236 0
77 73 67 76 78 69 -235 0
77 73 67 76 78 69 -237 0
77 73 67 76 78 69 -238 0
77 73 40 76 46 78 -206 0
77 73 40 76 46 78 -205 0
77 73 40 76 46 78 -207 0
77 73 40 76 46 78 -208 0
77 73 40 76 78 39 -206 0
77 73 40 76 78 39 -205 0
77 73 40 76 78 39 -207 0
77 73 40 76 78 39 -208 0
77 73 20 76 22 78 -142 0
77 73 20 76 22 78 -140 0
77 73 20 76 22 78 -139 0
77 73 20 76 22 78 -141 0
77 73 20 76 78 15 -142 0
77 73 20 76 78 15 -140 0
77 73 20 76 78 15 -139 0
77 73 20 76 78 15 -141 0
77 73 13 76 14 78 -110 0
77 73 13 76 14 78 -109 0
77 73 13 76 14 78 -112 0
77 73 13 76 14 78 -111 0
77 73 13 76 78 12 -110 0
77 73 13 76 78 12 -109 0
77 73 13 76 78 12 -112 0
77 73 13 76 78 12 -111 0
77 73 33 76 34 78 -190 0
77 73 33 76 34 78 -187 0
77 73 33 76 34 78 -189 0
77 73 33 76 34 78 -188 0
77 73 33 76 78 35 -190 0
77 73 33 76 78 35 -187 0
77 73 33 76 78 35 -189 0
77 73 33 76 78 35 -188 0
77 73 52 76 47 78 -221 0
77 73 52 76 47 78 -219 0
77 73 52 76 47 78 -222 0
77 73 52 76 47 78 -220 0
77 73 52 76 78 51 -221 0
77 73 52 76 78 51 -219 0
77 73 52 76 78 51 -222 0
77 73 52 76 78 51 -220 0
77 73 76 28 78 30 -166 0
77 73 76 28 78 30 -165 0
77 73 76 28 78 30 -168 0
77 73 76 28 78 30 -167 0
77 73 76 2 78 4 -75 0
77 73 76 2 78 4 -74 0
77 73 76 2 78 4 -72 0
77 73 76 2 78 4 -71 0
77 73 76 61 78 57 -230 0
77 73 76 61 78 57 -232 0
77 73 76 61 78 57 -229 0
77 73 76 61 78 57 -231 0
77 73 76 68 78 69 -236 0
77 73 76 68 78 69 -235 0
77 73 76 68 78 69 -237 0
77 73 76 68 78 69 -238 0
77 73 76 46 78 39 -206 0
77 73 76 46 78 39 -205 0
77 73 76 46 78 39 -207 0
77 73 76 46 78 39 -208 0
77 73 76 22 78 15 -142 0
77 73 76 22 78 15 -140 0
77 73 76 22 78 15 -139 0
77 73 76 22 78 15 -141 0
77 73 76 14 78 12 -110 0
77 73 76 14 78 12 -109 0
77 73 76 14 78 12 -112 0
77 73 76 14 78 12 -111 0
77 73 76 34 78 35 -190 0
77 73 76 34 78 35 -187 0
77 73 76 34 78 35 -189 0
77 73 76 34 78 35 -188 0
77 73 76 47 78 51 -221 0
77 73 76 47 78 51 -219 0
77 73 76 47 78 51 -222 0
77 73 76 47 78 51 -220 0
23 5 26 1 28 2 -24 0
23 5 26 1 28 2 -29 0
23 5 26 1 28 2 -27 0
23 5 26 1 28 2 -25 0
23 5 26 1 28 30 -24 0
23 5 26 1 28 30 -29 0
23 5 26 1 28 30 -27 0
23 5 26 1 28 30 -25 0
23 5 26 1 2 4 -24 0
23 5 26 1 2 4 -29 0
23 5 26 1 2 4 -27 0
23 5 26 1 2 4 -25 0
23 5 26 1 30 4 -24 0
23 5 26 1 30 4 -29 0
23 5 26 1 30 4 -27 0
23 5 26 1 30 4 -25 0
23 5 26 28 2 30 -24 0
23 5 26 28 2 30 -29 0
23 5 26 28 2 30 -27 0
23 5 26 28 2 30 -25 0
23 5 26 28 30 4 -24 0
23 5 26 28 30 4 -29 0
23 5 26 28 30 4 -27 0
23 5 26 28 30 4 -25 0
23 5 1 28 2 4 -24 0
23 5 1 28 2 4 -29 0
23 5 1 28 2 4 -27 0
23 5 1 28 2 4 -25 0
23 5 1 2 30 4 -24 0
23 5 1 2 30 4 -29 0
23 5 1 2 30 4 -27 0
23 5 1 2 30 4 -25 0
23 5 28 2 30 4 -24 0
23 5 28 2 30 4 -29 0
23 5 28 2 30 4 -27 0
23 5 28 2 30 4 -25 0
23 58 26 59 28 61 -158 0
23 58 26 59 28 61 -157 0
23 58 26 59 28 61 -160 0
23 58 26 59 28 61 -159 0
23 58 26 59 28 30 -158 0
23 58 26 59 28 30 -157 0
23 58 26 59 28 30 -160 0
23 58 26 59 28 30 -159 0
23 58 26 59 61 57 -158 0
23 58 26 59 61 57 -157 0
23 58 26 59 61 57 -160 0
23 58 26 59 61 57 -159 0
23 58 26 59 30 57 -158 0
23 58 26 59 30 57 -157 0
23 58 26 59 30 57 -160 0
23 58 26 59 30 57 -159 0
23 58 26 28 61 30 -158 0
23 58 26 28 61 30 -157 0
23 58 26 28 61 30 -160 0
23 58 26 28 61 30 -159 0
23 58 26 28 30 57 -158 0
23 58 26 28 30 57 -157 0
23 58 26 28 30 57 -160 0
23 58 26 28 30 57 -159 0
23 58 59 28 61 57 -158 0
23 58 59 28 61 57 -157 0
23 58 59 28 61 57 -160 0
23 58 59 28 61 57 -159 0
23 58 59 61 30 57 -158 0
23 58 59 61 30 57 -157 0
23 58 59 61 30 57 -160 0
23 58 59 61 30 57 -159 0
23 58 28 61 30 57 -158 0
23 58 28 61 30 57 -157 0
23 58 28 61 30 57 -160 0
23 58 28 61 30 57 -159 0
23 63 26 67 28 68 -162 0
23 63 26 67 28 68 -161 0
23 63 26 67 28 68 -163 0
23 63 26 67 28 68 -164 0
23 63 26 67 28 30 -162 0
23 63 26 67 28 30 -161 0
23 63 26 67 28 30 -163 0
23 63 26 67 28 30 -164 0
23 63 26 67 68 69 -162 0
23 63 26 67 68 69 -161 0
23 63 26 67 68 69 -163 0
23 63 26 67 68 69 -164 0
23 63 26 67 30 69 -162 0
23 63 26 67 30 69 -161 0
23 63 26 67 30 69 -163 0
23 63 26 67 30 69 -164 0
23 63 26 28 68 30 -162 0
23 63 26 28 68 30 -161 0
23 63 26 28 68 30 -163 0
23 63 26 28 68 30 -164 0
23 63 26 28 30 69 -162 0
23 63 26 28 30 69 -161 0
23 63 26 28 30 69 -163 0
23 63 26 28 30 69 -164 0
23 63 67 28 68 69 -162 0
23 63 67 28 68 69 -161 0
23 63 67 28 68 69 -163 0
23 63 67 28 68 69 -164 0
23 63 67 68 30 69 -162 0
23 63 67 68 30 69 -161 0
23 63 67 68 30 69 -163 0
23 63 67 68 30 69 -164 0
23 63 28 68 30 69 -162 0
23 63 28 68 30 69 -161 0
23 63 28 68 30 69 -163 0
23 63 28 68 30 69 -164 0
23 45 26 40 28 46 -152 0
23 45 26 40 28 46 -149 0
23 45 26 40 28 46 -151 0
23 45 26 40 28 46 -150 0
23 45 26 40 28 30 -152 0
23 45 26 40 28 30 -149 0
23 45 26 40 28 30 -151 0
23 45 26 40 28 30 -150 0
23 45 26 40 46 39 -152 0
23 45 26 40 46 39 -149 0
23 45 26 40 46 39 -151 0
23 45 26 40 46 39 -150 0
23 45 26 40 30 39 -152 0
23 45 26 40 30 39 -149 0
23 45 26 40 30 39 -151 0
23 45 26 40 30 39 -150 0
23 45 26 28 46 30 -152 0
23 45 26 28 46 30 -149 0
23 45 26 28 46 30 -151 0
23 45 26 28 46 30 -150 0
23 45 26 28 30 39 -152 0
23 45 26 28 30 39 -149 0
23 45 26 28 30 39 -151 0
23 45 26 28 30 39 -150 0
23 45 40 28 46 39 -152 0
23 45 40 28 46 39 -149 0
23 45 40 28 46 39 -151 0
23 45 40 28 46 39 -150 0
23 45 40 46 30 39 -152 0
23 45 40 46 30 39 -149 0
23 45 40 46 30 39 -151 0
23 45 40 46 30 39 -150 0
23 45 28 46 30 39 -152 0
23 45 28 46 30 39 -149 0
23 45 28 46 30 39 -151 0
23 45 28 46 30 39 -150 0
23 17 26 20 28 22 -116 0
23 17 26 20 28 22 -118 0
23 17 26 20 28 22 -115 0
23 17 26 20 28 22 -117 0
23 17 26 20 28 30 -116 0
23 17 26 20 28 30 -118 0
23 17 26 20 28 30 -115 0
23 17 26 20 28 30 -117 0
23 17 26 20 22 15 -116 0
23 17 26 20 22 15 -118 0
23 17 26 20 22 15 -115 0
23 17 26 20 22 15 -117 0
23 17 26 20 30 15 -116 0
23 17 26 20 30 15 -118 0
23 17 26 20 30 15 -115 0
23 17 26 20 30 15 -117 0
23 17 26 28 22 30 -116 0
23 17 26 28 22 30 -118 0
23 17 26 28 22 30 -115 0
23 17 26 28 22 30 -117 0
23 17 26 28 30 15 -116 0
23 17 26 28 30 15 -118 0
23 17 26 28 30 15 -115 0
23 17 26 28 30 15 -117 0
23 17 20 28 22 15 -116 0
23 17 20 28 22 15 -118 0
23 17 20 28 22 15 -115 0
23 17 20 28 22 15 -117 0
23 17 20 22 30 15 -116 0
23 17 20 22 30 15 -118 0
23 17 20 22 30 15 -115 0
23 17 20 22 30 15 -117 0
23 17 28 22 30 15 -116 0
23 17 28 22 30 15 -118 0
23 17 28 22 30 15 -115 0
23 17 28 22 30 15 -117 0
23 9 26 13 28 14 -86 0
23 9 26 13 28 14 -88 0
23 9 26 13 28 14 -85 0
23 9 26 13 28 14 -87 0
23 9 26 13 28 30 -86 0
23 9 26 13 28 30 -88 0
23 9 26 13 28 30 -85 0
23 9 26 13 28 30 -87 0
23 9 26 13 14 12 -86 0
23 9 26 13 14 12 -88 0
23 9 26 13 14 12 -85 0
23 9 26 13 14 12 -87 0
23 9 26 13 30 12 -86 0
23 9 26 13 30 12 -88 0
23 9 26 13 30 12 -85 0
23 9 26 13 30 12 -87 0
23 9 26 28 14 30 -86 0
23 9 26 28 14 30 -88 0
23 9 26 28 14 30 -85 0
23 9 26 28 14 30 -87 0
23 9 26 28 30 12 -86 0
23 9 26 28 30 12 -88 0
23 9 26 28 30 12 -85 0
23 9 26 28 30 12 -87 0
23 9 13 28 14 12 -86 0
23 9 13 28 14 12 -88 0
23 9 13 28 14 12 -85 0
23 9 13 28 14 12 -87 0
23 9 13 14 30 12 -86 0
23 9 13 14 30 12 -88 0
23 9 13 14 30 12 -85 0
23 9 13 14 30 12 -87 0
23 9 28 14 30 12 -86 0
23 9 28 14 30 12 -88 0
23 9 28 14 30 12 -85 0
23 9 28 14 30 12 -87 0
23 31 26 33 28 34 -145 0
23 31 26 33 28 34 -146 0
23 31 26 33 28 34 -147 0
23 31 26 33 28 34 -148 0
23 31 26 33 28 30 -145 0
23 31 26 33 28 30 -146 0
23 31 26 33 28 30 -147 0
23 31 26 33 28 30 -148 0
23 31 26 33 34 35 -145 0
23 31 26 33 34 35 -146 0
23 31 26 33 34 35 -147 0
23 31 26 33 34 35 -148 0
23 31 26 33 30 35 -145 0
23 31 26 33 30 35 -146 0
23 31 26 33 30 35 -147 0
23 31 26 33 30 35 -148 0
23 31 26 28 34 30 -145 0
23 31 26 28 34 30 -146 0
23 31 26 28 34 30 -147 0
23 31 26 28 34 30 -148 0
23 31 26 28 30 35 -145 0
23 31 26 28 30 35 -146 0
23 31 26 28 30 35 -147 0
23 31 26 28 30 35 -148 0
23 31 33 28 34 35 -145 0
23 31 33 28 34 35 -146 0
23 31 33 28 34 35 -147 0
23 31 33 28 34 35 -148 0
23 31 33 34 30 35 -145 0
23 31 33 34 30 35 -146 0
23 31 33 34 30 35 -147 0
23 31 33 34 30 35 -148 0
23 31 28 34 30 35 -145 0
23 31 28 34 30 35 -146 0
23 31 28 34 30 35 -147 0
23 31 28 34 30 35 -148 0
23 53 26 52 28 47 -156 0
23 53 26 52 28 47 -153 0
23 53 26 52 28 47 -154 0
23 53 26 52 28 47 -155 0
23 53 26 52 28 30 -156 0
23 53 26 52 28 30 -153 0
23 53 26 52 28 30 -154 0
23 53 26 52 28 30 -155 0
23 53 26 52 47 51 -156 0
23 53 26 52 47 51 -153 0
23 53 26 52 47 51 -154 0
23 53 26 52 47 51 -155 0
23 53 26 52 30 51 -156 0
23 53 26 52 30 51 -153 0
23 53 26 52 30 51 -154 0
23 53 26 52 30 51 -155 0
23 53 26 28 47 30 -156 0
23 53 26 28 47 30 -153 0
23 53 26 28 47 30 -154 0
23 53 26 28 47 30 -155 0
23 53 26 28 30 51 -156 0
23 53 26 28 30 51 -153 0
23 53 26 28 30 51 -154 0
23 53 26 28 30 51 -155 0
23 53 52 28 47 51 -156 0
23 53 52 28 47 51 -153 0
23 53 52 28 47 51 -154 0
23 53 52 28 47 51 -155 0
23 53 52 47 30 51 -156 0
23 53 52 47 30 51 -153 0
23 53 52 47 30 51 -154 0
23 53 52 47 30 51 -155 0
23 53 28 47 30 51 -156 0
23 53 28 47 30 51 -153 0
23 53 28 47 30 51 -154 0
23 53 28 47 30 51 -155 0
23 73 26 76 28 30 -166 0
23 73 26 76 28 30 -165 0
23 73 26 76 28 30 -168 0
23 73 26 76 28 30 -167 0
23 73 26 28 78 30 -166 0
23 73 26 28 78 30 -165 0
23 73 26 28 78 30 -168 0
23 73 26 28 78 30 -167 0
23 26 1 28 2 30 -24 0
23 26 1 28 2 30 -29 0
23 26 1 28 2 30 -27 0
23 26 1 28 2 30 -25 0
23 26 1 28 30 4 -24 0
23 26 1 28 30 4 -29 0
23 26 1 28 30 4 -27 0
23 26 1 28 30 4 -25 0
23 26 59 28 61 30 -158 0
23 26 59 28 61 30 -157 0
23 26 59 28 61 30 -160 0
23 26 59 28 61 30 -159 0
23 26 59 28 30 57 -158 0
23 26 59 28 30 57 -157 0
23 26 59 28 30 57 -160 0
23 26 59 28 30 57 -159 0
23 26 67 28 68 30 -162 0
23 26 67 28 68 30 -161 0
23 26 67 28 68 30 -163 0
23 26 67 28 68 30 -164 0
23 26 67 28 30 69 -162 0
23 26 67 28 30 69 -161 0
23 26 67 28 30 69 -163 0
23 26 67 28 30 69 -164 0
23 26 40 28 46 30 -152 0
23 26 40 28 46 30 -149 0
23 26 40 28 46 30 -151 0
23 26 40 28 46 30 -150 0
23 26 40 28 30 39 -152 0
23 26 40 28 30 39 -149 0
23 26 40 28 30 39 -151 0
23 26 40 28 30 39 -150 0
23 26 20 28 22 30 -116 0
23 26 20 28 22 30 -118 0
23 26 20 28 22 30 -115 0
23 26 20 28 22 30 -117 0
23 26 20 28 30 15 -116 0
23 26 20 28 30 15 -118 0
23 26 20 28 30 15 -115 0
23 26 20 28 30 15 -117 0
23 26 13 28 14 30 -86 0
23 26 13 28 14 30 -88 0
23 26 13 28 14 30 -85 0
23 26 13 28 14 30 -87 0
23 26 13 28 30 12 -86 0
23 26 13 28 30 12 -88 0
23 26 13 28 30 12 -85 0
23 26 13 28 30 12 -87 0
23 26 33 28 34 30 -145 0
23 26 33 28 34 30 -146 0
23 26 33 28 34 30 -147 0
23 26 33 28 34 30 -148 0
23 26 33 28 30 35 -145 0
23 26 33 28 30 35 -146 0
23 26 33 28 30 35 -147 0
23 26 33 28 30 35 -148 0
23 26 52 28 47 30 -156 0
23 26 52 28 47 30 -153 0
23 26 52 28 47 30 -154 0
23 26 52 28 47 30 -155 0
23 26 52 28 30 51 -156 0
23 26 52 28 30 51 -153 0
23 26 52 28 30 51 -154 0
23 26 52 28 30 51 -155 0
23 26 76 28 78 30 -166 0
23 26 76 28 78 30 -165 0
23 26 76 28 78 30 -168 0
23 26 76 28 78 30 -167 0
23 26 28 2 30 4 -24 0
23 26 28 2 30 4 -29 0
23 26 28 2 30 4 -27 0
23 26 28 2 30 4 -25 0
23 26 28 61 30 57 -158 0
23 26 28 61 30 57 -157 0
23 26 28 61 30 57 -160 0
23 26 28 61 30 57 -159 0
23 26 28 68 30 69 -162 0
23 26 28 68 30 69 -161 0
23 26 28 68 30 69 -163 0
23 26 28 68 30 69 -164 0
23 26 28 46 30 39 -152 0
23 26 28 46 30 39 -149 0
23 26 28 46 30 39 -151 0
23 26 28 46 30 39 -150 0
23 26 28 22 30 15 -116 0
23 26 28 22 30 15 -118 0
23 26 28 22 30 15 -115 0
23 26 28 22 30 15 -117 0
23 26 28 14 30 12 -86 0
23 26 28 14 30 12 -88 0
23 26 28 14 30 12 -85 0
23 26 28 14 30 12 -87 0
23 26 28 34 30 35 -145 0
23 26 28 34 30 35 -146 0
23 26 28 34 30 35 -147 0
23 26 28 34 30 35 -148 0
23 26 28 47 30 51 -156 0
23 26 28 47 30 51 -153 0
23 26 28 47 30 51 -154 0
23 26 28 47 30 51 -155 0
5 58 1 59 2 61 -56 0
5 58 1 59 2 61 -62 0
5 58 1 59 2 61 -60 0
5 58 1 59 2 61 -55 0
5 58 1 59 2 4 -56 0
5 58 1 59 2 4 -62 0
5 58 1 59 2 4 -60 0
5 58 1 59 2 4 -55 0
5 58 1 59 61 57 -56 0
5 58 1 59 61 57 -62 0
5 58 1 59 61 57 -60 0
5 58 1 59 61 57 -55 0
5 58 1 59 4 57 -56 0
5 58 1 59 4 57 -62 0
5 58 1 59 4 57 -60 0
5 58 1 59 4 57 -55 0
5 58 1 2 61 4 -56 0
5 58 1 2 61 4 -62 0
5 58 1 2 61 4 -60 0
5 58 1 2 61 4 -55 0
5 58 1 2 4 57 -56 0
5 58 1 2 4 57 -62 0
5 58 1 2 4 57 -60 0
5 58 1 2 4 57 -55 0
5 58 59 2 61 57 -56 0
5 58 59 2 61 57 -62 0
5 58 59 2 61 57 -60 0
5 58 59 2 61 57 -55 0
5 58 59 61 4 57 -56 0
5 58 59 61 4 57 -62 0
5 58 59 61 4 57 -60 0
5 58 59 61 4 57 -55 0
5 58 2 61 4 57 -56 0
5 58 2 61 4 57 -62 0
5 58 2 61 4 57 -60 0
5 58 2 61 4 57 -55 0
5 63 1 67 2 68 -70 0
5 63 1 67 2 68 -66 0
5 63 1 67 2 68 -64 0
5 63 1 67 2 68 -65 0
5 63 1 67 2 4 -70 0
5 63 1 67 2 4 -66 0
5 63 1 67 2 4 -64 0
5 63 1 67 2 4 -65 0
5 63 1 67 68 69 -70 0
5 63 1 67 68 69 -66 0
5 63 1 67 68 69 -64 0
5 63 1 67 68 69 -65 0
5 63 1 67 4 69 -70 0
5 63 1 67 4 69 -66 0
5 63 1 67 4 69 -64 0
5 63 1 67 4 69 -65 0
5 63 1 2 68 4 -70 0
5 63 1 2 68 4 -66 0
5 63 1 2 68 4 -64 0
5 63 1 2 68 4 -65 0
5 63 1 2 4 69 -70 0
5 63 1 2 4 69 -66 0
5 63 1 2 4 69 -64 0
5 63 1 2 4 69 -65 0
5 63 67 2 68 69 -70 0
5 63 67 2 68 69 -66 0
5 63 67 2 68 69 -64 0
5 63 67 2 68 69 -65 0
5 63 67 68 4 69 -70 0
5 63 67 68 4 69 -66 0
5 63 67 68 4 69 -64 0
5 63 67 68 4 69 -65 0
5 63 2 68 4 69 -70 0
5 63 2 68 4 69 -66 0
5 63 2 68 4 69 -64 0
5 63 2 68 4 69 -65 0
5 45 1 40 2 46 -42 0
5 45 1 40 2 46 -41 0
5 45 1 40 2 46 -44 0
5 45 1 40 2 46 -43 0
5 45 1 40 2 4 -42 0
5 45 1 40 2 4 -41 0
5 45 1 40 2 4 -44 0
5 45 1 40 2 4 -43 0
5 45 1 40 46 39 -42 0
5 45 1 40 46 39 -41 0
5 45 1 40 46 39 -44 0
5 45 1 40 46 39 -43 0
5 45 1 40 4 39 -42 0
5 45 1 40 4 39 -41 0
5 45 1 40 4 39 -44 0
5 45 1 40 4 39 -43 0
5 45 1 2 46 4 -42 0
5 45 1 2 46 4 -41 0
5 45 1 2 46 4 -44 0
5 45 1 2 46 4 -43 0
5 45 1 2 4 39 -42 0
5 45 1 2 4 39 -41 0
5 45 1 2 4 39 -44 0
5 45 1 2 4 39 -43 0
5 45 40 2 46 39 -42 0
5 45 40 2 46 39 -41 0
5 45 40 2 46 39 -44 0
5 45 40 2 46 39 -43 0
5 45 40 46 4 39 -42 0
5 45 40 46 4 39 -41 0
5 45 40 46 4 39 -44 0
5 45 40 46 4 39 -43 0
5 45 2 46 4 39 -42 0
5 45 2 46 4 39 -41 0
5 45 2 46 4 39 -44 0
5 45 2 46 4 39 -43 0
5 17 1 20 2 22 -21 0
5 17 1 20 2 22 -18 0
5 17 1 20 2 22 -19 0
5 17 1 20 2 22 -16 0
5 17 1 20 2 4 -21 0
5 17 1 20 2 4 -18 0
5 17 1 20 2 4 -19 0
5 17 1 20 2 4 -16 0
5 17 1 20 22 15 -21 0
5 17 1 20 22 15 -18 0
5 17 1 20 22 15 -19 0
5 17 1 20 22 15 -16 0
5 17 1 20 4 15 -21 0
5 17 1 20 4 15 -18 0
5 17 1 20 4 15 -19 0
5 17 1 20 4 15 -16 0
5 17 1 2 22 4 -21 0
5 17 1 2 22 4 -18 0
5 17 1 2 22 4 -19 0
5 17 1 2 22 4 -16 0
5 17 1 2 4 15 -21 0
5 17 1 2 4 15 -18 0
5 17 1 2 4 15 -19 0
5 17 1 2 4 15 -16 0
5 17 20 2 22 15 -21 0
5 17 20 2 22 15 -18 0
5 17 20 2 22 15 -19 0
5 17 20 2 22 15 -16 0
5 17 20 22 4 15 -21 0
5 17 20 22 4 15 -18 0
5 17 20 22 4 15 -19 0
5 17 20 22 4 15 -16 0
5 17 2 22 4 15 -21 0
5 17 2 22 4 15 -18 0
5 17 2 22 4 15 -19 0
5 17 2 22 4 15 -16 0
5 9 1 13 2 14 -7 0
5 9 1 13 2 14 -8 0
5 9 1 13 2 14 -11 0
5 9 1 13 2 14 -10 0
5 9 1 13 2 4 -7 0
5 9 1 13 2 4 -8 0
5 9 1 13 2 4 -11 0
5 9 1 13 2 4 -10 0
5 9 1 13 14 12 -7 0
5 9 1 13 14 12 -8 0
5 9 1 13 14 12 -11 0
5 9 1 13 14 12 -10 0
5 9 1 13 4 12 -7 0
5 9 1 13 4 12 -8 0
5 9 1 13 4 12 -11 0
5 9 1 13 4 12 -10 0
5 9 1 2 14 4 -7 0
5 9 1 2 14 4 -8 0
5 9 1 2 14 4 -11 0
5 9 1 2 14 4 -10 0
5 9 1 2 4 12 -7 0
5 9 1 2 4 12 -8 0
5 9 1 2 4 12 -11 0
5 9 1 2 4 12 -10 0
5 9 13 2 14 12 -7 0
5 9 13 2 14 12 -8 0
5 9 13 2 14 12 -11 0
5 9 13 2 14 12 -10 0
5 9 13 14 4 12 -7 0
5 9 13 14 4 12 -8 0
5 9 13 14 4 12 -11 0
5 9 13 14 4 12 -10 0
5 9 2 14 4 12 -7 0
5 9 2 14 4 12 -8 0
5 9 2 14 4 12 -11 0
5 9 2 14 4 12 -10 0
5 31 1 33 2 34 -36 0
5 31 1 33 2 34 -32 0
5 31 1 33 2 34 -38 0
5 31 1 33 2 34 -37 0
5 31 1 33 2 4 -36 0
5 31 1 33 2 4 -32 0
5 31 1 33 2 4 -38 0
5 31 1 33 2 4 -37 0
5 31 1 33 34 35 -36 0
5 31 1 33 34 35 -32 0
5 31 1 33 34 35 -38 0
5 31 1 33 34 35 -37 0
5 31 1 33 4 35 -36 0
5 31 1 33 4 35 -32 0
5 31 1 33 4 35 -38 0
5 31 1 33 4 35 -37 0
5 31 1 2 34 4 -36 0
5 31 1 2 34 4 -32 0
5 31 1 2 34 4 -38 0
5 31 1 2 34 4 -37 0
5 31 1 2 4 35 -36 0
5 31 1 2 4 35 -32 0
5 31 1 2 4 35 -38 0
5 31 1 2 4 35 -37 0
5 31 33 2 34 35 -36 0
5 31 33 2 34 35 -32 0
5 31 33 2 34 35 -38 0
5 31 33 2 34 35 -37 0
5 31 33 34 4 35 -36 0
5 31 33 34 4 35 -32 0
5 31 33 34 4 35 -38 0
5 31 33 34 4 35 -37 0
5 31 2 34 4 35 -36 0
5 31 2 34 4 35 -32 0
5 31 2 34 4 35 -38 0
5 31 2 34 4 35 -37 0
5 53 1 52 2 47 -50 0
5 53 1 52 2 47 -54 0
5 53 1 52 2 47 -48 0
5 53 1 52 2 47 -49 0
5 53 1 52 2 4 -50 0
5 53 1 52 2 4 -54 0
5 53 1 52 2 4 -48 0
5 53 1 52 2 4 -49 0
5 53 1 52 47 51 -50 0
5 53 1 52 47 51 -54 0
5 53 1 52 47 51 -48 0
5 53 1 52 47 51 -49 0
5 53 1 52 4 51 -50 0
5 53 1 52 4 51 -54 0
5 53 1 52 4 51 -48 0
5 53 1 52 4 51 -49 0
5 53 1 2 47 4 -50 0
5 53 1 2 47 4 -54 0
5 53 1 2 47 4 -48 0
5 53 1 2 47 4 -49 0
5 53 1 2 4 51 -50 0
5 53 1 2 4 51 -54 0
5 53 1 2 4 51 -48 0
5 53 1 2 4 51 -49 0
5 53 52 2 47 51 -50 0
5 53 52 2 47 51 -54 0
5 53 52 2 47 51 -48 0
5 53 52 2 47 51 -49 0
5 53 52 47 4 51 -50 0
5 53 52 47 4 51 -54 0
5 53 52 47 4 51 -48 0
5 53 52 47 4 51 -49 0
5 53 2 47 4 51 -50 0
5 53 2 47 4 51 -54 0
5 53 2 47 4 51 -48 0
5 53 2 47 4 51 -49 0
5 73 1 76 2 4 -75 0
5 73 1 76 2 4 -74 0
5 73 1 76 2 4 -72 0
5 73 1 76 2 4 -71 0
5 73 1 2 78 4 -75 0
5 73 1 2 78 4 -74 0
5 73 1 2 78 4 -72 0
5 73 1 2 78 4 -71 0
5 26 1 28 2 4 -24 0
5 26 1 28 2 4 -29 0
5 26 1 28 2 4 -27 0
5 26 1 28 2 4 -25 0
5 26 1 2 30 4 -24 0
5 26 1 2 30 4 -29 0
5 26 1 2 30 4 -27 0
5 26 1 2 30 4 -25 0
5 1 59 2 61 4 -56 0
5 1 59 2 61 4 -62 0
5 1 59 2 61 4 -60 0
5 1 59 2 61 4 -55 0
5 1 59 2 4 57 -56 0
5 1 59 2 4 57 -62 0
5 1 59 2 4 57 -60 0
5 1 59 2 4 57 -55 0
5 1 67 2 68 4 -70 0
5 1 67 2 68 4 -66 0
5 1 67 2 68 4 -64 0
5 1 67 2 68 4 -65 0
5 1 67 2 4 69 -70 0
5 1 67 2 4 69 -66 0
5 1 67 2 4 69 -64 0
5 1 67 2 4 69 -65 0
5 1 40 2 46 4 -42 0
5 1 40 2 46 4 -41 0
5 1 40 2 46 4 -44 0
5 1 40 2 46 4 -43 0
5 1 40 2 4 39 -42 0
5 1 40 2 4 39 -41 0
5 1 40 2 4 39 -44 0
5 1 40 2 4 39 -43 0
5 1 20 2 22 4 -21 0
5 1 20 2 22 4 -18 0
5 1 20 2 22 4 -19 0
5 1 20 2 22 4 -16 0
5 1 20 2 4 15 -21 0
5 1 20 2 4 15 -18 0
5 1 20 2 4 15 -19 0
5 1 20 2 4 15 -16 0
5 1 13 2 14 4 -7 0
5 1 13 2 14 4 -8 0
5 1 13 2 14 4 -11 0
5 1 13 2 14 4 -10 0
5 1 13 2 4 12 -7 0
5 1 13 2 4 12 -8 0
5 1 13 2 4 12 -11 0
5 1 13 2 4 12 -10 0
5 1 33 2 34 4 -36 0
5 1 33 2 34 4 -32 0
5 1 33 2 34 4 -38 0
5 1 33 2 34 4 -37 0
5 1 33 2 4 35 -36 0
5 1 33 2 4 35 -32 0
5 1 33 2 4 35 -38 0
5 1 33 2 4 35 -37 0
5 1 52 2 47 4 -50 0
5 1 52 2 47 4 -54 0
5 1 52 2 47 4 -48 0
5 1 52 2 47 4 -49 0
5 1 52 2 4 51 -50 0
5 1 52 2 4 51 -54 0
5 1 52 2 4 51 -48 0
5 1 52 2 4 51 -49 0
5 1 76 2 78 4 -75 0
5 1 76 2 78 4 -74 0
5 1 76 2 78 4 -72 0
5 1 76 2 78 4 -71 0
5 1 28 2 30 4 -24 0
5 1 28 2 30 4 -29 0
5 1 28 2 30 4 -27 0
5 1 28 2 30 4 -25 0
5 1 2 61 4 57 -56 0
5 1 2 61 4 57 -62 0
5 1 2 61 4 57 -60 0
5 1 2 61 4 57 -55 0
5 1 2 68 4 69 -70 0
5 1 2 68 4 69 -66 0
5 1 2 68 4 69 -64 0
5 1 2 68 4 69 -65 0
5 1 2 46 4 39 -42 0
5 1 2 46 4 39 -41 0
5 1 2 46 4 39 -44 0
5 1 2 46 4 39 -43 0
5 1 2 22 4 15 -21 0
5 1 2 22 4 15 -18 0
5 1 2 22 4 15 -19 0
5 1 2 22 4 15 -16 0
5 1 2 14 4 12 -7 0
5 1 2 14 4 12 -8 0
5 1 2 14 4 12 -11 0
5 1 2 14 4 12 -10 0
5 1 2 34 4 35 -36 0
5 1 2 34 4 35 -32 0
5 1 2 34 4 35 -38 0
5 1 2 34 4 35 -37 0
5 1 2 47 4 51 -50 0
5 1 2 47 4 51 -54 0
5 1 2 47 4 51 -48 0
5 1 2 47 4 51 -49 0
58 63 59 67 61 68 -227 0
58 63 59 67 61 68 -228 0
58 63 59 67 61 68 -225 0
58 63 59 67 61 68 -226 0
58 63 59 67 61 57 -227 0
58 63 59 67 61 57 -228 0
58 63 59 67 61 57 -225 0
58 63 59 67 61 57 -226 0
58 63 59 67 68 69 -227 0
58 63 59 67 68 69 -228 0
58 63 59 67 68 69 -225 0
58 63 59 67 68 69 -226 0
58 63 59 67 57 69 -227 0
58 63 59 67 57 69 -228 0
58 63 59 67 57 69 -225 0
58 63 59 67 57 69 -226 0
58 63 59 61 68 57 -227 0
58 63 59 61 68 57 -228 0
58 63 59 61 68 57 -225 0
58 63 59 61 68 57 -226 0
58 63 59 61 57 69 -227 0
58 63 59 61 57 69 -228 0
58 63 59 61 57 69 -225 0
58 63 59 61 57 69 -226 0
58 63 67 61 68 69 -227 0
58 63 67 61 68 69 -228 0
58 63 67 61 68 69 -225 0
58 63 67 61 68 69 -226 0
58 63 67 68 57 69 -227 0
58 63 67 68 57 69 -228 0
58 63 67 68 57 69 -225 0
58 63 67 68 57 69 -226 0
58 63 61 68 57 69 -227 0
58 63 61 68 57 69 -228 0
58 63 61 68 57 69 -225 0
58 63 61 68 57 69 -226 0
58 45 59 40 61 46 -198 0
58 45 59 40 61 46 -199 0
58 45 59 40 61 46 -200 0
58 45 59 40 61 46 -197 0
58 45 59 40 61 57 -198 0
58 45 59 40 61 57 -199 0
58 45 59 40 61 57 -200 0
58 45 59 40 61 57 -197 0
58 45 59 40 46 39 -198 0
58 45 59 40 46 39 -199 0
58 45 59 40 46 39 -200 0
58 45 59 40 46 39 -197 0
58 45 59 40 57 39 -198 0
58 45 59 40 57 39 -199 0
58 45 59 40 57 39 -200 0
58 45 59 40 57 39 -197 0
58 45 59 61 46 57 -198 0
58 45 59 61 46 57 -199 0
58 45 59 61 46 57 -200 0
58 45 59 61 46 57 -197 0
58 45 59 61 57 39 -198 0
58 45 59 61 57 39 -199 0
58 45 59 61 57 39 -200 0
58 45 59 61 57 39 -197 0
58 45 40 61 46 39 -198 0
58 45 40 61 46 39 -199 0
58 45 40 61 46 39 -200 0
58 45 40 61 46 39 -197 0
58 45 40 46 57 39 -198 0
58 45 40 46 57 39 -199 0
58 45 40 46 57 39 -200 0
58 45 40 46 57 39 -197 0
58 45 61 46 57 39 -198 0
58 45 61 46 57 39 -199 0
58 45 61 46 57 39 -200 0
58 45 61 46 57 39 -197 0
58 17 59 20 61 22 -133 0
58 17 59 20 61 22 -131 0
58 17 59 20 61 22 -134 0
58 17 59 20 61 22 -132 0
58 17 59 20 61 57 -133 0
58 17 59 20 61 57 -131 0
58 17 59 20 61 57 -134 0
58 17 59 20 61 57 -132 0
58 17 59 20 22 15 -133 0
58 17 59 20 22 15 -131 0
58 17 59 20 22 15 -134 0
58 17 59 20 22 15 -132 0
58 17 59 20 57 15 -133 0
58 17 59 20 57 15 -131 0
58 17 59 20 57 15 -134 0
58 17 59 20 57 15 -132 0
58 17 59 61 22 57 -133 0
58 17 59 61 22 57 -131 0
58 17 59 61 22 57 -134 0
58 17 59 61 22 57 -132 0
58 17 59 61 57 15 -133 0
58 17 59 61 57 15 -131 0
58 17 59 61 57 15 -134 0
58 17 59 61 57 15 -132 0
58 17 20 61 22 15 -133 0
58 17 20 61 22 15 -131 0
58 17 20 61 22 15 -134 0
58 17 20 61 22 15 -132 0
58 17 20 22 57 15 -133 0
58 17 20 22 57 15 -131 0
58 17 20 22 57 15 -134 0
58 17 20 22 57 15 -132 0
58 17 61 22 57 15 -133 0
58 17 61 22 57 15 -131 0
58 17 61 22 57 15 -134 0
58 17 61 22 57 15 -132 0
58 9 59 13 61 14 -102 0
58 9 59 13 61 14 -103 0
58 9 59 13 61 14 -104 0
58 9 59 13 61 14 -101 0
58 9 59 13 61 57 -102 0
58 9 59 13 61 57 -103 0
58 9 59 13 61 57 -104 0
58 9 59 13 61 57 -101 0
58 9 59 13 14 12 -102 0
58 9 59 13 14 12 -103 0
58 9 59 13 14 12 -104 0
58 9 59 13 14 12 -101 0
58 9 59 13 57 12 -102 0
58 9 59 13 57 12 -103 0
58 9 59 13 57 12 -104 0
58 9 59 13 57 12 -101 0
58 9 59 61 14 57 -102 0
58 9 59 61 14 57 -103 0
58 9 59 61 14 57 -104 0
58 9 59 61 14 57 -101 0
58 9 59 61 57 12 -102 0
58 9 59 61 57 12 -103 0
58 9 59 61 57 12 -104 0
58 9 59 61 57 12 -101 0
58 9 13 61 14 12 -102 0
58 9 13 61 14 12 -103 0
58 9 13 61 14 12 -104 0
58 9 13 61 14 12 -101 0
58 9 13 14 57 12 -102 0
58 9 13 14 57 12 -103 0
58 9 13 14 57 12 -104 0
58 9 13 14 57 12 -101 0
58 9 61 14 57 12 -102 0
58 9 61 14 57 12 -103 0
58 9 61 14 57 12 -104 0
58 9 61 14 57 12 -101 0
58 31 59 33 61 34 -179 0
58 31 59 33 61 34 -181 0
58 31 59 33 61 34 -182 0
58 31 59 33 61 34 -180 0
58 31 59 33 61 57 -179 0
58 31 59 33 61 57 -181 0
58 31 59 33 61 57 -182 0
58 31 59 33 61 57 -180 0
58 31 59 33 34 35 -179 0
58 31 59 33 34 35 -181 0
58 31 59 33 34 35 -182 0
58 31 59 33 34 35 -180 0
58 31 59 33 57 35 -179 0
58 31 59 33 57 35 -181 0
58 31 59 33 57 35 -182 0
58 31 59 33 57 35 -180 0
58 31 59 61 34 57 -179 0
58 31 59 61 34 57 -181 0
58 31 59 61 34 57 -182 0
58 31 59 61 34 57 -180 0
58 31 59 61 57 35 -179 0
58 31 59 61 57 35 -181 0
58 31 59 61 57 35 -182 0
58 31 59 61 57 35 -180 0
58 31 33 61 34 35 -179 0
58 31 33 61 34 35 -181 0
58 31 33 61 34 35 -182 0
58 31 33 61 34 35 -180 0
58 31 33 34 57 35 -179 0
58 31 33 34 57 35 -181 0
58 31 33 34 57 35 -182 0
58 31 33 34 57 35 -180 0
58 31 61 34 57 35 -179 0
58 31 61 34 57 35 -181 0
58 31 61 34 57 35 -182 0
58 31 61 34 57 35 -180 0
58 53 59 52 61 47 -211 0
58 53 59 52 61 47 -213 0
58 53 59 52 61 47 -212 0
58 53 59 52 61 47 -214 0
58 53 59 52 61 57 -211 0
58 53 59 52 61 57 -213 0
58 53 59 52 61 57 -212 0
58 53 59 52 61 57 -214 0
58 53 59 52 47 51 -211 0
58 53 59 52 47 51 -213 0
58 53 59 52 47 51 -212 0
58 53 59 52 47 51 -214 0
58 53 59 52 57 51 -211 0
58 53 59 52 57 51 -213 0
58 53 59 52 57 51 -212 0
58 53 59 52 57 51 -214 0
58 53 59 61 47 57 -211 0
58 53 59 61 47 57 -213 0
58 53 59 61 47 57 -212 0
58 53 59 61 47 57 -214 0
58 53 59 61 57 51 -211 0
58 53 59 61 57 51 -213 0
58 53 59 61 57 51 -212 0
58 53 59 61 57 51 -214 0
58 53 52 61 47 51 -211 0
58 53 52 61 47 51 -213 0
58 53 52 61 47 51 -212 0
58 53 52 61 47 51 -214 0
58 53 52 47 57 51 -211 0
58 53 52 47 57 51 -213 0
58 53 52 47 57 51 -212 0
58 53 52 47 57 51 -214 0
58 53 61 47 57 51 -211 0
58 53 61 47 57 51 -213 0
58 53 61 47 57 51 -212 0
58 53 61 47 57 51 -214 0
58 73 59 76 61 57 -230 0
58 73 59 76 61 57 -232 0
58 73 59 76 61 57 -229 0
58 73 59 76 61 57 -231 0
58 73 59 61 78 57 -230 0
58 73 59 61 78 57 -232 0
58 73 59 61 78 57 -229 0
58 73 59 61 78 57 -231 0
58 26 59 28 61 57 -158 0
58 26 59 28 61 57 -157 0
58 26 59 28 61 57 -160 0
58 26 59 28 61 57 -159 0
58 26 59 61 30 57 -158 0
58 26 59 61 30 57 -157 0
58 26 59 61 30 57 -160 0
58 26 59 61 30 57 -159 0
58 1 59 2 61 57 -56 0
58 1 59 2 61 57 -62 0
58 1 59 2 61 57 -60 0
58 1 59 2 61 57 -55 0
58 1 59 61 4 57 -56 0
58 1 59 61 4 57 -62 0
58 1 59 61 4 57 -60 0
58 1 59 61 4 57 -55 0
58 59 67 61 68 57 -227 0
58 59 67 61 68 57 -228 0
58 59 67 61 68 57 -225 0
58 59 67 61 68 57 -226 0
58 59 67 61 57 69 -227 0
58 59 67 61 57 69 -228 0
58 59 67 61 57 69 -225 0
58 59 67 61 57 69 -226 0
58 59 40 61 46 57 -198 0
58 59 40 61 46 57 -199 0
58 59 40 61 46 57 -200 0
58 59 40 61 46 57 -197 0
58 59 40 61 57 39 -198 0
58 59 40 61 57 39 -199 0
58 59 40 61 57 39 -200 0
58 59 40 61 57 39 -197 0
58 59 20 61 22 57 -133 0
58 59 20 61 22 57 -131 0
58 59 20 61 22 57 -134 0
58 59 20 61 22 57 -132 0
58 59 20 61 57 15 -133 0
58 59 20 61 57 15 -131 0
58 59 20 61 57 15 -134 0
58 59 20 61 57 15 -132 0
58 59 13 61 14 57 -102 0
58 59 13 61 14 57 -103 0
58 59 13 61 14 57 -104 0
58 59 13 61 14 57 -101 0
58 59 13 61 57 12 -102 0
58 59 13 61 57 12 -103 0
58 59 13 61 57 12 -104 0
58 59 13 61 57 12 -101 0
58 59 33 61 34 57 -179 0
58 59 33 61 34 57 -181 0
58 59 33 61 34 57 -182 0
58 59 33 61 34 57 -180 0
58 59 33 61 57 35 -179 0
58 59 33 61 57 35 -181 0
58 59 33 61 57 35 -182 0
58 59 33 61 57 35 -180 0
58 59 52 61 47 57 -211 0
58 59 52 61 47 57 -213 0
58 59 52 61 47 57 -212 0
58 59 52 61 47 57 -214 0
58 59 52 61 57 51 -211 0
58 59 52 61 57 51 -213 0
58 59 52 61 57 51 -212 0
58 59 52 61 57 51 -214 0
58 59 76 61 78 57 -230 0
58 59 76 61 78 57 -232 0
58 59 76 61 78 57 -229 0
58 59 76 61 78 57 -231 0
58 59 28 61 30 57 -158 0
58 59 28 61 30 57 -157 0
58 59 28 61 30 57 -160 0
58 59 28 61 30 57 -159 0
58 59 2 61 4 57 -56 0
58 59 2 61 4 57 -62 0
58 59 2 61 4 57 -60 0
58 59 2 61 4 57 -55 0
58 59 61 68 57 69 -227 0
58 59 61 68 57 69 -228 0
58 59 61 68 57 69 -225 0
58 59 61 68 57 69 -226 0
58 59 61 46 57 39 -198 0
58 59 61 46 57 39 -199 0
58 59 61 46 57 39 -200 0
58 59 61 46 57 39 -197 0
58 59 61 22 57 15 -133 0
58 59 61 22 57 15 -131 0
58 59 61 22 57 15 -134 0
58 59 61 22 57 15 -132 0
58 59 61 14 57 12 -102 0
58 59 61 14 57 12 -103 0
58 59 61 14 57 12 -104 0
58 59 61 14 57 12 -101 0
58 59 61 34 57 35 -179 0
58 59 61 34 57 35 -181 0
58 59 61 34 57 35 -182 0
58 59 61 34 57 35 -180 0
58 59 61 47 57 51 -211 0
58 59 61 47 57 51 -213 0
58 59 61 47 57 51 -212 0
58 59 61 47 57 51 -214 0
63 45 67 40 68 46 -202 0
63 45 67 40 68 46 -201 0
63 45 67 40 68 46 -204 0
63 45 67 40 68 46 -203 0
63 45 67 40 68 69 -202 0
63 45 67 40 68 69 -201 0
63 45 67 40 68 69 -204 0
63 45 67 40 68 69 -203 0
63 45 67 40 46 39 -202 0
63 45 67 40 46 39 -201 0
63 45 67 40 46 39 -204 0
63 45 67 40 46 39 -203 0
63 45 67 40 69 39 -202 0
63 45 67 40 69 39 -201 0
63 45 67 40 69 39 -204 0
63 45 67 40 69 39 -203 0
63 45 67 68 46 69 -202 0
63 45 67 68 46 69 -201 0
63 45 67 68 46 69 -204 0
63 45 67 68 46 69 -203 0
63 45 67 68 69 39 -202 0
63 45 67 68 69 39 -201 0
63 45 67 68 69 39 -204 0
63 45 67 68 69 39 -203 0
63 45 40 68 46 39 -202 0
63 45 40 68 46 39 -201 0
63 45 40 68 46 39 -204 0
63 45 40 68 46 39 -203 0
63 45 40 46 69 39 -202 0
63 45 40 46 69 39 -201 0
63 45 40 46 69 39 -204 0
63 45 40 46 69 39 -203 0
63 45 68 46 69 39 -202 0
63 45 68 46 69 39 -201 0
63 45 68 46 69 39 -204 0
63 45 68 46 69 39 -203 0
63 17 67 20 68 22 -135 0
63 17 67 20 68 22 -137 0
63 17 67 20 68 22 -136 0
63 17 67 20 68 22 -138 0
63 17 67 20 68 69 -135 0
63 17 67 20 68 69 -137 0
63 17 67 20 68 69 -136 0
63 17 67 20 68 69 -138 0
63 17 67 20 22 15 -135 0
63 17 67 20 22 15 -137 0
63 17 67 20 22 15 -136 0
63 17 67 20 22 15 -138 0
63 17 67 20 69 15 -135 0
63 17 67 20 69 15 -137 0
63 17 67 20 69 15 -136 0
63 17 67 20 69 15 -138 0
63 17 67 68 22 69 -135 0
63 17 67 68 22 69 -137 0
63 17 67 68 22 69 -136 0
63 17 67 68 22 69 -138 0
63 17 67 68 69 15 -135 0
63 17 67 68 69 15 -137 0
63 17 67 68 69 15 -136 0
63 17 67 68 69 15 -138 0
63 17 20 68 22 15 -135 0
63 17 20 68 22 15 -137 0
63 17 20 68 22 15 -136 0
63 17 20 68 22 15 -138 0
63 17 20 22 69 15 -135 0
63 17 20 22 69 15 -137 0
63 17 20 22 69 15 -136 0
63 17 20 22 69 15 -138 0
63 17 68 22 69 15 -135 0
63 17 68 22 69 15 -137 0
63 17 68 22 69 15 -136 0
63 17 68 22 69 15 -138 0
63 9 67 13 68 14 -108 0
63 9 67 13 68 14 -105 0
63 9 67 13 68 14 -107 0
63 9 67 13 68 14 -106 0
63 9 67 13 68 69 -108 0
63 9 67 13 68 69 -105 0
63 9 67 13 68 69 -107 0
63 9 67 13 68 69 -106 0
63 9 67 13 14 12 -108 0
63 9 67 13 14 12 -105 0
63 9 67 13 14 12 -107 0
63 9 67 13 14 12 -106 0
63 9 67 13 69 12 -108 0
63 9 67 13 69 12 -105 0
63 9 67 13 69 12 -107 0
63 9 67 13 69 12 -106 0
63 9 67 68 14 69 -108 0
63 9 67 68 14 69 -105 0
63 9 67 68 14 69 -107 0
63 9 67 68 14 69 -106 0
63 9 67 68 69 12 -108 0
63 9 67 68 69 12 -105 0
63 9 67 68 69 12 -107 0
63 9 67 68 69 12 -106 0
63 9 13 68 14 12 -108 0
63 9 13 68 14 12 -105 0
63 9 13 68 14 12 -107 0
63 9 13 68 14 12 -106 0
63 9 13 14 69 12 -108 0
63 9 13 14 69 12 -105 0
63 9 13 14 69 12 -107 0
63 9 13 14 69 12 -106 0
63 9 68 14 69 12 -108 0
63 9 68 14 69 12 -105 0
63 9 68 14 69 12 -107 0
63 9 68 14 69 12 -106 0
63 31 67 33 68 34 -185 0
63 31 67 33 68 34 -184 0
63 31 67 33 68 34 -183 0
63 31 67 33 68 34 -186 0
63 31 67 33 68 69 -185 0
63 31 67 33 68 69 -184 0
63 31 67 33 68 69 -183 0
63 31 67 33 68 69 -186 0
63 31 67 33 34 35 -185 0
63 31 67 33 34 35 -184 0
63 31 67 33 34 35 -183 0
63 31 67 33 34 35 -186 0
63 31 67 33 69 35 -185 0
63 31 67 33 69 35 -184 0
63 31 67 33 69 35 -183 0
63 31 67 33 69 35 -186 0
63 31 67 68 34 69 -185 0
63 31 67 68 34 69 -184 0
63 31 67 68 34 69 -183 0
63 31 67 68 34 69 -186 0
63 31 67 68 69 35 -185 0
63 31 67 68 69 35 -184 0
63 31 67 68 69 35 -183 0
63 31 67 68 69 35 -186 0
63 31 33 68 34 35 -185 0
63 31 33 68 34 35 -184 0
63 31 33 68 34 35 -183 0
63 31 33 68 34 35 -186 0
63 31 33 34 69 35 -185 0
63 31 33 34 69 35 -184 0
63 31 33 34 69 35 -183 0
63 31 33 34 69 35 -186 0
63 31 68 34 69 35 -185 0
63 31 68 34 69 35 -184 0
63 31 68 34 69 35 -183 0
63 31 68 34 69 35 -186 0
63 53 67 52 68 47 -217 0
63 53 67 52 68 47 -216 0
63 53 67 52 68 47 -215 0
63 53 67 52 68 47 -218 0
63 53 67 52 68 69 -217 0
63 53 67 52 68 69 -216 0
63 53 67 52 68 69 -215 0
63 53 67 52 68 69 -218 0
63 53 67 52 47 51 -217 0
63 53 67 52 47 51 -216 0
63 53 67 52 47 51 -215 0
63 53 67 52 47 51 -218 0
63 53 67 52 69 51 -217 0
63 53 67 52 69 51 -216 0
63 53 67 52 69 51 -215 0
63 53 67 52 69 51 -218 0
63 53 67 68 47 69 -217 0
63 53 67 68 47 69 -216 0
63 53 67 68 47 69 -215 0
63 53 67 68 47 69 -218 0
63 53 67 68 69 51 -217 0
63 53 67 68 69 51 -216 0
63 53 67 68 69 51 -215 0
63 53 67 68 69 51 -218 0
63 53 52 68 47 51 -217 0
63 53 52 68 47 51 -216 0
63 53 52 68 47 51 -215 0
63 53 52 68 47 51 -218 0
63 53 52 47 69 51 -217 0
63 53 52 47 69 51 -216 0
63 53 52 47 69 51 -215 0
63 53 52 47 69 51 -218 0
63 53 68 47 69 51 -217 0
63 53 68 47 69 51 -216 0
63 53 68 47 69 51 -215 0
63 53 68 47 69 51 -218 0
63 73 67 76 68 69 -236 0
63 73 67 76 68 69 -235 0
63 73 67 76 68 69 -237 0
63 73 67 76 68 69 -238 0
63 73 67 68 78 69 -236 0
63 73 67 68 78 69 -235 0
63 73 67 68 78 69 -237 0
63 73 67 68 78 69 -238 0
63 26 67 28 68 69 -162 0
63 26 67 28 68 69 -161 0
63 26 67 28 68 69 -163 0
63 26 67 28 68 69 -164 0
63 26 67 68 30 69 -162 0
63 26 67 68 30 69 -161 0
63 26 67 68 30 69 -163 0
63 26 67 68 30 69 -164 0
63 1 67 2 68 69 -70 0
63 1 67 2 68 69 -66 0
63 1 67 2 68 69 -64 0
63 1 67 2 68 69 -65 0
63 1 67 68 4 69 -70 0
63 1 67 68 4 69 -66 0
63 1 67 68 4 69 -64 0
63 1 67 68 4 69 -65 0
63 59 67 61 68 69 -227 0
63 59 67 61 68 69 -228 0
63 59 67 61 68 69 -225 0
63 59 67 61 68 69 -226 0
63 59 67 68 57 69 -227 0
63 59 67 68 57 69 -228 0
63 59 67 68 57 69 -225 0
63 59 67 68 57 69 -226 0
63 67 40 68 46 69 -202 0
63 67 40 68 46 69 -201 0
63 67 40 68 46 69 -204 0
63 67 40 68 46 69 -203 0
63 67 40 68 69 39 -202 0
63 67 40 68 69 39 -201 0
63 67 40 68 69 39 -204 0
63 67 40 68 69 39 -203 0
63 67 20 68 22 69 -135 0
63 67 20 68 22 69 -137 0
63 67 20 68 22 69 -136 0
63 67 20 68 22 69 -138 0
63 67 20 68 69 15 -135 0
63 67 20 68 69 15 -137 0
63 67 20 68 69 15 -136 0
63 67 20 68 69 15 -138 0
63 67 13 68 14 69 -108 0
63 67 13 68 14 69 -105 0
63 67 13 68 14 69 -107 0
63 67 13 68 14 69 -106 0
63 67 13 68 69 12 -108 0
63 67 13 68 69 12 -105 0
63 67 13 68 69 12 -107 0
63 67 13 68 69 12 -106 0
63 67 33 68 34 69 -185 0
63 67 33 68 34 69 -184 0
63 67 33 68 34 69 -183 0
63 67 33 68 34 69 -186 0
63 67 33 68 69 35 -185 0
63 67 33 68 69 35 -184 0
63 67 33 68 69 35 -183 0
63 67 33 68 69 35 -186 0
63 67 52 68 47 69 -217 0
63 67 52 68 47 69 -216 0
63 67 52 68 47 69 -215 0
63 67 52 68 47 69 -218 0
63 67 52 68 69 51 -217 0
63 67 52 68 69 51 -216 0
63 67 52 68 69 51 -215 0
63 67 52 68 69 51 -218 0
63 67 76 68 78 69 -236 0
63 67 76 68 78 69 -235 0
63 67 76 68 78 69 -237 0
63 67 76 68 78 69 -238 0
63 67 28 68 30 69 -162 0
63 67 28 68 30 69 -161 0
63 67 28 68 30 69 -163 0
63 67 28 68 30 69 -164 0
63 67 2 68 4 69 -70 0
63 67 2 68 4 69 -66 0
63 67 2 68 4 69 -64 0
63 67 2 68 4 69 -65 0
63 67 61 68 57 69 -227 0
63 67 61 68 57 69 -228 0
63 67 61 68 57 69 -225 0
63 67 61 68 57 69 -226 0
63 67 68 46 69 39 -202 0
63 67 68 46 69 39 -201 0
63 67 68 46 69 39 -204 0
63 67 68 46 69 39 -203 0
63 67 68 22 69 15 -135 0
63 67 68 22 69 15 -137 0
63 67 68 22 69 15 -136 0
63 67 68 22 69 15 -138 0
63 67 68 14 69 12 -108 0
63 67 68 14 69 12 -105 0
63 67 68 14 69 12 -107 0
63 67 68 14 69 12 -106 0
63 67 68 34 69 35 -185 0
63 67 68 34 69 35 -184 0
63 67 68 34 69 35 -183 0
63 67 68 34 69 35 -186 0
63 67 68 47 69 51 -217 0
63 67 68 47 69 51 -216 0
63 67 68 47 69 51 -215 0
63 67 68 47 69 51 -218 0
45 17 40 20 46 22 -126 0
45 17 40 20 46 22 -125 0
45 17 40 20 46 22 -123 0
45 17 40 20 46 22 -124 0
45 17 40 20 46 39 -126 0
45 17 40 20 46 39 -125 0
45 17 40 20 46 39 -123 0
45 17 40 20 46 39 -124 0
45 17 40 20 22 15 -126 0
45 17 40 20 22 15 -125 0
45 17 40 20 22 15 -123 0
45 17 40 20 22 15 -124 0
45 17 40 20 39 15 -126 0
45 17 40 20 39 15 -125 0
45 17 40 20 39 15 -123 0
45 17 40 20 39 15 -124 0
45 17 40 46 22 39 -126 0
45 17 40 46 22 39 -125 0
45 17 40 46 22 39 -123 0
45 17 40 46 22 39 -124 0
45 17 40 46 39 15 -126 0
45 17 40 46 39 15 -125 0
45 17 40 46 39 15 -123 0
45 17 40 46 39 15 -124 0
45 17 20 46 22 15 -126 0
45 17 20 46 22 15 -125 0
45 17 20 46 22 15 -123 0
45 17 20 46 22 15 -124 0
45 17 20 22 39 15 -126 0
45 17 20 22 39 15 -125 0
45 17 20 22 39 15 -123 0
45 17 20 22 39 15 -124 0
45 17 46 22 39 15 -126 0
45 17 46 22 39 15 -125 0
45 17 46 22 39 15 -123 0
45 17 46 22 39 15 -124 0
45 9 40 13 46 14 -93 0
45 9 40 13 46 14 -96 0
45 9 40 13 46 14 -95 0
45 9 40 13 46 14 -94 0
45 9 40 13 46 39 -93 0
45 9 40 13 46 39 -96 0
45 9 40 13 46 39 -95 0
45 9 40 13 46 39 -94 0
45 9 40 13 14 12 -93 0
45 9 40 13 14 12 -96 0
45 9 40 13 14 12 -95 0
45 9 40 13 14 12 -94 0
45 9 40 13 39 12 -93 0
45 9 40 13 39 12 -96 0
45 9 40 13 39 12 -95 0
45 9 40 13 39 12 -94 0
45 9 40 46 14 39 -93 0
45 9 40 46 14 39 -96 0
45 9 40 46 14 39 -95 0
45 9 40 46 14 39 -94 0
45 9 40 46 39 12 -93 0
45 9 40 46 39 12 -96 0
45 9 40 46 39 12 -95 0
45 9 40 46 39 12 -94 0
45 9 13 46 14 12 -93 0
45 9 13 46 14 12 -96 0
45 9 13 46 14 12 -95 0
45 9 13 46 14 12 -94 0
45 9 13 14 39 12 -93 0
45 9 13 14 39 12 -96 0
45 9 13 14 39 12 -95 0
45 9 13 14 39 12 -94 0
45 9 46 14 39 12 -93 0
45 9 46 14 39 12 -96 0
45 9 46 14 39 12 -95 0
45 9 46 14 39 12 -94 0
45 31 40 33 46 34 -173 0
45 31 40 33 46 34 -174 0
45 31 40 33 46 34 -171 0
45 31 40 33 46 34 -172 0
45 31 40 33 46 39 -173 0
45 31 40 33 46 39 -174 0
45 31 40 33 46 39 -171 0
45 31 40 33 46 39 -172 0
45 31 40 33 34 35 -173 0
45 31 40 33 34 35 -174 0
45 31 40 33 34 35 -171 0
45 31 40 33 34 35 -172 0
45 31 40 33 39 35 -173 0
45 31 40 33 39 35 -174 0
45 31 40 33 39 35 -171 0
45 31 40 33 39 35 -172 0
45 31 40 46 34 39 -173 0
45 31 40 46 34 39 -174 0
45 31 40 46 34 39 -171 0
45 31 40 46 34 39 -172 0
45 31 40 46 39 35 -173 0
45 31 40 46 39 35 -174 0
45 31 40 46 39 35 -171 0
45 31 40 46 39 35 -172 0
45 31 33 46 34 35 -173 0
45 31 33 46 34 35 -174 0
45 31 33 46 34 35 -171 0
45 31 33 46 34 35 -172 0
45 31 33 34 39 35 -173 0
45 31 33 34 39 35 -174 0
45 31 33 34 39 35 -171 0
45 31 33 34 39 35 -172 0
45 31 46 34 39 35 -173 0
45 31 46 34 39 35 -174 0
45 31 46 34 39 35 -171 0
45 31 46 34 39 35 -172 0
45 53 40 52 46 47 -193 0
45 53 40 52 46 47 -194 0
45 53 40 52 46 47 -196 0
45 53 40 52 46 47 -195 0
45 53 40 52 46 39 -193 0
45 53 40 52 46 39 -194 0
45 53 40 52 46 39 -196 0
45 53 40 52 46 39 -195 0
45 53 40 52 47 51 -193 0
45 53 40 52 47 51 -194 0
45 53 40 52 47 51 -196 0
45 53 40 52 47 51 -195 0
45 53 40 52 39 51 -193 0
45 53 40 52 39 51 -194 0
45 53 40 52 39 51 -196 0
45 53 40 52 39 51 -195 0
45 53 40 46 47 39 -193 0
45 53 40 46 47 39 -194 0
45 53 40 46 47 39 -196 0
45 53 40 46 47 39 -195 0
45 53 40 46 39 51 -193 0
45 53 40 46 39 51 -194 0
45 53 40 46 39 51 -196 0
45 53 40 46 39 51 -195 0
45 53 52 46 47 51 -193 0
45 53 52 46 47 51 -194 0
45 53 52 46 47 51 -196 0
45 53 52 46 47 51 -195 0
45 53 52 47 39 51 -193 0
45 53 52 47 39 51 -194 0
45 53 52 47 39 51 -196 0
45 53 52 47 39 51 -195 0
45 53 46 47 39 51 -193 0
45 53 46 47 39 51 -194 0
45 53 46 47 39 51 -196 0
45 53 46 47 39 51 -195 0
45 73 40 76 46 39 -206 0
45 73 40 76 46 39 -205 0
45 73 40 76 46 39 -207 0
45 73 40 76 46 39 -208 0
45 73 40 46 78 39 -206 0
45 73 40 46 78 39 -205 0
45 73 40 46 78 39 -207 0
45 73 40 46 78 39 -208 0
45 26 40 28 46 39 -152 0
45 26 40 28 46 39 -149 0
45 26 40 28 46 39 -151 0
45 26 40 28 46 39 -150 0
45 26 40 46 30 39 -152 0
45 26 40 46 30 39 -149 0
45 26 40 46 30 39 -151 0
45 26 40 46 30 39 -150 0
45 1 40 2 46 39 -42 0
45 1 40 2 46 39 -41 0
45 1 40 2 46 39 -44 0
45 1 40 2 46 39 -43 0
45 1 40 46 4 39 -42 0
45 1 40 46 4 39 -41 0
45 1 40 46 4 39 -44 0
45 1 40 46 4 39 -43 0
45 59 40 61 46 39 -198 0
45 59 40 61 46 39 -199 0
45 59 40 61 46 39 -200 0
45 59 40 61 46 39 -197 0
45 59 40 46 57 39 -198 0
45 59 40 46 57 39 -199 0
45 59 40 46 57 39 -200 0
45 59 40 46 57 39 -197 0
45 67 40 68 46 39 -202 0
45 67 40 68 46 39 -201 0
45 67 40 68 46 39 -204 0
45 67 40 68 46 39 -203 0
45 67 40 46 69 39 -202 0
45 67 40 46 69 39 -201 0
45 67 40 46 69 39 -204 0
45 67 40 46 69 39 -203 0
45 40 20 46 22 39 -126 0
45 40 20 46 22 39 -125 0
45 40 20 46 22 39 -123 0
45 40 20 46 22 39 -124 0
45 40 20 46 39 15 -126 0
45 40 20 46 39 15 -125 0
45 40 20 46 39 15 -123 0
45 40 20 46 39 15 -124 0
45 40 13 46 14 39 -93 0
45 40 13 46 14 39 -96 0
45 40 13 46 14 39 -95 0
45 40 13 46 14 39 -94 0
45 40 13 46 39 12 -93 0
45 40 13 46 39 12 -96 0
45 40 13 46 39 12 -95 0
45 40 13 46 39 12 -94 0
45 40 33 46 34 39 -173 0
45 40 33 46 34 39 -174 0
45 40 33 46 34 39 -171 0
45 40 33 46 34 39 -172 0
45 40 33 46 39 35 -173 0
45 40 33 46 39 35 -174 0
45 40 33 46 39 35 -171 0
45 40 33 46 39 35 -172 0
45 40 52 46 47 39 -193 0
45 40 52 46 47 39 -194 0
45 40 52 46 47 39 -196 0
45 40 52 46 47 39 -195 0
45 40 52 46 39 51 -193 0
45 40 52 46 39 51 -194 0
45 40 52 46 39 51 -196 0
45 40 52 46 39 51 -195 0
45 40 76 46 78 39 -206 0
45 40 76 46 78 39 -205 0
45 40 76 46 78 39 -207 0
45 40 76 46 78 39 -208 0
45 40 28 46 30 39 -152 0
45 40 28 46 30 39 -149 0
45 40 28 46 30 39 -151 0
45 40 28 46 30 39 -150 0
45 40 2 46 4 39 -42 0
45 40 2 46 4 39 -41 0
45 40 2 46 4 39 -44 0
45 40 2 46 4 39 -43 0
45 40 61 46 57 39 -198 0
45 40 61 46 57 39 -199 0
45 40 61 46 57 39 -200 0
45 40 61 46 57 39 -197 0
45 40 68 46 69 39 -202 0
45 40 68 46 69 39 -201 0
45 40 68 46 69 39 -204 0
45 40 68 46 69 39 -203 0
45 40 46 22 39 15 -126 0
45 40 46 22 39 15 -125 0
45 40 46 22 39 15 -123 0
45 40 46 22 39 15 -124 0
45 40 46 14 39 12 -93 0
45 40 46 14 39 12 -96 0
45 40 46 14 39 12 -95 0
45 40 46 14 39 12 -94 0
45 40 46 34 39 35 -173 0
45 40 46 34 39 35 -174 0
45 40 46 34 39 35 -171 0
45 40 46 34 39 35 -172 0
45 40 46 47 39 51 -193 0
45 40 46 47 39 51 -194 0
45 40 46 47 39 51 -196 0
45 40 46 47 39 51 -195 0
17 9 20 13 22 14 -81 0
17 9 20 13 22 14 -82 0
17 9 20 13 22 14 -84 0
17 9 20 13 22 14 -83 0
17 9 20 13 22 15 -81 0
17 9 20 13 22 15 -82 0
17 9 20 13 22 15 -84 0
17 9 20 13 22 15 -83 0
17 9 20 13 14 12 -81 0
17 9 20 13 14 12 -82 0
17 9 20 13 14 12 -84 0
17 9 20 13 14 12 -83 0
17 9 20 13 15 12 -81 0
17 9 20 13 15 12 -82 0
17 9 20 13 15 12 -84 0
17 9 20 13 15 12 -83 0
17 9 20 22 14 15 -81 0
17 9 20 22 14 15 -82 0
17 9 20 22 14 15 -84 0
17 9 20 22 14 15 -83 0
17 9 20 22 15 12 -81 0
17 9 20 22 15 12 -82 0
17 9 20 22 15 12 -84 0
17 9 20 22 15 12 -83 0
17 9 13 22 14 12 -81 0
17 9 13 22 14 12 -82 0
17 9 13 22 14 12 -84 0
17 9 13 22 14 12 -83 0
17 9 13 14 15 12 -81 0
17 9 13 14 15 12 -82 0
17 9 13 14 15 12 -84 0
17 9 13 14 15 12 -83 0
17 9 22 14 15 12 -81 0
17 9 22 14 15 12 -82 0
17 9 22 14 15 12 -84 0
17 9 22 14 15 12 -83 0
17 31 20 33 22 34 -121 0
17 31 20 33 22 34 -120 0
17 31 20 33 22 34 -119 0
17 31 20 33 22 34 -122 0
17 31 20 33 22 15 -121 0
17 31 20 33 22 15 -120 0
17 31 20 33 22 15 -119 0
17 31 20 33 22 15 -122 0
17 31 20 33 34 35 -121 0
17 31 20 33 34 35 -120 0
17 31 20 33 34 35 -119 0
17 31 20 33 34 35 -122 0
17 31 20 33 15 35 -121 0
17 31 20 33 15 35 -120 0
17 31 20 33 15 35 -119 0
17 31 20 33 15 35 -122 0
17 31 20 22 34 15 -121 0
17 31 20 22 34 15 -120 0
17 31 20 22 34 15 -119 0
17 31 20 22 34 15 -122 0
17 31 20 22 15 35 -121 0
17 31 20 22 15 35 -120 0
17 31 20 22 15 35 -119 0
17 31 20 22 15 35 -122 0
17 31 33 22 34 35 -121 0
17 31 33 22 34 35 -120 0
17 31 33 22 34 35 -119 0
17 31 33 22 34 35 -122 0
17 31 33 34 15 35 -121 0
17 31 33 34 15 35 -120 0
17 31 33 34 15 35 -119 0
17 31 33 34 15 35 -122 0
17 31 22 34 15 35 -121 0
17 31 22 34 15 35 -120 0
17 31 22 34 15 35 -119 0
17 31 22 34 15 35 -122 0
17 53 20 52 22 47 -127 0
17 53 20 52 22 47 -128 0
17 53 20 52 22 47 -129 0
17 53 20 52 22 47 -130 0
17 53 20 52 22 15 -127 0
17 53 20 52 22 15 -128 0
17 53 20 52 22 15 -129 0
17 53 20 52 22 15 -130 0
17 53 20 52 47 51 -127 0
17 53 20 52 47 51 -128 0
17 53 20 52 47 51 -129 0
17 53 20 52 47 51 -130 0
17 53 20 52 15 51 -127 0
17 53 20 52 15 51 -128 0
17 53 20 52 15 51 -129 0
17 53 20 52 15 51 -130 0
17 53 20 22 47 15 -127 0
17 53 20 22 47 15 -128 0
17 53 20 22 47 15 -129 0
17 53 20 22 47 15 -130 0
17 53 20 22 15 51 -127 0
17 53 20 22 15 51 -128 0
17 53 20 22 15 51 -129 0
17 53 20 22 15 51 -130 0
17 53 52 22 47 51 -127 0
17 53 52 22 47 51 -128 0
17 53 52 22 47 51 -129 0
17 53 52 22 47 51 -130 0
17 53 52 47 15 51 -127 0
17 53 52 47 15 51 -128 0
17 53 52 47 15 51 -129 0
17 53 52 47 15 51 -130 0
17 53 22 47 15 51 -127 0
17 53 22 47 15 51 -128 0
17 53 22 47 15 51 -129 0
17 53 22 47 15 51 -130 0
17 73 20 76 22 15 -142 0
17 73 20 76 22 15 -140 0
17 73 20 76 22 15 -139 0
17 73 20 76 22 15 -141 0
17 73 20 22 78 15 -142 0
17 73 20 22 78 15 -140 0
17 73 20 22 78 15 -139 0
17 73 20 22 78 15 -141 0
17 26 20 28 22 15 -116 0
17 26 20 28 22 15 -118 0
17 26 20 28 22 15 -115 0
17 26 20 28 22 15 -117 0
17 26 20 22 30 15 -116 0
17 26 20 22 30 15 -118 0
17 26 20 22 30 15 -115 0
17 26 20 22 30 15 -117 0
17 1 20 2 22 15 -21 0
17 1 20 2 22 15 -18 0
17 1 20 2 22 15 -19 0
17 1 20 2 22 15 -16 0
17 1 20 22 4 15 -21 0
17 1 20 22 4 15 -18 0
17 1 20 22 4 15 -19 0
17 1 20 22 4 15 -16 0
17 59 20 61 22 15 -133 0
17 59 20 61 22 15 -131 0
17 59 20 61 22 15 -134 0
17 59 20 61 22 15 -132 0
17 59 20 22 57 15 -133 0
17 59 20 22 57 15 -131 0
17 59 20 22 57 15 -134 0
17 59 20 22 57 15 -132 0
17 67 20 68 22 15 -135 0
17 67 20 68 22 15 -137 0
17 67 20 68 22 15 -136 0
17 67 20 68 22 15 -138 0
17 67 20 22 69 15 -135 0
17 67 20 22 69 15 -137 0
17 67 20 22 69 15 -136 0
17 67 20 22 69 15 -138 0
17 40 20 46 22 15 -126 0
17 40 20 46 22 15 -125 0
17 40 20 46 22 15 -123 0
17 40 20 46 22 15 -124 0
17 40 20 22 39 15 -126 0
17 40 20 22 39 15 -125 0
17 40 20 22 39 15 -123 0
17 40 20 22 39 15 -124 0
17 20 13 22 14 15 -81 0
17 20 13 22 14 15 -82 0
17 20 13 22 14 15 -84 0
17 20 13 22 14 15 -83 0
17 20 13 22 15 12 -81 0
17 20 13 22 15 12 -82 0
17 20 13 22 15 12 -84 0
17 20 13 22 15 12 -83 0
17 20 33 22 34 15 -121 0
17 20 33 22 34 15 -120 0
17 20 33 22 34 15 -119 0
17 20 33 22 34 15 -122 0
17 20 33 22 15 35 -121 0
17 20 33 22 15 35 -120 0
17 20 33 22 15 35 -119 0
17 20 33 22 15 35 -122 0
17 20 52 22 47 15 -127 0
17 20 52 22 47 15 -128 0
17 20 52 22 47 15 -129 0
17 20 52 22 47 15 -130 0
17 20 52 22 15 51 -127 0
17 20 52 22 15 51 -128 0
17 20 52 22 15 51 -129 0
17 20 52 22 15 51 -130 0
17 20 76 22 78 15 -142 0
17 20 76 22 78 15 -140 0
17 20 76 22 78 15 -139 0
17 20 76 22 78 15 -141 0
17 20 28 22 30 15 -116 0
17 20 28 22 30 15 -118 0
17 20 28 22 30 15 -115 0
17 20 28 22 30 15 -117 0
17 20 2 22 4 15 -21 0
17 20 2 22 4 15 -18 0
17 20 2 22 4 15 -19 0
17 20 2 22 4 15 -16 0
17 20 61 22 57 15 -133 0
17 20 61 22 57 15 -131 0
17 20 61 22 57 15 -134 0
17 20 61 22 57 15 -132 0
17 20 68 22 69 15 -135 0
17 20 68 22 69 15 -137 0
17 20 68 22 69 15 -136 0
17 20 68 22 69 15 -138 0
17 20 46 22 39 15 -126 0
17 20 46 22 39 15 -125 0
17 20 46 22 39 15 -123 0
17 20 46 22 39 15 -124 0
17 20 22 14 15 12 -81 0
17 20 22 14 15 12 -82 0
17 20 22 14 15 12 -84 0
17 20 22 14 15 12 -83 0
17 20 22 34 15 35 -121 0
17 20 22 34 15 35 -120 0
17 20 22 34 15 35 -119 0
17 20 22 34 15 35 -122 0
17 20 22 47 15 51 -127 0
17 20 22 47 15 51 -128 0
17 20 22 47 15 51 -129 0
17 20 22 47 15 51 -130 0
9 31 13 33 14 34 -91 0
9 31 13 33 14 34 -90 0
9 31 13 33 14 34 -89 0
9 31 13 33 14 34 -92 0
9 31 13 33 14 12 -91 0
9 31 13 33 14 12 -90 0
9 31 13 33 14 12 -89 0
9 31 13 33 14 12 -92 0
9 31 13 33 34 35 -91 0
9 31 13 33 34 35 -90 0
9 31 13 33 34 35 -89 0
9 31 13 33 34 35 -92 0
9 31 13 33 12 35 -91 0
9 31 13 33 12 35 -90 0
9 31 13 33 12 35 -89 0
9 31 13 33 12 35 -92 0
9 31 13 14 34 12 -91 0
9 31 13 14 34 12 -90 0
9 31 13 14 34 12 -89 0
9 31 13 14 34 12 -92 0
9 31 13 14 12 35 -91 0
9 31 13 14 12 35 -90 0
9 31 13 14 12 35 -89 0
9 31 13 14 12 35 -92 0
9 31 33 14 34 35 -91 0
9 31 33 14 34 35 -90 0
9 31 33 14 34 35 -89 0
9 31 33 14 34 35 -92 0
9 31 33 34 12 35 -91 0
9 31 33 34 12 35 -90 0
9 31 33 34 12 35 -89 0
9 31 33 34 12 35 -92 0
9 31 14 34 12 35 -91 0
9 31 14 34 12 35 -90 0
9 31 14 34 12 35 -89 0
9 31 14 34 12 35 -92 0
9 53 13 52 14 47 -97 0
9 53 13 52 14 47 -98 0
9 53 13 52 14 47 -100 0
9 53 13 52 14 47 -99 0
9 53 13 52 14 12 -97 0
9 53 13 52 14 12 -98 0
9 53 13 52 14 12 -100 0
9 53 13 52 14 12 -99 0
9 53 13 52 47 51 -97 0
9 53 13 52 47 51 -98 0
9 53 13 52 47 51 -100 0
9 53 13 52 47 51 -99 0
9 53 13 52 12 51 -97 0
9 53 13 52 12 51 -98 0
9 53 13 52 12 51 -100 0
9 53 13 52 12 51 -99 0
9 53 13 14 47 12 -97 0
9 53 13 14 47 12 -98 0
9 53 13 14 47 12 -100 0
9 53 13 14 47 12 -99 0
9 53 13 14 12 51 -97 0
9 53 13 14 12 51 -98 0
9 53 13 14 12 51 -100 0
9 53 13 14 12 51 -99 0
9 53 52 14 47 51 -97 0
9 53 52 14 47 51 -98 0
9 53 52 14 47 51 -100 0
9 53 52 14 47 51 -99 0
9 53 52 47 12 51 -97 0
9 53 52 47 12 51 -98 0
9 53 52 47 12 51 -100 0
9 53 52 47 12 51 -99 0
9 53 14 47 12 51 -97 0
9 53 14 47 12 51 -98 0
9 53 14 47 12 51 -100 0
9 53 14 47 12 51 -99 0
9 73 13 76 14 12 -110 0
9 73 13 76 14 12 -109 0
9 73 13 76 14 12 -112 0
9 73 13 76 14 12 -111 0
9 73 13 14 78 12 -110 0
9 73 13 14 78 12 -109 0
9 73 13 14 78 12 -112 0
9 73 13 14 78 12 -111 0
9 26 13 28 14 12 -86 0
9 26 13 28 14 12 -88 0
9 26 13 28 14 12 -85 0
9 26 13 28 14 12 -87 0
9 26 13 14 30 12 -86 0
9 26 13 14 30 12 -88 0
9 26 13 14 30 12 -85 0
9 26 13 14 30 12 -87 0
9 1 13 2 14 12 -7 0
9 1 13 2 14 12 -8 0
9 1 13 2 14 12 -11 0
9 1 13 2 14 12 -10 0
9 1 13 14 4 12 -7 0
9 1 13 14 4 12 -8 0
9 1 13 14 4 12 -11 0
9 1 13 14 4 12 -10 0
9 59 13 61 14 12 -102 0
9 59 13 61 14 12 -103 0
9 59 13 61 14 12 -104 0
9 59 13 61 14 12 -101 0
9 59 13 14 57 12 -102 0
9 59 13 14 57 12 -103 0
9 59 13 14 57 12 -104 0
9 59 13 14 57 12 -101 0
9 67 13 68 14 12 -108 0
9 67 13 68 14 12 -105 0
9 67 13 68 14 12 -107 0
9 67 13 68 14 12 -106 0
9 67 13 14 69 12 -108 0
9 67 13 14 69 12 -105 0
9 67 13 14 69 12 -107 0
9 67 13 14 69 12 -106 0
9 40 13 46 14 12 -93 0
9 40 13 46 14 12 -96 0
9 40 13 46 14 12 -95 0
9 40 13 46 14 12 -94 0
9 40 13 14 39 12 -93 0
9 40 13 14 39 12 -96 0
9 40 13 14 39 12 -95 0
9 40 13 14 39 12 -94 0
9 20 13 22 14 12 -81 0
9 20 13 22 14 12 -82 0
9 20 13 22 14 12 -84 0
9 20 13 22 14 12 -83 0
9 20 13 14 15 12 -81 0
9 20 13 14 15 12 -82 0
9 20 13 14 15 12 -84 0
9 20 13 14 15 12 -83 0
9 13 33 14 34 12 -91 0
9 13 33 14 34 12 -90 0
9 13 33 14 34 12 -89 0
9 13 33 14 34 12 -92 0
9 13 33 14 12 35 -91 0
9 13 33 14 12 35 -90 0
9 13 33 14 12 35 -89 0
9 13 33 14 12 35 -92 0
9 13 52 14 47 12 -97 0
9 13 52 14 47 12 -98 0
9 13 52 14 47 12 -100 0
9 13 52 14 47 12 -99 0
9 13 52 14 12 51 -97 0
9 13 52 14 12 51 -98 0
9 13 52 14 12 51 -100 0
9 13 52 14 12 51 -99 0
9 13 76 14 78 12 -110 0
9 13 76 14 78 12 -109 0
9 13 76 14 78 12 -112 0
9 13 76 14 78 12 -111 0
9 13 28 14 30 12 -86 0
9 13 28 14 30 12 -88 0
9 13 28 14 30 12 -85 0
9 13 28 14 30 12 -87 0
9 13 2 14 4 12 -7 0
9 13 2 14 4 12 -8 0
9 13 2 14 4 12 -11 0
9 13 2 14 4 12 -10 0
9 13 61 14 57 12 -102 0
9 13 61 14 57 12 -103 0
9 13 61 14 57 12 -104 0
9 13 61 14 57 12 -101 0
9 13 68 14 69 12 -108 0
9 13 68 14 69 12 -105 0
9 13 68 14 69 12 -107 0
9 13 68 14 69 12 -106 0
9 13 46 14 39 12 -93 0
9 13 46 14 39 12 -96 0
9 13 46 14 39 12 -95 0
9 13 46 14 39 12 -94 0
9 13 22 14 15 12 -81 0
9 13 22 14 15 12 -82 0
9 13 22 14 15 12 -84 0
9 13 22 14 15 12 -83 0
9 13 14 34 12 35 -91 0
9 13 14 34 12 35 -90 0
9 13 14 34 12 35 -89 0
9 13 14 34 12 35 -92 0
9 13 14 47 12 51 -97 0
9 13 14 47 12 51 -98 0
9 13 14 47 12 51 -100 0
9 13 14 47 12 51 -99 0
31 53 33 52 34 47 -177 0
31 53 33 52 34 47 -176 0
31 53 33 52 34 47 -178 0
31 53 33 52 34 47 -175 0
31 53 33 52 34 35 -177 0
31 53 33 52 34 35 -176 0
31 53 33 52 34 35 -178 0
31 53 33 52 34 35 -175 0
31 53 33 52 47 51 -177 0
31 53 33 52 47 51 -176 0
31 53 33 52 47 51 -178 0
31 53 33 52 47 51 -175 0
31 53 33 52 35 51 -177 0
31 53 33 52 35 51 -176 0
31 53 33 52 35 51 -178 0
31 53 33 52 35 51 -175 0
31 53 33 34 47 35 -177 0
31 53 33 34 47 35 -176 0
31 53 33 34 47 35 -178 0
31 53 33 34 47 35 -175 0
31 53 33 34 35 51 -177 0
31 53 33 34 35 51 -176 0
31 53 33 34 35 51 -178 0
31 53 33 34 35 51 -175 0
31 53 52 34 47 51 -177 0
31 53 52 34 47 51 -176 0
31 53 52 34 47 51 -178 0
31 53 52 34 47 51 -175 0
31 53 52 47 35 51 -177 0
31 53 52 47 35 51 -176 0
31 53 52 47 35 51 -178 0
31 53 52 47 35 51 -175 0
31 53 34 47 35 51 -177 0
31 53 34 47 35 51 -176 0
31 53 34 47 35 51 -178 0
31 53 34 47 35 51 -175 0
31 73 33 76 34 35 -190 0
31 73 33 76 34 35 -187 0
31 73 33 76 34 35 -189 0
31 73 33 76 34 35 -188 0
31 73 33 34 78 35 -190 0
31 73 33 34 78 35 -187 0
31 73 33 34 78 35 -189 0
31 73 33 34 78 35 -188 0
31 26 33 28 34 35 -145 0
31 26 33 28 34 35 -146 0
31 26 33 28 34 35 -147 0
31 26 33 28 34 35 -148 0
31 26 33 34 30 35 -145 0
31 26 33 34 30 35 -146 0
31 26 33 34 30 35 -147 0
31 26 33 34 30 35 -148 0
31 1 33 2 34 35 -36 0
31 1 33 2 34 35 -32 0
31 1 33 2 34 35 -38 0
31 1 33 2 34 35 -37 0
31 1 33 34 4 35 -36 0
31 1 33 34 4 35 -32 0
31 1 33 34 4 35 -38 0
31 1 33 34 4 35 -37 0
31 59 33 61 34 35 -179 0
31 59 33 61 34 35 -181 0
31 59 33 61 34 35 -182 0
31 59 33 61 34 35 -180 0
31 59 33 34 57 35 -179 0
31 59 33 34 57 35 -181 0
31 59 33 34 57 35 -182 0
31 59 33 34 57 35 -180 0
31 67 33 68 34 35 -185 0
31 67 33 68 34 35 -184 0
31 67 33 68 34 35 -183 0
31 67 33 68 34 35 -186 0
31 67 33 34 69 35 -185 0
31 67 33 34 69 35 -184 0
31 67 33 34 69 35 -183 0
31 67 33 34 69 35 -186 0
31 40 33 46 34 35 -173 0
31 40 33 46 34 35 -174 0
31 40 33 46 34 35 -171 0
31 40 33 46 34 35 -172 0
31 40 33 34 39 35 -173 0
31 40 33 34 39 35 -174 0
31 40 33 34 39 35 -171 0
31 40 33 34 39 35 -172 0
31 20 33 22 34 35 -121 0
31 20 33 22 34 35 -120 0
31 20 33 22 34 35 -119 0
31 20 33 22 34 35 -122 0
31 20 33 34 15 35 -121 0
31 20 33 34 15 35 -120 0
31 20 33 34 15 35 -119 0
31 20 33 34 15 35 -122 0
31 13 33 14 34 35 -91 0
31 13 33 14 34 35 -90 0
31 13 33 14 34 35 -89 0
31 13 33 14 34 35 -92 0
31 13 33 34 12 35 -91 0
31 13 33 34 12 35 -90 0
31 13 33 34 12 35 -89 0
31 13 33 34 12 35 -92 0
31 33 52 34 47 35 -177 0
31 33 52 34 47 35 -176 0
31 33 52 34 47 35 -178 0
31 33 52 34 47 35 -175 0
31 33 52 34 35 51 -177 0
31 33 52 34 35 51 -176 0
31 33 52 34 35 51 -178 0
31 33 52 34 35 51 -175 0
31 33 76 34 78 35 -190 0
31 33 76 34 78 35 -187 0
31 33 76 34 78 35 -189 0
31 33 76 34 78 35 -188 0
31 33 28 34 30 35 -145 0
31 33 28 34 30 35 -146 0
31 33 28 34 30 35 -147 0
31 33 28 34 30 35 -148 0
31 33 2 34 4 35 -36 0
31 33 2 34 4 35 -32 0
31 33 2 34 4 35 -38 0
31 33 2 34 4 35 -37 0
31 33 61 34 57 35 -179 0
31 33 61 34 57 35 -181 0
31 33 61 34 57 35 -182 0
31 33 61 34 57 35 -180 0
31 33 68 34 69 35 -185 0
31 33 68 34 69 35 -184 0
31 33 68 34 69 35 -183 0
31 33 68 34 69 35 -186 0
31 33 46 34 39 35 -173 0
31 33 46 34 39 35 -174 0
31 33 46 34 39 35 -171 0
31 33 46 34 39 35 -172 0
31 33 22 34 15 35 -121 0
31 33 22 34 15 35 -120 0
31 33 22 34 15 35 -119 0
31 33 22 34 15 35 -122 0
31 33 14 34 12 35 -91 0
31 33 14 34 12 35 -90 0
31 33 14 34 12 35 -89 0
31 33 14 34 12 35 -92 0
31 33 34 47 35 51 -177 0
31 33 34 47 35 51 -176 0
31 33 34 47 35 51 -178 0
31 33 34 47 35 51 -175 0
53 73 52 76 47 51 -221 0
53 73 52 76 47 51 -219 0
53 73 52 76 47 51 -222 0
53 73 52 76 47 51 -220 0
53 73 52 47 78 51 -221 0
53 73 52 47 78 51 -219 0
53 73 52 47 78 51 -222 0
53 73 52 47 78 51 -220 0
53 26 52 28 47 51 -156 0
53 26 52 28 47 51 -153 0
53 26 52 28 47 51 -154 0
53 26 52 28 47 51 -155 0
53 26 52 47 30 51 -156 0
53 26 52 47 30 51 -153 0
53 26 52 47 30 51 -154 0
53 26 52 47 30 51 -155 0
53 1 52 2 47 51 -50 0
53 1 52 2 47 51 -54 0
53 1 52 2 47 51 -48 0
53 1 52 2 47 51 -49 0
53 1 52 47 4 51 -50 0
53 1 52 47 4 51 -54 0
53 1 52 47 4 51 -48 0
53 1 52 47 4 51 -49 0
53 59 52 61 47 51 -211 0
53 59 52 61 47 51 -213 0
53 59 52 61 47 51 -212 0
53 59 52 61 47 51 -214 0
53 59 52 47 57 51 -211 0
53 59 52 47 57 51 -213 0
53 59 52 47 57 51 -212 0
53 59 52 47 57 51 -214 0
53 67 52 68 47 51 -217 0
53 67 52 68 47 51 -216 0
53 67 52 68 47 51 -215 0
53 67 52 68 47 51 -218 0
53 67 52 47 69 51 -217 0
53 67 52 47 69 51 -216 0
53 67 52 47 69 51 -215 0
53 67 52 47 69 51 -218 0
53 40 52 46 47 51 -193 0
53 40 52 46 47 51 -194 0
53 40 52 46 47 51 -196 0
53 40 52 46 47 51 -195 0
53 40 52 47 39 51 -193 0
53 40 52 47 39 51 -194 0
53 40 52 47 39 51 -196 0
53 40 52 47 39 51 -195 0
53 20 52 22 47 51 -127 0
53 20 52 22 47 51 -128 0
53 20 52 22 47 51 -129 0
53 20 52 22 47 51 -130 0
53 20 52 47 15 51 -127 0
53 20 52 47 15 51 -128 0
53 20 52 47 15 51 -129 0
53 20 52 47 15 51 -130 0
53 13 52 14 47 51 -97 0
53 13 52 14 47 51 -98 0
53 13 52 14 47 51 -100 0
53 13 52 14 47 51 -99 0
53 13 52 47 12 51 -97 0
53 13 52 47 12 51 -98 0
53 13 52 47 12 51 -100 0
53 13 52 47 12 51 -99 0
53 33 52 34 47 51 -177 0
53 33 52 34 47 51 -176 0
53 33 52 34 47 51 -178 0
53 33 52 34 47 51 -175 0
53 33 52 47 35 51 -177 0
53 33 52 47 35 51 -176 0
53 33 52 47 35 51 -178 0
53 33 52 47 35 51 -175 0
53 52 76 47 78 51 -221 0
53 52 76 47 78 51 -219 0
53 52 76 47 78 51 -222 0
53 52 76 47 78 51 -220 0
53 52 28 47 30 51 -156 0
53 52 28 47 30 51 -153 0
53 52 28 47 30 51 -154 0
53 52 28 47 30 51 -155 0
53 52 2 47 4 51 -50 0
53 52 2 47 4 51 -54 0
53 52 2 47 4 51 -48 0
53 52 2 47 4 51 -49 0
53 52 61 47 57 51 -211 0
53 52 61 47 57 51 -213 0
53 52 61 47 57 51 -212 0
53 52 61 47 57 51 -214 0
53 52 68 47 69 51 -217 0
53 52 68 47 69 51 -216 0
53 52 68 47 69 51 -215 0
53 52 68 47 69 51 -218 0
53 52 46 47 39 51 -193 0
53 52 46 47 39 51 -194 0
53 52 46 47 39 51 -196 0
53 52 46 47 39 51 -195 0
53 52 22 47 15 51 -127 0
53 52 22 47 15 51 -128 0
53 52 22 47 15 51 -129 0
53 52 22 47 15 51 -130 0
53 52 14 47 12 51 -97 0
53 52 14 47 12 51 -98 0
53 52 14 47 12 51 -100 0
53 52 14 47 12 51 -99 0
53 52 34 47 35 51 -177 0
53 52 34 47 35 51 -176 0
53 52 34 47 35 51 -178 0
53 52 34 47 35 51 -175 0
73 26 76 28 78 30 -166 0
73 26 76 28 78 30 -165 0
73 26 76 28 78 30 -168 0
73 26 76 28 78 30 -167 0
73 1 76 2 78 4 -75 0
73 1 76 2 78 4 -74 0
73 1 76 2 78 4 -72 0
73 1 76 2 78 4 -71 0
73 59 76 61 78 57 -230 0
73 59 76 61 78 57 -232 0
73 59 76 61 78 57 -229 0
73 59 76 61 78 57 -231 0
73 67 76 68 78 69 -236 0
73 67 76 68 78 69 -235 0
73 67 76 68 78 69 -237 0
73 67 76 68 78 69 -238 0
73 40 76 46 78 39 -206 0
73 40 76 46 78 39 -205 0
73 40 76 46 78 39 -207 0
73 40 76 46 78 39 -208 0
73 20 76 22 78 15 -142 0
73 20 76 22 78 15 -140 0
73 20 76 22 78 15 -139 0
73 20 76 22 78 15 -141 0
73 13 76 14 78 12 -110 0
73 13 76 14 78 12 -109 0
73 13 76 14 78 12 -112 0
73 13 76 14 78 12 -111 0
73 33 76 34 78 35 -190 0
73 33 76 34 78 35 -187 0
73 33 76 34 78 35 -189 0
73 33 76 34 78 35 -188 0
73 52 76 47 78 51 -221 0
73 52 76 47 78 51 -219 0
73 52 76 47 78 51 -222 0
73 52 76 47 78 51 -220 0
26 1 28 2 30 4 -24 0
26 1 28 2 30 4 -29 0
26 1 28 2 30 4 -27 0
26 1 28 2 30 4 -25 0
26 59 28 61 30 57 -158 0
26 59 28 61 30 57 -157 0
26 59 28 61 30 57 -160 0
26 59 28 61 30 57 -159 0
26 67 28 68 30 69 -162 0
26 67 28 68 30 69 -161 0
26 67 28 68 30 69 -163 0
26 67 28 68 30 69 -164 0
26 40 28 46 30 39 -152 0
26 40 28 46 30 39 -149 0
26 40 28 46 30 39 -151 0
26 40 28 46 30 39 -150 0
26 20 28 22 30 15 -116 0
26 20 28 22 30 15 -118 0
26 20 28 22 30 15 -115 0
26 20 28 22 30 15 -117 0
26 13 28 14 30 12 -86 0
26 13 28 14 30 12 -88 0
26 13 28 14 30 12 -85 0
26 13 28 14 30 12 -87 0
26 33 28 34 30 35 -145 0
26 33 28 34 30 35 -146 0
26 33 28 34 30 35 -147 0
26 33 28 34 30 35 -148 0
26 52 28 47 30 51 -156 0
26 52 28 47 30 51 -153 0
26 52 28 47 30 51 -154 0
26 52 28 47 30 51 -155 0
1 59 2 61 4 57 -56 0
1 59 2 61 4 57 -62 0
1 59 2 61 4 57 -60 0
1 59 2 61 4 57 -55 0
1 67 2 68 4 69 -70 0
1 67 2 68 4 69 -66 0
1 67 2 68 4 69 -64 0
1 67 2 68 4 69 -65 0
1 40 2 46 4 39 -42 0
1 40 2 46 4 39 -41 0
1 40 2 46 4 39 -44 0
1 40 2 46 4 39 -43 0
1 20 2 22 4 15 -21 0
1 20 2 22 4 15 -18 0
1 20 2 22 4 15 -19 0
1 20 2 22 4 15 -16 0
1 13 2 14 4 12 -7 0
1 13 2 14 4 12 -8 0
1 13 2 14 4 12 -11 0
1 13 2 14 4 12 -10 0
1 33 2 34 4 35 -36 0
1 33 2 34 4 35 -32 0
1 33 2 34 4 35 -38 0
1 33 2 34 4 35 -37 0
1 52 2 47 4 51 -50 0
1 52 2 47 4 51 -54 0
1 52 2 47 4 51 -48 0
1 52 2 47 4 51 -49 0
59 67 61 68 57 69 -227 0
59 67 61 68 57 69 -228 0
59 67 61 68 57 69 -225 0
59 67 61 68 57 69 -226 0
59 40 61 46 57 39 -198 0
59 40 61 46 57 39 -199 0
59 40 61 46 57 39 -200 0
59 40 61 46 57 39 -197 0
59 20 61 22 57 15 -133 0
59 20 61 22 57 15 -131 0
59 20 61 22 57 15 -134 0
59 20 61 22 57 15 -132 0
59 13 61 14 57 12 -102 0
59 13 61 14 57 12 -103 0
59 13 61 14 57 12 -104 0
59 13 61 14 57 12 -101 0
59 33 61 34 57 35 -179 0
59 33 61 34 57 35 -181 0
59 33 61 34 57 35 -182 0
59 33 61 34 57 35 -180 0
59 52 61 47 57 51 -211 0
59 52 61 47 57 51 -213 0
59 52 61 47 57 51 -212 0
59 52 61 47 57 51 -214 0
67 40 68 46 69 39 -202 0
67 40 68 46 69 39 -201 0
67 40 68 46 69 39 -204 0
67 40 68 46 69 39 -203 0
67 20 68 22 69 15 -135 0
67 20 68 22 69 15 -137 0
67 20 68 22 69 15 -136 0
67 20 68 22 69 15 -138 0
67 13 68 14 69 12 -108 0
67 13 68 14 69 12 -105 0
67 13 68 14 69 12 -107 0
67 13 68 14 69 12 -106 0
67 33 68 34 69 35 -185 0
67 33 68 34 69 35 -184 0
67 33 68 34 69 35 -183 0
67 33 68 34 69 35 -186 0
67 52 68 47 69 51 -217 0
67 52 68 47 69 51 -216 0
67 52 68 47 69 51 -215 0
67 52 68 47 69 51 -218 0
40 20 46 22 39 15 -126 0
40 20 46 22 39 15 -125 0
40 20 46 22 39 15 -123 0
40 20 46 22 39 15 -124 0
40 13 46 14 39 12 -93 0
40 13 46 14 39 12 -96 0
40 13 46 14 39 12 -95 0
40 13 46 14 39 12 -94 0
40 33 46 34 39 35 -173 0
40 33 46 34 39 35 -174 0
40 33 46 34 39 35 -171 0
40 33 46 34 39 35 -172 0
40 52 46 47 39 51 -193 0
40 52 46 47 39 51 -194 0
40 52 46 47 39 51 -196 0
40 52 46 47 39 51 -195 0
20 13 22 14 15 12 -81 0
20 13 22 14 15 12 -82 0
20 13 22 14 15 12 -84 0
20 13 22 14 15 12 -83 0
20 33 22 34 15 35 -121 0
20 33 22 34 15 35 -120 0
20 33 22 34 15 35 -119 0
20 33 22 34 15 35 -122 0
20 52 22 47 15 51 -127 0
20 52 22 47 15 51 -128 0
20 52 22 47 15 51 -129 0
20 52 22 47 15 51 -130 0
13 33 14 34 12 35 -91 0
13 33 14 34 12 35 -90 0
13 33 14 34 12 35 -89 0
13 33 14 34 12 35 -92 0
13 52 14 47 12 51 -97 0
13 52 14 47 12 51 -98 0
13 52 14 47 12 51 -100 0
13 52 14 47 12 51 -99 0
33 52 34 47 35 51 -177 0
33 52 34 47 35 51 -176 0
33 52 34 47 35 51 -178 0
33 52 34 47 35 51 -175 0
77 23 73 26 76 28 78 -166 0
77 23 73 26 76 28 78 -165 0
77 23 73 26 76 28 78 -168 0
77 23 73 26 76 28 78 -167 0
77 23 73 26 76 28 30 -166 0
77 23 73 26 76 28 30 -165 0
77 23 73 26 76 28 30 -168 0
77 23 73 26 76 28 30 -167 0
77 23 73 26 76 78 30 -166 0
77 23 73 26 76 78 30 -165 0
77 23 73 26 76 78 30 -168 0
77 23 73 26 76 78 30 -167 0
77 23 73 26 28 78 30 -166 0
77 23 73 26 28 78 30 -165 0
77 23 73 26 28 78 30 -168 0
77 23 73 26 28 78 30 -167 0
77 23 73 76 28 78 30 -166 0
77 23 73 76 28 78 30 -165 0
77 23 73 76 28 78 30 -168 0
77 23 73 76 28 78 30 -167 0
77 23 26 76 28 78 30 -166 0
77 23 26 76 28 78 30 -165 0
77 23 26 76 28 78 30 -168 0
77 23 26 76 28 78 30 -167 0
77 5 73 1 76 2 78 -75 0
77 5 73 1 76 2 78 -74 0
77 5 73 1 76 2 78 -72 0
77 5 73 1 76 2 78 -71 0
77 5 73 1 76 2 4 -75 0
77 5 73 1 76 2 4 -74 0
77 5 73 1 76 2 4 -72 0
77 5 73 1 76 2 4 -71 0
77 5 73 1 76 78 4 -75 0
77 5 73 1 76 78 4 -74 0
77 5 73 1 76 78 4 -72 0
77 5 73 1 76 78 4 -71 0
77 5 73 1 2 78 4 -75 0
77 5 73 1 2 78 4 -74 0
77 5 73 1 2 78 4 -72 0
77 5 73 1 2 78 4 -71 0
77 5 73 76 2 78 4 -75 0
77 5 73 76 2 78 4 -74 0
77 5 73 76 2 78 4 -72 0
77 5 73 76 2 78 4 -71 0
77 5 1 76 2 78 4 -75 0
77 5 1 76 2 78 4 -74 0
77 5 1 76 2 78 4 -72 0
77 5 1 76 2 78 4 -71 0
77 58 73 59 76 61 78 -230 0
77 58 73 59 76 61 78 -232 0
77 58 73 59 76 61 78 -229 0
77 58 73 59 76 61 78 -231 0
77 58 73 59 76 61 57 -230 0
77 58 73 59 76 61 57 -232 0
77 58 73 59 76 61 57 -229 0
77 58 73 59 76 61 57 -231 0
77 58 73 59 76 78 57 -230 0
77 58 73 59 76 78 57 -232 0
77 58 73 59 76 78 57 -229 0
77 58 73 59 76 78 57 -231 0
77 58 73 59 61 78 57 -230 0
77 58 73 59 61 78 57 -232 0
77 58 73 59 61 78 57 -229 0
77 58 73 59 61 78 57 -231 0
77 58 73 76 61 78 57 -230 0
77 58 73 76 61 78 57 -232 0
77 58 73 76 61 78 57 -229 0
77 58 73 76 61 78 57 -231 0
77 58 59 76 61 78 57 -230 0
77 58 59 76 61 78 57 -232 0
77 58 59 76 61 78 57 -229 0
77 58 59 76 61 78 57 -231 0
77 63 73 67 76 68 78 -236 0
77 63 73 67 76 68 78 -235 0
77 63 73 67 76 68 78 -237 0
77 63 73 67 76 68 78 -238 0
77 63 73 67 76 68 69 -236 0
77 63 73 67 76 68 69 -235 0
77 63 73 67 76 68 69 -237 0
77 63 73 67 76 68 69 -238 0
77 63 73 67 76 78 69 -236 0
77 63 73 67 76 78 69 -235 0
77 63 73 67 76 78 69 -237 0
77 63 73 67 76 78 69 -238 0
77 63 73 67 68 78 69 -236 0
77 63 73 67 68 78 69 -235 0
77 63 73 67 68 78 69 -237 0
77 63 73 67 68 78 69 -238 0
77 63 73 76 68 78 69 -236 0
77 63 73 76 68 78 69 -235 0
77 63 73 76 68 78 69 -237 0
77 63 73 76 68 78 69 -238 0
77 63 67 76 68 78 69 -236 0
77 63 67 76 68 78 69 -235 0
77 63 67 76 68 78 69 -237 0
77 63 67 76 68 78 69 -238 0
77 45 73 40 76 46 78 -206 0
77 45 73 40 76 46 78 -205 0
77 45 73 40 76 46 78 -207 0
77 45 73 40 76 46 78 -208 0
77 45 73 40 76 46 39 -206 0
77 45 73 40 76 46 39 -205 0
77 45 73 40 76 46 39 -207 0
77 45 73 40 76 46 39 -208 0
77 45 73 40 76 78 39 -206 0
77 45 73 40 76 78 39 -205 0
77 45 73 40 76 78 39 -207 0
77 45 73 40 76 78 39 -208 0
77 45 73 40 46 78 39 -206 0
77 45 73 40 46 78 39 -205 0
77 45 73 40 46 78 39 -207 0
77 45 73 40 46 78 39 -208 0
77 45 73 76 46 78 39 -206 0
77 45 73 76 46 78 39 -205 0
77 45 73 76 46 78 39 -207 0
77 45 73 76 46 78 39 -208 0
77 45 40 76 46 78 39 -206 0
77 45 40 76 46 78 39 -205 0
77 45 40 76 46 78 39 -207 0
77 45 40 76 46 78 39 -208 0
77 17 73 20 76 22 78 -142 0
77 17 73 20 76 22 78 -140 0
77 17 73 20 76 22 78 -139 0
77 17 73 20 76 22 78 -141 0
77 17 73 20 76 22 15 -142 0
77 17 73 20 76 22 15 -140 0
77 17 73 20 76 22 15 -139 0
77 17 73 20 76 22 15 -141 0
77 17 73 20 76 78 15 -142 0
77 17 73 20 76 78 15 -140 0
77 17 73 20 76 78 15 -139 0
77 17 73 20 76 78 15 -141 0
77 17 73 20 22 78 15 -142 0
77 17 73 20 22 78 15 -140 0
77 17 73 20 22 78 15 -139 0
77 17 73 20 22 78 15 -141 0
77 17 73 76 22 78 15 -142 0
77 17 73 76 22 78 15 -140 0
77 17 73 76 22 78 15 -139 0
77 17 73 76 22 78 15 -141 0
77 17 20 76 22 78 15 -142 0
77 17 20 76 22 78 15 -140 0
77 17 20 76 22 78 15 -139 0
77 17 20 76 22 78 15 -141 0
77 9 73 13 76 14 78 -110 0
77 9 73 13 76 14 78 -109 0
77 9 73 13 76 14 78 -112 0
77 9 73 13 76 14 78 -111 0
77 9 73 13 76 14 12 -110 0
77 9 73 13 76 14 12 -109 0
77 9 73 13 76 14 12 -112 0
77 9 73 13 76 14 12 -111 0
77 9 73 13 76 78 12 -110 0
77 9 73 13 76 78 12 -109 0
77 9 73 13 76 78 12 -112 0
77 9 73 13 76 78 12 -111 0
77 9 73 13 14 78 12 -110 0
77 9 73 13 14 78 12 -109 0
77 9 73 13 14 78 12 -112 0
77 9 73 13 14 78 12 -111 0
77 9 73 76 14 78 12 -110 0
77 9 73 76 14 78 12 -109 0
77 9 73 76 14 78 12 -112 0
77 9 73 76 14 78 12 -111 0
77 9 13 76 14 78 12 -110 0
77 9 13 76 14 78 12 -109 0
77 9 13 76 14 78 12 -112 0
77 9 13 76 14 78 12 -111 0
77 31 73 33 76 34 78 -190 0
77 31 73 33 76 34 78 -187 0
77 31 73 33 76 34 78 -189 0
77 31 73 33 76 34 78 -188 0
77 31 73 33 76 34 35 -190 0
77 31 73 33 76 34 35 -187 0
77 31 73 33 76 34 35 -189 0
77 31 73 33 76 34 35 -188 0
77 31 73 33 76 78 35 -190 0
77 31 73 33 76 78 35 -187 0
77 31 73 33 76 78 35 -189 0
77 31 73 33 76 78 35 -188 0
77 31 73 33 34 78 35 -190 0
77 31 73 33 34 78 35 -187 0
77 31 73 33 34 78 35 -189 0
77 31 73 33 34 78 35 -188 0
77 31 73 76 34 78 35 -190 0
77 31 73 76 34 78 35 -187 0
77 31 73 76 34 78 35 -189 0
77 31 73 76 34 78 35 -188 0
77 31 33 76 34 78 35 -190 0
77 31 33 76 34 78 35 -187 0
77 31 33 76 34 78 35 -189 0
77 31 33 76 34 78 35 -188 0
77 53 73 52 76 47 78 -221 0
77 53 73 52 76 47 78 -219 0
77 53 73 52 76 47 78 -222 0
77 53 73 52 76 47 78 -220 0
77 53 73 52 76 47 51 -221 0
77 53 73 52 76 47 51 -219 0
77 53 73 52 76 47 51 -222 0
77 53 73 52 76 47 51 -220 0
77 53 73 52 76 78 51 -221 0
77 53 73 52 76 78 51 -219 0
77 53 73 52 76 78 51 -222 0
77 53 73 52 76 78 51 -220 0
77 53 73 52 47 78 51 -221 0
77 53 73 52 47 78 51 -219 0
77 53 73 52 47 78 51 -222 0
77 53 73 52 47 78 51 -220 0
77 53 73 76 47 78 51 -221 0
77 53 73 76 47 78 51 -219 0
77 53 73 76 47 78 51 -222 0
77 53 73 76 47 78 51 -220 0
77 53 52 76 47 78 51 -221 0
77 53 52 76 47 78 51 -219 0
77 53 52 76 47 78 51 -222 0
77 53 52 76 47 78 51 -220 0
77 73 26 76 28 78 30 -166 0
77 73 26 76 28 78 30 -165 0
77 73 26 76 28 78 30 -168 0
77 73 26 76 28 78 30 -167 0
77 73 1 76 2 78 4 -75 0
77 73 1 76 2 78 4 -74 0
77 73 1 76 2 78 4 -72 0
77 73 1 76 2 78 4 -71 0
77 73 59 76 61 78 57 -230 0
77 73 59 76 61 78 57 -232 0
77 73 59 76 61 78 57 -229 0
77 73 59 76 61 78 57 -231 0
77 73 67 76 68 78 69 -236 0
77 73 67 76 68 78 69 -235 0
77 73 67 76 68 78 69 -237 0
77 73 67 76 68 78 69 -238 0
77 73 40 76 46 78 39 -206 0
77 73 40 76 46 78 39 -205 0
77 73 40 76 46 78 39 -207 0
77 73 40 76 46 78 39 -208 0
77 73 20 76 22 78 15 -142 0
77 73 20 76 22 78 15 -140 0
77 73 20 76 22 78 15 -139 0
77 73 20 76 22 78 15 -141 0
77 73 13 76 14 78 12 -110 0
77 73 13 76 14 78 12 -109 0
77 73 13 76 14 78 12 -112 0
77 73 13 76 14 78 12 -111 0
77 73 33 76 34 78 35 -190 0
77 73 33 76 34 78 35 -187 0
77 73 33 76 34 78 35 -189 0
77 73 33 76 34 78 35 -188 0
77 73 52 76 47 78 51 -221 0
77 73 52 76 47 78 51 -219 0
77 73 52 76 47 78 51 -222 0
77 73 52 76 47 78 51 -220 0
23 5 26 1 28 2 30 -24 0
23 5 26 1 28 2 30 -29 0
23 5 26 1 28 2 30 -27 0
23 5 26 1 28 2 30 -25 0
23 5 26 1 28 2 4 -24 0
23 5 26 1 28 2 4 -29 0
23 5 26 1 28 2 4 -27 0
23 5 26 1 28 2 4 -25 0
23 5 26 1 28 30 4 -24 0
23 5 26 1 28 30 4 -29 0
23 5 26 1 28 30 4 -27 0
23 5 26 1 28 30 4 -25 0
23 5 26 1 2 30 4 -24 0
23 5 26 1 2 30 4 -29 0
23 5 26 1 2 30 4 -27 0
23 5 26 1 2 30 4 -25 0
23 5 26 28 2 30 4 -24 0
23 5 26 28 2 30 4 -29 0
23 5 26 28 2 30 4 -27 0
23 5 26 28 2 30 4 -25 0
23 5 1 28 2 30 4 -24 0
23 5 1 28 2 30 4 -29 0
23 5 1 28 2 30 4 -27 0
23 5 1 28 2 30 4 -25 0
23 58 26 59 28 61 30 -158 0
23 58 26 59 28 61 30 -157 0
23 58 26 59 28 61 30 -160 0
23 58 26 59 28 61 30 -159 0
23 58 26 59 28 61 57 -158 0
23 58 26 59 28 61 57 -157 0
23 58 26 59 28 61 57 -160 0
23 58 26 59 28 61 57 -159 0
23 58 26 59 28 30 57 -158 0
23 58 26 59 28 30 57 -157 0
23 58 26 59 28 30 57 -160 0
23 58 26 59 28 30 57 -159 0
23 58 26 59 61 30 57 -158 0
23 58 26 59 61 30 57 -157 0
23 58 26 59 61 30 57 -160 0
23 58 26 59 61 30 57 -159 0
23 58 26 28 61 30 57 -158 0
23 58 26 28 61 30 57 -157 0
23 58 26 28 61 30 57 -160 0
23 58 26 28 61 30 57 -159 0
23 58 59 28 61 30 57 -158 0
23 58 59 28 61 30 57 -157 0
23 58 59 28 61 30 57 -160 0
23 58 59 28 61 30 57 -159 0
23 63 26 67 28 68 30 -162 0
23 63 26 67 28 68 30 -161 0
23 63 26 67 28 68 30 -163 0
23 63 26 67 28 68 30 -164 0
23 63 26 67 28 68 69 -162 0
23 63 26 67 28 68 69 -161 0
23 63 26 67 28 68 69 -163 0
23 63 26 67 28 68 69 -164 0
23 63 26 67 28 30 69 -162 0
23 63 26 67 28 30 69 -161 0
23 63 26 67 28 30 69 -163 0
23 63 26 67 28 30 69 -164 0
23 63 26 67 68 30 69 -162 0
23 63 26 67 68 30 69 -161 0
23 63 26 67 68 30 69 -163 0
23 63 26 67 68 30 69 -164 0
23 63 26 28 68 30 69 -162 0
23 63 26 28 68 30 69 -161 0
23 63 26 28 68 30 69 -163 0
23 63 26 28 68 30 69 -164 0
23 63 67 28 68 30 69 -162 0
23 63 67 28 68 30 69 -161 0
23 63 67 28 68 30 69 -163 0
23 63 67 28 68 30 69 -164 0
23 45 26 40 28 46 30 -152 0
23 45 26 40 28 46 30 -149 0
23 45 26 40 28 46 30 -151 0
23 45 26 40 28 46 30 -150 0
23 45 26 40 28 46 39 -152 0
23 45 26 40 28 46 39 -149 0
23 45 26 40 28 46 39 -151 0
23 45 26 40 28 46 39 -150 0
23 45 26 40 28 30 39 -152 0
23 45 26 40 28 30 39 -149 0
23 45 26 40 28 30 39 -151 0
23 45 26 40 28 30 39 -150 0
23 45 26 40 46 30 39 -152 0
23 45 26 40 46 30 39 -149 0
23 45 26 40 46 30 39 -151 0
23 45 26 40 46 30 39 -150 0
23 45 26 28 46 30 39 -152 0
23 45 26 28 46 30 39 -149 0
23 45 26 28 46 30 39 -151 0
23 45 26 28 46 30 39 -150 0
23 45 40 28 46 30 39 -152 0
23 45 40 28 46 30 39 -149 0
23 45 40 28 46 30 39 -151 0
23 45 40 28 46 30 39 -150 0
23 17 26 20 28 22 30 -116 0
23 17 26 20 28 22 30 -118 0
23 17 26 20 28 22 30 -115 0
23 17 26 20 28 22 30 -117 0
23 17 26 20 28 22 15 -116 0
23 17 26 20 28 22 15 -118 0
23 17 26 20 28 22 15 -115 0
23 17 26 20 28 22 15 -117 0
23 17 26 20 28 30 15 -116 0
23 17 26 20 28 30 15 -118 0
23 17 26 20 28 30 15 -115 0
23 17 26 20 28 30 15 -117 0
23 17 26 20 22 30 15 -116 0
23 17 26 20 22 30 15 -118 0
23 17 26 20 22 30 15 -115 0
23 17 26 20 22 30 15 -117 0
23 17 26 28 22 30 15 -116 0
23 17 26 28 22 30 15 -118 0
23 17 26 28 22 30 15 -115 0
23 17 26 28 22 30 15 -117 0
23 17 20 28 22 30 15 -116 0
23 17 20 28 22 30 15 -118 0
23 17 20 28 22 30 15 -115 0
23 17 20 28 22 30 15 -117 0
23 9 26 13 28 14 30 -86 0
23 9 26 13 28 14 30 -88 0
23 9 26 13 28 14 30 -85 0
23 9 26 13 28 14 30 -87 0
23 9 26 13 28 14 12 -86 0
23 9 26 13 28 14 12 -88 0
23 9 26 13 28 14 12 -85 0
23 9 26 13 28 14 12 -87 0
23 9 26 13 28 30 12 -86 0
23 9 26 13 28 30 12 -88 0
23 9 26 13 28 30 12 -85 0
23 9 26 13 28 30 12 -87 0
23 9 26 13 14 30 12 -86 0
23 9 26 13 14 30 12 -88 0
23 9 26 13 14 30 12 -85 0
23 9 26 13 14 30 12 -87 0
23 9 26 28 14 30 12 -86 0
23 9 26 28 14 30 12 -88 0
23 9 26 28 14 30 12 -85 0
23 9 26 28 14 30 12 -87 0
23 9 13 28 14 30 12 -86 0
23 9 13 28 14 30 12 -88 0
23 9 13 28 14 30 12 -85 0
23 9 13 28 14 30 12 -87 0
23 31 26 33 28 34 30 -145 0
23 31 26 33 28 34 30 -146 0
23 31 26 33 28 34 30 -147 0
23 31 26 33 28 34 30 -148 0
23 31 26 33 28 34 35 -145 0
23 31 26 33 28 34 35 -146 0
23 31 26 33 28 34 35 -147 0
23 31 26 33 28 34 35 -148 0
23 31 26 33 28 30 35 -145 0
23 31 26 33 28 30 35 -146 0
23 31 26 33 28 30 35 -147 0
23 31 26 33 28 30 35 -148 0
23 31 26 33 34 30 35 -145 0
23 31 26 33 34 30 35 -146 0
23 31 26 33 34 30 35 -147 0
23 31 26 33 34 30 35 -148 0
23 31 26 28 34 30 35 -145 0
23 31 26 28 34 30 35 -146 0
23 31 26 28 34 30 35 -147 0
23 31 26 28 34 30 35 -148 0
23 31 33 28 34 30 35 -145 0
23 31 33 28 34 30 35 -146 0
23 31 33 28 34 30 35 -147 0
23 31 33 28 34 30 35 -148 0
23 53 26 52 28 47 30 -156 0
23 53 26 52 28 47 30 -153 0
23 53 26 52 28 47 30 -154 0
23 53 26 52 28 47 30 -155 0
23 53 26 52 28 47 51 -156 0
23 53 26 52 28 47 51 -153 0
23 53 26 52 28 47 51 -154 0
23 53 26 52 28 47 51 -155 0
23 53 26 52 28 30 51 -156 0
23 53 26 52 28 30 51 -153 0
23 53 26 52 28 30 51 -154 0
23 53 26 52 28 30 51 -155 0
23 53 26 52 47 30 51 -156 0
23 53 26 52 47 30 51 -153 0
23 53 26 52 47 30 51 -154 0
23 53 26 52 47 30 51 -155 0
23 53 26 28 47 30 51 -156 0
23 53 26 28 47 30 51 -153 0
23 53 26 28 47 30 51 -154 0
23 53 26 28 47 30 51 -155 0
23 53 52 28 47 30 51 -156 0
23 53 52 28 47 30 51 -153 0
23 53 52 28 47 30 51 -154 0
23 53 52 28 47 30 51 -155 0
23 73 26 76 28 78 30 -166 0
23 73 26 76 28 78 30 -165 0
23 73 26 76 28 78 30 -168 0
23 73 26 76 28 78 30 -167 0
23 26 1 28 2 30 4 -24 0
23 26 1 28 2 30 4 -29 0
23 26 1 28 2 30 4 -27 0
23 26 1 28 2 30 4 -25 0
23 26 59 28 61 30 57 -158 0
23 26 59 28 61 30 57 -157 0
23 26 59 28 61 30 57 -160 0
23 26 59 28 61 30 57 -159 0
23 26 67 28 68 30 69 -162 0
23 26 67 28 68 30 69 -161 0
23 26 67 28 68 30 69 -163 0
23 26 67 28 68 30 69 -164 0
23 26 40 28 46 30 39 -152 0
23 26 40 28 46 30 39 -149 0
23 26 40 28 46 30 39 -151 0
23 26 40 28 46 30 39 -150 0
23 26 20 28 22 30 15 -116 0
23 26 20 28 22 30 15 -118 0
23 26 20 28 22 30 15 -115 0
23 26 20 28 22 30 15 -117 0
23 26 13 28 14 30 12 -86 0
23 26 13 28 14 30 12 -88 0
23 26 13 28 14 30 12 -85 0
23 26 13 28 14 30 12 -87 0
23 26 33 28 34 30 35 -145 0
23 26 33 28 34 30 35 -146 0
23 26 33 28 34 30 35 -147 0
23 26 33 28 34 30 35 -148 0
23 26 52 28 47 30 51 -156 0
23 26 52 28 47 30 51 -153 0
23 26 52 28 47 30 51 -154 0
23 26 52 28 47 30 51 -155 0
5 58 1 59 2 61 4 -56 0
5 58 1 59 2 61 4 -62 0
5 58 1 59 2 61 4 -60 0
5 58 1 59 2 61 4 -55 0
5 58 1 59 2 61 57 -56 0
5 58 1 59 2 61 57 -62 0
5 58 1 59 2 61 57 -60 0
5 58 1 59 2 61 57 -55 0
5 58 1 59 2 4 57 -56 0
5 58 1 59 2 4 57 -62 0
5 58 1 59 2 4 57 -60 0
5 58 1 59 2 4 57 -55 0
5 58 1 59 61 4 57 -56 0
5 58 1 59 61 4 57 -62 0
5 58 1 59 61 4 57 -60 0
5 58 1 59 61 4 57 -55 0
5 58 1 2 61 4 57 -56 0
5 58 1 2 61 4 57 -62 0
5 58 1 2 61 4 57 -60 0
5 58 1 2 61 4 57 -55 0
5 58 59 2 61 4 57 -56 0
5 58 59 2 61 4 57 -62 0
5 58 59 2 61 4 57 -60 0
5 58 59 2 61 4 57 -55 0
5 63 1 67 2 68 4 -70 0
5 63 1 67 2 68 4 -66 0
5 63 1 67 2 68 4 -64 0
5 63 1 67 2 68 4 -65 0
5 63 1 67 2 68 69 -70 0
5 63 1 67 2 68 69 -66 0
5 63 1 67 2 68 69 -64 0
5 63 1 67 2 68 69 -65 0
5 63 1 67 2 4 69 -70 0
5 63 1 67 2 4 69 -66 0
5 63 1 67 2 4 69 -64 0
5 63 1 67 2 4 69 -65 0
5 63 1 67 68 4 69 -70 0
5 63 1 67 68 4 69 -66 0
5 63 1 67 68 4 69 -64 0
5 63 1 67 68 4 69 -65 0
5 63 1 2 68 4 69 -70 0
5 63 1 2 68 4 69 -66 0
5 63 1 2 68 4 69 -64 0
5 63 1 2 68 4 69 -65 0
5 63 67 2 68 4 69 -70 0
5 63 67 2 68 4 69 -66 0
5 63 67 2 68 4 69 -64 0
5 63 67 2 68 4 69 -65 0
5 45 1 40 2 46 4 -42 0
5 45 1 40 2 46 4 -41 0
5 45 1 40 2 46 4 -44 0
5 45 1 40 2 46 4 -43 0
5 45 1 40 2 46 39 -42 0
5 45 1 40 2 46 39 -41 0
5 45 1 40 2 46 39 -44 0
5 45 1 40 2 46 39 -43 0
5 45 1 40 2 4 39 -42 0
5 45 1 40 2 4 39 -41 0
5 45 1 40 2 4 39 -44 0
5 45 1 40 2 4 39 -43 0
5 45 1 40 46 4 39 -42 0
5 45 1 40 46 4 39 -41 0
5 45 1 40 46 4 39 -44 0
5 45 1 40 46 4 39 -43 0
5 45 1 2 46 4 39 -42 0
5 45 1 2 46 4 39 -41 0
5 45 1 2 46 4 39 -44 0
5 45 1 2 46 4 39 -43 0
5 45 40 2 46 4 39 -42 0
5 45 40 2 46 4 39 -41 0
5 45 40 2 46 4 39 -44 0
5 45 40 2 46 4 39 -43 0
5 17 1 20 2 22 4 -21 0
5 17 1 20 2 22 4 -18 0
5 17 1 20 2 22 4 -19 0
5 17 1 20 2 22 4 -16 0
5 17 1 20 2 22 15 -21 0
5 17 1 20 2 22 15 -18 0
5 17 1 20 2 22 15 -19 0
5 17 1 20 2 22 15 -16 0
5 17 1 20 2 4 15 -21 0
5 17 1 20 2 4 15 -18 0
5 17 1 20 2 4 15 -19 0
5 17 1 20 2 4 15 -16 0
5 17 1 20 22 4 15 -21 0
5 17 1 20 22 4 15 -18 0
5 17 1 20 22 4 15 -19 0
5 17 1 20 22 4 15 -16 0
5 17 1 2 22 4 15 -21 0
5 17 1 2 22 4 15 -18 0
5 17 1 2 22 4 15 -19 0
5 17 1 2 22 4 15 -16 0
5 17 20 2 22 4 15 -21 0
5 17 20 2 22 4 15 -18 0
5 17 20 2 22 4 15 -19 0
5 17 20 2 22 4 15 -16 0
5 9 1 13 2 14 4 -7 0
5 9 1 13 2 14 4 -8 0
5 9 1 13 2 14 4 -11 0
5 9 1 13 2 14 4 -10 0
5 9 1 13 2 14 12 -7 0
5 9 1 13 2 14 12 -8 0
5 9 1 13 2 14 12 -11 0
5 9 1 13 2 14 12 -10 0
5 9 1 13 2 4 12 -7 0
5 9 1 13 2 4 12 -8 0
5 9 1 13 2 4 12 -11 0
5 9 1 13 2 4 12 -10 0
5 9 1 13 14 4 12 -7 0
5 9 1 13 14 4 12 -8 0
5 9 1 13 14 4 12 -11 0
5 9 1 13 14 4 12 -10 0
5 9 1 2 14 4 12 -7 0
5 9 1 2 14 4 12 -8 0
5 9 1 2 14 4 12 -11 0
5 9 1 2 14 4 12 -10 0
5 9 13 2 14 4 12 -7 0
5 9 13 2 14 4 12 -8 0
5 9 13 2 14 4 12 -11 0
5 9 13 2 14 4 12 -10 0
5 31 1 33 2 34 4 -36 0
5 31 1 33 2 34 4 -32 0
5 31 1 33 2 34 4 -38 0
5 31 1 33 2 34 4 -37 0
5 31 1 33 2 34 35 -36 0
5 31 1 33 2 34 35 -32 0
5 31 1 33 2 34 35 -38 0
5 31 1 33 2 34 35 -37 0
5 31 1 33 2 4 35 -36 0
5 31 1 33 2 4 35 -32 0
5 31 1 33 2 4 35 -38 0
5 31 1 33 2 4 35 -37 0
5 31 1 33 34 4 35 -36 0
5 31 1 33 34 4 35 -32 0
5 31 1 33 34 4 35 -38 0
5 31 1 33 34 4 35 -37 0
5 31 1 2 34 4 35 -36 0
5 31 1 2 34 4 35 -32 0
5 31 1 2 34 4 35 -38 0
5 31 1 2 34 4 35 -37 0
5 31 33 2 34 4 35 -36 0
5 31 33 2 34 4 35 -32 0
5 31 33 2 34 4 35 -38 0
5 31 33 2 34 4 35 -37 0
5 53 1 52 2 47 4 -50 0
5 53 1 52 2 47 4 -54 0
5 53 1 52 2 47 4 -48 0
5 53 1 52 2 47 4 -49 0
5 53 1 52 2 47 51 -50 0
5 53 1 52 2 47 51 -54 0
5 53 1 52 2 47 51 -48 0
5 53 1 52 2 47 51 -49 0
5 53 1 52 2 4 51 -50 0
5 53 1 52 2 4 51 -54 0
5 53 1 52 2 4 51 -48 0
5 53 1 52 2 4 51 -49 0
5 53 1 52 47 4 51 -50 0
5 53 1 52 47 4 51 -54 0
5 53 1 52 47 4 51 -48 0
5 53 1 52 47 4 51 -49 0
5 53 1 2 47 4 51 -50 0
5 53 1 2 47 4 51 -54 0
5 53 1 2 47 4 51 -48 0
5 53 1 2 47 4 51 -49 0
5 53 52 2 47 4 51 -50 0
5 53 52 2 47 4 51 -54 0
5 53 52 2 47 4 51 -48 0
5 53 52 2 47 4 51 -49 0
5 73 1 76 2 78 4 -75 0
5 73 1 76 2 78 4 -74 0
5 73 1 76 2 78 4 -72 0
5 73 1 76 2 78 4 -71 0
5 26 1 28 2 30 4 -24 0
5 26 1 28 2 30 4 -29 0
5 26 1 28 2 30 4 -27 0
5 26 1 28 2 30 4 -25 0
5 1 59 2 61 4 57 -56 0
5 1 59 2 61 4 57 -62 0
5 1 59 2 61 4 57 -60 0
5 1 59 2 61 4 57 -55 0
5 1 67 2 68 4 69 -70 0
5 1 67 2 68 4 69 -66 0
5 1 67 2 68 4 69 -64 0
5 1 67 2 68 4 69 -65 0
5 1 40 2 46 4 39 -42 0
5 1 40 2 46 4 39 -41 0
5 1 40 2 46 4 39 -44 0
5 1 40 2 46 4 39 -43 0
5 1 20 2 22 4 15 -21 0
5 1 20 2 22 4 15 -18 0
5 1 20 2 22 4 15 -19 0
5 1 20 2 22 4 15 -16 0
5 1 13 2 14 4 12 -7 0
5 1 13 2 14 4 12 -8 0
5 1 13 2 14 4 12 -11 0
5 1 13 2 14 4 12 -10 0
5 1 33 2 34 4 35 -36 0
5 1 33 2 34 4 35 -32 0
5 1 33 2 34 4 35 -38 0
5 1 33 2 34 4 35 -37 0
5 1 52 2 47 4 51 -50 0
5 1 52 2 47 4 51 -54 0
5 1 52 2 47 4 51 -48 0
5 1 52 2 47 4 51 -49 0
58 63 59 67 61 68 57 -227 0
58 63 59 67 61 68 57 -228 0
58 63 59 67 61 68 57 -225 0
58 63 59 67 61 68 57 -226 0
58 63 59 67 61 68 69 -227 0
58 63 59 67 61 68 69 -228 0
58 63 59 67 61 68 69 -225 0
58 63 59 67 61 68 69 -226 0
58 63 59 67 61 57 69 -227 0
58 63 59 67 61 57 69 -228 0
58 63 59 67 61 57 69 -225 0
58 63 59 67 61 57 69 -226 0
58 63 59 67 68 57 69 -227 0
58 63 59 67 68 57 69 -228 0
58 63 59 67 68 57 69 -225 0
58 63 59 67 68 57 69 -226 0
58 63 59 61 68 57 69 -227 0
58 63 59 61 68 57 69 -228 0
58 63 59 61 68 57 69 -225 0
58 63 59 61 68 57 69 -226 0
58 63 67 61 68 57 69 -227 0
58 63 67 61 68 57 69 -228 0
58 63 67 61 68 57 69 -225 0
58 63 67 61 68 57 69 -226 0
58 45 59 40 61 46 57 -198 0
58 45 59 40 61 46 57 -199 0
58 45 59 40 61 46 57 -200 0
58 45 59 40 61 46 57 -197 0
58 45 59 40 61 46 39 -198 0
58 45 59 40 61 46 39 -199 0
58 45 59 40 61 46 39 -200 0
58 45 59 40 61 46 39 -197 0
58 45 59 40 61 57 39 -198 0
58 45 59 40 61 57 39 -199 0
58 45 59 40 61 57 39 -200 0
58 45 59 40 61 57 39 -197 0
58 45 59 40 46 57 39 -198 0
58 45 59 40 46 57 39 -199 0
58 45 59 40 46 57 39 -200 0
58 45 59 40 46 57 39 -197 0
58 45 59 61 46 57 39 -198 0
58 45 59 61 46 57 39 -199 0
58 45 59 61 46 57 39 -200 0
58 45 59 61 46 57 39 -197 0
58 45 40 61 46 57 39 -198 0
58 45 40 61 46 57 39 -199 0
58 45 40 61 46 57 39 -200 0
58 45 40 61 46 57 39 -197 0
58 17 59 20 61 22 57 -133 0
58 17 59 20 61 22 57 -131 0
58 17 59 20 61 22 57 -134 0
58 17 59 20 61 22 57 -132 0
58 17 59 20 61 22 15 -133 0
58 17 59 20 61 22 15 -131 0
58 17 59 20 61 22 15 -134 0
58 17 59 20 61 22 15 -132 0
58 17 59 20 61 57 15 -133 0
58 17 59 20 61 57 15 -131 0
58 17 59 20 61 57 15 -134 0
58 17 59 20 61 57 15 -132 0
58 17 59 20 22 57 15 -133 0
58 17 59 20 22 57 15 -131 0
58 17 59 20 22 57 15 -134 0
58 17 59 20 22 57 15 -132 0
58 17 59 61 22 57 15 -133 0
58 17 59 61 22 57 15 -131 0
58 17 59 61 22 57 15 -134 0
58 17 59 61 22 57 15 -132 0
58 17 20 61 22 57 15 -133 0
58 17 20 61 22 57 15 -131 0
58 17 20 61 22 57 15 -134 0
58 17 20 61 22 57 15 -132 0
58 9 59 13 61 14 57 -102 0
58 9 59 13 61 14 57 -103 0
58 9 59 13 61 14 57 -104 0
58 9 59 13 61 14 57 -101 0
58 9 59 13 61 14 12 -102 0
58 9 59 13 61 14 12 -103 0
58 9 59 13 61 14 12 -104 0
58 9 59 13 61 14 12 -101 0
58 9 59 13 61 57 12 -102 0
58 9 59 13 61 57 12 -103 0
58 9 59 13 61 57 12 -104 0
58 9 59 13 61 57 12 -101 0
58 9 59 13 14 57 12 -102 0
58 9 59 13 14 57 12 -103 0
58 9 59 13 14 57 12 -104 0
58 9 59 13 14 57 12 -101 0
58 9 59 61 14 57 12 -102 0
58 9 59 61 14 57 12 -103 0
58 9 59 61 14 57 12 -104 0
58 9 59 61 14 57 12 -101 0
58 9 13 61 14 57 12 -102 0
58 9 13 61 14 57 12 -103 0
58 9 13 61 14 57 12 -104 0
58 9 13 61 14 57 12 -101 0
58 31 59 33 61 34 57 -179 0
58 31 59 33 61 34 57 -181 0
58 31 59 33 61 34 57 -182 0
58 31 59 33 61 34 57 -180 0
58 31 59 33 61 34 35 -179 0
58 31 59 33 61 34 35 -181 0
58 31 59 33 61 34 35 -182 0
58 31 59 33 61 34 35 -180 0
58 31 59 33 61 57 35 -179 0
58 31 59 33 61 57 35 -181 0
58 31 59 33 61 57 35 -182 0
58 31 59 33 61 57 35 -180 0
58 31 59 33 34 57 35 -179 0
58 31 59 33 34 57 35 -181 0
58 31 59 33 34 57 35 -182 0
58 31 59 33 34 57 35 -180 0
58 31 59 61 34 57 35 -179 0
58 31 59 61 34 57 35 -181 0
58 31 59 61 34 57 35 -182 0
58 31 59 61 34 57 35 -180 0
58 31 33 61 34 57 35 -179 0
58 31 33 61 34 57 35 -181 0
58 31 33 61 34 57 35 -182 0
58 31 33 61 34 57 35 -180 0
58 53 59 52 61 47 57 -211 0
58 53 59 52 61 47 57 -213 0
58 53 59 52 61 47 57 -212 0
58 53 59 52 61 47 57 -214 0
58 53 59 52 61 47 51 -211 0
58 53 59 52 61 47 51 -213 0
58 53 59 52 61 47 51 -212 0
58 53 59 52 61 47 51 -214 0
58 53 59 52 61 57 51 -211 0
58 53 59 52 61 57 51 -213 0
58 53 59 52 61 57 51 -212 0
58 53 59 52 61 57 51 -214 0
58 53 59 52 47 57 51 -211 0
58 53 59 52 47 57 51 -213 0
58 53 59 52 47 57 51 -212 0
58 53 59 52 47 57 51 -214 0
58 53 59 61 47 57 51 -211 0
58 53 59 61 47 57 51 -213 0
58 53 59 61 47 57 51 -212 0
58 53 59 61 47 57 51 -214 0
58 53 52 61 47 57 51 -211 0
58 53 52 61 47 57 51 -213 0
58 53 52 61 47 57 51 -212 0
58 53 52 61 47 57 51 -214 0
58 73 59 76 61 78 57 -230 0
58 73 59 76 61 78 57 -232 0
58 73 59 76 61 78 57 -229 0
58 73 59 76 61 78 57 -231 0
58 26 59 28 61 30 57 -158 0
58 26 59 28 61 30 57 -157 0
58 26 59 28 61 30 57 -160 0
58 26 59 28 61 30 57 -159 0
58 1 59 2 61 4 57 -56 0
58 1 59 2 61 4 57 -62 0
58 1 59 2 61 4 57 -60 0
58 1 59 2 61 4 57 -55 0
58 59 67 61 68 57 69 -227 0
58 59 67 61 68 57 69 -228 0
58 59 67 61 68 57 69 -225 0
58 59 67 61 68 57 69 -226 0
58 59 40 61 46 57 39 -198 0
58 59 40 61 46 57 39 -199 0
58 59 40 61 46 57 39 -200 0
58 59 40 61 46 57 39 -197 0
58 59 20 61 22 57 15 -133 0
58 59 20 61 22 57 15 -131 0
58 59 20 61 22 57 15 -134 0
58 59 20 61 22 57 15 -132 0
58 59 13 61 14 57 12 -102 0
58 59 13 61 14 57 12 -103 0
58 59 13 61 14 57 12 -104 0
58 59 13 61 14 57 12 -101 0
58 59 33 61 34 57 35 -179 0
58 59 33 61 34 57 35 -181 0
58 59 33 61 34 57 35 -182 0
58 59 33 61 34 57 35 -180 0
58 59 52 61 47 57 51 -211 0
58 59 52 61 47 57 51 -213 0
58 59 52 61 47 57 51 -212 0
58 59 52 61 47 57 51 -214 0
63 45 67 40 68 46 69 -202 0
63 45 67 40 68 46 69 -201 0
63 45 67 40 68 46 69 -204 0
63 45 67 40 68 46 69 -203 0
63 45 67 40 68 46 39 -202 0
63 45 67 40 68 46 39 -201 0
63 45 67 40 68 46 39 -204 0
63 45 67 40 68 46 39 -203 0
63 45 67 40 68 69 39 -202 0
63 45 67 40 68 69 39 -201 0
63 45 67 40 68 69 39 -204 0
63 45 67 40 68 69 39 -203 0
63 45 67 40 46 69 39 -202 0
63 45 67 40 46 69 39 -201 0
63 45 67 40 46 69 39 -204 0
63 45 67 40 46 69 39 -203 0
63 45 67 68 46 69 39 -202 0
63 45 67 68 46 69 39 -201 0
63 45 67 68 46 69 39 -204 0
63 45 67 68 46 69 39 -203 0
63 45 40 68 46 69 39 -202 0
63 45 40 68 46 69 39 -201 0
63 45 40 68 46 69 39 -204 0
63 45 40 68 46 69 39 -203 0
63 17 67 20 68 22 69 -135 0
63 17 67 20 68 22 69 -137 0
63 17 67 20 68 22 69 -136 0
63 17 67 20 68 22 69 -138 0
63 17 67 20 68 22 15 -135 0
63 17 67 20 68 22 15 -137 0
63 17 67 20 68 22 15 -136 0
63 17 67 20 68 22 15 -138 0
63 17 67 20 68 69 15 -135 0
63 17 67 20 68 69 15 -137 0
63 17 67 20 68 69 15 -136 0
63 17 67 20 68 69 15 -138 0
63 17 67 20 22 69 15 -135 0
63 17 67 20 22 69 15 -137 0
63 17 67 20 22 69 15 -136 0
63 17 67 20 22 69 15 -138 0
63 17 67 68 22 69 15 -135 0
63 17 67 68 22 69 15 -137 0
63 17 67 68 22 69 15 -136 0
63 17 67 68 22 69 15 -138 0
63 17 20 68 22 69 15 -135 0
63 17 20 68 22 69 15 -137 0
63 17 20 68 22 69 15 -136 0
63 17 20 68 22 69 15 -138 0
63 9 67 13 68 14 69 -108 0
63 9 67 13 68 14 69 -105 0
63 9 67 13 68 14 69 -107 0
63 9 67 13 68 14 69 -106 0
63 9 67 13 68 14 12 -108 0
63 9 67 13 68 14 12 -105 0
63 9 67 13 68 14 12 -107 0
63 9 67 13 68 14 12 -106 0
63 9 67 13 68 69 12 -108 0
63 9 67 13 68 69 12 -105 0
63 9 67 13 68 69 12 -107 0
63 9 67 13 68 69 12 -106 0
63 9 67 13 14 69 12 -108 0
63 9 67 13 14 69 12 -105 0
63 9 67 13 14 69 12 -107 0
63 9 67 13 14 69 12 -106 0
63 9 67 68 14 69 12 -108 0
63 9 67 68 14 69 12 -105 0
63 9 67 68 14 69 12 -107 0
63 9 67 68 14 69 12 -106 0
63 9 13 68 14 69 12 -108 0
63 9 13 68 14 69 12 -105 0
63 9 13 68 14 69 12 -107 0
63 9 13 68 14 69 12 -106 0
63 31 67 33 68 34 69 -185 0
63 31 67 33 68 34 69 -184 0
63 31 67 33 68 34 69 -183 0
63 31 67 33 68 34 69 -186 0
63 31 67 33 68 34 35 -185 0
63 31 67 33 68 34 35 -184 0
63 31 67 33 68 34 35 -183 0
63 31 67 33 68 34 35 -186 0
63 31 67 33 68 69 35 -185 0
63 31 67 33 68 69 35 -184 0
63 31 67 33 68 69 35 -183 0
63 31 67 33 68 69 35 -186 0
63 31 67 33 34 69 35 -185 0
63 31 67 33 34 69 35 -184 0
63 31 67 33 34 69 35 -183 0
63 31 67 33 34 69 35 -186 0
63 31 67 68 34 69 35 -185 0
63 31 67 68 34 69 35 -184 0
63 31 67 68 34 69 35 -183 0
63 31 67 68 34 69 35 -186 0
63 31 33 68 34 69 35 -185 0
63 31 33 68 34 69 35 -184 0
63 31 33 68 34 69 35 -183 0
63 31 33 68 34 69 35 -186 0
63 53 67 52 68 47 69 -217 0
63 53 67 52 68 47 69 -216 0
63 53 67 52 68 47 69 -215 0
63 53 67 52 68 47 69 -218 0
63 53 67 52 68 47 51 -217 0
63 53 67 52 68 47 51 -216 0
63 53 67 52 68 47 51 -215 0
63 53 67 52 68 47 51 -218 0
63 53 67 52 68 69 51 -217 0
63 53 67 52 68 69 51 -216 0
63 53 67 52 68 69 51 -215 0
63 53 67 52 68 69 51 -218 0
63 53 67 52 47 69 51 -217 0
63 53 67 52 47 69 51 -216 0
63 53 67 52 47 69 51 -215 0
63 53 67 52 47 69 51 -218 0
63 53 67 68 47 69 51 -217 0
63 53 67 68 47 69 51 -216 0
63 53 67 68 47 69 51 -215 0
63 53 67 68 47 69 51 -218 0
63 53 52 68 47 69 51 -217 0
63 53 52 68 47 69 51 -216 0
63 53 52 68 47 69 51 -215 0
63 53 52 68 47 69 51 -218 0
63 73 67 76 68 78 69 -236 0
63 73 67 76 68 78 69 -235 0
63 73 67 76 68 78 69 -237 0
63 73 67 76 68 78 69 -238 0
63 26 67 28 68 30 69 -162 0
63 26 67 28 68 30 69 -161 0
63 26 67 28 68 30 69 -163 0
63 26 67 28 68 30 69 -164 0
63 1 67 2 68 4 69 -70 0
63 1 67 2 68 4 69 -66 0
63 1 67 2 68 4 69 -64 0
63 1 67 2 68 4 69 -65 0
63 59 67 61 68 57 69 -227 0
63 59 67 61 68 57 69 -228 0
63 59 67 61 68 57 69 -225 0
63 59 67 61 68 57 69 -226 0
63 67 40 68 46 69 39 -202 0
63 67 40 68 46 69 39 -201 0
63 67 40 68 46 69 39 -204 0
63 67 40 68 46 69 39 -203 0
63 67 20 68 22 69 15 -135 0
63 67 20 68 22 69 15 -137 0
63 67 20 68 22 69 15 -136 0
63 67 20 68 22 69 15 -138 0
63 67 13 68 14 69 12 -108 0
63 67 13 68 14 69 12 -105 0
63 67 13 68 14 69 12 -107 0
63 67 13 68 14 69 12 -106 0
63 67 33 68 34 69 35 -185 0
63 67 33 68 34 69 35 -184 0
63 67 33 68 34 69 35 -183 0
63 67 33 68 34 69 35 -186 0
63 67 52 68 47 69 51 -217 0
63 67 52 68 47 69 51 -216 0
63 67 52 68 47 69 51 -215 0
63 67 52 68 47 69 51 -218 0
45 17 40 20 46 22 39 -126 0
45 17 40 20 46 22 39 -125 0
45 17 40 20 46 22 39 -123 0
45 17 40 20 46 22 39 -124 0
45 17 40 20 46 22 15 -126 0
45 17 40 20 46 22 15 -125 0
45 17 40 20 46 22 15 -123 0
45 17 40 20 46 22 15 -124 0
45 17 40 20 46 39 15 -126 0
45 17 40 20 46 39 15 -125 0
45 17 40 20 46 39 15 -123 0
45 17 40 20 46 39 15 -124 0
45 17 40 20 22 39 15 -126 0
45 17 40 20 22 39 15 -125 0
45 17 40 20 22 39 15 -123 0
45 17 40 20 22 39 15 -124 0
45 17 40 46 22 39 15 -126 0
45 17 40 46 22 39 15 -125 0
45 17 40 46 22 39 15 -123 0
45 17 40 46 22 39 15 -124 0
45 17 20 46 22 39 15 -126 0
45 17 20 46 22 39 15 -125 0
45 17 20 46 22 39 15 -123 0
45 17 20 46 22 39 15 -124 0
45 9 40 13 46 14 39 -93 0
45 9 40 13 46 14 39 -96 0
45 9 40 13 46 14 39 -95 0
45 9 40 13 46 14 39 -94 0
45 9 40 13 46 14 12 -93 0
45 9 40 13 46 14 12 -96 0
45 9 40 13 46 14 12 -95 0
45 9 40 13 46 14 12 -94 0
45 9 40 13 46 39 12 -93 0
45 9 40 13 46 39 12 -96 0
45 9 40 13 46 39 12 -95 0
45 9 40 13 46 39 12 -94 0
45 9 40 13 14 39 12 -93 0
45 9 40 13 14 39 12 -96 0
45 9 40 13 14 39 12 -95 0
45 9 40 13 14 39 12 -94 0
45 9 40 46 14 39 12 -93 0
45 9 40 46 14 39 12 -96 0
45 9 40 46 14 39 12 -95 0
45 9 40 46 14 39 12 -94 0
45 9 13 46 14 39 12 -93 0
45 9 13 46 14 39 12 -96 0
45 9 13 46 14 39 12 -95 0
45 9 13 46 14 39 12 -94 0
45 31 40 33 46 34 39 -173 0
45 31 40 33 46 34 39 -174 0
45 31 40 33 46 34 39 -171 0
45 31 40 33 46 34 39 -172 0
45 31 40 33 46 34 35 -173 0
45 31 40 33 46 34 35 -174 0
45 31 40 33 46 34 35 -171 0
45 31 40 33 46 34 35 -172 0
45 31 40 33 46 39 35 -173 0
45 31 40 33 46 39 35 -174 0
45 31 40 33 46 39 35 -171 0
45 31 40 33 46 39 35 -172 0
45 31 40 33 34 39 35 -173 0
45 31 40 33 34 39 35 -174 0
45 31 40 33 34 39 35 -171 0
45 31 40 33 34 39 35 -172 0
45 31 40 46 34 39 35 -173 0
45 31 40 46 34 39 35 -174 0
45 31 40 46 34 39 35 -171 0
45 31 40 46 34 39 35 -172 0
45 31 33 46 34 39 35 -173 0
45 31 33 46 34 39 35 -174 0
45 31 33 46 34 39 35 -171 0
45 31 33 46 34 39 35 -172 0
45 53 40 52 46 47 39 -193 0
45 53 40 52 46 47 39 -194 0
45 53 40 52 46 47 39 -196 0
45 53 40 52 46 47 39 -195 0
45 53 40 52 46 47 51 -193 0
45 53 40 52 46 47 51 -194 0
45 53 40 52 46 47 51 -196 0
45 53 40 52 46 47 51 -195 0
45 53 40 52 46 39 51 -193 0
45 53 40 52 46 39 51 -194 0
45 53 40 52 46 39 51 -196 0
45 53 40 52 46 39 51 -195 0
45 53 40 52 47 39 51 -193 0
45 53 40 52 47 39 51 -194 0
45 53 40 52 47 39 51 -196 0
45 53 40 52 47 39 51 -195 0
45 53 40 46 47 39 51 -193 0
45 53 40 46 47 39 51 -194 0
45 53 40 46 47 39 51 -196 0
45 53 40 46 47 39 51 -195 0
45 53 52 46 47 39 51 -193 0
45 53 52 46 47 39 51 -194 0
45 53 52 46 47 39 51 -196 0
45 53 52 46 47 39 51 -195 0
45 73 40 76 46 78 39 -206 0
45 73 40 76 46 78 39 -205 0
45 73 40 76 46 78 39 -207 0
45 73 40 76 46 78 39 -208 0
45 26 40 28 46 30 39 -152 0
45 26 40 28 46 30 39 -149 0
45 26 40 28 46 30 39 -151 0
45 26 40 28 46 30 39 -150 0
45 1 40 2 46 4 39 -42 0
45 1 40 2 46 4 39 -41 0
45 1 40 2 46 4 39 -44 0
45 1 40 2 46 4 39 -43 0
45 59 40 61 46 57 39 -198 0
45 59 40 61 46 57 39 -199 0
45 59 40 61 46 57 39 -200 0
45 59 40 61 46 57 39 -197 0
45 67 40 68 46 69 39 -202 0
45 67 40 68 46 69 39 -201 0
45 67 40 68 46 69 39 -204 0
45 67 40 68 46 69 39 -203 0
45 40 20 46 22 39 15 -126 0
45 40 20 46 22 39 15 -125 0
45 40 20 46 22 39 15 -123 0
45 40 20 46 22 39 15 -124 0
45 40 13 46 14 39 12 -93 0
45 40 13 46 14 39 12 -96 0
45 40 13 46 14 39 12 -95 0
45 40 13 46 14 39 12 -94 0
45 40 33 46 34 39 35 -173 0
45 40 33 46 34 39 35 -174 0
45 40 33 46 34 39 35 -171 0
45 40 33 46 34 39 35 -172 0
45 40 52 46 47 39 51 -193 0
45 40 52 46 47 39 51 -194 0
45 40 52 46 47 39 51 -196 0
45 40 52 46 47 39 51 -195 0
17 9 20 13 22 14 15 -81 0
17 9 20 13 22 14 15 -82 0
17 9 20 13 22 14 15 -84 0
17 9 20 13 22 14 15 -83 0
17 9 20 13 22 14 12 -81 0
17 9 20 13 22 14 12 -82 0
17 9 20 13 22 14 12 -84 0
17 9 20 13 22 14 12 -83 0
17 9 20 13 22 15 12 -81 0
17 9 20 13 22 15 12 -82 0
17 9 20 13 22 15 12 -84 0
17 9 20 13 22 15 12 -83 0
17 9 20 13 14 15 12 -81 0
17 9 20 13 14 15 12 -82 0
17 9 20 13 14 15 12 -84 0
17 9 20 13 14 15 12 -83 0
17 9 20 22 14 15 12 -81 0
17 9 20 22 14 15 12 -82 0
17 9 20 22 14 15 12 -84 0
17 9 20 22 14 15 12 -83 0
17 9 13 22 14 15 12 -81 0
17 9 13 22 14 15 12 -82 0
17 9 13 22 14 15 12 -84 0
17 9 13 22 14 15 12 -83 0
17 31 20 33 22 34 15 -121 0
17 31 20 33 22 34 15 -120 0
17 31 20 33 22 34 15 -119 0
17 31 20 33 22 34 15 -122 0
17 31 20 33 22 34 35 -121 0
17 31 20 33 22 34 35 -120 0
17 31 20 33 22 34 35 -119 0
17 31 20 33 22 34 35 -122 0
17 31 20 33 22 15 35 -121 0
17 31 20 33 22 15 35 -120 0
17 31 20 33 22 15 35 -119 0
17 31 20 33 22 15 35 -122 0
17 31 20 33 34 15 35 -121 0
17 31 20 33 34 15 35 -120 0
17 31 20 33 34 15 35 -119 0
17 31 20 33 34 15 35 -122 0
17 31 20 22 34 15 35 -121 0
17 31 20 22 34 15 35 -120 0
17 31 20 22 34 15 35 -119 0
17 31 20 22 34 15 35 -122 0
17 31 33 22 34 15 35 -121 0
17 31 33 22 34 15 35 -120 0
17 31 33 22 34 15 35 -119 0
17 31 33 22 34 15 35 -122 0
17 53 20 52 22 47 15 -127 0
17 53 20 52 22 47 15 -128 0
17 53 20 52 22 47 15 -129 0
17 53 20 52 22 47 15 -130 0
17 53 20 52 22 47 51 -127 0
17 53 20 52 22 47 51 -128 0
17 53 20 52 22 47 51 -129 0
17 53 20 52 22 47 51 -130 0
17 53 20 52 22 15 51 -127 0
17 53 20 52 22 15 51 -128 0
17 53 20 52 22 15 51 -129 0
17 53 20 52 22 15 51 -130 0
17 53 20 52 47 15 51 -127 0
17 53 20 52 47 15 51 -128 0
17 53 20 52 47 15 51 -129 0
17 53 20 52 47 15 51 -130 0
17 53 20 22 47 15 51 -127 0
17 53 20 22 47 15 51 -128 0
17 53 20 22 47 15 51 -129 0
17 53 20 22 47 15 51 -130 0
17 53 52 22 47 15 51 -127 0
17 53 52 22 47 15 51 -128 0
17 53 52 22 47 15 51 -129 0
17 53 52 22 47 15 51 -130 0
17 73 20 76 22 78 15 -142 0
17 73 20 76 22 78 15 -140 0
17 73 20 76 22 78 15 -139 0
17 73 20 76 22 78 15 -141 0
17 26 20 28 22 30 15 -116 0
17 26 20 28 22 30 15 -118 0
17 26 20 28 22 30 15 -115 0
17 26 20 28 22 30 15 -117 0
17 1 20 2 22 4 15 -21 0
17 1 20 2 22 4 15 -18 0
17 1 20 2 22 4 15 -19 0
17 1 20 2 22 4 15 -16 0
17 59 20 61 22 57 15 -133 0
17 59 20 61 22 57 15 -131 0
17 59 20 61 22 57 15 -134 0
17 59 20 61 22 57 15 -132 0
17 67 20 68 22 69 15 -135 0
17 67 20 68 22 69 15 -137 0
17 67 20 68 22 69 15 -136 0
17 67 20 68 22 69 15 -138 0
17 40 20 46 22 39 15 -126 0
17 40 20 46 22 39 15 -125 0
17 40 20 46 22 39 15 -123 0
17 40 20 46 22 39 15 -124 0
17 20 13 22 14 15 12 -81 0
17 20 13 22 14 15 12 -82 0
17 20 13 22 14 15 12 -84 0
17 20 13 22 14 15 12 -83 0
17 20 33 22 34 15 35 -121 0
17 20 33 22 34 15 35 -120 0
17 20 33 22 34 15 35 -119 0
17 20 33 22 34 15 35 -122 0
17 20 52 22 47 15 51 -127 0
17 20 52 22 47 15 51 -128 0
17 20 52 22 47 15 51 -129 0
17 20 52 22 47 15 51 -130 0
9 31 13 33 14 34 12 -91 0
9 31 13 33 14 34 12 -90 0
9 31 13 33 14 34 12 -89 0
9 31 13 33 14 34 12 -92 0
9 31 13 33 14 34 35 -91 0
9 31 13 33 14 34 35 -90 0
9 31 13 33 14 34 35 -89 0
9 31 13 33 14 34 35 -92 0
9 31 13 33 14 12 35 -91 0
9 31 13 33 14 12 35 -90 0
9 31 13 33 14 12 35 -89 0
9 31 13 33 14 12 35 -92 0
9 31 13 33 34 12 35 -91 0
9 31 13 33 34 12 35 -90 0
9 31 13 33 34 12 35 -89 0
9 31 13 33 34 12 35 -92 0
9 31 13 14 34 12 35 -91 0
9 31 13 14 34 12 35 -90 0
9 31 13 14 34 12 35 -89 0
9 31 13 14 34 12 35 -92 0
9 31 33 14 34 12 35 -91 0
9 31 33 14 34 12 35 -90 0
9 31 33 14 34 12 35 -89 0
9 31 33 14 34 12 35 -92 0
9 53 13 52 14 47 12 -97 0
9 53 13 52 14 47 12 -98 0
9 53 13 52 14 47 12 -100 0
9 53 13 52 14 47 12 -99 0
9 53 13 52 14 47 51 -97 0
9 53 13 52 14 47 51 -98 0
9 53 13 52 14 47 51 -100 0
9 53 13 52 14 47 51 -99 0
9 53 13 52 14 12 51 -97 0
9 53 13 52 14 12 51 -98 0
9 53 13 52 14 12 51 -100 0
9 53 13 52 14 12 51 -99 0
9 53 13 52 47 12 51 -97 0
9 53 13 52 47 12 51 -98 0
9 53 13 52 47 12 51 -100 0
9 53 13 52 47 12 51 -99 0
9 53 13 14 47 12 51 -97 0
9 53 13 14 47 12 51 -98 0
9 53 13 14 47 12 51 -100 0
9 53 13 14 47 12 51 -99 0
9 53 52 14 47 12 51 -97 0
9 53 52 14 47 12 51 -98 0
9 53 52 14 47 12 51 -100 0
9 53 52 14 47 12 51 -99 0
9 73 13 76 14 78 12 -110 0
9 73 13 76 14 78 12 -109 0
9 73 13 76 14 78 12 -112 0
9 73 13 76 14 78 12 -111 0
9 26 13 28 14 30 12 -86 0
9 26 13 28 14 30 12 -88 0
9 26 13 28 14 30 12 -85 0
9 26 13 28 14 30 12 -87 0
9 1 13 2 14 4 12 -7 0
9 1 13 2 14 4 12 -8 0
9 1 13 2 14 4 12 -11 0
9 1 13 2 14 4 12 -10 0
9 59 13 61 14 57 12 -102 0
9 59 13 61 14 57 12 -103 0
9 59 13 61 14 57 12 -104 0
9 59 13 61 14 57 12 -101 0
9 67 13 68 14 69 12 -108 0
9 67 13 68 14 69 12 -105 0
9 67 13 68 14 69 12 -107 0
9 67 13 68 14 69 12 -106 0
9 40 13 46 14 39 12 -93 0
9 40 13 46 14 39 12 -96 0
9 40 13 46 14 39 12 -95 0
9 40 13 46 14 39 12 -94 0
9 20 13 22 14 15 12 -81 0
9 20 13 22 14 15 12 -82 0
9 20 13 22 14 15 12 -84 0
9 20 13 22 14 15 12 -83 0
9 13 33 14 34 12 35 -91 0
9 13 33 14 34 12 35 -90 0
9 13 33 14 34 12 35 -89 0
9 13 33 14 34 12 35 -92 0
9 13 52 14 47 12 51 -97 0
9 13 52 14 47 12 51 -98 0
9 13 52 14 47 12 51 -100 0
9 13 52 14 47 12 51 -99 0
31 53 33 52 34 47 35 -177 0
31 53 33 52 34 47 35 -176 0
31 53 33 52 34 47 35 -178 0
31 53 33 52 34 47 35 -175 0
31 53 33 52 34 47 51 -177 0
31 53 33 52 34 47 51 -176 0
31 53 33 52 34 47 51 -178 0
31 53 33 52 34 47 51 -175 0
31 53 33 52 34 35 51 -177 0
31 53 33 52 34 35 51 -176 0
31 53 33 52 34 35 51 -178 0
31 53 33 52 34 35 51 -175 0
31 53 33 52 47 35 51 -177 0
31 53 33 52 47 35 51 -176 0
31 53 33 52 47 35 51 -178 0
31 53 33 52 47 35 51 -175 0
31 53 33 34 47 35 51 -177 0
31 53 33 34 47 35 51 -176 0
31 53 33 34 47 35 51 -178 0
31 53 33 34 47 35 51 -175 0
31 53 52 34 47 35 51 -177 0
31 53 52 34 47 35 51 -176 0
31 53 52 34 47 35 51 -178 0
31 53 52 34 47 35 51 -175 0
31 73 33 76 34 78 35 -190 0
31 73 33 76 34 78 35 -187 0
31 73 33 76 34 78 35 -189 0
31 73 33 76 34 78 35 -188 0
31 26 33 28 34 30 35 -145 0
31 26 33 28 34 30 35 -146 0
31 26 33 28 34 30 35 -147 0
31 26 33 28 34 30 35 -148 0
31 1 33 2 34 4 35 -36 0
31 1 33 2 34 4 35 -32 0
31 1 33 2 34 4 35 -38 0
31 1 33 2 34 4 35 -37 0
31 59 33 61 34 57 35 -179 0
31 59 33 61 34 57 35 -181 0
31 59 33 61 34 57 35 -182 0
31 59 33 61 34 57 35 -180 0
31 67 33 68 34 69 35 -185 0
31 67 33 68 34 69 35 -184 0
31 67 33 68 34 69 35 -183 0
31 67 33 68 34 69 35 -186 0
31 40 33 46 34 39 35 -173 0
31 40 33 46 34 39 35 -174 0
31 40 33 46 34 39 35 -171 0
31 40 33 46 34 39 35 -172 0
31 20 33 22 34 15 35 -121 0
31 20 33 22 34 15 35 -120 0
31 20 33 22 34 15 35 -119 0
31 20 33 22 34 15 35 -122 0
31 13 33 14 34 12 35 -91 0
31 13 33 14 34 12 35 -90 0
31 13 33 14 34 12 35 -89 0
31 13 33 14 34 12 35 -92 0
31 33 52 34 47 35 51 -177 0
31 33 52 34 47 35 51 -176 0
31 33 52 34 47 35 51 -178 0
31 33 52 34 47 35 51 -175 0
53 73 52 76 47 78 51 -221 0
53 73 52 76 47 78 51 -219 0
53 73 52 76 47 78 51 -222 0
53 73 52 76 47 78 51 -220 0
53 26 52 28 47 30 51 -156 0
53 26 52 28 47 30 51 -153 0
53 26 52 28 47 30 51 -154 0
53 26 52 28 47 30 51 -155 0
53 1 52 2 47 4 51 -50 0
53 1 52 2 47 4 51 -54 0
53 1 52 2 47 4 51 -48 0
53 1 52 2 47 4 51 -49 0
53 59 52 61 47 57 51 -211 0
53 59 52 61 47 57 51 -213 0
53 59 52 61 47 57 51 -212 0
53 59 52 61 47 57 51 -214 0
53 67 52 68 47 69 51 -217 0
53 67 52 68 47 69 51 -216 0
53 67 52 68 47 69 51 -215 0
53 67 52 68 47 69 51 -218 0
53 40 52 46 47 39 51 -193 0
53 40 52 46 47 39 51 -194 0
53 40 52 46 47 39 51 -196 0
53 40 52 46 47 39 51 -195 0
53 20 52 22 47 15 51 -127 0
53 20 52 22 47 15 51 -128 0
53 20 52 22 47 15 51 -129 0
53 20 52 22 47 15 51 -130 0
53 13 52 14 47 12 51 -97 0
53 13 52 14 47 12 51 -98 0
53 13 52 14 47 12 51 -100 0
53 13 52 14 47 12 51 -99 0
53 33 52 34 47 35 51 -177 0
53 33 52 34 47 35 51 -176 0
53 33 52 34 47 35 51 -178 0
53 33 52 34 47 35 51 -175 0
77 23 73 26 76 28 78 30 -166 0
77 23 73 26 76 28 78 30 -165 0
77 23 73 26 76 28 78 30 -168 0
77 23 73 26 76 28 78 30 -167 0
77 5 73 1 76 2 78 4 -75 0
77 5 73 1 76 2 78 4 -74 0
77 5 73 1 76 2 78 4 -72 0
77 5 73 1 76 2 78 4 -71 0
77 58 73 59 76 61 78 57 -230 0
77 58 73 59 76 61 78 57 -232 0
77 58 73 59 76 61 78 57 -229 0
77 58 73 59 76 61 78 57 -231 0
77 63 73 67 76 68 78 69 -236 0
77 63 73 67 76 68 78 69 -235 0
77 63 73 67 76 68 78 69 -237 0
77 63 73 67 76 68 78 69 -238 0
77 45 73 40 76 46 78 39 -206 0
77 45 73 40 76 46 78 39 -205 0
77 45 73 40 76 46 78 39 -207 0
77 45 73 40 76 46 78 39 -208 0
77 17 73 20 76 22 78 15 -142 0
77 17 73 20 76 22 78 15 -140 0
77 17 73 20 76 22 78 15 -139 0
77 17 73 20 76 22 78 15 -141 0
77 9 73 13 76 14 78 12 -110 0
77 9 73 13 76 14 78 12 -109 0
77 9 73 13 76 14 78 12 -112 0
77 9 73 13 76 14 78 12 -111 0
77 31 73 33 76 34 78 35 -190 0
77 31 73 33 76 34 78 35 -187 0
77 31 73 33 76 34 78 35 -189 0
77 31 73 33 76 34 78 35 -188 0
77 53 73 52 76 47 78 51 -221 0
77 53 73 52 76 47 78 51 -219 0
77 53 73 52 76 47 78 51 -222 0
77 53 73 52 76 47 78 51 -220 0
23 5 26 1 28 2 30 4 -24 0
23 5 26 1 28 2 30 4 -29 0
23 5 26 1 28 2 30 4 -27 0
23 5 26 1 28 2 30 4 -25 0
23 58 26 59 28 61 30 57 -158 0
23 58 26 59 28 61 30 57 -157 0
23 58 26 59 28 61 30 57 -160 0
23 58 26 59 28 61 30 57 -159 0
23 63 26 67 28 68 30 69 -162 0
23 63 26 67 28 68 30 69 -161 0
23 63 26 67 28 68 30 69 -163 0
23 63 26 67 28 68 30 69 -164 0
23 45 26 40 28 46 30 39 -152 0
23 45 26 40 28 46 30 39 -149 0
23 45 26 40 28 46 30 39 -151 0
23 45 26 40 28 46 30 39 -150 0
23 17 26 20 28 22 30 15 -116 0
23 17 26 20 28 22 30 15 -118 0
23 17 26 20 28 22 30 15 -115 0
23 17 26 20 28 22 30 15 -117 0
23 9 26 13 28 14 30 12 -86 0
23 9 26 13 28 14 30 12 -88 0
23 9 26 13 28 14 30 12 -85 0
23 9 26 13 28 14 30 12 -87 0
23 31 26 33 28 34 30 35 -145 0
23 31 26 33 28 34 30 35 -146 0
23 31 26 33 28 34 30 35 -147 0
23 31 26 33 28 34 30 35 -148 0
23 53 26 52 28 47 30 51 -156 0
23 53 26 52 28 47 30 51 -153 0
23 53 26 52 28 47 30 51 -154 0
23 53 26 52 28 47 30 51 -155 0
5 58 1 59 2 61 4 57 -56 0
5 58 1 59 2 61 4 57 -62 0
5 58 1 59 2 61 4 57 -60 0
5 58 1 59 2 61 4 57 -55 0
5 63 1 67 2 68 4 69 -70 0
5 63 1 67 2 68 4 69 -66 0
5 63 1 67 2 68 4 69 -64 0
5 63 1 67 2 68 4 69 -65 0
5 45 1 40 2 46 4 39 -42 0
5 45 1 40 2 46 4 39 -41 0
5 45 1 40 2 46 4 39 -44 0
5 45 1 40 2 46 4 39 -43 0
5 17 1 20 2 22 4 15 -21 0
5 17 1 20 2 22 4 15 -18 0
5 17 1 20 2 22 4 15 -19 0
5 17 1 20 2 22 4 15 -16 0
5 9 1 13 2 14 4 12 -7 0
5 9 1 13 2 14 4 12 -8 0
5 9 1 13 2 14 4 12 -11 0
5 9 1 13 2 14 4 12 -10 0
5 31 1 33 2 34 4 35 -36 0
5 31 1 33 2 34 4 35 -32 0
5 31 1 33 2 34 4 35 -38 0
5 31 1 33 2 34 4 35 -37 0
5 53 1 52 2 47 4 51 -50 0
5 53 1 52 2 47 4 51 -54 0
5 53 1 52 2 47 4 51 -48 0
5 53 1 52 2 47 4 51 -49 0
58 63 59 67 61 68 57 69 -227 0
58 63 59 67 61 68 57 69 -228 0
58 63 59 67 61 68 57 69 -225 0
58 63 59 67 61 68 57 69 -226 0
58 45 59 40 61 46 57 39 -198 0
58 45 59 40 61 46 57 39 -199 0
58 45 59 40 61 46 57 39 -200 0
58 45 59 40 61 46 57 39 -197 0
58 17 59 20 61 22 57 15 -133 0
58 17 59 20 61 22 57 15 -131 0
58 17 59 20 61 22 57 15 -134 0
58 17 59 20 61 22 57 15 -132 0
58 9 59 13 61 14 57 12 -102 0
58 9 59 13 61 14 57 12 -103 0
58 9 59 13 61 14 57 12 -104 0
58 9 59 13 61 14 57 12 -101 0
58 31 59 33 61 34 57 35 -179 0
58 31 59 33 61 34 57 35 -181 0
58 31 59 33 61 34 57 35 -182 0
58 31 59 33 61 34 57 35 -180 0
58 53 59 52 61 47 57 51 -211 0
58 53 59 52 61 47 57 51 -213 0
58 53 59 52 61 47 57 51 -212 0
58 53 59 52 61 47 57 51 -214 0
63 45 67 40 68 46 69 39 -202 0
63 45 67 40 68 46 69 39 -201 0
63 45 67 40 68 46 69 39 -204 0
63 45 67 40 68 46 69 39 -203 0
63 17 67 20 68 22 69 15 -135 0
63 17 67 20 68 22 69 15 -137 0
63 17 67 20 68 22 69 15 -136 0
63 17 67 20 68 22 69 15 -138 0
63 9 67 13 68 14 69 12 -108 0
63 9 67 13 68 14 69 12 -105 0
63 9 67 13 68 14 69 12 -107 0
63 9 67 13 68 14 69 12 -106 0
63 31 67 33 68 34 69 35 -185 0
63 31 67 33 68 34 69 35 -184 0
63 31 67 33 68 34 69 35 -183 0
63 31 67 33 68 34 69 35 -186 0
63 53 67 52 68 47 69 51 -217 0
63 53 67 52 68 47 69 51 -216 0
63 53 67 52 68 47 69 51 -215 0
63 53 67 52 68 47 69 51 -218 0
45 17 40 20 46 22 39 15 -126 0
45 17 40 20 46 22 39 15 -125 0
45 17 40 20 46 22 39 15 -123 0
45 17 40 20 46 22 39 15 -124 0
45 9 40 13 46 14 39 12 -93 0
45 9 40 13 46 14 39 12 -96 0
45 9 40 13 46 14 39 12 -95 0
45 9 40 13 46 14 39 12 -94 0
45 31 40 33 46 34 39 35 -173 0
45 31 40 33 46 34 39 35 -174 0
45 31 40 33 46 34 39 35 -171 0
45 31 40 33 46 34 39 35 -172 0
45 53 40 52 46 47 39 51 -193 0
45 53 40 52 46 47 39 51 -194 0
45 53 40 52 46 47 39 51 -196 0
45 53 40 52 46 47 39 51 -195 0
17 9 20 13 22 14 15 12 -81 0
17 9 20 13 22 14 15 12 -82 0
17 9 20 13 22 14 15 12 -84 0
17 9 20 13 22 14 15 12 -83 0
17 31 20 33 22 34 15 35 -121 0
17 31 20 33 22 34 15 35 -120 0
17 31 20 33 22 34 15 35 -119 0
17 31 20 33 22 34 15 35 -122 0
17 53 20 52 22 47 15 51 -127 0
17 53 20 52 22 47 15 51 -128 0
17 53 20 52 22 47 15 51 -129 0
17 53 20 52 22 47 15 51 -130 0
9 31 13 33 14 34 12 35 -91 0
9 31 13 33 14 34 12 35 -90 0
9 31 13 33 14 34 12 35 -89 0
9 31 13 33 14 34 12 35 -92 0
9 53 13 52 14 47 12 51 -97 0
9 53 13 52 14 47 12 51 -98 0
9 53 13 52 14 47 12 51 -100 0
9 53 13 52 14 47 12 51 -99 0
31 53 33 52 34 47 35 51 -177 0
31 53 33 52 34 47 35 51 -176 0
31 53 33 52 34 47 35 51 -178 0
31 53 33 52 34 47 35 51 -175 0
240 166 75 230 236 206 142 110 190 221 0
165 143 24 158 162 152 116 86 145 156 0
74 29 3 56 70 42 21 7 36 50 0
232 157 62 224 227 198 133 102 179 211 0
235 161 66 228 234 202 135 108 185 217 0
205 149 41 199 201 192 126 93 173 193 0
140 118 18 131 137 125 114 81 121 127 0
109 88 8 103 105 96 82 79 91 97 0
187 146 32 181 184 174 120 90 169 177 0
219 153 54 213 216 194 128 98 176 209 0
239 168 72 229 237 207 139 112 189 222 0
167 144 27 160 163 151 115 85 147 154 0
71 25 6 60 64 44 19 11 38 48 0
231 159 55 223 225 200 134 104 182 212 0
238 164 65 226 233 204 136 107 183 215 0
208 150 43 197 203 191 123 95 171 196 0
141 117 16 132 138 124 113 84 119 129 0
111 87 10 101 106 94 83 80 89 100 0
188 148 37 180 186 172 122 92 170 178 0
220 155 49 214 218 195 130 99 175 210 0
