c E1(0,0) U1(0) E2(0,0) U2(0) U4(0) U3(0) U4(1) E1(0,1) E2(1,0) U2(1) E2(0,1) U1(1) E1(1,0) U3(1) E2(3,0) E1(0,3) E1(3,0) U3(3) E2(0,3) U1(3) U4(3) U2(3) E2(0,2) U3(2) E1(2,0) U1(2) E1(0,2) U4(2) U2(2) E2(2,0) E1(1,1) E2(1,1) E1(3,1) E2(3,1) E1(1,3) E2(1,3) E2(1,2) E1(2,1) E2(2,1) E1(1,2) E2(3,3) E1(3,3) E1(2,3) E1(3,2) E2(3,2) E2(2,3) E2(2,2) E1(2,2)
c 1 2 3 4 5 6 7 8 9 10 11 12 13 14 15 16 17 18 19 20 21 22 23 24 25 26 27 28 29 30 31 32 33 34 35 36 37 38 39 40 41 42 43 44 45 46 47 48
p cnf 48 936
-1 0
-31 0
-48 0
-42 0
-3 0
-32 0
-47 0
-41 0
-8 -13 0
-27 -25 0
-16 -17 0
-40 -38 0
-35 -33 0
-43 -44 0
-11 -9 0
-23 -30 0
-19 -15 0
-37 -39 0
-36 -34 0
-46 -45 0
-2 -4 0
-2 -6 0
-2 -5 0
-12 -10 0
-12 -14 0
-12 -7 0
-26 -29 0
-26 -24 0
-26 -28 0
-20 -22 0
-20 -18 0
-20 -21 0
-4 -6 0
-4 -5 0
-10 -14 0
-10 -7 0
-29 -24 0
-29 -28 0
-22 -18 0
-22 -21 0
-6 -5 0
-14 -7 0
-24 -28 0
-18 -21 0
1 8 27 16 0
13 31 40 35 0
25 38 48 43 0
17 33 44 42 0
3 11 23 19 0
9 32 37 36 0
30 39 47 46 0
15 34 45 41 0
2 4 6 5 0
12 10 14 7 0
26 29 24 28 0
20 22 18 21 0
2 4 6 -1 0
2 4 6 -3 0
2 4 5 -1 0
2 4 5 -3 0
2 6 5 -1 0
2 6 5 -3 0
12 10 14 -31 0
12 10 14 -32 0
12 10 7 -31 0
12 10 7 -32 0
12 14 7 -31 0
12 14 7 -32 0
26 29 24 -48 0
26 29 24 -47 0
26 29 28 -48 0
26 29 28 -47 0
26 24 28 -48 0
26 24 28 -47 0
20 22 18 -42 0
20 22 18 -41 0
20 22 21 -42 0
20 22 21 -41 0
20 18 21 -42 0
20 18 21 -41 0
4 6 5 -1 0
4 6 5 -3 0
10 14 7 -31 0
10 14 7 -32 0
29 24 28 -48 0
29 24 28 -47 0
22 18 21 -42 0
22 18 21 -41 0
2 4 6 5 -1 0
2 4 6 5 -8 0
2 4 6 5 -27 0
2 4 6 5 -16 0
2 4 6 5 -13 0
2 4 6 5 -25 0
2 4 6 5 -17 0
2 4 6 5 -3 0
2 4 6 5 -11 0
2 4 6 5 -23 0
2 4 6 5 -19 0
2 4 6 5 -9 0
2 4 6 5 -30 0
2 4 6 5 -15 0
12 10 14 7 -8 0
12 10 14 7 -13 0
12 10 14 7 -31 0
12 10 14 7 -40 0
12 10 14 7 -35 0
12 10 14 7 -38 0
12 10 14 7 -33 0
12 10 14 7 -11 0
12 10 14 7 -9 0
12 10 14 7 -32 0
12 10 14 7 -37 0
12 10 14 7 -36 0
12 10 14 7 -39 0
12 10 14 7 -34 0
26 29 24 28 -27 0
26 29 24 28 -40 0
26 29 24 28 -25 0
26 29 24 28 -38 0
26 29 24 28 -48 0
26 29 24 28 -43 0
26 29 24 28 -44 0
26 29 24 28 -23 0
26 29 24 28 -37 0
26 29 24 28 -30 0
26 29 24 28 -39 0
26 29 24 28 -47 0
26 29 24 28 -46 0
26 29 24 28 -45 0
20 22 18 21 -16 0
20 22 18 21 -35 0
20 22 18 21 -43 0
20 22 18 21 -17 0
20 22 18 21 -33 0
20 22 18 21 -44 0
20 22 18 21 -42 0
20 22 18 21 -19 0
20 22 18 21 -36 0
20 22 18 21 -46 0
20 22 18 21 -15 0
20 22 18 21 -34 0
20 22 18 21 -45 0
20 22 18 21 -41 0
2 12 4 6 5 -8 0
2 12 4 6 5 -13 0
2 12 4 6 5 -11 0
2 12 4 6 5 -9 0
2 12 10 14 7 -8 0
2 12 10 14 7 -13 0
2 12 10 14 7 -11 0
2 12 10 14 7 -9 0
2 26 4 6 5 -27 0
2 26 4 6 5 -25 0
2 26 4 6 5 -23 0
2 26 4 6 5 -30 0
2 26 29 24 28 -27 0
2 26 29 24 28 -25 0
2 26 29 24 28 -23 0
2 26 29 24 28 -30 0
2 20 4 6 5 -16 0
2 20 4 6 5 -17 0
2 20 4 6 5 -19 0
2 20 4 6 5 -15 0
2 20 22 18 21 -16 0
2 20 22 18 21 -17 0
2 20 22 18 21 -19 0
2 20 22 18 21 -15 0
2 4 10 6 5 -8 0
2 4 10 6 5 -13 0
2 4 10 6 5 -11 0
2 4 10 6 5 -9 0
2 4 29 6 5 -27 0
2 4 29 6 5 -25 0
2 4 29 6 5 -23 0
2 4 29 6 5 -30 0
2 4 22 6 5 -16 0
2 4 22 6 5 -17 0
2 4 22 6 5 -19 0
2 4 22 6 5 -15 0
2 4 6 14 5 -8 0
2 4 6 14 5 -13 0
2 4 6 14 5 -11 0
2 4 6 14 5 -9 0
2 4 6 24 5 -27 0
2 4 6 24 5 -25 0
2 4 6 24 5 -23 0
2 4 6 24 5 -30 0
2 4 6 18 5 -16 0
2 4 6 18 5 -17 0
2 4 6 18 5 -19 0
2 4 6 18 5 -15 0
2 4 6 5 7 -8 0
2 4 6 5 7 -13 0
2 4 6 5 7 -11 0
2 4 6 5 7 -9 0
2 4 6 5 28 -27 0
2 4 6 5 28 -25 0
2 4 6 5 28 -23 0
2 4 6 5 28 -30 0
2 4 6 5 21 -16 0
2 4 6 5 21 -17 0
2 4 6 5 21 -19 0
2 4 6 5 21 -15 0
12 26 10 14 7 -40 0
12 26 10 14 7 -38 0
12 26 10 14 7 -37 0
12 26 10 14 7 -39 0
12 26 29 24 28 -40 0
12 26 29 24 28 -38 0
12 26 29 24 28 -37 0
12 26 29 24 28 -39 0
12 20 10 14 7 -35 0
12 20 10 14 7 -33 0
12 20 10 14 7 -36 0
12 20 10 14 7 -34 0
12 20 22 18 21 -35 0
12 20 22 18 21 -33 0
12 20 22 18 21 -36 0
12 20 22 18 21 -34 0
12 4 10 14 7 -8 0
12 4 10 14 7 -13 0
12 4 10 14 7 -11 0
12 4 10 14 7 -9 0
12 10 29 14 7 -40 0
12 10 29 14 7 -38 0
12 10 29 14 7 -37 0
12 10 29 14 7 -39 0
12 10 22 14 7 -35 0
12 10 22 14 7 -33 0
12 10 22 14 7 -36 0
12 10 22 14 7 -34 0
12 10 6 14 7 -8 0
12 10 6 14 7 -13 0
12 10 6 14 7 -11 0
12 10 6 14 7 -9 0
12 10 14 24 7 -40 0
12 10 14 24 7 -38 0
12 10 14 24 7 -37 0
12 10 14 24 7 -39 0
12 10 14 18 7 -35 0
12 10 14 18 7 -33 0
12 10 14 18 7 -36 0
12 10 14 18 7 -34 0
12 10 14 5 7 -8 0
12 10 14 5 7 -13 0
12 10 14 5 7 -11 0
12 10 14 5 7 -9 0
12 10 14 7 28 -40 0
12 10 14 7 28 -38 0
12 10 14 7 28 -37 0
12 10 14 7 28 -39 0
12 10 14 7 21 -35 0
12 10 14 7 21 -33 0
12 10 14 7 21 -36 0
12 10 14 7 21 -34 0
26 20 29 24 28 -43 0
26 20 29 24 28 -44 0
26 20 29 24 28 -46 0
26 20 29 24 28 -45 0
26 20 22 18 21 -43 0
26 20 22 18 21 -44 0
26 20 22 18 21 -46 0
26 20 22 18 21 -45 0
26 4 29 24 28 -27 0
26 4 29 24 28 -25 0
26 4 29 24 28 -23 0
26 4 29 24 28 -30 0
26 10 29 24 28 -40 0
26 10 29 24 28 -38 0
26 10 29 24 28 -37 0
26 10 29 24 28 -39 0
26 29 22 24 28 -43 0
26 29 22 24 28 -44 0
26 29 22 24 28 -46 0
26 29 22 24 28 -45 0
26 29 6 24 28 -27 0
26 29 6 24 28 -25 0
26 29 6 24 28 -23 0
26 29 6 24 28 -30 0
26 29 14 24 28 -40 0
26 29 14 24 28 -38 0
26 29 14 24 28 -37 0
26 29 14 24 28 -39 0
26 29 24 18 28 -43 0
26 29 24 18 28 -44 0
26 29 24 18 28 -46 0
26 29 24 18 28 -45 0
26 29 24 5 28 -27 0
26 29 24 5 28 -25 0
26 29 24 5 28 -23 0
26 29 24 5 28 -30 0
26 29 24 7 28 -40 0
26 29 24 7 28 -38 0
26 29 24 7 28 -37 0
26 29 24 7 28 -39 0
26 29 24 28 21 -43 0
26 29 24 28 21 -44 0
26 29 24 28 21 -46 0
26 29 24 28 21 -45 0
20 4 22 18 21 -16 0
20 4 22 18 21 -17 0
20 4 22 18 21 -19 0
20 4 22 18 21 -15 0
20 10 22 18 21 -35 0
20 10 22 18 21 -33 0
20 10 22 18 21 -36 0
20 10 22 18 21 -34 0
20 29 22 18 21 -43 0
20 29 22 18 21 -44 0
20 29 22 18 21 -46 0
20 29 22 18 21 -45 0
20 22 6 18 21 -16 0
20 22 6 18 21 -17 0
20 22 6 18 21 -19 0
20 22 6 18 21 -15 0
20 22 14 18 21 -35 0
20 22 14 18 21 -33 0
20 22 14 18 21 -36 0
20 22 14 18 21 -34 0
20 22 24 18 21 -43 0
20 22 24 18 21 -44 0
20 22 24 18 21 -46 0
20 22 24 18 21 -45 0
20 22 18 5 21 -16 0
20 22 18 5 21 -17 0
20 22 18 5 21 -19 0
20 22 18 5 21 -15 0
20 22 18 7 21 -35 0
20 22 18 7 21 -33 0
20 22 18 7 21 -36 0
20 22 18 7 21 -34 0
20 22 18 28 21 -43 0
20 22 18 28 21 -44 0
20 22 18 28 21 -46 0
20 22 18 28 21 -45 0
2 12 4 10 6 14 -8 0
2 12 4 10 6 14 -13 0
2 12 4 10 6 14 -11 0
2 12 4 10 6 14 -9 0
2 12 4 10 6 5 -8 0
2 12 4 10 6 5 -13 0
2 12 4 10 6 5 -11 0
2 12 4 10 6 5 -9 0
2 12 4 10 14 7 -8 0
2 12 4 10 14 7 -13 0
2 12 4 10 14 7 -11 0
2 12 4 10 14 7 -9 0
2 12 4 10 5 7 -8 0
2 12 4 10 5 7 -13 0
2 12 4 10 5 7 -11 0
2 12 4 10 5 7 -9 0
2 12 4 6 14 5 -8 0
2 12 4 6 14 5 -13 0
2 12 4 6 14 5 -11 0
2 12 4 6 14 5 -9 0
2 12 4 6 5 7 -8 0
2 12 4 6 5 7 -13 0
2 12 4 6 5 7 -11 0
2 12 4 6 5 7 -9 0
2 12 10 6 14 7 -8 0
2 12 10 6 14 7 -13 0
2 12 10 6 14 7 -11 0
2 12 10 6 14 7 -9 0
2 12 10 14 5 7 -8 0
2 12 10 14 5 7 -13 0
2 12 10 14 5 7 -11 0
2 12 10 14 5 7 -9 0
2 12 6 14 5 7 -8 0
2 12 6 14 5 7 -13 0
2 12 6 14 5 7 -11 0
2 12 6 14 5 7 -9 0
2 26 4 29 6 24 -27 0
2 26 4 29 6 24 -25 0
2 26 4 29 6 24 -23 0
2 26 4 29 6 24 -30 0
2 26 4 29 6 5 -27 0
2 26 4 29 6 5 -25 0
2 26 4 29 6 5 -23 0
2 26 4 29 6 5 -30 0
2 26 4 29 24 28 -27 0
2 26 4 29 24 28 -25 0
2 26 4 29 24 28 -23 0
2 26 4 29 24 28 -30 0
2 26 4 29 5 28 -27 0
2 26 4 29 5 28 -25 0
2 26 4 29 5 28 -23 0
2 26 4 29 5 28 -30 0
2 26 4 6 24 5 -27 0
2 26 4 6 24 5 -25 0
2 26 4 6 24 5 -23 0
2 26 4 6 24 5 -30 0
2 26 4 6 5 28 -27 0
2 26 4 6 5 28 -25 0
2 26 4 6 5 28 -23 0
2 26 4 6 5 28 -30 0
2 26 29 6 24 28 -27 0
2 26 29 6 24 28 -25 0
2 26 29 6 24 28 -23 0
2 26 29 6 24 28 -30 0
2 26 29 24 5 28 -27 0
2 26 29 24 5 28 -25 0
2 26 29 24 5 28 -23 0
2 26 29 24 5 28 -30 0
2 26 6 24 5 28 -27 0
2 26 6 24 5 28 -25 0
2 26 6 24 5 28 -23 0
2 26 6 24 5 28 -30 0
2 20 4 22 6 18 -16 0
2 20 4 22 6 18 -17 0
2 20 4 22 6 18 -19 0
2 20 4 22 6 18 -15 0
2 20 4 22 6 5 -16 0
2 20 4 22 6 5 -17 0
2 20 4 22 6 5 -19 0
2 20 4 22 6 5 -15 0
2 20 4 22 18 21 -16 0
2 20 4 22 18 21 -17 0
2 20 4 22 18 21 -19 0
2 20 4 22 18 21 -15 0
2 20 4 22 5 21 -16 0
2 20 4 22 5 21 -17 0
2 20 4 22 5 21 -19 0
2 20 4 22 5 21 -15 0
2 20 4 6 18 5 -16 0
2 20 4 6 18 5 -17 0
2 20 4 6 18 5 -19 0
2 20 4 6 18 5 -15 0
2 20 4 6 5 21 -16 0
2 20 4 6 5 21 -17 0
2 20 4 6 5 21 -19 0
2 20 4 6 5 21 -15 0
2 20 22 6 18 21 -16 0
2 20 22 6 18 21 -17 0
2 20 22 6 18 21 -19 0
2 20 22 6 18 21 -15 0
2 20 22 18 5 21 -16 0
2 20 22 18 5 21 -17 0
2 20 22 18 5 21 -19 0
2 20 22 18 5 21 -15 0
2 20 6 18 5 21 -16 0
2 20 6 18 5 21 -17 0
2 20 6 18 5 21 -19 0
2 20 6 18 5 21 -15 0
2 4 10 6 14 5 -8 0
2 4 10 6 14 5 -13 0
2 4 10 6 14 5 -11 0
2 4 10 6 14 5 -9 0
2 4 10 6 5 7 -8 0
2 4 10 6 5 7 -13 0
2 4 10 6 5 7 -11 0
2 4 10 6 5 7 -9 0
2 4 29 6 24 5 -27 0
2 4 29 6 24 5 -25 0
2 4 29 6 24 5 -23 0
2 4 29 6 24 5 -30 0
2 4 29 6 5 28 -27 0
2 4 29 6 5 28 -25 0
2 4 29 6 5 28 -23 0
2 4 29 6 5 28 -30 0
2 4 22 6 18 5 -16 0
2 4 22 6 18 5 -17 0
2 4 22 6 18 5 -19 0
2 4 22 6 18 5 -15 0
2 4 22 6 5 21 -16 0
2 4 22 6 5 21 -17 0
2 4 22 6 5 21 -19 0
2 4 22 6 5 21 -15 0
2 4 6 14 5 7 -8 0
2 4 6 14 5 7 -13 0
2 4 6 14 5 7 -11 0
2 4 6 14 5 7 -9 0
2 4 6 24 5 28 -27 0
2 4 6 24 5 28 -25 0
2 4 6 24 5 28 -23 0
2 4 6 24 5 28 -30 0
2 4 6 18 5 21 -16 0
2 4 6 18 5 21 -17 0
2 4 6 18 5 21 -19 0
2 4 6 18 5 21 -15 0
12 26 10 29 14 24 -40 0
12 26 10 29 14 24 -38 0
12 26 10 29 14 24 -37 0
12 26 10 29 14 24 -39 0
12 26 10 29 14 7 -40 0
12 26 10 29 14 7 -38 0
12 26 10 29 14 7 -37 0
12 26 10 29 14 7 -39 0
12 26 10 29 24 28 -40 0
12 26 10 29 24 28 -38 0
12 26 10 29 24 28 -37 0
12 26 10 29 24 28 -39 0
12 26 10 29 7 28 -40 0
12 26 10 29 7 28 -38 0
12 26 10 29 7 28 -37 0
12 26 10 29 7 28 -39 0
12 26 10 14 24 7 -40 0
12 26 10 14 24 7 -38 0
12 26 10 14 24 7 -37 0
12 26 10 14 24 7 -39 0
12 26 10 14 7 28 -40 0
12 26 10 14 7 28 -38 0
12 26 10 14 7 28 -37 0
12 26 10 14 7 28 -39 0
12 26 29 14 24 28 -40 0
12 26 29 14 24 28 -38 0
12 26 29 14 24 28 -37 0
12 26 29 14 24 28 -39 0
12 26 29 24 7 28 -40 0
12 26 29 24 7 28 -38 0
12 26 29 24 7 28 -37 0
12 26 29 24 7 28 -39 0
12 26 14 24 7 28 -40 0
12 26 14 24 7 28 -38 0
12 26 14 24 7 28 -37 0
12 26 14 24 7 28 -39 0
12 20 10 22 14 18 -35 0
12 20 10 22 14 18 -33 0
12 20 10 22 14 18 -36 0
12 20 10 22 14 18 -34 0
12 20 10 22 14 7 -35 0
12 20 10 22 14 7 -33 0
12 20 10 22 14 7 -36 0
12 20 10 22 14 7 -34 0
12 20 10 22 18 21 -35 0
12 20 10 22 18 21 -33 0
12 20 10 22 18 21 -36 0
12 20 10 22 18 21 -34 0
12 20 10 22 7 21 -35 0
12 20 10 22 7 21 -33 0
12 20 10 22 7 21 -36 0
12 20 10 22 7 21 -34 0
12 20 10 14 18 7 -35 0
12 20 10 14 18 7 -33 0
12 20 10 14 18 7 -36 0
12 20 10 14 18 7 -34 0
12 20 10 14 7 21 -35 0
12 20 10 14 7 21 -33 0
12 20 10 14 7 21 -36 0
12 20 10 14 7 21 -34 0
12 20 22 14 18 21 -35 0
12 20 22 14 18 21 -33 0
12 20 22 14 18 21 -36 0
12 20 22 14 18 21 -34 0
12 20 22 18 7 21 -35 0
12 20 22 18 7 21 -33 0
12 20 22 18 7 21 -36 0
12 20 22 18 7 21 -34 0
12 20 14 18 7 21 -35 0
12 20 14 18 7 21 -33 0
12 20 14 18 7 21 -36 0
12 20 14 18 7 21 -34 0
12 4 10 6 14 7 -8 0
12 4 10 6 14 7 -13 0
12 4 10 6 14 7 -11 0
12 4 10 6 14 7 -9 0
12 4 10 14 5 7 -8 0
12 4 10 14 5 7 -13 0
12 4 10 14 5 7 -11 0
12 4 10 14 5 7 -9 0
12 10 29 14 24 7 -40 0
12 10 29 14 24 7 -38 0
12 10 29 14 24 7 -37 0
12 10 29 14 24 7 -39 0
12 10 29 14 7 28 -40 0
12 10 29 14 7 28 -38 0
12 10 29 14 7 28 -37 0
12 10 29 14 7 28 -39 0
12 10 22 14 18 7 -35 0
12 10 22 14 18 7 -33 0
12 10 22 14 18 7 -36 0
12 10 22 14 18 7 -34 0
12 10 22 14 7 21 -35 0
12 10 22 14 7 21 -33 0
12 10 22 14 7 21 -36 0
12 10 22 14 7 21 -34 0
12 10 6 14 5 7 -8 0
12 10 6 14 5 7 -13 0
12 10 6 14 5 7 -11 0
12 10 6 14 5 7 -9 0
12 10 14 24 7 28 -40 0
12 10 14 24 7 28 -38 0
12 10 14 24 7 28 -37 0
12 10 14 24 7 28 -39 0
12 10 14 18 7 21 -35 0
12 10 14 18 7 21 -33 0
12 10 14 18 7 21 -36 0
12 10 14 18 7 21 -34 0
26 20 29 22 24 18 -43 0
26 20 29 22 24 18 -44 0
26 20 29 22 24 18 -46 0
26 20 29 22 24 18 -45 0
26 20 29 22 24 28 -43 0
26 20 29 22 24 28 -44 0
26 20 29 22 24 28 -46 0
26 20 29 22 24 28 -45 0
26 20 29 22 18 21 -43 0
26 20 29 22 18 21 -44 0
26 20 29 22 18 21 -46 0
26 20 29 22 18 21 -45 0
26 20 29 22 28 21 -43 0
26 20 29 22 28 21 -44 0
26 20 29 22 28 21 -46 0
26 20 29 22 28 21 -45 0
26 20 29 24 18 28 -43 0
26 20 29 24 18 28 -44 0
26 20 29 24 18 28 -46 0
26 20 29 24 18 28 -45 0
26 20 29 24 28 21 -43 0
26 20 29 24 28 21 -44 0
26 20 29 24 28 21 -46 0
26 20 29 24 28 21 -45 0
26 20 22 24 18 21 -43 0
26 20 22 24 18 21 -44 0
26 20 22 24 18 21 -46 0
26 20 22 24 18 21 -45 0
26 20 22 18 28 21 -43 0
26 20 22 18 28 21 -44 0
26 20 22 18 28 21 -46 0
26 20 22 18 28 21 -45 0
26 20 24 18 28 21 -43 0
26 20 24 18 28 21 -44 0
26 20 24 18 28 21 -46 0
26 20 24 18 28 21 -45 0
26 4 29 6 24 28 -27 0
26 4 29 6 24 28 -25 0
26 4 29 6 24 28 -23 0
26 4 29 6 24 28 -30 0
26 4 29 24 5 28 -27 0
26 4 29 24 5 28 -25 0
26 4 29 24 5 28 -23 0
26 4 29 24 5 28 -30 0
26 10 29 14 24 28 -40 0
26 10 29 14 24 28 -38 0
26 10 29 14 24 28 -37 0
26 10 29 14 24 28 -39 0
26 10 29 24 7 28 -40 0
26 10 29 24 7 28 -38 0
26 10 29 24 7 28 -37 0
26 10 29 24 7 28 -39 0
26 29 22 24 18 28 -43 0
26 29 22 24 18 28 -44 0
26 29 22 24 18 28 -46 0
26 29 22 24 18 28 -45 0
26 29 22 24 28 21 -43 0
26 29 22 24 28 21 -44 0
26 29 22 24 28 21 -46 0
26 29 22 24 28 21 -45 0
26 29 6 24 5 28 -27 0
26 29 6 24 5 28 -25 0
26 29 6 24 5 28 -23 0
26 29 6 24 5 28 -30 0
26 29 14 24 7 28 -40 0
26 29 14 24 7 28 -38 0
26 29 14 24 7 28 -37 0
26 29 14 24 7 28 -39 0
26 29 24 18 28 21 -43 0
26 29 24 18 28 21 -44 0
26 29 24 18 28 21 -46 0
26 29 24 18 28 21 -45 0
20 4 22 6 18 21 -16 0
20 4 22 6 18 21 -17 0
20 4 22 6 18 21 -19 0
20 4 22 6 18 21 -15 0
20 4 22 18 5 21 -16 0
20 4 22 18 5 21 -17 0
20 4 22 18 5 21 -19 0
20 4 22 18 5 21 -15 0
20 10 22 14 18 21 -35 0
20 10 22 14 18 21 -33 0
20 10 22 14 18 21 -36 0
20 10 22 14 18 21 -34 0
20 10 22 18 7 21 -35 0
20 10 22 18 7 21 -33 0
20 10 22 18 7 21 -36 0
20 10 22 18 7 21 -34 0
20 29 22 24 18 21 -43 0
20 29 22 24 18 21 -44 0
20 29 22 24 18 21 -46 0
20 29 22 24 18 21 -45 0
20 29 22 18 28 21 -43 0
20 29 22 18 28 21 -44 0
20 29 22 18 28 21 -46 0
20 29 22 18 28 21 -45 0
20 22 6 18 5 21 -16 0
20 22 6 18 5 21 -17 0
20 22 6 18 5 21 -19 0
20 22 6 18 5 21 -15 0
20 22 14 18 7 21 -35 0
20 22 14 18 7 21 -33 0
20 22 14 18 7 21 -36 0
20 22 14 18 7 21 -34 0
20 22 24 18 28 21 -43 0
20 22 24 18 28 21 -44 0
20 22 24 18 28 21 -46 0
20 22 24 18 28 21 -45 0
4 10 6 14 5 7 -8 0
4 10 6 14 5 7 -13 0
4 10 6 14 5 7 -11 0
4 10 6 14 5 7 -9 0
4 29 6 24 5 28 -27 0
4 29 6 24 5 28 -25 0
4 29 6 24 5 28 -23 0
4 29 6 24 5 28 -30 0
4 22 6 18 5 21 -16 0
4 22 6 18 5 21 -17 0
4 22 6 18 5 21 -19 0
4 22 6 18 5 21 -15 0
10 29 14 24 7 28 -40 0
10 29 14 24 7 28 -38 0
10 29 14 24 7 28 -37 0
10 29 14 24 7 28 -39 0
10 22 14 18 7 21 -35 0
10 22 14 18 7 21 -33 0
10 22 14 18 7 21 -36 0
10 22 14 18 7 21 -34 0
29 22 24 18 28 21 -43 0
29 22 24 18 28 21 -44 0
29 22 24 18 28 21 -46 0
29 22 24 18 28 21 -45 0
2 12 4 10 6 14 5 -8 0
2 12 4 10 6 14 5 -13 0
2 12 4 10 6 14 5 -11 0
2 12 4 10 6 14 5 -9 0
2 12 4 10 6 14 7 -8 0
2 12 4 10 6 14 7 -13 0
2 12 4 10 6 14 7 -11 0
2 12 4 10 6 14 7 -9 0
2 12 4 10 6 5 7 -8 0
2 12 4 10 6 5 7 -13 0
2 12 4 10 6 5 7 -11 0
2 12 4 10 6 5 7 -9 0
2 12 4 10 14 5 7 -8 0
2 12 4 10 14 5 7 -13 0
2 12 4 10 14 5 7 -11 0
2 12 4 10 14 5 7 -9 0
2 12 4 6 14 5 7 -8 0
2 12 4 6 14 5 7 -13 0
2 12 4 6 14 5 7 -11 0
2 12 4 6 14 5 7 -9 0
2 12 10 6 14 5 7 -8 0
2 12 10 6 14 5 7 -13 0
2 12 10 6 14 5 7 -11 0
2 12 10 6 14 5 7 -9 0
2 26 4 29 6 24 5 -27 0
2 26 4 29 6 24 5 -25 0
2 26 4 29 6 24 5 -23 0
2 26 4 29 6 24 5 -30 0
2 26 4 29 6 24 28 -27 0
2 26 4 29 6 24 28 -25 0
2 26 4 29 6 24 28 -23 0
2 26 4 29 6 24 28 -30 0
2 26 4 29 6 5 28 -27 0
2 26 4 29 6 5 28 -25 0
2 26 4 29 6 5 28 -23 0
2 26 4 29 6 5 28 -30 0
2 26 4 29 24 5 28 -27 0
2 26 4 29 24 5 28 -25 0
2 26 4 29 24 5 28 -23 0
2 26 4 29 24 5 28 -30 0
2 26 4 6 24 5 28 -27 0
2 26 4 6 24 5 28 -25 0
2 26 4 6 24 5 28 -23 0
2 26 4 6 24 5 28 -30 0
2 26 29 6 24 5 28 -27 0
2 26 29 6 24 5 28 -25 0
2 26 29 6 24 5 28 -23 0
2 26 29 6 24 5 28 -30 0
2 20 4 22 6 18 5 -16 0
2 20 4 22 6 18 5 -17 0
2 20 4 22 6 18 5 -19 0
2 20 4 22 6 18 5 -15 0
2 20 4 22 6 18 21 -16 0
2 20 4 22 6 18 21 -17 0
2 20 4 22 6 18 21 -19 0
2 20 4 22 6 18 21 -15 0
2 20 4 22 6 5 21 -16 0
2 20 4 22 6 5 21 -17 0
2 20 4 22 6 5 21 -19 0
2 20 4 22 6 5 21 -15 0
2 20 4 22 18 5 21 -16 0
2 20 4 22 18 5 21 -17 0
2 20 4 22 18 5 21 -19 0
2 20 4 22 18 5 21 -15 0
2 20 4 6 18 5 21 -16 0
2 20 4 6 18 5 21 -17 0
2 20 4 6 18 5 21 -19 0
2 20 4 6 18 5 21 -15 0
2 20 22 6 18 5 21 -16 0
2 20 22 6 18 5 21 -17 0
2 20 22 6 18 5 21 -19 0
2 20 22 6 18 5 21 -15 0
2 4 10 6 14 5 7 -8 0
2 4 10 6 14 5 7 -13 0
2 4 10 6 14 5 7 -11 0
2 4 10 6 14 5 7 -9 0
2 4 29 6 24 5 28 -27 0
2 4 29 6 24 5 28 -25 0
2 4 29 6 24 5 28 -23 0
2 4 29 6 24 5 28 -30 0
2 4 22 6 18 5 21 -16 0
2 4 22 6 18 5 21 -17 0
2 4 22 6 18 5 21 -19 0
2 4 22 6 18 5 21 -15 0
12 26 10 29 14 24 7 -40 0
12 26 10 29 14 24 7 -38 0
12 26 10 29 14 24 7 -37 0
12 26 10 29 14 24 7 -39 0
12 26 10 29 14 24 28 -40 0
12 26 10 29 14 24 28 -38 0
12 26 10 29 14 24 28 -37 0
12 26 10 29 14 24 28 -39 0
12 26 10 29 14 7 28 -40 0
12 26 10 29 14 7 28 -38 0
12 26 10 29 14 7 28 -37 0
12 26 10 29 14 7 28 -39 0
12 26 10 29 24 7 28 -40 0
12 26 10 29 24 7 28 -38 0
12 26 10 29 24 7 28 -37 0
12 26 10 29 24 7 28 -39 0
12 26 10 14 24 7 28 -40 0
12 26 10 14 24 7 28 -38 0
12 26 10 14 24 7 28 -37 0
12 26 10 14 24 7 28 -39 0
12 26 29 14 24 7 28 -40 0
12 26 29 14 24 7 28 -38 0
12 26 29 14 24 7 28 -37 0
12 26 29 14 24 7 28 -39 0
12 20 10 22 14 18 7 -35 0
12 20 10 22 14 18 7 -33 0
12 20 10 22 14 18 7 -36 0
12 20 10 22 14 18 7 -34 0
12 20 10 22 14 18 21 -35 0
12 20 10 22 14 18 21 -33 0
12 20 10 22 14 18 21 -36 0
12 20 10 22 14 18 21 -34 0
12 20 10 22 14 7 21 -35 0
12 20 10 22 14 7 21 -33 0
12 20 10 22 14 7 21 -36 0
12 20 10 22 14 7 21 -34 0
12 20 10 22 18 7 21 -35 0
12 20 10 22 18 7 21 -33 0
12 20 10 22 18 7 21 -36 0
12 20 10 22 18 7 21 -34 0
12 20 10 14 18 7 21 -35 0
12 20 10 14 18 7 21 -33 0
12 20 10 14 18 7 21 -36 0
12 20 10 14 18 7 21 -34 0
12 20 22 14 18 7 21 -35 0
12 20 22 14 18 7 21 -33 0
12 20 22 14 18 7 21 -36 0
12 20 22 14 18 7 21 -34 0
12 4 10 6 14 5 7 -8 0
12 4 10 6 14 5 7 -13 0
12 4 10 6 14 5 7 -11 0
12 4 10 6 14 5 7 -9 0
12 10 29 14 24 7 28 -40 0
12 10 29 14 24 7 28 -38 0
12 10 29 14 24 7 28 -37 0
12 10 29 14 24 7 28 -39 0
12 10 22 14 18 7 21 -35 0
12 10 22 14 18 7 21 -33 0
12 10 22 14 18 7 21 -36 0
12 10 22 14 18 7 21 -34 0
26 20 29 22 24 18 28 -43 0
26 20 29 22 24 18 28 -44 0
26 20 29 22 24 18 28 -46 0
26 20 29 22 24 18 28 -45 0
26 20 29 22 24 18 21 -43 0
26 20 29 22 24 18 21 -44 0
26 20 29 22 24 18 21 -46 0
26 20 29 22 24 18 21 -45 0
26 20 29 22 24 28 21 -43 0
26 20 29 22 24 28 21 -44 0
26 20 29 22 24 28 21 -46 0
26 20 29 22 24 28 21 -45 0
26 20 29 22 18 28 21 -43 0
26 20 29 22 18 28 21 -44 0
26 20 29 22 18 28 21 -46 0
26 20 29 22 18 28 21 -45 0
26 20 29 24 18 28 21 -43 0
26 20 29 24 18 28 21 -44 0
26 20 29 24 18 28 21 -46 0
26 20 29 24 18 28 21 -45 0
26 20 22 24 18 28 21 -43 0
26 20 22 24 18 28 21 -44 0
26 20 22 24 18 28 21 -46 0
26 20 22 24 18 28 21 -45 0
26 4 29 6 24 5 28 -27 0
26 4 29 6 24 5 28 -25 0
26 4 29 6 24 5 28 -23 0
26 4 29 6 24 5 28 -30 0
26 10 29 14 24 7 28 -40 0
26 10 29 14 24 7 28 -38 0
26 10 29 14 24 7 28 -37 0
26 10 29 14 24 7 28 -39 0
26 29 22 24 18 28 21 -43 0
26 29 22 24 18 28 21 -44 0
26 29 22 24 18 28 21 -46 0
26 29 22 24 18 28 21 -45 0
20 4 22 6 18 5 21 -16 0
20 4 22 6 18 5 21 -17 0
20 4 22 6 18 5 21 -19 0
20 4 22 6 18 5 21 -15 0
20 10 22 14 18 7 21 -35 0
20 10 22 14 18 7 21 -33 0
20 10 22 14 18 7 21 -36 0
20 10 22 14 18 7 21 -34 0
20 29 22 24 18 28 21 -43 0
20 29 22 24 18 28 21 -44 0
20 29 22 24 18 28 21 -46 0
20 29 22 24 18 28 21 -45 0
2 12 4 10 6 14 5 7 -8 0
2 12 4 10 6 14 5 7 -13 0
2 12 4 10 6 14 5 7 -11 0
2 12 4 10 6 14 5 7 -9 0
2 26 4 29 6 24 5 28 -27 0
2 26 4 29 6 24 5 28 -25 0
2 26 4 29 6 24 5 28 -23 0
2 26 4 29 6 24 5 28 -30 0
2 20 4 22 6 18 5 21 -16 0
2 20 4 22 6 18 5 21 -17 0
2 20 4 22 6 18 5 21 -19 0
2 20 4 22 6 18 5 21 -15 0
12 26 10 29 14 24 7 28 -40 0
12 26 10 29 14 24 7 28 -38 0
12 26 10 29 14 24 7 28 -37 0
12 26 10 29 14 24 7 28 -39 0
12 20 10 22 14 18 7 21 -35 0
12 20 10 22 14 18 7 21 -33 0
12 20 10 22 14 18 7 21 -36 0
12 20 10 22 14 18 7 21 -34 0
26 20 29 22 24 18 28 21 -43 0
26 20 29 22 24 18 28 21 -44 0
26 20 29 22 24 18 28 21 -46 0
26 20 29 22 24 18 28 21 -45 0
