c U3(2) E1(2,2) E2(2,2) U2(2) U1(2) U4(2) U2(3) E1(2,3) E2(2,3) U4(3) U3(3) U1(3) E1(3,2) E2(3,2) E1(2,4) E2(2,4) U1(4) U2(4) U4(4) E2(4,2) E1(4,2) U3(4) U1(1) E1(2,1) E2(2,1) U2(1) E1(1,2) U4(1) E2(1,2) U3(1) U1(0) E1(2,0) E2(2,0) U4(0) E1(0,2) E2(0,2) U3(0) U2(0) E1(3,3) E2(3,3) E1(3,4) E2(3,4) E1(4,3) E2(4,3) E1(3,1) E2(3,1) E1(1,3) E2(1,3) E1(3,0) E2(3,0) E1(0,3) E2(0,3) E1(4,4) E2(4,4) E1(4,1) E2(4,1) E1(1,4) E2(1,4) E1(0,4) E2(4,0) E2(0,4) E1(4,0) E1(1,1) E2(1,1) E1(1,0) E2(0,1) E1(0,1) E2(1,0) E1(0,0) E2(0,0)
c 1 2 3 4 5 6 7 8 9 10 11 12 13 14 15 16 17 18 19 20 21 22 23 24 25 26 27 28 29 30 31 32 33 34 35 36 37 38 39 40 41 42 43 44 45 46 47 48 49 50 51 52 53 54 55 56 57 58 59 60 61 62 63 64 65 66 67 68 69 70
p cnf 70 1525
-69 0
-63 0
-2 0
-39 0
-53 0
-70 0
-64 0
-3 0
-40 0
-54 0
-67 -65 0
-35 -32 0
-51 -49 0
-59 -62 0
-27 -24 0
-47 -45 0
-57 -55 0
-8 -13 0
-15 -21 0
-41 -43 0
-66 -68 0
-36 -33 0
-52 -50 0
-61 -60 0
-29 -25 0
-48 -46 0
-58 -56 0
-9 -14 0
-16 -20 0
-42 -44 0
-31 -38 0
-31 -37 0
-31 -34 0
-23 -26 0
-23 -30 0
-23 -28 0
-5 -4 0
-5 -1 0
-5 -6 0
-12 -7 0
-12 -11 0
-12 -10 0
-17 -18 0
-17 -22 0
-17 -19 0
-38 -37 0
-38 -34 0
-26 -30 0
-26 -28 0
-4 -1 0
-4 -6 0
-7 -11 0
-7 -10 0
-18 -22 0
-18 -19 0
-37 -34 0
-30 -28 0
-1 -6 0
-11 -10 0
-22 -19 0
31 38 37 34 0
23 26 30 28 0
5 4 1 6 0
12 7 11 10 0
17 18 22 19 0
31 38 37 -69 0
31 38 37 -70 0
31 38 34 -69 0
31 38 34 -70 0
31 37 34 -69 0
31 37 34 -70 0
23 26 30 -63 0
23 26 30 -64 0
23 26 28 -63 0
23 26 28 -64 0
23 30 28 -63 0
23 30 28 -64 0
5 4 1 -2 0
5 4 1 -3 0
5 4 6 -2 0
5 4 6 -3 0
5 1 6 -2 0
5 1 6 -3 0
12 7 11 -39 0
12 7 11 -40 0
12 7 10 -39 0
12 7 10 -40 0
12 11 10 -39 0
12 11 10 -40 0
17 18 22 -53 0
17 18 22 -54 0
17 18 19 -53 0
17 18 19 -54 0
17 22 19 -53 0
17 22 19 -54 0
38 37 34 -69 0
38 37 34 -70 0
26 30 28 -63 0
26 30 28 -64 0
4 1 6 -2 0
4 1 6 -3 0
7 11 10 -39 0
7 11 10 -40 0
18 22 19 -53 0
18 22 19 -54 0
69 67 35 51 59 0
65 63 27 47 57 0
32 24 2 8 15 0
49 45 13 39 41 0
62 55 21 43 53 0
70 66 36 52 61 0
68 64 29 48 58 0
33 25 3 9 16 0
50 46 14 40 42 0
60 56 20 44 54 0
31 38 37 34 -69 0
31 38 37 34 -67 0
31 38 37 34 -35 0
31 38 37 34 -51 0
31 38 37 34 -59 0
31 38 37 34 -65 0
31 38 37 34 -32 0
31 38 37 34 -49 0
31 38 37 34 -62 0
31 38 37 34 -70 0
31 38 37 34 -66 0
31 38 37 34 -36 0
31 38 37 34 -52 0
31 38 37 34 -61 0
31 38 37 34 -68 0
31 38 37 34 -33 0
31 38 37 34 -50 0
31 38 37 34 -60 0
23 26 30 28 -67 0
23 26 30 28 -65 0
23 26 30 28 -63 0
23 26 30 28 -27 0
23 26 30 28 -47 0
23 26 30 28 -57 0
23 26 30 28 -24 0
23 26 30 28 -45 0
23 26 30 28 -55 0
23 26 30 28 -66 0
23 26 30 28 -68 0
23 26 30 28 -64 0
23 26 30 28 -29 0
23 26 30 28 -48 0
23 26 30 28 -58 0
23 26 30 28 -25 0
23 26 30 28 -46 0
23 26 30 28 -56 0
5 4 1 6 -35 0
5 4 1 6 -27 0
5 4 1 6 -32 0
5 4 1 6 -24 0
5 4 1 6 -2 0
5 4 1 6 -8 0
5 4 1 6 -15 0
5 4 1 6 -13 0
5 4 1 6 -21 0
5 4 1 6 -36 0
5 4 1 6 -29 0
5 4 1 6 -33 0
5 4 1 6 -25 0
5 4 1 6 -3 0
5 4 1 6 -9 0
5 4 1 6 -16 0
5 4 1 6 -14 0
5 4 1 6 -20 0
12 7 11 10 -51 0
12 7 11 10 -47 0
12 7 11 10 -8 0
12 7 11 10 -49 0
12 7 11 10 -45 0
12 7 11 10 -13 0
12 7 11 10 -39 0
12 7 11 10 -41 0
12 7 11 10 -43 0
12 7 11 10 -52 0
12 7 11 10 -48 0
12 7 11 10 -9 0
12 7 11 10 -50 0
12 7 11 10 -46 0
12 7 11 10 -14 0
12 7 11 10 -40 0
12 7 11 10 -42 0
12 7 11 10 -44 0
17 18 22 19 -59 0
17 18 22 19 -57 0
17 18 22 19 -15 0
17 18 22 19 -41 0
17 18 22 19 -62 0
17 18 22 19 -55 0
17 18 22 19 -21 0
17 18 22 19 -43 0
17 18 22 19 -53 0
17 18 22 19 -61 0
17 18 22 19 -58 0
17 18 22 19 -16 0
17 18 22 19 -42 0
17 18 22 19 -60 0
17 18 22 19 -56 0
17 18 22 19 -20 0
17 18 22 19 -44 0
17 18 22 19 -54 0
31 23 38 37 34 -67 0
31 23 38 37 34 -65 0
31 23 38 37 34 -66 0
31 23 38 37 34 -68 0
31 23 26 30 28 -67 0
31 23 26 30 28 -65 0
31 23 26 30 28 -66 0
31 23 26 30 28 -68 0
31 5 38 37 34 -35 0
31 5 38 37 34 -32 0
31 5 38 37 34 -36 0
31 5 38 37 34 -33 0
31 5 4 1 6 -35 0
31 5 4 1 6 -32 0
31 5 4 1 6 -36 0
31 5 4 1 6 -33 0
31 12 38 37 34 -51 0
31 12 38 37 34 -49 0
31 12 38 37 34 -52 0
31 12 38 37 34 -50 0
31 12 7 11 10 -51 0
31 12 7 11 10 -49 0
31 12 7 11 10 -52 0
31 12 7 11 10 -50 0
31 17 38 37 34 -59 0
31 17 38 37 34 -62 0
31 17 38 37 34 -61 0
31 17 38 37 34 -60 0
31 17 18 22 19 -59 0
31 17 18 22 19 -62 0
31 17 18 22 19 -61 0
31 17 18 22 19 -60 0
31 38 26 37 34 -67 0
31 38 26 37 34 -65 0
31 38 26 37 34 -66 0
31 38 26 37 34 -68 0
31 38 4 37 34 -35 0
31 38 4 37 34 -32 0
31 38 4 37 34 -36 0
31 38 4 37 34 -33 0
31 38 7 37 34 -51 0
31 38 7 37 34 -49 0
31 38 7 37 34 -52 0
31 38 7 37 34 -50 0
31 38 18 37 34 -59 0
31 38 18 37 34 -62 0
31 38 18 37 34 -61 0
31 38 18 37 34 -60 0
31 38 37 30 34 -67 0
31 38 37 30 34 -65 0
31 38 37 30 34 -66 0
31 38 37 30 34 -68 0
31 38 37 1 34 -35 0
31 38 37 1 34 -32 0
31 38 37 1 34 -36 0
31 38 37 1 34 -33 0
31 38 37 11 34 -51 0
31 38 37 11 34 -49 0
31 38 37 11 34 -52 0
31 38 37 11 34 -50 0
31 38 37 22 34 -59 0
31 38 37 22 34 -62 0
31 38 37 22 34 -61 0
31 38 37 22 34 -60 0
31 38 37 34 28 -67 0
31 38 37 34 28 -65 0
31 38 37 34 28 -66 0
31 38 37 34 28 -68 0
31 38 37 34 6 -35 0
31 38 37 34 6 -32 0
31 38 37 34 6 -36 0
31 38 37 34 6 -33 0
31 38 37 34 10 -51 0
31 38 37 34 10 -49 0
31 38 37 34 10 -52 0
31 38 37 34 10 -50 0
31 38 37 34 19 -59 0
31 38 37 34 19 -62 0
31 38 37 34 19 -61 0
31 38 37 34 19 -60 0
23 5 26 30 28 -27 0
23 5 26 30 28 -24 0
23 5 26 30 28 -29 0
23 5 26 30 28 -25 0
23 5 4 1 6 -27 0
23 5 4 1 6 -24 0
23 5 4 1 6 -29 0
23 5 4 1 6 -25 0
23 12 26 30 28 -47 0
23 12 26 30 28 -45 0
23 12 26 30 28 -48 0
23 12 26 30 28 -46 0
23 12 7 11 10 -47 0
23 12 7 11 10 -45 0
23 12 7 11 10 -48 0
23 12 7 11 10 -46 0
23 17 26 30 28 -57 0
23 17 26 30 28 -55 0
23 17 26 30 28 -58 0
23 17 26 30 28 -56 0
23 17 18 22 19 -57 0
23 17 18 22 19 -55 0
23 17 18 22 19 -58 0
23 17 18 22 19 -56 0
23 38 26 30 28 -67 0
23 38 26 30 28 -65 0
23 38 26 30 28 -66 0
23 38 26 30 28 -68 0
23 26 4 30 28 -27 0
23 26 4 30 28 -24 0
23 26 4 30 28 -29 0
23 26 4 30 28 -25 0
23 26 7 30 28 -47 0
23 26 7 30 28 -45 0
23 26 7 30 28 -48 0
23 26 7 30 28 -46 0
23 26 18 30 28 -57 0
23 26 18 30 28 -55 0
23 26 18 30 28 -58 0
23 26 18 30 28 -56 0
23 26 37 30 28 -67 0
23 26 37 30 28 -65 0
23 26 37 30 28 -66 0
23 26 37 30 28 -68 0
23 26 30 1 28 -27 0
23 26 30 1 28 -24 0
23 26 30 1 28 -29 0
23 26 30 1 28 -25 0
23 26 30 11 28 -47 0
23 26 30 11 28 -45 0
23 26 30 11 28 -48 0
23 26 30 11 28 -46 0
23 26 30 22 28 -57 0
23 26 30 22 28 -55 0
23 26 30 22 28 -58 0
23 26 30 22 28 -56 0
23 26 30 34 28 -67 0
23 26 30 34 28 -65 0
23 26 30 34 28 -66 0
23 26 30 34 28 -68 0
23 26 30 28 6 -27 0
23 26 30 28 6 -24 0
23 26 30 28 6 -29 0
23 26 30 28 6 -25 0
23 26 30 28 10 -47 0
23 26 30 28 10 -45 0
23 26 30 28 10 -48 0
23 26 30 28 10 -46 0
23 26 30 28 19 -57 0
23 26 30 28 19 -55 0
23 26 30 28 19 -58 0
23 26 30 28 19 -56 0
5 12 4 1 6 -8 0
5 12 4 1 6 -13 0
5 12 4 1 6 -9 0
5 12 4 1 6 -14 0
5 12 7 11 10 -8 0
5 12 7 11 10 -13 0
5 12 7 11 10 -9 0
5 12 7 11 10 -14 0
5 17 4 1 6 -15 0
5 17 4 1 6 -21 0
5 17 4 1 6 -16 0
5 17 4 1 6 -20 0
5 17 18 22 19 -15 0
5 17 18 22 19 -21 0
5 17 18 22 19 -16 0
5 17 18 22 19 -20 0
5 38 4 1 6 -35 0
5 38 4 1 6 -32 0
5 38 4 1 6 -36 0
5 38 4 1 6 -33 0
5 26 4 1 6 -27 0
5 26 4 1 6 -24 0
5 26 4 1 6 -29 0
5 26 4 1 6 -25 0
5 4 7 1 6 -8 0
5 4 7 1 6 -13 0
5 4 7 1 6 -9 0
5 4 7 1 6 -14 0
5 4 18 1 6 -15 0
5 4 18 1 6 -21 0
5 4 18 1 6 -16 0
5 4 18 1 6 -20 0
5 4 37 1 6 -35 0
5 4 37 1 6 -32 0
5 4 37 1 6 -36 0
5 4 37 1 6 -33 0
5 4 30 1 6 -27 0
5 4 30 1 6 -24 0
5 4 30 1 6 -29 0
5 4 30 1 6 -25 0
5 4 1 11 6 -8 0
5 4 1 11 6 -13 0
5 4 1 11 6 -9 0
5 4 1 11 6 -14 0
5 4 1 22 6 -15 0
5 4 1 22 6 -21 0
5 4 1 22 6 -16 0
5 4 1 22 6 -20 0
5 4 1 34 6 -35 0
5 4 1 34 6 -32 0
5 4 1 34 6 -36 0
5 4 1 34 6 -33 0
5 4 1 28 6 -27 0
5 4 1 28 6 -24 0
5 4 1 28 6 -29 0
5 4 1 28 6 -25 0
5 4 1 6 10 -8 0
5 4 1 6 10 -13 0
5 4 1 6 10 -9 0
5 4 1 6 10 -14 0
5 4 1 6 19 -15 0
5 4 1 6 19 -21 0
5 4 1 6 19 -16 0
5 4 1 6 19 -20 0
12 17 7 11 10 -41 0
12 17 7 11 10 -43 0
12 17 7 11 10 -42 0
12 17 7 11 10 -44 0
12 17 18 22 19 -41 0
12 17 18 22 19 -43 0
12 17 18 22 19 -42 0
12 17 18 22 19 -44 0
12 38 7 11 10 -51 0
12 38 7 11 10 -49 0
12 38 7 11 10 -52 0
12 38 7 11 10 -50 0
12 26 7 11 10 -47 0
12 26 7 11 10 -45 0
12 26 7 11 10 -48 0
12 26 7 11 10 -46 0
12 4 7 11 10 -8 0
12 4 7 11 10 -13 0
12 4 7 11 10 -9 0
12 4 7 11 10 -14 0
12 7 18 11 10 -41 0
12 7 18 11 10 -43 0
12 7 18 11 10 -42 0
12 7 18 11 10 -44 0
12 7 37 11 10 -51 0
12 7 37 11 10 -49 0
12 7 37 11 10 -52 0
12 7 37 11 10 -50 0
12 7 30 11 10 -47 0
12 7 30 11 10 -45 0
12 7 30 11 10 -48 0
12 7 30 11 10 -46 0
12 7 1 11 10 -8 0
12 7 1 11 10 -13 0
12 7 1 11 10 -9 0
12 7 1 11 10 -14 0
12 7 11 22 10 -41 0
12 7 11 22 10 -43 0
12 7 11 22 10 -42 0
12 7 11 22 10 -44 0
12 7 11 34 10 -51 0
12 7 11 34 10 -49 0
12 7 11 34 10 -52 0
12 7 11 34 10 -50 0
12 7 11 28 10 -47 0
12 7 11 28 10 -45 0
12 7 11 28 10 -48 0
12 7 11 28 10 -46 0
12 7 11 6 10 -8 0
12 7 11 6 10 -13 0
12 7 11 6 10 -9 0
12 7 11 6 10 -14 0
12 7 11 10 19 -41 0
12 7 11 10 19 -43 0
12 7 11 10 19 -42 0
12 7 11 10 19 -44 0
17 38 18 22 19 -59 0
17 38 18 22 19 -62 0
17 38 18 22 19 -61 0
17 38 18 22 19 -60 0
17 26 18 22 19 -57 0
17 26 18 22 19 -55 0
17 26 18 22 19 -58 0
17 26 18 22 19 -56 0
17 4 18 22 19 -15 0
17 4 18 22 19 -21 0
17 4 18 22 19 -16 0
17 4 18 22 19 -20 0
17 7 18 22 19 -41 0
17 7 18 22 19 -43 0
17 7 18 22 19 -42 0
17 7 18 22 19 -44 0
17 18 37 22 19 -59 0
17 18 37 22 19 -62 0
17 18 37 22 19 -61 0
17 18 37 22 19 -60 0
17 18 30 22 19 -57 0
17 18 30 22 19 -55 0
17 18 30 22 19 -58 0
17 18 30 22 19 -56 0
17 18 1 22 19 -15 0
17 18 1 22 19 -21 0
17 18 1 22 19 -16 0
17 18 1 22 19 -20 0
17 18 11 22 19 -41 0
17 18 11 22 19 -43 0
17 18 11 22 19 -42 0
17 18 11 22 19 -44 0
17 18 22 34 19 -59 0
17 18 22 34 19 -62 0
17 18 22 34 19 -61 0
17 18 22 34 19 -60 0
17 18 22 28 19 -57 0
17 18 22 28 19 -55 0
17 18 22 28 19 -58 0
17 18 22 28 19 -56 0
17 18 22 6 19 -15 0
17 18 22 6 19 -21 0
17 18 22 6 19 -16 0
17 18 22 6 19 -20 0
17 18 22 10 19 -41 0
17 18 22 10 19 -43 0
17 18 22 10 19 -42 0
17 18 22 10 19 -44 0
31 23 38 26 37 30 -67 0
31 23 38 26 37 30 -65 0
31 23 38 26 37 30 -66 0
31 23 38 26 37 30 -68 0
31 23 38 26 37 34 -67 0
31 23 38 26 37 34 -65 0
31 23 38 26 37 34 -66 0
31 23 38 26 37 34 -68 0
31 23 38 26 30 28 -67 0
31 23 38 26 30 28 -65 0
31 23 38 26 30 28 -66 0
31 23 38 26 30 28 -68 0
31 23 38 26 34 28 -67 0
31 23 38 26 34 28 -65 0
31 23 38 26 34 28 -66 0
31 23 38 26 34 28 -68 0
31 23 38 37 30 34 -67 0
31 23 38 37 30 34 -65 0
31 23 38 37 30 34 -66 0
31 23 38 37 30 34 -68 0
31 23 38 37 34 28 -67 0
31 23 38 37 34 28 -65 0
31 23 38 37 34 28 -66 0
31 23 38 37 34 28 -68 0
31 23 26 37 30 28 -67 0
31 23 26 37 30 28 -65 0
31 23 26 37 30 28 -66 0
31 23 26 37 30 28 -68 0
31 23 26 30 34 28 -67 0
31 23 26 30 34 28 -65 0
31 23 26 30 34 28 -66 0
31 23 26 30 34 28 -68 0
31 23 37 30 34 28 -67 0
31 23 37 30 34 28 -65 0
31 23 37 30 34 28 -66 0
31 23 37 30 34 28 -68 0
31 5 38 4 37 1 -35 0
31 5 38 4 37 1 -32 0
31 5 38 4 37 1 -36 0
31 5 38 4 37 1 -33 0
31 5 38 4 37 34 -35 0
31 5 38 4 37 34 -32 0
31 5 38 4 37 34 -36 0
31 5 38 4 37 34 -33 0
31 5 38 4 1 6 -35 0
31 5 38 4 1 6 -32 0
31 5 38 4 1 6 -36 0
31 5 38 4 1 6 -33 0
31 5 38 4 34 6 -35 0
31 5 38 4 34 6 -32 0
31 5 38 4 34 6 -36 0
31 5 38 4 34 6 -33 0
31 5 38 37 1 34 -35 0
31 5 38 37 1 34 -32 0
31 5 38 37 1 34 -36 0
31 5 38 37 1 34 -33 0
31 5 38 37 34 6 -35 0
31 5 38 37 34 6 -32 0
31 5 38 37 34 6 -36 0
31 5 38 37 34 6 -33 0
31 5 4 37 1 6 -35 0
31 5 4 37 1 6 -32 0
31 5 4 37 1 6 -36 0
31 5 4 37 1 6 -33 0
31 5 4 1 34 6 -35 0
31 5 4 1 34 6 -32 0
31 5 4 1 34 6 -36 0
31 5 4 1 34 6 -33 0
31 5 37 1 34 6 -35 0
31 5 37 1 34 6 -32 0
31 5 37 1 34 6 -36 0
31 5 37 1 34 6 -33 0
31 12 38 7 37 11 -51 0
31 12 38 7 37 11 -49 0
31 12 38 7 37 11 -52 0
31 12 38 7 37 11 -50 0
31 12 38 7 37 34 -51 0
31 12 38 7 37 34 -49 0
31 12 38 7 37 34 -52 0
31 12 38 7 37 34 -50 0
31 12 38 7 11 10 -51 0
31 12 38 7 11 10 -49 0
31 12 38 7 11 10 -52 0
31 12 38 7 11 10 -50 0
31 12 38 7 34 10 -51 0
31 12 38 7 34 10 -49 0
31 12 38 7 34 10 -52 0
31 12 38 7 34 10 -50 0
31 12 38 37 11 34 -51 0
31 12 38 37 11 34 -49 0
31 12 38 37 11 34 -52 0
31 12 38 37 11 34 -50 0
31 12 38 37 34 10 -51 0
31 12 38 37 34 10 -49 0
31 12 38 37 34 10 -52 0
31 12 38 37 34 10 -50 0
31 12 7 37 11 10 -51 0
31 12 7 37 11 10 -49 0
31 12 7 37 11 10 -52 0
31 12 7 37 11 10 -50 0
31 12 7 11 34 10 -51 0
31 12 7 11 34 10 -49 0
31 12 7 11 34 10 -52 0
31 12 7 11 34 10 -50 0
31 12 37 11 34 10 -51 0
31 12 37 11 34 10 -49 0
31 12 37 11 34 10 -52 0
31 12 37 11 34 10 -50 0
31 17 38 18 37 22 -59 0
31 17 38 18 37 22 -62 0
31 17 38 18 37 22 -61 0
31 17 38 18 37 22 -60 0
31 17 38 18 37 34 -59 0
31 17 38 18 37 34 -62 0
31 17 38 18 37 34 -61 0
31 17 38 18 37 34 -60 0
31 17 38 18 22 19 -59 0
31 17 38 18 22 19 -62 0
31 17 38 18 22 19 -61 0
31 17 38 18 22 19 -60 0
31 17 38 18 34 19 -59 0
31 17 38 18 34 19 -62 0
31 17 38 18 34 19 -61 0
31 17 38 18 34 19 -60 0
31 17 38 37 22 34 -59 0
31 17 38 37 22 34 -62 0
31 17 38 37 22 34 -61 0
31 17 38 37 22 34 -60 0
31 17 38 37 34 19 -59 0
31 17 38 37 34 19 -62 0
31 17 38 37 34 19 -61 0
31 17 38 37 34 19 -60 0
31 17 18 37 22 19 -59 0
31 17 18 37 22 19 -62 0
31 17 18 37 22 19 -61 0
31 17 18 37 22 19 -60 0
31 17 18 22 34 19 -59 0
31 17 18 22 34 19 -62 0
31 17 18 22 34 19 -61 0
31 17 18 22 34 19 -60 0
31 17 37 22 34 19 -59 0
31 17 37 22 34 19 -62 0
31 17 37 22 34 19 -61 0
31 17 37 22 34 19 -60 0
31 38 26 37 30 34 -67 0
31 38 26 37 30 34 -65 0
31 38 26 37 30 34 -66 0
31 38 26 37 30 34 -68 0
31 38 26 37 34 28 -67 0
31 38 26 37 34 28 -65 0
31 38 26 37 34 28 -66 0
31 38 26 37 34 28 -68 0
31 38 4 37 1 34 -35 0
31 38 4 37 1 34 -32 0
31 38 4 37 1 34 -36 0
31 38 4 37 1 34 -33 0
31 38 4 37 34 6 -35 0
31 38 4 37 34 6 -32 0
31 38 4 37 34 6 -36 0
31 38 4 37 34 6 -33 0
31 38 7 37 11 34 -51 0
31 38 7 37 11 34 -49 0
31 38 7 37 11 34 -52 0
31 38 7 37 11 34 -50 0
31 38 7 37 34 10 -51 0
31 38 7 37 34 10 -49 0
31 38 7 37 34 10 -52 0
31 38 7 37 34 10 -50 0
31 38 18 37 22 34 -59 0
31 38 18 37 22 34 -62 0
31 38 18 37 22 34 -61 0
31 38 18 37 22 34 -60 0
31 38 18 37 34 19 -59 0
31 38 18 37 34 19 -62 0
31 38 18 37 34 19 -61 0
31 38 18 37 34 19 -60 0
31 38 37 30 34 28 -67 0
31 38 37 30 34 28 -65 0
31 38 37 30 34 28 -66 0
31 38 37 30 34 28 -68 0
31 38 37 1 34 6 -35 0
31 38 37 1 34 6 -32 0
31 38 37 1 34 6 -36 0
31 38 37 1 34 6 -33 0
31 38 37 11 34 10 -51 0
31 38 37 11 34 10 -49 0
31 38 37 11 34 10 -52 0
31 38 37 11 34 10 -50 0
31 38 37 22 34 19 -59 0
31 38 37 22 34 19 -62 0
31 38 37 22 34 19 -61 0
31 38 37 22 34 19 -60 0
23 5 26 4 30 1 -27 0
23 5 26 4 30 1 -24 0
23 5 26 4 30 1 -29 0
23 5 26 4 30 1 -25 0
23 5 26 4 30 28 -27 0
23 5 26 4 30 28 -24 0
23 5 26 4 30 28 -29 0
23 5 26 4 30 28 -25 0
23 5 26 4 1 6 -27 0
23 5 26 4 1 6 -24 0
23 5 26 4 1 6 -29 0
23 5 26 4 1 6 -25 0
23 5 26 4 28 6 -27 0
23 5 26 4 28 6 -24 0
23 5 26 4 28 6 -29 0
23 5 26 4 28 6 -25 0
23 5 26 30 1 28 -27 0
23 5 26 30 1 28 -24 0
23 5 26 30 1 28 -29 0
23 5 26 30 1 28 -25 0
23 5 26 30 28 6 -27 0
23 5 26 30 28 6 -24 0
23 5 26 30 28 6 -29 0
23 5 26 30 28 6 -25 0
23 5 4 30 1 6 -27 0
23 5 4 30 1 6 -24 0
23 5 4 30 1 6 -29 0
23 5 4 30 1 6 -25 0
23 5 4 1 28 6 -27 0
23 5 4 1 28 6 -24 0
23 5 4 1 28 6 -29 0
23 5 4 1 28 6 -25 0
23 5 30 1 28 6 -27 0
23 5 30 1 28 6 -24 0
23 5 30 1 28 6 -29 0
23 5 30 1 28 6 -25 0
23 12 26 7 30 11 -47 0
23 12 26 7 30 11 -45 0
23 12 26 7 30 11 -48 0
23 12 26 7 30 11 -46 0
23 12 26 7 30 28 -47 0
23 12 26 7 30 28 -45 0
23 12 26 7 30 28 -48 0
23 12 26 7 30 28 -46 0
23 12 26 7 11 10 -47 0
23 12 26 7 11 10 -45 0
23 12 26 7 11 10 -48 0
23 12 26 7 11 10 -46 0
23 12 26 7 28 10 -47 0
23 12 26 7 28 10 -45 0
23 12 26 7 28 10 -48 0
23 12 26 7 28 10 -46 0
23 12 26 30 11 28 -47 0
23 12 26 30 11 28 -45 0
23 12 26 30 11 28 -48 0
23 12 26 30 11 28 -46 0
23 12 26 30 28 10 -47 0
23 12 26 30 28 10 -45 0
23 12 26 30 28 10 -48 0
23 12 26 30 28 10 -46 0
23 12 7 30 11 10 -47 0
23 12 7 30 11 10 -45 0
23 12 7 30 11 10 -48 0
23 12 7 30 11 10 -46 0
23 12 7 11 28 10 -47 0
23 12 7 11 28 10 -45 0
23 12 7 11 28 10 -48 0
23 12 7 11 28 10 -46 0
23 12 30 11 28 10 -47 0
23 12 30 11 28 10 -45 0
23 12 30 11 28 10 -48 0
23 12 30 11 28 10 -46 0
23 17 26 18 30 22 -57 0
23 17 26 18 30 22 -55 0
23 17 26 18 30 22 -58 0
23 17 26 18 30 22 -56 0
23 17 26 18 30 28 -57 0
23 17 26 18 30 28 -55 0
23 17 26 18 30 28 -58 0
23 17 26 18 30 28 -56 0
23 17 26 18 22 19 -57 0
23 17 26 18 22 19 -55 0
23 17 26 18 22 19 -58 0
23 17 26 18 22 19 -56 0
23 17 26 18 28 19 -57 0
23 17 26 18 28 19 -55 0
23 17 26 18 28 19 -58 0
23 17 26 18 28 19 -56 0
23 17 26 30 22 28 -57 0
23 17 26 30 22 28 -55 0
23 17 26 30 22 28 -58 0
23 17 26 30 22 28 -56 0
23 17 26 30 28 19 -57 0
23 17 26 30 28 19 -55 0
23 17 26 30 28 19 -58 0
23 17 26 30 28 19 -56 0
23 17 18 30 22 19 -57 0
23 17 18 30 22 19 -55 0
23 17 18 30 22 19 -58 0
23 17 18 30 22 19 -56 0
23 17 18 22 28 19 -57 0
23 17 18 22 28 19 -55 0
23 17 18 22 28 19 -58 0
23 17 18 22 28 19 -56 0
23 17 30 22 28 19 -57 0
23 17 30 22 28 19 -55 0
23 17 30 22 28 19 -58 0
23 17 30 22 28 19 -56 0
23 38 26 37 30 28 -67 0
23 38 26 37 30 28 -65 0
23 38 26 37 30 28 -66 0
23 38 26 37 30 28 -68 0
23 38 26 30 34 28 -67 0
23 38 26 30 34 28 -65 0
23 38 26 30 34 28 -66 0
23 38 26 30 34 28 -68 0
23 26 4 30 1 28 -27 0
23 26 4 30 1 28 -24 0
23 26 4 30 1 28 -29 0
23 26 4 30 1 28 -25 0
23 26 4 30 28 6 -27 0
23 26 4 30 28 6 -24 0
23 26 4 30 28 6 -29 0
23 26 4 30 28 6 -25 0
23 26 7 30 11 28 -47 0
23 26 7 30 11 28 -45 0
23 26 7 30 11 28 -48 0
23 26 7 30 11 28 -46 0
23 26 7 30 28 10 -47 0
23 26 7 30 28 10 -45 0
23 26 7 30 28 10 -48 0
23 26 7 30 28 10 -46 0
23 26 18 30 22 28 -57 0
23 26 18 30 22 28 -55 0
23 26 18 30 22 28 -58 0
23 26 18 30 22 28 -56 0
23 26 18 30 28 19 -57 0
23 26 18 30 28 19 -55 0
23 26 18 30 28 19 -58 0
23 26 18 30 28 19 -56 0
23 26 37 30 34 28 -67 0
23 26 37 30 34 28 -65 0
23 26 37 30 34 28 -66 0
23 26 37 30 34 28 -68 0
23 26 30 1 28 6 -27 0
23 26 30 1 28 6 -24 0
23 26 30 1 28 6 -29 0
23 26 30 1 28 6 -25 0
23 26 30 11 28 10 -47 0
23 26 30 11 28 10 -45 0
23 26 30 11 28 10 -48 0
23 26 30 11 28 10 -46 0
23 26 30 22 28 19 -57 0
23 26 30 22 28 19 -55 0
23 26 30 22 28 19 -58 0
23 26 30 22 28 19 -56 0
5 12 4 7 1 11 -8 0
5 12 4 7 1 11 -13 0
5 12 4 7 1 11 -9 0
5 12 4 7 1 11 -14 0
5 12 4 7 1 6 -8 0
5 12 4 7 1 6 -13 0
5 12 4 7 1 6 -9 0
5 12 4 7 1 6 -14 0
5 12 4 7 11 10 -8 0
5 12 4 7 11 10 -13 0
5 12 4 7 11 10 -9 0
5 12 4 7 11 10 -14 0
5 12 4 7 6 10 -8 0
5 12 4 7 6 10 -13 0
5 12 4 7 6 10 -9 0
5 12 4 7 6 10 -14 0
5 12 4 1 11 6 -8 0
5 12 4 1 11 6 -13 0
5 12 4 1 11 6 -9 0
5 12 4 1 11 6 -14 0
5 12 4 1 6 10 -8 0
5 12 4 1 6 10 -13 0
5 12 4 1 6 10 -9 0
5 12 4 1 6 10 -14 0
5 12 7 1 11 10 -8 0
5 12 7 1 11 10 -13 0
5 12 7 1 11 10 -9 0
5 12 7 1 11 10 -14 0
5 12 7 11 6 10 -8 0
5 12 7 11 6 10 -13 0
5 12 7 11 6 10 -9 0
5 12 7 11 6 10 -14 0
5 12 1 11 6 10 -8 0
5 12 1 11 6 10 -13 0
5 12 1 11 6 10 -9 0
5 12 1 11 6 10 -14 0
5 17 4 18 1 22 -15 0
5 17 4 18 1 22 -21 0
5 17 4 18 1 22 -16 0
5 17 4 18 1 22 -20 0
5 17 4 18 1 6 -15 0
5 17 4 18 1 6 -21 0
5 17 4 18 1 6 -16 0
5 17 4 18 1 6 -20 0
5 17 4 18 22 19 -15 0
5 17 4 18 22 19 -21 0
5 17 4 18 22 19 -16 0
5 17 4 18 22 19 -20 0
5 17 4 18 6 19 -15 0
5 17 4 18 6 19 -21 0
5 17 4 18 6 19 -16 0
5 17 4 18 6 19 -20 0
5 17 4 1 22 6 -15 0
5 17 4 1 22 6 -21 0
5 17 4 1 22 6 -16 0
5 17 4 1 22 6 -20 0
5 17 4 1 6 19 -15 0
5 17 4 1 6 19 -21 0
5 17 4 1 6 19 -16 0
5 17 4 1 6 19 -20 0
5 17 18 1 22 19 -15 0
5 17 18 1 22 19 -21 0
5 17 18 1 22 19 -16 0
5 17 18 1 22 19 -20 0
5 17 18 22 6 19 -15 0
5 17 18 22 6 19 -21 0
5 17 18 22 6 19 -16 0
5 17 18 22 6 19 -20 0
5 17 1 22 6 19 -15 0
5 17 1 22 6 19 -21 0
5 17 1 22 6 19 -16 0
5 17 1 22 6 19 -20 0
5 38 4 37 1 6 -35 0
5 38 4 37 1 6 -32 0
5 38 4 37 1 6 -36 0
5 38 4 37 1 6 -33 0
5 38 4 1 34 6 -35 0
5 38 4 1 34 6 -32 0
5 38 4 1 34 6 -36 0
5 38 4 1 34 6 -33 0
5 26 4 30 1 6 -27 0
5 26 4 30 1 6 -24 0
5 26 4 30 1 6 -29 0
5 26 4 30 1 6 -25 0
5 26 4 1 28 6 -27 0
5 26 4 1 28 6 -24 0
5 26 4 1 28 6 -29 0
5 26 4 1 28 6 -25 0
5 4 7 1 11 6 -8 0
5 4 7 1 11 6 -13 0
5 4 7 1 11 6 -9 0
5 4 7 1 11 6 -14 0
5 4 7 1 6 10 -8 0
5 4 7 1 6 10 -13 0
5 4 7 1 6 10 -9 0
5 4 7 1 6 10 -14 0
5 4 18 1 22 6 -15 0
5 4 18 1 22 6 -21 0
5 4 18 1 22 6 -16 0
5 4 18 1 22 6 -20 0
5 4 18 1 6 19 -15 0
5 4 18 1 6 19 -21 0
5 4 18 1 6 19 -16 0
5 4 18 1 6 19 -20 0
5 4 37 1 34 6 -35 0
5 4 37 1 34 6 -32 0
5 4 37 1 34 6 -36 0
5 4 37 1 34 6 -33 0
5 4 30 1 28 6 -27 0
5 4 30 1 28 6 -24 0
5 4 30 1 28 6 -29 0
5 4 30 1 28 6 -25 0
5 4 1 11 6 10 -8 0
5 4 1 11 6 10 -13 0
5 4 1 11 6 10 -9 0
5 4 1 11 6 10 -14 0
5 4 1 22 6 19 -15 0
5 4 1 22 6 19 -21 0
5 4 1 22 6 19 -16 0
5 4 1 22 6 19 -20 0
12 17 7 18 11 22 -41 0
12 17 7 18 11 22 -43 0
12 17 7 18 11 22 -42 0
12 17 7 18 11 22 -44 0
12 17 7 18 11 10 -41 0
12 17 7 18 11 10 -43 0
12 17 7 18 11 10 -42 0
12 17 7 18 11 10 -44 0
12 17 7 18 22 19 -41 0
12 17 7 18 22 19 -43 0
12 17 7 18 22 19 -42 0
12 17 7 18 22 19 -44 0
12 17 7 18 10 19 -41 0
12 17 7 18 10 19 -43 0
12 17 7 18 10 19 -42 0
12 17 7 18 10 19 -44 0
12 17 7 11 22 10 -41 0
12 17 7 11 22 10 -43 0
12 17 7 11 22 10 -42 0
12 17 7 11 22 10 -44 0
12 17 7 11 10 19 -41 0
12 17 7 11 10 19 -43 0
12 17 7 11 10 19 -42 0
12 17 7 11 10 19 -44 0
12 17 18 11 22 19 -41 0
12 17 18 11 22 19 -43 0
12 17 18 11 22 19 -42 0
12 17 18 11 22 19 -44 0
12 17 18 22 10 19 -41 0
12 17 18 22 10 19 -43 0
12 17 18 22 10 19 -42 0
12 17 18 22 10 19 -44 0
12 17 11 22 10 19 -41 0
12 17 11 22 10 19 -43 0
12 17 11 22 10 19 -42 0
12 17 11 22 10 19 -44 0
12 38 7 37 11 10 -51 0
12 38 7 37 11 10 -49 0
12 38 7 37 11 10 -52 0
12 38 7 37 11 10 -50 0
12 38 7 11 34 10 -51 0
12 38 7 11 34 10 -49 0
12 38 7 11 34 10 -52 0
12 38 7 11 34 10 -50 0
12 26 7 30 11 10 -47 0
12 26 7 30 11 10 -45 0
12 26 7 30 11 10 -48 0
12 26 7 30 11 10 -46 0
12 26 7 11 28 10 -47 0
12 26 7 11 28 10 -45 0
12 26 7 11 28 10 -48 0
12 26 7 11 28 10 -46 0
12 4 7 1 11 10 -8 0
12 4 7 1 11 10 -13 0
12 4 7 1 11 10 -9 0
12 4 7 1 11 10 -14 0
12 4 7 11 6 10 -8 0
12 4 7 11 6 10 -13 0
12 4 7 11 6 10 -9 0
12 4 7 11 6 10 -14 0
12 7 18 11 22 10 -41 0
12 7 18 11 22 10 -43 0
12 7 18 11 22 10 -42 0
12 7 18 11 22 10 -44 0
12 7 18 11 10 19 -41 0
12 7 18 11 10 19 -43 0
12 7 18 11 10 19 -42 0
12 7 18 11 10 19 -44 0
12 7 37 11 34 10 -51 0
12 7 37 11 34 10 -49 0
12 7 37 11 34 10 -52 0
12 7 37 11 34 10 -50 0
12 7 30 11 28 10 -47 0
12 7 30 11 28 10 -45 0
12 7 30 11 28 10 -48 0
12 7 30 11 28 10 -46 0
12 7 1 11 6 10 -8 0
12 7 1 11 6 10 -13 0
12 7 1 11 6 10 -9 0
12 7 1 11 6 10 -14 0
12 7 11 22 10 19 -41 0
12 7 11 22 10 19 -43 0
12 7 11 22 10 19 -42 0
12 7 11 22 10 19 -44 0
17 38 18 37 22 19 -59 0
17 38 18 37 22 19 -62 0
17 38 18 37 22 19 -61 0
17 38 18 37 22 19 -60 0
17 38 18 22 34 19 -59 0
17 38 18 22 34 19 -62 0
17 38 18 22 34 19 -61 0
17 38 18 22 34 19 -60 0
17 26 18 30 22 19 -57 0
17 26 18 30 22 19 -55 0
17 26 18 30 22 19 -58 0
17 26 18 30 22 19 -56 0
17 26 18 22 28 19 -57 0
17 26 18 22 28 19 -55 0
17 26 18 22 28 19 -58 0
17 26 18 22 28 19 -56 0
17 4 18 1 22 19 -15 0
17 4 18 1 22 19 -21 0
17 4 18 1 22 19 -16 0
17 4 18 1 22 19 -20 0
17 4 18 22 6 19 -15 0
17 4 18 22 6 19 -21 0
17 4 18 22 6 19 -16 0
17 4 18 22 6 19 -20 0
17 7 18 11 22 19 -41 0
17 7 18 11 22 19 -43 0
17 7 18 11 22 19 -42 0
17 7 18 11 22 19 -44 0
17 7 18 22 10 19 -41 0
17 7 18 22 10 19 -43 0
17 7 18 22 10 19 -42 0
17 7 18 22 10 19 -44 0
17 18 37 22 34 19 -59 0
17 18 37 22 34 19 -62 0
17 18 37 22 34 19 -61 0
17 18 37 22 34 19 -60 0
17 18 30 22 28 19 -57 0
17 18 30 22 28 19 -55 0
17 18 30 22 28 19 -58 0
17 18 30 22 28 19 -56 0
17 18 1 22 6 19 -15 0
17 18 1 22 6 19 -21 0
17 18 1 22 6 19 -16 0
17 18 1 22 6 19 -20 0
17 18 11 22 10 19 -41 0
17 18 11 22 10 19 -43 0
17 18 11 22 10 19 -42 0
17 18 11 22 10 19 -44 0
38 26 37 30 34 28 -67 0
38 26 37 30 34 28 -65 0
38 26 37 30 34 28 -66 0
38 26 37 30 34 28 -68 0
38 4 37 1 34 6 -35 0
38 4 37 1 34 6 -32 0
38 4 37 1 34 6 -36 0
38 4 37 1 34 6 -33 0
38 7 37 11 34 10 -51 0
38 7 37 11 34 10 -49 0
38 7 37 11 34 10 -52 0
38 7 37 11 34 10 -50 0
38 18 37 22 34 19 -59 0
38 18 37 22 34 19 -62 0
38 18 37 22 34 19 -61 0
38 18 37 22 34 19 -60 0
26 4 30 1 28 6 -27 0
26 4 30 1 28 6 -24 0
26 4 30 1 28 6 -29 0
26 4 30 1 28 6 -25 0
26 7 30 11 28 10 -47 0
26 7 30 11 28 10 -45 0
26 7 30 11 28 10 -48 0
26 7 30 11 28 10 -46 0
26 18 30 22 28 19 -57 0
26 18 30 22 28 19 -55 0
26 18 30 22 28 19 -58 0
26 18 30 22 28 19 -56 0
4 7 1 11 6 10 -8 0
4 7 1 11 6 10 -13 0
4 7 1 11 6 10 -9 0
4 7 1 11 6 10 -14 0
4 18 1 22 6 19 -15 0
4 18 1 22 6 19 -21 0
4 18 1 22 6 19 -16 0
4 18 1 22 6 19 -20 0
7 18 11 22 10 19 -41 0
7 18 11 22 10 19 -43 0
7 18 11 22 10 19 -42 0
7 18 11 22 10 19 -44 0
31 23 38 26 37 30 34 -67 0
31 23 38 26 37 30 34 -65 0
31 23 38 26 37 30 34 -66 0
31 23 38 26 37 30 34 -68 0
31 23 38 26 37 30 28 -67 0
31 23 38 26 37 30 28 -65 0
31 23 38 26 37 30 28 -66 0
31 23 38 26 37 30 28 -68 0
31 23 38 26 37 34 28 -67 0
31 23 38 26 37 34 28 -65 0
31 23 38 26 37 34 28 -66 0
31 23 38 26 37 34 28 -68 0
31 23 38 26 30 34 28 -67 0
31 23 38 26 30 34 28 -65 0
31 23 38 26 30 34 28 -66 0
31 23 38 26 30 34 28 -68 0
31 23 38 37 30 34 28 -67 0
31 23 38 37 30 34 28 -65 0
31 23 38 37 30 34 28 -66 0
31 23 38 37 30 34 28 -68 0
31 23 26 37 30 34 28 -67 0
31 23 26 37 30 34 28 -65 0
31 23 26 37 30 34 28 -66 0
31 23 26 37 30 34 28 -68 0
31 5 38 4 37 1 34 -35 0
31 5 38 4 37 1 34 -32 0
31 5 38 4 37 1 34 -36 0
31 5 38 4 37 1 34 -33 0
31 5 38 4 37 1 6 -35 0
31 5 38 4 37 1 6 -32 0
31 5 38 4 37 1 6 -36 0
31 5 38 4 37 1 6 -33 0
31 5 38 4 37 34 6 -35 0
31 5 38 4 37 34 6 -32 0
31 5 38 4 37 34 6 -36 0
31 5 38 4 37 34 6 -33 0
31 5 38 4 1 34 6 -35 0
31 5 38 4 1 34 6 -32 0
31 5 38 4 1 34 6 -36 0
31 5 38 4 1 34 6 -33 0
31 5 38 37 1 34 6 -35 0
31 5 38 37 1 34 6 -32 0
31 5 38 37 1 34 6 -36 0
31 5 38 37 1 34 6 -33 0
31 5 4 37 1 34 6 -35 0
31 5 4 37 1 34 6 -32 0
31 5 4 37 1 34 6 -36 0
31 5 4 37 1 34 6 -33 0
31 12 38 7 37 11 34 -51 0
31 12 38 7 37 11 34 -49 0
31 12 38 7 37 11 34 -52 0
31 12 38 7 37 11 34 -50 0
31 12 38 7 37 11 10 -51 0
31 12 38 7 37 11 10 -49 0
31 12 38 7 37 11 10 -52 0
31 12 38 7 37 11 10 -50 0
31 12 38 7 37 34 10 -51 0
31 12 38 7 37 34 10 -49 0
31 12 38 7 37 34 10 -52 0
31 12 38 7 37 34 10 -50 0
31 12 38 7 11 34 10 -51 0
31 12 38 7 11 34 10 -49 0
31 12 38 7 11 34 10 -52 0
31 12 38 7 11 34 10 -50 0
31 12 38 37 11 34 10 -51 0
31 12 38 37 11 34 10 -49 0
31 12 38 37 11 34 10 -52 0
31 12 38 37 11 34 10 -50 0
31 12 7 37 11 34 10 -51 0
31 12 7 37 11 34 10 -49 0
31 12 7 37 11 34 10 -52 0
31 12 7 37 11 34 10 -50 0
31 17 38 18 37 22 34 -59 0
31 17 38 18 37 22 34 -62 0
31 17 38 18 37 22 34 -61 0
31 17 38 18 37 22 34 -60 0
31 17 38 18 37 22 19 -59 0
31 17 38 18 37 22 19 -62 0
31 17 38 18 37 22 19 -61 0
31 17 38 18 37 22 19 -60 0
31 17 38 18 37 34 19 -59 0
31 17 38 18 37 34 19 -62 0
31 17 38 18 37 34 19 -61 0
31 17 38 18 37 34 19 -60 0
31 17 38 18 22 34 19 -59 0
31 17 38 18 22 34 19 -62 0
31 17 38 18 22 34 19 -61 0
31 17 38 18 22 34 19 -60 0
31 17 38 37 22 34 19 -59 0
31 17 38 37 22 34 19 -62 0
31 17 38 37 22 34 19 -61 0
31 17 38 37 22 34 19 -60 0
31 17 18 37 22 34 19 -59 0
31 17 18 37 22 34 19 -62 0
31 17 18 37 22 34 19 -61 0
31 17 18 37 22 34 19 -60 0
31 38 26 37 30 34 28 -67 0
31 38 26 37 30 34 28 -65 0
31 38 26 37 30 34 28 -66 0
31 38 26 37 30 34 28 -68 0
31 38 4 37 1 34 6 -35 0
31 38 4 37 1 34 6 -32 0
31 38 4 37 1 34 6 -36 0
31 38 4 37 1 34 6 -33 0
31 38 7 37 11 34 10 -51 0
31 38 7 37 11 34 10 -49 0
31 38 7 37 11 34 10 -52 0
31 38 7 37 11 34 10 -50 0
31 38 18 37 22 34 19 -59 0
31 38 18 37 22 34 19 -62 0
31 38 18 37 22 34 19 -61 0
31 38 18 37 22 34 19 -60 0
23 5 26 4 30 1 28 -27 0
23 5 26 4 30 1 28 -24 0
23 5 26 4 30 1 28 -29 0
23 5 26 4 30 1 28 -25 0
23 5 26 4 30 1 6 -27 0
23 5 26 4 30 1 6 -24 0
23 5 26 4 30 1 6 -29 0
23 5 26 4 30 1 6 -25 0
23 5 26 4 30 28 6 -27 0
23 5 26 4 30 28 6 -24 0
23 5 26 4 30 28 6 -29 0
23 5 26 4 30 28 6 -25 0
23 5 26 4 1 28 6 -27 0
23 5 26 4 1 28 6 -24 0
23 5 26 4 1 28 6 -29 0
23 5 26 4 1 28 6 -25 0
23 5 26 30 1 28 6 -27 0
23 5 26 30 1 28 6 -24 0
23 5 26 30 1 28 6 -29 0
23 5 26 30 1 28 6 -25 0
23 5 4 30 1 28 6 -27 0
23 5 4 30 1 28 6 -24 0
23 5 4 30 1 28 6 -29 0
23 5 4 30 1 28 6 -25 0
23 12 26 7 30 11 28 -47 0
23 12 26 7 30 11 28 -45 0
23 12 26 7 30 11 28 -48 0
23 12 26 7 30 11 28 -46 0
23 12 26 7 30 11 10 -47 0
23 12 26 7 30 11 10 -45 0
23 12 26 7 30 11 10 -48 0
23 12 26 7 30 11 10 -46 0
23 12 26 7 30 28 10 -47 0
23 12 26 7 30 28 10 -45 0
23 12 26 7 30 28 10 -48 0
23 12 26 7 30 28 10 -46 0
23 12 26 7 11 28 10 -47 0
23 12 26 7 11 28 10 -45 0
23 12 26 7 11 28 10 -48 0
23 12 26 7 11 28 10 -46 0
23 12 26 30 11 28 10 -47 0
23 12 26 30 11 28 10 -45 0
23 12 26 30 11 28 10 -48 0
23 12 26 30 11 28 10 -46 0
23 12 7 30 11 28 10 -47 0
23 12 7 30 11 28 10 -45 0
23 12 7 30 11 28 10 -48 0
23 12 7 30 11 28 10 -46 0
23 17 26 18 30 22 28 -57 0
23 17 26 18 30 22 28 -55 0
23 17 26 18 30 22 28 -58 0
23 17 26 18 30 22 28 -56 0
23 17 26 18 30 22 19 -57 0
23 17 26 18 30 22 19 -55 0
23 17 26 18 30 22 19 -58 0
23 17 26 18 30 22 19 -56 0
23 17 26 18 30 28 19 -57 0
23 17 26 18 30 28 19 -55 0
23 17 26 18 30 28 19 -58 0
23 17 26 18 30 28 19 -56 0
23 17 26 18 22 28 19 -57 0
23 17 26 18 22 28 19 -55 0
23 17 26 18 22 28 19 -58 0
23 17 26 18 22 28 19 -56 0
23 17 26 30 22 28 19 -57 0
23 17 26 30 22 28 19 -55 0
23 17 26 30 22 28 19 -58 0
23 17 26 30 22 28 19 -56 0
23 17 18 30 22 28 19 -57 0
23 17 18 30 22 28 19 -55 0
23 17 18 30 22 28 19 -58 0
23 17 18 30 22 28 19 -56 0
23 38 26 37 30 34 28 -67 0
23 38 26 37 30 34 28 -65 0
23 38 26 37 30 34 28 -66 0
23 38 26 37 30 34 28 -68 0
23 26 4 30 1 28 6 -27 0
23 26 4 30 1 28 6 -24 0
23 26 4 30 1 28 6 -29 0
23 26 4 30 1 28 6 -25 0
23 26 7 30 11 28 10 -47 0
23 26 7 30 11 28 10 -45 0
23 26 7 30 11 28 10 -48 0
23 26 7 30 11 28 10 -46 0
23 26 18 30 22 28 19 -57 0
23 26 18 30 22 28 19 -55 0
23 26 18 30 22 28 19 -58 0
23 26 18 30 22 28 19 -56 0
5 12 4 7 1 11 6 -8 0
5 12 4 7 1 11 6 -13 0
5 12 4 7 1 11 6 -9 0
5 12 4 7 1 11 6 -14 0
5 12 4 7 1 11 10 -8 0
5 12 4 7 1 11 10 -13 0
5 12 4 7 1 11 10 -9 0
5 12 4 7 1 11 10 -14 0
5 12 4 7 1 6 10 -8 0
5 12 4 7 1 6 10 -13 0
5 12 4 7 1 6 10 -9 0
5 12 4 7 1 6 10 -14 0
5 12 4 7 11 6 10 -8 0
5 12 4 7 11 6 10 -13 0
5 12 4 7 11 6 10 -9 0
5 12 4 7 11 6 10 -14 0
5 12 4 1 11 6 10 -8 0
5 12 4 1 11 6 10 -13 0
5 12 4 1 11 6 10 -9 0
5 12 4 1 11 6 10 -14 0
5 12 7 1 11 6 10 -8 0
5 12 7 1 11 6 10 -13 0
5 12 7 1 11 6 10 -9 0
5 12 7 1 11 6 10 -14 0
5 17 4 18 1 22 6 -15 0
5 17 4 18 1 22 6 -21 0
5 17 4 18 1 22 6 -16 0
5 17 4 18 1 22 6 -20 0
5 17 4 18 1 22 19 -15 0
5 17 4 18 1 22 19 -21 0
5 17 4 18 1 22 19 -16 0
5 17 4 18 1 22 19 -20 0
5 17 4 18 1 6 19 -15 0
5 17 4 18 1 6 19 -21 0
5 17 4 18 1 6 19 -16 0
5 17 4 18 1 6 19 -20 0
5 17 4 18 22 6 19 -15 0
5 17 4 18 22 6 19 -21 0
5 17 4 18 22 6 19 -16 0
5 17 4 18 22 6 19 -20 0
5 17 4 1 22 6 19 -15 0
5 17 4 1 22 6 19 -21 0
5 17 4 1 22 6 19 -16 0
5 17 4 1 22 6 19 -20 0
5 17 18 1 22 6 19 -15 0
5 17 18 1 22 6 19 -21 0
5 17 18 1 22 6 19 -16 0
5 17 18 1 22 6 19 -20 0
5 38 4 37 1 34 6 -35 0
5 38 4 37 1 34 6 -32 0
5 38 4 37 1 34 6 -36 0
5 38 4 37 1 34 6 -33 0
5 26 4 30 1 28 6 -27 0
5 26 4 30 1 28 6 -24 0
5 26 4 30 1 28 6 -29 0
5 26 4 30 1 28 6 -25 0
5 4 7 1 11 6 10 -8 0
5 4 7 1 11 6 10 -13 0
5 4 7 1 11 6 10 -9 0
5 4 7 1 11 6 10 -14 0
5 4 18 1 22 6 19 -15 0
5 4 18 1 22 6 19 -21 0
5 4 18 1 22 6 19 -16 0
5 4 18 1 22 6 19 -20 0
12 17 7 18 11 22 10 -41 0
12 17 7 18 11 22 10 -43 0
12 17 7 18 11 22 10 -42 0
12 17 7 18 11 22 10 -44 0
12 17 7 18 11 22 19 -41 0
12 17 7 18 11 22 19 -43 0
12 17 7 18 11 22 19 -42 0
12 17 7 18 11 22 19 -44 0
12 17 7 18 11 10 19 -41 0
12 17 7 18 11 10 19 -43 0
12 17 7 18 11 10 19 -42 0
12 17 7 18 11 10 19 -44 0
12 17 7 18 22 10 19 -41 0
12 17 7 18 22 10 19 -43 0
12 17 7 18 22 10 19 -42 0
12 17 7 18 22 10 19 -44 0
12 17 7 11 22 10 19 -41 0
12 17 7 11 22 10 19 -43 0
12 17 7 11 22 10 19 -42 0
12 17 7 11 22 10 19 -44 0
12 17 18 11 22 10 19 -41 0
12 17 18 11 22 10 19 -43 0
12 17 18 11 22 10 19 -42 0
12 17 18 11 22 10 19 -44 0
12 38 7 37 11 34 10 -51 0
12 38 7 37 11 34 10 -49 0
12 38 7 37 11 34 10 -52 0
12 38 7 37 11 34 10 -50 0
12 26 7 30 11 28 10 -47 0
12 26 7 30 11 28 10 -45 0
12 26 7 30 11 28 10 -48 0
12 26 7 30 11 28 10 -46 0
12 4 7 1 11 6 10 -8 0
12 4 7 1 11 6 10 -13 0
12 4 7 1 11 6 10 -9 0
12 4 7 1 11 6 10 -14 0
12 7 18 11 22 10 19 -41 0
12 7 18 11 22 10 19 -43 0
12 7 18 11 22 10 19 -42 0
12 7 18 11 22 10 19 -44 0
17 38 18 37 22 34 19 -59 0
17 38 18 37 22 34 19 -62 0
17 38 18 37 22 34 19 -61 0
17 38 18 37 22 34 19 -60 0
17 26 18 30 22 28 19 -57 0
17 26 18 30 22 28 19 -55 0
17 26 18 30 22 28 19 -58 0
17 26 18 30 22 28 19 -56 0
17 4 18 1 22 6 19 -15 0
17 4 18 1 22 6 19 -21 0
17 4 18 1 22 6 19 -16 0
17 4 18 1 22 6 19 -20 0
17 7 18 11 22 10 19 -41 0
17 7 18 11 22 10 19 -43 0
17 7 18 11 22 10 19 -42 0
17 7 18 11 22 10 19 -44 0
31 23 38 26 37 30 34 28 -67 0
31 23 38 26 37 30 34 28 -65 0
31 23 38 26 37 30 34 28 -66 0
31 23 38 26 37 30 34 28 -68 0
31 5 38 4 37 1 34 6 -35 0
31 5 38 4 37 1 34 6 -32 0
31 5 38 4 37 1 34 6 -36 0
31 5 38 4 37 1 34 6 -33 0
31 12 38 7 37 11 34 10 -51 0
31 12 38 7 37 11 34 10 -49 0
31 12 38 7 37 11 34 10 -52 0
31 12 38 7 37 11 34 10 -50 0
31 17 38 18 37 22 34 19 -59 0
31 17 38 18 37 22 34 19 -62 0
31 17 38 18 37 22 34 19 -61 0
31 17 38 18 37 22 34 19 -60 0
23 5 26 4 30 1 28 6 -27 0
23 5 26 4 30 1 28 6 -24 0
23 5 26 4 30 1 28 6 -29 0
23 5 26 4 30 1 28 6 -25 0
23 12 26 7 30 11 28 10 -47 0
23 12 26 7 30 11 28 10 -45 0
23 12 26 7 30 11 28 10 -48 0
23 12 26 7 30 11 28 10 -46 0
23 17 26 18 30 22 28 19 -57 0
23 17 26 18 30 22 28 19 -55 0
23 17 26 18 30 22 28 19 -58 0
23 17 26 18 30 22 28 19 -56 0
5 12 4 7 1 11 6 10 -8 0
5 12 4 7 1 11 6 10 -13 0
5 12 4 7 1 11 6 10 -9 0
5 12 4 7 1 11 6 10 -14 0
5 17 4 18 1 22 6 19 -15 0
5 17 4 18 1 22 6 19 -21 0
5 17 4 18 1 22 6 19 -16 0
5 17 4 18 1 22 6 19 -20 0
12 17 7 18 11 22 10 19 -41 0
12 17 7 18 11 22 10 19 -43 0
12 17 7 18 11 22 10 19 -42 0
12 17 7 18 11 22 10 19 -44 0
