c U3(4) U2(4) U4(4) E1(4,4) E2(4,4) U1(4) U3(0) E1(4,0) E2(4,0) U1(0) U4(0) U2(0) E1(0,4) E2(0,4) E1(5,4) U2(5) U4(5) E2(5,4) E1(4,5) U3(5) E2(4,5) U1(5) U2(2) E2(4,2) E1(4,2) E2(2,4) U4(2) E1(2,4) U1(2) U3(2) E2(4,1) U3(1) E1(4,1) E2(1,4) E1(1,4) U1(1) U4(1) U2(1) U3(3) U2(3) E1(3,4) E2(4,3) U1(3) U4(3) E1(4,3) E2(3,4) E1(0,0) E2(0,0) E2(5,0) E1(0,5) E2(0,5) E1(5,0) E1(2,0) E1(0,2) E2(2,0) E2(0,2) E2(0,1) E2(1,0) E1(0,1) E1(1,0) E1(0,3) E1(3,0) E2(0,3) E2(3,0) E2(5,5) E1(5,5) E2(5,2) E1(2,5) E2(2,5) E1(5,2) E2(1,5) E1(5,1) E1(1,5) E2(5,1) E2(3,5) E1(3,5) E2(5,3) E1(5,3) E1(2,2) E2(2,2) E2(1,2) E2(2,1) E1(2,1) E1(1,2) E1(2,3) E2(3,2) E1(3,2) E2(2,3) E1(1,1) E2(1,1) E1(1,3) E2(3,1) E1(3,1) E2(1,3) E1(3,3) E2(3,3)
c 1 2 3 4 5 6 7 8 9 10 11 12 13 14 15 16 17 18 19 20 21 22 23 24 25 26 27 28 29 30 31 32 33 34 35 36 37 38 39 40 41 42 43 44 45 46 47 48 49 50 51 52 53 54 55 56 57 58 59 60 61 62 63 64 65 66 67 68 69 70 71 72 73 74 75 76 77 78 79 80 81 82 83 84 85 86 87 88 89 90 91 92 93 94 95 96
p cnf 96 2256
-47 0
-89 0
-79 0
-95 0
-4 0
-66 0
-48 0
-90 0
-80 0
-96 0
-5 0
-65 0
-59 -60 0
-54 -53 0
-61 -62 0
-13 -8 0
-50 -52 0
-84 -83 0
-91 -93 0
-35 -33 0
-73 -72 0
-85 -87 0
-28 -25 0
-68 -70 0
-41 -45 0
-76 -78 0
-19 -15 0
-57 -58 0
-56 -55 0
-63 -64 0
-14 -9 0
-51 -49 0
-81 -82 0
-94 -92 0
-34 -31 0
-71 -74 0
-88 -86 0
-26 -24 0
-69 -67 0
-46 -42 0
-75 -77 0
-21 -18 0
-10 -12 0
-10 -7 0
-10 -11 0
-36 -38 0
-36 -32 0
-36 -37 0
-29 -23 0
-29 -30 0
-29 -27 0
-43 -40 0
-43 -39 0
-43 -44 0
-6 -2 0
-6 -1 0
-6 -3 0
-22 -16 0
-22 -20 0
-22 -17 0
-12 -7 0
-12 -11 0
-38 -32 0
-38 -37 0
-23 -30 0
-23 -27 0
-40 -39 0
-40 -44 0
-2 -1 0
-2 -3 0
-16 -20 0
-16 -17 0
-7 -11 0
-32 -37 0
-30 -27 0
-39 -44 0
-1 -3 0
-20 -17 0
10 12 7 11 0
36 38 32 37 0
29 23 30 27 0
43 40 39 44 0
6 2 1 3 0
22 16 20 17 0
10 12 7 -47 0
10 12 7 -48 0
10 12 11 -47 0
10 12 11 -48 0
10 7 11 -47 0
10 7 11 -48 0
36 38 32 -89 0
36 38 32 -90 0
36 38 37 -89 0
36 38 37 -90 0
36 32 37 -89 0
36 32 37 -90 0
29 23 30 -79 0
29 23 30 -80 0
29 23 27 -79 0
29 23 27 -80 0
29 30 27 -79 0
29 30 27 -80 0
43 40 39 -95 0
43 40 39 -96 0
43 40 44 -95 0
43 40 44 -96 0
43 39 44 -95 0
43 39 44 -96 0
6 2 1 -4 0
6 2 1 -5 0
6 2 3 -4 0
6 2 3 -5 0
6 1 3 -4 0
6 1 3 -5 0
22 16 20 -66 0
22 16 20 -65 0
22 16 17 -66 0
22 16 17 -65 0
22 20 17 -66 0
22 20 17 -65 0
12 7 11 -47 0
12 7 11 -48 0
38 32 37 -89 0
38 32 37 -90 0
23 30 27 -79 0
23 30 27 -80 0
40 39 44 -95 0
40 39 44 -96 0
2 1 3 -4 0
2 1 3 -5 0
16 20 17 -66 0
16 20 17 -65 0
10 12 7 11 -47 0
10 12 7 11 -59 0
10 12 7 11 -54 0
10 12 7 11 -61 0
10 12 7 11 -13 0
10 12 7 11 -50 0
10 12 7 11 -60 0
10 12 7 11 -53 0
10 12 7 11 -62 0
10 12 7 11 -8 0
10 12 7 11 -52 0
10 12 7 11 -48 0
10 12 7 11 -57 0
10 12 7 11 -56 0
10 12 7 11 -63 0
10 12 7 11 -14 0
10 12 7 11 -51 0
10 12 7 11 -58 0
10 12 7 11 -55 0
10 12 7 11 -64 0
10 12 7 11 -9 0
10 12 7 11 -49 0
36 38 32 37 -59 0
36 38 32 37 -60 0
36 38 32 37 -89 0
36 38 32 37 -84 0
36 38 32 37 -91 0
36 38 32 37 -35 0
36 38 32 37 -73 0
36 38 32 37 -83 0
36 38 32 37 -93 0
36 38 32 37 -33 0
36 38 32 37 -72 0
36 38 32 37 -57 0
36 38 32 37 -58 0
36 38 32 37 -90 0
36 38 32 37 -81 0
36 38 32 37 -94 0
36 38 32 37 -34 0
36 38 32 37 -71 0
36 38 32 37 -82 0
36 38 32 37 -92 0
36 38 32 37 -31 0
36 38 32 37 -74 0
29 23 30 27 -54 0
29 23 30 27 -84 0
29 23 30 27 -53 0
29 23 30 27 -83 0
29 23 30 27 -79 0
29 23 30 27 -85 0
29 23 30 27 -28 0
29 23 30 27 -68 0
29 23 30 27 -87 0
29 23 30 27 -25 0
29 23 30 27 -70 0
29 23 30 27 -56 0
29 23 30 27 -81 0
29 23 30 27 -55 0
29 23 30 27 -82 0
29 23 30 27 -80 0
29 23 30 27 -88 0
29 23 30 27 -26 0
29 23 30 27 -69 0
29 23 30 27 -86 0
29 23 30 27 -24 0
29 23 30 27 -67 0
43 40 39 44 -61 0
43 40 39 44 -91 0
43 40 39 44 -85 0
43 40 39 44 -62 0
43 40 39 44 -93 0
43 40 39 44 -87 0
43 40 39 44 -95 0
43 40 39 44 -41 0
43 40 39 44 -76 0
43 40 39 44 -45 0
43 40 39 44 -78 0
43 40 39 44 -63 0
43 40 39 44 -94 0
43 40 39 44 -88 0
43 40 39 44 -64 0
43 40 39 44 -92 0
43 40 39 44 -86 0
43 40 39 44 -96 0
43 40 39 44 -46 0
43 40 39 44 -75 0
43 40 39 44 -42 0
43 40 39 44 -77 0
6 2 1 3 -13 0
6 2 1 3 -35 0
6 2 1 3 -28 0
6 2 1 3 -41 0
6 2 1 3 -8 0
6 2 1 3 -33 0
6 2 1 3 -25 0
6 2 1 3 -45 0
6 2 1 3 -4 0
6 2 1 3 -19 0
6 2 1 3 -15 0
6 2 1 3 -14 0
6 2 1 3 -34 0
6 2 1 3 -26 0
6 2 1 3 -46 0
6 2 1 3 -9 0
6 2 1 3 -31 0
6 2 1 3 -24 0
6 2 1 3 -42 0
6 2 1 3 -5 0
6 2 1 3 -21 0
6 2 1 3 -18 0
22 16 20 17 -50 0
22 16 20 17 -73 0
22 16 20 17 -68 0
22 16 20 17 -76 0
22 16 20 17 -19 0
22 16 20 17 -52 0
22 16 20 17 -72 0
22 16 20 17 -70 0
22 16 20 17 -78 0
22 16 20 17 -15 0
22 16 20 17 -66 0
22 16 20 17 -51 0
22 16 20 17 -71 0
22 16 20 17 -69 0
22 16 20 17 -75 0
22 16 20 17 -21 0
22 16 20 17 -49 0
22 16 20 17 -74 0
22 16 20 17 -67 0
22 16 20 17 -77 0
22 16 20 17 -18 0
22 16 20 17 -65 0
47 59 54 61 13 50 0
60 89 84 91 35 73 0
53 83 79 85 28 68 0
62 93 87 95 41 76 0
8 33 25 45 4 19 0
52 72 70 78 15 66 0
48 57 56 63 14 51 0
58 90 81 94 34 71 0
55 82 80 88 26 69 0
64 92 86 96 46 75 0
9 31 24 42 5 21 0
49 74 67 77 18 65 0
10 36 12 7 11 -59 0
10 36 12 7 11 -60 0
10 36 12 7 11 -57 0
10 36 12 7 11 -58 0
10 36 38 32 37 -59 0
10 36 38 32 37 -60 0
10 36 38 32 37 -57 0
10 36 38 32 37 -58 0
10 29 12 7 11 -54 0
10 29 12 7 11 -53 0
10 29 12 7 11 -56 0
10 29 12 7 11 -55 0
10 29 23 30 27 -54 0
10 29 23 30 27 -53 0
10 29 23 30 27 -56 0
10 29 23 30 27 -55 0
10 43 12 7 11 -61 0
10 43 12 7 11 -62 0
10 43 12 7 11 -63 0
10 43 12 7 11 -64 0
10 43 40 39 44 -61 0
10 43 40 39 44 -62 0
10 43 40 39 44 -63 0
10 43 40 39 44 -64 0
10 6 12 7 11 -13 0
10 6 12 7 11 -8 0
10 6 12 7 11 -14 0
10 6 12 7 11 -9 0
10 6 2 1 3 -13 0
10 6 2 1 3 -8 0
10 6 2 1 3 -14 0
10 6 2 1 3 -9 0
10 22 12 7 11 -50 0
10 22 12 7 11 -52 0
10 22 12 7 11 -51 0
10 22 12 7 11 -49 0
10 22 16 20 17 -50 0
10 22 16 20 17 -52 0
10 22 16 20 17 -51 0
10 22 16 20 17 -49 0
10 12 38 7 11 -59 0
10 12 38 7 11 -60 0
10 12 38 7 11 -57 0
10 12 38 7 11 -58 0
10 12 23 7 11 -54 0
10 12 23 7 11 -53 0
10 12 23 7 11 -56 0
10 12 23 7 11 -55 0
10 12 40 7 11 -61 0
10 12 40 7 11 -62 0
10 12 40 7 11 -63 0
10 12 40 7 11 -64 0
10 12 2 7 11 -13 0
10 12 2 7 11 -8 0
10 12 2 7 11 -14 0
10 12 2 7 11 -9 0
10 12 16 7 11 -50 0
10 12 16 7 11 -52 0
10 12 16 7 11 -51 0
10 12 16 7 11 -49 0
10 12 7 32 11 -59 0
10 12 7 32 11 -60 0
10 12 7 32 11 -57 0
10 12 7 32 11 -58 0
10 12 7 30 11 -54 0
10 12 7 30 11 -53 0
10 12 7 30 11 -56 0
10 12 7 30 11 -55 0
10 12 7 39 11 -61 0
10 12 7 39 11 -62 0
10 12 7 39 11 -63 0
10 12 7 39 11 -64 0
10 12 7 1 11 -13 0
10 12 7 1 11 -8 0
10 12 7 1 11 -14 0
10 12 7 1 11 -9 0
10 12 7 20 11 -50 0
10 12 7 20 11 -52 0
10 12 7 20 11 -51 0
10 12 7 20 11 -49 0
10 12 7 11 37 -59 0
10 12 7 11 37 -60 0
10 12 7 11 37 -57 0
10 12 7 11 37 -58 0
10 12 7 11 27 -54 0
10 12 7 11 27 -53 0
10 12 7 11 27 -56 0
10 12 7 11 27 -55 0
10 12 7 11 44 -61 0
10 12 7 11 44 -62 0
10 12 7 11 44 -63 0
10 12 7 11 44 -64 0
10 12 7 11 3 -13 0
10 12 7 11 3 -8 0
10 12 7 11 3 -14 0
10 12 7 11 3 -9 0
10 12 7 11 17 -50 0
10 12 7 11 17 -52 0
10 12 7 11 17 -51 0
10 12 7 11 17 -49 0
36 29 38 32 37 -84 0
36 29 38 32 37 -83 0
36 29 38 32 37 -81 0
36 29 38 32 37 -82 0
36 29 23 30 27 -84 0
36 29 23 30 27 -83 0
36 29 23 30 27 -81 0
36 29 23 30 27 -82 0
36 43 38 32 37 -91 0
36 43 38 32 37 -93 0
36 43 38 32 37 -94 0
36 43 38 32 37 -92 0
36 43 40 39 44 -91 0
36 43 40 39 44 -93 0
36 43 40 39 44 -94 0
36 43 40 39 44 -92 0
36 6 38 32 37 -35 0
36 6 38 32 37 -33 0
36 6 38 32 37 -34 0
36 6 38 32 37 -31 0
36 6 2 1 3 -35 0
36 6 2 1 3 -33 0
36 6 2 1 3 -34 0
36 6 2 1 3 -31 0
36 22 38 32 37 -73 0
36 22 38 32 37 -72 0
36 22 38 32 37 -71 0
36 22 38 32 37 -74 0
36 22 16 20 17 -73 0
36 22 16 20 17 -72 0
36 22 16 20 17 -71 0
36 22 16 20 17 -74 0
36 12 38 32 37 -59 0
36 12 38 32 37 -60 0
36 12 38 32 37 -57 0
36 12 38 32 37 -58 0
36 38 23 32 37 -84 0
36 38 23 32 37 -83 0
36 38 23 32 37 -81 0
36 38 23 32 37 -82 0
36 38 40 32 37 -91 0
36 38 40 32 37 -93 0
36 38 40 32 37 -94 0
36 38 40 32 37 -92 0
36 38 2 32 37 -35 0
36 38 2 32 37 -33 0
36 38 2 32 37 -34 0
36 38 2 32 37 -31 0
36 38 16 32 37 -73 0
36 38 16 32 37 -72 0
36 38 16 32 37 -71 0
36 38 16 32 37 -74 0
36 38 7 32 37 -59 0
36 38 7 32 37 -60 0
36 38 7 32 37 -57 0
36 38 7 32 37 -58 0
36 38 32 30 37 -84 0
36 38 32 30 37 -83 0
36 38 32 30 37 -81 0
36 38 32 30 37 -82 0
36 38 32 39 37 -91 0
36 38 32 39 37 -93 0
36 38 32 39 37 -94 0
36 38 32 39 37 -92 0
36 38 32 1 37 -35 0
36 38 32 1 37 -33 0
36 38 32 1 37 -34 0
36 38 32 1 37 -31 0
36 38 32 20 37 -73 0
36 38 32 20 37 -72 0
36 38 32 20 37 -71 0
36 38 32 20 37 -74 0
36 38 32 11 37 -59 0
36 38 32 11 37 -60 0
36 38 32 11 37 -57 0
36 38 32 11 37 -58 0
36 38 32 37 27 -84 0
36 38 32 37 27 -83 0
36 38 32 37 27 -81 0
36 38 32 37 27 -82 0
36 38 32 37 44 -91 0
36 38 32 37 44 -93 0
36 38 32 37 44 -94 0
36 38 32 37 44 -92 0
36 38 32 37 3 -35 0
36 38 32 37 3 -33 0
36 38 32 37 3 -34 0
36 38 32 37 3 -31 0
36 38 32 37 17 -73 0
36 38 32 37 17 -72 0
36 38 32 37 17 -71 0
36 38 32 37 17 -74 0
29 43 23 30 27 -85 0
29 43 23 30 27 -87 0
29 43 23 30 27 -88 0
29 43 23 30 27 -86 0
29 43 40 39 44 -85 0
29 43 40 39 44 -87 0
29 43 40 39 44 -88 0
29 43 40 39 44 -86 0
29 6 23 30 27 -28 0
29 6 23 30 27 -25 0
29 6 23 30 27 -26 0
29 6 23 30 27 -24 0
29 6 2 1 3 -28 0
29 6 2 1 3 -25 0
29 6 2 1 3 -26 0
29 6 2 1 3 -24 0
29 22 23 30 27 -68 0
29 22 23 30 27 -70 0
29 22 23 30 27 -69 0
29 22 23 30 27 -67 0
29 22 16 20 17 -68 0
29 22 16 20 17 -70 0
29 22 16 20 17 -69 0
29 22 16 20 17 -67 0
29 12 23 30 27 -54 0
29 12 23 30 27 -53 0
29 12 23 30 27 -56 0
29 12 23 30 27 -55 0
29 38 23 30 27 -84 0
29 38 23 30 27 -83 0
29 38 23 30 27 -81 0
29 38 23 30 27 -82 0
29 23 40 30 27 -85 0
29 23 40 30 27 -87 0
29 23 40 30 27 -88 0
29 23 40 30 27 -86 0
29 23 2 30 27 -28 0
29 23 2 30 27 -25 0
29 23 2 30 27 -26 0
29 23 2 30 27 -24 0
29 23 16 30 27 -68 0
29 23 16 30 27 -70 0
29 23 16 30 27 -69 0
29 23 16 30 27 -67 0
29 23 7 30 27 -54 0
29 23 7 30 27 -53 0
29 23 7 30 27 -56 0
29 23 7 30 27 -55 0
29 23 32 30 27 -84 0
29 23 32 30 27 -83 0
29 23 32 30 27 -81 0
29 23 32 30 27 -82 0
29 23 30 39 27 -85 0
29 23 30 39 27 -87 0
29 23 30 39 27 -88 0
29 23 30 39 27 -86 0
29 23 30 1 27 -28 0
29 23 30 1 27 -25 0
29 23 30 1 27 -26 0
29 23 30 1 27 -24 0
29 23 30 20 27 -68 0
29 23 30 20 27 -70 0
29 23 30 20 27 -69 0
29 23 30 20 27 -67 0
29 23 30 11 27 -54 0
29 23 30 11 27 -53 0
29 23 30 11 27 -56 0
29 23 30 11 27 -55 0
29 23 30 37 27 -84 0
29 23 30 37 27 -83 0
29 23 30 37 27 -81 0
29 23 30 37 27 -82 0
29 23 30 27 44 -85 0
29 23 30 27 44 -87 0
29 23 30 27 44 -88 0
29 23 30 27 44 -86 0
29 23 30 27 3 -28 0
29 23 30 27 3 -25 0
29 23 30 27 3 -26 0
29 23 30 27 3 -24 0
29 23 30 27 17 -68 0
29 23 30 27 17 -70 0
29 23 30 27 17 -69 0
29 23 30 27 17 -67 0
43 6 40 39 44 -41 0
43 6 40 39 44 -45 0
43 6 40 39 44 -46 0
43 6 40 39 44 -42 0
43 6 2 1 3 -41 0
43 6 2 1 3 -45 0
43 6 2 1 3 -46 0
43 6 2 1 3 -42 0
43 22 40 39 44 -76 0
43 22 40 39 44 -78 0
43 22 40 39 44 -75 0
43 22 40 39 44 -77 0
43 22 16 20 17 -76 0
43 22 16 20 17 -78 0
43 22 16 20 17 -75 0
43 22 16 20 17 -77 0
43 12 40 39 44 -61 0
43 12 40 39 44 -62 0
43 12 40 39 44 -63 0
43 12 40 39 44 -64 0
43 38 40 39 44 -91 0
43 38 40 39 44 -93 0
43 38 40 39 44 -94 0
43 38 40 39 44 -92 0
43 23 40 39 44 -85 0
43 23 40 39 44 -87 0
43 23 40 39 44 -88 0
43 23 40 39 44 -86 0
43 40 2 39 44 -41 0
43 40 2 39 44 -45 0
43 40 2 39 44 -46 0
43 40 2 39 44 -42 0
43 40 16 39 44 -76 0
43 40 16 39 44 -78 0
43 40 16 39 44 -75 0
43 40 16 39 44 -77 0
43 40 7 39 44 -61 0
43 40 7 39 44 -62 0
43 40 7 39 44 -63 0
43 40 7 39 44 -64 0
43 40 32 39 44 -91 0
43 40 32 39 44 -93 0
43 40 32 39 44 -94 0
43 40 32 39 44 -92 0
43 40 30 39 44 -85 0
43 40 30 39 44 -87 0
43 40 30 39 44 -88 0
43 40 30 39 44 -86 0
43 40 39 1 44 -41 0
43 40 39 1 44 -45 0
43 40 39 1 44 -46 0
43 40 39 1 44 -42 0
43 40 39 20 44 -76 0
43 40 39 20 44 -78 0
43 40 39 20 44 -75 0
43 40 39 20 44 -77 0
43 40 39 11 44 -61 0
43 40 39 11 44 -62 0
43 40 39 11 44 -63 0
43 40 39 11 44 -64 0
43 40 39 37 44 -91 0
43 40 39 37 44 -93 0
43 40 39 37 44 -94 0
43 40 39 37 44 -92 0
43 40 39 27 44 -85 0
43 40 39 27 44 -87 0
43 40 39 27 44 -88 0
43 40 39 27 44 -86 0
43 40 39 44 3 -41 0
43 40 39 44 3 -45 0
43 40 39 44 3 -46 0
43 40 39 44 3 -42 0
43 40 39 44 17 -76 0
43 40 39 44 17 -78 0
43 40 39 44 17 -75 0
43 40 39 44 17 -77 0
6 22 2 1 3 -19 0
6 22 2 1 3 -15 0
6 22 2 1 3 -21 0
6 22 2 1 3 -18 0
6 22 16 20 17 -19 0
6 22 16 20 17 -15 0
6 22 16 20 17 -21 0
6 22 16 20 17 -18 0
6 12 2 1 3 -13 0
6 12 2 1 3 -8 0
6 12 2 1 3 -14 0
6 12 2 1 3 -9 0
6 38 2 1 3 -35 0
6 38 2 1 3 -33 0
6 38 2 1 3 -34 0
6 38 2 1 3 -31 0
6 23 2 1 3 -28 0
6 23 2 1 3 -25 0
6 23 2 1 3 -26 0
6 23 2 1 3 -24 0
6 40 2 1 3 -41 0
6 40 2 1 3 -45 0
6 40 2 1 3 -46 0
6 40 2 1 3 -42 0
6 2 16 1 3 -19 0
6 2 16 1 3 -15 0
6 2 16 1 3 -21 0
6 2 16 1 3 -18 0
6 2 7 1 3 -13 0
6 2 7 1 3 -8 0
6 2 7 1 3 -14 0
6 2 7 1 3 -9 0
6 2 32 1 3 -35 0
6 2 32 1 3 -33 0
6 2 32 1 3 -34 0
6 2 32 1 3 -31 0
6 2 30 1 3 -28 0
6 2 30 1 3 -25 0
6 2 30 1 3 -26 0
6 2 30 1 3 -24 0
6 2 39 1 3 -41 0
6 2 39 1 3 -45 0
6 2 39 1 3 -46 0
6 2 39 1 3 -42 0
6 2 1 20 3 -19 0
6 2 1 20 3 -15 0
6 2 1 20 3 -21 0
6 2 1 20 3 -18 0
6 2 1 11 3 -13 0
6 2 1 11 3 -8 0
6 2 1 11 3 -14 0
6 2 1 11 3 -9 0
6 2 1 37 3 -35 0
6 2 1 37 3 -33 0
6 2 1 37 3 -34 0
6 2 1 37 3 -31 0
6 2 1 27 3 -28 0
6 2 1 27 3 -25 0
6 2 1 27 3 -26 0
6 2 1 27 3 -24 0
6 2 1 44 3 -41 0
6 2 1 44 3 -45 0
6 2 1 44 3 -46 0
6 2 1 44 3 -42 0
6 2 1 3 17 -19 0
6 2 1 3 17 -15 0
6 2 1 3 17 -21 0
6 2 1 3 17 -18 0
22 12 16 20 17 -50 0
22 12 16 20 17 -52 0
22 12 16 20 17 -51 0
22 12 16 20 17 -49 0
22 38 16 20 17 -73 0
22 38 16 20 17 -72 0
22 38 16 20 17 -71 0
22 38 16 20 17 -74 0
22 23 16 20 17 -68 0
22 23 16 20 17 -70 0
22 23 16 20 17 -69 0
22 23 16 20 17 -67 0
22 40 16 20 17 -76 0
22 40 16 20 17 -78 0
22 40 16 20 17 -75 0
22 40 16 20 17 -77 0
22 2 16 20 17 -19 0
22 2 16 20 17 -15 0
22 2 16 20 17 -21 0
22 2 16 20 17 -18 0
22 16 7 20 17 -50 0
22 16 7 20 17 -52 0
22 16 7 20 17 -51 0
22 16 7 20 17 -49 0
22 16 32 20 17 -73 0
22 16 32 20 17 -72 0
22 16 32 20 17 -71 0
22 16 32 20 17 -74 0
22 16 30 20 17 -68 0
22 16 30 20 17 -70 0
22 16 30 20 17 -69 0
22 16 30 20 17 -67 0
22 16 39 20 17 -76 0
22 16 39 20 17 -78 0
22 16 39 20 17 -75 0
22 16 39 20 17 -77 0
22 16 1 20 17 -19 0
22 16 1 20 17 -15 0
22 16 1 20 17 -21 0
22 16 1 20 17 -18 0
22 16 20 11 17 -50 0
22 16 20 11 17 -52 0
22 16 20 11 17 -51 0
22 16 20 11 17 -49 0
22 16 20 37 17 -73 0
22 16 20 37 17 -72 0
22 16 20 37 17 -71 0
22 16 20 37 17 -74 0
22 16 20 27 17 -68 0
22 16 20 27 17 -70 0
22 16 20 27 17 -69 0
22 16 20 27 17 -67 0
22 16 20 44 17 -76 0
22 16 20 44 17 -78 0
22 16 20 44 17 -75 0
22 16 20 44 17 -77 0
22 16 20 3 17 -19 0
22 16 20 3 17 -15 0
22 16 20 3 17 -21 0
22 16 20 3 17 -18 0
10 36 12 38 7 32 -59 0
10 36 12 38 7 32 -60 0
10 36 12 38 7 32 -57 0
10 36 12 38 7 32 -58 0
10 36 12 38 7 11 -59 0
10 36 12 38 7 11 -60 0
10 36 12 38 7 11 -57 0
10 36 12 38 7 11 -58 0
10 36 12 38 32 37 -59 0
10 36 12 38 32 37 -60 0
10 36 12 38 32 37 -57 0
10 36 12 38 32 37 -58 0
10 36 12 38 11 37 -59 0
10 36 12 38 11 37 -60 0
10 36 12 38 11 37 -57 0
10 36 12 38 11 37 -58 0
10 36 12 7 32 11 -59 0
10 36 12 7 32 11 -60 0
10 36 12 7 32 11 -57 0
10 36 12 7 32 11 -58 0
10 36 12 7 11 37 -59 0
10 36 12 7 11 37 -60 0
10 36 12 7 11 37 -57 0
10 36 12 7 11 37 -58 0
10 36 38 7 32 37 -59 0
10 36 38 7 32 37 -60 0
10 36 38 7 32 37 -57 0
10 36 38 7 32 37 -58 0
10 36 38 32 11 37 -59 0
10 36 38 32 11 37 -60 0
10 36 38 32 11 37 -57 0
10 36 38 32 11 37 -58 0
10 36 7 32 11 37 -59 0
10 36 7 32 11 37 -60 0
10 36 7 32 11 37 -57 0
10 36 7 32 11 37 -58 0
10 29 12 23 7 30 -54 0
10 29 12 23 7 30 -53 0
10 29 12 23 7 30 -56 0
10 29 12 23 7 30 -55 0
10 29 12 23 7 11 -54 0
10 29 12 23 7 11 -53 0
10 29 12 23 7 11 -56 0
10 29 12 23 7 11 -55 0
10 29 12 23 30 27 -54 0
10 29 12 23 30 27 -53 0
10 29 12 23 30 27 -56 0
10 29 12 23 30 27 -55 0
10 29 12 23 11 27 -54 0
10 29 12 23 11 27 -53 0
10 29 12 23 11 27 -56 0
10 29 12 23 11 27 -55 0
10 29 12 7 30 11 -54 0
10 29 12 7 30 11 -53 0
10 29 12 7 30 11 -56 0
10 29 12 7 30 11 -55 0
10 29 12 7 11 27 -54 0
10 29 12 7 11 27 -53 0
10 29 12 7 11 27 -56 0
10 29 12 7 11 27 -55 0
10 29 23 7 30 27 -54 0
10 29 23 7 30 27 -53 0
10 29 23 7 30 27 -56 0
10 29 23 7 30 27 -55 0
10 29 23 30 11 27 -54 0
10 29 23 30 11 27 -53 0
10 29 23 30 11 27 -56 0
10 29 23 30 11 27 -55 0
10 29 7 30 11 27 -54 0
10 29 7 30 11 27 -53 0
10 29 7 30 11 27 -56 0
10 29 7 30 11 27 -55 0
10 43 12 40 7 39 -61 0
10 43 12 40 7 39 -62 0
10 43 12 40 7 39 -63 0
10 43 12 40 7 39 -64 0
10 43 12 40 7 11 -61 0
10 43 12 40 7 11 -62 0
10 43 12 40 7 11 -63 0
10 43 12 40 7 11 -64 0
10 43 12 40 39 44 -61 0
10 43 12 40 39 44 -62 0
10 43 12 40 39 44 -63 0
10 43 12 40 39 44 -64 0
10 43 12 40 11 44 -61 0
10 43 12 40 11 44 -62 0
10 43 12 40 11 44 -63 0
10 43 12 40 11 44 -64 0
10 43 12 7 39 11 -61 0
10 43 12 7 39 11 -62 0
10 43 12 7 39 11 -63 0
10 43 12 7 39 11 -64 0
10 43 12 7 11 44 -61 0
10 43 12 7 11 44 -62 0
10 43 12 7 11 44 -63 0
10 43 12 7 11 44 -64 0
10 43 40 7 39 44 -61 0
10 43 40 7 39 44 -62 0
10 43 40 7 39 44 -63 0
10 43 40 7 39 44 -64 0
10 43 40 39 11 44 -61 0
10 43 40 39 11 44 -62 0
10 43 40 39 11 44 -63 0
10 43 40 39 11 44 -64 0
10 43 7 39 11 44 -61 0
10 43 7 39 11 44 -62 0
10 43 7 39 11 44 -63 0
10 43 7 39 11 44 -64 0
10 6 12 2 7 1 -13 0
10 6 12 2 7 1 -8 0
10 6 12 2 7 1 -14 0
10 6 12 2 7 1 -9 0
10 6 12 2 7 11 -13 0
10 6 12 2 7 11 -8 0
10 6 12 2 7 11 -14 0
10 6 12 2 7 11 -9 0
10 6 12 2 1 3 -13 0
10 6 12 2 1 3 -8 0
10 6 12 2 1 3 -14 0
10 6 12 2 1 3 -9 0
10 6 12 2 11 3 -13 0
10 6 12 2 11 3 -8 0
10 6 12 2 11 3 -14 0
10 6 12 2 11 3 -9 0
10 6 12 7 1 11 -13 0
10 6 12 7 1 11 -8 0
10 6 12 7 1 11 -14 0
10 6 12 7 1 11 -9 0
10 6 12 7 11 3 -13 0
10 6 12 7 11 3 -8 0
10 6 12 7 11 3 -14 0
10 6 12 7 11 3 -9 0
10 6 2 7 1 3 -13 0
10 6 2 7 1 3 -8 0
10 6 2 7 1 3 -14 0
10 6 2 7 1 3 -9 0
10 6 2 1 11 3 -13 0
10 6 2 1 11 3 -8 0
10 6 2 1 11 3 -14 0
10 6 2 1 11 3 -9 0
10 6 7 1 11 3 -13 0
10 6 7 1 11 3 -8 0
10 6 7 1 11 3 -14 0
10 6 7 1 11 3 -9 0
10 22 12 16 7 20 -50 0
10 22 12 16 7 20 -52 0
10 22 12 16 7 20 -51 0
10 22 12 16 7 20 -49 0
10 22 12 16 7 11 -50 0
10 22 12 16 7 11 -52 0
10 22 12 16 7 11 -51 0
10 22 12 16 7 11 -49 0
10 22 12 16 20 17 -50 0
10 22 12 16 20 17 -52 0
10 22 12 16 20 17 -51 0
10 22 12 16 20 17 -49 0
10 22 12 16 11 17 -50 0
10 22 12 16 11 17 -52 0
10 22 12 16 11 17 -51 0
10 22 12 16 11 17 -49 0
10 22 12 7 20 11 -50 0
10 22 12 7 20 11 -52 0
10 22 12 7 20 11 -51 0
10 22 12 7 20 11 -49 0
10 22 12 7 11 17 -50 0
10 22 12 7 11 17 -52 0
10 22 12 7 11 17 -51 0
10 22 12 7 11 17 -49 0
10 22 16 7 20 17 -50 0
10 22 16 7 20 17 -52 0
10 22 16 7 20 17 -51 0
10 22 16 7 20 17 -49 0
10 22 16 20 11 17 -50 0
10 22 16 20 11 17 -52 0
10 22 16 20 11 17 -51 0
10 22 16 20 11 17 -49 0
10 22 7 20 11 17 -50 0
10 22 7 20 11 17 -52 0
10 22 7 20 11 17 -51 0
10 22 7 20 11 17 -49 0
10 12 38 7 32 11 -59 0
10 12 38 7 32 11 -60 0
10 12 38 7 32 11 -57 0
10 12 38 7 32 11 -58 0
10 12 38 7 11 37 -59 0
10 12 38 7 11 37 -60 0
10 12 38 7 11 37 -57 0
10 12 38 7 11 37 -58 0
10 12 23 7 30 11 -54 0
10 12 23 7 30 11 -53 0
10 12 23 7 30 11 -56 0
10 12 23 7 30 11 -55 0
10 12 23 7 11 27 -54 0
10 12 23 7 11 27 -53 0
10 12 23 7 11 27 -56 0
10 12 23 7 11 27 -55 0
10 12 40 7 39 11 -61 0
10 12 40 7 39 11 -62 0
10 12 40 7 39 11 -63 0
10 12 40 7 39 11 -64 0
10 12 40 7 11 44 -61 0
10 12 40 7 11 44 -62 0
10 12 40 7 11 44 -63 0
10 12 40 7 11 44 -64 0
10 12 2 7 1 11 -13 0
10 12 2 7 1 11 -8 0
10 12 2 7 1 11 -14 0
10 12 2 7 1 11 -9 0
10 12 2 7 11 3 -13 0
10 12 2 7 11 3 -8 0
10 12 2 7 11 3 -14 0
10 12 2 7 11 3 -9 0
10 12 16 7 20 11 -50 0
10 12 16 7 20 11 -52 0
10 12 16 7 20 11 -51 0
10 12 16 7 20 11 -49 0
10 12 16 7 11 17 -50 0
10 12 16 7 11 17 -52 0
10 12 16 7 11 17 -51 0
10 12 16 7 11 17 -49 0
10 12 7 32 11 37 -59 0
10 12 7 32 11 37 -60 0
10 12 7 32 11 37 -57 0
10 12 7 32 11 37 -58 0
10 12 7 30 11 27 -54 0
10 12 7 30 11 27 -53 0
10 12 7 30 11 27 -56 0
10 12 7 30 11 27 -55 0
10 12 7 39 11 44 -61 0
10 12 7 39 11 44 -62 0
10 12 7 39 11 44 -63 0
10 12 7 39 11 44 -64 0
10 12 7 1 11 3 -13 0
10 12 7 1 11 3 -8 0
10 12 7 1 11 3 -14 0
10 12 7 1 11 3 -9 0
10 12 7 20 11 17 -50 0
10 12 7 20 11 17 -52 0
10 12 7 20 11 17 -51 0
10 12 7 20 11 17 -49 0
36 29 38 23 32 30 -84 0
36 29 38 23 32 30 -83 0
36 29 38 23 32 30 -81 0
36 29 38 23 32 30 -82 0
36 29 38 23 32 37 -84 0
36 29 38 23 32 37 -83 0
36 29 38 23 32 37 -81 0
36 29 38 23 32 37 -82 0
36 29 38 23 30 27 -84 0
36 29 38 23 30 27 -83 0
36 29 38 23 30 27 -81 0
36 29 38 23 30 27 -82 0
36 29 38 23 37 27 -84 0
36 29 38 23 37 27 -83 0
36 29 38 23 37 27 -81 0
36 29 38 23 37 27 -82 0
36 29 38 32 30 37 -84 0
36 29 38 32 30 37 -83 0
36 29 38 32 30 37 -81 0
36 29 38 32 30 37 -82 0
36 29 38 32 37 27 -84 0
36 29 38 32 37 27 -83 0
36 29 38 32 37 27 -81 0
36 29 38 32 37 27 -82 0
36 29 23 32 30 27 -84 0
36 29 23 32 30 27 -83 0
36 29 23 32 30 27 -81 0
36 29 23 32 30 27 -82 0
36 29 23 30 37 27 -84 0
36 29 23 30 37 27 -83 0
36 29 23 30 37 27 -81 0
36 29 23 30 37 27 -82 0
36 29 32 30 37 27 -84 0
36 29 32 30 37 27 -83 0
36 29 32 30 37 27 -81 0
36 29 32 30 37 27 -82 0
36 43 38 40 32 39 -91 0
36 43 38 40 32 39 -93 0
36 43 38 40 32 39 -94 0
36 43 38 40 32 39 -92 0
36 43 38 40 32 37 -91 0
36 43 38 40 32 37 -93 0
36 43 38 40 32 37 -94 0
36 43 38 40 32 37 -92 0
36 43 38 40 39 44 -91 0
36 43 38 40 39 44 -93 0
36 43 38 40 39 44 -94 0
36 43 38 40 39 44 -92 0
36 43 38 40 37 44 -91 0
36 43 38 40 37 44 -93 0
36 43 38 40 37 44 -94 0
36 43 38 40 37 44 -92 0
36 43 38 32 39 37 -91 0
36 43 38 32 39 37 -93 0
36 43 38 32 39 37 -94 0
36 43 38 32 39 37 -92 0
36 43 38 32 37 44 -91 0
36 43 38 32 37 44 -93 0
36 43 38 32 37 44 -94 0
36 43 38 32 37 44 -92 0
36 43 40 32 39 44 -91 0
36 43 40 32 39 44 -93 0
36 43 40 32 39 44 -94 0
36 43 40 32 39 44 -92 0
36 43 40 39 37 44 -91 0
36 43 40 39 37 44 -93 0
36 43 40 39 37 44 -94 0
36 43 40 39 37 44 -92 0
36 43 32 39 37 44 -91 0
36 43 32 39 37 44 -93 0
36 43 32 39 37 44 -94 0
36 43 32 39 37 44 -92 0
36 6 38 2 32 1 -35 0
36 6 38 2 32 1 -33 0
36 6 38 2 32 1 -34 0
36 6 38 2 32 1 -31 0
36 6 38 2 32 37 -35 0
36 6 38 2 32 37 -33 0
36 6 38 2 32 37 -34 0
36 6 38 2 32 37 -31 0
36 6 38 2 1 3 -35 0
36 6 38 2 1 3 -33 0
36 6 38 2 1 3 -34 0
36 6 38 2 1 3 -31 0
36 6 38 2 37 3 -35 0
36 6 38 2 37 3 -33 0
36 6 38 2 37 3 -34 0
36 6 38 2 37 3 -31 0
36 6 38 32 1 37 -35 0
36 6 38 32 1 37 -33 0
36 6 38 32 1 37 -34 0
36 6 38 32 1 37 -31 0
36 6 38 32 37 3 -35 0
36 6 38 32 37 3 -33 0
36 6 38 32 37 3 -34 0
36 6 38 32 37 3 -31 0
36 6 2 32 1 3 -35 0
36 6 2 32 1 3 -33 0
36 6 2 32 1 3 -34 0
36 6 2 32 1 3 -31 0
36 6 2 1 37 3 -35 0
36 6 2 1 37 3 -33 0
36 6 2 1 37 3 -34 0
36 6 2 1 37 3 -31 0
36 6 32 1 37 3 -35 0
36 6 32 1 37 3 -33 0
36 6 32 1 37 3 -34 0
36 6 32 1 37 3 -31 0
36 22 38 16 32 20 -73 0
36 22 38 16 32 20 -72 0
36 22 38 16 32 20 -71 0
36 22 38 16 32 20 -74 0
36 22 38 16 32 37 -73 0
36 22 38 16 32 37 -72 0
36 22 38 16 32 37 -71 0
36 22 38 16 32 37 -74 0
36 22 38 16 20 17 -73 0
36 22 38 16 20 17 -72 0
36 22 38 16 20 17 -71 0
36 22 38 16 20 17 -74 0
36 22 38 16 37 17 -73 0
36 22 38 16 37 17 -72 0
36 22 38 16 37 17 -71 0
36 22 38 16 37 17 -74 0
36 22 38 32 20 37 -73 0
36 22 38 32 20 37 -72 0
36 22 38 32 20 37 -71 0
36 22 38 32 20 37 -74 0
36 22 38 32 37 17 -73 0
36 22 38 32 37 17 -72 0
36 22 38 32 37 17 -71 0
36 22 38 32 37 17 -74 0
36 22 16 32 20 17 -73 0
36 22 16 32 20 17 -72 0
36 22 16 32 20 17 -71 0
36 22 16 32 20 17 -74 0
36 22 16 20 37 17 -73 0
36 22 16 20 37 17 -72 0
36 22 16 20 37 17 -71 0
36 22 16 20 37 17 -74 0
36 22 32 20 37 17 -73 0
36 22 32 20 37 17 -72 0
36 22 32 20 37 17 -71 0
36 22 32 20 37 17 -74 0
36 12 38 7 32 37 -59 0
36 12 38 7 32 37 -60 0
36 12 38 7 32 37 -57 0
36 12 38 7 32 37 -58 0
36 12 38 32 11 37 -59 0
36 12 38 32 11 37 -60 0
36 12 38 32 11 37 -57 0
36 12 38 32 11 37 -58 0
36 38 23 32 30 37 -84 0
36 38 23 32 30 37 -83 0
36 38 23 32 30 37 -81 0
36 38 23 32 30 37 -82 0
36 38 23 32 37 27 -84 0
36 38 23 32 37 27 -83 0
36 38 23 32 37 27 -81 0
36 38 23 32 37 27 -82 0
36 38 40 32 39 37 -91 0
36 38 40 32 39 37 -93 0
36 38 40 32 39 37 -94 0
36 38 40 32 39 37 -92 0
36 38 40 32 37 44 -91 0
36 38 40 32 37 44 -93 0
36 38 40 32 37 44 -94 0
36 38 40 32 37 44 -92 0
36 38 2 32 1 37 -35 0
36 38 2 32 1 37 -33 0
36 38 2 32 1 37 -34 0
36 38 2 32 1 37 -31 0
36 38 2 32 37 3 -35 0
36 38 2 32 37 3 -33 0
36 38 2 32 37 3 -34 0
36 38 2 32 37 3 -31 0
36 38 16 32 20 37 -73 0
36 38 16 32 20 37 -72 0
36 38 16 32 20 37 -71 0
36 38 16 32 20 37 -74 0
36 38 16 32 37 17 -73 0
36 38 16 32 37 17 -72 0
36 38 16 32 37 17 -71 0
36 38 16 32 37 17 -74 0
36 38 7 32 11 37 -59 0
36 38 7 32 11 37 -60 0
36 38 7 32 11 37 -57 0
36 38 7 32 11 37 -58 0
36 38 32 30 37 27 -84 0
36 38 32 30 37 27 -83 0
36 38 32 30 37 27 -81 0
36 38 32 30 37 27 -82 0
36 38 32 39 37 44 -91 0
36 38 32 39 37 44 -93 0
36 38 32 39 37 44 -94 0
36 38 32 39 37 44 -92 0
36 38 32 1 37 3 -35 0
36 38 32 1 37 3 -33 0
36 38 32 1 37 3 -34 0
36 38 32 1 37 3 -31 0
36 38 32 20 37 17 -73 0
36 38 32 20 37 17 -72 0
36 38 32 20 37 17 -71 0
36 38 32 20 37 17 -74 0
29 43 23 40 30 39 -85 0
29 43 23 40 30 39 -87 0
29 43 23 40 30 39 -88 0
29 43 23 40 30 39 -86 0
29 43 23 40 30 27 -85 0
29 43 23 40 30 27 -87 0
29 43 23 40 30 27 -88 0
29 43 23 40 30 27 -86 0
29 43 23 40 39 44 -85 0
29 43 23 40 39 44 -87 0
29 43 23 40 39 44 -88 0
29 43 23 40 39 44 -86 0
29 43 23 40 27 44 -85 0
29 43 23 40 27 44 -87 0
29 43 23 40 27 44 -88 0
29 43 23 40 27 44 -86 0
29 43 23 30 39 27 -85 0
29 43 23 30 39 27 -87 0
29 43 23 30 39 27 -88 0
29 43 23 30 39 27 -86 0
29 43 23 30 27 44 -85 0
29 43 23 30 27 44 -87 0
29 43 23 30 27 44 -88 0
29 43 23 30 27 44 -86 0
29 43 40 30 39 44 -85 0
29 43 40 30 39 44 -87 0
29 43 40 30 39 44 -88 0
29 43 40 30 39 44 -86 0
29 43 40 39 27 44 -85 0
29 43 40 39 27 44 -87 0
29 43 40 39 27 44 -88 0
29 43 40 39 27 44 -86 0
29 43 30 39 27 44 -85 0
29 43 30 39 27 44 -87 0
29 43 30 39 27 44 -88 0
29 43 30 39 27 44 -86 0
29 6 23 2 30 1 -28 0
29 6 23 2 30 1 -25 0
29 6 23 2 30 1 -26 0
29 6 23 2 30 1 -24 0
29 6 23 2 30 27 -28 0
29 6 23 2 30 27 -25 0
29 6 23 2 30 27 -26 0
29 6 23 2 30 27 -24 0
29 6 23 2 1 3 -28 0
29 6 23 2 1 3 -25 0
29 6 23 2 1 3 -26 0
29 6 23 2 1 3 -24 0
29 6 23 2 27 3 -28 0
29 6 23 2 27 3 -25 0
29 6 23 2 27 3 -26 0
29 6 23 2 27 3 -24 0
29 6 23 30 1 27 -28 0
29 6 23 30 1 27 -25 0
29 6 23 30 1 27 -26 0
29 6 23 30 1 27 -24 0
29 6 23 30 27 3 -28 0
29 6 23 30 27 3 -25 0
29 6 23 30 27 3 -26 0
29 6 23 30 27 3 -24 0
29 6 2 30 1 3 -28 0
29 6 2 30 1 3 -25 0
29 6 2 30 1 3 -26 0
29 6 2 30 1 3 -24 0
29 6 2 1 27 3 -28 0
29 6 2 1 27 3 -25 0
29 6 2 1 27 3 -26 0
29 6 2 1 27 3 -24 0
29 6 30 1 27 3 -28 0
29 6 30 1 27 3 -25 0
29 6 30 1 27 3 -26 0
29 6 30 1 27 3 -24 0
29 22 23 16 30 20 -68 0
29 22 23 16 30 20 -70 0
29 22 23 16 30 20 -69 0
29 22 23 16 30 20 -67 0
29 22 23 16 30 27 -68 0
29 22 23 16 30 27 -70 0
29 22 23 16 30 27 -69 0
29 22 23 16 30 27 -67 0
29 22 23 16 20 17 -68 0
29 22 23 16 20 17 -70 0
29 22 23 16 20 17 -69 0
29 22 23 16 20 17 -67 0
29 22 23 16 27 17 -68 0
29 22 23 16 27 17 -70 0
29 22 23 16 27 17 -69 0
29 22 23 16 27 17 -67 0
29 22 23 30 20 27 -68 0
29 22 23 30 20 27 -70 0
29 22 23 30 20 27 -69 0
29 22 23 30 20 27 -67 0
29 22 23 30 27 17 -68 0
29 22 23 30 27 17 -70 0
29 22 23 30 27 17 -69 0
29 22 23 30 27 17 -67 0
29 22 16 30 20 17 -68 0
29 22 16 30 20 17 -70 0
29 22 16 30 20 17 -69 0
29 22 16 30 20 17 -67 0
29 22 16 20 27 17 -68 0
29 22 16 20 27 17 -70 0
29 22 16 20 27 17 -69 0
29 22 16 20 27 17 -67 0
29 22 30 20 27 17 -68 0
29 22 30 20 27 17 -70 0
29 22 30 20 27 17 -69 0
29 22 30 20 27 17 -67 0
29 12 23 7 30 27 -54 0
29 12 23 7 30 27 -53 0
29 12 23 7 30 27 -56 0
29 12 23 7 30 27 -55 0
29 12 23 30 11 27 -54 0
29 12 23 30 11 27 -53 0
29 12 23 30 11 27 -56 0
29 12 23 30 11 27 -55 0
29 38 23 32 30 27 -84 0
29 38 23 32 30 27 -83 0
29 38 23 32 30 27 -81 0
29 38 23 32 30 27 -82 0
29 38 23 30 37 27 -84 0
29 38 23 30 37 27 -83 0
29 38 23 30 37 27 -81 0
29 38 23 30 37 27 -82 0
29 23 40 30 39 27 -85 0
29 23 40 30 39 27 -87 0
29 23 40 30 39 27 -88 0
29 23 40 30 39 27 -86 0
29 23 40 30 27 44 -85 0
29 23 40 30 27 44 -87 0
29 23 40 30 27 44 -88 0
29 23 40 30 27 44 -86 0
29 23 2 30 1 27 -28 0
29 23 2 30 1 27 -25 0
29 23 2 30 1 27 -26 0
29 23 2 30 1 27 -24 0
29 23 2 30 27 3 -28 0
29 23 2 30 27 3 -25 0
29 23 2 30 27 3 -26 0
29 23 2 30 27 3 -24 0
29 23 16 30 20 27 -68 0
29 23 16 30 20 27 -70 0
29 23 16 30 20 27 -69 0
29 23 16 30 20 27 -67 0
29 23 16 30 27 17 -68 0
29 23 16 30 27 17 -70 0
29 23 16 30 27 17 -69 0
29 23 16 30 27 17 -67 0
29 23 7 30 11 27 -54 0
29 23 7 30 11 27 -53 0
29 23 7 30 11 27 -56 0
29 23 7 30 11 27 -55 0
29 23 32 30 37 27 -84 0
29 23 32 30 37 27 -83 0
29 23 32 30 37 27 -81 0
29 23 32 30 37 27 -82 0
29 23 30 39 27 44 -85 0
29 23 30 39 27 44 -87 0
29 23 30 39 27 44 -88 0
29 23 30 39 27 44 -86 0
29 23 30 1 27 3 -28 0
29 23 30 1 27 3 -25 0
29 23 30 1 27 3 -26 0
29 23 30 1 27 3 -24 0
29 23 30 20 27 17 -68 0
29 23 30 20 27 17 -70 0
29 23 30 20 27 17 -69 0
29 23 30 20 27 17 -67 0
43 6 40 2 39 1 -41 0
43 6 40 2 39 1 -45 0
43 6 40 2 39 1 -46 0
43 6 40 2 39 1 -42 0
43 6 40 2 39 44 -41 0
43 6 40 2 39 44 -45 0
43 6 40 2 39 44 -46 0
43 6 40 2 39 44 -42 0
43 6 40 2 1 3 -41 0
43 6 40 2 1 3 -45 0
43 6 40 2 1 3 -46 0
43 6 40 2 1 3 -42 0
43 6 40 2 44 3 -41 0
43 6 40 2 44 3 -45 0
43 6 40 2 44 3 -46 0
43 6 40 2 44 3 -42 0
43 6 40 39 1 44 -41 0
43 6 40 39 1 44 -45 0
43 6 40 39 1 44 -46 0
43 6 40 39 1 44 -42 0
43 6 40 39 44 3 -41 0
43 6 40 39 44 3 -45 0
43 6 40 39 44 3 -46 0
43 6 40 39 44 3 -42 0
43 6 2 39 1 3 -41 0
43 6 2 39 1 3 -45 0
43 6 2 39 1 3 -46 0
43 6 2 39 1 3 -42 0
43 6 2 1 44 3 -41 0
43 6 2 1 44 3 -45 0
43 6 2 1 44 3 -46 0
43 6 2 1 44 3 -42 0
43 6 39 1 44 3 -41 0
43 6 39 1 44 3 -45 0
43 6 39 1 44 3 -46 0
43 6 39 1 44 3 -42 0
43 22 40 16 39 20 -76 0
43 22 40 16 39 20 -78 0
43 22 40 16 39 20 -75 0
43 22 40 16 39 20 -77 0
43 22 40 16 39 44 -76 0
43 22 40 16 39 44 -78 0
43 22 40 16 39 44 -75 0
43 22 40 16 39 44 -77 0
43 22 40 16 20 17 -76 0
43 22 40 16 20 17 -78 0
43 22 40 16 20 17 -75 0
43 22 40 16 20 17 -77 0
43 22 40 16 44 17 -76 0
43 22 40 16 44 17 -78 0
43 22 40 16 44 17 -75 0
43 22 40 16 44 17 -77 0
43 22 40 39 20 44 -76 0
43 22 40 39 20 44 -78 0
43 22 40 39 20 44 -75 0
43 22 40 39 20 44 -77 0
43 22 40 39 44 17 -76 0
43 22 40 39 44 17 -78 0
43 22 40 39 44 17 -75 0
43 22 40 39 44 17 -77 0
43 22 16 39 20 17 -76 0
43 22 16 39 20 17 -78 0
43 22 16 39 20 17 -75 0
43 22 16 39 20 17 -77 0
43 22 16 20 44 17 -76 0
43 22 16 20 44 17 -78 0
43 22 16 20 44 17 -75 0
43 22 16 20 44 17 -77 0
43 22 39 20 44 17 -76 0
43 22 39 20 44 17 -78 0
43 22 39 20 44 17 -75 0
43 22 39 20 44 17 -77 0
43 12 40 7 39 44 -61 0
43 12 40 7 39 44 -62 0
43 12 40 7 39 44 -63 0
43 12 40 7 39 44 -64 0
43 12 40 39 11 44 -61 0
43 12 40 39 11 44 -62 0
43 12 40 39 11 44 -63 0
43 12 40 39 11 44 -64 0
43 38 40 32 39 44 -91 0
43 38 40 32 39 44 -93 0
43 38 40 32 39 44 -94 0
43 38 40 32 39 44 -92 0
43 38 40 39 37 44 -91 0
43 38 40 39 37 44 -93 0
43 38 40 39 37 44 -94 0
43 38 40 39 37 44 -92 0
43 23 40 30 39 44 -85 0
43 23 40 30 39 44 -87 0
43 23 40 30 39 44 -88 0
43 23 40 30 39 44 -86 0
43 23 40 39 27 44 -85 0
43 23 40 39 27 44 -87 0
43 23 40 39 27 44 -88 0
43 23 40 39 27 44 -86 0
43 40 2 39 1 44 -41 0
43 40 2 39 1 44 -45 0
43 40 2 39 1 44 -46 0
43 40 2 39 1 44 -42 0
43 40 2 39 44 3 -41 0
43 40 2 39 44 3 -45 0
43 40 2 39 44 3 -46 0
43 40 2 39 44 3 -42 0
43 40 16 39 20 44 -76 0
43 40 16 39 20 44 -78 0
43 40 16 39 20 44 -75 0
43 40 16 39 20 44 -77 0
43 40 16 39 44 17 -76 0
43 40 16 39 44 17 -78 0
43 40 16 39 44 17 -75 0
43 40 16 39 44 17 -77 0
43 40 7 39 11 44 -61 0
43 40 7 39 11 44 -62 0
43 40 7 39 11 44 -63 0
43 40 7 39 11 44 -64 0
43 40 32 39 37 44 -91 0
43 40 32 39 37 44 -93 0
43 40 32 39 37 44 -94 0
43 40 32 39 37 44 -92 0
43 40 30 39 27 44 -85 0
43 40 30 39 27 44 -87 0
43 40 30 39 27 44 -88 0
43 40 30 39 27 44 -86 0
43 40 39 1 44 3 -41 0
43 40 39 1 44 3 -45 0
43 40 39 1 44 3 -46 0
43 40 39 1 44 3 -42 0
43 40 39 20 44 17 -76 0
43 40 39 20 44 17 -78 0
43 40 39 20 44 17 -75 0
43 40 39 20 44 17 -77 0
6 22 2 16 1 20 -19 0
6 22 2 16 1 20 -15 0
6 22 2 16 1 20 -21 0
6 22 2 16 1 20 -18 0
6 22 2 16 1 3 -19 0
6 22 2 16 1 3 -15 0
6 22 2 16 1 3 -21 0
6 22 2 16 1 3 -18 0
6 22 2 16 20 17 -19 0
6 22 2 16 20 17 -15 0
6 22 2 16 20 17 -21 0
6 22 2 16 20 17 -18 0
6 22 2 16 3 17 -19 0
6 22 2 16 3 17 -15 0
6 22 2 16 3 17 -21 0
6 22 2 16 3 17 -18 0
6 22 2 1 20 3 -19 0
6 22 2 1 20 3 -15 0
6 22 2 1 20 3 -21 0
6 22 2 1 20 3 -18 0
6 22 2 1 3 17 -19 0
6 22 2 1 3 17 -15 0
6 22 2 1 3 17 -21 0
6 22 2 1 3 17 -18 0
6 22 16 1 20 17 -19 0
6 22 16 1 20 17 -15 0
6 22 16 1 20 17 -21 0
6 22 16 1 20 17 -18 0
6 22 16 20 3 17 -19 0
6 22 16 20 3 17 -15 0
6 22 16 20 3 17 -21 0
6 22 16 20 3 17 -18 0
6 22 1 20 3 17 -19 0
6 22 1 20 3 17 -15 0
6 22 1 20 3 17 -21 0
6 22 1 20 3 17 -18 0
6 12 2 7 1 3 -13 0
6 12 2 7 1 3 -8 0
6 12 2 7 1 3 -14 0
6 12 2 7 1 3 -9 0
6 12 2 1 11 3 -13 0
6 12 2 1 11 3 -8 0
6 12 2 1 11 3 -14 0
6 12 2 1 11 3 -9 0
6 38 2 32 1 3 -35 0
6 38 2 32 1 3 -33 0
6 38 2 32 1 3 -34 0
6 38 2 32 1 3 -31 0
6 38 2 1 37 3 -35 0
6 38 2 1 37 3 -33 0
6 38 2 1 37 3 -34 0
6 38 2 1 37 3 -31 0
6 23 2 30 1 3 -28 0
6 23 2 30 1 3 -25 0
6 23 2 30 1 3 -26 0
6 23 2 30 1 3 -24 0
6 23 2 1 27 3 -28 0
6 23 2 1 27 3 -25 0
6 23 2 1 27 3 -26 0
6 23 2 1 27 3 -24 0
6 40 2 39 1 3 -41 0
6 40 2 39 1 3 -45 0
6 40 2 39 1 3 -46 0
6 40 2 39 1 3 -42 0
6 40 2 1 44 3 -41 0
6 40 2 1 44 3 -45 0
6 40 2 1 44 3 -46 0
6 40 2 1 44 3 -42 0
6 2 16 1 20 3 -19 0
6 2 16 1 20 3 -15 0
6 2 16 1 20 3 -21 0
6 2 16 1 20 3 -18 0
6 2 16 1 3 17 -19 0
6 2 16 1 3 17 -15 0
6 2 16 1 3 17 -21 0
6 2 16 1 3 17 -18 0
6 2 7 1 11 3 -13 0
6 2 7 1 11 3 -8 0
6 2 7 1 11 3 -14 0
6 2 7 1 11 3 -9 0
6 2 32 1 37 3 -35 0
6 2 32 1 37 3 -33 0
6 2 32 1 37 3 -34 0
6 2 32 1 37 3 -31 0
6 2 30 1 27 3 -28 0
6 2 30 1 27 3 -25 0
6 2 30 1 27 3 -26 0
6 2 30 1 27 3 -24 0
6 2 39 1 44 3 -41 0
6 2 39 1 44 3 -45 0
6 2 39 1 44 3 -46 0
6 2 39 1 44 3 -42 0
6 2 1 20 3 17 -19 0
6 2 1 20 3 17 -15 0
6 2 1 20 3 17 -21 0
6 2 1 20 3 17 -18 0
22 12 16 7 20 17 -50 0
22 12 16 7 20 17 -52 0
22 12 16 7 20 17 -51 0
22 12 16 7 20 17 -49 0
22 12 16 20 11 17 -50 0
22 12 16 20 11 17 -52 0
22 12 16 20 11 17 -51 0
22 12 16 20 11 17 -49 0
22 38 16 32 20 17 -73 0
22 38 16 32 20 17 -72 0
22 38 16 32 20 17 -71 0
22 38 16 32 20 17 -74 0
22 38 16 20 37 17 -73 0
22 38 16 20 37 17 -72 0
22 38 16 20 37 17 -71 0
22 38 16 20 37 17 -74 0
22 23 16 30 20 17 -68 0
22 23 16 30 20 17 -70 0
22 23 16 30 20 17 -69 0
22 23 16 30 20 17 -67 0
22 23 16 20 27 17 -68 0
22 23 16 20 27 17 -70 0
22 23 16 20 27 17 -69 0
22 23 16 20 27 17 -67 0
22 40 16 39 20 17 -76 0
22 40 16 39 20 17 -78 0
22 40 16 39 20 17 -75 0
22 40 16 39 20 17 -77 0
22 40 16 20 44 17 -76 0
22 40 16 20 44 17 -78 0
22 40 16 20 44 17 -75 0
22 40 16 20 44 17 -77 0
22 2 16 1 20 17 -19 0
22 2 16 1 20 17 -15 0
22 2 16 1 20 17 -21 0
22 2 16 1 20 17 -18 0
22 2 16 20 3 17 -19 0
22 2 16 20 3 17 -15 0
22 2 16 20 3 17 -21 0
22 2 16 20 3 17 -18 0
22 16 7 20 11 17 -50 0
22 16 7 20 11 17 -52 0
22 16 7 20 11 17 -51 0
22 16 7 20 11 17 -49 0
22 16 32 20 37 17 -73 0
22 16 32 20 37 17 -72 0
22 16 32 20 37 17 -71 0
22 16 32 20 37 17 -74 0
22 16 30 20 27 17 -68 0
22 16 30 20 27 17 -70 0
22 16 30 20 27 17 -69 0
22 16 30 20 27 17 -67 0
22 16 39 20 44 17 -76 0
22 16 39 20 44 17 -78 0
22 16 39 20 44 17 -75 0
22 16 39 20 44 17 -77 0
22 16 1 20 3 17 -19 0
22 16 1 20 3 17 -15 0
22 16 1 20 3 17 -21 0
22 16 1 20 3 17 -18 0
12 38 7 32 11 37 -59 0
12 38 7 32 11 37 -60 0
12 38 7 32 11 37 -57 0
12 38 7 32 11 37 -58 0
12 23 7 30 11 27 -54 0
12 23 7 30 11 27 -53 0
12 23 7 30 11 27 -56 0
12 23 7 30 11 27 -55 0
12 40 7 39 11 44 -61 0
12 40 7 39 11 44 -62 0
12 40 7 39 11 44 -63 0
12 40 7 39 11 44 -64 0
12 2 7 1 11 3 -13 0
12 2 7 1 11 3 -8 0
12 2 7 1 11 3 -14 0
12 2 7 1 11 3 -9 0
12 16 7 20 11 17 -50 0
12 16 7 20 11 17 -52 0
12 16 7 20 11 17 -51 0
12 16 7 20 11 17 -49 0
38 23 32 30 37 27 -84 0
38 23 32 30 37 27 -83 0
38 23 32 30 37 27 -81 0
38 23 32 30 37 27 -82 0
38 40 32 39 37 44 -91 0
38 40 32 39 37 44 -93 0
38 40 32 39 37 44 -94 0
38 40 32 39 37 44 -92 0
38 2 32 1 37 3 -35 0
38 2 32 1 37 3 -33 0
38 2 32 1 37 3 -34 0
38 2 32 1 37 3 -31 0
38 16 32 20 37 17 -73 0
38 16 32 20 37 17 -72 0
38 16 32 20 37 17 -71 0
38 16 32 20 37 17 -74 0
23 40 30 39 27 44 -85 0
23 40 30 39 27 44 -87 0
23 40 30 39 27 44 -88 0
23 40 30 39 27 44 -86 0
23 2 30 1 27 3 -28 0
23 2 30 1 27 3 -25 0
23 2 30 1 27 3 -26 0
23 2 30 1 27 3 -24 0
23 16 30 20 27 17 -68 0
23 16 30 20 27 17 -70 0
23 16 30 20 27 17 -69 0
23 16 30 20 27 17 -67 0
40 2 39 1 44 3 -41 0
40 2 39 1 44 3 -45 0
40 2 39 1 44 3 -46 0
40 2 39 1 44 3 -42 0
40 16 39 20 44 17 -76 0
40 16 39 20 44 17 -78 0
40 16 39 20 44 17 -75 0
40 16 39 20 44 17 -77 0
2 16 1 20 3 17 -19 0
2 16 1 20 3 17 -15 0
2 16 1 20 3 17 -21 0
2 16 1 20 3 17 -18 0
10 36 12 38 7 32 11 -59 0
10 36 12 38 7 32 11 -60 0
10 36 12 38 7 32 11 -57 0
10 36 12 38 7 32 11 -58 0
10 36 12 38 7 32 37 -59 0
10 36 12 38 7 32 37 -60 0
10 36 12 38 7 32 37 -57 0
10 36 12 38 7 32 37 -58 0
10 36 12 38 7 11 37 -59 0
10 36 12 38 7 11 37 -60 0
10 36 12 38 7 11 37 -57 0
10 36 12 38 7 11 37 -58 0
10 36 12 38 32 11 37 -59 0
10 36 12 38 32 11 37 -60 0
10 36 12 38 32 11 37 -57 0
10 36 12 38 32 11 37 -58 0
10 36 12 7 32 11 37 -59 0
10 36 12 7 32 11 37 -60 0
10 36 12 7 32 11 37 -57 0
10 36 12 7 32 11 37 -58 0
10 36 38 7 32 11 37 -59 0
10 36 38 7 32 11 37 -60 0
10 36 38 7 32 11 37 -57 0
10 36 38 7 32 11 37 -58 0
10 29 12 23 7 30 11 -54 0
10 29 12 23 7 30 11 -53 0
10 29 12 23 7 30 11 -56 0
10 29 12 23 7 30 11 -55 0
10 29 12 23 7 30 27 -54 0
10 29 12 23 7 30 27 -53 0
10 29 12 23 7 30 27 -56 0
10 29 12 23 7 30 27 -55 0
10 29 12 23 7 11 27 -54 0
10 29 12 23 7 11 27 -53 0
10 29 12 23 7 11 27 -56 0
10 29 12 23 7 11 27 -55 0
10 29 12 23 30 11 27 -54 0
10 29 12 23 30 11 27 -53 0
10 29 12 23 30 11 27 -56 0
10 29 12 23 30 11 27 -55 0
10 29 12 7 30 11 27 -54 0
10 29 12 7 30 11 27 -53 0
10 29 12 7 30 11 27 -56 0
10 29 12 7 30 11 27 -55 0
10 29 23 7 30 11 27 -54 0
10 29 23 7 30 11 27 -53 0
10 29 23 7 30 11 27 -56 0
10 29 23 7 30 11 27 -55 0
10 43 12 40 7 39 11 -61 0
10 43 12 40 7 39 11 -62 0
10 43 12 40 7 39 11 -63 0
10 43 12 40 7 39 11 -64 0
10 43 12 40 7 39 44 -61 0
10 43 12 40 7 39 44 -62 0
10 43 12 40 7 39 44 -63 0
10 43 12 40 7 39 44 -64 0
10 43 12 40 7 11 44 -61 0
10 43 12 40 7 11 44 -62 0
10 43 12 40 7 11 44 -63 0
10 43 12 40 7 11 44 -64 0
10 43 12 40 39 11 44 -61 0
10 43 12 40 39 11 44 -62 0
10 43 12 40 39 11 44 -63 0
10 43 12 40 39 11 44 -64 0
10 43 12 7 39 11 44 -61 0
10 43 12 7 39 11 44 -62 0
10 43 12 7 39 11 44 -63 0
10 43 12 7 39 11 44 -64 0
10 43 40 7 39 11 44 -61 0
10 43 40 7 39 11 44 -62 0
10 43 40 7 39 11 44 -63 0
10 43 40 7 39 11 44 -64 0
10 6 12 2 7 1 11 -13 0
10 6 12 2 7 1 11 -8 0
10 6 12 2 7 1 11 -14 0
10 6 12 2 7 1 11 -9 0
10 6 12 2 7 1 3 -13 0
10 6 12 2 7 1 3 -8 0
10 6 12 2 7 1 3 -14 0
10 6 12 2 7 1 3 -9 0
10 6 12 2 7 11 3 -13 0
10 6 12 2 7 11 3 -8 0
10 6 12 2 7 11 3 -14 0
10 6 12 2 7 11 3 -9 0
10 6 12 2 1 11 3 -13 0
10 6 12 2 1 11 3 -8 0
10 6 12 2 1 11 3 -14 0
10 6 12 2 1 11 3 -9 0
10 6 12 7 1 11 3 -13 0
10 6 12 7 1 11 3 -8 0
10 6 12 7 1 11 3 -14 0
10 6 12 7 1 11 3 -9 0
10 6 2 7 1 11 3 -13 0
10 6 2 7 1 11 3 -8 0
10 6 2 7 1 11 3 -14 0
10 6 2 7 1 11 3 -9 0
10 22 12 16 7 20 11 -50 0
10 22 12 16 7 20 11 -52 0
10 22 12 16 7 20 11 -51 0
10 22 12 16 7 20 11 -49 0
10 22 12 16 7 20 17 -50 0
10 22 12 16 7 20 17 -52 0
10 22 12 16 7 20 17 -51 0
10 22 12 16 7 20 17 -49 0
10 22 12 16 7 11 17 -50 0
10 22 12 16 7 11 17 -52 0
10 22 12 16 7 11 17 -51 0
10 22 12 16 7 11 17 -49 0
10 22 12 16 20 11 17 -50 0
10 22 12 16 20 11 17 -52 0
10 22 12 16 20 11 17 -51 0
10 22 12 16 20 11 17 -49 0
10 22 12 7 20 11 17 -50 0
10 22 12 7 20 11 17 -52 0
10 22 12 7 20 11 17 -51 0
10 22 12 7 20 11 17 -49 0
10 22 16 7 20 11 17 -50 0
10 22 16 7 20 11 17 -52 0
10 22 16 7 20 11 17 -51 0
10 22 16 7 20 11 17 -49 0
10 12 38 7 32 11 37 -59 0
10 12 38 7 32 11 37 -60 0
10 12 38 7 32 11 37 -57 0
10 12 38 7 32 11 37 -58 0
10 12 23 7 30 11 27 -54 0
10 12 23 7 30 11 27 -53 0
10 12 23 7 30 11 27 -56 0
10 12 23 7 30 11 27 -55 0
10 12 40 7 39 11 44 -61 0
10 12 40 7 39 11 44 -62 0
10 12 40 7 39 11 44 -63 0
10 12 40 7 39 11 44 -64 0
10 12 2 7 1 11 3 -13 0
10 12 2 7 1 11 3 -8 0
10 12 2 7 1 11 3 -14 0
10 12 2 7 1 11 3 -9 0
10 12 16 7 20 11 17 -50 0
10 12 16 7 20 11 17 -52 0
10 12 16 7 20 11 17 -51 0
10 12 16 7 20 11 17 -49 0
36 29 38 23 32 30 37 -84 0
36 29 38 23 32 30 37 -83 0
36 29 38 23 32 30 37 -81 0
36 29 38 23 32 30 37 -82 0
36 29 38 23 32 30 27 -84 0
36 29 38 23 32 30 27 -83 0
36 29 38 23 32 30 27 -81 0
36 29 38 23 32 30 27 -82 0
36 29 38 23 32 37 27 -84 0
36 29 38 23 32 37 27 -83 0
36 29 38 23 32 37 27 -81 0
36 29 38 23 32 37 27 -82 0
36 29 38 23 30 37 27 -84 0
36 29 38 23 30 37 27 -83 0
36 29 38 23 30 37 27 -81 0
36 29 38 23 30 37 27 -82 0
36 29 38 32 30 37 27 -84 0
36 29 38 32 30 37 27 -83 0
36 29 38 32 30 37 27 -81 0
36 29 38 32 30 37 27 -82 0
36 29 23 32 30 37 27 -84 0
36 29 23 32 30 37 27 -83 0
36 29 23 32 30 37 27 -81 0
36 29 23 32 30 37 27 -82 0
36 43 38 40 32 39 37 -91 0
36 43 38 40 32 39 37 -93 0
36 43 38 40 32 39 37 -94 0
36 43 38 40 32 39 37 -92 0
36 43 38 40 32 39 44 -91 0
36 43 38 40 32 39 44 -93 0
36 43 38 40 32 39 44 -94 0
36 43 38 40 32 39 44 -92 0
36 43 38 40 32 37 44 -91 0
36 43 38 40 32 37 44 -93 0
36 43 38 40 32 37 44 -94 0
36 43 38 40 32 37 44 -92 0
36 43 38 40 39 37 44 -91 0
36 43 38 40 39 37 44 -93 0
36 43 38 40 39 37 44 -94 0
36 43 38 40 39 37 44 -92 0
36 43 38 32 39 37 44 -91 0
36 43 38 32 39 37 44 -93 0
36 43 38 32 39 37 44 -94 0
36 43 38 32 39 37 44 -92 0
36 43 40 32 39 37 44 -91 0
36 43 40 32 39 37 44 -93 0
36 43 40 32 39 37 44 -94 0
36 43 40 32 39 37 44 -92 0
36 6 38 2 32 1 37 -35 0
36 6 38 2 32 1 37 -33 0
36 6 38 2 32 1 37 -34 0
36 6 38 2 32 1 37 -31 0
36 6 38 2 32 1 3 -35 0
36 6 38 2 32 1 3 -33 0
36 6 38 2 32 1 3 -34 0
36 6 38 2 32 1 3 -31 0
36 6 38 2 32 37 3 -35 0
36 6 38 2 32 37 3 -33 0
36 6 38 2 32 37 3 -34 0
36 6 38 2 32 37 3 -31 0
36 6 38 2 1 37 3 -35 0
36 6 38 2 1 37 3 -33 0
36 6 38 2 1 37 3 -34 0
36 6 38 2 1 37 3 -31 0
36 6 38 32 1 37 3 -35 0
36 6 38 32 1 37 3 -33 0
36 6 38 32 1 37 3 -34 0
36 6 38 32 1 37 3 -31 0
36 6 2 32 1 37 3 -35 0
36 6 2 32 1 37 3 -33 0
36 6 2 32 1 37 3 -34 0
36 6 2 32 1 37 3 -31 0
36 22 38 16 32 20 37 -73 0
36 22 38 16 32 20 37 -72 0
36 22 38 16 32 20 37 -71 0
36 22 38 16 32 20 37 -74 0
36 22 38 16 32 20 17 -73 0
36 22 38 16 32 20 17 -72 0
36 22 38 16 32 20 17 -71 0
36 22 38 16 32 20 17 -74 0
36 22 38 16 32 37 17 -73 0
36 22 38 16 32 37 17 -72 0
36 22 38 16 32 37 17 -71 0
36 22 38 16 32 37 17 -74 0
36 22 38 16 20 37 17 -73 0
36 22 38 16 20 37 17 -72 0
36 22 38 16 20 37 17 -71 0
36 22 38 16 20 37 17 -74 0
36 22 38 32 20 37 17 -73 0
36 22 38 32 20 37 17 -72 0
36 22 38 32 20 37 17 -71 0
36 22 38 32 20 37 17 -74 0
36 22 16 32 20 37 17 -73 0
36 22 16 32 20 37 17 -72 0
36 22 16 32 20 37 17 -71 0
36 22 16 32 20 37 17 -74 0
36 12 38 7 32 11 37 -59 0
36 12 38 7 32 11 37 -60 0
36 12 38 7 32 11 37 -57 0
36 12 38 7 32 11 37 -58 0
36 38 23 32 30 37 27 -84 0
36 38 23 32 30 37 27 -83 0
36 38 23 32 30 37 27 -81 0
36 38 23 32 30 37 27 -82 0
36 38 40 32 39 37 44 -91 0
36 38 40 32 39 37 44 -93 0
36 38 40 32 39 37 44 -94 0
36 38 40 32 39 37 44 -92 0
36 38 2 32 1 37 3 -35 0
36 38 2 32 1 37 3 -33 0
36 38 2 32 1 37 3 -34 0
36 38 2 32 1 37 3 -31 0
36 38 16 32 20 37 17 -73 0
36 38 16 32 20 37 17 -72 0
36 38 16 32 20 37 17 -71 0
36 38 16 32 20 37 17 -74 0
29 43 23 40 30 39 27 -85 0
29 43 23 40 30 39 27 -87 0
29 43 23 40 30 39 27 -88 0
29 43 23 40 30 39 27 -86 0
29 43 23 40 30 39 44 -85 0
29 43 23 40 30 39 44 -87 0
29 43 23 40 30 39 44 -88 0
29 43 23 40 30 39 44 -86 0
29 43 23 40 30 27 44 -85 0
29 43 23 40 30 27 44 -87 0
29 43 23 40 30 27 44 -88 0
29 43 23 40 30 27 44 -86 0
29 43 23 40 39 27 44 -85 0
29 43 23 40 39 27 44 -87 0
29 43 23 40 39 27 44 -88 0
29 43 23 40 39 27 44 -86 0
29 43 23 30 39 27 44 -85 0
29 43 23 30 39 27 44 -87 0
29 43 23 30 39 27 44 -88 0
29 43 23 30 39 27 44 -86 0
29 43 40 30 39 27 44 -85 0
29 43 40 30 39 27 44 -87 0
29 43 40 30 39 27 44 -88 0
29 43 40 30 39 27 44 -86 0
29 6 23 2 30 1 27 -28 0
29 6 23 2 30 1 27 -25 0
29 6 23 2 30 1 27 -26 0
29 6 23 2 30 1 27 -24 0
29 6 23 2 30 1 3 -28 0
29 6 23 2 30 1 3 -25 0
29 6 23 2 30 1 3 -26 0
29 6 23 2 30 1 3 -24 0
29 6 23 2 30 27 3 -28 0
29 6 23 2 30 27 3 -25 0
29 6 23 2 30 27 3 -26 0
29 6 23 2 30 27 3 -24 0
29 6 23 2 1 27 3 -28 0
29 6 23 2 1 27 3 -25 0
29 6 23 2 1 27 3 -26 0
29 6 23 2 1 27 3 -24 0
29 6 23 30 1 27 3 -28 0
29 6 23 30 1 27 3 -25 0
29 6 23 30 1 27 3 -26 0
29 6 23 30 1 27 3 -24 0
29 6 2 30 1 27 3 -28 0
29 6 2 30 1 27 3 -25 0
29 6 2 30 1 27 3 -26 0
29 6 2 30 1 27 3 -24 0
29 22 23 16 30 20 27 -68 0
29 22 23 16 30 20 27 -70 0
29 22 23 16 30 20 27 -69 0
29 22 23 16 30 20 27 -67 0
29 22 23 16 30 20 17 -68 0
29 22 23 16 30 20 17 -70 0
29 22 23 16 30 20 17 -69 0
29 22 23 16 30 20 17 -67 0
29 22 23 16 30 27 17 -68 0
29 22 23 16 30 27 17 -70 0
29 22 23 16 30 27 17 -69 0
29 22 23 16 30 27 17 -67 0
29 22 23 16 20 27 17 -68 0
29 22 23 16 20 27 17 -70 0
29 22 23 16 20 27 17 -69 0
29 22 23 16 20 27 17 -67 0
29 22 23 30 20 27 17 -68 0
29 22 23 30 20 27 17 -70 0
29 22 23 30 20 27 17 -69 0
29 22 23 30 20 27 17 -67 0
29 22 16 30 20 27 17 -68 0
29 22 16 30 20 27 17 -70 0
29 22 16 30 20 27 17 -69 0
29 22 16 30 20 27 17 -67 0
29 12 23 7 30 11 27 -54 0
29 12 23 7 30 11 27 -53 0
29 12 23 7 30 11 27 -56 0
29 12 23 7 30 11 27 -55 0
29 38 23 32 30 37 27 -84 0
29 38 23 32 30 37 27 -83 0
29 38 23 32 30 37 27 -81 0
29 38 23 32 30 37 27 -82 0
29 23 40 30 39 27 44 -85 0
29 23 40 30 39 27 44 -87 0
29 23 40 30 39 27 44 -88 0
29 23 40 30 39 27 44 -86 0
29 23 2 30 1 27 3 -28 0
29 23 2 30 1 27 3 -25 0
29 23 2 30 1 27 3 -26 0
29 23 2 30 1 27 3 -24 0
29 23 16 30 20 27 17 -68 0
29 23 16 30 20 27 17 -70 0
29 23 16 30 20 27 17 -69 0
29 23 16 30 20 27 17 -67 0
43 6 40 2 39 1 44 -41 0
43 6 40 2 39 1 44 -45 0
43 6 40 2 39 1 44 -46 0
43 6 40 2 39 1 44 -42 0
43 6 40 2 39 1 3 -41 0
43 6 40 2 39 1 3 -45 0
43 6 40 2 39 1 3 -46 0
43 6 40 2 39 1 3 -42 0
43 6 40 2 39 44 3 -41 0
43 6 40 2 39 44 3 -45 0
43 6 40 2 39 44 3 -46 0
43 6 40 2 39 44 3 -42 0
43 6 40 2 1 44 3 -41 0
43 6 40 2 1 44 3 -45 0
43 6 40 2 1 44 3 -46 0
43 6 40 2 1 44 3 -42 0
43 6 40 39 1 44 3 -41 0
43 6 40 39 1 44 3 -45 0
43 6 40 39 1 44 3 -46 0
43 6 40 39 1 44 3 -42 0
43 6 2 39 1 44 3 -41 0
43 6 2 39 1 44 3 -45 0
43 6 2 39 1 44 3 -46 0
43 6 2 39 1 44 3 -42 0
43 22 40 16 39 20 44 -76 0
43 22 40 16 39 20 44 -78 0
43 22 40 16 39 20 44 -75 0
43 22 40 16 39 20 44 -77 0
43 22 40 16 39 20 17 -76 0
43 22 40 16 39 20 17 -78 0
43 22 40 16 39 20 17 -75 0
43 22 40 16 39 20 17 -77 0
43 22 40 16 39 44 17 -76 0
43 22 40 16 39 44 17 -78 0
43 22 40 16 39 44 17 -75 0
43 22 40 16 39 44 17 -77 0
43 22 40 16 20 44 17 -76 0
43 22 40 16 20 44 17 -78 0
43 22 40 16 20 44 17 -75 0
43 22 40 16 20 44 17 -77 0
43 22 40 39 20 44 17 -76 0
43 22 40 39 20 44 17 -78 0
43 22 40 39 20 44 17 -75 0
43 22 40 39 20 44 17 -77 0
43 22 16 39 20 44 17 -76 0
43 22 16 39 20 44 17 -78 0
43 22 16 39 20 44 17 -75 0
43 22 16 39 20 44 17 -77 0
43 12 40 7 39 11 44 -61 0
43 12 40 7 39 11 44 -62 0
43 12 40 7 39 11 44 -63 0
43 12 40 7 39 11 44 -64 0
43 38 40 32 39 37 44 -91 0
43 38 40 32 39 37 44 -93 0
43 38 40 32 39 37 44 -94 0
43 38 40 32 39 37 44 -92 0
43 23 40 30 39 27 44 -85 0
43 23 40 30 39 27 44 -87 0
43 23 40 30 39 27 44 -88 0
43 23 40 30 39 27 44 -86 0
43 40 2 39 1 44 3 -41 0
43 40 2 39 1 44 3 -45 0
43 40 2 39 1 44 3 -46 0
43 40 2 39 1 44 3 -42 0
43 40 16 39 20 44 17 -76 0
43 40 16 39 20 44 17 -78 0
43 40 16 39 20 44 17 -75 0
43 40 16 39 20 44 17 -77 0
6 22 2 16 1 20 3 -19 0
6 22 2 16 1 20 3 -15 0
6 22 2 16 1 20 3 -21 0
6 22 2 16 1 20 3 -18 0
6 22 2 16 1 20 17 -19 0
6 22 2 16 1 20 17 -15 0
6 22 2 16 1 20 17 -21 0
6 22 2 16 1 20 17 -18 0
6 22 2 16 1 3 17 -19 0
6 22 2 16 1 3 17 -15 0
6 22 2 16 1 3 17 -21 0
6 22 2 16 1 3 17 -18 0
6 22 2 16 20 3 17 -19 0
6 22 2 16 20 3 17 -15 0
6 22 2 16 20 3 17 -21 0
6 22 2 16 20 3 17 -18 0
6 22 2 1 20 3 17 -19 0
6 22 2 1 20 3 17 -15 0
6 22 2 1 20 3 17 -21 0
6 22 2 1 20 3 17 -18 0
6 22 16 1 20 3 17 -19 0
6 22 16 1 20 3 17 -15 0
6 22 16 1 20 3 17 -21 0
6 22 16 1 20 3 17 -18 0
6 12 2 7 1 11 3 -13 0
6 12 2 7 1 11 3 -8 0
6 12 2 7 1 11 3 -14 0
6 12 2 7 1 11 3 -9 0
6 38 2 32 1 37 3 -35 0
6 38 2 32 1 37 3 -33 0
6 38 2 32 1 37 3 -34 0
6 38 2 32 1 37 3 -31 0
6 23 2 30 1 27 3 -28 0
6 23 2 30 1 27 3 -25 0
6 23 2 30 1 27 3 -26 0
6 23 2 30 1 27 3 -24 0
6 40 2 39 1 44 3 -41 0
6 40 2 39 1 44 3 -45 0
6 40 2 39 1 44 3 -46 0
6 40 2 39 1 44 3 -42 0
6 2 16 1 20 3 17 -19 0
6 2 16 1 20 3 17 -15 0
6 2 16 1 20 3 17 -21 0
6 2 16 1 20 3 17 -18 0
22 12 16 7 20 11 17 -50 0
22 12 16 7 20 11 17 -52 0
22 12 16 7 20 11 17 -51 0
22 12 16 7 20 11 17 -49 0
22 38 16 32 20 37 17 -73 0
22 38 16 32 20 37 17 -72 0
22 38 16 32 20 37 17 -71 0
22 38 16 32 20 37 17 -74 0
22 23 16 30 20 27 17 -68 0
22 23 16 30 20 27 17 -70 0
22 23 16 30 20 27 17 -69 0
22 23 16 30 20 27 17 -67 0
22 40 16 39 20 44 17 -76 0
22 40 16 39 20 44 17 -78 0
22 40 16 39 20 44 17 -75 0
22 40 16 39 20 44 17 -77 0
22 2 16 1 20 3 17 -19 0
22 2 16 1 20 3 17 -15 0
22 2 16 1 20 3 17 -21 0
22 2 16 1 20 3 17 -18 0
10 36 12 38 7 32 11 37 -59 0
10 36 12 38 7 32 11 37 -60 0
10 36 12 38 7 32 11 37 -57 0
10 36 12 38 7 32 11 37 -58 0
10 29 12 23 7 30 11 27 -54 0
10 29 12 23 7 30 11 27 -53 0
10 29 12 23 7 30 11 27 -56 0
10 29 12 23 7 30 11 27 -55 0
10 43 12 40 7 39 11 44 -61 0
10 43 12 40 7 39 11 44 -62 0
10 43 12 40 7 39 11 44 -63 0
10 43 12 40 7 39 11 44 -64 0
10 6 12 2 7 1 11 3 -13 0
10 6 12 2 7 1 11 3 -8 0
10 6 12 2 7 1 11 3 -14 0
10 6 12 2 7 1 11 3 -9 0
10 22 12 16 7 20 11 17 -50 0
10 22 12 16 7 20 11 17 -52 0
10 22 12 16 7 20 11 17 -51 0
10 22 12 16 7 20 11 17 -49 0
36 29 38 23 32 30 37 27 -84 0
36 29 38 23 32 30 37 27 -83 0
36 29 38 23 32 30 37 27 -81 0
36 29 38 23 32 30 37 27 -82 0
36 43 38 40 32 39 37 44 -91 0
36 43 38 40 32 39 37 44 -93 0
36 43 38 40 32 39 37 44 -94 0
36 43 38 40 32 39 37 44 -92 0
36 6 38 2 32 1 37 3 -35 0
36 6 38 2 32 1 37 3 -33 0
36 6 38 2 32 1 37 3 -34 0
36 6 38 2 32 1 37 3 -31 0
36 22 38 16 32 20 37 17 -73 0
36 22 38 16 32 20 37 17 -72 0
36 22 38 16 32 20 37 17 -71 0
36 22 38 16 32 20 37 17 -74 0
29 43 23 40 30 39 27 44 -85 0
29 43 23 40 30 39 27 44 -87 0
29 43 23 40 30 39 27 44 -88 0
29 43 23 40 30 39 27 44 -86 0
29 6 23 2 30 1 27 3 -28 0
29 6 23 2 30 1 27 3 -25 0
29 6 23 2 30 1 27 3 -26 0
29 6 23 2 30 1 27 3 -24 0
29 22 23 16 30 20 27 17 -68 0
29 22 23 16 30 20 27 17 -70 0
29 22 23 16 30 20 27 17 -69 0
29 22 23 16 30 20 27 17 -67 0
43 6 40 2 39 1 44 3 -41 0
43 6 40 2 39 1 44 3 -45 0
43 6 40 2 39 1 44 3 -46 0
43 6 40 2 39 1 44 3 -42 0
43 22 40 16 39 20 44 17 -76 0
43 22 40 16 39 20 44 17 -78 0
43 22 40 16 39 20 44 17 -75 0
43 22 40 16 39 20 44 17 -77 0
6 22 2 16 1 20 3 17 -19 0
6 22 2 16 1 20 3 17 -15 0
6 22 2 16 1 20 3 17 -21 0
6 22 2 16 1 20 3 17 -18 0
