c U2(1) E2(1,1) U1(1) E1(1,1) U4(1) U3(1) E1(1,6) U3(6) U4(6) U2(6) E2(1,6) E1(6,1) U1(6) E2(6,1) E2(0,1) E1(1,0) E2(1,0) E1(0,1) U2(0) U1(0) U3(0) U4(0) U2(4) E2(1,4) U3(4) E1(1,4) U1(4) E1(4,1) U4(4) E2(4,1) E1(1,2) U4(2) U2(2) U3(2) E2(1,2) E2(2,1) U1(2) E1(2,1) E2(1,5) E1(1,5) E1(5,1) U3(5) U4(5) U2(5) E2(5,1) U1(5) E1(3,1) E2(3,1) E2(1,3) E1(1,3) U4(3) U2(3) U3(3) U1(3) E1(6,6) E2(6,6) E2(6,0) E1(6,0) E2(0,6) E1(0,6) E1(4,6) E2(6,4) E2(4,6) E1(6,4) E2(6,2) E2(2,6) E1(6,2) E1(2,6) E1(6,5) E1(5,6) E2(5,6) E2(6,5) E2(6,3) E1(6,3) E2(3,6) E1(3,6) E2(0,0) E1(0,0) E1(0,4) E2(0,4) E1(4,0) E2(4,0) E2(2,0) E2(0,2) E1(2,0) E1(0,2) E1(0,5) E2(5,0) E2(0,5) E1(5,0) E1(0,3) E1(3,0) E2(3,0) E2(0,3) E1(4,4) E2(4,4) E2(2,4) E2(4,2) E1(2,4) E1(4,2) E1(4,5) E1(5,4) E2(5,4) E2(4,5) E2(3,4) E1(3,4) E2(4,3) E1(4,3) E2(2,2) E1(2,2) E2(2,5) E2(5,2) E1(2,5) E1(5,2) E2(3,2) E2(2,3) E1(3,2) E1(2,3) E2(5,5) E1(5,5) E2(5,3) E1(3,5) E1(5,3) E2(3,5) E1(3,3) E2(3,3)
c 1 2 3 4 5 6 7 8 9 10 11 12 13 14 15 16 17 18 19 20 21 22 23 24 25 26 27 28 29 30 31 32 33 34 35 36 37 38 39 40 41 42 43 44 45 46 47 48 49 50 51 52 53 54 55 56 57 58 59 60 61 62 63 64 65 66 67 68 69 70 71 72 73 74 75 76 77 78 79 80 81 82 83 84 85 86 87 88 89 90 91 92 93 94 95 96 97 98 99 100 101 102 103 104 105 106 107 108 109 110 111 112 113 114 115 116 117 118 119 120 121 122 123 124 125 126
p cnf 126 3129
-78 0
-4 0
-110 0
-125 0
-95 0
-120 0
-55 0
-77 0
-2 0
-109 0
-126 0
-96 0
-119 0
-56 0
-18 -16 0
-86 -85 0
-91 -92 0
-79 -81 0
-87 -90 0
-60 -58 0
-31 -38 0
-50 -47 0
-26 -28 0
-40 -41 0
-7 -12 0
-118 -117 0
-99 -100 0
-113 -114 0
-68 -67 0
-106 -108 0
-122 -123 0
-76 -74 0
-101 -102 0
-61 -64 0
-70 -69 0
-15 -17 0
-84 -83 0
-94 -93 0
-80 -82 0
-89 -88 0
-59 -57 0
-35 -36 0
-49 -48 0
-24 -30 0
-39 -45 0
-11 -14 0
-116 -115 0
-97 -98 0
-111 -112 0
-66 -65 0
-105 -107 0
-124 -121 0
-75 -73 0
-104 -103 0
-63 -62 0
-71 -72 0
-20 -19 0
-20 -21 0
-20 -22 0
-3 -1 0
-3 -6 0
-3 -5 0
-37 -33 0
-37 -34 0
-37 -32 0
-54 -52 0
-54 -53 0
-54 -51 0
-27 -23 0
-27 -25 0
-27 -29 0
-46 -44 0
-46 -42 0
-46 -43 0
-13 -10 0
-13 -8 0
-13 -9 0
-19 -21 0
-19 -22 0
-1 -6 0
-1 -5 0
-33 -34 0
-33 -32 0
-52 -53 0
-52 -51 0
-23 -25 0
-23 -29 0
-44 -42 0
-44 -43 0
-10 -8 0
-10 -9 0
-21 -22 0
-6 -5 0
-34 -32 0
-53 -51 0
-25 -29 0
-42 -43 0
-8 -9 0
20 19 21 22 0
3 1 6 5 0
37 33 34 32 0
54 52 53 51 0
27 23 25 29 0
46 44 42 43 0
13 10 8 9 0
20 19 21 -78 0
20 19 21 -77 0
20 19 22 -78 0
20 19 22 -77 0
20 21 22 -78 0
20 21 22 -77 0
3 1 6 -4 0
3 1 6 -2 0
3 1 5 -4 0
3 1 5 -2 0
3 6 5 -4 0
3 6 5 -2 0
37 33 34 -110 0
37 33 34 -109 0
37 33 32 -110 0
37 33 32 -109 0
37 34 32 -110 0
37 34 32 -109 0
54 52 53 -125 0
54 52 53 -126 0
54 52 51 -125 0
54 52 51 -126 0
54 53 51 -125 0
54 53 51 -126 0
27 23 25 -95 0
27 23 25 -96 0
27 23 29 -95 0
27 23 29 -96 0
27 25 29 -95 0
27 25 29 -96 0
46 44 42 -120 0
46 44 42 -119 0
46 44 43 -120 0
46 44 43 -119 0
46 42 43 -120 0
46 42 43 -119 0
13 10 8 -55 0
13 10 8 -56 0
13 10 9 -55 0
13 10 9 -56 0
13 8 9 -55 0
13 8 9 -56 0
19 21 22 -78 0
19 21 22 -77 0
1 6 5 -4 0
1 6 5 -2 0
33 34 32 -110 0
33 34 32 -109 0
52 53 51 -125 0
52 53 51 -126 0
23 25 29 -95 0
23 25 29 -96 0
44 42 43 -120 0
44 42 43 -119 0
10 8 9 -55 0
10 8 9 -56 0
20 19 21 22 -78 0
20 19 21 22 -18 0
20 19 21 22 -86 0
20 19 21 22 -91 0
20 19 21 22 -79 0
20 19 21 22 -87 0
20 19 21 22 -60 0
20 19 21 22 -16 0
20 19 21 22 -85 0
20 19 21 22 -92 0
20 19 21 22 -81 0
20 19 21 22 -90 0
20 19 21 22 -58 0
20 19 21 22 -77 0
20 19 21 22 -15 0
20 19 21 22 -84 0
20 19 21 22 -94 0
20 19 21 22 -80 0
20 19 21 22 -89 0
20 19 21 22 -59 0
20 19 21 22 -17 0
20 19 21 22 -83 0
20 19 21 22 -93 0
20 19 21 22 -82 0
20 19 21 22 -88 0
20 19 21 22 -57 0
3 1 6 5 -18 0
3 1 6 5 -16 0
3 1 6 5 -4 0
3 1 6 5 -31 0
3 1 6 5 -50 0
3 1 6 5 -26 0
3 1 6 5 -40 0
3 1 6 5 -7 0
3 1 6 5 -38 0
3 1 6 5 -47 0
3 1 6 5 -28 0
3 1 6 5 -41 0
3 1 6 5 -12 0
3 1 6 5 -15 0
3 1 6 5 -17 0
3 1 6 5 -2 0
3 1 6 5 -35 0
3 1 6 5 -49 0
3 1 6 5 -24 0
3 1 6 5 -39 0
3 1 6 5 -11 0
3 1 6 5 -36 0
3 1 6 5 -48 0
3 1 6 5 -30 0
3 1 6 5 -45 0
3 1 6 5 -14 0
37 33 34 32 -86 0
37 33 34 32 -31 0
37 33 34 32 -85 0
37 33 34 32 -38 0
37 33 34 32 -110 0
37 33 34 32 -118 0
37 33 34 32 -99 0
37 33 34 32 -113 0
37 33 34 32 -68 0
37 33 34 32 -117 0
37 33 34 32 -100 0
37 33 34 32 -114 0
37 33 34 32 -67 0
37 33 34 32 -84 0
37 33 34 32 -35 0
37 33 34 32 -83 0
37 33 34 32 -36 0
37 33 34 32 -109 0
37 33 34 32 -116 0
37 33 34 32 -97 0
37 33 34 32 -111 0
37 33 34 32 -66 0
37 33 34 32 -115 0
37 33 34 32 -98 0
37 33 34 32 -112 0
37 33 34 32 -65 0
54 52 53 51 -91 0
54 52 53 51 -50 0
54 52 53 51 -118 0
54 52 53 51 -92 0
54 52 53 51 -47 0
54 52 53 51 -117 0
54 52 53 51 -125 0
54 52 53 51 -106 0
54 52 53 51 -122 0
54 52 53 51 -76 0
54 52 53 51 -108 0
54 52 53 51 -123 0
54 52 53 51 -74 0
54 52 53 51 -94 0
54 52 53 51 -49 0
54 52 53 51 -116 0
54 52 53 51 -93 0
54 52 53 51 -48 0
54 52 53 51 -115 0
54 52 53 51 -126 0
54 52 53 51 -105 0
54 52 53 51 -124 0
54 52 53 51 -75 0
54 52 53 51 -107 0
54 52 53 51 -121 0
54 52 53 51 -73 0
27 23 25 29 -79 0
27 23 25 29 -26 0
27 23 25 29 -99 0
27 23 25 29 -106 0
27 23 25 29 -81 0
27 23 25 29 -28 0
27 23 25 29 -100 0
27 23 25 29 -108 0
27 23 25 29 -95 0
27 23 25 29 -101 0
27 23 25 29 -61 0
27 23 25 29 -102 0
27 23 25 29 -64 0
27 23 25 29 -80 0
27 23 25 29 -24 0
27 23 25 29 -97 0
27 23 25 29 -105 0
27 23 25 29 -82 0
27 23 25 29 -30 0
27 23 25 29 -98 0
27 23 25 29 -107 0
27 23 25 29 -96 0
27 23 25 29 -104 0
27 23 25 29 -63 0
27 23 25 29 -103 0
27 23 25 29 -62 0
46 44 42 43 -87 0
46 44 42 43 -40 0
46 44 42 43 -113 0
46 44 42 43 -122 0
46 44 42 43 -101 0
46 44 42 43 -90 0
46 44 42 43 -41 0
46 44 42 43 -114 0
46 44 42 43 -123 0
46 44 42 43 -102 0
46 44 42 43 -120 0
46 44 42 43 -70 0
46 44 42 43 -69 0
46 44 42 43 -89 0
46 44 42 43 -39 0
46 44 42 43 -111 0
46 44 42 43 -124 0
46 44 42 43 -104 0
46 44 42 43 -88 0
46 44 42 43 -45 0
46 44 42 43 -112 0
46 44 42 43 -121 0
46 44 42 43 -103 0
46 44 42 43 -119 0
46 44 42 43 -71 0
46 44 42 43 -72 0
13 10 8 9 -60 0
13 10 8 9 -7 0
13 10 8 9 -68 0
13 10 8 9 -76 0
13 10 8 9 -61 0
13 10 8 9 -70 0
13 10 8 9 -58 0
13 10 8 9 -12 0
13 10 8 9 -67 0
13 10 8 9 -74 0
13 10 8 9 -64 0
13 10 8 9 -69 0
13 10 8 9 -55 0
13 10 8 9 -59 0
13 10 8 9 -11 0
13 10 8 9 -66 0
13 10 8 9 -75 0
13 10 8 9 -63 0
13 10 8 9 -71 0
13 10 8 9 -57 0
13 10 8 9 -14 0
13 10 8 9 -65 0
13 10 8 9 -73 0
13 10 8 9 -62 0
13 10 8 9 -72 0
13 10 8 9 -56 0
20 3 19 21 22 -18 0
20 3 19 21 22 -16 0
20 3 19 21 22 -15 0
20 3 19 21 22 -17 0
20 3 1 6 5 -18 0
20 3 1 6 5 -16 0
20 3 1 6 5 -15 0
20 3 1 6 5 -17 0
20 37 19 21 22 -86 0
20 37 19 21 22 -85 0
20 37 19 21 22 -84 0
20 37 19 21 22 -83 0
20 37 33 34 32 -86 0
20 37 33 34 32 -85 0
20 37 33 34 32 -84 0
20 37 33 34 32 -83 0
20 54 19 21 22 -91 0
20 54 19 21 22 -92 0
20 54 19 21 22 -94 0
20 54 19 21 22 -93 0
20 54 52 53 51 -91 0
20 54 52 53 51 -92 0
20 54 52 53 51 -94 0
20 54 52 53 51 -93 0
20 27 19 21 22 -79 0
20 27 19 21 22 -81 0
20 27 19 21 22 -80 0
20 27 19 21 22 -82 0
20 27 23 25 29 -79 0
20 27 23 25 29 -81 0
20 27 23 25 29 -80 0
20 27 23 25 29 -82 0
20 46 19 21 22 -87 0
20 46 19 21 22 -90 0
20 46 19 21 22 -89 0
20 46 19 21 22 -88 0
20 46 44 42 43 -87 0
20 46 44 42 43 -90 0
20 46 44 42 43 -89 0
20 46 44 42 43 -88 0
20 13 19 21 22 -60 0
20 13 19 21 22 -58 0
20 13 19 21 22 -59 0
20 13 19 21 22 -57 0
20 13 10 8 9 -60 0
20 13 10 8 9 -58 0
20 13 10 8 9 -59 0
20 13 10 8 9 -57 0
20 19 1 21 22 -18 0
20 19 1 21 22 -16 0
20 19 1 21 22 -15 0
20 19 1 21 22 -17 0
20 19 33 21 22 -86 0
20 19 33 21 22 -85 0
20 19 33 21 22 -84 0
20 19 33 21 22 -83 0
20 19 52 21 22 -91 0
20 19 52 21 22 -92 0
20 19 52 21 22 -94 0
20 19 52 21 22 -93 0
20 19 23 21 22 -79 0
20 19 23 21 22 -81 0
20 19 23 21 22 -80 0
20 19 23 21 22 -82 0
20 19 44 21 22 -87 0
20 19 44 21 22 -90 0
20 19 44 21 22 -89 0
20 19 44 21 22 -88 0
20 19 10 21 22 -60 0
20 19 10 21 22 -58 0
20 19 10 21 22 -59 0
20 19 10 21 22 -57 0
20 19 21 6 22 -18 0
20 19 21 6 22 -16 0
20 19 21 6 22 -15 0
20 19 21 6 22 -17 0
20 19 21 34 22 -86 0
20 19 21 34 22 -85 0
20 19 21 34 22 -84 0
20 19 21 34 22 -83 0
20 19 21 53 22 -91 0
20 19 21 53 22 -92 0
20 19 21 53 22 -94 0
20 19 21 53 22 -93 0
20 19 21 25 22 -79 0
20 19 21 25 22 -81 0
20 19 21 25 22 -80 0
20 19 21 25 22 -82 0
20 19 21 42 22 -87 0
20 19 21 42 22 -90 0
20 19 21 42 22 -89 0
20 19 21 42 22 -88 0
20 19 21 8 22 -60 0
20 19 21 8 22 -58 0
20 19 21 8 22 -59 0
20 19 21 8 22 -57 0
20 19 21 22 5 -18 0
20 19 21 22 5 -16 0
20 19 21 22 5 -15 0
20 19 21 22 5 -17 0
20 19 21 22 32 -86 0
20 19 21 22 32 -85 0
20 19 21 22 32 -84 0
20 19 21 22 32 -83 0
20 19 21 22 51 -91 0
20 19 21 22 51 -92 0
20 19 21 22 51 -94 0
20 19 21 22 51 -93 0
20 19 21 22 29 -79 0
20 19 21 22 29 -81 0
20 19 21 22 29 -80 0
20 19 21 22 29 -82 0
20 19 21 22 43 -87 0
20 19 21 22 43 -90 0
20 19 21 22 43 -89 0
20 19 21 22 43 -88 0
20 19 21 22 9 -60 0
20 19 21 22 9 -58 0
20 19 21 22 9 -59 0
20 19 21 22 9 -57 0
3 37 1 6 5 -31 0
3 37 1 6 5 -38 0
3 37 1 6 5 -35 0
3 37 1 6 5 -36 0
3 37 33 34 32 -31 0
3 37 33 34 32 -38 0
3 37 33 34 32 -35 0
3 37 33 34 32 -36 0
3 54 1 6 5 -50 0
3 54 1 6 5 -47 0
3 54 1 6 5 -49 0
3 54 1 6 5 -48 0
3 54 52 53 51 -50 0
3 54 52 53 51 -47 0
3 54 52 53 51 -49 0
3 54 52 53 51 -48 0
3 27 1 6 5 -26 0
3 27 1 6 5 -28 0
3 27 1 6 5 -24 0
3 27 1 6 5 -30 0
3 27 23 25 29 -26 0
3 27 23 25 29 -28 0
3 27 23 25 29 -24 0
3 27 23 25 29 -30 0
3 46 1 6 5 -40 0
3 46 1 6 5 -41 0
3 46 1 6 5 -39 0
3 46 1 6 5 -45 0
3 46 44 42 43 -40 0
3 46 44 42 43 -41 0
3 46 44 42 43 -39 0
3 46 44 42 43 -45 0
3 13 1 6 5 -7 0
3 13 1 6 5 -12 0
3 13 1 6 5 -11 0
3 13 1 6 5 -14 0
3 13 10 8 9 -7 0
3 13 10 8 9 -12 0
3 13 10 8 9 -11 0
3 13 10 8 9 -14 0
3 19 1 6 5 -18 0
3 19 1 6 5 -16 0
3 19 1 6 5 -15 0
3 19 1 6 5 -17 0
3 1 33 6 5 -31 0
3 1 33 6 5 -38 0
3 1 33 6 5 -35 0
3 1 33 6 5 -36 0
3 1 52 6 5 -50 0
3 1 52 6 5 -47 0
3 1 52 6 5 -49 0
3 1 52 6 5 -48 0
3 1 23 6 5 -26 0
3 1 23 6 5 -28 0
3 1 23 6 5 -24 0
3 1 23 6 5 -30 0
3 1 44 6 5 -40 0
3 1 44 6 5 -41 0
3 1 44 6 5 -39 0
3 1 44 6 5 -45 0
3 1 10 6 5 -7 0
3 1 10 6 5 -12 0
3 1 10 6 5 -11 0
3 1 10 6 5 -14 0
3 1 21 6 5 -18 0
3 1 21 6 5 -16 0
3 1 21 6 5 -15 0
3 1 21 6 5 -17 0
3 1 6 34 5 -31 0
3 1 6 34 5 -38 0
3 1 6 34 5 -35 0
3 1 6 34 5 -36 0
3 1 6 53 5 -50 0
3 1 6 53 5 -47 0
3 1 6 53 5 -49 0
3 1 6 53 5 -48 0
3 1 6 25 5 -26 0
3 1 6 25 5 -28 0
3 1 6 25 5 -24 0
3 1 6 25 5 -30 0
3 1 6 42 5 -40 0
3 1 6 42 5 -41 0
3 1 6 42 5 -39 0
3 1 6 42 5 -45 0
3 1 6 8 5 -7 0
3 1 6 8 5 -12 0
3 1 6 8 5 -11 0
3 1 6 8 5 -14 0
3 1 6 22 5 -18 0
3 1 6 22 5 -16 0
3 1 6 22 5 -15 0
3 1 6 22 5 -17 0
3 1 6 5 32 -31 0
3 1 6 5 32 -38 0
3 1 6 5 32 -35 0
3 1 6 5 32 -36 0
3 1 6 5 51 -50 0
3 1 6 5 51 -47 0
3 1 6 5 51 -49 0
3 1 6 5 51 -48 0
3 1 6 5 29 -26 0
3 1 6 5 29 -28 0
3 1 6 5 29 -24 0
3 1 6 5 29 -30 0
3 1 6 5 43 -40 0
3 1 6 5 43 -41 0
3 1 6 5 43 -39 0
3 1 6 5 43 -45 0
3 1 6 5 9 -7 0
3 1 6 5 9 -12 0
3 1 6 5 9 -11 0
3 1 6 5 9 -14 0
37 54 33 34 32 -118 0
37 54 33 34 32 -117 0
37 54 33 34 32 -116 0
37 54 33 34 32 -115 0
37 54 52 53 51 -118 0
37 54 52 53 51 -117 0
37 54 52 53 51 -116 0
37 54 52 53 51 -115 0
37 27 33 34 32 -99 0
37 27 33 34 32 -100 0
37 27 33 34 32 -97 0
37 27 33 34 32 -98 0
37 27 23 25 29 -99 0
37 27 23 25 29 -100 0
37 27 23 25 29 -97 0
37 27 23 25 29 -98 0
37 46 33 34 32 -113 0
37 46 33 34 32 -114 0
37 46 33 34 32 -111 0
37 46 33 34 32 -112 0
37 46 44 42 43 -113 0
37 46 44 42 43 -114 0
37 46 44 42 43 -111 0
37 46 44 42 43 -112 0
37 13 33 34 32 -68 0
37 13 33 34 32 -67 0
37 13 33 34 32 -66 0
37 13 33 34 32 -65 0
37 13 10 8 9 -68 0
37 13 10 8 9 -67 0
37 13 10 8 9 -66 0
37 13 10 8 9 -65 0
37 19 33 34 32 -86 0
37 19 33 34 32 -85 0
37 19 33 34 32 -84 0
37 19 33 34 32 -83 0
37 1 33 34 32 -31 0
37 1 33 34 32 -38 0
37 1 33 34 32 -35 0
37 1 33 34 32 -36 0
37 33 52 34 32 -118 0
37 33 52 34 32 -117 0
37 33 52 34 32 -116 0
37 33 52 34 32 -115 0
37 33 23 34 32 -99 0
37 33 23 34 32 -100 0
37 33 23 34 32 -97 0
37 33 23 34 32 -98 0
37 33 44 34 32 -113 0
37 33 44 34 32 -114 0
37 33 44 34 32 -111 0
37 33 44 34 32 -112 0
37 33 10 34 32 -68 0
37 33 10 34 32 -67 0
37 33 10 34 32 -66 0
37 33 10 34 32 -65 0
37 33 21 34 32 -86 0
37 33 21 34 32 -85 0
37 33 21 34 32 -84 0
37 33 21 34 32 -83 0
37 33 6 34 32 -31 0
37 33 6 34 32 -38 0
37 33 6 34 32 -35 0
37 33 6 34 32 -36 0
37 33 34 53 32 -118 0
37 33 34 53 32 -117 0
37 33 34 53 32 -116 0
37 33 34 53 32 -115 0
37 33 34 25 32 -99 0
37 33 34 25 32 -100 0
37 33 34 25 32 -97 0
37 33 34 25 32 -98 0
37 33 34 42 32 -113 0
37 33 34 42 32 -114 0
37 33 34 42 32 -111 0
37 33 34 42 32 -112 0
37 33 34 8 32 -68 0
37 33 34 8 32 -67 0
37 33 34 8 32 -66 0
37 33 34 8 32 -65 0
37 33 34 22 32 -86 0
37 33 34 22 32 -85 0
37 33 34 22 32 -84 0
37 33 34 22 32 -83 0
37 33 34 5 32 -31 0
37 33 34 5 32 -38 0
37 33 34 5 32 -35 0
37 33 34 5 32 -36 0
37 33 34 32 51 -118 0
37 33 34 32 51 -117 0
37 33 34 32 51 -116 0
37 33 34 32 51 -115 0
37 33 34 32 29 -99 0
37 33 34 32 29 -100 0
37 33 34 32 29 -97 0
37 33 34 32 29 -98 0
37 33 34 32 43 -113 0
37 33 34 32 43 -114 0
37 33 34 32 43 -111 0
37 33 34 32 43 -112 0
37 33 34 32 9 -68 0
37 33 34 32 9 -67 0
37 33 34 32 9 -66 0
37 33 34 32 9 -65 0
54 27 52 53 51 -106 0
54 27 52 53 51 -108 0
54 27 52 53 51 -105 0
54 27 52 53 51 -107 0
54 27 23 25 29 -106 0
54 27 23 25 29 -108 0
54 27 23 25 29 -105 0
54 27 23 25 29 -107 0
54 46 52 53 51 -122 0
54 46 52 53 51 -123 0
54 46 52 53 51 -124 0
54 46 52 53 51 -121 0
54 46 44 42 43 -122 0
54 46 44 42 43 -123 0
54 46 44 42 43 -124 0
54 46 44 42 43 -121 0
54 13 52 53 51 -76 0
54 13 52 53 51 -74 0
54 13 52 53 51 -75 0
54 13 52 53 51 -73 0
54 13 10 8 9 -76 0
54 13 10 8 9 -74 0
54 13 10 8 9 -75 0
54 13 10 8 9 -73 0
54 19 52 53 51 -91 0
54 19 52 53 51 -92 0
54 19 52 53 51 -94 0
54 19 52 53 51 -93 0
54 1 52 53 51 -50 0
54 1 52 53 51 -47 0
54 1 52 53 51 -49 0
54 1 52 53 51 -48 0
54 33 52 53 51 -118 0
54 33 52 53 51 -117 0
54 33 52 53 51 -116 0
54 33 52 53 51 -115 0
54 52 23 53 51 -106 0
54 52 23 53 51 -108 0
54 52 23 53 51 -105 0
54 52 23 53 51 -107 0
54 52 44 53 51 -122 0
54 52 44 53 51 -123 0
54 52 44 53 51 -124 0
54 52 44 53 51 -121 0
54 52 10 53 51 -76 0
54 52 10 53 51 -74 0
54 52 10 53 51 -75 0
54 52 10 53 51 -73 0
54 52 21 53 51 -91 0
54 52 21 53 51 -92 0
54 52 21 53 51 -94 0
54 52 21 53 51 -93 0
54 52 6 53 51 -50 0
54 52 6 53 51 -47 0
54 52 6 53 51 -49 0
54 52 6 53 51 -48 0
54 52 34 53 51 -118 0
54 52 34 53 51 -117 0
54 52 34 53 51 -116 0
54 52 34 53 51 -115 0
54 52 53 25 51 -106 0
54 52 53 25 51 -108 0
54 52 53 25 51 -105 0
54 52 53 25 51 -107 0
54 52 53 42 51 -122 0
54 52 53 42 51 -123 0
54 52 53 42 51 -124 0
54 52 53 42 51 -121 0
54 52 53 8 51 -76 0
54 52 53 8 51 -74 0
54 52 53 8 51 -75 0
54 52 53 8 51 -73 0
54 52 53 22 51 -91 0
54 52 53 22 51 -92 0
54 52 53 22 51 -94 0
54 52 53 22 51 -93 0
54 52 53 5 51 -50 0
54 52 53 5 51 -47 0
54 52 53 5 51 -49 0
54 52 53 5 51 -48 0
54 52 53 32 51 -118 0
54 52 53 32 51 -117 0
54 52 53 32 51 -116 0
54 52 53 32 51 -115 0
54 52 53 51 29 -106 0
54 52 53 51 29 -108 0
54 52 53 51 29 -105 0
54 52 53 51 29 -107 0
54 52 53 51 43 -122 0
54 52 53 51 43 -123 0
54 52 53 51 43 -124 0
54 52 53 51 43 -121 0
54 52 53 51 9 -76 0
54 52 53 51 9 -74 0
54 52 53 51 9 -75 0
54 52 53 51 9 -73 0
27 46 23 25 29 -101 0
27 46 23 25 29 -102 0
27 46 23 25 29 -104 0
27 46 23 25 29 -103 0
27 46 44 42 43 -101 0
27 46 44 42 43 -102 0
27 46 44 42 43 -104 0
27 46 44 42 43 -103 0
27 13 23 25 29 -61 0
27 13 23 25 29 -64 0
27 13 23 25 29 -63 0
27 13 23 25 29 -62 0
27 13 10 8 9 -61 0
27 13 10 8 9 -64 0
27 13 10 8 9 -63 0
27 13 10 8 9 -62 0
27 19 23 25 29 -79 0
27 19 23 25 29 -81 0
27 19 23 25 29 -80 0
27 19 23 25 29 -82 0
27 1 23 25 29 -26 0
27 1 23 25 29 -28 0
27 1 23 25 29 -24 0
27 1 23 25 29 -30 0
27 33 23 25 29 -99 0
27 33 23 25 29 -100 0
27 33 23 25 29 -97 0
27 33 23 25 29 -98 0
27 52 23 25 29 -106 0
27 52 23 25 29 -108 0
27 52 23 25 29 -105 0
27 52 23 25 29 -107 0
27 23 44 25 29 -101 0
27 23 44 25 29 -102 0
27 23 44 25 29 -104 0
27 23 44 25 29 -103 0
27 23 10 25 29 -61 0
27 23 10 25 29 -64 0
27 23 10 25 29 -63 0
27 23 10 25 29 -62 0
27 23 21 25 29 -79 0
27 23 21 25 29 -81 0
27 23 21 25 29 -80 0
27 23 21 25 29 -82 0
27 23 6 25 29 -26 0
27 23 6 25 29 -28 0
27 23 6 25 29 -24 0
27 23 6 25 29 -30 0
27 23 34 25 29 -99 0
27 23 34 25 29 -100 0
27 23 34 25 29 -97 0
27 23 34 25 29 -98 0
27 23 53 25 29 -106 0
27 23 53 25 29 -108 0
27 23 53 25 29 -105 0
27 23 53 25 29 -107 0
27 23 25 42 29 -101 0
27 23 25 42 29 -102 0
27 23 25 42 29 -104 0
27 23 25 42 29 -103 0
27 23 25 8 29 -61 0
27 23 25 8 29 -64 0
27 23 25 8 29 -63 0
27 23 25 8 29 -62 0
27 23 25 22 29 -79 0
27 23 25 22 29 -81 0
27 23 25 22 29 -80 0
27 23 25 22 29 -82 0
27 23 25 5 29 -26 0
27 23 25 5 29 -28 0
27 23 25 5 29 -24 0
27 23 25 5 29 -30 0
27 23 25 32 29 -99 0
27 23 25 32 29 -100 0
27 23 25 32 29 -97 0
27 23 25 32 29 -98 0
27 23 25 51 29 -106 0
27 23 25 51 29 -108 0
27 23 25 51 29 -105 0
27 23 25 51 29 -107 0
27 23 25 29 43 -101 0
27 23 25 29 43 -102 0
27 23 25 29 43 -104 0
27 23 25 29 43 -103 0
27 23 25 29 9 -61 0
27 23 25 29 9 -64 0
27 23 25 29 9 -63 0
27 23 25 29 9 -62 0
46 13 44 42 43 -70 0
46 13 44 42 43 -69 0
46 13 44 42 43 -71 0
46 13 44 42 43 -72 0
46 13 10 8 9 -70 0
46 13 10 8 9 -69 0
46 13 10 8 9 -71 0
46 13 10 8 9 -72 0
46 19 44 42 43 -87 0
46 19 44 42 43 -90 0
46 19 44 42 43 -89 0
46 19 44 42 43 -88 0
46 1 44 42 43 -40 0
46 1 44 42 43 -41 0
46 1 44 42 43 -39 0
46 1 44 42 43 -45 0
46 33 44 42 43 -113 0
46 33 44 42 43 -114 0
46 33 44 42 43 -111 0
46 33 44 42 43 -112 0
46 52 44 42 43 -122 0
46 52 44 42 43 -123 0
46 52 44 42 43 -124 0
46 52 44 42 43 -121 0
46 23 44 42 43 -101 0
46 23 44 42 43 -102 0
46 23 44 42 43 -104 0
46 23 44 42 43 -103 0
46 44 10 42 43 -70 0
46 44 10 42 43 -69 0
46 44 10 42 43 -71 0
46 44 10 42 43 -72 0
46 44 21 42 43 -87 0
46 44 21 42 43 -90 0
46 44 21 42 43 -89 0
46 44 21 42 43 -88 0
46 44 6 42 43 -40 0
46 44 6 42 43 -41 0
46 44 6 42 43 -39 0
46 44 6 42 43 -45 0
46 44 34 42 43 -113 0
46 44 34 42 43 -114 0
46 44 34 42 43 -111 0
46 44 34 42 43 -112 0
46 44 53 42 43 -122 0
46 44 53 42 43 -123 0
46 44 53 42 43 -124 0
46 44 53 42 43 -121 0
46 44 25 42 43 -101 0
46 44 25 42 43 -102 0
46 44 25 42 43 -104 0
46 44 25 42 43 -103 0
46 44 42 8 43 -70 0
46 44 42 8 43 -69 0
46 44 42 8 43 -71 0
46 44 42 8 43 -72 0
46 44 42 22 43 -87 0
46 44 42 22 43 -90 0
46 44 42 22 43 -89 0
46 44 42 22 43 -88 0
46 44 42 5 43 -40 0
46 44 42 5 43 -41 0
46 44 42 5 43 -39 0
46 44 42 5 43 -45 0
46 44 42 32 43 -113 0
46 44 42 32 43 -114 0
46 44 42 32 43 -111 0
46 44 42 32 43 -112 0
46 44 42 51 43 -122 0
46 44 42 51 43 -123 0
46 44 42 51 43 -124 0
46 44 42 51 43 -121 0
46 44 42 29 43 -101 0
46 44 42 29 43 -102 0
46 44 42 29 43 -104 0
46 44 42 29 43 -103 0
46 44 42 43 9 -70 0
46 44 42 43 9 -69 0
46 44 42 43 9 -71 0
46 44 42 43 9 -72 0
13 19 10 8 9 -60 0
13 19 10 8 9 -58 0
13 19 10 8 9 -59 0
13 19 10 8 9 -57 0
13 1 10 8 9 -7 0
13 1 10 8 9 -12 0
13 1 10 8 9 -11 0
13 1 10 8 9 -14 0
13 33 10 8 9 -68 0
13 33 10 8 9 -67 0
13 33 10 8 9 -66 0
13 33 10 8 9 -65 0
13 52 10 8 9 -76 0
13 52 10 8 9 -74 0
13 52 10 8 9 -75 0
13 52 10 8 9 -73 0
13 23 10 8 9 -61 0
13 23 10 8 9 -64 0
13 23 10 8 9 -63 0
13 23 10 8 9 -62 0
13 44 10 8 9 -70 0
13 44 10 8 9 -69 0
13 44 10 8 9 -71 0
13 44 10 8 9 -72 0
13 10 21 8 9 -60 0
13 10 21 8 9 -58 0
13 10 21 8 9 -59 0
13 10 21 8 9 -57 0
13 10 6 8 9 -7 0
13 10 6 8 9 -12 0
13 10 6 8 9 -11 0
13 10 6 8 9 -14 0
13 10 34 8 9 -68 0
13 10 34 8 9 -67 0
13 10 34 8 9 -66 0
13 10 34 8 9 -65 0
13 10 53 8 9 -76 0
13 10 53 8 9 -74 0
13 10 53 8 9 -75 0
13 10 53 8 9 -73 0
13 10 25 8 9 -61 0
13 10 25 8 9 -64 0
13 10 25 8 9 -63 0
13 10 25 8 9 -62 0
13 10 42 8 9 -70 0
13 10 42 8 9 -69 0
13 10 42 8 9 -71 0
13 10 42 8 9 -72 0
13 10 8 22 9 -60 0
13 10 8 22 9 -58 0
13 10 8 22 9 -59 0
13 10 8 22 9 -57 0
13 10 8 5 9 -7 0
13 10 8 5 9 -12 0
13 10 8 5 9 -11 0
13 10 8 5 9 -14 0
13 10 8 32 9 -68 0
13 10 8 32 9 -67 0
13 10 8 32 9 -66 0
13 10 8 32 9 -65 0
13 10 8 51 9 -76 0
13 10 8 51 9 -74 0
13 10 8 51 9 -75 0
13 10 8 51 9 -73 0
13 10 8 29 9 -61 0
13 10 8 29 9 -64 0
13 10 8 29 9 -63 0
13 10 8 29 9 -62 0
13 10 8 43 9 -70 0
13 10 8 43 9 -69 0
13 10 8 43 9 -71 0
13 10 8 43 9 -72 0
78 18 86 91 79 87 60 0
16 4 31 50 26 40 7 0
85 38 110 118 99 113 68 0
92 47 117 125 106 122 76 0
81 28 100 108 95 101 61 0
90 41 114 123 102 120 70 0
58 12 67 74 64 69 55 0
77 15 84 94 80 89 59 0
17 2 35 49 24 39 11 0
83 36 109 116 97 111 66 0
93 48 115 126 105 124 75 0
82 30 98 107 96 104 63 0
88 45 112 121 103 119 71 0
57 14 65 73 62 72 56 0
20 3 19 1 21 6 -18 0
20 3 19 1 21 6 -16 0
20 3 19 1 21 6 -15 0
20 3 19 1 21 6 -17 0
20 3 19 1 21 22 -18 0
20 3 19 1 21 22 -16 0
20 3 19 1 21 22 -15 0
20 3 19 1 21 22 -17 0
20 3 19 1 6 5 -18 0
20 3 19 1 6 5 -16 0
20 3 19 1 6 5 -15 0
20 3 19 1 6 5 -17 0
20 3 19 1 22 5 -18 0
20 3 19 1 22 5 -16 0
20 3 19 1 22 5 -15 0
20 3 19 1 22 5 -17 0
20 3 19 21 6 22 -18 0
20 3 19 21 6 22 -16 0
20 3 19 21 6 22 -15 0
20 3 19 21 6 22 -17 0
20 3 19 21 22 5 -18 0
20 3 19 21 22 5 -16 0
20 3 19 21 22 5 -15 0
20 3 19 21 22 5 -17 0
20 3 1 21 6 5 -18 0
20 3 1 21 6 5 -16 0
20 3 1 21 6 5 -15 0
20 3 1 21 6 5 -17 0
20 3 1 6 22 5 -18 0
20 3 1 6 22 5 -16 0
20 3 1 6 22 5 -15 0
20 3 1 6 22 5 -17 0
20 3 21 6 22 5 -18 0
20 3 21 6 22 5 -16 0
20 3 21 6 22 5 -15 0
20 3 21 6 22 5 -17 0
20 37 19 33 21 34 -86 0
20 37 19 33 21 34 -85 0
20 37 19 33 21 34 -84 0
20 37 19 33 21 34 -83 0
20 37 19 33 21 22 -86 0
20 37 19 33 21 22 -85 0
20 37 19 33 21 22 -84 0
20 37 19 33 21 22 -83 0
20 37 19 33 34 32 -86 0
20 37 19 33 34 32 -85 0
20 37 19 33 34 32 -84 0
20 37 19 33 34 32 -83 0
20 37 19 33 22 32 -86 0
20 37 19 33 22 32 -85 0
20 37 19 33 22 32 -84 0
20 37 19 33 22 32 -83 0
20 37 19 21 34 22 -86 0
20 37 19 21 34 22 -85 0
20 37 19 21 34 22 -84 0
20 37 19 21 34 22 -83 0
20 37 19 21 22 32 -86 0
20 37 19 21 22 32 -85 0
20 37 19 21 22 32 -84 0
20 37 19 21 22 32 -83 0
20 37 33 21 34 32 -86 0
20 37 33 21 34 32 -85 0
20 37 33 21 34 32 -84 0
20 37 33 21 34 32 -83 0
20 37 33 34 22 32 -86 0
20 37 33 34 22 32 -85 0
20 37 33 34 22 32 -84 0
20 37 33 34 22 32 -83 0
20 37 21 34 22 32 -86 0
20 37 21 34 22 32 -85 0
20 37 21 34 22 32 -84 0
20 37 21 34 22 32 -83 0
20 54 19 52 21 53 -91 0
20 54 19 52 21 53 -92 0
20 54 19 52 21 53 -94 0
20 54 19 52 21 53 -93 0
20 54 19 52 21 22 -91 0
20 54 19 52 21 22 -92 0
20 54 19 52 21 22 -94 0
20 54 19 52 21 22 -93 0
20 54 19 52 53 51 -91 0
20 54 19 52 53 51 -92 0
20 54 19 52 53 51 -94 0
20 54 19 52 53 51 -93 0
20 54 19 52 22 51 -91 0
20 54 19 52 22 51 -92 0
20 54 19 52 22 51 -94 0
20 54 19 52 22 51 -93 0
20 54 19 21 53 22 -91 0
20 54 19 21 53 22 -92 0
20 54 19 21 53 22 -94 0
20 54 19 21 53 22 -93 0
20 54 19 21 22 51 -91 0
20 54 19 21 22 51 -92 0
20 54 19 21 22 51 -94 0
20 54 19 21 22 51 -93 0
20 54 52 21 53 51 -91 0
20 54 52 21 53 51 -92 0
20 54 52 21 53 51 -94 0
20 54 52 21 53 51 -93 0
20 54 52 53 22 51 -91 0
20 54 52 53 22 51 -92 0
20 54 52 53 22 51 -94 0
20 54 52 53 22 51 -93 0
20 54 21 53 22 51 -91 0
20 54 21 53 22 51 -92 0
20 54 21 53 22 51 -94 0
20 54 21 53 22 51 -93 0
20 27 19 23 21 25 -79 0
20 27 19 23 21 25 -81 0
20 27 19 23 21 25 -80 0
20 27 19 23 21 25 -82 0
20 27 19 23 21 22 -79 0
20 27 19 23 21 22 -81 0
20 27 19 23 21 22 -80 0
20 27 19 23 21 22 -82 0
20 27 19 23 25 29 -79 0
20 27 19 23 25 29 -81 0
20 27 19 23 25 29 -80 0
20 27 19 23 25 29 -82 0
20 27 19 23 22 29 -79 0
20 27 19 23 22 29 -81 0
20 27 19 23 22 29 -80 0
20 27 19 23 22 29 -82 0
20 27 19 21 25 22 -79 0
20 27 19 21 25 22 -81 0
20 27 19 21 25 22 -80 0
20 27 19 21 25 22 -82 0
20 27 19 21 22 29 -79 0
20 27 19 21 22 29 -81 0
20 27 19 21 22 29 -80 0
20 27 19 21 22 29 -82 0
20 27 23 21 25 29 -79 0
20 27 23 21 25 29 -81 0
20 27 23 21 25 29 -80 0
20 27 23 21 25 29 -82 0
20 27 23 25 22 29 -79 0
20 27 23 25 22 29 -81 0
20 27 23 25 22 29 -80 0
20 27 23 25 22 29 -82 0
20 27 21 25 22 29 -79 0
20 27 21 25 22 29 -81 0
20 27 21 25 22 29 -80 0
20 27 21 25 22 29 -82 0
20 46 19 44 21 42 -87 0
20 46 19 44 21 42 -90 0
20 46 19 44 21 42 -89 0
20 46 19 44 21 42 -88 0
20 46 19 44 21 22 -87 0
20 46 19 44 21 22 -90 0
20 46 19 44 21 22 -89 0
20 46 19 44 21 22 -88 0
20 46 19 44 42 43 -87 0
20 46 19 44 42 43 -90 0
20 46 19 44 42 43 -89 0
20 46 19 44 42 43 -88 0
20 46 19 44 22 43 -87 0
20 46 19 44 22 43 -90 0
20 46 19 44 22 43 -89 0
20 46 19 44 22 43 -88 0
20 46 19 21 42 22 -87 0
20 46 19 21 42 22 -90 0
20 46 19 21 42 22 -89 0
20 46 19 21 42 22 -88 0
20 46 19 21 22 43 -87 0
20 46 19 21 22 43 -90 0
20 46 19 21 22 43 -89 0
20 46 19 21 22 43 -88 0
20 46 44 21 42 43 -87 0
20 46 44 21 42 43 -90 0
20 46 44 21 42 43 -89 0
20 46 44 21 42 43 -88 0
20 46 44 42 22 43 -87 0
20 46 44 42 22 43 -90 0
20 46 44 42 22 43 -89 0
20 46 44 42 22 43 -88 0
20 46 21 42 22 43 -87 0
20 46 21 42 22 43 -90 0
20 46 21 42 22 43 -89 0
20 46 21 42 22 43 -88 0
20 13 19 10 21 8 -60 0
20 13 19 10 21 8 -58 0
20 13 19 10 21 8 -59 0
20 13 19 10 21 8 -57 0
20 13 19 10 21 22 -60 0
20 13 19 10 21 22 -58 0
20 13 19 10 21 22 -59 0
20 13 19 10 21 22 -57 0
20 13 19 10 8 9 -60 0
20 13 19 10 8 9 -58 0
20 13 19 10 8 9 -59 0
20 13 19 10 8 9 -57 0
20 13 19 10 22 9 -60 0
20 13 19 10 22 9 -58 0
20 13 19 10 22 9 -59 0
20 13 19 10 22 9 -57 0
20 13 19 21 8 22 -60 0
20 13 19 21 8 22 -58 0
20 13 19 21 8 22 -59 0
20 13 19 21 8 22 -57 0
20 13 19 21 22 9 -60 0
20 13 19 21 22 9 -58 0
20 13 19 21 22 9 -59 0
20 13 19 21 22 9 -57 0
20 13 10 21 8 9 -60 0
20 13 10 21 8 9 -58 0
20 13 10 21 8 9 -59 0
20 13 10 21 8 9 -57 0
20 13 10 8 22 9 -60 0
20 13 10 8 22 9 -58 0
20 13 10 8 22 9 -59 0
20 13 10 8 22 9 -57 0
20 13 21 8 22 9 -60 0
20 13 21 8 22 9 -58 0
20 13 21 8 22 9 -59 0
20 13 21 8 22 9 -57 0
20 19 1 21 6 22 -18 0
20 19 1 21 6 22 -16 0
20 19 1 21 6 22 -15 0
20 19 1 21 6 22 -17 0
20 19 1 21 22 5 -18 0
20 19 1 21 22 5 -16 0
20 19 1 21 22 5 -15 0
20 19 1 21 22 5 -17 0
20 19 33 21 34 22 -86 0
20 19 33 21 34 22 -85 0
20 19 33 21 34 22 -84 0
20 19 33 21 34 22 -83 0
20 19 33 21 22 32 -86 0
20 19 33 21 22 32 -85 0
20 19 33 21 22 32 -84 0
20 19 33 21 22 32 -83 0
20 19 52 21 53 22 -91 0
20 19 52 21 53 22 -92 0
20 19 52 21 53 22 -94 0
20 19 52 21 53 22 -93 0
20 19 52 21 22 51 -91 0
20 19 52 21 22 51 -92 0
20 19 52 21 22 51 -94 0
20 19 52 21 22 51 -93 0
20 19 23 21 25 22 -79 0
20 19 23 21 25 22 -81 0
20 19 23 21 25 22 -80 0
20 19 23 21 25 22 -82 0
20 19 23 21 22 29 -79 0
20 19 23 21 22 29 -81 0
20 19 23 21 22 29 -80 0
20 19 23 21 22 29 -82 0
20 19 44 21 42 22 -87 0
20 19 44 21 42 22 -90 0
20 19 44 21 42 22 -89 0
20 19 44 21 42 22 -88 0
20 19 44 21 22 43 -87 0
20 19 44 21 22 43 -90 0
20 19 44 21 22 43 -89 0
20 19 44 21 22 43 -88 0
20 19 10 21 8 22 -60 0
20 19 10 21 8 22 -58 0
20 19 10 21 8 22 -59 0
20 19 10 21 8 22 -57 0
20 19 10 21 22 9 -60 0
20 19 10 21 22 9 -58 0
20 19 10 21 22 9 -59 0
20 19 10 21 22 9 -57 0
20 19 21 6 22 5 -18 0
20 19 21 6 22 5 -16 0
20 19 21 6 22 5 -15 0
20 19 21 6 22 5 -17 0
20 19 21 34 22 32 -86 0
20 19 21 34 22 32 -85 0
20 19 21 34 22 32 -84 0
20 19 21 34 22 32 -83 0
20 19 21 53 22 51 -91 0
20 19 21 53 22 51 -92 0
20 19 21 53 22 51 -94 0
20 19 21 53 22 51 -93 0
20 19 21 25 22 29 -79 0
20 19 21 25 22 29 -81 0
20 19 21 25 22 29 -80 0
20 19 21 25 22 29 -82 0
20 19 21 42 22 43 -87 0
20 19 21 42 22 43 -90 0
20 19 21 42 22 43 -89 0
20 19 21 42 22 43 -88 0
20 19 21 8 22 9 -60 0
20 19 21 8 22 9 -58 0
20 19 21 8 22 9 -59 0
20 19 21 8 22 9 -57 0
3 37 1 33 6 34 -31 0
3 37 1 33 6 34 -38 0
3 37 1 33 6 34 -35 0
3 37 1 33 6 34 -36 0
3 37 1 33 6 5 -31 0
3 37 1 33 6 5 -38 0
3 37 1 33 6 5 -35 0
3 37 1 33 6 5 -36 0
3 37 1 33 34 32 -31 0
3 37 1 33 34 32 -38 0
3 37 1 33 34 32 -35 0
3 37 1 33 34 32 -36 0
3 37 1 33 5 32 -31 0
3 37 1 33 5 32 -38 0
3 37 1 33 5 32 -35 0
3 37 1 33 5 32 -36 0
3 37 1 6 34 5 -31 0
3 37 1 6 34 5 -38 0
3 37 1 6 34 5 -35 0
3 37 1 6 34 5 -36 0
3 37 1 6 5 32 -31 0
3 37 1 6 5 32 -38 0
3 37 1 6 5 32 -35 0
3 37 1 6 5 32 -36 0
3 37 33 6 34 32 -31 0
3 37 33 6 34 32 -38 0
3 37 33 6 34 32 -35 0
3 37 33 6 34 32 -36 0
3 37 33 34 5 32 -31 0
3 37 33 34 5 32 -38 0
3 37 33 34 5 32 -35 0
3 37 33 34 5 32 -36 0
3 37 6 34 5 32 -31 0
3 37 6 34 5 32 -38 0
3 37 6 34 5 32 -35 0
3 37 6 34 5 32 -36 0
3 54 1 52 6 53 -50 0
3 54 1 52 6 53 -47 0
3 54 1 52 6 53 -49 0
3 54 1 52 6 53 -48 0
3 54 1 52 6 5 -50 0
3 54 1 52 6 5 -47 0
3 54 1 52 6 5 -49 0
3 54 1 52 6 5 -48 0
3 54 1 52 53 51 -50 0
3 54 1 52 53 51 -47 0
3 54 1 52 53 51 -49 0
3 54 1 52 53 51 -48 0
3 54 1 52 5 51 -50 0
3 54 1 52 5 51 -47 0
3 54 1 52 5 51 -49 0
3 54 1 52 5 51 -48 0
3 54 1 6 53 5 -50 0
3 54 1 6 53 5 -47 0
3 54 1 6 53 5 -49 0
3 54 1 6 53 5 -48 0
3 54 1 6 5 51 -50 0
3 54 1 6 5 51 -47 0
3 54 1 6 5 51 -49 0
3 54 1 6 5 51 -48 0
3 54 52 6 53 51 -50 0
3 54 52 6 53 51 -47 0
3 54 52 6 53 51 -49 0
3 54 52 6 53 51 -48 0
3 54 52 53 5 51 -50 0
3 54 52 53 5 51 -47 0
3 54 52 53 5 51 -49 0
3 54 52 53 5 51 -48 0
3 54 6 53 5 51 -50 0
3 54 6 53 5 51 -47 0
3 54 6 53 5 51 -49 0
3 54 6 53 5 51 -48 0
3 27 1 23 6 25 -26 0
3 27 1 23 6 25 -28 0
3 27 1 23 6 25 -24 0
3 27 1 23 6 25 -30 0
3 27 1 23 6 5 -26 0
3 27 1 23 6 5 -28 0
3 27 1 23 6 5 -24 0
3 27 1 23 6 5 -30 0
3 27 1 23 25 29 -26 0
3 27 1 23 25 29 -28 0
3 27 1 23 25 29 -24 0
3 27 1 23 25 29 -30 0
3 27 1 23 5 29 -26 0
3 27 1 23 5 29 -28 0
3 27 1 23 5 29 -24 0
3 27 1 23 5 29 -30 0
3 27 1 6 25 5 -26 0
3 27 1 6 25 5 -28 0
3 27 1 6 25 5 -24 0
3 27 1 6 25 5 -30 0
3 27 1 6 5 29 -26 0
3 27 1 6 5 29 -28 0
3 27 1 6 5 29 -24 0
3 27 1 6 5 29 -30 0
3 27 23 6 25 29 -26 0
3 27 23 6 25 29 -28 0
3 27 23 6 25 29 -24 0
3 27 23 6 25 29 -30 0
3 27 23 25 5 29 -26 0
3 27 23 25 5 29 -28 0
3 27 23 25 5 29 -24 0
3 27 23 25 5 29 -30 0
3 27 6 25 5 29 -26 0
3 27 6 25 5 29 -28 0
3 27 6 25 5 29 -24 0
3 27 6 25 5 29 -30 0
3 46 1 44 6 42 -40 0
3 46 1 44 6 42 -41 0
3 46 1 44 6 42 -39 0
3 46 1 44 6 42 -45 0
3 46 1 44 6 5 -40 0
3 46 1 44 6 5 -41 0
3 46 1 44 6 5 -39 0
3 46 1 44 6 5 -45 0
3 46 1 44 42 43 -40 0
3 46 1 44 42 43 -41 0
3 46 1 44 42 43 -39 0
3 46 1 44 42 43 -45 0
3 46 1 44 5 43 -40 0
3 46 1 44 5 43 -41 0
3 46 1 44 5 43 -39 0
3 46 1 44 5 43 -45 0
3 46 1 6 42 5 -40 0
3 46 1 6 42 5 -41 0
3 46 1 6 42 5 -39 0
3 46 1 6 42 5 -45 0
3 46 1 6 5 43 -40 0
3 46 1 6 5 43 -41 0
3 46 1 6 5 43 -39 0
3 46 1 6 5 43 -45 0
3 46 44 6 42 43 -40 0
3 46 44 6 42 43 -41 0
3 46 44 6 42 43 -39 0
3 46 44 6 42 43 -45 0
3 46 44 42 5 43 -40 0
3 46 44 42 5 43 -41 0
3 46 44 42 5 43 -39 0
3 46 44 42 5 43 -45 0
3 46 6 42 5 43 -40 0
3 46 6 42 5 43 -41 0
3 46 6 42 5 43 -39 0
3 46 6 42 5 43 -45 0
3 13 1 10 6 8 -7 0
3 13 1 10 6 8 -12 0
3 13 1 10 6 8 -11 0
3 13 1 10 6 8 -14 0
3 13 1 10 6 5 -7 0
3 13 1 10 6 5 -12 0
3 13 1 10 6 5 -11 0
3 13 1 10 6 5 -14 0
3 13 1 10 8 9 -7 0
3 13 1 10 8 9 -12 0
3 13 1 10 8 9 -11 0
3 13 1 10 8 9 -14 0
3 13 1 10 5 9 -7 0
3 13 1 10 5 9 -12 0
3 13 1 10 5 9 -11 0
3 13 1 10 5 9 -14 0
3 13 1 6 8 5 -7 0
3 13 1 6 8 5 -12 0
3 13 1 6 8 5 -11 0
3 13 1 6 8 5 -14 0
3 13 1 6 5 9 -7 0
3 13 1 6 5 9 -12 0
3 13 1 6 5 9 -11 0
3 13 1 6 5 9 -14 0
3 13 10 6 8 9 -7 0
3 13 10 6 8 9 -12 0
3 13 10 6 8 9 -11 0
3 13 10 6 8 9 -14 0
3 13 10 8 5 9 -7 0
3 13 10 8 5 9 -12 0
3 13 10 8 5 9 -11 0
3 13 10 8 5 9 -14 0
3 13 6 8 5 9 -7 0
3 13 6 8 5 9 -12 0
3 13 6 8 5 9 -11 0
3 13 6 8 5 9 -14 0
3 19 1 21 6 5 -18 0
3 19 1 21 6 5 -16 0
3 19 1 21 6 5 -15 0
3 19 1 21 6 5 -17 0
3 19 1 6 22 5 -18 0
3 19 1 6 22 5 -16 0
3 19 1 6 22 5 -15 0
3 19 1 6 22 5 -17 0
3 1 33 6 34 5 -31 0
3 1 33 6 34 5 -38 0
3 1 33 6 34 5 -35 0
3 1 33 6 34 5 -36 0
3 1 33 6 5 32 -31 0
3 1 33 6 5 32 -38 0
3 1 33 6 5 32 -35 0
3 1 33 6 5 32 -36 0
3 1 52 6 53 5 -50 0
3 1 52 6 53 5 -47 0
3 1 52 6 53 5 -49 0
3 1 52 6 53 5 -48 0
3 1 52 6 5 51 -50 0
3 1 52 6 5 51 -47 0
3 1 52 6 5 51 -49 0
3 1 52 6 5 51 -48 0
3 1 23 6 25 5 -26 0
3 1 23 6 25 5 -28 0
3 1 23 6 25 5 -24 0
3 1 23 6 25 5 -30 0
3 1 23 6 5 29 -26 0
3 1 23 6 5 29 -28 0
3 1 23 6 5 29 -24 0
3 1 23 6 5 29 -30 0
3 1 44 6 42 5 -40 0
3 1 44 6 42 5 -41 0
3 1 44 6 42 5 -39 0
3 1 44 6 42 5 -45 0
3 1 44 6 5 43 -40 0
3 1 44 6 5 43 -41 0
3 1 44 6 5 43 -39 0
3 1 44 6 5 43 -45 0
3 1 10 6 8 5 -7 0
3 1 10 6 8 5 -12 0
3 1 10 6 8 5 -11 0
3 1 10 6 8 5 -14 0
3 1 10 6 5 9 -7 0
3 1 10 6 5 9 -12 0
3 1 10 6 5 9 -11 0
3 1 10 6 5 9 -14 0
3 1 21 6 22 5 -18 0
3 1 21 6 22 5 -16 0
3 1 21 6 22 5 -15 0
3 1 21 6 22 5 -17 0
3 1 6 34 5 32 -31 0
3 1 6 34 5 32 -38 0
3 1 6 34 5 32 -35 0
3 1 6 34 5 32 -36 0
3 1 6 53 5 51 -50 0
3 1 6 53 5 51 -47 0
3 1 6 53 5 51 -49 0
3 1 6 53 5 51 -48 0
3 1 6 25 5 29 -26 0
3 1 6 25 5 29 -28 0
3 1 6 25 5 29 -24 0
3 1 6 25 5 29 -30 0
3 1 6 42 5 43 -40 0
3 1 6 42 5 43 -41 0
3 1 6 42 5 43 -39 0
3 1 6 42 5 43 -45 0
3 1 6 8 5 9 -7 0
3 1 6 8 5 9 -12 0
3 1 6 8 5 9 -11 0
3 1 6 8 5 9 -14 0
37 54 33 52 34 53 -118 0
37 54 33 52 34 53 -117 0
37 54 33 52 34 53 -116 0
37 54 33 52 34 53 -115 0
37 54 33 52 34 32 -118 0
37 54 33 52 34 32 -117 0
37 54 33 52 34 32 -116 0
37 54 33 52 34 32 -115 0
37 54 33 52 53 51 -118 0
37 54 33 52 53 51 -117 0
37 54 33 52 53 51 -116 0
37 54 33 52 53 51 -115 0
37 54 33 52 32 51 -118 0
37 54 33 52 32 51 -117 0
37 54 33 52 32 51 -116 0
37 54 33 52 32 51 -115 0
37 54 33 34 53 32 -118 0
37 54 33 34 53 32 -117 0
37 54 33 34 53 32 -116 0
37 54 33 34 53 32 -115 0
37 54 33 34 32 51 -118 0
37 54 33 34 32 51 -117 0
37 54 33 34 32 51 -116 0
37 54 33 34 32 51 -115 0
37 54 52 34 53 51 -118 0
37 54 52 34 53 51 -117 0
37 54 52 34 53 51 -116 0
37 54 52 34 53 51 -115 0
37 54 52 53 32 51 -118 0
37 54 52 53 32 51 -117 0
37 54 52 53 32 51 -116 0
37 54 52 53 32 51 -115 0
37 54 34 53 32 51 -118 0
37 54 34 53 32 51 -117 0
37 54 34 53 32 51 -116 0
37 54 34 53 32 51 -115 0
37 27 33 23 34 25 -99 0
37 27 33 23 34 25 -100 0
37 27 33 23 34 25 -97 0
37 27 33 23 34 25 -98 0
37 27 33 23 34 32 -99 0
37 27 33 23 34 32 -100 0
37 27 33 23 34 32 -97 0
37 27 33 23 34 32 -98 0
37 27 33 23 25 29 -99 0
37 27 33 23 25 29 -100 0
37 27 33 23 25 29 -97 0
37 27 33 23 25 29 -98 0
37 27 33 23 32 29 -99 0
37 27 33 23 32 29 -100 0
37 27 33 23 32 29 -97 0
37 27 33 23 32 29 -98 0
37 27 33 34 25 32 -99 0
37 27 33 34 25 32 -100 0
37 27 33 34 25 32 -97 0
37 27 33 34 25 32 -98 0
37 27 33 34 32 29 -99 0
37 27 33 34 32 29 -100 0
37 27 33 34 32 29 -97 0
37 27 33 34 32 29 -98 0
37 27 23 34 25 29 -99 0
37 27 23 34 25 29 -100 0
37 27 23 34 25 29 -97 0
37 27 23 34 25 29 -98 0
37 27 23 25 32 29 -99 0
37 27 23 25 32 29 -100 0
37 27 23 25 32 29 -97 0
37 27 23 25 32 29 -98 0
37 27 34 25 32 29 -99 0
37 27 34 25 32 29 -100 0
37 27 34 25 32 29 -97 0
37 27 34 25 32 29 -98 0
37 46 33 44 34 42 -113 0
37 46 33 44 34 42 -114 0
37 46 33 44 34 42 -111 0
37 46 33 44 34 42 -112 0
37 46 33 44 34 32 -113 0
37 46 33 44 34 32 -114 0
37 46 33 44 34 32 -111 0
37 46 33 44 34 32 -112 0
37 46 33 44 42 43 -113 0
37 46 33 44 42 43 -114 0
37 46 33 44 42 43 -111 0
37 46 33 44 42 43 -112 0
37 46 33 44 32 43 -113 0
37 46 33 44 32 43 -114 0
37 46 33 44 32 43 -111 0
37 46 33 44 32 43 -112 0
37 46 33 34 42 32 -113 0
37 46 33 34 42 32 -114 0
37 46 33 34 42 32 -111 0
37 46 33 34 42 32 -112 0
37 46 33 34 32 43 -113 0
37 46 33 34 32 43 -114 0
37 46 33 34 32 43 -111 0
37 46 33 34 32 43 -112 0
37 46 44 34 42 43 -113 0
37 46 44 34 42 43 -114 0
37 46 44 34 42 43 -111 0
37 46 44 34 42 43 -112 0
37 46 44 42 32 43 -113 0
37 46 44 42 32 43 -114 0
37 46 44 42 32 43 -111 0
37 46 44 42 32 43 -112 0
37 46 34 42 32 43 -113 0
37 46 34 42 32 43 -114 0
37 46 34 42 32 43 -111 0
37 46 34 42 32 43 -112 0
37 13 33 10 34 8 -68 0
37 13 33 10 34 8 -67 0
37 13 33 10 34 8 -66 0
37 13 33 10 34 8 -65 0
37 13 33 10 34 32 -68 0
37 13 33 10 34 32 -67 0
37 13 33 10 34 32 -66 0
37 13 33 10 34 32 -65 0
37 13 33 10 8 9 -68 0
37 13 33 10 8 9 -67 0
37 13 33 10 8 9 -66 0
37 13 33 10 8 9 -65 0
37 13 33 10 32 9 -68 0
37 13 33 10 32 9 -67 0
37 13 33 10 32 9 -66 0
37 13 33 10 32 9 -65 0
37 13 33 34 8 32 -68 0
37 13 33 34 8 32 -67 0
37 13 33 34 8 32 -66 0
37 13 33 34 8 32 -65 0
37 13 33 34 32 9 -68 0
37 13 33 34 32 9 -67 0
37 13 33 34 32 9 -66 0
37 13 33 34 32 9 -65 0
37 13 10 34 8 9 -68 0
37 13 10 34 8 9 -67 0
37 13 10 34 8 9 -66 0
37 13 10 34 8 9 -65 0
37 13 10 8 32 9 -68 0
37 13 10 8 32 9 -67 0
37 13 10 8 32 9 -66 0
37 13 10 8 32 9 -65 0
37 13 34 8 32 9 -68 0
37 13 34 8 32 9 -67 0
37 13 34 8 32 9 -66 0
37 13 34 8 32 9 -65 0
37 19 33 21 34 32 -86 0
37 19 33 21 34 32 -85 0
37 19 33 21 34 32 -84 0
37 19 33 21 34 32 -83 0
37 19 33 34 22 32 -86 0
37 19 33 34 22 32 -85 0
37 19 33 34 22 32 -84 0
37 19 33 34 22 32 -83 0
37 1 33 6 34 32 -31 0
37 1 33 6 34 32 -38 0
37 1 33 6 34 32 -35 0
37 1 33 6 34 32 -36 0
37 1 33 34 5 32 -31 0
37 1 33 34 5 32 -38 0
37 1 33 34 5 32 -35 0
37 1 33 34 5 32 -36 0
37 33 52 34 53 32 -118 0
37 33 52 34 53 32 -117 0
37 33 52 34 53 32 -116 0
37 33 52 34 53 32 -115 0
37 33 52 34 32 51 -118 0
37 33 52 34 32 51 -117 0
37 33 52 34 32 51 -116 0
37 33 52 34 32 51 -115 0
37 33 23 34 25 32 -99 0
37 33 23 34 25 32 -100 0
37 33 23 34 25 32 -97 0
37 33 23 34 25 32 -98 0
37 33 23 34 32 29 -99 0
37 33 23 34 32 29 -100 0
37 33 23 34 32 29 -97 0
37 33 23 34 32 29 -98 0
37 33 44 34 42 32 -113 0
37 33 44 34 42 32 -114 0
37 33 44 34 42 32 -111 0
37 33 44 34 42 32 -112 0
37 33 44 34 32 43 -113 0
37 33 44 34 32 43 -114 0
37 33 44 34 32 43 -111 0
37 33 44 34 32 43 -112 0
37 33 10 34 8 32 -68 0
37 33 10 34 8 32 -67 0
37 33 10 34 8 32 -66 0
37 33 10 34 8 32 -65 0
37 33 10 34 32 9 -68 0
37 33 10 34 32 9 -67 0
37 33 10 34 32 9 -66 0
37 33 10 34 32 9 -65 0
37 33 21 34 22 32 -86 0
37 33 21 34 22 32 -85 0
37 33 21 34 22 32 -84 0
37 33 21 34 22 32 -83 0
37 33 6 34 5 32 -31 0
37 33 6 34 5 32 -38 0
37 33 6 34 5 32 -35 0
37 33 6 34 5 32 -36 0
37 33 34 53 32 51 -118 0
37 33 34 53 32 51 -117 0
37 33 34 53 32 51 -116 0
37 33 34 53 32 51 -115 0
37 33 34 25 32 29 -99 0
37 33 34 25 32 29 -100 0
37 33 34 25 32 29 -97 0
37 33 34 25 32 29 -98 0
37 33 34 42 32 43 -113 0
37 33 34 42 32 43 -114 0
37 33 34 42 32 43 -111 0
37 33 34 42 32 43 -112 0
37 33 34 8 32 9 -68 0
37 33 34 8 32 9 -67 0
37 33 34 8 32 9 -66 0
37 33 34 8 32 9 -65 0
54 27 52 23 53 25 -106 0
54 27 52 23 53 25 -108 0
54 27 52 23 53 25 -105 0
54 27 52 23 53 25 -107 0
54 27 52 23 53 51 -106 0
54 27 52 23 53 51 -108 0
54 27 52 23 53 51 -105 0
54 27 52 23 53 51 -107 0
54 27 52 23 25 29 -106 0
54 27 52 23 25 29 -108 0
54 27 52 23 25 29 -105 0
54 27 52 23 25 29 -107 0
54 27 52 23 51 29 -106 0
54 27 52 23 51 29 -108 0
54 27 52 23 51 29 -105 0
54 27 52 23 51 29 -107 0
54 27 52 53 25 51 -106 0
54 27 52 53 25 51 -108 0
54 27 52 53 25 51 -105 0
54 27 52 53 25 51 -107 0
54 27 52 53 51 29 -106 0
54 27 52 53 51 29 -108 0
54 27 52 53 51 29 -105 0
54 27 52 53 51 29 -107 0
54 27 23 53 25 29 -106 0
54 27 23 53 25 29 -108 0
54 27 23 53 25 29 -105 0
54 27 23 53 25 29 -107 0
54 27 23 25 51 29 -106 0
54 27 23 25 51 29 -108 0
54 27 23 25 51 29 -105 0
54 27 23 25 51 29 -107 0
54 27 53 25 51 29 -106 0
54 27 53 25 51 29 -108 0
54 27 53 25 51 29 -105 0
54 27 53 25 51 29 -107 0
54 46 52 44 53 42 -122 0
54 46 52 44 53 42 -123 0
54 46 52 44 53 42 -124 0
54 46 52 44 53 42 -121 0
54 46 52 44 53 51 -122 0
54 46 52 44 53 51 -123 0
54 46 52 44 53 51 -124 0
54 46 52 44 53 51 -121 0
54 46 52 44 42 43 -122 0
54 46 52 44 42 43 -123 0
54 46 52 44 42 43 -124 0
54 46 52 44 42 43 -121 0
54 46 52 44 51 43 -122 0
54 46 52 44 51 43 -123 0
54 46 52 44 51 43 -124 0
54 46 52 44 51 43 -121 0
54 46 52 53 42 51 -122 0
54 46 52 53 42 51 -123 0
54 46 52 53 42 51 -124 0
54 46 52 53 42 51 -121 0
54 46 52 53 51 43 -122 0
54 46 52 53 51 43 -123 0
54 46 52 53 51 43 -124 0
54 46 52 53 51 43 -121 0
54 46 44 53 42 43 -122 0
54 46 44 53 42 43 -123 0
54 46 44 53 42 43 -124 0
54 46 44 53 42 43 -121 0
54 46 44 42 51 43 -122 0
54 46 44 42 51 43 -123 0
54 46 44 42 51 43 -124 0
54 46 44 42 51 43 -121 0
54 46 53 42 51 43 -122 0
54 46 53 42 51 43 -123 0
54 46 53 42 51 43 -124 0
54 46 53 42 51 43 -121 0
54 13 52 10 53 8 -76 0
54 13 52 10 53 8 -74 0
54 13 52 10 53 8 -75 0
54 13 52 10 53 8 -73 0
54 13 52 10 53 51 -76 0
54 13 52 10 53 51 -74 0
54 13 52 10 53 51 -75 0
54 13 52 10 53 51 -73 0
54 13 52 10 8 9 -76 0
54 13 52 10 8 9 -74 0
54 13 52 10 8 9 -75 0
54 13 52 10 8 9 -73 0
54 13 52 10 51 9 -76 0
54 13 52 10 51 9 -74 0
54 13 52 10 51 9 -75 0
54 13 52 10 51 9 -73 0
54 13 52 53 8 51 -76 0
54 13 52 53 8 51 -74 0
54 13 52 53 8 51 -75 0
54 13 52 53 8 51 -73 0
54 13 52 53 51 9 -76 0
54 13 52 53 51 9 -74 0
54 13 52 53 51 9 -75 0
54 13 52 53 51 9 -73 0
54 13 10 53 8 9 -76 0
54 13 10 53 8 9 -74 0
54 13 10 53 8 9 -75 0
54 13 10 53 8 9 -73 0
54 13 10 8 51 9 -76 0
54 13 10 8 51 9 -74 0
54 13 10 8 51 9 -75 0
54 13 10 8 51 9 -73 0
54 13 53 8 51 9 -76 0
54 13 53 8 51 9 -74 0
54 13 53 8 51 9 -75 0
54 13 53 8 51 9 -73 0
54 19 52 21 53 51 -91 0
54 19 52 21 53 51 -92 0
54 19 52 21 53 51 -94 0
54 19 52 21 53 51 -93 0
54 19 52 53 22 51 -91 0
54 19 52 53 22 51 -92 0
54 19 52 53 22 51 -94 0
54 19 52 53 22 51 -93 0
54 1 52 6 53 51 -50 0
54 1 52 6 53 51 -47 0
54 1 52 6 53 51 -49 0
54 1 52 6 53 51 -48 0
54 1 52 53 5 51 -50 0
54 1 52 53 5 51 -47 0
54 1 52 53 5 51 -49 0
54 1 52 53 5 51 -48 0
54 33 52 34 53 51 -118 0
54 33 52 34 53 51 -117 0
54 33 52 34 53 51 -116 0
54 33 52 34 53 51 -115 0
54 33 52 53 32 51 -118 0
54 33 52 53 32 51 -117 0
54 33 52 53 32 51 -116 0
54 33 52 53 32 51 -115 0
54 52 23 53 25 51 -106 0
54 52 23 53 25 51 -108 0
54 52 23 53 25 51 -105 0
54 52 23 53 25 51 -107 0
54 52 23 53 51 29 -106 0
54 52 23 53 51 29 -108 0
54 52 23 53 51 29 -105 0
54 52 23 53 51 29 -107 0
54 52 44 53 42 51 -122 0
54 52 44 53 42 51 -123 0
54 52 44 53 42 51 -124 0
54 52 44 53 42 51 -121 0
54 52 44 53 51 43 -122 0
54 52 44 53 51 43 -123 0
54 52 44 53 51 43 -124 0
54 52 44 53 51 43 -121 0
54 52 10 53 8 51 -76 0
54 52 10 53 8 51 -74 0
54 52 10 53 8 51 -75 0
54 52 10 53 8 51 -73 0
54 52 10 53 51 9 -76 0
54 52 10 53 51 9 -74 0
54 52 10 53 51 9 -75 0
54 52 10 53 51 9 -73 0
54 52 21 53 22 51 -91 0
54 52 21 53 22 51 -92 0
54 52 21 53 22 51 -94 0
54 52 21 53 22 51 -93 0
54 52 6 53 5 51 -50 0
54 52 6 53 5 51 -47 0
54 52 6 53 5 51 -49 0
54 52 6 53 5 51 -48 0
54 52 34 53 32 51 -118 0
54 52 34 53 32 51 -117 0
54 52 34 53 32 51 -116 0
54 52 34 53 32 51 -115 0
54 52 53 25 51 29 -106 0
54 52 53 25 51 29 -108 0
54 52 53 25 51 29 -105 0
54 52 53 25 51 29 -107 0
54 52 53 42 51 43 -122 0
54 52 53 42 51 43 -123 0
54 52 53 42 51 43 -124 0
54 52 53 42 51 43 -121 0
54 52 53 8 51 9 -76 0
54 52 53 8 51 9 -74 0
54 52 53 8 51 9 -75 0
54 52 53 8 51 9 -73 0
27 46 23 44 25 42 -101 0
27 46 23 44 25 42 -102 0
27 46 23 44 25 42 -104 0
27 46 23 44 25 42 -103 0
27 46 23 44 25 29 -101 0
27 46 23 44 25 29 -102 0
27 46 23 44 25 29 -104 0
27 46 23 44 25 29 -103 0
27 46 23 44 42 43 -101 0
27 46 23 44 42 43 -102 0
27 46 23 44 42 43 -104 0
27 46 23 44 42 43 -103 0
27 46 23 44 29 43 -101 0
27 46 23 44 29 43 -102 0
27 46 23 44 29 43 -104 0
27 46 23 44 29 43 -103 0
27 46 23 25 42 29 -101 0
27 46 23 25 42 29 -102 0
27 46 23 25 42 29 -104 0
27 46 23 25 42 29 -103 0
27 46 23 25 29 43 -101 0
27 46 23 25 29 43 -102 0
27 46 23 25 29 43 -104 0
27 46 23 25 29 43 -103 0
27 46 44 25 42 43 -101 0
27 46 44 25 42 43 -102 0
27 46 44 25 42 43 -104 0
27 46 44 25 42 43 -103 0
27 46 44 42 29 43 -101 0
27 46 44 42 29 43 -102 0
27 46 44 42 29 43 -104 0
27 46 44 42 29 43 -103 0
27 46 25 42 29 43 -101 0
27 46 25 42 29 43 -102 0
27 46 25 42 29 43 -104 0
27 46 25 42 29 43 -103 0
27 13 23 10 25 8 -61 0
27 13 23 10 25 8 -64 0
27 13 23 10 25 8 -63 0
27 13 23 10 25 8 -62 0
27 13 23 10 25 29 -61 0
27 13 23 10 25 29 -64 0
27 13 23 10 25 29 -63 0
27 13 23 10 25 29 -62 0
27 13 23 10 8 9 -61 0
27 13 23 10 8 9 -64 0
27 13 23 10 8 9 -63 0
27 13 23 10 8 9 -62 0
27 13 23 10 29 9 -61 0
27 13 23 10 29 9 -64 0
27 13 23 10 29 9 -63 0
27 13 23 10 29 9 -62 0
27 13 23 25 8 29 -61 0
27 13 23 25 8 29 -64 0
27 13 23 25 8 29 -63 0
27 13 23 25 8 29 -62 0
27 13 23 25 29 9 -61 0
27 13 23 25 29 9 -64 0
27 13 23 25 29 9 -63 0
27 13 23 25 29 9 -62 0
27 13 10 25 8 9 -61 0
27 13 10 25 8 9 -64 0
27 13 10 25 8 9 -63 0
27 13 10 25 8 9 -62 0
27 13 10 8 29 9 -61 0
27 13 10 8 29 9 -64 0
27 13 10 8 29 9 -63 0
27 13 10 8 29 9 -62 0
27 13 25 8 29 9 -61 0
27 13 25 8 29 9 -64 0
27 13 25 8 29 9 -63 0
27 13 25 8 29 9 -62 0
27 19 23 21 25 29 -79 0
27 19 23 21 25 29 -81 0
27 19 23 21 25 29 -80 0
27 19 23 21 25 29 -82 0
27 19 23 25 22 29 -79 0
27 19 23 25 22 29 -81 0
27 19 23 25 22 29 -80 0
27 19 23 25 22 29 -82 0
27 1 23 6 25 29 -26 0
27 1 23 6 25 29 -28 0
27 1 23 6 25 29 -24 0
27 1 23 6 25 29 -30 0
27 1 23 25 5 29 -26 0
27 1 23 25 5 29 -28 0
27 1 23 25 5 29 -24 0
27 1 23 25 5 29 -30 0
27 33 23 34 25 29 -99 0
27 33 23 34 25 29 -100 0
27 33 23 34 25 29 -97 0
27 33 23 34 25 29 -98 0
27 33 23 25 32 29 -99 0
27 33 23 25 32 29 -100 0
27 33 23 25 32 29 -97 0
27 33 23 25 32 29 -98 0
27 52 23 53 25 29 -106 0
27 52 23 53 25 29 -108 0
27 52 23 53 25 29 -105 0
27 52 23 53 25 29 -107 0
27 52 23 25 51 29 -106 0
27 52 23 25 51 29 -108 0
27 52 23 25 51 29 -105 0
27 52 23 25 51 29 -107 0
27 23 44 25 42 29 -101 0
27 23 44 25 42 29 -102 0
27 23 44 25 42 29 -104 0
27 23 44 25 42 29 -103 0
27 23 44 25 29 43 -101 0
27 23 44 25 29 43 -102 0
27 23 44 25 29 43 -104 0
27 23 44 25 29 43 -103 0
27 23 10 25 8 29 -61 0
27 23 10 25 8 29 -64 0
27 23 10 25 8 29 -63 0
27 23 10 25 8 29 -62 0
27 23 10 25 29 9 -61 0
27 23 10 25 29 9 -64 0
27 23 10 25 29 9 -63 0
27 23 10 25 29 9 -62 0
27 23 21 25 22 29 -79 0
27 23 21 25 22 29 -81 0
27 23 21 25 22 29 -80 0
27 23 21 25 22 29 -82 0
27 23 6 25 5 29 -26 0
27 23 6 25 5 29 -28 0
27 23 6 25 5 29 -24 0
27 23 6 25 5 29 -30 0
27 23 34 25 32 29 -99 0
27 23 34 25 32 29 -100 0
27 23 34 25 32 29 -97 0
27 23 34 25 32 29 -98 0
27 23 53 25 51 29 -106 0
27 23 53 25 51 29 -108 0
27 23 53 25 51 29 -105 0
27 23 53 25 51 29 -107 0
27 23 25 42 29 43 -101 0
27 23 25 42 29 43 -102 0
27 23 25 42 29 43 -104 0
27 23 25 42 29 43 -103 0
27 23 25 8 29 9 -61 0
27 23 25 8 29 9 -64 0
27 23 25 8 29 9 -63 0
27 23 25 8 29 9 -62 0
46 13 44 10 42 8 -70 0
46 13 44 10 42 8 -69 0
46 13 44 10 42 8 -71 0
46 13 44 10 42 8 -72 0
46 13 44 10 42 43 -70 0
46 13 44 10 42 43 -69 0
46 13 44 10 42 43 -71 0
46 13 44 10 42 43 -72 0
46 13 44 10 8 9 -70 0
46 13 44 10 8 9 -69 0
46 13 44 10 8 9 -71 0
46 13 44 10 8 9 -72 0
46 13 44 10 43 9 -70 0
46 13 44 10 43 9 -69 0
46 13 44 10 43 9 -71 0
46 13 44 10 43 9 -72 0
46 13 44 42 8 43 -70 0
46 13 44 42 8 43 -69 0
46 13 44 42 8 43 -71 0
46 13 44 42 8 43 -72 0
46 13 44 42 43 9 -70 0
46 13 44 42 43 9 -69 0
46 13 44 42 43 9 -71 0
46 13 44 42 43 9 -72 0
46 13 10 42 8 9 -70 0
46 13 10 42 8 9 -69 0
46 13 10 42 8 9 -71 0
46 13 10 42 8 9 -72 0
46 13 10 8 43 9 -70 0
46 13 10 8 43 9 -69 0
46 13 10 8 43 9 -71 0
46 13 10 8 43 9 -72 0
46 13 42 8 43 9 -70 0
46 13 42 8 43 9 -69 0
46 13 42 8 43 9 -71 0
46 13 42 8 43 9 -72 0
46 19 44 21 42 43 -87 0
46 19 44 21 42 43 -90 0
46 19 44 21 42 43 -89 0
46 19 44 21 42 43 -88 0
46 19 44 42 22 43 -87 0
46 19 44 42 22 43 -90 0
46 19 44 42 22 43 -89 0
46 19 44 42 22 43 -88 0
46 1 44 6 42 43 -40 0
46 1 44 6 42 43 -41 0
46 1 44 6 42 43 -39 0
46 1 44 6 42 43 -45 0
46 1 44 42 5 43 -40 0
46 1 44 42 5 43 -41 0
46 1 44 42 5 43 -39 0
46 1 44 42 5 43 -45 0
46 33 44 34 42 43 -113 0
46 33 44 34 42 43 -114 0
46 33 44 34 42 43 -111 0
46 33 44 34 42 43 -112 0
46 33 44 42 32 43 -113 0
46 33 44 42 32 43 -114 0
46 33 44 42 32 43 -111 0
46 33 44 42 32 43 -112 0
46 52 44 53 42 43 -122 0
46 52 44 53 42 43 -123 0
46 52 44 53 42 43 -124 0
46 52 44 53 42 43 -121 0
46 52 44 42 51 43 -122 0
46 52 44 42 51 43 -123 0
46 52 44 42 51 43 -124 0
46 52 44 42 51 43 -121 0
46 23 44 25 42 43 -101 0
46 23 44 25 42 43 -102 0
46 23 44 25 42 43 -104 0
46 23 44 25 42 43 -103 0
46 23 44 42 29 43 -101 0
46 23 44 42 29 43 -102 0
46 23 44 42 29 43 -104 0
46 23 44 42 29 43 -103 0
46 44 10 42 8 43 -70 0
46 44 10 42 8 43 -69 0
46 44 10 42 8 43 -71 0
46 44 10 42 8 43 -72 0
46 44 10 42 43 9 -70 0
46 44 10 42 43 9 -69 0
46 44 10 42 43 9 -71 0
46 44 10 42 43 9 -72 0
46 44 21 42 22 43 -87 0
46 44 21 42 22 43 -90 0
46 44 21 42 22 43 -89 0
46 44 21 42 22 43 -88 0
46 44 6 42 5 43 -40 0
46 44 6 42 5 43 -41 0
46 44 6 42 5 43 -39 0
46 44 6 42 5 43 -45 0
46 44 34 42 32 43 -113 0
46 44 34 42 32 43 -114 0
46 44 34 42 32 43 -111 0
46 44 34 42 32 43 -112 0
46 44 53 42 51 43 -122 0
46 44 53 42 51 43 -123 0
46 44 53 42 51 43 -124 0
46 44 53 42 51 43 -121 0
46 44 25 42 29 43 -101 0
46 44 25 42 29 43 -102 0
46 44 25 42 29 43 -104 0
46 44 25 42 29 43 -103 0
46 44 42 8 43 9 -70 0
46 44 42 8 43 9 -69 0
46 44 42 8 43 9 -71 0
46 44 42 8 43 9 -72 0
13 19 10 21 8 9 -60 0
13 19 10 21 8 9 -58 0
13 19 10 21 8 9 -59 0
13 19 10 21 8 9 -57 0
13 19 10 8 22 9 -60 0
13 19 10 8 22 9 -58 0
13 19 10 8 22 9 -59 0
13 19 10 8 22 9 -57 0
13 1 10 6 8 9 -7 0
13 1 10 6 8 9 -12 0
13 1 10 6 8 9 -11 0
13 1 10 6 8 9 -14 0
13 1 10 8 5 9 -7 0
13 1 10 8 5 9 -12 0
13 1 10 8 5 9 -11 0
13 1 10 8 5 9 -14 0
13 33 10 34 8 9 -68 0
13 33 10 34 8 9 -67 0
13 33 10 34 8 9 -66 0
13 33 10 34 8 9 -65 0
13 33 10 8 32 9 -68 0
13 33 10 8 32 9 -67 0
13 33 10 8 32 9 -66 0
13 33 10 8 32 9 -65 0
13 52 10 53 8 9 -76 0
13 52 10 53 8 9 -74 0
13 52 10 53 8 9 -75 0
13 52 10 53 8 9 -73 0
13 52 10 8 51 9 -76 0
13 52 10 8 51 9 -74 0
13 52 10 8 51 9 -75 0
13 52 10 8 51 9 -73 0
13 23 10 25 8 9 -61 0
13 23 10 25 8 9 -64 0
13 23 10 25 8 9 -63 0
13 23 10 25 8 9 -62 0
13 23 10 8 29 9 -61 0
13 23 10 8 29 9 -64 0
13 23 10 8 29 9 -63 0
13 23 10 8 29 9 -62 0
13 44 10 42 8 9 -70 0
13 44 10 42 8 9 -69 0
13 44 10 42 8 9 -71 0
13 44 10 42 8 9 -72 0
13 44 10 8 43 9 -70 0
13 44 10 8 43 9 -69 0
13 44 10 8 43 9 -71 0
13 44 10 8 43 9 -72 0
13 10 21 8 22 9 -60 0
13 10 21 8 22 9 -58 0
13 10 21 8 22 9 -59 0
13 10 21 8 22 9 -57 0
13 10 6 8 5 9 -7 0
13 10 6 8 5 9 -12 0
13 10 6 8 5 9 -11 0
13 10 6 8 5 9 -14 0
13 10 34 8 32 9 -68 0
13 10 34 8 32 9 -67 0
13 10 34 8 32 9 -66 0
13 10 34 8 32 9 -65 0
13 10 53 8 51 9 -76 0
13 10 53 8 51 9 -74 0
13 10 53 8 51 9 -75 0
13 10 53 8 51 9 -73 0
13 10 25 8 29 9 -61 0
13 10 25 8 29 9 -64 0
13 10 25 8 29 9 -63 0
13 10 25 8 29 9 -62 0
13 10 42 8 43 9 -70 0
13 10 42 8 43 9 -69 0
13 10 42 8 43 9 -71 0
13 10 42 8 43 9 -72 0
19 1 21 6 22 5 -18 0
19 1 21 6 22 5 -16 0
19 1 21 6 22 5 -15 0
19 1 21 6 22 5 -17 0
19 33 21 34 22 32 -86 0
19 33 21 34 22 32 -85 0
19 33 21 34 22 32 -84 0
19 33 21 34 22 32 -83 0
19 52 21 53 22 51 -91 0
19 52 21 53 22 51 -92 0
19 52 21 53 22 51 -94 0
19 52 21 53 22 51 -93 0
19 23 21 25 22 29 -79 0
19 23 21 25 22 29 -81 0
19 23 21 25 22 29 -80 0
19 23 21 25 22 29 -82 0
19 44 21 42 22 43 -87 0
19 44 21 42 22 43 -90 0
19 44 21 42 22 43 -89 0
19 44 21 42 22 43 -88 0
19 10 21 8 22 9 -60 0
19 10 21 8 22 9 -58 0
19 10 21 8 22 9 -59 0
19 10 21 8 22 9 -57 0
1 33 6 34 5 32 -31 0
1 33 6 34 5 32 -38 0
1 33 6 34 5 32 -35 0
1 33 6 34 5 32 -36 0
1 52 6 53 5 51 -50 0
1 52 6 53 5 51 -47 0
1 52 6 53 5 51 -49 0
1 52 6 53 5 51 -48 0
1 23 6 25 5 29 -26 0
1 23 6 25 5 29 -28 0
1 23 6 25 5 29 -24 0
1 23 6 25 5 29 -30 0
1 44 6 42 5 43 -40 0
1 44 6 42 5 43 -41 0
1 44 6 42 5 43 -39 0
1 44 6 42 5 43 -45 0
1 10 6 8 5 9 -7 0
1 10 6 8 5 9 -12 0
1 10 6 8 5 9 -11 0
1 10 6 8 5 9 -14 0
33 52 34 53 32 51 -118 0
33 52 34 53 32 51 -117 0
33 52 34 53 32 51 -116 0
33 52 34 53 32 51 -115 0
33 23 34 25 32 29 -99 0
33 23 34 25 32 29 -100 0
33 23 34 25 32 29 -97 0
33 23 34 25 32 29 -98 0
33 44 34 42 32 43 -113 0
33 44 34 42 32 43 -114 0
33 44 34 42 32 43 -111 0
33 44 34 42 32 43 -112 0
33 10 34 8 32 9 -68 0
33 10 34 8 32 9 -67 0
33 10 34 8 32 9 -66 0
33 10 34 8 32 9 -65 0
52 23 53 25 51 29 -106 0
52 23 53 25 51 29 -108 0
52 23 53 25 51 29 -105 0
52 23 53 25 51 29 -107 0
52 44 53 42 51 43 -122 0
52 44 53 42 51 43 -123 0
52 44 53 42 51 43 -124 0
52 44 53 42 51 43 -121 0
52 10 53 8 51 9 -76 0
52 10 53 8 51 9 -74 0
52 10 53 8 51 9 -75 0
52 10 53 8 51 9 -73 0
23 44 25 42 29 43 -101 0
23 44 25 42 29 43 -102 0
23 44 25 42 29 43 -104 0
23 44 25 42 29 43 -103 0
23 10 25 8 29 9 -61 0
23 10 25 8 29 9 -64 0
23 10 25 8 29 9 -63 0
23 10 25 8 29 9 -62 0
44 10 42 8 43 9 -70 0
44 10 42 8 43 9 -69 0
44 10 42 8 43 9 -71 0
44 10 42 8 43 9 -72 0
20 3 19 1 21 6 22 -18 0
20 3 19 1 21 6 22 -16 0
20 3 19 1 21 6 22 -15 0
20 3 19 1 21 6 22 -17 0
20 3 19 1 21 6 5 -18 0
20 3 19 1 21 6 5 -16 0
20 3 19 1 21 6 5 -15 0
20 3 19 1 21 6 5 -17 0
20 3 19 1 21 22 5 -18 0
20 3 19 1 21 22 5 -16 0
20 3 19 1 21 22 5 -15 0
20 3 19 1 21 22 5 -17 0
20 3 19 1 6 22 5 -18 0
20 3 19 1 6 22 5 -16 0
20 3 19 1 6 22 5 -15 0
20 3 19 1 6 22 5 -17 0
20 3 19 21 6 22 5 -18 0
20 3 19 21 6 22 5 -16 0
20 3 19 21 6 22 5 -15 0
20 3 19 21 6 22 5 -17 0
20 3 1 21 6 22 5 -18 0
20 3 1 21 6 22 5 -16 0
20 3 1 21 6 22 5 -15 0
20 3 1 21 6 22 5 -17 0
20 37 19 33 21 34 22 -86 0
20 37 19 33 21 34 22 -85 0
20 37 19 33 21 34 22 -84 0
20 37 19 33 21 34 22 -83 0
20 37 19 33 21 34 32 -86 0
20 37 19 33 21 34 32 -85 0
20 37 19 33 21 34 32 -84 0
20 37 19 33 21 34 32 -83 0
20 37 19 33 21 22 32 -86 0
20 37 19 33 21 22 32 -85 0
20 37 19 33 21 22 32 -84 0
20 37 19 33 21 22 32 -83 0
20 37 19 33 34 22 32 -86 0
20 37 19 33 34 22 32 -85 0
20 37 19 33 34 22 32 -84 0
20 37 19 33 34 22 32 -83 0
20 37 19 21 34 22 32 -86 0
20 37 19 21 34 22 32 -85 0
20 37 19 21 34 22 32 -84 0
20 37 19 21 34 22 32 -83 0
20 37 33 21 34 22 32 -86 0
20 37 33 21 34 22 32 -85 0
20 37 33 21 34 22 32 -84 0
20 37 33 21 34 22 32 -83 0
20 54 19 52 21 53 22 -91 0
20 54 19 52 21 53 22 -92 0
20 54 19 52 21 53 22 -94 0
20 54 19 52 21 53 22 -93 0
20 54 19 52 21 53 51 -91 0
20 54 19 52 21 53 51 -92 0
20 54 19 52 21 53 51 -94 0
20 54 19 52 21 53 51 -93 0
20 54 19 52 21 22 51 -91 0
20 54 19 52 21 22 51 -92 0
20 54 19 52 21 22 51 -94 0
20 54 19 52 21 22 51 -93 0
20 54 19 52 53 22 51 -91 0
20 54 19 52 53 22 51 -92 0
20 54 19 52 53 22 51 -94 0
20 54 19 52 53 22 51 -93 0
20 54 19 21 53 22 51 -91 0
20 54 19 21 53 22 51 -92 0
20 54 19 21 53 22 51 -94 0
20 54 19 21 53 22 51 -93 0
20 54 52 21 53 22 51 -91 0
20 54 52 21 53 22 51 -92 0
20 54 52 21 53 22 51 -94 0
20 54 52 21 53 22 51 -93 0
20 27 19 23 21 25 22 -79 0
20 27 19 23 21 25 22 -81 0
20 27 19 23 21 25 22 -80 0
20 27 19 23 21 25 22 -82 0
20 27 19 23 21 25 29 -79 0
20 27 19 23 21 25 29 -81 0
20 27 19 23 21 25 29 -80 0
20 27 19 23 21 25 29 -82 0
20 27 19 23 21 22 29 -79 0
20 27 19 23 21 22 29 -81 0
20 27 19 23 21 22 29 -80 0
20 27 19 23 21 22 29 -82 0
20 27 19 23 25 22 29 -79 0
20 27 19 23 25 22 29 -81 0
20 27 19 23 25 22 29 -80 0
20 27 19 23 25 22 29 -82 0
20 27 19 21 25 22 29 -79 0
20 27 19 21 25 22 29 -81 0
20 27 19 21 25 22 29 -80 0
20 27 19 21 25 22 29 -82 0
20 27 23 21 25 22 29 -79 0
20 27 23 21 25 22 29 -81 0
20 27 23 21 25 22 29 -80 0
20 27 23 21 25 22 29 -82 0
20 46 19 44 21 42 22 -87 0
20 46 19 44 21 42 22 -90 0
20 46 19 44 21 42 22 -89 0
20 46 19 44 21 42 22 -88 0
20 46 19 44 21 42 43 -87 0
20 46 19 44 21 42 43 -90 0
20 46 19 44 21 42 43 -89 0
20 46 19 44 21 42 43 -88 0
20 46 19 44 21 22 43 -87 0
20 46 19 44 21 22 43 -90 0
20 46 19 44 21 22 43 -89 0
20 46 19 44 21 22 43 -88 0
20 46 19 44 42 22 43 -87 0
20 46 19 44 42 22 43 -90 0
20 46 19 44 42 22 43 -89 0
20 46 19 44 42 22 43 -88 0
20 46 19 21 42 22 43 -87 0
20 46 19 21 42 22 43 -90 0
20 46 19 21 42 22 43 -89 0
20 46 19 21 42 22 43 -88 0
20 46 44 21 42 22 43 -87 0
20 46 44 21 42 22 43 -90 0
20 46 44 21 42 22 43 -89 0
20 46 44 21 42 22 43 -88 0
20 13 19 10 21 8 22 -60 0
20 13 19 10 21 8 22 -58 0
20 13 19 10 21 8 22 -59 0
20 13 19 10 21 8 22 -57 0
20 13 19 10 21 8 9 -60 0
20 13 19 10 21 8 9 -58 0
20 13 19 10 21 8 9 -59 0
20 13 19 10 21 8 9 -57 0
20 13 19 10 21 22 9 -60 0
20 13 19 10 21 22 9 -58 0
20 13 19 10 21 22 9 -59 0
20 13 19 10 21 22 9 -57 0
20 13 19 10 8 22 9 -60 0
20 13 19 10 8 22 9 -58 0
20 13 19 10 8 22 9 -59 0
20 13 19 10 8 22 9 -57 0
20 13 19 21 8 22 9 -60 0
20 13 19 21 8 22 9 -58 0
20 13 19 21 8 22 9 -59 0
20 13 19 21 8 22 9 -57 0
20 13 10 21 8 22 9 -60 0
20 13 10 21 8 22 9 -58 0
20 13 10 21 8 22 9 -59 0
20 13 10 21 8 22 9 -57 0
20 19 1 21 6 22 5 -18 0
20 19 1 21 6 22 5 -16 0
20 19 1 21 6 22 5 -15 0
20 19 1 21 6 22 5 -17 0
20 19 33 21 34 22 32 -86 0
20 19 33 21 34 22 32 -85 0
20 19 33 21 34 22 32 -84 0
20 19 33 21 34 22 32 -83 0
20 19 52 21 53 22 51 -91 0
20 19 52 21 53 22 51 -92 0
20 19 52 21 53 22 51 -94 0
20 19 52 21 53 22 51 -93 0
20 19 23 21 25 22 29 -79 0
20 19 23 21 25 22 29 -81 0
20 19 23 21 25 22 29 -80 0
20 19 23 21 25 22 29 -82 0
20 19 44 21 42 22 43 -87 0
20 19 44 21 42 22 43 -90 0
20 19 44 21 42 22 43 -89 0
20 19 44 21 42 22 43 -88 0
20 19 10 21 8 22 9 -60 0
20 19 10 21 8 22 9 -58 0
20 19 10 21 8 22 9 -59 0
20 19 10 21 8 22 9 -57 0
3 37 1 33 6 34 5 -31 0
3 37 1 33 6 34 5 -38 0
3 37 1 33 6 34 5 -35 0
3 37 1 33 6 34 5 -36 0
3 37 1 33 6 34 32 -31 0
3 37 1 33 6 34 32 -38 0
3 37 1 33 6 34 32 -35 0
3 37 1 33 6 34 32 -36 0
3 37 1 33 6 5 32 -31 0
3 37 1 33 6 5 32 -38 0
3 37 1 33 6 5 32 -35 0
3 37 1 33 6 5 32 -36 0
3 37 1 33 34 5 32 -31 0
3 37 1 33 34 5 32 -38 0
3 37 1 33 34 5 32 -35 0
3 37 1 33 34 5 32 -36 0
3 37 1 6 34 5 32 -31 0
3 37 1 6 34 5 32 -38 0
3 37 1 6 34 5 32 -35 0
3 37 1 6 34 5 32 -36 0
3 37 33 6 34 5 32 -31 0
3 37 33 6 34 5 32 -38 0
3 37 33 6 34 5 32 -35 0
3 37 33 6 34 5 32 -36 0
3 54 1 52 6 53 5 -50 0
3 54 1 52 6 53 5 -47 0
3 54 1 52 6 53 5 -49 0
3 54 1 52 6 53 5 -48 0
3 54 1 52 6 53 51 -50 0
3 54 1 52 6 53 51 -47 0
3 54 1 52 6 53 51 -49 0
3 54 1 52 6 53 51 -48 0
3 54 1 52 6 5 51 -50 0
3 54 1 52 6 5 51 -47 0
3 54 1 52 6 5 51 -49 0
3 54 1 52 6 5 51 -48 0
3 54 1 52 53 5 51 -50 0
3 54 1 52 53 5 51 -47 0
3 54 1 52 53 5 51 -49 0
3 54 1 52 53 5 51 -48 0
3 54 1 6 53 5 51 -50 0
3 54 1 6 53 5 51 -47 0
3 54 1 6 53 5 51 -49 0
3 54 1 6 53 5 51 -48 0
3 54 52 6 53 5 51 -50 0
3 54 52 6 53 5 51 -47 0
3 54 52 6 53 5 51 -49 0
3 54 52 6 53 5 51 -48 0
3 27 1 23 6 25 5 -26 0
3 27 1 23 6 25 5 -28 0
3 27 1 23 6 25 5 -24 0
3 27 1 23 6 25 5 -30 0
3 27 1 23 6 25 29 -26 0
3 27 1 23 6 25 29 -28 0
3 27 1 23 6 25 29 -24 0
3 27 1 23 6 25 29 -30 0
3 27 1 23 6 5 29 -26 0
3 27 1 23 6 5 29 -28 0
3 27 1 23 6 5 29 -24 0
3 27 1 23 6 5 29 -30 0
3 27 1 23 25 5 29 -26 0
3 27 1 23 25 5 29 -28 0
3 27 1 23 25 5 29 -24 0
3 27 1 23 25 5 29 -30 0
3 27 1 6 25 5 29 -26 0
3 27 1 6 25 5 29 -28 0
3 27 1 6 25 5 29 -24 0
3 27 1 6 25 5 29 -30 0
3 27 23 6 25 5 29 -26 0
3 27 23 6 25 5 29 -28 0
3 27 23 6 25 5 29 -24 0
3 27 23 6 25 5 29 -30 0
3 46 1 44 6 42 5 -40 0
3 46 1 44 6 42 5 -41 0
3 46 1 44 6 42 5 -39 0
3 46 1 44 6 42 5 -45 0
3 46 1 44 6 42 43 -40 0
3 46 1 44 6 42 43 -41 0
3 46 1 44 6 42 43 -39 0
3 46 1 44 6 42 43 -45 0
3 46 1 44 6 5 43 -40 0
3 46 1 44 6 5 43 -41 0
3 46 1 44 6 5 43 -39 0
3 46 1 44 6 5 43 -45 0
3 46 1 44 42 5 43 -40 0
3 46 1 44 42 5 43 -41 0
3 46 1 44 42 5 43 -39 0
3 46 1 44 42 5 43 -45 0
3 46 1 6 42 5 43 -40 0
3 46 1 6 42 5 43 -41 0
3 46 1 6 42 5 43 -39 0
3 46 1 6 42 5 43 -45 0
3 46 44 6 42 5 43 -40 0
3 46 44 6 42 5 43 -41 0
3 46 44 6 42 5 43 -39 0
3 46 44 6 42 5 43 -45 0
3 13 1 10 6 8 5 -7 0
3 13 1 10 6 8 5 -12 0
3 13 1 10 6 8 5 -11 0
3 13 1 10 6 8 5 -14 0
3 13 1 10 6 8 9 -7 0
3 13 1 10 6 8 9 -12 0
3 13 1 10 6 8 9 -11 0
3 13 1 10 6 8 9 -14 0
3 13 1 10 6 5 9 -7 0
3 13 1 10 6 5 9 -12 0
3 13 1 10 6 5 9 -11 0
3 13 1 10 6 5 9 -14 0
3 13 1 10 8 5 9 -7 0
3 13 1 10 8 5 9 -12 0
3 13 1 10 8 5 9 -11 0
3 13 1 10 8 5 9 -14 0
3 13 1 6 8 5 9 -7 0
3 13 1 6 8 5 9 -12 0
3 13 1 6 8 5 9 -11 0
3 13 1 6 8 5 9 -14 0
3 13 10 6 8 5 9 -7 0
3 13 10 6 8 5 9 -12 0
3 13 10 6 8 5 9 -11 0
3 13 10 6 8 5 9 -14 0
3 19 1 21 6 22 5 -18 0
3 19 1 21 6 22 5 -16 0
3 19 1 21 6 22 5 -15 0
3 19 1 21 6 22 5 -17 0
3 1 33 6 34 5 32 -31 0
3 1 33 6 34 5 32 -38 0
3 1 33 6 34 5 32 -35 0
3 1 33 6 34 5 32 -36 0
3 1 52 6 53 5 51 -50 0
3 1 52 6 53 5 51 -47 0
3 1 52 6 53 5 51 -49 0
3 1 52 6 53 5 51 -48 0
3 1 23 6 25 5 29 -26 0
3 1 23 6 25 5 29 -28 0
3 1 23 6 25 5 29 -24 0
3 1 23 6 25 5 29 -30 0
3 1 44 6 42 5 43 -40 0
3 1 44 6 42 5 43 -41 0
3 1 44 6 42 5 43 -39 0
3 1 44 6 42 5 43 -45 0
3 1 10 6 8 5 9 -7 0
3 1 10 6 8 5 9 -12 0
3 1 10 6 8 5 9 -11 0
3 1 10 6 8 5 9 -14 0
37 54 33 52 34 53 32 -118 0
37 54 33 52 34 53 32 -117 0
37 54 33 52 34 53 32 -116 0
37 54 33 52 34 53 32 -115 0
37 54 33 52 34 53 51 -118 0
37 54 33 52 34 53 51 -117 0
37 54 33 52 34 53 51 -116 0
37 54 33 52 34 53 51 -115 0
37 54 33 52 34 32 51 -118 0
37 54 33 52 34 32 51 -117 0
37 54 33 52 34 32 51 -116 0
37 54 33 52 34 32 51 -115 0
37 54 33 52 53 32 51 -118 0
37 54 33 52 53 32 51 -117 0
37 54 33 52 53 32 51 -116 0
37 54 33 52 53 32 51 -115 0
37 54 33 34 53 32 51 -118 0
37 54 33 34 53 32 51 -117 0
37 54 33 34 53 32 51 -116 0
37 54 33 34 53 32 51 -115 0
37 54 52 34 53 32 51 -118 0
37 54 52 34 53 32 51 -117 0
37 54 52 34 53 32 51 -116 0
37 54 52 34 53 32 51 -115 0
37 27 33 23 34 25 32 -99 0
37 27 33 23 34 25 32 -100 0
37 27 33 23 34 25 32 -97 0
37 27 33 23 34 25 32 -98 0
37 27 33 23 34 25 29 -99 0
37 27 33 23 34 25 29 -100 0
37 27 33 23 34 25 29 -97 0
37 27 33 23 34 25 29 -98 0
37 27 33 23 34 32 29 -99 0
37 27 33 23 34 32 29 -100 0
37 27 33 23 34 32 29 -97 0
37 27 33 23 34 32 29 -98 0
37 27 33 23 25 32 29 -99 0
37 27 33 23 25 32 29 -100 0
37 27 33 23 25 32 29 -97 0
37 27 33 23 25 32 29 -98 0
37 27 33 34 25 32 29 -99 0
37 27 33 34 25 32 29 -100 0
37 27 33 34 25 32 29 -97 0
37 27 33 34 25 32 29 -98 0
37 27 23 34 25 32 29 -99 0
37 27 23 34 25 32 29 -100 0
37 27 23 34 25 32 29 -97 0
37 27 23 34 25 32 29 -98 0
37 46 33 44 34 42 32 -113 0
37 46 33 44 34 42 32 -114 0
37 46 33 44 34 42 32 -111 0
37 46 33 44 34 42 32 -112 0
37 46 33 44 34 42 43 -113 0
37 46 33 44 34 42 43 -114 0
37 46 33 44 34 42 43 -111 0
37 46 33 44 34 42 43 -112 0
37 46 33 44 34 32 43 -113 0
37 46 33 44 34 32 43 -114 0
37 46 33 44 34 32 43 -111 0
37 46 33 44 34 32 43 -112 0
37 46 33 44 42 32 43 -113 0
37 46 33 44 42 32 43 -114 0
37 46 33 44 42 32 43 -111 0
37 46 33 44 42 32 43 -112 0
37 46 33 34 42 32 43 -113 0
37 46 33 34 42 32 43 -114 0
37 46 33 34 42 32 43 -111 0
37 46 33 34 42 32 43 -112 0
37 46 44 34 42 32 43 -113 0
37 46 44 34 42 32 43 -114 0
37 46 44 34 42 32 43 -111 0
37 46 44 34 42 32 43 -112 0
37 13 33 10 34 8 32 -68 0
37 13 33 10 34 8 32 -67 0
37 13 33 10 34 8 32 -66 0
37 13 33 10 34 8 32 -65 0
37 13 33 10 34 8 9 -68 0
37 13 33 10 34 8 9 -67 0
37 13 33 10 34 8 9 -66 0
37 13 33 10 34 8 9 -65 0
37 13 33 10 34 32 9 -68 0
37 13 33 10 34 32 9 -67 0
37 13 33 10 34 32 9 -66 0
37 13 33 10 34 32 9 -65 0
37 13 33 10 8 32 9 -68 0
37 13 33 10 8 32 9 -67 0
37 13 33 10 8 32 9 -66 0
37 13 33 10 8 32 9 -65 0
37 13 33 34 8 32 9 -68 0
37 13 33 34 8 32 9 -67 0
37 13 33 34 8 32 9 -66 0
37 13 33 34 8 32 9 -65 0
37 13 10 34 8 32 9 -68 0
37 13 10 34 8 32 9 -67 0
37 13 10 34 8 32 9 -66 0
37 13 10 34 8 32 9 -65 0
37 19 33 21 34 22 32 -86 0
37 19 33 21 34 22 32 -85 0
37 19 33 21 34 22 32 -84 0
37 19 33 21 34 22 32 -83 0
37 1 33 6 34 5 32 -31 0
37 1 33 6 34 5 32 -38 0
37 1 33 6 34 5 32 -35 0
37 1 33 6 34 5 32 -36 0
37 33 52 34 53 32 51 -118 0
37 33 52 34 53 32 51 -117 0
37 33 52 34 53 32 51 -116 0
37 33 52 34 53 32 51 -115 0
37 33 23 34 25 32 29 -99 0
37 33 23 34 25 32 29 -100 0
37 33 23 34 25 32 29 -97 0
37 33 23 34 25 32 29 -98 0
37 33 44 34 42 32 43 -113 0
37 33 44 34 42 32 43 -114 0
37 33 44 34 42 32 43 -111 0
37 33 44 34 42 32 43 -112 0
37 33 10 34 8 32 9 -68 0
37 33 10 34 8 32 9 -67 0
37 33 10 34 8 32 9 -66 0
37 33 10 34 8 32 9 -65 0
54 27 52 23 53 25 51 -106 0
54 27 52 23 53 25 51 -108 0
54 27 52 23 53 25 51 -105 0
54 27 52 23 53 25 51 -107 0
54 27 52 23 53 25 29 -106 0
54 27 52 23 53 25 29 -108 0
54 27 52 23 53 25 29 -105 0
54 27 52 23 53 25 29 -107 0
54 27 52 23 53 51 29 -106 0
54 27 52 23 53 51 29 -108 0
54 27 52 23 53 51 29 -105 0
54 27 52 23 53 51 29 -107 0
54 27 52 23 25 51 29 -106 0
54 27 52 23 25 51 29 -108 0
54 27 52 23 25 51 29 -105 0
54 27 52 23 25 51 29 -107 0
54 27 52 53 25 51 29 -106 0
54 27 52 53 25 51 29 -108 0
54 27 52 53 25 51 29 -105 0
54 27 52 53 25 51 29 -107 0
54 27 23 53 25 51 29 -106 0
54 27 23 53 25 51 29 -108 0
54 27 23 53 25 51 29 -105 0
54 27 23 53 25 51 29 -107 0
54 46 52 44 53 42 51 -122 0
54 46 52 44 53 42 51 -123 0
54 46 52 44 53 42 51 -124 0
54 46 52 44 53 42 51 -121 0
54 46 52 44 53 42 43 -122 0
54 46 52 44 53 42 43 -123 0
54 46 52 44 53 42 43 -124 0
54 46 52 44 53 42 43 -121 0
54 46 52 44 53 51 43 -122 0
54 46 52 44 53 51 43 -123 0
54 46 52 44 53 51 43 -124 0
54 46 52 44 53 51 43 -121 0
54 46 52 44 42 51 43 -122 0
54 46 52 44 42 51 43 -123 0
54 46 52 44 42 51 43 -124 0
54 46 52 44 42 51 43 -121 0
54 46 52 53 42 51 43 -122 0
54 46 52 53 42 51 43 -123 0
54 46 52 53 42 51 43 -124 0
54 46 52 53 42 51 43 -121 0
54 46 44 53 42 51 43 -122 0
54 46 44 53 42 51 43 -123 0
54 46 44 53 42 51 43 -124 0
54 46 44 53 42 51 43 -121 0
54 13 52 10 53 8 51 -76 0
54 13 52 10 53 8 51 -74 0
54 13 52 10 53 8 51 -75 0
54 13 52 10 53 8 51 -73 0
54 13 52 10 53 8 9 -76 0
54 13 52 10 53 8 9 -74 0
54 13 52 10 53 8 9 -75 0
54 13 52 10 53 8 9 -73 0
54 13 52 10 53 51 9 -76 0
54 13 52 10 53 51 9 -74 0
54 13 52 10 53 51 9 -75 0
54 13 52 10 53 51 9 -73 0
54 13 52 10 8 51 9 -76 0
54 13 52 10 8 51 9 -74 0
54 13 52 10 8 51 9 -75 0
54 13 52 10 8 51 9 -73 0
54 13 52 53 8 51 9 -76 0
54 13 52 53 8 51 9 -74 0
54 13 52 53 8 51 9 -75 0
54 13 52 53 8 51 9 -73 0
54 13 10 53 8 51 9 -76 0
54 13 10 53 8 51 9 -74 0
54 13 10 53 8 51 9 -75 0
54 13 10 53 8 51 9 -73 0
54 19 52 21 53 22 51 -91 0
54 19 52 21 53 22 51 -92 0
54 19 52 21 53 22 51 -94 0
54 19 52 21 53 22 51 -93 0
54 1 52 6 53 5 51 -50 0
54 1 52 6 53 5 51 -47 0
54 1 52 6 53 5 51 -49 0
54 1 52 6 53 5 51 -48 0
54 33 52 34 53 32 51 -118 0
54 33 52 34 53 32 51 -117 0
54 33 52 34 53 32 51 -116 0
54 33 52 34 53 32 51 -115 0
54 52 23 53 25 51 29 -106 0
54 52 23 53 25 51 29 -108 0
54 52 23 53 25 51 29 -105 0
54 52 23 53 25 51 29 -107 0
54 52 44 53 42 51 43 -122 0
54 52 44 53 42 51 43 -123 0
54 52 44 53 42 51 43 -124 0
54 52 44 53 42 51 43 -121 0
54 52 10 53 8 51 9 -76 0
54 52 10 53 8 51 9 -74 0
54 52 10 53 8 51 9 -75 0
54 52 10 53 8 51 9 -73 0
27 46 23 44 25 42 29 -101 0
27 46 23 44 25 42 29 -102 0
27 46 23 44 25 42 29 -104 0
27 46 23 44 25 42 29 -103 0
27 46 23 44 25 42 43 -101 0
27 46 23 44 25 42 43 -102 0
27 46 23 44 25 42 43 -104 0
27 46 23 44 25 42 43 -103 0
27 46 23 44 25 29 43 -101 0
27 46 23 44 25 29 43 -102 0
27 46 23 44 25 29 43 -104 0
27 46 23 44 25 29 43 -103 0
27 46 23 44 42 29 43 -101 0
27 46 23 44 42 29 43 -102 0
27 46 23 44 42 29 43 -104 0
27 46 23 44 42 29 43 -103 0
27 46 23 25 42 29 43 -101 0
27 46 23 25 42 29 43 -102 0
27 46 23 25 42 29 43 -104 0
27 46 23 25 42 29 43 -103 0
27 46 44 25 42 29 43 -101 0
27 46 44 25 42 29 43 -102 0
27 46 44 25 42 29 43 -104 0
27 46 44 25 42 29 43 -103 0
27 13 23 10 25 8 29 -61 0
27 13 23 10 25 8 29 -64 0
27 13 23 10 25 8 29 -63 0
27 13 23 10 25 8 29 -62 0
27 13 23 10 25 8 9 -61 0
27 13 23 10 25 8 9 -64 0
27 13 23 10 25 8 9 -63 0
27 13 23 10 25 8 9 -62 0
27 13 23 10 25 29 9 -61 0
27 13 23 10 25 29 9 -64 0
27 13 23 10 25 29 9 -63 0
27 13 23 10 25 29 9 -62 0
27 13 23 10 8 29 9 -61 0
27 13 23 10 8 29 9 -64 0
27 13 23 10 8 29 9 -63 0
27 13 23 10 8 29 9 -62 0
27 13 23 25 8 29 9 -61 0
27 13 23 25 8 29 9 -64 0
27 13 23 25 8 29 9 -63 0
27 13 23 25 8 29 9 -62 0
27 13 10 25 8 29 9 -61 0
27 13 10 25 8 29 9 -64 0
27 13 10 25 8 29 9 -63 0
27 13 10 25 8 29 9 -62 0
27 19 23 21 25 22 29 -79 0
27 19 23 21 25 22 29 -81 0
27 19 23 21 25 22 29 -80 0
27 19 23 21 25 22 29 -82 0
27 1 23 6 25 5 29 -26 0
27 1 23 6 25 5 29 -28 0
27 1 23 6 25 5 29 -24 0
27 1 23 6 25 5 29 -30 0
27 33 23 34 25 32 29 -99 0
27 33 23 34 25 32 29 -100 0
27 33 23 34 25 32 29 -97 0
27 33 23 34 25 32 29 -98 0
27 52 23 53 25 51 29 -106 0
27 52 23 53 25 51 29 -108 0
27 52 23 53 25 51 29 -105 0
27 52 23 53 25 51 29 -107 0
27 23 44 25 42 29 43 -101 0
27 23 44 25 42 29 43 -102 0
27 23 44 25 42 29 43 -104 0
27 23 44 25 42 29 43 -103 0
27 23 10 25 8 29 9 -61 0
27 23 10 25 8 29 9 -64 0
27 23 10 25 8 29 9 -63 0
27 23 10 25 8 29 9 -62 0
46 13 44 10 42 8 43 -70 0
46 13 44 10 42 8 43 -69 0
46 13 44 10 42 8 43 -71 0
46 13 44 10 42 8 43 -72 0
46 13 44 10 42 8 9 -70 0
46 13 44 10 42 8 9 -69 0
46 13 44 10 42 8 9 -71 0
46 13 44 10 42 8 9 -72 0
46 13 44 10 42 43 9 -70 0
46 13 44 10 42 43 9 -69 0
46 13 44 10 42 43 9 -71 0
46 13 44 10 42 43 9 -72 0
46 13 44 10 8 43 9 -70 0
46 13 44 10 8 43 9 -69 0
46 13 44 10 8 43 9 -71 0
46 13 44 10 8 43 9 -72 0
46 13 44 42 8 43 9 -70 0
46 13 44 42 8 43 9 -69 0
46 13 44 42 8 43 9 -71 0
46 13 44 42 8 43 9 -72 0
46 13 10 42 8 43 9 -70 0
46 13 10 42 8 43 9 -69 0
46 13 10 42 8 43 9 -71 0
46 13 10 42 8 43 9 -72 0
46 19 44 21 42 22 43 -87 0
46 19 44 21 42 22 43 -90 0
46 19 44 21 42 22 43 -89 0
46 19 44 21 42 22 43 -88 0
46 1 44 6 42 5 43 -40 0
46 1 44 6 42 5 43 -41 0
46 1 44 6 42 5 43 -39 0
46 1 44 6 42 5 43 -45 0
46 33 44 34 42 32 43 -113 0
46 33 44 34 42 32 43 -114 0
46 33 44 34 42 32 43 -111 0
46 33 44 34 42 32 43 -112 0
46 52 44 53 42 51 43 -122 0
46 52 44 53 42 51 43 -123 0
46 52 44 53 42 51 43 -124 0
46 52 44 53 42 51 43 -121 0
46 23 44 25 42 29 43 -101 0
46 23 44 25 42 29 43 -102 0
46 23 44 25 42 29 43 -104 0
46 23 44 25 42 29 43 -103 0
46 44 10 42 8 43 9 -70 0
46 44 10 42 8 43 9 -69 0
46 44 10 42 8 43 9 -71 0
46 44 10 42 8 43 9 -72 0
13 19 10 21 8 22 9 -60 0
13 19 10 21 8 22 9 -58 0
13 19 10 21 8 22 9 -59 0
13 19 10 21 8 22 9 -57 0
13 1 10 6 8 5 9 -7 0
13 1 10 6 8 5 9 -12 0
13 1 10 6 8 5 9 -11 0
13 1 10 6 8 5 9 -14 0
13 33 10 34 8 32 9 -68 0
13 33 10 34 8 32 9 -67 0
13 33 10 34 8 32 9 -66 0
13 33 10 34 8 32 9 -65 0
13 52 10 53 8 51 9 -76 0
13 52 10 53 8 51 9 -74 0
13 52 10 53 8 51 9 -75 0
13 52 10 53 8 51 9 -73 0
13 23 10 25 8 29 9 -61 0
13 23 10 25 8 29 9 -64 0
13 23 10 25 8 29 9 -63 0
13 23 10 25 8 29 9 -62 0
13 44 10 42 8 43 9 -70 0
13 44 10 42 8 43 9 -69 0
13 44 10 42 8 43 9 -71 0
13 44 10 42 8 43 9 -72 0
20 3 19 1 21 6 22 5 -18 0
20 3 19 1 21 6 22 5 -16 0
20 3 19 1 21 6 22 5 -15 0
20 3 19 1 21 6 22 5 -17 0
20 37 19 33 21 34 22 32 -86 0
20 37 19 33 21 34 22 32 -85 0
20 37 19 33 21 34 22 32 -84 0
20 37 19 33 21 34 22 32 -83 0
20 54 19 52 21 53 22 51 -91 0
20 54 19 52 21 53 22 51 -92 0
20 54 19 52 21 53 22 51 -94 0
20 54 19 52 21 53 22 51 -93 0
20 27 19 23 21 25 22 29 -79 0
20 27 19 23 21 25 22 29 -81 0
20 27 19 23 21 25 22 29 -80 0
20 27 19 23 21 25 22 29 -82 0
20 46 19 44 21 42 22 43 -87 0
20 46 19 44 21 42 22 43 -90 0
20 46 19 44 21 42 22 43 -89 0
20 46 19 44 21 42 22 43 -88 0
20 13 19 10 21 8 22 9 -60 0
20 13 19 10 21 8 22 9 -58 0
20 13 19 10 21 8 22 9 -59 0
20 13 19 10 21 8 22 9 -57 0
3 37 1 33 6 34 5 32 -31 0
3 37 1 33 6 34 5 32 -38 0
3 37 1 33 6 34 5 32 -35 0
3 37 1 33 6 34 5 32 -36 0
3 54 1 52 6 53 5 51 -50 0
3 54 1 52 6 53 5 51 -47 0
3 54 1 52 6 53 5 51 -49 0
3 54 1 52 6 53 5 51 -48 0
3 27 1 23 6 25 5 29 -26 0
3 27 1 23 6 25 5 29 -28 0
3 27 1 23 6 25 5 29 -24 0
3 27 1 23 6 25 5 29 -30 0
3 46 1 44 6 42 5 43 -40 0
3 46 1 44 6 42 5 43 -41 0
3 46 1 44 6 42 5 43 -39 0
3 46 1 44 6 42 5 43 -45 0
3 13 1 10 6 8 5 9 -7 0
3 13 1 10 6 8 5 9 -12 0
3 13 1 10 6 8 5 9 -11 0
3 13 1 10 6 8 5 9 -14 0
37 54 33 52 34 53 32 51 -118 0
37 54 33 52 34 53 32 51 -117 0
37 54 33 52 34 53 32 51 -116 0
37 54 33 52 34 53 32 51 -115 0
37 27 33 23 34 25 32 29 -99 0
37 27 33 23 34 25 32 29 -100 0
37 27 33 23 34 25 32 29 -97 0
37 27 33 23 34 25 32 29 -98 0
37 46 33 44 34 42 32 43 -113 0
37 46 33 44 34 42 32 43 -114 0
37 46 33 44 34 42 32 43 -111 0
37 46 33 44 34 42 32 43 -112 0
37 13 33 10 34 8 32 9 -68 0
37 13 33 10 34 8 32 9 -67 0
37 13 33 10 34 8 32 9 -66 0
37 13 33 10 34 8 32 9 -65 0
54 27 52 23 53 25 51 29 -106 0
54 27 52 23 53 25 51 29 -108 0
54 27 52 23 53 25 51 29 -105 0
54 27 52 23 53 25 51 29 -107 0
54 46 52 44 53 42 51 43 -122 0
54 46 52 44 53 42 51 43 -123 0
54 46 52 44 53 42 51 43 -124 0
54 46 52 44 53 42 51 43 -121 0
54 13 52 10 53 8 51 9 -76 0
54 13 52 10 53 8 51 9 -74 0
54 13 52 10 53 8 51 9 -75 0
54 13 52 10 53 8 51 9 -73 0
27 46 23 44 25 42 29 43 -101 0
27 46 23 44 25 42 29 43 -102 0
27 46 23 44 25 42 29 43 -104 0
27 46 23 44 25 42 29 43 -103 0
27 13 23 10 25 8 29 9 -61 0
27 13 23 10 25 8 29 9 -64 0
27 13 23 10 25 8 29 9 -63 0
27 13 23 10 25 8 29 9 -62 0
46 13 44 10 42 8 43 9 -70 0
46 13 44 10 42 8 43 9 -69 0
46 13 44 10 42 8 43 9 -71 0
46 13 44 10 42 8 43 9 -72 0
