c U1(7) E1(7,7) U3(7) U4(7) E2(7,7) U2(7) E2(3,7) U3(3) E1(7,3) U4(3) U2(3) E1(3,7) U1(3) E2(7,3) E1(1,7) U3(1) U1(1) E2(7,1) E2(1,7) E1(7,1) U4(1) U2(1) E2(0,7) E1(0,7) E1(7,0) E2(7,0) U4(0) U3(0) U1(0) U2(0) E2(7,5) E1(5,7) U4(5) U1(5) U2(5) E2(5,7) E1(7,5) U3(5) E2(7,4) E2(4,7) E1(4,7) E1(7,4) U4(4) U1(4) U3(4) U2(4) E2(7,6) U3(6) U4(6) U2(6) E1(6,7) E1(7,6) U1(6) E2(6,7) U4(2) E2(2,7) U2(2) E1(7,2) E2(7,2) E1(2,7) U1(2) U3(2) E2(3,3) E1(3,3) E2(1,3) E1(3,1) E2(3,1) E1(1,3) E2(0,3) E1(0,3) E1(3,0) E2(3,0) E2(5,3) E1(3,5) E2(3,5) E1(5,3) E2(3,4) E1(4,3) E1(3,4) E2(4,3) E1(3,6) E1(6,3) E2(3,6) E2(6,3) E2(2,3) E1(2,3) E2(3,2) E1(3,2) E2(1,1) E1(1,1) E1(0,1) E2(0,1) E1(1,0) E2(1,0) E1(5,1) E2(5,1) E2(1,5) E1(1,5) E1(4,1) E2(4,1) E1(1,4) E2(1,4) E1(1,6) E1(6,1) E2(1,6) E2(6,1) E2(2,1) E2(1,2) E1(2,1) E1(1,2) E2(0,0) E1(0,0) E2(0,5) E1(5,0) E2(5,0) E1(0,5) E2(0,4) E1(0,4) E2(4,0) E1(4,0) E1(6,0) E2(0,6) E2(6,0) E1(0,6) E2(2,0) E2(0,2) E1(0,2) E1(2,0) E2(5,5) E1(5,5) E2(4,5) E2(5,4) E1(4,5) E1(5,4) E1(6,5) E2(5,6) E2(6,5) E1(5,6) E1(2,5) E2(5,2) E1(5,2) E2(2,5) E2(4,4) E1(4,4) E1(6,4) E2(4,6) E2(6,4) E1(4,6) E1(2,4) E2(2,4) E1(4,2) E2(4,2) E1(6,6) E2(6,6) E2(2,6) E1(2,6) E1(6,2) E2(6,2) E1(2,2) E2(2,2)
c 1 2 3 4 5 6 7 8 9 10 11 12 13 14 15 16 17 18 19 20 21 22 23 24 25 26 27 28 29 30 31 32 33 34 35 36 37 38 39 40 41 42 43 44 45 46 47 48 49 50 51 52 53 54 55 56 57 58 59 60 61 62 63 64 65 66 67 68 69 70 71 72 73 74 75 76 77 78 79 80 81 82 83 84 85 86 87 88 89 90 91 92 93 94 95 96 97 98 99 100 101 102 103 104 105 106 107 108 109 110 111 112 113 114 115 116 117 118 119 120 121 122 123 124 125 126 127 128 129 130 131 132 133 134 135 136 137 138 139 140 141 142 143 144 145 146 147 148 149 150 151 152 153 154 155 156 157 158 159 160
p cnf 160 4144
-112 0
-90 0
-159 0
-64 0
-144 0
-130 0
-153 0
-2 0
-111 0
-89 0
-160 0
-63 0
-143 0
-129 0
-154 0
-5 0
-91 -93 0
-127 -128 0
-70 -71 0
-118 -120 0
-116 -114 0
-124 -121 0
-24 -25 0
-110 -109 0
-68 -66 0
-101 -99 0
-98 -95 0
-103 -104 0
-15 -20 0
-86 -88 0
-149 -151 0
-139 -141 0
-156 -157 0
-60 -58 0
-79 -78 0
-74 -76 0
-81 -82 0
-12 -9 0
-133 -134 0
-148 -145 0
-41 -42 0
-138 -135 0
-32 -37 0
-51 -52 0
-92 -94 0
-126 -125 0
-69 -72 0
-117 -119 0
-113 -115 0
-122 -123 0
-23 -26 0
-108 -107 0
-65 -67 0
-102 -100 0
-97 -96 0
-105 -106 0
-19 -18 0
-85 -87 0
-150 -152 0
-142 -140 0
-155 -158 0
-56 -59 0
-77 -80 0
-75 -73 0
-83 -84 0
-7 -14 0
-131 -132 0
-146 -147 0
-40 -39 0
-136 -137 0
-36 -31 0
-54 -47 0
-29 -30 0
-29 -28 0
-29 -27 0
-17 -22 0
-17 -16 0
-17 -21 0
-61 -57 0
-61 -62 0
-61 -55 0
-13 -11 0
-13 -8 0
-13 -10 0
-44 -46 0
-44 -45 0
-44 -43 0
-34 -35 0
-34 -38 0
-34 -33 0
-53 -50 0
-53 -48 0
-53 -49 0
-1 -6 0
-1 -3 0
-1 -4 0
-30 -28 0
-30 -27 0
-22 -16 0
-22 -21 0
-57 -62 0
-57 -55 0
-11 -8 0
-11 -10 0
-46 -45 0
-46 -43 0
-35 -38 0
-35 -33 0
-50 -48 0
-50 -49 0
-6 -3 0
-6 -4 0
-28 -27 0
-16 -21 0
-62 -55 0
-8 -10 0
-45 -43 0
-38 -33 0
-48 -49 0
-3 -4 0
29 30 28 27 0
17 22 16 21 0
61 57 62 55 0
13 11 8 10 0
44 46 45 43 0
34 35 38 33 0
53 50 48 49 0
1 6 3 4 0
29 30 28 -112 0
29 30 28 -111 0
29 30 27 -112 0
29 30 27 -111 0
29 28 27 -112 0
29 28 27 -111 0
17 22 16 -90 0
17 22 16 -89 0
17 22 21 -90 0
17 22 21 -89 0
17 16 21 -90 0
17 16 21 -89 0
61 57 62 -159 0
61 57 62 -160 0
61 57 55 -159 0
61 57 55 -160 0
61 62 55 -159 0
61 62 55 -160 0
13 11 8 -64 0
13 11 8 -63 0
13 11 10 -64 0
13 11 10 -63 0
13 8 10 -64 0
13 8 10 -63 0
44 46 45 -144 0
44 46 45 -143 0
44 46 43 -144 0
44 46 43 -143 0
44 45 43 -144 0
44 45 43 -143 0
34 35 38 -130 0
34 35 38 -129 0
34 35 33 -130 0
34 35 33 -129 0
34 38 33 -130 0
34 38 33 -129 0
53 50 48 -153 0
53 50 48 -154 0
53 50 49 -153 0
53 50 49 -154 0
53 48 49 -153 0
53 48 49 -154 0
1 6 3 -2 0
1 6 3 -5 0
1 6 4 -2 0
1 6 4 -5 0
1 3 4 -2 0
1 3 4 -5 0
30 28 27 -112 0
30 28 27 -111 0
22 16 21 -90 0
22 16 21 -89 0
57 62 55 -159 0
57 62 55 -160 0
11 8 10 -64 0
11 8 10 -63 0
46 45 43 -144 0
46 45 43 -143 0
35 38 33 -130 0
35 38 33 -129 0
50 48 49 -153 0
50 48 49 -154 0
6 3 4 -2 0
6 3 4 -5 0
29 30 28 27 -112 0
29 30 28 27 -91 0
29 30 28 27 -127 0
29 30 28 27 -70 0
29 30 28 27 -118 0
29 30 28 27 -116 0
29 30 28 27 -124 0
29 30 28 27 -24 0
29 30 28 27 -93 0
29 30 28 27 -128 0
29 30 28 27 -71 0
29 30 28 27 -120 0
29 30 28 27 -114 0
29 30 28 27 -121 0
29 30 28 27 -25 0
29 30 28 27 -111 0
29 30 28 27 -92 0
29 30 28 27 -126 0
29 30 28 27 -69 0
29 30 28 27 -117 0
29 30 28 27 -113 0
29 30 28 27 -122 0
29 30 28 27 -23 0
29 30 28 27 -94 0
29 30 28 27 -125 0
29 30 28 27 -72 0
29 30 28 27 -119 0
29 30 28 27 -115 0
29 30 28 27 -123 0
29 30 28 27 -26 0
17 22 16 21 -91 0
17 22 16 21 -93 0
17 22 16 21 -90 0
17 22 16 21 -110 0
17 22 16 21 -68 0
17 22 16 21 -101 0
17 22 16 21 -98 0
17 22 16 21 -103 0
17 22 16 21 -15 0
17 22 16 21 -109 0
17 22 16 21 -66 0
17 22 16 21 -99 0
17 22 16 21 -95 0
17 22 16 21 -104 0
17 22 16 21 -20 0
17 22 16 21 -92 0
17 22 16 21 -94 0
17 22 16 21 -89 0
17 22 16 21 -108 0
17 22 16 21 -65 0
17 22 16 21 -102 0
17 22 16 21 -97 0
17 22 16 21 -105 0
17 22 16 21 -19 0
17 22 16 21 -107 0
17 22 16 21 -67 0
17 22 16 21 -100 0
17 22 16 21 -96 0
17 22 16 21 -106 0
17 22 16 21 -18 0
61 57 62 55 -127 0
61 57 62 55 -110 0
61 57 62 55 -128 0
61 57 62 55 -109 0
61 57 62 55 -159 0
61 57 62 55 -86 0
61 57 62 55 -149 0
61 57 62 55 -139 0
61 57 62 55 -156 0
61 57 62 55 -60 0
61 57 62 55 -88 0
61 57 62 55 -151 0
61 57 62 55 -141 0
61 57 62 55 -157 0
61 57 62 55 -58 0
61 57 62 55 -126 0
61 57 62 55 -108 0
61 57 62 55 -125 0
61 57 62 55 -107 0
61 57 62 55 -160 0
61 57 62 55 -85 0
61 57 62 55 -150 0
61 57 62 55 -142 0
61 57 62 55 -155 0
61 57 62 55 -56 0
61 57 62 55 -87 0
61 57 62 55 -152 0
61 57 62 55 -140 0
61 57 62 55 -158 0
61 57 62 55 -59 0
13 11 8 10 -70 0
13 11 8 10 -68 0
13 11 8 10 -86 0
13 11 8 10 -71 0
13 11 8 10 -66 0
13 11 8 10 -88 0
13 11 8 10 -64 0
13 11 8 10 -79 0
13 11 8 10 -74 0
13 11 8 10 -81 0
13 11 8 10 -12 0
13 11 8 10 -78 0
13 11 8 10 -76 0
13 11 8 10 -82 0
13 11 8 10 -9 0
13 11 8 10 -69 0
13 11 8 10 -65 0
13 11 8 10 -85 0
13 11 8 10 -72 0
13 11 8 10 -67 0
13 11 8 10 -87 0
13 11 8 10 -63 0
13 11 8 10 -77 0
13 11 8 10 -75 0
13 11 8 10 -83 0
13 11 8 10 -7 0
13 11 8 10 -80 0
13 11 8 10 -73 0
13 11 8 10 -84 0
13 11 8 10 -14 0
44 46 45 43 -118 0
44 46 45 43 -101 0
44 46 45 43 -149 0
44 46 45 43 -79 0
44 46 45 43 -120 0
44 46 45 43 -99 0
44 46 45 43 -151 0
44 46 45 43 -78 0
44 46 45 43 -144 0
44 46 45 43 -133 0
44 46 45 43 -148 0
44 46 45 43 -41 0
44 46 45 43 -134 0
44 46 45 43 -145 0
44 46 45 43 -42 0
44 46 45 43 -117 0
44 46 45 43 -102 0
44 46 45 43 -150 0
44 46 45 43 -77 0
44 46 45 43 -119 0
44 46 45 43 -100 0
44 46 45 43 -152 0
44 46 45 43 -80 0
44 46 45 43 -143 0
44 46 45 43 -131 0
44 46 45 43 -146 0
44 46 45 43 -40 0
44 46 45 43 -132 0
44 46 45 43 -147 0
44 46 45 43 -39 0
34 35 38 33 -116 0
34 35 38 33 -98 0
34 35 38 33 -139 0
34 35 38 33 -74 0
34 35 38 33 -133 0
34 35 38 33 -114 0
34 35 38 33 -95 0
34 35 38 33 -141 0
34 35 38 33 -76 0
34 35 38 33 -134 0
34 35 38 33 -130 0
34 35 38 33 -138 0
34 35 38 33 -32 0
34 35 38 33 -135 0
34 35 38 33 -37 0
34 35 38 33 -113 0
34 35 38 33 -97 0
34 35 38 33 -142 0
34 35 38 33 -75 0
34 35 38 33 -131 0
34 35 38 33 -115 0
34 35 38 33 -96 0
34 35 38 33 -140 0
34 35 38 33 -73 0
34 35 38 33 -132 0
34 35 38 33 -129 0
34 35 38 33 -136 0
34 35 38 33 -36 0
34 35 38 33 -137 0
34 35 38 33 -31 0
53 50 48 49 -124 0
53 50 48 49 -103 0
53 50 48 49 -156 0
53 50 48 49 -81 0
53 50 48 49 -148 0
53 50 48 49 -138 0
53 50 48 49 -121 0
53 50 48 49 -104 0
53 50 48 49 -157 0
53 50 48 49 -82 0
53 50 48 49 -145 0
53 50 48 49 -135 0
53 50 48 49 -153 0
53 50 48 49 -51 0
53 50 48 49 -52 0
53 50 48 49 -122 0
53 50 48 49 -105 0
53 50 48 49 -155 0
53 50 48 49 -83 0
53 50 48 49 -146 0
53 50 48 49 -136 0
53 50 48 49 -123 0
53 50 48 49 -106 0
53 50 48 49 -158 0
53 50 48 49 -84 0
53 50 48 49 -147 0
53 50 48 49 -137 0
53 50 48 49 -154 0
53 50 48 49 -54 0
53 50 48 49 -47 0
1 6 3 4 -24 0
1 6 3 4 -15 0
1 6 3 4 -60 0
1 6 3 4 -12 0
1 6 3 4 -41 0
1 6 3 4 -32 0
1 6 3 4 -51 0
1 6 3 4 -25 0
1 6 3 4 -20 0
1 6 3 4 -58 0
1 6 3 4 -9 0
1 6 3 4 -42 0
1 6 3 4 -37 0
1 6 3 4 -52 0
1 6 3 4 -2 0
1 6 3 4 -23 0
1 6 3 4 -19 0
1 6 3 4 -56 0
1 6 3 4 -7 0
1 6 3 4 -40 0
1 6 3 4 -36 0
1 6 3 4 -54 0
1 6 3 4 -26 0
1 6 3 4 -18 0
1 6 3 4 -59 0
1 6 3 4 -14 0
1 6 3 4 -39 0
1 6 3 4 -31 0
1 6 3 4 -47 0
1 6 3 4 -5 0
29 17 30 28 27 -91 0
29 17 30 28 27 -93 0
29 17 30 28 27 -92 0
29 17 30 28 27 -94 0
29 17 22 16 21 -91 0
29 17 22 16 21 -93 0
29 17 22 16 21 -92 0
29 17 22 16 21 -94 0
29 61 30 28 27 -127 0
29 61 30 28 27 -128 0
29 61 30 28 27 -126 0
29 61 30 28 27 -125 0
29 61 57 62 55 -127 0
29 61 57 62 55 -128 0
29 61 57 62 55 -126 0
29 61 57 62 55 -125 0
29 13 30 28 27 -70 0
29 13 30 28 27 -71 0
29 13 30 28 27 -69 0
29 13 30 28 27 -72 0
29 13 11 8 10 -70 0
29 13 11 8 10 -71 0
29 13 11 8 10 -69 0
29 13 11 8 10 -72 0
29 44 30 28 27 -118 0
29 44 30 28 27 -120 0
29 44 30 28 27 -117 0
29 44 30 28 27 -119 0
29 44 46 45 43 -118 0
29 44 46 45 43 -120 0
29 44 46 45 43 -117 0
29 44 46 45 43 -119 0
29 34 30 28 27 -116 0
29 34 30 28 27 -114 0
29 34 30 28 27 -113 0
29 34 30 28 27 -115 0
29 34 35 38 33 -116 0
29 34 35 38 33 -114 0
29 34 35 38 33 -113 0
29 34 35 38 33 -115 0
29 53 30 28 27 -124 0
29 53 30 28 27 -121 0
29 53 30 28 27 -122 0
29 53 30 28 27 -123 0
29 53 50 48 49 -124 0
29 53 50 48 49 -121 0
29 53 50 48 49 -122 0
29 53 50 48 49 -123 0
29 1 30 28 27 -24 0
29 1 30 28 27 -25 0
29 1 30 28 27 -23 0
29 1 30 28 27 -26 0
29 1 6 3 4 -24 0
29 1 6 3 4 -25 0
29 1 6 3 4 -23 0
29 1 6 3 4 -26 0
29 30 22 28 27 -91 0
29 30 22 28 27 -93 0
29 30 22 28 27 -92 0
29 30 22 28 27 -94 0
29 30 57 28 27 -127 0
29 30 57 28 27 -128 0
29 30 57 28 27 -126 0
29 30 57 28 27 -125 0
29 30 11 28 27 -70 0
29 30 11 28 27 -71 0
29 30 11 28 27 -69 0
29 30 11 28 27 -72 0
29 30 46 28 27 -118 0
29 30 46 28 27 -120 0
29 30 46 28 27 -117 0
29 30 46 28 27 -119 0
29 30 35 28 27 -116 0
29 30 35 28 27 -114 0
29 30 35 28 27 -113 0
29 30 35 28 27 -115 0
29 30 50 28 27 -124 0
29 30 50 28 27 -121 0
29 30 50 28 27 -122 0
29 30 50 28 27 -123 0
29 30 6 28 27 -24 0
29 30 6 28 27 -25 0
29 30 6 28 27 -23 0
29 30 6 28 27 -26 0
29 30 28 16 27 -91 0
29 30 28 16 27 -93 0
29 30 28 16 27 -92 0
29 30 28 16 27 -94 0
29 30 28 62 27 -127 0
29 30 28 62 27 -128 0
29 30 28 62 27 -126 0
29 30 28 62 27 -125 0
29 30 28 8 27 -70 0
29 30 28 8 27 -71 0
29 30 28 8 27 -69 0
29 30 28 8 27 -72 0
29 30 28 45 27 -118 0
29 30 28 45 27 -120 0
29 30 28 45 27 -117 0
29 30 28 45 27 -119 0
29 30 28 38 27 -116 0
29 30 28 38 27 -114 0
29 30 28 38 27 -113 0
29 30 28 38 27 -115 0
29 30 28 48 27 -124 0
29 30 28 48 27 -121 0
29 30 28 48 27 -122 0
29 30 28 48 27 -123 0
29 30 28 3 27 -24 0
29 30 28 3 27 -25 0
29 30 28 3 27 -23 0
29 30 28 3 27 -26 0
29 30 28 27 21 -91 0
29 30 28 27 21 -93 0
29 30 28 27 21 -92 0
29 30 28 27 21 -94 0
29 30 28 27 55 -127 0
29 30 28 27 55 -128 0
29 30 28 27 55 -126 0
29 30 28 27 55 -125 0
29 30 28 27 10 -70 0
29 30 28 27 10 -71 0
29 30 28 27 10 -69 0
29 30 28 27 10 -72 0
29 30 28 27 43 -118 0
29 30 28 27 43 -120 0
29 30 28 27 43 -117 0
29 30 28 27 43 -119 0
29 30 28 27 33 -116 0
29 30 28 27 33 -114 0
29 30 28 27 33 -113 0
29 30 28 27 33 -115 0
29 30 28 27 49 -124 0
29 30 28 27 49 -121 0
29 30 28 27 49 -122 0
29 30 28 27 49 -123 0
29 30 28 27 4 -24 0
29 30 28 27 4 -25 0
29 30 28 27 4 -23 0
29 30 28 27 4 -26 0
17 61 22 16 21 -110 0
17 61 22 16 21 -109 0
17 61 22 16 21 -108 0
17 61 22 16 21 -107 0
17 61 57 62 55 -110 0
17 61 57 62 55 -109 0
17 61 57 62 55 -108 0
17 61 57 62 55 -107 0
17 13 22 16 21 -68 0
17 13 22 16 21 -66 0
17 13 22 16 21 -65 0
17 13 22 16 21 -67 0
17 13 11 8 10 -68 0
17 13 11 8 10 -66 0
17 13 11 8 10 -65 0
17 13 11 8 10 -67 0
17 44 22 16 21 -101 0
17 44 22 16 21 -99 0
17 44 22 16 21 -102 0
17 44 22 16 21 -100 0
17 44 46 45 43 -101 0
17 44 46 45 43 -99 0
17 44 46 45 43 -102 0
17 44 46 45 43 -100 0
17 34 22 16 21 -98 0
17 34 22 16 21 -95 0
17 34 22 16 21 -97 0
17 34 22 16 21 -96 0
17 34 35 38 33 -98 0
17 34 35 38 33 -95 0
17 34 35 38 33 -97 0
17 34 35 38 33 -96 0
17 53 22 16 21 -103 0
17 53 22 16 21 -104 0
17 53 22 16 21 -105 0
17 53 22 16 21 -106 0
17 53 50 48 49 -103 0
17 53 50 48 49 -104 0
17 53 50 48 49 -105 0
17 53 50 48 49 -106 0
17 1 22 16 21 -15 0
17 1 22 16 21 -20 0
17 1 22 16 21 -19 0
17 1 22 16 21 -18 0
17 1 6 3 4 -15 0
17 1 6 3 4 -20 0
17 1 6 3 4 -19 0
17 1 6 3 4 -18 0
17 30 22 16 21 -91 0
17 30 22 16 21 -93 0
17 30 22 16 21 -92 0
17 30 22 16 21 -94 0
17 22 57 16 21 -110 0
17 22 57 16 21 -109 0
17 22 57 16 21 -108 0
17 22 57 16 21 -107 0
17 22 11 16 21 -68 0
17 22 11 16 21 -66 0
17 22 11 16 21 -65 0
17 22 11 16 21 -67 0
17 22 46 16 21 -101 0
17 22 46 16 21 -99 0
17 22 46 16 21 -102 0
17 22 46 16 21 -100 0
17 22 35 16 21 -98 0
17 22 35 16 21 -95 0
17 22 35 16 21 -97 0
17 22 35 16 21 -96 0
17 22 50 16 21 -103 0
17 22 50 16 21 -104 0
17 22 50 16 21 -105 0
17 22 50 16 21 -106 0
17 22 6 16 21 -15 0
17 22 6 16 21 -20 0
17 22 6 16 21 -19 0
17 22 6 16 21 -18 0
17 22 28 16 21 -91 0
17 22 28 16 21 -93 0
17 22 28 16 21 -92 0
17 22 28 16 21 -94 0
17 22 16 62 21 -110 0
17 22 16 62 21 -109 0
17 22 16 62 21 -108 0
17 22 16 62 21 -107 0
17 22 16 8 21 -68 0
17 22 16 8 21 -66 0
17 22 16 8 21 -65 0
17 22 16 8 21 -67 0
17 22 16 45 21 -101 0
17 22 16 45 21 -99 0
17 22 16 45 21 -102 0
17 22 16 45 21 -100 0
17 22 16 38 21 -98 0
17 22 16 38 21 -95 0
17 22 16 38 21 -97 0
17 22 16 38 21 -96 0
17 22 16 48 21 -103 0
17 22 16 48 21 -104 0
17 22 16 48 21 -105 0
17 22 16 48 21 -106 0
17 22 16 3 21 -15 0
17 22 16 3 21 -20 0
17 22 16 3 21 -19 0
17 22 16 3 21 -18 0
17 22 16 27 21 -91 0
17 22 16 27 21 -93 0
17 22 16 27 21 -92 0
17 22 16 27 21 -94 0
17 22 16 21 55 -110 0
17 22 16 21 55 -109 0
17 22 16 21 55 -108 0
17 22 16 21 55 -107 0
17 22 16 21 10 -68 0
17 22 16 21 10 -66 0
17 22 16 21 10 -65 0
17 22 16 21 10 -67 0
17 22 16 21 43 -101 0
17 22 16 21 43 -99 0
17 22 16 21 43 -102 0
17 22 16 21 43 -100 0
17 22 16 21 33 -98 0
17 22 16 21 33 -95 0
17 22 16 21 33 -97 0
17 22 16 21 33 -96 0
17 22 16 21 49 -103 0
17 22 16 21 49 -104 0
17 22 16 21 49 -105 0
17 22 16 21 49 -106 0
17 22 16 21 4 -15 0
17 22 16 21 4 -20 0
17 22 16 21 4 -19 0
17 22 16 21 4 -18 0
61 13 57 62 55 -86 0
61 13 57 62 55 -88 0
61 13 57 62 55 -85 0
61 13 57 62 55 -87 0
61 13 11 8 10 -86 0
61 13 11 8 10 -88 0
61 13 11 8 10 -85 0
61 13 11 8 10 -87 0
61 44 57 62 55 -149 0
61 44 57 62 55 -151 0
61 44 57 62 55 -150 0
61 44 57 62 55 -152 0
61 44 46 45 43 -149 0
61 44 46 45 43 -151 0
61 44 46 45 43 -150 0
61 44 46 45 43 -152 0
61 34 57 62 55 -139 0
61 34 57 62 55 -141 0
61 34 57 62 55 -142 0
61 34 57 62 55 -140 0
61 34 35 38 33 -139 0
61 34 35 38 33 -141 0
61 34 35 38 33 -142 0
61 34 35 38 33 -140 0
61 53 57 62 55 -156 0
61 53 57 62 55 -157 0
61 53 57 62 55 -155 0
61 53 57 62 55 -158 0
61 53 50 48 49 -156 0
61 53 50 48 49 -157 0
61 53 50 48 49 -155 0
61 53 50 48 49 -158 0
61 1 57 62 55 -60 0
61 1 57 62 55 -58 0
61 1 57 62 55 -56 0
61 1 57 62 55 -59 0
61 1 6 3 4 -60 0
61 1 6 3 4 -58 0
61 1 6 3 4 -56 0
61 1 6 3 4 -59 0
61 30 57 62 55 -127 0
61 30 57 62 55 -128 0
61 30 57 62 55 -126 0
61 30 57 62 55 -125 0
61 22 57 62 55 -110 0
61 22 57 62 55 -109 0
61 22 57 62 55 -108 0
61 22 57 62 55 -107 0
61 57 11 62 55 -86 0
61 57 11 62 55 -88 0
61 57 11 62 55 -85 0
61 57 11 62 55 -87 0
61 57 46 62 55 -149 0
61 57 46 62 55 -151 0
61 57 46 62 55 -150 0
61 57 46 62 55 -152 0
61 57 35 62 55 -139 0
61 57 35 62 55 -141 0
61 57 35 62 55 -142 0
61 57 35 62 55 -140 0
61 57 50 62 55 -156 0
61 57 50 62 55 -157 0
61 57 50 62 55 -155 0
61 57 50 62 55 -158 0
61 57 6 62 55 -60 0
61 57 6 62 55 -58 0
61 57 6 62 55 -56 0
61 57 6 62 55 -59 0
61 57 28 62 55 -127 0
61 57 28 62 55 -128 0
61 57 28 62 55 -126 0
61 57 28 62 55 -125 0
61 57 16 62 55 -110 0
61 57 16 62 55 -109 0
61 57 16 62 55 -108 0
61 57 16 62 55 -107 0
61 57 62 8 55 -86 0
61 57 62 8 55 -88 0
61 57 62 8 55 -85 0
61 57 62 8 55 -87 0
61 57 62 45 55 -149 0
61 57 62 45 55 -151 0
61 57 62 45 55 -150 0
61 57 62 45 55 -152 0
61 57 62 38 55 -139 0
61 57 62 38 55 -141 0
61 57 62 38 55 -142 0
61 57 62 38 55 -140 0
61 57 62 48 55 -156 0
61 57 62 48 55 -157 0
61 57 62 48 55 -155 0
61 57 62 48 55 -158 0
61 57 62 3 55 -60 0
61 57 62 3 55 -58 0
61 57 62 3 55 -56 0
61 57 62 3 55 -59 0
61 57 62 27 55 -127 0
61 57 62 27 55 -128 0
61 57 62 27 55 -126 0
61 57 62 27 55 -125 0
61 57 62 21 55 -110 0
61 57 62 21 55 -109 0
61 57 62 21 55 -108 0
61 57 62 21 55 -107 0
61 57 62 55 10 -86 0
61 57 62 55 10 -88 0
61 57 62 55 10 -85 0
61 57 62 55 10 -87 0
61 57 62 55 43 -149 0
61 57 62 55 43 -151 0
61 57 62 55 43 -150 0
61 57 62 55 43 -152 0
61 57 62 55 33 -139 0
61 57 62 55 33 -141 0
61 57 62 55 33 -142 0
61 57 62 55 33 -140 0
61 57 62 55 49 -156 0
61 57 62 55 49 -157 0
61 57 62 55 49 -155 0
61 57 62 55 49 -158 0
61 57 62 55 4 -60 0
61 57 62 55 4 -58 0
61 57 62 55 4 -56 0
61 57 62 55 4 -59 0
13 44 11 8 10 -79 0
13 44 11 8 10 -78 0
13 44 11 8 10 -77 0
13 44 11 8 10 -80 0
13 44 46 45 43 -79 0
13 44 46 45 43 -78 0
13 44 46 45 43 -77 0
13 44 46 45 43 -80 0
13 34 11 8 10 -74 0
13 34 11 8 10 -76 0
13 34 11 8 10 -75 0
13 34 11 8 10 -73 0
13 34 35 38 33 -74 0
13 34 35 38 33 -76 0
13 34 35 38 33 -75 0
13 34 35 38 33 -73 0
13 53 11 8 10 -81 0
13 53 11 8 10 -82 0
13 53 11 8 10 -83 0
13 53 11 8 10 -84 0
13 53 50 48 49 -81 0
13 53 50 48 49 -82 0
13 53 50 48 49 -83 0
13 53 50 48 49 -84 0
13 1 11 8 10 -12 0
13 1 11 8 10 -9 0
13 1 11 8 10 -7 0
13 1 11 8 10 -14 0
13 1 6 3 4 -12 0
13 1 6 3 4 -9 0
13 1 6 3 4 -7 0
13 1 6 3 4 -14 0
13 30 11 8 10 -70 0
13 30 11 8 10 -71 0
13 30 11 8 10 -69 0
13 30 11 8 10 -72 0
13 22 11 8 10 -68 0
13 22 11 8 10 -66 0
13 22 11 8 10 -65 0
13 22 11 8 10 -67 0
13 57 11 8 10 -86 0
13 57 11 8 10 -88 0
13 57 11 8 10 -85 0
13 57 11 8 10 -87 0
13 11 46 8 10 -79 0
13 11 46 8 10 -78 0
13 11 46 8 10 -77 0
13 11 46 8 10 -80 0
13 11 35 8 10 -74 0
13 11 35 8 10 -76 0
13 11 35 8 10 -75 0
13 11 35 8 10 -73 0
13 11 50 8 10 -81 0
13 11 50 8 10 -82 0
13 11 50 8 10 -83 0
13 11 50 8 10 -84 0
13 11 6 8 10 -12 0
13 11 6 8 10 -9 0
13 11 6 8 10 -7 0
13 11 6 8 10 -14 0
13 11 28 8 10 -70 0
13 11 28 8 10 -71 0
13 11 28 8 10 -69 0
13 11 28 8 10 -72 0
13 11 16 8 10 -68 0
13 11 16 8 10 -66 0
13 11 16 8 10 -65 0
13 11 16 8 10 -67 0
13 11 62 8 10 -86 0
13 11 62 8 10 -88 0
13 11 62 8 10 -85 0
13 11 62 8 10 -87 0
13 11 8 45 10 -79 0
13 11 8 45 10 -78 0
13 11 8 45 10 -77 0
13 11 8 45 10 -80 0
13 11 8 38 10 -74 0
13 11 8 38 10 -76 0
13 11 8 38 10 -75 0
13 11 8 38 10 -73 0
13 11 8 48 10 -81 0
13 11 8 48 10 -82 0
13 11 8 48 10 -83 0
13 11 8 48 10 -84 0
13 11 8 3 10 -12 0
13 11 8 3 10 -9 0
13 11 8 3 10 -7 0
13 11 8 3 10 -14 0
13 11 8 27 10 -70 0
13 11 8 27 10 -71 0
13 11 8 27 10 -69 0
13 11 8 27 10 -72 0
13 11 8 21 10 -68 0
13 11 8 21 10 -66 0
13 11 8 21 10 -65 0
13 11 8 21 10 -67 0
13 11 8 55 10 -86 0
13 11 8 55 10 -88 0
13 11 8 55 10 -85 0
13 11 8 55 10 -87 0
13 11 8 10 43 -79 0
13 11 8 10 43 -78 0
13 11 8 10 43 -77 0
13 11 8 10 43 -80 0
13 11 8 10 33 -74 0
13 11 8 10 33 -76 0
13 11 8 10 33 -75 0
13 11 8 10 33 -73 0
13 11 8 10 49 -81 0
13 11 8 10 49 -82 0
13 11 8 10 49 -83 0
13 11 8 10 49 -84 0
13 11 8 10 4 -12 0
13 11 8 10 4 -9 0
13 11 8 10 4 -7 0
13 11 8 10 4 -14 0
44 34 46 45 43 -133 0
44 34 46 45 43 -134 0
44 34 46 45 43 -131 0
44 34 46 45 43 -132 0
44 34 35 38 33 -133 0
44 34 35 38 33 -134 0
44 34 35 38 33 -131 0
44 34 35 38 33 -132 0
44 53 46 45 43 -148 0
44 53 46 45 43 -145 0
44 53 46 45 43 -146 0
44 53 46 45 43 -147 0
44 53 50 48 49 -148 0
44 53 50 48 49 -145 0
44 53 50 48 49 -146 0
44 53 50 48 49 -147 0
44 1 46 45 43 -41 0
44 1 46 45 43 -42 0
44 1 46 45 43 -40 0
44 1 46 45 43 -39 0
44 1 6 3 4 -41 0
44 1 6 3 4 -42 0
44 1 6 3 4 -40 0
44 1 6 3 4 -39 0
44 30 46 45 43 -118 0
44 30 46 45 43 -120 0
44 30 46 45 43 -117 0
44 30 46 45 43 -119 0
44 22 46 45 43 -101 0
44 22 46 45 43 -99 0
44 22 46 45 43 -102 0
44 22 46 45 43 -100 0
44 57 46 45 43 -149 0
44 57 46 45 43 -151 0
44 57 46 45 43 -150 0
44 57 46 45 43 -152 0
44 11 46 45 43 -79 0
44 11 46 45 43 -78 0
44 11 46 45 43 -77 0
44 11 46 45 43 -80 0
44 46 35 45 43 -133 0
44 46 35 45 43 -134 0
44 46 35 45 43 -131 0
44 46 35 45 43 -132 0
44 46 50 45 43 -148 0
44 46 50 45 43 -145 0
44 46 50 45 43 -146 0
44 46 50 45 43 -147 0
44 46 6 45 43 -41 0
44 46 6 45 43 -42 0
44 46 6 45 43 -40 0
44 46 6 45 43 -39 0
44 46 28 45 43 -118 0
44 46 28 45 43 -120 0
44 46 28 45 43 -117 0
44 46 28 45 43 -119 0
44 46 16 45 43 -101 0
44 46 16 45 43 -99 0
44 46 16 45 43 -102 0
44 46 16 45 43 -100 0
44 46 62 45 43 -149 0
44 46 62 45 43 -151 0
44 46 62 45 43 -150 0
44 46 62 45 43 -152 0
44 46 8 45 43 -79 0
44 46 8 45 43 -78 0
44 46 8 45 43 -77 0
44 46 8 45 43 -80 0
44 46 45 38 43 -133 0
44 46 45 38 43 -134 0
44 46 45 38 43 -131 0
44 46 45 38 43 -132 0
44 46 45 48 43 -148 0
44 46 45 48 43 -145 0
44 46 45 48 43 -146 0
44 46 45 48 43 -147 0
44 46 45 3 43 -41 0
44 46 45 3 43 -42 0
44 46 45 3 43 -40 0
44 46 45 3 43 -39 0
44 46 45 27 43 -118 0
44 46 45 27 43 -120 0
44 46 45 27 43 -117 0
44 46 45 27 43 -119 0
44 46 45 21 43 -101 0
44 46 45 21 43 -99 0
44 46 45 21 43 -102 0
44 46 45 21 43 -100 0
44 46 45 55 43 -149 0
44 46 45 55 43 -151 0
44 46 45 55 43 -150 0
44 46 45 55 43 -152 0
44 46 45 10 43 -79 0
44 46 45 10 43 -78 0
44 46 45 10 43 -77 0
44 46 45 10 43 -80 0
44 46 45 43 33 -133 0
44 46 45 43 33 -134 0
44 46 45 43 33 -131 0
44 46 45 43 33 -132 0
44 46 45 43 49 -148 0
44 46 45 43 49 -145 0
44 46 45 43 49 -146 0
44 46 45 43 49 -147 0
44 46 45 43 4 -41 0
44 46 45 43 4 -42 0
44 46 45 43 4 -40 0
44 46 45 43 4 -39 0
34 53 35 38 33 -138 0
34 53 35 38 33 -135 0
34 53 35 38 33 -136 0
34 53 35 38 33 -137 0
34 53 50 48 49 -138 0
34 53 50 48 49 -135 0
34 53 50 48 49 -136 0
34 53 50 48 49 -137 0
34 1 35 38 33 -32 0
34 1 35 38 33 -37 0
34 1 35 38 33 -36 0
34 1 35 38 33 -31 0
34 1 6 3 4 -32 0
34 1 6 3 4 -37 0
34 1 6 3 4 -36 0
34 1 6 3 4 -31 0
34 30 35 38 33 -116 0
34 30 35 38 33 -114 0
34 30 35 38 33 -113 0
34 30 35 38 33 -115 0
34 22 35 38 33 -98 0
34 22 35 38 33 -95 0
34 22 35 38 33 -97 0
34 22 35 38 33 -96 0
34 57 35 38 33 -139 0
34 57 35 38 33 -141 0
34 57 35 38 33 -142 0
34 57 35 38 33 -140 0
34 11 35 38 33 -74 0
34 11 35 38 33 -76 0
34 11 35 38 33 -75 0
34 11 35 38 33 -73 0
34 46 35 38 33 -133 0
34 46 35 38 33 -134 0
34 46 35 38 33 -131 0
34 46 35 38 33 -132 0
34 35 50 38 33 -138 0
34 35 50 38 33 -135 0
34 35 50 38 33 -136 0
34 35 50 38 33 -137 0
34 35 6 38 33 -32 0
34 35 6 38 33 -37 0
34 35 6 38 33 -36 0
34 35 6 38 33 -31 0
34 35 28 38 33 -116 0
34 35 28 38 33 -114 0
34 35 28 38 33 -113 0
34 35 28 38 33 -115 0
34 35 16 38 33 -98 0
34 35 16 38 33 -95 0
34 35 16 38 33 -97 0
34 35 16 38 33 -96 0
34 35 62 38 33 -139 0
34 35 62 38 33 -141 0
34 35 62 38 33 -142 0
34 35 62 38 33 -140 0
34 35 8 38 33 -74 0
34 35 8 38 33 -76 0
34 35 8 38 33 -75 0
34 35 8 38 33 -73 0
34 35 45 38 33 -133 0
34 35 45 38 33 -134 0
34 35 45 38 33 -131 0
34 35 45 38 33 -132 0
34 35 38 48 33 -138 0
34 35 38 48 33 -135 0
34 35 38 48 33 -136 0
34 35 38 48 33 -137 0
34 35 38 3 33 -32 0
34 35 38 3 33 -37 0
34 35 38 3 33 -36 0
34 35 38 3 33 -31 0
34 35 38 27 33 -116 0
34 35 38 27 33 -114 0
34 35 38 27 33 -113 0
34 35 38 27 33 -115 0
34 35 38 21 33 -98 0
34 35 38 21 33 -95 0
34 35 38 21 33 -97 0
34 35 38 21 33 -96 0
34 35 38 55 33 -139 0
34 35 38 55 33 -141 0
34 35 38 55 33 -142 0
34 35 38 55 33 -140 0
34 35 38 10 33 -74 0
34 35 38 10 33 -76 0
34 35 38 10 33 -75 0
34 35 38 10 33 -73 0
34 35 38 43 33 -133 0
34 35 38 43 33 -134 0
34 35 38 43 33 -131 0
34 35 38 43 33 -132 0
34 35 38 33 49 -138 0
34 35 38 33 49 -135 0
34 35 38 33 49 -136 0
34 35 38 33 49 -137 0
34 35 38 33 4 -32 0
34 35 38 33 4 -37 0
34 35 38 33 4 -36 0
34 35 38 33 4 -31 0
53 1 50 48 49 -51 0
53 1 50 48 49 -52 0
53 1 50 48 49 -54 0
53 1 50 48 49 -47 0
53 1 6 3 4 -51 0
53 1 6 3 4 -52 0
53 1 6 3 4 -54 0
53 1 6 3 4 -47 0
53 30 50 48 49 -124 0
53 30 50 48 49 -121 0
53 30 50 48 49 -122 0
53 30 50 48 49 -123 0
53 22 50 48 49 -103 0
53 22 50 48 49 -104 0
53 22 50 48 49 -105 0
53 22 50 48 49 -106 0
53 57 50 48 49 -156 0
53 57 50 48 49 -157 0
53 57 50 48 49 -155 0
53 57 50 48 49 -158 0
53 11 50 48 49 -81 0
53 11 50 48 49 -82 0
53 11 50 48 49 -83 0
53 11 50 48 49 -84 0
53 46 50 48 49 -148 0
53 46 50 48 49 -145 0
53 46 50 48 49 -146 0
53 46 50 48 49 -147 0
53 35 50 48 49 -138 0
53 35 50 48 49 -135 0
53 35 50 48 49 -136 0
53 35 50 48 49 -137 0
53 50 6 48 49 -51 0
53 50 6 48 49 -52 0
53 50 6 48 49 -54 0
53 50 6 48 49 -47 0
53 50 28 48 49 -124 0
53 50 28 48 49 -121 0
53 50 28 48 49 -122 0
53 50 28 48 49 -123 0
53 50 16 48 49 -103 0
53 50 16 48 49 -104 0
53 50 16 48 49 -105 0
53 50 16 48 49 -106 0
53 50 62 48 49 -156 0
53 50 62 48 49 -157 0
53 50 62 48 49 -155 0
53 50 62 48 49 -158 0
53 50 8 48 49 -81 0
53 50 8 48 49 -82 0
53 50 8 48 49 -83 0
53 50 8 48 49 -84 0
53 50 45 48 49 -148 0
53 50 45 48 49 -145 0
53 50 45 48 49 -146 0
53 50 45 48 49 -147 0
53 50 38 48 49 -138 0
53 50 38 48 49 -135 0
53 50 38 48 49 -136 0
53 50 38 48 49 -137 0
53 50 48 3 49 -51 0
53 50 48 3 49 -52 0
53 50 48 3 49 -54 0
53 50 48 3 49 -47 0
53 50 48 27 49 -124 0
53 50 48 27 49 -121 0
53 50 48 27 49 -122 0
53 50 48 27 49 -123 0
53 50 48 21 49 -103 0
53 50 48 21 49 -104 0
53 50 48 21 49 -105 0
53 50 48 21 49 -106 0
53 50 48 55 49 -156 0
53 50 48 55 49 -157 0
53 50 48 55 49 -155 0
53 50 48 55 49 -158 0
53 50 48 10 49 -81 0
53 50 48 10 49 -82 0
53 50 48 10 49 -83 0
53 50 48 10 49 -84 0
53 50 48 43 49 -148 0
53 50 48 43 49 -145 0
53 50 48 43 49 -146 0
53 50 48 43 49 -147 0
53 50 48 33 49 -138 0
53 50 48 33 49 -135 0
53 50 48 33 49 -136 0
53 50 48 33 49 -137 0
53 50 48 49 4 -51 0
53 50 48 49 4 -52 0
53 50 48 49 4 -54 0
53 50 48 49 4 -47 0
1 30 6 3 4 -24 0
1 30 6 3 4 -25 0
1 30 6 3 4 -23 0
1 30 6 3 4 -26 0
1 22 6 3 4 -15 0
1 22 6 3 4 -20 0
1 22 6 3 4 -19 0
1 22 6 3 4 -18 0
1 57 6 3 4 -60 0
1 57 6 3 4 -58 0
1 57 6 3 4 -56 0
1 57 6 3 4 -59 0
1 11 6 3 4 -12 0
1 11 6 3 4 -9 0
1 11 6 3 4 -7 0
1 11 6 3 4 -14 0
1 46 6 3 4 -41 0
1 46 6 3 4 -42 0
1 46 6 3 4 -40 0
1 46 6 3 4 -39 0
1 35 6 3 4 -32 0
1 35 6 3 4 -37 0
1 35 6 3 4 -36 0
1 35 6 3 4 -31 0
1 50 6 3 4 -51 0
1 50 6 3 4 -52 0
1 50 6 3 4 -54 0
1 50 6 3 4 -47 0
1 6 28 3 4 -24 0
1 6 28 3 4 -25 0
1 6 28 3 4 -23 0
1 6 28 3 4 -26 0
1 6 16 3 4 -15 0
1 6 16 3 4 -20 0
1 6 16 3 4 -19 0
1 6 16 3 4 -18 0
1 6 62 3 4 -60 0
1 6 62 3 4 -58 0
1 6 62 3 4 -56 0
1 6 62 3 4 -59 0
1 6 8 3 4 -12 0
1 6 8 3 4 -9 0
1 6 8 3 4 -7 0
1 6 8 3 4 -14 0
1 6 45 3 4 -41 0
1 6 45 3 4 -42 0
1 6 45 3 4 -40 0
1 6 45 3 4 -39 0
1 6 38 3 4 -32 0
1 6 38 3 4 -37 0
1 6 38 3 4 -36 0
1 6 38 3 4 -31 0
1 6 48 3 4 -51 0
1 6 48 3 4 -52 0
1 6 48 3 4 -54 0
1 6 48 3 4 -47 0
1 6 3 27 4 -24 0
1 6 3 27 4 -25 0
1 6 3 27 4 -23 0
1 6 3 27 4 -26 0
1 6 3 21 4 -15 0
1 6 3 21 4 -20 0
1 6 3 21 4 -19 0
1 6 3 21 4 -18 0
1 6 3 55 4 -60 0
1 6 3 55 4 -58 0
1 6 3 55 4 -56 0
1 6 3 55 4 -59 0
1 6 3 10 4 -12 0
1 6 3 10 4 -9 0
1 6 3 10 4 -7 0
1 6 3 10 4 -14 0
1 6 3 43 4 -41 0
1 6 3 43 4 -42 0
1 6 3 43 4 -40 0
1 6 3 43 4 -39 0
1 6 3 33 4 -32 0
1 6 3 33 4 -37 0
1 6 3 33 4 -36 0
1 6 3 33 4 -31 0
1 6 3 49 4 -51 0
1 6 3 49 4 -52 0
1 6 3 49 4 -54 0
1 6 3 49 4 -47 0
29 17 30 22 28 16 -91 0
29 17 30 22 28 16 -93 0
29 17 30 22 28 16 -92 0
29 17 30 22 28 16 -94 0
29 17 30 22 28 27 -91 0
29 17 30 22 28 27 -93 0
29 17 30 22 28 27 -92 0
29 17 30 22 28 27 -94 0
29 17 30 22 16 21 -91 0
29 17 30 22 16 21 -93 0
29 17 30 22 16 21 -92 0
29 17 30 22 16 21 -94 0
29 17 30 22 27 21 -91 0
29 17 30 22 27 21 -93 0
29 17 30 22 27 21 -92 0
29 17 30 22 27 21 -94 0
29 17 30 28 16 27 -91 0
29 17 30 28 16 27 -93 0
29 17 30 28 16 27 -92 0
29 17 30 28 16 27 -94 0
29 17 30 28 27 21 -91 0
29 17 30 28 27 21 -93 0
29 17 30 28 27 21 -92 0
29 17 30 28 27 21 -94 0
29 17 22 28 16 21 -91 0
29 17 22 28 16 21 -93 0
29 17 22 28 16 21 -92 0
29 17 22 28 16 21 -94 0
29 17 22 16 27 21 -91 0
29 17 22 16 27 21 -93 0
29 17 22 16 27 21 -92 0
29 17 22 16 27 21 -94 0
29 17 28 16 27 21 -91 0
29 17 28 16 27 21 -93 0
29 17 28 16 27 21 -92 0
29 17 28 16 27 21 -94 0
29 61 30 57 28 62 -127 0
29 61 30 57 28 62 -128 0
29 61 30 57 28 62 -126 0
29 61 30 57 28 62 -125 0
29 61 30 57 28 27 -127 0
29 61 30 57 28 27 -128 0
29 61 30 57 28 27 -126 0
29 61 30 57 28 27 -125 0
29 61 30 57 62 55 -127 0
29 61 30 57 62 55 -128 0
29 61 30 57 62 55 -126 0
29 61 30 57 62 55 -125 0
29 61 30 57 27 55 -127 0
29 61 30 57 27 55 -128 0
29 61 30 57 27 55 -126 0
29 61 30 57 27 55 -125 0
29 61 30 28 62 27 -127 0
29 61 30 28 62 27 -128 0
29 61 30 28 62 27 -126 0
29 61 30 28 62 27 -125 0
29 61 30 28 27 55 -127 0
29 61 30 28 27 55 -128 0
29 61 30 28 27 55 -126 0
29 61 30 28 27 55 -125 0
29 61 57 28 62 55 -127 0
29 61 57 28 62 55 -128 0
29 61 57 28 62 55 -126 0
29 61 57 28 62 55 -125 0
29 61 57 62 27 55 -127 0
29 61 57 62 27 55 -128 0
29 61 57 62 27 55 -126 0
29 61 57 62 27 55 -125 0
29 61 28 62 27 55 -127 0
29 61 28 62 27 55 -128 0
29 61 28 62 27 55 -126 0
29 61 28 62 27 55 -125 0
29 13 30 11 28 8 -70 0
29 13 30 11 28 8 -71 0
29 13 30 11 28 8 -69 0
29 13 30 11 28 8 -72 0
29 13 30 11 28 27 -70 0
29 13 30 11 28 27 -71 0
29 13 30 11 28 27 -69 0
29 13 30 11 28 27 -72 0
29 13 30 11 8 10 -70 0
29 13 30 11 8 10 -71 0
29 13 30 11 8 10 -69 0
29 13 30 11 8 10 -72 0
29 13 30 11 27 10 -70 0
29 13 30 11 27 10 -71 0
29 13 30 11 27 10 -69 0
29 13 30 11 27 10 -72 0
29 13 30 28 8 27 -70 0
29 13 30 28 8 27 -71 0
29 13 30 28 8 27 -69 0
29 13 30 28 8 27 -72 0
29 13 30 28 27 10 -70 0
29 13 30 28 27 10 -71 0
29 13 30 28 27 10 -69 0
29 13 30 28 27 10 -72 0
29 13 11 28 8 10 -70 0
29 13 11 28 8 10 -71 0
29 13 11 28 8 10 -69 0
29 13 11 28 8 10 -72 0
29 13 11 8 27 10 -70 0
29 13 11 8 27 10 -71 0
29 13 11 8 27 10 -69 0
29 13 11 8 27 10 -72 0
29 13 28 8 27 10 -70 0
29 13 28 8 27 10 -71 0
29 13 28 8 27 10 -69 0
29 13 28 8 27 10 -72 0
29 44 30 46 28 45 -118 0
29 44 30 46 28 45 -120 0
29 44 30 46 28 45 -117 0
29 44 30 46 28 45 -119 0
29 44 30 46 28 27 -118 0
29 44 30 46 28 27 -120 0
29 44 30 46 28 27 -117 0
29 44 30 46 28 27 -119 0
29 44 30 46 45 43 -118 0
29 44 30 46 45 43 -120 0
29 44 30 46 45 43 -117 0
29 44 30 46 45 43 -119 0
29 44 30 46 27 43 -118 0
29 44 30 46 27 43 -120 0
29 44 30 46 27 43 -117 0
29 44 30 46 27 43 -119 0
29 44 30 28 45 27 -118 0
29 44 30 28 45 27 -120 0
29 44 30 28 45 27 -117 0
29 44 30 28 45 27 -119 0
29 44 30 28 27 43 -118 0
29 44 30 28 27 43 -120 0
29 44 30 28 27 43 -117 0
29 44 30 28 27 43 -119 0
29 44 46 28 45 43 -118 0
29 44 46 28 45 43 -120 0
29 44 46 28 45 43 -117 0
29 44 46 28 45 43 -119 0
29 44 46 45 27 43 -118 0
29 44 46 45 27 43 -120 0
29 44 46 45 27 43 -117 0
29 44 46 45 27 43 -119 0
29 44 28 45 27 43 -118 0
29 44 28 45 27 43 -120 0
29 44 28 45 27 43 -117 0
29 44 28 45 27 43 -119 0
29 34 30 35 28 38 -116 0
29 34 30 35 28 38 -114 0
29 34 30 35 28 38 -113 0
29 34 30 35 28 38 -115 0
29 34 30 35 28 27 -116 0
29 34 30 35 28 27 -114 0
29 34 30 35 28 27 -113 0
29 34 30 35 28 27 -115 0
29 34 30 35 38 33 -116 0
29 34 30 35 38 33 -114 0
29 34 30 35 38 33 -113 0
29 34 30 35 38 33 -115 0
29 34 30 35 27 33 -116 0
29 34 30 35 27 33 -114 0
29 34 30 35 27 33 -113 0
29 34 30 35 27 33 -115 0
29 34 30 28 38 27 -116 0
29 34 30 28 38 27 -114 0
29 34 30 28 38 27 -113 0
29 34 30 28 38 27 -115 0
29 34 30 28 27 33 -116 0
29 34 30 28 27 33 -114 0
29 34 30 28 27 33 -113 0
29 34 30 28 27 33 -115 0
29 34 35 28 38 33 -116 0
29 34 35 28 38 33 -114 0
29 34 35 28 38 33 -113 0
29 34 35 28 38 33 -115 0
29 34 35 38 27 33 -116 0
29 34 35 38 27 33 -114 0
29 34 35 38 27 33 -113 0
29 34 35 38 27 33 -115 0
29 34 28 38 27 33 -116 0
29 34 28 38 27 33 -114 0
29 34 28 38 27 33 -113 0
29 34 28 38 27 33 -115 0
29 53 30 50 28 48 -124 0
29 53 30 50 28 48 -121 0
29 53 30 50 28 48 -122 0
29 53 30 50 28 48 -123 0
29 53 30 50 28 27 -124 0
29 53 30 50 28 27 -121 0
29 53 30 50 28 27 -122 0
29 53 30 50 28 27 -123 0
29 53 30 50 48 49 -124 0
29 53 30 50 48 49 -121 0
29 53 30 50 48 49 -122 0
29 53 30 50 48 49 -123 0
29 53 30 50 27 49 -124 0
29 53 30 50 27 49 -121 0
29 53 30 50 27 49 -122 0
29 53 30 50 27 49 -123 0
29 53 30 28 48 27 -124 0
29 53 30 28 48 27 -121 0
29 53 30 28 48 27 -122 0
29 53 30 28 48 27 -123 0
29 53 30 28 27 49 -124 0
29 53 30 28 27 49 -121 0
29 53 30 28 27 49 -122 0
29 53 30 28 27 49 -123 0
29 53 50 28 48 49 -124 0
29 53 50 28 48 49 -121 0
29 53 50 28 48 49 -122 0
29 53 50 28 48 49 -123 0
29 53 50 48 27 49 -124 0
29 53 50 48 27 49 -121 0
29 53 50 48 27 49 -122 0
29 53 50 48 27 49 -123 0
29 53 28 48 27 49 -124 0
29 53 28 48 27 49 -121 0
29 53 28 48 27 49 -122 0
29 53 28 48 27 49 -123 0
29 1 30 6 28 3 -24 0
29 1 30 6 28 3 -25 0
29 1 30 6 28 3 -23 0
29 1 30 6 28 3 -26 0
29 1 30 6 28 27 -24 0
29 1 30 6 28 27 -25 0
29 1 30 6 28 27 -23 0
29 1 30 6 28 27 -26 0
29 1 30 6 3 4 -24 0
29 1 30 6 3 4 -25 0
29 1 30 6 3 4 -23 0
29 1 30 6 3 4 -26 0
29 1 30 6 27 4 -24 0
29 1 30 6 27 4 -25 0
29 1 30 6 27 4 -23 0
29 1 30 6 27 4 -26 0
29 1 30 28 3 27 -24 0
29 1 30 28 3 27 -25 0
29 1 30 28 3 27 -23 0
29 1 30 28 3 27 -26 0
29 1 30 28 27 4 -24 0
29 1 30 28 27 4 -25 0
29 1 30 28 27 4 -23 0
29 1 30 28 27 4 -26 0
29 1 6 28 3 4 -24 0
29 1 6 28 3 4 -25 0
29 1 6 28 3 4 -23 0
29 1 6 28 3 4 -26 0
29 1 6 3 27 4 -24 0
29 1 6 3 27 4 -25 0
29 1 6 3 27 4 -23 0
29 1 6 3 27 4 -26 0
29 1 28 3 27 4 -24 0
29 1 28 3 27 4 -25 0
29 1 28 3 27 4 -23 0
29 1 28 3 27 4 -26 0
29 30 22 28 16 27 -91 0
29 30 22 28 16 27 -93 0
29 30 22 28 16 27 -92 0
29 30 22 28 16 27 -94 0
29 30 22 28 27 21 -91 0
29 30 22 28 27 21 -93 0
29 30 22 28 27 21 -92 0
29 30 22 28 27 21 -94 0
29 30 57 28 62 27 -127 0
29 30 57 28 62 27 -128 0
29 30 57 28 62 27 -126 0
29 30 57 28 62 27 -125 0
29 30 57 28 27 55 -127 0
29 30 57 28 27 55 -128 0
29 30 57 28 27 55 -126 0
29 30 57 28 27 55 -125 0
29 30 11 28 8 27 -70 0
29 30 11 28 8 27 -71 0
29 30 11 28 8 27 -69 0
29 30 11 28 8 27 -72 0
29 30 11 28 27 10 -70 0
29 30 11 28 27 10 -71 0
29 30 11 28 27 10 -69 0
29 30 11 28 27 10 -72 0
29 30 46 28 45 27 -118 0
29 30 46 28 45 27 -120 0
29 30 46 28 45 27 -117 0
29 30 46 28 45 27 -119 0
29 30 46 28 27 43 -118 0
29 30 46 28 27 43 -120 0
29 30 46 28 27 43 -117 0
29 30 46 28 27 43 -119 0
29 30 35 28 38 27 -116 0
29 30 35 28 38 27 -114 0
29 30 35 28 38 27 -113 0
29 30 35 28 38 27 -115 0
29 30 35 28 27 33 -116 0
29 30 35 28 27 33 -114 0
29 30 35 28 27 33 -113 0
29 30 35 28 27 33 -115 0
29 30 50 28 48 27 -124 0
29 30 50 28 48 27 -121 0
29 30 50 28 48 27 -122 0
29 30 50 28 48 27 -123 0
29 30 50 28 27 49 -124 0
29 30 50 28 27 49 -121 0
29 30 50 28 27 49 -122 0
29 30 50 28 27 49 -123 0
29 30 6 28 3 27 -24 0
29 30 6 28 3 27 -25 0
29 30 6 28 3 27 -23 0
29 30 6 28 3 27 -26 0
29 30 6 28 27 4 -24 0
29 30 6 28 27 4 -25 0
29 30 6 28 27 4 -23 0
29 30 6 28 27 4 -26 0
29 30 28 16 27 21 -91 0
29 30 28 16 27 21 -93 0
29 30 28 16 27 21 -92 0
29 30 28 16 27 21 -94 0
29 30 28 62 27 55 -127 0
29 30 28 62 27 55 -128 0
29 30 28 62 27 55 -126 0
29 30 28 62 27 55 -125 0
29 30 28 8 27 10 -70 0
29 30 28 8 27 10 -71 0
29 30 28 8 27 10 -69 0
29 30 28 8 27 10 -72 0
29 30 28 45 27 43 -118 0
29 30 28 45 27 43 -120 0
29 30 28 45 27 43 -117 0
29 30 28 45 27 43 -119 0
29 30 28 38 27 33 -116 0
29 30 28 38 27 33 -114 0
29 30 28 38 27 33 -113 0
29 30 28 38 27 33 -115 0
29 30 28 48 27 49 -124 0
29 30 28 48 27 49 -121 0
29 30 28 48 27 49 -122 0
29 30 28 48 27 49 -123 0
29 30 28 3 27 4 -24 0
29 30 28 3 27 4 -25 0
29 30 28 3 27 4 -23 0
29 30 28 3 27 4 -26 0
17 61 22 57 16 62 -110 0
17 61 22 57 16 62 -109 0
17 61 22 57 16 62 -108 0
17 61 22 57 16 62 -107 0
17 61 22 57 16 21 -110 0
17 61 22 57 16 21 -109 0
17 61 22 57 16 21 -108 0
17 61 22 57 16 21 -107 0
17 61 22 57 62 55 -110 0
17 61 22 57 62 55 -109 0
17 61 22 57 62 55 -108 0
17 61 22 57 62 55 -107 0
17 61 22 57 21 55 -110 0
17 61 22 57 21 55 -109 0
17 61 22 57 21 55 -108 0
17 61 22 57 21 55 -107 0
17 61 22 16 62 21 -110 0
17 61 22 16 62 21 -109 0
17 61 22 16 62 21 -108 0
17 61 22 16 62 21 -107 0
17 61 22 16 21 55 -110 0
17 61 22 16 21 55 -109 0
17 61 22 16 21 55 -108 0
17 61 22 16 21 55 -107 0
17 61 57 16 62 55 -110 0
17 61 57 16 62 55 -109 0
17 61 57 16 62 55 -108 0
17 61 57 16 62 55 -107 0
17 61 57 62 21 55 -110 0
17 61 57 62 21 55 -109 0
17 61 57 62 21 55 -108 0
17 61 57 62 21 55 -107 0
17 61 16 62 21 55 -110 0
17 61 16 62 21 55 -109 0
17 61 16 62 21 55 -108 0
17 61 16 62 21 55 -107 0
17 13 22 11 16 8 -68 0
17 13 22 11 16 8 -66 0
17 13 22 11 16 8 -65 0
17 13 22 11 16 8 -67 0
17 13 22 11 16 21 -68 0
17 13 22 11 16 21 -66 0
17 13 22 11 16 21 -65 0
17 13 22 11 16 21 -67 0
17 13 22 11 8 10 -68 0
17 13 22 11 8 10 -66 0
17 13 22 11 8 10 -65 0
17 13 22 11 8 10 -67 0
17 13 22 11 21 10 -68 0
17 13 22 11 21 10 -66 0
17 13 22 11 21 10 -65 0
17 13 22 11 21 10 -67 0
17 13 22 16 8 21 -68 0
17 13 22 16 8 21 -66 0
17 13 22 16 8 21 -65 0
17 13 22 16 8 21 -67 0
17 13 22 16 21 10 -68 0
17 13 22 16 21 10 -66 0
17 13 22 16 21 10 -65 0
17 13 22 16 21 10 -67 0
17 13 11 16 8 10 -68 0
17 13 11 16 8 10 -66 0
17 13 11 16 8 10 -65 0
17 13 11 16 8 10 -67 0
17 13 11 8 21 10 -68 0
17 13 11 8 21 10 -66 0
17 13 11 8 21 10 -65 0
17 13 11 8 21 10 -67 0
17 13 16 8 21 10 -68 0
17 13 16 8 21 10 -66 0
17 13 16 8 21 10 -65 0
17 13 16 8 21 10 -67 0
17 44 22 46 16 45 -101 0
17 44 22 46 16 45 -99 0
17 44 22 46 16 45 -102 0
17 44 22 46 16 45 -100 0
17 44 22 46 16 21 -101 0
17 44 22 46 16 21 -99 0
17 44 22 46 16 21 -102 0
17 44 22 46 16 21 -100 0
17 44 22 46 45 43 -101 0
17 44 22 46 45 43 -99 0
17 44 22 46 45 43 -102 0
17 44 22 46 45 43 -100 0
17 44 22 46 21 43 -101 0
17 44 22 46 21 43 -99 0
17 44 22 46 21 43 -102 0
17 44 22 46 21 43 -100 0
17 44 22 16 45 21 -101 0
17 44 22 16 45 21 -99 0
17 44 22 16 45 21 -102 0
17 44 22 16 45 21 -100 0
17 44 22 16 21 43 -101 0
17 44 22 16 21 43 -99 0
17 44 22 16 21 43 -102 0
17 44 22 16 21 43 -100 0
17 44 46 16 45 43 -101 0
17 44 46 16 45 43 -99 0
17 44 46 16 45 43 -102 0
17 44 46 16 45 43 -100 0
17 44 46 45 21 43 -101 0
17 44 46 45 21 43 -99 0
17 44 46 45 21 43 -102 0
17 44 46 45 21 43 -100 0
17 44 16 45 21 43 -101 0
17 44 16 45 21 43 -99 0
17 44 16 45 21 43 -102 0
17 44 16 45 21 43 -100 0
17 34 22 35 16 38 -98 0
17 34 22 35 16 38 -95 0
17 34 22 35 16 38 -97 0
17 34 22 35 16 38 -96 0
17 34 22 35 16 21 -98 0
17 34 22 35 16 21 -95 0
17 34 22 35 16 21 -97 0
17 34 22 35 16 21 -96 0
17 34 22 35 38 33 -98 0
17 34 22 35 38 33 -95 0
17 34 22 35 38 33 -97 0
17 34 22 35 38 33 -96 0
17 34 22 35 21 33 -98 0
17 34 22 35 21 33 -95 0
17 34 22 35 21 33 -97 0
17 34 22 35 21 33 -96 0
17 34 22 16 38 21 -98 0
17 34 22 16 38 21 -95 0
17 34 22 16 38 21 -97 0
17 34 22 16 38 21 -96 0
17 34 22 16 21 33 -98 0
17 34 22 16 21 33 -95 0
17 34 22 16 21 33 -97 0
17 34 22 16 21 33 -96 0
17 34 35 16 38 33 -98 0
17 34 35 16 38 33 -95 0
17 34 35 16 38 33 -97 0
17 34 35 16 38 33 -96 0
17 34 35 38 21 33 -98 0
17 34 35 38 21 33 -95 0
17 34 35 38 21 33 -97 0
17 34 35 38 21 33 -96 0
17 34 16 38 21 33 -98 0
17 34 16 38 21 33 -95 0
17 34 16 38 21 33 -97 0
17 34 16 38 21 33 -96 0
17 53 22 50 16 48 -103 0
17 53 22 50 16 48 -104 0
17 53 22 50 16 48 -105 0
17 53 22 50 16 48 -106 0
17 53 22 50 16 21 -103 0
17 53 22 50 16 21 -104 0
17 53 22 50 16 21 -105 0
17 53 22 50 16 21 -106 0
17 53 22 50 48 49 -103 0
17 53 22 50 48 49 -104 0
17 53 22 50 48 49 -105 0
17 53 22 50 48 49 -106 0
17 53 22 50 21 49 -103 0
17 53 22 50 21 49 -104 0
17 53 22 50 21 49 -105 0
17 53 22 50 21 49 -106 0
17 53 22 16 48 21 -103 0
17 53 22 16 48 21 -104 0
17 53 22 16 48 21 -105 0
17 53 22 16 48 21 -106 0
17 53 22 16 21 49 -103 0
17 53 22 16 21 49 -104 0
17 53 22 16 21 49 -105 0
17 53 22 16 21 49 -106 0
17 53 50 16 48 49 -103 0
17 53 50 16 48 49 -104 0
17 53 50 16 48 49 -105 0
17 53 50 16 48 49 -106 0
17 53 50 48 21 49 -103 0
17 53 50 48 21 49 -104 0
17 53 50 48 21 49 -105 0
17 53 50 48 21 49 -106 0
17 53 16 48 21 49 -103 0
17 53 16 48 21 49 -104 0
17 53 16 48 21 49 -105 0
17 53 16 48 21 49 -106 0
17 1 22 6 16 3 -15 0
17 1 22 6 16 3 -20 0
17 1 22 6 16 3 -19 0
17 1 22 6 16 3 -18 0
17 1 22 6 16 21 -15 0
17 1 22 6 16 21 -20 0
17 1 22 6 16 21 -19 0
17 1 22 6 16 21 -18 0
17 1 22 6 3 4 -15 0
17 1 22 6 3 4 -20 0
17 1 22 6 3 4 -19 0
17 1 22 6 3 4 -18 0
17 1 22 6 21 4 -15 0
17 1 22 6 21 4 -20 0
17 1 22 6 21 4 -19 0
17 1 22 6 21 4 -18 0
17 1 22 16 3 21 -15 0
17 1 22 16 3 21 -20 0
17 1 22 16 3 21 -19 0
17 1 22 16 3 21 -18 0
17 1 22 16 21 4 -15 0
17 1 22 16 21 4 -20 0
17 1 22 16 21 4 -19 0
17 1 22 16 21 4 -18 0
17 1 6 16 3 4 -15 0
17 1 6 16 3 4 -20 0
17 1 6 16 3 4 -19 0
17 1 6 16 3 4 -18 0
17 1 6 3 21 4 -15 0
17 1 6 3 21 4 -20 0
17 1 6 3 21 4 -19 0
17 1 6 3 21 4 -18 0
17 1 16 3 21 4 -15 0
17 1 16 3 21 4 -20 0
17 1 16 3 21 4 -19 0
17 1 16 3 21 4 -18 0
17 30 22 28 16 21 -91 0
17 30 22 28 16 21 -93 0
17 30 22 28 16 21 -92 0
17 30 22 28 16 21 -94 0
17 30 22 16 27 21 -91 0
17 30 22 16 27 21 -93 0
17 30 22 16 27 21 -92 0
17 30 22 16 27 21 -94 0
17 22 57 16 62 21 -110 0
17 22 57 16 62 21 -109 0
17 22 57 16 62 21 -108 0
17 22 57 16 62 21 -107 0
17 22 57 16 21 55 -110 0
17 22 57 16 21 55 -109 0
17 22 57 16 21 55 -108 0
17 22 57 16 21 55 -107 0
17 22 11 16 8 21 -68 0
17 22 11 16 8 21 -66 0
17 22 11 16 8 21 -65 0
17 22 11 16 8 21 -67 0
17 22 11 16 21 10 -68 0
17 22 11 16 21 10 -66 0
17 22 11 16 21 10 -65 0
17 22 11 16 21 10 -67 0
17 22 46 16 45 21 -101 0
17 22 46 16 45 21 -99 0
17 22 46 16 45 21 -102 0
17 22 46 16 45 21 -100 0
17 22 46 16 21 43 -101 0
17 22 46 16 21 43 -99 0
17 22 46 16 21 43 -102 0
17 22 46 16 21 43 -100 0
17 22 35 16 38 21 -98 0
17 22 35 16 38 21 -95 0
17 22 35 16 38 21 -97 0
17 22 35 16 38 21 -96 0
17 22 35 16 21 33 -98 0
17 22 35 16 21 33 -95 0
17 22 35 16 21 33 -97 0
17 22 35 16 21 33 -96 0
17 22 50 16 48 21 -103 0
17 22 50 16 48 21 -104 0
17 22 50 16 48 21 -105 0
17 22 50 16 48 21 -106 0
17 22 50 16 21 49 -103 0
17 22 50 16 21 49 -104 0
17 22 50 16 21 49 -105 0
17 22 50 16 21 49 -106 0
17 22 6 16 3 21 -15 0
17 22 6 16 3 21 -20 0
17 22 6 16 3 21 -19 0
17 22 6 16 3 21 -18 0
17 22 6 16 21 4 -15 0
17 22 6 16 21 4 -20 0
17 22 6 16 21 4 -19 0
17 22 6 16 21 4 -18 0
17 22 28 16 27 21 -91 0
17 22 28 16 27 21 -93 0
17 22 28 16 27 21 -92 0
17 22 28 16 27 21 -94 0
17 22 16 62 21 55 -110 0
17 22 16 62 21 55 -109 0
17 22 16 62 21 55 -108 0
17 22 16 62 21 55 -107 0
17 22 16 8 21 10 -68 0
17 22 16 8 21 10 -66 0
17 22 16 8 21 10 -65 0
17 22 16 8 21 10 -67 0
17 22 16 45 21 43 -101 0
17 22 16 45 21 43 -99 0
17 22 16 45 21 43 -102 0
17 22 16 45 21 43 -100 0
17 22 16 38 21 33 -98 0
17 22 16 38 21 33 -95 0
17 22 16 38 21 33 -97 0
17 22 16 38 21 33 -96 0
17 22 16 48 21 49 -103 0
17 22 16 48 21 49 -104 0
17 22 16 48 21 49 -105 0
17 22 16 48 21 49 -106 0
17 22 16 3 21 4 -15 0
17 22 16 3 21 4 -20 0
17 22 16 3 21 4 -19 0
17 22 16 3 21 4 -18 0
61 13 57 11 62 8 -86 0
61 13 57 11 62 8 -88 0
61 13 57 11 62 8 -85 0
61 13 57 11 62 8 -87 0
61 13 57 11 62 55 -86 0
61 13 57 11 62 55 -88 0
61 13 57 11 62 55 -85 0
61 13 57 11 62 55 -87 0
61 13 57 11 8 10 -86 0
61 13 57 11 8 10 -88 0
61 13 57 11 8 10 -85 0
61 13 57 11 8 10 -87 0
61 13 57 11 55 10 -86 0
61 13 57 11 55 10 -88 0
61 13 57 11 55 10 -85 0
61 13 57 11 55 10 -87 0
61 13 57 62 8 55 -86 0
61 13 57 62 8 55 -88 0
61 13 57 62 8 55 -85 0
61 13 57 62 8 55 -87 0
61 13 57 62 55 10 -86 0
61 13 57 62 55 10 -88 0
61 13 57 62 55 10 -85 0
61 13 57 62 55 10 -87 0
61 13 11 62 8 10 -86 0
61 13 11 62 8 10 -88 0
61 13 11 62 8 10 -85 0
61 13 11 62 8 10 -87 0
61 13 11 8 55 10 -86 0
61 13 11 8 55 10 -88 0
61 13 11 8 55 10 -85 0
61 13 11 8 55 10 -87 0
61 13 62 8 55 10 -86 0
61 13 62 8 55 10 -88 0
61 13 62 8 55 10 -85 0
61 13 62 8 55 10 -87 0
61 44 57 46 62 45 -149 0
61 44 57 46 62 45 -151 0
61 44 57 46 62 45 -150 0
61 44 57 46 62 45 -152 0
61 44 57 46 62 55 -149 0
61 44 57 46 62 55 -151 0
61 44 57 46 62 55 -150 0
61 44 57 46 62 55 -152 0
61 44 57 46 45 43 -149 0
61 44 57 46 45 43 -151 0
61 44 57 46 45 43 -150 0
61 44 57 46 45 43 -152 0
61 44 57 46 55 43 -149 0
61 44 57 46 55 43 -151 0
61 44 57 46 55 43 -150 0
61 44 57 46 55 43 -152 0
61 44 57 62 45 55 -149 0
61 44 57 62 45 55 -151 0
61 44 57 62 45 55 -150 0
61 44 57 62 45 55 -152 0
61 44 57 62 55 43 -149 0
61 44 57 62 55 43 -151 0
61 44 57 62 55 43 -150 0
61 44 57 62 55 43 -152 0
61 44 46 62 45 43 -149 0
61 44 46 62 45 43 -151 0
61 44 46 62 45 43 -150 0
61 44 46 62 45 43 -152 0
61 44 46 45 55 43 -149 0
61 44 46 45 55 43 -151 0
61 44 46 45 55 43 -150 0
61 44 46 45 55 43 -152 0
61 44 62 45 55 43 -149 0
61 44 62 45 55 43 -151 0
61 44 62 45 55 43 -150 0
61 44 62 45 55 43 -152 0
61 34 57 35 62 38 -139 0
61 34 57 35 62 38 -141 0
61 34 57 35 62 38 -142 0
61 34 57 35 62 38 -140 0
61 34 57 35 62 55 -139 0
61 34 57 35 62 55 -141 0
61 34 57 35 62 55 -142 0
61 34 57 35 62 55 -140 0
61 34 57 35 38 33 -139 0
61 34 57 35 38 33 -141 0
61 34 57 35 38 33 -142 0
61 34 57 35 38 33 -140 0
61 34 57 35 55 33 -139 0
61 34 57 35 55 33 -141 0
61 34 57 35 55 33 -142 0
61 34 57 35 55 33 -140 0
61 34 57 62 38 55 -139 0
61 34 57 62 38 55 -141 0
61 34 57 62 38 55 -142 0
61 34 57 62 38 55 -140 0
61 34 57 62 55 33 -139 0
61 34 57 62 55 33 -141 0
61 34 57 62 55 33 -142 0
61 34 57 62 55 33 -140 0
61 34 35 62 38 33 -139 0
61 34 35 62 38 33 -141 0
61 34 35 62 38 33 -142 0
61 34 35 62 38 33 -140 0
61 34 35 38 55 33 -139 0
61 34 35 38 55 33 -141 0
61 34 35 38 55 33 -142 0
61 34 35 38 55 33 -140 0
61 34 62 38 55 33 -139 0
61 34 62 38 55 33 -141 0
61 34 62 38 55 33 -142 0
61 34 62 38 55 33 -140 0
61 53 57 50 62 48 -156 0
61 53 57 50 62 48 -157 0
61 53 57 50 62 48 -155 0
61 53 57 50 62 48 -158 0
61 53 57 50 62 55 -156 0
61 53 57 50 62 55 -157 0
61 53 57 50 62 55 -155 0
61 53 57 50 62 55 -158 0
61 53 57 50 48 49 -156 0
61 53 57 50 48 49 -157 0
61 53 57 50 48 49 -155 0
61 53 57 50 48 49 -158 0
61 53 57 50 55 49 -156 0
61 53 57 50 55 49 -157 0
61 53 57 50 55 49 -155 0
61 53 57 50 55 49 -158 0
61 53 57 62 48 55 -156 0
61 53 57 62 48 55 -157 0
61 53 57 62 48 55 -155 0
61 53 57 62 48 55 -158 0
61 53 57 62 55 49 -156 0
61 53 57 62 55 49 -157 0
61 53 57 62 55 49 -155 0
61 53 57 62 55 49 -158 0
61 53 50 62 48 49 -156 0
61 53 50 62 48 49 -157 0
61 53 50 62 48 49 -155 0
61 53 50 62 48 49 -158 0
61 53 50 48 55 49 -156 0
61 53 50 48 55 49 -157 0
61 53 50 48 55 49 -155 0
61 53 50 48 55 49 -158 0
61 53 62 48 55 49 -156 0
61 53 62 48 55 49 -157 0
61 53 62 48 55 49 -155 0
61 53 62 48 55 49 -158 0
61 1 57 6 62 3 -60 0
61 1 57 6 62 3 -58 0
61 1 57 6 62 3 -56 0
61 1 57 6 62 3 -59 0
61 1 57 6 62 55 -60 0
61 1 57 6 62 55 -58 0
61 1 57 6 62 55 -56 0
61 1 57 6 62 55 -59 0
61 1 57 6 3 4 -60 0
61 1 57 6 3 4 -58 0
61 1 57 6 3 4 -56 0
61 1 57 6 3 4 -59 0
61 1 57 6 55 4 -60 0
61 1 57 6 55 4 -58 0
61 1 57 6 55 4 -56 0
61 1 57 6 55 4 -59 0
61 1 57 62 3 55 -60 0
61 1 57 62 3 55 -58 0
61 1 57 62 3 55 -56 0
61 1 57 62 3 55 -59 0
61 1 57 62 55 4 -60 0
61 1 57 62 55 4 -58 0
61 1 57 62 55 4 -56 0
61 1 57 62 55 4 -59 0
61 1 6 62 3 4 -60 0
61 1 6 62 3 4 -58 0
61 1 6 62 3 4 -56 0
61 1 6 62 3 4 -59 0
61 1 6 3 55 4 -60 0
61 1 6 3 55 4 -58 0
61 1 6 3 55 4 -56 0
61 1 6 3 55 4 -59 0
61 1 62 3 55 4 -60 0
61 1 62 3 55 4 -58 0
61 1 62 3 55 4 -56 0
61 1 62 3 55 4 -59 0
61 30 57 28 62 55 -127 0
61 30 57 28 62 55 -128 0
61 30 57 28 62 55 -126 0
61 30 57 28 62 55 -125 0
61 30 57 62 27 55 -127 0
61 30 57 62 27 55 -128 0
61 30 57 62 27 55 -126 0
61 30 57 62 27 55 -125 0
61 22 57 16 62 55 -110 0
61 22 57 16 62 55 -109 0
61 22 57 16 62 55 -108 0
61 22 57 16 62 55 -107 0
61 22 57 62 21 55 -110 0
61 22 57 62 21 55 -109 0
61 22 57 62 21 55 -108 0
61 22 57 62 21 55 -107 0
61 57 11 62 8 55 -86 0
61 57 11 62 8 55 -88 0
61 57 11 62 8 55 -85 0
61 57 11 62 8 55 -87 0
61 57 11 62 55 10 -86 0
61 57 11 62 55 10 -88 0
61 57 11 62 55 10 -85 0
61 57 11 62 55 10 -87 0
61 57 46 62 45 55 -149 0
61 57 46 62 45 55 -151 0
61 57 46 62 45 55 -150 0
61 57 46 62 45 55 -152 0
61 57 46 62 55 43 -149 0
61 57 46 62 55 43 -151 0
61 57 46 62 55 43 -150 0
61 57 46 62 55 43 -152 0
61 57 35 62 38 55 -139 0
61 57 35 62 38 55 -141 0
61 57 35 62 38 55 -142 0
61 57 35 62 38 55 -140 0
61 57 35 62 55 33 -139 0
61 57 35 62 55 33 -141 0
61 57 35 62 55 33 -142 0
61 57 35 62 55 33 -140 0
61 57 50 62 48 55 -156 0
61 57 50 62 48 55 -157 0
61 57 50 62 48 55 -155 0
61 57 50 62 48 55 -158 0
61 57 50 62 55 49 -156 0
61 57 50 62 55 49 -157 0
61 57 50 62 55 49 -155 0
61 57 50 62 55 49 -158 0
61 57 6 62 3 55 -60 0
61 57 6 62 3 55 -58 0
61 57 6 62 3 55 -56 0
61 57 6 62 3 55 -59 0
61 57 6 62 55 4 -60 0
61 57 6 62 55 4 -58 0
61 57 6 62 55 4 -56 0
61 57 6 62 55 4 -59 0
61 57 28 62 27 55 -127 0
61 57 28 62 27 55 -128 0
61 57 28 62 27 55 -126 0
61 57 28 62 27 55 -125 0
61 57 16 62 21 55 -110 0
61 57 16 62 21 55 -109 0
61 57 16 62 21 55 -108 0
61 57 16 62 21 55 -107 0
61 57 62 8 55 10 -86 0
61 57 62 8 55 10 -88 0
61 57 62 8 55 10 -85 0
61 57 62 8 55 10 -87 0
61 57 62 45 55 43 -149 0
61 57 62 45 55 43 -151 0
61 57 62 45 55 43 -150 0
61 57 62 45 55 43 -152 0
61 57 62 38 55 33 -139 0
61 57 62 38 55 33 -141 0
61 57 62 38 55 33 -142 0
61 57 62 38 55 33 -140 0
61 57 62 48 55 49 -156 0
61 57 62 48 55 49 -157 0
61 57 62 48 55 49 -155 0
61 57 62 48 55 49 -158 0
61 57 62 3 55 4 -60 0
61 57 62 3 55 4 -58 0
61 57 62 3 55 4 -56 0
61 57 62 3 55 4 -59 0
13 44 11 46 8 45 -79 0
13 44 11 46 8 45 -78 0
13 44 11 46 8 45 -77 0
13 44 11 46 8 45 -80 0
13 44 11 46 8 10 -79 0
13 44 11 46 8 10 -78 0
13 44 11 46 8 10 -77 0
13 44 11 46 8 10 -80 0
13 44 11 46 45 43 -79 0
13 44 11 46 45 43 -78 0
13 44 11 46 45 43 -77 0
13 44 11 46 45 43 -80 0
13 44 11 46 10 43 -79 0
13 44 11 46 10 43 -78 0
13 44 11 46 10 43 -77 0
13 44 11 46 10 43 -80 0
13 44 11 8 45 10 -79 0
13 44 11 8 45 10 -78 0
13 44 11 8 45 10 -77 0
13 44 11 8 45 10 -80 0
13 44 11 8 10 43 -79 0
13 44 11 8 10 43 -78 0
13 44 11 8 10 43 -77 0
13 44 11 8 10 43 -80 0
13 44 46 8 45 43 -79 0
13 44 46 8 45 43 -78 0
13 44 46 8 45 43 -77 0
13 44 46 8 45 43 -80 0
13 44 46 45 10 43 -79 0
13 44 46 45 10 43 -78 0
13 44 46 45 10 43 -77 0
13 44 46 45 10 43 -80 0
13 44 8 45 10 43 -79 0
13 44 8 45 10 43 -78 0
13 44 8 45 10 43 -77 0
13 44 8 45 10 43 -80 0
13 34 11 35 8 38 -74 0
13 34 11 35 8 38 -76 0
13 34 11 35 8 38 -75 0
13 34 11 35 8 38 -73 0
13 34 11 35 8 10 -74 0
13 34 11 35 8 10 -76 0
13 34 11 35 8 10 -75 0
13 34 11 35 8 10 -73 0
13 34 11 35 38 33 -74 0
13 34 11 35 38 33 -76 0
13 34 11 35 38 33 -75 0
13 34 11 35 38 33 -73 0
13 34 11 35 10 33 -74 0
13 34 11 35 10 33 -76 0
13 34 11 35 10 33 -75 0
13 34 11 35 10 33 -73 0
13 34 11 8 38 10 -74 0
13 34 11 8 38 10 -76 0
13 34 11 8 38 10 -75 0
13 34 11 8 38 10 -73 0
13 34 11 8 10 33 -74 0
13 34 11 8 10 33 -76 0
13 34 11 8 10 33 -75 0
13 34 11 8 10 33 -73 0
13 34 35 8 38 33 -74 0
13 34 35 8 38 33 -76 0
13 34 35 8 38 33 -75 0
13 34 35 8 38 33 -73 0
13 34 35 38 10 33 -74 0
13 34 35 38 10 33 -76 0
13 34 35 38 10 33 -75 0
13 34 35 38 10 33 -73 0
13 34 8 38 10 33 -74 0
13 34 8 38 10 33 -76 0
13 34 8 38 10 33 -75 0
13 34 8 38 10 33 -73 0
13 53 11 50 8 48 -81 0
13 53 11 50 8 48 -82 0
13 53 11 50 8 48 -83 0
13 53 11 50 8 48 -84 0
13 53 11 50 8 10 -81 0
13 53 11 50 8 10 -82 0
13 53 11 50 8 10 -83 0
13 53 11 50 8 10 -84 0
13 53 11 50 48 49 -81 0
13 53 11 50 48 49 -82 0
13 53 11 50 48 49 -83 0
13 53 11 50 48 49 -84 0
13 53 11 50 10 49 -81 0
13 53 11 50 10 49 -82 0
13 53 11 50 10 49 -83 0
13 53 11 50 10 49 -84 0
13 53 11 8 48 10 -81 0
13 53 11 8 48 10 -82 0
13 53 11 8 48 10 -83 0
13 53 11 8 48 10 -84 0
13 53 11 8 10 49 -81 0
13 53 11 8 10 49 -82 0
13 53 11 8 10 49 -83 0
13 53 11 8 10 49 -84 0
13 53 50 8 48 49 -81 0
13 53 50 8 48 49 -82 0
13 53 50 8 48 49 -83 0
13 53 50 8 48 49 -84 0
13 53 50 48 10 49 -81 0
13 53 50 48 10 49 -82 0
13 53 50 48 10 49 -83 0
13 53 50 48 10 49 -84 0
13 53 8 48 10 49 -81 0
13 53 8 48 10 49 -82 0
13 53 8 48 10 49 -83 0
13 53 8 48 10 49 -84 0
13 1 11 6 8 3 -12 0
13 1 11 6 8 3 -9 0
13 1 11 6 8 3 -7 0
13 1 11 6 8 3 -14 0
13 1 11 6 8 10 -12 0
13 1 11 6 8 10 -9 0
13 1 11 6 8 10 -7 0
13 1 11 6 8 10 -14 0
13 1 11 6 3 4 -12 0
13 1 11 6 3 4 -9 0
13 1 11 6 3 4 -7 0
13 1 11 6 3 4 -14 0
13 1 11 6 10 4 -12 0
13 1 11 6 10 4 -9 0
13 1 11 6 10 4 -7 0
13 1 11 6 10 4 -14 0
13 1 11 8 3 10 -12 0
13 1 11 8 3 10 -9 0
13 1 11 8 3 10 -7 0
13 1 11 8 3 10 -14 0
13 1 11 8 10 4 -12 0
13 1 11 8 10 4 -9 0
13 1 11 8 10 4 -7 0
13 1 11 8 10 4 -14 0
13 1 6 8 3 4 -12 0
13 1 6 8 3 4 -9 0
13 1 6 8 3 4 -7 0
13 1 6 8 3 4 -14 0
13 1 6 3 10 4 -12 0
13 1 6 3 10 4 -9 0
13 1 6 3 10 4 -7 0
13 1 6 3 10 4 -14 0
13 1 8 3 10 4 -12 0
13 1 8 3 10 4 -9 0
13 1 8 3 10 4 -7 0
13 1 8 3 10 4 -14 0
13 30 11 28 8 10 -70 0
13 30 11 28 8 10 -71 0
13 30 11 28 8 10 -69 0
13 30 11 28 8 10 -72 0
13 30 11 8 27 10 -70 0
13 30 11 8 27 10 -71 0
13 30 11 8 27 10 -69 0
13 30 11 8 27 10 -72 0
13 22 11 16 8 10 -68 0
13 22 11 16 8 10 -66 0
13 22 11 16 8 10 -65 0
13 22 11 16 8 10 -67 0
13 22 11 8 21 10 -68 0
13 22 11 8 21 10 -66 0
13 22 11 8 21 10 -65 0
13 22 11 8 21 10 -67 0
13 57 11 62 8 10 -86 0
13 57 11 62 8 10 -88 0
13 57 11 62 8 10 -85 0
13 57 11 62 8 10 -87 0
13 57 11 8 55 10 -86 0
13 57 11 8 55 10 -88 0
13 57 11 8 55 10 -85 0
13 57 11 8 55 10 -87 0
13 11 46 8 45 10 -79 0
13 11 46 8 45 10 -78 0
13 11 46 8 45 10 -77 0
13 11 46 8 45 10 -80 0
13 11 46 8 10 43 -79 0
13 11 46 8 10 43 -78 0
13 11 46 8 10 43 -77 0
13 11 46 8 10 43 -80 0
13 11 35 8 38 10 -74 0
13 11 35 8 38 10 -76 0
13 11 35 8 38 10 -75 0
13 11 35 8 38 10 -73 0
13 11 35 8 10 33 -74 0
13 11 35 8 10 33 -76 0
13 11 35 8 10 33 -75 0
13 11 35 8 10 33 -73 0
13 11 50 8 48 10 -81 0
13 11 50 8 48 10 -82 0
13 11 50 8 48 10 -83 0
13 11 50 8 48 10 -84 0
13 11 50 8 10 49 -81 0
13 11 50 8 10 49 -82 0
13 11 50 8 10 49 -83 0
13 11 50 8 10 49 -84 0
13 11 6 8 3 10 -12 0
13 11 6 8 3 10 -9 0
13 11 6 8 3 10 -7 0
13 11 6 8 3 10 -14 0
13 11 6 8 10 4 -12 0
13 11 6 8 10 4 -9 0
13 11 6 8 10 4 -7 0
13 11 6 8 10 4 -14 0
13 11 28 8 27 10 -70 0
13 11 28 8 27 10 -71 0
13 11 28 8 27 10 -69 0
13 11 28 8 27 10 -72 0
13 11 16 8 21 10 -68 0
13 11 16 8 21 10 -66 0
13 11 16 8 21 10 -65 0
13 11 16 8 21 10 -67 0
13 11 62 8 55 10 -86 0
13 11 62 8 55 10 -88 0
13 11 62 8 55 10 -85 0
13 11 62 8 55 10 -87 0
13 11 8 45 10 43 -79 0
13 11 8 45 10 43 -78 0
13 11 8 45 10 43 -77 0
13 11 8 45 10 43 -80 0
13 11 8 38 10 33 -74 0
13 11 8 38 10 33 -76 0
13 11 8 38 10 33 -75 0
13 11 8 38 10 33 -73 0
13 11 8 48 10 49 -81 0
13 11 8 48 10 49 -82 0
13 11 8 48 10 49 -83 0
13 11 8 48 10 49 -84 0
13 11 8 3 10 4 -12 0
13 11 8 3 10 4 -9 0
13 11 8 3 10 4 -7 0
13 11 8 3 10 4 -14 0
44 34 46 35 45 38 -133 0
44 34 46 35 45 38 -134 0
44 34 46 35 45 38 -131 0
44 34 46 35 45 38 -132 0
44 34 46 35 45 43 -133 0
44 34 46 35 45 43 -134 0
44 34 46 35 45 43 -131 0
44 34 46 35 45 43 -132 0
44 34 46 35 38 33 -133 0
44 34 46 35 38 33 -134 0
44 34 46 35 38 33 -131 0
44 34 46 35 38 33 -132 0
44 34 46 35 43 33 -133 0
44 34 46 35 43 33 -134 0
44 34 46 35 43 33 -131 0
44 34 46 35 43 33 -132 0
44 34 46 45 38 43 -133 0
44 34 46 45 38 43 -134 0
44 34 46 45 38 43 -131 0
44 34 46 45 38 43 -132 0
44 34 46 45 43 33 -133 0
44 34 46 45 43 33 -134 0
44 34 46 45 43 33 -131 0
44 34 46 45 43 33 -132 0
44 34 35 45 38 33 -133 0
44 34 35 45 38 33 -134 0
44 34 35 45 38 33 -131 0
44 34 35 45 38 33 -132 0
44 34 35 38 43 33 -133 0
44 34 35 38 43 33 -134 0
44 34 35 38 43 33 -131 0
44 34 35 38 43 33 -132 0
44 34 45 38 43 33 -133 0
44 34 45 38 43 33 -134 0
44 34 45 38 43 33 -131 0
44 34 45 38 43 33 -132 0
44 53 46 50 45 48 -148 0
44 53 46 50 45 48 -145 0
44 53 46 50 45 48 -146 0
44 53 46 50 45 48 -147 0
44 53 46 50 45 43 -148 0
44 53 46 50 45 43 -145 0
44 53 46 50 45 43 -146 0
44 53 46 50 45 43 -147 0
44 53 46 50 48 49 -148 0
44 53 46 50 48 49 -145 0
44 53 46 50 48 49 -146 0
44 53 46 50 48 49 -147 0
44 53 46 50 43 49 -148 0
44 53 46 50 43 49 -145 0
44 53 46 50 43 49 -146 0
44 53 46 50 43 49 -147 0
44 53 46 45 48 43 -148 0
44 53 46 45 48 43 -145 0
44 53 46 45 48 43 -146 0
44 53 46 45 48 43 -147 0
44 53 46 45 43 49 -148 0
44 53 46 45 43 49 -145 0
44 53 46 45 43 49 -146 0
44 53 46 45 43 49 -147 0
44 53 50 45 48 49 -148 0
44 53 50 45 48 49 -145 0
44 53 50 45 48 49 -146 0
44 53 50 45 48 49 -147 0
44 53 50 48 43 49 -148 0
44 53 50 48 43 49 -145 0
44 53 50 48 43 49 -146 0
44 53 50 48 43 49 -147 0
44 53 45 48 43 49 -148 0
44 53 45 48 43 49 -145 0
44 53 45 48 43 49 -146 0
44 53 45 48 43 49 -147 0
44 1 46 6 45 3 -41 0
44 1 46 6 45 3 -42 0
44 1 46 6 45 3 -40 0
44 1 46 6 45 3 -39 0
44 1 46 6 45 43 -41 0
44 1 46 6 45 43 -42 0
44 1 46 6 45 43 -40 0
44 1 46 6 45 43 -39 0
44 1 46 6 3 4 -41 0
44 1 46 6 3 4 -42 0
44 1 46 6 3 4 -40 0
44 1 46 6 3 4 -39 0
44 1 46 6 43 4 -41 0
44 1 46 6 43 4 -42 0
44 1 46 6 43 4 -40 0
44 1 46 6 43 4 -39 0
44 1 46 45 3 43 -41 0
44 1 46 45 3 43 -42 0
44 1 46 45 3 43 -40 0
44 1 46 45 3 43 -39 0
44 1 46 45 43 4 -41 0
44 1 46 45 43 4 -42 0
44 1 46 45 43 4 -40 0
44 1 46 45 43 4 -39 0
44 1 6 45 3 4 -41 0
44 1 6 45 3 4 -42 0
44 1 6 45 3 4 -40 0
44 1 6 45 3 4 -39 0
44 1 6 3 43 4 -41 0
44 1 6 3 43 4 -42 0
44 1 6 3 43 4 -40 0
44 1 6 3 43 4 -39 0
44 1 45 3 43 4 -41 0
44 1 45 3 43 4 -42 0
44 1 45 3 43 4 -40 0
44 1 45 3 43 4 -39 0
44 30 46 28 45 43 -118 0
44 30 46 28 45 43 -120 0
44 30 46 28 45 43 -117 0
44 30 46 28 45 43 -119 0
44 30 46 45 27 43 -118 0
44 30 46 45 27 43 -120 0
44 30 46 45 27 43 -117 0
44 30 46 45 27 43 -119 0
44 22 46 16 45 43 -101 0
44 22 46 16 45 43 -99 0
44 22 46 16 45 43 -102 0
44 22 46 16 45 43 -100 0
44 22 46 45 21 43 -101 0
44 22 46 45 21 43 -99 0
44 22 46 45 21 43 -102 0
44 22 46 45 21 43 -100 0
44 57 46 62 45 43 -149 0
44 57 46 62 45 43 -151 0
44 57 46 62 45 43 -150 0
44 57 46 62 45 43 -152 0
44 57 46 45 55 43 -149 0
44 57 46 45 55 43 -151 0
44 57 46 45 55 43 -150 0
44 57 46 45 55 43 -152 0
44 11 46 8 45 43 -79 0
44 11 46 8 45 43 -78 0
44 11 46 8 45 43 -77 0
44 11 46 8 45 43 -80 0
44 11 46 45 10 43 -79 0
44 11 46 45 10 43 -78 0
44 11 46 45 10 43 -77 0
44 11 46 45 10 43 -80 0
44 46 35 45 38 43 -133 0
44 46 35 45 38 43 -134 0
44 46 35 45 38 43 -131 0
44 46 35 45 38 43 -132 0
44 46 35 45 43 33 -133 0
44 46 35 45 43 33 -134 0
44 46 35 45 43 33 -131 0
44 46 35 45 43 33 -132 0
44 46 50 45 48 43 -148 0
44 46 50 45 48 43 -145 0
44 46 50 45 48 43 -146 0
44 46 50 45 48 43 -147 0
44 46 50 45 43 49 -148 0
44 46 50 45 43 49 -145 0
44 46 50 45 43 49 -146 0
44 46 50 45 43 49 -147 0
44 46 6 45 3 43 -41 0
44 46 6 45 3 43 -42 0
44 46 6 45 3 43 -40 0
44 46 6 45 3 43 -39 0
44 46 6 45 43 4 -41 0
44 46 6 45 43 4 -42 0
44 46 6 45 43 4 -40 0
44 46 6 45 43 4 -39 0
44 46 28 45 27 43 -118 0
44 46 28 45 27 43 -120 0
44 46 28 45 27 43 -117 0
44 46 28 45 27 43 -119 0
44 46 16 45 21 43 -101 0
44 46 16 45 21 43 -99 0
44 46 16 45 21 43 -102 0
44 46 16 45 21 43 -100 0
44 46 62 45 55 43 -149 0
44 46 62 45 55 43 -151 0
44 46 62 45 55 43 -150 0
44 46 62 45 55 43 -152 0
44 46 8 45 10 43 -79 0
44 46 8 45 10 43 -78 0
44 46 8 45 10 43 -77 0
44 46 8 45 10 43 -80 0
44 46 45 38 43 33 -133 0
44 46 45 38 43 33 -134 0
44 46 45 38 43 33 -131 0
44 46 45 38 43 33 -132 0
44 46 45 48 43 49 -148 0
44 46 45 48 43 49 -145 0
44 46 45 48 43 49 -146 0
44 46 45 48 43 49 -147 0
44 46 45 3 43 4 -41 0
44 46 45 3 43 4 -42 0
44 46 45 3 43 4 -40 0
44 46 45 3 43 4 -39 0
34 53 35 50 38 48 -138 0
34 53 35 50 38 48 -135 0
34 53 35 50 38 48 -136 0
34 53 35 50 38 48 -137 0
34 53 35 50 38 33 -138 0
34 53 35 50 38 33 -135 0
34 53 35 50 38 33 -136 0
34 53 35 50 38 33 -137 0
34 53 35 50 48 49 -138 0
34 53 35 50 48 49 -135 0
34 53 35 50 48 49 -136 0
34 53 35 50 48 49 -137 0
34 53 35 50 33 49 -138 0
34 53 35 50 33 49 -135 0
34 53 35 50 33 49 -136 0
34 53 35 50 33 49 -137 0
34 53 35 38 48 33 -138 0
34 53 35 38 48 33 -135 0
34 53 35 38 48 33 -136 0
34 53 35 38 48 33 -137 0
34 53 35 38 33 49 -138 0
34 53 35 38 33 49 -135 0
34 53 35 38 33 49 -136 0
34 53 35 38 33 49 -137 0
34 53 50 38 48 49 -138 0
34 53 50 38 48 49 -135 0
34 53 50 38 48 49 -136 0
34 53 50 38 48 49 -137 0
34 53 50 48 33 49 -138 0
34 53 50 48 33 49 -135 0
34 53 50 48 33 49 -136 0
34 53 50 48 33 49 -137 0
34 53 38 48 33 49 -138 0
34 53 38 48 33 49 -135 0
34 53 38 48 33 49 -136 0
34 53 38 48 33 49 -137 0
34 1 35 6 38 3 -32 0
34 1 35 6 38 3 -37 0
34 1 35 6 38 3 -36 0
34 1 35 6 38 3 -31 0
34 1 35 6 38 33 -32 0
34 1 35 6 38 33 -37 0
34 1 35 6 38 33 -36 0
34 1 35 6 38 33 -31 0
34 1 35 6 3 4 -32 0
34 1 35 6 3 4 -37 0
34 1 35 6 3 4 -36 0
34 1 35 6 3 4 -31 0
34 1 35 6 33 4 -32 0
34 1 35 6 33 4 -37 0
34 1 35 6 33 4 -36 0
34 1 35 6 33 4 -31 0
34 1 35 38 3 33 -32 0
34 1 35 38 3 33 -37 0
34 1 35 38 3 33 -36 0
34 1 35 38 3 33 -31 0
34 1 35 38 33 4 -32 0
34 1 35 38 33 4 -37 0
34 1 35 38 33 4 -36 0
34 1 35 38 33 4 -31 0
34 1 6 38 3 4 -32 0
34 1 6 38 3 4 -37 0
34 1 6 38 3 4 -36 0
34 1 6 38 3 4 -31 0
34 1 6 3 33 4 -32 0
34 1 6 3 33 4 -37 0
34 1 6 3 33 4 -36 0
34 1 6 3 33 4 -31 0
34 1 38 3 33 4 -32 0
34 1 38 3 33 4 -37 0
34 1 38 3 33 4 -36 0
34 1 38 3 33 4 -31 0
34 30 35 28 38 33 -116 0
34 30 35 28 38 33 -114 0
34 30 35 28 38 33 -113 0
34 30 35 28 38 33 -115 0
34 30 35 38 27 33 -116 0
34 30 35 38 27 33 -114 0
34 30 35 38 27 33 -113 0
34 30 35 38 27 33 -115 0
34 22 35 16 38 33 -98 0
34 22 35 16 38 33 -95 0
34 22 35 16 38 33 -97 0
34 22 35 16 38 33 -96 0
34 22 35 38 21 33 -98 0
34 22 35 38 21 33 -95 0
34 22 35 38 21 33 -97 0
34 22 35 38 21 33 -96 0
34 57 35 62 38 33 -139 0
34 57 35 62 38 33 -141 0
34 57 35 62 38 33 -142 0
34 57 35 62 38 33 -140 0
34 57 35 38 55 33 -139 0
34 57 35 38 55 33 -141 0
34 57 35 38 55 33 -142 0
34 57 35 38 55 33 -140 0
34 11 35 8 38 33 -74 0
34 11 35 8 38 33 -76 0
34 11 35 8 38 33 -75 0
34 11 35 8 38 33 -73 0
34 11 35 38 10 33 -74 0
34 11 35 38 10 33 -76 0
34 11 35 38 10 33 -75 0
34 11 35 38 10 33 -73 0
34 46 35 45 38 33 -133 0
34 46 35 45 38 33 -134 0
34 46 35 45 38 33 -131 0
34 46 35 45 38 33 -132 0
34 46 35 38 43 33 -133 0
34 46 35 38 43 33 -134 0
34 46 35 38 43 33 -131 0
34 46 35 38 43 33 -132 0
34 35 50 38 48 33 -138 0
34 35 50 38 48 33 -135 0
34 35 50 38 48 33 -136 0
34 35 50 38 48 33 -137 0
34 35 50 38 33 49 -138 0
34 35 50 38 33 49 -135 0
34 35 50 38 33 49 -136 0
34 35 50 38 33 49 -137 0
34 35 6 38 3 33 -32 0
34 35 6 38 3 33 -37 0
34 35 6 38 3 33 -36 0
34 35 6 38 3 33 -31 0
34 35 6 38 33 4 -32 0
34 35 6 38 33 4 -37 0
34 35 6 38 33 4 -36 0
34 35 6 38 33 4 -31 0
34 35 28 38 27 33 -116 0
34 35 28 38 27 33 -114 0
34 35 28 38 27 33 -113 0
34 35 28 38 27 33 -115 0
34 35 16 38 21 33 -98 0
34 35 16 38 21 33 -95 0
34 35 16 38 21 33 -97 0
34 35 16 38 21 33 -96 0
34 35 62 38 55 33 -139 0
34 35 62 38 55 33 -141 0
34 35 62 38 55 33 -142 0
34 35 62 38 55 33 -140 0
34 35 8 38 10 33 -74 0
34 35 8 38 10 33 -76 0
34 35 8 38 10 33 -75 0
34 35 8 38 10 33 -73 0
34 35 45 38 43 33 -133 0
34 35 45 38 43 33 -134 0
34 35 45 38 43 33 -131 0
34 35 45 38 43 33 -132 0
34 35 38 48 33 49 -138 0
34 35 38 48 33 49 -135 0
34 35 38 48 33 49 -136 0
34 35 38 48 33 49 -137 0
34 35 38 3 33 4 -32 0
34 35 38 3 33 4 -37 0
34 35 38 3 33 4 -36 0
34 35 38 3 33 4 -31 0
53 1 50 6 48 3 -51 0
53 1 50 6 48 3 -52 0
53 1 50 6 48 3 -54 0
53 1 50 6 48 3 -47 0
53 1 50 6 48 49 -51 0
53 1 50 6 48 49 -52 0
53 1 50 6 48 49 -54 0
53 1 50 6 48 49 -47 0
53 1 50 6 3 4 -51 0
53 1 50 6 3 4 -52 0
53 1 50 6 3 4 -54 0
53 1 50 6 3 4 -47 0
53 1 50 6 49 4 -51 0
53 1 50 6 49 4 -52 0
53 1 50 6 49 4 -54 0
53 1 50 6 49 4 -47 0
53 1 50 48 3 49 -51 0
53 1 50 48 3 49 -52 0
53 1 50 48 3 49 -54 0
53 1 50 48 3 49 -47 0
53 1 50 48 49 4 -51 0
53 1 50 48 49 4 -52 0
53 1 50 48 49 4 -54 0
53 1 50 48 49 4 -47 0
53 1 6 48 3 4 -51 0
53 1 6 48 3 4 -52 0
53 1 6 48 3 4 -54 0
53 1 6 48 3 4 -47 0
53 1 6 3 49 4 -51 0
53 1 6 3 49 4 -52 0
53 1 6 3 49 4 -54 0
53 1 6 3 49 4 -47 0
53 1 48 3 49 4 -51 0
53 1 48 3 49 4 -52 0
53 1 48 3 49 4 -54 0
53 1 48 3 49 4 -47 0
53 30 50 28 48 49 -124 0
53 30 50 28 48 49 -121 0
53 30 50 28 48 49 -122 0
53 30 50 28 48 49 -123 0
53 30 50 48 27 49 -124 0
53 30 50 48 27 49 -121 0
53 30 50 48 27 49 -122 0
53 30 50 48 27 49 -123 0
53 22 50 16 48 49 -103 0
53 22 50 16 48 49 -104 0
53 22 50 16 48 49 -105 0
53 22 50 16 48 49 -106 0
53 22 50 48 21 49 -103 0
53 22 50 48 21 49 -104 0
53 22 50 48 21 49 -105 0
53 22 50 48 21 49 -106 0
53 57 50 62 48 49 -156 0
53 57 50 62 48 49 -157 0
53 57 50 62 48 49 -155 0
53 57 50 62 48 49 -158 0
53 57 50 48 55 49 -156 0
53 57 50 48 55 49 -157 0
53 57 50 48 55 49 -155 0
53 57 50 48 55 49 -158 0
53 11 50 8 48 49 -81 0
53 11 50 8 48 49 -82 0
53 11 50 8 48 49 -83 0
53 11 50 8 48 49 -84 0
53 11 50 48 10 49 -81 0
53 11 50 48 10 49 -82 0
53 11 50 48 10 49 -83 0
53 11 50 48 10 49 -84 0
53 46 50 45 48 49 -148 0
53 46 50 45 48 49 -145 0
53 46 50 45 48 49 -146 0
53 46 50 45 48 49 -147 0
53 46 50 48 43 49 -148 0
53 46 50 48 43 49 -145 0
53 46 50 48 43 49 -146 0
53 46 50 48 43 49 -147 0
53 35 50 38 48 49 -138 0
53 35 50 38 48 49 -135 0
53 35 50 38 48 49 -136 0
53 35 50 38 48 49 -137 0
53 35 50 48 33 49 -138 0
53 35 50 48 33 49 -135 0
53 35 50 48 33 49 -136 0
53 35 50 48 33 49 -137 0
53 50 6 48 3 49 -51 0
53 50 6 48 3 49 -52 0
53 50 6 48 3 49 -54 0
53 50 6 48 3 49 -47 0
53 50 6 48 49 4 -51 0
53 50 6 48 49 4 -52 0
53 50 6 48 49 4 -54 0
53 50 6 48 49 4 -47 0
53 50 28 48 27 49 -124 0
53 50 28 48 27 49 -121 0
53 50 28 48 27 49 -122 0
53 50 28 48 27 49 -123 0
53 50 16 48 21 49 -103 0
53 50 16 48 21 49 -104 0
53 50 16 48 21 49 -105 0
53 50 16 48 21 49 -106 0
53 50 62 48 55 49 -156 0
53 50 62 48 55 49 -157 0
53 50 62 48 55 49 -155 0
53 50 62 48 55 49 -158 0
53 50 8 48 10 49 -81 0
53 50 8 48 10 49 -82 0
53 50 8 48 10 49 -83 0
53 50 8 48 10 49 -84 0
53 50 45 48 43 49 -148 0
53 50 45 48 43 49 -145 0
53 50 45 48 43 49 -146 0
53 50 45 48 43 49 -147 0
53 50 38 48 33 49 -138 0
53 50 38 48 33 49 -135 0
53 50 38 48 33 49 -136 0
53 50 38 48 33 49 -137 0
53 50 48 3 49 4 -51 0
53 50 48 3 49 4 -52 0
53 50 48 3 49 4 -54 0
53 50 48 3 49 4 -47 0
1 30 6 28 3 4 -24 0
1 30 6 28 3 4 -25 0
1 30 6 28 3 4 -23 0
1 30 6 28 3 4 -26 0
1 30 6 3 27 4 -24 0
1 30 6 3 27 4 -25 0
1 30 6 3 27 4 -23 0
1 30 6 3 27 4 -26 0
1 22 6 16 3 4 -15 0
1 22 6 16 3 4 -20 0
1 22 6 16 3 4 -19 0
1 22 6 16 3 4 -18 0
1 22 6 3 21 4 -15 0
1 22 6 3 21 4 -20 0
1 22 6 3 21 4 -19 0
1 22 6 3 21 4 -18 0
1 57 6 62 3 4 -60 0
1 57 6 62 3 4 -58 0
1 57 6 62 3 4 -56 0
1 57 6 62 3 4 -59 0
1 57 6 3 55 4 -60 0
1 57 6 3 55 4 -58 0
1 57 6 3 55 4 -56 0
1 57 6 3 55 4 -59 0
1 11 6 8 3 4 -12 0
1 11 6 8 3 4 -9 0
1 11 6 8 3 4 -7 0
1 11 6 8 3 4 -14 0
1 11 6 3 10 4 -12 0
1 11 6 3 10 4 -9 0
1 11 6 3 10 4 -7 0
1 11 6 3 10 4 -14 0
1 46 6 45 3 4 -41 0
1 46 6 45 3 4 -42 0
1 46 6 45 3 4 -40 0
1 46 6 45 3 4 -39 0
1 46 6 3 43 4 -41 0
1 46 6 3 43 4 -42 0
1 46 6 3 43 4 -40 0
1 46 6 3 43 4 -39 0
1 35 6 38 3 4 -32 0
1 35 6 38 3 4 -37 0
1 35 6 38 3 4 -36 0
1 35 6 38 3 4 -31 0
1 35 6 3 33 4 -32 0
1 35 6 3 33 4 -37 0
1 35 6 3 33 4 -36 0
1 35 6 3 33 4 -31 0
1 50 6 48 3 4 -51 0
1 50 6 48 3 4 -52 0
1 50 6 48 3 4 -54 0
1 50 6 48 3 4 -47 0
1 50 6 3 49 4 -51 0
1 50 6 3 49 4 -52 0
1 50 6 3 49 4 -54 0
1 50 6 3 49 4 -47 0
1 6 28 3 27 4 -24 0
1 6 28 3 27 4 -25 0
1 6 28 3 27 4 -23 0
1 6 28 3 27 4 -26 0
1 6 16 3 21 4 -15 0
1 6 16 3 21 4 -20 0
1 6 16 3 21 4 -19 0
1 6 16 3 21 4 -18 0
1 6 62 3 55 4 -60 0
1 6 62 3 55 4 -58 0
1 6 62 3 55 4 -56 0
1 6 62 3 55 4 -59 0
1 6 8 3 10 4 -12 0
1 6 8 3 10 4 -9 0
1 6 8 3 10 4 -7 0
1 6 8 3 10 4 -14 0
1 6 45 3 43 4 -41 0
1 6 45 3 43 4 -42 0
1 6 45 3 43 4 -40 0
1 6 45 3 43 4 -39 0
1 6 38 3 33 4 -32 0
1 6 38 3 33 4 -37 0
1 6 38 3 33 4 -36 0
1 6 38 3 33 4 -31 0
1 6 48 3 49 4 -51 0
1 6 48 3 49 4 -52 0
1 6 48 3 49 4 -54 0
1 6 48 3 49 4 -47 0
30 22 28 16 27 21 -91 0
30 22 28 16 27 21 -93 0
30 22 28 16 27 21 -92 0
30 22 28 16 27 21 -94 0
30 57 28 62 27 55 -127 0
30 57 28 62 27 55 -128 0
30 57 28 62 27 55 -126 0
30 57 28 62 27 55 -125 0
30 11 28 8 27 10 -70 0
30 11 28 8 27 10 -71 0
30 11 28 8 27 10 -69 0
30 11 28 8 27 10 -72 0
30 46 28 45 27 43 -118 0
30 46 28 45 27 43 -120 0
30 46 28 45 27 43 -117 0
30 46 28 45 27 43 -119 0
30 35 28 38 27 33 -116 0
30 35 28 38 27 33 -114 0
30 35 28 38 27 33 -113 0
30 35 28 38 27 33 -115 0
30 50 28 48 27 49 -124 0
30 50 28 48 27 49 -121 0
30 50 28 48 27 49 -122 0
30 50 28 48 27 49 -123 0
30 6 28 3 27 4 -24 0
30 6 28 3 27 4 -25 0
30 6 28 3 27 4 -23 0
30 6 28 3 27 4 -26 0
22 57 16 62 21 55 -110 0
22 57 16 62 21 55 -109 0
22 57 16 62 21 55 -108 0
22 57 16 62 21 55 -107 0
22 11 16 8 21 10 -68 0
22 11 16 8 21 10 -66 0
22 11 16 8 21 10 -65 0
22 11 16 8 21 10 -67 0
22 46 16 45 21 43 -101 0
22 46 16 45 21 43 -99 0
22 46 16 45 21 43 -102 0
22 46 16 45 21 43 -100 0
22 35 16 38 21 33 -98 0
22 35 16 38 21 33 -95 0
22 35 16 38 21 33 -97 0
22 35 16 38 21 33 -96 0
22 50 16 48 21 49 -103 0
22 50 16 48 21 49 -104 0
22 50 16 48 21 49 -105 0
22 50 16 48 21 49 -106 0
22 6 16 3 21 4 -15 0
22 6 16 3 21 4 -20 0
22 6 16 3 21 4 -19 0
22 6 16 3 21 4 -18 0
57 11 62 8 55 10 -86 0
57 11 62 8 55 10 -88 0
57 11 62 8 55 10 -85 0
57 11 62 8 55 10 -87 0
57 46 62 45 55 43 -149 0
57 46 62 45 55 43 -151 0
57 46 62 45 55 43 -150 0
57 46 62 45 55 43 -152 0
57 35 62 38 55 33 -139 0
57 35 62 38 55 33 -141 0
57 35 62 38 55 33 -142 0
57 35 62 38 55 33 -140 0
57 50 62 48 55 49 -156 0
57 50 62 48 55 49 -157 0
57 50 62 48 55 49 -155 0
57 50 62 48 55 49 -158 0
57 6 62 3 55 4 -60 0
57 6 62 3 55 4 -58 0
57 6 62 3 55 4 -56 0
57 6 62 3 55 4 -59 0
11 46 8 45 10 43 -79 0
11 46 8 45 10 43 -78 0
11 46 8 45 10 43 -77 0
11 46 8 45 10 43 -80 0
11 35 8 38 10 33 -74 0
11 35 8 38 10 33 -76 0
11 35 8 38 10 33 -75 0
11 35 8 38 10 33 -73 0
11 50 8 48 10 49 -81 0
11 50 8 48 10 49 -82 0
11 50 8 48 10 49 -83 0
11 50 8 48 10 49 -84 0
11 6 8 3 10 4 -12 0
11 6 8 3 10 4 -9 0
11 6 8 3 10 4 -7 0
11 6 8 3 10 4 -14 0
46 35 45 38 43 33 -133 0
46 35 45 38 43 33 -134 0
46 35 45 38 43 33 -131 0
46 35 45 38 43 33 -132 0
46 50 45 48 43 49 -148 0
46 50 45 48 43 49 -145 0
46 50 45 48 43 49 -146 0
46 50 45 48 43 49 -147 0
46 6 45 3 43 4 -41 0
46 6 45 3 43 4 -42 0
46 6 45 3 43 4 -40 0
46 6 45 3 43 4 -39 0
35 50 38 48 33 49 -138 0
35 50 38 48 33 49 -135 0
35 50 38 48 33 49 -136 0
35 50 38 48 33 49 -137 0
35 6 38 3 33 4 -32 0
35 6 38 3 33 4 -37 0
35 6 38 3 33 4 -36 0
35 6 38 3 33 4 -31 0
50 6 48 3 49 4 -51 0
50 6 48 3 49 4 -52 0
50 6 48 3 49 4 -54 0
50 6 48 3 49 4 -47 0
112 91 127 70 118 116 124 24 0
93 90 110 68 101 98 103 15 0
128 109 159 86 149 139 156 60 0
71 66 88 64 79 74 81 12 0
120 99 151 78 144 133 148 41 0
114 95 141 76 134 130 138 32 0
121 104 157 82 145 135 153 51 0
25 20 58 9 42 37 52 2 0
111 92 126 69 117 113 122 23 0
94 89 108 65 102 97 105 19 0
125 107 160 85 150 142 155 56 0
72 67 87 63 77 75 83 7 0
119 100 152 80 143 131 146 40 0
115 96 140 73 132 129 136 36 0
123 106 158 84 147 137 154 54 0
26 18 59 14 39 31 47 5 0
29 17 30 22 28 16 27 -91 0
29 17 30 22 28 16 27 -93 0
29 17 30 22 28 16 27 -92 0
29 17 30 22 28 16 27 -94 0
29 17 30 22 28 16 21 -91 0
29 17 30 22 28 16 21 -93 0
29 17 30 22 28 16 21 -92 0
29 17 30 22 28 16 21 -94 0
29 17 30 22 28 27 21 -91 0
29 17 30 22 28 27 21 -93 0
29 17 30 22 28 27 21 -92 0
29 17 30 22 28 27 21 -94 0
29 17 30 22 16 27 21 -91 0
29 17 30 22 16 27 21 -93 0
29 17 30 22 16 27 21 -92 0
29 17 30 22 16 27 21 -94 0
29 17 30 28 16 27 21 -91 0
29 17 30 28 16 27 21 -93 0
29 17 30 28 16 27 21 -92 0
29 17 30 28 16 27 21 -94 0
29 17 22 28 16 27 21 -91 0
29 17 22 28 16 27 21 -93 0
29 17 22 28 16 27 21 -92 0
29 17 22 28 16 27 21 -94 0
29 61 30 57 28 62 27 -127 0
29 61 30 57 28 62 27 -128 0
29 61 30 57 28 62 27 -126 0
29 61 30 57 28 62 27 -125 0
29 61 30 57 28 62 55 -127 0
29 61 30 57 28 62 55 -128 0
29 61 30 57 28 62 55 -126 0
29 61 30 57 28 62 55 -125 0
29 61 30 57 28 27 55 -127 0
29 61 30 57 28 27 55 -128 0
29 61 30 57 28 27 55 -126 0
29 61 30 57 28 27 55 -125 0
29 61 30 57 62 27 55 -127 0
29 61 30 57 62 27 55 -128 0
29 61 30 57 62 27 55 -126 0
29 61 30 57 62 27 55 -125 0
29 61 30 28 62 27 55 -127 0
29 61 30 28 62 27 55 -128 0
29 61 30 28 62 27 55 -126 0
29 61 30 28 62 27 55 -125 0
29 61 57 28 62 27 55 -127 0
29 61 57 28 62 27 55 -128 0
29 61 57 28 62 27 55 -126 0
29 61 57 28 62 27 55 -125 0
29 13 30 11 28 8 27 -70 0
29 13 30 11 28 8 27 -71 0
29 13 30 11 28 8 27 -69 0
29 13 30 11 28 8 27 -72 0
29 13 30 11 28 8 10 -70 0
29 13 30 11 28 8 10 -71 0
29 13 30 11 28 8 10 -69 0
29 13 30 11 28 8 10 -72 0
29 13 30 11 28 27 10 -70 0
29 13 30 11 28 27 10 -71 0
29 13 30 11 28 27 10 -69 0
29 13 30 11 28 27 10 -72 0
29 13 30 11 8 27 10 -70 0
29 13 30 11 8 27 10 -71 0
29 13 30 11 8 27 10 -69 0
29 13 30 11 8 27 10 -72 0
29 13 30 28 8 27 10 -70 0
29 13 30 28 8 27 10 -71 0
29 13 30 28 8 27 10 -69 0
29 13 30 28 8 27 10 -72 0
29 13 11 28 8 27 10 -70 0
29 13 11 28 8 27 10 -71 0
29 13 11 28 8 27 10 -69 0
29 13 11 28 8 27 10 -72 0
29 44 30 46 28 45 27 -118 0
29 44 30 46 28 45 27 -120 0
29 44 30 46 28 45 27 -117 0
29 44 30 46 28 45 27 -119 0
29 44 30 46 28 45 43 -118 0
29 44 30 46 28 45 43 -120 0
29 44 30 46 28 45 43 -117 0
29 44 30 46 28 45 43 -119 0
29 44 30 46 28 27 43 -118 0
29 44 30 46 28 27 43 -120 0
29 44 30 46 28 27 43 -117 0
29 44 30 46 28 27 43 -119 0
29 44 30 46 45 27 43 -118 0
29 44 30 46 45 27 43 -120 0
29 44 30 46 45 27 43 -117 0
29 44 30 46 45 27 43 -119 0
29 44 30 28 45 27 43 -118 0
29 44 30 28 45 27 43 -120 0
29 44 30 28 45 27 43 -117 0
29 44 30 28 45 27 43 -119 0
29 44 46 28 45 27 43 -118 0
29 44 46 28 45 27 43 -120 0
29 44 46 28 45 27 43 -117 0
29 44 46 28 45 27 43 -119 0
29 34 30 35 28 38 27 -116 0
29 34 30 35 28 38 27 -114 0
29 34 30 35 28 38 27 -113 0
29 34 30 35 28 38 27 -115 0
29 34 30 35 28 38 33 -116 0
29 34 30 35 28 38 33 -114 0
29 34 30 35 28 38 33 -113 0
29 34 30 35 28 38 33 -115 0
29 34 30 35 28 27 33 -116 0
29 34 30 35 28 27 33 -114 0
29 34 30 35 28 27 33 -113 0
29 34 30 35 28 27 33 -115 0
29 34 30 35 38 27 33 -116 0
29 34 30 35 38 27 33 -114 0
29 34 30 35 38 27 33 -113 0
29 34 30 35 38 27 33 -115 0
29 34 30 28 38 27 33 -116 0
29 34 30 28 38 27 33 -114 0
29 34 30 28 38 27 33 -113 0
29 34 30 28 38 27 33 -115 0
29 34 35 28 38 27 33 -116 0
29 34 35 28 38 27 33 -114 0
29 34 35 28 38 27 33 -113 0
29 34 35 28 38 27 33 -115 0
29 53 30 50 28 48 27 -124 0
29 53 30 50 28 48 27 -121 0
29 53 30 50 28 48 27 -122 0
29 53 30 50 28 48 27 -123 0
29 53 30 50 28 48 49 -124 0
29 53 30 50 28 48 49 -121 0
29 53 30 50 28 48 49 -122 0
29 53 30 50 28 48 49 -123 0
29 53 30 50 28 27 49 -124 0
29 53 30 50 28 27 49 -121 0
29 53 30 50 28 27 49 -122 0
29 53 30 50 28 27 49 -123 0
29 53 30 50 48 27 49 -124 0
29 53 30 50 48 27 49 -121 0
29 53 30 50 48 27 49 -122 0
29 53 30 50 48 27 49 -123 0
29 53 30 28 48 27 49 -124 0
29 53 30 28 48 27 49 -121 0
29 53 30 28 48 27 49 -122 0
29 53 30 28 48 27 49 -123 0
29 53 50 28 48 27 49 -124 0
29 53 50 28 48 27 49 -121 0
29 53 50 28 48 27 49 -122 0
29 53 50 28 48 27 49 -123 0
29 1 30 6 28 3 27 -24 0
29 1 30 6 28 3 27 -25 0
29 1 30 6 28 3 27 -23 0
29 1 30 6 28 3 27 -26 0
29 1 30 6 28 3 4 -24 0
29 1 30 6 28 3 4 -25 0
29 1 30 6 28 3 4 -23 0
29 1 30 6 28 3 4 -26 0
29 1 30 6 28 27 4 -24 0
29 1 30 6 28 27 4 -25 0
29 1 30 6 28 27 4 -23 0
29 1 30 6 28 27 4 -26 0
29 1 30 6 3 27 4 -24 0
29 1 30 6 3 27 4 -25 0
29 1 30 6 3 27 4 -23 0
29 1 30 6 3 27 4 -26 0
29 1 30 28 3 27 4 -24 0
29 1 30 28 3 27 4 -25 0
29 1 30 28 3 27 4 -23 0
29 1 30 28 3 27 4 -26 0
29 1 6 28 3 27 4 -24 0
29 1 6 28 3 27 4 -25 0
29 1 6 28 3 27 4 -23 0
29 1 6 28 3 27 4 -26 0
29 30 22 28 16 27 21 -91 0
29 30 22 28 16 27 21 -93 0
29 30 22 28 16 27 21 -92 0
29 30 22 28 16 27 21 -94 0
29 30 57 28 62 27 55 -127 0
29 30 57 28 62 27 55 -128 0
29 30 57 28 62 27 55 -126 0
29 30 57 28 62 27 55 -125 0
29 30 11 28 8 27 10 -70 0
29 30 11 28 8 27 10 -71 0
29 30 11 28 8 27 10 -69 0
29 30 11 28 8 27 10 -72 0
29 30 46 28 45 27 43 -118 0
29 30 46 28 45 27 43 -120 0
29 30 46 28 45 27 43 -117 0
29 30 46 28 45 27 43 -119 0
29 30 35 28 38 27 33 -116 0
29 30 35 28 38 27 33 -114 0
29 30 35 28 38 27 33 -113 0
29 30 35 28 38 27 33 -115 0
29 30 50 28 48 27 49 -124 0
29 30 50 28 48 27 49 -121 0
29 30 50 28 48 27 49 -122 0
29 30 50 28 48 27 49 -123 0
29 30 6 28 3 27 4 -24 0
29 30 6 28 3 27 4 -25 0
29 30 6 28 3 27 4 -23 0
29 30 6 28 3 27 4 -26 0
17 61 22 57 16 62 21 -110 0
17 61 22 57 16 62 21 -109 0
17 61 22 57 16 62 21 -108 0
17 61 22 57 16 62 21 -107 0
17 61 22 57 16 62 55 -110 0
17 61 22 57 16 62 55 -109 0
17 61 22 57 16 62 55 -108 0
17 61 22 57 16 62 55 -107 0
17 61 22 57 16 21 55 -110 0
17 61 22 57 16 21 55 -109 0
17 61 22 57 16 21 55 -108 0
17 61 22 57 16 21 55 -107 0
17 61 22 57 62 21 55 -110 0
17 61 22 57 62 21 55 -109 0
17 61 22 57 62 21 55 -108 0
17 61 22 57 62 21 55 -107 0
17 61 22 16 62 21 55 -110 0
17 61 22 16 62 21 55 -109 0
17 61 22 16 62 21 55 -108 0
17 61 22 16 62 21 55 -107 0
17 61 57 16 62 21 55 -110 0
17 61 57 16 62 21 55 -109 0
17 61 57 16 62 21 55 -108 0
17 61 57 16 62 21 55 -107 0
17 13 22 11 16 8 21 -68 0
17 13 22 11 16 8 21 -66 0
17 13 22 11 16 8 21 -65 0
17 13 22 11 16 8 21 -67 0
17 13 22 11 16 8 10 -68 0
17 13 22 11 16 8 10 -66 0
17 13 22 11 16 8 10 -65 0
17 13 22 11 16 8 10 -67 0
17 13 22 11 16 21 10 -68 0
17 13 22 11 16 21 10 -66 0
17 13 22 11 16 21 10 -65 0
17 13 22 11 16 21 10 -67 0
17 13 22 11 8 21 10 -68 0
17 13 22 11 8 21 10 -66 0
17 13 22 11 8 21 10 -65 0
17 13 22 11 8 21 10 -67 0
17 13 22 16 8 21 10 -68 0
17 13 22 16 8 21 10 -66 0
17 13 22 16 8 21 10 -65 0
17 13 22 16 8 21 10 -67 0
17 13 11 16 8 21 10 -68 0
17 13 11 16 8 21 10 -66 0
17 13 11 16 8 21 10 -65 0
17 13 11 16 8 21 10 -67 0
17 44 22 46 16 45 21 -101 0
17 44 22 46 16 45 21 -99 0
17 44 22 46 16 45 21 -102 0
17 44 22 46 16 45 21 -100 0
17 44 22 46 16 45 43 -101 0
17 44 22 46 16 45 43 -99 0
17 44 22 46 16 45 43 -102 0
17 44 22 46 16 45 43 -100 0
17 44 22 46 16 21 43 -101 0
17 44 22 46 16 21 43 -99 0
17 44 22 46 16 21 43 -102 0
17 44 22 46 16 21 43 -100 0
17 44 22 46 45 21 43 -101 0
17 44 22 46 45 21 43 -99 0
17 44 22 46 45 21 43 -102 0
17 44 22 46 45 21 43 -100 0
17 44 22 16 45 21 43 -101 0
17 44 22 16 45 21 43 -99 0
17 44 22 16 45 21 43 -102 0
17 44 22 16 45 21 43 -100 0
17 44 46 16 45 21 43 -101 0
17 44 46 16 45 21 43 -99 0
17 44 46 16 45 21 43 -102 0
17 44 46 16 45 21 43 -100 0
17 34 22 35 16 38 21 -98 0
17 34 22 35 16 38 21 -95 0
17 34 22 35 16 38 21 -97 0
17 34 22 35 16 38 21 -96 0
17 34 22 35 16 38 33 -98 0
17 34 22 35 16 38 33 -95 0
17 34 22 35 16 38 33 -97 0
17 34 22 35 16 38 33 -96 0
17 34 22 35 16 21 33 -98 0
17 34 22 35 16 21 33 -95 0
17 34 22 35 16 21 33 -97 0
17 34 22 35 16 21 33 -96 0
17 34 22 35 38 21 33 -98 0
17 34 22 35 38 21 33 -95 0
17 34 22 35 38 21 33 -97 0
17 34 22 35 38 21 33 -96 0
17 34 22 16 38 21 33 -98 0
17 34 22 16 38 21 33 -95 0
17 34 22 16 38 21 33 -97 0
17 34 22 16 38 21 33 -96 0
17 34 35 16 38 21 33 -98 0
17 34 35 16 38 21 33 -95 0
17 34 35 16 38 21 33 -97 0
17 34 35 16 38 21 33 -96 0
17 53 22 50 16 48 21 -103 0
17 53 22 50 16 48 21 -104 0
17 53 22 50 16 48 21 -105 0
17 53 22 50 16 48 21 -106 0
17 53 22 50 16 48 49 -103 0
17 53 22 50 16 48 49 -104 0
17 53 22 50 16 48 49 -105 0
17 53 22 50 16 48 49 -106 0
17 53 22 50 16 21 49 -103 0
17 53 22 50 16 21 49 -104 0
17 53 22 50 16 21 49 -105 0
17 53 22 50 16 21 49 -106 0
17 53 22 50 48 21 49 -103 0
17 53 22 50 48 21 49 -104 0
17 53 22 50 48 21 49 -105 0
17 53 22 50 48 21 49 -106 0
17 53 22 16 48 21 49 -103 0
17 53 22 16 48 21 49 -104 0
17 53 22 16 48 21 49 -105 0
17 53 22 16 48 21 49 -106 0
17 53 50 16 48 21 49 -103 0
17 53 50 16 48 21 49 -104 0
17 53 50 16 48 21 49 -105 0
17 53 50 16 48 21 49 -106 0
17 1 22 6 16 3 21 -15 0
17 1 22 6 16 3 21 -20 0
17 1 22 6 16 3 21 -19 0
17 1 22 6 16 3 21 -18 0
17 1 22 6 16 3 4 -15 0
17 1 22 6 16 3 4 -20 0
17 1 22 6 16 3 4 -19 0
17 1 22 6 16 3 4 -18 0
17 1 22 6 16 21 4 -15 0
17 1 22 6 16 21 4 -20 0
17 1 22 6 16 21 4 -19 0
17 1 22 6 16 21 4 -18 0
17 1 22 6 3 21 4 -15 0
17 1 22 6 3 21 4 -20 0
17 1 22 6 3 21 4 -19 0
17 1 22 6 3 21 4 -18 0
17 1 22 16 3 21 4 -15 0
17 1 22 16 3 21 4 -20 0
17 1 22 16 3 21 4 -19 0
17 1 22 16 3 21 4 -18 0
17 1 6 16 3 21 4 -15 0
17 1 6 16 3 21 4 -20 0
17 1 6 16 3 21 4 -19 0
17 1 6 16 3 21 4 -18 0
17 30 22 28 16 27 21 -91 0
17 30 22 28 16 27 21 -93 0
17 30 22 28 16 27 21 -92 0
17 30 22 28 16 27 21 -94 0
17 22 57 16 62 21 55 -110 0
17 22 57 16 62 21 55 -109 0
17 22 57 16 62 21 55 -108 0
17 22 57 16 62 21 55 -107 0
17 22 11 16 8 21 10 -68 0
17 22 11 16 8 21 10 -66 0
17 22 11 16 8 21 10 -65 0
17 22 11 16 8 21 10 -67 0
17 22 46 16 45 21 43 -101 0
17 22 46 16 45 21 43 -99 0
17 22 46 16 45 21 43 -102 0
17 22 46 16 45 21 43 -100 0
17 22 35 16 38 21 33 -98 0
17 22 35 16 38 21 33 -95 0
17 22 35 16 38 21 33 -97 0
17 22 35 16 38 21 33 -96 0
17 22 50 16 48 21 49 -103 0
17 22 50 16 48 21 49 -104 0
17 22 50 16 48 21 49 -105 0
17 22 50 16 48 21 49 -106 0
17 22 6 16 3 21 4 -15 0
17 22 6 16 3 21 4 -20 0
17 22 6 16 3 21 4 -19 0
17 22 6 16 3 21 4 -18 0
61 13 57 11 62 8 55 -86 0
61 13 57 11 62 8 55 -88 0
61 13 57 11 62 8 55 -85 0
61 13 57 11 62 8 55 -87 0
61 13 57 11 62 8 10 -86 0
61 13 57 11 62 8 10 -88 0
61 13 57 11 62 8 10 -85 0
61 13 57 11 62 8 10 -87 0
61 13 57 11 62 55 10 -86 0
61 13 57 11 62 55 10 -88 0
61 13 57 11 62 55 10 -85 0
61 13 57 11 62 55 10 -87 0
61 13 57 11 8 55 10 -86 0
61 13 57 11 8 55 10 -88 0
61 13 57 11 8 55 10 -85 0
61 13 57 11 8 55 10 -87 0
61 13 57 62 8 55 10 -86 0
61 13 57 62 8 55 10 -88 0
61 13 57 62 8 55 10 -85 0
61 13 57 62 8 55 10 -87 0
61 13 11 62 8 55 10 -86 0
61 13 11 62 8 55 10 -88 0
61 13 11 62 8 55 10 -85 0
61 13 11 62 8 55 10 -87 0
61 44 57 46 62 45 55 -149 0
61 44 57 46 62 45 55 -151 0
61 44 57 46 62 45 55 -150 0
61 44 57 46 62 45 55 -152 0
61 44 57 46 62 45 43 -149 0
61 44 57 46 62 45 43 -151 0
61 44 57 46 62 45 43 -150 0
61 44 57 46 62 45 43 -152 0
61 44 57 46 62 55 43 -149 0
61 44 57 46 62 55 43 -151 0
61 44 57 46 62 55 43 -150 0
61 44 57 46 62 55 43 -152 0
61 44 57 46 45 55 43 -149 0
61 44 57 46 45 55 43 -151 0
61 44 57 46 45 55 43 -150 0
61 44 57 46 45 55 43 -152 0
61 44 57 62 45 55 43 -149 0
61 44 57 62 45 55 43 -151 0
61 44 57 62 45 55 43 -150 0
61 44 57 62 45 55 43 -152 0
61 44 46 62 45 55 43 -149 0
61 44 46 62 45 55 43 -151 0
61 44 46 62 45 55 43 -150 0
61 44 46 62 45 55 43 -152 0
61 34 57 35 62 38 55 -139 0
61 34 57 35 62 38 55 -141 0
61 34 57 35 62 38 55 -142 0
61 34 57 35 62 38 55 -140 0
61 34 57 35 62 38 33 -139 0
61 34 57 35 62 38 33 -141 0
61 34 57 35 62 38 33 -142 0
61 34 57 35 62 38 33 -140 0
61 34 57 35 62 55 33 -139 0
61 34 57 35 62 55 33 -141 0
61 34 57 35 62 55 33 -142 0
61 34 57 35 62 55 33 -140 0
61 34 57 35 38 55 33 -139 0
61 34 57 35 38 55 33 -141 0
61 34 57 35 38 55 33 -142 0
61 34 57 35 38 55 33 -140 0
61 34 57 62 38 55 33 -139 0
61 34 57 62 38 55 33 -141 0
61 34 57 62 38 55 33 -142 0
61 34 57 62 38 55 33 -140 0
61 34 35 62 38 55 33 -139 0
61 34 35 62 38 55 33 -141 0
61 34 35 62 38 55 33 -142 0
61 34 35 62 38 55 33 -140 0
61 53 57 50 62 48 55 -156 0
61 53 57 50 62 48 55 -157 0
61 53 57 50 62 48 55 -155 0
61 53 57 50 62 48 55 -158 0
61 53 57 50 62 48 49 -156 0
61 53 57 50 62 48 49 -157 0
61 53 57 50 62 48 49 -155 0
61 53 57 50 62 48 49 -158 0
61 53 57 50 62 55 49 -156 0
61 53 57 50 62 55 49 -157 0
61 53 57 50 62 55 49 -155 0
61 53 57 50 62 55 49 -158 0
61 53 57 50 48 55 49 -156 0
61 53 57 50 48 55 49 -157 0
61 53 57 50 48 55 49 -155 0
61 53 57 50 48 55 49 -158 0
61 53 57 62 48 55 49 -156 0
61 53 57 62 48 55 49 -157 0
61 53 57 62 48 55 49 -155 0
61 53 57 62 48 55 49 -158 0
61 53 50 62 48 55 49 -156 0
61 53 50 62 48 55 49 -157 0
61 53 50 62 48 55 49 -155 0
61 53 50 62 48 55 49 -158 0
61 1 57 6 62 3 55 -60 0
61 1 57 6 62 3 55 -58 0
61 1 57 6 62 3 55 -56 0
61 1 57 6 62 3 55 -59 0
61 1 57 6 62 3 4 -60 0
61 1 57 6 62 3 4 -58 0
61 1 57 6 62 3 4 -56 0
61 1 57 6 62 3 4 -59 0
61 1 57 6 62 55 4 -60 0
61 1 57 6 62 55 4 -58 0
61 1 57 6 62 55 4 -56 0
61 1 57 6 62 55 4 -59 0
61 1 57 6 3 55 4 -60 0
61 1 57 6 3 55 4 -58 0
61 1 57 6 3 55 4 -56 0
61 1 57 6 3 55 4 -59 0
61 1 57 62 3 55 4 -60 0
61 1 57 62 3 55 4 -58 0
61 1 57 62 3 55 4 -56 0
61 1 57 62 3 55 4 -59 0
61 1 6 62 3 55 4 -60 0
61 1 6 62 3 55 4 -58 0
61 1 6 62 3 55 4 -56 0
61 1 6 62 3 55 4 -59 0
61 30 57 28 62 27 55 -127 0
61 30 57 28 62 27 55 -128 0
61 30 57 28 62 27 55 -126 0
61 30 57 28 62 27 55 -125 0
61 22 57 16 62 21 55 -110 0
61 22 57 16 62 21 55 -109 0
61 22 57 16 62 21 55 -108 0
61 22 57 16 62 21 55 -107 0
61 57 11 62 8 55 10 -86 0
61 57 11 62 8 55 10 -88 0
61 57 11 62 8 55 10 -85 0
61 57 11 62 8 55 10 -87 0
61 57 46 62 45 55 43 -149 0
61 57 46 62 45 55 43 -151 0
61 57 46 62 45 55 43 -150 0
61 57 46 62 45 55 43 -152 0
61 57 35 62 38 55 33 -139 0
61 57 35 62 38 55 33 -141 0
61 57 35 62 38 55 33 -142 0
61 57 35 62 38 55 33 -140 0
61 57 50 62 48 55 49 -156 0
61 57 50 62 48 55 49 -157 0
61 57 50 62 48 55 49 -155 0
61 57 50 62 48 55 49 -158 0
61 57 6 62 3 55 4 -60 0
61 57 6 62 3 55 4 -58 0
61 57 6 62 3 55 4 -56 0
61 57 6 62 3 55 4 -59 0
13 44 11 46 8 45 10 -79 0
13 44 11 46 8 45 10 -78 0
13 44 11 46 8 45 10 -77 0
13 44 11 46 8 45 10 -80 0
13 44 11 46 8 45 43 -79 0
13 44 11 46 8 45 43 -78 0
13 44 11 46 8 45 43 -77 0
13 44 11 46 8 45 43 -80 0
13 44 11 46 8 10 43 -79 0
13 44 11 46 8 10 43 -78 0
13 44 11 46 8 10 43 -77 0
13 44 11 46 8 10 43 -80 0
13 44 11 46 45 10 43 -79 0
13 44 11 46 45 10 43 -78 0
13 44 11 46 45 10 43 -77 0
13 44 11 46 45 10 43 -80 0
13 44 11 8 45 10 43 -79 0
13 44 11 8 45 10 43 -78 0
13 44 11 8 45 10 43 -77 0
13 44 11 8 45 10 43 -80 0
13 44 46 8 45 10 43 -79 0
13 44 46 8 45 10 43 -78 0
13 44 46 8 45 10 43 -77 0
13 44 46 8 45 10 43 -80 0
13 34 11 35 8 38 10 -74 0
13 34 11 35 8 38 10 -76 0
13 34 11 35 8 38 10 -75 0
13 34 11 35 8 38 10 -73 0
13 34 11 35 8 38 33 -74 0
13 34 11 35 8 38 33 -76 0
13 34 11 35 8 38 33 -75 0
13 34 11 35 8 38 33 -73 0
13 34 11 35 8 10 33 -74 0
13 34 11 35 8 10 33 -76 0
13 34 11 35 8 10 33 -75 0
13 34 11 35 8 10 33 -73 0
13 34 11 35 38 10 33 -74 0
13 34 11 35 38 10 33 -76 0
13 34 11 35 38 10 33 -75 0
13 34 11 35 38 10 33 -73 0
13 34 11 8 38 10 33 -74 0
13 34 11 8 38 10 33 -76 0
13 34 11 8 38 10 33 -75 0
13 34 11 8 38 10 33 -73 0
13 34 35 8 38 10 33 -74 0
13 34 35 8 38 10 33 -76 0
13 34 35 8 38 10 33 -75 0
13 34 35 8 38 10 33 -73 0
13 53 11 50 8 48 10 -81 0
13 53 11 50 8 48 10 -82 0
13 53 11 50 8 48 10 -83 0
13 53 11 50 8 48 10 -84 0
13 53 11 50 8 48 49 -81 0
13 53 11 50 8 48 49 -82 0
13 53 11 50 8 48 49 -83 0
13 53 11 50 8 48 49 -84 0
13 53 11 50 8 10 49 -81 0
13 53 11 50 8 10 49 -82 0
13 53 11 50 8 10 49 -83 0
13 53 11 50 8 10 49 -84 0
13 53 11 50 48 10 49 -81 0
13 53 11 50 48 10 49 -82 0
13 53 11 50 48 10 49 -83 0
13 53 11 50 48 10 49 -84 0
13 53 11 8 48 10 49 -81 0
13 53 11 8 48 10 49 -82 0
13 53 11 8 48 10 49 -83 0
13 53 11 8 48 10 49 -84 0
13 53 50 8 48 10 49 -81 0
13 53 50 8 48 10 49 -82 0
13 53 50 8 48 10 49 -83 0
13 53 50 8 48 10 49 -84 0
13 1 11 6 8 3 10 -12 0
13 1 11 6 8 3 10 -9 0
13 1 11 6 8 3 10 -7 0
13 1 11 6 8 3 10 -14 0
13 1 11 6 8 3 4 -12 0
13 1 11 6 8 3 4 -9 0
13 1 11 6 8 3 4 -7 0
13 1 11 6 8 3 4 -14 0
13 1 11 6 8 10 4 -12 0
13 1 11 6 8 10 4 -9 0
13 1 11 6 8 10 4 -7 0
13 1 11 6 8 10 4 -14 0
13 1 11 6 3 10 4 -12 0
13 1 11 6 3 10 4 -9 0
13 1 11 6 3 10 4 -7 0
13 1 11 6 3 10 4 -14 0
13 1 11 8 3 10 4 -12 0
13 1 11 8 3 10 4 -9 0
13 1 11 8 3 10 4 -7 0
13 1 11 8 3 10 4 -14 0
13 1 6 8 3 10 4 -12 0
13 1 6 8 3 10 4 -9 0
13 1 6 8 3 10 4 -7 0
13 1 6 8 3 10 4 -14 0
13 30 11 28 8 27 10 -70 0
13 30 11 28 8 27 10 -71 0
13 30 11 28 8 27 10 -69 0
13 30 11 28 8 27 10 -72 0
13 22 11 16 8 21 10 -68 0
13 22 11 16 8 21 10 -66 0
13 22 11 16 8 21 10 -65 0
13 22 11 16 8 21 10 -67 0
13 57 11 62 8 55 10 -86 0
13 57 11 62 8 55 10 -88 0
13 57 11 62 8 55 10 -85 0
13 57 11 62 8 55 10 -87 0
13 11 46 8 45 10 43 -79 0
13 11 46 8 45 10 43 -78 0
13 11 46 8 45 10 43 -77 0
13 11 46 8 45 10 43 -80 0
13 11 35 8 38 10 33 -74 0
13 11 35 8 38 10 33 -76 0
13 11 35 8 38 10 33 -75 0
13 11 35 8 38 10 33 -73 0
13 11 50 8 48 10 49 -81 0
13 11 50 8 48 10 49 -82 0
13 11 50 8 48 10 49 -83 0
13 11 50 8 48 10 49 -84 0
13 11 6 8 3 10 4 -12 0
13 11 6 8 3 10 4 -9 0
13 11 6 8 3 10 4 -7 0
13 11 6 8 3 10 4 -14 0
44 34 46 35 45 38 43 -133 0
44 34 46 35 45 38 43 -134 0
44 34 46 35 45 38 43 -131 0
44 34 46 35 45 38 43 -132 0
44 34 46 35 45 38 33 -133 0
44 34 46 35 45 38 33 -134 0
44 34 46 35 45 38 33 -131 0
44 34 46 35 45 38 33 -132 0
44 34 46 35 45 43 33 -133 0
44 34 46 35 45 43 33 -134 0
44 34 46 35 45 43 33 -131 0
44 34 46 35 45 43 33 -132 0
44 34 46 35 38 43 33 -133 0
44 34 46 35 38 43 33 -134 0
44 34 46 35 38 43 33 -131 0
44 34 46 35 38 43 33 -132 0
44 34 46 45 38 43 33 -133 0
44 34 46 45 38 43 33 -134 0
44 34 46 45 38 43 33 -131 0
44 34 46 45 38 43 33 -132 0
44 34 35 45 38 43 33 -133 0
44 34 35 45 38 43 33 -134 0
44 34 35 45 38 43 33 -131 0
44 34 35 45 38 43 33 -132 0
44 53 46 50 45 48 43 -148 0
44 53 46 50 45 48 43 -145 0
44 53 46 50 45 48 43 -146 0
44 53 46 50 45 48 43 -147 0
44 53 46 50 45 48 49 -148 0
44 53 46 50 45 48 49 -145 0
44 53 46 50 45 48 49 -146 0
44 53 46 50 45 48 49 -147 0
44 53 46 50 45 43 49 -148 0
44 53 46 50 45 43 49 -145 0
44 53 46 50 45 43 49 -146 0
44 53 46 50 45 43 49 -147 0
44 53 46 50 48 43 49 -148 0
44 53 46 50 48 43 49 -145 0
44 53 46 50 48 43 49 -146 0
44 53 46 50 48 43 49 -147 0
44 53 46 45 48 43 49 -148 0
44 53 46 45 48 43 49 -145 0
44 53 46 45 48 43 49 -146 0
44 53 46 45 48 43 49 -147 0
44 53 50 45 48 43 49 -148 0
44 53 50 45 48 43 49 -145 0
44 53 50 45 48 43 49 -146 0
44 53 50 45 48 43 49 -147 0
44 1 46 6 45 3 43 -41 0
44 1 46 6 45 3 43 -42 0
44 1 46 6 45 3 43 -40 0
44 1 46 6 45 3 43 -39 0
44 1 46 6 45 3 4 -41 0
44 1 46 6 45 3 4 -42 0
44 1 46 6 45 3 4 -40 0
44 1 46 6 45 3 4 -39 0
44 1 46 6 45 43 4 -41 0
44 1 46 6 45 43 4 -42 0
44 1 46 6 45 43 4 -40 0
44 1 46 6 45 43 4 -39 0
44 1 46 6 3 43 4 -41 0
44 1 46 6 3 43 4 -42 0
44 1 46 6 3 43 4 -40 0
44 1 46 6 3 43 4 -39 0
44 1 46 45 3 43 4 -41 0
44 1 46 45 3 43 4 -42 0
44 1 46 45 3 43 4 -40 0
44 1 46 45 3 43 4 -39 0
44 1 6 45 3 43 4 -41 0
44 1 6 45 3 43 4 -42 0
44 1 6 45 3 43 4 -40 0
44 1 6 45 3 43 4 -39 0
44 30 46 28 45 27 43 -118 0
44 30 46 28 45 27 43 -120 0
44 30 46 28 45 27 43 -117 0
44 30 46 28 45 27 43 -119 0
44 22 46 16 45 21 43 -101 0
44 22 46 16 45 21 43 -99 0
44 22 46 16 45 21 43 -102 0
44 22 46 16 45 21 43 -100 0
44 57 46 62 45 55 43 -149 0
44 57 46 62 45 55 43 -151 0
44 57 46 62 45 55 43 -150 0
44 57 46 62 45 55 43 -152 0
44 11 46 8 45 10 43 -79 0
44 11 46 8 45 10 43 -78 0
44 11 46 8 45 10 43 -77 0
44 11 46 8 45 10 43 -80 0
44 46 35 45 38 43 33 -133 0
44 46 35 45 38 43 33 -134 0
44 46 35 45 38 43 33 -131 0
44 46 35 45 38 43 33 -132 0
44 46 50 45 48 43 49 -148 0
44 46 50 45 48 43 49 -145 0
44 46 50 45 48 43 49 -146 0
44 46 50 45 48 43 49 -147 0
44 46 6 45 3 43 4 -41 0
44 46 6 45 3 43 4 -42 0
44 46 6 45 3 43 4 -40 0
44 46 6 45 3 43 4 -39 0
34 53 35 50 38 48 33 -138 0
34 53 35 50 38 48 33 -135 0
34 53 35 50 38 48 33 -136 0
34 53 35 50 38 48 33 -137 0
34 53 35 50 38 48 49 -138 0
34 53 35 50 38 48 49 -135 0
34 53 35 50 38 48 49 -136 0
34 53 35 50 38 48 49 -137 0
34 53 35 50 38 33 49 -138 0
34 53 35 50 38 33 49 -135 0
34 53 35 50 38 33 49 -136 0
34 53 35 50 38 33 49 -137 0
34 53 35 50 48 33 49 -138 0
34 53 35 50 48 33 49 -135 0
34 53 35 50 48 33 49 -136 0
34 53 35 50 48 33 49 -137 0
34 53 35 38 48 33 49 -138 0
34 53 35 38 48 33 49 -135 0
34 53 35 38 48 33 49 -136 0
34 53 35 38 48 33 49 -137 0
34 53 50 38 48 33 49 -138 0
34 53 50 38 48 33 49 -135 0
34 53 50 38 48 33 49 -136 0
34 53 50 38 48 33 49 -137 0
34 1 35 6 38 3 33 -32 0
34 1 35 6 38 3 33 -37 0
34 1 35 6 38 3 33 -36 0
34 1 35 6 38 3 33 -31 0
34 1 35 6 38 3 4 -32 0
34 1 35 6 38 3 4 -37 0
34 1 35 6 38 3 4 -36 0
34 1 35 6 38 3 4 -31 0
34 1 35 6 38 33 4 -32 0
34 1 35 6 38 33 4 -37 0
34 1 35 6 38 33 4 -36 0
34 1 35 6 38 33 4 -31 0
34 1 35 6 3 33 4 -32 0
34 1 35 6 3 33 4 -37 0
34 1 35 6 3 33 4 -36 0
34 1 35 6 3 33 4 -31 0
34 1 35 38 3 33 4 -32 0
34 1 35 38 3 33 4 -37 0
34 1 35 38 3 33 4 -36 0
34 1 35 38 3 33 4 -31 0
34 1 6 38 3 33 4 -32 0
34 1 6 38 3 33 4 -37 0
34 1 6 38 3 33 4 -36 0
34 1 6 38 3 33 4 -31 0
34 30 35 28 38 27 33 -116 0
34 30 35 28 38 27 33 -114 0
34 30 35 28 38 27 33 -113 0
34 30 35 28 38 27 33 -115 0
34 22 35 16 38 21 33 -98 0
34 22 35 16 38 21 33 -95 0
34 22 35 16 38 21 33 -97 0
34 22 35 16 38 21 33 -96 0
34 57 35 62 38 55 33 -139 0
34 57 35 62 38 55 33 -141 0
34 57 35 62 38 55 33 -142 0
34 57 35 62 38 55 33 -140 0
34 11 35 8 38 10 33 -74 0
34 11 35 8 38 10 33 -76 0
34 11 35 8 38 10 33 -75 0
34 11 35 8 38 10 33 -73 0
34 46 35 45 38 43 33 -133 0
34 46 35 45 38 43 33 -134 0
34 46 35 45 38 43 33 -131 0
34 46 35 45 38 43 33 -132 0
34 35 50 38 48 33 49 -138 0
34 35 50 38 48 33 49 -135 0
34 35 50 38 48 33 49 -136 0
34 35 50 38 48 33 49 -137 0
34 35 6 38 3 33 4 -32 0
34 35 6 38 3 33 4 -37 0
34 35 6 38 3 33 4 -36 0
34 35 6 38 3 33 4 -31 0
53 1 50 6 48 3 49 -51 0
53 1 50 6 48 3 49 -52 0
53 1 50 6 48 3 49 -54 0
53 1 50 6 48 3 49 -47 0
53 1 50 6 48 3 4 -51 0
53 1 50 6 48 3 4 -52 0
53 1 50 6 48 3 4 -54 0
53 1 50 6 48 3 4 -47 0
53 1 50 6 48 49 4 -51 0
53 1 50 6 48 49 4 -52 0
53 1 50 6 48 49 4 -54 0
53 1 50 6 48 49 4 -47 0
53 1 50 6 3 49 4 -51 0
53 1 50 6 3 49 4 -52 0
53 1 50 6 3 49 4 -54 0
53 1 50 6 3 49 4 -47 0
53 1 50 48 3 49 4 -51 0
53 1 50 48 3 49 4 -52 0
53 1 50 48 3 49 4 -54 0
53 1 50 48 3 49 4 -47 0
53 1 6 48 3 49 4 -51 0
53 1 6 48 3 49 4 -52 0
53 1 6 48 3 49 4 -54 0
53 1 6 48 3 49 4 -47 0
53 30 50 28 48 27 49 -124 0
53 30 50 28 48 27 49 -121 0
53 30 50 28 48 27 49 -122 0
53 30 50 28 48 27 49 -123 0
53 22 50 16 48 21 49 -103 0
53 22 50 16 48 21 49 -104 0
53 22 50 16 48 21 49 -105 0
53 22 50 16 48 21 49 -106 0
53 57 50 62 48 55 49 -156 0
53 57 50 62 48 55 49 -157 0
53 57 50 62 48 55 49 -155 0
53 57 50 62 48 55 49 -158 0
53 11 50 8 48 10 49 -81 0
53 11 50 8 48 10 49 -82 0
53 11 50 8 48 10 49 -83 0
53 11 50 8 48 10 49 -84 0
53 46 50 45 48 43 49 -148 0
53 46 50 45 48 43 49 -145 0
53 46 50 45 48 43 49 -146 0
53 46 50 45 48 43 49 -147 0
53 35 50 38 48 33 49 -138 0
53 35 50 38 48 33 49 -135 0
53 35 50 38 48 33 49 -136 0
53 35 50 38 48 33 49 -137 0
53 50 6 48 3 49 4 -51 0
53 50 6 48 3 49 4 -52 0
53 50 6 48 3 49 4 -54 0
53 50 6 48 3 49 4 -47 0
1 30 6 28 3 27 4 -24 0
1 30 6 28 3 27 4 -25 0
1 30 6 28 3 27 4 -23 0
1 30 6 28 3 27 4 -26 0
1 22 6 16 3 21 4 -15 0
1 22 6 16 3 21 4 -20 0
1 22 6 16 3 21 4 -19 0
1 22 6 16 3 21 4 -18 0
1 57 6 62 3 55 4 -60 0
1 57 6 62 3 55 4 -58 0
1 57 6 62 3 55 4 -56 0
1 57 6 62 3 55 4 -59 0
1 11 6 8 3 10 4 -12 0
1 11 6 8 3 10 4 -9 0
1 11 6 8 3 10 4 -7 0
1 11 6 8 3 10 4 -14 0
1 46 6 45 3 43 4 -41 0
1 46 6 45 3 43 4 -42 0
1 46 6 45 3 43 4 -40 0
1 46 6 45 3 43 4 -39 0
1 35 6 38 3 33 4 -32 0
1 35 6 38 3 33 4 -37 0
1 35 6 38 3 33 4 -36 0
1 35 6 38 3 33 4 -31 0
1 50 6 48 3 49 4 -51 0
1 50 6 48 3 49 4 -52 0
1 50 6 48 3 49 4 -54 0
1 50 6 48 3 49 4 -47 0
29 17 30 22 28 16 27 21 -91 0
29 17 30 22 28 16 27 21 -93 0
29 17 30 22 28 16 27 21 -92 0
29 17 30 22 28 16 27 21 -94 0
29 61 30 57 28 62 27 55 -127 0
29 61 30 57 28 62 27 55 -128 0
29 61 30 57 28 62 27 55 -126 0
29 61 30 57 28 62 27 55 -125 0
29 13 30 11 28 8 27 10 -70 0
29 13 30 11 28 8 27 10 -71 0
29 13 30 11 28 8 27 10 -69 0
29 13 30 11 28 8 27 10 -72 0
29 44 30 46 28 45 27 43 -118 0
29 44 30 46 28 45 27 43 -120 0
29 44 30 46 28 45 27 43 -117 0
29 44 30 46 28 45 27 43 -119 0
29 34 30 35 28 38 27 33 -116 0
29 34 30 35 28 38 27 33 -114 0
29 34 30 35 28 38 27 33 -113 0
29 34 30 35 28 38 27 33 -115 0
29 53 30 50 28 48 27 49 -124 0
29 53 30 50 28 48 27 49 -121 0
29 53 30 50 28 48 27 49 -122 0
29 53 30 50 28 48 27 49 -123 0
29 1 30 6 28 3 27 4 -24 0
29 1 30 6 28 3 27 4 -25 0
29 1 30 6 28 3 27 4 -23 0
29 1 30 6 28 3 27 4 -26 0
17 61 22 57 16 62 21 55 -110 0
17 61 22 57 16 62 21 55 -109 0
17 61 22 57 16 62 21 55 -108 0
17 61 22 57 16 62 21 55 -107 0
17 13 22 11 16 8 21 10 -68 0
17 13 22 11 16 8 21 10 -66 0
17 13 22 11 16 8 21 10 -65 0
17 13 22 11 16 8 21 10 -67 0
17 44 22 46 16 45 21 43 -101 0
17 44 22 46 16 45 21 43 -99 0
17 44 22 46 16 45 21 43 -102 0
17 44 22 46 16 45 21 43 -100 0
17 34 22 35 16 38 21 33 -98 0
17 34 22 35 16 38 21 33 -95 0
17 34 22 35 16 38 21 33 -97 0
17 34 22 35 16 38 21 33 -96 0
17 53 22 50 16 48 21 49 -103 0
17 53 22 50 16 48 21 49 -104 0
17 53 22 50 16 48 21 49 -105 0
17 53 22 50 16 48 21 49 -106 0
17 1 22 6 16 3 21 4 -15 0
17 1 22 6 16 3 21 4 -20 0
17 1 22 6 16 3 21 4 -19 0
17 1 22 6 16 3 21 4 -18 0
61 13 57 11 62 8 55 10 -86 0
61 13 57 11 62 8 55 10 -88 0
61 13 57 11 62 8 55 10 -85 0
61 13 57 11 62 8 55 10 -87 0
61 44 57 46 62 45 55 43 -149 0
61 44 57 46 62 45 55 43 -151 0
61 44 57 46 62 45 55 43 -150 0
61 44 57 46 62 45 55 43 -152 0
61 34 57 35 62 38 55 33 -139 0
61 34 57 35 62 38 55 33 -141 0
61 34 57 35 62 38 55 33 -142 0
61 34 57 35 62 38 55 33 -140 0
61 53 57 50 62 48 55 49 -156 0
61 53 57 50 62 48 55 49 -157 0
61 53 57 50 62 48 55 49 -155 0
61 53 57 50 62 48 55 49 -158 0
61 1 57 6 62 3 55 4 -60 0
61 1 57 6 62 3 55 4 -58 0
61 1 57 6 62 3 55 4 -56 0
61 1 57 6 62 3 55 4 -59 0
13 44 11 46 8 45 10 43 -79 0
13 44 11 46 8 45 10 43 -78 0
13 44 11 46 8 45 10 43 -77 0
13 44 11 46 8 45 10 43 -80 0
13 34 11 35 8 38 10 33 -74 0
13 34 11 35 8 38 10 33 -76 0
13 34 11 35 8 38 10 33 -75 0
13 34 11 35 8 38 10 33 -73 0
13 53 11 50 8 48 10 49 -81 0
13 53 11 50 8 48 10 49 -82 0
13 53 11 50 8 48 10 49 -83 0
13 53 11 50 8 48 10 49 -84 0
13 1 11 6 8 3 10 4 -12 0
13 1 11 6 8 3 10 4 -9 0
13 1 11 6 8 3 10 4 -7 0
13 1 11 6 8 3 10 4 -14 0
44 34 46 35 45 38 43 33 -133 0
44 34 46 35 45 38 43 33 -134 0
44 34 46 35 45 38 43 33 -131 0
44 34 46 35 45 38 43 33 -132 0
44 53 46 50 45 48 43 49 -148 0
44 53 46 50 45 48 43 49 -145 0
44 53 46 50 45 48 43 49 -146 0
44 53 46 50 45 48 43 49 -147 0
44 1 46 6 45 3 43 4 -41 0
44 1 46 6 45 3 43 4 -42 0
44 1 46 6 45 3 43 4 -40 0
44 1 46 6 45 3 43 4 -39 0
34 53 35 50 38 48 33 49 -138 0
34 53 35 50 38 48 33 49 -135 0
34 53 35 50 38 48 33 49 -136 0
34 53 35 50 38 48 33 49 -137 0
34 1 35 6 38 3 33 4 -32 0
34 1 35 6 38 3 33 4 -37 0
34 1 35 6 38 3 33 4 -36 0
34 1 35 6 38 3 33 4 -31 0
53 1 50 6 48 3 49 4 -51 0
53 1 50 6 48 3 49 4 -52 0
53 1 50 6 48 3 49 4 -54 0
53 1 50 6 48 3 49 4 -47 0
