c U4(0) U2(0) E1(0,0) E2(0,0) U1(0) U3(0) E1(0,8) E2(0,8) U1(8) U3(8) E1(8,0) E2(8,0) U4(8) U2(8) U2(1) E2(1,0) E1(0,1) U3(1) E2(0,1) U4(1) E1(1,0) U1(1) E1(0,2) U4(2) U1(2) E2(0,2) U3(2) U2(2) E1(2,0) E2(2,0) E1(0,3) E2(3,0) E1(3,0) E2(0,3) U4(3) U1(3) U3(3) U2(3) U2(7) E2(7,0) E1(7,0) U1(7) U3(7) U4(7) E1(0,7) E2(0,7) U3(5) U4(5) E1(0,5) E2(0,5) E1(5,0) U1(5) E2(5,0) U2(5) U2(6) U3(6) E1(6,0) E2(6,0) E1(0,6) E2(0,6) U4(6) U1(6) E1(0,4) U4(4) E2(4,0) E1(4,0) E2(0,4) U1(4) U3(4) U2(4) E1(8,8) E2(8,8) E2(8,1) E1(1,8) E1(8,1) E2(1,8) E1(8,2) E2(8,2) E1(2,8) E2(2,8) E2(3,8) E1(8,3) E1(3,8) E2(8,3) E2(8,7) E1(7,8) E1(8,7) E2(7,8) E1(5,8) E2(5,8) E1(8,5) E2(8,5) E1(6,8) E2(8,6) E1(8,6) E2(6,8) E1(8,4) E2(8,4) E1(4,8) E2(4,8) E1(1,1) E2(1,1) E1(2,1) E2(1,2) E2(2,1) E1(1,2) E2(1,3) E1(1,3) E2(3,1) E1(3,1) E2(1,7) E1(7,1) E2(7,1) E1(1,7) E2(1,5) E1(5,1) E2(5,1) E1(1,5) E2(6,1) E1(6,1) E1(1,6) E2(1,6) E1(4,1) E1(1,4) E2(1,4) E2(4,1) E1(2,2) E2(2,2) E2(3,2) E2(2,3) E1(2,3) E1(3,2) E2(2,7) E1(7,2) E1(2,7) E2(7,2) E2(5,2) E1(2,5) E2(2,5) E1(5,2) E1(6,2) E1(2,6) E2(6,2) E2(2,6) E2(4,2) E1(2,4) E2(2,4) E1(4,2) E2(3,3) E1(3,3) E1(7,3) E2(3,7) E2(7,3) E1(3,7) E2(5,3) E1(5,3) E1(3,5) E2(3,5) E1(6,3) E1(3,6) E2(3,6) E2(6,3) E1(3,4) E1(4,3) E2(4,3) E2(3,4) E1(7,7) E2(7,7) E1(7,5) E1(5,7) E2(7,5) E2(5,7) E1(7,6) E2(7,6) E2(6,7) E1(6,7) E1(7,4) E1(4,7) E2(4,7) E2(7,4) E2(5,5) E1(5,5) E1(6,5) E2(5,6) E2(6,5) E1(5,6) E1(5,4) E2(4,5) E2(5,4) E1(4,5) E1(6,6) E2(6,6) E1(6,4) E1(4,6) E2(6,4) E2(4,6) E1(4,4) E2(4,4)
c 1 2 3 4 5 6 7 8 9 10 11 12 13 14 15 16 17 18 19 20 21 22 23 24 25 26 27 28 29 30 31 32 33 34 35 36 37 38 39 40 41 42 43 44 45 46 47 48 49 50 51 52 53 54 55 56 57 58 59 60 61 62 63 64 65 66 67 68 69 70 71 72 73 74 75 76 77 78 79 80 81 82 83 84 85 86 87 88 89 90 91 92 93 94 95 96 97 98 99 100 101 102 103 104 105 106 107 108 109 110 111 112 113 114 115 116 117 118 119 120 121 122 123 124 125 126 127 128 129 130 131 132 133 134 135 136 137 138 139 140 141 142 143 144 145 146 147 148 149 150 151 152 153 154 155 156 157 158 159 160 161 162 163 164 165 166 167 168 169 170 171 172 173 174 175 176 177 178 179 180 181 182 183 184 185 186 187 188 189 190 191 192 193 194 195 196 197 198
p cnf 198 5301
-3 0
-101 0
-127 0
-150 0
-197 0
-182 0
-191 0
-167 0
-71 0
-4 0
-102 0
-128 0
-149 0
-198 0
-181 0
-192 0
-168 0
-72 0
-17 -21 0
-23 -29 0
-31 -33 0
-63 -66 0
-49 -51 0
-59 -57 0
-45 -41 0
-7 -11 0
-106 -103 0
-108 -110 0
-124 -123 0
-118 -116 0
-121 -120 0
-114 -112 0
-74 -75 0
-131 -132 0
-146 -148 0
-138 -140 0
-142 -141 0
-135 -134 0
-79 -77 0
-163 -164 0
-157 -156 0
-160 -159 0
-154 -151 0
-83 -82 0
-190 -187 0
-194 -193 0
-178 -177 0
-99 -97 0
-186 -183 0
-170 -169 0
-89 -91 0
-176 -173 0
-93 -95 0
-86 -87 0
-19 -16 0
-26 -30 0
-34 -32 0
-67 -65 0
-50 -53 0
-60 -58 0
-46 -40 0
-8 -12 0
-104 -105 0
-107 -109 0
-125 -126 0
-115 -117 0
-122 -119 0
-111 -113 0
-76 -73 0
-130 -129 0
-147 -145 0
-139 -137 0
-144 -143 0
-133 -136 0
-80 -78 0
-166 -165 0
-158 -155 0
-161 -162 0
-152 -153 0
-81 -84 0
-188 -189 0
-196 -195 0
-179 -180 0
-100 -98 0
-184 -185 0
-172 -171 0
-90 -92 0
-175 -174 0
-96 -94 0
-88 -85 0
-5 -2 0
-5 -6 0
-5 -1 0
-22 -15 0
-22 -18 0
-22 -20 0
-25 -28 0
-25 -27 0
-25 -24 0
-36 -38 0
-36 -37 0
-36 -35 0
-68 -70 0
-68 -69 0
-68 -64 0
-52 -54 0
-52 -47 0
-52 -48 0
-62 -55 0
-62 -56 0
-62 -61 0
-42 -39 0
-42 -43 0
-42 -44 0
-9 -14 0
-9 -10 0
-9 -13 0
-2 -6 0
-2 -1 0
-15 -18 0
-15 -20 0
-28 -27 0
-28 -24 0
-38 -37 0
-38 -35 0
-70 -69 0
-70 -64 0
-54 -47 0
-54 -48 0
-55 -56 0
-55 -61 0
-39 -43 0
-39 -44 0
-14 -10 0
-14 -13 0
-6 -1 0
-18 -20 0
-27 -24 0
-37 -35 0
-69 -64 0
-47 -48 0
-56 -61 0
-43 -44 0
-10 -13 0
5 2 6 1 0
22 15 18 20 0
25 28 27 24 0
36 38 37 35 0
68 70 69 64 0
52 54 47 48 0
62 55 56 61 0
42 39 43 44 0
9 14 10 13 0
5 2 6 -3 0
5 2 6 -4 0
5 2 1 -3 0
5 2 1 -4 0
5 6 1 -3 0
5 6 1 -4 0
22 15 18 -101 0
22 15 18 -102 0
22 15 20 -101 0
22 15 20 -102 0
22 18 20 -101 0
22 18 20 -102 0
25 28 27 -127 0
25 28 27 -128 0
25 28 24 -127 0
25 28 24 -128 0
25 27 24 -127 0
25 27 24 -128 0
36 38 37 -150 0
36 38 37 -149 0
36 38 35 -150 0
36 38 35 -149 0
36 37 35 -150 0
36 37 35 -149 0
68 70 69 -197 0
68 70 69 -198 0
68 70 64 -197 0
68 70 64 -198 0
68 69 64 -197 0
68 69 64 -198 0
52 54 47 -182 0
52 54 47 -181 0
52 54 48 -182 0
52 54 48 -181 0
52 47 48 -182 0
52 47 48 -181 0
62 55 56 -191 0
62 55 56 -192 0
62 55 61 -191 0
62 55 61 -192 0
62 56 61 -191 0
62 56 61 -192 0
42 39 43 -167 0
42 39 43 -168 0
42 39 44 -167 0
42 39 44 -168 0
42 43 44 -167 0
42 43 44 -168 0
9 14 10 -71 0
9 14 10 -72 0
9 14 13 -71 0
9 14 13 -72 0
9 10 13 -71 0
9 10 13 -72 0
2 6 1 -3 0
2 6 1 -4 0
15 18 20 -101 0
15 18 20 -102 0
28 27 24 -127 0
28 27 24 -128 0
38 37 35 -150 0
38 37 35 -149 0
70 69 64 -197 0
70 69 64 -198 0
54 47 48 -182 0
54 47 48 -181 0
55 56 61 -191 0
55 56 61 -192 0
39 43 44 -167 0
39 43 44 -168 0
14 10 13 -71 0
14 10 13 -72 0
5 2 6 1 -3 0
5 2 6 1 -17 0
5 2 6 1 -23 0
5 2 6 1 -31 0
5 2 6 1 -63 0
5 2 6 1 -49 0
5 2 6 1 -59 0
5 2 6 1 -45 0
5 2 6 1 -7 0
5 2 6 1 -21 0
5 2 6 1 -29 0
5 2 6 1 -33 0
5 2 6 1 -66 0
5 2 6 1 -51 0
5 2 6 1 -57 0
5 2 6 1 -41 0
5 2 6 1 -11 0
5 2 6 1 -4 0
5 2 6 1 -19 0
5 2 6 1 -26 0
5 2 6 1 -34 0
5 2 6 1 -67 0
5 2 6 1 -50 0
5 2 6 1 -60 0
5 2 6 1 -46 0
5 2 6 1 -8 0
5 2 6 1 -16 0
5 2 6 1 -30 0
5 2 6 1 -32 0
5 2 6 1 -65 0
5 2 6 1 -53 0
5 2 6 1 -58 0
5 2 6 1 -40 0
5 2 6 1 -12 0
22 15 18 20 -17 0
22 15 18 20 -21 0
22 15 18 20 -101 0
22 15 18 20 -106 0
22 15 18 20 -108 0
22 15 18 20 -124 0
22 15 18 20 -118 0
22 15 18 20 -121 0
22 15 18 20 -114 0
22 15 18 20 -74 0
22 15 18 20 -103 0
22 15 18 20 -110 0
22 15 18 20 -123 0
22 15 18 20 -116 0
22 15 18 20 -120 0
22 15 18 20 -112 0
22 15 18 20 -75 0
22 15 18 20 -19 0
22 15 18 20 -16 0
22 15 18 20 -102 0
22 15 18 20 -104 0
22 15 18 20 -107 0
22 15 18 20 -125 0
22 15 18 20 -115 0
22 15 18 20 -122 0
22 15 18 20 -111 0
22 15 18 20 -76 0
22 15 18 20 -105 0
22 15 18 20 -109 0
22 15 18 20 -126 0
22 15 18 20 -117 0
22 15 18 20 -119 0
22 15 18 20 -113 0
22 15 18 20 -73 0
25 28 27 24 -23 0
25 28 27 24 -106 0
25 28 27 24 -29 0
25 28 27 24 -103 0
25 28 27 24 -127 0
25 28 27 24 -131 0
25 28 27 24 -146 0
25 28 27 24 -138 0
25 28 27 24 -142 0
25 28 27 24 -135 0
25 28 27 24 -79 0
25 28 27 24 -132 0
25 28 27 24 -148 0
25 28 27 24 -140 0
25 28 27 24 -141 0
25 28 27 24 -134 0
25 28 27 24 -77 0
25 28 27 24 -26 0
25 28 27 24 -104 0
25 28 27 24 -30 0
25 28 27 24 -105 0
25 28 27 24 -128 0
25 28 27 24 -130 0
25 28 27 24 -147 0
25 28 27 24 -139 0
25 28 27 24 -144 0
25 28 27 24 -133 0
25 28 27 24 -80 0
25 28 27 24 -129 0
25 28 27 24 -145 0
25 28 27 24 -137 0
25 28 27 24 -143 0
25 28 27 24 -136 0
25 28 27 24 -78 0
36 38 37 35 -31 0
36 38 37 35 -108 0
36 38 37 35 -131 0
36 38 37 35 -33 0
36 38 37 35 -110 0
36 38 37 35 -132 0
36 38 37 35 -150 0
36 38 37 35 -163 0
36 38 37 35 -157 0
36 38 37 35 -160 0
36 38 37 35 -154 0
36 38 37 35 -83 0
36 38 37 35 -164 0
36 38 37 35 -156 0
36 38 37 35 -159 0
36 38 37 35 -151 0
36 38 37 35 -82 0
36 38 37 35 -34 0
36 38 37 35 -107 0
36 38 37 35 -130 0
36 38 37 35 -32 0
36 38 37 35 -109 0
36 38 37 35 -129 0
36 38 37 35 -149 0
36 38 37 35 -166 0
36 38 37 35 -158 0
36 38 37 35 -161 0
36 38 37 35 -152 0
36 38 37 35 -81 0
36 38 37 35 -165 0
36 38 37 35 -155 0
36 38 37 35 -162 0
36 38 37 35 -153 0
36 38 37 35 -84 0
68 70 69 64 -63 0
68 70 69 64 -124 0
68 70 69 64 -146 0
68 70 69 64 -163 0
68 70 69 64 -66 0
68 70 69 64 -123 0
68 70 69 64 -148 0
68 70 69 64 -164 0
68 70 69 64 -197 0
68 70 69 64 -190 0
68 70 69 64 -194 0
68 70 69 64 -178 0
68 70 69 64 -99 0
68 70 69 64 -187 0
68 70 69 64 -193 0
68 70 69 64 -177 0
68 70 69 64 -97 0
68 70 69 64 -67 0
68 70 69 64 -125 0
68 70 69 64 -147 0
68 70 69 64 -166 0
68 70 69 64 -65 0
68 70 69 64 -126 0
68 70 69 64 -145 0
68 70 69 64 -165 0
68 70 69 64 -198 0
68 70 69 64 -188 0
68 70 69 64 -196 0
68 70 69 64 -179 0
68 70 69 64 -100 0
68 70 69 64 -189 0
68 70 69 64 -195 0
68 70 69 64 -180 0
68 70 69 64 -98 0
52 54 47 48 -49 0
52 54 47 48 -118 0
52 54 47 48 -138 0
52 54 47 48 -157 0
52 54 47 48 -190 0
52 54 47 48 -51 0
52 54 47 48 -116 0
52 54 47 48 -140 0
52 54 47 48 -156 0
52 54 47 48 -187 0
52 54 47 48 -182 0
52 54 47 48 -186 0
52 54 47 48 -170 0
52 54 47 48 -89 0
52 54 47 48 -183 0
52 54 47 48 -169 0
52 54 47 48 -91 0
52 54 47 48 -50 0
52 54 47 48 -115 0
52 54 47 48 -139 0
52 54 47 48 -158 0
52 54 47 48 -188 0
52 54 47 48 -53 0
52 54 47 48 -117 0
52 54 47 48 -137 0
52 54 47 48 -155 0
52 54 47 48 -189 0
52 54 47 48 -181 0
52 54 47 48 -184 0
52 54 47 48 -172 0
52 54 47 48 -90 0
52 54 47 48 -185 0
52 54 47 48 -171 0
52 54 47 48 -92 0
62 55 56 61 -59 0
62 55 56 61 -121 0
62 55 56 61 -142 0
62 55 56 61 -160 0
62 55 56 61 -194 0
62 55 56 61 -186 0
62 55 56 61 -57 0
62 55 56 61 -120 0
62 55 56 61 -141 0
62 55 56 61 -159 0
62 55 56 61 -193 0
62 55 56 61 -183 0
62 55 56 61 -191 0
62 55 56 61 -176 0
62 55 56 61 -93 0
62 55 56 61 -173 0
62 55 56 61 -95 0
62 55 56 61 -60 0
62 55 56 61 -122 0
62 55 56 61 -144 0
62 55 56 61 -161 0
62 55 56 61 -196 0
62 55 56 61 -184 0
62 55 56 61 -58 0
62 55 56 61 -119 0
62 55 56 61 -143 0
62 55 56 61 -162 0
62 55 56 61 -195 0
62 55 56 61 -185 0
62 55 56 61 -192 0
62 55 56 61 -175 0
62 55 56 61 -96 0
62 55 56 61 -174 0
62 55 56 61 -94 0
42 39 43 44 -45 0
42 39 43 44 -114 0
42 39 43 44 -135 0
42 39 43 44 -154 0
42 39 43 44 -178 0
42 39 43 44 -170 0
42 39 43 44 -176 0
42 39 43 44 -41 0
42 39 43 44 -112 0
42 39 43 44 -134 0
42 39 43 44 -151 0
42 39 43 44 -177 0
42 39 43 44 -169 0
42 39 43 44 -173 0
42 39 43 44 -167 0
42 39 43 44 -86 0
42 39 43 44 -87 0
42 39 43 44 -46 0
42 39 43 44 -111 0
42 39 43 44 -133 0
42 39 43 44 -152 0
42 39 43 44 -179 0
42 39 43 44 -172 0
42 39 43 44 -175 0
42 39 43 44 -40 0
42 39 43 44 -113 0
42 39 43 44 -136 0
42 39 43 44 -153 0
42 39 43 44 -180 0
42 39 43 44 -171 0
42 39 43 44 -174 0
42 39 43 44 -168 0
42 39 43 44 -88 0
42 39 43 44 -85 0
9 14 10 13 -7 0
9 14 10 13 -74 0
9 14 10 13 -79 0
9 14 10 13 -83 0
9 14 10 13 -99 0
9 14 10 13 -89 0
9 14 10 13 -93 0
9 14 10 13 -86 0
9 14 10 13 -11 0
9 14 10 13 -75 0
9 14 10 13 -77 0
9 14 10 13 -82 0
9 14 10 13 -97 0
9 14 10 13 -91 0
9 14 10 13 -95 0
9 14 10 13 -87 0
9 14 10 13 -71 0
9 14 10 13 -8 0
9 14 10 13 -76 0
9 14 10 13 -80 0
9 14 10 13 -81 0
9 14 10 13 -100 0
9 14 10 13 -90 0
9 14 10 13 -96 0
9 14 10 13 -88 0
9 14 10 13 -12 0
9 14 10 13 -73 0
9 14 10 13 -78 0
9 14 10 13 -84 0
9 14 10 13 -98 0
9 14 10 13 -92 0
9 14 10 13 -94 0
9 14 10 13 -85 0
9 14 10 13 -72 0
5 22 2 6 1 -17 0
5 22 2 6 1 -21 0
5 22 2 6 1 -19 0
5 22 2 6 1 -16 0
5 22 15 18 20 -17 0
5 22 15 18 20 -21 0
5 22 15 18 20 -19 0
5 22 15 18 20 -16 0
5 25 2 6 1 -23 0
5 25 2 6 1 -29 0
5 25 2 6 1 -26 0
5 25 2 6 1 -30 0
5 25 28 27 24 -23 0
5 25 28 27 24 -29 0
5 25 28 27 24 -26 0
5 25 28 27 24 -30 0
5 36 2 6 1 -31 0
5 36 2 6 1 -33 0
5 36 2 6 1 -34 0
5 36 2 6 1 -32 0
5 36 38 37 35 -31 0
5 36 38 37 35 -33 0
5 36 38 37 35 -34 0
5 36 38 37 35 -32 0
5 68 2 6 1 -63 0
5 68 2 6 1 -66 0
5 68 2 6 1 -67 0
5 68 2 6 1 -65 0
5 68 70 69 64 -63 0
5 68 70 69 64 -66 0
5 68 70 69 64 -67 0
5 68 70 69 64 -65 0
5 52 2 6 1 -49 0
5 52 2 6 1 -51 0
5 52 2 6 1 -50 0
5 52 2 6 1 -53 0
5 52 54 47 48 -49 0
5 52 54 47 48 -51 0
5 52 54 47 48 -50 0
5 52 54 47 48 -53 0
5 62 2 6 1 -59 0
5 62 2 6 1 -57 0
5 62 2 6 1 -60 0
5 62 2 6 1 -58 0
5 62 55 56 61 -59 0
5 62 55 56 61 -57 0
5 62 55 56 61 -60 0
5 62 55 56 61 -58 0
5 42 2 6 1 -45 0
5 42 2 6 1 -41 0
5 42 2 6 1 -46 0
5 42 2 6 1 -40 0
5 42 39 43 44 -45 0
5 42 39 43 44 -41 0
5 42 39 43 44 -46 0
5 42 39 43 44 -40 0
5 9 2 6 1 -7 0
5 9 2 6 1 -11 0
5 9 2 6 1 -8 0
5 9 2 6 1 -12 0
5 9 14 10 13 -7 0
5 9 14 10 13 -11 0
5 9 14 10 13 -8 0
5 9 14 10 13 -12 0
5 2 15 6 1 -17 0
5 2 15 6 1 -21 0
5 2 15 6 1 -19 0
5 2 15 6 1 -16 0
5 2 28 6 1 -23 0
5 2 28 6 1 -29 0
5 2 28 6 1 -26 0
5 2 28 6 1 -30 0
5 2 38 6 1 -31 0
5 2 38 6 1 -33 0
5 2 38 6 1 -34 0
5 2 38 6 1 -32 0
5 2 70 6 1 -63 0
5 2 70 6 1 -66 0
5 2 70 6 1 -67 0
5 2 70 6 1 -65 0
5 2 54 6 1 -49 0
5 2 54 6 1 -51 0
5 2 54 6 1 -50 0
5 2 54 6 1 -53 0
5 2 55 6 1 -59 0
5 2 55 6 1 -57 0
5 2 55 6 1 -60 0
5 2 55 6 1 -58 0
5 2 39 6 1 -45 0
5 2 39 6 1 -41 0
5 2 39 6 1 -46 0
5 2 39 6 1 -40 0
5 2 14 6 1 -7 0
5 2 14 6 1 -11 0
5 2 14 6 1 -8 0
5 2 14 6 1 -12 0
5 2 6 18 1 -17 0
5 2 6 18 1 -21 0
5 2 6 18 1 -19 0
5 2 6 18 1 -16 0
5 2 6 27 1 -23 0
5 2 6 27 1 -29 0
5 2 6 27 1 -26 0
5 2 6 27 1 -30 0
5 2 6 37 1 -31 0
5 2 6 37 1 -33 0
5 2 6 37 1 -34 0
5 2 6 37 1 -32 0
5 2 6 69 1 -63 0
5 2 6 69 1 -66 0
5 2 6 69 1 -67 0
5 2 6 69 1 -65 0
5 2 6 47 1 -49 0
5 2 6 47 1 -51 0
5 2 6 47 1 -50 0
5 2 6 47 1 -53 0
5 2 6 56 1 -59 0
5 2 6 56 1 -57 0
5 2 6 56 1 -60 0
5 2 6 56 1 -58 0
5 2 6 43 1 -45 0
5 2 6 43 1 -41 0
5 2 6 43 1 -46 0
5 2 6 43 1 -40 0
5 2 6 10 1 -7 0
5 2 6 10 1 -11 0
5 2 6 10 1 -8 0
5 2 6 10 1 -12 0
5 2 6 1 20 -17 0
5 2 6 1 20 -21 0
5 2 6 1 20 -19 0
5 2 6 1 20 -16 0
5 2 6 1 24 -23 0
5 2 6 1 24 -29 0
5 2 6 1 24 -26 0
5 2 6 1 24 -30 0
5 2 6 1 35 -31 0
5 2 6 1 35 -33 0
5 2 6 1 35 -34 0
5 2 6 1 35 -32 0
5 2 6 1 64 -63 0
5 2 6 1 64 -66 0
5 2 6 1 64 -67 0
5 2 6 1 64 -65 0
5 2 6 1 48 -49 0
5 2 6 1 48 -51 0
5 2 6 1 48 -50 0
5 2 6 1 48 -53 0
5 2 6 1 61 -59 0
5 2 6 1 61 -57 0
5 2 6 1 61 -60 0
5 2 6 1 61 -58 0
5 2 6 1 44 -45 0
5 2 6 1 44 -41 0
5 2 6 1 44 -46 0
5 2 6 1 44 -40 0
5 2 6 1 13 -7 0
5 2 6 1 13 -11 0
5 2 6 1 13 -8 0
5 2 6 1 13 -12 0
22 25 15 18 20 -106 0
22 25 15 18 20 -103 0
22 25 15 18 20 -104 0
22 25 15 18 20 -105 0
22 25 28 27 24 -106 0
22 25 28 27 24 -103 0
22 25 28 27 24 -104 0
22 25 28 27 24 -105 0
22 36 15 18 20 -108 0
22 36 15 18 20 -110 0
22 36 15 18 20 -107 0
22 36 15 18 20 -109 0
22 36 38 37 35 -108 0
22 36 38 37 35 -110 0
22 36 38 37 35 -107 0
22 36 38 37 35 -109 0
22 68 15 18 20 -124 0
22 68 15 18 20 -123 0
22 68 15 18 20 -125 0
22 68 15 18 20 -126 0
22 68 70 69 64 -124 0
22 68 70 69 64 -123 0
22 68 70 69 64 -125 0
22 68 70 69 64 -126 0
22 52 15 18 20 -118 0
22 52 15 18 20 -116 0
22 52 15 18 20 -115 0
22 52 15 18 20 -117 0
22 52 54 47 48 -118 0
22 52 54 47 48 -116 0
22 52 54 47 48 -115 0
22 52 54 47 48 -117 0
22 62 15 18 20 -121 0
22 62 15 18 20 -120 0
22 62 15 18 20 -122 0
22 62 15 18 20 -119 0
22 62 55 56 61 -121 0
22 62 55 56 61 -120 0
22 62 55 56 61 -122 0
22 62 55 56 61 -119 0
22 42 15 18 20 -114 0
22 42 15 18 20 -112 0
22 42 15 18 20 -111 0
22 42 15 18 20 -113 0
22 42 39 43 44 -114 0
22 42 39 43 44 -112 0
22 42 39 43 44 -111 0
22 42 39 43 44 -113 0
22 9 15 18 20 -74 0
22 9 15 18 20 -75 0
22 9 15 18 20 -76 0
22 9 15 18 20 -73 0
22 9 14 10 13 -74 0
22 9 14 10 13 -75 0
22 9 14 10 13 -76 0
22 9 14 10 13 -73 0
22 2 15 18 20 -17 0
22 2 15 18 20 -21 0
22 2 15 18 20 -19 0
22 2 15 18 20 -16 0
22 15 28 18 20 -106 0
22 15 28 18 20 -103 0
22 15 28 18 20 -104 0
22 15 28 18 20 -105 0
22 15 38 18 20 -108 0
22 15 38 18 20 -110 0
22 15 38 18 20 -107 0
22 15 38 18 20 -109 0
22 15 70 18 20 -124 0
22 15 70 18 20 -123 0
22 15 70 18 20 -125 0
22 15 70 18 20 -126 0
22 15 54 18 20 -118 0
22 15 54 18 20 -116 0
22 15 54 18 20 -115 0
22 15 54 18 20 -117 0
22 15 55 18 20 -121 0
22 15 55 18 20 -120 0
22 15 55 18 20 -122 0
22 15 55 18 20 -119 0
22 15 39 18 20 -114 0
22 15 39 18 20 -112 0
22 15 39 18 20 -111 0
22 15 39 18 20 -113 0
22 15 14 18 20 -74 0
22 15 14 18 20 -75 0
22 15 14 18 20 -76 0
22 15 14 18 20 -73 0
22 15 6 18 20 -17 0
22 15 6 18 20 -21 0
22 15 6 18 20 -19 0
22 15 6 18 20 -16 0
22 15 18 27 20 -106 0
22 15 18 27 20 -103 0
22 15 18 27 20 -104 0
22 15 18 27 20 -105 0
22 15 18 37 20 -108 0
22 15 18 37 20 -110 0
22 15 18 37 20 -107 0
22 15 18 37 20 -109 0
22 15 18 69 20 -124 0
22 15 18 69 20 -123 0
22 15 18 69 20 -125 0
22 15 18 69 20 -126 0
22 15 18 47 20 -118 0
22 15 18 47 20 -116 0
22 15 18 47 20 -115 0
22 15 18 47 20 -117 0
22 15 18 56 20 -121 0
22 15 18 56 20 -120 0
22 15 18 56 20 -122 0
22 15 18 56 20 -119 0
22 15 18 43 20 -114 0
22 15 18 43 20 -112 0
22 15 18 43 20 -111 0
22 15 18 43 20 -113 0
22 15 18 10 20 -74 0
22 15 18 10 20 -75 0
22 15 18 10 20 -76 0
22 15 18 10 20 -73 0
22 15 18 1 20 -17 0
22 15 18 1 20 -21 0
22 15 18 1 20 -19 0
22 15 18 1 20 -16 0
22 15 18 20 24 -106 0
22 15 18 20 24 -103 0
22 15 18 20 24 -104 0
22 15 18 20 24 -105 0
22 15 18 20 35 -108 0
22 15 18 20 35 -110 0
22 15 18 20 35 -107 0
22 15 18 20 35 -109 0
22 15 18 20 64 -124 0
22 15 18 20 64 -123 0
22 15 18 20 64 -125 0
22 15 18 20 64 -126 0
22 15 18 20 48 -118 0
22 15 18 20 48 -116 0
22 15 18 20 48 -115 0
22 15 18 20 48 -117 0
22 15 18 20 61 -121 0
22 15 18 20 61 -120 0
22 15 18 20 61 -122 0
22 15 18 20 61 -119 0
22 15 18 20 44 -114 0
22 15 18 20 44 -112 0
22 15 18 20 44 -111 0
22 15 18 20 44 -113 0
22 15 18 20 13 -74 0
22 15 18 20 13 -75 0
22 15 18 20 13 -76 0
22 15 18 20 13 -73 0
25 36 28 27 24 -131 0
25 36 28 27 24 -132 0
25 36 28 27 24 -130 0
25 36 28 27 24 -129 0
25 36 38 37 35 -131 0
25 36 38 37 35 -132 0
25 36 38 37 35 -130 0
25 36 38 37 35 -129 0
25 68 28 27 24 -146 0
25 68 28 27 24 -148 0
25 68 28 27 24 -147 0
25 68 28 27 24 -145 0
25 68 70 69 64 -146 0
25 68 70 69 64 -148 0
25 68 70 69 64 -147 0
25 68 70 69 64 -145 0
25 52 28 27 24 -138 0
25 52 28 27 24 -140 0
25 52 28 27 24 -139 0
25 52 28 27 24 -137 0
25 52 54 47 48 -138 0
25 52 54 47 48 -140 0
25 52 54 47 48 -139 0
25 52 54 47 48 -137 0
25 62 28 27 24 -142 0
25 62 28 27 24 -141 0
25 62 28 27 24 -144 0
25 62 28 27 24 -143 0
25 62 55 56 61 -142 0
25 62 55 56 61 -141 0
25 62 55 56 61 -144 0
25 62 55 56 61 -143 0
25 42 28 27 24 -135 0
25 42 28 27 24 -134 0
25 42 28 27 24 -133 0
25 42 28 27 24 -136 0
25 42 39 43 44 -135 0
25 42 39 43 44 -134 0
25 42 39 43 44 -133 0
25 42 39 43 44 -136 0
25 9 28 27 24 -79 0
25 9 28 27 24 -77 0
25 9 28 27 24 -80 0
25 9 28 27 24 -78 0
25 9 14 10 13 -79 0
25 9 14 10 13 -77 0
25 9 14 10 13 -80 0
25 9 14 10 13 -78 0
25 2 28 27 24 -23 0
25 2 28 27 24 -29 0
25 2 28 27 24 -26 0
25 2 28 27 24 -30 0
25 15 28 27 24 -106 0
25 15 28 27 24 -103 0
25 15 28 27 24 -104 0
25 15 28 27 24 -105 0
25 28 38 27 24 -131 0
25 28 38 27 24 -132 0
25 28 38 27 24 -130 0
25 28 38 27 24 -129 0
25 28 70 27 24 -146 0
25 28 70 27 24 -148 0
25 28 70 27 24 -147 0
25 28 70 27 24 -145 0
25 28 54 27 24 -138 0
25 28 54 27 24 -140 0
25 28 54 27 24 -139 0
25 28 54 27 24 -137 0
25 28 55 27 24 -142 0
25 28 55 27 24 -141 0
25 28 55 27 24 -144 0
25 28 55 27 24 -143 0
25 28 39 27 24 -135 0
25 28 39 27 24 -134 0
25 28 39 27 24 -133 0
25 28 39 27 24 -136 0
25 28 14 27 24 -79 0
25 28 14 27 24 -77 0
25 28 14 27 24 -80 0
25 28 14 27 24 -78 0
25 28 6 27 24 -23 0
25 28 6 27 24 -29 0
25 28 6 27 24 -26 0
25 28 6 27 24 -30 0
25 28 18 27 24 -106 0
25 28 18 27 24 -103 0
25 28 18 27 24 -104 0
25 28 18 27 24 -105 0
25 28 27 37 24 -131 0
25 28 27 37 24 -132 0
25 28 27 37 24 -130 0
25 28 27 37 24 -129 0
25 28 27 69 24 -146 0
25 28 27 69 24 -148 0
25 28 27 69 24 -147 0
25 28 27 69 24 -145 0
25 28 27 47 24 -138 0
25 28 27 47 24 -140 0
25 28 27 47 24 -139 0
25 28 27 47 24 -137 0
25 28 27 56 24 -142 0
25 28 27 56 24 -141 0
25 28 27 56 24 -144 0
25 28 27 56 24 -143 0
25 28 27 43 24 -135 0
25 28 27 43 24 -134 0
25 28 27 43 24 -133 0
25 28 27 43 24 -136 0
25 28 27 10 24 -79 0
25 28 27 10 24 -77 0
25 28 27 10 24 -80 0
25 28 27 10 24 -78 0
25 28 27 1 24 -23 0
25 28 27 1 24 -29 0
25 28 27 1 24 -26 0
25 28 27 1 24 -30 0
25 28 27 20 24 -106 0
25 28 27 20 24 -103 0
25 28 27 20 24 -104 0
25 28 27 20 24 -105 0
25 28 27 24 35 -131 0
25 28 27 24 35 -132 0
25 28 27 24 35 -130 0
25 28 27 24 35 -129 0
25 28 27 24 64 -146 0
25 28 27 24 64 -148 0
25 28 27 24 64 -147 0
25 28 27 24 64 -145 0
25 28 27 24 48 -138 0
25 28 27 24 48 -140 0
25 28 27 24 48 -139 0
25 28 27 24 48 -137 0
25 28 27 24 61 -142 0
25 28 27 24 61 -141 0
25 28 27 24 61 -144 0
25 28 27 24 61 -143 0
25 28 27 24 44 -135 0
25 28 27 24 44 -134 0
25 28 27 24 44 -133 0
25 28 27 24 44 -136 0
25 28 27 24 13 -79 0
25 28 27 24 13 -77 0
25 28 27 24 13 -80 0
25 28 27 24 13 -78 0
36 68 38 37 35 -163 0
36 68 38 37 35 -164 0
36 68 38 37 35 -166 0
36 68 38 37 35 -165 0
36 68 70 69 64 -163 0
36 68 70 69 64 -164 0
36 68 70 69 64 -166 0
36 68 70 69 64 -165 0
36 52 38 37 35 -157 0
36 52 38 37 35 -156 0
36 52 38 37 35 -158 0
36 52 38 37 35 -155 0
36 52 54 47 48 -157 0
36 52 54 47 48 -156 0
36 52 54 47 48 -158 0
36 52 54 47 48 -155 0
36 62 38 37 35 -160 0
36 62 38 37 35 -159 0
36 62 38 37 35 -161 0
36 62 38 37 35 -162 0
36 62 55 56 61 -160 0
36 62 55 56 61 -159 0
36 62 55 56 61 -161 0
36 62 55 56 61 -162 0
36 42 38 37 35 -154 0
36 42 38 37 35 -151 0
36 42 38 37 35 -152 0
36 42 38 37 35 -153 0
36 42 39 43 44 -154 0
36 42 39 43 44 -151 0
36 42 39 43 44 -152 0
36 42 39 43 44 -153 0
36 9 38 37 35 -83 0
36 9 38 37 35 -82 0
36 9 38 37 35 -81 0
36 9 38 37 35 -84 0
36 9 14 10 13 -83 0
36 9 14 10 13 -82 0
36 9 14 10 13 -81 0
36 9 14 10 13 -84 0
36 2 38 37 35 -31 0
36 2 38 37 35 -33 0
36 2 38 37 35 -34 0
36 2 38 37 35 -32 0
36 15 38 37 35 -108 0
36 15 38 37 35 -110 0
36 15 38 37 35 -107 0
36 15 38 37 35 -109 0
36 28 38 37 35 -131 0
36 28 38 37 35 -132 0
36 28 38 37 35 -130 0
36 28 38 37 35 -129 0
36 38 70 37 35 -163 0
36 38 70 37 35 -164 0
36 38 70 37 35 -166 0
36 38 70 37 35 -165 0
36 38 54 37 35 -157 0
36 38 54 37 35 -156 0
36 38 54 37 35 -158 0
36 38 54 37 35 -155 0
36 38 55 37 35 -160 0
36 38 55 37 35 -159 0
36 38 55 37 35 -161 0
36 38 55 37 35 -162 0
36 38 39 37 35 -154 0
36 38 39 37 35 -151 0
36 38 39 37 35 -152 0
36 38 39 37 35 -153 0
36 38 14 37 35 -83 0
36 38 14 37 35 -82 0
36 38 14 37 35 -81 0
36 38 14 37 35 -84 0
36 38 6 37 35 -31 0
36 38 6 37 35 -33 0
36 38 6 37 35 -34 0
36 38 6 37 35 -32 0
36 38 18 37 35 -108 0
36 38 18 37 35 -110 0
36 38 18 37 35 -107 0
36 38 18 37 35 -109 0
36 38 27 37 35 -131 0
36 38 27 37 35 -132 0
36 38 27 37 35 -130 0
36 38 27 37 35 -129 0
36 38 37 69 35 -163 0
36 38 37 69 35 -164 0
36 38 37 69 35 -166 0
36 38 37 69 35 -165 0
36 38 37 47 35 -157 0
36 38 37 47 35 -156 0
36 38 37 47 35 -158 0
36 38 37 47 35 -155 0
36 38 37 56 35 -160 0
36 38 37 56 35 -159 0
36 38 37 56 35 -161 0
36 38 37 56 35 -162 0
36 38 37 43 35 -154 0
36 38 37 43 35 -151 0
36 38 37 43 35 -152 0
36 38 37 43 35 -153 0
36 38 37 10 35 -83 0
36 38 37 10 35 -82 0
36 38 37 10 35 -81 0
36 38 37 10 35 -84 0
36 38 37 1 35 -31 0
36 38 37 1 35 -33 0
36 38 37 1 35 -34 0
36 38 37 1 35 -32 0
36 38 37 20 35 -108 0
36 38 37 20 35 -110 0
36 38 37 20 35 -107 0
36 38 37 20 35 -109 0
36 38 37 24 35 -131 0
36 38 37 24 35 -132 0
36 38 37 24 35 -130 0
36 38 37 24 35 -129 0
36 38 37 35 64 -163 0
36 38 37 35 64 -164 0
36 38 37 35 64 -166 0
36 38 37 35 64 -165 0
36 38 37 35 48 -157 0
36 38 37 35 48 -156 0
36 38 37 35 48 -158 0
36 38 37 35 48 -155 0
36 38 37 35 61 -160 0
36 38 37 35 61 -159 0
36 38 37 35 61 -161 0
36 38 37 35 61 -162 0
36 38 37 35 44 -154 0
36 38 37 35 44 -151 0
36 38 37 35 44 -152 0
36 38 37 35 44 -153 0
36 38 37 35 13 -83 0
36 38 37 35 13 -82 0
36 38 37 35 13 -81 0
36 38 37 35 13 -84 0
68 52 70 69 64 -190 0
68 52 70 69 64 -187 0
68 52 70 69 64 -188 0
68 52 70 69 64 -189 0
68 52 54 47 48 -190 0
68 52 54 47 48 -187 0
68 52 54 47 48 -188 0
68 52 54 47 48 -189 0
68 62 70 69 64 -194 0
68 62 70 69 64 -193 0
68 62 70 69 64 -196 0
68 62 70 69 64 -195 0
68 62 55 56 61 -194 0
68 62 55 56 61 -193 0
68 62 55 56 61 -196 0
68 62 55 56 61 -195 0
68 42 70 69 64 -178 0
68 42 70 69 64 -177 0
68 42 70 69 64 -179 0
68 42 70 69 64 -180 0
68 42 39 43 44 -178 0
68 42 39 43 44 -177 0
68 42 39 43 44 -179 0
68 42 39 43 44 -180 0
68 9 70 69 64 -99 0
68 9 70 69 64 -97 0
68 9 70 69 64 -100 0
68 9 70 69 64 -98 0
68 9 14 10 13 -99 0
68 9 14 10 13 -97 0
68 9 14 10 13 -100 0
68 9 14 10 13 -98 0
68 2 70 69 64 -63 0
68 2 70 69 64 -66 0
68 2 70 69 64 -67 0
68 2 70 69 64 -65 0
68 15 70 69 64 -124 0
68 15 70 69 64 -123 0
68 15 70 69 64 -125 0
68 15 70 69 64 -126 0
68 28 70 69 64 -146 0
68 28 70 69 64 -148 0
68 28 70 69 64 -147 0
68 28 70 69 64 -145 0
68 38 70 69 64 -163 0
68 38 70 69 64 -164 0
68 38 70 69 64 -166 0
68 38 70 69 64 -165 0
68 70 54 69 64 -190 0
68 70 54 69 64 -187 0
68 70 54 69 64 -188 0
68 70 54 69 64 -189 0
68 70 55 69 64 -194 0
68 70 55 69 64 -193 0
68 70 55 69 64 -196 0
68 70 55 69 64 -195 0
68 70 39 69 64 -178 0
68 70 39 69 64 -177 0
68 70 39 69 64 -179 0
68 70 39 69 64 -180 0
68 70 14 69 64 -99 0
68 70 14 69 64 -97 0
68 70 14 69 64 -100 0
68 70 14 69 64 -98 0
68 70 6 69 64 -63 0
68 70 6 69 64 -66 0
68 70 6 69 64 -67 0
68 70 6 69 64 -65 0
68 70 18 69 64 -124 0
68 70 18 69 64 -123 0
68 70 18 69 64 -125 0
68 70 18 69 64 -126 0
68 70 27 69 64 -146 0
68 70 27 69 64 -148 0
68 70 27 69 64 -147 0
68 70 27 69 64 -145 0
68 70 37 69 64 -163 0
68 70 37 69 64 -164 0
68 70 37 69 64 -166 0
68 70 37 69 64 -165 0
68 70 69 47 64 -190 0
68 70 69 47 64 -187 0
68 70 69 47 64 -188 0
68 70 69 47 64 -189 0
68 70 69 56 64 -194 0
68 70 69 56 64 -193 0
68 70 69 56 64 -196 0
68 70 69 56 64 -195 0
68 70 69 43 64 -178 0
68 70 69 43 64 -177 0
68 70 69 43 64 -179 0
68 70 69 43 64 -180 0
68 70 69 10 64 -99 0
68 70 69 10 64 -97 0
68 70 69 10 64 -100 0
68 70 69 10 64 -98 0
68 70 69 1 64 -63 0
68 70 69 1 64 -66 0
68 70 69 1 64 -67 0
68 70 69 1 64 -65 0
68 70 69 20 64 -124 0
68 70 69 20 64 -123 0
68 70 69 20 64 -125 0
68 70 69 20 64 -126 0
68 70 69 24 64 -146 0
68 70 69 24 64 -148 0
68 70 69 24 64 -147 0
68 70 69 24 64 -145 0
68 70 69 35 64 -163 0
68 70 69 35 64 -164 0
68 70 69 35 64 -166 0
68 70 69 35 64 -165 0
68 70 69 64 48 -190 0
68 70 69 64 48 -187 0
68 70 69 64 48 -188 0
68 70 69 64 48 -189 0
68 70 69 64 61 -194 0
68 70 69 64 61 -193 0
68 70 69 64 61 -196 0
68 70 69 64 61 -195 0
68 70 69 64 44 -178 0
68 70 69 64 44 -177 0
68 70 69 64 44 -179 0
68 70 69 64 44 -180 0
68 70 69 64 13 -99 0
68 70 69 64 13 -97 0
68 70 69 64 13 -100 0
68 70 69 64 13 -98 0
52 62 54 47 48 -186 0
52 62 54 47 48 -183 0
52 62 54 47 48 -184 0
52 62 54 47 48 -185 0
52 62 55 56 61 -186 0
52 62 55 56 61 -183 0
52 62 55 56 61 -184 0
52 62 55 56 61 -185 0
52 42 54 47 48 -170 0
52 42 54 47 48 -169 0
52 42 54 47 48 -172 0
52 42 54 47 48 -171 0
52 42 39 43 44 -170 0
52 42 39 43 44 -169 0
52 42 39 43 44 -172 0
52 42 39 43 44 -171 0
52 9 54 47 48 -89 0
52 9 54 47 48 -91 0
52 9 54 47 48 -90 0
52 9 54 47 48 -92 0
52 9 14 10 13 -89 0
52 9 14 10 13 -91 0
52 9 14 10 13 -90 0
52 9 14 10 13 -92 0
52 2 54 47 48 -49 0
52 2 54 47 48 -51 0
52 2 54 47 48 -50 0
52 2 54 47 48 -53 0
52 15 54 47 48 -118 0
52 15 54 47 48 -116 0
52 15 54 47 48 -115 0
52 15 54 47 48 -117 0
52 28 54 47 48 -138 0
52 28 54 47 48 -140 0
52 28 54 47 48 -139 0
52 28 54 47 48 -137 0
52 38 54 47 48 -157 0
52 38 54 47 48 -156 0
52 38 54 47 48 -158 0
52 38 54 47 48 -155 0
52 70 54 47 48 -190 0
52 70 54 47 48 -187 0
52 70 54 47 48 -188 0
52 70 54 47 48 -189 0
52 54 55 47 48 -186 0
52 54 55 47 48 -183 0
52 54 55 47 48 -184 0
52 54 55 47 48 -185 0
52 54 39 47 48 -170 0
52 54 39 47 48 -169 0
52 54 39 47 48 -172 0
52 54 39 47 48 -171 0
52 54 14 47 48 -89 0
52 54 14 47 48 -91 0
52 54 14 47 48 -90 0
52 54 14 47 48 -92 0
52 54 6 47 48 -49 0
52 54 6 47 48 -51 0
52 54 6 47 48 -50 0
52 54 6 47 48 -53 0
52 54 18 47 48 -118 0
52 54 18 47 48 -116 0
52 54 18 47 48 -115 0
52 54 18 47 48 -117 0
52 54 27 47 48 -138 0
52 54 27 47 48 -140 0
52 54 27 47 48 -139 0
52 54 27 47 48 -137 0
52 54 37 47 48 -157 0
52 54 37 47 48 -156 0
52 54 37 47 48 -158 0
52 54 37 47 48 -155 0
52 54 69 47 48 -190 0
52 54 69 47 48 -187 0
52 54 69 47 48 -188 0
52 54 69 47 48 -189 0
52 54 47 56 48 -186 0
52 54 47 56 48 -183 0
52 54 47 56 48 -184 0
52 54 47 56 48 -185 0
52 54 47 43 48 -170 0
52 54 47 43 48 -169 0
52 54 47 43 48 -172 0
52 54 47 43 48 -171 0
52 54 47 10 48 -89 0
52 54 47 10 48 -91 0
52 54 47 10 48 -90 0
52 54 47 10 48 -92 0
52 54 47 1 48 -49 0
52 54 47 1 48 -51 0
52 54 47 1 48 -50 0
52 54 47 1 48 -53 0
52 54 47 20 48 -118 0
52 54 47 20 48 -116 0
52 54 47 20 48 -115 0
52 54 47 20 48 -117 0
52 54 47 24 48 -138 0
52 54 47 24 48 -140 0
52 54 47 24 48 -139 0
52 54 47 24 48 -137 0
52 54 47 35 48 -157 0
52 54 47 35 48 -156 0
52 54 47 35 48 -158 0
52 54 47 35 48 -155 0
52 54 47 64 48 -190 0
52 54 47 64 48 -187 0
52 54 47 64 48 -188 0
52 54 47 64 48 -189 0
52 54 47 48 61 -186 0
52 54 47 48 61 -183 0
52 54 47 48 61 -184 0
52 54 47 48 61 -185 0
52 54 47 48 44 -170 0
52 54 47 48 44 -169 0
52 54 47 48 44 -172 0
52 54 47 48 44 -171 0
52 54 47 48 13 -89 0
52 54 47 48 13 -91 0
52 54 47 48 13 -90 0
52 54 47 48 13 -92 0
62 42 55 56 61 -176 0
62 42 55 56 61 -173 0
62 42 55 56 61 -175 0
62 42 55 56 61 -174 0
62 42 39 43 44 -176 0
62 42 39 43 44 -173 0
62 42 39 43 44 -175 0
62 42 39 43 44 -174 0
62 9 55 56 61 -93 0
62 9 55 56 61 -95 0
62 9 55 56 61 -96 0
62 9 55 56 61 -94 0
62 9 14 10 13 -93 0
62 9 14 10 13 -95 0
62 9 14 10 13 -96 0
62 9 14 10 13 -94 0
62 2 55 56 61 -59 0
62 2 55 56 61 -57 0
62 2 55 56 61 -60 0
62 2 55 56 61 -58 0
62 15 55 56 61 -121 0
62 15 55 56 61 -120 0
62 15 55 56 61 -122 0
62 15 55 56 61 -119 0
62 28 55 56 61 -142 0
62 28 55 56 61 -141 0
62 28 55 56 61 -144 0
62 28 55 56 61 -143 0
62 38 55 56 61 -160 0
62 38 55 56 61 -159 0
62 38 55 56 61 -161 0
62 38 55 56 61 -162 0
62 70 55 56 61 -194 0
62 70 55 56 61 -193 0
62 70 55 56 61 -196 0
62 70 55 56 61 -195 0
62 54 55 56 61 -186 0
62 54 55 56 61 -183 0
62 54 55 56 61 -184 0
62 54 55 56 61 -185 0
62 55 39 56 61 -176 0
62 55 39 56 61 -173 0
62 55 39 56 61 -175 0
62 55 39 56 61 -174 0
62 55 14 56 61 -93 0
62 55 14 56 61 -95 0
62 55 14 56 61 -96 0
62 55 14 56 61 -94 0
62 55 6 56 61 -59 0
62 55 6 56 61 -57 0
62 55 6 56 61 -60 0
62 55 6 56 61 -58 0
62 55 18 56 61 -121 0
62 55 18 56 61 -120 0
62 55 18 56 61 -122 0
62 55 18 56 61 -119 0
62 55 27 56 61 -142 0
62 55 27 56 61 -141 0
62 55 27 56 61 -144 0
62 55 27 56 61 -143 0
62 55 37 56 61 -160 0
62 55 37 56 61 -159 0
62 55 37 56 61 -161 0
62 55 37 56 61 -162 0
62 55 69 56 61 -194 0
62 55 69 56 61 -193 0
62 55 69 56 61 -196 0
62 55 69 56 61 -195 0
62 55 47 56 61 -186 0
62 55 47 56 61 -183 0
62 55 47 56 61 -184 0
62 55 47 56 61 -185 0
62 55 56 43 61 -176 0
62 55 56 43 61 -173 0
62 55 56 43 61 -175 0
62 55 56 43 61 -174 0
62 55 56 10 61 -93 0
62 55 56 10 61 -95 0
62 55 56 10 61 -96 0
62 55 56 10 61 -94 0
62 55 56 1 61 -59 0
62 55 56 1 61 -57 0
62 55 56 1 61 -60 0
62 55 56 1 61 -58 0
62 55 56 20 61 -121 0
62 55 56 20 61 -120 0
62 55 56 20 61 -122 0
62 55 56 20 61 -119 0
62 55 56 24 61 -142 0
62 55 56 24 61 -141 0
62 55 56 24 61 -144 0
62 55 56 24 61 -143 0
62 55 56 35 61 -160 0
62 55 56 35 61 -159 0
62 55 56 35 61 -161 0
62 55 56 35 61 -162 0
62 55 56 64 61 -194 0
62 55 56 64 61 -193 0
62 55 56 64 61 -196 0
62 55 56 64 61 -195 0
62 55 56 48 61 -186 0
62 55 56 48 61 -183 0
62 55 56 48 61 -184 0
62 55 56 48 61 -185 0
62 55 56 61 44 -176 0
62 55 56 61 44 -173 0
62 55 56 61 44 -175 0
62 55 56 61 44 -174 0
62 55 56 61 13 -93 0
62 55 56 61 13 -95 0
62 55 56 61 13 -96 0
62 55 56 61 13 -94 0
42 9 39 43 44 -86 0
42 9 39 43 44 -87 0
42 9 39 43 44 -88 0
42 9 39 43 44 -85 0
42 9 14 10 13 -86 0
42 9 14 10 13 -87 0
42 9 14 10 13 -88 0
42 9 14 10 13 -85 0
42 2 39 43 44 -45 0
42 2 39 43 44 -41 0
42 2 39 43 44 -46 0
42 2 39 43 44 -40 0
42 15 39 43 44 -114 0
42 15 39 43 44 -112 0
42 15 39 43 44 -111 0
42 15 39 43 44 -113 0
42 28 39 43 44 -135 0
42 28 39 43 44 -134 0
42 28 39 43 44 -133 0
42 28 39 43 44 -136 0
42 38 39 43 44 -154 0
42 38 39 43 44 -151 0
42 38 39 43 44 -152 0
42 38 39 43 44 -153 0
42 70 39 43 44 -178 0
42 70 39 43 44 -177 0
42 70 39 43 44 -179 0
42 70 39 43 44 -180 0
42 54 39 43 44 -170 0
42 54 39 43 44 -169 0
42 54 39 43 44 -172 0
42 54 39 43 44 -171 0
42 55 39 43 44 -176 0
42 55 39 43 44 -173 0
42 55 39 43 44 -175 0
42 55 39 43 44 -174 0
42 39 14 43 44 -86 0
42 39 14 43 44 -87 0
42 39 14 43 44 -88 0
42 39 14 43 44 -85 0
42 39 6 43 44 -45 0
42 39 6 43 44 -41 0
42 39 6 43 44 -46 0
42 39 6 43 44 -40 0
42 39 18 43 44 -114 0
42 39 18 43 44 -112 0
42 39 18 43 44 -111 0
42 39 18 43 44 -113 0
42 39 27 43 44 -135 0
42 39 27 43 44 -134 0
42 39 27 43 44 -133 0
42 39 27 43 44 -136 0
42 39 37 43 44 -154 0
42 39 37 43 44 -151 0
42 39 37 43 44 -152 0
42 39 37 43 44 -153 0
42 39 69 43 44 -178 0
42 39 69 43 44 -177 0
42 39 69 43 44 -179 0
42 39 69 43 44 -180 0
42 39 47 43 44 -170 0
42 39 47 43 44 -169 0
42 39 47 43 44 -172 0
42 39 47 43 44 -171 0
42 39 56 43 44 -176 0
42 39 56 43 44 -173 0
42 39 56 43 44 -175 0
42 39 56 43 44 -174 0
42 39 43 10 44 -86 0
42 39 43 10 44 -87 0
42 39 43 10 44 -88 0
42 39 43 10 44 -85 0
42 39 43 1 44 -45 0
42 39 43 1 44 -41 0
42 39 43 1 44 -46 0
42 39 43 1 44 -40 0
42 39 43 20 44 -114 0
42 39 43 20 44 -112 0
42 39 43 20 44 -111 0
42 39 43 20 44 -113 0
42 39 43 24 44 -135 0
42 39 43 24 44 -134 0
42 39 43 24 44 -133 0
42 39 43 24 44 -136 0
42 39 43 35 44 -154 0
42 39 43 35 44 -151 0
42 39 43 35 44 -152 0
42 39 43 35 44 -153 0
42 39 43 64 44 -178 0
42 39 43 64 44 -177 0
42 39 43 64 44 -179 0
42 39 43 64 44 -180 0
42 39 43 48 44 -170 0
42 39 43 48 44 -169 0
42 39 43 48 44 -172 0
42 39 43 48 44 -171 0
42 39 43 61 44 -176 0
42 39 43 61 44 -173 0
42 39 43 61 44 -175 0
42 39 43 61 44 -174 0
42 39 43 44 13 -86 0
42 39 43 44 13 -87 0
42 39 43 44 13 -88 0
42 39 43 44 13 -85 0
9 2 14 10 13 -7 0
9 2 14 10 13 -11 0
9 2 14 10 13 -8 0
9 2 14 10 13 -12 0
9 15 14 10 13 -74 0
9 15 14 10 13 -75 0
9 15 14 10 13 -76 0
9 15 14 10 13 -73 0
9 28 14 10 13 -79 0
9 28 14 10 13 -77 0
9 28 14 10 13 -80 0
9 28 14 10 13 -78 0
9 38 14 10 13 -83 0
9 38 14 10 13 -82 0
9 38 14 10 13 -81 0
9 38 14 10 13 -84 0
9 70 14 10 13 -99 0
9 70 14 10 13 -97 0
9 70 14 10 13 -100 0
9 70 14 10 13 -98 0
9 54 14 10 13 -89 0
9 54 14 10 13 -91 0
9 54 14 10 13 -90 0
9 54 14 10 13 -92 0
9 55 14 10 13 -93 0
9 55 14 10 13 -95 0
9 55 14 10 13 -96 0
9 55 14 10 13 -94 0
9 39 14 10 13 -86 0
9 39 14 10 13 -87 0
9 39 14 10 13 -88 0
9 39 14 10 13 -85 0
9 14 6 10 13 -7 0
9 14 6 10 13 -11 0
9 14 6 10 13 -8 0
9 14 6 10 13 -12 0
9 14 18 10 13 -74 0
9 14 18 10 13 -75 0
9 14 18 10 13 -76 0
9 14 18 10 13 -73 0
9 14 27 10 13 -79 0
9 14 27 10 13 -77 0
9 14 27 10 13 -80 0
9 14 27 10 13 -78 0
9 14 37 10 13 -83 0
9 14 37 10 13 -82 0
9 14 37 10 13 -81 0
9 14 37 10 13 -84 0
9 14 69 10 13 -99 0
9 14 69 10 13 -97 0
9 14 69 10 13 -100 0
9 14 69 10 13 -98 0
9 14 47 10 13 -89 0
9 14 47 10 13 -91 0
9 14 47 10 13 -90 0
9 14 47 10 13 -92 0
9 14 56 10 13 -93 0
9 14 56 10 13 -95 0
9 14 56 10 13 -96 0
9 14 56 10 13 -94 0
9 14 43 10 13 -86 0
9 14 43 10 13 -87 0
9 14 43 10 13 -88 0
9 14 43 10 13 -85 0
9 14 10 1 13 -7 0
9 14 10 1 13 -11 0
9 14 10 1 13 -8 0
9 14 10 1 13 -12 0
9 14 10 20 13 -74 0
9 14 10 20 13 -75 0
9 14 10 20 13 -76 0
9 14 10 20 13 -73 0
9 14 10 24 13 -79 0
9 14 10 24 13 -77 0
9 14 10 24 13 -80 0
9 14 10 24 13 -78 0
9 14 10 35 13 -83 0
9 14 10 35 13 -82 0
9 14 10 35 13 -81 0
9 14 10 35 13 -84 0
9 14 10 64 13 -99 0
9 14 10 64 13 -97 0
9 14 10 64 13 -100 0
9 14 10 64 13 -98 0
9 14 10 48 13 -89 0
9 14 10 48 13 -91 0
9 14 10 48 13 -90 0
9 14 10 48 13 -92 0
9 14 10 61 13 -93 0
9 14 10 61 13 -95 0
9 14 10 61 13 -96 0
9 14 10 61 13 -94 0
9 14 10 44 13 -86 0
9 14 10 44 13 -87 0
9 14 10 44 13 -88 0
9 14 10 44 13 -85 0
5 22 2 15 6 18 -17 0
5 22 2 15 6 18 -21 0
5 22 2 15 6 18 -19 0
5 22 2 15 6 18 -16 0
5 22 2 15 6 1 -17 0
5 22 2 15 6 1 -21 0
5 22 2 15 6 1 -19 0
5 22 2 15 6 1 -16 0
5 22 2 15 18 20 -17 0
5 22 2 15 18 20 -21 0
5 22 2 15 18 20 -19 0
5 22 2 15 18 20 -16 0
5 22 2 15 1 20 -17 0
5 22 2 15 1 20 -21 0
5 22 2 15 1 20 -19 0
5 22 2 15 1 20 -16 0
5 22 2 6 18 1 -17 0
5 22 2 6 18 1 -21 0
5 22 2 6 18 1 -19 0
5 22 2 6 18 1 -16 0
5 22 2 6 1 20 -17 0
5 22 2 6 1 20 -21 0
5 22 2 6 1 20 -19 0
5 22 2 6 1 20 -16 0
5 22 15 6 18 20 -17 0
5 22 15 6 18 20 -21 0
5 22 15 6 18 20 -19 0
5 22 15 6 18 20 -16 0
5 22 15 18 1 20 -17 0
5 22 15 18 1 20 -21 0
5 22 15 18 1 20 -19 0
5 22 15 18 1 20 -16 0
5 22 6 18 1 20 -17 0
5 22 6 18 1 20 -21 0
5 22 6 18 1 20 -19 0
5 22 6 18 1 20 -16 0
5 25 2 28 6 27 -23 0
5 25 2 28 6 27 -29 0
5 25 2 28 6 27 -26 0
5 25 2 28 6 27 -30 0
5 25 2 28 6 1 -23 0
5 25 2 28 6 1 -29 0
5 25 2 28 6 1 -26 0
5 25 2 28 6 1 -30 0
5 25 2 28 27 24 -23 0
5 25 2 28 27 24 -29 0
5 25 2 28 27 24 -26 0
5 25 2 28 27 24 -30 0
5 25 2 28 1 24 -23 0
5 25 2 28 1 24 -29 0
5 25 2 28 1 24 -26 0
5 25 2 28 1 24 -30 0
5 25 2 6 27 1 -23 0
5 25 2 6 27 1 -29 0
5 25 2 6 27 1 -26 0
5 25 2 6 27 1 -30 0
5 25 2 6 1 24 -23 0
5 25 2 6 1 24 -29 0
5 25 2 6 1 24 -26 0
5 25 2 6 1 24 -30 0
5 25 28 6 27 24 -23 0
5 25 28 6 27 24 -29 0
5 25 28 6 27 24 -26 0
5 25 28 6 27 24 -30 0
5 25 28 27 1 24 -23 0
5 25 28 27 1 24 -29 0
5 25 28 27 1 24 -26 0
5 25 28 27 1 24 -30 0
5 25 6 27 1 24 -23 0
5 25 6 27 1 24 -29 0
5 25 6 27 1 24 -26 0
5 25 6 27 1 24 -30 0
5 36 2 38 6 37 -31 0
5 36 2 38 6 37 -33 0
5 36 2 38 6 37 -34 0
5 36 2 38 6 37 -32 0
5 36 2 38 6 1 -31 0
5 36 2 38 6 1 -33 0
5 36 2 38 6 1 -34 0
5 36 2 38 6 1 -32 0
5 36 2 38 37 35 -31 0
5 36 2 38 37 35 -33 0
5 36 2 38 37 35 -34 0
5 36 2 38 37 35 -32 0
5 36 2 38 1 35 -31 0
5 36 2 38 1 35 -33 0
5 36 2 38 1 35 -34 0
5 36 2 38 1 35 -32 0
5 36 2 6 37 1 -31 0
5 36 2 6 37 1 -33 0
5 36 2 6 37 1 -34 0
5 36 2 6 37 1 -32 0
5 36 2 6 1 35 -31 0
5 36 2 6 1 35 -33 0
5 36 2 6 1 35 -34 0
5 36 2 6 1 35 -32 0
5 36 38 6 37 35 -31 0
5 36 38 6 37 35 -33 0
5 36 38 6 37 35 -34 0
5 36 38 6 37 35 -32 0
5 36 38 37 1 35 -31 0
5 36 38 37 1 35 -33 0
5 36 38 37 1 35 -34 0
5 36 38 37 1 35 -32 0
5 36 6 37 1 35 -31 0
5 36 6 37 1 35 -33 0
5 36 6 37 1 35 -34 0
5 36 6 37 1 35 -32 0
5 68 2 70 6 69 -63 0
5 68 2 70 6 69 -66 0
5 68 2 70 6 69 -67 0
5 68 2 70 6 69 -65 0
5 68 2 70 6 1 -63 0
5 68 2 70 6 1 -66 0
5 68 2 70 6 1 -67 0
5 68 2 70 6 1 -65 0
5 68 2 70 69 64 -63 0
5 68 2 70 69 64 -66 0
5 68 2 70 69 64 -67 0
5 68 2 70 69 64 -65 0
5 68 2 70 1 64 -63 0
5 68 2 70 1 64 -66 0
5 68 2 70 1 64 -67 0
5 68 2 70 1 64 -65 0
5 68 2 6 69 1 -63 0
5 68 2 6 69 1 -66 0
5 68 2 6 69 1 -67 0
5 68 2 6 69 1 -65 0
5 68 2 6 1 64 -63 0
5 68 2 6 1 64 -66 0
5 68 2 6 1 64 -67 0
5 68 2 6 1 64 -65 0
5 68 70 6 69 64 -63 0
5 68 70 6 69 64 -66 0
5 68 70 6 69 64 -67 0
5 68 70 6 69 64 -65 0
5 68 70 69 1 64 -63 0
5 68 70 69 1 64 -66 0
5 68 70 69 1 64 -67 0
5 68 70 69 1 64 -65 0
5 68 6 69 1 64 -63 0
5 68 6 69 1 64 -66 0
5 68 6 69 1 64 -67 0
5 68 6 69 1 64 -65 0
5 52 2 54 6 47 -49 0
5 52 2 54 6 47 -51 0
5 52 2 54 6 47 -50 0
5 52 2 54 6 47 -53 0
5 52 2 54 6 1 -49 0
5 52 2 54 6 1 -51 0
5 52 2 54 6 1 -50 0
5 52 2 54 6 1 -53 0
5 52 2 54 47 48 -49 0
5 52 2 54 47 48 -51 0
5 52 2 54 47 48 -50 0
5 52 2 54 47 48 -53 0
5 52 2 54 1 48 -49 0
5 52 2 54 1 48 -51 0
5 52 2 54 1 48 -50 0
5 52 2 54 1 48 -53 0
5 52 2 6 47 1 -49 0
5 52 2 6 47 1 -51 0
5 52 2 6 47 1 -50 0
5 52 2 6 47 1 -53 0
5 52 2 6 1 48 -49 0
5 52 2 6 1 48 -51 0
5 52 2 6 1 48 -50 0
5 52 2 6 1 48 -53 0
5 52 54 6 47 48 -49 0
5 52 54 6 47 48 -51 0
5 52 54 6 47 48 -50 0
5 52 54 6 47 48 -53 0
5 52 54 47 1 48 -49 0
5 52 54 47 1 48 -51 0
5 52 54 47 1 48 -50 0
5 52 54 47 1 48 -53 0
5 52 6 47 1 48 -49 0
5 52 6 47 1 48 -51 0
5 52 6 47 1 48 -50 0
5 52 6 47 1 48 -53 0
5 62 2 55 6 56 -59 0
5 62 2 55 6 56 -57 0
5 62 2 55 6 56 -60 0
5 62 2 55 6 56 -58 0
5 62 2 55 6 1 -59 0
5 62 2 55 6 1 -57 0
5 62 2 55 6 1 -60 0
5 62 2 55 6 1 -58 0
5 62 2 55 56 61 -59 0
5 62 2 55 56 61 -57 0
5 62 2 55 56 61 -60 0
5 62 2 55 56 61 -58 0
5 62 2 55 1 61 -59 0
5 62 2 55 1 61 -57 0
5 62 2 55 1 61 -60 0
5 62 2 55 1 61 -58 0
5 62 2 6 56 1 -59 0
5 62 2 6 56 1 -57 0
5 62 2 6 56 1 -60 0
5 62 2 6 56 1 -58 0
5 62 2 6 1 61 -59 0
5 62 2 6 1 61 -57 0
5 62 2 6 1 61 -60 0
5 62 2 6 1 61 -58 0
5 62 55 6 56 61 -59 0
5 62 55 6 56 61 -57 0
5 62 55 6 56 61 -60 0
5 62 55 6 56 61 -58 0
5 62 55 56 1 61 -59 0
5 62 55 56 1 61 -57 0
5 62 55 56 1 61 -60 0
5 62 55 56 1 61 -58 0
5 62 6 56 1 61 -59 0
5 62 6 56 1 61 -57 0
5 62 6 56 1 61 -60 0
5 62 6 56 1 61 -58 0
5 42 2 39 6 43 -45 0
5 42 2 39 6 43 -41 0
5 42 2 39 6 43 -46 0
5 42 2 39 6 43 -40 0
5 42 2 39 6 1 -45 0
5 42 2 39 6 1 -41 0
5 42 2 39 6 1 -46 0
5 42 2 39 6 1 -40 0
5 42 2 39 43 44 -45 0
5 42 2 39 43 44 -41 0
5 42 2 39 43 44 -46 0
5 42 2 39 43 44 -40 0
5 42 2 39 1 44 -45 0
5 42 2 39 1 44 -41 0
5 42 2 39 1 44 -46 0
5 42 2 39 1 44 -40 0
5 42 2 6 43 1 -45 0
5 42 2 6 43 1 -41 0
5 42 2 6 43 1 -46 0
5 42 2 6 43 1 -40 0
5 42 2 6 1 44 -45 0
5 42 2 6 1 44 -41 0
5 42 2 6 1 44 -46 0
5 42 2 6 1 44 -40 0
5 42 39 6 43 44 -45 0
5 42 39 6 43 44 -41 0
5 42 39 6 43 44 -46 0
5 42 39 6 43 44 -40 0
5 42 39 43 1 44 -45 0
5 42 39 43 1 44 -41 0
5 42 39 43 1 44 -46 0
5 42 39 43 1 44 -40 0
5 42 6 43 1 44 -45 0
5 42 6 43 1 44 -41 0
5 42 6 43 1 44 -46 0
5 42 6 43 1 44 -40 0
5 9 2 14 6 10 -7 0
5 9 2 14 6 10 -11 0
5 9 2 14 6 10 -8 0
5 9 2 14 6 10 -12 0
5 9 2 14 6 1 -7 0
5 9 2 14 6 1 -11 0
5 9 2 14 6 1 -8 0
5 9 2 14 6 1 -12 0
5 9 2 14 10 13 -7 0
5 9 2 14 10 13 -11 0
5 9 2 14 10 13 -8 0
5 9 2 14 10 13 -12 0
5 9 2 14 1 13 -7 0
5 9 2 14 1 13 -11 0
5 9 2 14 1 13 -8 0
5 9 2 14 1 13 -12 0
5 9 2 6 10 1 -7 0
5 9 2 6 10 1 -11 0
5 9 2 6 10 1 -8 0
5 9 2 6 10 1 -12 0
5 9 2 6 1 13 -7 0
5 9 2 6 1 13 -11 0
5 9 2 6 1 13 -8 0
5 9 2 6 1 13 -12 0
5 9 14 6 10 13 -7 0
5 9 14 6 10 13 -11 0
5 9 14 6 10 13 -8 0
5 9 14 6 10 13 -12 0
5 9 14 10 1 13 -7 0
5 9 14 10 1 13 -11 0
5 9 14 10 1 13 -8 0
5 9 14 10 1 13 -12 0
5 9 6 10 1 13 -7 0
5 9 6 10 1 13 -11 0
5 9 6 10 1 13 -8 0
5 9 6 10 1 13 -12 0
5 2 15 6 18 1 -17 0
5 2 15 6 18 1 -21 0
5 2 15 6 18 1 -19 0
5 2 15 6 18 1 -16 0
5 2 15 6 1 20 -17 0
5 2 15 6 1 20 -21 0
5 2 15 6 1 20 -19 0
5 2 15 6 1 20 -16 0
5 2 28 6 27 1 -23 0
5 2 28 6 27 1 -29 0
5 2 28 6 27 1 -26 0
5 2 28 6 27 1 -30 0
5 2 28 6 1 24 -23 0
5 2 28 6 1 24 -29 0
5 2 28 6 1 24 -26 0
5 2 28 6 1 24 -30 0
5 2 38 6 37 1 -31 0
5 2 38 6 37 1 -33 0
5 2 38 6 37 1 -34 0
5 2 38 6 37 1 -32 0
5 2 38 6 1 35 -31 0
5 2 38 6 1 35 -33 0
5 2 38 6 1 35 -34 0
5 2 38 6 1 35 -32 0
5 2 70 6 69 1 -63 0
5 2 70 6 69 1 -66 0
5 2 70 6 69 1 -67 0
5 2 70 6 69 1 -65 0
5 2 70 6 1 64 -63 0
5 2 70 6 1 64 -66 0
5 2 70 6 1 64 -67 0
5 2 70 6 1 64 -65 0
5 2 54 6 47 1 -49 0
5 2 54 6 47 1 -51 0
5 2 54 6 47 1 -50 0
5 2 54 6 47 1 -53 0
5 2 54 6 1 48 -49 0
5 2 54 6 1 48 -51 0
5 2 54 6 1 48 -50 0
5 2 54 6 1 48 -53 0
5 2 55 6 56 1 -59 0
5 2 55 6 56 1 -57 0
5 2 55 6 56 1 -60 0
5 2 55 6 56 1 -58 0
5 2 55 6 1 61 -59 0
5 2 55 6 1 61 -57 0
5 2 55 6 1 61 -60 0
5 2 55 6 1 61 -58 0
5 2 39 6 43 1 -45 0
5 2 39 6 43 1 -41 0
5 2 39 6 43 1 -46 0
5 2 39 6 43 1 -40 0
5 2 39 6 1 44 -45 0
5 2 39 6 1 44 -41 0
5 2 39 6 1 44 -46 0
5 2 39 6 1 44 -40 0
5 2 14 6 10 1 -7 0
5 2 14 6 10 1 -11 0
5 2 14 6 10 1 -8 0
5 2 14 6 10 1 -12 0
5 2 14 6 1 13 -7 0
5 2 14 6 1 13 -11 0
5 2 14 6 1 13 -8 0
5 2 14 6 1 13 -12 0
5 2 6 18 1 20 -17 0
5 2 6 18 1 20 -21 0
5 2 6 18 1 20 -19 0
5 2 6 18 1 20 -16 0
5 2 6 27 1 24 -23 0
5 2 6 27 1 24 -29 0
5 2 6 27 1 24 -26 0
5 2 6 27 1 24 -30 0
5 2 6 37 1 35 -31 0
5 2 6 37 1 35 -33 0
5 2 6 37 1 35 -34 0
5 2 6 37 1 35 -32 0
5 2 6 69 1 64 -63 0
5 2 6 69 1 64 -66 0
5 2 6 69 1 64 -67 0
5 2 6 69 1 64 -65 0
5 2 6 47 1 48 -49 0
5 2 6 47 1 48 -51 0
5 2 6 47 1 48 -50 0
5 2 6 47 1 48 -53 0
5 2 6 56 1 61 -59 0
5 2 6 56 1 61 -57 0
5 2 6 56 1 61 -60 0
5 2 6 56 1 61 -58 0
5 2 6 43 1 44 -45 0
5 2 6 43 1 44 -41 0
5 2 6 43 1 44 -46 0
5 2 6 43 1 44 -40 0
5 2 6 10 1 13 -7 0
5 2 6 10 1 13 -11 0
5 2 6 10 1 13 -8 0
5 2 6 10 1 13 -12 0
22 25 15 28 18 27 -106 0
22 25 15 28 18 27 -103 0
22 25 15 28 18 27 -104 0
22 25 15 28 18 27 -105 0
22 25 15 28 18 20 -106 0
22 25 15 28 18 20 -103 0
22 25 15 28 18 20 -104 0
22 25 15 28 18 20 -105 0
22 25 15 28 27 24 -106 0
22 25 15 28 27 24 -103 0
22 25 15 28 27 24 -104 0
22 25 15 28 27 24 -105 0
22 25 15 28 20 24 -106 0
22 25 15 28 20 24 -103 0
22 25 15 28 20 24 -104 0
22 25 15 28 20 24 -105 0
22 25 15 18 27 20 -106 0
22 25 15 18 27 20 -103 0
22 25 15 18 27 20 -104 0
22 25 15 18 27 20 -105 0
22 25 15 18 20 24 -106 0
22 25 15 18 20 24 -103 0
22 25 15 18 20 24 -104 0
22 25 15 18 20 24 -105 0
22 25 28 18 27 24 -106 0
22 25 28 18 27 24 -103 0
22 25 28 18 27 24 -104 0
22 25 28 18 27 24 -105 0
22 25 28 27 20 24 -106 0
22 25 28 27 20 24 -103 0
22 25 28 27 20 24 -104 0
22 25 28 27 20 24 -105 0
22 25 18 27 20 24 -106 0
22 25 18 27 20 24 -103 0
22 25 18 27 20 24 -104 0
22 25 18 27 20 24 -105 0
22 36 15 38 18 37 -108 0
22 36 15 38 18 37 -110 0
22 36 15 38 18 37 -107 0
22 36 15 38 18 37 -109 0
22 36 15 38 18 20 -108 0
22 36 15 38 18 20 -110 0
22 36 15 38 18 20 -107 0
22 36 15 38 18 20 -109 0
22 36 15 38 37 35 -108 0
22 36 15 38 37 35 -110 0
22 36 15 38 37 35 -107 0
22 36 15 38 37 35 -109 0
22 36 15 38 20 35 -108 0
22 36 15 38 20 35 -110 0
22 36 15 38 20 35 -107 0
22 36 15 38 20 35 -109 0
22 36 15 18 37 20 -108 0
22 36 15 18 37 20 -110 0
22 36 15 18 37 20 -107 0
22 36 15 18 37 20 -109 0
22 36 15 18 20 35 -108 0
22 36 15 18 20 35 -110 0
22 36 15 18 20 35 -107 0
22 36 15 18 20 35 -109 0
22 36 38 18 37 35 -108 0
22 36 38 18 37 35 -110 0
22 36 38 18 37 35 -107 0
22 36 38 18 37 35 -109 0
22 36 38 37 20 35 -108 0
22 36 38 37 20 35 -110 0
22 36 38 37 20 35 -107 0
22 36 38 37 20 35 -109 0
22 36 18 37 20 35 -108 0
22 36 18 37 20 35 -110 0
22 36 18 37 20 35 -107 0
22 36 18 37 20 35 -109 0
22 68 15 70 18 69 -124 0
22 68 15 70 18 69 -123 0
22 68 15 70 18 69 -125 0
22 68 15 70 18 69 -126 0
22 68 15 70 18 20 -124 0
22 68 15 70 18 20 -123 0
22 68 15 70 18 20 -125 0
22 68 15 70 18 20 -126 0
22 68 15 70 69 64 -124 0
22 68 15 70 69 64 -123 0
22 68 15 70 69 64 -125 0
22 68 15 70 69 64 -126 0
22 68 15 70 20 64 -124 0
22 68 15 70 20 64 -123 0
22 68 15 70 20 64 -125 0
22 68 15 70 20 64 -126 0
22 68 15 18 69 20 -124 0
22 68 15 18 69 20 -123 0
22 68 15 18 69 20 -125 0
22 68 15 18 69 20 -126 0
22 68 15 18 20 64 -124 0
22 68 15 18 20 64 -123 0
22 68 15 18 20 64 -125 0
22 68 15 18 20 64 -126 0
22 68 70 18 69 64 -124 0
22 68 70 18 69 64 -123 0
22 68 70 18 69 64 -125 0
22 68 70 18 69 64 -126 0
22 68 70 69 20 64 -124 0
22 68 70 69 20 64 -123 0
22 68 70 69 20 64 -125 0
22 68 70 69 20 64 -126 0
22 68 18 69 20 64 -124 0
22 68 18 69 20 64 -123 0
22 68 18 69 20 64 -125 0
22 68 18 69 20 64 -126 0
22 52 15 54 18 47 -118 0
22 52 15 54 18 47 -116 0
22 52 15 54 18 47 -115 0
22 52 15 54 18 47 -117 0
22 52 15 54 18 20 -118 0
22 52 15 54 18 20 -116 0
22 52 15 54 18 20 -115 0
22 52 15 54 18 20 -117 0
22 52 15 54 47 48 -118 0
22 52 15 54 47 48 -116 0
22 52 15 54 47 48 -115 0
22 52 15 54 47 48 -117 0
22 52 15 54 20 48 -118 0
22 52 15 54 20 48 -116 0
22 52 15 54 20 48 -115 0
22 52 15 54 20 48 -117 0
22 52 15 18 47 20 -118 0
22 52 15 18 47 20 -116 0
22 52 15 18 47 20 -115 0
22 52 15 18 47 20 -117 0
22 52 15 18 20 48 -118 0
22 52 15 18 20 48 -116 0
22 52 15 18 20 48 -115 0
22 52 15 18 20 48 -117 0
22 52 54 18 47 48 -118 0
22 52 54 18 47 48 -116 0
22 52 54 18 47 48 -115 0
22 52 54 18 47 48 -117 0
22 52 54 47 20 48 -118 0
22 52 54 47 20 48 -116 0
22 52 54 47 20 48 -115 0
22 52 54 47 20 48 -117 0
22 52 18 47 20 48 -118 0
22 52 18 47 20 48 -116 0
22 52 18 47 20 48 -115 0
22 52 18 47 20 48 -117 0
22 62 15 55 18 56 -121 0
22 62 15 55 18 56 -120 0
22 62 15 55 18 56 -122 0
22 62 15 55 18 56 -119 0
22 62 15 55 18 20 -121 0
22 62 15 55 18 20 -120 0
22 62 15 55 18 20 -122 0
22 62 15 55 18 20 -119 0
22 62 15 55 56 61 -121 0
22 62 15 55 56 61 -120 0
22 62 15 55 56 61 -122 0
22 62 15 55 56 61 -119 0
22 62 15 55 20 61 -121 0
22 62 15 55 20 61 -120 0
22 62 15 55 20 61 -122 0
22 62 15 55 20 61 -119 0
22 62 15 18 56 20 -121 0
22 62 15 18 56 20 -120 0
22 62 15 18 56 20 -122 0
22 62 15 18 56 20 -119 0
22 62 15 18 20 61 -121 0
22 62 15 18 20 61 -120 0
22 62 15 18 20 61 -122 0
22 62 15 18 20 61 -119 0
22 62 55 18 56 61 -121 0
22 62 55 18 56 61 -120 0
22 62 55 18 56 61 -122 0
22 62 55 18 56 61 -119 0
22 62 55 56 20 61 -121 0
22 62 55 56 20 61 -120 0
22 62 55 56 20 61 -122 0
22 62 55 56 20 61 -119 0
22 62 18 56 20 61 -121 0
22 62 18 56 20 61 -120 0
22 62 18 56 20 61 -122 0
22 62 18 56 20 61 -119 0
22 42 15 39 18 43 -114 0
22 42 15 39 18 43 -112 0
22 42 15 39 18 43 -111 0
22 42 15 39 18 43 -113 0
22 42 15 39 18 20 -114 0
22 42 15 39 18 20 -112 0
22 42 15 39 18 20 -111 0
22 42 15 39 18 20 -113 0
22 42 15 39 43 44 -114 0
22 42 15 39 43 44 -112 0
22 42 15 39 43 44 -111 0
22 42 15 39 43 44 -113 0
22 42 15 39 20 44 -114 0
22 42 15 39 20 44 -112 0
22 42 15 39 20 44 -111 0
22 42 15 39 20 44 -113 0
22 42 15 18 43 20 -114 0
22 42 15 18 43 20 -112 0
22 42 15 18 43 20 -111 0
22 42 15 18 43 20 -113 0
22 42 15 18 20 44 -114 0
22 42 15 18 20 44 -112 0
22 42 15 18 20 44 -111 0
22 42 15 18 20 44 -113 0
22 42 39 18 43 44 -114 0
22 42 39 18 43 44 -112 0
22 42 39 18 43 44 -111 0
22 42 39 18 43 44 -113 0
22 42 39 43 20 44 -114 0
22 42 39 43 20 44 -112 0
22 42 39 43 20 44 -111 0
22 42 39 43 20 44 -113 0
22 42 18 43 20 44 -114 0
22 42 18 43 20 44 -112 0
22 42 18 43 20 44 -111 0
22 42 18 43 20 44 -113 0
22 9 15 14 18 10 -74 0
22 9 15 14 18 10 -75 0
22 9 15 14 18 10 -76 0
22 9 15 14 18 10 -73 0
22 9 15 14 18 20 -74 0
22 9 15 14 18 20 -75 0
22 9 15 14 18 20 -76 0
22 9 15 14 18 20 -73 0
22 9 15 14 10 13 -74 0
22 9 15 14 10 13 -75 0
22 9 15 14 10 13 -76 0
22 9 15 14 10 13 -73 0
22 9 15 14 20 13 -74 0
22 9 15 14 20 13 -75 0
22 9 15 14 20 13 -76 0
22 9 15 14 20 13 -73 0
22 9 15 18 10 20 -74 0
22 9 15 18 10 20 -75 0
22 9 15 18 10 20 -76 0
22 9 15 18 10 20 -73 0
22 9 15 18 20 13 -74 0
22 9 15 18 20 13 -75 0
22 9 15 18 20 13 -76 0
22 9 15 18 20 13 -73 0
22 9 14 18 10 13 -74 0
22 9 14 18 10 13 -75 0
22 9 14 18 10 13 -76 0
22 9 14 18 10 13 -73 0
22 9 14 10 20 13 -74 0
22 9 14 10 20 13 -75 0
22 9 14 10 20 13 -76 0
22 9 14 10 20 13 -73 0
22 9 18 10 20 13 -74 0
22 9 18 10 20 13 -75 0
22 9 18 10 20 13 -76 0
22 9 18 10 20 13 -73 0
22 2 15 6 18 20 -17 0
22 2 15 6 18 20 -21 0
22 2 15 6 18 20 -19 0
22 2 15 6 18 20 -16 0
22 2 15 18 1 20 -17 0
22 2 15 18 1 20 -21 0
22 2 15 18 1 20 -19 0
22 2 15 18 1 20 -16 0
22 15 28 18 27 20 -106 0
22 15 28 18 27 20 -103 0
22 15 28 18 27 20 -104 0
22 15 28 18 27 20 -105 0
22 15 28 18 20 24 -106 0
22 15 28 18 20 24 -103 0
22 15 28 18 20 24 -104 0
22 15 28 18 20 24 -105 0
22 15 38 18 37 20 -108 0
22 15 38 18 37 20 -110 0
22 15 38 18 37 20 -107 0
22 15 38 18 37 20 -109 0
22 15 38 18 20 35 -108 0
22 15 38 18 20 35 -110 0
22 15 38 18 20 35 -107 0
22 15 38 18 20 35 -109 0
22 15 70 18 69 20 -124 0
22 15 70 18 69 20 -123 0
22 15 70 18 69 20 -125 0
22 15 70 18 69 20 -126 0
22 15 70 18 20 64 -124 0
22 15 70 18 20 64 -123 0
22 15 70 18 20 64 -125 0
22 15 70 18 20 64 -126 0
22 15 54 18 47 20 -118 0
22 15 54 18 47 20 -116 0
22 15 54 18 47 20 -115 0
22 15 54 18 47 20 -117 0
22 15 54 18 20 48 -118 0
22 15 54 18 20 48 -116 0
22 15 54 18 20 48 -115 0
22 15 54 18 20 48 -117 0
22 15 55 18 56 20 -121 0
22 15 55 18 56 20 -120 0
22 15 55 18 56 20 -122 0
22 15 55 18 56 20 -119 0
22 15 55 18 20 61 -121 0
22 15 55 18 20 61 -120 0
22 15 55 18 20 61 -122 0
22 15 55 18 20 61 -119 0
22 15 39 18 43 20 -114 0
22 15 39 18 43 20 -112 0
22 15 39 18 43 20 -111 0
22 15 39 18 43 20 -113 0
22 15 39 18 20 44 -114 0
22 15 39 18 20 44 -112 0
22 15 39 18 20 44 -111 0
22 15 39 18 20 44 -113 0
22 15 14 18 10 20 -74 0
22 15 14 18 10 20 -75 0
22 15 14 18 10 20 -76 0
22 15 14 18 10 20 -73 0
22 15 14 18 20 13 -74 0
22 15 14 18 20 13 -75 0
22 15 14 18 20 13 -76 0
22 15 14 18 20 13 -73 0
22 15 6 18 1 20 -17 0
22 15 6 18 1 20 -21 0
22 15 6 18 1 20 -19 0
22 15 6 18 1 20 -16 0
22 15 18 27 20 24 -106 0
22 15 18 27 20 24 -103 0
22 15 18 27 20 24 -104 0
22 15 18 27 20 24 -105 0
22 15 18 37 20 35 -108 0
22 15 18 37 20 35 -110 0
22 15 18 37 20 35 -107 0
22 15 18 37 20 35 -109 0
22 15 18 69 20 64 -124 0
22 15 18 69 20 64 -123 0
22 15 18 69 20 64 -125 0
22 15 18 69 20 64 -126 0
22 15 18 47 20 48 -118 0
22 15 18 47 20 48 -116 0
22 15 18 47 20 48 -115 0
22 15 18 47 20 48 -117 0
22 15 18 56 20 61 -121 0
22 15 18 56 20 61 -120 0
22 15 18 56 20 61 -122 0
22 15 18 56 20 61 -119 0
22 15 18 43 20 44 -114 0
22 15 18 43 20 44 -112 0
22 15 18 43 20 44 -111 0
22 15 18 43 20 44 -113 0
22 15 18 10 20 13 -74 0
22 15 18 10 20 13 -75 0
22 15 18 10 20 13 -76 0
22 15 18 10 20 13 -73 0
25 36 28 38 27 37 -131 0
25 36 28 38 27 37 -132 0
25 36 28 38 27 37 -130 0
25 36 28 38 27 37 -129 0
25 36 28 38 27 24 -131 0
25 36 28 38 27 24 -132 0
25 36 28 38 27 24 -130 0
25 36 28 38 27 24 -129 0
25 36 28 38 37 35 -131 0
25 36 28 38 37 35 -132 0
25 36 28 38 37 35 -130 0
25 36 28 38 37 35 -129 0
25 36 28 38 24 35 -131 0
25 36 28 38 24 35 -132 0
25 36 28 38 24 35 -130 0
25 36 28 38 24 35 -129 0
25 36 28 27 37 24 -131 0
25 36 28 27 37 24 -132 0
25 36 28 27 37 24 -130 0
25 36 28 27 37 24 -129 0
25 36 28 27 24 35 -131 0
25 36 28 27 24 35 -132 0
25 36 28 27 24 35 -130 0
25 36 28 27 24 35 -129 0
25 36 38 27 37 35 -131 0
25 36 38 27 37 35 -132 0
25 36 38 27 37 35 -130 0
25 36 38 27 37 35 -129 0
25 36 38 37 24 35 -131 0
25 36 38 37 24 35 -132 0
25 36 38 37 24 35 -130 0
25 36 38 37 24 35 -129 0
25 36 27 37 24 35 -131 0
25 36 27 37 24 35 -132 0
25 36 27 37 24 35 -130 0
25 36 27 37 24 35 -129 0
25 68 28 70 27 69 -146 0
25 68 28 70 27 69 -148 0
25 68 28 70 27 69 -147 0
25 68 28 70 27 69 -145 0
25 68 28 70 27 24 -146 0
25 68 28 70 27 24 -148 0
25 68 28 70 27 24 -147 0
25 68 28 70 27 24 -145 0
25 68 28 70 69 64 -146 0
25 68 28 70 69 64 -148 0
25 68 28 70 69 64 -147 0
25 68 28 70 69 64 -145 0
25 68 28 70 24 64 -146 0
25 68 28 70 24 64 -148 0
25 68 28 70 24 64 -147 0
25 68 28 70 24 64 -145 0
25 68 28 27 69 24 -146 0
25 68 28 27 69 24 -148 0
25 68 28 27 69 24 -147 0
25 68 28 27 69 24 -145 0
25 68 28 27 24 64 -146 0
25 68 28 27 24 64 -148 0
25 68 28 27 24 64 -147 0
25 68 28 27 24 64 -145 0
25 68 70 27 69 64 -146 0
25 68 70 27 69 64 -148 0
25 68 70 27 69 64 -147 0
25 68 70 27 69 64 -145 0
25 68 70 69 24 64 -146 0
25 68 70 69 24 64 -148 0
25 68 70 69 24 64 -147 0
25 68 70 69 24 64 -145 0
25 68 27 69 24 64 -146 0
25 68 27 69 24 64 -148 0
25 68 27 69 24 64 -147 0
25 68 27 69 24 64 -145 0
25 52 28 54 27 47 -138 0
25 52 28 54 27 47 -140 0
25 52 28 54 27 47 -139 0
25 52 28 54 27 47 -137 0
25 52 28 54 27 24 -138 0
25 52 28 54 27 24 -140 0
25 52 28 54 27 24 -139 0
25 52 28 54 27 24 -137 0
25 52 28 54 47 48 -138 0
25 52 28 54 47 48 -140 0
25 52 28 54 47 48 -139 0
25 52 28 54 47 48 -137 0
25 52 28 54 24 48 -138 0
25 52 28 54 24 48 -140 0
25 52 28 54 24 48 -139 0
25 52 28 54 24 48 -137 0
25 52 28 27 47 24 -138 0
25 52 28 27 47 24 -140 0
25 52 28 27 47 24 -139 0
25 52 28 27 47 24 -137 0
25 52 28 27 24 48 -138 0
25 52 28 27 24 48 -140 0
25 52 28 27 24 48 -139 0
25 52 28 27 24 48 -137 0
25 52 54 27 47 48 -138 0
25 52 54 27 47 48 -140 0
25 52 54 27 47 48 -139 0
25 52 54 27 47 48 -137 0
25 52 54 47 24 48 -138 0
25 52 54 47 24 48 -140 0
25 52 54 47 24 48 -139 0
25 52 54 47 24 48 -137 0
25 52 27 47 24 48 -138 0
25 52 27 47 24 48 -140 0
25 52 27 47 24 48 -139 0
25 52 27 47 24 48 -137 0
25 62 28 55 27 56 -142 0
25 62 28 55 27 56 -141 0
25 62 28 55 27 56 -144 0
25 62 28 55 27 56 -143 0
25 62 28 55 27 24 -142 0
25 62 28 55 27 24 -141 0
25 62 28 55 27 24 -144 0
25 62 28 55 27 24 -143 0
25 62 28 55 56 61 -142 0
25 62 28 55 56 61 -141 0
25 62 28 55 56 61 -144 0
25 62 28 55 56 61 -143 0
25 62 28 55 24 61 -142 0
25 62 28 55 24 61 -141 0
25 62 28 55 24 61 -144 0
25 62 28 55 24 61 -143 0
25 62 28 27 56 24 -142 0
25 62 28 27 56 24 -141 0
25 62 28 27 56 24 -144 0
25 62 28 27 56 24 -143 0
25 62 28 27 24 61 -142 0
25 62 28 27 24 61 -141 0
25 62 28 27 24 61 -144 0
25 62 28 27 24 61 -143 0
25 62 55 27 56 61 -142 0
25 62 55 27 56 61 -141 0
25 62 55 27 56 61 -144 0
25 62 55 27 56 61 -143 0
25 62 55 56 24 61 -142 0
25 62 55 56 24 61 -141 0
25 62 55 56 24 61 -144 0
25 62 55 56 24 61 -143 0
25 62 27 56 24 61 -142 0
25 62 27 56 24 61 -141 0
25 62 27 56 24 61 -144 0
25 62 27 56 24 61 -143 0
25 42 28 39 27 43 -135 0
25 42 28 39 27 43 -134 0
25 42 28 39 27 43 -133 0
25 42 28 39 27 43 -136 0
25 42 28 39 27 24 -135 0
25 42 28 39 27 24 -134 0
25 42 28 39 27 24 -133 0
25 42 28 39 27 24 -136 0
25 42 28 39 43 44 -135 0
25 42 28 39 43 44 -134 0
25 42 28 39 43 44 -133 0
25 42 28 39 43 44 -136 0
25 42 28 39 24 44 -135 0
25 42 28 39 24 44 -134 0
25 42 28 39 24 44 -133 0
25 42 28 39 24 44 -136 0
25 42 28 27 43 24 -135 0
25 42 28 27 43 24 -134 0
25 42 28 27 43 24 -133 0
25 42 28 27 43 24 -136 0
25 42 28 27 24 44 -135 0
25 42 28 27 24 44 -134 0
25 42 28 27 24 44 -133 0
25 42 28 27 24 44 -136 0
25 42 39 27 43 44 -135 0
25 42 39 27 43 44 -134 0
25 42 39 27 43 44 -133 0
25 42 39 27 43 44 -136 0
25 42 39 43 24 44 -135 0
25 42 39 43 24 44 -134 0
25 42 39 43 24 44 -133 0
25 42 39 43 24 44 -136 0
25 42 27 43 24 44 -135 0
25 42 27 43 24 44 -134 0
25 42 27 43 24 44 -133 0
25 42 27 43 24 44 -136 0
25 9 28 14 27 10 -79 0
25 9 28 14 27 10 -77 0
25 9 28 14 27 10 -80 0
25 9 28 14 27 10 -78 0
25 9 28 14 27 24 -79 0
25 9 28 14 27 24 -77 0
25 9 28 14 27 24 -80 0
25 9 28 14 27 24 -78 0
25 9 28 14 10 13 -79 0
25 9 28 14 10 13 -77 0
25 9 28 14 10 13 -80 0
25 9 28 14 10 13 -78 0
25 9 28 14 24 13 -79 0
25 9 28 14 24 13 -77 0
25 9 28 14 24 13 -80 0
25 9 28 14 24 13 -78 0
25 9 28 27 10 24 -79 0
25 9 28 27 10 24 -77 0
25 9 28 27 10 24 -80 0
25 9 28 27 10 24 -78 0
25 9 28 27 24 13 -79 0
25 9 28 27 24 13 -77 0
25 9 28 27 24 13 -80 0
25 9 28 27 24 13 -78 0
25 9 14 27 10 13 -79 0
25 9 14 27 10 13 -77 0
25 9 14 27 10 13 -80 0
25 9 14 27 10 13 -78 0
25 9 14 10 24 13 -79 0
25 9 14 10 24 13 -77 0
25 9 14 10 24 13 -80 0
25 9 14 10 24 13 -78 0
25 9 27 10 24 13 -79 0
25 9 27 10 24 13 -77 0
25 9 27 10 24 13 -80 0
25 9 27 10 24 13 -78 0
25 2 28 6 27 24 -23 0
25 2 28 6 27 24 -29 0
25 2 28 6 27 24 -26 0
25 2 28 6 27 24 -30 0
25 2 28 27 1 24 -23 0
25 2 28 27 1 24 -29 0
25 2 28 27 1 24 -26 0
25 2 28 27 1 24 -30 0
25 15 28 18 27 24 -106 0
25 15 28 18 27 24 -103 0
25 15 28 18 27 24 -104 0
25 15 28 18 27 24 -105 0
25 15 28 27 20 24 -106 0
25 15 28 27 20 24 -103 0
25 15 28 27 20 24 -104 0
25 15 28 27 20 24 -105 0
25 28 38 27 37 24 -131 0
25 28 38 27 37 24 -132 0
25 28 38 27 37 24 -130 0
25 28 38 27 37 24 -129 0
25 28 38 27 24 35 -131 0
25 28 38 27 24 35 -132 0
25 28 38 27 24 35 -130 0
25 28 38 27 24 35 -129 0
25 28 70 27 69 24 -146 0
25 28 70 27 69 24 -148 0
25 28 70 27 69 24 -147 0
25 28 70 27 69 24 -145 0
25 28 70 27 24 64 -146 0
25 28 70 27 24 64 -148 0
25 28 70 27 24 64 -147 0
25 28 70 27 24 64 -145 0
25 28 54 27 47 24 -138 0
25 28 54 27 47 24 -140 0
25 28 54 27 47 24 -139 0
25 28 54 27 47 24 -137 0
25 28 54 27 24 48 -138 0
25 28 54 27 24 48 -140 0
25 28 54 27 24 48 -139 0
25 28 54 27 24 48 -137 0
25 28 55 27 56 24 -142 0
25 28 55 27 56 24 -141 0
25 28 55 27 56 24 -144 0
25 28 55 27 56 24 -143 0
25 28 55 27 24 61 -142 0
25 28 55 27 24 61 -141 0
25 28 55 27 24 61 -144 0
25 28 55 27 24 61 -143 0
25 28 39 27 43 24 -135 0
25 28 39 27 43 24 -134 0
25 28 39 27 43 24 -133 0
25 28 39 27 43 24 -136 0
25 28 39 27 24 44 -135 0
25 28 39 27 24 44 -134 0
25 28 39 27 24 44 -133 0
25 28 39 27 24 44 -136 0
25 28 14 27 10 24 -79 0
25 28 14 27 10 24 -77 0
25 28 14 27 10 24 -80 0
25 28 14 27 10 24 -78 0
25 28 14 27 24 13 -79 0
25 28 14 27 24 13 -77 0
25 28 14 27 24 13 -80 0
25 28 14 27 24 13 -78 0
25 28 6 27 1 24 -23 0
25 28 6 27 1 24 -29 0
25 28 6 27 1 24 -26 0
25 28 6 27 1 24 -30 0
25 28 18 27 20 24 -106 0
25 28 18 27 20 24 -103 0
25 28 18 27 20 24 -104 0
25 28 18 27 20 24 -105 0
25 28 27 37 24 35 -131 0
25 28 27 37 24 35 -132 0
25 28 27 37 24 35 -130 0
25 28 27 37 24 35 -129 0
25 28 27 69 24 64 -146 0
25 28 27 69 24 64 -148 0
25 28 27 69 24 64 -147 0
25 28 27 69 24 64 -145 0
25 28 27 47 24 48 -138 0
25 28 27 47 24 48 -140 0
25 28 27 47 24 48 -139 0
25 28 27 47 24 48 -137 0
25 28 27 56 24 61 -142 0
25 28 27 56 24 61 -141 0
25 28 27 56 24 61 -144 0
25 28 27 56 24 61 -143 0
25 28 27 43 24 44 -135 0
25 28 27 43 24 44 -134 0
25 28 27 43 24 44 -133 0
25 28 27 43 24 44 -136 0
25 28 27 10 24 13 -79 0
25 28 27 10 24 13 -77 0
25 28 27 10 24 13 -80 0
25 28 27 10 24 13 -78 0
36 68 38 70 37 69 -163 0
36 68 38 70 37 69 -164 0
36 68 38 70 37 69 -166 0
36 68 38 70 37 69 -165 0
36 68 38 70 37 35 -163 0
36 68 38 70 37 35 -164 0
36 68 38 70 37 35 -166 0
36 68 38 70 37 35 -165 0
36 68 38 70 69 64 -163 0
36 68 38 70 69 64 -164 0
36 68 38 70 69 64 -166 0
36 68 38 70 69 64 -165 0
36 68 38 70 35 64 -163 0
36 68 38 70 35 64 -164 0
36 68 38 70 35 64 -166 0
36 68 38 70 35 64 -165 0
36 68 38 37 69 35 -163 0
36 68 38 37 69 35 -164 0
36 68 38 37 69 35 -166 0
36 68 38 37 69 35 -165 0
36 68 38 37 35 64 -163 0
36 68 38 37 35 64 -164 0
36 68 38 37 35 64 -166 0
36 68 38 37 35 64 -165 0
36 68 70 37 69 64 -163 0
36 68 70 37 69 64 -164 0
36 68 70 37 69 64 -166 0
36 68 70 37 69 64 -165 0
36 68 70 69 35 64 -163 0
36 68 70 69 35 64 -164 0
36 68 70 69 35 64 -166 0
36 68 70 69 35 64 -165 0
36 68 37 69 35 64 -163 0
36 68 37 69 35 64 -164 0
36 68 37 69 35 64 -166 0
36 68 37 69 35 64 -165 0
36 52 38 54 37 47 -157 0
36 52 38 54 37 47 -156 0
36 52 38 54 37 47 -158 0
36 52 38 54 37 47 -155 0
36 52 38 54 37 35 -157 0
36 52 38 54 37 35 -156 0
36 52 38 54 37 35 -158 0
36 52 38 54 37 35 -155 0
36 52 38 54 47 48 -157 0
36 52 38 54 47 48 -156 0
36 52 38 54 47 48 -158 0
36 52 38 54 47 48 -155 0
36 52 38 54 35 48 -157 0
36 52 38 54 35 48 -156 0
36 52 38 54 35 48 -158 0
36 52 38 54 35 48 -155 0
36 52 38 37 47 35 -157 0
36 52 38 37 47 35 -156 0
36 52 38 37 47 35 -158 0
36 52 38 37 47 35 -155 0
36 52 38 37 35 48 -157 0
36 52 38 37 35 48 -156 0
36 52 38 37 35 48 -158 0
36 52 38 37 35 48 -155 0
36 52 54 37 47 48 -157 0
36 52 54 37 47 48 -156 0
36 52 54 37 47 48 -158 0
36 52 54 37 47 48 -155 0
36 52 54 47 35 48 -157 0
36 52 54 47 35 48 -156 0
36 52 54 47 35 48 -158 0
36 52 54 47 35 48 -155 0
36 52 37 47 35 48 -157 0
36 52 37 47 35 48 -156 0
36 52 37 47 35 48 -158 0
36 52 37 47 35 48 -155 0
36 62 38 55 37 56 -160 0
36 62 38 55 37 56 -159 0
36 62 38 55 37 56 -161 0
36 62 38 55 37 56 -162 0
36 62 38 55 37 35 -160 0
36 62 38 55 37 35 -159 0
36 62 38 55 37 35 -161 0
36 62 38 55 37 35 -162 0
36 62 38 55 56 61 -160 0
36 62 38 55 56 61 -159 0
36 62 38 55 56 61 -161 0
36 62 38 55 56 61 -162 0
36 62 38 55 35 61 -160 0
36 62 38 55 35 61 -159 0
36 62 38 55 35 61 -161 0
36 62 38 55 35 61 -162 0
36 62 38 37 56 35 -160 0
36 62 38 37 56 35 -159 0
36 62 38 37 56 35 -161 0
36 62 38 37 56 35 -162 0
36 62 38 37 35 61 -160 0
36 62 38 37 35 61 -159 0
36 62 38 37 35 61 -161 0
36 62 38 37 35 61 -162 0
36 62 55 37 56 61 -160 0
36 62 55 37 56 61 -159 0
36 62 55 37 56 61 -161 0
36 62 55 37 56 61 -162 0
36 62 55 56 35 61 -160 0
36 62 55 56 35 61 -159 0
36 62 55 56 35 61 -161 0
36 62 55 56 35 61 -162 0
36 62 37 56 35 61 -160 0
36 62 37 56 35 61 -159 0
36 62 37 56 35 61 -161 0
36 62 37 56 35 61 -162 0
36 42 38 39 37 43 -154 0
36 42 38 39 37 43 -151 0
36 42 38 39 37 43 -152 0
36 42 38 39 37 43 -153 0
36 42 38 39 37 35 -154 0
36 42 38 39 37 35 -151 0
36 42 38 39 37 35 -152 0
36 42 38 39 37 35 -153 0
36 42 38 39 43 44 -154 0
36 42 38 39 43 44 -151 0
36 42 38 39 43 44 -152 0
36 42 38 39 43 44 -153 0
36 42 38 39 35 44 -154 0
36 42 38 39 35 44 -151 0
36 42 38 39 35 44 -152 0
36 42 38 39 35 44 -153 0
36 42 38 37 43 35 -154 0
36 42 38 37 43 35 -151 0
36 42 38 37 43 35 -152 0
36 42 38 37 43 35 -153 0
36 42 38 37 35 44 -154 0
36 42 38 37 35 44 -151 0
36 42 38 37 35 44 -152 0
36 42 38 37 35 44 -153 0
36 42 39 37 43 44 -154 0
36 42 39 37 43 44 -151 0
36 42 39 37 43 44 -152 0
36 42 39 37 43 44 -153 0
36 42 39 43 35 44 -154 0
36 42 39 43 35 44 -151 0
36 42 39 43 35 44 -152 0
36 42 39 43 35 44 -153 0
36 42 37 43 35 44 -154 0
36 42 37 43 35 44 -151 0
36 42 37 43 35 44 -152 0
36 42 37 43 35 44 -153 0
36 9 38 14 37 10 -83 0
36 9 38 14 37 10 -82 0
36 9 38 14 37 10 -81 0
36 9 38 14 37 10 -84 0
36 9 38 14 37 35 -83 0
36 9 38 14 37 35 -82 0
36 9 38 14 37 35 -81 0
36 9 38 14 37 35 -84 0
36 9 38 14 10 13 -83 0
36 9 38 14 10 13 -82 0
36 9 38 14 10 13 -81 0
36 9 38 14 10 13 -84 0
36 9 38 14 35 13 -83 0
36 9 38 14 35 13 -82 0
36 9 38 14 35 13 -81 0
36 9 38 14 35 13 -84 0
36 9 38 37 10 35 -83 0
36 9 38 37 10 35 -82 0
36 9 38 37 10 35 -81 0
36 9 38 37 10 35 -84 0
36 9 38 37 35 13 -83 0
36 9 38 37 35 13 -82 0
36 9 38 37 35 13 -81 0
36 9 38 37 35 13 -84 0
36 9 14 37 10 13 -83 0
36 9 14 37 10 13 -82 0
36 9 14 37 10 13 -81 0
36 9 14 37 10 13 -84 0
36 9 14 10 35 13 -83 0
36 9 14 10 35 13 -82 0
36 9 14 10 35 13 -81 0
36 9 14 10 35 13 -84 0
36 9 37 10 35 13 -83 0
36 9 37 10 35 13 -82 0
36 9 37 10 35 13 -81 0
36 9 37 10 35 13 -84 0
36 2 38 6 37 35 -31 0
36 2 38 6 37 35 -33 0
36 2 38 6 37 35 -34 0
36 2 38 6 37 35 -32 0
36 2 38 37 1 35 -31 0
36 2 38 37 1 35 -33 0
36 2 38 37 1 35 -34 0
36 2 38 37 1 35 -32 0
36 15 38 18 37 35 -108 0
36 15 38 18 37 35 -110 0
36 15 38 18 37 35 -107 0
36 15 38 18 37 35 -109 0
36 15 38 37 20 35 -108 0
36 15 38 37 20 35 -110 0
36 15 38 37 20 35 -107 0
36 15 38 37 20 35 -109 0
36 28 38 27 37 35 -131 0
36 28 38 27 37 35 -132 0
36 28 38 27 37 35 -130 0
36 28 38 27 37 35 -129 0
36 28 38 37 24 35 -131 0
36 28 38 37 24 35 -132 0
36 28 38 37 24 35 -130 0
36 28 38 37 24 35 -129 0
36 38 70 37 69 35 -163 0
36 38 70 37 69 35 -164 0
36 38 70 37 69 35 -166 0
36 38 70 37 69 35 -165 0
36 38 70 37 35 64 -163 0
36 38 70 37 35 64 -164 0
36 38 70 37 35 64 -166 0
36 38 70 37 35 64 -165 0
36 38 54 37 47 35 -157 0
36 38 54 37 47 35 -156 0
36 38 54 37 47 35 -158 0
36 38 54 37 47 35 -155 0
36 38 54 37 35 48 -157 0
36 38 54 37 35 48 -156 0
36 38 54 37 35 48 -158 0
36 38 54 37 35 48 -155 0
36 38 55 37 56 35 -160 0
36 38 55 37 56 35 -159 0
36 38 55 37 56 35 -161 0
36 38 55 37 56 35 -162 0
36 38 55 37 35 61 -160 0
36 38 55 37 35 61 -159 0
36 38 55 37 35 61 -161 0
36 38 55 37 35 61 -162 0
36 38 39 37 43 35 -154 0
36 38 39 37 43 35 -151 0
36 38 39 37 43 35 -152 0
36 38 39 37 43 35 -153 0
36 38 39 37 35 44 -154 0
36 38 39 37 35 44 -151 0
36 38 39 37 35 44 -152 0
36 38 39 37 35 44 -153 0
36 38 14 37 10 35 -83 0
36 38 14 37 10 35 -82 0
36 38 14 37 10 35 -81 0
36 38 14 37 10 35 -84 0
36 38 14 37 35 13 -83 0
36 38 14 37 35 13 -82 0
36 38 14 37 35 13 -81 0
36 38 14 37 35 13 -84 0
36 38 6 37 1 35 -31 0
36 38 6 37 1 35 -33 0
36 38 6 37 1 35 -34 0
36 38 6 37 1 35 -32 0
36 38 18 37 20 35 -108 0
36 38 18 37 20 35 -110 0
36 38 18 37 20 35 -107 0
36 38 18 37 20 35 -109 0
36 38 27 37 24 35 -131 0
36 38 27 37 24 35 -132 0
36 38 27 37 24 35 -130 0
36 38 27 37 24 35 -129 0
36 38 37 69 35 64 -163 0
36 38 37 69 35 64 -164 0
36 38 37 69 35 64 -166 0
36 38 37 69 35 64 -165 0
36 38 37 47 35 48 -157 0
36 38 37 47 35 48 -156 0
36 38 37 47 35 48 -158 0
36 38 37 47 35 48 -155 0
36 38 37 56 35 61 -160 0
36 38 37 56 35 61 -159 0
36 38 37 56 35 61 -161 0
36 38 37 56 35 61 -162 0
36 38 37 43 35 44 -154 0
36 38 37 43 35 44 -151 0
36 38 37 43 35 44 -152 0
36 38 37 43 35 44 -153 0
36 38 37 10 35 13 -83 0
36 38 37 10 35 13 -82 0
36 38 37 10 35 13 -81 0
36 38 37 10 35 13 -84 0
68 52 70 54 69 47 -190 0
68 52 70 54 69 47 -187 0
68 52 70 54 69 47 -188 0
68 52 70 54 69 47 -189 0
68 52 70 54 69 64 -190 0
68 52 70 54 69 64 -187 0
68 52 70 54 69 64 -188 0
68 52 70 54 69 64 -189 0
68 52 70 54 47 48 -190 0
68 52 70 54 47 48 -187 0
68 52 70 54 47 48 -188 0
68 52 70 54 47 48 -189 0
68 52 70 54 64 48 -190 0
68 52 70 54 64 48 -187 0
68 52 70 54 64 48 -188 0
68 52 70 54 64 48 -189 0
68 52 70 69 47 64 -190 0
68 52 70 69 47 64 -187 0
68 52 70 69 47 64 -188 0
68 52 70 69 47 64 -189 0
68 52 70 69 64 48 -190 0
68 52 70 69 64 48 -187 0
68 52 70 69 64 48 -188 0
68 52 70 69 64 48 -189 0
68 52 54 69 47 48 -190 0
68 52 54 69 47 48 -187 0
68 52 54 69 47 48 -188 0
68 52 54 69 47 48 -189 0
68 52 54 47 64 48 -190 0
68 52 54 47 64 48 -187 0
68 52 54 47 64 48 -188 0
68 52 54 47 64 48 -189 0
68 52 69 47 64 48 -190 0
68 52 69 47 64 48 -187 0
68 52 69 47 64 48 -188 0
68 52 69 47 64 48 -189 0
68 62 70 55 69 56 -194 0
68 62 70 55 69 56 -193 0
68 62 70 55 69 56 -196 0
68 62 70 55 69 56 -195 0
68 62 70 55 69 64 -194 0
68 62 70 55 69 64 -193 0
68 62 70 55 69 64 -196 0
68 62 70 55 69 64 -195 0
68 62 70 55 56 61 -194 0
68 62 70 55 56 61 -193 0
68 62 70 55 56 61 -196 0
68 62 70 55 56 61 -195 0
68 62 70 55 64 61 -194 0
68 62 70 55 64 61 -193 0
68 62 70 55 64 61 -196 0
68 62 70 55 64 61 -195 0
68 62 70 69 56 64 -194 0
68 62 70 69 56 64 -193 0
68 62 70 69 56 64 -196 0
68 62 70 69 56 64 -195 0
68 62 70 69 64 61 -194 0
68 62 70 69 64 61 -193 0
68 62 70 69 64 61 -196 0
68 62 70 69 64 61 -195 0
68 62 55 69 56 61 -194 0
68 62 55 69 56 61 -193 0
68 62 55 69 56 61 -196 0
68 62 55 69 56 61 -195 0
68 62 55 56 64 61 -194 0
68 62 55 56 64 61 -193 0
68 62 55 56 64 61 -196 0
68 62 55 56 64 61 -195 0
68 62 69 56 64 61 -194 0
68 62 69 56 64 61 -193 0
68 62 69 56 64 61 -196 0
68 62 69 56 64 61 -195 0
68 42 70 39 69 43 -178 0
68 42 70 39 69 43 -177 0
68 42 70 39 69 43 -179 0
68 42 70 39 69 43 -180 0
68 42 70 39 69 64 -178 0
68 42 70 39 69 64 -177 0
68 42 70 39 69 64 -179 0
68 42 70 39 69 64 -180 0
68 42 70 39 43 44 -178 0
68 42 70 39 43 44 -177 0
68 42 70 39 43 44 -179 0
68 42 70 39 43 44 -180 0
68 42 70 39 64 44 -178 0
68 42 70 39 64 44 -177 0
68 42 70 39 64 44 -179 0
68 42 70 39 64 44 -180 0
68 42 70 69 43 64 -178 0
68 42 70 69 43 64 -177 0
68 42 70 69 43 64 -179 0
68 42 70 69 43 64 -180 0
68 42 70 69 64 44 -178 0
68 42 70 69 64 44 -177 0
68 42 70 69 64 44 -179 0
68 42 70 69 64 44 -180 0
68 42 39 69 43 44 -178 0
68 42 39 69 43 44 -177 0
68 42 39 69 43 44 -179 0
68 42 39 69 43 44 -180 0
68 42 39 43 64 44 -178 0
68 42 39 43 64 44 -177 0
68 42 39 43 64 44 -179 0
68 42 39 43 64 44 -180 0
68 42 69 43 64 44 -178 0
68 42 69 43 64 44 -177 0
68 42 69 43 64 44 -179 0
68 42 69 43 64 44 -180 0
68 9 70 14 69 10 -99 0
68 9 70 14 69 10 -97 0
68 9 70 14 69 10 -100 0
68 9 70 14 69 10 -98 0
68 9 70 14 69 64 -99 0
68 9 70 14 69 64 -97 0
68 9 70 14 69 64 -100 0
68 9 70 14 69 64 -98 0
68 9 70 14 10 13 -99 0
68 9 70 14 10 13 -97 0
68 9 70 14 10 13 -100 0
68 9 70 14 10 13 -98 0
68 9 70 14 64 13 -99 0
68 9 70 14 64 13 -97 0
68 9 70 14 64 13 -100 0
68 9 70 14 64 13 -98 0
68 9 70 69 10 64 -99 0
68 9 70 69 10 64 -97 0
68 9 70 69 10 64 -100 0
68 9 70 69 10 64 -98 0
68 9 70 69 64 13 -99 0
68 9 70 69 64 13 -97 0
68 9 70 69 64 13 -100 0
68 9 70 69 64 13 -98 0
68 9 14 69 10 13 -99 0
68 9 14 69 10 13 -97 0
68 9 14 69 10 13 -100 0
68 9 14 69 10 13 -98 0
68 9 14 10 64 13 -99 0
68 9 14 10 64 13 -97 0
68 9 14 10 64 13 -100 0
68 9 14 10 64 13 -98 0
68 9 69 10 64 13 -99 0
68 9 69 10 64 13 -97 0
68 9 69 10 64 13 -100 0
68 9 69 10 64 13 -98 0
68 2 70 6 69 64 -63 0
68 2 70 6 69 64 -66 0
68 2 70 6 69 64 -67 0
68 2 70 6 69 64 -65 0
68 2 70 69 1 64 -63 0
68 2 70 69 1 64 -66 0
68 2 70 69 1 64 -67 0
68 2 70 69 1 64 -65 0
68 15 70 18 69 64 -124 0
68 15 70 18 69 64 -123 0
68 15 70 18 69 64 -125 0
68 15 70 18 69 64 -126 0
68 15 70 69 20 64 -124 0
68 15 70 69 20 64 -123 0
68 15 70 69 20 64 -125 0
68 15 70 69 20 64 -126 0
68 28 70 27 69 64 -146 0
68 28 70 27 69 64 -148 0
68 28 70 27 69 64 -147 0
68 28 70 27 69 64 -145 0
68 28 70 69 24 64 -146 0
68 28 70 69 24 64 -148 0
68 28 70 69 24 64 -147 0
68 28 70 69 24 64 -145 0
68 38 70 37 69 64 -163 0
68 38 70 37 69 64 -164 0
68 38 70 37 69 64 -166 0
68 38 70 37 69 64 -165 0
68 38 70 69 35 64 -163 0
68 38 70 69 35 64 -164 0
68 38 70 69 35 64 -166 0
68 38 70 69 35 64 -165 0
68 70 54 69 47 64 -190 0
68 70 54 69 47 64 -187 0
68 70 54 69 47 64 -188 0
68 70 54 69 47 64 -189 0
68 70 54 69 64 48 -190 0
68 70 54 69 64 48 -187 0
68 70 54 69 64 48 -188 0
68 70 54 69 64 48 -189 0
68 70 55 69 56 64 -194 0
68 70 55 69 56 64 -193 0
68 70 55 69 56 64 -196 0
68 70 55 69 56 64 -195 0
68 70 55 69 64 61 -194 0
68 70 55 69 64 61 -193 0
68 70 55 69 64 61 -196 0
68 70 55 69 64 61 -195 0
68 70 39 69 43 64 -178 0
68 70 39 69 43 64 -177 0
68 70 39 69 43 64 -179 0
68 70 39 69 43 64 -180 0
68 70 39 69 64 44 -178 0
68 70 39 69 64 44 -177 0
68 70 39 69 64 44 -179 0
68 70 39 69 64 44 -180 0
68 70 14 69 10 64 -99 0
68 70 14 69 10 64 -97 0
68 70 14 69 10 64 -100 0
68 70 14 69 10 64 -98 0
68 70 14 69 64 13 -99 0
68 70 14 69 64 13 -97 0
68 70 14 69 64 13 -100 0
68 70 14 69 64 13 -98 0
68 70 6 69 1 64 -63 0
68 70 6 69 1 64 -66 0
68 70 6 69 1 64 -67 0
68 70 6 69 1 64 -65 0
68 70 18 69 20 64 -124 0
68 70 18 69 20 64 -123 0
68 70 18 69 20 64 -125 0
68 70 18 69 20 64 -126 0
68 70 27 69 24 64 -146 0
68 70 27 69 24 64 -148 0
68 70 27 69 24 64 -147 0
68 70 27 69 24 64 -145 0
68 70 37 69 35 64 -163 0
68 70 37 69 35 64 -164 0
68 70 37 69 35 64 -166 0
68 70 37 69 35 64 -165 0
68 70 69 47 64 48 -190 0
68 70 69 47 64 48 -187 0
68 70 69 47 64 48 -188 0
68 70 69 47 64 48 -189 0
68 70 69 56 64 61 -194 0
68 70 69 56 64 61 -193 0
68 70 69 56 64 61 -196 0
68 70 69 56 64 61 -195 0
68 70 69 43 64 44 -178 0
68 70 69 43 64 44 -177 0
68 70 69 43 64 44 -179 0
68 70 69 43 64 44 -180 0
68 70 69 10 64 13 -99 0
68 70 69 10 64 13 -97 0
68 70 69 10 64 13 -100 0
68 70 69 10 64 13 -98 0
52 62 54 55 47 56 -186 0
52 62 54 55 47 56 -183 0
52 62 54 55 47 56 -184 0
52 62 54 55 47 56 -185 0
52 62 54 55 47 48 -186 0
52 62 54 55 47 48 -183 0
52 62 54 55 47 48 -184 0
52 62 54 55 47 48 -185 0
52 62 54 55 56 61 -186 0
52 62 54 55 56 61 -183 0
52 62 54 55 56 61 -184 0
52 62 54 55 56 61 -185 0
52 62 54 55 48 61 -186 0
52 62 54 55 48 61 -183 0
52 62 54 55 48 61 -184 0
52 62 54 55 48 61 -185 0
52 62 54 47 56 48 -186 0
52 62 54 47 56 48 -183 0
52 62 54 47 56 48 -184 0
52 62 54 47 56 48 -185 0
52 62 54 47 48 61 -186 0
52 62 54 47 48 61 -183 0
52 62 54 47 48 61 -184 0
52 62 54 47 48 61 -185 0
52 62 55 47 56 61 -186 0
52 62 55 47 56 61 -183 0
52 62 55 47 56 61 -184 0
52 62 55 47 56 61 -185 0
52 62 55 56 48 61 -186 0
52 62 55 56 48 61 -183 0
52 62 55 56 48 61 -184 0
52 62 55 56 48 61 -185 0
52 62 47 56 48 61 -186 0
52 62 47 56 48 61 -183 0
52 62 47 56 48 61 -184 0
52 62 47 56 48 61 -185 0
52 42 54 39 47 43 -170 0
52 42 54 39 47 43 -169 0
52 42 54 39 47 43 -172 0
52 42 54 39 47 43 -171 0
52 42 54 39 47 48 -170 0
52 42 54 39 47 48 -169 0
52 42 54 39 47 48 -172 0
52 42 54 39 47 48 -171 0
52 42 54 39 43 44 -170 0
52 42 54 39 43 44 -169 0
52 42 54 39 43 44 -172 0
52 42 54 39 43 44 -171 0
52 42 54 39 48 44 -170 0
52 42 54 39 48 44 -169 0
52 42 54 39 48 44 -172 0
52 42 54 39 48 44 -171 0
52 42 54 47 43 48 -170 0
52 42 54 47 43 48 -169 0
52 42 54 47 43 48 -172 0
52 42 54 47 43 48 -171 0
52 42 54 47 48 44 -170 0
52 42 54 47 48 44 -169 0
52 42 54 47 48 44 -172 0
52 42 54 47 48 44 -171 0
52 42 39 47 43 44 -170 0
52 42 39 47 43 44 -169 0
52 42 39 47 43 44 -172 0
52 42 39 47 43 44 -171 0
52 42 39 43 48 44 -170 0
52 42 39 43 48 44 -169 0
52 42 39 43 48 44 -172 0
52 42 39 43 48 44 -171 0
52 42 47 43 48 44 -170 0
52 42 47 43 48 44 -169 0
52 42 47 43 48 44 -172 0
52 42 47 43 48 44 -171 0
52 9 54 14 47 10 -89 0
52 9 54 14 47 10 -91 0
52 9 54 14 47 10 -90 0
52 9 54 14 47 10 -92 0
52 9 54 14 47 48 -89 0
52 9 54 14 47 48 -91 0
52 9 54 14 47 48 -90 0
52 9 54 14 47 48 -92 0
52 9 54 14 10 13 -89 0
52 9 54 14 10 13 -91 0
52 9 54 14 10 13 -90 0
52 9 54 14 10 13 -92 0
52 9 54 14 48 13 -89 0
52 9 54 14 48 13 -91 0
52 9 54 14 48 13 -90 0
52 9 54 14 48 13 -92 0
52 9 54 47 10 48 -89 0
52 9 54 47 10 48 -91 0
52 9 54 47 10 48 -90 0
52 9 54 47 10 48 -92 0
52 9 54 47 48 13 -89 0
52 9 54 47 48 13 -91 0
52 9 54 47 48 13 -90 0
52 9 54 47 48 13 -92 0
52 9 14 47 10 13 -89 0
52 9 14 47 10 13 -91 0
52 9 14 47 10 13 -90 0
52 9 14 47 10 13 -92 0
52 9 14 10 48 13 -89 0
52 9 14 10 48 13 -91 0
52 9 14 10 48 13 -90 0
52 9 14 10 48 13 -92 0
52 9 47 10 48 13 -89 0
52 9 47 10 48 13 -91 0
52 9 47 10 48 13 -90 0
52 9 47 10 48 13 -92 0
52 2 54 6 47 48 -49 0
52 2 54 6 47 48 -51 0
52 2 54 6 47 48 -50 0
52 2 54 6 47 48 -53 0
52 2 54 47 1 48 -49 0
52 2 54 47 1 48 -51 0
52 2 54 47 1 48 -50 0
52 2 54 47 1 48 -53 0
52 15 54 18 47 48 -118 0
52 15 54 18 47 48 -116 0
52 15 54 18 47 48 -115 0
52 15 54 18 47 48 -117 0
52 15 54 47 20 48 -118 0
52 15 54 47 20 48 -116 0
52 15 54 47 20 48 -115 0
52 15 54 47 20 48 -117 0
52 28 54 27 47 48 -138 0
52 28 54 27 47 48 -140 0
52 28 54 27 47 48 -139 0
52 28 54 27 47 48 -137 0
52 28 54 47 24 48 -138 0
52 28 54 47 24 48 -140 0
52 28 54 47 24 48 -139 0
52 28 54 47 24 48 -137 0
52 38 54 37 47 48 -157 0
52 38 54 37 47 48 -156 0
52 38 54 37 47 48 -158 0
52 38 54 37 47 48 -155 0
52 38 54 47 35 48 -157 0
52 38 54 47 35 48 -156 0
52 38 54 47 35 48 -158 0
52 38 54 47 35 48 -155 0
52 70 54 69 47 48 -190 0
52 70 54 69 47 48 -187 0
52 70 54 69 47 48 -188 0
52 70 54 69 47 48 -189 0
52 70 54 47 64 48 -190 0
52 70 54 47 64 48 -187 0
52 70 54 47 64 48 -188 0
52 70 54 47 64 48 -189 0
52 54 55 47 56 48 -186 0
52 54 55 47 56 48 -183 0
52 54 55 47 56 48 -184 0
52 54 55 47 56 48 -185 0
52 54 55 47 48 61 -186 0
52 54 55 47 48 61 -183 0
52 54 55 47 48 61 -184 0
52 54 55 47 48 61 -185 0
52 54 39 47 43 48 -170 0
52 54 39 47 43 48 -169 0
52 54 39 47 43 48 -172 0
52 54 39 47 43 48 -171 0
52 54 39 47 48 44 -170 0
52 54 39 47 48 44 -169 0
52 54 39 47 48 44 -172 0
52 54 39 47 48 44 -171 0
52 54 14 47 10 48 -89 0
52 54 14 47 10 48 -91 0
52 54 14 47 10 48 -90 0
52 54 14 47 10 48 -92 0
52 54 14 47 48 13 -89 0
52 54 14 47 48 13 -91 0
52 54 14 47 48 13 -90 0
52 54 14 47 48 13 -92 0
52 54 6 47 1 48 -49 0
52 54 6 47 1 48 -51 0
52 54 6 47 1 48 -50 0
52 54 6 47 1 48 -53 0
52 54 18 47 20 48 -118 0
52 54 18 47 20 48 -116 0
52 54 18 47 20 48 -115 0
52 54 18 47 20 48 -117 0
52 54 27 47 24 48 -138 0
52 54 27 47 24 48 -140 0
52 54 27 47 24 48 -139 0
52 54 27 47 24 48 -137 0
52 54 37 47 35 48 -157 0
52 54 37 47 35 48 -156 0
52 54 37 47 35 48 -158 0
52 54 37 47 35 48 -155 0
52 54 69 47 64 48 -190 0
52 54 69 47 64 48 -187 0
52 54 69 47 64 48 -188 0
52 54 69 47 64 48 -189 0
52 54 47 56 48 61 -186 0
52 54 47 56 48 61 -183 0
52 54 47 56 48 61 -184 0
52 54 47 56 48 61 -185 0
52 54 47 43 48 44 -170 0
52 54 47 43 48 44 -169 0
52 54 47 43 48 44 -172 0
52 54 47 43 48 44 -171 0
52 54 47 10 48 13 -89 0
52 54 47 10 48 13 -91 0
52 54 47 10 48 13 -90 0
52 54 47 10 48 13 -92 0
62 42 55 39 56 43 -176 0
62 42 55 39 56 43 -173 0
62 42 55 39 56 43 -175 0
62 42 55 39 56 43 -174 0
62 42 55 39 56 61 -176 0
62 42 55 39 56 61 -173 0
62 42 55 39 56 61 -175 0
62 42 55 39 56 61 -174 0
62 42 55 39 43 44 -176 0
62 42 55 39 43 44 -173 0
62 42 55 39 43 44 -175 0
62 42 55 39 43 44 -174 0
62 42 55 39 61 44 -176 0
62 42 55 39 61 44 -173 0
62 42 55 39 61 44 -175 0
62 42 55 39 61 44 -174 0
62 42 55 56 43 61 -176 0
62 42 55 56 43 61 -173 0
62 42 55 56 43 61 -175 0
62 42 55 56 43 61 -174 0
62 42 55 56 61 44 -176 0
62 42 55 56 61 44 -173 0
62 42 55 56 61 44 -175 0
62 42 55 56 61 44 -174 0
62 42 39 56 43 44 -176 0
62 42 39 56 43 44 -173 0
62 42 39 56 43 44 -175 0
62 42 39 56 43 44 -174 0
62 42 39 43 61 44 -176 0
62 42 39 43 61 44 -173 0
62 42 39 43 61 44 -175 0
62 42 39 43 61 44 -174 0
62 42 56 43 61 44 -176 0
62 42 56 43 61 44 -173 0
62 42 56 43 61 44 -175 0
62 42 56 43 61 44 -174 0
62 9 55 14 56 10 -93 0
62 9 55 14 56 10 -95 0
62 9 55 14 56 10 -96 0
62 9 55 14 56 10 -94 0
62 9 55 14 56 61 -93 0
62 9 55 14 56 61 -95 0
62 9 55 14 56 61 -96 0
62 9 55 14 56 61 -94 0
62 9 55 14 10 13 -93 0
62 9 55 14 10 13 -95 0
62 9 55 14 10 13 -96 0
62 9 55 14 10 13 -94 0
62 9 55 14 61 13 -93 0
62 9 55 14 61 13 -95 0
62 9 55 14 61 13 -96 0
62 9 55 14 61 13 -94 0
62 9 55 56 10 61 -93 0
62 9 55 56 10 61 -95 0
62 9 55 56 10 61 -96 0
62 9 55 56 10 61 -94 0
62 9 55 56 61 13 -93 0
62 9 55 56 61 13 -95 0
62 9 55 56 61 13 -96 0
62 9 55 56 61 13 -94 0
62 9 14 56 10 13 -93 0
62 9 14 56 10 13 -95 0
62 9 14 56 10 13 -96 0
62 9 14 56 10 13 -94 0
62 9 14 10 61 13 -93 0
62 9 14 10 61 13 -95 0
62 9 14 10 61 13 -96 0
62 9 14 10 61 13 -94 0
62 9 56 10 61 13 -93 0
62 9 56 10 61 13 -95 0
62 9 56 10 61 13 -96 0
62 9 56 10 61 13 -94 0
62 2 55 6 56 61 -59 0
62 2 55 6 56 61 -57 0
62 2 55 6 56 61 -60 0
62 2 55 6 56 61 -58 0
62 2 55 56 1 61 -59 0
62 2 55 56 1 61 -57 0
62 2 55 56 1 61 -60 0
62 2 55 56 1 61 -58 0
62 15 55 18 56 61 -121 0
62 15 55 18 56 61 -120 0
62 15 55 18 56 61 -122 0
62 15 55 18 56 61 -119 0
62 15 55 56 20 61 -121 0
62 15 55 56 20 61 -120 0
62 15 55 56 20 61 -122 0
62 15 55 56 20 61 -119 0
62 28 55 27 56 61 -142 0
62 28 55 27 56 61 -141 0
62 28 55 27 56 61 -144 0
62 28 55 27 56 61 -143 0
62 28 55 56 24 61 -142 0
62 28 55 56 24 61 -141 0
62 28 55 56 24 61 -144 0
62 28 55 56 24 61 -143 0
62 38 55 37 56 61 -160 0
62 38 55 37 56 61 -159 0
62 38 55 37 56 61 -161 0
62 38 55 37 56 61 -162 0
62 38 55 56 35 61 -160 0
62 38 55 56 35 61 -159 0
62 38 55 56 35 61 -161 0
62 38 55 56 35 61 -162 0
62 70 55 69 56 61 -194 0
62 70 55 69 56 61 -193 0
62 70 55 69 56 61 -196 0
62 70 55 69 56 61 -195 0
62 70 55 56 64 61 -194 0
62 70 55 56 64 61 -193 0
62 70 55 56 64 61 -196 0
62 70 55 56 64 61 -195 0
62 54 55 47 56 61 -186 0
62 54 55 47 56 61 -183 0
62 54 55 47 56 61 -184 0
62 54 55 47 56 61 -185 0
62 54 55 56 48 61 -186 0
62 54 55 56 48 61 -183 0
62 54 55 56 48 61 -184 0
62 54 55 56 48 61 -185 0
62 55 39 56 43 61 -176 0
62 55 39 56 43 61 -173 0
62 55 39 56 43 61 -175 0
62 55 39 56 43 61 -174 0
62 55 39 56 61 44 -176 0
62 55 39 56 61 44 -173 0
62 55 39 56 61 44 -175 0
62 55 39 56 61 44 -174 0
62 55 14 56 10 61 -93 0
62 55 14 56 10 61 -95 0
62 55 14 56 10 61 -96 0
62 55 14 56 10 61 -94 0
62 55 14 56 61 13 -93 0
62 55 14 56 61 13 -95 0
62 55 14 56 61 13 -96 0
62 55 14 56 61 13 -94 0
62 55 6 56 1 61 -59 0
62 55 6 56 1 61 -57 0
62 55 6 56 1 61 -60 0
62 55 6 56 1 61 -58 0
62 55 18 56 20 61 -121 0
62 55 18 56 20 61 -120 0
62 55 18 56 20 61 -122 0
62 55 18 56 20 61 -119 0
62 55 27 56 24 61 -142 0
62 55 27 56 24 61 -141 0
62 55 27 56 24 61 -144 0
62 55 27 56 24 61 -143 0
62 55 37 56 35 61 -160 0
62 55 37 56 35 61 -159 0
62 55 37 56 35 61 -161 0
62 55 37 56 35 61 -162 0
62 55 69 56 64 61 -194 0
62 55 69 56 64 61 -193 0
62 55 69 56 64 61 -196 0
62 55 69 56 64 61 -195 0
62 55 47 56 48 61 -186 0
62 55 47 56 48 61 -183 0
62 55 47 56 48 61 -184 0
62 55 47 56 48 61 -185 0
62 55 56 43 61 44 -176 0
62 55 56 43 61 44 -173 0
62 55 56 43 61 44 -175 0
62 55 56 43 61 44 -174 0
62 55 56 10 61 13 -93 0
62 55 56 10 61 13 -95 0
62 55 56 10 61 13 -96 0
62 55 56 10 61 13 -94 0
42 9 39 14 43 10 -86 0
42 9 39 14 43 10 -87 0
42 9 39 14 43 10 -88 0
42 9 39 14 43 10 -85 0
42 9 39 14 43 44 -86 0
42 9 39 14 43 44 -87 0
42 9 39 14 43 44 -88 0
42 9 39 14 43 44 -85 0
42 9 39 14 10 13 -86 0
42 9 39 14 10 13 -87 0
42 9 39 14 10 13 -88 0
42 9 39 14 10 13 -85 0
42 9 39 14 44 13 -86 0
42 9 39 14 44 13 -87 0
42 9 39 14 44 13 -88 0
42 9 39 14 44 13 -85 0
42 9 39 43 10 44 -86 0
42 9 39 43 10 44 -87 0
42 9 39 43 10 44 -88 0
42 9 39 43 10 44 -85 0
42 9 39 43 44 13 -86 0
42 9 39 43 44 13 -87 0
42 9 39 43 44 13 -88 0
42 9 39 43 44 13 -85 0
42 9 14 43 10 13 -86 0
42 9 14 43 10 13 -87 0
42 9 14 43 10 13 -88 0
42 9 14 43 10 13 -85 0
42 9 14 10 44 13 -86 0
42 9 14 10 44 13 -87 0
42 9 14 10 44 13 -88 0
42 9 14 10 44 13 -85 0
42 9 43 10 44 13 -86 0
42 9 43 10 44 13 -87 0
42 9 43 10 44 13 -88 0
42 9 43 10 44 13 -85 0
42 2 39 6 43 44 -45 0
42 2 39 6 43 44 -41 0
42 2 39 6 43 44 -46 0
42 2 39 6 43 44 -40 0
42 2 39 43 1 44 -45 0
42 2 39 43 1 44 -41 0
42 2 39 43 1 44 -46 0
42 2 39 43 1 44 -40 0
42 15 39 18 43 44 -114 0
42 15 39 18 43 44 -112 0
42 15 39 18 43 44 -111 0
42 15 39 18 43 44 -113 0
42 15 39 43 20 44 -114 0
42 15 39 43 20 44 -112 0
42 15 39 43 20 44 -111 0
42 15 39 43 20 44 -113 0
42 28 39 27 43 44 -135 0
42 28 39 27 43 44 -134 0
42 28 39 27 43 44 -133 0
42 28 39 27 43 44 -136 0
42 28 39 43 24 44 -135 0
42 28 39 43 24 44 -134 0
42 28 39 43 24 44 -133 0
42 28 39 43 24 44 -136 0
42 38 39 37 43 44 -154 0
42 38 39 37 43 44 -151 0
42 38 39 37 43 44 -152 0
42 38 39 37 43 44 -153 0
42 38 39 43 35 44 -154 0
42 38 39 43 35 44 -151 0
42 38 39 43 35 44 -152 0
42 38 39 43 35 44 -153 0
42 70 39 69 43 44 -178 0
42 70 39 69 43 44 -177 0
42 70 39 69 43 44 -179 0
42 70 39 69 43 44 -180 0
42 70 39 43 64 44 -178 0
42 70 39 43 64 44 -177 0
42 70 39 43 64 44 -179 0
42 70 39 43 64 44 -180 0
42 54 39 47 43 44 -170 0
42 54 39 47 43 44 -169 0
42 54 39 47 43 44 -172 0
42 54 39 47 43 44 -171 0
42 54 39 43 48 44 -170 0
42 54 39 43 48 44 -169 0
42 54 39 43 48 44 -172 0
42 54 39 43 48 44 -171 0
42 55 39 56 43 44 -176 0
42 55 39 56 43 44 -173 0
42 55 39 56 43 44 -175 0
42 55 39 56 43 44 -174 0
42 55 39 43 61 44 -176 0
42 55 39 43 61 44 -173 0
42 55 39 43 61 44 -175 0
42 55 39 43 61 44 -174 0
42 39 14 43 10 44 -86 0
42 39 14 43 10 44 -87 0
42 39 14 43 10 44 -88 0
42 39 14 43 10 44 -85 0
42 39 14 43 44 13 -86 0
42 39 14 43 44 13 -87 0
42 39 14 43 44 13 -88 0
42 39 14 43 44 13 -85 0
42 39 6 43 1 44 -45 0
42 39 6 43 1 44 -41 0
42 39 6 43 1 44 -46 0
42 39 6 43 1 44 -40 0
42 39 18 43 20 44 -114 0
42 39 18 43 20 44 -112 0
42 39 18 43 20 44 -111 0
42 39 18 43 20 44 -113 0
42 39 27 43 24 44 -135 0
42 39 27 43 24 44 -134 0
42 39 27 43 24 44 -133 0
42 39 27 43 24 44 -136 0
42 39 37 43 35 44 -154 0
42 39 37 43 35 44 -151 0
42 39 37 43 35 44 -152 0
42 39 37 43 35 44 -153 0
42 39 69 43 64 44 -178 0
42 39 69 43 64 44 -177 0
42 39 69 43 64 44 -179 0
42 39 69 43 64 44 -180 0
42 39 47 43 48 44 -170 0
42 39 47 43 48 44 -169 0
42 39 47 43 48 44 -172 0
42 39 47 43 48 44 -171 0
42 39 56 43 61 44 -176 0
42 39 56 43 61 44 -173 0
42 39 56 43 61 44 -175 0
42 39 56 43 61 44 -174 0
42 39 43 10 44 13 -86 0
42 39 43 10 44 13 -87 0
42 39 43 10 44 13 -88 0
42 39 43 10 44 13 -85 0
9 2 14 6 10 13 -7 0
9 2 14 6 10 13 -11 0
9 2 14 6 10 13 -8 0
9 2 14 6 10 13 -12 0
9 2 14 10 1 13 -7 0
9 2 14 10 1 13 -11 0
9 2 14 10 1 13 -8 0
9 2 14 10 1 13 -12 0
9 15 14 18 10 13 -74 0
9 15 14 18 10 13 -75 0
9 15 14 18 10 13 -76 0
9 15 14 18 10 13 -73 0
9 15 14 10 20 13 -74 0
9 15 14 10 20 13 -75 0
9 15 14 10 20 13 -76 0
9 15 14 10 20 13 -73 0
9 28 14 27 10 13 -79 0
9 28 14 27 10 13 -77 0
9 28 14 27 10 13 -80 0
9 28 14 27 10 13 -78 0
9 28 14 10 24 13 -79 0
9 28 14 10 24 13 -77 0
9 28 14 10 24 13 -80 0
9 28 14 10 24 13 -78 0
9 38 14 37 10 13 -83 0
9 38 14 37 10 13 -82 0
9 38 14 37 10 13 -81 0
9 38 14 37 10 13 -84 0
9 38 14 10 35 13 -83 0
9 38 14 10 35 13 -82 0
9 38 14 10 35 13 -81 0
9 38 14 10 35 13 -84 0
9 70 14 69 10 13 -99 0
9 70 14 69 10 13 -97 0
9 70 14 69 10 13 -100 0
9 70 14 69 10 13 -98 0
9 70 14 10 64 13 -99 0
9 70 14 10 64 13 -97 0
9 70 14 10 64 13 -100 0
9 70 14 10 64 13 -98 0
9 54 14 47 10 13 -89 0
9 54 14 47 10 13 -91 0
9 54 14 47 10 13 -90 0
9 54 14 47 10 13 -92 0
9 54 14 10 48 13 -89 0
9 54 14 10 48 13 -91 0
9 54 14 10 48 13 -90 0
9 54 14 10 48 13 -92 0
9 55 14 56 10 13 -93 0
9 55 14 56 10 13 -95 0
9 55 14 56 10 13 -96 0
9 55 14 56 10 13 -94 0
9 55 14 10 61 13 -93 0
9 55 14 10 61 13 -95 0
9 55 14 10 61 13 -96 0
9 55 14 10 61 13 -94 0
9 39 14 43 10 13 -86 0
9 39 14 43 10 13 -87 0
9 39 14 43 10 13 -88 0
9 39 14 43 10 13 -85 0
9 39 14 10 44 13 -86 0
9 39 14 10 44 13 -87 0
9 39 14 10 44 13 -88 0
9 39 14 10 44 13 -85 0
9 14 6 10 1 13 -7 0
9 14 6 10 1 13 -11 0
9 14 6 10 1 13 -8 0
9 14 6 10 1 13 -12 0
9 14 18 10 20 13 -74 0
9 14 18 10 20 13 -75 0
9 14 18 10 20 13 -76 0
9 14 18 10 20 13 -73 0
9 14 27 10 24 13 -79 0
9 14 27 10 24 13 -77 0
9 14 27 10 24 13 -80 0
9 14 27 10 24 13 -78 0
9 14 37 10 35 13 -83 0
9 14 37 10 35 13 -82 0
9 14 37 10 35 13 -81 0
9 14 37 10 35 13 -84 0
9 14 69 10 64 13 -99 0
9 14 69 10 64 13 -97 0
9 14 69 10 64 13 -100 0
9 14 69 10 64 13 -98 0
9 14 47 10 48 13 -89 0
9 14 47 10 48 13 -91 0
9 14 47 10 48 13 -90 0
9 14 47 10 48 13 -92 0
9 14 56 10 61 13 -93 0
9 14 56 10 61 13 -95 0
9 14 56 10 61 13 -96 0
9 14 56 10 61 13 -94 0
9 14 43 10 44 13 -86 0
9 14 43 10 44 13 -87 0
9 14 43 10 44 13 -88 0
9 14 43 10 44 13 -85 0
2 15 6 18 1 20 -17 0
2 15 6 18 1 20 -21 0
2 15 6 18 1 20 -19 0
2 15 6 18 1 20 -16 0
2 28 6 27 1 24 -23 0
2 28 6 27 1 24 -29 0
2 28 6 27 1 24 -26 0
2 28 6 27 1 24 -30 0
2 38 6 37 1 35 -31 0
2 38 6 37 1 35 -33 0
2 38 6 37 1 35 -34 0
2 38 6 37 1 35 -32 0
2 70 6 69 1 64 -63 0
2 70 6 69 1 64 -66 0
2 70 6 69 1 64 -67 0
2 70 6 69 1 64 -65 0
2 54 6 47 1 48 -49 0
2 54 6 47 1 48 -51 0
2 54 6 47 1 48 -50 0
2 54 6 47 1 48 -53 0
2 55 6 56 1 61 -59 0
2 55 6 56 1 61 -57 0
2 55 6 56 1 61 -60 0
2 55 6 56 1 61 -58 0
2 39 6 43 1 44 -45 0
2 39 6 43 1 44 -41 0
2 39 6 43 1 44 -46 0
2 39 6 43 1 44 -40 0
2 14 6 10 1 13 -7 0
2 14 6 10 1 13 -11 0
2 14 6 10 1 13 -8 0
2 14 6 10 1 13 -12 0
15 28 18 27 20 24 -106 0
15 28 18 27 20 24 -103 0
15 28 18 27 20 24 -104 0
15 28 18 27 20 24 -105 0
15 38 18 37 20 35 -108 0
15 38 18 37 20 35 -110 0
15 38 18 37 20 35 -107 0
15 38 18 37 20 35 -109 0
15 70 18 69 20 64 -124 0
15 70 18 69 20 64 -123 0
15 70 18 69 20 64 -125 0
15 70 18 69 20 64 -126 0
15 54 18 47 20 48 -118 0
15 54 18 47 20 48 -116 0
15 54 18 47 20 48 -115 0
15 54 18 47 20 48 -117 0
15 55 18 56 20 61 -121 0
15 55 18 56 20 61 -120 0
15 55 18 56 20 61 -122 0
15 55 18 56 20 61 -119 0
15 39 18 43 20 44 -114 0
15 39 18 43 20 44 -112 0
15 39 18 43 20 44 -111 0
15 39 18 43 20 44 -113 0
15 14 18 10 20 13 -74 0
15 14 18 10 20 13 -75 0
15 14 18 10 20 13 -76 0
15 14 18 10 20 13 -73 0
28 38 27 37 24 35 -131 0
28 38 27 37 24 35 -132 0
28 38 27 37 24 35 -130 0
28 38 27 37 24 35 -129 0
28 70 27 69 24 64 -146 0
28 70 27 69 24 64 -148 0
28 70 27 69 24 64 -147 0
28 70 27 69 24 64 -145 0
28 54 27 47 24 48 -138 0
28 54 27 47 24 48 -140 0
28 54 27 47 24 48 -139 0
28 54 27 47 24 48 -137 0
28 55 27 56 24 61 -142 0
28 55 27 56 24 61 -141 0
28 55 27 56 24 61 -144 0
28 55 27 56 24 61 -143 0
28 39 27 43 24 44 -135 0
28 39 27 43 24 44 -134 0
28 39 27 43 24 44 -133 0
28 39 27 43 24 44 -136 0
28 14 27 10 24 13 -79 0
28 14 27 10 24 13 -77 0
28 14 27 10 24 13 -80 0
28 14 27 10 24 13 -78 0
38 70 37 69 35 64 -163 0
38 70 37 69 35 64 -164 0
38 70 37 69 35 64 -166 0
38 70 37 69 35 64 -165 0
38 54 37 47 35 48 -157 0
38 54 37 47 35 48 -156 0
38 54 37 47 35 48 -158 0
38 54 37 47 35 48 -155 0
38 55 37 56 35 61 -160 0
38 55 37 56 35 61 -159 0
38 55 37 56 35 61 -161 0
38 55 37 56 35 61 -162 0
38 39 37 43 35 44 -154 0
38 39 37 43 35 44 -151 0
38 39 37 43 35 44 -152 0
38 39 37 43 35 44 -153 0
38 14 37 10 35 13 -83 0
38 14 37 10 35 13 -82 0
38 14 37 10 35 13 -81 0
38 14 37 10 35 13 -84 0
70 54 69 47 64 48 -190 0
70 54 69 47 64 48 -187 0
70 54 69 47 64 48 -188 0
70 54 69 47 64 48 -189 0
70 55 69 56 64 61 -194 0
70 55 69 56 64 61 -193 0
70 55 69 56 64 61 -196 0
70 55 69 56 64 61 -195 0
70 39 69 43 64 44 -178 0
70 39 69 43 64 44 -177 0
70 39 69 43 64 44 -179 0
70 39 69 43 64 44 -180 0
70 14 69 10 64 13 -99 0
70 14 69 10 64 13 -97 0
70 14 69 10 64 13 -100 0
70 14 69 10 64 13 -98 0
54 55 47 56 48 61 -186 0
54 55 47 56 48 61 -183 0
54 55 47 56 48 61 -184 0
54 55 47 56 48 61 -185 0
54 39 47 43 48 44 -170 0
54 39 47 43 48 44 -169 0
54 39 47 43 48 44 -172 0
54 39 47 43 48 44 -171 0
54 14 47 10 48 13 -89 0
54 14 47 10 48 13 -91 0
54 14 47 10 48 13 -90 0
54 14 47 10 48 13 -92 0
55 39 56 43 61 44 -176 0
55 39 56 43 61 44 -173 0
55 39 56 43 61 44 -175 0
55 39 56 43 61 44 -174 0
55 14 56 10 61 13 -93 0
55 14 56 10 61 13 -95 0
55 14 56 10 61 13 -96 0
55 14 56 10 61 13 -94 0
39 14 43 10 44 13 -86 0
39 14 43 10 44 13 -87 0
39 14 43 10 44 13 -88 0
39 14 43 10 44 13 -85 0
5 22 2 15 6 18 1 -17 0
5 22 2 15 6 18 1 -21 0
5 22 2 15 6 18 1 -19 0
5 22 2 15 6 18 1 -16 0
5 22 2 15 6 18 20 -17 0
5 22 2 15 6 18 20 -21 0
5 22 2 15 6 18 20 -19 0
5 22 2 15 6 18 20 -16 0
5 22 2 15 6 1 20 -17 0
5 22 2 15 6 1 20 -21 0
5 22 2 15 6 1 20 -19 0
5 22 2 15 6 1 20 -16 0
5 22 2 15 18 1 20 -17 0
5 22 2 15 18 1 20 -21 0
5 22 2 15 18 1 20 -19 0
5 22 2 15 18 1 20 -16 0
5 22 2 6 18 1 20 -17 0
5 22 2 6 18 1 20 -21 0
5 22 2 6 18 1 20 -19 0
5 22 2 6 18 1 20 -16 0
5 22 15 6 18 1 20 -17 0
5 22 15 6 18 1 20 -21 0
5 22 15 6 18 1 20 -19 0
5 22 15 6 18 1 20 -16 0
5 25 2 28 6 27 1 -23 0
5 25 2 28 6 27 1 -29 0
5 25 2 28 6 27 1 -26 0
5 25 2 28 6 27 1 -30 0
5 25 2 28 6 27 24 -23 0
5 25 2 28 6 27 24 -29 0
5 25 2 28 6 27 24 -26 0
5 25 2 28 6 27 24 -30 0
5 25 2 28 6 1 24 -23 0
5 25 2 28 6 1 24 -29 0
5 25 2 28 6 1 24 -26 0
5 25 2 28 6 1 24 -30 0
5 25 2 28 27 1 24 -23 0
5 25 2 28 27 1 24 -29 0
5 25 2 28 27 1 24 -26 0
5 25 2 28 27 1 24 -30 0
5 25 2 6 27 1 24 -23 0
5 25 2 6 27 1 24 -29 0
5 25 2 6 27 1 24 -26 0
5 25 2 6 27 1 24 -30 0
5 25 28 6 27 1 24 -23 0
5 25 28 6 27 1 24 -29 0
5 25 28 6 27 1 24 -26 0
5 25 28 6 27 1 24 -30 0
5 36 2 38 6 37 1 -31 0
5 36 2 38 6 37 1 -33 0
5 36 2 38 6 37 1 -34 0
5 36 2 38 6 37 1 -32 0
5 36 2 38 6 37 35 -31 0
5 36 2 38 6 37 35 -33 0
5 36 2 38 6 37 35 -34 0
5 36 2 38 6 37 35 -32 0
5 36 2 38 6 1 35 -31 0
5 36 2 38 6 1 35 -33 0
5 36 2 38 6 1 35 -34 0
5 36 2 38 6 1 35 -32 0
5 36 2 38 37 1 35 -31 0
5 36 2 38 37 1 35 -33 0
5 36 2 38 37 1 35 -34 0
5 36 2 38 37 1 35 -32 0
5 36 2 6 37 1 35 -31 0
5 36 2 6 37 1 35 -33 0
5 36 2 6 37 1 35 -34 0
5 36 2 6 37 1 35 -32 0
5 36 38 6 37 1 35 -31 0
5 36 38 6 37 1 35 -33 0
5 36 38 6 37 1 35 -34 0
5 36 38 6 37 1 35 -32 0
5 68 2 70 6 69 1 -63 0
5 68 2 70 6 69 1 -66 0
5 68 2 70 6 69 1 -67 0
5 68 2 70 6 69 1 -65 0
5 68 2 70 6 69 64 -63 0
5 68 2 70 6 69 64 -66 0
5 68 2 70 6 69 64 -67 0
5 68 2 70 6 69 64 -65 0
5 68 2 70 6 1 64 -63 0
5 68 2 70 6 1 64 -66 0
5 68 2 70 6 1 64 -67 0
5 68 2 70 6 1 64 -65 0
5 68 2 70 69 1 64 -63 0
5 68 2 70 69 1 64 -66 0
5 68 2 70 69 1 64 -67 0
5 68 2 70 69 1 64 -65 0
5 68 2 6 69 1 64 -63 0
5 68 2 6 69 1 64 -66 0
5 68 2 6 69 1 64 -67 0
5 68 2 6 69 1 64 -65 0
5 68 70 6 69 1 64 -63 0
5 68 70 6 69 1 64 -66 0
5 68 70 6 69 1 64 -67 0
5 68 70 6 69 1 64 -65 0
5 52 2 54 6 47 1 -49 0
5 52 2 54 6 47 1 -51 0
5 52 2 54 6 47 1 -50 0
5 52 2 54 6 47 1 -53 0
5 52 2 54 6 47 48 -49 0
5 52 2 54 6 47 48 -51 0
5 52 2 54 6 47 48 -50 0
5 52 2 54 6 47 48 -53 0
5 52 2 54 6 1 48 -49 0
5 52 2 54 6 1 48 -51 0
5 52 2 54 6 1 48 -50 0
5 52 2 54 6 1 48 -53 0
5 52 2 54 47 1 48 -49 0
5 52 2 54 47 1 48 -51 0
5 52 2 54 47 1 48 -50 0
5 52 2 54 47 1 48 -53 0
5 52 2 6 47 1 48 -49 0
5 52 2 6 47 1 48 -51 0
5 52 2 6 47 1 48 -50 0
5 52 2 6 47 1 48 -53 0
5 52 54 6 47 1 48 -49 0
5 52 54 6 47 1 48 -51 0
5 52 54 6 47 1 48 -50 0
5 52 54 6 47 1 48 -53 0
5 62 2 55 6 56 1 -59 0
5 62 2 55 6 56 1 -57 0
5 62 2 55 6 56 1 -60 0
5 62 2 55 6 56 1 -58 0
5 62 2 55 6 56 61 -59 0
5 62 2 55 6 56 61 -57 0
5 62 2 55 6 56 61 -60 0
5 62 2 55 6 56 61 -58 0
5 62 2 55 6 1 61 -59 0
5 62 2 55 6 1 61 -57 0
5 62 2 55 6 1 61 -60 0
5 62 2 55 6 1 61 -58 0
5 62 2 55 56 1 61 -59 0
5 62 2 55 56 1 61 -57 0
5 62 2 55 56 1 61 -60 0
5 62 2 55 56 1 61 -58 0
5 62 2 6 56 1 61 -59 0
5 62 2 6 56 1 61 -57 0
5 62 2 6 56 1 61 -60 0
5 62 2 6 56 1 61 -58 0
5 62 55 6 56 1 61 -59 0
5 62 55 6 56 1 61 -57 0
5 62 55 6 56 1 61 -60 0
5 62 55 6 56 1 61 -58 0
5 42 2 39 6 43 1 -45 0
5 42 2 39 6 43 1 -41 0
5 42 2 39 6 43 1 -46 0
5 42 2 39 6 43 1 -40 0
5 42 2 39 6 43 44 -45 0
5 42 2 39 6 43 44 -41 0
5 42 2 39 6 43 44 -46 0
5 42 2 39 6 43 44 -40 0
5 42 2 39 6 1 44 -45 0
5 42 2 39 6 1 44 -41 0
5 42 2 39 6 1 44 -46 0
5 42 2 39 6 1 44 -40 0
5 42 2 39 43 1 44 -45 0
5 42 2 39 43 1 44 -41 0
5 42 2 39 43 1 44 -46 0
5 42 2 39 43 1 44 -40 0
5 42 2 6 43 1 44 -45 0
5 42 2 6 43 1 44 -41 0
5 42 2 6 43 1 44 -46 0
5 42 2 6 43 1 44 -40 0
5 42 39 6 43 1 44 -45 0
5 42 39 6 43 1 44 -41 0
5 42 39 6 43 1 44 -46 0
5 42 39 6 43 1 44 -40 0
5 9 2 14 6 10 1 -7 0
5 9 2 14 6 10 1 -11 0
5 9 2 14 6 10 1 -8 0
5 9 2 14 6 10 1 -12 0
5 9 2 14 6 10 13 -7 0
5 9 2 14 6 10 13 -11 0
5 9 2 14 6 10 13 -8 0
5 9 2 14 6 10 13 -12 0
5 9 2 14 6 1 13 -7 0
5 9 2 14 6 1 13 -11 0
5 9 2 14 6 1 13 -8 0
5 9 2 14 6 1 13 -12 0
5 9 2 14 10 1 13 -7 0
5 9 2 14 10 1 13 -11 0
5 9 2 14 10 1 13 -8 0
5 9 2 14 10 1 13 -12 0
5 9 2 6 10 1 13 -7 0
5 9 2 6 10 1 13 -11 0
5 9 2 6 10 1 13 -8 0
5 9 2 6 10 1 13 -12 0
5 9 14 6 10 1 13 -7 0
5 9 14 6 10 1 13 -11 0
5 9 14 6 10 1 13 -8 0
5 9 14 6 10 1 13 -12 0
5 2 15 6 18 1 20 -17 0
5 2 15 6 18 1 20 -21 0
5 2 15 6 18 1 20 -19 0
5 2 15 6 18 1 20 -16 0
5 2 28 6 27 1 24 -23 0
5 2 28 6 27 1 24 -29 0
5 2 28 6 27 1 24 -26 0
5 2 28 6 27 1 24 -30 0
5 2 38 6 37 1 35 -31 0
5 2 38 6 37 1 35 -33 0
5 2 38 6 37 1 35 -34 0
5 2 38 6 37 1 35 -32 0
5 2 70 6 69 1 64 -63 0
5 2 70 6 69 1 64 -66 0
5 2 70 6 69 1 64 -67 0
5 2 70 6 69 1 64 -65 0
5 2 54 6 47 1 48 -49 0
5 2 54 6 47 1 48 -51 0
5 2 54 6 47 1 48 -50 0
5 2 54 6 47 1 48 -53 0
5 2 55 6 56 1 61 -59 0
5 2 55 6 56 1 61 -57 0
5 2 55 6 56 1 61 -60 0
5 2 55 6 56 1 61 -58 0
5 2 39 6 43 1 44 -45 0
5 2 39 6 43 1 44 -41 0
5 2 39 6 43 1 44 -46 0
5 2 39 6 43 1 44 -40 0
5 2 14 6 10 1 13 -7 0
5 2 14 6 10 1 13 -11 0
5 2 14 6 10 1 13 -8 0
5 2 14 6 10 1 13 -12 0
22 25 15 28 18 27 20 -106 0
22 25 15 28 18 27 20 -103 0
22 25 15 28 18 27 20 -104 0
22 25 15 28 18 27 20 -105 0
22 25 15 28 18 27 24 -106 0
22 25 15 28 18 27 24 -103 0
22 25 15 28 18 27 24 -104 0
22 25 15 28 18 27 24 -105 0
22 25 15 28 18 20 24 -106 0
22 25 15 28 18 20 24 -103 0
22 25 15 28 18 20 24 -104 0
22 25 15 28 18 20 24 -105 0
22 25 15 28 27 20 24 -106 0
22 25 15 28 27 20 24 -103 0
22 25 15 28 27 20 24 -104 0
22 25 15 28 27 20 24 -105 0
22 25 15 18 27 20 24 -106 0
22 25 15 18 27 20 24 -103 0
22 25 15 18 27 20 24 -104 0
22 25 15 18 27 20 24 -105 0
22 25 28 18 27 20 24 -106 0
22 25 28 18 27 20 24 -103 0
22 25 28 18 27 20 24 -104 0
22 25 28 18 27 20 24 -105 0
22 36 15 38 18 37 20 -108 0
22 36 15 38 18 37 20 -110 0
22 36 15 38 18 37 20 -107 0
22 36 15 38 18 37 20 -109 0
22 36 15 38 18 37 35 -108 0
22 36 15 38 18 37 35 -110 0
22 36 15 38 18 37 35 -107 0
22 36 15 38 18 37 35 -109 0
22 36 15 38 18 20 35 -108 0
22 36 15 38 18 20 35 -110 0
22 36 15 38 18 20 35 -107 0
22 36 15 38 18 20 35 -109 0
22 36 15 38 37 20 35 -108 0
22 36 15 38 37 20 35 -110 0
22 36 15 38 37 20 35 -107 0
22 36 15 38 37 20 35 -109 0
22 36 15 18 37 20 35 -108 0
22 36 15 18 37 20 35 -110 0
22 36 15 18 37 20 35 -107 0
22 36 15 18 37 20 35 -109 0
22 36 38 18 37 20 35 -108 0
22 36 38 18 37 20 35 -110 0
22 36 38 18 37 20 35 -107 0
22 36 38 18 37 20 35 -109 0
22 68 15 70 18 69 20 -124 0
22 68 15 70 18 69 20 -123 0
22 68 15 70 18 69 20 -125 0
22 68 15 70 18 69 20 -126 0
22 68 15 70 18 69 64 -124 0
22 68 15 70 18 69 64 -123 0
22 68 15 70 18 69 64 -125 0
22 68 15 70 18 69 64 -126 0
22 68 15 70 18 20 64 -124 0
22 68 15 70 18 20 64 -123 0
22 68 15 70 18 20 64 -125 0
22 68 15 70 18 20 64 -126 0
22 68 15 70 69 20 64 -124 0
22 68 15 70 69 20 64 -123 0
22 68 15 70 69 20 64 -125 0
22 68 15 70 69 20 64 -126 0
22 68 15 18 69 20 64 -124 0
22 68 15 18 69 20 64 -123 0
22 68 15 18 69 20 64 -125 0
22 68 15 18 69 20 64 -126 0
22 68 70 18 69 20 64 -124 0
22 68 70 18 69 20 64 -123 0
22 68 70 18 69 20 64 -125 0
22 68 70 18 69 20 64 -126 0
22 52 15 54 18 47 20 -118 0
22 52 15 54 18 47 20 -116 0
22 52 15 54 18 47 20 -115 0
22 52 15 54 18 47 20 -117 0
22 52 15 54 18 47 48 -118 0
22 52 15 54 18 47 48 -116 0
22 52 15 54 18 47 48 -115 0
22 52 15 54 18 47 48 -117 0
22 52 15 54 18 20 48 -118 0
22 52 15 54 18 20 48 -116 0
22 52 15 54 18 20 48 -115 0
22 52 15 54 18 20 48 -117 0
22 52 15 54 47 20 48 -118 0
22 52 15 54 47 20 48 -116 0
22 52 15 54 47 20 48 -115 0
22 52 15 54 47 20 48 -117 0
22 52 15 18 47 20 48 -118 0
22 52 15 18 47 20 48 -116 0
22 52 15 18 47 20 48 -115 0
22 52 15 18 47 20 48 -117 0
22 52 54 18 47 20 48 -118 0
22 52 54 18 47 20 48 -116 0
22 52 54 18 47 20 48 -115 0
22 52 54 18 47 20 48 -117 0
22 62 15 55 18 56 20 -121 0
22 62 15 55 18 56 20 -120 0
22 62 15 55 18 56 20 -122 0
22 62 15 55 18 56 20 -119 0
22 62 15 55 18 56 61 -121 0
22 62 15 55 18 56 61 -120 0
22 62 15 55 18 56 61 -122 0
22 62 15 55 18 56 61 -119 0
22 62 15 55 18 20 61 -121 0
22 62 15 55 18 20 61 -120 0
22 62 15 55 18 20 61 -122 0
22 62 15 55 18 20 61 -119 0
22 62 15 55 56 20 61 -121 0
22 62 15 55 56 20 61 -120 0
22 62 15 55 56 20 61 -122 0
22 62 15 55 56 20 61 -119 0
22 62 15 18 56 20 61 -121 0
22 62 15 18 56 20 61 -120 0
22 62 15 18 56 20 61 -122 0
22 62 15 18 56 20 61 -119 0
22 62 55 18 56 20 61 -121 0
22 62 55 18 56 20 61 -120 0
22 62 55 18 56 20 61 -122 0
22 62 55 18 56 20 61 -119 0
22 42 15 39 18 43 20 -114 0
22 42 15 39 18 43 20 -112 0
22 42 15 39 18 43 20 -111 0
22 42 15 39 18 43 20 -113 0
22 42 15 39 18 43 44 -114 0
22 42 15 39 18 43 44 -112 0
22 42 15 39 18 43 44 -111 0
22 42 15 39 18 43 44 -113 0
22 42 15 39 18 20 44 -114 0
22 42 15 39 18 20 44 -112 0
22 42 15 39 18 20 44 -111 0
22 42 15 39 18 20 44 -113 0
22 42 15 39 43 20 44 -114 0
22 42 15 39 43 20 44 -112 0
22 42 15 39 43 20 44 -111 0
22 42 15 39 43 20 44 -113 0
22 42 15 18 43 20 44 -114 0
22 42 15 18 43 20 44 -112 0
22 42 15 18 43 20 44 -111 0
22 42 15 18 43 20 44 -113 0
22 42 39 18 43 20 44 -114 0
22 42 39 18 43 20 44 -112 0
22 42 39 18 43 20 44 -111 0
22 42 39 18 43 20 44 -113 0
22 9 15 14 18 10 20 -74 0
22 9 15 14 18 10 20 -75 0
22 9 15 14 18 10 20 -76 0
22 9 15 14 18 10 20 -73 0
22 9 15 14 18 10 13 -74 0
22 9 15 14 18 10 13 -75 0
22 9 15 14 18 10 13 -76 0
22 9 15 14 18 10 13 -73 0
22 9 15 14 18 20 13 -74 0
22 9 15 14 18 20 13 -75 0
22 9 15 14 18 20 13 -76 0
22 9 15 14 18 20 13 -73 0
22 9 15 14 10 20 13 -74 0
22 9 15 14 10 20 13 -75 0
22 9 15 14 10 20 13 -76 0
22 9 15 14 10 20 13 -73 0
22 9 15 18 10 20 13 -74 0
22 9 15 18 10 20 13 -75 0
22 9 15 18 10 20 13 -76 0
22 9 15 18 10 20 13 -73 0
22 9 14 18 10 20 13 -74 0
22 9 14 18 10 20 13 -75 0
22 9 14 18 10 20 13 -76 0
22 9 14 18 10 20 13 -73 0
22 2 15 6 18 1 20 -17 0
22 2 15 6 18 1 20 -21 0
22 2 15 6 18 1 20 -19 0
22 2 15 6 18 1 20 -16 0
22 15 28 18 27 20 24 -106 0
22 15 28 18 27 20 24 -103 0
22 15 28 18 27 20 24 -104 0
22 15 28 18 27 20 24 -105 0
22 15 38 18 37 20 35 -108 0
22 15 38 18 37 20 35 -110 0
22 15 38 18 37 20 35 -107 0
22 15 38 18 37 20 35 -109 0
22 15 70 18 69 20 64 -124 0
22 15 70 18 69 20 64 -123 0
22 15 70 18 69 20 64 -125 0
22 15 70 18 69 20 64 -126 0
22 15 54 18 47 20 48 -118 0
22 15 54 18 47 20 48 -116 0
22 15 54 18 47 20 48 -115 0
22 15 54 18 47 20 48 -117 0
22 15 55 18 56 20 61 -121 0
22 15 55 18 56 20 61 -120 0
22 15 55 18 56 20 61 -122 0
22 15 55 18 56 20 61 -119 0
22 15 39 18 43 20 44 -114 0
22 15 39 18 43 20 44 -112 0
22 15 39 18 43 20 44 -111 0
22 15 39 18 43 20 44 -113 0
22 15 14 18 10 20 13 -74 0
22 15 14 18 10 20 13 -75 0
22 15 14 18 10 20 13 -76 0
22 15 14 18 10 20 13 -73 0
25 36 28 38 27 37 24 -131 0
25 36 28 38 27 37 24 -132 0
25 36 28 38 27 37 24 -130 0
25 36 28 38 27 37 24 -129 0
25 36 28 38 27 37 35 -131 0
25 36 28 38 27 37 35 -132 0
25 36 28 38 27 37 35 -130 0
25 36 28 38 27 37 35 -129 0
25 36 28 38 27 24 35 -131 0
25 36 28 38 27 24 35 -132 0
25 36 28 38 27 24 35 -130 0
25 36 28 38 27 24 35 -129 0
25 36 28 38 37 24 35 -131 0
25 36 28 38 37 24 35 -132 0
25 36 28 38 37 24 35 -130 0
25 36 28 38 37 24 35 -129 0
25 36 28 27 37 24 35 -131 0
25 36 28 27 37 24 35 -132 0
25 36 28 27 37 24 35 -130 0
25 36 28 27 37 24 35 -129 0
25 36 38 27 37 24 35 -131 0
25 36 38 27 37 24 35 -132 0
25 36 38 27 37 24 35 -130 0
25 36 38 27 37 24 35 -129 0
25 68 28 70 27 69 24 -146 0
25 68 28 70 27 69 24 -148 0
25 68 28 70 27 69 24 -147 0
25 68 28 70 27 69 24 -145 0
25 68 28 70 27 69 64 -146 0
25 68 28 70 27 69 64 -148 0
25 68 28 70 27 69 64 -147 0
25 68 28 70 27 69 64 -145 0
25 68 28 70 27 24 64 -146 0
25 68 28 70 27 24 64 -148 0
25 68 28 70 27 24 64 -147 0
25 68 28 70 27 24 64 -145 0
25 68 28 70 69 24 64 -146 0
25 68 28 70 69 24 64 -148 0
25 68 28 70 69 24 64 -147 0
25 68 28 70 69 24 64 -145 0
25 68 28 27 69 24 64 -146 0
25 68 28 27 69 24 64 -148 0
25 68 28 27 69 24 64 -147 0
25 68 28 27 69 24 64 -145 0
25 68 70 27 69 24 64 -146 0
25 68 70 27 69 24 64 -148 0
25 68 70 27 69 24 64 -147 0
25 68 70 27 69 24 64 -145 0
25 52 28 54 27 47 24 -138 0
25 52 28 54 27 47 24 -140 0
25 52 28 54 27 47 24 -139 0
25 52 28 54 27 47 24 -137 0
25 52 28 54 27 47 48 -138 0
25 52 28 54 27 47 48 -140 0
25 52 28 54 27 47 48 -139 0
25 52 28 54 27 47 48 -137 0
25 52 28 54 27 24 48 -138 0
25 52 28 54 27 24 48 -140 0
25 52 28 54 27 24 48 -139 0
25 52 28 54 27 24 48 -137 0
25 52 28 54 47 24 48 -138 0
25 52 28 54 47 24 48 -140 0
25 52 28 54 47 24 48 -139 0
25 52 28 54 47 24 48 -137 0
25 52 28 27 47 24 48 -138 0
25 52 28 27 47 24 48 -140 0
25 52 28 27 47 24 48 -139 0
25 52 28 27 47 24 48 -137 0
25 52 54 27 47 24 48 -138 0
25 52 54 27 47 24 48 -140 0
25 52 54 27 47 24 48 -139 0
25 52 54 27 47 24 48 -137 0
25 62 28 55 27 56 24 -142 0
25 62 28 55 27 56 24 -141 0
25 62 28 55 27 56 24 -144 0
25 62 28 55 27 56 24 -143 0
25 62 28 55 27 56 61 -142 0
25 62 28 55 27 56 61 -141 0
25 62 28 55 27 56 61 -144 0
25 62 28 55 27 56 61 -143 0
25 62 28 55 27 24 61 -142 0
25 62 28 55 27 24 61 -141 0
25 62 28 55 27 24 61 -144 0
25 62 28 55 27 24 61 -143 0
25 62 28 55 56 24 61 -142 0
25 62 28 55 56 24 61 -141 0
25 62 28 55 56 24 61 -144 0
25 62 28 55 56 24 61 -143 0
25 62 28 27 56 24 61 -142 0
25 62 28 27 56 24 61 -141 0
25 62 28 27 56 24 61 -144 0
25 62 28 27 56 24 61 -143 0
25 62 55 27 56 24 61 -142 0
25 62 55 27 56 24 61 -141 0
25 62 55 27 56 24 61 -144 0
25 62 55 27 56 24 61 -143 0
25 42 28 39 27 43 24 -135 0
25 42 28 39 27 43 24 -134 0
25 42 28 39 27 43 24 -133 0
25 42 28 39 27 43 24 -136 0
25 42 28 39 27 43 44 -135 0
25 42 28 39 27 43 44 -134 0
25 42 28 39 27 43 44 -133 0
25 42 28 39 27 43 44 -136 0
25 42 28 39 27 24 44 -135 0
25 42 28 39 27 24 44 -134 0
25 42 28 39 27 24 44 -133 0
25 42 28 39 27 24 44 -136 0
25 42 28 39 43 24 44 -135 0
25 42 28 39 43 24 44 -134 0
25 42 28 39 43 24 44 -133 0
25 42 28 39 43 24 44 -136 0
25 42 28 27 43 24 44 -135 0
25 42 28 27 43 24 44 -134 0
25 42 28 27 43 24 44 -133 0
25 42 28 27 43 24 44 -136 0
25 42 39 27 43 24 44 -135 0
25 42 39 27 43 24 44 -134 0
25 42 39 27 43 24 44 -133 0
25 42 39 27 43 24 44 -136 0
25 9 28 14 27 10 24 -79 0
25 9 28 14 27 10 24 -77 0
25 9 28 14 27 10 24 -80 0
25 9 28 14 27 10 24 -78 0
25 9 28 14 27 10 13 -79 0
25 9 28 14 27 10 13 -77 0
25 9 28 14 27 10 13 -80 0
25 9 28 14 27 10 13 -78 0
25 9 28 14 27 24 13 -79 0
25 9 28 14 27 24 13 -77 0
25 9 28 14 27 24 13 -80 0
25 9 28 14 27 24 13 -78 0
25 9 28 14 10 24 13 -79 0
25 9 28 14 10 24 13 -77 0
25 9 28 14 10 24 13 -80 0
25 9 28 14 10 24 13 -78 0
25 9 28 27 10 24 13 -79 0
25 9 28 27 10 24 13 -77 0
25 9 28 27 10 24 13 -80 0
25 9 28 27 10 24 13 -78 0
25 9 14 27 10 24 13 -79 0
25 9 14 27 10 24 13 -77 0
25 9 14 27 10 24 13 -80 0
25 9 14 27 10 24 13 -78 0
25 2 28 6 27 1 24 -23 0
25 2 28 6 27 1 24 -29 0
25 2 28 6 27 1 24 -26 0
25 2 28 6 27 1 24 -30 0
25 15 28 18 27 20 24 -106 0
25 15 28 18 27 20 24 -103 0
25 15 28 18 27 20 24 -104 0
25 15 28 18 27 20 24 -105 0
25 28 38 27 37 24 35 -131 0
25 28 38 27 37 24 35 -132 0
25 28 38 27 37 24 35 -130 0
25 28 38 27 37 24 35 -129 0
25 28 70 27 69 24 64 -146 0
25 28 70 27 69 24 64 -148 0
25 28 70 27 69 24 64 -147 0
25 28 70 27 69 24 64 -145 0
25 28 54 27 47 24 48 -138 0
25 28 54 27 47 24 48 -140 0
25 28 54 27 47 24 48 -139 0
25 28 54 27 47 24 48 -137 0
25 28 55 27 56 24 61 -142 0
25 28 55 27 56 24 61 -141 0
25 28 55 27 56 24 61 -144 0
25 28 55 27 56 24 61 -143 0
25 28 39 27 43 24 44 -135 0
25 28 39 27 43 24 44 -134 0
25 28 39 27 43 24 44 -133 0
25 28 39 27 43 24 44 -136 0
25 28 14 27 10 24 13 -79 0
25 28 14 27 10 24 13 -77 0
25 28 14 27 10 24 13 -80 0
25 28 14 27 10 24 13 -78 0
36 68 38 70 37 69 35 -163 0
36 68 38 70 37 69 35 -164 0
36 68 38 70 37 69 35 -166 0
36 68 38 70 37 69 35 -165 0
36 68 38 70 37 69 64 -163 0
36 68 38 70 37 69 64 -164 0
36 68 38 70 37 69 64 -166 0
36 68 38 70 37 69 64 -165 0
36 68 38 70 37 35 64 -163 0
36 68 38 70 37 35 64 -164 0
36 68 38 70 37 35 64 -166 0
36 68 38 70 37 35 64 -165 0
36 68 38 70 69 35 64 -163 0
36 68 38 70 69 35 64 -164 0
36 68 38 70 69 35 64 -166 0
36 68 38 70 69 35 64 -165 0
36 68 38 37 69 35 64 -163 0
36 68 38 37 69 35 64 -164 0
36 68 38 37 69 35 64 -166 0
36 68 38 37 69 35 64 -165 0
36 68 70 37 69 35 64 -163 0
36 68 70 37 69 35 64 -164 0
36 68 70 37 69 35 64 -166 0
36 68 70 37 69 35 64 -165 0
36 52 38 54 37 47 35 -157 0
36 52 38 54 37 47 35 -156 0
36 52 38 54 37 47 35 -158 0
36 52 38 54 37 47 35 -155 0
36 52 38 54 37 47 48 -157 0
36 52 38 54 37 47 48 -156 0
36 52 38 54 37 47 48 -158 0
36 52 38 54 37 47 48 -155 0
36 52 38 54 37 35 48 -157 0
36 52 38 54 37 35 48 -156 0
36 52 38 54 37 35 48 -158 0
36 52 38 54 37 35 48 -155 0
36 52 38 54 47 35 48 -157 0
36 52 38 54 47 35 48 -156 0
36 52 38 54 47 35 48 -158 0
36 52 38 54 47 35 48 -155 0
36 52 38 37 47 35 48 -157 0
36 52 38 37 47 35 48 -156 0
36 52 38 37 47 35 48 -158 0
36 52 38 37 47 35 48 -155 0
36 52 54 37 47 35 48 -157 0
36 52 54 37 47 35 48 -156 0
36 52 54 37 47 35 48 -158 0
36 52 54 37 47 35 48 -155 0
36 62 38 55 37 56 35 -160 0
36 62 38 55 37 56 35 -159 0
36 62 38 55 37 56 35 -161 0
36 62 38 55 37 56 35 -162 0
36 62 38 55 37 56 61 -160 0
36 62 38 55 37 56 61 -159 0
36 62 38 55 37 56 61 -161 0
36 62 38 55 37 56 61 -162 0
36 62 38 55 37 35 61 -160 0
36 62 38 55 37 35 61 -159 0
36 62 38 55 37 35 61 -161 0
36 62 38 55 37 35 61 -162 0
36 62 38 55 56 35 61 -160 0
36 62 38 55 56 35 61 -159 0
36 62 38 55 56 35 61 -161 0
36 62 38 55 56 35 61 -162 0
36 62 38 37 56 35 61 -160 0
36 62 38 37 56 35 61 -159 0
36 62 38 37 56 35 61 -161 0
36 62 38 37 56 35 61 -162 0
36 62 55 37 56 35 61 -160 0
36 62 55 37 56 35 61 -159 0
36 62 55 37 56 35 61 -161 0
36 62 55 37 56 35 61 -162 0
36 42 38 39 37 43 35 -154 0
36 42 38 39 37 43 35 -151 0
36 42 38 39 37 43 35 -152 0
36 42 38 39 37 43 35 -153 0
36 42 38 39 37 43 44 -154 0
36 42 38 39 37 43 44 -151 0
36 42 38 39 37 43 44 -152 0
36 42 38 39 37 43 44 -153 0
36 42 38 39 37 35 44 -154 0
36 42 38 39 37 35 44 -151 0
36 42 38 39 37 35 44 -152 0
36 42 38 39 37 35 44 -153 0
36 42 38 39 43 35 44 -154 0
36 42 38 39 43 35 44 -151 0
36 42 38 39 43 35 44 -152 0
36 42 38 39 43 35 44 -153 0
36 42 38 37 43 35 44 -154 0
36 42 38 37 43 35 44 -151 0
36 42 38 37 43 35 44 -152 0
36 42 38 37 43 35 44 -153 0
36 42 39 37 43 35 44 -154 0
36 42 39 37 43 35 44 -151 0
36 42 39 37 43 35 44 -152 0
36 42 39 37 43 35 44 -153 0
36 9 38 14 37 10 35 -83 0
36 9 38 14 37 10 35 -82 0
36 9 38 14 37 10 35 -81 0
36 9 38 14 37 10 35 -84 0
36 9 38 14 37 10 13 -83 0
36 9 38 14 37 10 13 -82 0
36 9 38 14 37 10 13 -81 0
36 9 38 14 37 10 13 -84 0
36 9 38 14 37 35 13 -83 0
36 9 38 14 37 35 13 -82 0
36 9 38 14 37 35 13 -81 0
36 9 38 14 37 35 13 -84 0
36 9 38 14 10 35 13 -83 0
36 9 38 14 10 35 13 -82 0
36 9 38 14 10 35 13 -81 0
36 9 38 14 10 35 13 -84 0
36 9 38 37 10 35 13 -83 0
36 9 38 37 10 35 13 -82 0
36 9 38 37 10 35 13 -81 0
36 9 38 37 10 35 13 -84 0
36 9 14 37 10 35 13 -83 0
36 9 14 37 10 35 13 -82 0
36 9 14 37 10 35 13 -81 0
36 9 14 37 10 35 13 -84 0
36 2 38 6 37 1 35 -31 0
36 2 38 6 37 1 35 -33 0
36 2 38 6 37 1 35 -34 0
36 2 38 6 37 1 35 -32 0
36 15 38 18 37 20 35 -108 0
36 15 38 18 37 20 35 -110 0
36 15 38 18 37 20 35 -107 0
36 15 38 18 37 20 35 -109 0
36 28 38 27 37 24 35 -131 0
36 28 38 27 37 24 35 -132 0
36 28 38 27 37 24 35 -130 0
36 28 38 27 37 24 35 -129 0
36 38 70 37 69 35 64 -163 0
36 38 70 37 69 35 64 -164 0
36 38 70 37 69 35 64 -166 0
36 38 70 37 69 35 64 -165 0
36 38 54 37 47 35 48 -157 0
36 38 54 37 47 35 48 -156 0
36 38 54 37 47 35 48 -158 0
36 38 54 37 47 35 48 -155 0
36 38 55 37 56 35 61 -160 0
36 38 55 37 56 35 61 -159 0
36 38 55 37 56 35 61 -161 0
36 38 55 37 56 35 61 -162 0
36 38 39 37 43 35 44 -154 0
36 38 39 37 43 35 44 -151 0
36 38 39 37 43 35 44 -152 0
36 38 39 37 43 35 44 -153 0
36 38 14 37 10 35 13 -83 0
36 38 14 37 10 35 13 -82 0
36 38 14 37 10 35 13 -81 0
36 38 14 37 10 35 13 -84 0
68 52 70 54 69 47 64 -190 0
68 52 70 54 69 47 64 -187 0
68 52 70 54 69 47 64 -188 0
68 52 70 54 69 47 64 -189 0
68 52 70 54 69 47 48 -190 0
68 52 70 54 69 47 48 -187 0
68 52 70 54 69 47 48 -188 0
68 52 70 54 69 47 48 -189 0
68 52 70 54 69 64 48 -190 0
68 52 70 54 69 64 48 -187 0
68 52 70 54 69 64 48 -188 0
68 52 70 54 69 64 48 -189 0
68 52 70 54 47 64 48 -190 0
68 52 70 54 47 64 48 -187 0
68 52 70 54 47 64 48 -188 0
68 52 70 54 47 64 48 -189 0
68 52 70 69 47 64 48 -190 0
68 52 70 69 47 64 48 -187 0
68 52 70 69 47 64 48 -188 0
68 52 70 69 47 64 48 -189 0
68 52 54 69 47 64 48 -190 0
68 52 54 69 47 64 48 -187 0
68 52 54 69 47 64 48 -188 0
68 52 54 69 47 64 48 -189 0
68 62 70 55 69 56 64 -194 0
68 62 70 55 69 56 64 -193 0
68 62 70 55 69 56 64 -196 0
68 62 70 55 69 56 64 -195 0
68 62 70 55 69 56 61 -194 0
68 62 70 55 69 56 61 -193 0
68 62 70 55 69 56 61 -196 0
68 62 70 55 69 56 61 -195 0
68 62 70 55 69 64 61 -194 0
68 62 70 55 69 64 61 -193 0
68 62 70 55 69 64 61 -196 0
68 62 70 55 69 64 61 -195 0
68 62 70 55 56 64 61 -194 0
68 62 70 55 56 64 61 -193 0
68 62 70 55 56 64 61 -196 0
68 62 70 55 56 64 61 -195 0
68 62 70 69 56 64 61 -194 0
68 62 70 69 56 64 61 -193 0
68 62 70 69 56 64 61 -196 0
68 62 70 69 56 64 61 -195 0
68 62 55 69 56 64 61 -194 0
68 62 55 69 56 64 61 -193 0
68 62 55 69 56 64 61 -196 0
68 62 55 69 56 64 61 -195 0
68 42 70 39 69 43 64 -178 0
68 42 70 39 69 43 64 -177 0
68 42 70 39 69 43 64 -179 0
68 42 70 39 69 43 64 -180 0
68 42 70 39 69 43 44 -178 0
68 42 70 39 69 43 44 -177 0
68 42 70 39 69 43 44 -179 0
68 42 70 39 69 43 44 -180 0
68 42 70 39 69 64 44 -178 0
68 42 70 39 69 64 44 -177 0
68 42 70 39 69 64 44 -179 0
68 42 70 39 69 64 44 -180 0
68 42 70 39 43 64 44 -178 0
68 42 70 39 43 64 44 -177 0
68 42 70 39 43 64 44 -179 0
68 42 70 39 43 64 44 -180 0
68 42 70 69 43 64 44 -178 0
68 42 70 69 43 64 44 -177 0
68 42 70 69 43 64 44 -179 0
68 42 70 69 43 64 44 -180 0
68 42 39 69 43 64 44 -178 0
68 42 39 69 43 64 44 -177 0
68 42 39 69 43 64 44 -179 0
68 42 39 69 43 64 44 -180 0
68 9 70 14 69 10 64 -99 0
68 9 70 14 69 10 64 -97 0
68 9 70 14 69 10 64 -100 0
68 9 70 14 69 10 64 -98 0
68 9 70 14 69 10 13 -99 0
68 9 70 14 69 10 13 -97 0
68 9 70 14 69 10 13 -100 0
68 9 70 14 69 10 13 -98 0
68 9 70 14 69 64 13 -99 0
68 9 70 14 69 64 13 -97 0
68 9 70 14 69 64 13 -100 0
68 9 70 14 69 64 13 -98 0
68 9 70 14 10 64 13 -99 0
68 9 70 14 10 64 13 -97 0
68 9 70 14 10 64 13 -100 0
68 9 70 14 10 64 13 -98 0
68 9 70 69 10 64 13 -99 0
68 9 70 69 10 64 13 -97 0
68 9 70 69 10 64 13 -100 0
68 9 70 69 10 64 13 -98 0
68 9 14 69 10 64 13 -99 0
68 9 14 69 10 64 13 -97 0
68 9 14 69 10 64 13 -100 0
68 9 14 69 10 64 13 -98 0
68 2 70 6 69 1 64 -63 0
68 2 70 6 69 1 64 -66 0
68 2 70 6 69 1 64 -67 0
68 2 70 6 69 1 64 -65 0
68 15 70 18 69 20 64 -124 0
68 15 70 18 69 20 64 -123 0
68 15 70 18 69 20 64 -125 0
68 15 70 18 69 20 64 -126 0
68 28 70 27 69 24 64 -146 0
68 28 70 27 69 24 64 -148 0
68 28 70 27 69 24 64 -147 0
68 28 70 27 69 24 64 -145 0
68 38 70 37 69 35 64 -163 0
68 38 70 37 69 35 64 -164 0
68 38 70 37 69 35 64 -166 0
68 38 70 37 69 35 64 -165 0
68 70 54 69 47 64 48 -190 0
68 70 54 69 47 64 48 -187 0
68 70 54 69 47 64 48 -188 0
68 70 54 69 47 64 48 -189 0
68 70 55 69 56 64 61 -194 0
68 70 55 69 56 64 61 -193 0
68 70 55 69 56 64 61 -196 0
68 70 55 69 56 64 61 -195 0
68 70 39 69 43 64 44 -178 0
68 70 39 69 43 64 44 -177 0
68 70 39 69 43 64 44 -179 0
68 70 39 69 43 64 44 -180 0
68 70 14 69 10 64 13 -99 0
68 70 14 69 10 64 13 -97 0
68 70 14 69 10 64 13 -100 0
68 70 14 69 10 64 13 -98 0
52 62 54 55 47 56 48 -186 0
52 62 54 55 47 56 48 -183 0
52 62 54 55 47 56 48 -184 0
52 62 54 55 47 56 48 -185 0
52 62 54 55 47 56 61 -186 0
52 62 54 55 47 56 61 -183 0
52 62 54 55 47 56 61 -184 0
52 62 54 55 47 56 61 -185 0
52 62 54 55 47 48 61 -186 0
52 62 54 55 47 48 61 -183 0
52 62 54 55 47 48 61 -184 0
52 62 54 55 47 48 61 -185 0
52 62 54 55 56 48 61 -186 0
52 62 54 55 56 48 61 -183 0
52 62 54 55 56 48 61 -184 0
52 62 54 55 56 48 61 -185 0
52 62 54 47 56 48 61 -186 0
52 62 54 47 56 48 61 -183 0
52 62 54 47 56 48 61 -184 0
52 62 54 47 56 48 61 -185 0
52 62 55 47 56 48 61 -186 0
52 62 55 47 56 48 61 -183 0
52 62 55 47 56 48 61 -184 0
52 62 55 47 56 48 61 -185 0
52 42 54 39 47 43 48 -170 0
52 42 54 39 47 43 48 -169 0
52 42 54 39 47 43 48 -172 0
52 42 54 39 47 43 48 -171 0
52 42 54 39 47 43 44 -170 0
52 42 54 39 47 43 44 -169 0
52 42 54 39 47 43 44 -172 0
52 42 54 39 47 43 44 -171 0
52 42 54 39 47 48 44 -170 0
52 42 54 39 47 48 44 -169 0
52 42 54 39 47 48 44 -172 0
52 42 54 39 47 48 44 -171 0
52 42 54 39 43 48 44 -170 0
52 42 54 39 43 48 44 -169 0
52 42 54 39 43 48 44 -172 0
52 42 54 39 43 48 44 -171 0
52 42 54 47 43 48 44 -170 0
52 42 54 47 43 48 44 -169 0
52 42 54 47 43 48 44 -172 0
52 42 54 47 43 48 44 -171 0
52 42 39 47 43 48 44 -170 0
52 42 39 47 43 48 44 -169 0
52 42 39 47 43 48 44 -172 0
52 42 39 47 43 48 44 -171 0
52 9 54 14 47 10 48 -89 0
52 9 54 14 47 10 48 -91 0
52 9 54 14 47 10 48 -90 0
52 9 54 14 47 10 48 -92 0
52 9 54 14 47 10 13 -89 0
52 9 54 14 47 10 13 -91 0
52 9 54 14 47 10 13 -90 0
52 9 54 14 47 10 13 -92 0
52 9 54 14 47 48 13 -89 0
52 9 54 14 47 48 13 -91 0
52 9 54 14 47 48 13 -90 0
52 9 54 14 47 48 13 -92 0
52 9 54 14 10 48 13 -89 0
52 9 54 14 10 48 13 -91 0
52 9 54 14 10 48 13 -90 0
52 9 54 14 10 48 13 -92 0
52 9 54 47 10 48 13 -89 0
52 9 54 47 10 48 13 -91 0
52 9 54 47 10 48 13 -90 0
52 9 54 47 10 48 13 -92 0
52 9 14 47 10 48 13 -89 0
52 9 14 47 10 48 13 -91 0
52 9 14 47 10 48 13 -90 0
52 9 14 47 10 48 13 -92 0
52 2 54 6 47 1 48 -49 0
52 2 54 6 47 1 48 -51 0
52 2 54 6 47 1 48 -50 0
52 2 54 6 47 1 48 -53 0
52 15 54 18 47 20 48 -118 0
52 15 54 18 47 20 48 -116 0
52 15 54 18 47 20 48 -115 0
52 15 54 18 47 20 48 -117 0
52 28 54 27 47 24 48 -138 0
52 28 54 27 47 24 48 -140 0
52 28 54 27 47 24 48 -139 0
52 28 54 27 47 24 48 -137 0
52 38 54 37 47 35 48 -157 0
52 38 54 37 47 35 48 -156 0
52 38 54 37 47 35 48 -158 0
52 38 54 37 47 35 48 -155 0
52 70 54 69 47 64 48 -190 0
52 70 54 69 47 64 48 -187 0
52 70 54 69 47 64 48 -188 0
52 70 54 69 47 64 48 -189 0
52 54 55 47 56 48 61 -186 0
52 54 55 47 56 48 61 -183 0
52 54 55 47 56 48 61 -184 0
52 54 55 47 56 48 61 -185 0
52 54 39 47 43 48 44 -170 0
52 54 39 47 43 48 44 -169 0
52 54 39 47 43 48 44 -172 0
52 54 39 47 43 48 44 -171 0
52 54 14 47 10 48 13 -89 0
52 54 14 47 10 48 13 -91 0
52 54 14 47 10 48 13 -90 0
52 54 14 47 10 48 13 -92 0
62 42 55 39 56 43 61 -176 0
62 42 55 39 56 43 61 -173 0
62 42 55 39 56 43 61 -175 0
62 42 55 39 56 43 61 -174 0
62 42 55 39 56 43 44 -176 0
62 42 55 39 56 43 44 -173 0
62 42 55 39 56 43 44 -175 0
62 42 55 39 56 43 44 -174 0
62 42 55 39 56 61 44 -176 0
62 42 55 39 56 61 44 -173 0
62 42 55 39 56 61 44 -175 0
62 42 55 39 56 61 44 -174 0
62 42 55 39 43 61 44 -176 0
62 42 55 39 43 61 44 -173 0
62 42 55 39 43 61 44 -175 0
62 42 55 39 43 61 44 -174 0
62 42 55 56 43 61 44 -176 0
62 42 55 56 43 61 44 -173 0
62 42 55 56 43 61 44 -175 0
62 42 55 56 43 61 44 -174 0
62 42 39 56 43 61 44 -176 0
62 42 39 56 43 61 44 -173 0
62 42 39 56 43 61 44 -175 0
62 42 39 56 43 61 44 -174 0
62 9 55 14 56 10 61 -93 0
62 9 55 14 56 10 61 -95 0
62 9 55 14 56 10 61 -96 0
62 9 55 14 56 10 61 -94 0
62 9 55 14 56 10 13 -93 0
62 9 55 14 56 10 13 -95 0
62 9 55 14 56 10 13 -96 0
62 9 55 14 56 10 13 -94 0
62 9 55 14 56 61 13 -93 0
62 9 55 14 56 61 13 -95 0
62 9 55 14 56 61 13 -96 0
62 9 55 14 56 61 13 -94 0
62 9 55 14 10 61 13 -93 0
62 9 55 14 10 61 13 -95 0
62 9 55 14 10 61 13 -96 0
62 9 55 14 10 61 13 -94 0
62 9 55 56 10 61 13 -93 0
62 9 55 56 10 61 13 -95 0
62 9 55 56 10 61 13 -96 0
62 9 55 56 10 61 13 -94 0
62 9 14 56 10 61 13 -93 0
62 9 14 56 10 61 13 -95 0
62 9 14 56 10 61 13 -96 0
62 9 14 56 10 61 13 -94 0
62 2 55 6 56 1 61 -59 0
62 2 55 6 56 1 61 -57 0
62 2 55 6 56 1 61 -60 0
62 2 55 6 56 1 61 -58 0
62 15 55 18 56 20 61 -121 0
62 15 55 18 56 20 61 -120 0
62 15 55 18 56 20 61 -122 0
62 15 55 18 56 20 61 -119 0
62 28 55 27 56 24 61 -142 0
62 28 55 27 56 24 61 -141 0
62 28 55 27 56 24 61 -144 0
62 28 55 27 56 24 61 -143 0
62 38 55 37 56 35 61 -160 0
62 38 55 37 56 35 61 -159 0
62 38 55 37 56 35 61 -161 0
62 38 55 37 56 35 61 -162 0
62 70 55 69 56 64 61 -194 0
62 70 55 69 56 64 61 -193 0
62 70 55 69 56 64 61 -196 0
62 70 55 69 56 64 61 -195 0
62 54 55 47 56 48 61 -186 0
62 54 55 47 56 48 61 -183 0
62 54 55 47 56 48 61 -184 0
62 54 55 47 56 48 61 -185 0
62 55 39 56 43 61 44 -176 0
62 55 39 56 43 61 44 -173 0
62 55 39 56 43 61 44 -175 0
62 55 39 56 43 61 44 -174 0
62 55 14 56 10 61 13 -93 0
62 55 14 56 10 61 13 -95 0
62 55 14 56 10 61 13 -96 0
62 55 14 56 10 61 13 -94 0
42 9 39 14 43 10 44 -86 0
42 9 39 14 43 10 44 -87 0
42 9 39 14 43 10 44 -88 0
42 9 39 14 43 10 44 -85 0
42 9 39 14 43 10 13 -86 0
42 9 39 14 43 10 13 -87 0
42 9 39 14 43 10 13 -88 0
42 9 39 14 43 10 13 -85 0
42 9 39 14 43 44 13 -86 0
42 9 39 14 43 44 13 -87 0
42 9 39 14 43 44 13 -88 0
42 9 39 14 43 44 13 -85 0
42 9 39 14 10 44 13 -86 0
42 9 39 14 10 44 13 -87 0
42 9 39 14 10 44 13 -88 0
42 9 39 14 10 44 13 -85 0
42 9 39 43 10 44 13 -86 0
42 9 39 43 10 44 13 -87 0
42 9 39 43 10 44 13 -88 0
42 9 39 43 10 44 13 -85 0
42 9 14 43 10 44 13 -86 0
42 9 14 43 10 44 13 -87 0
42 9 14 43 10 44 13 -88 0
42 9 14 43 10 44 13 -85 0
42 2 39 6 43 1 44 -45 0
42 2 39 6 43 1 44 -41 0
42 2 39 6 43 1 44 -46 0
42 2 39 6 43 1 44 -40 0
42 15 39 18 43 20 44 -114 0
42 15 39 18 43 20 44 -112 0
42 15 39 18 43 20 44 -111 0
42 15 39 18 43 20 44 -113 0
42 28 39 27 43 24 44 -135 0
42 28 39 27 43 24 44 -134 0
42 28 39 27 43 24 44 -133 0
42 28 39 27 43 24 44 -136 0
42 38 39 37 43 35 44 -154 0
42 38 39 37 43 35 44 -151 0
42 38 39 37 43 35 44 -152 0
42 38 39 37 43 35 44 -153 0
42 70 39 69 43 64 44 -178 0
42 70 39 69 43 64 44 -177 0
42 70 39 69 43 64 44 -179 0
42 70 39 69 43 64 44 -180 0
42 54 39 47 43 48 44 -170 0
42 54 39 47 43 48 44 -169 0
42 54 39 47 43 48 44 -172 0
42 54 39 47 43 48 44 -171 0
42 55 39 56 43 61 44 -176 0
42 55 39 56 43 61 44 -173 0
42 55 39 56 43 61 44 -175 0
42 55 39 56 43 61 44 -174 0
42 39 14 43 10 44 13 -86 0
42 39 14 43 10 44 13 -87 0
42 39 14 43 10 44 13 -88 0
42 39 14 43 10 44 13 -85 0
9 2 14 6 10 1 13 -7 0
9 2 14 6 10 1 13 -11 0
9 2 14 6 10 1 13 -8 0
9 2 14 6 10 1 13 -12 0
9 15 14 18 10 20 13 -74 0
9 15 14 18 10 20 13 -75 0
9 15 14 18 10 20 13 -76 0
9 15 14 18 10 20 13 -73 0
9 28 14 27 10 24 13 -79 0
9 28 14 27 10 24 13 -77 0
9 28 14 27 10 24 13 -80 0
9 28 14 27 10 24 13 -78 0
9 38 14 37 10 35 13 -83 0
9 38 14 37 10 35 13 -82 0
9 38 14 37 10 35 13 -81 0
9 38 14 37 10 35 13 -84 0
9 70 14 69 10 64 13 -99 0
9 70 14 69 10 64 13 -97 0
9 70 14 69 10 64 13 -100 0
9 70 14 69 10 64 13 -98 0
9 54 14 47 10 48 13 -89 0
9 54 14 47 10 48 13 -91 0
9 54 14 47 10 48 13 -90 0
9 54 14 47 10 48 13 -92 0
9 55 14 56 10 61 13 -93 0
9 55 14 56 10 61 13 -95 0
9 55 14 56 10 61 13 -96 0
9 55 14 56 10 61 13 -94 0
9 39 14 43 10 44 13 -86 0
9 39 14 43 10 44 13 -87 0
9 39 14 43 10 44 13 -88 0
9 39 14 43 10 44 13 -85 0
3 17 23 31 63 49 59 45 7 0
21 101 106 108 124 118 121 114 74 0
29 103 127 131 146 138 142 135 79 0
33 110 132 150 163 157 160 154 83 0
66 123 148 164 197 190 194 178 99 0
51 116 140 156 187 182 186 170 89 0
57 120 141 159 193 183 191 176 93 0
41 112 134 151 177 169 173 167 86 0
11 75 77 82 97 91 95 87 71 0
4 19 26 34 67 50 60 46 8 0
16 102 104 107 125 115 122 111 76 0
30 105 128 130 147 139 144 133 80 0
32 109 129 149 166 158 161 152 81 0
65 126 145 165 198 188 196 179 100 0
53 117 137 155 189 181 184 172 90 0
58 119 143 162 195 185 192 175 96 0
40 113 136 153 180 171 174 168 88 0
12 73 78 84 98 92 94 85 72 0
5 22 2 15 6 18 1 20 -17 0
5 22 2 15 6 18 1 20 -21 0
5 22 2 15 6 18 1 20 -19 0
5 22 2 15 6 18 1 20 -16 0
5 25 2 28 6 27 1 24 -23 0
5 25 2 28 6 27 1 24 -29 0
5 25 2 28 6 27 1 24 -26 0
5 25 2 28 6 27 1 24 -30 0
5 36 2 38 6 37 1 35 -31 0
5 36 2 38 6 37 1 35 -33 0
5 36 2 38 6 37 1 35 -34 0
5 36 2 38 6 37 1 35 -32 0
5 68 2 70 6 69 1 64 -63 0
5 68 2 70 6 69 1 64 -66 0
5 68 2 70 6 69 1 64 -67 0
5 68 2 70 6 69 1 64 -65 0
5 52 2 54 6 47 1 48 -49 0
5 52 2 54 6 47 1 48 -51 0
5 52 2 54 6 47 1 48 -50 0
5 52 2 54 6 47 1 48 -53 0
5 62 2 55 6 56 1 61 -59 0
5 62 2 55 6 56 1 61 -57 0
5 62 2 55 6 56 1 61 -60 0
5 62 2 55 6 56 1 61 -58 0
5 42 2 39 6 43 1 44 -45 0
5 42 2 39 6 43 1 44 -41 0
5 42 2 39 6 43 1 44 -46 0
5 42 2 39 6 43 1 44 -40 0
5 9 2 14 6 10 1 13 -7 0
5 9 2 14 6 10 1 13 -11 0
5 9 2 14 6 10 1 13 -8 0
5 9 2 14 6 10 1 13 -12 0
22 25 15 28 18 27 20 24 -106 0
22 25 15 28 18 27 20 24 -103 0
22 25 15 28 18 27 20 24 -104 0
22 25 15 28 18 27 20 24 -105 0
22 36 15 38 18 37 20 35 -108 0
22 36 15 38 18 37 20 35 -110 0
22 36 15 38 18 37 20 35 -107 0
22 36 15 38 18 37 20 35 -109 0
22 68 15 70 18 69 20 64 -124 0
22 68 15 70 18 69 20 64 -123 0
22 68 15 70 18 69 20 64 -125 0
22 68 15 70 18 69 20 64 -126 0
22 52 15 54 18 47 20 48 -118 0
22 52 15 54 18 47 20 48 -116 0
22 52 15 54 18 47 20 48 -115 0
22 52 15 54 18 47 20 48 -117 0
22 62 15 55 18 56 20 61 -121 0
22 62 15 55 18 56 20 61 -120 0
22 62 15 55 18 56 20 61 -122 0
22 62 15 55 18 56 20 61 -119 0
22 42 15 39 18 43 20 44 -114 0
22 42 15 39 18 43 20 44 -112 0
22 42 15 39 18 43 20 44 -111 0
22 42 15 39 18 43 20 44 -113 0
22 9 15 14 18 10 20 13 -74 0
22 9 15 14 18 10 20 13 -75 0
22 9 15 14 18 10 20 13 -76 0
22 9 15 14 18 10 20 13 -73 0
25 36 28 38 27 37 24 35 -131 0
25 36 28 38 27 37 24 35 -132 0
25 36 28 38 27 37 24 35 -130 0
25 36 28 38 27 37 24 35 -129 0
25 68 28 70 27 69 24 64 -146 0
25 68 28 70 27 69 24 64 -148 0
25 68 28 70 27 69 24 64 -147 0
25 68 28 70 27 69 24 64 -145 0
25 52 28 54 27 47 24 48 -138 0
25 52 28 54 27 47 24 48 -140 0
25 52 28 54 27 47 24 48 -139 0
25 52 28 54 27 47 24 48 -137 0
25 62 28 55 27 56 24 61 -142 0
25 62 28 55 27 56 24 61 -141 0
25 62 28 55 27 56 24 61 -144 0
25 62 28 55 27 56 24 61 -143 0
25 42 28 39 27 43 24 44 -135 0
25 42 28 39 27 43 24 44 -134 0
25 42 28 39 27 43 24 44 -133 0
25 42 28 39 27 43 24 44 -136 0
25 9 28 14 27 10 24 13 -79 0
25 9 28 14 27 10 24 13 -77 0
25 9 28 14 27 10 24 13 -80 0
25 9 28 14 27 10 24 13 -78 0
36 68 38 70 37 69 35 64 -163 0
36 68 38 70 37 69 35 64 -164 0
36 68 38 70 37 69 35 64 -166 0
36 68 38 70 37 69 35 64 -165 0
36 52 38 54 37 47 35 48 -157 0
36 52 38 54 37 47 35 48 -156 0
36 52 38 54 37 47 35 48 -158 0
36 52 38 54 37 47 35 48 -155 0
36 62 38 55 37 56 35 61 -160 0
36 62 38 55 37 56 35 61 -159 0
36 62 38 55 37 56 35 61 -161 0
36 62 38 55 37 56 35 61 -162 0
36 42 38 39 37 43 35 44 -154 0
36 42 38 39 37 43 35 44 -151 0
36 42 38 39 37 43 35 44 -152 0
36 42 38 39 37 43 35 44 -153 0
36 9 38 14 37 10 35 13 -83 0
36 9 38 14 37 10 35 13 -82 0
36 9 38 14 37 10 35 13 -81 0
36 9 38 14 37 10 35 13 -84 0
68 52 70 54 69 47 64 48 -190 0
68 52 70 54 69 47 64 48 -187 0
68 52 70 54 69 47 64 48 -188 0
68 52 70 54 69 47 64 48 -189 0
68 62 70 55 69 56 64 61 -194 0
68 62 70 55 69 56 64 61 -193 0
68 62 70 55 69 56 64 61 -196 0
68 62 70 55 69 56 64 61 -195 0
68 42 70 39 69 43 64 44 -178 0
68 42 70 39 69 43 64 44 -177 0
68 42 70 39 69 43 64 44 -179 0
68 42 70 39 69 43 64 44 -180 0
68 9 70 14 69 10 64 13 -99 0
68 9 70 14 69 10 64 13 -97 0
68 9 70 14 69 10 64 13 -100 0
68 9 70 14 69 10 64 13 -98 0
52 62 54 55 47 56 48 61 -186 0
52 62 54 55 47 56 48 61 -183 0
52 62 54 55 47 56 48 61 -184 0
52 62 54 55 47 56 48 61 -185 0
52 42 54 39 47 43 48 44 -170 0
52 42 54 39 47 43 48 44 -169 0
52 42 54 39 47 43 48 44 -172 0
52 42 54 39 47 43 48 44 -171 0
52 9 54 14 47 10 48 13 -89 0
52 9 54 14 47 10 48 13 -91 0
52 9 54 14 47 10 48 13 -90 0
52 9 54 14 47 10 48 13 -92 0
62 42 55 39 56 43 61 44 -176 0
62 42 55 39 56 43 61 44 -173 0
62 42 55 39 56 43 61 44 -175 0
62 42 55 39 56 43 61 44 -174 0
62 9 55 14 56 10 61 13 -93 0
62 9 55 14 56 10 61 13 -95 0
62 9 55 14 56 10 61 13 -96 0
62 9 55 14 56 10 61 13 -94 0
42 9 39 14 43 10 44 13 -86 0
42 9 39 14 43 10 44 13 -87 0
42 9 39 14 43 10 44 13 -88 0
42 9 39 14 43 10 44 13 -85 0
