c U4(3) U1(3) E1(3,3) U3(3) E2(3,3) U2(3) E1(3,1) U3(1) U4(1) E1(1,3) U2(1) E2(3,1) E2(1,3) U1(1) U1(2) U3(2) U2(2) E1(2,3) E2(3,2) E2(2,3) U4(2) E1(3,2) E2(0,3) U2(0) U4(0) U1(0) E1(0,3) E1(3,0) U3(0) E2(3,0) E1(1,1) E2(1,1) E2(1,2) E1(1,2) E1(2,1) E2(2,1) E2(0,1) E1(1,0) E1(0,1) E2(1,0) E1(2,2) E2(2,2) E2(0,2) E1(2,0) E1(0,2) E2(2,0) E2(0,0) E1(0,0)
c 1 2 3 4 5 6 7 8 9 10 11 12 13 14 15 16 17 18 19 20 21 22 23 24 25 26 27 28 29 30 31 32 33 34 35 36 37 38 39 40 41 42 43 44 45 46 47 48
p cnf 48 964
-48 0
-31 0
-41 0
-3 0
-47 0
-32 0
-42 0
-5 0
-48 -47 0
-39 -38 0
-39 -37 0
-39 -40 0
-45 -44 0
-45 -43 0
-45 -46 0
-27 -28 0
-27 -23 0
-27 -30 0
-38 -37 0
-38 -40 0
-31 -32 0
-34 -35 0
-34 -33 0
-34 -36 0
-10 -7 0
-10 -13 0
-10 -12 0
-44 -43 0
-44 -46 0
-35 -33 0
-35 -36 0
-41 -42 0
-18 -22 0
-18 -20 0
-18 -19 0
-28 -23 0
-28 -30 0
-7 -13 0
-7 -12 0
-22 -20 0
-22 -19 0
-3 -5 0
-37 -40 0
-43 -46 0
-23 -30 0
-33 -36 0
-13 -12 0
-20 -19 0
-26 -24 0
-26 -29 0
-26 -25 0
-14 -11 0
-14 -8 0
-14 -9 0
-15 -17 0
-15 -16 0
-15 -21 0
-2 -6 0
-2 -4 0
-2 -1 0
-24 -29 0
-24 -25 0
-11 -8 0
-11 -9 0
-17 -16 0
-17 -21 0
-6 -4 0
-6 -1 0
-29 -25 0
-8 -9 0
-16 -21 0
-4 -1 0
48 39 45 27 0
38 31 34 10 0
44 35 41 18 0
28 7 22 3 0
47 37 43 23 0
40 32 33 13 0
46 36 42 20 0
30 12 19 5 0
26 24 29 25 0
14 11 8 9 0
15 17 16 21 0
2 6 4 1 0
26 24 29 -48 0
26 24 29 -47 0
26 24 25 -48 0
26 24 25 -47 0
26 29 25 -48 0
26 29 25 -47 0
14 11 8 -31 0
14 11 8 -32 0
14 11 9 -31 0
14 11 9 -32 0
14 8 9 -31 0
14 8 9 -32 0
15 17 16 -41 0
15 17 16 -42 0
15 17 21 -41 0
15 17 21 -42 0
15 16 21 -41 0
15 16 21 -42 0
2 6 4 -3 0
2 6 4 -5 0
2 6 1 -3 0
2 6 1 -5 0
2 4 1 -3 0
2 4 1 -5 0
24 29 25 -48 0
24 29 25 -47 0
11 8 9 -31 0
11 8 9 -32 0
17 16 21 -41 0
17 16 21 -42 0
6 4 1 -3 0
6 4 1 -5 0
26 24 29 25 -48 0
26 24 29 25 -39 0
26 24 29 25 -45 0
26 24 29 25 -27 0
26 24 29 25 -38 0
26 24 29 25 -44 0
26 24 29 25 -28 0
26 24 29 25 -47 0
26 24 29 25 -37 0
26 24 29 25 -43 0
26 24 29 25 -23 0
26 24 29 25 -40 0
26 24 29 25 -46 0
26 24 29 25 -30 0
14 11 8 9 -39 0
14 11 8 9 -38 0
14 11 8 9 -31 0
14 11 8 9 -34 0
14 11 8 9 -10 0
14 11 8 9 -35 0
14 11 8 9 -7 0
14 11 8 9 -37 0
14 11 8 9 -40 0
14 11 8 9 -32 0
14 11 8 9 -33 0
14 11 8 9 -13 0
14 11 8 9 -36 0
14 11 8 9 -12 0
15 17 16 21 -45 0
15 17 16 21 -34 0
15 17 16 21 -44 0
15 17 16 21 -35 0
15 17 16 21 -41 0
15 17 16 21 -18 0
15 17 16 21 -22 0
15 17 16 21 -43 0
15 17 16 21 -33 0
15 17 16 21 -46 0
15 17 16 21 -36 0
15 17 16 21 -42 0
15 17 16 21 -20 0
15 17 16 21 -19 0
2 6 4 1 -27 0
2 6 4 1 -10 0
2 6 4 1 -18 0
2 6 4 1 -28 0
2 6 4 1 -7 0
2 6 4 1 -22 0
2 6 4 1 -3 0
2 6 4 1 -23 0
2 6 4 1 -13 0
2 6 4 1 -20 0
2 6 4 1 -30 0
2 6 4 1 -12 0
2 6 4 1 -19 0
2 6 4 1 -5 0
26 14 24 29 25 -39 0
26 14 24 29 25 -38 0
26 14 24 29 25 -37 0
26 14 24 29 25 -40 0
26 14 11 8 9 -39 0
26 14 11 8 9 -38 0
26 14 11 8 9 -37 0
26 14 11 8 9 -40 0
26 15 24 29 25 -45 0
26 15 24 29 25 -44 0
26 15 24 29 25 -43 0
26 15 24 29 25 -46 0
26 15 17 16 21 -45 0
26 15 17 16 21 -44 0
26 15 17 16 21 -43 0
26 15 17 16 21 -46 0
26 2 24 29 25 -27 0
26 2 24 29 25 -28 0
26 2 24 29 25 -23 0
26 2 24 29 25 -30 0
26 2 6 4 1 -27 0
26 2 6 4 1 -28 0
26 2 6 4 1 -23 0
26 2 6 4 1 -30 0
26 24 11 29 25 -39 0
26 24 11 29 25 -38 0
26 24 11 29 25 -37 0
26 24 11 29 25 -40 0
26 24 17 29 25 -45 0
26 24 17 29 25 -44 0
26 24 17 29 25 -43 0
26 24 17 29 25 -46 0
26 24 6 29 25 -27 0
26 24 6 29 25 -28 0
26 24 6 29 25 -23 0
26 24 6 29 25 -30 0
26 24 29 8 25 -39 0
26 24 29 8 25 -38 0
26 24 29 8 25 -37 0
26 24 29 8 25 -40 0
26 24 29 16 25 -45 0
26 24 29 16 25 -44 0
26 24 29 16 25 -43 0
26 24 29 16 25 -46 0
26 24 29 4 25 -27 0
26 24 29 4 25 -28 0
26 24 29 4 25 -23 0
26 24 29 4 25 -30 0
26 24 29 25 9 -39 0
26 24 29 25 9 -38 0
26 24 29 25 9 -37 0
26 24 29 25 9 -40 0
26 24 29 25 21 -45 0
26 24 29 25 21 -44 0
26 24 29 25 21 -43 0
26 24 29 25 21 -46 0
26 24 29 25 1 -27 0
26 24 29 25 1 -28 0
26 24 29 25 1 -23 0
26 24 29 25 1 -30 0
14 15 11 8 9 -34 0
14 15 11 8 9 -35 0
14 15 11 8 9 -33 0
14 15 11 8 9 -36 0
14 15 17 16 21 -34 0
14 15 17 16 21 -35 0
14 15 17 16 21 -33 0
14 15 17 16 21 -36 0
14 2 11 8 9 -10 0
14 2 11 8 9 -7 0
14 2 11 8 9 -13 0
14 2 11 8 9 -12 0
14 2 6 4 1 -10 0
14 2 6 4 1 -7 0
14 2 6 4 1 -13 0
14 2 6 4 1 -12 0
14 24 11 8 9 -39 0
14 24 11 8 9 -38 0
14 24 11 8 9 -37 0
14 24 11 8 9 -40 0
14 11 17 8 9 -34 0
14 11 17 8 9 -35 0
14 11 17 8 9 -33 0
14 11 17 8 9 -36 0
14 11 6 8 9 -10 0
14 11 6 8 9 -7 0
14 11 6 8 9 -13 0
14 11 6 8 9 -12 0
14 11 29 8 9 -39 0
14 11 29 8 9 -38 0
14 11 29 8 9 -37 0
14 11 29 8 9 -40 0
14 11 8 16 9 -34 0
14 11 8 16 9 -35 0
14 11 8 16 9 -33 0
14 11 8 16 9 -36 0
14 11 8 4 9 -10 0
14 11 8 4 9 -7 0
14 11 8 4 9 -13 0
14 11 8 4 9 -12 0
14 11 8 25 9 -39 0
14 11 8 25 9 -38 0
14 11 8 25 9 -37 0
14 11 8 25 9 -40 0
14 11 8 9 21 -34 0
14 11 8 9 21 -35 0
14 11 8 9 21 -33 0
14 11 8 9 21 -36 0
14 11 8 9 1 -10 0
14 11 8 9 1 -7 0
14 11 8 9 1 -13 0
14 11 8 9 1 -12 0
15 2 17 16 21 -18 0
15 2 17 16 21 -22 0
15 2 17 16 21 -20 0
15 2 17 16 21 -19 0
15 2 6 4 1 -18 0
15 2 6 4 1 -22 0
15 2 6 4 1 -20 0
15 2 6 4 1 -19 0
15 24 17 16 21 -45 0
15 24 17 16 21 -44 0
15 24 17 16 21 -43 0
15 24 17 16 21 -46 0
15 11 17 16 21 -34 0
15 11 17 16 21 -35 0
15 11 17 16 21 -33 0
15 11 17 16 21 -36 0
15 17 6 16 21 -18 0
15 17 6 16 21 -22 0
15 17 6 16 21 -20 0
15 17 6 16 21 -19 0
15 17 29 16 21 -45 0
15 17 29 16 21 -44 0
15 17 29 16 21 -43 0
15 17 29 16 21 -46 0
15 17 8 16 21 -34 0
15 17 8 16 21 -35 0
15 17 8 16 21 -33 0
15 17 8 16 21 -36 0
15 17 16 4 21 -18 0
15 17 16 4 21 -22 0
15 17 16 4 21 -20 0
15 17 16 4 21 -19 0
15 17 16 25 21 -45 0
15 17 16 25 21 -44 0
15 17 16 25 21 -43 0
15 17 16 25 21 -46 0
15 17 16 9 21 -34 0
15 17 16 9 21 -35 0
15 17 16 9 21 -33 0
15 17 16 9 21 -36 0
15 17 16 21 1 -18 0
15 17 16 21 1 -22 0
15 17 16 21 1 -20 0
15 17 16 21 1 -19 0
2 24 6 4 1 -27 0
2 24 6 4 1 -28 0
2 24 6 4 1 -23 0
2 24 6 4 1 -30 0
2 11 6 4 1 -10 0
2 11 6 4 1 -7 0
2 11 6 4 1 -13 0
2 11 6 4 1 -12 0
2 17 6 4 1 -18 0
2 17 6 4 1 -22 0
2 17 6 4 1 -20 0
2 17 6 4 1 -19 0
2 6 29 4 1 -27 0
2 6 29 4 1 -28 0
2 6 29 4 1 -23 0
2 6 29 4 1 -30 0
2 6 8 4 1 -10 0
2 6 8 4 1 -7 0
2 6 8 4 1 -13 0
2 6 8 4 1 -12 0
2 6 16 4 1 -18 0
2 6 16 4 1 -22 0
2 6 16 4 1 -20 0
2 6 16 4 1 -19 0
2 6 4 25 1 -27 0
2 6 4 25 1 -28 0
2 6 4 25 1 -23 0
2 6 4 25 1 -30 0
2 6 4 9 1 -10 0
2 6 4 9 1 -7 0
2 6 4 9 1 -13 0
2 6 4 9 1 -12 0
2 6 4 21 1 -18 0
2 6 4 21 1 -22 0
2 6 4 21 1 -20 0
2 6 4 21 1 -19 0
26 14 24 11 29 8 -39 0
26 14 24 11 29 8 -38 0
26 14 24 11 29 8 -37 0
26 14 24 11 29 8 -40 0
26 14 24 11 29 25 -39 0
26 14 24 11 29 25 -38 0
26 14 24 11 29 25 -37 0
26 14 24 11 29 25 -40 0
26 14 24 11 8 9 -39 0
26 14 24 11 8 9 -38 0
26 14 24 11 8 9 -37 0
26 14 24 11 8 9 -40 0
26 14 24 11 25 9 -39 0
26 14 24 11 25 9 -38 0
26 14 24 11 25 9 -37 0
26 14 24 11 25 9 -40 0
26 14 24 29 8 25 -39 0
26 14 24 29 8 25 -38 0
26 14 24 29 8 25 -37 0
26 14 24 29 8 25 -40 0
26 14 24 29 25 9 -39 0
26 14 24 29 25 9 -38 0
26 14 24 29 25 9 -37 0
26 14 24 29 25 9 -40 0
26 14 11 29 8 9 -39 0
26 14 11 29 8 9 -38 0
26 14 11 29 8 9 -37 0
26 14 11 29 8 9 -40 0
26 14 11 8 25 9 -39 0
26 14 11 8 25 9 -38 0
26 14 11 8 25 9 -37 0
26 14 11 8 25 9 -40 0
26 14 29 8 25 9 -39 0
26 14 29 8 25 9 -38 0
26 14 29 8 25 9 -37 0
26 14 29 8 25 9 -40 0
26 15 24 17 29 16 -45 0
26 15 24 17 29 16 -44 0
26 15 24 17 29 16 -43 0
26 15 24 17 29 16 -46 0
26 15 24 17 29 25 -45 0
26 15 24 17 29 25 -44 0
26 15 24 17 29 25 -43 0
26 15 24 17 29 25 -46 0
26 15 24 17 16 21 -45 0
26 15 24 17 16 21 -44 0
26 15 24 17 16 21 -43 0
26 15 24 17 16 21 -46 0
26 15 24 17 25 21 -45 0
26 15 24 17 25 21 -44 0
26 15 24 17 25 21 -43 0
26 15 24 17 25 21 -46 0
26 15 24 29 16 25 -45 0
26 15 24 29 16 25 -44 0
26 15 24 29 16 25 -43 0
26 15 24 29 16 25 -46 0
26 15 24 29 25 21 -45 0
26 15 24 29 25 21 -44 0
26 15 24 29 25 21 -43 0
26 15 24 29 25 21 -46 0
26 15 17 29 16 21 -45 0
26 15 17 29 16 21 -44 0
26 15 17 29 16 21 -43 0
26 15 17 29 16 21 -46 0
26 15 17 16 25 21 -45 0
26 15 17 16 25 21 -44 0
26 15 17 16 25 21 -43 0
26 15 17 16 25 21 -46 0
26 15 29 16 25 21 -45 0
26 15 29 16 25 21 -44 0
26 15 29 16 25 21 -43 0
26 15 29 16 25 21 -46 0
26 2 24 6 29 4 -27 0
26 2 24 6 29 4 -28 0
26 2 24 6 29 4 -23 0
26 2 24 6 29 4 -30 0
26 2 24 6 29 25 -27 0
26 2 24 6 29 25 -28 0
26 2 24 6 29 25 -23 0
26 2 24 6 29 25 -30 0
26 2 24 6 4 1 -27 0
26 2 24 6 4 1 -28 0
26 2 24 6 4 1 -23 0
26 2 24 6 4 1 -30 0
26 2 24 6 25 1 -27 0
26 2 24 6 25 1 -28 0
26 2 24 6 25 1 -23 0
26 2 24 6 25 1 -30 0
26 2 24 29 4 25 -27 0
26 2 24 29 4 25 -28 0
26 2 24 29 4 25 -23 0
26 2 24 29 4 25 -30 0
26 2 24 29 25 1 -27 0
26 2 24 29 25 1 -28 0
26 2 24 29 25 1 -23 0
26 2 24 29 25 1 -30 0
26 2 6 29 4 1 -27 0
26 2 6 29 4 1 -28 0
26 2 6 29 4 1 -23 0
26 2 6 29 4 1 -30 0
26 2 6 4 25 1 -27 0
26 2 6 4 25 1 -28 0
26 2 6 4 25 1 -23 0
26 2 6 4 25 1 -30 0
26 2 29 4 25 1 -27 0
26 2 29 4 25 1 -28 0
26 2 29 4 25 1 -23 0
26 2 29 4 25 1 -30 0
26 24 11 29 8 25 -39 0
26 24 11 29 8 25 -38 0
26 24 11 29 8 25 -37 0
26 24 11 29 8 25 -40 0
26 24 11 29 25 9 -39 0
26 24 11 29 25 9 -38 0
26 24 11 29 25 9 -37 0
26 24 11 29 25 9 -40 0
26 24 17 29 16 25 -45 0
26 24 17 29 16 25 -44 0
26 24 17 29 16 25 -43 0
26 24 17 29 16 25 -46 0
26 24 17 29 25 21 -45 0
26 24 17 29 25 21 -44 0
26 24 17 29 25 21 -43 0
26 24 17 29 25 21 -46 0
26 24 6 29 4 25 -27 0
26 24 6 29 4 25 -28 0
26 24 6 29 4 25 -23 0
26 24 6 29 4 25 -30 0
26 24 6 29 25 1 -27 0
26 24 6 29 25 1 -28 0
26 24 6 29 25 1 -23 0
26 24 6 29 25 1 -30 0
26 24 29 8 25 9 -39 0
26 24 29 8 25 9 -38 0
26 24 29 8 25 9 -37 0
26 24 29 8 25 9 -40 0
26 24 29 16 25 21 -45 0
26 24 29 16 25 21 -44 0
26 24 29 16 25 21 -43 0
26 24 29 16 25 21 -46 0
26 24 29 4 25 1 -27 0
26 24 29 4 25 1 -28 0
26 24 29 4 25 1 -23 0
26 24 29 4 25 1 -30 0
14 15 11 17 8 16 -34 0
14 15 11 17 8 16 -35 0
14 15 11 17 8 16 -33 0
14 15 11 17 8 16 -36 0
14 15 11 17 8 9 -34 0
14 15 11 17 8 9 -35 0
14 15 11 17 8 9 -33 0
14 15 11 17 8 9 -36 0
14 15 11 17 16 21 -34 0
14 15 11 17 16 21 -35 0
14 15 11 17 16 21 -33 0
14 15 11 17 16 21 -36 0
14 15 11 17 9 21 -34 0
14 15 11 17 9 21 -35 0
14 15 11 17 9 21 -33 0
14 15 11 17 9 21 -36 0
14 15 11 8 16 9 -34 0
14 15 11 8 16 9 -35 0
14 15 11 8 16 9 -33 0
14 15 11 8 16 9 -36 0
14 15 11 8 9 21 -34 0
14 15 11 8 9 21 -35 0
14 15 11 8 9 21 -33 0
14 15 11 8 9 21 -36 0
14 15 17 8 16 21 -34 0
14 15 17 8 16 21 -35 0
14 15 17 8 16 21 -33 0
14 15 17 8 16 21 -36 0
14 15 17 16 9 21 -34 0
14 15 17 16 9 21 -35 0
14 15 17 16 9 21 -33 0
14 15 17 16 9 21 -36 0
14 15 8 16 9 21 -34 0
14 15 8 16 9 21 -35 0
14 15 8 16 9 21 -33 0
14 15 8 16 9 21 -36 0
14 2 11 6 8 4 -10 0
14 2 11 6 8 4 -7 0
14 2 11 6 8 4 -13 0
14 2 11 6 8 4 -12 0
14 2 11 6 8 9 -10 0
14 2 11 6 8 9 -7 0
14 2 11 6 8 9 -13 0
14 2 11 6 8 9 -12 0
14 2 11 6 4 1 -10 0
14 2 11 6 4 1 -7 0
14 2 11 6 4 1 -13 0
14 2 11 6 4 1 -12 0
14 2 11 6 9 1 -10 0
14 2 11 6 9 1 -7 0
14 2 11 6 9 1 -13 0
14 2 11 6 9 1 -12 0
14 2 11 8 4 9 -10 0
14 2 11 8 4 9 -7 0
14 2 11 8 4 9 -13 0
14 2 11 8 4 9 -12 0
14 2 11 8 9 1 -10 0
14 2 11 8 9 1 -7 0
14 2 11 8 9 1 -13 0
14 2 11 8 9 1 -12 0
14 2 6 8 4 1 -10 0
14 2 6 8 4 1 -7 0
14 2 6 8 4 1 -13 0
14 2 6 8 4 1 -12 0
14 2 6 4 9 1 -10 0
14 2 6 4 9 1 -7 0
14 2 6 4 9 1 -13 0
14 2 6 4 9 1 -12 0
14 2 8 4 9 1 -10 0
14 2 8 4 9 1 -7 0
14 2 8 4 9 1 -13 0
14 2 8 4 9 1 -12 0
14 24 11 29 8 9 -39 0
14 24 11 29 8 9 -38 0
14 24 11 29 8 9 -37 0
14 24 11 29 8 9 -40 0
14 24 11 8 25 9 -39 0
14 24 11 8 25 9 -38 0
14 24 11 8 25 9 -37 0
14 24 11 8 25 9 -40 0
14 11 17 8 16 9 -34 0
14 11 17 8 16 9 -35 0
14 11 17 8 16 9 -33 0
14 11 17 8 16 9 -36 0
14 11 17 8 9 21 -34 0
14 11 17 8 9 21 -35 0
14 11 17 8 9 21 -33 0
14 11 17 8 9 21 -36 0
14 11 6 8 4 9 -10 0
14 11 6 8 4 9 -7 0
14 11 6 8 4 9 -13 0
14 11 6 8 4 9 -12 0
14 11 6 8 9 1 -10 0
14 11 6 8 9 1 -7 0
14 11 6 8 9 1 -13 0
14 11 6 8 9 1 -12 0
14 11 29 8 25 9 -39 0
14 11 29 8 25 9 -38 0
14 11 29 8 25 9 -37 0
14 11 29 8 25 9 -40 0
14 11 8 16 9 21 -34 0
14 11 8 16 9 21 -35 0
14 11 8 16 9 21 -33 0
14 11 8 16 9 21 -36 0
14 11 8 4 9 1 -10 0
14 11 8 4 9 1 -7 0
14 11 8 4 9 1 -13 0
14 11 8 4 9 1 -12 0
15 2 17 6 16 4 -18 0
15 2 17 6 16 4 -22 0
15 2 17 6 16 4 -20 0
15 2 17 6 16 4 -19 0
15 2 17 6 16 21 -18 0
15 2 17 6 16 21 -22 0
15 2 17 6 16 21 -20 0
15 2 17 6 16 21 -19 0
15 2 17 6 4 1 -18 0
15 2 17 6 4 1 -22 0
15 2 17 6 4 1 -20 0
15 2 17 6 4 1 -19 0
15 2 17 6 21 1 -18 0
15 2 17 6 21 1 -22 0
15 2 17 6 21 1 -20 0
15 2 17 6 21 1 -19 0
15 2 17 16 4 21 -18 0
15 2 17 16 4 21 -22 0
15 2 17 16 4 21 -20 0
15 2 17 16 4 21 -19 0
15 2 17 16 21 1 -18 0
15 2 17 16 21 1 -22 0
15 2 17 16 21 1 -20 0
15 2 17 16 21 1 -19 0
15 2 6 16 4 1 -18 0
15 2 6 16 4 1 -22 0
15 2 6 16 4 1 -20 0
15 2 6 16 4 1 -19 0
15 2 6 4 21 1 -18 0
15 2 6 4 21 1 -22 0
15 2 6 4 21 1 -20 0
15 2 6 4 21 1 -19 0
15 2 16 4 21 1 -18 0
15 2 16 4 21 1 -22 0
15 2 16 4 21 1 -20 0
15 2 16 4 21 1 -19 0
15 24 17 29 16 21 -45 0
15 24 17 29 16 21 -44 0
15 24 17 29 16 21 -43 0
15 24 17 29 16 21 -46 0
15 24 17 16 25 21 -45 0
15 24 17 16 25 21 -44 0
15 24 17 16 25 21 -43 0
15 24 17 16 25 21 -46 0
15 11 17 8 16 21 -34 0
15 11 17 8 16 21 -35 0
15 11 17 8 16 21 -33 0
15 11 17 8 16 21 -36 0
15 11 17 16 9 21 -34 0
15 11 17 16 9 21 -35 0
15 11 17 16 9 21 -33 0
15 11 17 16 9 21 -36 0
15 17 6 16 4 21 -18 0
15 17 6 16 4 21 -22 0
15 17 6 16 4 21 -20 0
15 17 6 16 4 21 -19 0
15 17 6 16 21 1 -18 0
15 17 6 16 21 1 -22 0
15 17 6 16 21 1 -20 0
15 17 6 16 21 1 -19 0
15 17 29 16 25 21 -45 0
15 17 29 16 25 21 -44 0
15 17 29 16 25 21 -43 0
15 17 29 16 25 21 -46 0
15 17 8 16 9 21 -34 0
15 17 8 16 9 21 -35 0
15 17 8 16 9 21 -33 0
15 17 8 16 9 21 -36 0
15 17 16 4 21 1 -18 0
15 17 16 4 21 1 -22 0
15 17 16 4 21 1 -20 0
15 17 16 4 21 1 -19 0
2 24 6 29 4 1 -27 0
2 24 6 29 4 1 -28 0
2 24 6 29 4 1 -23 0
2 24 6 29 4 1 -30 0
2 24 6 4 25 1 -27 0
2 24 6 4 25 1 -28 0
2 24 6 4 25 1 -23 0
2 24 6 4 25 1 -30 0
2 11 6 8 4 1 -10 0
2 11 6 8 4 1 -7 0
2 11 6 8 4 1 -13 0
2 11 6 8 4 1 -12 0
2 11 6 4 9 1 -10 0
2 11 6 4 9 1 -7 0
2 11 6 4 9 1 -13 0
2 11 6 4 9 1 -12 0
2 17 6 16 4 1 -18 0
2 17 6 16 4 1 -22 0
2 17 6 16 4 1 -20 0
2 17 6 16 4 1 -19 0
2 17 6 4 21 1 -18 0
2 17 6 4 21 1 -22 0
2 17 6 4 21 1 -20 0
2 17 6 4 21 1 -19 0
2 6 29 4 25 1 -27 0
2 6 29 4 25 1 -28 0
2 6 29 4 25 1 -23 0
2 6 29 4 25 1 -30 0
2 6 8 4 9 1 -10 0
2 6 8 4 9 1 -7 0
2 6 8 4 9 1 -13 0
2 6 8 4 9 1 -12 0
2 6 16 4 21 1 -18 0
2 6 16 4 21 1 -22 0
2 6 16 4 21 1 -20 0
2 6 16 4 21 1 -19 0
24 11 29 8 25 9 -39 0
24 11 29 8 25 9 -38 0
24 11 29 8 25 9 -37 0
24 11 29 8 25 9 -40 0
24 17 29 16 25 21 -45 0
24 17 29 16 25 21 -44 0
24 17 29 16 25 21 -43 0
24 17 29 16 25 21 -46 0
24 6 29 4 25 1 -27 0
24 6 29 4 25 1 -28 0
24 6 29 4 25 1 -23 0
24 6 29 4 25 1 -30 0
11 17 8 16 9 21 -34 0
11 17 8 16 9 21 -35 0
11 17 8 16 9 21 -33 0
11 17 8 16 9 21 -36 0
11 6 8 4 9 1 -10 0
11 6 8 4 9 1 -7 0
11 6 8 4 9 1 -13 0
11 6 8 4 9 1 -12 0
17 6 16 4 21 1 -18 0
17 6 16 4 21 1 -22 0
17 6 16 4 21 1 -20 0
17 6 16 4 21 1 -19 0
26 14 24 11 29 8 25 -39 0
26 14 24 11 29 8 25 -38 0
26 14 24 11 29 8 25 -37 0
26 14 24 11 29 8 25 -40 0
26 14 24 11 29 8 9 -39 0
26 14 24 11 29 8 9 -38 0
26 14 24 11 29 8 9 -37 0
26 14 24 11 29 8 9 -40 0
26 14 24 11 29 25 9 -39 0
26 14 24 11 29 25 9 -38 0
26 14 24 11 29 25 9 -37 0
26 14 24 11 29 25 9 -40 0
26 14 24 11 8 25 9 -39 0
26 14 24 11 8 25 9 -38 0
26 14 24 11 8 25 9 -37 0
26 14 24 11 8 25 9 -40 0
26 14 24 29 8 25 9 -39 0
26 14 24 29 8 25 9 -38 0
26 14 24 29 8 25 9 -37 0
26 14 24 29 8 25 9 -40 0
26 14 11 29 8 25 9 -39 0
26 14 11 29 8 25 9 -38 0
26 14 11 29 8 25 9 -37 0
26 14 11 29 8 25 9 -40 0
26 15 24 17 29 16 25 -45 0
26 15 24 17 29 16 25 -44 0
26 15 24 17 29 16 25 -43 0
26 15 24 17 29 16 25 -46 0
26 15 24 17 29 16 21 -45 0
26 15 24 17 29 16 21 -44 0
26 15 24 17 29 16 21 -43 0
26 15 24 17 29 16 21 -46 0
26 15 24 17 29 25 21 -45 0
26 15 24 17 29 25 21 -44 0
26 15 24 17 29 25 21 -43 0
26 15 24 17 29 25 21 -46 0
26 15 24 17 16 25 21 -45 0
26 15 24 17 16 25 21 -44 0
26 15 24 17 16 25 21 -43 0
26 15 24 17 16 25 21 -46 0
26 15 24 29 16 25 21 -45 0
26 15 24 29 16 25 21 -44 0
26 15 24 29 16 25 21 -43 0
26 15 24 29 16 25 21 -46 0
26 15 17 29 16 25 21 -45 0
26 15 17 29 16 25 21 -44 0
26 15 17 29 16 25 21 -43 0
26 15 17 29 16 25 21 -46 0
26 2 24 6 29 4 25 -27 0
26 2 24 6 29 4 25 -28 0
26 2 24 6 29 4 25 -23 0
26 2 24 6 29 4 25 -30 0
26 2 24 6 29 4 1 -27 0
26 2 24 6 29 4 1 -28 0
26 2 24 6 29 4 1 -23 0
26 2 24 6 29 4 1 -30 0
26 2 24 6 29 25 1 -27 0
26 2 24 6 29 25 1 -28 0
26 2 24 6 29 25 1 -23 0
26 2 24 6 29 25 1 -30 0
26 2 24 6 4 25 1 -27 0
26 2 24 6 4 25 1 -28 0
26 2 24 6 4 25 1 -23 0
26 2 24 6 4 25 1 -30 0
26 2 24 29 4 25 1 -27 0
26 2 24 29 4 25 1 -28 0
26 2 24 29 4 25 1 -23 0
26 2 24 29 4 25 1 -30 0
26 2 6 29 4 25 1 -27 0
26 2 6 29 4 25 1 -28 0
26 2 6 29 4 25 1 -23 0
26 2 6 29 4 25 1 -30 0
26 24 11 29 8 25 9 -39 0
26 24 11 29 8 25 9 -38 0
26 24 11 29 8 25 9 -37 0
26 24 11 29 8 25 9 -40 0
26 24 17 29 16 25 21 -45 0
26 24 17 29 16 25 21 -44 0
26 24 17 29 16 25 21 -43 0
26 24 17 29 16 25 21 -46 0
26 24 6 29 4 25 1 -27 0
26 24 6 29 4 25 1 -28 0
26 24 6 29 4 25 1 -23 0
26 24 6 29 4 25 1 -30 0
14 15 11 17 8 16 9 -34 0
14 15 11 17 8 16 9 -35 0
14 15 11 17 8 16 9 -33 0
14 15 11 17 8 16 9 -36 0
14 15 11 17 8 16 21 -34 0
14 15 11 17 8 16 21 -35 0
14 15 11 17 8 16 21 -33 0
14 15 11 17 8 16 21 -36 0
14 15 11 17 8 9 21 -34 0
14 15 11 17 8 9 21 -35 0
14 15 11 17 8 9 21 -33 0
14 15 11 17 8 9 21 -36 0
14 15 11 17 16 9 21 -34 0
14 15 11 17 16 9 21 -35 0
14 15 11 17 16 9 21 -33 0
14 15 11 17 16 9 21 -36 0
14 15 11 8 16 9 21 -34 0
14 15 11 8 16 9 21 -35 0
14 15 11 8 16 9 21 -33 0
14 15 11 8 16 9 21 -36 0
14 15 17 8 16 9 21 -34 0
14 15 17 8 16 9 21 -35 0
14 15 17 8 16 9 21 -33 0
14 15 17 8 16 9 21 -36 0
14 2 11 6 8 4 9 -10 0
14 2 11 6 8 4 9 -7 0
14 2 11 6 8 4 9 -13 0
14 2 11 6 8 4 9 -12 0
14 2 11 6 8 4 1 -10 0
14 2 11 6 8 4 1 -7 0
14 2 11 6 8 4 1 -13 0
14 2 11 6 8 4 1 -12 0
14 2 11 6 8 9 1 -10 0
14 2 11 6 8 9 1 -7 0
14 2 11 6 8 9 1 -13 0
14 2 11 6 8 9 1 -12 0
14 2 11 6 4 9 1 -10 0
14 2 11 6 4 9 1 -7 0
14 2 11 6 4 9 1 -13 0
14 2 11 6 4 9 1 -12 0
14 2 11 8 4 9 1 -10 0
14 2 11 8 4 9 1 -7 0
14 2 11 8 4 9 1 -13 0
14 2 11 8 4 9 1 -12 0
14 2 6 8 4 9 1 -10 0
14 2 6 8 4 9 1 -7 0
14 2 6 8 4 9 1 -13 0
14 2 6 8 4 9 1 -12 0
14 24 11 29 8 25 9 -39 0
14 24 11 29 8 25 9 -38 0
14 24 11 29 8 25 9 -37 0
14 24 11 29 8 25 9 -40 0
14 11 17 8 16 9 21 -34 0
14 11 17 8 16 9 21 -35 0
14 11 17 8 16 9 21 -33 0
14 11 17 8 16 9 21 -36 0
14 11 6 8 4 9 1 -10 0
14 11 6 8 4 9 1 -7 0
14 11 6 8 4 9 1 -13 0
14 11 6 8 4 9 1 -12 0
15 2 17 6 16 4 21 -18 0
15 2 17 6 16 4 21 -22 0
15 2 17 6 16 4 21 -20 0
15 2 17 6 16 4 21 -19 0
15 2 17 6 16 4 1 -18 0
15 2 17 6 16 4 1 -22 0
15 2 17 6 16 4 1 -20 0
15 2 17 6 16 4 1 -19 0
15 2 17 6 16 21 1 -18 0
15 2 17 6 16 21 1 -22 0
15 2 17 6 16 21 1 -20 0
15 2 17 6 16 21 1 -19 0
15 2 17 6 4 21 1 -18 0
15 2 17 6 4 21 1 -22 0
15 2 17 6 4 21 1 -20 0
15 2 17 6 4 21 1 -19 0
15 2 17 16 4 21 1 -18 0
15 2 17 16 4 21 1 -22 0
15 2 17 16 4 21 1 -20 0
15 2 17 16 4 21 1 -19 0
15 2 6 16 4 21 1 -18 0
15 2 6 16 4 21 1 -22 0
15 2 6 16 4 21 1 -20 0
15 2 6 16 4 21 1 -19 0
15 24 17 29 16 25 21 -45 0
15 24 17 29 16 25 21 -44 0
15 24 17 29 16 25 21 -43 0
15 24 17 29 16 25 21 -46 0
15 11 17 8 16 9 21 -34 0
15 11 17 8 16 9 21 -35 0
15 11 17 8 16 9 21 -33 0
15 11 17 8 16 9 21 -36 0
15 17 6 16 4 21 1 -18 0
15 17 6 16 4 21 1 -22 0
15 17 6 16 4 21 1 -20 0
15 17 6 16 4 21 1 -19 0
2 24 6 29 4 25 1 -27 0
2 24 6 29 4 25 1 -28 0
2 24 6 29 4 25 1 -23 0
2 24 6 29 4 25 1 -30 0
2 11 6 8 4 9 1 -10 0
2 11 6 8 4 9 1 -7 0
2 11 6 8 4 9 1 -13 0
2 11 6 8 4 9 1 -12 0
2 17 6 16 4 21 1 -18 0
2 17 6 16 4 21 1 -22 0
2 17 6 16 4 21 1 -20 0
2 17 6 16 4 21 1 -19 0
26 14 24 11 29 8 25 9 -39 0
26 14 24 11 29 8 25 9 -38 0
26 14 24 11 29 8 25 9 -37 0
26 14 24 11 29 8 25 9 -40 0
26 15 24 17 29 16 25 21 -45 0
26 15 24 17 29 16 25 21 -44 0
26 15 24 17 29 16 25 21 -43 0
26 15 24 17 29 16 25 21 -46 0
26 2 24 6 29 4 25 1 -27 0
26 2 24 6 29 4 25 1 -28 0
26 2 24 6 29 4 25 1 -23 0
26 2 24 6 29 4 25 1 -30 0
14 15 11 17 8 16 9 21 -34 0
14 15 11 17 8 16 9 21 -35 0
14 15 11 17 8 16 9 21 -33 0
14 15 11 17 8 16 9 21 -36 0
14 2 11 6 8 4 9 1 -10 0
14 2 11 6 8 4 9 1 -7 0
14 2 11 6 8 4 9 1 -13 0
14 2 11 6 8 4 9 1 -12 0
15 2 17 6 16 4 21 1 -18 0
15 2 17 6 16 4 21 1 -22 0
15 2 17 6 16 4 21 1 -20 0
15 2 17 6 16 4 21 1 -19 0
