c U1(4) E1(4,4) U2(4) U3(4) E2(4,4) U4(4) U3(0) U4(0) E1(0,4) U1(0) E2(4,0) E1(4,0) U2(0) E2(0,4) E2(4,1) E1(4,1) E2(1,4) U4(1) E1(1,4) U2(1) U3(1) U1(1) E2(4,2) U3(2) U4(2) E2(2,4) U1(2) E1(2,4) E1(4,2) U2(2) E2(4,3) E1(4,3) U4(3) U1(3) E1(3,4) U2(3) U3(3) E2(3,4) E1(0,0) E2(0,0) E2(1,0) E1(1,0) E1(0,1) E2(0,1) E2(2,0) E1(2,0) E2(0,2) E1(0,2) E2(0,3) E1(0,3) E2(3,0) E1(3,0) E2(1,1) E1(1,1) E1(2,1) E2(2,1) E2(1,2) E1(1,2) E1(1,3) E1(3,1) E2(3,1) E2(1,3) E2(2,2) E1(2,2) E1(3,2) E2(2,3) E2(3,2) E1(2,3) E2(3,3) E1(3,3)
c 1 2 3 4 5 6 7 8 9 10 11 12 13 14 15 16 17 18 19 20 21 22 23 24 25 26 27 28 29 30 31 32 33 34 35 36 37 38 39 40 41 42 43 44 45 46 47 48 49 50 51 52 53 54 55 56 57 58 59 60 61 62 63 64 65 66 67 68 69 70
p cnf 70 1570
-39 0
-54 0
-64 0
-70 0
-2 0
-40 0
-53 0
-63 0
-69 0
-5 0
-39 -40 0
-43 -42 0
-43 -44 0
-43 -41 0
-48 -46 0
-48 -47 0
-48 -45 0
-50 -52 0
-50 -49 0
-50 -51 0
-9 -12 0
-9 -14 0
-9 -11 0
-42 -44 0
-42 -41 0
-54 -53 0
-58 -55 0
-58 -57 0
-58 -56 0
-59 -60 0
-59 -62 0
-59 -61 0
-19 -16 0
-19 -17 0
-19 -15 0
-46 -47 0
-46 -45 0
-55 -57 0
-55 -56 0
-64 -63 0
-68 -65 0
-68 -66 0
-68 -67 0
-28 -29 0
-28 -26 0
-28 -23 0
-52 -49 0
-52 -51 0
-60 -62 0
-60 -61 0
-65 -66 0
-65 -67 0
-70 -69 0
-35 -32 0
-35 -38 0
-35 -31 0
-12 -14 0
-12 -11 0
-16 -17 0
-16 -15 0
-29 -26 0
-29 -23 0
-32 -38 0
-32 -31 0
-2 -5 0
-44 -41 0
-47 -45 0
-49 -51 0
-14 -11 0
-57 -56 0
-62 -61 0
-17 -15 0
-66 -67 0
-26 -23 0
-38 -31 0
-10 -13 0
-10 -7 0
-10 -8 0
-22 -20 0
-22 -21 0
-22 -18 0
-27 -30 0
-27 -24 0
-27 -25 0
-34 -36 0
-34 -37 0
-34 -33 0
-1 -3 0
-1 -4 0
-1 -6 0
-13 -7 0
-13 -8 0
-20 -21 0
-20 -18 0
-30 -24 0
-30 -25 0
-36 -37 0
-36 -33 0
-3 -4 0
-3 -6 0
-7 -8 0
-21 -18 0
-24 -25 0
-37 -33 0
-4 -6 0
10 13 7 8 0
22 20 21 18 0
27 30 24 25 0
34 36 37 33 0
1 3 4 6 0
10 13 7 -39 0
10 13 7 -40 0
10 13 8 -39 0
10 13 8 -40 0
10 7 8 -39 0
10 7 8 -40 0
22 20 21 -54 0
22 20 21 -53 0
22 20 18 -54 0
22 20 18 -53 0
22 21 18 -54 0
22 21 18 -53 0
27 30 24 -64 0
27 30 24 -63 0
27 30 25 -64 0
27 30 25 -63 0
27 24 25 -64 0
27 24 25 -63 0
34 36 37 -70 0
34 36 37 -69 0
34 36 33 -70 0
34 36 33 -69 0
34 37 33 -70 0
34 37 33 -69 0
1 3 4 -2 0
1 3 4 -5 0
1 3 6 -2 0
1 3 6 -5 0
1 4 6 -2 0
1 4 6 -5 0
13 7 8 -39 0
13 7 8 -40 0
20 21 18 -54 0
20 21 18 -53 0
30 24 25 -64 0
30 24 25 -63 0
36 37 33 -70 0
36 37 33 -69 0
3 4 6 -2 0
3 4 6 -5 0
39 43 48 50 9 0
42 54 58 59 19 0
46 55 64 68 28 0
52 60 65 70 35 0
12 16 29 32 2 0
40 44 47 49 14 0
41 53 57 62 17 0
45 56 63 66 26 0
51 61 67 69 38 0
11 15 23 31 5 0
10 13 7 8 -39 0
10 13 7 8 -43 0
10 13 7 8 -48 0
10 13 7 8 -50 0
10 13 7 8 -9 0
10 13 7 8 -42 0
10 13 7 8 -46 0
10 13 7 8 -52 0
10 13 7 8 -12 0
10 13 7 8 -40 0
10 13 7 8 -44 0
10 13 7 8 -47 0
10 13 7 8 -49 0
10 13 7 8 -14 0
10 13 7 8 -41 0
10 13 7 8 -45 0
10 13 7 8 -51 0
10 13 7 8 -11 0
22 20 21 18 -43 0
22 20 21 18 -42 0
22 20 21 18 -54 0
22 20 21 18 -58 0
22 20 21 18 -59 0
22 20 21 18 -19 0
22 20 21 18 -55 0
22 20 21 18 -60 0
22 20 21 18 -16 0
22 20 21 18 -44 0
22 20 21 18 -41 0
22 20 21 18 -53 0
22 20 21 18 -57 0
22 20 21 18 -62 0
22 20 21 18 -17 0
22 20 21 18 -56 0
22 20 21 18 -61 0
22 20 21 18 -15 0
27 30 24 25 -48 0
27 30 24 25 -58 0
27 30 24 25 -46 0
27 30 24 25 -55 0
27 30 24 25 -64 0
27 30 24 25 -68 0
27 30 24 25 -28 0
27 30 24 25 -65 0
27 30 24 25 -29 0
27 30 24 25 -47 0
27 30 24 25 -57 0
27 30 24 25 -45 0
27 30 24 25 -56 0
27 30 24 25 -63 0
27 30 24 25 -66 0
27 30 24 25 -26 0
27 30 24 25 -67 0
27 30 24 25 -23 0
34 36 37 33 -50 0
34 36 37 33 -59 0
34 36 37 33 -68 0
34 36 37 33 -52 0
34 36 37 33 -60 0
34 36 37 33 -65 0
34 36 37 33 -70 0
34 36 37 33 -35 0
34 36 37 33 -32 0
34 36 37 33 -49 0
34 36 37 33 -62 0
34 36 37 33 -66 0
34 36 37 33 -51 0
34 36 37 33 -61 0
34 36 37 33 -67 0
34 36 37 33 -69 0
34 36 37 33 -38 0
34 36 37 33 -31 0
1 3 4 6 -9 0
1 3 4 6 -19 0
1 3 4 6 -28 0
1 3 4 6 -35 0
1 3 4 6 -12 0
1 3 4 6 -16 0
1 3 4 6 -29 0
1 3 4 6 -32 0
1 3 4 6 -2 0
1 3 4 6 -14 0
1 3 4 6 -17 0
1 3 4 6 -26 0
1 3 4 6 -38 0
1 3 4 6 -11 0
1 3 4 6 -15 0
1 3 4 6 -23 0
1 3 4 6 -31 0
1 3 4 6 -5 0
10 22 13 7 8 -43 0
10 22 13 7 8 -42 0
10 22 13 7 8 -44 0
10 22 13 7 8 -41 0
10 22 20 21 18 -43 0
10 22 20 21 18 -42 0
10 22 20 21 18 -44 0
10 22 20 21 18 -41 0
10 27 13 7 8 -48 0
10 27 13 7 8 -46 0
10 27 13 7 8 -47 0
10 27 13 7 8 -45 0
10 27 30 24 25 -48 0
10 27 30 24 25 -46 0
10 27 30 24 25 -47 0
10 27 30 24 25 -45 0
10 34 13 7 8 -50 0
10 34 13 7 8 -52 0
10 34 13 7 8 -49 0
10 34 13 7 8 -51 0
10 34 36 37 33 -50 0
10 34 36 37 33 -52 0
10 34 36 37 33 -49 0
10 34 36 37 33 -51 0
10 1 13 7 8 -9 0
10 1 13 7 8 -12 0
10 1 13 7 8 -14 0
10 1 13 7 8 -11 0
10 1 3 4 6 -9 0
10 1 3 4 6 -12 0
10 1 3 4 6 -14 0
10 1 3 4 6 -11 0
10 13 20 7 8 -43 0
10 13 20 7 8 -42 0
10 13 20 7 8 -44 0
10 13 20 7 8 -41 0
10 13 30 7 8 -48 0
10 13 30 7 8 -46 0
10 13 30 7 8 -47 0
10 13 30 7 8 -45 0
10 13 36 7 8 -50 0
10 13 36 7 8 -52 0
10 13 36 7 8 -49 0
10 13 36 7 8 -51 0
10 13 3 7 8 -9 0
10 13 3 7 8 -12 0
10 13 3 7 8 -14 0
10 13 3 7 8 -11 0
10 13 7 21 8 -43 0
10 13 7 21 8 -42 0
10 13 7 21 8 -44 0
10 13 7 21 8 -41 0
10 13 7 24 8 -48 0
10 13 7 24 8 -46 0
10 13 7 24 8 -47 0
10 13 7 24 8 -45 0
10 13 7 37 8 -50 0
10 13 7 37 8 -52 0
10 13 7 37 8 -49 0
10 13 7 37 8 -51 0
10 13 7 4 8 -9 0
10 13 7 4 8 -12 0
10 13 7 4 8 -14 0
10 13 7 4 8 -11 0
10 13 7 8 18 -43 0
10 13 7 8 18 -42 0
10 13 7 8 18 -44 0
10 13 7 8 18 -41 0
10 13 7 8 25 -48 0
10 13 7 8 25 -46 0
10 13 7 8 25 -47 0
10 13 7 8 25 -45 0
10 13 7 8 33 -50 0
10 13 7 8 33 -52 0
10 13 7 8 33 -49 0
10 13 7 8 33 -51 0
10 13 7 8 6 -9 0
10 13 7 8 6 -12 0
10 13 7 8 6 -14 0
10 13 7 8 6 -11 0
22 27 20 21 18 -58 0
22 27 20 21 18 -55 0
22 27 20 21 18 -57 0
22 27 20 21 18 -56 0
22 27 30 24 25 -58 0
22 27 30 24 25 -55 0
22 27 30 24 25 -57 0
22 27 30 24 25 -56 0
22 34 20 21 18 -59 0
22 34 20 21 18 -60 0
22 34 20 21 18 -62 0
22 34 20 21 18 -61 0
22 34 36 37 33 -59 0
22 34 36 37 33 -60 0
22 34 36 37 33 -62 0
22 34 36 37 33 -61 0
22 1 20 21 18 -19 0
22 1 20 21 18 -16 0
22 1 20 21 18 -17 0
22 1 20 21 18 -15 0
22 1 3 4 6 -19 0
22 1 3 4 6 -16 0
22 1 3 4 6 -17 0
22 1 3 4 6 -15 0
22 13 20 21 18 -43 0
22 13 20 21 18 -42 0
22 13 20 21 18 -44 0
22 13 20 21 18 -41 0
22 20 30 21 18 -58 0
22 20 30 21 18 -55 0
22 20 30 21 18 -57 0
22 20 30 21 18 -56 0
22 20 36 21 18 -59 0
22 20 36 21 18 -60 0
22 20 36 21 18 -62 0
22 20 36 21 18 -61 0
22 20 3 21 18 -19 0
22 20 3 21 18 -16 0
22 20 3 21 18 -17 0
22 20 3 21 18 -15 0
22 20 7 21 18 -43 0
22 20 7 21 18 -42 0
22 20 7 21 18 -44 0
22 20 7 21 18 -41 0
22 20 21 24 18 -58 0
22 20 21 24 18 -55 0
22 20 21 24 18 -57 0
22 20 21 24 18 -56 0
22 20 21 37 18 -59 0
22 20 21 37 18 -60 0
22 20 21 37 18 -62 0
22 20 21 37 18 -61 0
22 20 21 4 18 -19 0
22 20 21 4 18 -16 0
22 20 21 4 18 -17 0
22 20 21 4 18 -15 0
22 20 21 8 18 -43 0
22 20 21 8 18 -42 0
22 20 21 8 18 -44 0
22 20 21 8 18 -41 0
22 20 21 18 25 -58 0
22 20 21 18 25 -55 0
22 20 21 18 25 -57 0
22 20 21 18 25 -56 0
22 20 21 18 33 -59 0
22 20 21 18 33 -60 0
22 20 21 18 33 -62 0
22 20 21 18 33 -61 0
22 20 21 18 6 -19 0
22 20 21 18 6 -16 0
22 20 21 18 6 -17 0
22 20 21 18 6 -15 0
27 34 30 24 25 -68 0
27 34 30 24 25 -65 0
27 34 30 24 25 -66 0
27 34 30 24 25 -67 0
27 34 36 37 33 -68 0
27 34 36 37 33 -65 0
27 34 36 37 33 -66 0
27 34 36 37 33 -67 0
27 1 30 24 25 -28 0
27 1 30 24 25 -29 0
27 1 30 24 25 -26 0
27 1 30 24 25 -23 0
27 1 3 4 6 -28 0
27 1 3 4 6 -29 0
27 1 3 4 6 -26 0
27 1 3 4 6 -23 0
27 13 30 24 25 -48 0
27 13 30 24 25 -46 0
27 13 30 24 25 -47 0
27 13 30 24 25 -45 0
27 20 30 24 25 -58 0
27 20 30 24 25 -55 0
27 20 30 24 25 -57 0
27 20 30 24 25 -56 0
27 30 36 24 25 -68 0
27 30 36 24 25 -65 0
27 30 36 24 25 -66 0
27 30 36 24 25 -67 0
27 30 3 24 25 -28 0
27 30 3 24 25 -29 0
27 30 3 24 25 -26 0
27 30 3 24 25 -23 0
27 30 7 24 25 -48 0
27 30 7 24 25 -46 0
27 30 7 24 25 -47 0
27 30 7 24 25 -45 0
27 30 21 24 25 -58 0
27 30 21 24 25 -55 0
27 30 21 24 25 -57 0
27 30 21 24 25 -56 0
27 30 24 37 25 -68 0
27 30 24 37 25 -65 0
27 30 24 37 25 -66 0
27 30 24 37 25 -67 0
27 30 24 4 25 -28 0
27 30 24 4 25 -29 0
27 30 24 4 25 -26 0
27 30 24 4 25 -23 0
27 30 24 8 25 -48 0
27 30 24 8 25 -46 0
27 30 24 8 25 -47 0
27 30 24 8 25 -45 0
27 30 24 18 25 -58 0
27 30 24 18 25 -55 0
27 30 24 18 25 -57 0
27 30 24 18 25 -56 0
27 30 24 25 33 -68 0
27 30 24 25 33 -65 0
27 30 24 25 33 -66 0
27 30 24 25 33 -67 0
27 30 24 25 6 -28 0
27 30 24 25 6 -29 0
27 30 24 25 6 -26 0
27 30 24 25 6 -23 0
34 1 36 37 33 -35 0
34 1 36 37 33 -32 0
34 1 36 37 33 -38 0
34 1 36 37 33 -31 0
34 1 3 4 6 -35 0
34 1 3 4 6 -32 0
34 1 3 4 6 -38 0
34 1 3 4 6 -31 0
34 13 36 37 33 -50 0
34 13 36 37 33 -52 0
34 13 36 37 33 -49 0
34 13 36 37 33 -51 0
34 20 36 37 33 -59 0
34 20 36 37 33 -60 0
34 20 36 37 33 -62 0
34 20 36 37 33 -61 0
34 30 36 37 33 -68 0
34 30 36 37 33 -65 0
34 30 36 37 33 -66 0
34 30 36 37 33 -67 0
34 36 3 37 33 -35 0
34 36 3 37 33 -32 0
34 36 3 37 33 -38 0
34 36 3 37 33 -31 0
34 36 7 37 33 -50 0
34 36 7 37 33 -52 0
34 36 7 37 33 -49 0
34 36 7 37 33 -51 0
34 36 21 37 33 -59 0
34 36 21 37 33 -60 0
34 36 21 37 33 -62 0
34 36 21 37 33 -61 0
34 36 24 37 33 -68 0
34 36 24 37 33 -65 0
34 36 24 37 33 -66 0
34 36 24 37 33 -67 0
34 36 37 4 33 -35 0
34 36 37 4 33 -32 0
34 36 37 4 33 -38 0
34 36 37 4 33 -31 0
34 36 37 8 33 -50 0
34 36 37 8 33 -52 0
34 36 37 8 33 -49 0
34 36 37 8 33 -51 0
34 36 37 18 33 -59 0
34 36 37 18 33 -60 0
34 36 37 18 33 -62 0
34 36 37 18 33 -61 0
34 36 37 25 33 -68 0
34 36 37 25 33 -65 0
34 36 37 25 33 -66 0
34 36 37 25 33 -67 0
34 36 37 33 6 -35 0
34 36 37 33 6 -32 0
34 36 37 33 6 -38 0
34 36 37 33 6 -31 0
1 13 3 4 6 -9 0
1 13 3 4 6 -12 0
1 13 3 4 6 -14 0
1 13 3 4 6 -11 0
1 20 3 4 6 -19 0
1 20 3 4 6 -16 0
1 20 3 4 6 -17 0
1 20 3 4 6 -15 0
1 30 3 4 6 -28 0
1 30 3 4 6 -29 0
1 30 3 4 6 -26 0
1 30 3 4 6 -23 0
1 36 3 4 6 -35 0
1 36 3 4 6 -32 0
1 36 3 4 6 -38 0
1 36 3 4 6 -31 0
1 3 7 4 6 -9 0
1 3 7 4 6 -12 0
1 3 7 4 6 -14 0
1 3 7 4 6 -11 0
1 3 21 4 6 -19 0
1 3 21 4 6 -16 0
1 3 21 4 6 -17 0
1 3 21 4 6 -15 0
1 3 24 4 6 -28 0
1 3 24 4 6 -29 0
1 3 24 4 6 -26 0
1 3 24 4 6 -23 0
1 3 37 4 6 -35 0
1 3 37 4 6 -32 0
1 3 37 4 6 -38 0
1 3 37 4 6 -31 0
1 3 4 8 6 -9 0
1 3 4 8 6 -12 0
1 3 4 8 6 -14 0
1 3 4 8 6 -11 0
1 3 4 18 6 -19 0
1 3 4 18 6 -16 0
1 3 4 18 6 -17 0
1 3 4 18 6 -15 0
1 3 4 25 6 -28 0
1 3 4 25 6 -29 0
1 3 4 25 6 -26 0
1 3 4 25 6 -23 0
1 3 4 33 6 -35 0
1 3 4 33 6 -32 0
1 3 4 33 6 -38 0
1 3 4 33 6 -31 0
10 22 13 20 7 21 -43 0
10 22 13 20 7 21 -42 0
10 22 13 20 7 21 -44 0
10 22 13 20 7 21 -41 0
10 22 13 20 7 8 -43 0
10 22 13 20 7 8 -42 0
10 22 13 20 7 8 -44 0
10 22 13 20 7 8 -41 0
10 22 13 20 21 18 -43 0
10 22 13 20 21 18 -42 0
10 22 13 20 21 18 -44 0
10 22 13 20 21 18 -41 0
10 22 13 20 8 18 -43 0
10 22 13 20 8 18 -42 0
10 22 13 20 8 18 -44 0
10 22 13 20 8 18 -41 0
10 22 13 7 21 8 -43 0
10 22 13 7 21 8 -42 0
10 22 13 7 21 8 -44 0
10 22 13 7 21 8 -41 0
10 22 13 7 8 18 -43 0
10 22 13 7 8 18 -42 0
10 22 13 7 8 18 -44 0
10 22 13 7 8 18 -41 0
10 22 20 7 21 18 -43 0
10 22 20 7 21 18 -42 0
10 22 20 7 21 18 -44 0
10 22 20 7 21 18 -41 0
10 22 20 21 8 18 -43 0
10 22 20 21 8 18 -42 0
10 22 20 21 8 18 -44 0
10 22 20 21 8 18 -41 0
10 22 7 21 8 18 -43 0
10 22 7 21 8 18 -42 0
10 22 7 21 8 18 -44 0
10 22 7 21 8 18 -41 0
10 27 13 30 7 24 -48 0
10 27 13 30 7 24 -46 0
10 27 13 30 7 24 -47 0
10 27 13 30 7 24 -45 0
10 27 13 30 7 8 -48 0
10 27 13 30 7 8 -46 0
10 27 13 30 7 8 -47 0
10 27 13 30 7 8 -45 0
10 27 13 30 24 25 -48 0
10 27 13 30 24 25 -46 0
10 27 13 30 24 25 -47 0
10 27 13 30 24 25 -45 0
10 27 13 30 8 25 -48 0
10 27 13 30 8 25 -46 0
10 27 13 30 8 25 -47 0
10 27 13 30 8 25 -45 0
10 27 13 7 24 8 -48 0
10 27 13 7 24 8 -46 0
10 27 13 7 24 8 -47 0
10 27 13 7 24 8 -45 0
10 27 13 7 8 25 -48 0
10 27 13 7 8 25 -46 0
10 27 13 7 8 25 -47 0
10 27 13 7 8 25 -45 0
10 27 30 7 24 25 -48 0
10 27 30 7 24 25 -46 0
10 27 30 7 24 25 -47 0
10 27 30 7 24 25 -45 0
10 27 30 24 8 25 -48 0
10 27 30 24 8 25 -46 0
10 27 30 24 8 25 -47 0
10 27 30 24 8 25 -45 0
10 27 7 24 8 25 -48 0
10 27 7 24 8 25 -46 0
10 27 7 24 8 25 -47 0
10 27 7 24 8 25 -45 0
10 34 13 36 7 37 -50 0
10 34 13 36 7 37 -52 0
10 34 13 36 7 37 -49 0
10 34 13 36 7 37 -51 0
10 34 13 36 7 8 -50 0
10 34 13 36 7 8 -52 0
10 34 13 36 7 8 -49 0
10 34 13 36 7 8 -51 0
10 34 13 36 37 33 -50 0
10 34 13 36 37 33 -52 0
10 34 13 36 37 33 -49 0
10 34 13 36 37 33 -51 0
10 34 13 36 8 33 -50 0
10 34 13 36 8 33 -52 0
10 34 13 36 8 33 -49 0
10 34 13 36 8 33 -51 0
10 34 13 7 37 8 -50 0
10 34 13 7 37 8 -52 0
10 34 13 7 37 8 -49 0
10 34 13 7 37 8 -51 0
10 34 13 7 8 33 -50 0
10 34 13 7 8 33 -52 0
10 34 13 7 8 33 -49 0
10 34 13 7 8 33 -51 0
10 34 36 7 37 33 -50 0
10 34 36 7 37 33 -52 0
10 34 36 7 37 33 -49 0
10 34 36 7 37 33 -51 0
10 34 36 37 8 33 -50 0
10 34 36 37 8 33 -52 0
10 34 36 37 8 33 -49 0
10 34 36 37 8 33 -51 0
10 34 7 37 8 33 -50 0
10 34 7 37 8 33 -52 0
10 34 7 37 8 33 -49 0
10 34 7 37 8 33 -51 0
10 1 13 3 7 4 -9 0
10 1 13 3 7 4 -12 0
10 1 13 3 7 4 -14 0
10 1 13 3 7 4 -11 0
10 1 13 3 7 8 -9 0
10 1 13 3 7 8 -12 0
10 1 13 3 7 8 -14 0
10 1 13 3 7 8 -11 0
10 1 13 3 4 6 -9 0
10 1 13 3 4 6 -12 0
10 1 13 3 4 6 -14 0
10 1 13 3 4 6 -11 0
10 1 13 3 8 6 -9 0
10 1 13 3 8 6 -12 0
10 1 13 3 8 6 -14 0
10 1 13 3 8 6 -11 0
10 1 13 7 4 8 -9 0
10 1 13 7 4 8 -12 0
10 1 13 7 4 8 -14 0
10 1 13 7 4 8 -11 0
10 1 13 7 8 6 -9 0
10 1 13 7 8 6 -12 0
10 1 13 7 8 6 -14 0
10 1 13 7 8 6 -11 0
10 1 3 7 4 6 -9 0
10 1 3 7 4 6 -12 0
10 1 3 7 4 6 -14 0
10 1 3 7 4 6 -11 0
10 1 3 4 8 6 -9 0
10 1 3 4 8 6 -12 0
10 1 3 4 8 6 -14 0
10 1 3 4 8 6 -11 0
10 1 7 4 8 6 -9 0
10 1 7 4 8 6 -12 0
10 1 7 4 8 6 -14 0
10 1 7 4 8 6 -11 0
10 13 20 7 21 8 -43 0
10 13 20 7 21 8 -42 0
10 13 20 7 21 8 -44 0
10 13 20 7 21 8 -41 0
10 13 20 7 8 18 -43 0
10 13 20 7 8 18 -42 0
10 13 20 7 8 18 -44 0
10 13 20 7 8 18 -41 0
10 13 30 7 24 8 -48 0
10 13 30 7 24 8 -46 0
10 13 30 7 24 8 -47 0
10 13 30 7 24 8 -45 0
10 13 30 7 8 25 -48 0
10 13 30 7 8 25 -46 0
10 13 30 7 8 25 -47 0
10 13 30 7 8 25 -45 0
10 13 36 7 37 8 -50 0
10 13 36 7 37 8 -52 0
10 13 36 7 37 8 -49 0
10 13 36 7 37 8 -51 0
10 13 36 7 8 33 -50 0
10 13 36 7 8 33 -52 0
10 13 36 7 8 33 -49 0
10 13 36 7 8 33 -51 0
10 13 3 7 4 8 -9 0
10 13 3 7 4 8 -12 0
10 13 3 7 4 8 -14 0
10 13 3 7 4 8 -11 0
10 13 3 7 8 6 -9 0
10 13 3 7 8 6 -12 0
10 13 3 7 8 6 -14 0
10 13 3 7 8 6 -11 0
10 13 7 21 8 18 -43 0
10 13 7 21 8 18 -42 0
10 13 7 21 8 18 -44 0
10 13 7 21 8 18 -41 0
10 13 7 24 8 25 -48 0
10 13 7 24 8 25 -46 0
10 13 7 24 8 25 -47 0
10 13 7 24 8 25 -45 0
10 13 7 37 8 33 -50 0
10 13 7 37 8 33 -52 0
10 13 7 37 8 33 -49 0
10 13 7 37 8 33 -51 0
10 13 7 4 8 6 -9 0
10 13 7 4 8 6 -12 0
10 13 7 4 8 6 -14 0
10 13 7 4 8 6 -11 0
22 27 20 30 21 24 -58 0
22 27 20 30 21 24 -55 0
22 27 20 30 21 24 -57 0
22 27 20 30 21 24 -56 0
22 27 20 30 21 18 -58 0
22 27 20 30 21 18 -55 0
22 27 20 30 21 18 -57 0
22 27 20 30 21 18 -56 0
22 27 20 30 24 25 -58 0
22 27 20 30 24 25 -55 0
22 27 20 30 24 25 -57 0
22 27 20 30 24 25 -56 0
22 27 20 30 18 25 -58 0
22 27 20 30 18 25 -55 0
22 27 20 30 18 25 -57 0
22 27 20 30 18 25 -56 0
22 27 20 21 24 18 -58 0
22 27 20 21 24 18 -55 0
22 27 20 21 24 18 -57 0
22 27 20 21 24 18 -56 0
22 27 20 21 18 25 -58 0
22 27 20 21 18 25 -55 0
22 27 20 21 18 25 -57 0
22 27 20 21 18 25 -56 0
22 27 30 21 24 25 -58 0
22 27 30 21 24 25 -55 0
22 27 30 21 24 25 -57 0
22 27 30 21 24 25 -56 0
22 27 30 24 18 25 -58 0
22 27 30 24 18 25 -55 0
22 27 30 24 18 25 -57 0
22 27 30 24 18 25 -56 0
22 27 21 24 18 25 -58 0
22 27 21 24 18 25 -55 0
22 27 21 24 18 25 -57 0
22 27 21 24 18 25 -56 0
22 34 20 36 21 37 -59 0
22 34 20 36 21 37 -60 0
22 34 20 36 21 37 -62 0
22 34 20 36 21 37 -61 0
22 34 20 36 21 18 -59 0
22 34 20 36 21 18 -60 0
22 34 20 36 21 18 -62 0
22 34 20 36 21 18 -61 0
22 34 20 36 37 33 -59 0
22 34 20 36 37 33 -60 0
22 34 20 36 37 33 -62 0
22 34 20 36 37 33 -61 0
22 34 20 36 18 33 -59 0
22 34 20 36 18 33 -60 0
22 34 20 36 18 33 -62 0
22 34 20 36 18 33 -61 0
22 34 20 21 37 18 -59 0
22 34 20 21 37 18 -60 0
22 34 20 21 37 18 -62 0
22 34 20 21 37 18 -61 0
22 34 20 21 18 33 -59 0
22 34 20 21 18 33 -60 0
22 34 20 21 18 33 -62 0
22 34 20 21 18 33 -61 0
22 34 36 21 37 33 -59 0
22 34 36 21 37 33 -60 0
22 34 36 21 37 33 -62 0
22 34 36 21 37 33 -61 0
22 34 36 37 18 33 -59 0
22 34 36 37 18 33 -60 0
22 34 36 37 18 33 -62 0
22 34 36 37 18 33 -61 0
22 34 21 37 18 33 -59 0
22 34 21 37 18 33 -60 0
22 34 21 37 18 33 -62 0
22 34 21 37 18 33 -61 0
22 1 20 3 21 4 -19 0
22 1 20 3 21 4 -16 0
22 1 20 3 21 4 -17 0
22 1 20 3 21 4 -15 0
22 1 20 3 21 18 -19 0
22 1 20 3 21 18 -16 0
22 1 20 3 21 18 -17 0
22 1 20 3 21 18 -15 0
22 1 20 3 4 6 -19 0
22 1 20 3 4 6 -16 0
22 1 20 3 4 6 -17 0
22 1 20 3 4 6 -15 0
22 1 20 3 18 6 -19 0
22 1 20 3 18 6 -16 0
22 1 20 3 18 6 -17 0
22 1 20 3 18 6 -15 0
22 1 20 21 4 18 -19 0
22 1 20 21 4 18 -16 0
22 1 20 21 4 18 -17 0
22 1 20 21 4 18 -15 0
22 1 20 21 18 6 -19 0
22 1 20 21 18 6 -16 0
22 1 20 21 18 6 -17 0
22 1 20 21 18 6 -15 0
22 1 3 21 4 6 -19 0
22 1 3 21 4 6 -16 0
22 1 3 21 4 6 -17 0
22 1 3 21 4 6 -15 0
22 1 3 4 18 6 -19 0
22 1 3 4 18 6 -16 0
22 1 3 4 18 6 -17 0
22 1 3 4 18 6 -15 0
22 1 21 4 18 6 -19 0
22 1 21 4 18 6 -16 0
22 1 21 4 18 6 -17 0
22 1 21 4 18 6 -15 0
22 13 20 7 21 18 -43 0
22 13 20 7 21 18 -42 0
22 13 20 7 21 18 -44 0
22 13 20 7 21 18 -41 0
22 13 20 21 8 18 -43 0
22 13 20 21 8 18 -42 0
22 13 20 21 8 18 -44 0
22 13 20 21 8 18 -41 0
22 20 30 21 24 18 -58 0
22 20 30 21 24 18 -55 0
22 20 30 21 24 18 -57 0
22 20 30 21 24 18 -56 0
22 20 30 21 18 25 -58 0
22 20 30 21 18 25 -55 0
22 20 30 21 18 25 -57 0
22 20 30 21 18 25 -56 0
22 20 36 21 37 18 -59 0
22 20 36 21 37 18 -60 0
22 20 36 21 37 18 -62 0
22 20 36 21 37 18 -61 0
22 20 36 21 18 33 -59 0
22 20 36 21 18 33 -60 0
22 20 36 21 18 33 -62 0
22 20 36 21 18 33 -61 0
22 20 3 21 4 18 -19 0
22 20 3 21 4 18 -16 0
22 20 3 21 4 18 -17 0
22 20 3 21 4 18 -15 0
22 20 3 21 18 6 -19 0
22 20 3 21 18 6 -16 0
22 20 3 21 18 6 -17 0
22 20 3 21 18 6 -15 0
22 20 7 21 8 18 -43 0
22 20 7 21 8 18 -42 0
22 20 7 21 8 18 -44 0
22 20 7 21 8 18 -41 0
22 20 21 24 18 25 -58 0
22 20 21 24 18 25 -55 0
22 20 21 24 18 25 -57 0
22 20 21 24 18 25 -56 0
22 20 21 37 18 33 -59 0
22 20 21 37 18 33 -60 0
22 20 21 37 18 33 -62 0
22 20 21 37 18 33 -61 0
22 20 21 4 18 6 -19 0
22 20 21 4 18 6 -16 0
22 20 21 4 18 6 -17 0
22 20 21 4 18 6 -15 0
27 34 30 36 24 37 -68 0
27 34 30 36 24 37 -65 0
27 34 30 36 24 37 -66 0
27 34 30 36 24 37 -67 0
27 34 30 36 24 25 -68 0
27 34 30 36 24 25 -65 0
27 34 30 36 24 25 -66 0
27 34 30 36 24 25 -67 0
27 34 30 36 37 33 -68 0
27 34 30 36 37 33 -65 0
27 34 30 36 37 33 -66 0
27 34 30 36 37 33 -67 0
27 34 30 36 25 33 -68 0
27 34 30 36 25 33 -65 0
27 34 30 36 25 33 -66 0
27 34 30 36 25 33 -67 0
27 34 30 24 37 25 -68 0
27 34 30 24 37 25 -65 0
27 34 30 24 37 25 -66 0
27 34 30 24 37 25 -67 0
27 34 30 24 25 33 -68 0
27 34 30 24 25 33 -65 0
27 34 30 24 25 33 -66 0
27 34 30 24 25 33 -67 0
27 34 36 24 37 33 -68 0
27 34 36 24 37 33 -65 0
27 34 36 24 37 33 -66 0
27 34 36 24 37 33 -67 0
27 34 36 37 25 33 -68 0
27 34 36 37 25 33 -65 0
27 34 36 37 25 33 -66 0
27 34 36 37 25 33 -67 0
27 34 24 37 25 33 -68 0
27 34 24 37 25 33 -65 0
27 34 24 37 25 33 -66 0
27 34 24 37 25 33 -67 0
27 1 30 3 24 4 -28 0
27 1 30 3 24 4 -29 0
27 1 30 3 24 4 -26 0
27 1 30 3 24 4 -23 0
27 1 30 3 24 25 -28 0
27 1 30 3 24 25 -29 0
27 1 30 3 24 25 -26 0
27 1 30 3 24 25 -23 0
27 1 30 3 4 6 -28 0
27 1 30 3 4 6 -29 0
27 1 30 3 4 6 -26 0
27 1 30 3 4 6 -23 0
27 1 30 3 25 6 -28 0
27 1 30 3 25 6 -29 0
27 1 30 3 25 6 -26 0
27 1 30 3 25 6 -23 0
27 1 30 24 4 25 -28 0
27 1 30 24 4 25 -29 0
27 1 30 24 4 25 -26 0
27 1 30 24 4 25 -23 0
27 1 30 24 25 6 -28 0
27 1 30 24 25 6 -29 0
27 1 30 24 25 6 -26 0
27 1 30 24 25 6 -23 0
27 1 3 24 4 6 -28 0
27 1 3 24 4 6 -29 0
27 1 3 24 4 6 -26 0
27 1 3 24 4 6 -23 0
27 1 3 4 25 6 -28 0
27 1 3 4 25 6 -29 0
27 1 3 4 25 6 -26 0
27 1 3 4 25 6 -23 0
27 1 24 4 25 6 -28 0
27 1 24 4 25 6 -29 0
27 1 24 4 25 6 -26 0
27 1 24 4 25 6 -23 0
27 13 30 7 24 25 -48 0
27 13 30 7 24 25 -46 0
27 13 30 7 24 25 -47 0
27 13 30 7 24 25 -45 0
27 13 30 24 8 25 -48 0
27 13 30 24 8 25 -46 0
27 13 30 24 8 25 -47 0
27 13 30 24 8 25 -45 0
27 20 30 21 24 25 -58 0
27 20 30 21 24 25 -55 0
27 20 30 21 24 25 -57 0
27 20 30 21 24 25 -56 0
27 20 30 24 18 25 -58 0
27 20 30 24 18 25 -55 0
27 20 30 24 18 25 -57 0
27 20 30 24 18 25 -56 0
27 30 36 24 37 25 -68 0
27 30 36 24 37 25 -65 0
27 30 36 24 37 25 -66 0
27 30 36 24 37 25 -67 0
27 30 36 24 25 33 -68 0
27 30 36 24 25 33 -65 0
27 30 36 24 25 33 -66 0
27 30 36 24 25 33 -67 0
27 30 3 24 4 25 -28 0
27 30 3 24 4 25 -29 0
27 30 3 24 4 25 -26 0
27 30 3 24 4 25 -23 0
27 30 3 24 25 6 -28 0
27 30 3 24 25 6 -29 0
27 30 3 24 25 6 -26 0
27 30 3 24 25 6 -23 0
27 30 7 24 8 25 -48 0
27 30 7 24 8 25 -46 0
27 30 7 24 8 25 -47 0
27 30 7 24 8 25 -45 0
27 30 21 24 18 25 -58 0
27 30 21 24 18 25 -55 0
27 30 21 24 18 25 -57 0
27 30 21 24 18 25 -56 0
27 30 24 37 25 33 -68 0
27 30 24 37 25 33 -65 0
27 30 24 37 25 33 -66 0
27 30 24 37 25 33 -67 0
27 30 24 4 25 6 -28 0
27 30 24 4 25 6 -29 0
27 30 24 4 25 6 -26 0
27 30 24 4 25 6 -23 0
34 1 36 3 37 4 -35 0
34 1 36 3 37 4 -32 0
34 1 36 3 37 4 -38 0
34 1 36 3 37 4 -31 0
34 1 36 3 37 33 -35 0
34 1 36 3 37 33 -32 0
34 1 36 3 37 33 -38 0
34 1 36 3 37 33 -31 0
34 1 36 3 4 6 -35 0
34 1 36 3 4 6 -32 0
34 1 36 3 4 6 -38 0
34 1 36 3 4 6 -31 0
34 1 36 3 33 6 -35 0
34 1 36 3 33 6 -32 0
34 1 36 3 33 6 -38 0
34 1 36 3 33 6 -31 0
34 1 36 37 4 33 -35 0
34 1 36 37 4 33 -32 0
34 1 36 37 4 33 -38 0
34 1 36 37 4 33 -31 0
34 1 36 37 33 6 -35 0
34 1 36 37 33 6 -32 0
34 1 36 37 33 6 -38 0
34 1 36 37 33 6 -31 0
34 1 3 37 4 6 -35 0
34 1 3 37 4 6 -32 0
34 1 3 37 4 6 -38 0
34 1 3 37 4 6 -31 0
34 1 3 4 33 6 -35 0
34 1 3 4 33 6 -32 0
34 1 3 4 33 6 -38 0
34 1 3 4 33 6 -31 0
34 1 37 4 33 6 -35 0
34 1 37 4 33 6 -32 0
34 1 37 4 33 6 -38 0
34 1 37 4 33 6 -31 0
34 13 36 7 37 33 -50 0
34 13 36 7 37 33 -52 0
34 13 36 7 37 33 -49 0
34 13 36 7 37 33 -51 0
34 13 36 37 8 33 -50 0
34 13 36 37 8 33 -52 0
34 13 36 37 8 33 -49 0
34 13 36 37 8 33 -51 0
34 20 36 21 37 33 -59 0
34 20 36 21 37 33 -60 0
34 20 36 21 37 33 -62 0
34 20 36 21 37 33 -61 0
34 20 36 37 18 33 -59 0
34 20 36 37 18 33 -60 0
34 20 36 37 18 33 -62 0
34 20 36 37 18 33 -61 0
34 30 36 24 37 33 -68 0
34 30 36 24 37 33 -65 0
34 30 36 24 37 33 -66 0
34 30 36 24 37 33 -67 0
34 30 36 37 25 33 -68 0
34 30 36 37 25 33 -65 0
34 30 36 37 25 33 -66 0
34 30 36 37 25 33 -67 0
34 36 3 37 4 33 -35 0
34 36 3 37 4 33 -32 0
34 36 3 37 4 33 -38 0
34 36 3 37 4 33 -31 0
34 36 3 37 33 6 -35 0
34 36 3 37 33 6 -32 0
34 36 3 37 33 6 -38 0
34 36 3 37 33 6 -31 0
34 36 7 37 8 33 -50 0
34 36 7 37 8 33 -52 0
34 36 7 37 8 33 -49 0
34 36 7 37 8 33 -51 0
34 36 21 37 18 33 -59 0
34 36 21 37 18 33 -60 0
34 36 21 37 18 33 -62 0
34 36 21 37 18 33 -61 0
34 36 24 37 25 33 -68 0
34 36 24 37 25 33 -65 0
34 36 24 37 25 33 -66 0
34 36 24 37 25 33 -67 0
34 36 37 4 33 6 -35 0
34 36 37 4 33 6 -32 0
34 36 37 4 33 6 -38 0
34 36 37 4 33 6 -31 0
1 13 3 7 4 6 -9 0
1 13 3 7 4 6 -12 0
1 13 3 7 4 6 -14 0
1 13 3 7 4 6 -11 0
1 13 3 4 8 6 -9 0
1 13 3 4 8 6 -12 0
1 13 3 4 8 6 -14 0
1 13 3 4 8 6 -11 0
1 20 3 21 4 6 -19 0
1 20 3 21 4 6 -16 0
1 20 3 21 4 6 -17 0
1 20 3 21 4 6 -15 0
1 20 3 4 18 6 -19 0
1 20 3 4 18 6 -16 0
1 20 3 4 18 6 -17 0
1 20 3 4 18 6 -15 0
1 30 3 24 4 6 -28 0
1 30 3 24 4 6 -29 0
1 30 3 24 4 6 -26 0
1 30 3 24 4 6 -23 0
1 30 3 4 25 6 -28 0
1 30 3 4 25 6 -29 0
1 30 3 4 25 6 -26 0
1 30 3 4 25 6 -23 0
1 36 3 37 4 6 -35 0
1 36 3 37 4 6 -32 0
1 36 3 37 4 6 -38 0
1 36 3 37 4 6 -31 0
1 36 3 4 33 6 -35 0
1 36 3 4 33 6 -32 0
1 36 3 4 33 6 -38 0
1 36 3 4 33 6 -31 0
1 3 7 4 8 6 -9 0
1 3 7 4 8 6 -12 0
1 3 7 4 8 6 -14 0
1 3 7 4 8 6 -11 0
1 3 21 4 18 6 -19 0
1 3 21 4 18 6 -16 0
1 3 21 4 18 6 -17 0
1 3 21 4 18 6 -15 0
1 3 24 4 25 6 -28 0
1 3 24 4 25 6 -29 0
1 3 24 4 25 6 -26 0
1 3 24 4 25 6 -23 0
1 3 37 4 33 6 -35 0
1 3 37 4 33 6 -32 0
1 3 37 4 33 6 -38 0
1 3 37 4 33 6 -31 0
13 20 7 21 8 18 -43 0
13 20 7 21 8 18 -42 0
13 20 7 21 8 18 -44 0
13 20 7 21 8 18 -41 0
13 30 7 24 8 25 -48 0
13 30 7 24 8 25 -46 0
13 30 7 24 8 25 -47 0
13 30 7 24 8 25 -45 0
13 36 7 37 8 33 -50 0
13 36 7 37 8 33 -52 0
13 36 7 37 8 33 -49 0
13 36 7 37 8 33 -51 0
13 3 7 4 8 6 -9 0
13 3 7 4 8 6 -12 0
13 3 7 4 8 6 -14 0
13 3 7 4 8 6 -11 0
20 30 21 24 18 25 -58 0
20 30 21 24 18 25 -55 0
20 30 21 24 18 25 -57 0
20 30 21 24 18 25 -56 0
20 36 21 37 18 33 -59 0
20 36 21 37 18 33 -60 0
20 36 21 37 18 33 -62 0
20 36 21 37 18 33 -61 0
20 3 21 4 18 6 -19 0
20 3 21 4 18 6 -16 0
20 3 21 4 18 6 -17 0
20 3 21 4 18 6 -15 0
30 36 24 37 25 33 -68 0
30 36 24 37 25 33 -65 0
30 36 24 37 25 33 -66 0
30 36 24 37 25 33 -67 0
30 3 24 4 25 6 -28 0
30 3 24 4 25 6 -29 0
30 3 24 4 25 6 -26 0
30 3 24 4 25 6 -23 0
36 3 37 4 33 6 -35 0
36 3 37 4 33 6 -32 0
36 3 37 4 33 6 -38 0
36 3 37 4 33 6 -31 0
10 22 13 20 7 21 8 -43 0
10 22 13 20 7 21 8 -42 0
10 22 13 20 7 21 8 -44 0
10 22 13 20 7 21 8 -41 0
10 22 13 20 7 21 18 -43 0
10 22 13 20 7 21 18 -42 0
10 22 13 20 7 21 18 -44 0
10 22 13 20 7 21 18 -41 0
10 22 13 20 7 8 18 -43 0
10 22 13 20 7 8 18 -42 0
10 22 13 20 7 8 18 -44 0
10 22 13 20 7 8 18 -41 0
10 22 13 20 21 8 18 -43 0
10 22 13 20 21 8 18 -42 0
10 22 13 20 21 8 18 -44 0
10 22 13 20 21 8 18 -41 0
10 22 13 7 21 8 18 -43 0
10 22 13 7 21 8 18 -42 0
10 22 13 7 21 8 18 -44 0
10 22 13 7 21 8 18 -41 0
10 22 20 7 21 8 18 -43 0
10 22 20 7 21 8 18 -42 0
10 22 20 7 21 8 18 -44 0
10 22 20 7 21 8 18 -41 0
10 27 13 30 7 24 8 -48 0
10 27 13 30 7 24 8 -46 0
10 27 13 30 7 24 8 -47 0
10 27 13 30 7 24 8 -45 0
10 27 13 30 7 24 25 -48 0
10 27 13 30 7 24 25 -46 0
10 27 13 30 7 24 25 -47 0
10 27 13 30 7 24 25 -45 0
10 27 13 30 7 8 25 -48 0
10 27 13 30 7 8 25 -46 0
10 27 13 30 7 8 25 -47 0
10 27 13 30 7 8 25 -45 0
10 27 13 30 24 8 25 -48 0
10 27 13 30 24 8 25 -46 0
10 27 13 30 24 8 25 -47 0
10 27 13 30 24 8 25 -45 0
10 27 13 7 24 8 25 -48 0
10 27 13 7 24 8 25 -46 0
10 27 13 7 24 8 25 -47 0
10 27 13 7 24 8 25 -45 0
10 27 30 7 24 8 25 -48 0
10 27 30 7 24 8 25 -46 0
10 27 30 7 24 8 25 -47 0
10 27 30 7 24 8 25 -45 0
10 34 13 36 7 37 8 -50 0
10 34 13 36 7 37 8 -52 0
10 34 13 36 7 37 8 -49 0
10 34 13 36 7 37 8 -51 0
10 34 13 36 7 37 33 -50 0
10 34 13 36 7 37 33 -52 0
10 34 13 36 7 37 33 -49 0
10 34 13 36 7 37 33 -51 0
10 34 13 36 7 8 33 -50 0
10 34 13 36 7 8 33 -52 0
10 34 13 36 7 8 33 -49 0
10 34 13 36 7 8 33 -51 0
10 34 13 36 37 8 33 -50 0
10 34 13 36 37 8 33 -52 0
10 34 13 36 37 8 33 -49 0
10 34 13 36 37 8 33 -51 0
10 34 13 7 37 8 33 -50 0
10 34 13 7 37 8 33 -52 0
10 34 13 7 37 8 33 -49 0
10 34 13 7 37 8 33 -51 0
10 34 36 7 37 8 33 -50 0
10 34 36 7 37 8 33 -52 0
10 34 36 7 37 8 33 -49 0
10 34 36 7 37 8 33 -51 0
10 1 13 3 7 4 8 -9 0
10 1 13 3 7 4 8 -12 0
10 1 13 3 7 4 8 -14 0
10 1 13 3 7 4 8 -11 0
10 1 13 3 7 4 6 -9 0
10 1 13 3 7 4 6 -12 0
10 1 13 3 7 4 6 -14 0
10 1 13 3 7 4 6 -11 0
10 1 13 3 7 8 6 -9 0
10 1 13 3 7 8 6 -12 0
10 1 13 3 7 8 6 -14 0
10 1 13 3 7 8 6 -11 0
10 1 13 3 4 8 6 -9 0
10 1 13 3 4 8 6 -12 0
10 1 13 3 4 8 6 -14 0
10 1 13 3 4 8 6 -11 0
10 1 13 7 4 8 6 -9 0
10 1 13 7 4 8 6 -12 0
10 1 13 7 4 8 6 -14 0
10 1 13 7 4 8 6 -11 0
10 1 3 7 4 8 6 -9 0
10 1 3 7 4 8 6 -12 0
10 1 3 7 4 8 6 -14 0
10 1 3 7 4 8 6 -11 0
10 13 20 7 21 8 18 -43 0
10 13 20 7 21 8 18 -42 0
10 13 20 7 21 8 18 -44 0
10 13 20 7 21 8 18 -41 0
10 13 30 7 24 8 25 -48 0
10 13 30 7 24 8 25 -46 0
10 13 30 7 24 8 25 -47 0
10 13 30 7 24 8 25 -45 0
10 13 36 7 37 8 33 -50 0
10 13 36 7 37 8 33 -52 0
10 13 36 7 37 8 33 -49 0
10 13 36 7 37 8 33 -51 0
10 13 3 7 4 8 6 -9 0
10 13 3 7 4 8 6 -12 0
10 13 3 7 4 8 6 -14 0
10 13 3 7 4 8 6 -11 0
22 27 20 30 21 24 18 -58 0
22 27 20 30 21 24 18 -55 0
22 27 20 30 21 24 18 -57 0
22 27 20 30 21 24 18 -56 0
22 27 20 30 21 24 25 -58 0
22 27 20 30 21 24 25 -55 0
22 27 20 30 21 24 25 -57 0
22 27 20 30 21 24 25 -56 0
22 27 20 30 21 18 25 -58 0
22 27 20 30 21 18 25 -55 0
22 27 20 30 21 18 25 -57 0
22 27 20 30 21 18 25 -56 0
22 27 20 30 24 18 25 -58 0
22 27 20 30 24 18 25 -55 0
22 27 20 30 24 18 25 -57 0
22 27 20 30 24 18 25 -56 0
22 27 20 21 24 18 25 -58 0
22 27 20 21 24 18 25 -55 0
22 27 20 21 24 18 25 -57 0
22 27 20 21 24 18 25 -56 0
22 27 30 21 24 18 25 -58 0
22 27 30 21 24 18 25 -55 0
22 27 30 21 24 18 25 -57 0
22 27 30 21 24 18 25 -56 0
22 34 20 36 21 37 18 -59 0
22 34 20 36 21 37 18 -60 0
22 34 20 36 21 37 18 -62 0
22 34 20 36 21 37 18 -61 0
22 34 20 36 21 37 33 -59 0
22 34 20 36 21 37 33 -60 0
22 34 20 36 21 37 33 -62 0
22 34 20 36 21 37 33 -61 0
22 34 20 36 21 18 33 -59 0
22 34 20 36 21 18 33 -60 0
22 34 20 36 21 18 33 -62 0
22 34 20 36 21 18 33 -61 0
22 34 20 36 37 18 33 -59 0
22 34 20 36 37 18 33 -60 0
22 34 20 36 37 18 33 -62 0
22 34 20 36 37 18 33 -61 0
22 34 20 21 37 18 33 -59 0
22 34 20 21 37 18 33 -60 0
22 34 20 21 37 18 33 -62 0
22 34 20 21 37 18 33 -61 0
22 34 36 21 37 18 33 -59 0
22 34 36 21 37 18 33 -60 0
22 34 36 21 37 18 33 -62 0
22 34 36 21 37 18 33 -61 0
22 1 20 3 21 4 18 -19 0
22 1 20 3 21 4 18 -16 0
22 1 20 3 21 4 18 -17 0
22 1 20 3 21 4 18 -15 0
22 1 20 3 21 4 6 -19 0
22 1 20 3 21 4 6 -16 0
22 1 20 3 21 4 6 -17 0
22 1 20 3 21 4 6 -15 0
22 1 20 3 21 18 6 -19 0
22 1 20 3 21 18 6 -16 0
22 1 20 3 21 18 6 -17 0
22 1 20 3 21 18 6 -15 0
22 1 20 3 4 18 6 -19 0
22 1 20 3 4 18 6 -16 0
22 1 20 3 4 18 6 -17 0
22 1 20 3 4 18 6 -15 0
22 1 20 21 4 18 6 -19 0
22 1 20 21 4 18 6 -16 0
22 1 20 21 4 18 6 -17 0
22 1 20 21 4 18 6 -15 0
22 1 3 21 4 18 6 -19 0
22 1 3 21 4 18 6 -16 0
22 1 3 21 4 18 6 -17 0
22 1 3 21 4 18 6 -15 0
22 13 20 7 21 8 18 -43 0
22 13 20 7 21 8 18 -42 0
22 13 20 7 21 8 18 -44 0
22 13 20 7 21 8 18 -41 0
22 20 30 21 24 18 25 -58 0
22 20 30 21 24 18 25 -55 0
22 20 30 21 24 18 25 -57 0
22 20 30 21 24 18 25 -56 0
22 20 36 21 37 18 33 -59 0
22 20 36 21 37 18 33 -60 0
22 20 36 21 37 18 33 -62 0
22 20 36 21 37 18 33 -61 0
22 20 3 21 4 18 6 -19 0
22 20 3 21 4 18 6 -16 0
22 20 3 21 4 18 6 -17 0
22 20 3 21 4 18 6 -15 0
27 34 30 36 24 37 25 -68 0
27 34 30 36 24 37 25 -65 0
27 34 30 36 24 37 25 -66 0
27 34 30 36 24 37 25 -67 0
27 34 30 36 24 37 33 -68 0
27 34 30 36 24 37 33 -65 0
27 34 30 36 24 37 33 -66 0
27 34 30 36 24 37 33 -67 0
27 34 30 36 24 25 33 -68 0
27 34 30 36 24 25 33 -65 0
27 34 30 36 24 25 33 -66 0
27 34 30 36 24 25 33 -67 0
27 34 30 36 37 25 33 -68 0
27 34 30 36 37 25 33 -65 0
27 34 30 36 37 25 33 -66 0
27 34 30 36 37 25 33 -67 0
27 34 30 24 37 25 33 -68 0
27 34 30 24 37 25 33 -65 0
27 34 30 24 37 25 33 -66 0
27 34 30 24 37 25 33 -67 0
27 34 36 24 37 25 33 -68 0
27 34 36 24 37 25 33 -65 0
27 34 36 24 37 25 33 -66 0
27 34 36 24 37 25 33 -67 0
27 1 30 3 24 4 25 -28 0
27 1 30 3 24 4 25 -29 0
27 1 30 3 24 4 25 -26 0
27 1 30 3 24 4 25 -23 0
27 1 30 3 24 4 6 -28 0
27 1 30 3 24 4 6 -29 0
27 1 30 3 24 4 6 -26 0
27 1 30 3 24 4 6 -23 0
27 1 30 3 24 25 6 -28 0
27 1 30 3 24 25 6 -29 0
27 1 30 3 24 25 6 -26 0
27 1 30 3 24 25 6 -23 0
27 1 30 3 4 25 6 -28 0
27 1 30 3 4 25 6 -29 0
27 1 30 3 4 25 6 -26 0
27 1 30 3 4 25 6 -23 0
27 1 30 24 4 25 6 -28 0
27 1 30 24 4 25 6 -29 0
27 1 30 24 4 25 6 -26 0
27 1 30 24 4 25 6 -23 0
27 1 3 24 4 25 6 -28 0
27 1 3 24 4 25 6 -29 0
27 1 3 24 4 25 6 -26 0
27 1 3 24 4 25 6 -23 0
27 13 30 7 24 8 25 -48 0
27 13 30 7 24 8 25 -46 0
27 13 30 7 24 8 25 -47 0
27 13 30 7 24 8 25 -45 0
27 20 30 21 24 18 25 -58 0
27 20 30 21 24 18 25 -55 0
27 20 30 21 24 18 25 -57 0
27 20 30 21 24 18 25 -56 0
27 30 36 24 37 25 33 -68 0
27 30 36 24 37 25 33 -65 0
27 30 36 24 37 25 33 -66 0
27 30 36 24 37 25 33 -67 0
27 30 3 24 4 25 6 -28 0
27 30 3 24 4 25 6 -29 0
27 30 3 24 4 25 6 -26 0
27 30 3 24 4 25 6 -23 0
34 1 36 3 37 4 33 -35 0
34 1 36 3 37 4 33 -32 0
34 1 36 3 37 4 33 -38 0
34 1 36 3 37 4 33 -31 0
34 1 36 3 37 4 6 -35 0
34 1 36 3 37 4 6 -32 0
34 1 36 3 37 4 6 -38 0
34 1 36 3 37 4 6 -31 0
34 1 36 3 37 33 6 -35 0
34 1 36 3 37 33 6 -32 0
34 1 36 3 37 33 6 -38 0
34 1 36 3 37 33 6 -31 0
34 1 36 3 4 33 6 -35 0
34 1 36 3 4 33 6 -32 0
34 1 36 3 4 33 6 -38 0
34 1 36 3 4 33 6 -31 0
34 1 36 37 4 33 6 -35 0
34 1 36 37 4 33 6 -32 0
34 1 36 37 4 33 6 -38 0
34 1 36 37 4 33 6 -31 0
34 1 3 37 4 33 6 -35 0
34 1 3 37 4 33 6 -32 0
34 1 3 37 4 33 6 -38 0
34 1 3 37 4 33 6 -31 0
34 13 36 7 37 8 33 -50 0
34 13 36 7 37 8 33 -52 0
34 13 36 7 37 8 33 -49 0
34 13 36 7 37 8 33 -51 0
34 20 36 21 37 18 33 -59 0
34 20 36 21 37 18 33 -60 0
34 20 36 21 37 18 33 -62 0
34 20 36 21 37 18 33 -61 0
34 30 36 24 37 25 33 -68 0
34 30 36 24 37 25 33 -65 0
34 30 36 24 37 25 33 -66 0
34 30 36 24 37 25 33 -67 0
34 36 3 37 4 33 6 -35 0
34 36 3 37 4 33 6 -32 0
34 36 3 37 4 33 6 -38 0
34 36 3 37 4 33 6 -31 0
1 13 3 7 4 8 6 -9 0
1 13 3 7 4 8 6 -12 0
1 13 3 7 4 8 6 -14 0
1 13 3 7 4 8 6 -11 0
1 20 3 21 4 18 6 -19 0
1 20 3 21 4 18 6 -16 0
1 20 3 21 4 18 6 -17 0
1 20 3 21 4 18 6 -15 0
1 30 3 24 4 25 6 -28 0
1 30 3 24 4 25 6 -29 0
1 30 3 24 4 25 6 -26 0
1 30 3 24 4 25 6 -23 0
1 36 3 37 4 33 6 -35 0
1 36 3 37 4 33 6 -32 0
1 36 3 37 4 33 6 -38 0
1 36 3 37 4 33 6 -31 0
10 22 13 20 7 21 8 18 -43 0
10 22 13 20 7 21 8 18 -42 0
10 22 13 20 7 21 8 18 -44 0
10 22 13 20 7 21 8 18 -41 0
10 27 13 30 7 24 8 25 -48 0
10 27 13 30 7 24 8 25 -46 0
10 27 13 30 7 24 8 25 -47 0
10 27 13 30 7 24 8 25 -45 0
10 34 13 36 7 37 8 33 -50 0
10 34 13 36 7 37 8 33 -52 0
10 34 13 36 7 37 8 33 -49 0
10 34 13 36 7 37 8 33 -51 0
10 1 13 3 7 4 8 6 -9 0
10 1 13 3 7 4 8 6 -12 0
10 1 13 3 7 4 8 6 -14 0
10 1 13 3 7 4 8 6 -11 0
22 27 20 30 21 24 18 25 -58 0
22 27 20 30 21 24 18 25 -55 0
22 27 20 30 21 24 18 25 -57 0
22 27 20 30 21 24 18 25 -56 0
22 34 20 36 21 37 18 33 -59 0
22 34 20 36 21 37 18 33 -60 0
22 34 20 36 21 37 18 33 -62 0
22 34 20 36 21 37 18 33 -61 0
22 1 20 3 21 4 18 6 -19 0
22 1 20 3 21 4 18 6 -16 0
22 1 20 3 21 4 18 6 -17 0
22 1 20 3 21 4 18 6 -15 0
27 34 30 36 24 37 25 33 -68 0
27 34 30 36 24 37 25 33 -65 0
27 34 30 36 24 37 25 33 -66 0
27 34 30 36 24 37 25 33 -67 0
27 1 30 3 24 4 25 6 -28 0
27 1 30 3 24 4 25 6 -29 0
27 1 30 3 24 4 25 6 -26 0
27 1 30 3 24 4 25 6 -23 0
34 1 36 3 37 4 33 6 -35 0
34 1 36 3 37 4 33 6 -32 0
34 1 36 3 37 4 33 6 -38 0
34 1 36 3 37 4 33 6 -31 0
