c E1(0,0) U3(0) E2(0,0) U4(0) U2(0) U1(0) E1(0,1) U3(1) U4(1) E1(1,0) U1(1) E2(1,0) E2(0,1) U2(1) U1(3) E2(0,3) E1(0,3) U3(3) E2(3,0) U2(3) U4(3) E1(3,0) E1(0,2) E1(2,0) U4(2) E2(0,2) U1(2) U3(2) U2(2) E2(2,0) U4(4) E2(0,4) U1(4) E1(0,4) U2(4) U3(4) E2(4,0) E1(4,0) E2(5,0) E1(0,5) U4(5) U2(5) E2(0,5) U1(5) U3(5) E1(5,0) E1(1,1) E2(1,1) E1(1,3) E2(1,3) E1(3,1) E2(3,1) E2(2,1) E2(1,2) E1(1,2) E1(2,1) E1(4,1) E1(1,4) E2(1,4) E2(4,1) E1(1,5) E1(5,1) E2(1,5) E2(5,1) E2(3,3) E1(3,3) E2(2,3) E1(2,3) E1(3,2) E2(3,2) E2(3,4) E1(4,3) E1(3,4) E2(4,3) E2(5,3) E2(3,5) E1(3,5) E1(5,3) E1(2,2) E2(2,2) E1(2,4) E2(2,4) E1(4,2) E2(4,2) E1(2,5) E2(5,2) E1(5,2) E2(2,5) E2(4,4) E1(4,4) E1(4,5) E2(4,5) E1(5,4) E2(5,4) E2(5,5) E1(5,5)
c 1 2 3 4 5 6 7 8 9 10 11 12 13 14 15 16 17 18 19 20 21 22 23 24 25 26 27 28 29 30 31 32 33 34 35 36 37 38 39 40 41 42 43 44 45 46 47 48 49 50 51 52 53 54 55 56 57 58 59 60 61 62 63 64 65 66 67 68 69 70 71 72 73 74 75 76 77 78 79 80 81 82 83 84 85 86 87 88 89 90 91 92 93 94 95 96
p cnf 96 2322
-1 0
-47 0
-79 0
-66 0
-90 0
-96 0
-3 0
-48 0
-80 0
-65 0
-89 0
-95 0
-1 -3 0
-7 -10 0
-7 -13 0
-7 -12 0
-23 -24 0
-23 -26 0
-23 -30 0
-17 -22 0
-17 -16 0
-17 -19 0
-34 -38 0
-34 -32 0
-34 -37 0
-40 -46 0
-40 -43 0
-40 -39 0
-10 -13 0
-10 -12 0
-47 -48 0
-55 -56 0
-55 -54 0
-55 -53 0
-49 -51 0
-49 -50 0
-49 -52 0
-58 -57 0
-58 -59 0
-58 -60 0
-61 -62 0
-61 -63 0
-61 -64 0
-24 -26 0
-24 -30 0
-56 -54 0
-56 -53 0
-79 -80 0
-68 -69 0
-68 -67 0
-68 -70 0
-81 -83 0
-81 -82 0
-81 -84 0
-85 -87 0
-85 -88 0
-85 -86 0
-22 -16 0
-22 -19 0
-51 -50 0
-51 -52 0
-69 -67 0
-69 -70 0
-66 -65 0
-73 -72 0
-73 -71 0
-73 -74 0
-77 -78 0
-77 -76 0
-77 -75 0
-38 -32 0
-38 -37 0
-57 -59 0
-57 -60 0
-83 -82 0
-83 -84 0
-72 -71 0
-72 -74 0
-90 -89 0
-91 -93 0
-91 -92 0
-91 -94 0
-46 -43 0
-46 -39 0
-62 -63 0
-62 -64 0
-87 -88 0
-87 -86 0
-78 -76 0
-78 -75 0
-93 -92 0
-93 -94 0
-96 -95 0
-13 -12 0
-26 -30 0
-16 -19 0
-32 -37 0
-43 -39 0
-54 -53 0
-50 -52 0
-59 -60 0
-63 -64 0
-67 -70 0
-82 -84 0
-88 -86 0
-71 -74 0
-76 -75 0
-92 -94 0
-6 -5 0
-6 -2 0
-6 -4 0
-11 -14 0
-11 -8 0
-11 -9 0
-27 -29 0
-27 -28 0
-27 -25 0
-15 -20 0
-15 -18 0
-15 -21 0
-33 -35 0
-33 -36 0
-33 -31 0
-44 -42 0
-44 -45 0
-44 -41 0
-5 -2 0
-5 -4 0
-14 -8 0
-14 -9 0
-29 -28 0
-29 -25 0
-20 -18 0
-20 -21 0
-35 -36 0
-35 -31 0
-42 -45 0
-42 -41 0
-2 -4 0
-8 -9 0
-28 -25 0
-18 -21 0
-36 -31 0
-45 -41 0
6 5 2 4 0
11 14 8 9 0
27 29 28 25 0
15 20 18 21 0
33 35 36 31 0
44 42 45 41 0
6 5 2 -1 0
6 5 2 -3 0
6 5 4 -1 0
6 5 4 -3 0
6 2 4 -1 0
6 2 4 -3 0
11 14 8 -47 0
11 14 8 -48 0
11 14 9 -47 0
11 14 9 -48 0
11 8 9 -47 0
11 8 9 -48 0
27 29 28 -79 0
27 29 28 -80 0
27 29 25 -79 0
27 29 25 -80 0
27 28 25 -79 0
27 28 25 -80 0
15 20 18 -66 0
15 20 18 -65 0
15 20 21 -66 0
15 20 21 -65 0
15 18 21 -66 0
15 18 21 -65 0
33 35 36 -90 0
33 35 36 -89 0
33 35 31 -90 0
33 35 31 -89 0
33 36 31 -90 0
33 36 31 -89 0
44 42 45 -96 0
44 42 45 -95 0
44 42 41 -96 0
44 42 41 -95 0
44 45 41 -96 0
44 45 41 -95 0
5 2 4 -1 0
5 2 4 -3 0
14 8 9 -47 0
14 8 9 -48 0
29 28 25 -79 0
29 28 25 -80 0
20 18 21 -66 0
20 18 21 -65 0
35 36 31 -90 0
35 36 31 -89 0
42 45 41 -96 0
42 45 41 -95 0
6 5 2 4 -1 0
6 5 2 4 -7 0
6 5 2 4 -23 0
6 5 2 4 -17 0
6 5 2 4 -34 0
6 5 2 4 -40 0
6 5 2 4 -10 0
6 5 2 4 -24 0
6 5 2 4 -22 0
6 5 2 4 -38 0
6 5 2 4 -46 0
6 5 2 4 -3 0
6 5 2 4 -13 0
6 5 2 4 -26 0
6 5 2 4 -16 0
6 5 2 4 -32 0
6 5 2 4 -43 0
6 5 2 4 -12 0
6 5 2 4 -30 0
6 5 2 4 -19 0
6 5 2 4 -37 0
6 5 2 4 -39 0
11 14 8 9 -7 0
11 14 8 9 -10 0
11 14 8 9 -47 0
11 14 8 9 -55 0
11 14 8 9 -49 0
11 14 8 9 -58 0
11 14 8 9 -61 0
11 14 8 9 -56 0
11 14 8 9 -51 0
11 14 8 9 -57 0
11 14 8 9 -62 0
11 14 8 9 -13 0
11 14 8 9 -12 0
11 14 8 9 -48 0
11 14 8 9 -54 0
11 14 8 9 -50 0
11 14 8 9 -59 0
11 14 8 9 -63 0
11 14 8 9 -53 0
11 14 8 9 -52 0
11 14 8 9 -60 0
11 14 8 9 -64 0
27 29 28 25 -23 0
27 29 28 25 -55 0
27 29 28 25 -24 0
27 29 28 25 -56 0
27 29 28 25 -79 0
27 29 28 25 -68 0
27 29 28 25 -81 0
27 29 28 25 -85 0
27 29 28 25 -69 0
27 29 28 25 -83 0
27 29 28 25 -87 0
27 29 28 25 -26 0
27 29 28 25 -54 0
27 29 28 25 -30 0
27 29 28 25 -53 0
27 29 28 25 -80 0
27 29 28 25 -67 0
27 29 28 25 -82 0
27 29 28 25 -88 0
27 29 28 25 -70 0
27 29 28 25 -84 0
27 29 28 25 -86 0
15 20 18 21 -17 0
15 20 18 21 -49 0
15 20 18 21 -68 0
15 20 18 21 -22 0
15 20 18 21 -51 0
15 20 18 21 -69 0
15 20 18 21 -66 0
15 20 18 21 -73 0
15 20 18 21 -77 0
15 20 18 21 -72 0
15 20 18 21 -78 0
15 20 18 21 -16 0
15 20 18 21 -50 0
15 20 18 21 -67 0
15 20 18 21 -19 0
15 20 18 21 -52 0
15 20 18 21 -70 0
15 20 18 21 -65 0
15 20 18 21 -71 0
15 20 18 21 -76 0
15 20 18 21 -74 0
15 20 18 21 -75 0
33 35 36 31 -34 0
33 35 36 31 -58 0
33 35 36 31 -81 0
33 35 36 31 -73 0
33 35 36 31 -38 0
33 35 36 31 -57 0
33 35 36 31 -83 0
33 35 36 31 -72 0
33 35 36 31 -90 0
33 35 36 31 -91 0
33 35 36 31 -93 0
33 35 36 31 -32 0
33 35 36 31 -59 0
33 35 36 31 -82 0
33 35 36 31 -71 0
33 35 36 31 -37 0
33 35 36 31 -60 0
33 35 36 31 -84 0
33 35 36 31 -74 0
33 35 36 31 -89 0
33 35 36 31 -92 0
33 35 36 31 -94 0
44 42 45 41 -40 0
44 42 45 41 -61 0
44 42 45 41 -85 0
44 42 45 41 -77 0
44 42 45 41 -91 0
44 42 45 41 -46 0
44 42 45 41 -62 0
44 42 45 41 -87 0
44 42 45 41 -78 0
44 42 45 41 -93 0
44 42 45 41 -96 0
44 42 45 41 -43 0
44 42 45 41 -63 0
44 42 45 41 -88 0
44 42 45 41 -76 0
44 42 45 41 -92 0
44 42 45 41 -39 0
44 42 45 41 -64 0
44 42 45 41 -86 0
44 42 45 41 -75 0
44 42 45 41 -94 0
44 42 45 41 -95 0
1 7 23 17 34 40 0
10 47 55 49 58 61 0
24 56 79 68 81 85 0
22 51 69 66 73 77 0
38 57 83 72 90 91 0
46 62 87 78 93 96 0
3 13 26 16 32 43 0
12 48 54 50 59 63 0
30 53 80 67 82 88 0
19 52 70 65 71 76 0
37 60 84 74 89 92 0
39 64 86 75 94 95 0
6 11 5 2 4 -7 0
6 11 5 2 4 -10 0
6 11 5 2 4 -13 0
6 11 5 2 4 -12 0
6 11 14 8 9 -7 0
6 11 14 8 9 -10 0
6 11 14 8 9 -13 0
6 11 14 8 9 -12 0
6 27 5 2 4 -23 0
6 27 5 2 4 -24 0
6 27 5 2 4 -26 0
6 27 5 2 4 -30 0
6 27 29 28 25 -23 0
6 27 29 28 25 -24 0
6 27 29 28 25 -26 0
6 27 29 28 25 -30 0
6 15 5 2 4 -17 0
6 15 5 2 4 -22 0
6 15 5 2 4 -16 0
6 15 5 2 4 -19 0
6 15 20 18 21 -17 0
6 15 20 18 21 -22 0
6 15 20 18 21 -16 0
6 15 20 18 21 -19 0
6 33 5 2 4 -34 0
6 33 5 2 4 -38 0
6 33 5 2 4 -32 0
6 33 5 2 4 -37 0
6 33 35 36 31 -34 0
6 33 35 36 31 -38 0
6 33 35 36 31 -32 0
6 33 35 36 31 -37 0
6 44 5 2 4 -40 0
6 44 5 2 4 -46 0
6 44 5 2 4 -43 0
6 44 5 2 4 -39 0
6 44 42 45 41 -40 0
6 44 42 45 41 -46 0
6 44 42 45 41 -43 0
6 44 42 45 41 -39 0
6 5 14 2 4 -7 0
6 5 14 2 4 -10 0
6 5 14 2 4 -13 0
6 5 14 2 4 -12 0
6 5 29 2 4 -23 0
6 5 29 2 4 -24 0
6 5 29 2 4 -26 0
6 5 29 2 4 -30 0
6 5 20 2 4 -17 0
6 5 20 2 4 -22 0
6 5 20 2 4 -16 0
6 5 20 2 4 -19 0
6 5 35 2 4 -34 0
6 5 35 2 4 -38 0
6 5 35 2 4 -32 0
6 5 35 2 4 -37 0
6 5 42 2 4 -40 0
6 5 42 2 4 -46 0
6 5 42 2 4 -43 0
6 5 42 2 4 -39 0
6 5 2 8 4 -7 0
6 5 2 8 4 -10 0
6 5 2 8 4 -13 0
6 5 2 8 4 -12 0
6 5 2 28 4 -23 0
6 5 2 28 4 -24 0
6 5 2 28 4 -26 0
6 5 2 28 4 -30 0
6 5 2 18 4 -17 0
6 5 2 18 4 -22 0
6 5 2 18 4 -16 0
6 5 2 18 4 -19 0
6 5 2 36 4 -34 0
6 5 2 36 4 -38 0
6 5 2 36 4 -32 0
6 5 2 36 4 -37 0
6 5 2 45 4 -40 0
6 5 2 45 4 -46 0
6 5 2 45 4 -43 0
6 5 2 45 4 -39 0
6 5 2 4 9 -7 0
6 5 2 4 9 -10 0
6 5 2 4 9 -13 0
6 5 2 4 9 -12 0
6 5 2 4 25 -23 0
6 5 2 4 25 -24 0
6 5 2 4 25 -26 0
6 5 2 4 25 -30 0
6 5 2 4 21 -17 0
6 5 2 4 21 -22 0
6 5 2 4 21 -16 0
6 5 2 4 21 -19 0
6 5 2 4 31 -34 0
6 5 2 4 31 -38 0
6 5 2 4 31 -32 0
6 5 2 4 31 -37 0
6 5 2 4 41 -40 0
6 5 2 4 41 -46 0
6 5 2 4 41 -43 0
6 5 2 4 41 -39 0
11 27 14 8 9 -55 0
11 27 14 8 9 -56 0
11 27 14 8 9 -54 0
11 27 14 8 9 -53 0
11 27 29 28 25 -55 0
11 27 29 28 25 -56 0
11 27 29 28 25 -54 0
11 27 29 28 25 -53 0
11 15 14 8 9 -49 0
11 15 14 8 9 -51 0
11 15 14 8 9 -50 0
11 15 14 8 9 -52 0
11 15 20 18 21 -49 0
11 15 20 18 21 -51 0
11 15 20 18 21 -50 0
11 15 20 18 21 -52 0
11 33 14 8 9 -58 0
11 33 14 8 9 -57 0
11 33 14 8 9 -59 0
11 33 14 8 9 -60 0
11 33 35 36 31 -58 0
11 33 35 36 31 -57 0
11 33 35 36 31 -59 0
11 33 35 36 31 -60 0
11 44 14 8 9 -61 0
11 44 14 8 9 -62 0
11 44 14 8 9 -63 0
11 44 14 8 9 -64 0
11 44 42 45 41 -61 0
11 44 42 45 41 -62 0
11 44 42 45 41 -63 0
11 44 42 45 41 -64 0
11 5 14 8 9 -7 0
11 5 14 8 9 -10 0
11 5 14 8 9 -13 0
11 5 14 8 9 -12 0
11 14 29 8 9 -55 0
11 14 29 8 9 -56 0
11 14 29 8 9 -54 0
11 14 29 8 9 -53 0
11 14 20 8 9 -49 0
11 14 20 8 9 -51 0
11 14 20 8 9 -50 0
11 14 20 8 9 -52 0
11 14 35 8 9 -58 0
11 14 35 8 9 -57 0
11 14 35 8 9 -59 0
11 14 35 8 9 -60 0
11 14 42 8 9 -61 0
11 14 42 8 9 -62 0
11 14 42 8 9 -63 0
11 14 42 8 9 -64 0
11 14 2 8 9 -7 0
11 14 2 8 9 -10 0
11 14 2 8 9 -13 0
11 14 2 8 9 -12 0
11 14 8 28 9 -55 0
11 14 8 28 9 -56 0
11 14 8 28 9 -54 0
11 14 8 28 9 -53 0
11 14 8 18 9 -49 0
11 14 8 18 9 -51 0
11 14 8 18 9 -50 0
11 14 8 18 9 -52 0
11 14 8 36 9 -58 0
11 14 8 36 9 -57 0
11 14 8 36 9 -59 0
11 14 8 36 9 -60 0
11 14 8 45 9 -61 0
11 14 8 45 9 -62 0
11 14 8 45 9 -63 0
11 14 8 45 9 -64 0
11 14 8 4 9 -7 0
11 14 8 4 9 -10 0
11 14 8 4 9 -13 0
11 14 8 4 9 -12 0
11 14 8 9 25 -55 0
11 14 8 9 25 -56 0
11 14 8 9 25 -54 0
11 14 8 9 25 -53 0
11 14 8 9 21 -49 0
11 14 8 9 21 -51 0
11 14 8 9 21 -50 0
11 14 8 9 21 -52 0
11 14 8 9 31 -58 0
11 14 8 9 31 -57 0
11 14 8 9 31 -59 0
11 14 8 9 31 -60 0
11 14 8 9 41 -61 0
11 14 8 9 41 -62 0
11 14 8 9 41 -63 0
11 14 8 9 41 -64 0
27 15 29 28 25 -68 0
27 15 29 28 25 -69 0
27 15 29 28 25 -67 0
27 15 29 28 25 -70 0
27 15 20 18 21 -68 0
27 15 20 18 21 -69 0
27 15 20 18 21 -67 0
27 15 20 18 21 -70 0
27 33 29 28 25 -81 0
27 33 29 28 25 -83 0
27 33 29 28 25 -82 0
27 33 29 28 25 -84 0
27 33 35 36 31 -81 0
27 33 35 36 31 -83 0
27 33 35 36 31 -82 0
27 33 35 36 31 -84 0
27 44 29 28 25 -85 0
27 44 29 28 25 -87 0
27 44 29 28 25 -88 0
27 44 29 28 25 -86 0
27 44 42 45 41 -85 0
27 44 42 45 41 -87 0
27 44 42 45 41 -88 0
27 44 42 45 41 -86 0
27 5 29 28 25 -23 0
27 5 29 28 25 -24 0
27 5 29 28 25 -26 0
27 5 29 28 25 -30 0
27 14 29 28 25 -55 0
27 14 29 28 25 -56 0
27 14 29 28 25 -54 0
27 14 29 28 25 -53 0
27 29 20 28 25 -68 0
27 29 20 28 25 -69 0
27 29 20 28 25 -67 0
27 29 20 28 25 -70 0
27 29 35 28 25 -81 0
27 29 35 28 25 -83 0
27 29 35 28 25 -82 0
27 29 35 28 25 -84 0
27 29 42 28 25 -85 0
27 29 42 28 25 -87 0
27 29 42 28 25 -88 0
27 29 42 28 25 -86 0
27 29 2 28 25 -23 0
27 29 2 28 25 -24 0
27 29 2 28 25 -26 0
27 29 2 28 25 -30 0
27 29 8 28 25 -55 0
27 29 8 28 25 -56 0
27 29 8 28 25 -54 0
27 29 8 28 25 -53 0
27 29 28 18 25 -68 0
27 29 28 18 25 -69 0
27 29 28 18 25 -67 0
27 29 28 18 25 -70 0
27 29 28 36 25 -81 0
27 29 28 36 25 -83 0
27 29 28 36 25 -82 0
27 29 28 36 25 -84 0
27 29 28 45 25 -85 0
27 29 28 45 25 -87 0
27 29 28 45 25 -88 0
27 29 28 45 25 -86 0
27 29 28 4 25 -23 0
27 29 28 4 25 -24 0
27 29 28 4 25 -26 0
27 29 28 4 25 -30 0
27 29 28 9 25 -55 0
27 29 28 9 25 -56 0
27 29 28 9 25 -54 0
27 29 28 9 25 -53 0
27 29 28 25 21 -68 0
27 29 28 25 21 -69 0
27 29 28 25 21 -67 0
27 29 28 25 21 -70 0
27 29 28 25 31 -81 0
27 29 28 25 31 -83 0
27 29 28 25 31 -82 0
27 29 28 25 31 -84 0
27 29 28 25 41 -85 0
27 29 28 25 41 -87 0
27 29 28 25 41 -88 0
27 29 28 25 41 -86 0
15 33 20 18 21 -73 0
15 33 20 18 21 -72 0
15 33 20 18 21 -71 0
15 33 20 18 21 -74 0
15 33 35 36 31 -73 0
15 33 35 36 31 -72 0
15 33 35 36 31 -71 0
15 33 35 36 31 -74 0
15 44 20 18 21 -77 0
15 44 20 18 21 -78 0
15 44 20 18 21 -76 0
15 44 20 18 21 -75 0
15 44 42 45 41 -77 0
15 44 42 45 41 -78 0
15 44 42 45 41 -76 0
15 44 42 45 41 -75 0
15 5 20 18 21 -17 0
15 5 20 18 21 -22 0
15 5 20 18 21 -16 0
15 5 20 18 21 -19 0
15 14 20 18 21 -49 0
15 14 20 18 21 -51 0
15 14 20 18 21 -50 0
15 14 20 18 21 -52 0
15 29 20 18 21 -68 0
15 29 20 18 21 -69 0
15 29 20 18 21 -67 0
15 29 20 18 21 -70 0
15 20 35 18 21 -73 0
15 20 35 18 21 -72 0
15 20 35 18 21 -71 0
15 20 35 18 21 -74 0
15 20 42 18 21 -77 0
15 20 42 18 21 -78 0
15 20 42 18 21 -76 0
15 20 42 18 21 -75 0
15 20 2 18 21 -17 0
15 20 2 18 21 -22 0
15 20 2 18 21 -16 0
15 20 2 18 21 -19 0
15 20 8 18 21 -49 0
15 20 8 18 21 -51 0
15 20 8 18 21 -50 0
15 20 8 18 21 -52 0
15 20 28 18 21 -68 0
15 20 28 18 21 -69 0
15 20 28 18 21 -67 0
15 20 28 18 21 -70 0
15 20 18 36 21 -73 0
15 20 18 36 21 -72 0
15 20 18 36 21 -71 0
15 20 18 36 21 -74 0
15 20 18 45 21 -77 0
15 20 18 45 21 -78 0
15 20 18 45 21 -76 0
15 20 18 45 21 -75 0
15 20 18 4 21 -17 0
15 20 18 4 21 -22 0
15 20 18 4 21 -16 0
15 20 18 4 21 -19 0
15 20 18 9 21 -49 0
15 20 18 9 21 -51 0
15 20 18 9 21 -50 0
15 20 18 9 21 -52 0
15 20 18 25 21 -68 0
15 20 18 25 21 -69 0
15 20 18 25 21 -67 0
15 20 18 25 21 -70 0
15 20 18 21 31 -73 0
15 20 18 21 31 -72 0
15 20 18 21 31 -71 0
15 20 18 21 31 -74 0
15 20 18 21 41 -77 0
15 20 18 21 41 -78 0
15 20 18 21 41 -76 0
15 20 18 21 41 -75 0
33 44 35 36 31 -91 0
33 44 35 36 31 -93 0
33 44 35 36 31 -92 0
33 44 35 36 31 -94 0
33 44 42 45 41 -91 0
33 44 42 45 41 -93 0
33 44 42 45 41 -92 0
33 44 42 45 41 -94 0
33 5 35 36 31 -34 0
33 5 35 36 31 -38 0
33 5 35 36 31 -32 0
33 5 35 36 31 -37 0
33 14 35 36 31 -58 0
33 14 35 36 31 -57 0
33 14 35 36 31 -59 0
33 14 35 36 31 -60 0
33 29 35 36 31 -81 0
33 29 35 36 31 -83 0
33 29 35 36 31 -82 0
33 29 35 36 31 -84 0
33 20 35 36 31 -73 0
33 20 35 36 31 -72 0
33 20 35 36 31 -71 0
33 20 35 36 31 -74 0
33 35 42 36 31 -91 0
33 35 42 36 31 -93 0
33 35 42 36 31 -92 0
33 35 42 36 31 -94 0
33 35 2 36 31 -34 0
33 35 2 36 31 -38 0
33 35 2 36 31 -32 0
33 35 2 36 31 -37 0
33 35 8 36 31 -58 0
33 35 8 36 31 -57 0
33 35 8 36 31 -59 0
33 35 8 36 31 -60 0
33 35 28 36 31 -81 0
33 35 28 36 31 -83 0
33 35 28 36 31 -82 0
33 35 28 36 31 -84 0
33 35 18 36 31 -73 0
33 35 18 36 31 -72 0
33 35 18 36 31 -71 0
33 35 18 36 31 -74 0
33 35 36 45 31 -91 0
33 35 36 45 31 -93 0
33 35 36 45 31 -92 0
33 35 36 45 31 -94 0
33 35 36 4 31 -34 0
33 35 36 4 31 -38 0
33 35 36 4 31 -32 0
33 35 36 4 31 -37 0
33 35 36 9 31 -58 0
33 35 36 9 31 -57 0
33 35 36 9 31 -59 0
33 35 36 9 31 -60 0
33 35 36 25 31 -81 0
33 35 36 25 31 -83 0
33 35 36 25 31 -82 0
33 35 36 25 31 -84 0
33 35 36 21 31 -73 0
33 35 36 21 31 -72 0
33 35 36 21 31 -71 0
33 35 36 21 31 -74 0
33 35 36 31 41 -91 0
33 35 36 31 41 -93 0
33 35 36 31 41 -92 0
33 35 36 31 41 -94 0
44 5 42 45 41 -40 0
44 5 42 45 41 -46 0
44 5 42 45 41 -43 0
44 5 42 45 41 -39 0
44 14 42 45 41 -61 0
44 14 42 45 41 -62 0
44 14 42 45 41 -63 0
44 14 42 45 41 -64 0
44 29 42 45 41 -85 0
44 29 42 45 41 -87 0
44 29 42 45 41 -88 0
44 29 42 45 41 -86 0
44 20 42 45 41 -77 0
44 20 42 45 41 -78 0
44 20 42 45 41 -76 0
44 20 42 45 41 -75 0
44 35 42 45 41 -91 0
44 35 42 45 41 -93 0
44 35 42 45 41 -92 0
44 35 42 45 41 -94 0
44 42 2 45 41 -40 0
44 42 2 45 41 -46 0
44 42 2 45 41 -43 0
44 42 2 45 41 -39 0
44 42 8 45 41 -61 0
44 42 8 45 41 -62 0
44 42 8 45 41 -63 0
44 42 8 45 41 -64 0
44 42 28 45 41 -85 0
44 42 28 45 41 -87 0
44 42 28 45 41 -88 0
44 42 28 45 41 -86 0
44 42 18 45 41 -77 0
44 42 18 45 41 -78 0
44 42 18 45 41 -76 0
44 42 18 45 41 -75 0
44 42 36 45 41 -91 0
44 42 36 45 41 -93 0
44 42 36 45 41 -92 0
44 42 36 45 41 -94 0
44 42 45 4 41 -40 0
44 42 45 4 41 -46 0
44 42 45 4 41 -43 0
44 42 45 4 41 -39 0
44 42 45 9 41 -61 0
44 42 45 9 41 -62 0
44 42 45 9 41 -63 0
44 42 45 9 41 -64 0
44 42 45 25 41 -85 0
44 42 45 25 41 -87 0
44 42 45 25 41 -88 0
44 42 45 25 41 -86 0
44 42 45 21 41 -77 0
44 42 45 21 41 -78 0
44 42 45 21 41 -76 0
44 42 45 21 41 -75 0
44 42 45 31 41 -91 0
44 42 45 31 41 -93 0
44 42 45 31 41 -92 0
44 42 45 31 41 -94 0
6 11 5 14 2 8 -7 0
6 11 5 14 2 8 -10 0
6 11 5 14 2 8 -13 0
6 11 5 14 2 8 -12 0
6 11 5 14 2 4 -7 0
6 11 5 14 2 4 -10 0
6 11 5 14 2 4 -13 0
6 11 5 14 2 4 -12 0
6 11 5 14 8 9 -7 0
6 11 5 14 8 9 -10 0
6 11 5 14 8 9 -13 0
6 11 5 14 8 9 -12 0
6 11 5 14 4 9 -7 0
6 11 5 14 4 9 -10 0
6 11 5 14 4 9 -13 0
6 11 5 14 4 9 -12 0
6 11 5 2 8 4 -7 0
6 11 5 2 8 4 -10 0
6 11 5 2 8 4 -13 0
6 11 5 2 8 4 -12 0
6 11 5 2 4 9 -7 0
6 11 5 2 4 9 -10 0
6 11 5 2 4 9 -13 0
6 11 5 2 4 9 -12 0
6 11 14 2 8 9 -7 0
6 11 14 2 8 9 -10 0
6 11 14 2 8 9 -13 0
6 11 14 2 8 9 -12 0
6 11 14 8 4 9 -7 0
6 11 14 8 4 9 -10 0
6 11 14 8 4 9 -13 0
6 11 14 8 4 9 -12 0
6 11 2 8 4 9 -7 0
6 11 2 8 4 9 -10 0
6 11 2 8 4 9 -13 0
6 11 2 8 4 9 -12 0
6 27 5 29 2 28 -23 0
6 27 5 29 2 28 -24 0
6 27 5 29 2 28 -26 0
6 27 5 29 2 28 -30 0
6 27 5 29 2 4 -23 0
6 27 5 29 2 4 -24 0
6 27 5 29 2 4 -26 0
6 27 5 29 2 4 -30 0
6 27 5 29 28 25 -23 0
6 27 5 29 28 25 -24 0
6 27 5 29 28 25 -26 0
6 27 5 29 28 25 -30 0
6 27 5 29 4 25 -23 0
6 27 5 29 4 25 -24 0
6 27 5 29 4 25 -26 0
6 27 5 29 4 25 -30 0
6 27 5 2 28 4 -23 0
6 27 5 2 28 4 -24 0
6 27 5 2 28 4 -26 0
6 27 5 2 28 4 -30 0
6 27 5 2 4 25 -23 0
6 27 5 2 4 25 -24 0
6 27 5 2 4 25 -26 0
6 27 5 2 4 25 -30 0
6 27 29 2 28 25 -23 0
6 27 29 2 28 25 -24 0
6 27 29 2 28 25 -26 0
6 27 29 2 28 25 -30 0
6 27 29 28 4 25 -23 0
6 27 29 28 4 25 -24 0
6 27 29 28 4 25 -26 0
6 27 29 28 4 25 -30 0
6 27 2 28 4 25 -23 0
6 27 2 28 4 25 -24 0
6 27 2 28 4 25 -26 0
6 27 2 28 4 25 -30 0
6 15 5 20 2 18 -17 0
6 15 5 20 2 18 -22 0
6 15 5 20 2 18 -16 0
6 15 5 20 2 18 -19 0
6 15 5 20 2 4 -17 0
6 15 5 20 2 4 -22 0
6 15 5 20 2 4 -16 0
6 15 5 20 2 4 -19 0
6 15 5 20 18 21 -17 0
6 15 5 20 18 21 -22 0
6 15 5 20 18 21 -16 0
6 15 5 20 18 21 -19 0
6 15 5 20 4 21 -17 0
6 15 5 20 4 21 -22 0
6 15 5 20 4 21 -16 0
6 15 5 20 4 21 -19 0
6 15 5 2 18 4 -17 0
6 15 5 2 18 4 -22 0
6 15 5 2 18 4 -16 0
6 15 5 2 18 4 -19 0
6 15 5 2 4 21 -17 0
6 15 5 2 4 21 -22 0
6 15 5 2 4 21 -16 0
6 15 5 2 4 21 -19 0
6 15 20 2 18 21 -17 0
6 15 20 2 18 21 -22 0
6 15 20 2 18 21 -16 0
6 15 20 2 18 21 -19 0
6 15 20 18 4 21 -17 0
6 15 20 18 4 21 -22 0
6 15 20 18 4 21 -16 0
6 15 20 18 4 21 -19 0
6 15 2 18 4 21 -17 0
6 15 2 18 4 21 -22 0
6 15 2 18 4 21 -16 0
6 15 2 18 4 21 -19 0
6 33 5 35 2 36 -34 0
6 33 5 35 2 36 -38 0
6 33 5 35 2 36 -32 0
6 33 5 35 2 36 -37 0
6 33 5 35 2 4 -34 0
6 33 5 35 2 4 -38 0
6 33 5 35 2 4 -32 0
6 33 5 35 2 4 -37 0
6 33 5 35 36 31 -34 0
6 33 5 35 36 31 -38 0
6 33 5 35 36 31 -32 0
6 33 5 35 36 31 -37 0
6 33 5 35 4 31 -34 0
6 33 5 35 4 31 -38 0
6 33 5 35 4 31 -32 0
6 33 5 35 4 31 -37 0
6 33 5 2 36 4 -34 0
6 33 5 2 36 4 -38 0
6 33 5 2 36 4 -32 0
6 33 5 2 36 4 -37 0
6 33 5 2 4 31 -34 0
6 33 5 2 4 31 -38 0
6 33 5 2 4 31 -32 0
6 33 5 2 4 31 -37 0
6 33 35 2 36 31 -34 0
6 33 35 2 36 31 -38 0
6 33 35 2 36 31 -32 0
6 33 35 2 36 31 -37 0
6 33 35 36 4 31 -34 0
6 33 35 36 4 31 -38 0
6 33 35 36 4 31 -32 0
6 33 35 36 4 31 -37 0
6 33 2 36 4 31 -34 0
6 33 2 36 4 31 -38 0
6 33 2 36 4 31 -32 0
6 33 2 36 4 31 -37 0
6 44 5 42 2 45 -40 0
6 44 5 42 2 45 -46 0
6 44 5 42 2 45 -43 0
6 44 5 42 2 45 -39 0
6 44 5 42 2 4 -40 0
6 44 5 42 2 4 -46 0
6 44 5 42 2 4 -43 0
6 44 5 42 2 4 -39 0
6 44 5 42 45 41 -40 0
6 44 5 42 45 41 -46 0
6 44 5 42 45 41 -43 0
6 44 5 42 45 41 -39 0
6 44 5 42 4 41 -40 0
6 44 5 42 4 41 -46 0
6 44 5 42 4 41 -43 0
6 44 5 42 4 41 -39 0
6 44 5 2 45 4 -40 0
6 44 5 2 45 4 -46 0
6 44 5 2 45 4 -43 0
6 44 5 2 45 4 -39 0
6 44 5 2 4 41 -40 0
6 44 5 2 4 41 -46 0
6 44 5 2 4 41 -43 0
6 44 5 2 4 41 -39 0
6 44 42 2 45 41 -40 0
6 44 42 2 45 41 -46 0
6 44 42 2 45 41 -43 0
6 44 42 2 45 41 -39 0
6 44 42 45 4 41 -40 0
6 44 42 45 4 41 -46 0
6 44 42 45 4 41 -43 0
6 44 42 45 4 41 -39 0
6 44 2 45 4 41 -40 0
6 44 2 45 4 41 -46 0
6 44 2 45 4 41 -43 0
6 44 2 45 4 41 -39 0
6 5 14 2 8 4 -7 0
6 5 14 2 8 4 -10 0
6 5 14 2 8 4 -13 0
6 5 14 2 8 4 -12 0
6 5 14 2 4 9 -7 0
6 5 14 2 4 9 -10 0
6 5 14 2 4 9 -13 0
6 5 14 2 4 9 -12 0
6 5 29 2 28 4 -23 0
6 5 29 2 28 4 -24 0
6 5 29 2 28 4 -26 0
6 5 29 2 28 4 -30 0
6 5 29 2 4 25 -23 0
6 5 29 2 4 25 -24 0
6 5 29 2 4 25 -26 0
6 5 29 2 4 25 -30 0
6 5 20 2 18 4 -17 0
6 5 20 2 18 4 -22 0
6 5 20 2 18 4 -16 0
6 5 20 2 18 4 -19 0
6 5 20 2 4 21 -17 0
6 5 20 2 4 21 -22 0
6 5 20 2 4 21 -16 0
6 5 20 2 4 21 -19 0
6 5 35 2 36 4 -34 0
6 5 35 2 36 4 -38 0
6 5 35 2 36 4 -32 0
6 5 35 2 36 4 -37 0
6 5 35 2 4 31 -34 0
6 5 35 2 4 31 -38 0
6 5 35 2 4 31 -32 0
6 5 35 2 4 31 -37 0
6 5 42 2 45 4 -40 0
6 5 42 2 45 4 -46 0
6 5 42 2 45 4 -43 0
6 5 42 2 45 4 -39 0
6 5 42 2 4 41 -40 0
6 5 42 2 4 41 -46 0
6 5 42 2 4 41 -43 0
6 5 42 2 4 41 -39 0
6 5 2 8 4 9 -7 0
6 5 2 8 4 9 -10 0
6 5 2 8 4 9 -13 0
6 5 2 8 4 9 -12 0
6 5 2 28 4 25 -23 0
6 5 2 28 4 25 -24 0
6 5 2 28 4 25 -26 0
6 5 2 28 4 25 -30 0
6 5 2 18 4 21 -17 0
6 5 2 18 4 21 -22 0
6 5 2 18 4 21 -16 0
6 5 2 18 4 21 -19 0
6 5 2 36 4 31 -34 0
6 5 2 36 4 31 -38 0
6 5 2 36 4 31 -32 0
6 5 2 36 4 31 -37 0
6 5 2 45 4 41 -40 0
6 5 2 45 4 41 -46 0
6 5 2 45 4 41 -43 0
6 5 2 45 4 41 -39 0
11 27 14 29 8 28 -55 0
11 27 14 29 8 28 -56 0
11 27 14 29 8 28 -54 0
11 27 14 29 8 28 -53 0
11 27 14 29 8 9 -55 0
11 27 14 29 8 9 -56 0
11 27 14 29 8 9 -54 0
11 27 14 29 8 9 -53 0
11 27 14 29 28 25 -55 0
11 27 14 29 28 25 -56 0
11 27 14 29 28 25 -54 0
11 27 14 29 28 25 -53 0
11 27 14 29 9 25 -55 0
11 27 14 29 9 25 -56 0
11 27 14 29 9 25 -54 0
11 27 14 29 9 25 -53 0
11 27 14 8 28 9 -55 0
11 27 14 8 28 9 -56 0
11 27 14 8 28 9 -54 0
11 27 14 8 28 9 -53 0
11 27 14 8 9 25 -55 0
11 27 14 8 9 25 -56 0
11 27 14 8 9 25 -54 0
11 27 14 8 9 25 -53 0
11 27 29 8 28 25 -55 0
11 27 29 8 28 25 -56 0
11 27 29 8 28 25 -54 0
11 27 29 8 28 25 -53 0
11 27 29 28 9 25 -55 0
11 27 29 28 9 25 -56 0
11 27 29 28 9 25 -54 0
11 27 29 28 9 25 -53 0
11 27 8 28 9 25 -55 0
11 27 8 28 9 25 -56 0
11 27 8 28 9 25 -54 0
11 27 8 28 9 25 -53 0
11 15 14 20 8 18 -49 0
11 15 14 20 8 18 -51 0
11 15 14 20 8 18 -50 0
11 15 14 20 8 18 -52 0
11 15 14 20 8 9 -49 0
11 15 14 20 8 9 -51 0
11 15 14 20 8 9 -50 0
11 15 14 20 8 9 -52 0
11 15 14 20 18 21 -49 0
11 15 14 20 18 21 -51 0
11 15 14 20 18 21 -50 0
11 15 14 20 18 21 -52 0
11 15 14 20 9 21 -49 0
11 15 14 20 9 21 -51 0
11 15 14 20 9 21 -50 0
11 15 14 20 9 21 -52 0
11 15 14 8 18 9 -49 0
11 15 14 8 18 9 -51 0
11 15 14 8 18 9 -50 0
11 15 14 8 18 9 -52 0
11 15 14 8 9 21 -49 0
11 15 14 8 9 21 -51 0
11 15 14 8 9 21 -50 0
11 15 14 8 9 21 -52 0
11 15 20 8 18 21 -49 0
11 15 20 8 18 21 -51 0
11 15 20 8 18 21 -50 0
11 15 20 8 18 21 -52 0
11 15 20 18 9 21 -49 0
11 15 20 18 9 21 -51 0
11 15 20 18 9 21 -50 0
11 15 20 18 9 21 -52 0
11 15 8 18 9 21 -49 0
11 15 8 18 9 21 -51 0
11 15 8 18 9 21 -50 0
11 15 8 18 9 21 -52 0
11 33 14 35 8 36 -58 0
11 33 14 35 8 36 -57 0
11 33 14 35 8 36 -59 0
11 33 14 35 8 36 -60 0
11 33 14 35 8 9 -58 0
11 33 14 35 8 9 -57 0
11 33 14 35 8 9 -59 0
11 33 14 35 8 9 -60 0
11 33 14 35 36 31 -58 0
11 33 14 35 36 31 -57 0
11 33 14 35 36 31 -59 0
11 33 14 35 36 31 -60 0
11 33 14 35 9 31 -58 0
11 33 14 35 9 31 -57 0
11 33 14 35 9 31 -59 0
11 33 14 35 9 31 -60 0
11 33 14 8 36 9 -58 0
11 33 14 8 36 9 -57 0
11 33 14 8 36 9 -59 0
11 33 14 8 36 9 -60 0
11 33 14 8 9 31 -58 0
11 33 14 8 9 31 -57 0
11 33 14 8 9 31 -59 0
11 33 14 8 9 31 -60 0
11 33 35 8 36 31 -58 0
11 33 35 8 36 31 -57 0
11 33 35 8 36 31 -59 0
11 33 35 8 36 31 -60 0
11 33 35 36 9 31 -58 0
11 33 35 36 9 31 -57 0
11 33 35 36 9 31 -59 0
11 33 35 36 9 31 -60 0
11 33 8 36 9 31 -58 0
11 33 8 36 9 31 -57 0
11 33 8 36 9 31 -59 0
11 33 8 36 9 31 -60 0
11 44 14 42 8 45 -61 0
11 44 14 42 8 45 -62 0
11 44 14 42 8 45 -63 0
11 44 14 42 8 45 -64 0
11 44 14 42 8 9 -61 0
11 44 14 42 8 9 -62 0
11 44 14 42 8 9 -63 0
11 44 14 42 8 9 -64 0
11 44 14 42 45 41 -61 0
11 44 14 42 45 41 -62 0
11 44 14 42 45 41 -63 0
11 44 14 42 45 41 -64 0
11 44 14 42 9 41 -61 0
11 44 14 42 9 41 -62 0
11 44 14 42 9 41 -63 0
11 44 14 42 9 41 -64 0
11 44 14 8 45 9 -61 0
11 44 14 8 45 9 -62 0
11 44 14 8 45 9 -63 0
11 44 14 8 45 9 -64 0
11 44 14 8 9 41 -61 0
11 44 14 8 9 41 -62 0
11 44 14 8 9 41 -63 0
11 44 14 8 9 41 -64 0
11 44 42 8 45 41 -61 0
11 44 42 8 45 41 -62 0
11 44 42 8 45 41 -63 0
11 44 42 8 45 41 -64 0
11 44 42 45 9 41 -61 0
11 44 42 45 9 41 -62 0
11 44 42 45 9 41 -63 0
11 44 42 45 9 41 -64 0
11 44 8 45 9 41 -61 0
11 44 8 45 9 41 -62 0
11 44 8 45 9 41 -63 0
11 44 8 45 9 41 -64 0
11 5 14 2 8 9 -7 0
11 5 14 2 8 9 -10 0
11 5 14 2 8 9 -13 0
11 5 14 2 8 9 -12 0
11 5 14 8 4 9 -7 0
11 5 14 8 4 9 -10 0
11 5 14 8 4 9 -13 0
11 5 14 8 4 9 -12 0
11 14 29 8 28 9 -55 0
11 14 29 8 28 9 -56 0
11 14 29 8 28 9 -54 0
11 14 29 8 28 9 -53 0
11 14 29 8 9 25 -55 0
11 14 29 8 9 25 -56 0
11 14 29 8 9 25 -54 0
11 14 29 8 9 25 -53 0
11 14 20 8 18 9 -49 0
11 14 20 8 18 9 -51 0
11 14 20 8 18 9 -50 0
11 14 20 8 18 9 -52 0
11 14 20 8 9 21 -49 0
11 14 20 8 9 21 -51 0
11 14 20 8 9 21 -50 0
11 14 20 8 9 21 -52 0
11 14 35 8 36 9 -58 0
11 14 35 8 36 9 -57 0
11 14 35 8 36 9 -59 0
11 14 35 8 36 9 -60 0
11 14 35 8 9 31 -58 0
11 14 35 8 9 31 -57 0
11 14 35 8 9 31 -59 0
11 14 35 8 9 31 -60 0
11 14 42 8 45 9 -61 0
11 14 42 8 45 9 -62 0
11 14 42 8 45 9 -63 0
11 14 42 8 45 9 -64 0
11 14 42 8 9 41 -61 0
11 14 42 8 9 41 -62 0
11 14 42 8 9 41 -63 0
11 14 42 8 9 41 -64 0
11 14 2 8 4 9 -7 0
11 14 2 8 4 9 -10 0
11 14 2 8 4 9 -13 0
11 14 2 8 4 9 -12 0
11 14 8 28 9 25 -55 0
11 14 8 28 9 25 -56 0
11 14 8 28 9 25 -54 0
11 14 8 28 9 25 -53 0
11 14 8 18 9 21 -49 0
11 14 8 18 9 21 -51 0
11 14 8 18 9 21 -50 0
11 14 8 18 9 21 -52 0
11 14 8 36 9 31 -58 0
11 14 8 36 9 31 -57 0
11 14 8 36 9 31 -59 0
11 14 8 36 9 31 -60 0
11 14 8 45 9 41 -61 0
11 14 8 45 9 41 -62 0
11 14 8 45 9 41 -63 0
11 14 8 45 9 41 -64 0
27 15 29 20 28 18 -68 0
27 15 29 20 28 18 -69 0
27 15 29 20 28 18 -67 0
27 15 29 20 28 18 -70 0
27 15 29 20 28 25 -68 0
27 15 29 20 28 25 -69 0
27 15 29 20 28 25 -67 0
27 15 29 20 28 25 -70 0
27 15 29 20 18 21 -68 0
27 15 29 20 18 21 -69 0
27 15 29 20 18 21 -67 0
27 15 29 20 18 21 -70 0
27 15 29 20 25 21 -68 0
27 15 29 20 25 21 -69 0
27 15 29 20 25 21 -67 0
27 15 29 20 25 21 -70 0
27 15 29 28 18 25 -68 0
27 15 29 28 18 25 -69 0
27 15 29 28 18 25 -67 0
27 15 29 28 18 25 -70 0
27 15 29 28 25 21 -68 0
27 15 29 28 25 21 -69 0
27 15 29 28 25 21 -67 0
27 15 29 28 25 21 -70 0
27 15 20 28 18 21 -68 0
27 15 20 28 18 21 -69 0
27 15 20 28 18 21 -67 0
27 15 20 28 18 21 -70 0
27 15 20 18 25 21 -68 0
27 15 20 18 25 21 -69 0
27 15 20 18 25 21 -67 0
27 15 20 18 25 21 -70 0
27 15 28 18 25 21 -68 0
27 15 28 18 25 21 -69 0
27 15 28 18 25 21 -67 0
27 15 28 18 25 21 -70 0
27 33 29 35 28 36 -81 0
27 33 29 35 28 36 -83 0
27 33 29 35 28 36 -82 0
27 33 29 35 28 36 -84 0
27 33 29 35 28 25 -81 0
27 33 29 35 28 25 -83 0
27 33 29 35 28 25 -82 0
27 33 29 35 28 25 -84 0
27 33 29 35 36 31 -81 0
27 33 29 35 36 31 -83 0
27 33 29 35 36 31 -82 0
27 33 29 35 36 31 -84 0
27 33 29 35 25 31 -81 0
27 33 29 35 25 31 -83 0
27 33 29 35 25 31 -82 0
27 33 29 35 25 31 -84 0
27 33 29 28 36 25 -81 0
27 33 29 28 36 25 -83 0
27 33 29 28 36 25 -82 0
27 33 29 28 36 25 -84 0
27 33 29 28 25 31 -81 0
27 33 29 28 25 31 -83 0
27 33 29 28 25 31 -82 0
27 33 29 28 25 31 -84 0
27 33 35 28 36 31 -81 0
27 33 35 28 36 31 -83 0
27 33 35 28 36 31 -82 0
27 33 35 28 36 31 -84 0
27 33 35 36 25 31 -81 0
27 33 35 36 25 31 -83 0
27 33 35 36 25 31 -82 0
27 33 35 36 25 31 -84 0
27 33 28 36 25 31 -81 0
27 33 28 36 25 31 -83 0
27 33 28 36 25 31 -82 0
27 33 28 36 25 31 -84 0
27 44 29 42 28 45 -85 0
27 44 29 42 28 45 -87 0
27 44 29 42 28 45 -88 0
27 44 29 42 28 45 -86 0
27 44 29 42 28 25 -85 0
27 44 29 42 28 25 -87 0
27 44 29 42 28 25 -88 0
27 44 29 42 28 25 -86 0
27 44 29 42 45 41 -85 0
27 44 29 42 45 41 -87 0
27 44 29 42 45 41 -88 0
27 44 29 42 45 41 -86 0
27 44 29 42 25 41 -85 0
27 44 29 42 25 41 -87 0
27 44 29 42 25 41 -88 0
27 44 29 42 25 41 -86 0
27 44 29 28 45 25 -85 0
27 44 29 28 45 25 -87 0
27 44 29 28 45 25 -88 0
27 44 29 28 45 25 -86 0
27 44 29 28 25 41 -85 0
27 44 29 28 25 41 -87 0
27 44 29 28 25 41 -88 0
27 44 29 28 25 41 -86 0
27 44 42 28 45 41 -85 0
27 44 42 28 45 41 -87 0
27 44 42 28 45 41 -88 0
27 44 42 28 45 41 -86 0
27 44 42 45 25 41 -85 0
27 44 42 45 25 41 -87 0
27 44 42 45 25 41 -88 0
27 44 42 45 25 41 -86 0
27 44 28 45 25 41 -85 0
27 44 28 45 25 41 -87 0
27 44 28 45 25 41 -88 0
27 44 28 45 25 41 -86 0
27 5 29 2 28 25 -23 0
27 5 29 2 28 25 -24 0
27 5 29 2 28 25 -26 0
27 5 29 2 28 25 -30 0
27 5 29 28 4 25 -23 0
27 5 29 28 4 25 -24 0
27 5 29 28 4 25 -26 0
27 5 29 28 4 25 -30 0
27 14 29 8 28 25 -55 0
27 14 29 8 28 25 -56 0
27 14 29 8 28 25 -54 0
27 14 29 8 28 25 -53 0
27 14 29 28 9 25 -55 0
27 14 29 28 9 25 -56 0
27 14 29 28 9 25 -54 0
27 14 29 28 9 25 -53 0
27 29 20 28 18 25 -68 0
27 29 20 28 18 25 -69 0
27 29 20 28 18 25 -67 0
27 29 20 28 18 25 -70 0
27 29 20 28 25 21 -68 0
27 29 20 28 25 21 -69 0
27 29 20 28 25 21 -67 0
27 29 20 28 25 21 -70 0
27 29 35 28 36 25 -81 0
27 29 35 28 36 25 -83 0
27 29 35 28 36 25 -82 0
27 29 35 28 36 25 -84 0
27 29 35 28 25 31 -81 0
27 29 35 28 25 31 -83 0
27 29 35 28 25 31 -82 0
27 29 35 28 25 31 -84 0
27 29 42 28 45 25 -85 0
27 29 42 28 45 25 -87 0
27 29 42 28 45 25 -88 0
27 29 42 28 45 25 -86 0
27 29 42 28 25 41 -85 0
27 29 42 28 25 41 -87 0
27 29 42 28 25 41 -88 0
27 29 42 28 25 41 -86 0
27 29 2 28 4 25 -23 0
27 29 2 28 4 25 -24 0
27 29 2 28 4 25 -26 0
27 29 2 28 4 25 -30 0
27 29 8 28 9 25 -55 0
27 29 8 28 9 25 -56 0
27 29 8 28 9 25 -54 0
27 29 8 28 9 25 -53 0
27 29 28 18 25 21 -68 0
27 29 28 18 25 21 -69 0
27 29 28 18 25 21 -67 0
27 29 28 18 25 21 -70 0
27 29 28 36 25 31 -81 0
27 29 28 36 25 31 -83 0
27 29 28 36 25 31 -82 0
27 29 28 36 25 31 -84 0
27 29 28 45 25 41 -85 0
27 29 28 45 25 41 -87 0
27 29 28 45 25 41 -88 0
27 29 28 45 25 41 -86 0
15 33 20 35 18 36 -73 0
15 33 20 35 18 36 -72 0
15 33 20 35 18 36 -71 0
15 33 20 35 18 36 -74 0
15 33 20 35 18 21 -73 0
15 33 20 35 18 21 -72 0
15 33 20 35 18 21 -71 0
15 33 20 35 18 21 -74 0
15 33 20 35 36 31 -73 0
15 33 20 35 36 31 -72 0
15 33 20 35 36 31 -71 0
15 33 20 35 36 31 -74 0
15 33 20 35 21 31 -73 0
15 33 20 35 21 31 -72 0
15 33 20 35 21 31 -71 0
15 33 20 35 21 31 -74 0
15 33 20 18 36 21 -73 0
15 33 20 18 36 21 -72 0
15 33 20 18 36 21 -71 0
15 33 20 18 36 21 -74 0
15 33 20 18 21 31 -73 0
15 33 20 18 21 31 -72 0
15 33 20 18 21 31 -71 0
15 33 20 18 21 31 -74 0
15 33 35 18 36 31 -73 0
15 33 35 18 36 31 -72 0
15 33 35 18 36 31 -71 0
15 33 35 18 36 31 -74 0
15 33 35 36 21 31 -73 0
15 33 35 36 21 31 -72 0
15 33 35 36 21 31 -71 0
15 33 35 36 21 31 -74 0
15 33 18 36 21 31 -73 0
15 33 18 36 21 31 -72 0
15 33 18 36 21 31 -71 0
15 33 18 36 21 31 -74 0
15 44 20 42 18 45 -77 0
15 44 20 42 18 45 -78 0
15 44 20 42 18 45 -76 0
15 44 20 42 18 45 -75 0
15 44 20 42 18 21 -77 0
15 44 20 42 18 21 -78 0
15 44 20 42 18 21 -76 0
15 44 20 42 18 21 -75 0
15 44 20 42 45 41 -77 0
15 44 20 42 45 41 -78 0
15 44 20 42 45 41 -76 0
15 44 20 42 45 41 -75 0
15 44 20 42 21 41 -77 0
15 44 20 42 21 41 -78 0
15 44 20 42 21 41 -76 0
15 44 20 42 21 41 -75 0
15 44 20 18 45 21 -77 0
15 44 20 18 45 21 -78 0
15 44 20 18 45 21 -76 0
15 44 20 18 45 21 -75 0
15 44 20 18 21 41 -77 0
15 44 20 18 21 41 -78 0
15 44 20 18 21 41 -76 0
15 44 20 18 21 41 -75 0
15 44 42 18 45 41 -77 0
15 44 42 18 45 41 -78 0
15 44 42 18 45 41 -76 0
15 44 42 18 45 41 -75 0
15 44 42 45 21 41 -77 0
15 44 42 45 21 41 -78 0
15 44 42 45 21 41 -76 0
15 44 42 45 21 41 -75 0
15 44 18 45 21 41 -77 0
15 44 18 45 21 41 -78 0
15 44 18 45 21 41 -76 0
15 44 18 45 21 41 -75 0
15 5 20 2 18 21 -17 0
15 5 20 2 18 21 -22 0
15 5 20 2 18 21 -16 0
15 5 20 2 18 21 -19 0
15 5 20 18 4 21 -17 0
15 5 20 18 4 21 -22 0
15 5 20 18 4 21 -16 0
15 5 20 18 4 21 -19 0
15 14 20 8 18 21 -49 0
15 14 20 8 18 21 -51 0
15 14 20 8 18 21 -50 0
15 14 20 8 18 21 -52 0
15 14 20 18 9 21 -49 0
15 14 20 18 9 21 -51 0
15 14 20 18 9 21 -50 0
15 14 20 18 9 21 -52 0
15 29 20 28 18 21 -68 0
15 29 20 28 18 21 -69 0
15 29 20 28 18 21 -67 0
15 29 20 28 18 21 -70 0
15 29 20 18 25 21 -68 0
15 29 20 18 25 21 -69 0
15 29 20 18 25 21 -67 0
15 29 20 18 25 21 -70 0
15 20 35 18 36 21 -73 0
15 20 35 18 36 21 -72 0
15 20 35 18 36 21 -71 0
15 20 35 18 36 21 -74 0
15 20 35 18 21 31 -73 0
15 20 35 18 21 31 -72 0
15 20 35 18 21 31 -71 0
15 20 35 18 21 31 -74 0
15 20 42 18 45 21 -77 0
15 20 42 18 45 21 -78 0
15 20 42 18 45 21 -76 0
15 20 42 18 45 21 -75 0
15 20 42 18 21 41 -77 0
15 20 42 18 21 41 -78 0
15 20 42 18 21 41 -76 0
15 20 42 18 21 41 -75 0
15 20 2 18 4 21 -17 0
15 20 2 18 4 21 -22 0
15 20 2 18 4 21 -16 0
15 20 2 18 4 21 -19 0
15 20 8 18 9 21 -49 0
15 20 8 18 9 21 -51 0
15 20 8 18 9 21 -50 0
15 20 8 18 9 21 -52 0
15 20 28 18 25 21 -68 0
15 20 28 18 25 21 -69 0
15 20 28 18 25 21 -67 0
15 20 28 18 25 21 -70 0
15 20 18 36 21 31 -73 0
15 20 18 36 21 31 -72 0
15 20 18 36 21 31 -71 0
15 20 18 36 21 31 -74 0
15 20 18 45 21 41 -77 0
15 20 18 45 21 41 -78 0
15 20 18 45 21 41 -76 0
15 20 18 45 21 41 -75 0
33 44 35 42 36 45 -91 0
33 44 35 42 36 45 -93 0
33 44 35 42 36 45 -92 0
33 44 35 42 36 45 -94 0
33 44 35 42 36 31 -91 0
33 44 35 42 36 31 -93 0
33 44 35 42 36 31 -92 0
33 44 35 42 36 31 -94 0
33 44 35 42 45 41 -91 0
33 44 35 42 45 41 -93 0
33 44 35 42 45 41 -92 0
33 44 35 42 45 41 -94 0
33 44 35 42 31 41 -91 0
33 44 35 42 31 41 -93 0
33 44 35 42 31 41 -92 0
33 44 35 42 31 41 -94 0
33 44 35 36 45 31 -91 0
33 44 35 36 45 31 -93 0
33 44 35 36 45 31 -92 0
33 44 35 36 45 31 -94 0
33 44 35 36 31 41 -91 0
33 44 35 36 31 41 -93 0
33 44 35 36 31 41 -92 0
33 44 35 36 31 41 -94 0
33 44 42 36 45 41 -91 0
33 44 42 36 45 41 -93 0
33 44 42 36 45 41 -92 0
33 44 42 36 45 41 -94 0
33 44 42 45 31 41 -91 0
33 44 42 45 31 41 -93 0
33 44 42 45 31 41 -92 0
33 44 42 45 31 41 -94 0
33 44 36 45 31 41 -91 0
33 44 36 45 31 41 -93 0
33 44 36 45 31 41 -92 0
33 44 36 45 31 41 -94 0
33 5 35 2 36 31 -34 0
33 5 35 2 36 31 -38 0
33 5 35 2 36 31 -32 0
33 5 35 2 36 31 -37 0
33 5 35 36 4 31 -34 0
33 5 35 36 4 31 -38 0
33 5 35 36 4 31 -32 0
33 5 35 36 4 31 -37 0
33 14 35 8 36 31 -58 0
33 14 35 8 36 31 -57 0
33 14 35 8 36 31 -59 0
33 14 35 8 36 31 -60 0
33 14 35 36 9 31 -58 0
33 14 35 36 9 31 -57 0
33 14 35 36 9 31 -59 0
33 14 35 36 9 31 -60 0
33 29 35 28 36 31 -81 0
33 29 35 28 36 31 -83 0
33 29 35 28 36 31 -82 0
33 29 35 28 36 31 -84 0
33 29 35 36 25 31 -81 0
33 29 35 36 25 31 -83 0
33 29 35 36 25 31 -82 0
33 29 35 36 25 31 -84 0
33 20 35 18 36 31 -73 0
33 20 35 18 36 31 -72 0
33 20 35 18 36 31 -71 0
33 20 35 18 36 31 -74 0
33 20 35 36 21 31 -73 0
33 20 35 36 21 31 -72 0
33 20 35 36 21 31 -71 0
33 20 35 36 21 31 -74 0
33 35 42 36 45 31 -91 0
33 35 42 36 45 31 -93 0
33 35 42 36 45 31 -92 0
33 35 42 36 45 31 -94 0
33 35 42 36 31 41 -91 0
33 35 42 36 31 41 -93 0
33 35 42 36 31 41 -92 0
33 35 42 36 31 41 -94 0
33 35 2 36 4 31 -34 0
33 35 2 36 4 31 -38 0
33 35 2 36 4 31 -32 0
33 35 2 36 4 31 -37 0
33 35 8 36 9 31 -58 0
33 35 8 36 9 31 -57 0
33 35 8 36 9 31 -59 0
33 35 8 36 9 31 -60 0
33 35 28 36 25 31 -81 0
33 35 28 36 25 31 -83 0
33 35 28 36 25 31 -82 0
33 35 28 36 25 31 -84 0
33 35 18 36 21 31 -73 0
33 35 18 36 21 31 -72 0
33 35 18 36 21 31 -71 0
33 35 18 36 21 31 -74 0
33 35 36 45 31 41 -91 0
33 35 36 45 31 41 -93 0
33 35 36 45 31 41 -92 0
33 35 36 45 31 41 -94 0
44 5 42 2 45 41 -40 0
44 5 42 2 45 41 -46 0
44 5 42 2 45 41 -43 0
44 5 42 2 45 41 -39 0
44 5 42 45 4 41 -40 0
44 5 42 45 4 41 -46 0
44 5 42 45 4 41 -43 0
44 5 42 45 4 41 -39 0
44 14 42 8 45 41 -61 0
44 14 42 8 45 41 -62 0
44 14 42 8 45 41 -63 0
44 14 42 8 45 41 -64 0
44 14 42 45 9 41 -61 0
44 14 42 45 9 41 -62 0
44 14 42 45 9 41 -63 0
44 14 42 45 9 41 -64 0
44 29 42 28 45 41 -85 0
44 29 42 28 45 41 -87 0
44 29 42 28 45 41 -88 0
44 29 42 28 45 41 -86 0
44 29 42 45 25 41 -85 0
44 29 42 45 25 41 -87 0
44 29 42 45 25 41 -88 0
44 29 42 45 25 41 -86 0
44 20 42 18 45 41 -77 0
44 20 42 18 45 41 -78 0
44 20 42 18 45 41 -76 0
44 20 42 18 45 41 -75 0
44 20 42 45 21 41 -77 0
44 20 42 45 21 41 -78 0
44 20 42 45 21 41 -76 0
44 20 42 45 21 41 -75 0
44 35 42 36 45 41 -91 0
44 35 42 36 45 41 -93 0
44 35 42 36 45 41 -92 0
44 35 42 36 45 41 -94 0
44 35 42 45 31 41 -91 0
44 35 42 45 31 41 -93 0
44 35 42 45 31 41 -92 0
44 35 42 45 31 41 -94 0
44 42 2 45 4 41 -40 0
44 42 2 45 4 41 -46 0
44 42 2 45 4 41 -43 0
44 42 2 45 4 41 -39 0
44 42 8 45 9 41 -61 0
44 42 8 45 9 41 -62 0
44 42 8 45 9 41 -63 0
44 42 8 45 9 41 -64 0
44 42 28 45 25 41 -85 0
44 42 28 45 25 41 -87 0
44 42 28 45 25 41 -88 0
44 42 28 45 25 41 -86 0
44 42 18 45 21 41 -77 0
44 42 18 45 21 41 -78 0
44 42 18 45 21 41 -76 0
44 42 18 45 21 41 -75 0
44 42 36 45 31 41 -91 0
44 42 36 45 31 41 -93 0
44 42 36 45 31 41 -92 0
44 42 36 45 31 41 -94 0
5 14 2 8 4 9 -7 0
5 14 2 8 4 9 -10 0
5 14 2 8 4 9 -13 0
5 14 2 8 4 9 -12 0
5 29 2 28 4 25 -23 0
5 29 2 28 4 25 -24 0
5 29 2 28 4 25 -26 0
5 29 2 28 4 25 -30 0
5 20 2 18 4 21 -17 0
5 20 2 18 4 21 -22 0
5 20 2 18 4 21 -16 0
5 20 2 18 4 21 -19 0
5 35 2 36 4 31 -34 0
5 35 2 36 4 31 -38 0
5 35 2 36 4 31 -32 0
5 35 2 36 4 31 -37 0
5 42 2 45 4 41 -40 0
5 42 2 45 4 41 -46 0
5 42 2 45 4 41 -43 0
5 42 2 45 4 41 -39 0
14 29 8 28 9 25 -55 0
14 29 8 28 9 25 -56 0
14 29 8 28 9 25 -54 0
14 29 8 28 9 25 -53 0
14 20 8 18 9 21 -49 0
14 20 8 18 9 21 -51 0
14 20 8 18 9 21 -50 0
14 20 8 18 9 21 -52 0
14 35 8 36 9 31 -58 0
14 35 8 36 9 31 -57 0
14 35 8 36 9 31 -59 0
14 35 8 36 9 31 -60 0
14 42 8 45 9 41 -61 0
14 42 8 45 9 41 -62 0
14 42 8 45 9 41 -63 0
14 42 8 45 9 41 -64 0
29 20 28 18 25 21 -68 0
29 20 28 18 25 21 -69 0
29 20 28 18 25 21 -67 0
29 20 28 18 25 21 -70 0
29 35 28 36 25 31 -81 0
29 35 28 36 25 31 -83 0
29 35 28 36 25 31 -82 0
29 35 28 36 25 31 -84 0
29 42 28 45 25 41 -85 0
29 42 28 45 25 41 -87 0
29 42 28 45 25 41 -88 0
29 42 28 45 25 41 -86 0
20 35 18 36 21 31 -73 0
20 35 18 36 21 31 -72 0
20 35 18 36 21 31 -71 0
20 35 18 36 21 31 -74 0
20 42 18 45 21 41 -77 0
20 42 18 45 21 41 -78 0
20 42 18 45 21 41 -76 0
20 42 18 45 21 41 -75 0
35 42 36 45 31 41 -91 0
35 42 36 45 31 41 -93 0
35 42 36 45 31 41 -92 0
35 42 36 45 31 41 -94 0
6 11 5 14 2 8 4 -7 0
6 11 5 14 2 8 4 -10 0
6 11 5 14 2 8 4 -13 0
6 11 5 14 2 8 4 -12 0
6 11 5 14 2 8 9 -7 0
6 11 5 14 2 8 9 -10 0
6 11 5 14 2 8 9 -13 0
6 11 5 14 2 8 9 -12 0
6 11 5 14 2 4 9 -7 0
6 11 5 14 2 4 9 -10 0
6 11 5 14 2 4 9 -13 0
6 11 5 14 2 4 9 -12 0
6 11 5 14 8 4 9 -7 0
6 11 5 14 8 4 9 -10 0
6 11 5 14 8 4 9 -13 0
6 11 5 14 8 4 9 -12 0
6 11 5 2 8 4 9 -7 0
6 11 5 2 8 4 9 -10 0
6 11 5 2 8 4 9 -13 0
6 11 5 2 8 4 9 -12 0
6 11 14 2 8 4 9 -7 0
6 11 14 2 8 4 9 -10 0
6 11 14 2 8 4 9 -13 0
6 11 14 2 8 4 9 -12 0
6 27 5 29 2 28 4 -23 0
6 27 5 29 2 28 4 -24 0
6 27 5 29 2 28 4 -26 0
6 27 5 29 2 28 4 -30 0
6 27 5 29 2 28 25 -23 0
6 27 5 29 2 28 25 -24 0
6 27 5 29 2 28 25 -26 0
6 27 5 29 2 28 25 -30 0
6 27 5 29 2 4 25 -23 0
6 27 5 29 2 4 25 -24 0
6 27 5 29 2 4 25 -26 0
6 27 5 29 2 4 25 -30 0
6 27 5 29 28 4 25 -23 0
6 27 5 29 28 4 25 -24 0
6 27 5 29 28 4 25 -26 0
6 27 5 29 28 4 25 -30 0
6 27 5 2 28 4 25 -23 0
6 27 5 2 28 4 25 -24 0
6 27 5 2 28 4 25 -26 0
6 27 5 2 28 4 25 -30 0
6 27 29 2 28 4 25 -23 0
6 27 29 2 28 4 25 -24 0
6 27 29 2 28 4 25 -26 0
6 27 29 2 28 4 25 -30 0
6 15 5 20 2 18 4 -17 0
6 15 5 20 2 18 4 -22 0
6 15 5 20 2 18 4 -16 0
6 15 5 20 2 18 4 -19 0
6 15 5 20 2 18 21 -17 0
6 15 5 20 2 18 21 -22 0
6 15 5 20 2 18 21 -16 0
6 15 5 20 2 18 21 -19 0
6 15 5 20 2 4 21 -17 0
6 15 5 20 2 4 21 -22 0
6 15 5 20 2 4 21 -16 0
6 15 5 20 2 4 21 -19 0
6 15 5 20 18 4 21 -17 0
6 15 5 20 18 4 21 -22 0
6 15 5 20 18 4 21 -16 0
6 15 5 20 18 4 21 -19 0
6 15 5 2 18 4 21 -17 0
6 15 5 2 18 4 21 -22 0
6 15 5 2 18 4 21 -16 0
6 15 5 2 18 4 21 -19 0
6 15 20 2 18 4 21 -17 0
6 15 20 2 18 4 21 -22 0
6 15 20 2 18 4 21 -16 0
6 15 20 2 18 4 21 -19 0
6 33 5 35 2 36 4 -34 0
6 33 5 35 2 36 4 -38 0
6 33 5 35 2 36 4 -32 0
6 33 5 35 2 36 4 -37 0
6 33 5 35 2 36 31 -34 0
6 33 5 35 2 36 31 -38 0
6 33 5 35 2 36 31 -32 0
6 33 5 35 2 36 31 -37 0
6 33 5 35 2 4 31 -34 0
6 33 5 35 2 4 31 -38 0
6 33 5 35 2 4 31 -32 0
6 33 5 35 2 4 31 -37 0
6 33 5 35 36 4 31 -34 0
6 33 5 35 36 4 31 -38 0
6 33 5 35 36 4 31 -32 0
6 33 5 35 36 4 31 -37 0
6 33 5 2 36 4 31 -34 0
6 33 5 2 36 4 31 -38 0
6 33 5 2 36 4 31 -32 0
6 33 5 2 36 4 31 -37 0
6 33 35 2 36 4 31 -34 0
6 33 35 2 36 4 31 -38 0
6 33 35 2 36 4 31 -32 0
6 33 35 2 36 4 31 -37 0
6 44 5 42 2 45 4 -40 0
6 44 5 42 2 45 4 -46 0
6 44 5 42 2 45 4 -43 0
6 44 5 42 2 45 4 -39 0
6 44 5 42 2 45 41 -40 0
6 44 5 42 2 45 41 -46 0
6 44 5 42 2 45 41 -43 0
6 44 5 42 2 45 41 -39 0
6 44 5 42 2 4 41 -40 0
6 44 5 42 2 4 41 -46 0
6 44 5 42 2 4 41 -43 0
6 44 5 42 2 4 41 -39 0
6 44 5 42 45 4 41 -40 0
6 44 5 42 45 4 41 -46 0
6 44 5 42 45 4 41 -43 0
6 44 5 42 45 4 41 -39 0
6 44 5 2 45 4 41 -40 0
6 44 5 2 45 4 41 -46 0
6 44 5 2 45 4 41 -43 0
6 44 5 2 45 4 41 -39 0
6 44 42 2 45 4 41 -40 0
6 44 42 2 45 4 41 -46 0
6 44 42 2 45 4 41 -43 0
6 44 42 2 45 4 41 -39 0
6 5 14 2 8 4 9 -7 0
6 5 14 2 8 4 9 -10 0
6 5 14 2 8 4 9 -13 0
6 5 14 2 8 4 9 -12 0
6 5 29 2 28 4 25 -23 0
6 5 29 2 28 4 25 -24 0
6 5 29 2 28 4 25 -26 0
6 5 29 2 28 4 25 -30 0
6 5 20 2 18 4 21 -17 0
6 5 20 2 18 4 21 -22 0
6 5 20 2 18 4 21 -16 0
6 5 20 2 18 4 21 -19 0
6 5 35 2 36 4 31 -34 0
6 5 35 2 36 4 31 -38 0
6 5 35 2 36 4 31 -32 0
6 5 35 2 36 4 31 -37 0
6 5 42 2 45 4 41 -40 0
6 5 42 2 45 4 41 -46 0
6 5 42 2 45 4 41 -43 0
6 5 42 2 45 4 41 -39 0
11 27 14 29 8 28 9 -55 0
11 27 14 29 8 28 9 -56 0
11 27 14 29 8 28 9 -54 0
11 27 14 29 8 28 9 -53 0
11 27 14 29 8 28 25 -55 0
11 27 14 29 8 28 25 -56 0
11 27 14 29 8 28 25 -54 0
11 27 14 29 8 28 25 -53 0
11 27 14 29 8 9 25 -55 0
11 27 14 29 8 9 25 -56 0
11 27 14 29 8 9 25 -54 0
11 27 14 29 8 9 25 -53 0
11 27 14 29 28 9 25 -55 0
11 27 14 29 28 9 25 -56 0
11 27 14 29 28 9 25 -54 0
11 27 14 29 28 9 25 -53 0
11 27 14 8 28 9 25 -55 0
11 27 14 8 28 9 25 -56 0
11 27 14 8 28 9 25 -54 0
11 27 14 8 28 9 25 -53 0
11 27 29 8 28 9 25 -55 0
11 27 29 8 28 9 25 -56 0
11 27 29 8 28 9 25 -54 0
11 27 29 8 28 9 25 -53 0
11 15 14 20 8 18 9 -49 0
11 15 14 20 8 18 9 -51 0
11 15 14 20 8 18 9 -50 0
11 15 14 20 8 18 9 -52 0
11 15 14 20 8 18 21 -49 0
11 15 14 20 8 18 21 -51 0
11 15 14 20 8 18 21 -50 0
11 15 14 20 8 18 21 -52 0
11 15 14 20 8 9 21 -49 0
11 15 14 20 8 9 21 -51 0
11 15 14 20 8 9 21 -50 0
11 15 14 20 8 9 21 -52 0
11 15 14 20 18 9 21 -49 0
11 15 14 20 18 9 21 -51 0
11 15 14 20 18 9 21 -50 0
11 15 14 20 18 9 21 -52 0
11 15 14 8 18 9 21 -49 0
11 15 14 8 18 9 21 -51 0
11 15 14 8 18 9 21 -50 0
11 15 14 8 18 9 21 -52 0
11 15 20 8 18 9 21 -49 0
11 15 20 8 18 9 21 -51 0
11 15 20 8 18 9 21 -50 0
11 15 20 8 18 9 21 -52 0
11 33 14 35 8 36 9 -58 0
11 33 14 35 8 36 9 -57 0
11 33 14 35 8 36 9 -59 0
11 33 14 35 8 36 9 -60 0
11 33 14 35 8 36 31 -58 0
11 33 14 35 8 36 31 -57 0
11 33 14 35 8 36 31 -59 0
11 33 14 35 8 36 31 -60 0
11 33 14 35 8 9 31 -58 0
11 33 14 35 8 9 31 -57 0
11 33 14 35 8 9 31 -59 0
11 33 14 35 8 9 31 -60 0
11 33 14 35 36 9 31 -58 0
11 33 14 35 36 9 31 -57 0
11 33 14 35 36 9 31 -59 0
11 33 14 35 36 9 31 -60 0
11 33 14 8 36 9 31 -58 0
11 33 14 8 36 9 31 -57 0
11 33 14 8 36 9 31 -59 0
11 33 14 8 36 9 31 -60 0
11 33 35 8 36 9 31 -58 0
11 33 35 8 36 9 31 -57 0
11 33 35 8 36 9 31 -59 0
11 33 35 8 36 9 31 -60 0
11 44 14 42 8 45 9 -61 0
11 44 14 42 8 45 9 -62 0
11 44 14 42 8 45 9 -63 0
11 44 14 42 8 45 9 -64 0
11 44 14 42 8 45 41 -61 0
11 44 14 42 8 45 41 -62 0
11 44 14 42 8 45 41 -63 0
11 44 14 42 8 45 41 -64 0
11 44 14 42 8 9 41 -61 0
11 44 14 42 8 9 41 -62 0
11 44 14 42 8 9 41 -63 0
11 44 14 42 8 9 41 -64 0
11 44 14 42 45 9 41 -61 0
11 44 14 42 45 9 41 -62 0
11 44 14 42 45 9 41 -63 0
11 44 14 42 45 9 41 -64 0
11 44 14 8 45 9 41 -61 0
11 44 14 8 45 9 41 -62 0
11 44 14 8 45 9 41 -63 0
11 44 14 8 45 9 41 -64 0
11 44 42 8 45 9 41 -61 0
11 44 42 8 45 9 41 -62 0
11 44 42 8 45 9 41 -63 0
11 44 42 8 45 9 41 -64 0
11 5 14 2 8 4 9 -7 0
11 5 14 2 8 4 9 -10 0
11 5 14 2 8 4 9 -13 0
11 5 14 2 8 4 9 -12 0
11 14 29 8 28 9 25 -55 0
11 14 29 8 28 9 25 -56 0
11 14 29 8 28 9 25 -54 0
11 14 29 8 28 9 25 -53 0
11 14 20 8 18 9 21 -49 0
11 14 20 8 18 9 21 -51 0
11 14 20 8 18 9 21 -50 0
11 14 20 8 18 9 21 -52 0
11 14 35 8 36 9 31 -58 0
11 14 35 8 36 9 31 -57 0
11 14 35 8 36 9 31 -59 0
11 14 35 8 36 9 31 -60 0
11 14 42 8 45 9 41 -61 0
11 14 42 8 45 9 41 -62 0
11 14 42 8 45 9 41 -63 0
11 14 42 8 45 9 41 -64 0
27 15 29 20 28 18 25 -68 0
27 15 29 20 28 18 25 -69 0
27 15 29 20 28 18 25 -67 0
27 15 29 20 28 18 25 -70 0
27 15 29 20 28 18 21 -68 0
27 15 29 20 28 18 21 -69 0
27 15 29 20 28 18 21 -67 0
27 15 29 20 28 18 21 -70 0
27 15 29 20 28 25 21 -68 0
27 15 29 20 28 25 21 -69 0
27 15 29 20 28 25 21 -67 0
27 15 29 20 28 25 21 -70 0
27 15 29 20 18 25 21 -68 0
27 15 29 20 18 25 21 -69 0
27 15 29 20 18 25 21 -67 0
27 15 29 20 18 25 21 -70 0
27 15 29 28 18 25 21 -68 0
27 15 29 28 18 25 21 -69 0
27 15 29 28 18 25 21 -67 0
27 15 29 28 18 25 21 -70 0
27 15 20 28 18 25 21 -68 0
27 15 20 28 18 25 21 -69 0
27 15 20 28 18 25 21 -67 0
27 15 20 28 18 25 21 -70 0
27 33 29 35 28 36 25 -81 0
27 33 29 35 28 36 25 -83 0
27 33 29 35 28 36 25 -82 0
27 33 29 35 28 36 25 -84 0
27 33 29 35 28 36 31 -81 0
27 33 29 35 28 36 31 -83 0
27 33 29 35 28 36 31 -82 0
27 33 29 35 28 36 31 -84 0
27 33 29 35 28 25 31 -81 0
27 33 29 35 28 25 31 -83 0
27 33 29 35 28 25 31 -82 0
27 33 29 35 28 25 31 -84 0
27 33 29 35 36 25 31 -81 0
27 33 29 35 36 25 31 -83 0
27 33 29 35 36 25 31 -82 0
27 33 29 35 36 25 31 -84 0
27 33 29 28 36 25 31 -81 0
27 33 29 28 36 25 31 -83 0
27 33 29 28 36 25 31 -82 0
27 33 29 28 36 25 31 -84 0
27 33 35 28 36 25 31 -81 0
27 33 35 28 36 25 31 -83 0
27 33 35 28 36 25 31 -82 0
27 33 35 28 36 25 31 -84 0
27 44 29 42 28 45 25 -85 0
27 44 29 42 28 45 25 -87 0
27 44 29 42 28 45 25 -88 0
27 44 29 42 28 45 25 -86 0
27 44 29 42 28 45 41 -85 0
27 44 29 42 28 45 41 -87 0
27 44 29 42 28 45 41 -88 0
27 44 29 42 28 45 41 -86 0
27 44 29 42 28 25 41 -85 0
27 44 29 42 28 25 41 -87 0
27 44 29 42 28 25 41 -88 0
27 44 29 42 28 25 41 -86 0
27 44 29 42 45 25 41 -85 0
27 44 29 42 45 25 41 -87 0
27 44 29 42 45 25 41 -88 0
27 44 29 42 45 25 41 -86 0
27 44 29 28 45 25 41 -85 0
27 44 29 28 45 25 41 -87 0
27 44 29 28 45 25 41 -88 0
27 44 29 28 45 25 41 -86 0
27 44 42 28 45 25 41 -85 0
27 44 42 28 45 25 41 -87 0
27 44 42 28 45 25 41 -88 0
27 44 42 28 45 25 41 -86 0
27 5 29 2 28 4 25 -23 0
27 5 29 2 28 4 25 -24 0
27 5 29 2 28 4 25 -26 0
27 5 29 2 28 4 25 -30 0
27 14 29 8 28 9 25 -55 0
27 14 29 8 28 9 25 -56 0
27 14 29 8 28 9 25 -54 0
27 14 29 8 28 9 25 -53 0
27 29 20 28 18 25 21 -68 0
27 29 20 28 18 25 21 -69 0
27 29 20 28 18 25 21 -67 0
27 29 20 28 18 25 21 -70 0
27 29 35 28 36 25 31 -81 0
27 29 35 28 36 25 31 -83 0
27 29 35 28 36 25 31 -82 0
27 29 35 28 36 25 31 -84 0
27 29 42 28 45 25 41 -85 0
27 29 42 28 45 25 41 -87 0
27 29 42 28 45 25 41 -88 0
27 29 42 28 45 25 41 -86 0
15 33 20 35 18 36 21 -73 0
15 33 20 35 18 36 21 -72 0
15 33 20 35 18 36 21 -71 0
15 33 20 35 18 36 21 -74 0
15 33 20 35 18 36 31 -73 0
15 33 20 35 18 36 31 -72 0
15 33 20 35 18 36 31 -71 0
15 33 20 35 18 36 31 -74 0
15 33 20 35 18 21 31 -73 0
15 33 20 35 18 21 31 -72 0
15 33 20 35 18 21 31 -71 0
15 33 20 35 18 21 31 -74 0
15 33 20 35 36 21 31 -73 0
15 33 20 35 36 21 31 -72 0
15 33 20 35 36 21 31 -71 0
15 33 20 35 36 21 31 -74 0
15 33 20 18 36 21 31 -73 0
15 33 20 18 36 21 31 -72 0
15 33 20 18 36 21 31 -71 0
15 33 20 18 36 21 31 -74 0
15 33 35 18 36 21 31 -73 0
15 33 35 18 36 21 31 -72 0
15 33 35 18 36 21 31 -71 0
15 33 35 18 36 21 31 -74 0
15 44 20 42 18 45 21 -77 0
15 44 20 42 18 45 21 -78 0
15 44 20 42 18 45 21 -76 0
15 44 20 42 18 45 21 -75 0
15 44 20 42 18 45 41 -77 0
15 44 20 42 18 45 41 -78 0
15 44 20 42 18 45 41 -76 0
15 44 20 42 18 45 41 -75 0
15 44 20 42 18 21 41 -77 0
15 44 20 42 18 21 41 -78 0
15 44 20 42 18 21 41 -76 0
15 44 20 42 18 21 41 -75 0
15 44 20 42 45 21 41 -77 0
15 44 20 42 45 21 41 -78 0
15 44 20 42 45 21 41 -76 0
15 44 20 42 45 21 41 -75 0
15 44 20 18 45 21 41 -77 0
15 44 20 18 45 21 41 -78 0
15 44 20 18 45 21 41 -76 0
15 44 20 18 45 21 41 -75 0
15 44 42 18 45 21 41 -77 0
15 44 42 18 45 21 41 -78 0
15 44 42 18 45 21 41 -76 0
15 44 42 18 45 21 41 -75 0
15 5 20 2 18 4 21 -17 0
15 5 20 2 18 4 21 -22 0
15 5 20 2 18 4 21 -16 0
15 5 20 2 18 4 21 -19 0
15 14 20 8 18 9 21 -49 0
15 14 20 8 18 9 21 -51 0
15 14 20 8 18 9 21 -50 0
15 14 20 8 18 9 21 -52 0
15 29 20 28 18 25 21 -68 0
15 29 20 28 18 25 21 -69 0
15 29 20 28 18 25 21 -67 0
15 29 20 28 18 25 21 -70 0
15 20 35 18 36 21 31 -73 0
15 20 35 18 36 21 31 -72 0
15 20 35 18 36 21 31 -71 0
15 20 35 18 36 21 31 -74 0
15 20 42 18 45 21 41 -77 0
15 20 42 18 45 21 41 -78 0
15 20 42 18 45 21 41 -76 0
15 20 42 18 45 21 41 -75 0
33 44 35 42 36 45 31 -91 0
33 44 35 42 36 45 31 -93 0
33 44 35 42 36 45 31 -92 0
33 44 35 42 36 45 31 -94 0
33 44 35 42 36 45 41 -91 0
33 44 35 42 36 45 41 -93 0
33 44 35 42 36 45 41 -92 0
33 44 35 42 36 45 41 -94 0
33 44 35 42 36 31 41 -91 0
33 44 35 42 36 31 41 -93 0
33 44 35 42 36 31 41 -92 0
33 44 35 42 36 31 41 -94 0
33 44 35 42 45 31 41 -91 0
33 44 35 42 45 31 41 -93 0
33 44 35 42 45 31 41 -92 0
33 44 35 42 45 31 41 -94 0
33 44 35 36 45 31 41 -91 0
33 44 35 36 45 31 41 -93 0
33 44 35 36 45 31 41 -92 0
33 44 35 36 45 31 41 -94 0
33 44 42 36 45 31 41 -91 0
33 44 42 36 45 31 41 -93 0
33 44 42 36 45 31 41 -92 0
33 44 42 36 45 31 41 -94 0
33 5 35 2 36 4 31 -34 0
33 5 35 2 36 4 31 -38 0
33 5 35 2 36 4 31 -32 0
33 5 35 2 36 4 31 -37 0
33 14 35 8 36 9 31 -58 0
33 14 35 8 36 9 31 -57 0
33 14 35 8 36 9 31 -59 0
33 14 35 8 36 9 31 -60 0
33 29 35 28 36 25 31 -81 0
33 29 35 28 36 25 31 -83 0
33 29 35 28 36 25 31 -82 0
33 29 35 28 36 25 31 -84 0
33 20 35 18 36 21 31 -73 0
33 20 35 18 36 21 31 -72 0
33 20 35 18 36 21 31 -71 0
33 20 35 18 36 21 31 -74 0
33 35 42 36 45 31 41 -91 0
33 35 42 36 45 31 41 -93 0
33 35 42 36 45 31 41 -92 0
33 35 42 36 45 31 41 -94 0
44 5 42 2 45 4 41 -40 0
44 5 42 2 45 4 41 -46 0
44 5 42 2 45 4 41 -43 0
44 5 42 2 45 4 41 -39 0
44 14 42 8 45 9 41 -61 0
44 14 42 8 45 9 41 -62 0
44 14 42 8 45 9 41 -63 0
44 14 42 8 45 9 41 -64 0
44 29 42 28 45 25 41 -85 0
44 29 42 28 45 25 41 -87 0
44 29 42 28 45 25 41 -88 0
44 29 42 28 45 25 41 -86 0
44 20 42 18 45 21 41 -77 0
44 20 42 18 45 21 41 -78 0
44 20 42 18 45 21 41 -76 0
44 20 42 18 45 21 41 -75 0
44 35 42 36 45 31 41 -91 0
44 35 42 36 45 31 41 -93 0
44 35 42 36 45 31 41 -92 0
44 35 42 36 45 31 41 -94 0
6 11 5 14 2 8 4 9 -7 0
6 11 5 14 2 8 4 9 -10 0
6 11 5 14 2 8 4 9 -13 0
6 11 5 14 2 8 4 9 -12 0
6 27 5 29 2 28 4 25 -23 0
6 27 5 29 2 28 4 25 -24 0
6 27 5 29 2 28 4 25 -26 0
6 27 5 29 2 28 4 25 -30 0
6 15 5 20 2 18 4 21 -17 0
6 15 5 20 2 18 4 21 -22 0
6 15 5 20 2 18 4 21 -16 0
6 15 5 20 2 18 4 21 -19 0
6 33 5 35 2 36 4 31 -34 0
6 33 5 35 2 36 4 31 -38 0
6 33 5 35 2 36 4 31 -32 0
6 33 5 35 2 36 4 31 -37 0
6 44 5 42 2 45 4 41 -40 0
6 44 5 42 2 45 4 41 -46 0
6 44 5 42 2 45 4 41 -43 0
6 44 5 42 2 45 4 41 -39 0
11 27 14 29 8 28 9 25 -55 0
11 27 14 29 8 28 9 25 -56 0
11 27 14 29 8 28 9 25 -54 0
11 27 14 29 8 28 9 25 -53 0
11 15 14 20 8 18 9 21 -49 0
11 15 14 20 8 18 9 21 -51 0
11 15 14 20 8 18 9 21 -50 0
11 15 14 20 8 18 9 21 -52 0
11 33 14 35 8 36 9 31 -58 0
11 33 14 35 8 36 9 31 -57 0
11 33 14 35 8 36 9 31 -59 0
11 33 14 35 8 36 9 31 -60 0
11 44 14 42 8 45 9 41 -61 0
11 44 14 42 8 45 9 41 -62 0
11 44 14 42 8 45 9 41 -63 0
11 44 14 42 8 45 9 41 -64 0
27 15 29 20 28 18 25 21 -68 0
27 15 29 20 28 18 25 21 -69 0
27 15 29 20 28 18 25 21 -67 0
27 15 29 20 28 18 25 21 -70 0
27 33 29 35 28 36 25 31 -81 0
27 33 29 35 28 36 25 31 -83 0
27 33 29 35 28 36 25 31 -82 0
27 33 29 35 28 36 25 31 -84 0
27 44 29 42 28 45 25 41 -85 0
27 44 29 42 28 45 25 41 -87 0
27 44 29 42 28 45 25 41 -88 0
27 44 29 42 28 45 25 41 -86 0
15 33 20 35 18 36 21 31 -73 0
15 33 20 35 18 36 21 31 -72 0
15 33 20 35 18 36 21 31 -71 0
15 33 20 35 18 36 21 31 -74 0
15 44 20 42 18 45 21 41 -77 0
15 44 20 42 18 45 21 41 -78 0
15 44 20 42 18 45 21 41 -76 0
15 44 20 42 18 45 21 41 -75 0
33 44 35 42 36 45 31 41 -91 0
33 44 35 42 36 45 31 41 -93 0
33 44 35 42 36 45 31 41 -92 0
33 44 35 42 36 45 31 41 -94 0
