c U4(6) U2(6) U3(6) U1(6) E2(6,6) E1(6,6) E2(6,2) U2(2) U1(2) E1(6,2) E1(2,6) U3(2) U4(2) E2(2,6) U3(5) E2(5,6) U4(5) U2(5) U1(5) E2(6,5) E1(5,6) E1(6,5) U3(4) U4(4) U2(4) E1(6,4) U1(4) E2(4,6) E2(6,4) E1(4,6) E2(1,6) E2(6,1) U4(1) U3(1) U2(1) U1(1) E1(1,6) E1(6,1) U4(0) U3(0) E1(0,6) U1(0) E2(0,6) E1(6,0) U2(0) E2(6,0) E2(6,3) E1(3,6) U3(3) U2(3) U4(3) E2(3,6) U1(3) E1(6,3) E1(2,2) E2(2,2) E1(5,2) E1(2,5) E2(5,2) E2(2,5) E2(2,4) E2(4,2) E1(4,2) E1(2,4) E2(2,1) E2(1,2) E1(2,1) E1(1,2) E1(2,0) E2(2,0) E2(0,2) E1(0,2) E2(3,2) E1(3,2) E1(2,3) E2(2,3) E2(5,5) E1(5,5) E1(5,4) E2(4,5) E2(5,4) E1(4,5) E2(1,5) E1(5,1) E1(1,5) E2(5,1) E2(5,0) E1(5,0) E1(0,5) E2(0,5) E1(3,5) E2(3,5) E1(5,3) E2(5,3) E1(4,4) E2(4,4) E2(4,1) E2(1,4) E1(4,1) E1(1,4) E1(0,4) E2(4,0) E2(0,4) E1(4,0) E2(3,4) E1(4,3) E2(4,3) E1(3,4) E2(1,1) E1(1,1) E2(0,1) E2(1,0) E1(1,0) E1(0,1) E1(3,1) E2(3,1) E1(1,3) E2(1,3) E2(0,0) E1(0,0) E2(0,3) E1(3,0) E2(3,0) E1(0,3) E2(3,3) E1(3,3)
c 1 2 3 4 5 6 7 8 9 10 11 12 13 14 15 16 17 18 19 20 21 22 23 24 25 26 27 28 29 30 31 32 33 34 35 36 37 38 39 40 41 42 43 44 45 46 47 48 49 50 51 52 53 54 55 56 57 58 59 60 61 62 63 64 65 66 67 68 69 70 71 72 73 74 75 76 77 78 79 80 81 82 83 84 85 86 87 88 89 90 91 92 93 94 95 96 97 98 99 100 101 102 103 104 105 106 107 108 109 110 111 112 113 114 115 116 117 118 119 120 121 122 123 124 125 126
p cnf 126 3220
-120 0
-110 0
-55 0
-126 0
-95 0
-78 0
-6 0
-119 0
-109 0
-56 0
-125 0
-96 0
-77 0
-5 0
-120 -119 0
-114 -113 0
-114 -111 0
-114 -112 0
-72 -69 0
-72 -71 0
-72 -70 0
-124 -122 0
-124 -121 0
-124 -123 0
-101 -104 0
-101 -103 0
-101 -102 0
-89 -88 0
-89 -90 0
-89 -87 0
-41 -44 0
-41 -43 0
-41 -46 0
-113 -111 0
-113 -112 0
-110 -109 0
-68 -67 0
-68 -66 0
-68 -65 0
-117 -115 0
-117 -118 0
-117 -116 0
-100 -99 0
-100 -98 0
-100 -97 0
-85 -84 0
-85 -83 0
-85 -86 0
-37 -38 0
-37 -31 0
-37 -32 0
-69 -71 0
-69 -70 0
-67 -66 0
-67 -65 0
-55 -56 0
-75 -74 0
-75 -76 0
-75 -73 0
-64 -63 0
-64 -61 0
-64 -62 0
-58 -57 0
-58 -60 0
-58 -59 0
-11 -10 0
-11 -14 0
-11 -7 0
-122 -121 0
-122 -123 0
-115 -118 0
-115 -116 0
-74 -76 0
-74 -73 0
-126 -125 0
-108 -106 0
-108 -105 0
-108 -107 0
-91 -93 0
-91 -92 0
-91 -94 0
-48 -54 0
-48 -52 0
-48 -47 0
-104 -103 0
-104 -102 0
-99 -98 0
-99 -97 0
-63 -61 0
-63 -62 0
-106 -105 0
-106 -107 0
-95 -96 0
-82 -79 0
-82 -80 0
-82 -81 0
-30 -26 0
-30 -28 0
-30 -29 0
-88 -90 0
-88 -87 0
-84 -83 0
-84 -86 0
-57 -60 0
-57 -59 0
-93 -92 0
-93 -94 0
-79 -80 0
-79 -81 0
-78 -77 0
-21 -22 0
-21 -16 0
-21 -20 0
-44 -43 0
-44 -46 0
-38 -31 0
-38 -32 0
-10 -14 0
-10 -7 0
-54 -52 0
-54 -47 0
-26 -28 0
-26 -29 0
-22 -16 0
-22 -20 0
-6 -5 0
-111 -112 0
-71 -70 0
-121 -123 0
-103 -102 0
-90 -87 0
-43 -46 0
-66 -65 0
-118 -116 0
-98 -97 0
-83 -86 0
-31 -32 0
-76 -73 0
-61 -62 0
-60 -59 0
-14 -7 0
-105 -107 0
-92 -94 0
-52 -47 0
-80 -81 0
-28 -29 0
-16 -20 0
-42 -45 0
-42 -40 0
-42 -39 0
-36 -35 0
-36 -34 0
-36 -33 0
-9 -8 0
-9 -12 0
-9 -13 0
-53 -50 0
-53 -49 0
-53 -51 0
-27 -25 0
-27 -23 0
-27 -24 0
-19 -18 0
-19 -15 0
-19 -17 0
-4 -2 0
-4 -3 0
-4 -1 0
-45 -40 0
-45 -39 0
-35 -34 0
-35 -33 0
-8 -12 0
-8 -13 0
-50 -49 0
-50 -51 0
-25 -23 0
-25 -24 0
-18 -15 0
-18 -17 0
-2 -3 0
-2 -1 0
-40 -39 0
-34 -33 0
-12 -13 0
-49 -51 0
-23 -24 0
-15 -17 0
-3 -1 0
42 45 40 39 0
36 35 34 33 0
9 8 12 13 0
53 50 49 51 0
27 25 23 24 0
19 18 15 17 0
4 2 3 1 0
42 45 40 -120 0
42 45 40 -119 0
42 45 39 -120 0
42 45 39 -119 0
42 40 39 -120 0
42 40 39 -119 0
36 35 34 -110 0
36 35 34 -109 0
36 35 33 -110 0
36 35 33 -109 0
36 34 33 -110 0
36 34 33 -109 0
9 8 12 -55 0
9 8 12 -56 0
9 8 13 -55 0
9 8 13 -56 0
9 12 13 -55 0
9 12 13 -56 0
53 50 49 -126 0
53 50 49 -125 0
53 50 51 -126 0
53 50 51 -125 0
53 49 51 -126 0
53 49 51 -125 0
27 25 23 -95 0
27 25 23 -96 0
27 25 24 -95 0
27 25 24 -96 0
27 23 24 -95 0
27 23 24 -96 0
19 18 15 -78 0
19 18 15 -77 0
19 18 17 -78 0
19 18 17 -77 0
19 15 17 -78 0
19 15 17 -77 0
4 2 3 -6 0
4 2 3 -5 0
4 2 1 -6 0
4 2 1 -5 0
4 3 1 -6 0
4 3 1 -5 0
45 40 39 -120 0
45 40 39 -119 0
35 34 33 -110 0
35 34 33 -109 0
8 12 13 -55 0
8 12 13 -56 0
50 49 51 -126 0
50 49 51 -125 0
25 23 24 -95 0
25 23 24 -96 0
18 15 17 -78 0
18 15 17 -77 0
2 3 1 -6 0
2 3 1 -5 0
42 45 40 39 -120 0
42 45 40 39 -114 0
42 45 40 39 -72 0
42 45 40 39 -124 0
42 45 40 39 -101 0
42 45 40 39 -89 0
42 45 40 39 -41 0
42 45 40 39 -113 0
42 45 40 39 -69 0
42 45 40 39 -122 0
42 45 40 39 -104 0
42 45 40 39 -88 0
42 45 40 39 -44 0
42 45 40 39 -119 0
42 45 40 39 -111 0
42 45 40 39 -71 0
42 45 40 39 -121 0
42 45 40 39 -103 0
42 45 40 39 -90 0
42 45 40 39 -43 0
42 45 40 39 -112 0
42 45 40 39 -70 0
42 45 40 39 -123 0
42 45 40 39 -102 0
42 45 40 39 -87 0
42 45 40 39 -46 0
36 35 34 33 -114 0
36 35 34 33 -113 0
36 35 34 33 -110 0
36 35 34 33 -68 0
36 35 34 33 -117 0
36 35 34 33 -100 0
36 35 34 33 -85 0
36 35 34 33 -37 0
36 35 34 33 -67 0
36 35 34 33 -115 0
36 35 34 33 -99 0
36 35 34 33 -84 0
36 35 34 33 -38 0
36 35 34 33 -111 0
36 35 34 33 -112 0
36 35 34 33 -109 0
36 35 34 33 -66 0
36 35 34 33 -118 0
36 35 34 33 -98 0
36 35 34 33 -83 0
36 35 34 33 -31 0
36 35 34 33 -65 0
36 35 34 33 -116 0
36 35 34 33 -97 0
36 35 34 33 -86 0
36 35 34 33 -32 0
9 8 12 13 -72 0
9 8 12 13 -68 0
9 8 12 13 -69 0
9 8 12 13 -67 0
9 8 12 13 -55 0
9 8 12 13 -75 0
9 8 12 13 -64 0
9 8 12 13 -58 0
9 8 12 13 -11 0
9 8 12 13 -74 0
9 8 12 13 -63 0
9 8 12 13 -57 0
9 8 12 13 -10 0
9 8 12 13 -71 0
9 8 12 13 -66 0
9 8 12 13 -70 0
9 8 12 13 -65 0
9 8 12 13 -56 0
9 8 12 13 -76 0
9 8 12 13 -61 0
9 8 12 13 -60 0
9 8 12 13 -14 0
9 8 12 13 -73 0
9 8 12 13 -62 0
9 8 12 13 -59 0
9 8 12 13 -7 0
53 50 49 51 -124 0
53 50 49 51 -117 0
53 50 49 51 -75 0
53 50 49 51 -122 0
53 50 49 51 -115 0
53 50 49 51 -74 0
53 50 49 51 -126 0
53 50 49 51 -108 0
53 50 49 51 -91 0
53 50 49 51 -48 0
53 50 49 51 -106 0
53 50 49 51 -93 0
53 50 49 51 -54 0
53 50 49 51 -121 0
53 50 49 51 -118 0
53 50 49 51 -76 0
53 50 49 51 -123 0
53 50 49 51 -116 0
53 50 49 51 -73 0
53 50 49 51 -125 0
53 50 49 51 -105 0
53 50 49 51 -92 0
53 50 49 51 -52 0
53 50 49 51 -107 0
53 50 49 51 -94 0
53 50 49 51 -47 0
27 25 23 24 -101 0
27 25 23 24 -100 0
27 25 23 24 -64 0
27 25 23 24 -108 0
27 25 23 24 -104 0
27 25 23 24 -99 0
27 25 23 24 -63 0
27 25 23 24 -106 0
27 25 23 24 -95 0
27 25 23 24 -82 0
27 25 23 24 -30 0
27 25 23 24 -79 0
27 25 23 24 -26 0
27 25 23 24 -103 0
27 25 23 24 -98 0
27 25 23 24 -61 0
27 25 23 24 -105 0
27 25 23 24 -102 0
27 25 23 24 -97 0
27 25 23 24 -62 0
27 25 23 24 -107 0
27 25 23 24 -96 0
27 25 23 24 -80 0
27 25 23 24 -28 0
27 25 23 24 -81 0
27 25 23 24 -29 0
19 18 15 17 -89 0
19 18 15 17 -85 0
19 18 15 17 -58 0
19 18 15 17 -91 0
19 18 15 17 -82 0
19 18 15 17 -88 0
19 18 15 17 -84 0
19 18 15 17 -57 0
19 18 15 17 -93 0
19 18 15 17 -79 0
19 18 15 17 -78 0
19 18 15 17 -21 0
19 18 15 17 -22 0
19 18 15 17 -90 0
19 18 15 17 -83 0
19 18 15 17 -60 0
19 18 15 17 -92 0
19 18 15 17 -80 0
19 18 15 17 -87 0
19 18 15 17 -86 0
19 18 15 17 -59 0
19 18 15 17 -94 0
19 18 15 17 -81 0
19 18 15 17 -77 0
19 18 15 17 -16 0
19 18 15 17 -20 0
4 2 3 1 -41 0
4 2 3 1 -37 0
4 2 3 1 -11 0
4 2 3 1 -48 0
4 2 3 1 -30 0
4 2 3 1 -21 0
4 2 3 1 -44 0
4 2 3 1 -38 0
4 2 3 1 -10 0
4 2 3 1 -54 0
4 2 3 1 -26 0
4 2 3 1 -22 0
4 2 3 1 -6 0
4 2 3 1 -43 0
4 2 3 1 -31 0
4 2 3 1 -14 0
4 2 3 1 -52 0
4 2 3 1 -28 0
4 2 3 1 -16 0
4 2 3 1 -46 0
4 2 3 1 -32 0
4 2 3 1 -7 0
4 2 3 1 -47 0
4 2 3 1 -29 0
4 2 3 1 -20 0
4 2 3 1 -5 0
42 36 45 40 39 -114 0
42 36 45 40 39 -113 0
42 36 45 40 39 -111 0
42 36 45 40 39 -112 0
42 36 35 34 33 -114 0
42 36 35 34 33 -113 0
42 36 35 34 33 -111 0
42 36 35 34 33 -112 0
42 9 45 40 39 -72 0
42 9 45 40 39 -69 0
42 9 45 40 39 -71 0
42 9 45 40 39 -70 0
42 9 8 12 13 -72 0
42 9 8 12 13 -69 0
42 9 8 12 13 -71 0
42 9 8 12 13 -70 0
42 53 45 40 39 -124 0
42 53 45 40 39 -122 0
42 53 45 40 39 -121 0
42 53 45 40 39 -123 0
42 53 50 49 51 -124 0
42 53 50 49 51 -122 0
42 53 50 49 51 -121 0
42 53 50 49 51 -123 0
42 27 45 40 39 -101 0
42 27 45 40 39 -104 0
42 27 45 40 39 -103 0
42 27 45 40 39 -102 0
42 27 25 23 24 -101 0
42 27 25 23 24 -104 0
42 27 25 23 24 -103 0
42 27 25 23 24 -102 0
42 19 45 40 39 -89 0
42 19 45 40 39 -88 0
42 19 45 40 39 -90 0
42 19 45 40 39 -87 0
42 19 18 15 17 -89 0
42 19 18 15 17 -88 0
42 19 18 15 17 -90 0
42 19 18 15 17 -87 0
42 4 45 40 39 -41 0
42 4 45 40 39 -44 0
42 4 45 40 39 -43 0
42 4 45 40 39 -46 0
42 4 2 3 1 -41 0
42 4 2 3 1 -44 0
42 4 2 3 1 -43 0
42 4 2 3 1 -46 0
42 45 35 40 39 -114 0
42 45 35 40 39 -113 0
42 45 35 40 39 -111 0
42 45 35 40 39 -112 0
42 45 8 40 39 -72 0
42 45 8 40 39 -69 0
42 45 8 40 39 -71 0
42 45 8 40 39 -70 0
42 45 50 40 39 -124 0
42 45 50 40 39 -122 0
42 45 50 40 39 -121 0
42 45 50 40 39 -123 0
42 45 25 40 39 -101 0
42 45 25 40 39 -104 0
42 45 25 40 39 -103 0
42 45 25 40 39 -102 0
42 45 18 40 39 -89 0
42 45 18 40 39 -88 0
42 45 18 40 39 -90 0
42 45 18 40 39 -87 0
42 45 2 40 39 -41 0
42 45 2 40 39 -44 0
42 45 2 40 39 -43 0
42 45 2 40 39 -46 0
42 45 40 34 39 -114 0
42 45 40 34 39 -113 0
42 45 40 34 39 -111 0
42 45 40 34 39 -112 0
42 45 40 12 39 -72 0
42 45 40 12 39 -69 0
42 45 40 12 39 -71 0
42 45 40 12 39 -70 0
42 45 40 49 39 -124 0
42 45 40 49 39 -122 0
42 45 40 49 39 -121 0
42 45 40 49 39 -123 0
42 45 40 23 39 -101 0
42 45 40 23 39 -104 0
42 45 40 23 39 -103 0
42 45 40 23 39 -102 0
42 45 40 15 39 -89 0
42 45 40 15 39 -88 0
42 45 40 15 39 -90 0
42 45 40 15 39 -87 0
42 45 40 3 39 -41 0
42 45 40 3 39 -44 0
42 45 40 3 39 -43 0
42 45 40 3 39 -46 0
42 45 40 39 33 -114 0
42 45 40 39 33 -113 0
42 45 40 39 33 -111 0
42 45 40 39 33 -112 0
42 45 40 39 13 -72 0
42 45 40 39 13 -69 0
42 45 40 39 13 -71 0
42 45 40 39 13 -70 0
42 45 40 39 51 -124 0
42 45 40 39 51 -122 0
42 45 40 39 51 -121 0
42 45 40 39 51 -123 0
42 45 40 39 24 -101 0
42 45 40 39 24 -104 0
42 45 40 39 24 -103 0
42 45 40 39 24 -102 0
42 45 40 39 17 -89 0
42 45 40 39 17 -88 0
42 45 40 39 17 -90 0
42 45 40 39 17 -87 0
42 45 40 39 1 -41 0
42 45 40 39 1 -44 0
42 45 40 39 1 -43 0
42 45 40 39 1 -46 0
36 9 35 34 33 -68 0
36 9 35 34 33 -67 0
36 9 35 34 33 -66 0
36 9 35 34 33 -65 0
36 9 8 12 13 -68 0
36 9 8 12 13 -67 0
36 9 8 12 13 -66 0
36 9 8 12 13 -65 0
36 53 35 34 33 -117 0
36 53 35 34 33 -115 0
36 53 35 34 33 -118 0
36 53 35 34 33 -116 0
36 53 50 49 51 -117 0
36 53 50 49 51 -115 0
36 53 50 49 51 -118 0
36 53 50 49 51 -116 0
36 27 35 34 33 -100 0
36 27 35 34 33 -99 0
36 27 35 34 33 -98 0
36 27 35 34 33 -97 0
36 27 25 23 24 -100 0
36 27 25 23 24 -99 0
36 27 25 23 24 -98 0
36 27 25 23 24 -97 0
36 19 35 34 33 -85 0
36 19 35 34 33 -84 0
36 19 35 34 33 -83 0
36 19 35 34 33 -86 0
36 19 18 15 17 -85 0
36 19 18 15 17 -84 0
36 19 18 15 17 -83 0
36 19 18 15 17 -86 0
36 4 35 34 33 -37 0
36 4 35 34 33 -38 0
36 4 35 34 33 -31 0
36 4 35 34 33 -32 0
36 4 2 3 1 -37 0
36 4 2 3 1 -38 0
36 4 2 3 1 -31 0
36 4 2 3 1 -32 0
36 45 35 34 33 -114 0
36 45 35 34 33 -113 0
36 45 35 34 33 -111 0
36 45 35 34 33 -112 0
36 35 8 34 33 -68 0
36 35 8 34 33 -67 0
36 35 8 34 33 -66 0
36 35 8 34 33 -65 0
36 35 50 34 33 -117 0
36 35 50 34 33 -115 0
36 35 50 34 33 -118 0
36 35 50 34 33 -116 0
36 35 25 34 33 -100 0
36 35 25 34 33 -99 0
36 35 25 34 33 -98 0
36 35 25 34 33 -97 0
36 35 18 34 33 -85 0
36 35 18 34 33 -84 0
36 35 18 34 33 -83 0
36 35 18 34 33 -86 0
36 35 2 34 33 -37 0
36 35 2 34 33 -38 0
36 35 2 34 33 -31 0
36 35 2 34 33 -32 0
36 35 40 34 33 -114 0
36 35 40 34 33 -113 0
36 35 40 34 33 -111 0
36 35 40 34 33 -112 0
36 35 34 12 33 -68 0
36 35 34 12 33 -67 0
36 35 34 12 33 -66 0
36 35 34 12 33 -65 0
36 35 34 49 33 -117 0
36 35 34 49 33 -115 0
36 35 34 49 33 -118 0
36 35 34 49 33 -116 0
36 35 34 23 33 -100 0
36 35 34 23 33 -99 0
36 35 34 23 33 -98 0
36 35 34 23 33 -97 0
36 35 34 15 33 -85 0
36 35 34 15 33 -84 0
36 35 34 15 33 -83 0
36 35 34 15 33 -86 0
36 35 34 3 33 -37 0
36 35 34 3 33 -38 0
36 35 34 3 33 -31 0
36 35 34 3 33 -32 0
36 35 34 39 33 -114 0
36 35 34 39 33 -113 0
36 35 34 39 33 -111 0
36 35 34 39 33 -112 0
36 35 34 33 13 -68 0
36 35 34 33 13 -67 0
36 35 34 33 13 -66 0
36 35 34 33 13 -65 0
36 35 34 33 51 -117 0
36 35 34 33 51 -115 0
36 35 34 33 51 -118 0
36 35 34 33 51 -116 0
36 35 34 33 24 -100 0
36 35 34 33 24 -99 0
36 35 34 33 24 -98 0
36 35 34 33 24 -97 0
36 35 34 33 17 -85 0
36 35 34 33 17 -84 0
36 35 34 33 17 -83 0
36 35 34 33 17 -86 0
36 35 34 33 1 -37 0
36 35 34 33 1 -38 0
36 35 34 33 1 -31 0
36 35 34 33 1 -32 0
9 53 8 12 13 -75 0
9 53 8 12 13 -74 0
9 53 8 12 13 -76 0
9 53 8 12 13 -73 0
9 53 50 49 51 -75 0
9 53 50 49 51 -74 0
9 53 50 49 51 -76 0
9 53 50 49 51 -73 0
9 27 8 12 13 -64 0
9 27 8 12 13 -63 0
9 27 8 12 13 -61 0
9 27 8 12 13 -62 0
9 27 25 23 24 -64 0
9 27 25 23 24 -63 0
9 27 25 23 24 -61 0
9 27 25 23 24 -62 0
9 19 8 12 13 -58 0
9 19 8 12 13 -57 0
9 19 8 12 13 -60 0
9 19 8 12 13 -59 0
9 19 18 15 17 -58 0
9 19 18 15 17 -57 0
9 19 18 15 17 -60 0
9 19 18 15 17 -59 0
9 4 8 12 13 -11 0
9 4 8 12 13 -10 0
9 4 8 12 13 -14 0
9 4 8 12 13 -7 0
9 4 2 3 1 -11 0
9 4 2 3 1 -10 0
9 4 2 3 1 -14 0
9 4 2 3 1 -7 0
9 45 8 12 13 -72 0
9 45 8 12 13 -69 0
9 45 8 12 13 -71 0
9 45 8 12 13 -70 0
9 35 8 12 13 -68 0
9 35 8 12 13 -67 0
9 35 8 12 13 -66 0
9 35 8 12 13 -65 0
9 8 50 12 13 -75 0
9 8 50 12 13 -74 0
9 8 50 12 13 -76 0
9 8 50 12 13 -73 0
9 8 25 12 13 -64 0
9 8 25 12 13 -63 0
9 8 25 12 13 -61 0
9 8 25 12 13 -62 0
9 8 18 12 13 -58 0
9 8 18 12 13 -57 0
9 8 18 12 13 -60 0
9 8 18 12 13 -59 0
9 8 2 12 13 -11 0
9 8 2 12 13 -10 0
9 8 2 12 13 -14 0
9 8 2 12 13 -7 0
9 8 40 12 13 -72 0
9 8 40 12 13 -69 0
9 8 40 12 13 -71 0
9 8 40 12 13 -70 0
9 8 34 12 13 -68 0
9 8 34 12 13 -67 0
9 8 34 12 13 -66 0
9 8 34 12 13 -65 0
9 8 12 49 13 -75 0
9 8 12 49 13 -74 0
9 8 12 49 13 -76 0
9 8 12 49 13 -73 0
9 8 12 23 13 -64 0
9 8 12 23 13 -63 0
9 8 12 23 13 -61 0
9 8 12 23 13 -62 0
9 8 12 15 13 -58 0
9 8 12 15 13 -57 0
9 8 12 15 13 -60 0
9 8 12 15 13 -59 0
9 8 12 3 13 -11 0
9 8 12 3 13 -10 0
9 8 12 3 13 -14 0
9 8 12 3 13 -7 0
9 8 12 39 13 -72 0
9 8 12 39 13 -69 0
9 8 12 39 13 -71 0
9 8 12 39 13 -70 0
9 8 12 33 13 -68 0
9 8 12 33 13 -67 0
9 8 12 33 13 -66 0
9 8 12 33 13 -65 0
9 8 12 13 51 -75 0
9 8 12 13 51 -74 0
9 8 12 13 51 -76 0
9 8 12 13 51 -73 0
9 8 12 13 24 -64 0
9 8 12 13 24 -63 0
9 8 12 13 24 -61 0
9 8 12 13 24 -62 0
9 8 12 13 17 -58 0
9 8 12 13 17 -57 0
9 8 12 13 17 -60 0
9 8 12 13 17 -59 0
9 8 12 13 1 -11 0
9 8 12 13 1 -10 0
9 8 12 13 1 -14 0
9 8 12 13 1 -7 0
53 27 50 49 51 -108 0
53 27 50 49 51 -106 0
53 27 50 49 51 -105 0
53 27 50 49 51 -107 0
53 27 25 23 24 -108 0
53 27 25 23 24 -106 0
53 27 25 23 24 -105 0
53 27 25 23 24 -107 0
53 19 50 49 51 -91 0
53 19 50 49 51 -93 0
53 19 50 49 51 -92 0
53 19 50 49 51 -94 0
53 19 18 15 17 -91 0
53 19 18 15 17 -93 0
53 19 18 15 17 -92 0
53 19 18 15 17 -94 0
53 4 50 49 51 -48 0
53 4 50 49 51 -54 0
53 4 50 49 51 -52 0
53 4 50 49 51 -47 0
53 4 2 3 1 -48 0
53 4 2 3 1 -54 0
53 4 2 3 1 -52 0
53 4 2 3 1 -47 0
53 45 50 49 51 -124 0
53 45 50 49 51 -122 0
53 45 50 49 51 -121 0
53 45 50 49 51 -123 0
53 35 50 49 51 -117 0
53 35 50 49 51 -115 0
53 35 50 49 51 -118 0
53 35 50 49 51 -116 0
53 8 50 49 51 -75 0
53 8 50 49 51 -74 0
53 8 50 49 51 -76 0
53 8 50 49 51 -73 0
53 50 25 49 51 -108 0
53 50 25 49 51 -106 0
53 50 25 49 51 -105 0
53 50 25 49 51 -107 0
53 50 18 49 51 -91 0
53 50 18 49 51 -93 0
53 50 18 49 51 -92 0
53 50 18 49 51 -94 0
53 50 2 49 51 -48 0
53 50 2 49 51 -54 0
53 50 2 49 51 -52 0
53 50 2 49 51 -47 0
53 50 40 49 51 -124 0
53 50 40 49 51 -122 0
53 50 40 49 51 -121 0
53 50 40 49 51 -123 0
53 50 34 49 51 -117 0
53 50 34 49 51 -115 0
53 50 34 49 51 -118 0
53 50 34 49 51 -116 0
53 50 12 49 51 -75 0
53 50 12 49 51 -74 0
53 50 12 49 51 -76 0
53 50 12 49 51 -73 0
53 50 49 23 51 -108 0
53 50 49 23 51 -106 0
53 50 49 23 51 -105 0
53 50 49 23 51 -107 0
53 50 49 15 51 -91 0
53 50 49 15 51 -93 0
53 50 49 15 51 -92 0
53 50 49 15 51 -94 0
53 50 49 3 51 -48 0
53 50 49 3 51 -54 0
53 50 49 3 51 -52 0
53 50 49 3 51 -47 0
53 50 49 39 51 -124 0
53 50 49 39 51 -122 0
53 50 49 39 51 -121 0
53 50 49 39 51 -123 0
53 50 49 33 51 -117 0
53 50 49 33 51 -115 0
53 50 49 33 51 -118 0
53 50 49 33 51 -116 0
53 50 49 13 51 -75 0
53 50 49 13 51 -74 0
53 50 49 13 51 -76 0
53 50 49 13 51 -73 0
53 50 49 51 24 -108 0
53 50 49 51 24 -106 0
53 50 49 51 24 -105 0
53 50 49 51 24 -107 0
53 50 49 51 17 -91 0
53 50 49 51 17 -93 0
53 50 49 51 17 -92 0
53 50 49 51 17 -94 0
53 50 49 51 1 -48 0
53 50 49 51 1 -54 0
53 50 49 51 1 -52 0
53 50 49 51 1 -47 0
27 19 25 23 24 -82 0
27 19 25 23 24 -79 0
27 19 25 23 24 -80 0
27 19 25 23 24 -81 0
27 19 18 15 17 -82 0
27 19 18 15 17 -79 0
27 19 18 15 17 -80 0
27 19 18 15 17 -81 0
27 4 25 23 24 -30 0
27 4 25 23 24 -26 0
27 4 25 23 24 -28 0
27 4 25 23 24 -29 0
27 4 2 3 1 -30 0
27 4 2 3 1 -26 0
27 4 2 3 1 -28 0
27 4 2 3 1 -29 0
27 45 25 23 24 -101 0
27 45 25 23 24 -104 0
27 45 25 23 24 -103 0
27 45 25 23 24 -102 0
27 35 25 23 24 -100 0
27 35 25 23 24 -99 0
27 35 25 23 24 -98 0
27 35 25 23 24 -97 0
27 8 25 23 24 -64 0
27 8 25 23 24 -63 0
27 8 25 23 24 -61 0
27 8 25 23 24 -62 0
27 50 25 23 24 -108 0
27 50 25 23 24 -106 0
27 50 25 23 24 -105 0
27 50 25 23 24 -107 0
27 25 18 23 24 -82 0
27 25 18 23 24 -79 0
27 25 18 23 24 -80 0
27 25 18 23 24 -81 0
27 25 2 23 24 -30 0
27 25 2 23 24 -26 0
27 25 2 23 24 -28 0
27 25 2 23 24 -29 0
27 25 40 23 24 -101 0
27 25 40 23 24 -104 0
27 25 40 23 24 -103 0
27 25 40 23 24 -102 0
27 25 34 23 24 -100 0
27 25 34 23 24 -99 0
27 25 34 23 24 -98 0
27 25 34 23 24 -97 0
27 25 12 23 24 -64 0
27 25 12 23 24 -63 0
27 25 12 23 24 -61 0
27 25 12 23 24 -62 0
27 25 49 23 24 -108 0
27 25 49 23 24 -106 0
27 25 49 23 24 -105 0
27 25 49 23 24 -107 0
27 25 23 15 24 -82 0
27 25 23 15 24 -79 0
27 25 23 15 24 -80 0
27 25 23 15 24 -81 0
27 25 23 3 24 -30 0
27 25 23 3 24 -26 0
27 25 23 3 24 -28 0
27 25 23 3 24 -29 0
27 25 23 39 24 -101 0
27 25 23 39 24 -104 0
27 25 23 39 24 -103 0
27 25 23 39 24 -102 0
27 25 23 33 24 -100 0
27 25 23 33 24 -99 0
27 25 23 33 24 -98 0
27 25 23 33 24 -97 0
27 25 23 13 24 -64 0
27 25 23 13 24 -63 0
27 25 23 13 24 -61 0
27 25 23 13 24 -62 0
27 25 23 51 24 -108 0
27 25 23 51 24 -106 0
27 25 23 51 24 -105 0
27 25 23 51 24 -107 0
27 25 23 24 17 -82 0
27 25 23 24 17 -79 0
27 25 23 24 17 -80 0
27 25 23 24 17 -81 0
27 25 23 24 1 -30 0
27 25 23 24 1 -26 0
27 25 23 24 1 -28 0
27 25 23 24 1 -29 0
19 4 18 15 17 -21 0
19 4 18 15 17 -22 0
19 4 18 15 17 -16 0
19 4 18 15 17 -20 0
19 4 2 3 1 -21 0
19 4 2 3 1 -22 0
19 4 2 3 1 -16 0
19 4 2 3 1 -20 0
19 45 18 15 17 -89 0
19 45 18 15 17 -88 0
19 45 18 15 17 -90 0
19 45 18 15 17 -87 0
19 35 18 15 17 -85 0
19 35 18 15 17 -84 0
19 35 18 15 17 -83 0
19 35 18 15 17 -86 0
19 8 18 15 17 -58 0
19 8 18 15 17 -57 0
19 8 18 15 17 -60 0
19 8 18 15 17 -59 0
19 50 18 15 17 -91 0
19 50 18 15 17 -93 0
19 50 18 15 17 -92 0
19 50 18 15 17 -94 0
19 25 18 15 17 -82 0
19 25 18 15 17 -79 0
19 25 18 15 17 -80 0
19 25 18 15 17 -81 0
19 18 2 15 17 -21 0
19 18 2 15 17 -22 0
19 18 2 15 17 -16 0
19 18 2 15 17 -20 0
19 18 40 15 17 -89 0
19 18 40 15 17 -88 0
19 18 40 15 17 -90 0
19 18 40 15 17 -87 0
19 18 34 15 17 -85 0
19 18 34 15 17 -84 0
19 18 34 15 17 -83 0
19 18 34 15 17 -86 0
19 18 12 15 17 -58 0
19 18 12 15 17 -57 0
19 18 12 15 17 -60 0
19 18 12 15 17 -59 0
19 18 49 15 17 -91 0
19 18 49 15 17 -93 0
19 18 49 15 17 -92 0
19 18 49 15 17 -94 0
19 18 23 15 17 -82 0
19 18 23 15 17 -79 0
19 18 23 15 17 -80 0
19 18 23 15 17 -81 0
19 18 15 3 17 -21 0
19 18 15 3 17 -22 0
19 18 15 3 17 -16 0
19 18 15 3 17 -20 0
19 18 15 39 17 -89 0
19 18 15 39 17 -88 0
19 18 15 39 17 -90 0
19 18 15 39 17 -87 0
19 18 15 33 17 -85 0
19 18 15 33 17 -84 0
19 18 15 33 17 -83 0
19 18 15 33 17 -86 0
19 18 15 13 17 -58 0
19 18 15 13 17 -57 0
19 18 15 13 17 -60 0
19 18 15 13 17 -59 0
19 18 15 51 17 -91 0
19 18 15 51 17 -93 0
19 18 15 51 17 -92 0
19 18 15 51 17 -94 0
19 18 15 24 17 -82 0
19 18 15 24 17 -79 0
19 18 15 24 17 -80 0
19 18 15 24 17 -81 0
19 18 15 17 1 -21 0
19 18 15 17 1 -22 0
19 18 15 17 1 -16 0
19 18 15 17 1 -20 0
4 45 2 3 1 -41 0
4 45 2 3 1 -44 0
4 45 2 3 1 -43 0
4 45 2 3 1 -46 0
4 35 2 3 1 -37 0
4 35 2 3 1 -38 0
4 35 2 3 1 -31 0
4 35 2 3 1 -32 0
4 8 2 3 1 -11 0
4 8 2 3 1 -10 0
4 8 2 3 1 -14 0
4 8 2 3 1 -7 0
4 50 2 3 1 -48 0
4 50 2 3 1 -54 0
4 50 2 3 1 -52 0
4 50 2 3 1 -47 0
4 25 2 3 1 -30 0
4 25 2 3 1 -26 0
4 25 2 3 1 -28 0
4 25 2 3 1 -29 0
4 18 2 3 1 -21 0
4 18 2 3 1 -22 0
4 18 2 3 1 -16 0
4 18 2 3 1 -20 0
4 2 40 3 1 -41 0
4 2 40 3 1 -44 0
4 2 40 3 1 -43 0
4 2 40 3 1 -46 0
4 2 34 3 1 -37 0
4 2 34 3 1 -38 0
4 2 34 3 1 -31 0
4 2 34 3 1 -32 0
4 2 12 3 1 -11 0
4 2 12 3 1 -10 0
4 2 12 3 1 -14 0
4 2 12 3 1 -7 0
4 2 49 3 1 -48 0
4 2 49 3 1 -54 0
4 2 49 3 1 -52 0
4 2 49 3 1 -47 0
4 2 23 3 1 -30 0
4 2 23 3 1 -26 0
4 2 23 3 1 -28 0
4 2 23 3 1 -29 0
4 2 15 3 1 -21 0
4 2 15 3 1 -22 0
4 2 15 3 1 -16 0
4 2 15 3 1 -20 0
4 2 3 39 1 -41 0
4 2 3 39 1 -44 0
4 2 3 39 1 -43 0
4 2 3 39 1 -46 0
4 2 3 33 1 -37 0
4 2 3 33 1 -38 0
4 2 3 33 1 -31 0
4 2 3 33 1 -32 0
4 2 3 13 1 -11 0
4 2 3 13 1 -10 0
4 2 3 13 1 -14 0
4 2 3 13 1 -7 0
4 2 3 51 1 -48 0
4 2 3 51 1 -54 0
4 2 3 51 1 -52 0
4 2 3 51 1 -47 0
4 2 3 24 1 -30 0
4 2 3 24 1 -26 0
4 2 3 24 1 -28 0
4 2 3 24 1 -29 0
4 2 3 17 1 -21 0
4 2 3 17 1 -22 0
4 2 3 17 1 -16 0
4 2 3 17 1 -20 0
120 114 72 124 101 89 41 0
113 110 68 117 100 85 37 0
69 67 55 75 64 58 11 0
122 115 74 126 108 91 48 0
104 99 63 106 95 82 30 0
88 84 57 93 79 78 21 0
44 38 10 54 26 22 6 0
119 111 71 121 103 90 43 0
112 109 66 118 98 83 31 0
70 65 56 76 61 60 14 0
123 116 73 125 105 92 52 0
102 97 62 107 96 80 28 0
87 86 59 94 81 77 16 0
46 32 7 47 29 20 5 0
42 36 45 35 40 34 -114 0
42 36 45 35 40 34 -113 0
42 36 45 35 40 34 -111 0
42 36 45 35 40 34 -112 0
42 36 45 35 40 39 -114 0
42 36 45 35 40 39 -113 0
42 36 45 35 40 39 -111 0
42 36 45 35 40 39 -112 0
42 36 45 35 34 33 -114 0
42 36 45 35 34 33 -113 0
42 36 45 35 34 33 -111 0
42 36 45 35 34 33 -112 0
42 36 45 35 39 33 -114 0
42 36 45 35 39 33 -113 0
42 36 45 35 39 33 -111 0
42 36 45 35 39 33 -112 0
42 36 45 40 34 39 -114 0
42 36 45 40 34 39 -113 0
42 36 45 40 34 39 -111 0
42 36 45 40 34 39 -112 0
42 36 45 40 39 33 -114 0
42 36 45 40 39 33 -113 0
42 36 45 40 39 33 -111 0
42 36 45 40 39 33 -112 0
42 36 35 40 34 33 -114 0
42 36 35 40 34 33 -113 0
42 36 35 40 34 33 -111 0
42 36 35 40 34 33 -112 0
42 36 35 34 39 33 -114 0
42 36 35 34 39 33 -113 0
42 36 35 34 39 33 -111 0
42 36 35 34 39 33 -112 0
42 36 40 34 39 33 -114 0
42 36 40 34 39 33 -113 0
42 36 40 34 39 33 -111 0
42 36 40 34 39 33 -112 0
42 9 45 8 40 12 -72 0
42 9 45 8 40 12 -69 0
42 9 45 8 40 12 -71 0
42 9 45 8 40 12 -70 0
42 9 45 8 40 39 -72 0
42 9 45 8 40 39 -69 0
42 9 45 8 40 39 -71 0
42 9 45 8 40 39 -70 0
42 9 45 8 12 13 -72 0
42 9 45 8 12 13 -69 0
42 9 45 8 12 13 -71 0
42 9 45 8 12 13 -70 0
42 9 45 8 39 13 -72 0
42 9 45 8 39 13 -69 0
42 9 45 8 39 13 -71 0
42 9 45 8 39 13 -70 0
42 9 45 40 12 39 -72 0
42 9 45 40 12 39 -69 0
42 9 45 40 12 39 -71 0
42 9 45 40 12 39 -70 0
42 9 45 40 39 13 -72 0
42 9 45 40 39 13 -69 0
42 9 45 40 39 13 -71 0
42 9 45 40 39 13 -70 0
42 9 8 40 12 13 -72 0
42 9 8 40 12 13 -69 0
42 9 8 40 12 13 -71 0
42 9 8 40 12 13 -70 0
42 9 8 12 39 13 -72 0
42 9 8 12 39 13 -69 0
42 9 8 12 39 13 -71 0
42 9 8 12 39 13 -70 0
42 9 40 12 39 13 -72 0
42 9 40 12 39 13 -69 0
42 9 40 12 39 13 -71 0
42 9 40 12 39 13 -70 0
42 53 45 50 40 49 -124 0
42 53 45 50 40 49 -122 0
42 53 45 50 40 49 -121 0
42 53 45 50 40 49 -123 0
42 53 45 50 40 39 -124 0
42 53 45 50 40 39 -122 0
42 53 45 50 40 39 -121 0
42 53 45 50 40 39 -123 0
42 53 45 50 49 51 -124 0
42 53 45 50 49 51 -122 0
42 53 45 50 49 51 -121 0
42 53 45 50 49 51 -123 0
42 53 45 50 39 51 -124 0
42 53 45 50 39 51 -122 0
42 53 45 50 39 51 -121 0
42 53 45 50 39 51 -123 0
42 53 45 40 49 39 -124 0
42 53 45 40 49 39 -122 0
42 53 45 40 49 39 -121 0
42 53 45 40 49 39 -123 0
42 53 45 40 39 51 -124 0
42 53 45 40 39 51 -122 0
42 53 45 40 39 51 -121 0
42 53 45 40 39 51 -123 0
42 53 50 40 49 51 -124 0
42 53 50 40 49 51 -122 0
42 53 50 40 49 51 -121 0
42 53 50 40 49 51 -123 0
42 53 50 49 39 51 -124 0
42 53 50 49 39 51 -122 0
42 53 50 49 39 51 -121 0
42 53 50 49 39 51 -123 0
42 53 40 49 39 51 -124 0
42 53 40 49 39 51 -122 0
42 53 40 49 39 51 -121 0
42 53 40 49 39 51 -123 0
42 27 45 25 40 23 -101 0
42 27 45 25 40 23 -104 0
42 27 45 25 40 23 -103 0
42 27 45 25 40 23 -102 0
42 27 45 25 40 39 -101 0
42 27 45 25 40 39 -104 0
42 27 45 25 40 39 -103 0
42 27 45 25 40 39 -102 0
42 27 45 25 23 24 -101 0
42 27 45 25 23 24 -104 0
42 27 45 25 23 24 -103 0
42 27 45 25 23 24 -102 0
42 27 45 25 39 24 -101 0
42 27 45 25 39 24 -104 0
42 27 45 25 39 24 -103 0
42 27 45 25 39 24 -102 0
42 27 45 40 23 39 -101 0
42 27 45 40 23 39 -104 0
42 27 45 40 23 39 -103 0
42 27 45 40 23 39 -102 0
42 27 45 40 39 24 -101 0
42 27 45 40 39 24 -104 0
42 27 45 40 39 24 -103 0
42 27 45 40 39 24 -102 0
42 27 25 40 23 24 -101 0
42 27 25 40 23 24 -104 0
42 27 25 40 23 24 -103 0
42 27 25 40 23 24 -102 0
42 27 25 23 39 24 -101 0
42 27 25 23 39 24 -104 0
42 27 25 23 39 24 -103 0
42 27 25 23 39 24 -102 0
42 27 40 23 39 24 -101 0
42 27 40 23 39 24 -104 0
42 27 40 23 39 24 -103 0
42 27 40 23 39 24 -102 0
42 19 45 18 40 15 -89 0
42 19 45 18 40 15 -88 0
42 19 45 18 40 15 -90 0
42 19 45 18 40 15 -87 0
42 19 45 18 40 39 -89 0
42 19 45 18 40 39 -88 0
42 19 45 18 40 39 -90 0
42 19 45 18 40 39 -87 0
42 19 45 18 15 17 -89 0
42 19 45 18 15 17 -88 0
42 19 45 18 15 17 -90 0
42 19 45 18 15 17 -87 0
42 19 45 18 39 17 -89 0
42 19 45 18 39 17 -88 0
42 19 45 18 39 17 -90 0
42 19 45 18 39 17 -87 0
42 19 45 40 15 39 -89 0
42 19 45 40 15 39 -88 0
42 19 45 40 15 39 -90 0
42 19 45 40 15 39 -87 0
42 19 45 40 39 17 -89 0
42 19 45 40 39 17 -88 0
42 19 45 40 39 17 -90 0
42 19 45 40 39 17 -87 0
42 19 18 40 15 17 -89 0
42 19 18 40 15 17 -88 0
42 19 18 40 15 17 -90 0
42 19 18 40 15 17 -87 0
42 19 18 15 39 17 -89 0
42 19 18 15 39 17 -88 0
42 19 18 15 39 17 -90 0
42 19 18 15 39 17 -87 0
42 19 40 15 39 17 -89 0
42 19 40 15 39 17 -88 0
42 19 40 15 39 17 -90 0
42 19 40 15 39 17 -87 0
42 4 45 2 40 3 -41 0
42 4 45 2 40 3 -44 0
42 4 45 2 40 3 -43 0
42 4 45 2 40 3 -46 0
42 4 45 2 40 39 -41 0
42 4 45 2 40 39 -44 0
42 4 45 2 40 39 -43 0
42 4 45 2 40 39 -46 0
42 4 45 2 3 1 -41 0
42 4 45 2 3 1 -44 0
42 4 45 2 3 1 -43 0
42 4 45 2 3 1 -46 0
42 4 45 2 39 1 -41 0
42 4 45 2 39 1 -44 0
42 4 45 2 39 1 -43 0
42 4 45 2 39 1 -46 0
42 4 45 40 3 39 -41 0
42 4 45 40 3 39 -44 0
42 4 45 40 3 39 -43 0
42 4 45 40 3 39 -46 0
42 4 45 40 39 1 -41 0
42 4 45 40 39 1 -44 0
42 4 45 40 39 1 -43 0
42 4 45 40 39 1 -46 0
42 4 2 40 3 1 -41 0
42 4 2 40 3 1 -44 0
42 4 2 40 3 1 -43 0
42 4 2 40 3 1 -46 0
42 4 2 3 39 1 -41 0
42 4 2 3 39 1 -44 0
42 4 2 3 39 1 -43 0
42 4 2 3 39 1 -46 0
42 4 40 3 39 1 -41 0
42 4 40 3 39 1 -44 0
42 4 40 3 39 1 -43 0
42 4 40 3 39 1 -46 0
42 45 35 40 34 39 -114 0
42 45 35 40 34 39 -113 0
42 45 35 40 34 39 -111 0
42 45 35 40 34 39 -112 0
42 45 35 40 39 33 -114 0
42 45 35 40 39 33 -113 0
42 45 35 40 39 33 -111 0
42 45 35 40 39 33 -112 0
42 45 8 40 12 39 -72 0
42 45 8 40 12 39 -69 0
42 45 8 40 12 39 -71 0
42 45 8 40 12 39 -70 0
42 45 8 40 39 13 -72 0
42 45 8 40 39 13 -69 0
42 45 8 40 39 13 -71 0
42 45 8 40 39 13 -70 0
42 45 50 40 49 39 -124 0
42 45 50 40 49 39 -122 0
42 45 50 40 49 39 -121 0
42 45 50 40 49 39 -123 0
42 45 50 40 39 51 -124 0
42 45 50 40 39 51 -122 0
42 45 50 40 39 51 -121 0
42 45 50 40 39 51 -123 0
42 45 25 40 23 39 -101 0
42 45 25 40 23 39 -104 0
42 45 25 40 23 39 -103 0
42 45 25 40 23 39 -102 0
42 45 25 40 39 24 -101 0
42 45 25 40 39 24 -104 0
42 45 25 40 39 24 -103 0
42 45 25 40 39 24 -102 0
42 45 18 40 15 39 -89 0
42 45 18 40 15 39 -88 0
42 45 18 40 15 39 -90 0
42 45 18 40 15 39 -87 0
42 45 18 40 39 17 -89 0
42 45 18 40 39 17 -88 0
42 45 18 40 39 17 -90 0
42 45 18 40 39 17 -87 0
42 45 2 40 3 39 -41 0
42 45 2 40 3 39 -44 0
42 45 2 40 3 39 -43 0
42 45 2 40 3 39 -46 0
42 45 2 40 39 1 -41 0
42 45 2 40 39 1 -44 0
42 45 2 40 39 1 -43 0
42 45 2 40 39 1 -46 0
42 45 40 34 39 33 -114 0
42 45 40 34 39 33 -113 0
42 45 40 34 39 33 -111 0
42 45 40 34 39 33 -112 0
42 45 40 12 39 13 -72 0
42 45 40 12 39 13 -69 0
42 45 40 12 39 13 -71 0
42 45 40 12 39 13 -70 0
42 45 40 49 39 51 -124 0
42 45 40 49 39 51 -122 0
42 45 40 49 39 51 -121 0
42 45 40 49 39 51 -123 0
42 45 40 23 39 24 -101 0
42 45 40 23 39 24 -104 0
42 45 40 23 39 24 -103 0
42 45 40 23 39 24 -102 0
42 45 40 15 39 17 -89 0
42 45 40 15 39 17 -88 0
42 45 40 15 39 17 -90 0
42 45 40 15 39 17 -87 0
42 45 40 3 39 1 -41 0
42 45 40 3 39 1 -44 0
42 45 40 3 39 1 -43 0
42 45 40 3 39 1 -46 0
36 9 35 8 34 12 -68 0
36 9 35 8 34 12 -67 0
36 9 35 8 34 12 -66 0
36 9 35 8 34 12 -65 0
36 9 35 8 34 33 -68 0
36 9 35 8 34 33 -67 0
36 9 35 8 34 33 -66 0
36 9 35 8 34 33 -65 0
36 9 35 8 12 13 -68 0
36 9 35 8 12 13 -67 0
36 9 35 8 12 13 -66 0
36 9 35 8 12 13 -65 0
36 9 35 8 33 13 -68 0
36 9 35 8 33 13 -67 0
36 9 35 8 33 13 -66 0
36 9 35 8 33 13 -65 0
36 9 35 34 12 33 -68 0
36 9 35 34 12 33 -67 0
36 9 35 34 12 33 -66 0
36 9 35 34 12 33 -65 0
36 9 35 34 33 13 -68 0
36 9 35 34 33 13 -67 0
36 9 35 34 33 13 -66 0
36 9 35 34 33 13 -65 0
36 9 8 34 12 13 -68 0
36 9 8 34 12 13 -67 0
36 9 8 34 12 13 -66 0
36 9 8 34 12 13 -65 0
36 9 8 12 33 13 -68 0
36 9 8 12 33 13 -67 0
36 9 8 12 33 13 -66 0
36 9 8 12 33 13 -65 0
36 9 34 12 33 13 -68 0
36 9 34 12 33 13 -67 0
36 9 34 12 33 13 -66 0
36 9 34 12 33 13 -65 0
36 53 35 50 34 49 -117 0
36 53 35 50 34 49 -115 0
36 53 35 50 34 49 -118 0
36 53 35 50 34 49 -116 0
36 53 35 50 34 33 -117 0
36 53 35 50 34 33 -115 0
36 53 35 50 34 33 -118 0
36 53 35 50 34 33 -116 0
36 53 35 50 49 51 -117 0
36 53 35 50 49 51 -115 0
36 53 35 50 49 51 -118 0
36 53 35 50 49 51 -116 0
36 53 35 50 33 51 -117 0
36 53 35 50 33 51 -115 0
36 53 35 50 33 51 -118 0
36 53 35 50 33 51 -116 0
36 53 35 34 49 33 -117 0
36 53 35 34 49 33 -115 0
36 53 35 34 49 33 -118 0
36 53 35 34 49 33 -116 0
36 53 35 34 33 51 -117 0
36 53 35 34 33 51 -115 0
36 53 35 34 33 51 -118 0
36 53 35 34 33 51 -116 0
36 53 50 34 49 51 -117 0
36 53 50 34 49 51 -115 0
36 53 50 34 49 51 -118 0
36 53 50 34 49 51 -116 0
36 53 50 49 33 51 -117 0
36 53 50 49 33 51 -115 0
36 53 50 49 33 51 -118 0
36 53 50 49 33 51 -116 0
36 53 34 49 33 51 -117 0
36 53 34 49 33 51 -115 0
36 53 34 49 33 51 -118 0
36 53 34 49 33 51 -116 0
36 27 35 25 34 23 -100 0
36 27 35 25 34 23 -99 0
36 27 35 25 34 23 -98 0
36 27 35 25 34 23 -97 0
36 27 35 25 34 33 -100 0
36 27 35 25 34 33 -99 0
36 27 35 25 34 33 -98 0
36 27 35 25 34 33 -97 0
36 27 35 25 23 24 -100 0
36 27 35 25 23 24 -99 0
36 27 35 25 23 24 -98 0
36 27 35 25 23 24 -97 0
36 27 35 25 33 24 -100 0
36 27 35 25 33 24 -99 0
36 27 35 25 33 24 -98 0
36 27 35 25 33 24 -97 0
36 27 35 34 23 33 -100 0
36 27 35 34 23 33 -99 0
36 27 35 34 23 33 -98 0
36 27 35 34 23 33 -97 0
36 27 35 34 33 24 -100 0
36 27 35 34 33 24 -99 0
36 27 35 34 33 24 -98 0
36 27 35 34 33 24 -97 0
36 27 25 34 23 24 -100 0
36 27 25 34 23 24 -99 0
36 27 25 34 23 24 -98 0
36 27 25 34 23 24 -97 0
36 27 25 23 33 24 -100 0
36 27 25 23 33 24 -99 0
36 27 25 23 33 24 -98 0
36 27 25 23 33 24 -97 0
36 27 34 23 33 24 -100 0
36 27 34 23 33 24 -99 0
36 27 34 23 33 24 -98 0
36 27 34 23 33 24 -97 0
36 19 35 18 34 15 -85 0
36 19 35 18 34 15 -84 0
36 19 35 18 34 15 -83 0
36 19 35 18 34 15 -86 0
36 19 35 18 34 33 -85 0
36 19 35 18 34 33 -84 0
36 19 35 18 34 33 -83 0
36 19 35 18 34 33 -86 0
36 19 35 18 15 17 -85 0
36 19 35 18 15 17 -84 0
36 19 35 18 15 17 -83 0
36 19 35 18 15 17 -86 0
36 19 35 18 33 17 -85 0
36 19 35 18 33 17 -84 0
36 19 35 18 33 17 -83 0
36 19 35 18 33 17 -86 0
36 19 35 34 15 33 -85 0
36 19 35 34 15 33 -84 0
36 19 35 34 15 33 -83 0
36 19 35 34 15 33 -86 0
36 19 35 34 33 17 -85 0
36 19 35 34 33 17 -84 0
36 19 35 34 33 17 -83 0
36 19 35 34 33 17 -86 0
36 19 18 34 15 17 -85 0
36 19 18 34 15 17 -84 0
36 19 18 34 15 17 -83 0
36 19 18 34 15 17 -86 0
36 19 18 15 33 17 -85 0
36 19 18 15 33 17 -84 0
36 19 18 15 33 17 -83 0
36 19 18 15 33 17 -86 0
36 19 34 15 33 17 -85 0
36 19 34 15 33 17 -84 0
36 19 34 15 33 17 -83 0
36 19 34 15 33 17 -86 0
36 4 35 2 34 3 -37 0
36 4 35 2 34 3 -38 0
36 4 35 2 34 3 -31 0
36 4 35 2 34 3 -32 0
36 4 35 2 34 33 -37 0
36 4 35 2 34 33 -38 0
36 4 35 2 34 33 -31 0
36 4 35 2 34 33 -32 0
36 4 35 2 3 1 -37 0
36 4 35 2 3 1 -38 0
36 4 35 2 3 1 -31 0
36 4 35 2 3 1 -32 0
36 4 35 2 33 1 -37 0
36 4 35 2 33 1 -38 0
36 4 35 2 33 1 -31 0
36 4 35 2 33 1 -32 0
36 4 35 34 3 33 -37 0
36 4 35 34 3 33 -38 0
36 4 35 34 3 33 -31 0
36 4 35 34 3 33 -32 0
36 4 35 34 33 1 -37 0
36 4 35 34 33 1 -38 0
36 4 35 34 33 1 -31 0
36 4 35 34 33 1 -32 0
36 4 2 34 3 1 -37 0
36 4 2 34 3 1 -38 0
36 4 2 34 3 1 -31 0
36 4 2 34 3 1 -32 0
36 4 2 3 33 1 -37 0
36 4 2 3 33 1 -38 0
36 4 2 3 33 1 -31 0
36 4 2 3 33 1 -32 0
36 4 34 3 33 1 -37 0
36 4 34 3 33 1 -38 0
36 4 34 3 33 1 -31 0
36 4 34 3 33 1 -32 0
36 45 35 40 34 33 -114 0
36 45 35 40 34 33 -113 0
36 45 35 40 34 33 -111 0
36 45 35 40 34 33 -112 0
36 45 35 34 39 33 -114 0
36 45 35 34 39 33 -113 0
36 45 35 34 39 33 -111 0
36 45 35 34 39 33 -112 0
36 35 8 34 12 33 -68 0
36 35 8 34 12 33 -67 0
36 35 8 34 12 33 -66 0
36 35 8 34 12 33 -65 0
36 35 8 34 33 13 -68 0
36 35 8 34 33 13 -67 0
36 35 8 34 33 13 -66 0
36 35 8 34 33 13 -65 0
36 35 50 34 49 33 -117 0
36 35 50 34 49 33 -115 0
36 35 50 34 49 33 -118 0
36 35 50 34 49 33 -116 0
36 35 50 34 33 51 -117 0
36 35 50 34 33 51 -115 0
36 35 50 34 33 51 -118 0
36 35 50 34 33 51 -116 0
36 35 25 34 23 33 -100 0
36 35 25 34 23 33 -99 0
36 35 25 34 23 33 -98 0
36 35 25 34 23 33 -97 0
36 35 25 34 33 24 -100 0
36 35 25 34 33 24 -99 0
36 35 25 34 33 24 -98 0
36 35 25 34 33 24 -97 0
36 35 18 34 15 33 -85 0
36 35 18 34 15 33 -84 0
36 35 18 34 15 33 -83 0
36 35 18 34 15 33 -86 0
36 35 18 34 33 17 -85 0
36 35 18 34 33 17 -84 0
36 35 18 34 33 17 -83 0
36 35 18 34 33 17 -86 0
36 35 2 34 3 33 -37 0
36 35 2 34 3 33 -38 0
36 35 2 34 3 33 -31 0
36 35 2 34 3 33 -32 0
36 35 2 34 33 1 -37 0
36 35 2 34 33 1 -38 0
36 35 2 34 33 1 -31 0
36 35 2 34 33 1 -32 0
36 35 40 34 39 33 -114 0
36 35 40 34 39 33 -113 0
36 35 40 34 39 33 -111 0
36 35 40 34 39 33 -112 0
36 35 34 12 33 13 -68 0
36 35 34 12 33 13 -67 0
36 35 34 12 33 13 -66 0
36 35 34 12 33 13 -65 0
36 35 34 49 33 51 -117 0
36 35 34 49 33 51 -115 0
36 35 34 49 33 51 -118 0
36 35 34 49 33 51 -116 0
36 35 34 23 33 24 -100 0
36 35 34 23 33 24 -99 0
36 35 34 23 33 24 -98 0
36 35 34 23 33 24 -97 0
36 35 34 15 33 17 -85 0
36 35 34 15 33 17 -84 0
36 35 34 15 33 17 -83 0
36 35 34 15 33 17 -86 0
36 35 34 3 33 1 -37 0
36 35 34 3 33 1 -38 0
36 35 34 3 33 1 -31 0
36 35 34 3 33 1 -32 0
9 53 8 50 12 49 -75 0
9 53 8 50 12 49 -74 0
9 53 8 50 12 49 -76 0
9 53 8 50 12 49 -73 0
9 53 8 50 12 13 -75 0
9 53 8 50 12 13 -74 0
9 53 8 50 12 13 -76 0
9 53 8 50 12 13 -73 0
9 53 8 50 49 51 -75 0
9 53 8 50 49 51 -74 0
9 53 8 50 49 51 -76 0
9 53 8 50 49 51 -73 0
9 53 8 50 13 51 -75 0
9 53 8 50 13 51 -74 0
9 53 8 50 13 51 -76 0
9 53 8 50 13 51 -73 0
9 53 8 12 49 13 -75 0
9 53 8 12 49 13 -74 0
9 53 8 12 49 13 -76 0
9 53 8 12 49 13 -73 0
9 53 8 12 13 51 -75 0
9 53 8 12 13 51 -74 0
9 53 8 12 13 51 -76 0
9 53 8 12 13 51 -73 0
9 53 50 12 49 51 -75 0
9 53 50 12 49 51 -74 0
9 53 50 12 49 51 -76 0
9 53 50 12 49 51 -73 0
9 53 50 49 13 51 -75 0
9 53 50 49 13 51 -74 0
9 53 50 49 13 51 -76 0
9 53 50 49 13 51 -73 0
9 53 12 49 13 51 -75 0
9 53 12 49 13 51 -74 0
9 53 12 49 13 51 -76 0
9 53 12 49 13 51 -73 0
9 27 8 25 12 23 -64 0
9 27 8 25 12 23 -63 0
9 27 8 25 12 23 -61 0
9 27 8 25 12 23 -62 0
9 27 8 25 12 13 -64 0
9 27 8 25 12 13 -63 0
9 27 8 25 12 13 -61 0
9 27 8 25 12 13 -62 0
9 27 8 25 23 24 -64 0
9 27 8 25 23 24 -63 0
9 27 8 25 23 24 -61 0
9 27 8 25 23 24 -62 0
9 27 8 25 13 24 -64 0
9 27 8 25 13 24 -63 0
9 27 8 25 13 24 -61 0
9 27 8 25 13 24 -62 0
9 27 8 12 23 13 -64 0
9 27 8 12 23 13 -63 0
9 27 8 12 23 13 -61 0
9 27 8 12 23 13 -62 0
9 27 8 12 13 24 -64 0
9 27 8 12 13 24 -63 0
9 27 8 12 13 24 -61 0
9 27 8 12 13 24 -62 0
9 27 25 12 23 24 -64 0
9 27 25 12 23 24 -63 0
9 27 25 12 23 24 -61 0
9 27 25 12 23 24 -62 0
9 27 25 23 13 24 -64 0
9 27 25 23 13 24 -63 0
9 27 25 23 13 24 -61 0
9 27 25 23 13 24 -62 0
9 27 12 23 13 24 -64 0
9 27 12 23 13 24 -63 0
9 27 12 23 13 24 -61 0
9 27 12 23 13 24 -62 0
9 19 8 18 12 15 -58 0
9 19 8 18 12 15 -57 0
9 19 8 18 12 15 -60 0
9 19 8 18 12 15 -59 0
9 19 8 18 12 13 -58 0
9 19 8 18 12 13 -57 0
9 19 8 18 12 13 -60 0
9 19 8 18 12 13 -59 0
9 19 8 18 15 17 -58 0
9 19 8 18 15 17 -57 0
9 19 8 18 15 17 -60 0
9 19 8 18 15 17 -59 0
9 19 8 18 13 17 -58 0
9 19 8 18 13 17 -57 0
9 19 8 18 13 17 -60 0
9 19 8 18 13 17 -59 0
9 19 8 12 15 13 -58 0
9 19 8 12 15 13 -57 0
9 19 8 12 15 13 -60 0
9 19 8 12 15 13 -59 0
9 19 8 12 13 17 -58 0
9 19 8 12 13 17 -57 0
9 19 8 12 13 17 -60 0
9 19 8 12 13 17 -59 0
9 19 18 12 15 17 -58 0
9 19 18 12 15 17 -57 0
9 19 18 12 15 17 -60 0
9 19 18 12 15 17 -59 0
9 19 18 15 13 17 -58 0
9 19 18 15 13 17 -57 0
9 19 18 15 13 17 -60 0
9 19 18 15 13 17 -59 0
9 19 12 15 13 17 -58 0
9 19 12 15 13 17 -57 0
9 19 12 15 13 17 -60 0
9 19 12 15 13 17 -59 0
9 4 8 2 12 3 -11 0
9 4 8 2 12 3 -10 0
9 4 8 2 12 3 -14 0
9 4 8 2 12 3 -7 0
9 4 8 2 12 13 -11 0
9 4 8 2 12 13 -10 0
9 4 8 2 12 13 -14 0
9 4 8 2 12 13 -7 0
9 4 8 2 3 1 -11 0
9 4 8 2 3 1 -10 0
9 4 8 2 3 1 -14 0
9 4 8 2 3 1 -7 0
9 4 8 2 13 1 -11 0
9 4 8 2 13 1 -10 0
9 4 8 2 13 1 -14 0
9 4 8 2 13 1 -7 0
9 4 8 12 3 13 -11 0
9 4 8 12 3 13 -10 0
9 4 8 12 3 13 -14 0
9 4 8 12 3 13 -7 0
9 4 8 12 13 1 -11 0
9 4 8 12 13 1 -10 0
9 4 8 12 13 1 -14 0
9 4 8 12 13 1 -7 0
9 4 2 12 3 1 -11 0
9 4 2 12 3 1 -10 0
9 4 2 12 3 1 -14 0
9 4 2 12 3 1 -7 0
9 4 2 3 13 1 -11 0
9 4 2 3 13 1 -10 0
9 4 2 3 13 1 -14 0
9 4 2 3 13 1 -7 0
9 4 12 3 13 1 -11 0
9 4 12 3 13 1 -10 0
9 4 12 3 13 1 -14 0
9 4 12 3 13 1 -7 0
9 45 8 40 12 13 -72 0
9 45 8 40 12 13 -69 0
9 45 8 40 12 13 -71 0
9 45 8 40 12 13 -70 0
9 45 8 12 39 13 -72 0
9 45 8 12 39 13 -69 0
9 45 8 12 39 13 -71 0
9 45 8 12 39 13 -70 0
9 35 8 34 12 13 -68 0
9 35 8 34 12 13 -67 0
9 35 8 34 12 13 -66 0
9 35 8 34 12 13 -65 0
9 35 8 12 33 13 -68 0
9 35 8 12 33 13 -67 0
9 35 8 12 33 13 -66 0
9 35 8 12 33 13 -65 0
9 8 50 12 49 13 -75 0
9 8 50 12 49 13 -74 0
9 8 50 12 49 13 -76 0
9 8 50 12 49 13 -73 0
9 8 50 12 13 51 -75 0
9 8 50 12 13 51 -74 0
9 8 50 12 13 51 -76 0
9 8 50 12 13 51 -73 0
9 8 25 12 23 13 -64 0
9 8 25 12 23 13 -63 0
9 8 25 12 23 13 -61 0
9 8 25 12 23 13 -62 0
9 8 25 12 13 24 -64 0
9 8 25 12 13 24 -63 0
9 8 25 12 13 24 -61 0
9 8 25 12 13 24 -62 0
9 8 18 12 15 13 -58 0
9 8 18 12 15 13 -57 0
9 8 18 12 15 13 -60 0
9 8 18 12 15 13 -59 0
9 8 18 12 13 17 -58 0
9 8 18 12 13 17 -57 0
9 8 18 12 13 17 -60 0
9 8 18 12 13 17 -59 0
9 8 2 12 3 13 -11 0
9 8 2 12 3 13 -10 0
9 8 2 12 3 13 -14 0
9 8 2 12 3 13 -7 0
9 8 2 12 13 1 -11 0
9 8 2 12 13 1 -10 0
9 8 2 12 13 1 -14 0
9 8 2 12 13 1 -7 0
9 8 40 12 39 13 -72 0
9 8 40 12 39 13 -69 0
9 8 40 12 39 13 -71 0
9 8 40 12 39 13 -70 0
9 8 34 12 33 13 -68 0
9 8 34 12 33 13 -67 0
9 8 34 12 33 13 -66 0
9 8 34 12 33 13 -65 0
9 8 12 49 13 51 -75 0
9 8 12 49 13 51 -74 0
9 8 12 49 13 51 -76 0
9 8 12 49 13 51 -73 0
9 8 12 23 13 24 -64 0
9 8 12 23 13 24 -63 0
9 8 12 23 13 24 -61 0
9 8 12 23 13 24 -62 0
9 8 12 15 13 17 -58 0
9 8 12 15 13 17 -57 0
9 8 12 15 13 17 -60 0
9 8 12 15 13 17 -59 0
9 8 12 3 13 1 -11 0
9 8 12 3 13 1 -10 0
9 8 12 3 13 1 -14 0
9 8 12 3 13 1 -7 0
53 27 50 25 49 23 -108 0
53 27 50 25 49 23 -106 0
53 27 50 25 49 23 -105 0
53 27 50 25 49 23 -107 0
53 27 50 25 49 51 -108 0
53 27 50 25 49 51 -106 0
53 27 50 25 49 51 -105 0
53 27 50 25 49 51 -107 0
53 27 50 25 23 24 -108 0
53 27 50 25 23 24 -106 0
53 27 50 25 23 24 -105 0
53 27 50 25 23 24 -107 0
53 27 50 25 51 24 -108 0
53 27 50 25 51 24 -106 0
53 27 50 25 51 24 -105 0
53 27 50 25 51 24 -107 0
53 27 50 49 23 51 -108 0
53 27 50 49 23 51 -106 0
53 27 50 49 23 51 -105 0
53 27 50 49 23 51 -107 0
53 27 50 49 51 24 -108 0
53 27 50 49 51 24 -106 0
53 27 50 49 51 24 -105 0
53 27 50 49 51 24 -107 0
53 27 25 49 23 24 -108 0
53 27 25 49 23 24 -106 0
53 27 25 49 23 24 -105 0
53 27 25 49 23 24 -107 0
53 27 25 23 51 24 -108 0
53 27 25 23 51 24 -106 0
53 27 25 23 51 24 -105 0
53 27 25 23 51 24 -107 0
53 27 49 23 51 24 -108 0
53 27 49 23 51 24 -106 0
53 27 49 23 51 24 -105 0
53 27 49 23 51 24 -107 0
53 19 50 18 49 15 -91 0
53 19 50 18 49 15 -93 0
53 19 50 18 49 15 -92 0
53 19 50 18 49 15 -94 0
53 19 50 18 49 51 -91 0
53 19 50 18 49 51 -93 0
53 19 50 18 49 51 -92 0
53 19 50 18 49 51 -94 0
53 19 50 18 15 17 -91 0
53 19 50 18 15 17 -93 0
53 19 50 18 15 17 -92 0
53 19 50 18 15 17 -94 0
53 19 50 18 51 17 -91 0
53 19 50 18 51 17 -93 0
53 19 50 18 51 17 -92 0
53 19 50 18 51 17 -94 0
53 19 50 49 15 51 -91 0
53 19 50 49 15 51 -93 0
53 19 50 49 15 51 -92 0
53 19 50 49 15 51 -94 0
53 19 50 49 51 17 -91 0
53 19 50 49 51 17 -93 0
53 19 50 49 51 17 -92 0
53 19 50 49 51 17 -94 0
53 19 18 49 15 17 -91 0
53 19 18 49 15 17 -93 0
53 19 18 49 15 17 -92 0
53 19 18 49 15 17 -94 0
53 19 18 15 51 17 -91 0
53 19 18 15 51 17 -93 0
53 19 18 15 51 17 -92 0
53 19 18 15 51 17 -94 0
53 19 49 15 51 17 -91 0
53 19 49 15 51 17 -93 0
53 19 49 15 51 17 -92 0
53 19 49 15 51 17 -94 0
53 4 50 2 49 3 -48 0
53 4 50 2 49 3 -54 0
53 4 50 2 49 3 -52 0
53 4 50 2 49 3 -47 0
53 4 50 2 49 51 -48 0
53 4 50 2 49 51 -54 0
53 4 50 2 49 51 -52 0
53 4 50 2 49 51 -47 0
53 4 50 2 3 1 -48 0
53 4 50 2 3 1 -54 0
53 4 50 2 3 1 -52 0
53 4 50 2 3 1 -47 0
53 4 50 2 51 1 -48 0
53 4 50 2 51 1 -54 0
53 4 50 2 51 1 -52 0
53 4 50 2 51 1 -47 0
53 4 50 49 3 51 -48 0
53 4 50 49 3 51 -54 0
53 4 50 49 3 51 -52 0
53 4 50 49 3 51 -47 0
53 4 50 49 51 1 -48 0
53 4 50 49 51 1 -54 0
53 4 50 49 51 1 -52 0
53 4 50 49 51 1 -47 0
53 4 2 49 3 1 -48 0
53 4 2 49 3 1 -54 0
53 4 2 49 3 1 -52 0
53 4 2 49 3 1 -47 0
53 4 2 3 51 1 -48 0
53 4 2 3 51 1 -54 0
53 4 2 3 51 1 -52 0
53 4 2 3 51 1 -47 0
53 4 49 3 51 1 -48 0
53 4 49 3 51 1 -54 0
53 4 49 3 51 1 -52 0
53 4 49 3 51 1 -47 0
53 45 50 40 49 51 -124 0
53 45 50 40 49 51 -122 0
53 45 50 40 49 51 -121 0
53 45 50 40 49 51 -123 0
53 45 50 49 39 51 -124 0
53 45 50 49 39 51 -122 0
53 45 50 49 39 51 -121 0
53 45 50 49 39 51 -123 0
53 35 50 34 49 51 -117 0
53 35 50 34 49 51 -115 0
53 35 50 34 49 51 -118 0
53 35 50 34 49 51 -116 0
53 35 50 49 33 51 -117 0
53 35 50 49 33 51 -115 0
53 35 50 49 33 51 -118 0
53 35 50 49 33 51 -116 0
53 8 50 12 49 51 -75 0
53 8 50 12 49 51 -74 0
53 8 50 12 49 51 -76 0
53 8 50 12 49 51 -73 0
53 8 50 49 13 51 -75 0
53 8 50 49 13 51 -74 0
53 8 50 49 13 51 -76 0
53 8 50 49 13 51 -73 0
53 50 25 49 23 51 -108 0
53 50 25 49 23 51 -106 0
53 50 25 49 23 51 -105 0
53 50 25 49 23 51 -107 0
53 50 25 49 51 24 -108 0
53 50 25 49 51 24 -106 0
53 50 25 49 51 24 -105 0
53 50 25 49 51 24 -107 0
53 50 18 49 15 51 -91 0
53 50 18 49 15 51 -93 0
53 50 18 49 15 51 -92 0
53 50 18 49 15 51 -94 0
53 50 18 49 51 17 -91 0
53 50 18 49 51 17 -93 0
53 50 18 49 51 17 -92 0
53 50 18 49 51 17 -94 0
53 50 2 49 3 51 -48 0
53 50 2 49 3 51 -54 0
53 50 2 49 3 51 -52 0
53 50 2 49 3 51 -47 0
53 50 2 49 51 1 -48 0
53 50 2 49 51 1 -54 0
53 50 2 49 51 1 -52 0
53 50 2 49 51 1 -47 0
53 50 40 49 39 51 -124 0
53 50 40 49 39 51 -122 0
53 50 40 49 39 51 -121 0
53 50 40 49 39 51 -123 0
53 50 34 49 33 51 -117 0
53 50 34 49 33 51 -115 0
53 50 34 49 33 51 -118 0
53 50 34 49 33 51 -116 0
53 50 12 49 13 51 -75 0
53 50 12 49 13 51 -74 0
53 50 12 49 13 51 -76 0
53 50 12 49 13 51 -73 0
53 50 49 23 51 24 -108 0
53 50 49 23 51 24 -106 0
53 50 49 23 51 24 -105 0
53 50 49 23 51 24 -107 0
53 50 49 15 51 17 -91 0
53 50 49 15 51 17 -93 0
53 50 49 15 51 17 -92 0
53 50 49 15 51 17 -94 0
53 50 49 3 51 1 -48 0
53 50 49 3 51 1 -54 0
53 50 49 3 51 1 -52 0
53 50 49 3 51 1 -47 0
27 19 25 18 23 15 -82 0
27 19 25 18 23 15 -79 0
27 19 25 18 23 15 -80 0
27 19 25 18 23 15 -81 0
27 19 25 18 23 24 -82 0
27 19 25 18 23 24 -79 0
27 19 25 18 23 24 -80 0
27 19 25 18 23 24 -81 0
27 19 25 18 15 17 -82 0
27 19 25 18 15 17 -79 0
27 19 25 18 15 17 -80 0
27 19 25 18 15 17 -81 0
27 19 25 18 24 17 -82 0
27 19 25 18 24 17 -79 0
27 19 25 18 24 17 -80 0
27 19 25 18 24 17 -81 0
27 19 25 23 15 24 -82 0
27 19 25 23 15 24 -79 0
27 19 25 23 15 24 -80 0
27 19 25 23 15 24 -81 0
27 19 25 23 24 17 -82 0
27 19 25 23 24 17 -79 0
27 19 25 23 24 17 -80 0
27 19 25 23 24 17 -81 0
27 19 18 23 15 17 -82 0
27 19 18 23 15 17 -79 0
27 19 18 23 15 17 -80 0
27 19 18 23 15 17 -81 0
27 19 18 15 24 17 -82 0
27 19 18 15 24 17 -79 0
27 19 18 15 24 17 -80 0
27 19 18 15 24 17 -81 0
27 19 23 15 24 17 -82 0
27 19 23 15 24 17 -79 0
27 19 23 15 24 17 -80 0
27 19 23 15 24 17 -81 0
27 4 25 2 23 3 -30 0
27 4 25 2 23 3 -26 0
27 4 25 2 23 3 -28 0
27 4 25 2 23 3 -29 0
27 4 25 2 23 24 -30 0
27 4 25 2 23 24 -26 0
27 4 25 2 23 24 -28 0
27 4 25 2 23 24 -29 0
27 4 25 2 3 1 -30 0
27 4 25 2 3 1 -26 0
27 4 25 2 3 1 -28 0
27 4 25 2 3 1 -29 0
27 4 25 2 24 1 -30 0
27 4 25 2 24 1 -26 0
27 4 25 2 24 1 -28 0
27 4 25 2 24 1 -29 0
27 4 25 23 3 24 -30 0
27 4 25 23 3 24 -26 0
27 4 25 23 3 24 -28 0
27 4 25 23 3 24 -29 0
27 4 25 23 24 1 -30 0
27 4 25 23 24 1 -26 0
27 4 25 23 24 1 -28 0
27 4 25 23 24 1 -29 0
27 4 2 23 3 1 -30 0
27 4 2 23 3 1 -26 0
27 4 2 23 3 1 -28 0
27 4 2 23 3 1 -29 0
27 4 2 3 24 1 -30 0
27 4 2 3 24 1 -26 0
27 4 2 3 24 1 -28 0
27 4 2 3 24 1 -29 0
27 4 23 3 24 1 -30 0
27 4 23 3 24 1 -26 0
27 4 23 3 24 1 -28 0
27 4 23 3 24 1 -29 0
27 45 25 40 23 24 -101 0
27 45 25 40 23 24 -104 0
27 45 25 40 23 24 -103 0
27 45 25 40 23 24 -102 0
27 45 25 23 39 24 -101 0
27 45 25 23 39 24 -104 0
27 45 25 23 39 24 -103 0
27 45 25 23 39 24 -102 0
27 35 25 34 23 24 -100 0
27 35 25 34 23 24 -99 0
27 35 25 34 23 24 -98 0
27 35 25 34 23 24 -97 0
27 35 25 23 33 24 -100 0
27 35 25 23 33 24 -99 0
27 35 25 23 33 24 -98 0
27 35 25 23 33 24 -97 0
27 8 25 12 23 24 -64 0
27 8 25 12 23 24 -63 0
27 8 25 12 23 24 -61 0
27 8 25 12 23 24 -62 0
27 8 25 23 13 24 -64 0
27 8 25 23 13 24 -63 0
27 8 25 23 13 24 -61 0
27 8 25 23 13 24 -62 0
27 50 25 49 23 24 -108 0
27 50 25 49 23 24 -106 0
27 50 25 49 23 24 -105 0
27 50 25 49 23 24 -107 0
27 50 25 23 51 24 -108 0
27 50 25 23 51 24 -106 0
27 50 25 23 51 24 -105 0
27 50 25 23 51 24 -107 0
27 25 18 23 15 24 -82 0
27 25 18 23 15 24 -79 0
27 25 18 23 15 24 -80 0
27 25 18 23 15 24 -81 0
27 25 18 23 24 17 -82 0
27 25 18 23 24 17 -79 0
27 25 18 23 24 17 -80 0
27 25 18 23 24 17 -81 0
27 25 2 23 3 24 -30 0
27 25 2 23 3 24 -26 0
27 25 2 23 3 24 -28 0
27 25 2 23 3 24 -29 0
27 25 2 23 24 1 -30 0
27 25 2 23 24 1 -26 0
27 25 2 23 24 1 -28 0
27 25 2 23 24 1 -29 0
27 25 40 23 39 24 -101 0
27 25 40 23 39 24 -104 0
27 25 40 23 39 24 -103 0
27 25 40 23 39 24 -102 0
27 25 34 23 33 24 -100 0
27 25 34 23 33 24 -99 0
27 25 34 23 33 24 -98 0
27 25 34 23 33 24 -97 0
27 25 12 23 13 24 -64 0
27 25 12 23 13 24 -63 0
27 25 12 23 13 24 -61 0
27 25 12 23 13 24 -62 0
27 25 49 23 51 24 -108 0
27 25 49 23 51 24 -106 0
27 25 49 23 51 24 -105 0
27 25 49 23 51 24 -107 0
27 25 23 15 24 17 -82 0
27 25 23 15 24 17 -79 0
27 25 23 15 24 17 -80 0
27 25 23 15 24 17 -81 0
27 25 23 3 24 1 -30 0
27 25 23 3 24 1 -26 0
27 25 23 3 24 1 -28 0
27 25 23 3 24 1 -29 0
19 4 18 2 15 3 -21 0
19 4 18 2 15 3 -22 0
19 4 18 2 15 3 -16 0
19 4 18 2 15 3 -20 0
19 4 18 2 15 17 -21 0
19 4 18 2 15 17 -22 0
19 4 18 2 15 17 -16 0
19 4 18 2 15 17 -20 0
19 4 18 2 3 1 -21 0
19 4 18 2 3 1 -22 0
19 4 18 2 3 1 -16 0
19 4 18 2 3 1 -20 0
19 4 18 2 17 1 -21 0
19 4 18 2 17 1 -22 0
19 4 18 2 17 1 -16 0
19 4 18 2 17 1 -20 0
19 4 18 15 3 17 -21 0
19 4 18 15 3 17 -22 0
19 4 18 15 3 17 -16 0
19 4 18 15 3 17 -20 0
19 4 18 15 17 1 -21 0
19 4 18 15 17 1 -22 0
19 4 18 15 17 1 -16 0
19 4 18 15 17 1 -20 0
19 4 2 15 3 1 -21 0
19 4 2 15 3 1 -22 0
19 4 2 15 3 1 -16 0
19 4 2 15 3 1 -20 0
19 4 2 3 17 1 -21 0
19 4 2 3 17 1 -22 0
19 4 2 3 17 1 -16 0
19 4 2 3 17 1 -20 0
19 4 15 3 17 1 -21 0
19 4 15 3 17 1 -22 0
19 4 15 3 17 1 -16 0
19 4 15 3 17 1 -20 0
19 45 18 40 15 17 -89 0
19 45 18 40 15 17 -88 0
19 45 18 40 15 17 -90 0
19 45 18 40 15 17 -87 0
19 45 18 15 39 17 -89 0
19 45 18 15 39 17 -88 0
19 45 18 15 39 17 -90 0
19 45 18 15 39 17 -87 0
19 35 18 34 15 17 -85 0
19 35 18 34 15 17 -84 0
19 35 18 34 15 17 -83 0
19 35 18 34 15 17 -86 0
19 35 18 15 33 17 -85 0
19 35 18 15 33 17 -84 0
19 35 18 15 33 17 -83 0
19 35 18 15 33 17 -86 0
19 8 18 12 15 17 -58 0
19 8 18 12 15 17 -57 0
19 8 18 12 15 17 -60 0
19 8 18 12 15 17 -59 0
19 8 18 15 13 17 -58 0
19 8 18 15 13 17 -57 0
19 8 18 15 13 17 -60 0
19 8 18 15 13 17 -59 0
19 50 18 49 15 17 -91 0
19 50 18 49 15 17 -93 0
19 50 18 49 15 17 -92 0
19 50 18 49 15 17 -94 0
19 50 18 15 51 17 -91 0
19 50 18 15 51 17 -93 0
19 50 18 15 51 17 -92 0
19 50 18 15 51 17 -94 0
19 25 18 23 15 17 -82 0
19 25 18 23 15 17 -79 0
19 25 18 23 15 17 -80 0
19 25 18 23 15 17 -81 0
19 25 18 15 24 17 -82 0
19 25 18 15 24 17 -79 0
19 25 18 15 24 17 -80 0
19 25 18 15 24 17 -81 0
19 18 2 15 3 17 -21 0
19 18 2 15 3 17 -22 0
19 18 2 15 3 17 -16 0
19 18 2 15 3 17 -20 0
19 18 2 15 17 1 -21 0
19 18 2 15 17 1 -22 0
19 18 2 15 17 1 -16 0
19 18 2 15 17 1 -20 0
19 18 40 15 39 17 -89 0
19 18 40 15 39 17 -88 0
19 18 40 15 39 17 -90 0
19 18 40 15 39 17 -87 0
19 18 34 15 33 17 -85 0
19 18 34 15 33 17 -84 0
19 18 34 15 33 17 -83 0
19 18 34 15 33 17 -86 0
19 18 12 15 13 17 -58 0
19 18 12 15 13 17 -57 0
19 18 12 15 13 17 -60 0
19 18 12 15 13 17 -59 0
19 18 49 15 51 17 -91 0
19 18 49 15 51 17 -93 0
19 18 49 15 51 17 -92 0
19 18 49 15 51 17 -94 0
19 18 23 15 24 17 -82 0
19 18 23 15 24 17 -79 0
19 18 23 15 24 17 -80 0
19 18 23 15 24 17 -81 0
19 18 15 3 17 1 -21 0
19 18 15 3 17 1 -22 0
19 18 15 3 17 1 -16 0
19 18 15 3 17 1 -20 0
4 45 2 40 3 1 -41 0
4 45 2 40 3 1 -44 0
4 45 2 40 3 1 -43 0
4 45 2 40 3 1 -46 0
4 45 2 3 39 1 -41 0
4 45 2 3 39 1 -44 0
4 45 2 3 39 1 -43 0
4 45 2 3 39 1 -46 0
4 35 2 34 3 1 -37 0
4 35 2 34 3 1 -38 0
4 35 2 34 3 1 -31 0
4 35 2 34 3 1 -32 0
4 35 2 3 33 1 -37 0
4 35 2 3 33 1 -38 0
4 35 2 3 33 1 -31 0
4 35 2 3 33 1 -32 0
4 8 2 12 3 1 -11 0
4 8 2 12 3 1 -10 0
4 8 2 12 3 1 -14 0
4 8 2 12 3 1 -7 0
4 8 2 3 13 1 -11 0
4 8 2 3 13 1 -10 0
4 8 2 3 13 1 -14 0
4 8 2 3 13 1 -7 0
4 50 2 49 3 1 -48 0
4 50 2 49 3 1 -54 0
4 50 2 49 3 1 -52 0
4 50 2 49 3 1 -47 0
4 50 2 3 51 1 -48 0
4 50 2 3 51 1 -54 0
4 50 2 3 51 1 -52 0
4 50 2 3 51 1 -47 0
4 25 2 23 3 1 -30 0
4 25 2 23 3 1 -26 0
4 25 2 23 3 1 -28 0
4 25 2 23 3 1 -29 0
4 25 2 3 24 1 -30 0
4 25 2 3 24 1 -26 0
4 25 2 3 24 1 -28 0
4 25 2 3 24 1 -29 0
4 18 2 15 3 1 -21 0
4 18 2 15 3 1 -22 0
4 18 2 15 3 1 -16 0
4 18 2 15 3 1 -20 0
4 18 2 3 17 1 -21 0
4 18 2 3 17 1 -22 0
4 18 2 3 17 1 -16 0
4 18 2 3 17 1 -20 0
4 2 40 3 39 1 -41 0
4 2 40 3 39 1 -44 0
4 2 40 3 39 1 -43 0
4 2 40 3 39 1 -46 0
4 2 34 3 33 1 -37 0
4 2 34 3 33 1 -38 0
4 2 34 3 33 1 -31 0
4 2 34 3 33 1 -32 0
4 2 12 3 13 1 -11 0
4 2 12 3 13 1 -10 0
4 2 12 3 13 1 -14 0
4 2 12 3 13 1 -7 0
4 2 49 3 51 1 -48 0
4 2 49 3 51 1 -54 0
4 2 49 3 51 1 -52 0
4 2 49 3 51 1 -47 0
4 2 23 3 24 1 -30 0
4 2 23 3 24 1 -26 0
4 2 23 3 24 1 -28 0
4 2 23 3 24 1 -29 0
4 2 15 3 17 1 -21 0
4 2 15 3 17 1 -22 0
4 2 15 3 17 1 -16 0
4 2 15 3 17 1 -20 0
45 35 40 34 39 33 -114 0
45 35 40 34 39 33 -113 0
45 35 40 34 39 33 -111 0
45 35 40 34 39 33 -112 0
45 8 40 12 39 13 -72 0
45 8 40 12 39 13 -69 0
45 8 40 12 39 13 -71 0
45 8 40 12 39 13 -70 0
45 50 40 49 39 51 -124 0
45 50 40 49 39 51 -122 0
45 50 40 49 39 51 -121 0
45 50 40 49 39 51 -123 0
45 25 40 23 39 24 -101 0
45 25 40 23 39 24 -104 0
45 25 40 23 39 24 -103 0
45 25 40 23 39 24 -102 0
45 18 40 15 39 17 -89 0
45 18 40 15 39 17 -88 0
45 18 40 15 39 17 -90 0
45 18 40 15 39 17 -87 0
45 2 40 3 39 1 -41 0
45 2 40 3 39 1 -44 0
45 2 40 3 39 1 -43 0
45 2 40 3 39 1 -46 0
35 8 34 12 33 13 -68 0
35 8 34 12 33 13 -67 0
35 8 34 12 33 13 -66 0
35 8 34 12 33 13 -65 0
35 50 34 49 33 51 -117 0
35 50 34 49 33 51 -115 0
35 50 34 49 33 51 -118 0
35 50 34 49 33 51 -116 0
35 25 34 23 33 24 -100 0
35 25 34 23 33 24 -99 0
35 25 34 23 33 24 -98 0
35 25 34 23 33 24 -97 0
35 18 34 15 33 17 -85 0
35 18 34 15 33 17 -84 0
35 18 34 15 33 17 -83 0
35 18 34 15 33 17 -86 0
35 2 34 3 33 1 -37 0
35 2 34 3 33 1 -38 0
35 2 34 3 33 1 -31 0
35 2 34 3 33 1 -32 0
8 50 12 49 13 51 -75 0
8 50 12 49 13 51 -74 0
8 50 12 49 13 51 -76 0
8 50 12 49 13 51 -73 0
8 25 12 23 13 24 -64 0
8 25 12 23 13 24 -63 0
8 25 12 23 13 24 -61 0
8 25 12 23 13 24 -62 0
8 18 12 15 13 17 -58 0
8 18 12 15 13 17 -57 0
8 18 12 15 13 17 -60 0
8 18 12 15 13 17 -59 0
8 2 12 3 13 1 -11 0
8 2 12 3 13 1 -10 0
8 2 12 3 13 1 -14 0
8 2 12 3 13 1 -7 0
50 25 49 23 51 24 -108 0
50 25 49 23 51 24 -106 0
50 25 49 23 51 24 -105 0
50 25 49 23 51 24 -107 0
50 18 49 15 51 17 -91 0
50 18 49 15 51 17 -93 0
50 18 49 15 51 17 -92 0
50 18 49 15 51 17 -94 0
50 2 49 3 51 1 -48 0
50 2 49 3 51 1 -54 0
50 2 49 3 51 1 -52 0
50 2 49 3 51 1 -47 0
25 18 23 15 24 17 -82 0
25 18 23 15 24 17 -79 0
25 18 23 15 24 17 -80 0
25 18 23 15 24 17 -81 0
25 2 23 3 24 1 -30 0
25 2 23 3 24 1 -26 0
25 2 23 3 24 1 -28 0
25 2 23 3 24 1 -29 0
18 2 15 3 17 1 -21 0
18 2 15 3 17 1 -22 0
18 2 15 3 17 1 -16 0
18 2 15 3 17 1 -20 0
42 36 45 35 40 34 39 -114 0
42 36 45 35 40 34 39 -113 0
42 36 45 35 40 34 39 -111 0
42 36 45 35 40 34 39 -112 0
42 36 45 35 40 34 33 -114 0
42 36 45 35 40 34 33 -113 0
42 36 45 35 40 34 33 -111 0
42 36 45 35 40 34 33 -112 0
42 36 45 35 40 39 33 -114 0
42 36 45 35 40 39 33 -113 0
42 36 45 35 40 39 33 -111 0
42 36 45 35 40 39 33 -112 0
42 36 45 35 34 39 33 -114 0
42 36 45 35 34 39 33 -113 0
42 36 45 35 34 39 33 -111 0
42 36 45 35 34 39 33 -112 0
42 36 45 40 34 39 33 -114 0
42 36 45 40 34 39 33 -113 0
42 36 45 40 34 39 33 -111 0
42 36 45 40 34 39 33 -112 0
42 36 35 40 34 39 33 -114 0
42 36 35 40 34 39 33 -113 0
42 36 35 40 34 39 33 -111 0
42 36 35 40 34 39 33 -112 0
42 9 45 8 40 12 39 -72 0
42 9 45 8 40 12 39 -69 0
42 9 45 8 40 12 39 -71 0
42 9 45 8 40 12 39 -70 0
42 9 45 8 40 12 13 -72 0
42 9 45 8 40 12 13 -69 0
42 9 45 8 40 12 13 -71 0
42 9 45 8 40 12 13 -70 0
42 9 45 8 40 39 13 -72 0
42 9 45 8 40 39 13 -69 0
42 9 45 8 40 39 13 -71 0
42 9 45 8 40 39 13 -70 0
42 9 45 8 12 39 13 -72 0
42 9 45 8 12 39 13 -69 0
42 9 45 8 12 39 13 -71 0
42 9 45 8 12 39 13 -70 0
42 9 45 40 12 39 13 -72 0
42 9 45 40 12 39 13 -69 0
42 9 45 40 12 39 13 -71 0
42 9 45 40 12 39 13 -70 0
42 9 8 40 12 39 13 -72 0
42 9 8 40 12 39 13 -69 0
42 9 8 40 12 39 13 -71 0
42 9 8 40 12 39 13 -70 0
42 53 45 50 40 49 39 -124 0
42 53 45 50 40 49 39 -122 0
42 53 45 50 40 49 39 -121 0
42 53 45 50 40 49 39 -123 0
42 53 45 50 40 49 51 -124 0
42 53 45 50 40 49 51 -122 0
42 53 45 50 40 49 51 -121 0
42 53 45 50 40 49 51 -123 0
42 53 45 50 40 39 51 -124 0
42 53 45 50 40 39 51 -122 0
42 53 45 50 40 39 51 -121 0
42 53 45 50 40 39 51 -123 0
42 53 45 50 49 39 51 -124 0
42 53 45 50 49 39 51 -122 0
42 53 45 50 49 39 51 -121 0
42 53 45 50 49 39 51 -123 0
42 53 45 40 49 39 51 -124 0
42 53 45 40 49 39 51 -122 0
42 53 45 40 49 39 51 -121 0
42 53 45 40 49 39 51 -123 0
42 53 50 40 49 39 51 -124 0
42 53 50 40 49 39 51 -122 0
42 53 50 40 49 39 51 -121 0
42 53 50 40 49 39 51 -123 0
42 27 45 25 40 23 39 -101 0
42 27 45 25 40 23 39 -104 0
42 27 45 25 40 23 39 -103 0
42 27 45 25 40 23 39 -102 0
42 27 45 25 40 23 24 -101 0
42 27 45 25 40 23 24 -104 0
42 27 45 25 40 23 24 -103 0
42 27 45 25 40 23 24 -102 0
42 27 45 25 40 39 24 -101 0
42 27 45 25 40 39 24 -104 0
42 27 45 25 40 39 24 -103 0
42 27 45 25 40 39 24 -102 0
42 27 45 25 23 39 24 -101 0
42 27 45 25 23 39 24 -104 0
42 27 45 25 23 39 24 -103 0
42 27 45 25 23 39 24 -102 0
42 27 45 40 23 39 24 -101 0
42 27 45 40 23 39 24 -104 0
42 27 45 40 23 39 24 -103 0
42 27 45 40 23 39 24 -102 0
42 27 25 40 23 39 24 -101 0
42 27 25 40 23 39 24 -104 0
42 27 25 40 23 39 24 -103 0
42 27 25 40 23 39 24 -102 0
42 19 45 18 40 15 39 -89 0
42 19 45 18 40 15 39 -88 0
42 19 45 18 40 15 39 -90 0
42 19 45 18 40 15 39 -87 0
42 19 45 18 40 15 17 -89 0
42 19 45 18 40 15 17 -88 0
42 19 45 18 40 15 17 -90 0
42 19 45 18 40 15 17 -87 0
42 19 45 18 40 39 17 -89 0
42 19 45 18 40 39 17 -88 0
42 19 45 18 40 39 17 -90 0
42 19 45 18 40 39 17 -87 0
42 19 45 18 15 39 17 -89 0
42 19 45 18 15 39 17 -88 0
42 19 45 18 15 39 17 -90 0
42 19 45 18 15 39 17 -87 0
42 19 45 40 15 39 17 -89 0
42 19 45 40 15 39 17 -88 0
42 19 45 40 15 39 17 -90 0
42 19 45 40 15 39 17 -87 0
42 19 18 40 15 39 17 -89 0
42 19 18 40 15 39 17 -88 0
42 19 18 40 15 39 17 -90 0
42 19 18 40 15 39 17 -87 0
42 4 45 2 40 3 39 -41 0
42 4 45 2 40 3 39 -44 0
42 4 45 2 40 3 39 -43 0
42 4 45 2 40 3 39 -46 0
42 4 45 2 40 3 1 -41 0
42 4 45 2 40 3 1 -44 0
42 4 45 2 40 3 1 -43 0
42 4 45 2 40 3 1 -46 0
42 4 45 2 40 39 1 -41 0
42 4 45 2 40 39 1 -44 0
42 4 45 2 40 39 1 -43 0
42 4 45 2 40 39 1 -46 0
42 4 45 2 3 39 1 -41 0
42 4 45 2 3 39 1 -44 0
42 4 45 2 3 39 1 -43 0
42 4 45 2 3 39 1 -46 0
42 4 45 40 3 39 1 -41 0
42 4 45 40 3 39 1 -44 0
42 4 45 40 3 39 1 -43 0
42 4 45 40 3 39 1 -46 0
42 4 2 40 3 39 1 -41 0
42 4 2 40 3 39 1 -44 0
42 4 2 40 3 39 1 -43 0
42 4 2 40 3 39 1 -46 0
42 45 35 40 34 39 33 -114 0
42 45 35 40 34 39 33 -113 0
42 45 35 40 34 39 33 -111 0
42 45 35 40 34 39 33 -112 0
42 45 8 40 12 39 13 -72 0
42 45 8 40 12 39 13 -69 0
42 45 8 40 12 39 13 -71 0
42 45 8 40 12 39 13 -70 0
42 45 50 40 49 39 51 -124 0
42 45 50 40 49 39 51 -122 0
42 45 50 40 49 39 51 -121 0
42 45 50 40 49 39 51 -123 0
42 45 25 40 23 39 24 -101 0
42 45 25 40 23 39 24 -104 0
42 45 25 40 23 39 24 -103 0
42 45 25 40 23 39 24 -102 0
42 45 18 40 15 39 17 -89 0
42 45 18 40 15 39 17 -88 0
42 45 18 40 15 39 17 -90 0
42 45 18 40 15 39 17 -87 0
42 45 2 40 3 39 1 -41 0
42 45 2 40 3 39 1 -44 0
42 45 2 40 3 39 1 -43 0
42 45 2 40 3 39 1 -46 0
36 9 35 8 34 12 33 -68 0
36 9 35 8 34 12 33 -67 0
36 9 35 8 34 12 33 -66 0
36 9 35 8 34 12 33 -65 0
36 9 35 8 34 12 13 -68 0
36 9 35 8 34 12 13 -67 0
36 9 35 8 34 12 13 -66 0
36 9 35 8 34 12 13 -65 0
36 9 35 8 34 33 13 -68 0
36 9 35 8 34 33 13 -67 0
36 9 35 8 34 33 13 -66 0
36 9 35 8 34 33 13 -65 0
36 9 35 8 12 33 13 -68 0
36 9 35 8 12 33 13 -67 0
36 9 35 8 12 33 13 -66 0
36 9 35 8 12 33 13 -65 0
36 9 35 34 12 33 13 -68 0
36 9 35 34 12 33 13 -67 0
36 9 35 34 12 33 13 -66 0
36 9 35 34 12 33 13 -65 0
36 9 8 34 12 33 13 -68 0
36 9 8 34 12 33 13 -67 0
36 9 8 34 12 33 13 -66 0
36 9 8 34 12 33 13 -65 0
36 53 35 50 34 49 33 -117 0
36 53 35 50 34 49 33 -115 0
36 53 35 50 34 49 33 -118 0
36 53 35 50 34 49 33 -116 0
36 53 35 50 34 49 51 -117 0
36 53 35 50 34 49 51 -115 0
36 53 35 50 34 49 51 -118 0
36 53 35 50 34 49 51 -116 0
36 53 35 50 34 33 51 -117 0
36 53 35 50 34 33 51 -115 0
36 53 35 50 34 33 51 -118 0
36 53 35 50 34 33 51 -116 0
36 53 35 50 49 33 51 -117 0
36 53 35 50 49 33 51 -115 0
36 53 35 50 49 33 51 -118 0
36 53 35 50 49 33 51 -116 0
36 53 35 34 49 33 51 -117 0
36 53 35 34 49 33 51 -115 0
36 53 35 34 49 33 51 -118 0
36 53 35 34 49 33 51 -116 0
36 53 50 34 49 33 51 -117 0
36 53 50 34 49 33 51 -115 0
36 53 50 34 49 33 51 -118 0
36 53 50 34 49 33 51 -116 0
36 27 35 25 34 23 33 -100 0
36 27 35 25 34 23 33 -99 0
36 27 35 25 34 23 33 -98 0
36 27 35 25 34 23 33 -97 0
36 27 35 25 34 23 24 -100 0
36 27 35 25 34 23 24 -99 0
36 27 35 25 34 23 24 -98 0
36 27 35 25 34 23 24 -97 0
36 27 35 25 34 33 24 -100 0
36 27 35 25 34 33 24 -99 0
36 27 35 25 34 33 24 -98 0
36 27 35 25 34 33 24 -97 0
36 27 35 25 23 33 24 -100 0
36 27 35 25 23 33 24 -99 0
36 27 35 25 23 33 24 -98 0
36 27 35 25 23 33 24 -97 0
36 27 35 34 23 33 24 -100 0
36 27 35 34 23 33 24 -99 0
36 27 35 34 23 33 24 -98 0
36 27 35 34 23 33 24 -97 0
36 27 25 34 23 33 24 -100 0
36 27 25 34 23 33 24 -99 0
36 27 25 34 23 33 24 -98 0
36 27 25 34 23 33 24 -97 0
36 19 35 18 34 15 33 -85 0
36 19 35 18 34 15 33 -84 0
36 19 35 18 34 15 33 -83 0
36 19 35 18 34 15 33 -86 0
36 19 35 18 34 15 17 -85 0
36 19 35 18 34 15 17 -84 0
36 19 35 18 34 15 17 -83 0
36 19 35 18 34 15 17 -86 0
36 19 35 18 34 33 17 -85 0
36 19 35 18 34 33 17 -84 0
36 19 35 18 34 33 17 -83 0
36 19 35 18 34 33 17 -86 0
36 19 35 18 15 33 17 -85 0
36 19 35 18 15 33 17 -84 0
36 19 35 18 15 33 17 -83 0
36 19 35 18 15 33 17 -86 0
36 19 35 34 15 33 17 -85 0
36 19 35 34 15 33 17 -84 0
36 19 35 34 15 33 17 -83 0
36 19 35 34 15 33 17 -86 0
36 19 18 34 15 33 17 -85 0
36 19 18 34 15 33 17 -84 0
36 19 18 34 15 33 17 -83 0
36 19 18 34 15 33 17 -86 0
36 4 35 2 34 3 33 -37 0
36 4 35 2 34 3 33 -38 0
36 4 35 2 34 3 33 -31 0
36 4 35 2 34 3 33 -32 0
36 4 35 2 34 3 1 -37 0
36 4 35 2 34 3 1 -38 0
36 4 35 2 34 3 1 -31 0
36 4 35 2 34 3 1 -32 0
36 4 35 2 34 33 1 -37 0
36 4 35 2 34 33 1 -38 0
36 4 35 2 34 33 1 -31 0
36 4 35 2 34 33 1 -32 0
36 4 35 2 3 33 1 -37 0
36 4 35 2 3 33 1 -38 0
36 4 35 2 3 33 1 -31 0
36 4 35 2 3 33 1 -32 0
36 4 35 34 3 33 1 -37 0
36 4 35 34 3 33 1 -38 0
36 4 35 34 3 33 1 -31 0
36 4 35 34 3 33 1 -32 0
36 4 2 34 3 33 1 -37 0
36 4 2 34 3 33 1 -38 0
36 4 2 34 3 33 1 -31 0
36 4 2 34 3 33 1 -32 0
36 45 35 40 34 39 33 -114 0
36 45 35 40 34 39 33 -113 0
36 45 35 40 34 39 33 -111 0
36 45 35 40 34 39 33 -112 0
36 35 8 34 12 33 13 -68 0
36 35 8 34 12 33 13 -67 0
36 35 8 34 12 33 13 -66 0
36 35 8 34 12 33 13 -65 0
36 35 50 34 49 33 51 -117 0
36 35 50 34 49 33 51 -115 0
36 35 50 34 49 33 51 -118 0
36 35 50 34 49 33 51 -116 0
36 35 25 34 23 33 24 -100 0
36 35 25 34 23 33 24 -99 0
36 35 25 34 23 33 24 -98 0
36 35 25 34 23 33 24 -97 0
36 35 18 34 15 33 17 -85 0
36 35 18 34 15 33 17 -84 0
36 35 18 34 15 33 17 -83 0
36 35 18 34 15 33 17 -86 0
36 35 2 34 3 33 1 -37 0
36 35 2 34 3 33 1 -38 0
36 35 2 34 3 33 1 -31 0
36 35 2 34 3 33 1 -32 0
9 53 8 50 12 49 13 -75 0
9 53 8 50 12 49 13 -74 0
9 53 8 50 12 49 13 -76 0
9 53 8 50 12 49 13 -73 0
9 53 8 50 12 49 51 -75 0
9 53 8 50 12 49 51 -74 0
9 53 8 50 12 49 51 -76 0
9 53 8 50 12 49 51 -73 0
9 53 8 50 12 13 51 -75 0
9 53 8 50 12 13 51 -74 0
9 53 8 50 12 13 51 -76 0
9 53 8 50 12 13 51 -73 0
9 53 8 50 49 13 51 -75 0
9 53 8 50 49 13 51 -74 0
9 53 8 50 49 13 51 -76 0
9 53 8 50 49 13 51 -73 0
9 53 8 12 49 13 51 -75 0
9 53 8 12 49 13 51 -74 0
9 53 8 12 49 13 51 -76 0
9 53 8 12 49 13 51 -73 0
9 53 50 12 49 13 51 -75 0
9 53 50 12 49 13 51 -74 0
9 53 50 12 49 13 51 -76 0
9 53 50 12 49 13 51 -73 0
9 27 8 25 12 23 13 -64 0
9 27 8 25 12 23 13 -63 0
9 27 8 25 12 23 13 -61 0
9 27 8 25 12 23 13 -62 0
9 27 8 25 12 23 24 -64 0
9 27 8 25 12 23 24 -63 0
9 27 8 25 12 23 24 -61 0
9 27 8 25 12 23 24 -62 0
9 27 8 25 12 13 24 -64 0
9 27 8 25 12 13 24 -63 0
9 27 8 25 12 13 24 -61 0
9 27 8 25 12 13 24 -62 0
9 27 8 25 23 13 24 -64 0
9 27 8 25 23 13 24 -63 0
9 27 8 25 23 13 24 -61 0
9 27 8 25 23 13 24 -62 0
9 27 8 12 23 13 24 -64 0
9 27 8 12 23 13 24 -63 0
9 27 8 12 23 13 24 -61 0
9 27 8 12 23 13 24 -62 0
9 27 25 12 23 13 24 -64 0
9 27 25 12 23 13 24 -63 0
9 27 25 12 23 13 24 -61 0
9 27 25 12 23 13 24 -62 0
9 19 8 18 12 15 13 -58 0
9 19 8 18 12 15 13 -57 0
9 19 8 18 12 15 13 -60 0
9 19 8 18 12 15 13 -59 0
9 19 8 18 12 15 17 -58 0
9 19 8 18 12 15 17 -57 0
9 19 8 18 12 15 17 -60 0
9 19 8 18 12 15 17 -59 0
9 19 8 18 12 13 17 -58 0
9 19 8 18 12 13 17 -57 0
9 19 8 18 12 13 17 -60 0
9 19 8 18 12 13 17 -59 0
9 19 8 18 15 13 17 -58 0
9 19 8 18 15 13 17 -57 0
9 19 8 18 15 13 17 -60 0
9 19 8 18 15 13 17 -59 0
9 19 8 12 15 13 17 -58 0
9 19 8 12 15 13 17 -57 0
9 19 8 12 15 13 17 -60 0
9 19 8 12 15 13 17 -59 0
9 19 18 12 15 13 17 -58 0
9 19 18 12 15 13 17 -57 0
9 19 18 12 15 13 17 -60 0
9 19 18 12 15 13 17 -59 0
9 4 8 2 12 3 13 -11 0
9 4 8 2 12 3 13 -10 0
9 4 8 2 12 3 13 -14 0
9 4 8 2 12 3 13 -7 0
9 4 8 2 12 3 1 -11 0
9 4 8 2 12 3 1 -10 0
9 4 8 2 12 3 1 -14 0
9 4 8 2 12 3 1 -7 0
9 4 8 2 12 13 1 -11 0
9 4 8 2 12 13 1 -10 0
9 4 8 2 12 13 1 -14 0
9 4 8 2 12 13 1 -7 0
9 4 8 2 3 13 1 -11 0
9 4 8 2 3 13 1 -10 0
9 4 8 2 3 13 1 -14 0
9 4 8 2 3 13 1 -7 0
9 4 8 12 3 13 1 -11 0
9 4 8 12 3 13 1 -10 0
9 4 8 12 3 13 1 -14 0
9 4 8 12 3 13 1 -7 0
9 4 2 12 3 13 1 -11 0
9 4 2 12 3 13 1 -10 0
9 4 2 12 3 13 1 -14 0
9 4 2 12 3 13 1 -7 0
9 45 8 40 12 39 13 -72 0
9 45 8 40 12 39 13 -69 0
9 45 8 40 12 39 13 -71 0
9 45 8 40 12 39 13 -70 0
9 35 8 34 12 33 13 -68 0
9 35 8 34 12 33 13 -67 0
9 35 8 34 12 33 13 -66 0
9 35 8 34 12 33 13 -65 0
9 8 50 12 49 13 51 -75 0
9 8 50 12 49 13 51 -74 0
9 8 50 12 49 13 51 -76 0
9 8 50 12 49 13 51 -73 0
9 8 25 12 23 13 24 -64 0
9 8 25 12 23 13 24 -63 0
9 8 25 12 23 13 24 -61 0
9 8 25 12 23 13 24 -62 0
9 8 18 12 15 13 17 -58 0
9 8 18 12 15 13 17 -57 0
9 8 18 12 15 13 17 -60 0
9 8 18 12 15 13 17 -59 0
9 8 2 12 3 13 1 -11 0
9 8 2 12 3 13 1 -10 0
9 8 2 12 3 13 1 -14 0
9 8 2 12 3 13 1 -7 0
53 27 50 25 49 23 51 -108 0
53 27 50 25 49 23 51 -106 0
53 27 50 25 49 23 51 -105 0
53 27 50 25 49 23 51 -107 0
53 27 50 25 49 23 24 -108 0
53 27 50 25 49 23 24 -106 0
53 27 50 25 49 23 24 -105 0
53 27 50 25 49 23 24 -107 0
53 27 50 25 49 51 24 -108 0
53 27 50 25 49 51 24 -106 0
53 27 50 25 49 51 24 -105 0
53 27 50 25 49 51 24 -107 0
53 27 50 25 23 51 24 -108 0
53 27 50 25 23 51 24 -106 0
53 27 50 25 23 51 24 -105 0
53 27 50 25 23 51 24 -107 0
53 27 50 49 23 51 24 -108 0
53 27 50 49 23 51 24 -106 0
53 27 50 49 23 51 24 -105 0
53 27 50 49 23 51 24 -107 0
53 27 25 49 23 51 24 -108 0
53 27 25 49 23 51 24 -106 0
53 27 25 49 23 51 24 -105 0
53 27 25 49 23 51 24 -107 0
53 19 50 18 49 15 51 -91 0
53 19 50 18 49 15 51 -93 0
53 19 50 18 49 15 51 -92 0
53 19 50 18 49 15 51 -94 0
53 19 50 18 49 15 17 -91 0
53 19 50 18 49 15 17 -93 0
53 19 50 18 49 15 17 -92 0
53 19 50 18 49 15 17 -94 0
53 19 50 18 49 51 17 -91 0
53 19 50 18 49 51 17 -93 0
53 19 50 18 49 51 17 -92 0
53 19 50 18 49 51 17 -94 0
53 19 50 18 15 51 17 -91 0
53 19 50 18 15 51 17 -93 0
53 19 50 18 15 51 17 -92 0
53 19 50 18 15 51 17 -94 0
53 19 50 49 15 51 17 -91 0
53 19 50 49 15 51 17 -93 0
53 19 50 49 15 51 17 -92 0
53 19 50 49 15 51 17 -94 0
53 19 18 49 15 51 17 -91 0
53 19 18 49 15 51 17 -93 0
53 19 18 49 15 51 17 -92 0
53 19 18 49 15 51 17 -94 0
53 4 50 2 49 3 51 -48 0
53 4 50 2 49 3 51 -54 0
53 4 50 2 49 3 51 -52 0
53 4 50 2 49 3 51 -47 0
53 4 50 2 49 3 1 -48 0
53 4 50 2 49 3 1 -54 0
53 4 50 2 49 3 1 -52 0
53 4 50 2 49 3 1 -47 0
53 4 50 2 49 51 1 -48 0
53 4 50 2 49 51 1 -54 0
53 4 50 2 49 51 1 -52 0
53 4 50 2 49 51 1 -47 0
53 4 50 2 3 51 1 -48 0
53 4 50 2 3 51 1 -54 0
53 4 50 2 3 51 1 -52 0
53 4 50 2 3 51 1 -47 0
53 4 50 49 3 51 1 -48 0
53 4 50 49 3 51 1 -54 0
53 4 50 49 3 51 1 -52 0
53 4 50 49 3 51 1 -47 0
53 4 2 49 3 51 1 -48 0
53 4 2 49 3 51 1 -54 0
53 4 2 49 3 51 1 -52 0
53 4 2 49 3 51 1 -47 0
53 45 50 40 49 39 51 -124 0
53 45 50 40 49 39 51 -122 0
53 45 50 40 49 39 51 -121 0
53 45 50 40 49 39 51 -123 0
53 35 50 34 49 33 51 -117 0
53 35 50 34 49 33 51 -115 0
53 35 50 34 49 33 51 -118 0
53 35 50 34 49 33 51 -116 0
53 8 50 12 49 13 51 -75 0
53 8 50 12 49 13 51 -74 0
53 8 50 12 49 13 51 -76 0
53 8 50 12 49 13 51 -73 0
53 50 25 49 23 51 24 -108 0
53 50 25 49 23 51 24 -106 0
53 50 25 49 23 51 24 -105 0
53 50 25 49 23 51 24 -107 0
53 50 18 49 15 51 17 -91 0
53 50 18 49 15 51 17 -93 0
53 50 18 49 15 51 17 -92 0
53 50 18 49 15 51 17 -94 0
53 50 2 49 3 51 1 -48 0
53 50 2 49 3 51 1 -54 0
53 50 2 49 3 51 1 -52 0
53 50 2 49 3 51 1 -47 0
27 19 25 18 23 15 24 -82 0
27 19 25 18 23 15 24 -79 0
27 19 25 18 23 15 24 -80 0
27 19 25 18 23 15 24 -81 0
27 19 25 18 23 15 17 -82 0
27 19 25 18 23 15 17 -79 0
27 19 25 18 23 15 17 -80 0
27 19 25 18 23 15 17 -81 0
27 19 25 18 23 24 17 -82 0
27 19 25 18 23 24 17 -79 0
27 19 25 18 23 24 17 -80 0
27 19 25 18 23 24 17 -81 0
27 19 25 18 15 24 17 -82 0
27 19 25 18 15 24 17 -79 0
27 19 25 18 15 24 17 -80 0
27 19 25 18 15 24 17 -81 0
27 19 25 23 15 24 17 -82 0
27 19 25 23 15 24 17 -79 0
27 19 25 23 15 24 17 -80 0
27 19 25 23 15 24 17 -81 0
27 19 18 23 15 24 17 -82 0
27 19 18 23 15 24 17 -79 0
27 19 18 23 15 24 17 -80 0
27 19 18 23 15 24 17 -81 0
27 4 25 2 23 3 24 -30 0
27 4 25 2 23 3 24 -26 0
27 4 25 2 23 3 24 -28 0
27 4 25 2 23 3 24 -29 0
27 4 25 2 23 3 1 -30 0
27 4 25 2 23 3 1 -26 0
27 4 25 2 23 3 1 -28 0
27 4 25 2 23 3 1 -29 0
27 4 25 2 23 24 1 -30 0
27 4 25 2 23 24 1 -26 0
27 4 25 2 23 24 1 -28 0
27 4 25 2 23 24 1 -29 0
27 4 25 2 3 24 1 -30 0
27 4 25 2 3 24 1 -26 0
27 4 25 2 3 24 1 -28 0
27 4 25 2 3 24 1 -29 0
27 4 25 23 3 24 1 -30 0
27 4 25 23 3 24 1 -26 0
27 4 25 23 3 24 1 -28 0
27 4 25 23 3 24 1 -29 0
27 4 2 23 3 24 1 -30 0
27 4 2 23 3 24 1 -26 0
27 4 2 23 3 24 1 -28 0
27 4 2 23 3 24 1 -29 0
27 45 25 40 23 39 24 -101 0
27 45 25 40 23 39 24 -104 0
27 45 25 40 23 39 24 -103 0
27 45 25 40 23 39 24 -102 0
27 35 25 34 23 33 24 -100 0
27 35 25 34 23 33 24 -99 0
27 35 25 34 23 33 24 -98 0
27 35 25 34 23 33 24 -97 0
27 8 25 12 23 13 24 -64 0
27 8 25 12 23 13 24 -63 0
27 8 25 12 23 13 24 -61 0
27 8 25 12 23 13 24 -62 0
27 50 25 49 23 51 24 -108 0
27 50 25 49 23 51 24 -106 0
27 50 25 49 23 51 24 -105 0
27 50 25 49 23 51 24 -107 0
27 25 18 23 15 24 17 -82 0
27 25 18 23 15 24 17 -79 0
27 25 18 23 15 24 17 -80 0
27 25 18 23 15 24 17 -81 0
27 25 2 23 3 24 1 -30 0
27 25 2 23 3 24 1 -26 0
27 25 2 23 3 24 1 -28 0
27 25 2 23 3 24 1 -29 0
19 4 18 2 15 3 17 -21 0
19 4 18 2 15 3 17 -22 0
19 4 18 2 15 3 17 -16 0
19 4 18 2 15 3 17 -20 0
19 4 18 2 15 3 1 -21 0
19 4 18 2 15 3 1 -22 0
19 4 18 2 15 3 1 -16 0
19 4 18 2 15 3 1 -20 0
19 4 18 2 15 17 1 -21 0
19 4 18 2 15 17 1 -22 0
19 4 18 2 15 17 1 -16 0
19 4 18 2 15 17 1 -20 0
19 4 18 2 3 17 1 -21 0
19 4 18 2 3 17 1 -22 0
19 4 18 2 3 17 1 -16 0
19 4 18 2 3 17 1 -20 0
19 4 18 15 3 17 1 -21 0
19 4 18 15 3 17 1 -22 0
19 4 18 15 3 17 1 -16 0
19 4 18 15 3 17 1 -20 0
19 4 2 15 3 17 1 -21 0
19 4 2 15 3 17 1 -22 0
19 4 2 15 3 17 1 -16 0
19 4 2 15 3 17 1 -20 0
19 45 18 40 15 39 17 -89 0
19 45 18 40 15 39 17 -88 0
19 45 18 40 15 39 17 -90 0
19 45 18 40 15 39 17 -87 0
19 35 18 34 15 33 17 -85 0
19 35 18 34 15 33 17 -84 0
19 35 18 34 15 33 17 -83 0
19 35 18 34 15 33 17 -86 0
19 8 18 12 15 13 17 -58 0
19 8 18 12 15 13 17 -57 0
19 8 18 12 15 13 17 -60 0
19 8 18 12 15 13 17 -59 0
19 50 18 49 15 51 17 -91 0
19 50 18 49 15 51 17 -93 0
19 50 18 49 15 51 17 -92 0
19 50 18 49 15 51 17 -94 0
19 25 18 23 15 24 17 -82 0
19 25 18 23 15 24 17 -79 0
19 25 18 23 15 24 17 -80 0
19 25 18 23 15 24 17 -81 0
19 18 2 15 3 17 1 -21 0
19 18 2 15 3 17 1 -22 0
19 18 2 15 3 17 1 -16 0
19 18 2 15 3 17 1 -20 0
4 45 2 40 3 39 1 -41 0
4 45 2 40 3 39 1 -44 0
4 45 2 40 3 39 1 -43 0
4 45 2 40 3 39 1 -46 0
4 35 2 34 3 33 1 -37 0
4 35 2 34 3 33 1 -38 0
4 35 2 34 3 33 1 -31 0
4 35 2 34 3 33 1 -32 0
4 8 2 12 3 13 1 -11 0
4 8 2 12 3 13 1 -10 0
4 8 2 12 3 13 1 -14 0
4 8 2 12 3 13 1 -7 0
4 50 2 49 3 51 1 -48 0
4 50 2 49 3 51 1 -54 0
4 50 2 49 3 51 1 -52 0
4 50 2 49 3 51 1 -47 0
4 25 2 23 3 24 1 -30 0
4 25 2 23 3 24 1 -26 0
4 25 2 23 3 24 1 -28 0
4 25 2 23 3 24 1 -29 0
4 18 2 15 3 17 1 -21 0
4 18 2 15 3 17 1 -22 0
4 18 2 15 3 17 1 -16 0
4 18 2 15 3 17 1 -20 0
42 36 45 35 40 34 39 33 -114 0
42 36 45 35 40 34 39 33 -113 0
42 36 45 35 40 34 39 33 -111 0
42 36 45 35 40 34 39 33 -112 0
42 9 45 8 40 12 39 13 -72 0
42 9 45 8 40 12 39 13 -69 0
42 9 45 8 40 12 39 13 -71 0
42 9 45 8 40 12 39 13 -70 0
42 53 45 50 40 49 39 51 -124 0
42 53 45 50 40 49 39 51 -122 0
42 53 45 50 40 49 39 51 -121 0
42 53 45 50 40 49 39 51 -123 0
42 27 45 25 40 23 39 24 -101 0
42 27 45 25 40 23 39 24 -104 0
42 27 45 25 40 23 39 24 -103 0
42 27 45 25 40 23 39 24 -102 0
42 19 45 18 40 15 39 17 -89 0
42 19 45 18 40 15 39 17 -88 0
42 19 45 18 40 15 39 17 -90 0
42 19 45 18 40 15 39 17 -87 0
42 4 45 2 40 3 39 1 -41 0
42 4 45 2 40 3 39 1 -44 0
42 4 45 2 40 3 39 1 -43 0
42 4 45 2 40 3 39 1 -46 0
36 9 35 8 34 12 33 13 -68 0
36 9 35 8 34 12 33 13 -67 0
36 9 35 8 34 12 33 13 -66 0
36 9 35 8 34 12 33 13 -65 0
36 53 35 50 34 49 33 51 -117 0
36 53 35 50 34 49 33 51 -115 0
36 53 35 50 34 49 33 51 -118 0
36 53 35 50 34 49 33 51 -116 0
36 27 35 25 34 23 33 24 -100 0
36 27 35 25 34 23 33 24 -99 0
36 27 35 25 34 23 33 24 -98 0
36 27 35 25 34 23 33 24 -97 0
36 19 35 18 34 15 33 17 -85 0
36 19 35 18 34 15 33 17 -84 0
36 19 35 18 34 15 33 17 -83 0
36 19 35 18 34 15 33 17 -86 0
36 4 35 2 34 3 33 1 -37 0
36 4 35 2 34 3 33 1 -38 0
36 4 35 2 34 3 33 1 -31 0
36 4 35 2 34 3 33 1 -32 0
9 53 8 50 12 49 13 51 -75 0
9 53 8 50 12 49 13 51 -74 0
9 53 8 50 12 49 13 51 -76 0
9 53 8 50 12 49 13 51 -73 0
9 27 8 25 12 23 13 24 -64 0
9 27 8 25 12 23 13 24 -63 0
9 27 8 25 12 23 13 24 -61 0
9 27 8 25 12 23 13 24 -62 0
9 19 8 18 12 15 13 17 -58 0
9 19 8 18 12 15 13 17 -57 0
9 19 8 18 12 15 13 17 -60 0
9 19 8 18 12 15 13 17 -59 0
9 4 8 2 12 3 13 1 -11 0
9 4 8 2 12 3 13 1 -10 0
9 4 8 2 12 3 13 1 -14 0
9 4 8 2 12 3 13 1 -7 0
53 27 50 25 49 23 51 24 -108 0
53 27 50 25 49 23 51 24 -106 0
53 27 50 25 49 23 51 24 -105 0
53 27 50 25 49 23 51 24 -107 0
53 19 50 18 49 15 51 17 -91 0
53 19 50 18 49 15 51 17 -93 0
53 19 50 18 49 15 51 17 -92 0
53 19 50 18 49 15 51 17 -94 0
53 4 50 2 49 3 51 1 -48 0
53 4 50 2 49 3 51 1 -54 0
53 4 50 2 49 3 51 1 -52 0
53 4 50 2 49 3 51 1 -47 0
27 19 25 18 23 15 24 17 -82 0
27 19 25 18 23 15 24 17 -79 0
27 19 25 18 23 15 24 17 -80 0
27 19 25 18 23 15 24 17 -81 0
27 4 25 2 23 3 24 1 -30 0
27 4 25 2 23 3 24 1 -26 0
27 4 25 2 23 3 24 1 -28 0
27 4 25 2 23 3 24 1 -29 0
19 4 18 2 15 3 17 1 -21 0
19 4 18 2 15 3 17 1 -22 0
19 4 18 2 15 3 17 1 -16 0
19 4 18 2 15 3 17 1 -20 0
