c U3(4) U1(4) E2(4,4) U2(4) E1(4,4) U4(4) E1(4,6) U2(6) U4(6) E1(6,4) E2(6,4) U3(6) U1(6) E2(4,6) E1(4,1) U1(1) E2(4,1) E2(1,4) U4(1) U3(1) E1(1,4) U2(1) U4(3) E1(3,4) U3(3) U1(3) E2(4,3) U2(3) E2(3,4) E1(4,3) U3(5) U1(5) U2(5) E1(4,5) E1(5,4) E2(4,5) U4(5) E2(5,4) E1(4,7) U1(7) E2(4,7) U3(7) E2(7,4) E1(7,4) U2(7) U4(7) U1(2) E2(4,2) U3(2) U2(2) E1(2,4) U4(2) E2(2,4) E1(4,2) E2(0,4) E1(0,4) E1(4,0) E2(4,0) U4(0) U3(0) U2(0) U1(0) E1(6,6) E2(6,6) E1(1,6) E1(6,1) E2(6,1) E2(1,6) E1(3,6) E1(6,3) E2(6,3) E2(3,6) E2(6,5) E2(5,6) E1(5,6) E1(6,5) E2(7,6) E1(7,6) E1(6,7) E2(6,7) E1(6,2) E2(6,2) E1(2,6) E2(2,6) E2(6,0) E1(0,6) E2(0,6) E1(6,0) E2(1,1) E1(1,1) E2(1,3) E1(1,3) E2(3,1) E1(3,1) E1(5,1) E2(1,5) E1(1,5) E2(5,1) E2(7,1) E1(7,1) E2(1,7) E1(1,7) E1(2,1) E2(1,2) E1(1,2) E2(2,1) E2(1,0) E1(1,0) E1(0,1) E2(0,1) E1(3,3) E2(3,3) E2(3,5) E1(5,3) E2(5,3) E1(3,5) E1(3,7) E1(7,3) E2(3,7) E2(7,3) E1(3,2) E1(2,3) E2(3,2) E2(2,3) E1(0,3) E2(0,3) E2(3,0) E1(3,0) E1(5,5) E2(5,5) E2(5,7) E1(5,7) E2(7,5) E1(7,5) E2(2,5) E1(2,5) E1(5,2) E2(5,2) E2(5,0) E2(0,5) E1(0,5) E1(5,0) E2(7,7) E1(7,7) E2(7,2) E1(2,7) E1(7,2) E2(2,7) E1(7,0) E2(0,7) E2(7,0) E1(0,7) E2(2,2) E1(2,2) E1(0,2) E2(0,2) E2(2,0) E1(2,0) E1(0,0) E2(0,0)
c 1 2 3 4 5 6 7 8 9 10 11 12 13 14 15 16 17 18 19 20 21 22 23 24 25 26 27 28 29 30 31 32 33 34 35 36 37 38 39 40 41 42 43 44 45 46 47 48 49 50 51 52 53 54 55 56 57 58 59 60 61 62 63 64 65 66 67 68 69 70 71 72 73 74 75 76 77 78 79 80 81 82 83 84 85 86 87 88 89 90 91 92 93 94 95 96 97 98 99 100 101 102 103 104 105 106 107 108 109 110 111 112 113 114 115 116 117 118 119 120 121 122 123 124 125 126 127 128 129 130 131 132 133 134 135 136 137 138 139 140 141 142 143 144 145 146 147 148 149 150 151 152 153 154 155 156 157 158 159 160
p cnf 160 4264
-159 0
-90 0
-154 0
-111 0
-5 0
-129 0
-63 0
-144 0
-160 0
-89 0
-153 0
-112 0
-3 0
-130 0
-64 0
-143 0
-159 -160 0
-109 -108 0
-109 -110 0
-109 -107 0
-155 -158 0
-155 -156 0
-155 -157 0
-125 -128 0
-125 -126 0
-125 -127 0
-56 -57 0
-56 -55 0
-56 -58 0
-141 -142 0
-141 -140 0
-141 -139 0
-86 -88 0
-86 -87 0
-86 -85 0
-152 -149 0
-152 -150 0
-152 -151 0
-108 -110 0
-108 -107 0
-90 -89 0
-105 -103 0
-105 -104 0
-105 -106 0
-92 -94 0
-92 -91 0
-92 -93 0
-21 -15 0
-21 -18 0
-21 -17 0
-97 -95 0
-97 -96 0
-97 -98 0
-65 -66 0
-65 -68 0
-65 -67 0
-102 -100 0
-102 -101 0
-102 -99 0
-158 -156 0
-158 -157 0
-103 -104 0
-103 -106 0
-154 -153 0
-122 -121 0
-122 -124 0
-122 -123 0
-51 -54 0
-51 -53 0
-51 -48 0
-136 -137 0
-136 -135 0
-136 -138 0
-83 -81 0
-83 -84 0
-83 -82 0
-146 -147 0
-146 -148 0
-146 -145 0
-128 -126 0
-128 -127 0
-94 -91 0
-94 -93 0
-121 -124 0
-121 -123 0
-111 -112 0
-24 -30 0
-24 -29 0
-24 -27 0
-116 -114 0
-116 -113 0
-116 -115 0
-69 -70 0
-69 -72 0
-69 -71 0
-117 -118 0
-117 -119 0
-117 -120 0
-57 -55 0
-57 -58 0
-15 -18 0
-15 -17 0
-54 -53 0
-54 -48 0
-30 -29 0
-30 -27 0
-5 -3 0
-34 -35 0
-34 -36 0
-34 -38 0
-7 -10 0
-7 -14 0
-7 -11 0
-39 -44 0
-39 -41 0
-39 -43 0
-142 -140 0
-142 -139 0
-95 -96 0
-95 -98 0
-137 -135 0
-137 -138 0
-114 -113 0
-114 -115 0
-35 -36 0
-35 -38 0
-129 -130 0
-75 -76 0
-75 -74 0
-75 -73 0
-132 -134 0
-132 -131 0
-132 -133 0
-88 -87 0
-88 -85 0
-66 -68 0
-66 -67 0
-81 -84 0
-81 -82 0
-70 -72 0
-70 -71 0
-10 -14 0
-10 -11 0
-76 -74 0
-76 -73 0
-63 -64 0
-79 -78 0
-79 -80 0
-79 -77 0
-149 -150 0
-149 -151 0
-100 -101 0
-100 -99 0
-147 -148 0
-147 -145 0
-118 -119 0
-118 -120 0
-44 -41 0
-44 -43 0
-134 -131 0
-134 -133 0
-78 -80 0
-78 -77 0
-144 -143 0
-110 -107 0
-156 -157 0
-126 -127 0
-55 -58 0
-140 -139 0
-87 -85 0
-150 -151 0
-104 -106 0
-91 -93 0
-18 -17 0
-96 -98 0
-68 -67 0
-101 -99 0
-124 -123 0
-53 -48 0
-135 -138 0
-84 -82 0
-148 -145 0
-29 -27 0
-113 -115 0
-72 -71 0
-119 -120 0
-36 -38 0
-14 -11 0
-41 -43 0
-74 -73 0
-131 -133 0
-80 -77 0
-62 -61 0
-62 -60 0
-62 -59 0
-16 -22 0
-16 -20 0
-16 -19 0
-47 -50 0
-47 -49 0
-47 -52 0
-26 -28 0
-26 -25 0
-26 -23 0
-2 -4 0
-2 -1 0
-2 -6 0
-32 -33 0
-32 -31 0
-32 -37 0
-13 -8 0
-13 -12 0
-13 -9 0
-40 -45 0
-40 -42 0
-40 -46 0
-61 -60 0
-61 -59 0
-22 -20 0
-22 -19 0
-50 -49 0
-50 -52 0
-28 -25 0
-28 -23 0
-4 -1 0
-4 -6 0
-33 -31 0
-33 -37 0
-8 -12 0
-8 -9 0
-45 -42 0
-45 -46 0
-60 -59 0
-20 -19 0
-49 -52 0
-25 -23 0
-1 -6 0
-31 -37 0
-12 -9 0
-42 -46 0
62 61 60 59 0
16 22 20 19 0
47 50 49 52 0
26 28 25 23 0
2 4 1 6 0
32 33 31 37 0
13 8 12 9 0
40 45 42 46 0
62 61 60 -159 0
62 61 60 -160 0
62 61 59 -159 0
62 61 59 -160 0
62 60 59 -159 0
62 60 59 -160 0
16 22 20 -90 0
16 22 20 -89 0
16 22 19 -90 0
16 22 19 -89 0
16 20 19 -90 0
16 20 19 -89 0
47 50 49 -154 0
47 50 49 -153 0
47 50 52 -154 0
47 50 52 -153 0
47 49 52 -154 0
47 49 52 -153 0
26 28 25 -111 0
26 28 25 -112 0
26 28 23 -111 0
26 28 23 -112 0
26 25 23 -111 0
26 25 23 -112 0
2 4 1 -5 0
2 4 1 -3 0
2 4 6 -5 0
2 4 6 -3 0
2 1 6 -5 0
2 1 6 -3 0
32 33 31 -129 0
32 33 31 -130 0
32 33 37 -129 0
32 33 37 -130 0
32 31 37 -129 0
32 31 37 -130 0
13 8 12 -63 0
13 8 12 -64 0
13 8 9 -63 0
13 8 9 -64 0
13 12 9 -63 0
13 12 9 -64 0
40 45 42 -144 0
40 45 42 -143 0
40 45 46 -144 0
40 45 46 -143 0
40 42 46 -144 0
40 42 46 -143 0
61 60 59 -159 0
61 60 59 -160 0
22 20 19 -90 0
22 20 19 -89 0
50 49 52 -154 0
50 49 52 -153 0
28 25 23 -111 0
28 25 23 -112 0
4 1 6 -5 0
4 1 6 -3 0
33 31 37 -129 0
33 31 37 -130 0
8 12 9 -63 0
8 12 9 -64 0
45 42 46 -144 0
45 42 46 -143 0
62 61 60 59 -159 0
62 61 60 59 -109 0
62 61 60 59 -155 0
62 61 60 59 -125 0
62 61 60 59 -56 0
62 61 60 59 -141 0
62 61 60 59 -86 0
62 61 60 59 -152 0
62 61 60 59 -108 0
62 61 60 59 -158 0
62 61 60 59 -128 0
62 61 60 59 -57 0
62 61 60 59 -142 0
62 61 60 59 -88 0
62 61 60 59 -149 0
62 61 60 59 -160 0
62 61 60 59 -110 0
62 61 60 59 -156 0
62 61 60 59 -126 0
62 61 60 59 -55 0
62 61 60 59 -140 0
62 61 60 59 -87 0
62 61 60 59 -150 0
62 61 60 59 -107 0
62 61 60 59 -157 0
62 61 60 59 -127 0
62 61 60 59 -58 0
62 61 60 59 -139 0
62 61 60 59 -85 0
62 61 60 59 -151 0
16 22 20 19 -109 0
16 22 20 19 -108 0
16 22 20 19 -90 0
16 22 20 19 -105 0
16 22 20 19 -92 0
16 22 20 19 -21 0
16 22 20 19 -97 0
16 22 20 19 -65 0
16 22 20 19 -102 0
16 22 20 19 -103 0
16 22 20 19 -94 0
16 22 20 19 -15 0
16 22 20 19 -95 0
16 22 20 19 -66 0
16 22 20 19 -100 0
16 22 20 19 -110 0
16 22 20 19 -107 0
16 22 20 19 -89 0
16 22 20 19 -104 0
16 22 20 19 -91 0
16 22 20 19 -18 0
16 22 20 19 -96 0
16 22 20 19 -68 0
16 22 20 19 -101 0
16 22 20 19 -106 0
16 22 20 19 -93 0
16 22 20 19 -17 0
16 22 20 19 -98 0
16 22 20 19 -67 0
16 22 20 19 -99 0
47 50 49 52 -155 0
47 50 49 52 -105 0
47 50 49 52 -158 0
47 50 49 52 -103 0
47 50 49 52 -154 0
47 50 49 52 -122 0
47 50 49 52 -51 0
47 50 49 52 -136 0
47 50 49 52 -83 0
47 50 49 52 -146 0
47 50 49 52 -121 0
47 50 49 52 -54 0
47 50 49 52 -137 0
47 50 49 52 -81 0
47 50 49 52 -147 0
47 50 49 52 -156 0
47 50 49 52 -104 0
47 50 49 52 -157 0
47 50 49 52 -106 0
47 50 49 52 -153 0
47 50 49 52 -124 0
47 50 49 52 -53 0
47 50 49 52 -135 0
47 50 49 52 -84 0
47 50 49 52 -148 0
47 50 49 52 -123 0
47 50 49 52 -48 0
47 50 49 52 -138 0
47 50 49 52 -82 0
47 50 49 52 -145 0
26 28 25 23 -125 0
26 28 25 23 -92 0
26 28 25 23 -122 0
26 28 25 23 -128 0
26 28 25 23 -94 0
26 28 25 23 -121 0
26 28 25 23 -111 0
26 28 25 23 -24 0
26 28 25 23 -116 0
26 28 25 23 -69 0
26 28 25 23 -117 0
26 28 25 23 -30 0
26 28 25 23 -114 0
26 28 25 23 -70 0
26 28 25 23 -118 0
26 28 25 23 -126 0
26 28 25 23 -91 0
26 28 25 23 -124 0
26 28 25 23 -127 0
26 28 25 23 -93 0
26 28 25 23 -123 0
26 28 25 23 -112 0
26 28 25 23 -29 0
26 28 25 23 -113 0
26 28 25 23 -72 0
26 28 25 23 -119 0
26 28 25 23 -27 0
26 28 25 23 -115 0
26 28 25 23 -71 0
26 28 25 23 -120 0
2 4 1 6 -56 0
2 4 1 6 -21 0
2 4 1 6 -51 0
2 4 1 6 -24 0
2 4 1 6 -57 0
2 4 1 6 -15 0
2 4 1 6 -54 0
2 4 1 6 -30 0
2 4 1 6 -5 0
2 4 1 6 -34 0
2 4 1 6 -7 0
2 4 1 6 -39 0
2 4 1 6 -35 0
2 4 1 6 -10 0
2 4 1 6 -44 0
2 4 1 6 -55 0
2 4 1 6 -18 0
2 4 1 6 -53 0
2 4 1 6 -29 0
2 4 1 6 -58 0
2 4 1 6 -17 0
2 4 1 6 -48 0
2 4 1 6 -27 0
2 4 1 6 -3 0
2 4 1 6 -36 0
2 4 1 6 -14 0
2 4 1 6 -41 0
2 4 1 6 -38 0
2 4 1 6 -11 0
2 4 1 6 -43 0
32 33 31 37 -141 0
32 33 31 37 -97 0
32 33 31 37 -136 0
32 33 31 37 -116 0
32 33 31 37 -34 0
32 33 31 37 -142 0
32 33 31 37 -95 0
32 33 31 37 -137 0
32 33 31 37 -114 0
32 33 31 37 -35 0
32 33 31 37 -129 0
32 33 31 37 -75 0
32 33 31 37 -132 0
32 33 31 37 -76 0
32 33 31 37 -134 0
32 33 31 37 -140 0
32 33 31 37 -96 0
32 33 31 37 -135 0
32 33 31 37 -113 0
32 33 31 37 -36 0
32 33 31 37 -139 0
32 33 31 37 -98 0
32 33 31 37 -138 0
32 33 31 37 -115 0
32 33 31 37 -38 0
32 33 31 37 -130 0
32 33 31 37 -74 0
32 33 31 37 -131 0
32 33 31 37 -73 0
32 33 31 37 -133 0
13 8 12 9 -86 0
13 8 12 9 -65 0
13 8 12 9 -83 0
13 8 12 9 -69 0
13 8 12 9 -7 0
13 8 12 9 -75 0
13 8 12 9 -88 0
13 8 12 9 -66 0
13 8 12 9 -81 0
13 8 12 9 -70 0
13 8 12 9 -10 0
13 8 12 9 -76 0
13 8 12 9 -63 0
13 8 12 9 -79 0
13 8 12 9 -78 0
13 8 12 9 -87 0
13 8 12 9 -68 0
13 8 12 9 -84 0
13 8 12 9 -72 0
13 8 12 9 -14 0
13 8 12 9 -74 0
13 8 12 9 -85 0
13 8 12 9 -67 0
13 8 12 9 -82 0
13 8 12 9 -71 0
13 8 12 9 -11 0
13 8 12 9 -73 0
13 8 12 9 -64 0
13 8 12 9 -80 0
13 8 12 9 -77 0
40 45 42 46 -152 0
40 45 42 46 -102 0
40 45 42 46 -146 0
40 45 42 46 -117 0
40 45 42 46 -39 0
40 45 42 46 -132 0
40 45 42 46 -79 0
40 45 42 46 -149 0
40 45 42 46 -100 0
40 45 42 46 -147 0
40 45 42 46 -118 0
40 45 42 46 -44 0
40 45 42 46 -134 0
40 45 42 46 -78 0
40 45 42 46 -144 0
40 45 42 46 -150 0
40 45 42 46 -101 0
40 45 42 46 -148 0
40 45 42 46 -119 0
40 45 42 46 -41 0
40 45 42 46 -131 0
40 45 42 46 -80 0
40 45 42 46 -151 0
40 45 42 46 -99 0
40 45 42 46 -145 0
40 45 42 46 -120 0
40 45 42 46 -43 0
40 45 42 46 -133 0
40 45 42 46 -77 0
40 45 42 46 -143 0
62 16 61 60 59 -109 0
62 16 61 60 59 -108 0
62 16 61 60 59 -110 0
62 16 61 60 59 -107 0
62 16 22 20 19 -109 0
62 16 22 20 19 -108 0
62 16 22 20 19 -110 0
62 16 22 20 19 -107 0
62 47 61 60 59 -155 0
62 47 61 60 59 -158 0
62 47 61 60 59 -156 0
62 47 61 60 59 -157 0
62 47 50 49 52 -155 0
62 47 50 49 52 -158 0
62 47 50 49 52 -156 0
62 47 50 49 52 -157 0
62 26 61 60 59 -125 0
62 26 61 60 59 -128 0
62 26 61 60 59 -126 0
62 26 61 60 59 -127 0
62 26 28 25 23 -125 0
62 26 28 25 23 -128 0
62 26 28 25 23 -126 0
62 26 28 25 23 -127 0
62 2 61 60 59 -56 0
62 2 61 60 59 -57 0
62 2 61 60 59 -55 0
62 2 61 60 59 -58 0
62 2 4 1 6 -56 0
62 2 4 1 6 -57 0
62 2 4 1 6 -55 0
62 2 4 1 6 -58 0
62 32 61 60 59 -141 0
62 32 61 60 59 -142 0
62 32 61 60 59 -140 0
62 32 61 60 59 -139 0
62 32 33 31 37 -141 0
62 32 33 31 37 -142 0
62 32 33 31 37 -140 0
62 32 33 31 37 -139 0
62 13 61 60 59 -86 0
62 13 61 60 59 -88 0
62 13 61 60 59 -87 0
62 13 61 60 59 -85 0
62 13 8 12 9 -86 0
62 13 8 12 9 -88 0
62 13 8 12 9 -87 0
62 13 8 12 9 -85 0
62 40 61 60 59 -152 0
62 40 61 60 59 -149 0
62 40 61 60 59 -150 0
62 40 61 60 59 -151 0
62 40 45 42 46 -152 0
62 40 45 42 46 -149 0
62 40 45 42 46 -150 0
62 40 45 42 46 -151 0
62 61 22 60 59 -109 0
62 61 22 60 59 -108 0
62 61 22 60 59 -110 0
62 61 22 60 59 -107 0
62 61 50 60 59 -155 0
62 61 50 60 59 -158 0
62 61 50 60 59 -156 0
62 61 50 60 59 -157 0
62 61 28 60 59 -125 0
62 61 28 60 59 -128 0
62 61 28 60 59 -126 0
62 61 28 60 59 -127 0
62 61 4 60 59 -56 0
62 61 4 60 59 -57 0
62 61 4 60 59 -55 0
62 61 4 60 59 -58 0
62 61 33 60 59 -141 0
62 61 33 60 59 -142 0
62 61 33 60 59 -140 0
62 61 33 60 59 -139 0
62 61 8 60 59 -86 0
62 61 8 60 59 -88 0
62 61 8 60 59 -87 0
62 61 8 60 59 -85 0
62 61 45 60 59 -152 0
62 61 45 60 59 -149 0
62 61 45 60 59 -150 0
62 61 45 60 59 -151 0
62 61 60 20 59 -109 0
62 61 60 20 59 -108 0
62 61 60 20 59 -110 0
62 61 60 20 59 -107 0
62 61 60 49 59 -155 0
62 61 60 49 59 -158 0
62 61 60 49 59 -156 0
62 61 60 49 59 -157 0
62 61 60 25 59 -125 0
62 61 60 25 59 -128 0
62 61 60 25 59 -126 0
62 61 60 25 59 -127 0
62 61 60 1 59 -56 0
62 61 60 1 59 -57 0
62 61 60 1 59 -55 0
62 61 60 1 59 -58 0
62 61 60 31 59 -141 0
62 61 60 31 59 -142 0
62 61 60 31 59 -140 0
62 61 60 31 59 -139 0
62 61 60 12 59 -86 0
62 61 60 12 59 -88 0
62 61 60 12 59 -87 0
62 61 60 12 59 -85 0
62 61 60 42 59 -152 0
62 61 60 42 59 -149 0
62 61 60 42 59 -150 0
62 61 60 42 59 -151 0
62 61 60 59 19 -109 0
62 61 60 59 19 -108 0
62 61 60 59 19 -110 0
62 61 60 59 19 -107 0
62 61 60 59 52 -155 0
62 61 60 59 52 -158 0
62 61 60 59 52 -156 0
62 61 60 59 52 -157 0
62 61 60 59 23 -125 0
62 61 60 59 23 -128 0
62 61 60 59 23 -126 0
62 61 60 59 23 -127 0
62 61 60 59 6 -56 0
62 61 60 59 6 -57 0
62 61 60 59 6 -55 0
62 61 60 59 6 -58 0
62 61 60 59 37 -141 0
62 61 60 59 37 -142 0
62 61 60 59 37 -140 0
62 61 60 59 37 -139 0
62 61 60 59 9 -86 0
62 61 60 59 9 -88 0
62 61 60 59 9 -87 0
62 61 60 59 9 -85 0
62 61 60 59 46 -152 0
62 61 60 59 46 -149 0
62 61 60 59 46 -150 0
62 61 60 59 46 -151 0
16 47 22 20 19 -105 0
16 47 22 20 19 -103 0
16 47 22 20 19 -104 0
16 47 22 20 19 -106 0
16 47 50 49 52 -105 0
16 47 50 49 52 -103 0
16 47 50 49 52 -104 0
16 47 50 49 52 -106 0
16 26 22 20 19 -92 0
16 26 22 20 19 -94 0
16 26 22 20 19 -91 0
16 26 22 20 19 -93 0
16 26 28 25 23 -92 0
16 26 28 25 23 -94 0
16 26 28 25 23 -91 0
16 26 28 25 23 -93 0
16 2 22 20 19 -21 0
16 2 22 20 19 -15 0
16 2 22 20 19 -18 0
16 2 22 20 19 -17 0
16 2 4 1 6 -21 0
16 2 4 1 6 -15 0
16 2 4 1 6 -18 0
16 2 4 1 6 -17 0
16 32 22 20 19 -97 0
16 32 22 20 19 -95 0
16 32 22 20 19 -96 0
16 32 22 20 19 -98 0
16 32 33 31 37 -97 0
16 32 33 31 37 -95 0
16 32 33 31 37 -96 0
16 32 33 31 37 -98 0
16 13 22 20 19 -65 0
16 13 22 20 19 -66 0
16 13 22 20 19 -68 0
16 13 22 20 19 -67 0
16 13 8 12 9 -65 0
16 13 8 12 9 -66 0
16 13 8 12 9 -68 0
16 13 8 12 9 -67 0
16 40 22 20 19 -102 0
16 40 22 20 19 -100 0
16 40 22 20 19 -101 0
16 40 22 20 19 -99 0
16 40 45 42 46 -102 0
16 40 45 42 46 -100 0
16 40 45 42 46 -101 0
16 40 45 42 46 -99 0
16 61 22 20 19 -109 0
16 61 22 20 19 -108 0
16 61 22 20 19 -110 0
16 61 22 20 19 -107 0
16 22 50 20 19 -105 0
16 22 50 20 19 -103 0
16 22 50 20 19 -104 0
16 22 50 20 19 -106 0
16 22 28 20 19 -92 0
16 22 28 20 19 -94 0
16 22 28 20 19 -91 0
16 22 28 20 19 -93 0
16 22 4 20 19 -21 0
16 22 4 20 19 -15 0
16 22 4 20 19 -18 0
16 22 4 20 19 -17 0
16 22 33 20 19 -97 0
16 22 33 20 19 -95 0
16 22 33 20 19 -96 0
16 22 33 20 19 -98 0
16 22 8 20 19 -65 0
16 22 8 20 19 -66 0
16 22 8 20 19 -68 0
16 22 8 20 19 -67 0
16 22 45 20 19 -102 0
16 22 45 20 19 -100 0
16 22 45 20 19 -101 0
16 22 45 20 19 -99 0
16 22 60 20 19 -109 0
16 22 60 20 19 -108 0
16 22 60 20 19 -110 0
16 22 60 20 19 -107 0
16 22 20 49 19 -105 0
16 22 20 49 19 -103 0
16 22 20 49 19 -104 0
16 22 20 49 19 -106 0
16 22 20 25 19 -92 0
16 22 20 25 19 -94 0
16 22 20 25 19 -91 0
16 22 20 25 19 -93 0
16 22 20 1 19 -21 0
16 22 20 1 19 -15 0
16 22 20 1 19 -18 0
16 22 20 1 19 -17 0
16 22 20 31 19 -97 0
16 22 20 31 19 -95 0
16 22 20 31 19 -96 0
16 22 20 31 19 -98 0
16 22 20 12 19 -65 0
16 22 20 12 19 -66 0
16 22 20 12 19 -68 0
16 22 20 12 19 -67 0
16 22 20 42 19 -102 0
16 22 20 42 19 -100 0
16 22 20 42 19 -101 0
16 22 20 42 19 -99 0
16 22 20 59 19 -109 0
16 22 20 59 19 -108 0
16 22 20 59 19 -110 0
16 22 20 59 19 -107 0
16 22 20 19 52 -105 0
16 22 20 19 52 -103 0
16 22 20 19 52 -104 0
16 22 20 19 52 -106 0
16 22 20 19 23 -92 0
16 22 20 19 23 -94 0
16 22 20 19 23 -91 0
16 22 20 19 23 -93 0
16 22 20 19 6 -21 0
16 22 20 19 6 -15 0
16 22 20 19 6 -18 0
16 22 20 19 6 -17 0
16 22 20 19 37 -97 0
16 22 20 19 37 -95 0
16 22 20 19 37 -96 0
16 22 20 19 37 -98 0
16 22 20 19 9 -65 0
16 22 20 19 9 -66 0
16 22 20 19 9 -68 0
16 22 20 19 9 -67 0
16 22 20 19 46 -102 0
16 22 20 19 46 -100 0
16 22 20 19 46 -101 0
16 22 20 19 46 -99 0
47 26 50 49 52 -122 0
47 26 50 49 52 -121 0
47 26 50 49 52 -124 0
47 26 50 49 52 -123 0
47 26 28 25 23 -122 0
47 26 28 25 23 -121 0
47 26 28 25 23 -124 0
47 26 28 25 23 -123 0
47 2 50 49 52 -51 0
47 2 50 49 52 -54 0
47 2 50 49 52 -53 0
47 2 50 49 52 -48 0
47 2 4 1 6 -51 0
47 2 4 1 6 -54 0
47 2 4 1 6 -53 0
47 2 4 1 6 -48 0
47 32 50 49 52 -136 0
47 32 50 49 52 -137 0
47 32 50 49 52 -135 0
47 32 50 49 52 -138 0
47 32 33 31 37 -136 0
47 32 33 31 37 -137 0
47 32 33 31 37 -135 0
47 32 33 31 37 -138 0
47 13 50 49 52 -83 0
47 13 50 49 52 -81 0
47 13 50 49 52 -84 0
47 13 50 49 52 -82 0
47 13 8 12 9 -83 0
47 13 8 12 9 -81 0
47 13 8 12 9 -84 0
47 13 8 12 9 -82 0
47 40 50 49 52 -146 0
47 40 50 49 52 -147 0
47 40 50 49 52 -148 0
47 40 50 49 52 -145 0
47 40 45 42 46 -146 0
47 40 45 42 46 -147 0
47 40 45 42 46 -148 0
47 40 45 42 46 -145 0
47 61 50 49 52 -155 0
47 61 50 49 52 -158 0
47 61 50 49 52 -156 0
47 61 50 49 52 -157 0
47 22 50 49 52 -105 0
47 22 50 49 52 -103 0
47 22 50 49 52 -104 0
47 22 50 49 52 -106 0
47 50 28 49 52 -122 0
47 50 28 49 52 -121 0
47 50 28 49 52 -124 0
47 50 28 49 52 -123 0
47 50 4 49 52 -51 0
47 50 4 49 52 -54 0
47 50 4 49 52 -53 0
47 50 4 49 52 -48 0
47 50 33 49 52 -136 0
47 50 33 49 52 -137 0
47 50 33 49 52 -135 0
47 50 33 49 52 -138 0
47 50 8 49 52 -83 0
47 50 8 49 52 -81 0
47 50 8 49 52 -84 0
47 50 8 49 52 -82 0
47 50 45 49 52 -146 0
47 50 45 49 52 -147 0
47 50 45 49 52 -148 0
47 50 45 49 52 -145 0
47 50 60 49 52 -155 0
47 50 60 49 52 -158 0
47 50 60 49 52 -156 0
47 50 60 49 52 -157 0
47 50 20 49 52 -105 0
47 50 20 49 52 -103 0
47 50 20 49 52 -104 0
47 50 20 49 52 -106 0
47 50 49 25 52 -122 0
47 50 49 25 52 -121 0
47 50 49 25 52 -124 0
47 50 49 25 52 -123 0
47 50 49 1 52 -51 0
47 50 49 1 52 -54 0
47 50 49 1 52 -53 0
47 50 49 1 52 -48 0
47 50 49 31 52 -136 0
47 50 49 31 52 -137 0
47 50 49 31 52 -135 0
47 50 49 31 52 -138 0
47 50 49 12 52 -83 0
47 50 49 12 52 -81 0
47 50 49 12 52 -84 0
47 50 49 12 52 -82 0
47 50 49 42 52 -146 0
47 50 49 42 52 -147 0
47 50 49 42 52 -148 0
47 50 49 42 52 -145 0
47 50 49 59 52 -155 0
47 50 49 59 52 -158 0
47 50 49 59 52 -156 0
47 50 49 59 52 -157 0
47 50 49 19 52 -105 0
47 50 49 19 52 -103 0
47 50 49 19 52 -104 0
47 50 49 19 52 -106 0
47 50 49 52 23 -122 0
47 50 49 52 23 -121 0
47 50 49 52 23 -124 0
47 50 49 52 23 -123 0
47 50 49 52 6 -51 0
47 50 49 52 6 -54 0
47 50 49 52 6 -53 0
47 50 49 52 6 -48 0
47 50 49 52 37 -136 0
47 50 49 52 37 -137 0
47 50 49 52 37 -135 0
47 50 49 52 37 -138 0
47 50 49 52 9 -83 0
47 50 49 52 9 -81 0
47 50 49 52 9 -84 0
47 50 49 52 9 -82 0
47 50 49 52 46 -146 0
47 50 49 52 46 -147 0
47 50 49 52 46 -148 0
47 50 49 52 46 -145 0
26 2 28 25 23 -24 0
26 2 28 25 23 -30 0
26 2 28 25 23 -29 0
26 2 28 25 23 -27 0
26 2 4 1 6 -24 0
26 2 4 1 6 -30 0
26 2 4 1 6 -29 0
26 2 4 1 6 -27 0
26 32 28 25 23 -116 0
26 32 28 25 23 -114 0
26 32 28 25 23 -113 0
26 32 28 25 23 -115 0
26 32 33 31 37 -116 0
26 32 33 31 37 -114 0
26 32 33 31 37 -113 0
26 32 33 31 37 -115 0
26 13 28 25 23 -69 0
26 13 28 25 23 -70 0
26 13 28 25 23 -72 0
26 13 28 25 23 -71 0
26 13 8 12 9 -69 0
26 13 8 12 9 -70 0
26 13 8 12 9 -72 0
26 13 8 12 9 -71 0
26 40 28 25 23 -117 0
26 40 28 25 23 -118 0
26 40 28 25 23 -119 0
26 40 28 25 23 -120 0
26 40 45 42 46 -117 0
26 40 45 42 46 -118 0
26 40 45 42 46 -119 0
26 40 45 42 46 -120 0
26 61 28 25 23 -125 0
26 61 28 25 23 -128 0
26 61 28 25 23 -126 0
26 61 28 25 23 -127 0
26 22 28 25 23 -92 0
26 22 28 25 23 -94 0
26 22 28 25 23 -91 0
26 22 28 25 23 -93 0
26 50 28 25 23 -122 0
26 50 28 25 23 -121 0
26 50 28 25 23 -124 0
26 50 28 25 23 -123 0
26 28 4 25 23 -24 0
26 28 4 25 23 -30 0
26 28 4 25 23 -29 0
26 28 4 25 23 -27 0
26 28 33 25 23 -116 0
26 28 33 25 23 -114 0
26 28 33 25 23 -113 0
26 28 33 25 23 -115 0
26 28 8 25 23 -69 0
26 28 8 25 23 -70 0
26 28 8 25 23 -72 0
26 28 8 25 23 -71 0
26 28 45 25 23 -117 0
26 28 45 25 23 -118 0
26 28 45 25 23 -119 0
26 28 45 25 23 -120 0
26 28 60 25 23 -125 0
26 28 60 25 23 -128 0
26 28 60 25 23 -126 0
26 28 60 25 23 -127 0
26 28 20 25 23 -92 0
26 28 20 25 23 -94 0
26 28 20 25 23 -91 0
26 28 20 25 23 -93 0
26 28 49 25 23 -122 0
26 28 49 25 23 -121 0
26 28 49 25 23 -124 0
26 28 49 25 23 -123 0
26 28 25 1 23 -24 0
26 28 25 1 23 -30 0
26 28 25 1 23 -29 0
26 28 25 1 23 -27 0
26 28 25 31 23 -116 0
26 28 25 31 23 -114 0
26 28 25 31 23 -113 0
26 28 25 31 23 -115 0
26 28 25 12 23 -69 0
26 28 25 12 23 -70 0
26 28 25 12 23 -72 0
26 28 25 12 23 -71 0
26 28 25 42 23 -117 0
26 28 25 42 23 -118 0
26 28 25 42 23 -119 0
26 28 25 42 23 -120 0
26 28 25 59 23 -125 0
26 28 25 59 23 -128 0
26 28 25 59 23 -126 0
26 28 25 59 23 -127 0
26 28 25 19 23 -92 0
26 28 25 19 23 -94 0
26 28 25 19 23 -91 0
26 28 25 19 23 -93 0
26 28 25 52 23 -122 0
26 28 25 52 23 -121 0
26 28 25 52 23 -124 0
26 28 25 52 23 -123 0
26 28 25 23 6 -24 0
26 28 25 23 6 -30 0
26 28 25 23 6 -29 0
26 28 25 23 6 -27 0
26 28 25 23 37 -116 0
26 28 25 23 37 -114 0
26 28 25 23 37 -113 0
26 28 25 23 37 -115 0
26 28 25 23 9 -69 0
26 28 25 23 9 -70 0
26 28 25 23 9 -72 0
26 28 25 23 9 -71 0
26 28 25 23 46 -117 0
26 28 25 23 46 -118 0
26 28 25 23 46 -119 0
26 28 25 23 46 -120 0
2 32 4 1 6 -34 0
2 32 4 1 6 -35 0
2 32 4 1 6 -36 0
2 32 4 1 6 -38 0
2 32 33 31 37 -34 0
2 32 33 31 37 -35 0
2 32 33 31 37 -36 0
2 32 33 31 37 -38 0
2 13 4 1 6 -7 0
2 13 4 1 6 -10 0
2 13 4 1 6 -14 0
2 13 4 1 6 -11 0
2 13 8 12 9 -7 0
2 13 8 12 9 -10 0
2 13 8 12 9 -14 0
2 13 8 12 9 -11 0
2 40 4 1 6 -39 0
2 40 4 1 6 -44 0
2 40 4 1 6 -41 0
2 40 4 1 6 -43 0
2 40 45 42 46 -39 0
2 40 45 42 46 -44 0
2 40 45 42 46 -41 0
2 40 45 42 46 -43 0
2 61 4 1 6 -56 0
2 61 4 1 6 -57 0
2 61 4 1 6 -55 0
2 61 4 1 6 -58 0
2 22 4 1 6 -21 0
2 22 4 1 6 -15 0
2 22 4 1 6 -18 0
2 22 4 1 6 -17 0
2 50 4 1 6 -51 0
2 50 4 1 6 -54 0
2 50 4 1 6 -53 0
2 50 4 1 6 -48 0
2 28 4 1 6 -24 0
2 28 4 1 6 -30 0
2 28 4 1 6 -29 0
2 28 4 1 6 -27 0
2 4 33 1 6 -34 0
2 4 33 1 6 -35 0
2 4 33 1 6 -36 0
2 4 33 1 6 -38 0
2 4 8 1 6 -7 0
2 4 8 1 6 -10 0
2 4 8 1 6 -14 0
2 4 8 1 6 -11 0
2 4 45 1 6 -39 0
2 4 45 1 6 -44 0
2 4 45 1 6 -41 0
2 4 45 1 6 -43 0
2 4 60 1 6 -56 0
2 4 60 1 6 -57 0
2 4 60 1 6 -55 0
2 4 60 1 6 -58 0
2 4 20 1 6 -21 0
2 4 20 1 6 -15 0
2 4 20 1 6 -18 0
2 4 20 1 6 -17 0
2 4 49 1 6 -51 0
2 4 49 1 6 -54 0
2 4 49 1 6 -53 0
2 4 49 1 6 -48 0
2 4 25 1 6 -24 0
2 4 25 1 6 -30 0
2 4 25 1 6 -29 0
2 4 25 1 6 -27 0
2 4 1 31 6 -34 0
2 4 1 31 6 -35 0
2 4 1 31 6 -36 0
2 4 1 31 6 -38 0
2 4 1 12 6 -7 0
2 4 1 12 6 -10 0
2 4 1 12 6 -14 0
2 4 1 12 6 -11 0
2 4 1 42 6 -39 0
2 4 1 42 6 -44 0
2 4 1 42 6 -41 0
2 4 1 42 6 -43 0
2 4 1 59 6 -56 0
2 4 1 59 6 -57 0
2 4 1 59 6 -55 0
2 4 1 59 6 -58 0
2 4 1 19 6 -21 0
2 4 1 19 6 -15 0
2 4 1 19 6 -18 0
2 4 1 19 6 -17 0
2 4 1 52 6 -51 0
2 4 1 52 6 -54 0
2 4 1 52 6 -53 0
2 4 1 52 6 -48 0
2 4 1 23 6 -24 0
2 4 1 23 6 -30 0
2 4 1 23 6 -29 0
2 4 1 23 6 -27 0
2 4 1 6 37 -34 0
2 4 1 6 37 -35 0
2 4 1 6 37 -36 0
2 4 1 6 37 -38 0
2 4 1 6 9 -7 0
2 4 1 6 9 -10 0
2 4 1 6 9 -14 0
2 4 1 6 9 -11 0
2 4 1 6 46 -39 0
2 4 1 6 46 -44 0
2 4 1 6 46 -41 0
2 4 1 6 46 -43 0
32 13 33 31 37 -75 0
32 13 33 31 37 -76 0
32 13 33 31 37 -74 0
32 13 33 31 37 -73 0
32 13 8 12 9 -75 0
32 13 8 12 9 -76 0
32 13 8 12 9 -74 0
32 13 8 12 9 -73 0
32 40 33 31 37 -132 0
32 40 33 31 37 -134 0
32 40 33 31 37 -131 0
32 40 33 31 37 -133 0
32 40 45 42 46 -132 0
32 40 45 42 46 -134 0
32 40 45 42 46 -131 0
32 40 45 42 46 -133 0
32 61 33 31 37 -141 0
32 61 33 31 37 -142 0
32 61 33 31 37 -140 0
32 61 33 31 37 -139 0
32 22 33 31 37 -97 0
32 22 33 31 37 -95 0
32 22 33 31 37 -96 0
32 22 33 31 37 -98 0
32 50 33 31 37 -136 0
32 50 33 31 37 -137 0
32 50 33 31 37 -135 0
32 50 33 31 37 -138 0
32 28 33 31 37 -116 0
32 28 33 31 37 -114 0
32 28 33 31 37 -113 0
32 28 33 31 37 -115 0
32 4 33 31 37 -34 0
32 4 33 31 37 -35 0
32 4 33 31 37 -36 0
32 4 33 31 37 -38 0
32 33 8 31 37 -75 0
32 33 8 31 37 -76 0
32 33 8 31 37 -74 0
32 33 8 31 37 -73 0
32 33 45 31 37 -132 0
32 33 45 31 37 -134 0
32 33 45 31 37 -131 0
32 33 45 31 37 -133 0
32 33 60 31 37 -141 0
32 33 60 31 37 -142 0
32 33 60 31 37 -140 0
32 33 60 31 37 -139 0
32 33 20 31 37 -97 0
32 33 20 31 37 -95 0
32 33 20 31 37 -96 0
32 33 20 31 37 -98 0
32 33 49 31 37 -136 0
32 33 49 31 37 -137 0
32 33 49 31 37 -135 0
32 33 49 31 37 -138 0
32 33 25 31 37 -116 0
32 33 25 31 37 -114 0
32 33 25 31 37 -113 0
32 33 25 31 37 -115 0
32 33 1 31 37 -34 0
32 33 1 31 37 -35 0
32 33 1 31 37 -36 0
32 33 1 31 37 -38 0
32 33 31 12 37 -75 0
32 33 31 12 37 -76 0
32 33 31 12 37 -74 0
32 33 31 12 37 -73 0
32 33 31 42 37 -132 0
32 33 31 42 37 -134 0
32 33 31 42 37 -131 0
32 33 31 42 37 -133 0
32 33 31 59 37 -141 0
32 33 31 59 37 -142 0
32 33 31 59 37 -140 0
32 33 31 59 37 -139 0
32 33 31 19 37 -97 0
32 33 31 19 37 -95 0
32 33 31 19 37 -96 0
32 33 31 19 37 -98 0
32 33 31 52 37 -136 0
32 33 31 52 37 -137 0
32 33 31 52 37 -135 0
32 33 31 52 37 -138 0
32 33 31 23 37 -116 0
32 33 31 23 37 -114 0
32 33 31 23 37 -113 0
32 33 31 23 37 -115 0
32 33 31 6 37 -34 0
32 33 31 6 37 -35 0
32 33 31 6 37 -36 0
32 33 31 6 37 -38 0
32 33 31 37 9 -75 0
32 33 31 37 9 -76 0
32 33 31 37 9 -74 0
32 33 31 37 9 -73 0
32 33 31 37 46 -132 0
32 33 31 37 46 -134 0
32 33 31 37 46 -131 0
32 33 31 37 46 -133 0
13 40 8 12 9 -79 0
13 40 8 12 9 -78 0
13 40 8 12 9 -80 0
13 40 8 12 9 -77 0
13 40 45 42 46 -79 0
13 40 45 42 46 -78 0
13 40 45 42 46 -80 0
13 40 45 42 46 -77 0
13 61 8 12 9 -86 0
13 61 8 12 9 -88 0
13 61 8 12 9 -87 0
13 61 8 12 9 -85 0
13 22 8 12 9 -65 0
13 22 8 12 9 -66 0
13 22 8 12 9 -68 0
13 22 8 12 9 -67 0
13 50 8 12 9 -83 0
13 50 8 12 9 -81 0
13 50 8 12 9 -84 0
13 50 8 12 9 -82 0
13 28 8 12 9 -69 0
13 28 8 12 9 -70 0
13 28 8 12 9 -72 0
13 28 8 12 9 -71 0
13 4 8 12 9 -7 0
13 4 8 12 9 -10 0
13 4 8 12 9 -14 0
13 4 8 12 9 -11 0
13 33 8 12 9 -75 0
13 33 8 12 9 -76 0
13 33 8 12 9 -74 0
13 33 8 12 9 -73 0
13 8 45 12 9 -79 0
13 8 45 12 9 -78 0
13 8 45 12 9 -80 0
13 8 45 12 9 -77 0
13 8 60 12 9 -86 0
13 8 60 12 9 -88 0
13 8 60 12 9 -87 0
13 8 60 12 9 -85 0
13 8 20 12 9 -65 0
13 8 20 12 9 -66 0
13 8 20 12 9 -68 0
13 8 20 12 9 -67 0
13 8 49 12 9 -83 0
13 8 49 12 9 -81 0
13 8 49 12 9 -84 0
13 8 49 12 9 -82 0
13 8 25 12 9 -69 0
13 8 25 12 9 -70 0
13 8 25 12 9 -72 0
13 8 25 12 9 -71 0
13 8 1 12 9 -7 0
13 8 1 12 9 -10 0
13 8 1 12 9 -14 0
13 8 1 12 9 -11 0
13 8 31 12 9 -75 0
13 8 31 12 9 -76 0
13 8 31 12 9 -74 0
13 8 31 12 9 -73 0
13 8 12 42 9 -79 0
13 8 12 42 9 -78 0
13 8 12 42 9 -80 0
13 8 12 42 9 -77 0
13 8 12 59 9 -86 0
13 8 12 59 9 -88 0
13 8 12 59 9 -87 0
13 8 12 59 9 -85 0
13 8 12 19 9 -65 0
13 8 12 19 9 -66 0
13 8 12 19 9 -68 0
13 8 12 19 9 -67 0
13 8 12 52 9 -83 0
13 8 12 52 9 -81 0
13 8 12 52 9 -84 0
13 8 12 52 9 -82 0
13 8 12 23 9 -69 0
13 8 12 23 9 -70 0
13 8 12 23 9 -72 0
13 8 12 23 9 -71 0
13 8 12 6 9 -7 0
13 8 12 6 9 -10 0
13 8 12 6 9 -14 0
13 8 12 6 9 -11 0
13 8 12 37 9 -75 0
13 8 12 37 9 -76 0
13 8 12 37 9 -74 0
13 8 12 37 9 -73 0
13 8 12 9 46 -79 0
13 8 12 9 46 -78 0
13 8 12 9 46 -80 0
13 8 12 9 46 -77 0
40 61 45 42 46 -152 0
40 61 45 42 46 -149 0
40 61 45 42 46 -150 0
40 61 45 42 46 -151 0
40 22 45 42 46 -102 0
40 22 45 42 46 -100 0
40 22 45 42 46 -101 0
40 22 45 42 46 -99 0
40 50 45 42 46 -146 0
40 50 45 42 46 -147 0
40 50 45 42 46 -148 0
40 50 45 42 46 -145 0
40 28 45 42 46 -117 0
40 28 45 42 46 -118 0
40 28 45 42 46 -119 0
40 28 45 42 46 -120 0
40 4 45 42 46 -39 0
40 4 45 42 46 -44 0
40 4 45 42 46 -41 0
40 4 45 42 46 -43 0
40 33 45 42 46 -132 0
40 33 45 42 46 -134 0
40 33 45 42 46 -131 0
40 33 45 42 46 -133 0
40 8 45 42 46 -79 0
40 8 45 42 46 -78 0
40 8 45 42 46 -80 0
40 8 45 42 46 -77 0
40 45 60 42 46 -152 0
40 45 60 42 46 -149 0
40 45 60 42 46 -150 0
40 45 60 42 46 -151 0
40 45 20 42 46 -102 0
40 45 20 42 46 -100 0
40 45 20 42 46 -101 0
40 45 20 42 46 -99 0
40 45 49 42 46 -146 0
40 45 49 42 46 -147 0
40 45 49 42 46 -148 0
40 45 49 42 46 -145 0
40 45 25 42 46 -117 0
40 45 25 42 46 -118 0
40 45 25 42 46 -119 0
40 45 25 42 46 -120 0
40 45 1 42 46 -39 0
40 45 1 42 46 -44 0
40 45 1 42 46 -41 0
40 45 1 42 46 -43 0
40 45 31 42 46 -132 0
40 45 31 42 46 -134 0
40 45 31 42 46 -131 0
40 45 31 42 46 -133 0
40 45 12 42 46 -79 0
40 45 12 42 46 -78 0
40 45 12 42 46 -80 0
40 45 12 42 46 -77 0
40 45 42 59 46 -152 0
40 45 42 59 46 -149 0
40 45 42 59 46 -150 0
40 45 42 59 46 -151 0
40 45 42 19 46 -102 0
40 45 42 19 46 -100 0
40 45 42 19 46 -101 0
40 45 42 19 46 -99 0
40 45 42 52 46 -146 0
40 45 42 52 46 -147 0
40 45 42 52 46 -148 0
40 45 42 52 46 -145 0
40 45 42 23 46 -117 0
40 45 42 23 46 -118 0
40 45 42 23 46 -119 0
40 45 42 23 46 -120 0
40 45 42 6 46 -39 0
40 45 42 6 46 -44 0
40 45 42 6 46 -41 0
40 45 42 6 46 -43 0
40 45 42 37 46 -132 0
40 45 42 37 46 -134 0
40 45 42 37 46 -131 0
40 45 42 37 46 -133 0
40 45 42 9 46 -79 0
40 45 42 9 46 -78 0
40 45 42 9 46 -80 0
40 45 42 9 46 -77 0
62 16 61 22 60 20 -109 0
62 16 61 22 60 20 -108 0
62 16 61 22 60 20 -110 0
62 16 61 22 60 20 -107 0
62 16 61 22 60 59 -109 0
62 16 61 22 60 59 -108 0
62 16 61 22 60 59 -110 0
62 16 61 22 60 59 -107 0
62 16 61 22 20 19 -109 0
62 16 61 22 20 19 -108 0
62 16 61 22 20 19 -110 0
62 16 61 22 20 19 -107 0
62 16 61 22 59 19 -109 0
62 16 61 22 59 19 -108 0
62 16 61 22 59 19 -110 0
62 16 61 22 59 19 -107 0
62 16 61 60 20 59 -109 0
62 16 61 60 20 59 -108 0
62 16 61 60 20 59 -110 0
62 16 61 60 20 59 -107 0
62 16 61 60 59 19 -109 0
62 16 61 60 59 19 -108 0
62 16 61 60 59 19 -110 0
62 16 61 60 59 19 -107 0
62 16 22 60 20 19 -109 0
62 16 22 60 20 19 -108 0
62 16 22 60 20 19 -110 0
62 16 22 60 20 19 -107 0
62 16 22 20 59 19 -109 0
62 16 22 20 59 19 -108 0
62 16 22 20 59 19 -110 0
62 16 22 20 59 19 -107 0
62 16 60 20 59 19 -109 0
62 16 60 20 59 19 -108 0
62 16 60 20 59 19 -110 0
62 16 60 20 59 19 -107 0
62 47 61 50 60 49 -155 0
62 47 61 50 60 49 -158 0
62 47 61 50 60 49 -156 0
62 47 61 50 60 49 -157 0
62 47 61 50 60 59 -155 0
62 47 61 50 60 59 -158 0
62 47 61 50 60 59 -156 0
62 47 61 50 60 59 -157 0
62 47 61 50 49 52 -155 0
62 47 61 50 49 52 -158 0
62 47 61 50 49 52 -156 0
62 47 61 50 49 52 -157 0
62 47 61 50 59 52 -155 0
62 47 61 50 59 52 -158 0
62 47 61 50 59 52 -156 0
62 47 61 50 59 52 -157 0
62 47 61 60 49 59 -155 0
62 47 61 60 49 59 -158 0
62 47 61 60 49 59 -156 0
62 47 61 60 49 59 -157 0
62 47 61 60 59 52 -155 0
62 47 61 60 59 52 -158 0
62 47 61 60 59 52 -156 0
62 47 61 60 59 52 -157 0
62 47 50 60 49 52 -155 0
62 47 50 60 49 52 -158 0
62 47 50 60 49 52 -156 0
62 47 50 60 49 52 -157 0
62 47 50 49 59 52 -155 0
62 47 50 49 59 52 -158 0
62 47 50 49 59 52 -156 0
62 47 50 49 59 52 -157 0
62 47 60 49 59 52 -155 0
62 47 60 49 59 52 -158 0
62 47 60 49 59 52 -156 0
62 47 60 49 59 52 -157 0
62 26 61 28 60 25 -125 0
62 26 61 28 60 25 -128 0
62 26 61 28 60 25 -126 0
62 26 61 28 60 25 -127 0
62 26 61 28 60 59 -125 0
62 26 61 28 60 59 -128 0
62 26 61 28 60 59 -126 0
62 26 61 28 60 59 -127 0
62 26 61 28 25 23 -125 0
62 26 61 28 25 23 -128 0
62 26 61 28 25 23 -126 0
62 26 61 28 25 23 -127 0
62 26 61 28 59 23 -125 0
62 26 61 28 59 23 -128 0
62 26 61 28 59 23 -126 0
62 26 61 28 59 23 -127 0
62 26 61 60 25 59 -125 0
62 26 61 60 25 59 -128 0
62 26 61 60 25 59 -126 0
62 26 61 60 25 59 -127 0
62 26 61 60 59 23 -125 0
62 26 61 60 59 23 -128 0
62 26 61 60 59 23 -126 0
62 26 61 60 59 23 -127 0
62 26 28 60 25 23 -125 0
62 26 28 60 25 23 -128 0
62 26 28 60 25 23 -126 0
62 26 28 60 25 23 -127 0
62 26 28 25 59 23 -125 0
62 26 28 25 59 23 -128 0
62 26 28 25 59 23 -126 0
62 26 28 25 59 23 -127 0
62 26 60 25 59 23 -125 0
62 26 60 25 59 23 -128 0
62 26 60 25 59 23 -126 0
62 26 60 25 59 23 -127 0
62 2 61 4 60 1 -56 0
62 2 61 4 60 1 -57 0
62 2 61 4 60 1 -55 0
62 2 61 4 60 1 -58 0
62 2 61 4 60 59 -56 0
62 2 61 4 60 59 -57 0
62 2 61 4 60 59 -55 0
62 2 61 4 60 59 -58 0
62 2 61 4 1 6 -56 0
62 2 61 4 1 6 -57 0
62 2 61 4 1 6 -55 0
62 2 61 4 1 6 -58 0
62 2 61 4 59 6 -56 0
62 2 61 4 59 6 -57 0
62 2 61 4 59 6 -55 0
62 2 61 4 59 6 -58 0
62 2 61 60 1 59 -56 0
62 2 61 60 1 59 -57 0
62 2 61 60 1 59 -55 0
62 2 61 60 1 59 -58 0
62 2 61 60 59 6 -56 0
62 2 61 60 59 6 -57 0
62 2 61 60 59 6 -55 0
62 2 61 60 59 6 -58 0
62 2 4 60 1 6 -56 0
62 2 4 60 1 6 -57 0
62 2 4 60 1 6 -55 0
62 2 4 60 1 6 -58 0
62 2 4 1 59 6 -56 0
62 2 4 1 59 6 -57 0
62 2 4 1 59 6 -55 0
62 2 4 1 59 6 -58 0
62 2 60 1 59 6 -56 0
62 2 60 1 59 6 -57 0
62 2 60 1 59 6 -55 0
62 2 60 1 59 6 -58 0
62 32 61 33 60 31 -141 0
62 32 61 33 60 31 -142 0
62 32 61 33 60 31 -140 0
62 32 61 33 60 31 -139 0
62 32 61 33 60 59 -141 0
62 32 61 33 60 59 -142 0
62 32 61 33 60 59 -140 0
62 32 61 33 60 59 -139 0
62 32 61 33 31 37 -141 0
62 32 61 33 31 37 -142 0
62 32 61 33 31 37 -140 0
62 32 61 33 31 37 -139 0
62 32 61 33 59 37 -141 0
62 32 61 33 59 37 -142 0
62 32 61 33 59 37 -140 0
62 32 61 33 59 37 -139 0
62 32 61 60 31 59 -141 0
62 32 61 60 31 59 -142 0
62 32 61 60 31 59 -140 0
62 32 61 60 31 59 -139 0
62 32 61 60 59 37 -141 0
62 32 61 60 59 37 -142 0
62 32 61 60 59 37 -140 0
62 32 61 60 59 37 -139 0
62 32 33 60 31 37 -141 0
62 32 33 60 31 37 -142 0
62 32 33 60 31 37 -140 0
62 32 33 60 31 37 -139 0
62 32 33 31 59 37 -141 0
62 32 33 31 59 37 -142 0
62 32 33 31 59 37 -140 0
62 32 33 31 59 37 -139 0
62 32 60 31 59 37 -141 0
62 32 60 31 59 37 -142 0
62 32 60 31 59 37 -140 0
62 32 60 31 59 37 -139 0
62 13 61 8 60 12 -86 0
62 13 61 8 60 12 -88 0
62 13 61 8 60 12 -87 0
62 13 61 8 60 12 -85 0
62 13 61 8 60 59 -86 0
62 13 61 8 60 59 -88 0
62 13 61 8 60 59 -87 0
62 13 61 8 60 59 -85 0
62 13 61 8 12 9 -86 0
62 13 61 8 12 9 -88 0
62 13 61 8 12 9 -87 0
62 13 61 8 12 9 -85 0
62 13 61 8 59 9 -86 0
62 13 61 8 59 9 -88 0
62 13 61 8 59 9 -87 0
62 13 61 8 59 9 -85 0
62 13 61 60 12 59 -86 0
62 13 61 60 12 59 -88 0
62 13 61 60 12 59 -87 0
62 13 61 60 12 59 -85 0
62 13 61 60 59 9 -86 0
62 13 61 60 59 9 -88 0
62 13 61 60 59 9 -87 0
62 13 61 60 59 9 -85 0
62 13 8 60 12 9 -86 0
62 13 8 60 12 9 -88 0
62 13 8 60 12 9 -87 0
62 13 8 60 12 9 -85 0
62 13 8 12 59 9 -86 0
62 13 8 12 59 9 -88 0
62 13 8 12 59 9 -87 0
62 13 8 12 59 9 -85 0
62 13 60 12 59 9 -86 0
62 13 60 12 59 9 -88 0
62 13 60 12 59 9 -87 0
62 13 60 12 59 9 -85 0
62 40 61 45 60 42 -152 0
62 40 61 45 60 42 -149 0
62 40 61 45 60 42 -150 0
62 40 61 45 60 42 -151 0
62 40 61 45 60 59 -152 0
62 40 61 45 60 59 -149 0
62 40 61 45 60 59 -150 0
62 40 61 45 60 59 -151 0
62 40 61 45 42 46 -152 0
62 40 61 45 42 46 -149 0
62 40 61 45 42 46 -150 0
62 40 61 45 42 46 -151 0
62 40 61 45 59 46 -152 0
62 40 61 45 59 46 -149 0
62 40 61 45 59 46 -150 0
62 40 61 45 59 46 -151 0
62 40 61 60 42 59 -152 0
62 40 61 60 42 59 -149 0
62 40 61 60 42 59 -150 0
62 40 61 60 42 59 -151 0
62 40 61 60 59 46 -152 0
62 40 61 60 59 46 -149 0
62 40 61 60 59 46 -150 0
62 40 61 60 59 46 -151 0
62 40 45 60 42 46 -152 0
62 40 45 60 42 46 -149 0
62 40 45 60 42 46 -150 0
62 40 45 60 42 46 -151 0
62 40 45 42 59 46 -152 0
62 40 45 42 59 46 -149 0
62 40 45 42 59 46 -150 0
62 40 45 42 59 46 -151 0
62 40 60 42 59 46 -152 0
62 40 60 42 59 46 -149 0
62 40 60 42 59 46 -150 0
62 40 60 42 59 46 -151 0
62 61 22 60 20 59 -109 0
62 61 22 60 20 59 -108 0
62 61 22 60 20 59 -110 0
62 61 22 60 20 59 -107 0
62 61 22 60 59 19 -109 0
62 61 22 60 59 19 -108 0
62 61 22 60 59 19 -110 0
62 61 22 60 59 19 -107 0
62 61 50 60 49 59 -155 0
62 61 50 60 49 59 -158 0
62 61 50 60 49 59 -156 0
62 61 50 60 49 59 -157 0
62 61 50 60 59 52 -155 0
62 61 50 60 59 52 -158 0
62 61 50 60 59 52 -156 0
62 61 50 60 59 52 -157 0
62 61 28 60 25 59 -125 0
62 61 28 60 25 59 -128 0
62 61 28 60 25 59 -126 0
62 61 28 60 25 59 -127 0
62 61 28 60 59 23 -125 0
62 61 28 60 59 23 -128 0
62 61 28 60 59 23 -126 0
62 61 28 60 59 23 -127 0
62 61 4 60 1 59 -56 0
62 61 4 60 1 59 -57 0
62 61 4 60 1 59 -55 0
62 61 4 60 1 59 -58 0
62 61 4 60 59 6 -56 0
62 61 4 60 59 6 -57 0
62 61 4 60 59 6 -55 0
62 61 4 60 59 6 -58 0
62 61 33 60 31 59 -141 0
62 61 33 60 31 59 -142 0
62 61 33 60 31 59 -140 0
62 61 33 60 31 59 -139 0
62 61 33 60 59 37 -141 0
62 61 33 60 59 37 -142 0
62 61 33 60 59 37 -140 0
62 61 33 60 59 37 -139 0
62 61 8 60 12 59 -86 0
62 61 8 60 12 59 -88 0
62 61 8 60 12 59 -87 0
62 61 8 60 12 59 -85 0
62 61 8 60 59 9 -86 0
62 61 8 60 59 9 -88 0
62 61 8 60 59 9 -87 0
62 61 8 60 59 9 -85 0
62 61 45 60 42 59 -152 0
62 61 45 60 42 59 -149 0
62 61 45 60 42 59 -150 0
62 61 45 60 42 59 -151 0
62 61 45 60 59 46 -152 0
62 61 45 60 59 46 -149 0
62 61 45 60 59 46 -150 0
62 61 45 60 59 46 -151 0
62 61 60 20 59 19 -109 0
62 61 60 20 59 19 -108 0
62 61 60 20 59 19 -110 0
62 61 60 20 59 19 -107 0
62 61 60 49 59 52 -155 0
62 61 60 49 59 52 -158 0
62 61 60 49 59 52 -156 0
62 61 60 49 59 52 -157 0
62 61 60 25 59 23 -125 0
62 61 60 25 59 23 -128 0
62 61 60 25 59 23 -126 0
62 61 60 25 59 23 -127 0
62 61 60 1 59 6 -56 0
62 61 60 1 59 6 -57 0
62 61 60 1 59 6 -55 0
62 61 60 1 59 6 -58 0
62 61 60 31 59 37 -141 0
62 61 60 31 59 37 -142 0
62 61 60 31 59 37 -140 0
62 61 60 31 59 37 -139 0
62 61 60 12 59 9 -86 0
62 61 60 12 59 9 -88 0
62 61 60 12 59 9 -87 0
62 61 60 12 59 9 -85 0
62 61 60 42 59 46 -152 0
62 61 60 42 59 46 -149 0
62 61 60 42 59 46 -150 0
62 61 60 42 59 46 -151 0
16 47 22 50 20 49 -105 0
16 47 22 50 20 49 -103 0
16 47 22 50 20 49 -104 0
16 47 22 50 20 49 -106 0
16 47 22 50 20 19 -105 0
16 47 22 50 20 19 -103 0
16 47 22 50 20 19 -104 0
16 47 22 50 20 19 -106 0
16 47 22 50 49 52 -105 0
16 47 22 50 49 52 -103 0
16 47 22 50 49 52 -104 0
16 47 22 50 49 52 -106 0
16 47 22 50 19 52 -105 0
16 47 22 50 19 52 -103 0
16 47 22 50 19 52 -104 0
16 47 22 50 19 52 -106 0
16 47 22 20 49 19 -105 0
16 47 22 20 49 19 -103 0
16 47 22 20 49 19 -104 0
16 47 22 20 49 19 -106 0
16 47 22 20 19 52 -105 0
16 47 22 20 19 52 -103 0
16 47 22 20 19 52 -104 0
16 47 22 20 19 52 -106 0
16 47 50 20 49 52 -105 0
16 47 50 20 49 52 -103 0
16 47 50 20 49 52 -104 0
16 47 50 20 49 52 -106 0
16 47 50 49 19 52 -105 0
16 47 50 49 19 52 -103 0
16 47 50 49 19 52 -104 0
16 47 50 49 19 52 -106 0
16 47 20 49 19 52 -105 0
16 47 20 49 19 52 -103 0
16 47 20 49 19 52 -104 0
16 47 20 49 19 52 -106 0
16 26 22 28 20 25 -92 0
16 26 22 28 20 25 -94 0
16 26 22 28 20 25 -91 0
16 26 22 28 20 25 -93 0
16 26 22 28 20 19 -92 0
16 26 22 28 20 19 -94 0
16 26 22 28 20 19 -91 0
16 26 22 28 20 19 -93 0
16 26 22 28 25 23 -92 0
16 26 22 28 25 23 -94 0
16 26 22 28 25 23 -91 0
16 26 22 28 25 23 -93 0
16 26 22 28 19 23 -92 0
16 26 22 28 19 23 -94 0
16 26 22 28 19 23 -91 0
16 26 22 28 19 23 -93 0
16 26 22 20 25 19 -92 0
16 26 22 20 25 19 -94 0
16 26 22 20 25 19 -91 0
16 26 22 20 25 19 -93 0
16 26 22 20 19 23 -92 0
16 26 22 20 19 23 -94 0
16 26 22 20 19 23 -91 0
16 26 22 20 19 23 -93 0
16 26 28 20 25 23 -92 0
16 26 28 20 25 23 -94 0
16 26 28 20 25 23 -91 0
16 26 28 20 25 23 -93 0
16 26 28 25 19 23 -92 0
16 26 28 25 19 23 -94 0
16 26 28 25 19 23 -91 0
16 26 28 25 19 23 -93 0
16 26 20 25 19 23 -92 0
16 26 20 25 19 23 -94 0
16 26 20 25 19 23 -91 0
16 26 20 25 19 23 -93 0
16 2 22 4 20 1 -21 0
16 2 22 4 20 1 -15 0
16 2 22 4 20 1 -18 0
16 2 22 4 20 1 -17 0
16 2 22 4 20 19 -21 0
16 2 22 4 20 19 -15 0
16 2 22 4 20 19 -18 0
16 2 22 4 20 19 -17 0
16 2 22 4 1 6 -21 0
16 2 22 4 1 6 -15 0
16 2 22 4 1 6 -18 0
16 2 22 4 1 6 -17 0
16 2 22 4 19 6 -21 0
16 2 22 4 19 6 -15 0
16 2 22 4 19 6 -18 0
16 2 22 4 19 6 -17 0
16 2 22 20 1 19 -21 0
16 2 22 20 1 19 -15 0
16 2 22 20 1 19 -18 0
16 2 22 20 1 19 -17 0
16 2 22 20 19 6 -21 0
16 2 22 20 19 6 -15 0
16 2 22 20 19 6 -18 0
16 2 22 20 19 6 -17 0
16 2 4 20 1 6 -21 0
16 2 4 20 1 6 -15 0
16 2 4 20 1 6 -18 0
16 2 4 20 1 6 -17 0
16 2 4 1 19 6 -21 0
16 2 4 1 19 6 -15 0
16 2 4 1 19 6 -18 0
16 2 4 1 19 6 -17 0
16 2 20 1 19 6 -21 0
16 2 20 1 19 6 -15 0
16 2 20 1 19 6 -18 0
16 2 20 1 19 6 -17 0
16 32 22 33 20 31 -97 0
16 32 22 33 20 31 -95 0
16 32 22 33 20 31 -96 0
16 32 22 33 20 31 -98 0
16 32 22 33 20 19 -97 0
16 32 22 33 20 19 -95 0
16 32 22 33 20 19 -96 0
16 32 22 33 20 19 -98 0
16 32 22 33 31 37 -97 0
16 32 22 33 31 37 -95 0
16 32 22 33 31 37 -96 0
16 32 22 33 31 37 -98 0
16 32 22 33 19 37 -97 0
16 32 22 33 19 37 -95 0
16 32 22 33 19 37 -96 0
16 32 22 33 19 37 -98 0
16 32 22 20 31 19 -97 0
16 32 22 20 31 19 -95 0
16 32 22 20 31 19 -96 0
16 32 22 20 31 19 -98 0
16 32 22 20 19 37 -97 0
16 32 22 20 19 37 -95 0
16 32 22 20 19 37 -96 0
16 32 22 20 19 37 -98 0
16 32 33 20 31 37 -97 0
16 32 33 20 31 37 -95 0
16 32 33 20 31 37 -96 0
16 32 33 20 31 37 -98 0
16 32 33 31 19 37 -97 0
16 32 33 31 19 37 -95 0
16 32 33 31 19 37 -96 0
16 32 33 31 19 37 -98 0
16 32 20 31 19 37 -97 0
16 32 20 31 19 37 -95 0
16 32 20 31 19 37 -96 0
16 32 20 31 19 37 -98 0
16 13 22 8 20 12 -65 0
16 13 22 8 20 12 -66 0
16 13 22 8 20 12 -68 0
16 13 22 8 20 12 -67 0
16 13 22 8 20 19 -65 0
16 13 22 8 20 19 -66 0
16 13 22 8 20 19 -68 0
16 13 22 8 20 19 -67 0
16 13 22 8 12 9 -65 0
16 13 22 8 12 9 -66 0
16 13 22 8 12 9 -68 0
16 13 22 8 12 9 -67 0
16 13 22 8 19 9 -65 0
16 13 22 8 19 9 -66 0
16 13 22 8 19 9 -68 0
16 13 22 8 19 9 -67 0
16 13 22 20 12 19 -65 0
16 13 22 20 12 19 -66 0
16 13 22 20 12 19 -68 0
16 13 22 20 12 19 -67 0
16 13 22 20 19 9 -65 0
16 13 22 20 19 9 -66 0
16 13 22 20 19 9 -68 0
16 13 22 20 19 9 -67 0
16 13 8 20 12 9 -65 0
16 13 8 20 12 9 -66 0
16 13 8 20 12 9 -68 0
16 13 8 20 12 9 -67 0
16 13 8 12 19 9 -65 0
16 13 8 12 19 9 -66 0
16 13 8 12 19 9 -68 0
16 13 8 12 19 9 -67 0
16 13 20 12 19 9 -65 0
16 13 20 12 19 9 -66 0
16 13 20 12 19 9 -68 0
16 13 20 12 19 9 -67 0
16 40 22 45 20 42 -102 0
16 40 22 45 20 42 -100 0
16 40 22 45 20 42 -101 0
16 40 22 45 20 42 -99 0
16 40 22 45 20 19 -102 0
16 40 22 45 20 19 -100 0
16 40 22 45 20 19 -101 0
16 40 22 45 20 19 -99 0
16 40 22 45 42 46 -102 0
16 40 22 45 42 46 -100 0
16 40 22 45 42 46 -101 0
16 40 22 45 42 46 -99 0
16 40 22 45 19 46 -102 0
16 40 22 45 19 46 -100 0
16 40 22 45 19 46 -101 0
16 40 22 45 19 46 -99 0
16 40 22 20 42 19 -102 0
16 40 22 20 42 19 -100 0
16 40 22 20 42 19 -101 0
16 40 22 20 42 19 -99 0
16 40 22 20 19 46 -102 0
16 40 22 20 19 46 -100 0
16 40 22 20 19 46 -101 0
16 40 22 20 19 46 -99 0
16 40 45 20 42 46 -102 0
16 40 45 20 42 46 -100 0
16 40 45 20 42 46 -101 0
16 40 45 20 42 46 -99 0
16 40 45 42 19 46 -102 0
16 40 45 42 19 46 -100 0
16 40 45 42 19 46 -101 0
16 40 45 42 19 46 -99 0
16 40 20 42 19 46 -102 0
16 40 20 42 19 46 -100 0
16 40 20 42 19 46 -101 0
16 40 20 42 19 46 -99 0
16 61 22 60 20 19 -109 0
16 61 22 60 20 19 -108 0
16 61 22 60 20 19 -110 0
16 61 22 60 20 19 -107 0
16 61 22 20 59 19 -109 0
16 61 22 20 59 19 -108 0
16 61 22 20 59 19 -110 0
16 61 22 20 59 19 -107 0
16 22 50 20 49 19 -105 0
16 22 50 20 49 19 -103 0
16 22 50 20 49 19 -104 0
16 22 50 20 49 19 -106 0
16 22 50 20 19 52 -105 0
16 22 50 20 19 52 -103 0
16 22 50 20 19 52 -104 0
16 22 50 20 19 52 -106 0
16 22 28 20 25 19 -92 0
16 22 28 20 25 19 -94 0
16 22 28 20 25 19 -91 0
16 22 28 20 25 19 -93 0
16 22 28 20 19 23 -92 0
16 22 28 20 19 23 -94 0
16 22 28 20 19 23 -91 0
16 22 28 20 19 23 -93 0
16 22 4 20 1 19 -21 0
16 22 4 20 1 19 -15 0
16 22 4 20 1 19 -18 0
16 22 4 20 1 19 -17 0
16 22 4 20 19 6 -21 0
16 22 4 20 19 6 -15 0
16 22 4 20 19 6 -18 0
16 22 4 20 19 6 -17 0
16 22 33 20 31 19 -97 0
16 22 33 20 31 19 -95 0
16 22 33 20 31 19 -96 0
16 22 33 20 31 19 -98 0
16 22 33 20 19 37 -97 0
16 22 33 20 19 37 -95 0
16 22 33 20 19 37 -96 0
16 22 33 20 19 37 -98 0
16 22 8 20 12 19 -65 0
16 22 8 20 12 19 -66 0
16 22 8 20 12 19 -68 0
16 22 8 20 12 19 -67 0
16 22 8 20 19 9 -65 0
16 22 8 20 19 9 -66 0
16 22 8 20 19 9 -68 0
16 22 8 20 19 9 -67 0
16 22 45 20 42 19 -102 0
16 22 45 20 42 19 -100 0
16 22 45 20 42 19 -101 0
16 22 45 20 42 19 -99 0
16 22 45 20 19 46 -102 0
16 22 45 20 19 46 -100 0
16 22 45 20 19 46 -101 0
16 22 45 20 19 46 -99 0
16 22 60 20 59 19 -109 0
16 22 60 20 59 19 -108 0
16 22 60 20 59 19 -110 0
16 22 60 20 59 19 -107 0
16 22 20 49 19 52 -105 0
16 22 20 49 19 52 -103 0
16 22 20 49 19 52 -104 0
16 22 20 49 19 52 -106 0
16 22 20 25 19 23 -92 0
16 22 20 25 19 23 -94 0
16 22 20 25 19 23 -91 0
16 22 20 25 19 23 -93 0
16 22 20 1 19 6 -21 0
16 22 20 1 19 6 -15 0
16 22 20 1 19 6 -18 0
16 22 20 1 19 6 -17 0
16 22 20 31 19 37 -97 0
16 22 20 31 19 37 -95 0
16 22 20 31 19 37 -96 0
16 22 20 31 19 37 -98 0
16 22 20 12 19 9 -65 0
16 22 20 12 19 9 -66 0
16 22 20 12 19 9 -68 0
16 22 20 12 19 9 -67 0
16 22 20 42 19 46 -102 0
16 22 20 42 19 46 -100 0
16 22 20 42 19 46 -101 0
16 22 20 42 19 46 -99 0
47 26 50 28 49 25 -122 0
47 26 50 28 49 25 -121 0
47 26 50 28 49 25 -124 0
47 26 50 28 49 25 -123 0
47 26 50 28 49 52 -122 0
47 26 50 28 49 52 -121 0
47 26 50 28 49 52 -124 0
47 26 50 28 49 52 -123 0
47 26 50 28 25 23 -122 0
47 26 50 28 25 23 -121 0
47 26 50 28 25 23 -124 0
47 26 50 28 25 23 -123 0
47 26 50 28 52 23 -122 0
47 26 50 28 52 23 -121 0
47 26 50 28 52 23 -124 0
47 26 50 28 52 23 -123 0
47 26 50 49 25 52 -122 0
47 26 50 49 25 52 -121 0
47 26 50 49 25 52 -124 0
47 26 50 49 25 52 -123 0
47 26 50 49 52 23 -122 0
47 26 50 49 52 23 -121 0
47 26 50 49 52 23 -124 0
47 26 50 49 52 23 -123 0
47 26 28 49 25 23 -122 0
47 26 28 49 25 23 -121 0
47 26 28 49 25 23 -124 0
47 26 28 49 25 23 -123 0
47 26 28 25 52 23 -122 0
47 26 28 25 52 23 -121 0
47 26 28 25 52 23 -124 0
47 26 28 25 52 23 -123 0
47 26 49 25 52 23 -122 0
47 26 49 25 52 23 -121 0
47 26 49 25 52 23 -124 0
47 26 49 25 52 23 -123 0
47 2 50 4 49 1 -51 0
47 2 50 4 49 1 -54 0
47 2 50 4 49 1 -53 0
47 2 50 4 49 1 -48 0
47 2 50 4 49 52 -51 0
47 2 50 4 49 52 -54 0
47 2 50 4 49 52 -53 0
47 2 50 4 49 52 -48 0
47 2 50 4 1 6 -51 0
47 2 50 4 1 6 -54 0
47 2 50 4 1 6 -53 0
47 2 50 4 1 6 -48 0
47 2 50 4 52 6 -51 0
47 2 50 4 52 6 -54 0
47 2 50 4 52 6 -53 0
47 2 50 4 52 6 -48 0
47 2 50 49 1 52 -51 0
47 2 50 49 1 52 -54 0
47 2 50 49 1 52 -53 0
47 2 50 49 1 52 -48 0
47 2 50 49 52 6 -51 0
47 2 50 49 52 6 -54 0
47 2 50 49 52 6 -53 0
47 2 50 49 52 6 -48 0
47 2 4 49 1 6 -51 0
47 2 4 49 1 6 -54 0
47 2 4 49 1 6 -53 0
47 2 4 49 1 6 -48 0
47 2 4 1 52 6 -51 0
47 2 4 1 52 6 -54 0
47 2 4 1 52 6 -53 0
47 2 4 1 52 6 -48 0
47 2 49 1 52 6 -51 0
47 2 49 1 52 6 -54 0
47 2 49 1 52 6 -53 0
47 2 49 1 52 6 -48 0
47 32 50 33 49 31 -136 0
47 32 50 33 49 31 -137 0
47 32 50 33 49 31 -135 0
47 32 50 33 49 31 -138 0
47 32 50 33 49 52 -136 0
47 32 50 33 49 52 -137 0
47 32 50 33 49 52 -135 0
47 32 50 33 49 52 -138 0
47 32 50 33 31 37 -136 0
47 32 50 33 31 37 -137 0
47 32 50 33 31 37 -135 0
47 32 50 33 31 37 -138 0
47 32 50 33 52 37 -136 0
47 32 50 33 52 37 -137 0
47 32 50 33 52 37 -135 0
47 32 50 33 52 37 -138 0
47 32 50 49 31 52 -136 0
47 32 50 49 31 52 -137 0
47 32 50 49 31 52 -135 0
47 32 50 49 31 52 -138 0
47 32 50 49 52 37 -136 0
47 32 50 49 52 37 -137 0
47 32 50 49 52 37 -135 0
47 32 50 49 52 37 -138 0
47 32 33 49 31 37 -136 0
47 32 33 49 31 37 -137 0
47 32 33 49 31 37 -135 0
47 32 33 49 31 37 -138 0
47 32 33 31 52 37 -136 0
47 32 33 31 52 37 -137 0
47 32 33 31 52 37 -135 0
47 32 33 31 52 37 -138 0
47 32 49 31 52 37 -136 0
47 32 49 31 52 37 -137 0
47 32 49 31 52 37 -135 0
47 32 49 31 52 37 -138 0
47 13 50 8 49 12 -83 0
47 13 50 8 49 12 -81 0
47 13 50 8 49 12 -84 0
47 13 50 8 49 12 -82 0
47 13 50 8 49 52 -83 0
47 13 50 8 49 52 -81 0
47 13 50 8 49 52 -84 0
47 13 50 8 49 52 -82 0
47 13 50 8 12 9 -83 0
47 13 50 8 12 9 -81 0
47 13 50 8 12 9 -84 0
47 13 50 8 12 9 -82 0
47 13 50 8 52 9 -83 0
47 13 50 8 52 9 -81 0
47 13 50 8 52 9 -84 0
47 13 50 8 52 9 -82 0
47 13 50 49 12 52 -83 0
47 13 50 49 12 52 -81 0
47 13 50 49 12 52 -84 0
47 13 50 49 12 52 -82 0
47 13 50 49 52 9 -83 0
47 13 50 49 52 9 -81 0
47 13 50 49 52 9 -84 0
47 13 50 49 52 9 -82 0
47 13 8 49 12 9 -83 0
47 13 8 49 12 9 -81 0
47 13 8 49 12 9 -84 0
47 13 8 49 12 9 -82 0
47 13 8 12 52 9 -83 0
47 13 8 12 52 9 -81 0
47 13 8 12 52 9 -84 0
47 13 8 12 52 9 -82 0
47 13 49 12 52 9 -83 0
47 13 49 12 52 9 -81 0
47 13 49 12 52 9 -84 0
47 13 49 12 52 9 -82 0
47 40 50 45 49 42 -146 0
47 40 50 45 49 42 -147 0
47 40 50 45 49 42 -148 0
47 40 50 45 49 42 -145 0
47 40 50 45 49 52 -146 0
47 40 50 45 49 52 -147 0
47 40 50 45 49 52 -148 0
47 40 50 45 49 52 -145 0
47 40 50 45 42 46 -146 0
47 40 50 45 42 46 -147 0
47 40 50 45 42 46 -148 0
47 40 50 45 42 46 -145 0
47 40 50 45 52 46 -146 0
47 40 50 45 52 46 -147 0
47 40 50 45 52 46 -148 0
47 40 50 45 52 46 -145 0
47 40 50 49 42 52 -146 0
47 40 50 49 42 52 -147 0
47 40 50 49 42 52 -148 0
47 40 50 49 42 52 -145 0
47 40 50 49 52 46 -146 0
47 40 50 49 52 46 -147 0
47 40 50 49 52 46 -148 0
47 40 50 49 52 46 -145 0
47 40 45 49 42 46 -146 0
47 40 45 49 42 46 -147 0
47 40 45 49 42 46 -148 0
47 40 45 49 42 46 -145 0
47 40 45 42 52 46 -146 0
47 40 45 42 52 46 -147 0
47 40 45 42 52 46 -148 0
47 40 45 42 52 46 -145 0
47 40 49 42 52 46 -146 0
47 40 49 42 52 46 -147 0
47 40 49 42 52 46 -148 0
47 40 49 42 52 46 -145 0
47 61 50 60 49 52 -155 0
47 61 50 60 49 52 -158 0
47 61 50 60 49 52 -156 0
47 61 50 60 49 52 -157 0
47 61 50 49 59 52 -155 0
47 61 50 49 59 52 -158 0
47 61 50 49 59 52 -156 0
47 61 50 49 59 52 -157 0
47 22 50 20 49 52 -105 0
47 22 50 20 49 52 -103 0
47 22 50 20 49 52 -104 0
47 22 50 20 49 52 -106 0
47 22 50 49 19 52 -105 0
47 22 50 49 19 52 -103 0
47 22 50 49 19 52 -104 0
47 22 50 49 19 52 -106 0
47 50 28 49 25 52 -122 0
47 50 28 49 25 52 -121 0
47 50 28 49 25 52 -124 0
47 50 28 49 25 52 -123 0
47 50 28 49 52 23 -122 0
47 50 28 49 52 23 -121 0
47 50 28 49 52 23 -124 0
47 50 28 49 52 23 -123 0
47 50 4 49 1 52 -51 0
47 50 4 49 1 52 -54 0
47 50 4 49 1 52 -53 0
47 50 4 49 1 52 -48 0
47 50 4 49 52 6 -51 0
47 50 4 49 52 6 -54 0
47 50 4 49 52 6 -53 0
47 50 4 49 52 6 -48 0
47 50 33 49 31 52 -136 0
47 50 33 49 31 52 -137 0
47 50 33 49 31 52 -135 0
47 50 33 49 31 52 -138 0
47 50 33 49 52 37 -136 0
47 50 33 49 52 37 -137 0
47 50 33 49 52 37 -135 0
47 50 33 49 52 37 -138 0
47 50 8 49 12 52 -83 0
47 50 8 49 12 52 -81 0
47 50 8 49 12 52 -84 0
47 50 8 49 12 52 -82 0
47 50 8 49 52 9 -83 0
47 50 8 49 52 9 -81 0
47 50 8 49 52 9 -84 0
47 50 8 49 52 9 -82 0
47 50 45 49 42 52 -146 0
47 50 45 49 42 52 -147 0
47 50 45 49 42 52 -148 0
47 50 45 49 42 52 -145 0
47 50 45 49 52 46 -146 0
47 50 45 49 52 46 -147 0
47 50 45 49 52 46 -148 0
47 50 45 49 52 46 -145 0
47 50 60 49 59 52 -155 0
47 50 60 49 59 52 -158 0
47 50 60 49 59 52 -156 0
47 50 60 49 59 52 -157 0
47 50 20 49 19 52 -105 0
47 50 20 49 19 52 -103 0
47 50 20 49 19 52 -104 0
47 50 20 49 19 52 -106 0
47 50 49 25 52 23 -122 0
47 50 49 25 52 23 -121 0
47 50 49 25 52 23 -124 0
47 50 49 25 52 23 -123 0
47 50 49 1 52 6 -51 0
47 50 49 1 52 6 -54 0
47 50 49 1 52 6 -53 0
47 50 49 1 52 6 -48 0
47 50 49 31 52 37 -136 0
47 50 49 31 52 37 -137 0
47 50 49 31 52 37 -135 0
47 50 49 31 52 37 -138 0
47 50 49 12 52 9 -83 0
47 50 49 12 52 9 -81 0
47 50 49 12 52 9 -84 0
47 50 49 12 52 9 -82 0
47 50 49 42 52 46 -146 0
47 50 49 42 52 46 -147 0
47 50 49 42 52 46 -148 0
47 50 49 42 52 46 -145 0
26 2 28 4 25 1 -24 0
26 2 28 4 25 1 -30 0
26 2 28 4 25 1 -29 0
26 2 28 4 25 1 -27 0
26 2 28 4 25 23 -24 0
26 2 28 4 25 23 -30 0
26 2 28 4 25 23 -29 0
26 2 28 4 25 23 -27 0
26 2 28 4 1 6 -24 0
26 2 28 4 1 6 -30 0
26 2 28 4 1 6 -29 0
26 2 28 4 1 6 -27 0
26 2 28 4 23 6 -24 0
26 2 28 4 23 6 -30 0
26 2 28 4 23 6 -29 0
26 2 28 4 23 6 -27 0
26 2 28 25 1 23 -24 0
26 2 28 25 1 23 -30 0
26 2 28 25 1 23 -29 0
26 2 28 25 1 23 -27 0
26 2 28 25 23 6 -24 0
26 2 28 25 23 6 -30 0
26 2 28 25 23 6 -29 0
26 2 28 25 23 6 -27 0
26 2 4 25 1 6 -24 0
26 2 4 25 1 6 -30 0
26 2 4 25 1 6 -29 0
26 2 4 25 1 6 -27 0
26 2 4 1 23 6 -24 0
26 2 4 1 23 6 -30 0
26 2 4 1 23 6 -29 0
26 2 4 1 23 6 -27 0
26 2 25 1 23 6 -24 0
26 2 25 1 23 6 -30 0
26 2 25 1 23 6 -29 0
26 2 25 1 23 6 -27 0
26 32 28 33 25 31 -116 0
26 32 28 33 25 31 -114 0
26 32 28 33 25 31 -113 0
26 32 28 33 25 31 -115 0
26 32 28 33 25 23 -116 0
26 32 28 33 25 23 -114 0
26 32 28 33 25 23 -113 0
26 32 28 33 25 23 -115 0
26 32 28 33 31 37 -116 0
26 32 28 33 31 37 -114 0
26 32 28 33 31 37 -113 0
26 32 28 33 31 37 -115 0
26 32 28 33 23 37 -116 0
26 32 28 33 23 37 -114 0
26 32 28 33 23 37 -113 0
26 32 28 33 23 37 -115 0
26 32 28 25 31 23 -116 0
26 32 28 25 31 23 -114 0
26 32 28 25 31 23 -113 0
26 32 28 25 31 23 -115 0
26 32 28 25 23 37 -116 0
26 32 28 25 23 37 -114 0
26 32 28 25 23 37 -113 0
26 32 28 25 23 37 -115 0
26 32 33 25 31 37 -116 0
26 32 33 25 31 37 -114 0
26 32 33 25 31 37 -113 0
26 32 33 25 31 37 -115 0
26 32 33 31 23 37 -116 0
26 32 33 31 23 37 -114 0
26 32 33 31 23 37 -113 0
26 32 33 31 23 37 -115 0
26 32 25 31 23 37 -116 0
26 32 25 31 23 37 -114 0
26 32 25 31 23 37 -113 0
26 32 25 31 23 37 -115 0
26 13 28 8 25 12 -69 0
26 13 28 8 25 12 -70 0
26 13 28 8 25 12 -72 0
26 13 28 8 25 12 -71 0
26 13 28 8 25 23 -69 0
26 13 28 8 25 23 -70 0
26 13 28 8 25 23 -72 0
26 13 28 8 25 23 -71 0
26 13 28 8 12 9 -69 0
26 13 28 8 12 9 -70 0
26 13 28 8 12 9 -72 0
26 13 28 8 12 9 -71 0
26 13 28 8 23 9 -69 0
26 13 28 8 23 9 -70 0
26 13 28 8 23 9 -72 0
26 13 28 8 23 9 -71 0
26 13 28 25 12 23 -69 0
26 13 28 25 12 23 -70 0
26 13 28 25 12 23 -72 0
26 13 28 25 12 23 -71 0
26 13 28 25 23 9 -69 0
26 13 28 25 23 9 -70 0
26 13 28 25 23 9 -72 0
26 13 28 25 23 9 -71 0
26 13 8 25 12 9 -69 0
26 13 8 25 12 9 -70 0
26 13 8 25 12 9 -72 0
26 13 8 25 12 9 -71 0
26 13 8 12 23 9 -69 0
26 13 8 12 23 9 -70 0
26 13 8 12 23 9 -72 0
26 13 8 12 23 9 -71 0
26 13 25 12 23 9 -69 0
26 13 25 12 23 9 -70 0
26 13 25 12 23 9 -72 0
26 13 25 12 23 9 -71 0
26 40 28 45 25 42 -117 0
26 40 28 45 25 42 -118 0
26 40 28 45 25 42 -119 0
26 40 28 45 25 42 -120 0
26 40 28 45 25 23 -117 0
26 40 28 45 25 23 -118 0
26 40 28 45 25 23 -119 0
26 40 28 45 25 23 -120 0
26 40 28 45 42 46 -117 0
26 40 28 45 42 46 -118 0
26 40 28 45 42 46 -119 0
26 40 28 45 42 46 -120 0
26 40 28 45 23 46 -117 0
26 40 28 45 23 46 -118 0
26 40 28 45 23 46 -119 0
26 40 28 45 23 46 -120 0
26 40 28 25 42 23 -117 0
26 40 28 25 42 23 -118 0
26 40 28 25 42 23 -119 0
26 40 28 25 42 23 -120 0
26 40 28 25 23 46 -117 0
26 40 28 25 23 46 -118 0
26 40 28 25 23 46 -119 0
26 40 28 25 23 46 -120 0
26 40 45 25 42 46 -117 0
26 40 45 25 42 46 -118 0
26 40 45 25 42 46 -119 0
26 40 45 25 42 46 -120 0
26 40 45 42 23 46 -117 0
26 40 45 42 23 46 -118 0
26 40 45 42 23 46 -119 0
26 40 45 42 23 46 -120 0
26 40 25 42 23 46 -117 0
26 40 25 42 23 46 -118 0
26 40 25 42 23 46 -119 0
26 40 25 42 23 46 -120 0
26 61 28 60 25 23 -125 0
26 61 28 60 25 23 -128 0
26 61 28 60 25 23 -126 0
26 61 28 60 25 23 -127 0
26 61 28 25 59 23 -125 0
26 61 28 25 59 23 -128 0
26 61 28 25 59 23 -126 0
26 61 28 25 59 23 -127 0
26 22 28 20 25 23 -92 0
26 22 28 20 25 23 -94 0
26 22 28 20 25 23 -91 0
26 22 28 20 25 23 -93 0
26 22 28 25 19 23 -92 0
26 22 28 25 19 23 -94 0
26 22 28 25 19 23 -91 0
26 22 28 25 19 23 -93 0
26 50 28 49 25 23 -122 0
26 50 28 49 25 23 -121 0
26 50 28 49 25 23 -124 0
26 50 28 49 25 23 -123 0
26 50 28 25 52 23 -122 0
26 50 28 25 52 23 -121 0
26 50 28 25 52 23 -124 0
26 50 28 25 52 23 -123 0
26 28 4 25 1 23 -24 0
26 28 4 25 1 23 -30 0
26 28 4 25 1 23 -29 0
26 28 4 25 1 23 -27 0
26 28 4 25 23 6 -24 0
26 28 4 25 23 6 -30 0
26 28 4 25 23 6 -29 0
26 28 4 25 23 6 -27 0
26 28 33 25 31 23 -116 0
26 28 33 25 31 23 -114 0
26 28 33 25 31 23 -113 0
26 28 33 25 31 23 -115 0
26 28 33 25 23 37 -116 0
26 28 33 25 23 37 -114 0
26 28 33 25 23 37 -113 0
26 28 33 25 23 37 -115 0
26 28 8 25 12 23 -69 0
26 28 8 25 12 23 -70 0
26 28 8 25 12 23 -72 0
26 28 8 25 12 23 -71 0
26 28 8 25 23 9 -69 0
26 28 8 25 23 9 -70 0
26 28 8 25 23 9 -72 0
26 28 8 25 23 9 -71 0
26 28 45 25 42 23 -117 0
26 28 45 25 42 23 -118 0
26 28 45 25 42 23 -119 0
26 28 45 25 42 23 -120 0
26 28 45 25 23 46 -117 0
26 28 45 25 23 46 -118 0
26 28 45 25 23 46 -119 0
26 28 45 25 23 46 -120 0
26 28 60 25 59 23 -125 0
26 28 60 25 59 23 -128 0
26 28 60 25 59 23 -126 0
26 28 60 25 59 23 -127 0
26 28 20 25 19 23 -92 0
26 28 20 25 19 23 -94 0
26 28 20 25 19 23 -91 0
26 28 20 25 19 23 -93 0
26 28 49 25 52 23 -122 0
26 28 49 25 52 23 -121 0
26 28 49 25 52 23 -124 0
26 28 49 25 52 23 -123 0
26 28 25 1 23 6 -24 0
26 28 25 1 23 6 -30 0
26 28 25 1 23 6 -29 0
26 28 25 1 23 6 -27 0
26 28 25 31 23 37 -116 0
26 28 25 31 23 37 -114 0
26 28 25 31 23 37 -113 0
26 28 25 31 23 37 -115 0
26 28 25 12 23 9 -69 0
26 28 25 12 23 9 -70 0
26 28 25 12 23 9 -72 0
26 28 25 12 23 9 -71 0
26 28 25 42 23 46 -117 0
26 28 25 42 23 46 -118 0
26 28 25 42 23 46 -119 0
26 28 25 42 23 46 -120 0
2 32 4 33 1 31 -34 0
2 32 4 33 1 31 -35 0
2 32 4 33 1 31 -36 0
2 32 4 33 1 31 -38 0
2 32 4 33 1 6 -34 0
2 32 4 33 1 6 -35 0
2 32 4 33 1 6 -36 0
2 32 4 33 1 6 -38 0
2 32 4 33 31 37 -34 0
2 32 4 33 31 37 -35 0
2 32 4 33 31 37 -36 0
2 32 4 33 31 37 -38 0
2 32 4 33 6 37 -34 0
2 32 4 33 6 37 -35 0
2 32 4 33 6 37 -36 0
2 32 4 33 6 37 -38 0
2 32 4 1 31 6 -34 0
2 32 4 1 31 6 -35 0
2 32 4 1 31 6 -36 0
2 32 4 1 31 6 -38 0
2 32 4 1 6 37 -34 0
2 32 4 1 6 37 -35 0
2 32 4 1 6 37 -36 0
2 32 4 1 6 37 -38 0
2 32 33 1 31 37 -34 0
2 32 33 1 31 37 -35 0
2 32 33 1 31 37 -36 0
2 32 33 1 31 37 -38 0
2 32 33 31 6 37 -34 0
2 32 33 31 6 37 -35 0
2 32 33 31 6 37 -36 0
2 32 33 31 6 37 -38 0
2 32 1 31 6 37 -34 0
2 32 1 31 6 37 -35 0
2 32 1 31 6 37 -36 0
2 32 1 31 6 37 -38 0
2 13 4 8 1 12 -7 0
2 13 4 8 1 12 -10 0
2 13 4 8 1 12 -14 0
2 13 4 8 1 12 -11 0
2 13 4 8 1 6 -7 0
2 13 4 8 1 6 -10 0
2 13 4 8 1 6 -14 0
2 13 4 8 1 6 -11 0
2 13 4 8 12 9 -7 0
2 13 4 8 12 9 -10 0
2 13 4 8 12 9 -14 0
2 13 4 8 12 9 -11 0
2 13 4 8 6 9 -7 0
2 13 4 8 6 9 -10 0
2 13 4 8 6 9 -14 0
2 13 4 8 6 9 -11 0
2 13 4 1 12 6 -7 0
2 13 4 1 12 6 -10 0
2 13 4 1 12 6 -14 0
2 13 4 1 12 6 -11 0
2 13 4 1 6 9 -7 0
2 13 4 1 6 9 -10 0
2 13 4 1 6 9 -14 0
2 13 4 1 6 9 -11 0
2 13 8 1 12 9 -7 0
2 13 8 1 12 9 -10 0
2 13 8 1 12 9 -14 0
2 13 8 1 12 9 -11 0
2 13 8 12 6 9 -7 0
2 13 8 12 6 9 -10 0
2 13 8 12 6 9 -14 0
2 13 8 12 6 9 -11 0
2 13 1 12 6 9 -7 0
2 13 1 12 6 9 -10 0
2 13 1 12 6 9 -14 0
2 13 1 12 6 9 -11 0
2 40 4 45 1 42 -39 0
2 40 4 45 1 42 -44 0
2 40 4 45 1 42 -41 0
2 40 4 45 1 42 -43 0
2 40 4 45 1 6 -39 0
2 40 4 45 1 6 -44 0
2 40 4 45 1 6 -41 0
2 40 4 45 1 6 -43 0
2 40 4 45 42 46 -39 0
2 40 4 45 42 46 -44 0
2 40 4 45 42 46 -41 0
2 40 4 45 42 46 -43 0
2 40 4 45 6 46 -39 0
2 40 4 45 6 46 -44 0
2 40 4 45 6 46 -41 0
2 40 4 45 6 46 -43 0
2 40 4 1 42 6 -39 0
2 40 4 1 42 6 -44 0
2 40 4 1 42 6 -41 0
2 40 4 1 42 6 -43 0
2 40 4 1 6 46 -39 0
2 40 4 1 6 46 -44 0
2 40 4 1 6 46 -41 0
2 40 4 1 6 46 -43 0
2 40 45 1 42 46 -39 0
2 40 45 1 42 46 -44 0
2 40 45 1 42 46 -41 0
2 40 45 1 42 46 -43 0
2 40 45 42 6 46 -39 0
2 40 45 42 6 46 -44 0
2 40 45 42 6 46 -41 0
2 40 45 42 6 46 -43 0
2 40 1 42 6 46 -39 0
2 40 1 42 6 46 -44 0
2 40 1 42 6 46 -41 0
2 40 1 42 6 46 -43 0
2 61 4 60 1 6 -56 0
2 61 4 60 1 6 -57 0
2 61 4 60 1 6 -55 0
2 61 4 60 1 6 -58 0
2 61 4 1 59 6 -56 0
2 61 4 1 59 6 -57 0
2 61 4 1 59 6 -55 0
2 61 4 1 59 6 -58 0
2 22 4 20 1 6 -21 0
2 22 4 20 1 6 -15 0
2 22 4 20 1 6 -18 0
2 22 4 20 1 6 -17 0
2 22 4 1 19 6 -21 0
2 22 4 1 19 6 -15 0
2 22 4 1 19 6 -18 0
2 22 4 1 19 6 -17 0
2 50 4 49 1 6 -51 0
2 50 4 49 1 6 -54 0
2 50 4 49 1 6 -53 0
2 50 4 49 1 6 -48 0
2 50 4 1 52 6 -51 0
2 50 4 1 52 6 -54 0
2 50 4 1 52 6 -53 0
2 50 4 1 52 6 -48 0
2 28 4 25 1 6 -24 0
2 28 4 25 1 6 -30 0
2 28 4 25 1 6 -29 0
2 28 4 25 1 6 -27 0
2 28 4 1 23 6 -24 0
2 28 4 1 23 6 -30 0
2 28 4 1 23 6 -29 0
2 28 4 1 23 6 -27 0
2 4 33 1 31 6 -34 0
2 4 33 1 31 6 -35 0
2 4 33 1 31 6 -36 0
2 4 33 1 31 6 -38 0
2 4 33 1 6 37 -34 0
2 4 33 1 6 37 -35 0
2 4 33 1 6 37 -36 0
2 4 33 1 6 37 -38 0
2 4 8 1 12 6 -7 0
2 4 8 1 12 6 -10 0
2 4 8 1 12 6 -14 0
2 4 8 1 12 6 -11 0
2 4 8 1 6 9 -7 0
2 4 8 1 6 9 -10 0
2 4 8 1 6 9 -14 0
2 4 8 1 6 9 -11 0
2 4 45 1 42 6 -39 0
2 4 45 1 42 6 -44 0
2 4 45 1 42 6 -41 0
2 4 45 1 42 6 -43 0
2 4 45 1 6 46 -39 0
2 4 45 1 6 46 -44 0
2 4 45 1 6 46 -41 0
2 4 45 1 6 46 -43 0
2 4 60 1 59 6 -56 0
2 4 60 1 59 6 -57 0
2 4 60 1 59 6 -55 0
2 4 60 1 59 6 -58 0
2 4 20 1 19 6 -21 0
2 4 20 1 19 6 -15 0
2 4 20 1 19 6 -18 0
2 4 20 1 19 6 -17 0
2 4 49 1 52 6 -51 0
2 4 49 1 52 6 -54 0
2 4 49 1 52 6 -53 0
2 4 49 1 52 6 -48 0
2 4 25 1 23 6 -24 0
2 4 25 1 23 6 -30 0
2 4 25 1 23 6 -29 0
2 4 25 1 23 6 -27 0
2 4 1 31 6 37 -34 0
2 4 1 31 6 37 -35 0
2 4 1 31 6 37 -36 0
2 4 1 31 6 37 -38 0
2 4 1 12 6 9 -7 0
2 4 1 12 6 9 -10 0
2 4 1 12 6 9 -14 0
2 4 1 12 6 9 -11 0
2 4 1 42 6 46 -39 0
2 4 1 42 6 46 -44 0
2 4 1 42 6 46 -41 0
2 4 1 42 6 46 -43 0
32 13 33 8 31 12 -75 0
32 13 33 8 31 12 -76 0
32 13 33 8 31 12 -74 0
32 13 33 8 31 12 -73 0
32 13 33 8 31 37 -75 0
32 13 33 8 31 37 -76 0
32 13 33 8 31 37 -74 0
32 13 33 8 31 37 -73 0
32 13 33 8 12 9 -75 0
32 13 33 8 12 9 -76 0
32 13 33 8 12 9 -74 0
32 13 33 8 12 9 -73 0
32 13 33 8 37 9 -75 0
32 13 33 8 37 9 -76 0
32 13 33 8 37 9 -74 0
32 13 33 8 37 9 -73 0
32 13 33 31 12 37 -75 0
32 13 33 31 12 37 -76 0
32 13 33 31 12 37 -74 0
32 13 33 31 12 37 -73 0
32 13 33 31 37 9 -75 0
32 13 33 31 37 9 -76 0
32 13 33 31 37 9 -74 0
32 13 33 31 37 9 -73 0
32 13 8 31 12 9 -75 0
32 13 8 31 12 9 -76 0
32 13 8 31 12 9 -74 0
32 13 8 31 12 9 -73 0
32 13 8 12 37 9 -75 0
32 13 8 12 37 9 -76 0
32 13 8 12 37 9 -74 0
32 13 8 12 37 9 -73 0
32 13 31 12 37 9 -75 0
32 13 31 12 37 9 -76 0
32 13 31 12 37 9 -74 0
32 13 31 12 37 9 -73 0
32 40 33 45 31 42 -132 0
32 40 33 45 31 42 -134 0
32 40 33 45 31 42 -131 0
32 40 33 45 31 42 -133 0
32 40 33 45 31 37 -132 0
32 40 33 45 31 37 -134 0
32 40 33 45 31 37 -131 0
32 40 33 45 31 37 -133 0
32 40 33 45 42 46 -132 0
32 40 33 45 42 46 -134 0
32 40 33 45 42 46 -131 0
32 40 33 45 42 46 -133 0
32 40 33 45 37 46 -132 0
32 40 33 45 37 46 -134 0
32 40 33 45 37 46 -131 0
32 40 33 45 37 46 -133 0
32 40 33 31 42 37 -132 0
32 40 33 31 42 37 -134 0
32 40 33 31 42 37 -131 0
32 40 33 31 42 37 -133 0
32 40 33 31 37 46 -132 0
32 40 33 31 37 46 -134 0
32 40 33 31 37 46 -131 0
32 40 33 31 37 46 -133 0
32 40 45 31 42 46 -132 0
32 40 45 31 42 46 -134 0
32 40 45 31 42 46 -131 0
32 40 45 31 42 46 -133 0
32 40 45 42 37 46 -132 0
32 40 45 42 37 46 -134 0
32 40 45 42 37 46 -131 0
32 40 45 42 37 46 -133 0
32 40 31 42 37 46 -132 0
32 40 31 42 37 46 -134 0
32 40 31 42 37 46 -131 0
32 40 31 42 37 46 -133 0
32 61 33 60 31 37 -141 0
32 61 33 60 31 37 -142 0
32 61 33 60 31 37 -140 0
32 61 33 60 31 37 -139 0
32 61 33 31 59 37 -141 0
32 61 33 31 59 37 -142 0
32 61 33 31 59 37 -140 0
32 61 33 31 59 37 -139 0
32 22 33 20 31 37 -97 0
32 22 33 20 31 37 -95 0
32 22 33 20 31 37 -96 0
32 22 33 20 31 37 -98 0
32 22 33 31 19 37 -97 0
32 22 33 31 19 37 -95 0
32 22 33 31 19 37 -96 0
32 22 33 31 19 37 -98 0
32 50 33 49 31 37 -136 0
32 50 33 49 31 37 -137 0
32 50 33 49 31 37 -135 0
32 50 33 49 31 37 -138 0
32 50 33 31 52 37 -136 0
32 50 33 31 52 37 -137 0
32 50 33 31 52 37 -135 0
32 50 33 31 52 37 -138 0
32 28 33 25 31 37 -116 0
32 28 33 25 31 37 -114 0
32 28 33 25 31 37 -113 0
32 28 33 25 31 37 -115 0
32 28 33 31 23 37 -116 0
32 28 33 31 23 37 -114 0
32 28 33 31 23 37 -113 0
32 28 33 31 23 37 -115 0
32 4 33 1 31 37 -34 0
32 4 33 1 31 37 -35 0
32 4 33 1 31 37 -36 0
32 4 33 1 31 37 -38 0
32 4 33 31 6 37 -34 0
32 4 33 31 6 37 -35 0
32 4 33 31 6 37 -36 0
32 4 33 31 6 37 -38 0
32 33 8 31 12 37 -75 0
32 33 8 31 12 37 -76 0
32 33 8 31 12 37 -74 0
32 33 8 31 12 37 -73 0
32 33 8 31 37 9 -75 0
32 33 8 31 37 9 -76 0
32 33 8 31 37 9 -74 0
32 33 8 31 37 9 -73 0
32 33 45 31 42 37 -132 0
32 33 45 31 42 37 -134 0
32 33 45 31 42 37 -131 0
32 33 45 31 42 37 -133 0
32 33 45 31 37 46 -132 0
32 33 45 31 37 46 -134 0
32 33 45 31 37 46 -131 0
32 33 45 31 37 46 -133 0
32 33 60 31 59 37 -141 0
32 33 60 31 59 37 -142 0
32 33 60 31 59 37 -140 0
32 33 60 31 59 37 -139 0
32 33 20 31 19 37 -97 0
32 33 20 31 19 37 -95 0
32 33 20 31 19 37 -96 0
32 33 20 31 19 37 -98 0
32 33 49 31 52 37 -136 0
32 33 49 31 52 37 -137 0
32 33 49 31 52 37 -135 0
32 33 49 31 52 37 -138 0
32 33 25 31 23 37 -116 0
32 33 25 31 23 37 -114 0
32 33 25 31 23 37 -113 0
32 33 25 31 23 37 -115 0
32 33 1 31 6 37 -34 0
32 33 1 31 6 37 -35 0
32 33 1 31 6 37 -36 0
32 33 1 31 6 37 -38 0
32 33 31 12 37 9 -75 0
32 33 31 12 37 9 -76 0
32 33 31 12 37 9 -74 0
32 33 31 12 37 9 -73 0
32 33 31 42 37 46 -132 0
32 33 31 42 37 46 -134 0
32 33 31 42 37 46 -131 0
32 33 31 42 37 46 -133 0
13 40 8 45 12 42 -79 0
13 40 8 45 12 42 -78 0
13 40 8 45 12 42 -80 0
13 40 8 45 12 42 -77 0
13 40 8 45 12 9 -79 0
13 40 8 45 12 9 -78 0
13 40 8 45 12 9 -80 0
13 40 8 45 12 9 -77 0
13 40 8 45 42 46 -79 0
13 40 8 45 42 46 -78 0
13 40 8 45 42 46 -80 0
13 40 8 45 42 46 -77 0
13 40 8 45 9 46 -79 0
13 40 8 45 9 46 -78 0
13 40 8 45 9 46 -80 0
13 40 8 45 9 46 -77 0
13 40 8 12 42 9 -79 0
13 40 8 12 42 9 -78 0
13 40 8 12 42 9 -80 0
13 40 8 12 42 9 -77 0
13 40 8 12 9 46 -79 0
13 40 8 12 9 46 -78 0
13 40 8 12 9 46 -80 0
13 40 8 12 9 46 -77 0
13 40 45 12 42 46 -79 0
13 40 45 12 42 46 -78 0
13 40 45 12 42 46 -80 0
13 40 45 12 42 46 -77 0
13 40 45 42 9 46 -79 0
13 40 45 42 9 46 -78 0
13 40 45 42 9 46 -80 0
13 40 45 42 9 46 -77 0
13 40 12 42 9 46 -79 0
13 40 12 42 9 46 -78 0
13 40 12 42 9 46 -80 0
13 40 12 42 9 46 -77 0
13 61 8 60 12 9 -86 0
13 61 8 60 12 9 -88 0
13 61 8 60 12 9 -87 0
13 61 8 60 12 9 -85 0
13 61 8 12 59 9 -86 0
13 61 8 12 59 9 -88 0
13 61 8 12 59 9 -87 0
13 61 8 12 59 9 -85 0
13 22 8 20 12 9 -65 0
13 22 8 20 12 9 -66 0
13 22 8 20 12 9 -68 0
13 22 8 20 12 9 -67 0
13 22 8 12 19 9 -65 0
13 22 8 12 19 9 -66 0
13 22 8 12 19 9 -68 0
13 22 8 12 19 9 -67 0
13 50 8 49 12 9 -83 0
13 50 8 49 12 9 -81 0
13 50 8 49 12 9 -84 0
13 50 8 49 12 9 -82 0
13 50 8 12 52 9 -83 0
13 50 8 12 52 9 -81 0
13 50 8 12 52 9 -84 0
13 50 8 12 52 9 -82 0
13 28 8 25 12 9 -69 0
13 28 8 25 12 9 -70 0
13 28 8 25 12 9 -72 0
13 28 8 25 12 9 -71 0
13 28 8 12 23 9 -69 0
13 28 8 12 23 9 -70 0
13 28 8 12 23 9 -72 0
13 28 8 12 23 9 -71 0
13 4 8 1 12 9 -7 0
13 4 8 1 12 9 -10 0
13 4 8 1 12 9 -14 0
13 4 8 1 12 9 -11 0
13 4 8 12 6 9 -7 0
13 4 8 12 6 9 -10 0
13 4 8 12 6 9 -14 0
13 4 8 12 6 9 -11 0
13 33 8 31 12 9 -75 0
13 33 8 31 12 9 -76 0
13 33 8 31 12 9 -74 0
13 33 8 31 12 9 -73 0
13 33 8 12 37 9 -75 0
13 33 8 12 37 9 -76 0
13 33 8 12 37 9 -74 0
13 33 8 12 37 9 -73 0
13 8 45 12 42 9 -79 0
13 8 45 12 42 9 -78 0
13 8 45 12 42 9 -80 0
13 8 45 12 42 9 -77 0
13 8 45 12 9 46 -79 0
13 8 45 12 9 46 -78 0
13 8 45 12 9 46 -80 0
13 8 45 12 9 46 -77 0
13 8 60 12 59 9 -86 0
13 8 60 12 59 9 -88 0
13 8 60 12 59 9 -87 0
13 8 60 12 59 9 -85 0
13 8 20 12 19 9 -65 0
13 8 20 12 19 9 -66 0
13 8 20 12 19 9 -68 0
13 8 20 12 19 9 -67 0
13 8 49 12 52 9 -83 0
13 8 49 12 52 9 -81 0
13 8 49 12 52 9 -84 0
13 8 49 12 52 9 -82 0
13 8 25 12 23 9 -69 0
13 8 25 12 23 9 -70 0
13 8 25 12 23 9 -72 0
13 8 25 12 23 9 -71 0
13 8 1 12 6 9 -7 0
13 8 1 12 6 9 -10 0
13 8 1 12 6 9 -14 0
13 8 1 12 6 9 -11 0
13 8 31 12 37 9 -75 0
13 8 31 12 37 9 -76 0
13 8 31 12 37 9 -74 0
13 8 31 12 37 9 -73 0
13 8 12 42 9 46 -79 0
13 8 12 42 9 46 -78 0
13 8 12 42 9 46 -80 0
13 8 12 42 9 46 -77 0
40 61 45 60 42 46 -152 0
40 61 45 60 42 46 -149 0
40 61 45 60 42 46 -150 0
40 61 45 60 42 46 -151 0
40 61 45 42 59 46 -152 0
40 61 45 42 59 46 -149 0
40 61 45 42 59 46 -150 0
40 61 45 42 59 46 -151 0
40 22 45 20 42 46 -102 0
40 22 45 20 42 46 -100 0
40 22 45 20 42 46 -101 0
40 22 45 20 42 46 -99 0
40 22 45 42 19 46 -102 0
40 22 45 42 19 46 -100 0
40 22 45 42 19 46 -101 0
40 22 45 42 19 46 -99 0
40 50 45 49 42 46 -146 0
40 50 45 49 42 46 -147 0
40 50 45 49 42 46 -148 0
40 50 45 49 42 46 -145 0
40 50 45 42 52 46 -146 0
40 50 45 42 52 46 -147 0
40 50 45 42 52 46 -148 0
40 50 45 42 52 46 -145 0
40 28 45 25 42 46 -117 0
40 28 45 25 42 46 -118 0
40 28 45 25 42 46 -119 0
40 28 45 25 42 46 -120 0
40 28 45 42 23 46 -117 0
40 28 45 42 23 46 -118 0
40 28 45 42 23 46 -119 0
40 28 45 42 23 46 -120 0
40 4 45 1 42 46 -39 0
40 4 45 1 42 46 -44 0
40 4 45 1 42 46 -41 0
40 4 45 1 42 46 -43 0
40 4 45 42 6 46 -39 0
40 4 45 42 6 46 -44 0
40 4 45 42 6 46 -41 0
40 4 45 42 6 46 -43 0
40 33 45 31 42 46 -132 0
40 33 45 31 42 46 -134 0
40 33 45 31 42 46 -131 0
40 33 45 31 42 46 -133 0
40 33 45 42 37 46 -132 0
40 33 45 42 37 46 -134 0
40 33 45 42 37 46 -131 0
40 33 45 42 37 46 -133 0
40 8 45 12 42 46 -79 0
40 8 45 12 42 46 -78 0
40 8 45 12 42 46 -80 0
40 8 45 12 42 46 -77 0
40 8 45 42 9 46 -79 0
40 8 45 42 9 46 -78 0
40 8 45 42 9 46 -80 0
40 8 45 42 9 46 -77 0
40 45 60 42 59 46 -152 0
40 45 60 42 59 46 -149 0
40 45 60 42 59 46 -150 0
40 45 60 42 59 46 -151 0
40 45 20 42 19 46 -102 0
40 45 20 42 19 46 -100 0
40 45 20 42 19 46 -101 0
40 45 20 42 19 46 -99 0
40 45 49 42 52 46 -146 0
40 45 49 42 52 46 -147 0
40 45 49 42 52 46 -148 0
40 45 49 42 52 46 -145 0
40 45 25 42 23 46 -117 0
40 45 25 42 23 46 -118 0
40 45 25 42 23 46 -119 0
40 45 25 42 23 46 -120 0
40 45 1 42 6 46 -39 0
40 45 1 42 6 46 -44 0
40 45 1 42 6 46 -41 0
40 45 1 42 6 46 -43 0
40 45 31 42 37 46 -132 0
40 45 31 42 37 46 -134 0
40 45 31 42 37 46 -131 0
40 45 31 42 37 46 -133 0
40 45 12 42 9 46 -79 0
40 45 12 42 9 46 -78 0
40 45 12 42 9 46 -80 0
40 45 12 42 9 46 -77 0
61 22 60 20 59 19 -109 0
61 22 60 20 59 19 -108 0
61 22 60 20 59 19 -110 0
61 22 60 20 59 19 -107 0
61 50 60 49 59 52 -155 0
61 50 60 49 59 52 -158 0
61 50 60 49 59 52 -156 0
61 50 60 49 59 52 -157 0
61 28 60 25 59 23 -125 0
61 28 60 25 59 23 -128 0
61 28 60 25 59 23 -126 0
61 28 60 25 59 23 -127 0
61 4 60 1 59 6 -56 0
61 4 60 1 59 6 -57 0
61 4 60 1 59 6 -55 0
61 4 60 1 59 6 -58 0
61 33 60 31 59 37 -141 0
61 33 60 31 59 37 -142 0
61 33 60 31 59 37 -140 0
61 33 60 31 59 37 -139 0
61 8 60 12 59 9 -86 0
61 8 60 12 59 9 -88 0
61 8 60 12 59 9 -87 0
61 8 60 12 59 9 -85 0
61 45 60 42 59 46 -152 0
61 45 60 42 59 46 -149 0
61 45 60 42 59 46 -150 0
61 45 60 42 59 46 -151 0
22 50 20 49 19 52 -105 0
22 50 20 49 19 52 -103 0
22 50 20 49 19 52 -104 0
22 50 20 49 19 52 -106 0
22 28 20 25 19 23 -92 0
22 28 20 25 19 23 -94 0
22 28 20 25 19 23 -91 0
22 28 20 25 19 23 -93 0
22 4 20 1 19 6 -21 0
22 4 20 1 19 6 -15 0
22 4 20 1 19 6 -18 0
22 4 20 1 19 6 -17 0
22 33 20 31 19 37 -97 0
22 33 20 31 19 37 -95 0
22 33 20 31 19 37 -96 0
22 33 20 31 19 37 -98 0
22 8 20 12 19 9 -65 0
22 8 20 12 19 9 -66 0
22 8 20 12 19 9 -68 0
22 8 20 12 19 9 -67 0
22 45 20 42 19 46 -102 0
22 45 20 42 19 46 -100 0
22 45 20 42 19 46 -101 0
22 45 20 42 19 46 -99 0
50 28 49 25 52 23 -122 0
50 28 49 25 52 23 -121 0
50 28 49 25 52 23 -124 0
50 28 49 25 52 23 -123 0
50 4 49 1 52 6 -51 0
50 4 49 1 52 6 -54 0
50 4 49 1 52 6 -53 0
50 4 49 1 52 6 -48 0
50 33 49 31 52 37 -136 0
50 33 49 31 52 37 -137 0
50 33 49 31 52 37 -135 0
50 33 49 31 52 37 -138 0
50 8 49 12 52 9 -83 0
50 8 49 12 52 9 -81 0
50 8 49 12 52 9 -84 0
50 8 49 12 52 9 -82 0
50 45 49 42 52 46 -146 0
50 45 49 42 52 46 -147 0
50 45 49 42 52 46 -148 0
50 45 49 42 52 46 -145 0
28 4 25 1 23 6 -24 0
28 4 25 1 23 6 -30 0
28 4 25 1 23 6 -29 0
28 4 25 1 23 6 -27 0
28 33 25 31 23 37 -116 0
28 33 25 31 23 37 -114 0
28 33 25 31 23 37 -113 0
28 33 25 31 23 37 -115 0
28 8 25 12 23 9 -69 0
28 8 25 12 23 9 -70 0
28 8 25 12 23 9 -72 0
28 8 25 12 23 9 -71 0
28 45 25 42 23 46 -117 0
28 45 25 42 23 46 -118 0
28 45 25 42 23 46 -119 0
28 45 25 42 23 46 -120 0
4 33 1 31 6 37 -34 0
4 33 1 31 6 37 -35 0
4 33 1 31 6 37 -36 0
4 33 1 31 6 37 -38 0
4 8 1 12 6 9 -7 0
4 8 1 12 6 9 -10 0
4 8 1 12 6 9 -14 0
4 8 1 12 6 9 -11 0
4 45 1 42 6 46 -39 0
4 45 1 42 6 46 -44 0
4 45 1 42 6 46 -41 0
4 45 1 42 6 46 -43 0
33 8 31 12 37 9 -75 0
33 8 31 12 37 9 -76 0
33 8 31 12 37 9 -74 0
33 8 31 12 37 9 -73 0
33 45 31 42 37 46 -132 0
33 45 31 42 37 46 -134 0
33 45 31 42 37 46 -131 0
33 45 31 42 37 46 -133 0
8 45 12 42 9 46 -79 0
8 45 12 42 9 46 -78 0
8 45 12 42 9 46 -80 0
8 45 12 42 9 46 -77 0
159 109 155 125 56 141 86 152 0
108 90 105 92 21 97 65 102 0
158 103 154 122 51 136 83 146 0
128 94 121 111 24 116 69 117 0
57 15 54 30 5 34 7 39 0
142 95 137 114 35 129 75 132 0
88 66 81 70 10 76 63 79 0
149 100 147 118 44 134 78 144 0
160 110 156 126 55 140 87 150 0
107 89 104 91 18 96 68 101 0
157 106 153 124 53 135 84 148 0
127 93 123 112 29 113 72 119 0
58 17 48 27 3 36 14 41 0
139 98 138 115 38 130 74 131 0
85 67 82 71 11 73 64 80 0
151 99 145 120 43 133 77 143 0
62 16 61 22 60 20 59 -109 0
62 16 61 22 60 20 59 -108 0
62 16 61 22 60 20 59 -110 0
62 16 61 22 60 20 59 -107 0
62 16 61 22 60 20 19 -109 0
62 16 61 22 60 20 19 -108 0
62 16 61 22 60 20 19 -110 0
62 16 61 22 60 20 19 -107 0
62 16 61 22 60 59 19 -109 0
62 16 61 22 60 59 19 -108 0
62 16 61 22 60 59 19 -110 0
62 16 61 22 60 59 19 -107 0
62 16 61 22 20 59 19 -109 0
62 16 61 22 20 59 19 -108 0
62 16 61 22 20 59 19 -110 0
62 16 61 22 20 59 19 -107 0
62 16 61 60 20 59 19 -109 0
62 16 61 60 20 59 19 -108 0
62 16 61 60 20 59 19 -110 0
62 16 61 60 20 59 19 -107 0
62 16 22 60 20 59 19 -109 0
62 16 22 60 20 59 19 -108 0
62 16 22 60 20 59 19 -110 0
62 16 22 60 20 59 19 -107 0
62 47 61 50 60 49 59 -155 0
62 47 61 50 60 49 59 -158 0
62 47 61 50 60 49 59 -156 0
62 47 61 50 60 49 59 -157 0
62 47 61 50 60 49 52 -155 0
62 47 61 50 60 49 52 -158 0
62 47 61 50 60 49 52 -156 0
62 47 61 50 60 49 52 -157 0
62 47 61 50 60 59 52 -155 0
62 47 61 50 60 59 52 -158 0
62 47 61 50 60 59 52 -156 0
62 47 61 50 60 59 52 -157 0
62 47 61 50 49 59 52 -155 0
62 47 61 50 49 59 52 -158 0
62 47 61 50 49 59 52 -156 0
62 47 61 50 49 59 52 -157 0
62 47 61 60 49 59 52 -155 0
62 47 61 60 49 59 52 -158 0
62 47 61 60 49 59 52 -156 0
62 47 61 60 49 59 52 -157 0
62 47 50 60 49 59 52 -155 0
62 47 50 60 49 59 52 -158 0
62 47 50 60 49 59 52 -156 0
62 47 50 60 49 59 52 -157 0
62 26 61 28 60 25 59 -125 0
62 26 61 28 60 25 59 -128 0
62 26 61 28 60 25 59 -126 0
62 26 61 28 60 25 59 -127 0
62 26 61 28 60 25 23 -125 0
62 26 61 28 60 25 23 -128 0
62 26 61 28 60 25 23 -126 0
62 26 61 28 60 25 23 -127 0
62 26 61 28 60 59 23 -125 0
62 26 61 28 60 59 23 -128 0
62 26 61 28 60 59 23 -126 0
62 26 61 28 60 59 23 -127 0
62 26 61 28 25 59 23 -125 0
62 26 61 28 25 59 23 -128 0
62 26 61 28 25 59 23 -126 0
62 26 61 28 25 59 23 -127 0
62 26 61 60 25 59 23 -125 0
62 26 61 60 25 59 23 -128 0
62 26 61 60 25 59 23 -126 0
62 26 61 60 25 59 23 -127 0
62 26 28 60 25 59 23 -125 0
62 26 28 60 25 59 23 -128 0
62 26 28 60 25 59 23 -126 0
62 26 28 60 25 59 23 -127 0
62 2 61 4 60 1 59 -56 0
62 2 61 4 60 1 59 -57 0
62 2 61 4 60 1 59 -55 0
62 2 61 4 60 1 59 -58 0
62 2 61 4 60 1 6 -56 0
62 2 61 4 60 1 6 -57 0
62 2 61 4 60 1 6 -55 0
62 2 61 4 60 1 6 -58 0
62 2 61 4 60 59 6 -56 0
62 2 61 4 60 59 6 -57 0
62 2 61 4 60 59 6 -55 0
62 2 61 4 60 59 6 -58 0
62 2 61 4 1 59 6 -56 0
62 2 61 4 1 59 6 -57 0
62 2 61 4 1 59 6 -55 0
62 2 61 4 1 59 6 -58 0
62 2 61 60 1 59 6 -56 0
62 2 61 60 1 59 6 -57 0
62 2 61 60 1 59 6 -55 0
62 2 61 60 1 59 6 -58 0
62 2 4 60 1 59 6 -56 0
62 2 4 60 1 59 6 -57 0
62 2 4 60 1 59 6 -55 0
62 2 4 60 1 59 6 -58 0
62 32 61 33 60 31 59 -141 0
62 32 61 33 60 31 59 -142 0
62 32 61 33 60 31 59 -140 0
62 32 61 33 60 31 59 -139 0
62 32 61 33 60 31 37 -141 0
62 32 61 33 60 31 37 -142 0
62 32 61 33 60 31 37 -140 0
62 32 61 33 60 31 37 -139 0
62 32 61 33 60 59 37 -141 0
62 32 61 33 60 59 37 -142 0
62 32 61 33 60 59 37 -140 0
62 32 61 33 60 59 37 -139 0
62 32 61 33 31 59 37 -141 0
62 32 61 33 31 59 37 -142 0
62 32 61 33 31 59 37 -140 0
62 32 61 33 31 59 37 -139 0
62 32 61 60 31 59 37 -141 0
62 32 61 60 31 59 37 -142 0
62 32 61 60 31 59 37 -140 0
62 32 61 60 31 59 37 -139 0
62 32 33 60 31 59 37 -141 0
62 32 33 60 31 59 37 -142 0
62 32 33 60 31 59 37 -140 0
62 32 33 60 31 59 37 -139 0
62 13 61 8 60 12 59 -86 0
62 13 61 8 60 12 59 -88 0
62 13 61 8 60 12 59 -87 0
62 13 61 8 60 12 59 -85 0
62 13 61 8 60 12 9 -86 0
62 13 61 8 60 12 9 -88 0
62 13 61 8 60 12 9 -87 0
62 13 61 8 60 12 9 -85 0
62 13 61 8 60 59 9 -86 0
62 13 61 8 60 59 9 -88 0
62 13 61 8 60 59 9 -87 0
62 13 61 8 60 59 9 -85 0
62 13 61 8 12 59 9 -86 0
62 13 61 8 12 59 9 -88 0
62 13 61 8 12 59 9 -87 0
62 13 61 8 12 59 9 -85 0
62 13 61 60 12 59 9 -86 0
62 13 61 60 12 59 9 -88 0
62 13 61 60 12 59 9 -87 0
62 13 61 60 12 59 9 -85 0
62 13 8 60 12 59 9 -86 0
62 13 8 60 12 59 9 -88 0
62 13 8 60 12 59 9 -87 0
62 13 8 60 12 59 9 -85 0
62 40 61 45 60 42 59 -152 0
62 40 61 45 60 42 59 -149 0
62 40 61 45 60 42 59 -150 0
62 40 61 45 60 42 59 -151 0
62 40 61 45 60 42 46 -152 0
62 40 61 45 60 42 46 -149 0
62 40 61 45 60 42 46 -150 0
62 40 61 45 60 42 46 -151 0
62 40 61 45 60 59 46 -152 0
62 40 61 45 60 59 46 -149 0
62 40 61 45 60 59 46 -150 0
62 40 61 45 60 59 46 -151 0
62 40 61 45 42 59 46 -152 0
62 40 61 45 42 59 46 -149 0
62 40 61 45 42 59 46 -150 0
62 40 61 45 42 59 46 -151 0
62 40 61 60 42 59 46 -152 0
62 40 61 60 42 59 46 -149 0
62 40 61 60 42 59 46 -150 0
62 40 61 60 42 59 46 -151 0
62 40 45 60 42 59 46 -152 0
62 40 45 60 42 59 46 -149 0
62 40 45 60 42 59 46 -150 0
62 40 45 60 42 59 46 -151 0
62 61 22 60 20 59 19 -109 0
62 61 22 60 20 59 19 -108 0
62 61 22 60 20 59 19 -110 0
62 61 22 60 20 59 19 -107 0
62 61 50 60 49 59 52 -155 0
62 61 50 60 49 59 52 -158 0
62 61 50 60 49 59 52 -156 0
62 61 50 60 49 59 52 -157 0
62 61 28 60 25 59 23 -125 0
62 61 28 60 25 59 23 -128 0
62 61 28 60 25 59 23 -126 0
62 61 28 60 25 59 23 -127 0
62 61 4 60 1 59 6 -56 0
62 61 4 60 1 59 6 -57 0
62 61 4 60 1 59 6 -55 0
62 61 4 60 1 59 6 -58 0
62 61 33 60 31 59 37 -141 0
62 61 33 60 31 59 37 -142 0
62 61 33 60 31 59 37 -140 0
62 61 33 60 31 59 37 -139 0
62 61 8 60 12 59 9 -86 0
62 61 8 60 12 59 9 -88 0
62 61 8 60 12 59 9 -87 0
62 61 8 60 12 59 9 -85 0
62 61 45 60 42 59 46 -152 0
62 61 45 60 42 59 46 -149 0
62 61 45 60 42 59 46 -150 0
62 61 45 60 42 59 46 -151 0
16 47 22 50 20 49 19 -105 0
16 47 22 50 20 49 19 -103 0
16 47 22 50 20 49 19 -104 0
16 47 22 50 20 49 19 -106 0
16 47 22 50 20 49 52 -105 0
16 47 22 50 20 49 52 -103 0
16 47 22 50 20 49 52 -104 0
16 47 22 50 20 49 52 -106 0
16 47 22 50 20 19 52 -105 0
16 47 22 50 20 19 52 -103 0
16 47 22 50 20 19 52 -104 0
16 47 22 50 20 19 52 -106 0
16 47 22 50 49 19 52 -105 0
16 47 22 50 49 19 52 -103 0
16 47 22 50 49 19 52 -104 0
16 47 22 50 49 19 52 -106 0
16 47 22 20 49 19 52 -105 0
16 47 22 20 49 19 52 -103 0
16 47 22 20 49 19 52 -104 0
16 47 22 20 49 19 52 -106 0
16 47 50 20 49 19 52 -105 0
16 47 50 20 49 19 52 -103 0
16 47 50 20 49 19 52 -104 0
16 47 50 20 49 19 52 -106 0
16 26 22 28 20 25 19 -92 0
16 26 22 28 20 25 19 -94 0
16 26 22 28 20 25 19 -91 0
16 26 22 28 20 25 19 -93 0
16 26 22 28 20 25 23 -92 0
16 26 22 28 20 25 23 -94 0
16 26 22 28 20 25 23 -91 0
16 26 22 28 20 25 23 -93 0
16 26 22 28 20 19 23 -92 0
16 26 22 28 20 19 23 -94 0
16 26 22 28 20 19 23 -91 0
16 26 22 28 20 19 23 -93 0
16 26 22 28 25 19 23 -92 0
16 26 22 28 25 19 23 -94 0
16 26 22 28 25 19 23 -91 0
16 26 22 28 25 19 23 -93 0
16 26 22 20 25 19 23 -92 0
16 26 22 20 25 19 23 -94 0
16 26 22 20 25 19 23 -91 0
16 26 22 20 25 19 23 -93 0
16 26 28 20 25 19 23 -92 0
16 26 28 20 25 19 23 -94 0
16 26 28 20 25 19 23 -91 0
16 26 28 20 25 19 23 -93 0
16 2 22 4 20 1 19 -21 0
16 2 22 4 20 1 19 -15 0
16 2 22 4 20 1 19 -18 0
16 2 22 4 20 1 19 -17 0
16 2 22 4 20 1 6 -21 0
16 2 22 4 20 1 6 -15 0
16 2 22 4 20 1 6 -18 0
16 2 22 4 20 1 6 -17 0
16 2 22 4 20 19 6 -21 0
16 2 22 4 20 19 6 -15 0
16 2 22 4 20 19 6 -18 0
16 2 22 4 20 19 6 -17 0
16 2 22 4 1 19 6 -21 0
16 2 22 4 1 19 6 -15 0
16 2 22 4 1 19 6 -18 0
16 2 22 4 1 19 6 -17 0
16 2 22 20 1 19 6 -21 0
16 2 22 20 1 19 6 -15 0
16 2 22 20 1 19 6 -18 0
16 2 22 20 1 19 6 -17 0
16 2 4 20 1 19 6 -21 0
16 2 4 20 1 19 6 -15 0
16 2 4 20 1 19 6 -18 0
16 2 4 20 1 19 6 -17 0
16 32 22 33 20 31 19 -97 0
16 32 22 33 20 31 19 -95 0
16 32 22 33 20 31 19 -96 0
16 32 22 33 20 31 19 -98 0
16 32 22 33 20 31 37 -97 0
16 32 22 33 20 31 37 -95 0
16 32 22 33 20 31 37 -96 0
16 32 22 33 20 31 37 -98 0
16 32 22 33 20 19 37 -97 0
16 32 22 33 20 19 37 -95 0
16 32 22 33 20 19 37 -96 0
16 32 22 33 20 19 37 -98 0
16 32 22 33 31 19 37 -97 0
16 32 22 33 31 19 37 -95 0
16 32 22 33 31 19 37 -96 0
16 32 22 33 31 19 37 -98 0
16 32 22 20 31 19 37 -97 0
16 32 22 20 31 19 37 -95 0
16 32 22 20 31 19 37 -96 0
16 32 22 20 31 19 37 -98 0
16 32 33 20 31 19 37 -97 0
16 32 33 20 31 19 37 -95 0
16 32 33 20 31 19 37 -96 0
16 32 33 20 31 19 37 -98 0
16 13 22 8 20 12 19 -65 0
16 13 22 8 20 12 19 -66 0
16 13 22 8 20 12 19 -68 0
16 13 22 8 20 12 19 -67 0
16 13 22 8 20 12 9 -65 0
16 13 22 8 20 12 9 -66 0
16 13 22 8 20 12 9 -68 0
16 13 22 8 20 12 9 -67 0
16 13 22 8 20 19 9 -65 0
16 13 22 8 20 19 9 -66 0
16 13 22 8 20 19 9 -68 0
16 13 22 8 20 19 9 -67 0
16 13 22 8 12 19 9 -65 0
16 13 22 8 12 19 9 -66 0
16 13 22 8 12 19 9 -68 0
16 13 22 8 12 19 9 -67 0
16 13 22 20 12 19 9 -65 0
16 13 22 20 12 19 9 -66 0
16 13 22 20 12 19 9 -68 0
16 13 22 20 12 19 9 -67 0
16 13 8 20 12 19 9 -65 0
16 13 8 20 12 19 9 -66 0
16 13 8 20 12 19 9 -68 0
16 13 8 20 12 19 9 -67 0
16 40 22 45 20 42 19 -102 0
16 40 22 45 20 42 19 -100 0
16 40 22 45 20 42 19 -101 0
16 40 22 45 20 42 19 -99 0
16 40 22 45 20 42 46 -102 0
16 40 22 45 20 42 46 -100 0
16 40 22 45 20 42 46 -101 0
16 40 22 45 20 42 46 -99 0
16 40 22 45 20 19 46 -102 0
16 40 22 45 20 19 46 -100 0
16 40 22 45 20 19 46 -101 0
16 40 22 45 20 19 46 -99 0
16 40 22 45 42 19 46 -102 0
16 40 22 45 42 19 46 -100 0
16 40 22 45 42 19 46 -101 0
16 40 22 45 42 19 46 -99 0
16 40 22 20 42 19 46 -102 0
16 40 22 20 42 19 46 -100 0
16 40 22 20 42 19 46 -101 0
16 40 22 20 42 19 46 -99 0
16 40 45 20 42 19 46 -102 0
16 40 45 20 42 19 46 -100 0
16 40 45 20 42 19 46 -101 0
16 40 45 20 42 19 46 -99 0
16 61 22 60 20 59 19 -109 0
16 61 22 60 20 59 19 -108 0
16 61 22 60 20 59 19 -110 0
16 61 22 60 20 59 19 -107 0
16 22 50 20 49 19 52 -105 0
16 22 50 20 49 19 52 -103 0
16 22 50 20 49 19 52 -104 0
16 22 50 20 49 19 52 -106 0
16 22 28 20 25 19 23 -92 0
16 22 28 20 25 19 23 -94 0
16 22 28 20 25 19 23 -91 0
16 22 28 20 25 19 23 -93 0
16 22 4 20 1 19 6 -21 0
16 22 4 20 1 19 6 -15 0
16 22 4 20 1 19 6 -18 0
16 22 4 20 1 19 6 -17 0
16 22 33 20 31 19 37 -97 0
16 22 33 20 31 19 37 -95 0
16 22 33 20 31 19 37 -96 0
16 22 33 20 31 19 37 -98 0
16 22 8 20 12 19 9 -65 0
16 22 8 20 12 19 9 -66 0
16 22 8 20 12 19 9 -68 0
16 22 8 20 12 19 9 -67 0
16 22 45 20 42 19 46 -102 0
16 22 45 20 42 19 46 -100 0
16 22 45 20 42 19 46 -101 0
16 22 45 20 42 19 46 -99 0
47 26 50 28 49 25 52 -122 0
47 26 50 28 49 25 52 -121 0
47 26 50 28 49 25 52 -124 0
47 26 50 28 49 25 52 -123 0
47 26 50 28 49 25 23 -122 0
47 26 50 28 49 25 23 -121 0
47 26 50 28 49 25 23 -124 0
47 26 50 28 49 25 23 -123 0
47 26 50 28 49 52 23 -122 0
47 26 50 28 49 52 23 -121 0
47 26 50 28 49 52 23 -124 0
47 26 50 28 49 52 23 -123 0
47 26 50 28 25 52 23 -122 0
47 26 50 28 25 52 23 -121 0
47 26 50 28 25 52 23 -124 0
47 26 50 28 25 52 23 -123 0
47 26 50 49 25 52 23 -122 0
47 26 50 49 25 52 23 -121 0
47 26 50 49 25 52 23 -124 0
47 26 50 49 25 52 23 -123 0
47 26 28 49 25 52 23 -122 0
47 26 28 49 25 52 23 -121 0
47 26 28 49 25 52 23 -124 0
47 26 28 49 25 52 23 -123 0
47 2 50 4 49 1 52 -51 0
47 2 50 4 49 1 52 -54 0
47 2 50 4 49 1 52 -53 0
47 2 50 4 49 1 52 -48 0
47 2 50 4 49 1 6 -51 0
47 2 50 4 49 1 6 -54 0
47 2 50 4 49 1 6 -53 0
47 2 50 4 49 1 6 -48 0
47 2 50 4 49 52 6 -51 0
47 2 50 4 49 52 6 -54 0
47 2 50 4 49 52 6 -53 0
47 2 50 4 49 52 6 -48 0
47 2 50 4 1 52 6 -51 0
47 2 50 4 1 52 6 -54 0
47 2 50 4 1 52 6 -53 0
47 2 50 4 1 52 6 -48 0
47 2 50 49 1 52 6 -51 0
47 2 50 49 1 52 6 -54 0
47 2 50 49 1 52 6 -53 0
47 2 50 49 1 52 6 -48 0
47 2 4 49 1 52 6 -51 0
47 2 4 49 1 52 6 -54 0
47 2 4 49 1 52 6 -53 0
47 2 4 49 1 52 6 -48 0
47 32 50 33 49 31 52 -136 0
47 32 50 33 49 31 52 -137 0
47 32 50 33 49 31 52 -135 0
47 32 50 33 49 31 52 -138 0
47 32 50 33 49 31 37 -136 0
47 32 50 33 49 31 37 -137 0
47 32 50 33 49 31 37 -135 0
47 32 50 33 49 31 37 -138 0
47 32 50 33 49 52 37 -136 0
47 32 50 33 49 52 37 -137 0
47 32 50 33 49 52 37 -135 0
47 32 50 33 49 52 37 -138 0
47 32 50 33 31 52 37 -136 0
47 32 50 33 31 52 37 -137 0
47 32 50 33 31 52 37 -135 0
47 32 50 33 31 52 37 -138 0
47 32 50 49 31 52 37 -136 0
47 32 50 49 31 52 37 -137 0
47 32 50 49 31 52 37 -135 0
47 32 50 49 31 52 37 -138 0
47 32 33 49 31 52 37 -136 0
47 32 33 49 31 52 37 -137 0
47 32 33 49 31 52 37 -135 0
47 32 33 49 31 52 37 -138 0
47 13 50 8 49 12 52 -83 0
47 13 50 8 49 12 52 -81 0
47 13 50 8 49 12 52 -84 0
47 13 50 8 49 12 52 -82 0
47 13 50 8 49 12 9 -83 0
47 13 50 8 49 12 9 -81 0
47 13 50 8 49 12 9 -84 0
47 13 50 8 49 12 9 -82 0
47 13 50 8 49 52 9 -83 0
47 13 50 8 49 52 9 -81 0
47 13 50 8 49 52 9 -84 0
47 13 50 8 49 52 9 -82 0
47 13 50 8 12 52 9 -83 0
47 13 50 8 12 52 9 -81 0
47 13 50 8 12 52 9 -84 0
47 13 50 8 12 52 9 -82 0
47 13 50 49 12 52 9 -83 0
47 13 50 49 12 52 9 -81 0
47 13 50 49 12 52 9 -84 0
47 13 50 49 12 52 9 -82 0
47 13 8 49 12 52 9 -83 0
47 13 8 49 12 52 9 -81 0
47 13 8 49 12 52 9 -84 0
47 13 8 49 12 52 9 -82 0
47 40 50 45 49 42 52 -146 0
47 40 50 45 49 42 52 -147 0
47 40 50 45 49 42 52 -148 0
47 40 50 45 49 42 52 -145 0
47 40 50 45 49 42 46 -146 0
47 40 50 45 49 42 46 -147 0
47 40 50 45 49 42 46 -148 0
47 40 50 45 49 42 46 -145 0
47 40 50 45 49 52 46 -146 0
47 40 50 45 49 52 46 -147 0
47 40 50 45 49 52 46 -148 0
47 40 50 45 49 52 46 -145 0
47 40 50 45 42 52 46 -146 0
47 40 50 45 42 52 46 -147 0
47 40 50 45 42 52 46 -148 0
47 40 50 45 42 52 46 -145 0
47 40 50 49 42 52 46 -146 0
47 40 50 49 42 52 46 -147 0
47 40 50 49 42 52 46 -148 0
47 40 50 49 42 52 46 -145 0
47 40 45 49 42 52 46 -146 0
47 40 45 49 42 52 46 -147 0
47 40 45 49 42 52 46 -148 0
47 40 45 49 42 52 46 -145 0
47 61 50 60 49 59 52 -155 0
47 61 50 60 49 59 52 -158 0
47 61 50 60 49 59 52 -156 0
47 61 50 60 49 59 52 -157 0
47 22 50 20 49 19 52 -105 0
47 22 50 20 49 19 52 -103 0
47 22 50 20 49 19 52 -104 0
47 22 50 20 49 19 52 -106 0
47 50 28 49 25 52 23 -122 0
47 50 28 49 25 52 23 -121 0
47 50 28 49 25 52 23 -124 0
47 50 28 49 25 52 23 -123 0
47 50 4 49 1 52 6 -51 0
47 50 4 49 1 52 6 -54 0
47 50 4 49 1 52 6 -53 0
47 50 4 49 1 52 6 -48 0
47 50 33 49 31 52 37 -136 0
47 50 33 49 31 52 37 -137 0
47 50 33 49 31 52 37 -135 0
47 50 33 49 31 52 37 -138 0
47 50 8 49 12 52 9 -83 0
47 50 8 49 12 52 9 -81 0
47 50 8 49 12 52 9 -84 0
47 50 8 49 12 52 9 -82 0
47 50 45 49 42 52 46 -146 0
47 50 45 49 42 52 46 -147 0
47 50 45 49 42 52 46 -148 0
47 50 45 49 42 52 46 -145 0
26 2 28 4 25 1 23 -24 0
26 2 28 4 25 1 23 -30 0
26 2 28 4 25 1 23 -29 0
26 2 28 4 25 1 23 -27 0
26 2 28 4 25 1 6 -24 0
26 2 28 4 25 1 6 -30 0
26 2 28 4 25 1 6 -29 0
26 2 28 4 25 1 6 -27 0
26 2 28 4 25 23 6 -24 0
26 2 28 4 25 23 6 -30 0
26 2 28 4 25 23 6 -29 0
26 2 28 4 25 23 6 -27 0
26 2 28 4 1 23 6 -24 0
26 2 28 4 1 23 6 -30 0
26 2 28 4 1 23 6 -29 0
26 2 28 4 1 23 6 -27 0
26 2 28 25 1 23 6 -24 0
26 2 28 25 1 23 6 -30 0
26 2 28 25 1 23 6 -29 0
26 2 28 25 1 23 6 -27 0
26 2 4 25 1 23 6 -24 0
26 2 4 25 1 23 6 -30 0
26 2 4 25 1 23 6 -29 0
26 2 4 25 1 23 6 -27 0
26 32 28 33 25 31 23 -116 0
26 32 28 33 25 31 23 -114 0
26 32 28 33 25 31 23 -113 0
26 32 28 33 25 31 23 -115 0
26 32 28 33 25 31 37 -116 0
26 32 28 33 25 31 37 -114 0
26 32 28 33 25 31 37 -113 0
26 32 28 33 25 31 37 -115 0
26 32 28 33 25 23 37 -116 0
26 32 28 33 25 23 37 -114 0
26 32 28 33 25 23 37 -113 0
26 32 28 33 25 23 37 -115 0
26 32 28 33 31 23 37 -116 0
26 32 28 33 31 23 37 -114 0
26 32 28 33 31 23 37 -113 0
26 32 28 33 31 23 37 -115 0
26 32 28 25 31 23 37 -116 0
26 32 28 25 31 23 37 -114 0
26 32 28 25 31 23 37 -113 0
26 32 28 25 31 23 37 -115 0
26 32 33 25 31 23 37 -116 0
26 32 33 25 31 23 37 -114 0
26 32 33 25 31 23 37 -113 0
26 32 33 25 31 23 37 -115 0
26 13 28 8 25 12 23 -69 0
26 13 28 8 25 12 23 -70 0
26 13 28 8 25 12 23 -72 0
26 13 28 8 25 12 23 -71 0
26 13 28 8 25 12 9 -69 0
26 13 28 8 25 12 9 -70 0
26 13 28 8 25 12 9 -72 0
26 13 28 8 25 12 9 -71 0
26 13 28 8 25 23 9 -69 0
26 13 28 8 25 23 9 -70 0
26 13 28 8 25 23 9 -72 0
26 13 28 8 25 23 9 -71 0
26 13 28 8 12 23 9 -69 0
26 13 28 8 12 23 9 -70 0
26 13 28 8 12 23 9 -72 0
26 13 28 8 12 23 9 -71 0
26 13 28 25 12 23 9 -69 0
26 13 28 25 12 23 9 -70 0
26 13 28 25 12 23 9 -72 0
26 13 28 25 12 23 9 -71 0
26 13 8 25 12 23 9 -69 0
26 13 8 25 12 23 9 -70 0
26 13 8 25 12 23 9 -72 0
26 13 8 25 12 23 9 -71 0
26 40 28 45 25 42 23 -117 0
26 40 28 45 25 42 23 -118 0
26 40 28 45 25 42 23 -119 0
26 40 28 45 25 42 23 -120 0
26 40 28 45 25 42 46 -117 0
26 40 28 45 25 42 46 -118 0
26 40 28 45 25 42 46 -119 0
26 40 28 45 25 42 46 -120 0
26 40 28 45 25 23 46 -117 0
26 40 28 45 25 23 46 -118 0
26 40 28 45 25 23 46 -119 0
26 40 28 45 25 23 46 -120 0
26 40 28 45 42 23 46 -117 0
26 40 28 45 42 23 46 -118 0
26 40 28 45 42 23 46 -119 0
26 40 28 45 42 23 46 -120 0
26 40 28 25 42 23 46 -117 0
26 40 28 25 42 23 46 -118 0
26 40 28 25 42 23 46 -119 0
26 40 28 25 42 23 46 -120 0
26 40 45 25 42 23 46 -117 0
26 40 45 25 42 23 46 -118 0
26 40 45 25 42 23 46 -119 0
26 40 45 25 42 23 46 -120 0
26 61 28 60 25 59 23 -125 0
26 61 28 60 25 59 23 -128 0
26 61 28 60 25 59 23 -126 0
26 61 28 60 25 59 23 -127 0
26 22 28 20 25 19 23 -92 0
26 22 28 20 25 19 23 -94 0
26 22 28 20 25 19 23 -91 0
26 22 28 20 25 19 23 -93 0
26 50 28 49 25 52 23 -122 0
26 50 28 49 25 52 23 -121 0
26 50 28 49 25 52 23 -124 0
26 50 28 49 25 52 23 -123 0
26 28 4 25 1 23 6 -24 0
26 28 4 25 1 23 6 -30 0
26 28 4 25 1 23 6 -29 0
26 28 4 25 1 23 6 -27 0
26 28 33 25 31 23 37 -116 0
26 28 33 25 31 23 37 -114 0
26 28 33 25 31 23 37 -113 0
26 28 33 25 31 23 37 -115 0
26 28 8 25 12 23 9 -69 0
26 28 8 25 12 23 9 -70 0
26 28 8 25 12 23 9 -72 0
26 28 8 25 12 23 9 -71 0
26 28 45 25 42 23 46 -117 0
26 28 45 25 42 23 46 -118 0
26 28 45 25 42 23 46 -119 0
26 28 45 25 42 23 46 -120 0
2 32 4 33 1 31 6 -34 0
2 32 4 33 1 31 6 -35 0
2 32 4 33 1 31 6 -36 0
2 32 4 33 1 31 6 -38 0
2 32 4 33 1 31 37 -34 0
2 32 4 33 1 31 37 -35 0
2 32 4 33 1 31 37 -36 0
2 32 4 33 1 31 37 -38 0
2 32 4 33 1 6 37 -34 0
2 32 4 33 1 6 37 -35 0
2 32 4 33 1 6 37 -36 0
2 32 4 33 1 6 37 -38 0
2 32 4 33 31 6 37 -34 0
2 32 4 33 31 6 37 -35 0
2 32 4 33 31 6 37 -36 0
2 32 4 33 31 6 37 -38 0
2 32 4 1 31 6 37 -34 0
2 32 4 1 31 6 37 -35 0
2 32 4 1 31 6 37 -36 0
2 32 4 1 31 6 37 -38 0
2 32 33 1 31 6 37 -34 0
2 32 33 1 31 6 37 -35 0
2 32 33 1 31 6 37 -36 0
2 32 33 1 31 6 37 -38 0
2 13 4 8 1 12 6 -7 0
2 13 4 8 1 12 6 -10 0
2 13 4 8 1 12 6 -14 0
2 13 4 8 1 12 6 -11 0
2 13 4 8 1 12 9 -7 0
2 13 4 8 1 12 9 -10 0
2 13 4 8 1 12 9 -14 0
2 13 4 8 1 12 9 -11 0
2 13 4 8 1 6 9 -7 0
2 13 4 8 1 6 9 -10 0
2 13 4 8 1 6 9 -14 0
2 13 4 8 1 6 9 -11 0
2 13 4 8 12 6 9 -7 0
2 13 4 8 12 6 9 -10 0
2 13 4 8 12 6 9 -14 0
2 13 4 8 12 6 9 -11 0
2 13 4 1 12 6 9 -7 0
2 13 4 1 12 6 9 -10 0
2 13 4 1 12 6 9 -14 0
2 13 4 1 12 6 9 -11 0
2 13 8 1 12 6 9 -7 0
2 13 8 1 12 6 9 -10 0
2 13 8 1 12 6 9 -14 0
2 13 8 1 12 6 9 -11 0
2 40 4 45 1 42 6 -39 0
2 40 4 45 1 42 6 -44 0
2 40 4 45 1 42 6 -41 0
2 40 4 45 1 42 6 -43 0
2 40 4 45 1 42 46 -39 0
2 40 4 45 1 42 46 -44 0
2 40 4 45 1 42 46 -41 0
2 40 4 45 1 42 46 -43 0
2 40 4 45 1 6 46 -39 0
2 40 4 45 1 6 46 -44 0
2 40 4 45 1 6 46 -41 0
2 40 4 45 1 6 46 -43 0
2 40 4 45 42 6 46 -39 0
2 40 4 45 42 6 46 -44 0
2 40 4 45 42 6 46 -41 0
2 40 4 45 42 6 46 -43 0
2 40 4 1 42 6 46 -39 0
2 40 4 1 42 6 46 -44 0
2 40 4 1 42 6 46 -41 0
2 40 4 1 42 6 46 -43 0
2 40 45 1 42 6 46 -39 0
2 40 45 1 42 6 46 -44 0
2 40 45 1 42 6 46 -41 0
2 40 45 1 42 6 46 -43 0
2 61 4 60 1 59 6 -56 0
2 61 4 60 1 59 6 -57 0
2 61 4 60 1 59 6 -55 0
2 61 4 60 1 59 6 -58 0
2 22 4 20 1 19 6 -21 0
2 22 4 20 1 19 6 -15 0
2 22 4 20 1 19 6 -18 0
2 22 4 20 1 19 6 -17 0
2 50 4 49 1 52 6 -51 0
2 50 4 49 1 52 6 -54 0
2 50 4 49 1 52 6 -53 0
2 50 4 49 1 52 6 -48 0
2 28 4 25 1 23 6 -24 0
2 28 4 25 1 23 6 -30 0
2 28 4 25 1 23 6 -29 0
2 28 4 25 1 23 6 -27 0
2 4 33 1 31 6 37 -34 0
2 4 33 1 31 6 37 -35 0
2 4 33 1 31 6 37 -36 0
2 4 33 1 31 6 37 -38 0
2 4 8 1 12 6 9 -7 0
2 4 8 1 12 6 9 -10 0
2 4 8 1 12 6 9 -14 0
2 4 8 1 12 6 9 -11 0
2 4 45 1 42 6 46 -39 0
2 4 45 1 42 6 46 -44 0
2 4 45 1 42 6 46 -41 0
2 4 45 1 42 6 46 -43 0
32 13 33 8 31 12 37 -75 0
32 13 33 8 31 12 37 -76 0
32 13 33 8 31 12 37 -74 0
32 13 33 8 31 12 37 -73 0
32 13 33 8 31 12 9 -75 0
32 13 33 8 31 12 9 -76 0
32 13 33 8 31 12 9 -74 0
32 13 33 8 31 12 9 -73 0
32 13 33 8 31 37 9 -75 0
32 13 33 8 31 37 9 -76 0
32 13 33 8 31 37 9 -74 0
32 13 33 8 31 37 9 -73 0
32 13 33 8 12 37 9 -75 0
32 13 33 8 12 37 9 -76 0
32 13 33 8 12 37 9 -74 0
32 13 33 8 12 37 9 -73 0
32 13 33 31 12 37 9 -75 0
32 13 33 31 12 37 9 -76 0
32 13 33 31 12 37 9 -74 0
32 13 33 31 12 37 9 -73 0
32 13 8 31 12 37 9 -75 0
32 13 8 31 12 37 9 -76 0
32 13 8 31 12 37 9 -74 0
32 13 8 31 12 37 9 -73 0
32 40 33 45 31 42 37 -132 0
32 40 33 45 31 42 37 -134 0
32 40 33 45 31 42 37 -131 0
32 40 33 45 31 42 37 -133 0
32 40 33 45 31 42 46 -132 0
32 40 33 45 31 42 46 -134 0
32 40 33 45 31 42 46 -131 0
32 40 33 45 31 42 46 -133 0
32 40 33 45 31 37 46 -132 0
32 40 33 45 31 37 46 -134 0
32 40 33 45 31 37 46 -131 0
32 40 33 45 31 37 46 -133 0
32 40 33 45 42 37 46 -132 0
32 40 33 45 42 37 46 -134 0
32 40 33 45 42 37 46 -131 0
32 40 33 45 42 37 46 -133 0
32 40 33 31 42 37 46 -132 0
32 40 33 31 42 37 46 -134 0
32 40 33 31 42 37 46 -131 0
32 40 33 31 42 37 46 -133 0
32 40 45 31 42 37 46 -132 0
32 40 45 31 42 37 46 -134 0
32 40 45 31 42 37 46 -131 0
32 40 45 31 42 37 46 -133 0
32 61 33 60 31 59 37 -141 0
32 61 33 60 31 59 37 -142 0
32 61 33 60 31 59 37 -140 0
32 61 33 60 31 59 37 -139 0
32 22 33 20 31 19 37 -97 0
32 22 33 20 31 19 37 -95 0
32 22 33 20 31 19 37 -96 0
32 22 33 20 31 19 37 -98 0
32 50 33 49 31 52 37 -136 0
32 50 33 49 31 52 37 -137 0
32 50 33 49 31 52 37 -135 0
32 50 33 49 31 52 37 -138 0
32 28 33 25 31 23 37 -116 0
32 28 33 25 31 23 37 -114 0
32 28 33 25 31 23 37 -113 0
32 28 33 25 31 23 37 -115 0
32 4 33 1 31 6 37 -34 0
32 4 33 1 31 6 37 -35 0
32 4 33 1 31 6 37 -36 0
32 4 33 1 31 6 37 -38 0
32 33 8 31 12 37 9 -75 0
32 33 8 31 12 37 9 -76 0
32 33 8 31 12 37 9 -74 0
32 33 8 31 12 37 9 -73 0
32 33 45 31 42 37 46 -132 0
32 33 45 31 42 37 46 -134 0
32 33 45 31 42 37 46 -131 0
32 33 45 31 42 37 46 -133 0
13 40 8 45 12 42 9 -79 0
13 40 8 45 12 42 9 -78 0
13 40 8 45 12 42 9 -80 0
13 40 8 45 12 42 9 -77 0
13 40 8 45 12 42 46 -79 0
13 40 8 45 12 42 46 -78 0
13 40 8 45 12 42 46 -80 0
13 40 8 45 12 42 46 -77 0
13 40 8 45 12 9 46 -79 0
13 40 8 45 12 9 46 -78 0
13 40 8 45 12 9 46 -80 0
13 40 8 45 12 9 46 -77 0
13 40 8 45 42 9 46 -79 0
13 40 8 45 42 9 46 -78 0
13 40 8 45 42 9 46 -80 0
13 40 8 45 42 9 46 -77 0
13 40 8 12 42 9 46 -79 0
13 40 8 12 42 9 46 -78 0
13 40 8 12 42 9 46 -80 0
13 40 8 12 42 9 46 -77 0
13 40 45 12 42 9 46 -79 0
13 40 45 12 42 9 46 -78 0
13 40 45 12 42 9 46 -80 0
13 40 45 12 42 9 46 -77 0
13 61 8 60 12 59 9 -86 0
13 61 8 60 12 59 9 -88 0
13 61 8 60 12 59 9 -87 0
13 61 8 60 12 59 9 -85 0
13 22 8 20 12 19 9 -65 0
13 22 8 20 12 19 9 -66 0
13 22 8 20 12 19 9 -68 0
13 22 8 20 12 19 9 -67 0
13 50 8 49 12 52 9 -83 0
13 50 8 49 12 52 9 -81 0
13 50 8 49 12 52 9 -84 0
13 50 8 49 12 52 9 -82 0
13 28 8 25 12 23 9 -69 0
13 28 8 25 12 23 9 -70 0
13 28 8 25 12 23 9 -72 0
13 28 8 25 12 23 9 -71 0
13 4 8 1 12 6 9 -7 0
13 4 8 1 12 6 9 -10 0
13 4 8 1 12 6 9 -14 0
13 4 8 1 12 6 9 -11 0
13 33 8 31 12 37 9 -75 0
13 33 8 31 12 37 9 -76 0
13 33 8 31 12 37 9 -74 0
13 33 8 31 12 37 9 -73 0
13 8 45 12 42 9 46 -79 0
13 8 45 12 42 9 46 -78 0
13 8 45 12 42 9 46 -80 0
13 8 45 12 42 9 46 -77 0
40 61 45 60 42 59 46 -152 0
40 61 45 60 42 59 46 -149 0
40 61 45 60 42 59 46 -150 0
40 61 45 60 42 59 46 -151 0
40 22 45 20 42 19 46 -102 0
40 22 45 20 42 19 46 -100 0
40 22 45 20 42 19 46 -101 0
40 22 45 20 42 19 46 -99 0
40 50 45 49 42 52 46 -146 0
40 50 45 49 42 52 46 -147 0
40 50 45 49 42 52 46 -148 0
40 50 45 49 42 52 46 -145 0
40 28 45 25 42 23 46 -117 0
40 28 45 25 42 23 46 -118 0
40 28 45 25 42 23 46 -119 0
40 28 45 25 42 23 46 -120 0
40 4 45 1 42 6 46 -39 0
40 4 45 1 42 6 46 -44 0
40 4 45 1 42 6 46 -41 0
40 4 45 1 42 6 46 -43 0
40 33 45 31 42 37 46 -132 0
40 33 45 31 42 37 46 -134 0
40 33 45 31 42 37 46 -131 0
40 33 45 31 42 37 46 -133 0
40 8 45 12 42 9 46 -79 0
40 8 45 12 42 9 46 -78 0
40 8 45 12 42 9 46 -80 0
40 8 45 12 42 9 46 -77 0
62 16 61 22 60 20 59 19 -109 0
62 16 61 22 60 20 59 19 -108 0
62 16 61 22 60 20 59 19 -110 0
62 16 61 22 60 20 59 19 -107 0
62 47 61 50 60 49 59 52 -155 0
62 47 61 50 60 49 59 52 -158 0
62 47 61 50 60 49 59 52 -156 0
62 47 61 50 60 49 59 52 -157 0
62 26 61 28 60 25 59 23 -125 0
62 26 61 28 60 25 59 23 -128 0
62 26 61 28 60 25 59 23 -126 0
62 26 61 28 60 25 59 23 -127 0
62 2 61 4 60 1 59 6 -56 0
62 2 61 4 60 1 59 6 -57 0
62 2 61 4 60 1 59 6 -55 0
62 2 61 4 60 1 59 6 -58 0
62 32 61 33 60 31 59 37 -141 0
62 32 61 33 60 31 59 37 -142 0
62 32 61 33 60 31 59 37 -140 0
62 32 61 33 60 31 59 37 -139 0
62 13 61 8 60 12 59 9 -86 0
62 13 61 8 60 12 59 9 -88 0
62 13 61 8 60 12 59 9 -87 0
62 13 61 8 60 12 59 9 -85 0
62 40 61 45 60 42 59 46 -152 0
62 40 61 45 60 42 59 46 -149 0
62 40 61 45 60 42 59 46 -150 0
62 40 61 45 60 42 59 46 -151 0
16 47 22 50 20 49 19 52 -105 0
16 47 22 50 20 49 19 52 -103 0
16 47 22 50 20 49 19 52 -104 0
16 47 22 50 20 49 19 52 -106 0
16 26 22 28 20 25 19 23 -92 0
16 26 22 28 20 25 19 23 -94 0
16 26 22 28 20 25 19 23 -91 0
16 26 22 28 20 25 19 23 -93 0
16 2 22 4 20 1 19 6 -21 0
16 2 22 4 20 1 19 6 -15 0
16 2 22 4 20 1 19 6 -18 0
16 2 22 4 20 1 19 6 -17 0
16 32 22 33 20 31 19 37 -97 0
16 32 22 33 20 31 19 37 -95 0
16 32 22 33 20 31 19 37 -96 0
16 32 22 33 20 31 19 37 -98 0
16 13 22 8 20 12 19 9 -65 0
16 13 22 8 20 12 19 9 -66 0
16 13 22 8 20 12 19 9 -68 0
16 13 22 8 20 12 19 9 -67 0
16 40 22 45 20 42 19 46 -102 0
16 40 22 45 20 42 19 46 -100 0
16 40 22 45 20 42 19 46 -101 0
16 40 22 45 20 42 19 46 -99 0
47 26 50 28 49 25 52 23 -122 0
47 26 50 28 49 25 52 23 -121 0
47 26 50 28 49 25 52 23 -124 0
47 26 50 28 49 25 52 23 -123 0
47 2 50 4 49 1 52 6 -51 0
47 2 50 4 49 1 52 6 -54 0
47 2 50 4 49 1 52 6 -53 0
47 2 50 4 49 1 52 6 -48 0
47 32 50 33 49 31 52 37 -136 0
47 32 50 33 49 31 52 37 -137 0
47 32 50 33 49 31 52 37 -135 0
47 32 50 33 49 31 52 37 -138 0
47 13 50 8 49 12 52 9 -83 0
47 13 50 8 49 12 52 9 -81 0
47 13 50 8 49 12 52 9 -84 0
47 13 50 8 49 12 52 9 -82 0
47 40 50 45 49 42 52 46 -146 0
47 40 50 45 49 42 52 46 -147 0
47 40 50 45 49 42 52 46 -148 0
47 40 50 45 49 42 52 46 -145 0
26 2 28 4 25 1 23 6 -24 0
26 2 28 4 25 1 23 6 -30 0
26 2 28 4 25 1 23 6 -29 0
26 2 28 4 25 1 23 6 -27 0
26 32 28 33 25 31 23 37 -116 0
26 32 28 33 25 31 23 37 -114 0
26 32 28 33 25 31 23 37 -113 0
26 32 28 33 25 31 23 37 -115 0
26 13 28 8 25 12 23 9 -69 0
26 13 28 8 25 12 23 9 -70 0
26 13 28 8 25 12 23 9 -72 0
26 13 28 8 25 12 23 9 -71 0
26 40 28 45 25 42 23 46 -117 0
26 40 28 45 25 42 23 46 -118 0
26 40 28 45 25 42 23 46 -119 0
26 40 28 45 25 42 23 46 -120 0
2 32 4 33 1 31 6 37 -34 0
2 32 4 33 1 31 6 37 -35 0
2 32 4 33 1 31 6 37 -36 0
2 32 4 33 1 31 6 37 -38 0
2 13 4 8 1 12 6 9 -7 0
2 13 4 8 1 12 6 9 -10 0
2 13 4 8 1 12 6 9 -14 0
2 13 4 8 1 12 6 9 -11 0
2 40 4 45 1 42 6 46 -39 0
2 40 4 45 1 42 6 46 -44 0
2 40 4 45 1 42 6 46 -41 0
2 40 4 45 1 42 6 46 -43 0
32 13 33 8 31 12 37 9 -75 0
32 13 33 8 31 12 37 9 -76 0
32 13 33 8 31 12 37 9 -74 0
32 13 33 8 31 12 37 9 -73 0
32 40 33 45 31 42 37 46 -132 0
32 40 33 45 31 42 37 46 -134 0
32 40 33 45 31 42 37 46 -131 0
32 40 33 45 31 42 37 46 -133 0
13 40 8 45 12 42 9 46 -79 0
13 40 8 45 12 42 9 46 -78 0
13 40 8 45 12 42 9 46 -80 0
13 40 8 45 12 42 9 46 -77 0
