c E(8,8) E(0,0) E(0,8) E(8,0) E(3,3) E(8,3) E(3,8) E(6,6) E(6,8) E(8,6) E(2,8) E(8,2) E(2,2) E(7,7) E(8,7) E(7,8) E(4,8) E(8,4) E(4,4) E(8,9) E(9,9) E(9,8) E(1,1) E(8,1) E(1,8) E(5,5) E(8,5) E(5,8) E(3,0) E(0,3) E(0,6) E(6,0) E(2,0) E(0,2) E(0,7) E(7,0) E(0,4) E(4,0) E(0,9) E(9,0) E(1,0) E(0,1) E(0,5) E(5,0) E(3,6) E(6,3) E(3,2) E(2,3) E(7,3) E(3,7) E(4,3) E(3,4) E(3,9) E(9,3) E(3,1) E(1,3) E(3,5) E(5,3) E(2,6) E(6,2) E(6,7) E(7,6) E(4,6) E(6,4) E(9,6) E(6,9) E(6,1) E(1,6) E(5,6) E(6,5) E(2,7) E(7,2) E(2,4) E(4,2) E(2,9) E(9,2) E(1,2) E(2,1) E(5,2) E(2,5) E(4,7) E(7,4) E(7,9) E(9,7) E(7,1) E(1,7) E(5,7) E(7,5) E(4,9) E(9,4) E(1,4) E(4,1) E(4,5) E(5,4) E(1,9) E(9,1) E(9,5) E(5,9) E(5,1) E(1,5) D(8) D(0) D(3) D(6) D(2) D(7) D(4) D(9) D(1) D(5)
c 1 2 3 4 5 6 7 8 9 10 11 12 13 14 15 16 17 18 19 20 21 22 23 24 25 26 27 28 29 30 31 32 33 34 35 36 37 38 39 40 41 42 43 44 45 46 47 48 49 50 51 52 53 54 55 56 57 58 59 60 61 62 63 64 65 66 67 68 69 70 71 72 73 74 75 76 77 78 79 80 81 82 83 84 85 86 87 88 89 90 91 92 93 94 95 96 97 98 99 100 101 102 103 104 105 106 107 108 109 110
p cnf 110 10341
-2 0
-23 0
-13 0
-5 0
-19 0
-26 0
-8 0
-14 0
-1 0
-21 0
2 -2 0
42 -41 0
34 -33 0
30 -29 0
37 -38 0
43 -44 0
31 -32 0
35 -36 0
3 -4 0
39 -40 0
41 -42 0
23 -23 0
77 -78 0
56 -55 0
91 -92 0
100 -99 0
68 -67 0
86 -85 0
25 -24 0
95 -96 0
33 -34 0
78 -77 0
13 -13 0
48 -47 0
73 -74 0
80 -79 0
59 -60 0
71 -72 0
11 -12 0
75 -76 0
29 -30 0
55 -56 0
47 -48 0
5 -5 0
52 -51 0
57 -58 0
45 -46 0
50 -49 0
7 -6 0
53 -54 0
38 -37 0
92 -91 0
74 -73 0
51 -52 0
19 -19 0
93 -94 0
63 -64 0
81 -82 0
17 -18 0
89 -90 0
44 -43 0
99 -100 0
79 -80 0
58 -57 0
94 -93 0
26 -26 0
69 -70 0
87 -88 0
28 -27 0
98 -97 0
32 -31 0
67 -68 0
60 -59 0
46 -45 0
64 -63 0
70 -69 0
8 -8 0
61 -62 0
9 -10 0
66 -65 0
36 -35 0
85 -86 0
72 -71 0
49 -50 0
82 -81 0
88 -87 0
62 -61 0
14 -14 0
16 -15 0
83 -84 0
4 -3 0
24 -25 0
12 -11 0
6 -7 0
18 -17 0
27 -28 0
10 -9 0
15 -16 0
1 -1 0
20 -22 0
40 -39 0
96 -95 0
76 -75 0
54 -53 0
90 -89 0
97 -98 0
65 -66 0
84 -83 0
22 -20 0
21 -21 0
102 109 105 103 107 110 104 106 101 108 0
102 109 105 103 107 110 104 106 101 39 0
102 109 105 103 107 110 104 106 101 95 0
102 109 105 103 107 110 104 106 101 75 0
102 109 105 103 107 110 104 106 101 53 0
102 109 105 103 107 110 104 106 101 89 0
102 109 105 103 107 110 104 106 101 98 0
102 109 105 103 107 110 104 106 101 66 0
102 109 105 103 107 110 104 106 101 83 0
102 109 105 103 107 110 104 106 101 20 0
102 109 105 103 107 110 104 106 108 3 0
102 109 105 103 107 110 104 106 108 25 0
102 109 105 103 107 110 104 106 108 11 0
102 109 105 103 107 110 104 106 108 7 0
102 109 105 103 107 110 104 106 108 17 0
102 109 105 103 107 110 104 106 108 28 0
102 109 105 103 107 110 104 106 108 9 0
102 109 105 103 107 110 104 106 108 16 0
102 109 105 103 107 110 104 106 108 22 0
102 109 105 103 107 110 104 106 3 39 0
102 109 105 103 107 110 104 106 25 95 0
102 109 105 103 107 110 104 106 11 75 0
102 109 105 103 107 110 104 106 7 53 0
102 109 105 103 107 110 104 106 17 89 0
102 109 105 103 107 110 104 106 28 98 0
102 109 105 103 107 110 104 106 9 66 0
102 109 105 103 107 110 104 106 16 83 0
102 109 105 103 107 110 104 101 108 35 0
102 109 105 103 107 110 104 101 108 86 0
102 109 105 103 107 110 104 101 108 71 0
102 109 105 103 107 110 104 101 108 50 0
102 109 105 103 107 110 104 101 108 81 0
102 109 105 103 107 110 104 101 108 87 0
102 109 105 103 107 110 104 101 108 61 0
102 109 105 103 107 110 104 101 108 15 0
102 109 105 103 107 110 104 101 108 84 0
102 109 105 103 107 110 104 101 35 39 0
102 109 105 103 107 110 104 101 86 95 0
102 109 105 103 107 110 104 101 71 75 0
102 109 105 103 107 110 104 101 50 53 0
102 109 105 103 107 110 104 101 81 89 0
102 109 105 103 107 110 104 101 87 98 0
102 109 105 103 107 110 104 101 61 66 0
102 109 105 103 107 110 104 101 15 20 0
102 109 105 103 107 110 104 108 35 3 0
102 109 105 103 107 110 104 108 86 25 0
102 109 105 103 107 110 104 108 71 11 0
102 109 105 103 107 110 104 108 50 7 0
102 109 105 103 107 110 104 108 81 17 0
102 109 105 103 107 110 104 108 87 28 0
102 109 105 103 107 110 104 108 61 9 0
102 109 105 103 107 110 104 108 84 22 0
102 109 105 103 107 110 104 35 3 39 0
102 109 105 103 107 110 104 86 25 95 0
102 109 105 103 107 110 104 71 11 75 0
102 109 105 103 107 110 104 50 7 53 0
102 109 105 103 107 110 104 81 17 89 0
102 109 105 103 107 110 104 87 28 98 0
102 109 105 103 107 110 104 61 9 66 0
102 109 105 103 107 110 106 101 108 31 0
102 109 105 103 107 110 106 101 108 68 0
102 109 105 103 107 110 106 101 108 59 0
102 109 105 103 107 110 106 101 108 45 0
102 109 105 103 107 110 106 101 108 63 0
102 109 105 103 107 110 106 101 108 69 0
102 109 105 103 107 110 106 101 108 62 0
102 109 105 103 107 110 106 101 108 10 0
102 109 105 103 107 110 106 101 108 65 0
102 109 105 103 107 110 106 101 31 39 0
102 109 105 103 107 110 106 101 68 95 0
102 109 105 103 107 110 106 101 59 75 0
102 109 105 103 107 110 106 101 45 53 0
102 109 105 103 107 110 106 101 63 89 0
102 109 105 103 107 110 106 101 69 98 0
102 109 105 103 107 110 106 101 62 83 0
102 109 105 103 107 110 106 101 10 20 0
102 109 105 103 107 110 106 108 31 3 0
102 109 105 103 107 110 106 108 68 25 0
102 109 105 103 107 110 106 108 59 11 0
102 109 105 103 107 110 106 108 45 7 0
102 109 105 103 107 110 106 108 63 17 0
102 109 105 103 107 110 106 108 69 28 0
102 109 105 103 107 110 106 108 62 16 0
102 109 105 103 107 110 106 108 65 22 0
102 109 105 103 107 110 106 31 3 39 0
102 109 105 103 107 110 106 68 25 95 0
102 109 105 103 107 110 106 59 11 75 0
102 109 105 103 107 110 106 45 7 53 0
102 109 105 103 107 110 106 63 17 89 0
102 109 105 103 107 110 106 69 28 98 0
102 109 105 103 107 110 106 62 16 83 0
102 109 105 103 107 110 101 108 31 35 0
102 109 105 103 107 110 101 108 68 86 0
102 109 105 103 107 110 101 108 59 71 0
102 109 105 103 107 110 101 108 45 50 0
102 109 105 103 107 110 101 108 63 81 0
102 109 105 103 107 110 101 108 69 87 0
102 109 105 103 107 110 101 108 10 15 0
102 109 105 103 107 110 101 108 65 84 0
102 109 105 103 107 110 101 31 35 39 0
102 109 105 103 107 110 101 68 86 95 0
102 109 105 103 107 110 101 59 71 75 0
102 109 105 103 107 110 101 45 50 53 0
102 109 105 103 107 110 101 63 81 89 0
102 109 105 103 107 110 101 69 87 98 0
102 109 105 103 107 110 101 10 15 20 0
102 109 105 103 107 110 108 31 35 3 0
102 109 105 103 107 110 108 68 86 25 0
102 109 105 103 107 110 108 59 71 11 0
102 109 105 103 107 110 108 45 50 7 0
102 109 105 103 107 110 108 63 81 17 0
102 109 105 103 107 110 108 69 87 28 0
102 109 105 103 107 110 108 65 84 22 0
102 109 105 103 107 110 31 35 3 39 0
102 109 105 103 107 110 68 86 25 95 0
102 109 105 103 107 110 59 71 11 75 0
102 109 105 103 107 110 45 50 7 53 0
102 109 105 103 107 110 63 81 17 89 0
102 109 105 103 107 110 69 87 28 98 0
102 109 105 103 107 104 106 101 108 43 0
102 109 105 103 107 104 106 101 108 100 0
102 109 105 103 107 104 106 101 108 80 0
102 109 105 103 107 104 106 101 108 57 0
102 109 105 103 107 104 106 101 108 93 0
102 109 105 103 107 104 106 101 108 70 0
102 109 105 103 107 104 106 101 108 88 0
102 109 105 103 107 104 106 101 108 27 0
102 109 105 103 107 104 106 101 108 97 0
102 109 105 103 107 104 106 101 43 39 0
102 109 105 103 107 104 106 101 100 95 0
102 109 105 103 107 104 106 101 80 75 0
102 109 105 103 107 104 106 101 57 53 0
102 109 105 103 107 104 106 101 93 89 0
102 109 105 103 107 104 106 101 70 66 0
102 109 105 103 107 104 106 101 88 83 0
102 109 105 103 107 104 106 101 27 20 0
102 109 105 103 107 104 106 108 43 3 0
102 109 105 103 107 104 106 108 100 25 0
102 109 105 103 107 104 106 108 80 11 0
102 109 105 103 107 104 106 108 57 7 0
102 109 105 103 107 104 106 108 93 17 0
102 109 105 103 107 104 106 108 70 9 0
102 109 105 103 107 104 106 108 88 16 0
102 109 105 103 107 104 106 108 97 22 0
102 109 105 103 107 104 106 43 3 39 0
102 109 105 103 107 104 106 100 25 95 0
102 109 105 103 107 104 106 80 11 75 0
102 109 105 103 107 104 106 57 7 53 0
102 109 105 103 107 104 106 93 17 89 0
102 109 105 103 107 104 106 70 9 66 0
102 109 105 103 107 104 106 88 16 83 0
102 109 105 103 107 104 101 108 43 35 0
102 109 105 103 107 104 101 108 100 86 0
102 109 105 103 107 104 101 108 80 71 0
102 109 105 103 107 104 101 108 57 50 0
102 109 105 103 107 104 101 108 93 81 0
102 109 105 103 107 104 101 108 70 61 0
102 109 105 103 107 104 101 108 27 15 0
102 109 105 103 107 104 101 108 97 84 0
102 109 105 103 107 104 101 43 35 39 0
102 109 105 103 107 104 101 100 86 95 0
102 109 105 103 107 104 101 80 71 75 0
102 109 105 103 107 104 101 57 50 53 0
102 109 105 103 107 104 101 93 81 89 0
102 109 105 103 107 104 101 70 61 66 0
102 109 105 103 107 104 101 27 15 20 0
102 109 105 103 107 104 108 43 35 3 0
102 109 105 103 107 104 108 100 86 25 0
102 109 105 103 107 104 108 80 71 11 0
102 109 105 103 107 104 108 57 50 7 0
102 109 105 103 107 104 108 93 81 17 0
102 109 105 103 107 104 108 70 61 9 0
102 109 105 103 107 104 108 97 84 22 0
102 109 105 103 107 104 43 35 3 39 0
102 109 105 103 107 104 100 86 25 95 0
102 109 105 103 107 104 80 71 11 75 0
102 109 105 103 107 104 57 50 7 53 0
102 109 105 103 107 104 93 81 17 89 0
102 109 105 103 107 104 70 61 9 66 0
102 109 105 103 107 106 101 108 43 31 0
102 109 105 103 107 106 101 108 100 68 0
102 109 105 103 107 106 101 108 80 59 0
102 109 105 103 107 106 101 108 57 45 0
102 109 105 103 107 106 101 108 93 63 0
102 109 105 103 107 106 101 108 88 62 0
102 109 105 103 107 106 101 108 27 10 0
102 109 105 103 107 106 101 108 97 65 0
102 109 105 103 107 106 101 43 31 39 0
102 109 105 103 107 106 101 100 68 95 0
102 109 105 103 107 106 101 80 59 75 0
102 109 105 103 107 106 101 57 45 53 0
102 109 105 103 107 106 101 93 63 89 0
102 109 105 103 107 106 101 88 62 83 0
102 109 105 103 107 106 101 27 10 20 0
102 109 105 103 107 106 108 43 31 3 0
102 109 105 103 107 106 108 100 68 25 0
102 109 105 103 107 106 108 80 59 11 0
102 109 105 103 107 106 108 57 45 7 0
102 109 105 103 107 106 108 93 63 17 0
102 109 105 103 107 106 108 88 62 16 0
102 109 105 103 107 106 108 97 65 22 0
102 109 105 103 107 106 43 31 3 39 0
102 109 105 103 107 106 100 68 25 95 0
102 109 105 103 107 106 80 59 11 75 0
102 109 105 103 107 106 57 45 7 53 0
102 109 105 103 107 106 93 63 17 89 0
102 109 105 103 107 106 88 62 16 83 0
102 109 105 103 107 101 108 43 31 35 0
102 109 105 103 107 101 108 100 68 86 0
102 109 105 103 107 101 108 80 59 71 0
102 109 105 103 107 101 108 57 45 50 0
102 109 105 103 107 101 108 93 63 81 0
102 109 105 103 107 101 108 27 10 15 0
102 109 105 103 107 101 108 97 65 84 0
102 109 105 103 107 101 43 31 35 39 0
102 109 105 103 107 101 100 68 86 95 0
102 109 105 103 107 101 80 59 71 75 0
102 109 105 103 107 101 57 45 50 53 0
102 109 105 103 107 101 93 63 81 89 0
102 109 105 103 107 101 27 10 15 20 0
102 109 105 103 107 108 43 31 35 3 0
102 109 105 103 107 108 100 68 86 25 0
102 109 105 103 107 108 80 59 71 11 0
102 109 105 103 107 108 57 45 50 7 0
102 109 105 103 107 108 93 63 81 17 0
102 109 105 103 107 108 97 65 84 22 0
102 109 105 103 107 43 31 35 3 39 0
102 109 105 103 107 100 68 86 25 95 0
102 109 105 103 107 80 59 71 11 75 0
102 109 105 103 107 57 45 50 7 53 0
102 109 105 103 107 93 63 81 17 89 0
102 109 105 103 110 104 106 101 108 37 0
102 109 105 103 110 104 106 101 108 91 0
102 109 105 103 110 104 106 101 108 73 0
102 109 105 103 110 104 106 101 108 52 0
102 109 105 103 110 104 106 101 108 94 0
102 109 105 103 110 104 106 101 108 64 0
102 109 105 103 110 104 106 101 108 82 0
102 109 105 103 110 104 106 101 108 18 0
102 109 105 103 110 104 106 101 108 90 0
102 109 105 103 110 104 106 101 37 39 0
102 109 105 103 110 104 106 101 91 95 0
102 109 105 103 110 104 106 101 73 75 0
102 109 105 103 110 104 106 101 52 53 0
102 109 105 103 110 104 106 101 94 98 0
102 109 105 103 110 104 106 101 64 66 0
102 109 105 103 110 104 106 101 82 83 0
102 109 105 103 110 104 106 101 18 20 0
102 109 105 103 110 104 106 108 37 3 0
102 109 105 103 110 104 106 108 91 25 0
102 109 105 103 110 104 106 108 73 11 0
102 109 105 103 110 104 106 108 52 7 0
102 109 105 103 110 104 106 108 94 28 0
102 109 105 103 110 104 106 108 64 9 0
102 109 105 103 110 104 106 108 82 16 0
102 109 105 103 110 104 106 108 90 22 0
102 109 105 103 110 104 106 37 3 39 0
102 109 105 103 110 104 106 91 25 95 0
102 109 105 103 110 104 106 73 11 75 0
102 109 105 103 110 104 106 52 7 53 0
102 109 105 103 110 104 106 94 28 98 0
102 109 105 103 110 104 106 64 9 66 0
102 109 105 103 110 104 106 82 16 83 0
102 109 105 103 110 104 101 108 37 35 0
102 109 105 103 110 104 101 108 91 86 0
102 109 105 103 110 104 101 108 73 71 0
102 109 105 103 110 104 101 108 52 50 0
102 109 105 103 110 104 101 108 94 87 0
102 109 105 103 110 104 101 108 64 61 0
102 109 105 103 110 104 101 108 18 15 0
102 109 105 103 110 104 101 108 90 84 0
102 109 105 103 110 104 101 37 35 39 0
102 109 105 103 110 104 101 91 86 95 0
102 109 105 103 110 104 101 73 71 75 0
102 109 105 103 110 104 101 52 50 53 0
102 109 105 103 110 104 101 94 87 98 0
102 109 105 103 110 104 101 64 61 66 0
102 109 105 103 110 104 101 18 15 20 0
102 109 105 103 110 104 108 37 35 3 0
102 109 105 103 110 104 108 91 86 25 0
102 109 105 103 110 104 108 73 71 11 0
102 109 105 103 110 104 108 52 50 7 0
102 109 105 103 110 104 108 94 87 28 0
102 109 105 103 110 104 108 64 61 9 0
102 109 105 103 110 104 108 90 84 22 0
102 109 105 103 110 104 37 35 3 39 0
102 109 105 103 110 104 91 86 25 95 0
102 109 105 103 110 104 73 71 11 75 0
102 109 105 103 110 104 52 50 7 53 0
102 109 105 103 110 104 94 87 28 98 0
102 109 105 103 110 104 64 61 9 66 0
102 109 105 103 110 106 101 108 37 31 0
102 109 105 103 110 106 101 108 91 68 0
102 109 105 103 110 106 101 108 73 59 0
102 109 105 103 110 106 101 108 52 45 0
102 109 105 103 110 106 101 108 94 69 0
102 109 105 103 110 106 101 108 82 62 0
102 109 105 103 110 106 101 108 18 10 0
102 109 105 103 110 106 101 108 90 65 0
102 109 105 103 110 106 101 37 31 39 0
102 109 105 103 110 106 101 91 68 95 0
102 109 105 103 110 106 101 73 59 75 0
102 109 105 103 110 106 101 52 45 53 0
102 109 105 103 110 106 101 94 69 98 0
102 109 105 103 110 106 101 82 62 83 0
102 109 105 103 110 106 101 18 10 20 0
102 109 105 103 110 106 108 37 31 3 0
102 109 105 103 110 106 108 91 68 25 0
102 109 105 103 110 106 108 73 59 11 0
102 109 105 103 110 106 108 52 45 7 0
102 109 105 103 110 106 108 94 69 28 0
102 109 105 103 110 106 108 82 62 16 0
102 109 105 103 110 106 108 90 65 22 0
102 109 105 103 110 106 37 31 3 39 0
102 109 105 103 110 106 91 68 25 95 0
102 109 105 103 110 106 73 59 11 75 0
102 109 105 103 110 106 52 45 7 53 0
102 109 105 103 110 106 94 69 28 98 0
102 109 105 103 110 106 82 62 16 83 0
102 109 105 103 110 101 108 37 31 35 0
102 109 105 103 110 101 108 91 68 86 0
102 109 105 103 110 101 108 73 59 71 0
102 109 105 103 110 101 108 52 45 50 0
102 109 105 103 110 101 108 94 69 87 0
102 109 105 103 110 101 108 18 10 15 0
102 109 105 103 110 101 108 90 65 84 0
102 109 105 103 110 101 37 31 35 39 0
102 109 105 103 110 101 91 68 86 95 0
102 109 105 103 110 101 73 59 71 75 0
102 109 105 103 110 101 52 45 50 53 0
102 109 105 103 110 101 94 69 87 98 0
102 109 105 103 110 101 18 10 15 20 0
102 109 105 103 110 108 37 31 35 3 0
102 109 105 103 110 108 91 68 86 25 0
102 109 105 103 110 108 73 59 71 11 0
102 109 105 103 110 108 52 45 50 7 0
102 109 105 103 110 108 94 69 87 28 0
102 109 105 103 110 108 90 65 84 22 0
102 109 105 103 110 37 31 35 3 39 0
102 109 105 103 110 91 68 86 25 95 0
102 109 105 103 110 73 59 71 11 75 0
102 109 105 103 110 52 45 50 7 53 0
102 109 105 103 110 94 69 87 28 98 0
102 109 105 103 104 106 101 108 37 43 0
102 109 105 103 104 106 101 108 91 100 0
102 109 105 103 104 106 101 108 73 80 0
102 109 105 103 104 106 101 108 52 57 0
102 109 105 103 104 106 101 108 64 70 0
102 109 105 103 104 106 101 108 82 88 0
102 109 105 103 104 106 101 108 18 27 0
102 109 105 103 104 106 101 108 90 97 0
102 109 105 103 104 106 101 37 43 39 0
102 109 105 103 104 106 101 91 100 95 0
102 109 105 103 104 106 101 73 80 75 0
102 109 105 103 104 106 101 52 57 53 0
102 109 105 103 104 106 101 64 70 66 0
102 109 105 103 104 106 101 82 88 83 0
102 109 105 103 104 106 101 18 27 20 0
102 109 105 103 104 106 108 37 43 3 0
102 109 105 103 104 106 108 91 100 25 0
102 109 105 103 104 106 108 73 80 11 0
102 109 105 103 104 106 108 52 57 7 0
102 109 105 103 104 106 108 64 70 9 0
102 109 105 103 104 106 108 82 88 16 0
102 109 105 103 104 106 108 90 97 22 0
102 109 105 103 104 106 37 43 3 39 0
102 109 105 103 104 106 91 100 25 95 0
102 109 105 103 104 106 73 80 11 75 0
102 109 105 103 104 106 52 57 7 53 0
102 109 105 103 104 106 64 70 9 66 0
102 109 105 103 104 106 82 88 16 83 0
102 109 105 103 104 101 108 37 43 35 0
102 109 105 103 104 101 108 91 100 86 0
102 109 105 103 104 101 108 73 80 71 0
102 109 105 103 104 101 108 52 57 50 0
102 109 105 103 104 101 108 64 70 61 0
102 109 105 103 104 101 108 18 27 15 0
102 109 105 103 104 101 108 90 97 84 0
102 109 105 103 104 101 37 43 35 39 0
102 109 105 103 104 101 91 100 86 95 0
102 109 105 103 104 101 73 80 71 75 0
102 109 105 103 104 101 52 57 50 53 0
102 109 105 103 104 101 64 70 61 66 0
102 109 105 103 104 101 18 27 15 20 0
102 109 105 103 104 108 37 43 35 3 0
102 109 105 103 104 108 91 100 86 25 0
102 109 105 103 104 108 73 80 71 11 0
102 109 105 103 104 108 52 57 50 7 0
102 109 105 103 104 108 64 70 61 9 0
102 109 105 103 104 108 90 97 84 22 0
102 109 105 103 104 37 43 35 3 39 0
102 109 105 103 104 91 100 86 25 95 0
102 109 105 103 104 73 80 71 11 75 0
102 109 105 103 104 52 57 50 7 53 0
102 109 105 103 104 64 70 61 9 66 0
102 109 105 103 106 101 108 37 43 31 0
102 109 105 103 106 101 108 91 100 68 0
102 109 105 103 106 101 108 73 80 59 0
102 109 105 103 106 101 108 52 57 45 0
102 109 105 103 106 101 108 82 88 62 0
102 109 105 103 106 101 108 18 27 10 0
102 109 105 103 106 101 108 90 97 65 0
102 109 105 103 106 101 37 43 31 39 0
102 109 105 103 106 101 91 100 68 95 0
102 109 105 103 106 101 73 80 59 75 0
102 109 105 103 106 101 52 57 45 53 0
102 109 105 103 106 101 82 88 62 83 0
102 109 105 103 106 101 18 27 10 20 0
102 109 105 103 106 108 37 43 31 3 0
102 109 105 103 106 108 91 100 68 25 0
102 109 105 103 106 108 73 80 59 11 0
102 109 105 103 106 108 52 57 45 7 0
102 109 105 103 106 108 82 88 62 16 0
102 109 105 103 106 108 90 97 65 22 0
102 109 105 103 106 37 43 31 3 39 0
102 109 105 103 106 91 100 68 25 95 0
102 109 105 103 106 73 80 59 11 75 0
102 109 105 103 106 52 57 45 7 53 0
102 109 105 103 106 82 88 62 16 83 0
102 109 105 103 101 108 37 43 31 35 0
102 109 105 103 101 108 91 100 68 86 0
102 109 105 103 101 108 73 80 59 71 0
102 109 105 103 101 108 52 57 45 50 0
102 109 105 103 101 108 18 27 10 15 0
102 109 105 103 101 108 90 97 65 84 0
102 109 105 103 101 37 43 31 35 39 0
102 109 105 103 101 91 100 68 86 95 0
102 109 105 103 101 73 80 59 71 75 0
102 109 105 103 101 52 57 45 50 53 0
102 109 105 103 101 18 27 10 15 20 0
102 109 105 103 108 37 43 31 35 3 0
102 109 105 103 108 91 100 68 86 25 0
102 109 105 103 108 73 80 59 71 11 0
102 109 105 103 108 52 57 45 50 7 0
102 109 105 103 108 90 97 65 84 22 0
102 109 105 103 37 43 31 35 3 39 0
102 109 105 103 91 100 68 86 25 95 0
102 109 105 103 73 80 59 71 11 75 0
102 109 105 103 52 57 45 50 7 53 0
102 109 105 107 110 104 106 101 108 30 0
102 109 105 107 110 104 106 101 108 56 0
102 109 105 107 110 104 106 101 108 48 0
102 109 105 107 110 104 106 101 108 51 0
102 109 105 107 110 104 106 101 108 58 0
102 109 105 107 110 104 106 101 108 46 0
102 109 105 107 110 104 106 101 108 49 0
102 109 105 107 110 104 106 101 108 6 0
102 109 105 107 110 104 106 101 108 54 0
102 109 105 107 110 104 106 101 30 39 0
102 109 105 107 110 104 106 101 56 95 0
102 109 105 107 110 104 106 101 48 75 0
102 109 105 107 110 104 106 101 51 89 0
102 109 105 107 110 104 106 101 58 98 0
102 109 105 107 110 104 106 101 46 66 0
102 109 105 107 110 104 106 101 49 83 0
102 109 105 107 110 104 106 101 6 20 0
102 109 105 107 110 104 106 108 30 3 0
102 109 105 107 110 104 106 108 56 25 0
102 109 105 107 110 104 106 108 48 11 0
102 109 105 107 110 104 106 108 51 17 0
102 109 105 107 110 104 106 108 58 28 0
102 109 105 107 110 104 106 108 46 9 0
102 109 105 107 110 104 106 108 49 16 0
102 109 105 107 110 104 106 108 54 22 0
102 109 105 107 110 104 106 30 3 39 0
102 109 105 107 110 104 106 56 25 95 0
102 109 105 107 110 104 106 48 11 75 0
102 109 105 107 110 104 106 51 17 89 0
102 109 105 107 110 104 106 58 28 98 0
102 109 105 107 110 104 106 46 9 66 0
102 109 105 107 110 104 106 49 16 83 0
102 109 105 107 110 104 101 108 30 35 0
102 109 105 107 110 104 101 108 56 86 0
102 109 105 107 110 104 101 108 48 71 0
102 109 105 107 110 104 101 108 51 81 0
102 109 105 107 110 104 101 108 58 87 0
102 109 105 107 110 104 101 108 46 61 0
102 109 105 107 110 104 101 108 6 15 0
102 109 105 107 110 104 101 108 54 84 0
102 109 105 107 110 104 101 30 35 39 0
102 109 105 107 110 104 101 56 86 95 0
102 109 105 107 110 104 101 48 71 75 0
102 109 105 107 110 104 101 51 81 89 0
102 109 105 107 110 104 101 58 87 98 0
102 109 105 107 110 104 101 46 61 66 0
102 109 105 107 110 104 101 6 15 20 0
102 109 105 107 110 104 108 30 35 3 0
102 109 105 107 110 104 108 56 86 25 0
102 109 105 107 110 104 108 48 71 11 0
102 109 105 107 110 104 108 51 81 17 0
102 109 105 107 110 104 108 58 87 28 0
102 109 105 107 110 104 108 46 61 9 0
102 109 105 107 110 104 108 54 84 22 0
102 109 105 107 110 104 30 35 3 39 0
102 109 105 107 110 104 56 86 25 95 0
102 109 105 107 110 104 48 71 11 75 0
102 109 105 107 110 104 51 81 17 89 0
102 109 105 107 110 104 58 87 28 98 0
102 109 105 107 110 104 46 61 9 66 0
102 109 105 107 110 106 101 108 30 31 0
102 109 105 107 110 106 101 108 56 68 0
102 109 105 107 110 106 101 108 48 59 0
102 109 105 107 110 106 101 108 51 63 0
102 109 105 107 110 106 101 108 58 69 0
102 109 105 107 110 106 101 108 49 62 0
102 109 105 107 110 106 101 108 6 10 0
102 109 105 107 110 106 101 108 54 65 0
102 109 105 107 110 106 101 30 31 39 0
102 109 105 107 110 106 101 56 68 95 0
102 109 105 107 110 106 101 48 59 75 0
102 109 105 107 110 106 101 51 63 89 0
102 109 105 107 110 106 101 58 69 98 0
102 109 105 107 110 106 101 49 62 83 0
102 109 105 107 110 106 101 6 10 20 0
102 109 105 107 110 106 108 30 31 3 0
102 109 105 107 110 106 108 56 68 25 0
102 109 105 107 110 106 108 48 59 11 0
102 109 105 107 110 106 108 51 63 17 0
102 109 105 107 110 106 108 58 69 28 0
102 109 105 107 110 106 108 49 62 16 0
102 109 105 107 110 106 108 54 65 22 0
102 109 105 107 110 106 30 31 3 39 0
102 109 105 107 110 106 56 68 25 95 0
102 109 105 107 110 106 48 59 11 75 0
102 109 105 107 110 106 51 63 17 89 0
102 109 105 107 110 106 58 69 28 98 0
102 109 105 107 110 106 49 62 16 83 0
102 109 105 107 110 101 108 30 31 35 0
102 109 105 107 110 101 108 56 68 86 0
102 109 105 107 110 101 108 48 59 71 0
102 109 105 107 110 101 108 51 63 81 0
102 109 105 107 110 101 108 58 69 87 0
102 109 105 107 110 101 108 6 10 15 0
102 109 105 107 110 101 108 54 65 84 0
102 109 105 107 110 101 30 31 35 39 0
102 109 105 107 110 101 56 68 86 95 0
102 109 105 107 110 101 48 59 71 75 0
102 109 105 107 110 101 51 63 81 89 0
102 109 105 107 110 101 58 69 87 98 0
102 109 105 107 110 101 6 10 15 20 0
102 109 105 107 110 108 30 31 35 3 0
102 109 105 107 110 108 56 68 86 25 0
102 109 105 107 110 108 48 59 71 11 0
102 109 105 107 110 108 51 63 81 17 0
102 109 105 107 110 108 58 69 87 28 0
102 109 105 107 110 108 54 65 84 22 0
102 109 105 107 110 30 31 35 3 39 0
102 109 105 107 110 56 68 86 25 95 0
102 109 105 107 110 48 59 71 11 75 0
102 109 105 107 110 51 63 81 17 89 0
102 109 105 107 110 58 69 87 28 98 0
102 109 105 107 104 106 101 108 30 43 0
102 109 105 107 104 106 101 108 56 100 0
102 109 105 107 104 106 101 108 48 80 0
102 109 105 107 104 106 101 108 51 93 0
102 109 105 107 104 106 101 108 46 70 0
102 109 105 107 104 106 101 108 49 88 0
102 109 105 107 104 106 101 108 6 27 0
102 109 105 107 104 106 101 108 54 97 0
102 109 105 107 104 106 101 30 43 39 0
102 109 105 107 104 106 101 56 100 95 0
102 109 105 107 104 106 101 48 80 75 0
102 109 105 107 104 106 101 51 93 89 0
102 109 105 107 104 106 101 46 70 66 0
102 109 105 107 104 106 101 49 88 83 0
102 109 105 107 104 106 101 6 27 20 0
102 109 105 107 104 106 108 30 43 3 0
102 109 105 107 104 106 108 56 100 25 0
102 109 105 107 104 106 108 48 80 11 0
102 109 105 107 104 106 108 51 93 17 0
102 109 105 107 104 106 108 46 70 9 0
102 109 105 107 104 106 108 49 88 16 0
102 109 105 107 104 106 108 54 97 22 0
102 109 105 107 104 106 30 43 3 39 0
102 109 105 107 104 106 56 100 25 95 0
102 109 105 107 104 106 48 80 11 75 0
102 109 105 107 104 106 51 93 17 89 0
102 109 105 107 104 106 46 70 9 66 0
102 109 105 107 104 106 49 88 16 83 0
102 109 105 107 104 101 108 30 43 35 0
102 109 105 107 104 101 108 56 100 86 0
102 109 105 107 104 101 108 48 80 71 0
102 109 105 107 104 101 108 51 93 81 0
102 109 105 107 104 101 108 46 70 61 0
102 109 105 107 104 101 108 6 27 15 0
102 109 105 107 104 101 108 54 97 84 0
102 109 105 107 104 101 30 43 35 39 0
102 109 105 107 104 101 56 100 86 95 0
102 109 105 107 104 101 48 80 71 75 0
102 109 105 107 104 101 51 93 81 89 0
102 109 105 107 104 101 46 70 61 66 0
102 109 105 107 104 101 6 27 15 20 0
102 109 105 107 104 108 30 43 35 3 0
102 109 105 107 104 108 56 100 86 25 0
102 109 105 107 104 108 48 80 71 11 0
102 109 105 107 104 108 51 93 81 17 0
102 109 105 107 104 108 46 70 61 9 0
102 109 105 107 104 108 54 97 84 22 0
102 109 105 107 104 30 43 35 3 39 0
102 109 105 107 104 56 100 86 25 95 0
102 109 105 107 104 48 80 71 11 75 0
102 109 105 107 104 51 93 81 17 89 0
102 109 105 107 104 46 70 61 9 66 0
102 109 105 107 106 101 108 30 43 31 0
102 109 105 107 106 101 108 56 100 68 0
102 109 105 107 106 101 108 48 80 59 0
102 109 105 107 106 101 108 51 93 63 0
102 109 105 107 106 101 108 49 88 62 0
102 109 105 107 106 101 108 6 27 10 0
102 109 105 107 106 101 108 54 97 65 0
102 109 105 107 106 101 30 43 31 39 0
102 109 105 107 106 101 56 100 68 95 0
102 109 105 107 106 101 48 80 59 75 0
102 109 105 107 106 101 51 93 63 89 0
102 109 105 107 106 101 49 88 62 83 0
102 109 105 107 106 101 6 27 10 20 0
102 109 105 107 106 108 30 43 31 3 0
102 109 105 107 106 108 56 100 68 25 0
102 109 105 107 106 108 48 80 59 11 0
102 109 105 107 106 108 51 93 63 17 0
102 109 105 107 106 108 49 88 62 16 0
102 109 105 107 106 108 54 97 65 22 0
102 109 105 107 106 30 43 31 3 39 0
102 109 105 107 106 56 100 68 25 95 0
102 109 105 107 106 48 80 59 11 75 0
102 109 105 107 106 51 93 63 17 89 0
102 109 105 107 106 49 88 62 16 83 0
102 109 105 107 101 108 30 43 31 35 0
102 109 105 107 101 108 56 100 68 86 0
102 109 105 107 101 108 48 80 59 71 0
102 109 105 107 101 108 51 93 63 81 0
102 109 105 107 101 108 6 27 10 15 0
102 109 105 107 101 108 54 97 65 84 0
102 109 105 107 101 30 43 31 35 39 0
102 109 105 107 101 56 100 68 86 95 0
102 109 105 107 101 48 80 59 71 75 0
102 109 105 107 101 51 93 63 81 89 0
102 109 105 107 101 6 27 10 15 20 0
102 109 105 107 108 30 43 31 35 3 0
102 109 105 107 108 56 100 68 86 25 0
102 109 105 107 108 48 80 59 71 11 0
102 109 105 107 108 51 93 63 81 17 0
102 109 105 107 108 54 97 65 84 22 0
102 109 105 107 30 43 31 35 3 39 0
102 109 105 107 56 100 68 86 25 95 0
102 109 105 107 48 80 59 71 11 75 0
102 109 105 107 51 93 63 81 17 89 0
102 109 105 110 104 106 101 108 30 37 0
102 109 105 110 104 106 101 108 56 91 0
102 109 105 110 104 106 101 108 48 73 0
102 109 105 110 104 106 101 108 58 94 0
102 109 105 110 104 106 101 108 46 64 0
102 109 105 110 104 106 101 108 49 82 0
102 109 105 110 104 106 101 108 6 18 0
102 109 105 110 104 106 101 108 54 90 0
102 109 105 110 104 106 101 30 37 39 0
102 109 105 110 104 106 101 56 91 95 0
102 109 105 110 104 106 101 48 73 75 0
102 109 105 110 104 106 101 58 94 98 0
102 109 105 110 104 106 101 46 64 66 0
102 109 105 110 104 106 101 49 82 83 0
102 109 105 110 104 106 101 6 18 20 0
102 109 105 110 104 106 108 30 37 3 0
102 109 105 110 104 106 108 56 91 25 0
102 109 105 110 104 106 108 48 73 11 0
102 109 105 110 104 106 108 58 94 28 0
102 109 105 110 104 106 108 46 64 9 0
102 109 105 110 104 106 108 49 82 16 0
102 109 105 110 104 106 108 54 90 22 0
102 109 105 110 104 106 30 37 3 39 0
102 109 105 110 104 106 56 91 25 95 0
102 109 105 110 104 106 48 73 11 75 0
102 109 105 110 104 106 58 94 28 98 0
102 109 105 110 104 106 46 64 9 66 0
102 109 105 110 104 106 49 82 16 83 0
102 109 105 110 104 101 108 30 37 35 0
102 109 105 110 104 101 108 56 91 86 0
102 109 105 110 104 101 108 48 73 71 0
102 109 105 110 104 101 108 58 94 87 0
102 109 105 110 104 101 108 46 64 61 0
102 109 105 110 104 101 108 6 18 15 0
102 109 105 110 104 101 108 54 90 84 0
102 109 105 110 104 101 30 37 35 39 0
102 109 105 110 104 101 56 91 86 95 0
102 109 105 110 104 101 48 73 71 75 0
102 109 105 110 104 101 58 94 87 98 0
102 109 105 110 104 101 46 64 61 66 0
102 109 105 110 104 101 6 18 15 20 0
102 109 105 110 104 108 30 37 35 3 0
102 109 105 110 104 108 56 91 86 25 0
102 109 105 110 104 108 48 73 71 11 0
102 109 105 110 104 108 58 94 87 28 0
102 109 105 110 104 108 46 64 61 9 0
102 109 105 110 104 108 54 90 84 22 0
102 109 105 110 104 30 37 35 3 39 0
102 109 105 110 104 56 91 86 25 95 0
102 109 105 110 104 48 73 71 11 75 0
102 109 105 110 104 58 94 87 28 98 0
102 109 105 110 104 46 64 61 9 66 0
102 109 105 110 106 101 108 30 37 31 0
102 109 105 110 106 101 108 56 91 68 0
102 109 105 110 106 101 108 48 73 59 0
102 109 105 110 106 101 108 58 94 69 0
102 109 105 110 106 101 108 49 82 62 0
102 109 105 110 106 101 108 6 18 10 0
102 109 105 110 106 101 108 54 90 65 0
102 109 105 110 106 101 30 37 31 39 0
102 109 105 110 106 101 56 91 68 95 0
102 109 105 110 106 101 48 73 59 75 0
102 109 105 110 106 101 58 94 69 98 0
102 109 105 110 106 101 49 82 62 83 0
102 109 105 110 106 101 6 18 10 20 0
102 109 105 110 106 108 30 37 31 3 0
102 109 105 110 106 108 56 91 68 25 0
102 109 105 110 106 108 48 73 59 11 0
102 109 105 110 106 108 58 94 69 28 0
102 109 105 110 106 108 49 82 62 16 0
102 109 105 110 106 108 54 90 65 22 0
102 109 105 110 106 30 37 31 3 39 0
102 109 105 110 106 56 91 68 25 95 0
102 109 105 110 106 48 73 59 11 75 0
102 109 105 110 106 58 94 69 28 98 0
102 109 105 110 106 49 82 62 16 83 0
102 109 105 110 101 108 30 37 31 35 0
102 109 105 110 101 108 56 91 68 86 0
102 109 105 110 101 108 48 73 59 71 0
102 109 105 110 101 108 58 94 69 87 0
102 109 105 110 101 108 6 18 10 15 0
102 109 105 110 101 108 54 90 65 84 0
102 109 105 110 101 30 37 31 35 39 0
102 109 105 110 101 56 91 68 86 95 0
102 109 105 110 101 48 73 59 71 75 0
102 109 105 110 101 58 94 69 87 98 0
102 109 105 110 101 6 18 10 15 20 0
102 109 105 110 108 30 37 31 35 3 0
102 109 105 110 108 56 91 68 86 25 0
102 109 105 110 108 48 73 59 71 11 0
102 109 105 110 108 58 94 69 87 28 0
102 109 105 110 108 54 90 65 84 22 0
102 109 105 110 30 37 31 35 3 39 0
102 109 105 110 56 91 68 86 25 95 0
102 109 105 110 48 73 59 71 11 75 0
102 109 105 110 58 94 69 87 28 98 0
102 109 105 104 106 101 108 30 37 43 0
102 109 105 104 106 101 108 56 91 100 0
102 109 105 104 106 101 108 48 73 80 0
102 109 105 104 106 101 108 46 64 70 0
102 109 105 104 106 101 108 49 82 88 0
102 109 105 104 106 101 108 6 18 27 0
102 109 105 104 106 101 108 54 90 97 0
102 109 105 104 106 101 30 37 43 39 0
102 109 105 104 106 101 56 91 100 95 0
102 109 105 104 106 101 48 73 80 75 0
102 109 105 104 106 101 46 64 70 66 0
102 109 105 104 106 101 49 82 88 83 0
102 109 105 104 106 101 6 18 27 20 0
102 109 105 104 106 108 30 37 43 3 0
102 109 105 104 106 108 56 91 100 25 0
102 109 105 104 106 108 48 73 80 11 0
102 109 105 104 106 108 46 64 70 9 0
102 109 105 104 106 108 49 82 88 16 0
102 109 105 104 106 108 54 90 97 22 0
102 109 105 104 106 30 37 43 3 39 0
102 109 105 104 106 56 91 100 25 95 0
102 109 105 104 106 48 73 80 11 75 0
102 109 105 104 106 46 64 70 9 66 0
102 109 105 104 106 49 82 88 16 83 0
102 109 105 104 101 108 30 37 43 35 0
102 109 105 104 101 108 56 91 100 86 0
102 109 105 104 101 108 48 73 80 71 0
102 109 105 104 101 108 46 64 70 61 0
102 109 105 104 101 108 6 18 27 15 0
102 109 105 104 101 108 54 90 97 84 0
102 109 105 104 101 30 37 43 35 39 0
102 109 105 104 101 56 91 100 86 95 0
102 109 105 104 101 48 73 80 71 75 0
102 109 105 104 101 46 64 70 61 66 0
102 109 105 104 101 6 18 27 15 20 0
102 109 105 104 108 30 37 43 35 3 0
102 109 105 104 108 56 91 100 86 25 0
102 109 105 104 108 48 73 80 71 11 0
102 109 105 104 108 46 64 70 61 9 0
102 109 105 104 108 54 90 97 84 22 0
102 109 105 104 30 37 43 35 3 39 0
102 109 105 104 56 91 100 86 25 95 0
102 109 105 104 48 73 80 71 11 75 0
102 109 105 104 46 64 70 61 9 66 0
102 109 105 106 101 108 30 37 43 31 0
102 109 105 106 101 108 56 91 100 68 0
102 109 105 106 101 108 48 73 80 59 0
102 109 105 106 101 108 49 82 88 62 0
102 109 105 106 101 108 6 18 27 10 0
102 109 105 106 101 108 54 90 97 65 0
102 109 105 106 101 30 37 43 31 39 0
102 109 105 106 101 56 91 100 68 95 0
102 109 105 106 101 48 73 80 59 75 0
102 109 105 106 101 49 82 88 62 83 0
102 109 105 106 101 6 18 27 10 20 0
102 109 105 106 108 30 37 43 31 3 0
102 109 105 106 108 56 91 100 68 25 0
102 109 105 106 108 48 73 80 59 11 0
102 109 105 106 108 49 82 88 62 16 0
102 109 105 106 108 54 90 97 65 22 0
102 109 105 106 30 37 43 31 3 39 0
102 109 105 106 56 91 100 68 25 95 0
102 109 105 106 48 73 80 59 11 75 0
102 109 105 106 49 82 88 62 16 83 0
102 109 105 101 108 30 37 43 31 35 0
102 109 105 101 108 56 91 100 68 86 0
102 109 105 101 108 48 73 80 59 71 0
102 109 105 101 108 6 18 27 10 15 0
102 109 105 101 108 54 90 97 65 84 0
102 109 105 101 30 37 43 31 35 39 0
102 109 105 101 56 91 100 68 86 95 0
102 109 105 101 48 73 80 59 71 75 0
102 109 105 101 6 18 27 10 15 20 0
102 109 105 108 30 37 43 31 35 3 0
102 109 105 108 56 91 100 68 86 25 0
102 109 105 108 48 73 80 59 71 11 0
102 109 105 108 54 90 97 65 84 22 0
102 109 105 30 37 43 31 35 3 39 0
102 109 105 56 91 100 68 86 25 95 0
102 109 105 48 73 80 59 71 11 75 0
102 109 103 107 110 104 106 101 108 34 0
102 109 103 107 110 104 106 101 108 77 0
102 109 103 107 110 104 106 101 108 47 0
102 109 103 107 110 104 106 101 108 74 0
102 109 103 107 110 104 106 101 108 79 0
102 109 103 107 110 104 106 101 108 60 0
102 109 103 107 110 104 106 101 108 72 0
102 109 103 107 110 104 106 101 108 12 0
102 109 103 107 110 104 106 101 108 76 0
102 109 103 107 110 104 106 101 34 39 0
102 109 103 107 110 104 106 101 77 95 0
102 109 103 107 110 104 106 101 47 53 0
102 109 103 107 110 104 106 101 74 89 0
102 109 103 107 110 104 106 101 79 98 0
102 109 103 107 110 104 106 101 60 66 0
102 109 103 107 110 104 106 101 72 83 0
102 109 103 107 110 104 106 101 12 20 0
102 109 103 107 110 104 106 108 34 3 0
102 109 103 107 110 104 106 108 77 25 0
102 109 103 107 110 104 106 108 47 7 0
102 109 103 107 110 104 106 108 74 17 0
102 109 103 107 110 104 106 108 79 28 0
102 109 103 107 110 104 106 108 60 9 0
102 109 103 107 110 104 106 108 72 16 0
102 109 103 107 110 104 106 108 76 22 0
102 109 103 107 110 104 106 34 3 39 0
102 109 103 107 110 104 106 77 25 95 0
102 109 103 107 110 104 106 47 7 53 0
102 109 103 107 110 104 106 74 17 89 0
102 109 103 107 110 104 106 79 28 98 0
102 109 103 107 110 104 106 60 9 66 0
102 109 103 107 110 104 106 72 16 83 0
102 109 103 107 110 104 101 108 34 35 0
102 109 103 107 110 104 101 108 77 86 0
102 109 103 107 110 104 101 108 47 50 0
102 109 103 107 110 104 101 108 74 81 0
102 109 103 107 110 104 101 108 79 87 0
102 109 103 107 110 104 101 108 60 61 0
102 109 103 107 110 104 101 108 12 15 0
102 109 103 107 110 104 101 108 76 84 0
102 109 103 107 110 104 101 34 35 39 0
102 109 103 107 110 104 101 77 86 95 0
102 109 103 107 110 104 101 47 50 53 0
102 109 103 107 110 104 101 74 81 89 0
102 109 103 107 110 104 101 79 87 98 0
102 109 103 107 110 104 101 60 61 66 0
102 109 103 107 110 104 101 12 15 20 0
102 109 103 107 110 104 108 34 35 3 0
102 109 103 107 110 104 108 77 86 25 0
102 109 103 107 110 104 108 47 50 7 0
102 109 103 107 110 104 108 74 81 17 0
102 109 103 107 110 104 108 79 87 28 0
102 109 103 107 110 104 108 60 61 9 0
102 109 103 107 110 104 108 76 84 22 0
102 109 103 107 110 104 34 35 3 39 0
102 109 103 107 110 104 77 86 25 95 0
102 109 103 107 110 104 47 50 7 53 0
102 109 103 107 110 104 74 81 17 89 0
102 109 103 107 110 104 79 87 28 98 0
102 109 103 107 110 104 60 61 9 66 0
102 109 103 107 110 106 101 108 34 31 0
102 109 103 107 110 106 101 108 77 68 0
102 109 103 107 110 106 101 108 47 45 0
102 109 103 107 110 106 101 108 74 63 0
102 109 103 107 110 106 101 108 79 69 0
102 109 103 107 110 106 101 108 72 62 0
102 109 103 107 110 106 101 108 12 10 0
102 109 103 107 110 106 101 108 76 65 0
102 109 103 107 110 106 101 34 31 39 0
102 109 103 107 110 106 101 77 68 95 0
102 109 103 107 110 106 101 47 45 53 0
102 109 103 107 110 106 101 74 63 89 0
102 109 103 107 110 106 101 79 69 98 0
102 109 103 107 110 106 101 72 62 83 0
102 109 103 107 110 106 101 12 10 20 0
102 109 103 107 110 106 108 34 31 3 0
102 109 103 107 110 106 108 77 68 25 0
102 109 103 107 110 106 108 47 45 7 0
102 109 103 107 110 106 108 74 63 17 0
102 109 103 107 110 106 108 79 69 28 0
102 109 103 107 110 106 108 72 62 16 0
102 109 103 107 110 106 108 76 65 22 0
102 109 103 107 110 106 34 31 3 39 0
102 109 103 107 110 106 77 68 25 95 0
102 109 103 107 110 106 47 45 7 53 0
102 109 103 107 110 106 74 63 17 89 0
102 109 103 107 110 106 79 69 28 98 0
102 109 103 107 110 106 72 62 16 83 0
102 109 103 107 110 101 108 34 31 35 0
102 109 103 107 110 101 108 77 68 86 0
102 109 103 107 110 101 108 47 45 50 0
102 109 103 107 110 101 108 74 63 81 0
102 109 103 107 110 101 108 79 69 87 0
102 109 103 107 110 101 108 12 10 15 0
102 109 103 107 110 101 108 76 65 84 0
102 109 103 107 110 101 34 31 35 39 0
102 109 103 107 110 101 77 68 86 95 0
102 109 103 107 110 101 47 45 50 53 0
102 109 103 107 110 101 74 63 81 89 0
102 109 103 107 110 101 79 69 87 98 0
102 109 103 107 110 101 12 10 15 20 0
102 109 103 107 110 108 34 31 35 3 0
102 109 103 107 110 108 77 68 86 25 0
102 109 103 107 110 108 47 45 50 7 0
102 109 103 107 110 108 74 63 81 17 0
102 109 103 107 110 108 79 69 87 28 0
102 109 103 107 110 108 76 65 84 22 0
102 109 103 107 110 34 31 35 3 39 0
102 109 103 107 110 77 68 86 25 95 0
102 109 103 107 110 47 45 50 7 53 0
102 109 103 107 110 74 63 81 17 89 0
102 109 103 107 110 79 69 87 28 98 0
102 109 103 107 104 106 101 108 34 43 0
102 109 103 107 104 106 101 108 77 100 0
102 109 103 107 104 106 101 108 47 57 0
102 109 103 107 104 106 101 108 74 93 0
102 109 103 107 104 106 101 108 60 70 0
102 109 103 107 104 106 101 108 72 88 0
102 109 103 107 104 106 101 108 12 27 0
102 109 103 107 104 106 101 108 76 97 0
102 109 103 107 104 106 101 34 43 39 0
102 109 103 107 104 106 101 77 100 95 0
102 109 103 107 104 106 101 47 57 53 0
102 109 103 107 104 106 101 74 93 89 0
102 109 103 107 104 106 101 60 70 66 0
102 109 103 107 104 106 101 72 88 83 0
102 109 103 107 104 106 101 12 27 20 0
102 109 103 107 104 106 108 34 43 3 0
102 109 103 107 104 106 108 77 100 25 0
102 109 103 107 104 106 108 47 57 7 0
102 109 103 107 104 106 108 74 93 17 0
102 109 103 107 104 106 108 60 70 9 0
102 109 103 107 104 106 108 72 88 16 0
102 109 103 107 104 106 108 76 97 22 0
102 109 103 107 104 106 34 43 3 39 0
102 109 103 107 104 106 77 100 25 95 0
102 109 103 107 104 106 47 57 7 53 0
102 109 103 107 104 106 74 93 17 89 0
102 109 103 107 104 106 60 70 9 66 0
102 109 103 107 104 106 72 88 16 83 0
102 109 103 107 104 101 108 34 43 35 0
102 109 103 107 104 101 108 77 100 86 0
102 109 103 107 104 101 108 47 57 50 0
102 109 103 107 104 101 108 74 93 81 0
102 109 103 107 104 101 108 60 70 61 0
102 109 103 107 104 101 108 12 27 15 0
102 109 103 107 104 101 108 76 97 84 0
102 109 103 107 104 101 34 43 35 39 0
102 109 103 107 104 101 77 100 86 95 0
102 109 103 107 104 101 47 57 50 53 0
102 109 103 107 104 101 74 93 81 89 0
102 109 103 107 104 101 60 70 61 66 0
102 109 103 107 104 101 12 27 15 20 0
102 109 103 107 104 108 34 43 35 3 0
102 109 103 107 104 108 77 100 86 25 0
102 109 103 107 104 108 47 57 50 7 0
102 109 103 107 104 108 74 93 81 17 0
102 109 103 107 104 108 60 70 61 9 0
102 109 103 107 104 108 76 97 84 22 0
102 109 103 107 104 34 43 35 3 39 0
102 109 103 107 104 77 100 86 25 95 0
102 109 103 107 104 47 57 50 7 53 0
102 109 103 107 104 74 93 81 17 89 0
102 109 103 107 104 60 70 61 9 66 0
102 109 103 107 106 101 108 34 43 31 0
102 109 103 107 106 101 108 77 100 68 0
102 109 103 107 106 101 108 47 57 45 0
102 109 103 107 106 101 108 74 93 63 0
102 109 103 107 106 101 108 72 88 62 0
102 109 103 107 106 101 108 12 27 10 0
102 109 103 107 106 101 108 76 97 65 0
102 109 103 107 106 101 34 43 31 39 0
102 109 103 107 106 101 77 100 68 95 0
102 109 103 107 106 101 47 57 45 53 0
102 109 103 107 106 101 74 93 63 89 0
102 109 103 107 106 101 72 88 62 83 0
102 109 103 107 106 101 12 27 10 20 0
102 109 103 107 106 108 34 43 31 3 0
102 109 103 107 106 108 77 100 68 25 0
102 109 103 107 106 108 47 57 45 7 0
102 109 103 107 106 108 74 93 63 17 0
102 109 103 107 106 108 72 88 62 16 0
102 109 103 107 106 108 76 97 65 22 0
102 109 103 107 106 34 43 31 3 39 0
102 109 103 107 106 77 100 68 25 95 0
102 109 103 107 106 47 57 45 7 53 0
102 109 103 107 106 74 93 63 17 89 0
102 109 103 107 106 72 88 62 16 83 0
102 109 103 107 101 108 34 43 31 35 0
102 109 103 107 101 108 77 100 68 86 0
102 109 103 107 101 108 47 57 45 50 0
102 109 103 107 101 108 74 93 63 81 0
102 109 103 107 101 108 12 27 10 15 0
102 109 103 107 101 108 76 97 65 84 0
102 109 103 107 101 34 43 31 35 39 0
102 109 103 107 101 77 100 68 86 95 0
102 109 103 107 101 47 57 45 50 53 0
102 109 103 107 101 74 93 63 81 89 0
102 109 103 107 101 12 27 10 15 20 0
102 109 103 107 108 34 43 31 35 3 0
102 109 103 107 108 77 100 68 86 25 0
102 109 103 107 108 47 57 45 50 7 0
102 109 103 107 108 74 93 63 81 17 0
102 109 103 107 108 76 97 65 84 22 0
102 109 103 107 34 43 31 35 3 39 0
102 109 103 107 77 100 68 86 25 95 0
102 109 103 107 47 57 45 50 7 53 0
102 109 103 107 74 93 63 81 17 89 0
102 109 103 110 104 106 101 108 34 37 0
102 109 103 110 104 106 101 108 77 91 0
102 109 103 110 104 106 101 108 47 52 0
102 109 103 110 104 106 101 108 79 94 0
102 109 103 110 104 106 101 108 60 64 0
102 109 103 110 104 106 101 108 72 82 0
102 109 103 110 104 106 101 108 12 18 0
102 109 103 110 104 106 101 108 76 90 0
102 109 103 110 104 106 101 34 37 39 0
102 109 103 110 104 106 101 77 91 95 0
102 109 103 110 104 106 101 47 52 53 0
102 109 103 110 104 106 101 79 94 98 0
102 109 103 110 104 106 101 60 64 66 0
102 109 103 110 104 106 101 72 82 83 0
102 109 103 110 104 106 101 12 18 20 0
102 109 103 110 104 106 108 34 37 3 0
102 109 103 110 104 106 108 77 91 25 0
102 109 103 110 104 106 108 47 52 7 0
102 109 103 110 104 106 108 79 94 28 0
102 109 103 110 104 106 108 60 64 9 0
102 109 103 110 104 106 108 72 82 16 0
102 109 103 110 104 106 108 76 90 22 0
102 109 103 110 104 106 34 37 3 39 0
102 109 103 110 104 106 77 91 25 95 0
102 109 103 110 104 106 47 52 7 53 0
102 109 103 110 104 106 79 94 28 98 0
102 109 103 110 104 106 60 64 9 66 0
102 109 103 110 104 106 72 82 16 83 0
102 109 103 110 104 101 108 34 37 35 0
102 109 103 110 104 101 108 77 91 86 0
102 109 103 110 104 101 108 47 52 50 0
102 109 103 110 104 101 108 79 94 87 0
102 109 103 110 104 101 108 60 64 61 0
102 109 103 110 104 101 108 12 18 15 0
102 109 103 110 104 101 108 76 90 84 0
102 109 103 110 104 101 34 37 35 39 0
102 109 103 110 104 101 77 91 86 95 0
102 109 103 110 104 101 47 52 50 53 0
102 109 103 110 104 101 79 94 87 98 0
102 109 103 110 104 101 60 64 61 66 0
102 109 103 110 104 101 12 18 15 20 0
102 109 103 110 104 108 34 37 35 3 0
102 109 103 110 104 108 77 91 86 25 0
102 109 103 110 104 108 47 52 50 7 0
102 109 103 110 104 108 79 94 87 28 0
102 109 103 110 104 108 60 64 61 9 0
102 109 103 110 104 108 76 90 84 22 0
102 109 103 110 104 34 37 35 3 39 0
102 109 103 110 104 77 91 86 25 95 0
102 109 103 110 104 47 52 50 7 53 0
102 109 103 110 104 79 94 87 28 98 0
102 109 103 110 104 60 64 61 9 66 0
102 109 103 110 106 101 108 34 37 31 0
102 109 103 110 106 101 108 77 91 68 0
102 109 103 110 106 101 108 47 52 45 0
102 109 103 110 106 101 108 79 94 69 0
102 109 103 110 106 101 108 72 82 62 0
102 109 103 110 106 101 108 12 18 10 0
102 109 103 110 106 101 108 76 90 65 0
102 109 103 110 106 101 34 37 31 39 0
102 109 103 110 106 101 77 91 68 95 0
102 109 103 110 106 101 47 52 45 53 0
102 109 103 110 106 101 79 94 69 98 0
102 109 103 110 106 101 72 82 62 83 0
102 109 103 110 106 101 12 18 10 20 0
102 109 103 110 106 108 34 37 31 3 0
102 109 103 110 106 108 77 91 68 25 0
102 109 103 110 106 108 47 52 45 7 0
102 109 103 110 106 108 79 94 69 28 0
102 109 103 110 106 108 72 82 62 16 0
102 109 103 110 106 108 76 90 65 22 0
102 109 103 110 106 34 37 31 3 39 0
102 109 103 110 106 77 91 68 25 95 0
102 109 103 110 106 47 52 45 7 53 0
102 109 103 110 106 79 94 69 28 98 0
102 109 103 110 106 72 82 62 16 83 0
102 109 103 110 101 108 34 37 31 35 0
102 109 103 110 101 108 77 91 68 86 0
102 109 103 110 101 108 47 52 45 50 0
102 109 103 110 101 108 79 94 69 87 0
102 109 103 110 101 108 12 18 10 15 0
102 109 103 110 101 108 76 90 65 84 0
102 109 103 110 101 34 37 31 35 39 0
102 109 103 110 101 77 91 68 86 95 0
102 109 103 110 101 47 52 45 50 53 0
102 109 103 110 101 79 94 69 87 98 0
102 109 103 110 101 12 18 10 15 20 0
102 109 103 110 108 34 37 31 35 3 0
102 109 103 110 108 77 91 68 86 25 0
102 109 103 110 108 47 52 45 50 7 0
102 109 103 110 108 79 94 69 87 28 0
102 109 103 110 108 76 90 65 84 22 0
102 109 103 110 34 37 31 35 3 39 0
102 109 103 110 77 91 68 86 25 95 0
102 109 103 110 47 52 45 50 7 53 0
102 109 103 110 79 94 69 87 28 98 0
102 109 103 104 106 101 108 34 37 43 0
102 109 103 104 106 101 108 77 91 100 0
102 109 103 104 106 101 108 47 52 57 0
102 109 103 104 106 101 108 60 64 70 0
102 109 103 104 106 101 108 72 82 88 0
102 109 103 104 106 101 108 12 18 27 0
102 109 103 104 106 101 108 76 90 97 0
102 109 103 104 106 101 34 37 43 39 0
102 109 103 104 106 101 77 91 100 95 0
102 109 103 104 106 101 47 52 57 53 0
102 109 103 104 106 101 60 64 70 66 0
102 109 103 104 106 101 72 82 88 83 0
102 109 103 104 106 101 12 18 27 20 0
102 109 103 104 106 108 34 37 43 3 0
102 109 103 104 106 108 77 91 100 25 0
102 109 103 104 106 108 47 52 57 7 0
102 109 103 104 106 108 60 64 70 9 0
102 109 103 104 106 108 72 82 88 16 0
102 109 103 104 106 108 76 90 97 22 0
102 109 103 104 106 34 37 43 3 39 0
102 109 103 104 106 77 91 100 25 95 0
102 109 103 104 106 47 52 57 7 53 0
102 109 103 104 106 60 64 70 9 66 0
102 109 103 104 106 72 82 88 16 83 0
102 109 103 104 101 108 34 37 43 35 0
102 109 103 104 101 108 77 91 100 86 0
102 109 103 104 101 108 47 52 57 50 0
102 109 103 104 101 108 60 64 70 61 0
102 109 103 104 101 108 12 18 27 15 0
102 109 103 104 101 108 76 90 97 84 0
102 109 103 104 101 34 37 43 35 39 0
102 109 103 104 101 77 91 100 86 95 0
102 109 103 104 101 47 52 57 50 53 0
102 109 103 104 101 60 64 70 61 66 0
102 109 103 104 101 12 18 27 15 20 0
102 109 103 104 108 34 37 43 35 3 0
102 109 103 104 108 77 91 100 86 25 0
102 109 103 104 108 47 52 57 50 7 0
102 109 103 104 108 60 64 70 61 9 0
102 109 103 104 108 76 90 97 84 22 0
102 109 103 104 34 37 43 35 3 39 0
102 109 103 104 77 91 100 86 25 95 0
102 109 103 104 47 52 57 50 7 53 0
102 109 103 104 60 64 70 61 9 66 0
102 109 103 106 101 108 34 37 43 31 0
102 109 103 106 101 108 77 91 100 68 0
102 109 103 106 101 108 47 52 57 45 0
102 109 103 106 101 108 72 82 88 62 0
102 109 103 106 101 108 12 18 27 10 0
102 109 103 106 101 108 76 90 97 65 0
102 109 103 106 101 34 37 43 31 39 0
102 109 103 106 101 77 91 100 68 95 0
102 109 103 106 101 47 52 57 45 53 0
102 109 103 106 101 72 82 88 62 83 0
102 109 103 106 101 12 18 27 10 20 0
102 109 103 106 108 34 37 43 31 3 0
102 109 103 106 108 77 91 100 68 25 0
102 109 103 106 108 47 52 57 45 7 0
102 109 103 106 108 72 82 88 62 16 0
102 109 103 106 108 76 90 97 65 22 0
102 109 103 106 34 37 43 31 3 39 0
102 109 103 106 77 91 100 68 25 95 0
102 109 103 106 47 52 57 45 7 53 0
102 109 103 106 72 82 88 62 16 83 0
102 109 103 101 108 34 37 43 31 35 0
102 109 103 101 108 77 91 100 68 86 0
102 109 103 101 108 47 52 57 45 50 0
102 109 103 101 108 12 18 27 10 15 0
102 109 103 101 108 76 90 97 65 84 0
102 109 103 101 34 37 43 31 35 39 0
102 109 103 101 77 91 100 68 86 95 0
102 109 103 101 47 52 57 45 50 53 0
102 109 103 101 12 18 27 10 15 20 0
102 109 103 108 34 37 43 31 35 3 0
102 109 103 108 77 91 100 68 86 25 0
102 109 103 108 47 52 57 45 50 7 0
102 109 103 108 76 90 97 65 84 22 0
102 109 103 34 37 43 31 35 3 39 0
102 109 103 77 91 100 68 86 25 95 0
102 109 103 47 52 57 45 50 7 53 0
102 109 107 110 104 106 101 108 34 30 0
102 109 107 110 104 106 101 108 77 56 0
102 109 107 110 104 106 101 108 74 51 0
102 109 107 110 104 106 101 108 79 58 0
102 109 107 110 104 106 101 108 60 46 0
102 109 107 110 104 106 101 108 72 49 0
102 109 107 110 104 106 101 108 12 6 0
102 109 107 110 104 106 101 108 76 54 0
102 109 107 110 104 106 101 34 30 39 0
102 109 107 110 104 106 101 77 56 95 0
102 109 107 110 104 106 101 74 51 89 0
102 109 107 110 104 106 101 79 58 98 0
102 109 107 110 104 106 101 60 46 66 0
102 109 107 110 104 106 101 72 49 83 0
102 109 107 110 104 106 101 12 6 20 0
102 109 107 110 104 106 108 34 30 3 0
102 109 107 110 104 106 108 77 56 25 0
102 109 107 110 104 106 108 74 51 17 0
102 109 107 110 104 106 108 79 58 28 0
102 109 107 110 104 106 108 60 46 9 0
102 109 107 110 104 106 108 72 49 16 0
102 109 107 110 104 106 108 76 54 22 0
102 109 107 110 104 106 34 30 3 39 0
102 109 107 110 104 106 77 56 25 95 0
102 109 107 110 104 106 74 51 17 89 0
102 109 107 110 104 106 79 58 28 98 0
102 109 107 110 104 106 60 46 9 66 0
102 109 107 110 104 106 72 49 16 83 0
102 109 107 110 104 101 108 34 30 35 0
102 109 107 110 104 101 108 77 56 86 0
102 109 107 110 104 101 108 74 51 81 0
102 109 107 110 104 101 108 79 58 87 0
102 109 107 110 104 101 108 60 46 61 0
102 109 107 110 104 101 108 12 6 15 0
102 109 107 110 104 101 108 76 54 84 0
102 109 107 110 104 101 34 30 35 39 0
102 109 107 110 104 101 77 56 86 95 0
102 109 107 110 104 101 74 51 81 89 0
102 109 107 110 104 101 79 58 87 98 0
102 109 107 110 104 101 60 46 61 66 0
102 109 107 110 104 101 12 6 15 20 0
102 109 107 110 104 108 34 30 35 3 0
102 109 107 110 104 108 77 56 86 25 0
102 109 107 110 104 108 74 51 81 17 0
102 109 107 110 104 108 79 58 87 28 0
102 109 107 110 104 108 60 46 61 9 0
102 109 107 110 104 108 76 54 84 22 0
102 109 107 110 104 34 30 35 3 39 0
102 109 107 110 104 77 56 86 25 95 0
102 109 107 110 104 74 51 81 17 89 0
102 109 107 110 104 79 58 87 28 98 0
102 109 107 110 104 60 46 61 9 66 0
102 109 107 110 106 101 108 34 30 31 0
102 109 107 110 106 101 108 77 56 68 0
102 109 107 110 106 101 108 74 51 63 0
102 109 107 110 106 101 108 79 58 69 0
102 109 107 110 106 101 108 72 49 62 0
102 109 107 110 106 101 108 12 6 10 0
102 109 107 110 106 101 108 76 54 65 0
102 109 107 110 106 101 34 30 31 39 0
102 109 107 110 106 101 77 56 68 95 0
102 109 107 110 106 101 74 51 63 89 0
102 109 107 110 106 101 79 58 69 98 0
102 109 107 110 106 101 72 49 62 83 0
102 109 107 110 106 101 12 6 10 20 0
102 109 107 110 106 108 34 30 31 3 0
102 109 107 110 106 108 77 56 68 25 0
102 109 107 110 106 108 74 51 63 17 0
102 109 107 110 106 108 79 58 69 28 0
102 109 107 110 106 108 72 49 62 16 0
102 109 107 110 106 108 76 54 65 22 0
102 109 107 110 106 34 30 31 3 39 0
102 109 107 110 106 77 56 68 25 95 0
102 109 107 110 106 74 51 63 17 89 0
102 109 107 110 106 79 58 69 28 98 0
102 109 107 110 106 72 49 62 16 83 0
102 109 107 110 101 108 34 30 31 35 0
102 109 107 110 101 108 77 56 68 86 0
102 109 107 110 101 108 74 51 63 81 0
102 109 107 110 101 108 79 58 69 87 0
102 109 107 110 101 108 12 6 10 15 0
102 109 107 110 101 108 76 54 65 84 0
102 109 107 110 101 34 30 31 35 39 0
102 109 107 110 101 77 56 68 86 95 0
102 109 107 110 101 74 51 63 81 89 0
102 109 107 110 101 79 58 69 87 98 0
102 109 107 110 101 12 6 10 15 20 0
102 109 107 110 108 34 30 31 35 3 0
102 109 107 110 108 77 56 68 86 25 0
102 109 107 110 108 74 51 63 81 17 0
102 109 107 110 108 79 58 69 87 28 0
102 109 107 110 108 76 54 65 84 22 0
102 109 107 110 34 30 31 35 3 39 0
102 109 107 110 77 56 68 86 25 95 0
102 109 107 110 74 51 63 81 17 89 0
102 109 107 110 79 58 69 87 28 98 0
102 109 107 104 106 101 108 34 30 43 0
102 109 107 104 106 101 108 77 56 100 0
102 109 107 104 106 101 108 74 51 93 0
102 109 107 104 106 101 108 60 46 70 0
102 109 107 104 106 101 108 72 49 88 0
102 109 107 104 106 101 108 12 6 27 0
102 109 107 104 106 101 108 76 54 97 0
102 109 107 104 106 101 34 30 43 39 0
102 109 107 104 106 101 77 56 100 95 0
102 109 107 104 106 101 74 51 93 89 0
102 109 107 104 106 101 60 46 70 66 0
102 109 107 104 106 101 72 49 88 83 0
102 109 107 104 106 101 12 6 27 20 0
102 109 107 104 106 108 34 30 43 3 0
102 109 107 104 106 108 77 56 100 25 0
102 109 107 104 106 108 74 51 93 17 0
102 109 107 104 106 108 60 46 70 9 0
102 109 107 104 106 108 72 49 88 16 0
102 109 107 104 106 108 76 54 97 22 0
102 109 107 104 106 34 30 43 3 39 0
102 109 107 104 106 77 56 100 25 95 0
102 109 107 104 106 74 51 93 17 89 0
102 109 107 104 106 60 46 70 9 66 0
102 109 107 104 106 72 49 88 16 83 0
102 109 107 104 101 108 34 30 43 35 0
102 109 107 104 101 108 77 56 100 86 0
102 109 107 104 101 108 74 51 93 81 0
102 109 107 104 101 108 60 46 70 61 0
102 109 107 104 101 108 12 6 27 15 0
102 109 107 104 101 108 76 54 97 84 0
102 109 107 104 101 34 30 43 35 39 0
102 109 107 104 101 77 56 100 86 95 0
102 109 107 104 101 74 51 93 81 89 0
102 109 107 104 101 60 46 70 61 66 0
102 109 107 104 101 12 6 27 15 20 0
102 109 107 104 108 34 30 43 35 3 0
102 109 107 104 108 77 56 100 86 25 0
102 109 107 104 108 74 51 93 81 17 0
102 109 107 104 108 60 46 70 61 9 0
102 109 107 104 108 76 54 97 84 22 0
102 109 107 104 34 30 43 35 3 39 0
102 109 107 104 77 56 100 86 25 95 0
102 109 107 104 74 51 93 81 17 89 0
102 109 107 104 60 46 70 61 9 66 0
102 109 107 106 101 108 34 30 43 31 0
102 109 107 106 101 108 77 56 100 68 0
102 109 107 106 101 108 74 51 93 63 0
102 109 107 106 101 108 72 49 88 62 0
102 109 107 106 101 108 12 6 27 10 0
102 109 107 106 101 108 76 54 97 65 0
102 109 107 106 101 34 30 43 31 39 0
102 109 107 106 101 77 56 100 68 95 0
102 109 107 106 101 74 51 93 63 89 0
102 109 107 106 101 72 49 88 62 83 0
102 109 107 106 101 12 6 27 10 20 0
102 109 107 106 108 34 30 43 31 3 0
102 109 107 106 108 77 56 100 68 25 0
102 109 107 106 108 74 51 93 63 17 0
102 109 107 106 108 72 49 88 62 16 0
102 109 107 106 108 76 54 97 65 22 0
102 109 107 106 34 30 43 31 3 39 0
102 109 107 106 77 56 100 68 25 95 0
102 109 107 106 74 51 93 63 17 89 0
102 109 107 106 72 49 88 62 16 83 0
102 109 107 101 108 34 30 43 31 35 0
102 109 107 101 108 77 56 100 68 86 0
102 109 107 101 108 74 51 93 63 81 0
102 109 107 101 108 12 6 27 10 15 0
102 109 107 101 108 76 54 97 65 84 0
102 109 107 101 34 30 43 31 35 39 0
102 109 107 101 77 56 100 68 86 95 0
102 109 107 101 74 51 93 63 81 89 0
102 109 107 101 12 6 27 10 15 20 0
102 109 107 108 34 30 43 31 35 3 0
102 109 107 108 77 56 100 68 86 25 0
102 109 107 108 74 51 93 63 81 17 0
102 109 107 108 76 54 97 65 84 22 0
102 109 107 34 30 43 31 35 3 39 0
102 109 107 77 56 100 68 86 25 95 0
102 109 107 74 51 93 63 81 17 89 0
102 109 110 104 106 101 108 34 30 37 0
102 109 110 104 106 101 108 77 56 91 0
102 109 110 104 106 101 108 79 58 94 0
102 109 110 104 106 101 108 60 46 64 0
102 109 110 104 106 101 108 72 49 82 0
102 109 110 104 106 101 108 12 6 18 0
102 109 110 104 106 101 108 76 54 90 0
102 109 110 104 106 101 34 30 37 39 0
102 109 110 104 106 101 77 56 91 95 0
102 109 110 104 106 101 79 58 94 98 0
102 109 110 104 106 101 60 46 64 66 0
102 109 110 104 106 101 72 49 82 83 0
102 109 110 104 106 101 12 6 18 20 0
102 109 110 104 106 108 34 30 37 3 0
102 109 110 104 106 108 77 56 91 25 0
102 109 110 104 106 108 79 58 94 28 0
102 109 110 104 106 108 60 46 64 9 0
102 109 110 104 106 108 72 49 82 16 0
102 109 110 104 106 108 76 54 90 22 0
102 109 110 104 106 34 30 37 3 39 0
102 109 110 104 106 77 56 91 25 95 0
102 109 110 104 106 79 58 94 28 98 0
102 109 110 104 106 60 46 64 9 66 0
102 109 110 104 106 72 49 82 16 83 0
102 109 110 104 101 108 34 30 37 35 0
102 109 110 104 101 108 77 56 91 86 0
102 109 110 104 101 108 79 58 94 87 0
102 109 110 104 101 108 60 46 64 61 0
102 109 110 104 101 108 12 6 18 15 0
102 109 110 104 101 108 76 54 90 84 0
102 109 110 104 101 34 30 37 35 39 0
102 109 110 104 101 77 56 91 86 95 0
102 109 110 104 101 79 58 94 87 98 0
102 109 110 104 101 60 46 64 61 66 0
102 109 110 104 101 12 6 18 15 20 0
102 109 110 104 108 34 30 37 35 3 0
102 109 110 104 108 77 56 91 86 25 0
102 109 110 104 108 79 58 94 87 28 0
102 109 110 104 108 60 46 64 61 9 0
102 109 110 104 108 76 54 90 84 22 0
102 109 110 104 34 30 37 35 3 39 0
102 109 110 104 77 56 91 86 25 95 0
102 109 110 104 79 58 94 87 28 98 0
102 109 110 104 60 46 64 61 9 66 0
102 109 110 106 101 108 34 30 37 31 0
102 109 110 106 101 108 77 56 91 68 0
102 109 110 106 101 108 79 58 94 69 0
102 109 110 106 101 108 72 49 82 62 0
102 109 110 106 101 108 12 6 18 10 0
102 109 110 106 101 108 76 54 90 65 0
102 109 110 106 101 34 30 37 31 39 0
102 109 110 106 101 77 56 91 68 95 0
102 109 110 106 101 79 58 94 69 98 0
102 109 110 106 101 72 49 82 62 83 0
102 109 110 106 101 12 6 18 10 20 0
102 109 110 106 108 34 30 37 31 3 0
102 109 110 106 108 77 56 91 68 25 0
102 109 110 106 108 79 58 94 69 28 0
102 109 110 106 108 72 49 82 62 16 0
102 109 110 106 108 76 54 90 65 22 0
102 109 110 106 34 30 37 31 3 39 0
102 109 110 106 77 56 91 68 25 95 0
102 109 110 106 79 58 94 69 28 98 0
102 109 110 106 72 49 82 62 16 83 0
102 109 110 101 108 34 30 37 31 35 0
102 109 110 101 108 77 56 91 68 86 0
102 109 110 101 108 79 58 94 69 87 0
102 109 110 101 108 12 6 18 10 15 0
102 109 110 101 108 76 54 90 65 84 0
102 109 110 101 34 30 37 31 35 39 0
102 109 110 101 77 56 91 68 86 95 0
102 109 110 101 79 58 94 69 87 98 0
102 109 110 101 12 6 18 10 15 20 0
102 109 110 108 34 30 37 31 35 3 0
102 109 110 108 77 56 91 68 86 25 0
102 109 110 108 79 58 94 69 87 28 0
102 109 110 108 76 54 90 65 84 22 0
102 109 110 34 30 37 31 35 3 39 0
102 109 110 77 56 91 68 86 25 95 0
102 109 110 79 58 94 69 87 28 98 0
102 109 104 106 101 108 34 30 37 43 0
102 109 104 106 101 108 77 56 91 100 0
102 109 104 106 101 108 60 46 64 70 0
102 109 104 106 101 108 72 49 82 88 0
102 109 104 106 101 108 12 6 18 27 0
102 109 104 106 101 108 76 54 90 97 0
102 109 104 106 101 34 30 37 43 39 0
102 109 104 106 101 77 56 91 100 95 0
102 109 104 106 101 60 46 64 70 66 0
102 109 104 106 101 72 49 82 88 83 0
102 109 104 106 101 12 6 18 27 20 0
102 109 104 106 108 34 30 37 43 3 0
102 109 104 106 108 77 56 91 100 25 0
102 109 104 106 108 60 46 64 70 9 0
102 109 104 106 108 72 49 82 88 16 0
102 109 104 106 108 76 54 90 97 22 0
102 109 104 106 34 30 37 43 3 39 0
102 109 104 106 77 56 91 100 25 95 0
102 109 104 106 60 46 64 70 9 66 0
102 109 104 106 72 49 82 88 16 83 0
102 109 104 101 108 34 30 37 43 35 0
102 109 104 101 108 77 56 91 100 86 0
102 109 104 101 108 60 46 64 70 61 0
102 109 104 101 108 12 6 18 27 15 0
102 109 104 101 108 76 54 90 97 84 0
102 109 104 101 34 30 37 43 35 39 0
102 109 104 101 77 56 91 100 86 95 0
102 109 104 101 60 46 64 70 61 66 0
102 109 104 101 12 6 18 27 15 20 0
102 109 104 108 34 30 37 43 35 3 0
102 109 104 108 77 56 91 100 86 25 0
102 109 104 108 60 46 64 70 61 9 0
102 109 104 108 76 54 90 97 84 22 0
102 109 104 34 30 37 43 35 3 39 0
102 109 104 77 56 91 100 86 25 95 0
102 109 104 60 46 64 70 61 9 66 0
102 109 106 101 108 34 30 37 43 31 0
102 109 106 101 108 77 56 91 100 68 0
102 109 106 101 108 72 49 82 88 62 0
102 109 106 101 108 12 6 18 27 10 0
102 109 106 101 108 76 54 90 97 65 0
102 109 106 101 34 30 37 43 31 39 0
102 109 106 101 77 56 91 100 68 95 0
102 109 106 101 72 49 82 88 62 83 0
102 109 106 101 12 6 18 27 10 20 0
102 109 106 108 34 30 37 43 31 3 0
102 109 106 108 77 56 91 100 68 25 0
102 109 106 108 72 49 82 88 62 16 0
102 109 106 108 76 54 90 97 65 22 0
102 109 106 34 30 37 43 31 3 39 0
102 109 106 77 56 91 100 68 25 95 0
102 109 106 72 49 82 88 62 16 83 0
102 109 101 108 34 30 37 43 31 35 0
102 109 101 108 77 56 91 100 68 86 0
102 109 101 108 12 6 18 27 10 15 0
102 109 101 108 76 54 90 97 65 84 0
102 109 101 34 30 37 43 31 35 39 0
102 109 101 77 56 91 100 68 86 95 0
102 109 101 12 6 18 27 10 15 20 0
102 109 108 34 30 37 43 31 35 3 0
102 109 108 77 56 91 100 68 86 25 0
102 109 108 76 54 90 97 65 84 22 0
102 109 34 30 37 43 31 35 3 39 0
102 109 77 56 91 100 68 86 25 95 0
102 105 103 107 110 104 106 101 108 42 0
102 105 103 107 110 104 106 101 108 78 0
102 105 103 107 110 104 106 101 108 55 0
102 105 103 107 110 104 106 101 108 92 0
102 105 103 107 110 104 106 101 108 99 0
102 105 103 107 110 104 106 101 108 67 0
102 105 103 107 110 104 106 101 108 85 0
102 105 103 107 110 104 106 101 108 24 0
102 105 103 107 110 104 106 101 108 96 0
102 105 103 107 110 104 106 101 42 39 0
102 105 103 107 110 104 106 101 78 75 0
102 105 103 107 110 104 106 101 55 53 0
102 105 103 107 110 104 106 101 92 89 0
102 105 103 107 110 104 106 101 99 98 0
102 105 103 107 110 104 106 101 67 66 0
102 105 103 107 110 104 106 101 85 83 0
102 105 103 107 110 104 106 101 24 20 0
102 105 103 107 110 104 106 108 42 3 0
102 105 103 107 110 104 106 108 78 11 0
102 105 103 107 110 104 106 108 55 7 0
102 105 103 107 110 104 106 108 92 17 0
102 105 103 107 110 104 106 108 99 28 0
102 105 103 107 110 104 106 108 67 9 0
102 105 103 107 110 104 106 108 85 16 0
102 105 103 107 110 104 106 108 96 22 0
102 105 103 107 110 104 106 42 3 39 0
102 105 103 107 110 104 106 78 11 75 0
102 105 103 107 110 104 106 55 7 53 0
102 105 103 107 110 104 106 92 17 89 0
102 105 103 107 110 104 106 99 28 98 0
102 105 103 107 110 104 106 67 9 66 0
102 105 103 107 110 104 106 85 16 83 0
102 105 103 107 110 104 101 108 42 35 0
102 105 103 107 110 104 101 108 78 71 0
102 105 103 107 110 104 101 108 55 50 0
102 105 103 107 110 104 101 108 92 81 0
102 105 103 107 110 104 101 108 99 87 0
102 105 103 107 110 104 101 108 67 61 0
102 105 103 107 110 104 101 108 24 15 0
102 105 103 107 110 104 101 108 96 84 0
102 105 103 107 110 104 101 42 35 39 0
102 105 103 107 110 104 101 78 71 75 0
102 105 103 107 110 104 101 55 50 53 0
102 105 103 107 110 104 101 92 81 89 0
102 105 103 107 110 104 101 99 87 98 0
102 105 103 107 110 104 101 67 61 66 0
102 105 103 107 110 104 101 24 15 20 0
102 105 103 107 110 104 108 42 35 3 0
102 105 103 107 110 104 108 78 71 11 0
102 105 103 107 110 104 108 55 50 7 0
102 105 103 107 110 104 108 92 81 17 0
102 105 103 107 110 104 108 99 87 28 0
102 105 103 107 110 104 108 67 61 9 0
102 105 103 107 110 104 108 96 84 22 0
102 105 103 107 110 104 42 35 3 39 0
102 105 103 107 110 104 78 71 11 75 0
102 105 103 107 110 104 55 50 7 53 0
102 105 103 107 110 104 92 81 17 89 0
102 105 103 107 110 104 99 87 28 98 0
102 105 103 107 110 104 67 61 9 66 0
102 105 103 107 110 106 101 108 42 31 0
102 105 103 107 110 106 101 108 78 59 0
102 105 103 107 110 106 101 108 55 45 0
102 105 103 107 110 106 101 108 92 63 0
102 105 103 107 110 106 101 108 99 69 0
102 105 103 107 110 106 101 108 85 62 0
102 105 103 107 110 106 101 108 24 10 0
102 105 103 107 110 106 101 108 96 65 0
102 105 103 107 110 106 101 42 31 39 0
102 105 103 107 110 106 101 78 59 75 0
102 105 103 107 110 106 101 55 45 53 0
102 105 103 107 110 106 101 92 63 89 0
102 105 103 107 110 106 101 99 69 98 0
102 105 103 107 110 106 101 85 62 83 0
102 105 103 107 110 106 101 24 10 20 0
102 105 103 107 110 106 108 42 31 3 0
102 105 103 107 110 106 108 78 59 11 0
102 105 103 107 110 106 108 55 45 7 0
102 105 103 107 110 106 108 92 63 17 0
102 105 103 107 110 106 108 99 69 28 0
102 105 103 107 110 106 108 85 62 16 0
102 105 103 107 110 106 108 96 65 22 0
102 105 103 107 110 106 42 31 3 39 0
102 105 103 107 110 106 78 59 11 75 0
102 105 103 107 110 106 55 45 7 53 0
102 105 103 107 110 106 92 63 17 89 0
102 105 103 107 110 106 99 69 28 98 0
102 105 103 107 110 106 85 62 16 83 0
102 105 103 107 110 101 108 42 31 35 0
102 105 103 107 110 101 108 78 59 71 0
102 105 103 107 110 101 108 55 45 50 0
102 105 103 107 110 101 108 92 63 81 0
102 105 103 107 110 101 108 99 69 87 0
102 105 103 107 110 101 108 24 10 15 0
102 105 103 107 110 101 108 96 65 84 0
102 105 103 107 110 101 42 31 35 39 0
102 105 103 107 110 101 78 59 71 75 0
102 105 103 107 110 101 55 45 50 53 0
102 105 103 107 110 101 92 63 81 89 0
102 105 103 107 110 101 99 69 87 98 0
102 105 103 107 110 101 24 10 15 20 0
102 105 103 107 110 108 42 31 35 3 0
102 105 103 107 110 108 78 59 71 11 0
102 105 103 107 110 108 55 45 50 7 0
102 105 103 107 110 108 92 63 81 17 0
102 105 103 107 110 108 99 69 87 28 0
102 105 103 107 110 108 96 65 84 22 0
102 105 103 107 110 42 31 35 3 39 0
102 105 103 107 110 78 59 71 11 75 0
102 105 103 107 110 55 45 50 7 53 0
102 105 103 107 110 92 63 81 17 89 0
102 105 103 107 110 99 69 87 28 98 0
102 105 103 107 104 106 101 108 42 43 0
102 105 103 107 104 106 101 108 78 80 0
102 105 103 107 104 106 101 108 55 57 0
102 105 103 107 104 106 101 108 92 93 0
102 105 103 107 104 106 101 108 67 70 0
102 105 103 107 104 106 101 108 85 88 0
102 105 103 107 104 106 101 108 24 27 0
102 105 103 107 104 106 101 108 96 97 0
102 105 103 107 104 106 101 42 43 39 0
102 105 103 107 104 106 101 78 80 75 0
102 105 103 107 104 106 101 55 57 53 0
102 105 103 107 104 106 101 92 93 89 0
102 105 103 107 104 106 101 67 70 66 0
102 105 103 107 104 106 101 85 88 83 0
102 105 103 107 104 106 101 24 27 20 0
102 105 103 107 104 106 108 42 43 3 0
102 105 103 107 104 106 108 78 80 11 0
102 105 103 107 104 106 108 55 57 7 0
102 105 103 107 104 106 108 92 93 17 0
102 105 103 107 104 106 108 67 70 9 0
102 105 103 107 104 106 108 85 88 16 0
102 105 103 107 104 106 108 96 97 22 0
102 105 103 107 104 106 42 43 3 39 0
102 105 103 107 104 106 78 80 11 75 0
102 105 103 107 104 106 55 57 7 53 0
102 105 103 107 104 106 92 93 17 89 0
102 105 103 107 104 106 67 70 9 66 0
102 105 103 107 104 106 85 88 16 83 0
102 105 103 107 104 101 108 42 43 35 0
102 105 103 107 104 101 108 78 80 71 0
102 105 103 107 104 101 108 55 57 50 0
102 105 103 107 104 101 108 92 93 81 0
102 105 103 107 104 101 108 67 70 61 0
102 105 103 107 104 101 108 24 27 15 0
102 105 103 107 104 101 108 96 97 84 0
102 105 103 107 104 101 42 43 35 39 0
102 105 103 107 104 101 78 80 71 75 0
102 105 103 107 104 101 55 57 50 53 0
102 105 103 107 104 101 92 93 81 89 0
102 105 103 107 104 101 67 70 61 66 0
102 105 103 107 104 101 24 27 15 20 0
102 105 103 107 104 108 42 43 35 3 0
102 105 103 107 104 108 78 80 71 11 0
102 105 103 107 104 108 55 57 50 7 0
102 105 103 107 104 108 92 93 81 17 0
102 105 103 107 104 108 67 70 61 9 0
102 105 103 107 104 108 96 97 84 22 0
102 105 103 107 104 42 43 35 3 39 0
102 105 103 107 104 78 80 71 11 75 0
102 105 103 107 104 55 57 50 7 53 0
102 105 103 107 104 92 93 81 17 89 0
102 105 103 107 104 67 70 61 9 66 0
102 105 103 107 106 101 108 42 43 31 0
102 105 103 107 106 101 108 78 80 59 0
102 105 103 107 106 101 108 55 57 45 0
102 105 103 107 106 101 108 92 93 63 0
102 105 103 107 106 101 108 85 88 62 0
102 105 103 107 106 101 108 24 27 10 0
102 105 103 107 106 101 108 96 97 65 0
102 105 103 107 106 101 42 43 31 39 0
102 105 103 107 106 101 78 80 59 75 0
102 105 103 107 106 101 55 57 45 53 0
102 105 103 107 106 101 92 93 63 89 0
102 105 103 107 106 101 85 88 62 83 0
102 105 103 107 106 101 24 27 10 20 0
102 105 103 107 106 108 42 43 31 3 0
102 105 103 107 106 108 78 80 59 11 0
102 105 103 107 106 108 55 57 45 7 0
102 105 103 107 106 108 92 93 63 17 0
102 105 103 107 106 108 85 88 62 16 0
102 105 103 107 106 108 96 97 65 22 0
102 105 103 107 106 42 43 31 3 39 0
102 105 103 107 106 78 80 59 11 75 0
102 105 103 107 106 55 57 45 7 53 0
102 105 103 107 106 92 93 63 17 89 0
102 105 103 107 106 85 88 62 16 83 0
102 105 103 107 101 108 42 43 31 35 0
102 105 103 107 101 108 78 80 59 71 0
102 105 103 107 101 108 55 57 45 50 0
102 105 103 107 101 108 92 93 63 81 0
102 105 103 107 101 108 24 27 10 15 0
102 105 103 107 101 108 96 97 65 84 0
102 105 103 107 101 42 43 31 35 39 0
102 105 103 107 101 78 80 59 71 75 0
102 105 103 107 101 55 57 45 50 53 0
102 105 103 107 101 92 93 63 81 89 0
102 105 103 107 101 24 27 10 15 20 0
102 105 103 107 108 42 43 31 35 3 0
102 105 103 107 108 78 80 59 71 11 0
102 105 103 107 108 55 57 45 50 7 0
102 105 103 107 108 92 93 63 81 17 0
102 105 103 107 108 96 97 65 84 22 0
102 105 103 107 42 43 31 35 3 39 0
102 105 103 107 78 80 59 71 11 75 0
102 105 103 107 55 57 45 50 7 53 0
102 105 103 107 92 93 63 81 17 89 0
102 105 103 110 104 106 101 108 42 37 0
102 105 103 110 104 106 101 108 78 73 0
102 105 103 110 104 106 101 108 55 52 0
102 105 103 110 104 106 101 108 99 94 0
102 105 103 110 104 106 101 108 67 64 0
102 105 103 110 104 106 101 108 85 82 0
102 105 103 110 104 106 101 108 24 18 0
102 105 103 110 104 106 101 108 96 90 0
102 105 103 110 104 106 101 42 37 39 0
102 105 103 110 104 106 101 78 73 75 0
102 105 103 110 104 106 101 55 52 53 0
102 105 103 110 104 106 101 99 94 98 0
102 105 103 110 104 106 101 67 64 66 0
102 105 103 110 104 106 101 85 82 83 0
102 105 103 110 104 106 101 24 18 20 0
102 105 103 110 104 106 108 42 37 3 0
102 105 103 110 104 106 108 78 73 11 0
102 105 103 110 104 106 108 55 52 7 0
102 105 103 110 104 106 108 99 94 28 0
102 105 103 110 104 106 108 67 64 9 0
102 105 103 110 104 106 108 85 82 16 0
102 105 103 110 104 106 108 96 90 22 0
102 105 103 110 104 106 42 37 3 39 0
102 105 103 110 104 106 78 73 11 75 0
102 105 103 110 104 106 55 52 7 53 0
102 105 103 110 104 106 99 94 28 98 0
102 105 103 110 104 106 67 64 9 66 0
102 105 103 110 104 106 85 82 16 83 0
102 105 103 110 104 101 108 42 37 35 0
102 105 103 110 104 101 108 78 73 71 0
102 105 103 110 104 101 108 55 52 50 0
102 105 103 110 104 101 108 99 94 87 0
102 105 103 110 104 101 108 67 64 61 0
102 105 103 110 104 101 108 24 18 15 0
102 105 103 110 104 101 108 96 90 84 0
102 105 103 110 104 101 42 37 35 39 0
102 105 103 110 104 101 78 73 71 75 0
102 105 103 110 104 101 55 52 50 53 0
102 105 103 110 104 101 99 94 87 98 0
102 105 103 110 104 101 67 64 61 66 0
102 105 103 110 104 101 24 18 15 20 0
102 105 103 110 104 108 42 37 35 3 0
102 105 103 110 104 108 78 73 71 11 0
102 105 103 110 104 108 55 52 50 7 0
102 105 103 110 104 108 99 94 87 28 0
102 105 103 110 104 108 67 64 61 9 0
102 105 103 110 104 108 96 90 84 22 0
102 105 103 110 104 42 37 35 3 39 0
102 105 103 110 104 78 73 71 11 75 0
102 105 103 110 104 55 52 50 7 53 0
102 105 103 110 104 99 94 87 28 98 0
102 105 103 110 104 67 64 61 9 66 0
102 105 103 110 106 101 108 42 37 31 0
102 105 103 110 106 101 108 78 73 59 0
102 105 103 110 106 101 108 55 52 45 0
102 105 103 110 106 101 108 99 94 69 0
102 105 103 110 106 101 108 85 82 62 0
102 105 103 110 106 101 108 24 18 10 0
102 105 103 110 106 101 108 96 90 65 0
102 105 103 110 106 101 42 37 31 39 0
102 105 103 110 106 101 78 73 59 75 0
102 105 103 110 106 101 55 52 45 53 0
102 105 103 110 106 101 99 94 69 98 0
102 105 103 110 106 101 85 82 62 83 0
102 105 103 110 106 101 24 18 10 20 0
102 105 103 110 106 108 42 37 31 3 0
102 105 103 110 106 108 78 73 59 11 0
102 105 103 110 106 108 55 52 45 7 0
102 105 103 110 106 108 99 94 69 28 0
102 105 103 110 106 108 85 82 62 16 0
102 105 103 110 106 108 96 90 65 22 0
102 105 103 110 106 42 37 31 3 39 0
102 105 103 110 106 78 73 59 11 75 0
102 105 103 110 106 55 52 45 7 53 0
102 105 103 110 106 99 94 69 28 98 0
102 105 103 110 106 85 82 62 16 83 0
102 105 103 110 101 108 42 37 31 35 0
102 105 103 110 101 108 78 73 59 71 0
102 105 103 110 101 108 55 52 45 50 0
102 105 103 110 101 108 99 94 69 87 0
102 105 103 110 101 108 24 18 10 15 0
102 105 103 110 101 108 96 90 65 84 0
102 105 103 110 101 42 37 31 35 39 0
102 105 103 110 101 78 73 59 71 75 0
102 105 103 110 101 55 52 45 50 53 0
102 105 103 110 101 99 94 69 87 98 0
102 105 103 110 101 24 18 10 15 20 0
102 105 103 110 108 42 37 31 35 3 0
102 105 103 110 108 78 73 59 71 11 0
102 105 103 110 108 55 52 45 50 7 0
102 105 103 110 108 99 94 69 87 28 0
102 105 103 110 108 96 90 65 84 22 0
102 105 103 110 42 37 31 35 3 39 0
102 105 103 110 78 73 59 71 11 75 0
102 105 103 110 55 52 45 50 7 53 0
102 105 103 110 99 94 69 87 28 98 0
102 105 103 104 106 101 108 42 37 43 0
102 105 103 104 106 101 108 78 73 80 0
102 105 103 104 106 101 108 55 52 57 0
102 105 103 104 106 101 108 67 64 70 0
102 105 103 104 106 101 108 85 82 88 0
102 105 103 104 106 101 108 24 18 27 0
102 105 103 104 106 101 108 96 90 97 0
102 105 103 104 106 101 42 37 43 39 0
102 105 103 104 106 101 78 73 80 75 0
102 105 103 104 106 101 55 52 57 53 0
102 105 103 104 106 101 67 64 70 66 0
102 105 103 104 106 101 85 82 88 83 0
102 105 103 104 106 101 24 18 27 20 0
102 105 103 104 106 108 42 37 43 3 0
102 105 103 104 106 108 78 73 80 11 0
102 105 103 104 106 108 55 52 57 7 0
102 105 103 104 106 108 67 64 70 9 0
102 105 103 104 106 108 85 82 88 16 0
102 105 103 104 106 108 96 90 97 22 0
102 105 103 104 106 42 37 43 3 39 0
102 105 103 104 106 78 73 80 11 75 0
102 105 103 104 106 55 52 57 7 53 0
102 105 103 104 106 67 64 70 9 66 0
102 105 103 104 106 85 82 88 16 83 0
102 105 103 104 101 108 42 37 43 35 0
102 105 103 104 101 108 78 73 80 71 0
102 105 103 104 101 108 55 52 57 50 0
102 105 103 104 101 108 67 64 70 61 0
102 105 103 104 101 108 24 18 27 15 0
102 105 103 104 101 108 96 90 97 84 0
102 105 103 104 101 42 37 43 35 39 0
102 105 103 104 101 78 73 80 71 75 0
102 105 103 104 101 55 52 57 50 53 0
102 105 103 104 101 67 64 70 61 66 0
102 105 103 104 101 24 18 27 15 20 0
102 105 103 104 108 42 37 43 35 3 0
102 105 103 104 108 78 73 80 71 11 0
102 105 103 104 108 55 52 57 50 7 0
102 105 103 104 108 67 64 70 61 9 0
102 105 103 104 108 96 90 97 84 22 0
102 105 103 104 42 37 43 35 3 39 0
102 105 103 104 78 73 80 71 11 75 0
102 105 103 104 55 52 57 50 7 53 0
102 105 103 104 67 64 70 61 9 66 0
102 105 103 106 101 108 42 37 43 31 0
102 105 103 106 101 108 78 73 80 59 0
102 105 103 106 101 108 55 52 57 45 0
102 105 103 106 101 108 85 82 88 62 0
102 105 103 106 101 108 24 18 27 10 0
102 105 103 106 101 108 96 90 97 65 0
102 105 103 106 101 42 37 43 31 39 0
102 105 103 106 101 78 73 80 59 75 0
102 105 103 106 101 55 52 57 45 53 0
102 105 103 106 101 85 82 88 62 83 0
102 105 103 106 101 24 18 27 10 20 0
102 105 103 106 108 42 37 43 31 3 0
102 105 103 106 108 78 73 80 59 11 0
102 105 103 106 108 55 52 57 45 7 0
102 105 103 106 108 85 82 88 62 16 0
102 105 103 106 108 96 90 97 65 22 0
102 105 103 106 42 37 43 31 3 39 0
102 105 103 106 78 73 80 59 11 75 0
102 105 103 106 55 52 57 45 7 53 0
102 105 103 106 85 82 88 62 16 83 0
102 105 103 101 108 42 37 43 31 35 0
102 105 103 101 108 78 73 80 59 71 0
102 105 103 101 108 55 52 57 45 50 0
102 105 103 101 108 24 18 27 10 15 0
102 105 103 101 108 96 90 97 65 84 0
102 105 103 101 42 37 43 31 35 39 0
102 105 103 101 78 73 80 59 71 75 0
102 105 103 101 55 52 57 45 50 53 0
102 105 103 101 24 18 27 10 15 20 0
102 105 103 108 42 37 43 31 35 3 0
102 105 103 108 78 73 80 59 71 11 0
102 105 103 108 55 52 57 45 50 7 0
102 105 103 108 96 90 97 65 84 22 0
102 105 103 42 37 43 31 35 3 39 0
102 105 103 78 73 80 59 71 11 75 0
102 105 103 55 52 57 45 50 7 53 0
102 105 107 110 104 106 101 108 42 30 0
102 105 107 110 104 106 101 108 78 48 0
102 105 107 110 104 106 101 108 92 51 0
102 105 107 110 104 106 101 108 99 58 0
102 105 107 110 104 106 101 108 67 46 0
102 105 107 110 104 106 101 108 85 49 0
102 105 107 110 104 106 101 108 24 6 0
102 105 107 110 104 106 101 108 96 54 0
102 105 107 110 104 106 101 42 30 39 0
102 105 107 110 104 106 101 78 48 75 0
102 105 107 110 104 106 101 92 51 89 0
102 105 107 110 104 106 101 99 58 98 0
102 105 107 110 104 106 101 67 46 66 0
102 105 107 110 104 106 101 85 49 83 0
102 105 107 110 104 106 101 24 6 20 0
102 105 107 110 104 106 108 42 30 3 0
102 105 107 110 104 106 108 78 48 11 0
102 105 107 110 104 106 108 92 51 17 0
102 105 107 110 104 106 108 99 58 28 0
102 105 107 110 104 106 108 67 46 9 0
102 105 107 110 104 106 108 85 49 16 0
102 105 107 110 104 106 108 96 54 22 0
102 105 107 110 104 106 42 30 3 39 0
102 105 107 110 104 106 78 48 11 75 0
102 105 107 110 104 106 92 51 17 89 0
102 105 107 110 104 106 99 58 28 98 0
102 105 107 110 104 106 67 46 9 66 0
102 105 107 110 104 106 85 49 16 83 0
102 105 107 110 104 101 108 42 30 35 0
102 105 107 110 104 101 108 78 48 71 0
102 105 107 110 104 101 108 92 51 81 0
102 105 107 110 104 101 108 99 58 87 0
102 105 107 110 104 101 108 67 46 61 0
102 105 107 110 104 101 108 24 6 15 0
102 105 107 110 104 101 108 96 54 84 0
102 105 107 110 104 101 42 30 35 39 0
102 105 107 110 104 101 78 48 71 75 0
102 105 107 110 104 101 92 51 81 89 0
102 105 107 110 104 101 99 58 87 98 0
102 105 107 110 104 101 67 46 61 66 0
102 105 107 110 104 101 24 6 15 20 0
102 105 107 110 104 108 42 30 35 3 0
102 105 107 110 104 108 78 48 71 11 0
102 105 107 110 104 108 92 51 81 17 0
102 105 107 110 104 108 99 58 87 28 0
102 105 107 110 104 108 67 46 61 9 0
102 105 107 110 104 108 96 54 84 22 0
102 105 107 110 104 42 30 35 3 39 0
102 105 107 110 104 78 48 71 11 75 0
102 105 107 110 104 92 51 81 17 89 0
102 105 107 110 104 99 58 87 28 98 0
102 105 107 110 104 67 46 61 9 66 0
102 105 107 110 106 101 108 42 30 31 0
102 105 107 110 106 101 108 78 48 59 0
102 105 107 110 106 101 108 92 51 63 0
102 105 107 110 106 101 108 99 58 69 0
102 105 107 110 106 101 108 85 49 62 0
102 105 107 110 106 101 108 24 6 10 0
102 105 107 110 106 101 108 96 54 65 0
102 105 107 110 106 101 42 30 31 39 0
102 105 107 110 106 101 78 48 59 75 0
102 105 107 110 106 101 92 51 63 89 0
102 105 107 110 106 101 99 58 69 98 0
102 105 107 110 106 101 85 49 62 83 0
102 105 107 110 106 101 24 6 10 20 0
102 105 107 110 106 108 42 30 31 3 0
102 105 107 110 106 108 78 48 59 11 0
102 105 107 110 106 108 92 51 63 17 0
102 105 107 110 106 108 99 58 69 28 0
102 105 107 110 106 108 85 49 62 16 0
102 105 107 110 106 108 96 54 65 22 0
102 105 107 110 106 42 30 31 3 39 0
102 105 107 110 106 78 48 59 11 75 0
102 105 107 110 106 92 51 63 17 89 0
102 105 107 110 106 99 58 69 28 98 0
102 105 107 110 106 85 49 62 16 83 0
102 105 107 110 101 108 42 30 31 35 0
102 105 107 110 101 108 78 48 59 71 0
102 105 107 110 101 108 92 51 63 81 0
102 105 107 110 101 108 99 58 69 87 0
102 105 107 110 101 108 24 6 10 15 0
102 105 107 110 101 108 96 54 65 84 0
102 105 107 110 101 42 30 31 35 39 0
102 105 107 110 101 78 48 59 71 75 0
102 105 107 110 101 92 51 63 81 89 0
102 105 107 110 101 99 58 69 87 98 0
102 105 107 110 101 24 6 10 15 20 0
102 105 107 110 108 42 30 31 35 3 0
102 105 107 110 108 78 48 59 71 11 0
102 105 107 110 108 92 51 63 81 17 0
102 105 107 110 108 99 58 69 87 28 0
102 105 107 110 108 96 54 65 84 22 0
102 105 107 110 42 30 31 35 3 39 0
102 105 107 110 78 48 59 71 11 75 0
102 105 107 110 92 51 63 81 17 89 0
102 105 107 110 99 58 69 87 28 98 0
102 105 107 104 106 101 108 42 30 43 0
102 105 107 104 106 101 108 78 48 80 0
102 105 107 104 106 101 108 92 51 93 0
102 105 107 104 106 101 108 67 46 70 0
102 105 107 104 106 101 108 85 49 88 0
102 105 107 104 106 101 108 24 6 27 0
102 105 107 104 106 101 108 96 54 97 0
102 105 107 104 106 101 42 30 43 39 0
102 105 107 104 106 101 78 48 80 75 0
102 105 107 104 106 101 92 51 93 89 0
102 105 107 104 106 101 67 46 70 66 0
102 105 107 104 106 101 85 49 88 83 0
102 105 107 104 106 101 24 6 27 20 0
102 105 107 104 106 108 42 30 43 3 0
102 105 107 104 106 108 78 48 80 11 0
102 105 107 104 106 108 92 51 93 17 0
102 105 107 104 106 108 67 46 70 9 0
102 105 107 104 106 108 85 49 88 16 0
102 105 107 104 106 108 96 54 97 22 0
102 105 107 104 106 42 30 43 3 39 0
102 105 107 104 106 78 48 80 11 75 0
102 105 107 104 106 92 51 93 17 89 0
102 105 107 104 106 67 46 70 9 66 0
102 105 107 104 106 85 49 88 16 83 0
102 105 107 104 101 108 42 30 43 35 0
102 105 107 104 101 108 78 48 80 71 0
102 105 107 104 101 108 92 51 93 81 0
102 105 107 104 101 108 67 46 70 61 0
102 105 107 104 101 108 24 6 27 15 0
102 105 107 104 101 108 96 54 97 84 0
102 105 107 104 101 42 30 43 35 39 0
102 105 107 104 101 78 48 80 71 75 0
102 105 107 104 101 92 51 93 81 89 0
102 105 107 104 101 67 46 70 61 66 0
102 105 107 104 101 24 6 27 15 20 0
102 105 107 104 108 42 30 43 35 3 0
102 105 107 104 108 78 48 80 71 11 0
102 105 107 104 108 92 51 93 81 17 0
102 105 107 104 108 67 46 70 61 9 0
102 105 107 104 108 96 54 97 84 22 0
102 105 107 104 42 30 43 35 3 39 0
102 105 107 104 78 48 80 71 11 75 0
102 105 107 104 92 51 93 81 17 89 0
102 105 107 104 67 46 70 61 9 66 0
102 105 107 106 101 108 42 30 43 31 0
102 105 107 106 101 108 78 48 80 59 0
102 105 107 106 101 108 92 51 93 63 0
102 105 107 106 101 108 85 49 88 62 0
102 105 107 106 101 108 24 6 27 10 0
102 105 107 106 101 108 96 54 97 65 0
102 105 107 106 101 42 30 43 31 39 0
102 105 107 106 101 78 48 80 59 75 0
102 105 107 106 101 92 51 93 63 89 0
102 105 107 106 101 85 49 88 62 83 0
102 105 107 106 101 24 6 27 10 20 0
102 105 107 106 108 42 30 43 31 3 0
102 105 107 106 108 78 48 80 59 11 0
102 105 107 106 108 92 51 93 63 17 0
102 105 107 106 108 85 49 88 62 16 0
102 105 107 106 108 96 54 97 65 22 0
102 105 107 106 42 30 43 31 3 39 0
102 105 107 106 78 48 80 59 11 75 0
102 105 107 106 92 51 93 63 17 89 0
102 105 107 106 85 49 88 62 16 83 0
102 105 107 101 108 42 30 43 31 35 0
102 105 107 101 108 78 48 80 59 71 0
102 105 107 101 108 92 51 93 63 81 0
102 105 107 101 108 24 6 27 10 15 0
102 105 107 101 108 96 54 97 65 84 0
102 105 107 101 42 30 43 31 35 39 0
102 105 107 101 78 48 80 59 71 75 0
102 105 107 101 92 51 93 63 81 89 0
102 105 107 101 24 6 27 10 15 20 0
102 105 107 108 42 30 43 31 35 3 0
102 105 107 108 78 48 80 59 71 11 0
102 105 107 108 92 51 93 63 81 17 0
102 105 107 108 96 54 97 65 84 22 0
102 105 107 42 30 43 31 35 3 39 0
102 105 107 78 48 80 59 71 11 75 0
102 105 107 92 51 93 63 81 17 89 0
102 105 110 104 106 101 108 42 30 37 0
102 105 110 104 106 101 108 78 48 73 0
102 105 110 104 106 101 108 99 58 94 0
102 105 110 104 106 101 108 67 46 64 0
102 105 110 104 106 101 108 85 49 82 0
102 105 110 104 106 101 108 24 6 18 0
102 105 110 104 106 101 108 96 54 90 0
102 105 110 104 106 101 42 30 37 39 0
102 105 110 104 106 101 78 48 73 75 0
102 105 110 104 106 101 99 58 94 98 0
102 105 110 104 106 101 67 46 64 66 0
102 105 110 104 106 101 85 49 82 83 0
102 105 110 104 106 101 24 6 18 20 0
102 105 110 104 106 108 42 30 37 3 0
102 105 110 104 106 108 78 48 73 11 0
102 105 110 104 106 108 99 58 94 28 0
102 105 110 104 106 108 67 46 64 9 0
102 105 110 104 106 108 85 49 82 16 0
102 105 110 104 106 108 96 54 90 22 0
102 105 110 104 106 42 30 37 3 39 0
102 105 110 104 106 78 48 73 11 75 0
102 105 110 104 106 99 58 94 28 98 0
102 105 110 104 106 67 46 64 9 66 0
102 105 110 104 106 85 49 82 16 83 0
102 105 110 104 101 108 42 30 37 35 0
102 105 110 104 101 108 78 48 73 71 0
102 105 110 104 101 108 99 58 94 87 0
102 105 110 104 101 108 67 46 64 61 0
102 105 110 104 101 108 24 6 18 15 0
102 105 110 104 101 108 96 54 90 84 0
102 105 110 104 101 42 30 37 35 39 0
102 105 110 104 101 78 48 73 71 75 0
102 105 110 104 101 99 58 94 87 98 0
102 105 110 104 101 67 46 64 61 66 0
102 105 110 104 101 24 6 18 15 20 0
102 105 110 104 108 42 30 37 35 3 0
102 105 110 104 108 78 48 73 71 11 0
102 105 110 104 108 99 58 94 87 28 0
102 105 110 104 108 67 46 64 61 9 0
102 105 110 104 108 96 54 90 84 22 0
102 105 110 104 42 30 37 35 3 39 0
102 105 110 104 78 48 73 71 11 75 0
102 105 110 104 99 58 94 87 28 98 0
102 105 110 104 67 46 64 61 9 66 0
102 105 110 106 101 108 42 30 37 31 0
102 105 110 106 101 108 78 48 73 59 0
102 105 110 106 101 108 99 58 94 69 0
102 105 110 106 101 108 85 49 82 62 0
102 105 110 106 101 108 24 6 18 10 0
102 105 110 106 101 108 96 54 90 65 0
102 105 110 106 101 42 30 37 31 39 0
102 105 110 106 101 78 48 73 59 75 0
102 105 110 106 101 99 58 94 69 98 0
102 105 110 106 101 85 49 82 62 83 0
102 105 110 106 101 24 6 18 10 20 0
102 105 110 106 108 42 30 37 31 3 0
102 105 110 106 108 78 48 73 59 11 0
102 105 110 106 108 99 58 94 69 28 0
102 105 110 106 108 85 49 82 62 16 0
102 105 110 106 108 96 54 90 65 22 0
102 105 110 106 42 30 37 31 3 39 0
102 105 110 106 78 48 73 59 11 75 0
102 105 110 106 99 58 94 69 28 98 0
102 105 110 106 85 49 82 62 16 83 0
102 105 110 101 108 42 30 37 31 35 0
102 105 110 101 108 78 48 73 59 71 0
102 105 110 101 108 99 58 94 69 87 0
102 105 110 101 108 24 6 18 10 15 0
102 105 110 101 108 96 54 90 65 84 0
102 105 110 101 42 30 37 31 35 39 0
102 105 110 101 78 48 73 59 71 75 0
102 105 110 101 99 58 94 69 87 98 0
102 105 110 101 24 6 18 10 15 20 0
102 105 110 108 42 30 37 31 35 3 0
102 105 110 108 78 48 73 59 71 11 0
102 105 110 108 99 58 94 69 87 28 0
102 105 110 108 96 54 90 65 84 22 0
102 105 110 42 30 37 31 35 3 39 0
102 105 110 78 48 73 59 71 11 75 0
102 105 110 99 58 94 69 87 28 98 0
102 105 104 106 101 108 42 30 37 43 0
102 105 104 106 101 108 78 48 73 80 0
102 105 104 106 101 108 67 46 64 70 0
102 105 104 106 101 108 85 49 82 88 0
102 105 104 106 101 108 24 6 18 27 0
102 105 104 106 101 108 96 54 90 97 0
102 105 104 106 101 42 30 37 43 39 0
102 105 104 106 101 78 48 73 80 75 0
102 105 104 106 101 67 46 64 70 66 0
102 105 104 106 101 85 49 82 88 83 0
102 105 104 106 101 24 6 18 27 20 0
102 105 104 106 108 42 30 37 43 3 0
102 105 104 106 108 78 48 73 80 11 0
102 105 104 106 108 67 46 64 70 9 0
102 105 104 106 108 85 49 82 88 16 0
102 105 104 106 108 96 54 90 97 22 0
102 105 104 106 42 30 37 43 3 39 0
102 105 104 106 78 48 73 80 11 75 0
102 105 104 106 67 46 64 70 9 66 0
102 105 104 106 85 49 82 88 16 83 0
102 105 104 101 108 42 30 37 43 35 0
102 105 104 101 108 78 48 73 80 71 0
102 105 104 101 108 67 46 64 70 61 0
102 105 104 101 108 24 6 18 27 15 0
102 105 104 101 108 96 54 90 97 84 0
102 105 104 101 42 30 37 43 35 39 0
102 105 104 101 78 48 73 80 71 75 0
102 105 104 101 67 46 64 70 61 66 0
102 105 104 101 24 6 18 27 15 20 0
102 105 104 108 42 30 37 43 35 3 0
102 105 104 108 78 48 73 80 71 11 0
102 105 104 108 67 46 64 70 61 9 0
102 105 104 108 96 54 90 97 84 22 0
102 105 104 42 30 37 43 35 3 39 0
102 105 104 78 48 73 80 71 11 75 0
102 105 104 67 46 64 70 61 9 66 0
102 105 106 101 108 42 30 37 43 31 0
102 105 106 101 108 78 48 73 80 59 0
102 105 106 101 108 85 49 82 88 62 0
102 105 106 101 108 24 6 18 27 10 0
102 105 106 101 108 96 54 90 97 65 0
102 105 106 101 42 30 37 43 31 39 0
102 105 106 101 78 48 73 80 59 75 0
102 105 106 101 85 49 82 88 62 83 0
102 105 106 101 24 6 18 27 10 20 0
102 105 106 108 42 30 37 43 31 3 0
102 105 106 108 78 48 73 80 59 11 0
102 105 106 108 85 49 82 88 62 16 0
102 105 106 108 96 54 90 97 65 22 0
102 105 106 42 30 37 43 31 3 39 0
102 105 106 78 48 73 80 59 11 75 0
102 105 106 85 49 82 88 62 16 83 0
102 105 101 108 42 30 37 43 31 35 0
102 105 101 108 78 48 73 80 59 71 0
102 105 101 108 24 6 18 27 10 15 0
102 105 101 108 96 54 90 97 65 84 0
102 105 101 42 30 37 43 31 35 39 0
102 105 101 78 48 73 80 59 71 75 0
102 105 101 24 6 18 27 10 15 20 0
102 105 108 42 30 37 43 31 35 3 0
102 105 108 78 48 73 80 59 71 11 0
102 105 108 96 54 90 97 65 84 22 0
102 105 42 30 37 43 31 35 3 39 0
102 105 78 48 73 80 59 71 11 75 0
102 103 107 110 104 106 101 108 42 34 0
102 103 107 110 104 106 101 108 55 47 0
102 103 107 110 104 106 101 108 92 74 0
102 103 107 110 104 106 101 108 99 79 0
102 103 107 110 104 106 101 108 67 60 0
102 103 107 110 104 106 101 108 85 72 0
102 103 107 110 104 106 101 108 24 12 0
102 103 107 110 104 106 101 108 96 76 0
102 103 107 110 104 106 101 42 34 39 0
102 103 107 110 104 106 101 55 47 53 0
102 103 107 110 104 106 101 92 74 89 0
102 103 107 110 104 106 101 99 79 98 0
102 103 107 110 104 106 101 67 60 66 0
102 103 107 110 104 106 101 85 72 83 0
102 103 107 110 104 106 101 24 12 20 0
102 103 107 110 104 106 108 42 34 3 0
102 103 107 110 104 106 108 55 47 7 0
102 103 107 110 104 106 108 92 74 17 0
102 103 107 110 104 106 108 99 79 28 0
102 103 107 110 104 106 108 67 60 9 0
102 103 107 110 104 106 108 85 72 16 0
102 103 107 110 104 106 108 96 76 22 0
102 103 107 110 104 106 42 34 3 39 0
102 103 107 110 104 106 55 47 7 53 0
102 103 107 110 104 106 92 74 17 89 0
102 103 107 110 104 106 99 79 28 98 0
102 103 107 110 104 106 67 60 9 66 0
102 103 107 110 104 106 85 72 16 83 0
102 103 107 110 104 101 108 42 34 35 0
102 103 107 110 104 101 108 55 47 50 0
102 103 107 110 104 101 108 92 74 81 0
102 103 107 110 104 101 108 99 79 87 0
102 103 107 110 104 101 108 67 60 61 0
102 103 107 110 104 101 108 24 12 15 0
102 103 107 110 104 101 108 96 76 84 0
102 103 107 110 104 101 42 34 35 39 0
102 103 107 110 104 101 55 47 50 53 0
102 103 107 110 104 101 92 74 81 89 0
102 103 107 110 104 101 99 79 87 98 0
102 103 107 110 104 101 67 60 61 66 0
102 103 107 110 104 101 24 12 15 20 0
102 103 107 110 104 108 42 34 35 3 0
102 103 107 110 104 108 55 47 50 7 0
102 103 107 110 104 108 92 74 81 17 0
102 103 107 110 104 108 99 79 87 28 0
102 103 107 110 104 108 67 60 61 9 0
102 103 107 110 104 108 96 76 84 22 0
102 103 107 110 104 42 34 35 3 39 0
102 103 107 110 104 55 47 50 7 53 0
102 103 107 110 104 92 74 81 17 89 0
102 103 107 110 104 99 79 87 28 98 0
102 103 107 110 104 67 60 61 9 66 0
102 103 107 110 106 101 108 42 34 31 0
102 103 107 110 106 101 108 55 47 45 0
102 103 107 110 106 101 108 92 74 63 0
102 103 107 110 106 101 108 99 79 69 0
102 103 107 110 106 101 108 85 72 62 0
102 103 107 110 106 101 108 24 12 10 0
102 103 107 110 106 101 108 96 76 65 0
102 103 107 110 106 101 42 34 31 39 0
102 103 107 110 106 101 55 47 45 53 0
102 103 107 110 106 101 92 74 63 89 0
102 103 107 110 106 101 99 79 69 98 0
102 103 107 110 106 101 85 72 62 83 0
102 103 107 110 106 101 24 12 10 20 0
102 103 107 110 106 108 42 34 31 3 0
102 103 107 110 106 108 55 47 45 7 0
102 103 107 110 106 108 92 74 63 17 0
102 103 107 110 106 108 99 79 69 28 0
102 103 107 110 106 108 85 72 62 16 0
102 103 107 110 106 108 96 76 65 22 0
102 103 107 110 106 42 34 31 3 39 0
102 103 107 110 106 55 47 45 7 53 0
102 103 107 110 106 92 74 63 17 89 0
102 103 107 110 106 99 79 69 28 98 0
102 103 107 110 106 85 72 62 16 83 0
102 103 107 110 101 108 42 34 31 35 0
102 103 107 110 101 108 55 47 45 50 0
102 103 107 110 101 108 92 74 63 81 0
102 103 107 110 101 108 99 79 69 87 0
102 103 107 110 101 108 24 12 10 15 0
102 103 107 110 101 108 96 76 65 84 0
102 103 107 110 101 42 34 31 35 39 0
102 103 107 110 101 55 47 45 50 53 0
102 103 107 110 101 92 74 63 81 89 0
102 103 107 110 101 99 79 69 87 98 0
102 103 107 110 101 24 12 10 15 20 0
102 103 107 110 108 42 34 31 35 3 0
102 103 107 110 108 55 47 45 50 7 0
102 103 107 110 108 92 74 63 81 17 0
102 103 107 110 108 99 79 69 87 28 0
102 103 107 110 108 96 76 65 84 22 0
102 103 107 110 42 34 31 35 3 39 0
102 103 107 110 55 47 45 50 7 53 0
102 103 107 110 92 74 63 81 17 89 0
102 103 107 110 99 79 69 87 28 98 0
102 103 107 104 106 101 108 42 34 43 0
102 103 107 104 106 101 108 55 47 57 0
102 103 107 104 106 101 108 92 74 93 0
102 103 107 104 106 101 108 67 60 70 0
102 103 107 104 106 101 108 85 72 88 0
102 103 107 104 106 101 108 24 12 27 0
102 103 107 104 106 101 108 96 76 97 0
102 103 107 104 106 101 42 34 43 39 0
102 103 107 104 106 101 55 47 57 53 0
102 103 107 104 106 101 92 74 93 89 0
102 103 107 104 106 101 67 60 70 66 0
102 103 107 104 106 101 85 72 88 83 0
102 103 107 104 106 101 24 12 27 20 0
102 103 107 104 106 108 42 34 43 3 0
102 103 107 104 106 108 55 47 57 7 0
102 103 107 104 106 108 92 74 93 17 0
102 103 107 104 106 108 67 60 70 9 0
102 103 107 104 106 108 85 72 88 16 0
102 103 107 104 106 108 96 76 97 22 0
102 103 107 104 106 42 34 43 3 39 0
102 103 107 104 106 55 47 57 7 53 0
102 103 107 104 106 92 74 93 17 89 0
102 103 107 104 106 67 60 70 9 66 0
102 103 107 104 106 85 72 88 16 83 0
102 103 107 104 101 108 42 34 43 35 0
102 103 107 104 101 108 55 47 57 50 0
102 103 107 104 101 108 92 74 93 81 0
102 103 107 104 101 108 67 60 70 61 0
102 103 107 104 101 108 24 12 27 15 0
102 103 107 104 101 108 96 76 97 84 0
102 103 107 104 101 42 34 43 35 39 0
102 103 107 104 101 55 47 57 50 53 0
102 103 107 104 101 92 74 93 81 89 0
102 103 107 104 101 67 60 70 61 66 0
102 103 107 104 101 24 12 27 15 20 0
102 103 107 104 108 42 34 43 35 3 0
102 103 107 104 108 55 47 57 50 7 0
102 103 107 104 108 92 74 93 81 17 0
102 103 107 104 108 67 60 70 61 9 0
102 103 107 104 108 96 76 97 84 22 0
102 103 107 104 42 34 43 35 3 39 0
102 103 107 104 55 47 57 50 7 53 0
102 103 107 104 92 74 93 81 17 89 0
102 103 107 104 67 60 70 61 9 66 0
102 103 107 106 101 108 42 34 43 31 0
102 103 107 106 101 108 55 47 57 45 0
102 103 107 106 101 108 92 74 93 63 0
102 103 107 106 101 108 85 72 88 62 0
102 103 107 106 101 108 24 12 27 10 0
102 103 107 106 101 108 96 76 97 65 0
102 103 107 106 101 42 34 43 31 39 0
102 103 107 106 101 55 47 57 45 53 0
102 103 107 106 101 92 74 93 63 89 0
102 103 107 106 101 85 72 88 62 83 0
102 103 107 106 101 24 12 27 10 20 0
102 103 107 106 108 42 34 43 31 3 0
102 103 107 106 108 55 47 57 45 7 0
102 103 107 106 108 92 74 93 63 17 0
102 103 107 106 108 85 72 88 62 16 0
102 103 107 106 108 96 76 97 65 22 0
102 103 107 106 42 34 43 31 3 39 0
102 103 107 106 55 47 57 45 7 53 0
102 103 107 106 92 74 93 63 17 89 0
102 103 107 106 85 72 88 62 16 83 0
102 103 107 101 108 42 34 43 31 35 0
102 103 107 101 108 55 47 57 45 50 0
102 103 107 101 108 92 74 93 63 81 0
102 103 107 101 108 24 12 27 10 15 0
102 103 107 101 108 96 76 97 65 84 0
102 103 107 101 42 34 43 31 35 39 0
102 103 107 101 55 47 57 45 50 53 0
102 103 107 101 92 74 93 63 81 89 0
102 103 107 101 24 12 27 10 15 20 0
102 103 107 108 42 34 43 31 35 3 0
102 103 107 108 55 47 57 45 50 7 0
102 103 107 108 92 74 93 63 81 17 0
102 103 107 108 96 76 97 65 84 22 0
102 103 107 42 34 43 31 35 3 39 0
102 103 107 55 47 57 45 50 7 53 0
102 103 107 92 74 93 63 81 17 89 0
102 103 110 104 106 101 108 42 34 37 0
102 103 110 104 106 101 108 55 47 52 0
102 103 110 104 106 101 108 99 79 94 0
102 103 110 104 106 101 108 67 60 64 0
102 103 110 104 106 101 108 85 72 82 0
102 103 110 104 106 101 108 24 12 18 0
102 103 110 104 106 101 108 96 76 90 0
102 103 110 104 106 101 42 34 37 39 0
102 103 110 104 106 101 55 47 52 53 0
102 103 110 104 106 101 99 79 94 98 0
102 103 110 104 106 101 67 60 64 66 0
102 103 110 104 106 101 85 72 82 83 0
102 103 110 104 106 101 24 12 18 20 0
102 103 110 104 106 108 42 34 37 3 0
102 103 110 104 106 108 55 47 52 7 0
102 103 110 104 106 108 99 79 94 28 0
102 103 110 104 106 108 67 60 64 9 0
102 103 110 104 106 108 85 72 82 16 0
102 103 110 104 106 108 96 76 90 22 0
102 103 110 104 106 42 34 37 3 39 0
102 103 110 104 106 55 47 52 7 53 0
102 103 110 104 106 99 79 94 28 98 0
102 103 110 104 106 67 60 64 9 66 0
102 103 110 104 106 85 72 82 16 83 0
102 103 110 104 101 108 42 34 37 35 0
102 103 110 104 101 108 55 47 52 50 0
102 103 110 104 101 108 99 79 94 87 0
102 103 110 104 101 108 67 60 64 61 0
102 103 110 104 101 108 24 12 18 15 0
102 103 110 104 101 108 96 76 90 84 0
102 103 110 104 101 42 34 37 35 39 0
102 103 110 104 101 55 47 52 50 53 0
102 103 110 104 101 99 79 94 87 98 0
102 103 110 104 101 67 60 64 61 66 0
102 103 110 104 101 24 12 18 15 20 0
102 103 110 104 108 42 34 37 35 3 0
102 103 110 104 108 55 47 52 50 7 0
102 103 110 104 108 99 79 94 87 28 0
102 103 110 104 108 67 60 64 61 9 0
102 103 110 104 108 96 76 90 84 22 0
102 103 110 104 42 34 37 35 3 39 0
102 103 110 104 55 47 52 50 7 53 0
102 103 110 104 99 79 94 87 28 98 0
102 103 110 104 67 60 64 61 9 66 0
102 103 110 106 101 108 42 34 37 31 0
102 103 110 106 101 108 55 47 52 45 0
102 103 110 106 101 108 99 79 94 69 0
102 103 110 106 101 108 85 72 82 62 0
102 103 110 106 101 108 24 12 18 10 0
102 103 110 106 101 108 96 76 90 65 0
102 103 110 106 101 42 34 37 31 39 0
102 103 110 106 101 55 47 52 45 53 0
102 103 110 106 101 99 79 94 69 98 0
102 103 110 106 101 85 72 82 62 83 0
102 103 110 106 101 24 12 18 10 20 0
102 103 110 106 108 42 34 37 31 3 0
102 103 110 106 108 55 47 52 45 7 0
102 103 110 106 108 99 79 94 69 28 0
102 103 110 106 108 85 72 82 62 16 0
102 103 110 106 108 96 76 90 65 22 0
102 103 110 106 42 34 37 31 3 39 0
102 103 110 106 55 47 52 45 7 53 0
102 103 110 106 99 79 94 69 28 98 0
102 103 110 106 85 72 82 62 16 83 0
102 103 110 101 108 42 34 37 31 35 0
102 103 110 101 108 55 47 52 45 50 0
102 103 110 101 108 99 79 94 69 87 0
102 103 110 101 108 24 12 18 10 15 0
102 103 110 101 108 96 76 90 65 84 0
102 103 110 101 42 34 37 31 35 39 0
102 103 110 101 55 47 52 45 50 53 0
102 103 110 101 99 79 94 69 87 98 0
102 103 110 101 24 12 18 10 15 20 0
102 103 110 108 42 34 37 31 35 3 0
102 103 110 108 55 47 52 45 50 7 0
102 103 110 108 99 79 94 69 87 28 0
102 103 110 108 96 76 90 65 84 22 0
102 103 110 42 34 37 31 35 3 39 0
102 103 110 55 47 52 45 50 7 53 0
102 103 110 99 79 94 69 87 28 98 0
102 103 104 106 101 108 42 34 37 43 0
102 103 104 106 101 108 55 47 52 57 0
102 103 104 106 101 108 67 60 64 70 0
102 103 104 106 101 108 85 72 82 88 0
102 103 104 106 101 108 24 12 18 27 0
102 103 104 106 101 108 96 76 90 97 0
102 103 104 106 101 42 34 37 43 39 0
102 103 104 106 101 55 47 52 57 53 0
102 103 104 106 101 67 60 64 70 66 0
102 103 104 106 101 85 72 82 88 83 0
102 103 104 106 101 24 12 18 27 20 0
102 103 104 106 108 42 34 37 43 3 0
102 103 104 106 108 55 47 52 57 7 0
102 103 104 106 108 67 60 64 70 9 0
102 103 104 106 108 85 72 82 88 16 0
102 103 104 106 108 96 76 90 97 22 0
102 103 104 106 42 34 37 43 3 39 0
102 103 104 106 55 47 52 57 7 53 0
102 103 104 106 67 60 64 70 9 66 0
102 103 104 106 85 72 82 88 16 83 0
102 103 104 101 108 42 34 37 43 35 0
102 103 104 101 108 55 47 52 57 50 0
102 103 104 101 108 67 60 64 70 61 0
102 103 104 101 108 24 12 18 27 15 0
102 103 104 101 108 96 76 90 97 84 0
102 103 104 101 42 34 37 43 35 39 0
102 103 104 101 55 47 52 57 50 53 0
102 103 104 101 67 60 64 70 61 66 0
102 103 104 101 24 12 18 27 15 20 0
102 103 104 108 42 34 37 43 35 3 0
102 103 104 108 55 47 52 57 50 7 0
102 103 104 108 67 60 64 70 61 9 0
102 103 104 108 96 76 90 97 84 22 0
102 103 104 42 34 37 43 35 3 39 0
102 103 104 55 47 52 57 50 7 53 0
102 103 104 67 60 64 70 61 9 66 0
102 103 106 101 108 42 34 37 43 31 0
102 103 106 101 108 55 47 52 57 45 0
102 103 106 101 108 85 72 82 88 62 0
102 103 106 101 108 24 12 18 27 10 0
102 103 106 101 108 96 76 90 97 65 0
102 103 106 101 42 34 37 43 31 39 0
102 103 106 101 55 47 52 57 45 53 0
102 103 106 101 85 72 82 88 62 83 0
102 103 106 101 24 12 18 27 10 20 0
102 103 106 108 42 34 37 43 31 3 0
102 103 106 108 55 47 52 57 45 7 0
102 103 106 108 85 72 82 88 62 16 0
102 103 106 108 96 76 90 97 65 22 0
102 103 106 42 34 37 43 31 3 39 0
102 103 106 55 47 52 57 45 7 53 0
102 103 106 85 72 82 88 62 16 83 0
102 103 101 108 42 34 37 43 31 35 0
102 103 101 108 55 47 52 57 45 50 0
102 103 101 108 24 12 18 27 10 15 0
102 103 101 108 96 76 90 97 65 84 0
102 103 101 42 34 37 43 31 35 39 0
102 103 101 55 47 52 57 45 50 53 0
102 103 101 24 12 18 27 10 15 20 0
102 103 108 42 34 37 43 31 35 3 0
102 103 108 55 47 52 57 45 50 7 0
102 103 108 96 76 90 97 65 84 22 0
102 103 42 34 37 43 31 35 3 39 0
102 103 55 47 52 57 45 50 7 53 0
102 107 110 104 106 101 108 42 34 30 0
102 107 110 104 106 101 108 92 74 51 0
102 107 110 104 106 101 108 99 79 58 0
102 107 110 104 106 101 108 67 60 46 0
102 107 110 104 106 101 108 85 72 49 0
102 107 110 104 106 101 108 24 12 6 0
102 107 110 104 106 101 108 96 76 54 0
102 107 110 104 106 101 42 34 30 39 0
102 107 110 104 106 101 92 74 51 89 0
102 107 110 104 106 101 99 79 58 98 0
102 107 110 104 106 101 67 60 46 66 0
102 107 110 104 106 101 85 72 49 83 0
102 107 110 104 106 101 24 12 6 20 0
102 107 110 104 106 108 42 34 30 3 0
102 107 110 104 106 108 92 74 51 17 0
102 107 110 104 106 108 99 79 58 28 0
102 107 110 104 106 108 67 60 46 9 0
102 107 110 104 106 108 85 72 49 16 0
102 107 110 104 106 108 96 76 54 22 0
102 107 110 104 106 42 34 30 3 39 0
102 107 110 104 106 92 74 51 17 89 0
102 107 110 104 106 99 79 58 28 98 0
102 107 110 104 106 67 60 46 9 66 0
102 107 110 104 106 85 72 49 16 83 0
102 107 110 104 101 108 42 34 30 35 0
102 107 110 104 101 108 92 74 51 81 0
102 107 110 104 101 108 99 79 58 87 0
102 107 110 104 101 108 67 60 46 61 0
102 107 110 104 101 108 24 12 6 15 0
102 107 110 104 101 108 96 76 54 84 0
102 107 110 104 101 42 34 30 35 39 0
102 107 110 104 101 92 74 51 81 89 0
102 107 110 104 101 99 79 58 87 98 0
102 107 110 104 101 67 60 46 61 66 0
102 107 110 104 101 24 12 6 15 20 0
102 107 110 104 108 42 34 30 35 3 0
102 107 110 104 108 92 74 51 81 17 0
102 107 110 104 108 99 79 58 87 28 0
102 107 110 104 108 67 60 46 61 9 0
102 107 110 104 108 96 76 54 84 22 0
102 107 110 104 42 34 30 35 3 39 0
102 107 110 104 92 74 51 81 17 89 0
102 107 110 104 99 79 58 87 28 98 0
102 107 110 104 67 60 46 61 9 66 0
102 107 110 106 101 108 42 34 30 31 0
102 107 110 106 101 108 92 74 51 63 0
102 107 110 106 101 108 99 79 58 69 0
102 107 110 106 101 108 85 72 49 62 0
102 107 110 106 101 108 24 12 6 10 0
102 107 110 106 101 108 96 76 54 65 0
102 107 110 106 101 42 34 30 31 39 0
102 107 110 106 101 92 74 51 63 89 0
102 107 110 106 101 99 79 58 69 98 0
102 107 110 106 101 85 72 49 62 83 0
102 107 110 106 101 24 12 6 10 20 0
102 107 110 106 108 42 34 30 31 3 0
102 107 110 106 108 92 74 51 63 17 0
102 107 110 106 108 99 79 58 69 28 0
102 107 110 106 108 85 72 49 62 16 0
102 107 110 106 108 96 76 54 65 22 0
102 107 110 106 42 34 30 31 3 39 0
102 107 110 106 92 74 51 63 17 89 0
102 107 110 106 99 79 58 69 28 98 0
102 107 110 106 85 72 49 62 16 83 0
102 107 110 101 108 42 34 30 31 35 0
102 107 110 101 108 92 74 51 63 81 0
102 107 110 101 108 99 79 58 69 87 0
102 107 110 101 108 24 12 6 10 15 0
102 107 110 101 108 96 76 54 65 84 0
102 107 110 101 42 34 30 31 35 39 0
102 107 110 101 92 74 51 63 81 89 0
102 107 110 101 99 79 58 69 87 98 0
102 107 110 101 24 12 6 10 15 20 0
102 107 110 108 42 34 30 31 35 3 0
102 107 110 108 92 74 51 63 81 17 0
102 107 110 108 99 79 58 69 87 28 0
102 107 110 108 96 76 54 65 84 22 0
102 107 110 42 34 30 31 35 3 39 0
102 107 110 92 74 51 63 81 17 89 0
102 107 110 99 79 58 69 87 28 98 0
102 107 104 106 101 108 42 34 30 43 0
102 107 104 106 101 108 92 74 51 93 0
102 107 104 106 101 108 67 60 46 70 0
102 107 104 106 101 108 85 72 49 88 0
102 107 104 106 101 108 24 12 6 27 0
102 107 104 106 101 108 96 76 54 97 0
102 107 104 106 101 42 34 30 43 39 0
102 107 104 106 101 92 74 51 93 89 0
102 107 104 106 101 67 60 46 70 66 0
102 107 104 106 101 85 72 49 88 83 0
102 107 104 106 101 24 12 6 27 20 0
102 107 104 106 108 42 34 30 43 3 0
102 107 104 106 108 92 74 51 93 17 0
102 107 104 106 108 67 60 46 70 9 0
102 107 104 106 108 85 72 49 88 16 0
102 107 104 106 108 96 76 54 97 22 0
102 107 104 106 42 34 30 43 3 39 0
102 107 104 106 92 74 51 93 17 89 0
102 107 104 106 67 60 46 70 9 66 0
102 107 104 106 85 72 49 88 16 83 0
102 107 104 101 108 42 34 30 43 35 0
102 107 104 101 108 92 74 51 93 81 0
102 107 104 101 108 67 60 46 70 61 0
102 107 104 101 108 24 12 6 27 15 0
102 107 104 101 108 96 76 54 97 84 0
102 107 104 101 42 34 30 43 35 39 0
102 107 104 101 92 74 51 93 81 89 0
102 107 104 101 67 60 46 70 61 66 0
102 107 104 101 24 12 6 27 15 20 0
102 107 104 108 42 34 30 43 35 3 0
102 107 104 108 92 74 51 93 81 17 0
102 107 104 108 67 60 46 70 61 9 0
102 107 104 108 96 76 54 97 84 22 0
102 107 104 42 34 30 43 35 3 39 0
102 107 104 92 74 51 93 81 17 89 0
102 107 104 67 60 46 70 61 9 66 0
102 107 106 101 108 42 34 30 43 31 0
102 107 106 101 108 92 74 51 93 63 0
102 107 106 101 108 85 72 49 88 62 0
102 107 106 101 108 24 12 6 27 10 0
102 107 106 101 108 96 76 54 97 65 0
102 107 106 101 42 34 30 43 31 39 0
102 107 106 101 92 74 51 93 63 89 0
102 107 106 101 85 72 49 88 62 83 0
102 107 106 101 24 12 6 27 10 20 0
102 107 106 108 42 34 30 43 31 3 0
102 107 106 108 92 74 51 93 63 17 0
102 107 106 108 85 72 49 88 62 16 0
102 107 106 108 96 76 54 97 65 22 0
102 107 106 42 34 30 43 31 3 39 0
102 107 106 92 74 51 93 63 17 89 0
102 107 106 85 72 49 88 62 16 83 0
102 107 101 108 42 34 30 43 31 35 0
102 107 101 108 92 74 51 93 63 81 0
102 107 101 108 24 12 6 27 10 15 0
102 107 101 108 96 76 54 97 65 84 0
102 107 101 42 34 30 43 31 35 39 0
102 107 101 92 74 51 93 63 81 89 0
102 107 101 24 12 6 27 10 15 20 0
102 107 108 42 34 30 43 31 35 3 0
102 107 108 92 74 51 93 63 81 17 0
102 107 108 96 76 54 97 65 84 22 0
102 107 42 34 30 43 31 35 3 39 0
102 107 92 74 51 93 63 81 17 89 0
102 110 104 106 101 108 42 34 30 37 0
102 110 104 106 101 108 99 79 58 94 0
102 110 104 106 101 108 67 60 46 64 0
102 110 104 106 101 108 85 72 49 82 0
102 110 104 106 101 108 24 12 6 18 0
102 110 104 106 101 108 96 76 54 90 0
102 110 104 106 101 42 34 30 37 39 0
102 110 104 106 101 99 79 58 94 98 0
102 110 104 106 101 67 60 46 64 66 0
102 110 104 106 101 85 72 49 82 83 0
102 110 104 106 101 24 12 6 18 20 0
102 110 104 106 108 42 34 30 37 3 0
102 110 104 106 108 99 79 58 94 28 0
102 110 104 106 108 67 60 46 64 9 0
102 110 104 106 108 85 72 49 82 16 0
102 110 104 106 108 96 76 54 90 22 0
102 110 104 106 42 34 30 37 3 39 0
102 110 104 106 99 79 58 94 28 98 0
102 110 104 106 67 60 46 64 9 66 0
102 110 104 106 85 72 49 82 16 83 0
102 110 104 101 108 42 34 30 37 35 0
102 110 104 101 108 99 79 58 94 87 0
102 110 104 101 108 67 60 46 64 61 0
102 110 104 101 108 24 12 6 18 15 0
102 110 104 101 108 96 76 54 90 84 0
102 110 104 101 42 34 30 37 35 39 0
102 110 104 101 99 79 58 94 87 98 0
102 110 104 101 67 60 46 64 61 66 0
102 110 104 101 24 12 6 18 15 20 0
102 110 104 108 42 34 30 37 35 3 0
102 110 104 108 99 79 58 94 87 28 0
102 110 104 108 67 60 46 64 61 9 0
102 110 104 108 96 76 54 90 84 22 0
102 110 104 42 34 30 37 35 3 39 0
102 110 104 99 79 58 94 87 28 98 0
102 110 104 67 60 46 64 61 9 66 0
102 110 106 101 108 42 34 30 37 31 0
102 110 106 101 108 99 79 58 94 69 0
102 110 106 101 108 85 72 49 82 62 0
102 110 106 101 108 24 12 6 18 10 0
102 110 106 101 108 96 76 54 90 65 0
102 110 106 101 42 34 30 37 31 39 0
102 110 106 101 99 79 58 94 69 98 0
102 110 106 101 85 72 49 82 62 83 0
102 110 106 101 24 12 6 18 10 20 0
102 110 106 108 42 34 30 37 31 3 0
102 110 106 108 99 79 58 94 69 28 0
102 110 106 108 85 72 49 82 62 16 0
102 110 106 108 96 76 54 90 65 22 0
102 110 106 42 34 30 37 31 3 39 0
102 110 106 99 79 58 94 69 28 98 0
102 110 106 85 72 49 82 62 16 83 0
102 110 101 108 42 34 30 37 31 35 0
102 110 101 108 99 79 58 94 69 87 0
102 110 101 108 24 12 6 18 10 15 0
102 110 101 108 96 76 54 90 65 84 0
102 110 101 42 34 30 37 31 35 39 0
102 110 101 99 79 58 94 69 87 98 0
102 110 101 24 12 6 18 10 15 20 0
102 110 108 42 34 30 37 31 35 3 0
102 110 108 99 79 58 94 69 87 28 0
102 110 108 96 76 54 90 65 84 22 0
102 110 42 34 30 37 31 35 3 39 0
102 110 99 79 58 94 69 87 28 98 0
102 104 106 101 108 42 34 30 37 43 0
102 104 106 101 108 67 60 46 64 70 0
102 104 106 101 108 85 72 49 82 88 0
102 104 106 101 108 24 12 6 18 27 0
102 104 106 101 108 96 76 54 90 97 0
102 104 106 101 42 34 30 37 43 39 0
102 104 106 101 67 60 46 64 70 66 0
102 104 106 101 85 72 49 82 88 83 0
102 104 106 101 24 12 6 18 27 20 0
102 104 106 108 42 34 30 37 43 3 0
102 104 106 108 67 60 46 64 70 9 0
102 104 106 108 85 72 49 82 88 16 0
102 104 106 108 96 76 54 90 97 22 0
102 104 106 42 34 30 37 43 3 39 0
102 104 106 67 60 46 64 70 9 66 0
102 104 106 85 72 49 82 88 16 83 0
102 104 101 108 42 34 30 37 43 35 0
102 104 101 108 67 60 46 64 70 61 0
102 104 101 108 24 12 6 18 27 15 0
102 104 101 108 96 76 54 90 97 84 0
102 104 101 42 34 30 37 43 35 39 0
102 104 101 67 60 46 64 70 61 66 0
102 104 101 24 12 6 18 27 15 20 0
102 104 108 42 34 30 37 43 35 3 0
102 104 108 67 60 46 64 70 61 9 0
102 104 108 96 76 54 90 97 84 22 0
102 104 42 34 30 37 43 35 3 39 0
102 104 67 60 46 64 70 61 9 66 0
102 106 101 108 42 34 30 37 43 31 0
102 106 101 108 85 72 49 82 88 62 0
102 106 101 108 24 12 6 18 27 10 0
102 106 101 108 96 76 54 90 97 65 0
102 106 101 42 34 30 37 43 31 39 0
102 106 101 85 72 49 82 88 62 83 0
102 106 101 24 12 6 18 27 10 20 0
102 106 108 42 34 30 37 43 31 3 0
102 106 108 85 72 49 82 88 62 16 0
102 106 108 96 76 54 90 97 65 22 0
102 106 42 34 30 37 43 31 3 39 0
102 106 85 72 49 82 88 62 16 83 0
102 101 108 42 34 30 37 43 31 35 0
102 101 108 24 12 6 18 27 10 15 0
102 101 108 96 76 54 90 97 65 84 0
102 101 42 34 30 37 43 31 35 39 0
102 101 24 12 6 18 27 10 15 20 0
102 108 42 34 30 37 43 31 35 3 0
102 108 96 76 54 90 97 65 84 22 0
102 42 34 30 37 43 31 35 3 39 0
109 105 103 107 110 104 106 101 108 41 0
109 105 103 107 110 104 106 101 108 33 0
109 105 103 107 110 104 106 101 108 29 0
109 105 103 107 110 104 106 101 108 38 0
109 105 103 107 110 104 106 101 108 44 0
109 105 103 107 110 104 106 101 108 32 0
109 105 103 107 110 104 106 101 108 36 0
109 105 103 107 110 104 106 101 108 4 0
109 105 103 107 110 104 106 101 108 40 0
109 105 103 107 110 104 106 101 41 95 0
109 105 103 107 110 104 106 101 33 75 0
109 105 103 107 110 104 106 101 29 53 0
109 105 103 107 110 104 106 101 38 89 0
109 105 103 107 110 104 106 101 44 98 0
109 105 103 107 110 104 106 101 32 66 0
109 105 103 107 110 104 106 101 36 83 0
109 105 103 107 110 104 106 101 4 20 0
109 105 103 107 110 104 106 108 41 25 0
109 105 103 107 110 104 106 108 33 11 0
109 105 103 107 110 104 106 108 29 7 0
109 105 103 107 110 104 106 108 38 17 0
109 105 103 107 110 104 106 108 44 28 0
109 105 103 107 110 104 106 108 32 9 0
109 105 103 107 110 104 106 108 36 16 0
109 105 103 107 110 104 106 108 40 22 0
109 105 103 107 110 104 106 41 25 95 0
109 105 103 107 110 104 106 33 11 75 0
109 105 103 107 110 104 106 29 7 53 0
109 105 103 107 110 104 106 38 17 89 0
109 105 103 107 110 104 106 44 28 98 0
109 105 103 107 110 104 106 32 9 66 0
109 105 103 107 110 104 106 36 16 83 0
109 105 103 107 110 104 101 108 41 86 0
109 105 103 107 110 104 101 108 33 71 0
109 105 103 107 110 104 101 108 29 50 0
109 105 103 107 110 104 101 108 38 81 0
109 105 103 107 110 104 101 108 44 87 0
109 105 103 107 110 104 101 108 32 61 0
109 105 103 107 110 104 101 108 4 15 0
109 105 103 107 110 104 101 108 40 84 0
109 105 103 107 110 104 101 41 86 95 0
109 105 103 107 110 104 101 33 71 75 0
109 105 103 107 110 104 101 29 50 53 0
109 105 103 107 110 104 101 38 81 89 0
109 105 103 107 110 104 101 44 87 98 0
109 105 103 107 110 104 101 32 61 66 0
109 105 103 107 110 104 101 4 15 20 0
109 105 103 107 110 104 108 41 86 25 0
109 105 103 107 110 104 108 33 71 11 0
109 105 103 107 110 104 108 29 50 7 0
109 105 103 107 110 104 108 38 81 17 0
109 105 103 107 110 104 108 44 87 28 0
109 105 103 107 110 104 108 32 61 9 0
109 105 103 107 110 104 108 40 84 22 0
109 105 103 107 110 104 41 86 25 95 0
109 105 103 107 110 104 33 71 11 75 0
109 105 103 107 110 104 29 50 7 53 0
109 105 103 107 110 104 38 81 17 89 0
109 105 103 107 110 104 44 87 28 98 0
109 105 103 107 110 104 32 61 9 66 0
109 105 103 107 110 106 101 108 41 68 0
109 105 103 107 110 106 101 108 33 59 0
109 105 103 107 110 106 101 108 29 45 0
109 105 103 107 110 106 101 108 38 63 0
109 105 103 107 110 106 101 108 44 69 0
109 105 103 107 110 106 101 108 36 62 0
109 105 103 107 110 106 101 108 4 10 0
109 105 103 107 110 106 101 108 40 65 0
109 105 103 107 110 106 101 41 68 95 0
109 105 103 107 110 106 101 33 59 75 0
109 105 103 107 110 106 101 29 45 53 0
109 105 103 107 110 106 101 38 63 89 0
109 105 103 107 110 106 101 44 69 98 0
109 105 103 107 110 106 101 36 62 83 0
109 105 103 107 110 106 101 4 10 20 0
109 105 103 107 110 106 108 41 68 25 0
109 105 103 107 110 106 108 33 59 11 0
109 105 103 107 110 106 108 29 45 7 0
109 105 103 107 110 106 108 38 63 17 0
109 105 103 107 110 106 108 44 69 28 0
109 105 103 107 110 106 108 36 62 16 0
109 105 103 107 110 106 108 40 65 22 0
109 105 103 107 110 106 41 68 25 95 0
109 105 103 107 110 106 33 59 11 75 0
109 105 103 107 110 106 29 45 7 53 0
109 105 103 107 110 106 38 63 17 89 0
109 105 103 107 110 106 44 69 28 98 0
109 105 103 107 110 106 36 62 16 83 0
109 105 103 107 110 101 108 41 68 86 0
109 105 103 107 110 101 108 33 59 71 0
109 105 103 107 110 101 108 29 45 50 0
109 105 103 107 110 101 108 38 63 81 0
109 105 103 107 110 101 108 44 69 87 0
109 105 103 107 110 101 108 4 10 15 0
109 105 103 107 110 101 108 40 65 84 0
109 105 103 107 110 101 41 68 86 95 0
109 105 103 107 110 101 33 59 71 75 0
109 105 103 107 110 101 29 45 50 53 0
109 105 103 107 110 101 38 63 81 89 0
109 105 103 107 110 101 44 69 87 98 0
109 105 103 107 110 101 4 10 15 20 0
109 105 103 107 110 108 41 68 86 25 0
109 105 103 107 110 108 33 59 71 11 0
109 105 103 107 110 108 29 45 50 7 0
109 105 103 107 110 108 38 63 81 17 0
109 105 103 107 110 108 44 69 87 28 0
109 105 103 107 110 108 40 65 84 22 0
109 105 103 107 110 41 68 86 25 95 0
109 105 103 107 110 33 59 71 11 75 0
109 105 103 107 110 29 45 50 7 53 0
109 105 103 107 110 38 63 81 17 89 0
109 105 103 107 110 44 69 87 28 98 0
109 105 103 107 104 106 101 108 41 100 0
109 105 103 107 104 106 101 108 33 80 0
109 105 103 107 104 106 101 108 29 57 0
109 105 103 107 104 106 101 108 38 93 0
109 105 103 107 104 106 101 108 32 70 0
109 105 103 107 104 106 101 108 36 88 0
109 105 103 107 104 106 101 108 4 27 0
109 105 103 107 104 106 101 108 40 97 0
109 105 103 107 104 106 101 41 100 95 0
109 105 103 107 104 106 101 33 80 75 0
109 105 103 107 104 106 101 29 57 53 0
109 105 103 107 104 106 101 38 93 89 0
109 105 103 107 104 106 101 32 70 66 0
109 105 103 107 104 106 101 36 88 83 0
109 105 103 107 104 106 101 4 27 20 0
109 105 103 107 104 106 108 41 100 25 0
109 105 103 107 104 106 108 33 80 11 0
109 105 103 107 104 106 108 29 57 7 0
109 105 103 107 104 106 108 38 93 17 0
109 105 103 107 104 106 108 32 70 9 0
109 105 103 107 104 106 108 36 88 16 0
109 105 103 107 104 106 108 40 97 22 0
109 105 103 107 104 106 41 100 25 95 0
109 105 103 107 104 106 33 80 11 75 0
109 105 103 107 104 106 29 57 7 53 0
109 105 103 107 104 106 38 93 17 89 0
109 105 103 107 104 106 32 70 9 66 0
109 105 103 107 104 106 36 88 16 83 0
109 105 103 107 104 101 108 41 100 86 0
109 105 103 107 104 101 108 33 80 71 0
109 105 103 107 104 101 108 29 57 50 0
109 105 103 107 104 101 108 38 93 81 0
109 105 103 107 104 101 108 32 70 61 0
109 105 103 107 104 101 108 4 27 15 0
109 105 103 107 104 101 108 40 97 84 0
109 105 103 107 104 101 41 100 86 95 0
109 105 103 107 104 101 33 80 71 75 0
109 105 103 107 104 101 29 57 50 53 0
109 105 103 107 104 101 38 93 81 89 0
109 105 103 107 104 101 32 70 61 66 0
109 105 103 107 104 101 4 27 15 20 0
109 105 103 107 104 108 41 100 86 25 0
109 105 103 107 104 108 33 80 71 11 0
109 105 103 107 104 108 29 57 50 7 0
109 105 103 107 104 108 38 93 81 17 0
109 105 103 107 104 108 32 70 61 9 0
109 105 103 107 104 108 40 97 84 22 0
109 105 103 107 104 41 100 86 25 95 0
109 105 103 107 104 33 80 71 11 75 0
109 105 103 107 104 29 57 50 7 53 0
109 105 103 107 104 38 93 81 17 89 0
109 105 103 107 104 32 70 61 9 66 0
109 105 103 107 106 101 108 41 100 68 0
109 105 103 107 106 101 108 33 80 59 0
109 105 103 107 106 101 108 29 57 45 0
109 105 103 107 106 101 108 38 93 63 0
109 105 103 107 106 101 108 36 88 62 0
109 105 103 107 106 101 108 4 27 10 0
109 105 103 107 106 101 108 40 97 65 0
109 105 103 107 106 101 41 100 68 95 0
109 105 103 107 106 101 33 80 59 75 0
109 105 103 107 106 101 29 57 45 53 0
109 105 103 107 106 101 38 93 63 89 0
109 105 103 107 106 101 36 88 62 83 0
109 105 103 107 106 101 4 27 10 20 0
109 105 103 107 106 108 41 100 68 25 0
109 105 103 107 106 108 33 80 59 11 0
109 105 103 107 106 108 29 57 45 7 0
109 105 103 107 106 108 38 93 63 17 0
109 105 103 107 106 108 36 88 62 16 0
109 105 103 107 106 108 40 97 65 22 0
109 105 103 107 106 41 100 68 25 95 0
109 105 103 107 106 33 80 59 11 75 0
109 105 103 107 106 29 57 45 7 53 0
109 105 103 107 106 38 93 63 17 89 0
109 105 103 107 106 36 88 62 16 83 0
109 105 103 107 101 108 41 100 68 86 0
109 105 103 107 101 108 33 80 59 71 0
109 105 103 107 101 108 29 57 45 50 0
109 105 103 107 101 108 38 93 63 81 0
109 105 103 107 101 108 4 27 10 15 0
109 105 103 107 101 108 40 97 65 84 0
109 105 103 107 101 41 100 68 86 95 0
109 105 103 107 101 33 80 59 71 75 0
109 105 103 107 101 29 57 45 50 53 0
109 105 103 107 101 38 93 63 81 89 0
109 105 103 107 101 4 27 10 15 20 0
109 105 103 107 108 41 100 68 86 25 0
109 105 103 107 108 33 80 59 71 11 0
109 105 103 107 108 29 57 45 50 7 0
109 105 103 107 108 38 93 63 81 17 0
109 105 103 107 108 40 97 65 84 22 0
109 105 103 107 41 100 68 86 25 95 0
109 105 103 107 33 80 59 71 11 75 0
109 105 103 107 29 57 45 50 7 53 0
109 105 103 107 38 93 63 81 17 89 0
109 105 103 110 104 106 101 108 41 91 0
109 105 103 110 104 106 101 108 33 73 0
109 105 103 110 104 106 101 108 29 52 0
109 105 103 110 104 106 101 108 44 94 0
109 105 103 110 104 106 101 108 32 64 0
109 105 103 110 104 106 101 108 36 82 0
109 105 103 110 104 106 101 108 4 18 0
109 105 103 110 104 106 101 108 40 90 0
109 105 103 110 104 106 101 41 91 95 0
109 105 103 110 104 106 101 33 73 75 0
109 105 103 110 104 106 101 29 52 53 0
109 105 103 110 104 106 101 44 94 98 0
109 105 103 110 104 106 101 32 64 66 0
109 105 103 110 104 106 101 36 82 83 0
109 105 103 110 104 106 101 4 18 20 0
109 105 103 110 104 106 108 41 91 25 0
109 105 103 110 104 106 108 33 73 11 0
109 105 103 110 104 106 108 29 52 7 0
109 105 103 110 104 106 108 44 94 28 0
109 105 103 110 104 106 108 32 64 9 0
109 105 103 110 104 106 108 36 82 16 0
109 105 103 110 104 106 108 40 90 22 0
109 105 103 110 104 106 41 91 25 95 0
109 105 103 110 104 106 33 73 11 75 0
109 105 103 110 104 106 29 52 7 53 0
109 105 103 110 104 106 44 94 28 98 0
109 105 103 110 104 106 32 64 9 66 0
109 105 103 110 104 106 36 82 16 83 0
109 105 103 110 104 101 108 41 91 86 0
109 105 103 110 104 101 108 33 73 71 0
109 105 103 110 104 101 108 29 52 50 0
109 105 103 110 104 101 108 44 94 87 0
109 105 103 110 104 101 108 32 64 61 0
109 105 103 110 104 101 108 4 18 15 0
109 105 103 110 104 101 108 40 90 84 0
109 105 103 110 104 101 41 91 86 95 0
109 105 103 110 104 101 33 73 71 75 0
109 105 103 110 104 101 29 52 50 53 0
109 105 103 110 104 101 44 94 87 98 0
109 105 103 110 104 101 32 64 61 66 0
109 105 103 110 104 101 4 18 15 20 0
109 105 103 110 104 108 41 91 86 25 0
109 105 103 110 104 108 33 73 71 11 0
109 105 103 110 104 108 29 52 50 7 0
109 105 103 110 104 108 44 94 87 28 0
109 105 103 110 104 108 32 64 61 9 0
109 105 103 110 104 108 40 90 84 22 0
109 105 103 110 104 41 91 86 25 95 0
109 105 103 110 104 33 73 71 11 75 0
109 105 103 110 104 29 52 50 7 53 0
109 105 103 110 104 44 94 87 28 98 0
109 105 103 110 104 32 64 61 9 66 0
109 105 103 110 106 101 108 41 91 68 0
109 105 103 110 106 101 108 33 73 59 0
109 105 103 110 106 101 108 29 52 45 0
109 105 103 110 106 101 108 44 94 69 0
109 105 103 110 106 101 108 36 82 62 0
109 105 103 110 106 101 108 4 18 10 0
109 105 103 110 106 101 108 40 90 65 0
109 105 103 110 106 101 41 91 68 95 0
109 105 103 110 106 101 33 73 59 75 0
109 105 103 110 106 101 29 52 45 53 0
109 105 103 110 106 101 44 94 69 98 0
109 105 103 110 106 101 36 82 62 83 0
109 105 103 110 106 101 4 18 10 20 0
109 105 103 110 106 108 41 91 68 25 0
109 105 103 110 106 108 33 73 59 11 0
109 105 103 110 106 108 29 52 45 7 0
109 105 103 110 106 108 44 94 69 28 0
109 105 103 110 106 108 36 82 62 16 0
109 105 103 110 106 108 40 90 65 22 0
109 105 103 110 106 41 91 68 25 95 0
109 105 103 110 106 33 73 59 11 75 0
109 105 103 110 106 29 52 45 7 53 0
109 105 103 110 106 44 94 69 28 98 0
109 105 103 110 106 36 82 62 16 83 0
109 105 103 110 101 108 41 91 68 86 0
109 105 103 110 101 108 33 73 59 71 0
109 105 103 110 101 108 29 52 45 50 0
109 105 103 110 101 108 44 94 69 87 0
109 105 103 110 101 108 4 18 10 15 0
109 105 103 110 101 108 40 90 65 84 0
109 105 103 110 101 41 91 68 86 95 0
109 105 103 110 101 33 73 59 71 75 0
109 105 103 110 101 29 52 45 50 53 0
109 105 103 110 101 44 94 69 87 98 0
109 105 103 110 101 4 18 10 15 20 0
109 105 103 110 108 41 91 68 86 25 0
109 105 103 110 108 33 73 59 71 11 0
109 105 103 110 108 29 52 45 50 7 0
109 105 103 110 108 44 94 69 87 28 0
109 105 103 110 108 40 90 65 84 22 0
109 105 103 110 41 91 68 86 25 95 0
109 105 103 110 33 73 59 71 11 75 0
109 105 103 110 29 52 45 50 7 53 0
109 105 103 110 44 94 69 87 28 98 0
109 105 103 104 106 101 108 41 91 100 0
109 105 103 104 106 101 108 33 73 80 0
109 105 103 104 106 101 108 29 52 57 0
109 105 103 104 106 101 108 32 64 70 0
109 105 103 104 106 101 108 36 82 88 0
109 105 103 104 106 101 108 4 18 27 0
109 105 103 104 106 101 108 40 90 97 0
109 105 103 104 106 101 41 91 100 95 0
109 105 103 104 106 101 33 73 80 75 0
109 105 103 104 106 101 29 52 57 53 0
109 105 103 104 106 101 32 64 70 66 0
109 105 103 104 106 101 36 82 88 83 0
109 105 103 104 106 101 4 18 27 20 0
109 105 103 104 106 108 41 91 100 25 0
109 105 103 104 106 108 33 73 80 11 0
109 105 103 104 106 108 29 52 57 7 0
109 105 103 104 106 108 32 64 70 9 0
109 105 103 104 106 108 36 82 88 16 0
109 105 103 104 106 108 40 90 97 22 0
109 105 103 104 106 41 91 100 25 95 0
109 105 103 104 106 33 73 80 11 75 0
109 105 103 104 106 29 52 57 7 53 0
109 105 103 104 106 32 64 70 9 66 0
109 105 103 104 106 36 82 88 16 83 0
109 105 103 104 101 108 41 91 100 86 0
109 105 103 104 101 108 33 73 80 71 0
109 105 103 104 101 108 29 52 57 50 0
109 105 103 104 101 108 32 64 70 61 0
109 105 103 104 101 108 4 18 27 15 0
109 105 103 104 101 108 40 90 97 84 0
109 105 103 104 101 41 91 100 86 95 0
109 105 103 104 101 33 73 80 71 75 0
109 105 103 104 101 29 52 57 50 53 0
109 105 103 104 101 32 64 70 61 66 0
109 105 103 104 101 4 18 27 15 20 0
109 105 103 104 108 41 91 100 86 25 0
109 105 103 104 108 33 73 80 71 11 0
109 105 103 104 108 29 52 57 50 7 0
109 105 103 104 108 32 64 70 61 9 0
109 105 103 104 108 40 90 97 84 22 0
109 105 103 104 41 91 100 86 25 95 0
109 105 103 104 33 73 80 71 11 75 0
109 105 103 104 29 52 57 50 7 53 0
109 105 103 104 32 64 70 61 9 66 0
109 105 103 106 101 108 41 91 100 68 0
109 105 103 106 101 108 33 73 80 59 0
109 105 103 106 101 108 29 52 57 45 0
109 105 103 106 101 108 36 82 88 62 0
109 105 103 106 101 108 4 18 27 10 0
109 105 103 106 101 108 40 90 97 65 0
109 105 103 106 101 41 91 100 68 95 0
109 105 103 106 101 33 73 80 59 75 0
109 105 103 106 101 29 52 57 45 53 0
109 105 103 106 101 36 82 88 62 83 0
109 105 103 106 101 4 18 27 10 20 0
109 105 103 106 108 41 91 100 68 25 0
109 105 103 106 108 33 73 80 59 11 0
109 105 103 106 108 29 52 57 45 7 0
109 105 103 106 108 36 82 88 62 16 0
109 105 103 106 108 40 90 97 65 22 0
109 105 103 106 41 91 100 68 25 95 0
109 105 103 106 33 73 80 59 11 75 0
109 105 103 106 29 52 57 45 7 53 0
109 105 103 106 36 82 88 62 16 83 0
109 105 103 101 108 41 91 100 68 86 0
109 105 103 101 108 33 73 80 59 71 0
109 105 103 101 108 29 52 57 45 50 0
109 105 103 101 108 4 18 27 10 15 0
109 105 103 101 108 40 90 97 65 84 0
109 105 103 101 41 91 100 68 86 95 0
109 105 103 101 33 73 80 59 71 75 0
109 105 103 101 29 52 57 45 50 53 0
109 105 103 101 4 18 27 10 15 20 0
109 105 103 108 41 91 100 68 86 25 0
109 105 103 108 33 73 80 59 71 11 0
109 105 103 108 29 52 57 45 50 7 0
109 105 103 108 40 90 97 65 84 22 0
109 105 103 41 91 100 68 86 25 95 0
109 105 103 33 73 80 59 71 11 75 0
109 105 103 29 52 57 45 50 7 53 0
109 105 107 110 104 106 101 108 41 56 0
109 105 107 110 104 106 101 108 33 48 0
109 105 107 110 104 106 101 108 38 51 0
109 105 107 110 104 106 101 108 44 58 0
109 105 107 110 104 106 101 108 32 46 0
109 105 107 110 104 106 101 108 36 49 0
109 105 107 110 104 106 101 108 4 6 0
109 105 107 110 104 106 101 108 40 54 0
109 105 107 110 104 106 101 41 56 95 0
109 105 107 110 104 106 101 33 48 75 0
109 105 107 110 104 106 101 38 51 89 0
109 105 107 110 104 106 101 44 58 98 0
109 105 107 110 104 106 101 32 46 66 0
109 105 107 110 104 106 101 36 49 83 0
109 105 107 110 104 106 101 4 6 20 0
109 105 107 110 104 106 108 41 56 25 0
109 105 107 110 104 106 108 33 48 11 0
109 105 107 110 104 106 108 38 51 17 0
109 105 107 110 104 106 108 44 58 28 0
109 105 107 110 104 106 108 32 46 9 0
109 105 107 110 104 106 108 36 49 16 0
109 105 107 110 104 106 108 40 54 22 0
109 105 107 110 104 106 41 56 25 95 0
109 105 107 110 104 106 33 48 11 75 0
109 105 107 110 104 106 38 51 17 89 0
109 105 107 110 104 106 44 58 28 98 0
109 105 107 110 104 106 32 46 9 66 0
109 105 107 110 104 106 36 49 16 83 0
109 105 107 110 104 101 108 41 56 86 0
109 105 107 110 104 101 108 33 48 71 0
109 105 107 110 104 101 108 38 51 81 0
109 105 107 110 104 101 108 44 58 87 0
109 105 107 110 104 101 108 32 46 61 0
109 105 107 110 104 101 108 4 6 15 0
109 105 107 110 104 101 108 40 54 84 0
109 105 107 110 104 101 41 56 86 95 0
109 105 107 110 104 101 33 48 71 75 0
109 105 107 110 104 101 38 51 81 89 0
109 105 107 110 104 101 44 58 87 98 0
109 105 107 110 104 101 32 46 61 66 0
109 105 107 110 104 101 4 6 15 20 0
109 105 107 110 104 108 41 56 86 25 0
109 105 107 110 104 108 33 48 71 11 0
109 105 107 110 104 108 38 51 81 17 0
109 105 107 110 104 108 44 58 87 28 0
109 105 107 110 104 108 32 46 61 9 0
109 105 107 110 104 108 40 54 84 22 0
109 105 107 110 104 41 56 86 25 95 0
109 105 107 110 104 33 48 71 11 75 0
109 105 107 110 104 38 51 81 17 89 0
109 105 107 110 104 44 58 87 28 98 0
109 105 107 110 104 32 46 61 9 66 0
109 105 107 110 106 101 108 41 56 68 0
109 105 107 110 106 101 108 33 48 59 0
109 105 107 110 106 101 108 38 51 63 0
109 105 107 110 106 101 108 44 58 69 0
109 105 107 110 106 101 108 36 49 62 0
109 105 107 110 106 101 108 4 6 10 0
109 105 107 110 106 101 108 40 54 65 0
109 105 107 110 106 101 41 56 68 95 0
109 105 107 110 106 101 33 48 59 75 0
109 105 107 110 106 101 38 51 63 89 0
109 105 107 110 106 101 44 58 69 98 0
109 105 107 110 106 101 36 49 62 83 0
109 105 107 110 106 101 4 6 10 20 0
109 105 107 110 106 108 41 56 68 25 0
109 105 107 110 106 108 33 48 59 11 0
109 105 107 110 106 108 38 51 63 17 0
109 105 107 110 106 108 44 58 69 28 0
109 105 107 110 106 108 36 49 62 16 0
109 105 107 110 106 108 40 54 65 22 0
109 105 107 110 106 41 56 68 25 95 0
109 105 107 110 106 33 48 59 11 75 0
109 105 107 110 106 38 51 63 17 89 0
109 105 107 110 106 44 58 69 28 98 0
109 105 107 110 106 36 49 62 16 83 0
109 105 107 110 101 108 41 56 68 86 0
109 105 107 110 101 108 33 48 59 71 0
109 105 107 110 101 108 38 51 63 81 0
109 105 107 110 101 108 44 58 69 87 0
109 105 107 110 101 108 4 6 10 15 0
109 105 107 110 101 108 40 54 65 84 0
109 105 107 110 101 41 56 68 86 95 0
109 105 107 110 101 33 48 59 71 75 0
109 105 107 110 101 38 51 63 81 89 0
109 105 107 110 101 44 58 69 87 98 0
109 105 107 110 101 4 6 10 15 20 0
109 105 107 110 108 41 56 68 86 25 0
109 105 107 110 108 33 48 59 71 11 0
109 105 107 110 108 38 51 63 81 17 0
109 105 107 110 108 44 58 69 87 28 0
109 105 107 110 108 40 54 65 84 22 0
109 105 107 110 41 56 68 86 25 95 0
109 105 107 110 33 48 59 71 11 75 0
109 105 107 110 38 51 63 81 17 89 0
109 105 107 110 44 58 69 87 28 98 0
109 105 107 104 106 101 108 41 56 100 0
109 105 107 104 106 101 108 33 48 80 0
109 105 107 104 106 101 108 38 51 93 0
109 105 107 104 106 101 108 32 46 70 0
109 105 107 104 106 101 108 36 49 88 0
109 105 107 104 106 101 108 4 6 27 0
109 105 107 104 106 101 108 40 54 97 0
109 105 107 104 106 101 41 56 100 95 0
109 105 107 104 106 101 33 48 80 75 0
109 105 107 104 106 101 38 51 93 89 0
109 105 107 104 106 101 32 46 70 66 0
109 105 107 104 106 101 36 49 88 83 0
109 105 107 104 106 101 4 6 27 20 0
109 105 107 104 106 108 41 56 100 25 0
109 105 107 104 106 108 33 48 80 11 0
109 105 107 104 106 108 38 51 93 17 0
109 105 107 104 106 108 32 46 70 9 0
109 105 107 104 106 108 36 49 88 16 0
109 105 107 104 106 108 40 54 97 22 0
109 105 107 104 106 41 56 100 25 95 0
109 105 107 104 106 33 48 80 11 75 0
109 105 107 104 106 38 51 93 17 89 0
109 105 107 104 106 32 46 70 9 66 0
109 105 107 104 106 36 49 88 16 83 0
109 105 107 104 101 108 41 56 100 86 0
109 105 107 104 101 108 33 48 80 71 0
109 105 107 104 101 108 38 51 93 81 0
109 105 107 104 101 108 32 46 70 61 0
109 105 107 104 101 108 4 6 27 15 0
109 105 107 104 101 108 40 54 97 84 0
109 105 107 104 101 41 56 100 86 95 0
109 105 107 104 101 33 48 80 71 75 0
109 105 107 104 101 38 51 93 81 89 0
109 105 107 104 101 32 46 70 61 66 0
109 105 107 104 101 4 6 27 15 20 0
109 105 107 104 108 41 56 100 86 25 0
109 105 107 104 108 33 48 80 71 11 0
109 105 107 104 108 38 51 93 81 17 0
109 105 107 104 108 32 46 70 61 9 0
109 105 107 104 108 40 54 97 84 22 0
109 105 107 104 41 56 100 86 25 95 0
109 105 107 104 33 48 80 71 11 75 0
109 105 107 104 38 51 93 81 17 89 0
109 105 107 104 32 46 70 61 9 66 0
109 105 107 106 101 108 41 56 100 68 0
109 105 107 106 101 108 33 48 80 59 0
109 105 107 106 101 108 38 51 93 63 0
109 105 107 106 101 108 36 49 88 62 0
109 105 107 106 101 108 4 6 27 10 0
109 105 107 106 101 108 40 54 97 65 0
109 105 107 106 101 41 56 100 68 95 0
109 105 107 106 101 33 48 80 59 75 0
109 105 107 106 101 38 51 93 63 89 0
109 105 107 106 101 36 49 88 62 83 0
109 105 107 106 101 4 6 27 10 20 0
109 105 107 106 108 41 56 100 68 25 0
109 105 107 106 108 33 48 80 59 11 0
109 105 107 106 108 38 51 93 63 17 0
109 105 107 106 108 36 49 88 62 16 0
109 105 107 106 108 40 54 97 65 22 0
109 105 107 106 41 56 100 68 25 95 0
109 105 107 106 33 48 80 59 11 75 0
109 105 107 106 38 51 93 63 17 89 0
109 105 107 106 36 49 88 62 16 83 0
109 105 107 101 108 41 56 100 68 86 0
109 105 107 101 108 33 48 80 59 71 0
109 105 107 101 108 38 51 93 63 81 0
109 105 107 101 108 4 6 27 10 15 0
109 105 107 101 108 40 54 97 65 84 0
109 105 107 101 41 56 100 68 86 95 0
109 105 107 101 33 48 80 59 71 75 0
109 105 107 101 38 51 93 63 81 89 0
109 105 107 101 4 6 27 10 15 20 0
109 105 107 108 41 56 100 68 86 25 0
109 105 107 108 33 48 80 59 71 11 0
109 105 107 108 38 51 93 63 81 17 0
109 105 107 108 40 54 97 65 84 22 0
109 105 107 41 56 100 68 86 25 95 0
109 105 107 33 48 80 59 71 11 75 0
109 105 107 38 51 93 63 81 17 89 0
109 105 110 104 106 101 108 41 56 91 0
109 105 110 104 106 101 108 33 48 73 0
109 105 110 104 106 101 108 44 58 94 0
109 105 110 104 106 101 108 32 46 64 0
109 105 110 104 106 101 108 36 49 82 0
109 105 110 104 106 101 108 4 6 18 0
109 105 110 104 106 101 108 40 54 90 0
109 105 110 104 106 101 41 56 91 95 0
109 105 110 104 106 101 33 48 73 75 0
109 105 110 104 106 101 44 58 94 98 0
109 105 110 104 106 101 32 46 64 66 0
109 105 110 104 106 101 36 49 82 83 0
109 105 110 104 106 101 4 6 18 20 0
109 105 110 104 106 108 41 56 91 25 0
109 105 110 104 106 108 33 48 73 11 0
109 105 110 104 106 108 44 58 94 28 0
109 105 110 104 106 108 32 46 64 9 0
109 105 110 104 106 108 36 49 82 16 0
109 105 110 104 106 108 40 54 90 22 0
109 105 110 104 106 41 56 91 25 95 0
109 105 110 104 106 33 48 73 11 75 0
109 105 110 104 106 44 58 94 28 98 0
109 105 110 104 106 32 46 64 9 66 0
109 105 110 104 106 36 49 82 16 83 0
109 105 110 104 101 108 41 56 91 86 0
109 105 110 104 101 108 33 48 73 71 0
109 105 110 104 101 108 44 58 94 87 0
109 105 110 104 101 108 32 46 64 61 0
109 105 110 104 101 108 4 6 18 15 0
109 105 110 104 101 108 40 54 90 84 0
109 105 110 104 101 41 56 91 86 95 0
109 105 110 104 101 33 48 73 71 75 0
109 105 110 104 101 44 58 94 87 98 0
109 105 110 104 101 32 46 64 61 66 0
109 105 110 104 101 4 6 18 15 20 0
109 105 110 104 108 41 56 91 86 25 0
109 105 110 104 108 33 48 73 71 11 0
109 105 110 104 108 44 58 94 87 28 0
109 105 110 104 108 32 46 64 61 9 0
109 105 110 104 108 40 54 90 84 22 0
109 105 110 104 41 56 91 86 25 95 0
109 105 110 104 33 48 73 71 11 75 0
109 105 110 104 44 58 94 87 28 98 0
109 105 110 104 32 46 64 61 9 66 0
109 105 110 106 101 108 41 56 91 68 0
109 105 110 106 101 108 33 48 73 59 0
109 105 110 106 101 108 44 58 94 69 0
109 105 110 106 101 108 36 49 82 62 0
109 105 110 106 101 108 4 6 18 10 0
109 105 110 106 101 108 40 54 90 65 0
109 105 110 106 101 41 56 91 68 95 0
109 105 110 106 101 33 48 73 59 75 0
109 105 110 106 101 44 58 94 69 98 0
109 105 110 106 101 36 49 82 62 83 0
109 105 110 106 101 4 6 18 10 20 0
109 105 110 106 108 41 56 91 68 25 0
109 105 110 106 108 33 48 73 59 11 0
109 105 110 106 108 44 58 94 69 28 0
109 105 110 106 108 36 49 82 62 16 0
109 105 110 106 108 40 54 90 65 22 0
109 105 110 106 41 56 91 68 25 95 0
109 105 110 106 33 48 73 59 11 75 0
109 105 110 106 44 58 94 69 28 98 0
109 105 110 106 36 49 82 62 16 83 0
109 105 110 101 108 41 56 91 68 86 0
109 105 110 101 108 33 48 73 59 71 0
109 105 110 101 108 44 58 94 69 87 0
109 105 110 101 108 4 6 18 10 15 0
109 105 110 101 108 40 54 90 65 84 0
109 105 110 101 41 56 91 68 86 95 0
109 105 110 101 33 48 73 59 71 75 0
109 105 110 101 44 58 94 69 87 98 0
109 105 110 101 4 6 18 10 15 20 0
109 105 110 108 41 56 91 68 86 25 0
109 105 110 108 33 48 73 59 71 11 0
109 105 110 108 44 58 94 69 87 28 0
109 105 110 108 40 54 90 65 84 22 0
109 105 110 41 56 91 68 86 25 95 0
109 105 110 33 48 73 59 71 11 75 0
109 105 110 44 58 94 69 87 28 98 0
109 105 104 106 101 108 41 56 91 100 0
109 105 104 106 101 108 33 48 73 80 0
109 105 104 106 101 108 32 46 64 70 0
109 105 104 106 101 108 36 49 82 88 0
109 105 104 106 101 108 4 6 18 27 0
109 105 104 106 101 108 40 54 90 97 0
109 105 104 106 101 41 56 91 100 95 0
109 105 104 106 101 33 48 73 80 75 0
109 105 104 106 101 32 46 64 70 66 0
109 105 104 106 101 36 49 82 88 83 0
109 105 104 106 101 4 6 18 27 20 0
109 105 104 106 108 41 56 91 100 25 0
109 105 104 106 108 33 48 73 80 11 0
109 105 104 106 108 32 46 64 70 9 0
109 105 104 106 108 36 49 82 88 16 0
109 105 104 106 108 40 54 90 97 22 0
109 105 104 106 41 56 91 100 25 95 0
109 105 104 106 33 48 73 80 11 75 0
109 105 104 106 32 46 64 70 9 66 0
109 105 104 106 36 49 82 88 16 83 0
109 105 104 101 108 41 56 91 100 86 0
109 105 104 101 108 33 48 73 80 71 0
109 105 104 101 108 32 46 64 70 61 0
109 105 104 101 108 4 6 18 27 15 0
109 105 104 101 108 40 54 90 97 84 0
109 105 104 101 41 56 91 100 86 95 0
109 105 104 101 33 48 73 80 71 75 0
109 105 104 101 32 46 64 70 61 66 0
109 105 104 101 4 6 18 27 15 20 0
109 105 104 108 41 56 91 100 86 25 0
109 105 104 108 33 48 73 80 71 11 0
109 105 104 108 32 46 64 70 61 9 0
109 105 104 108 40 54 90 97 84 22 0
109 105 104 41 56 91 100 86 25 95 0
109 105 104 33 48 73 80 71 11 75 0
109 105 104 32 46 64 70 61 9 66 0
109 105 106 101 108 41 56 91 100 68 0
109 105 106 101 108 33 48 73 80 59 0
109 105 106 101 108 36 49 82 88 62 0
109 105 106 101 108 4 6 18 27 10 0
109 105 106 101 108 40 54 90 97 65 0
109 105 106 101 41 56 91 100 68 95 0
109 105 106 101 33 48 73 80 59 75 0
109 105 106 101 36 49 82 88 62 83 0
109 105 106 101 4 6 18 27 10 20 0
109 105 106 108 41 56 91 100 68 25 0
109 105 106 108 33 48 73 80 59 11 0
109 105 106 108 36 49 82 88 62 16 0
109 105 106 108 40 54 90 97 65 22 0
109 105 106 41 56 91 100 68 25 95 0
109 105 106 33 48 73 80 59 11 75 0
109 105 106 36 49 82 88 62 16 83 0
109 105 101 108 41 56 91 100 68 86 0
109 105 101 108 33 48 73 80 59 71 0
109 105 101 108 4 6 18 27 10 15 0
109 105 101 108 40 54 90 97 65 84 0
109 105 101 41 56 91 100 68 86 95 0
109 105 101 33 48 73 80 59 71 75 0
109 105 101 4 6 18 27 10 15 20 0
109 105 108 41 56 91 100 68 86 25 0
109 105 108 33 48 73 80 59 71 11 0
109 105 108 40 54 90 97 65 84 22 0
109 105 41 56 91 100 68 86 25 95 0
109 105 33 48 73 80 59 71 11 75 0
109 103 107 110 104 106 101 108 41 77 0
109 103 107 110 104 106 101 108 29 47 0
109 103 107 110 104 106 101 108 38 74 0
109 103 107 110 104 106 101 108 44 79 0
109 103 107 110 104 106 101 108 32 60 0
109 103 107 110 104 106 101 108 36 72 0
109 103 107 110 104 106 101 108 4 12 0
109 103 107 110 104 106 101 108 40 76 0
109 103 107 110 104 106 101 41 77 95 0
109 103 107 110 104 106 101 29 47 53 0
109 103 107 110 104 106 101 38 74 89 0
109 103 107 110 104 106 101 44 79 98 0
109 103 107 110 104 106 101 32 60 66 0
109 103 107 110 104 106 101 36 72 83 0
109 103 107 110 104 106 101 4 12 20 0
109 103 107 110 104 106 108 41 77 25 0
109 103 107 110 104 106 108 29 47 7 0
109 103 107 110 104 106 108 38 74 17 0
109 103 107 110 104 106 108 44 79 28 0
109 103 107 110 104 106 108 32 60 9 0
109 103 107 110 104 106 108 36 72 16 0
109 103 107 110 104 106 108 40 76 22 0
109 103 107 110 104 106 41 77 25 95 0
109 103 107 110 104 106 29 47 7 53 0
109 103 107 110 104 106 38 74 17 89 0
109 103 107 110 104 106 44 79 28 98 0
109 103 107 110 104 106 32 60 9 66 0
109 103 107 110 104 106 36 72 16 83 0
109 103 107 110 104 101 108 41 77 86 0
109 103 107 110 104 101 108 29 47 50 0
109 103 107 110 104 101 108 38 74 81 0
109 103 107 110 104 101 108 44 79 87 0
109 103 107 110 104 101 108 32 60 61 0
109 103 107 110 104 101 108 4 12 15 0
109 103 107 110 104 101 108 40 76 84 0
109 103 107 110 104 101 41 77 86 95 0
109 103 107 110 104 101 29 47 50 53 0
109 103 107 110 104 101 38 74 81 89 0
109 103 107 110 104 101 44 79 87 98 0
109 103 107 110 104 101 32 60 61 66 0
109 103 107 110 104 101 4 12 15 20 0
109 103 107 110 104 108 41 77 86 25 0
109 103 107 110 104 108 29 47 50 7 0
109 103 107 110 104 108 38 74 81 17 0
109 103 107 110 104 108 44 79 87 28 0
109 103 107 110 104 108 32 60 61 9 0
109 103 107 110 104 108 40 76 84 22 0
109 103 107 110 104 41 77 86 25 95 0
109 103 107 110 104 29 47 50 7 53 0
109 103 107 110 104 38 74 81 17 89 0
109 103 107 110 104 44 79 87 28 98 0
109 103 107 110 104 32 60 61 9 66 0
109 103 107 110 106 101 108 41 77 68 0
109 103 107 110 106 101 108 29 47 45 0
109 103 107 110 106 101 108 38 74 63 0
109 103 107 110 106 101 108 44 79 69 0
109 103 107 110 106 101 108 36 72 62 0
109 103 107 110 106 101 108 4 12 10 0
109 103 107 110 106 101 108 40 76 65 0
109 103 107 110 106 101 41 77 68 95 0
109 103 107 110 106 101 29 47 45 53 0
109 103 107 110 106 101 38 74 63 89 0
109 103 107 110 106 101 44 79 69 98 0
109 103 107 110 106 101 36 72 62 83 0
109 103 107 110 106 101 4 12 10 20 0
109 103 107 110 106 108 41 77 68 25 0
109 103 107 110 106 108 29 47 45 7 0
109 103 107 110 106 108 38 74 63 17 0
109 103 107 110 106 108 44 79 69 28 0
109 103 107 110 106 108 36 72 62 16 0
109 103 107 110 106 108 40 76 65 22 0
109 103 107 110 106 41 77 68 25 95 0
109 103 107 110 106 29 47 45 7 53 0
109 103 107 110 106 38 74 63 17 89 0
109 103 107 110 106 44 79 69 28 98 0
109 103 107 110 106 36 72 62 16 83 0
109 103 107 110 101 108 41 77 68 86 0
109 103 107 110 101 108 29 47 45 50 0
109 103 107 110 101 108 38 74 63 81 0
109 103 107 110 101 108 44 79 69 87 0
109 103 107 110 101 108 4 12 10 15 0
109 103 107 110 101 108 40 76 65 84 0
109 103 107 110 101 41 77 68 86 95 0
109 103 107 110 101 29 47 45 50 53 0
109 103 107 110 101 38 74 63 81 89 0
109 103 107 110 101 44 79 69 87 98 0
109 103 107 110 101 4 12 10 15 20 0
109 103 107 110 108 41 77 68 86 25 0
109 103 107 110 108 29 47 45 50 7 0
109 103 107 110 108 38 74 63 81 17 0
109 103 107 110 108 44 79 69 87 28 0
109 103 107 110 108 40 76 65 84 22 0
109 103 107 110 41 77 68 86 25 95 0
109 103 107 110 29 47 45 50 7 53 0
109 103 107 110 38 74 63 81 17 89 0
109 103 107 110 44 79 69 87 28 98 0
109 103 107 104 106 101 108 41 77 100 0
109 103 107 104 106 101 108 29 47 57 0
109 103 107 104 106 101 108 38 74 93 0
109 103 107 104 106 101 108 32 60 70 0
109 103 107 104 106 101 108 36 72 88 0
109 103 107 104 106 101 108 4 12 27 0
109 103 107 104 106 101 108 40 76 97 0
109 103 107 104 106 101 41 77 100 95 0
109 103 107 104 106 101 29 47 57 53 0
109 103 107 104 106 101 38 74 93 89 0
109 103 107 104 106 101 32 60 70 66 0
109 103 107 104 106 101 36 72 88 83 0
109 103 107 104 106 101 4 12 27 20 0
109 103 107 104 106 108 41 77 100 25 0
109 103 107 104 106 108 29 47 57 7 0
109 103 107 104 106 108 38 74 93 17 0
109 103 107 104 106 108 32 60 70 9 0
109 103 107 104 106 108 36 72 88 16 0
109 103 107 104 106 108 40 76 97 22 0
109 103 107 104 106 41 77 100 25 95 0
109 103 107 104 106 29 47 57 7 53 0
109 103 107 104 106 38 74 93 17 89 0
109 103 107 104 106 32 60 70 9 66 0
109 103 107 104 106 36 72 88 16 83 0
109 103 107 104 101 108 41 77 100 86 0
109 103 107 104 101 108 29 47 57 50 0
109 103 107 104 101 108 38 74 93 81 0
109 103 107 104 101 108 32 60 70 61 0
109 103 107 104 101 108 4 12 27 15 0
109 103 107 104 101 108 40 76 97 84 0
109 103 107 104 101 41 77 100 86 95 0
109 103 107 104 101 29 47 57 50 53 0
109 103 107 104 101 38 74 93 81 89 0
109 103 107 104 101 32 60 70 61 66 0
109 103 107 104 101 4 12 27 15 20 0
109 103 107 104 108 41 77 100 86 25 0
109 103 107 104 108 29 47 57 50 7 0
109 103 107 104 108 38 74 93 81 17 0
109 103 107 104 108 32 60 70 61 9 0
109 103 107 104 108 40 76 97 84 22 0
109 103 107 104 41 77 100 86 25 95 0
109 103 107 104 29 47 57 50 7 53 0
109 103 107 104 38 74 93 81 17 89 0
109 103 107 104 32 60 70 61 9 66 0
109 103 107 106 101 108 41 77 100 68 0
109 103 107 106 101 108 29 47 57 45 0
109 103 107 106 101 108 38 74 93 63 0
109 103 107 106 101 108 36 72 88 62 0
109 103 107 106 101 108 4 12 27 10 0
109 103 107 106 101 108 40 76 97 65 0
109 103 107 106 101 41 77 100 68 95 0
109 103 107 106 101 29 47 57 45 53 0
109 103 107 106 101 38 74 93 63 89 0
109 103 107 106 101 36 72 88 62 83 0
109 103 107 106 101 4 12 27 10 20 0
109 103 107 106 108 41 77 100 68 25 0
109 103 107 106 108 29 47 57 45 7 0
109 103 107 106 108 38 74 93 63 17 0
109 103 107 106 108 36 72 88 62 16 0
109 103 107 106 108 40 76 97 65 22 0
109 103 107 106 41 77 100 68 25 95 0
109 103 107 106 29 47 57 45 7 53 0
109 103 107 106 38 74 93 63 17 89 0
109 103 107 106 36 72 88 62 16 83 0
109 103 107 101 108 41 77 100 68 86 0
109 103 107 101 108 29 47 57 45 50 0
109 103 107 101 108 38 74 93 63 81 0
109 103 107 101 108 4 12 27 10 15 0
109 103 107 101 108 40 76 97 65 84 0
109 103 107 101 41 77 100 68 86 95 0
109 103 107 101 29 47 57 45 50 53 0
109 103 107 101 38 74 93 63 81 89 0
109 103 107 101 4 12 27 10 15 20 0
109 103 107 108 41 77 100 68 86 25 0
109 103 107 108 29 47 57 45 50 7 0
109 103 107 108 38 74 93 63 81 17 0
109 103 107 108 40 76 97 65 84 22 0
109 103 107 41 77 100 68 86 25 95 0
109 103 107 29 47 57 45 50 7 53 0
109 103 107 38 74 93 63 81 17 89 0
109 103 110 104 106 101 108 41 77 91 0
109 103 110 104 106 101 108 29 47 52 0
109 103 110 104 106 101 108 44 79 94 0
109 103 110 104 106 101 108 32 60 64 0
109 103 110 104 106 101 108 36 72 82 0
109 103 110 104 106 101 108 4 12 18 0
109 103 110 104 106 101 108 40 76 90 0
109 103 110 104 106 101 41 77 91 95 0
109 103 110 104 106 101 29 47 52 53 0
109 103 110 104 106 101 44 79 94 98 0
109 103 110 104 106 101 32 60 64 66 0
109 103 110 104 106 101 36 72 82 83 0
109 103 110 104 106 101 4 12 18 20 0
109 103 110 104 106 108 41 77 91 25 0
109 103 110 104 106 108 29 47 52 7 0
109 103 110 104 106 108 44 79 94 28 0
109 103 110 104 106 108 32 60 64 9 0
109 103 110 104 106 108 36 72 82 16 0
109 103 110 104 106 108 40 76 90 22 0
109 103 110 104 106 41 77 91 25 95 0
109 103 110 104 106 29 47 52 7 53 0
109 103 110 104 106 44 79 94 28 98 0
109 103 110 104 106 32 60 64 9 66 0
109 103 110 104 106 36 72 82 16 83 0
109 103 110 104 101 108 41 77 91 86 0
109 103 110 104 101 108 29 47 52 50 0
109 103 110 104 101 108 44 79 94 87 0
109 103 110 104 101 108 32 60 64 61 0
109 103 110 104 101 108 4 12 18 15 0
109 103 110 104 101 108 40 76 90 84 0
109 103 110 104 101 41 77 91 86 95 0
109 103 110 104 101 29 47 52 50 53 0
109 103 110 104 101 44 79 94 87 98 0
109 103 110 104 101 32 60 64 61 66 0
109 103 110 104 101 4 12 18 15 20 0
109 103 110 104 108 41 77 91 86 25 0
109 103 110 104 108 29 47 52 50 7 0
109 103 110 104 108 44 79 94 87 28 0
109 103 110 104 108 32 60 64 61 9 0
109 103 110 104 108 40 76 90 84 22 0
109 103 110 104 41 77 91 86 25 95 0
109 103 110 104 29 47 52 50 7 53 0
109 103 110 104 44 79 94 87 28 98 0
109 103 110 104 32 60 64 61 9 66 0
109 103 110 106 101 108 41 77 91 68 0
109 103 110 106 101 108 29 47 52 45 0
109 103 110 106 101 108 44 79 94 69 0
109 103 110 106 101 108 36 72 82 62 0
109 103 110 106 101 108 4 12 18 10 0
109 103 110 106 101 108 40 76 90 65 0
109 103 110 106 101 41 77 91 68 95 0
109 103 110 106 101 29 47 52 45 53 0
109 103 110 106 101 44 79 94 69 98 0
109 103 110 106 101 36 72 82 62 83 0
109 103 110 106 101 4 12 18 10 20 0
109 103 110 106 108 41 77 91 68 25 0
109 103 110 106 108 29 47 52 45 7 0
109 103 110 106 108 44 79 94 69 28 0
109 103 110 106 108 36 72 82 62 16 0
109 103 110 106 108 40 76 90 65 22 0
109 103 110 106 41 77 91 68 25 95 0
109 103 110 106 29 47 52 45 7 53 0
109 103 110 106 44 79 94 69 28 98 0
109 103 110 106 36 72 82 62 16 83 0
109 103 110 101 108 41 77 91 68 86 0
109 103 110 101 108 29 47 52 45 50 0
109 103 110 101 108 44 79 94 69 87 0
109 103 110 101 108 4 12 18 10 15 0
109 103 110 101 108 40 76 90 65 84 0
109 103 110 101 41 77 91 68 86 95 0
109 103 110 101 29 47 52 45 50 53 0
109 103 110 101 44 79 94 69 87 98 0
109 103 110 101 4 12 18 10 15 20 0
109 103 110 108 41 77 91 68 86 25 0
109 103 110 108 29 47 52 45 50 7 0
109 103 110 108 44 79 94 69 87 28 0
109 103 110 108 40 76 90 65 84 22 0
109 103 110 41 77 91 68 86 25 95 0
109 103 110 29 47 52 45 50 7 53 0
109 103 110 44 79 94 69 87 28 98 0
109 103 104 106 101 108 41 77 91 100 0
109 103 104 106 101 108 29 47 52 57 0
109 103 104 106 101 108 32 60 64 70 0
109 103 104 106 101 108 36 72 82 88 0
109 103 104 106 101 108 4 12 18 27 0
109 103 104 106 101 108 40 76 90 97 0
109 103 104 106 101 41 77 91 100 95 0
109 103 104 106 101 29 47 52 57 53 0
109 103 104 106 101 32 60 64 70 66 0
109 103 104 106 101 36 72 82 88 83 0
109 103 104 106 101 4 12 18 27 20 0
109 103 104 106 108 41 77 91 100 25 0
109 103 104 106 108 29 47 52 57 7 0
109 103 104 106 108 32 60 64 70 9 0
109 103 104 106 108 36 72 82 88 16 0
109 103 104 106 108 40 76 90 97 22 0
109 103 104 106 41 77 91 100 25 95 0
109 103 104 106 29 47 52 57 7 53 0
109 103 104 106 32 60 64 70 9 66 0
109 103 104 106 36 72 82 88 16 83 0
109 103 104 101 108 41 77 91 100 86 0
109 103 104 101 108 29 47 52 57 50 0
109 103 104 101 108 32 60 64 70 61 0
109 103 104 101 108 4 12 18 27 15 0
109 103 104 101 108 40 76 90 97 84 0
109 103 104 101 41 77 91 100 86 95 0
109 103 104 101 29 47 52 57 50 53 0
109 103 104 101 32 60 64 70 61 66 0
109 103 104 101 4 12 18 27 15 20 0
109 103 104 108 41 77 91 100 86 25 0
109 103 104 108 29 47 52 57 50 7 0
109 103 104 108 32 60 64 70 61 9 0
109 103 104 108 40 76 90 97 84 22 0
109 103 104 41 77 91 100 86 25 95 0
109 103 104 29 47 52 57 50 7 53 0
109 103 104 32 60 64 70 61 9 66 0
109 103 106 101 108 41 77 91 100 68 0
109 103 106 101 108 29 47 52 57 45 0
109 103 106 101 108 36 72 82 88 62 0
109 103 106 101 108 4 12 18 27 10 0
109 103 106 101 108 40 76 90 97 65 0
109 103 106 101 41 77 91 100 68 95 0
109 103 106 101 29 47 52 57 45 53 0
109 103 106 101 36 72 82 88 62 83 0
109 103 106 101 4 12 18 27 10 20 0
109 103 106 108 41 77 91 100 68 25 0
109 103 106 108 29 47 52 57 45 7 0
109 103 106 108 36 72 82 88 62 16 0
109 103 106 108 40 76 90 97 65 22 0
109 103 106 41 77 91 100 68 25 95 0
109 103 106 29 47 52 57 45 7 53 0
109 103 106 36 72 82 88 62 16 83 0
109 103 101 108 41 77 91 100 68 86 0
109 103 101 108 29 47 52 57 45 50 0
109 103 101 108 4 12 18 27 10 15 0
109 103 101 108 40 76 90 97 65 84 0
109 103 101 41 77 91 100 68 86 95 0
109 103 101 29 47 52 57 45 50 53 0
109 103 101 4 12 18 27 10 15 20 0
109 103 108 41 77 91 100 68 86 25 0
109 103 108 29 47 52 57 45 50 7 0
109 103 108 40 76 90 97 65 84 22 0
109 103 41 77 91 100 68 86 25 95 0
109 103 29 47 52 57 45 50 7 53 0
109 107 110 104 106 101 108 41 77 56 0
109 107 110 104 106 101 108 38 74 51 0
109 107 110 104 106 101 108 44 79 58 0
109 107 110 104 106 101 108 32 60 46 0
109 107 110 104 106 101 108 36 72 49 0
109 107 110 104 106 101 108 4 12 6 0
109 107 110 104 106 101 108 40 76 54 0
109 107 110 104 106 101 41 77 56 95 0
109 107 110 104 106 101 38 74 51 89 0
109 107 110 104 106 101 44 79 58 98 0
109 107 110 104 106 101 32 60 46 66 0
109 107 110 104 106 101 36 72 49 83 0
109 107 110 104 106 101 4 12 6 20 0
109 107 110 104 106 108 41 77 56 25 0
109 107 110 104 106 108 38 74 51 17 0
109 107 110 104 106 108 44 79 58 28 0
109 107 110 104 106 108 32 60 46 9 0
109 107 110 104 106 108 36 72 49 16 0
109 107 110 104 106 108 40 76 54 22 0
109 107 110 104 106 41 77 56 25 95 0
109 107 110 104 106 38 74 51 17 89 0
109 107 110 104 106 44 79 58 28 98 0
109 107 110 104 106 32 60 46 9 66 0
109 107 110 104 106 36 72 49 16 83 0
109 107 110 104 101 108 41 77 56 86 0
109 107 110 104 101 108 38 74 51 81 0
109 107 110 104 101 108 44 79 58 87 0
109 107 110 104 101 108 32 60 46 61 0
109 107 110 104 101 108 4 12 6 15 0
109 107 110 104 101 108 40 76 54 84 0
109 107 110 104 101 41 77 56 86 95 0
109 107 110 104 101 38 74 51 81 89 0
109 107 110 104 101 44 79 58 87 98 0
109 107 110 104 101 32 60 46 61 66 0
109 107 110 104 101 4 12 6 15 20 0
109 107 110 104 108 41 77 56 86 25 0
109 107 110 104 108 38 74 51 81 17 0
109 107 110 104 108 44 79 58 87 28 0
109 107 110 104 108 32 60 46 61 9 0
109 107 110 104 108 40 76 54 84 22 0
109 107 110 104 41 77 56 86 25 95 0
109 107 110 104 38 74 51 81 17 89 0
109 107 110 104 44 79 58 87 28 98 0
109 107 110 104 32 60 46 61 9 66 0
109 107 110 106 101 108 41 77 56 68 0
109 107 110 106 101 108 38 74 51 63 0
109 107 110 106 101 108 44 79 58 69 0
109 107 110 106 101 108 36 72 49 62 0
109 107 110 106 101 108 4 12 6 10 0
109 107 110 106 101 108 40 76 54 65 0
109 107 110 106 101 41 77 56 68 95 0
109 107 110 106 101 38 74 51 63 89 0
109 107 110 106 101 44 79 58 69 98 0
109 107 110 106 101 36 72 49 62 83 0
109 107 110 106 101 4 12 6 10 20 0
109 107 110 106 108 41 77 56 68 25 0
109 107 110 106 108 38 74 51 63 17 0
109 107 110 106 108 44 79 58 69 28 0
109 107 110 106 108 36 72 49 62 16 0
109 107 110 106 108 40 76 54 65 22 0
109 107 110 106 41 77 56 68 25 95 0
109 107 110 106 38 74 51 63 17 89 0
109 107 110 106 44 79 58 69 28 98 0
109 107 110 106 36 72 49 62 16 83 0
109 107 110 101 108 41 77 56 68 86 0
109 107 110 101 108 38 74 51 63 81 0
109 107 110 101 108 44 79 58 69 87 0
109 107 110 101 108 4 12 6 10 15 0
109 107 110 101 108 40 76 54 65 84 0
109 107 110 101 41 77 56 68 86 95 0
109 107 110 101 38 74 51 63 81 89 0
109 107 110 101 44 79 58 69 87 98 0
109 107 110 101 4 12 6 10 15 20 0
109 107 110 108 41 77 56 68 86 25 0
109 107 110 108 38 74 51 63 81 17 0
109 107 110 108 44 79 58 69 87 28 0
109 107 110 108 40 76 54 65 84 22 0
109 107 110 41 77 56 68 86 25 95 0
109 107 110 38 74 51 63 81 17 89 0
109 107 110 44 79 58 69 87 28 98 0
109 107 104 106 101 108 41 77 56 100 0
109 107 104 106 101 108 38 74 51 93 0
109 107 104 106 101 108 32 60 46 70 0
109 107 104 106 101 108 36 72 49 88 0
109 107 104 106 101 108 4 12 6 27 0
109 107 104 106 101 108 40 76 54 97 0
109 107 104 106 101 41 77 56 100 95 0
109 107 104 106 101 38 74 51 93 89 0
109 107 104 106 101 32 60 46 70 66 0
109 107 104 106 101 36 72 49 88 83 0
109 107 104 106 101 4 12 6 27 20 0
109 107 104 106 108 41 77 56 100 25 0
109 107 104 106 108 38 74 51 93 17 0
109 107 104 106 108 32 60 46 70 9 0
109 107 104 106 108 36 72 49 88 16 0
109 107 104 106 108 40 76 54 97 22 0
109 107 104 106 41 77 56 100 25 95 0
109 107 104 106 38 74 51 93 17 89 0
109 107 104 106 32 60 46 70 9 66 0
109 107 104 106 36 72 49 88 16 83 0
109 107 104 101 108 41 77 56 100 86 0
109 107 104 101 108 38 74 51 93 81 0
109 107 104 101 108 32 60 46 70 61 0
109 107 104 101 108 4 12 6 27 15 0
109 107 104 101 108 40 76 54 97 84 0
109 107 104 101 41 77 56 100 86 95 0
109 107 104 101 38 74 51 93 81 89 0
109 107 104 101 32 60 46 70 61 66 0
109 107 104 101 4 12 6 27 15 20 0
109 107 104 108 41 77 56 100 86 25 0
109 107 104 108 38 74 51 93 81 17 0
109 107 104 108 32 60 46 70 61 9 0
109 107 104 108 40 76 54 97 84 22 0
109 107 104 41 77 56 100 86 25 95 0
109 107 104 38 74 51 93 81 17 89 0
109 107 104 32 60 46 70 61 9 66 0
109 107 106 101 108 41 77 56 100 68 0
109 107 106 101 108 38 74 51 93 63 0
109 107 106 101 108 36 72 49 88 62 0
109 107 106 101 108 4 12 6 27 10 0
109 107 106 101 108 40 76 54 97 65 0
109 107 106 101 41 77 56 100 68 95 0
109 107 106 101 38 74 51 93 63 89 0
109 107 106 101 36 72 49 88 62 83 0
109 107 106 101 4 12 6 27 10 20 0
109 107 106 108 41 77 56 100 68 25 0
109 107 106 108 38 74 51 93 63 17 0
109 107 106 108 36 72 49 88 62 16 0
109 107 106 108 40 76 54 97 65 22 0
109 107 106 41 77 56 100 68 25 95 0
109 107 106 38 74 51 93 63 17 89 0
109 107 106 36 72 49 88 62 16 83 0
109 107 101 108 41 77 56 100 68 86 0
109 107 101 108 38 74 51 93 63 81 0
109 107 101 108 4 12 6 27 10 15 0
109 107 101 108 40 76 54 97 65 84 0
109 107 101 41 77 56 100 68 86 95 0
109 107 101 38 74 51 93 63 81 89 0
109 107 101 4 12 6 27 10 15 20 0
109 107 108 41 77 56 100 68 86 25 0
109 107 108 38 74 51 93 63 81 17 0
109 107 108 40 76 54 97 65 84 22 0
109 107 41 77 56 100 68 86 25 95 0
109 107 38 74 51 93 63 81 17 89 0
109 110 104 106 101 108 41 77 56 91 0
109 110 104 106 101 108 44 79 58 94 0
109 110 104 106 101 108 32 60 46 64 0
109 110 104 106 101 108 36 72 49 82 0
109 110 104 106 101 108 4 12 6 18 0
109 110 104 106 101 108 40 76 54 90 0
109 110 104 106 101 41 77 56 91 95 0
109 110 104 106 101 44 79 58 94 98 0
109 110 104 106 101 32 60 46 64 66 0
109 110 104 106 101 36 72 49 82 83 0
109 110 104 106 101 4 12 6 18 20 0
109 110 104 106 108 41 77 56 91 25 0
109 110 104 106 108 44 79 58 94 28 0
109 110 104 106 108 32 60 46 64 9 0
109 110 104 106 108 36 72 49 82 16 0
109 110 104 106 108 40 76 54 90 22 0
109 110 104 106 41 77 56 91 25 95 0
109 110 104 106 44 79 58 94 28 98 0
109 110 104 106 32 60 46 64 9 66 0
109 110 104 106 36 72 49 82 16 83 0
109 110 104 101 108 41 77 56 91 86 0
109 110 104 101 108 44 79 58 94 87 0
109 110 104 101 108 32 60 46 64 61 0
109 110 104 101 108 4 12 6 18 15 0
109 110 104 101 108 40 76 54 90 84 0
109 110 104 101 41 77 56 91 86 95 0
109 110 104 101 44 79 58 94 87 98 0
109 110 104 101 32 60 46 64 61 66 0
109 110 104 101 4 12 6 18 15 20 0
109 110 104 108 41 77 56 91 86 25 0
109 110 104 108 44 79 58 94 87 28 0
109 110 104 108 32 60 46 64 61 9 0
109 110 104 108 40 76 54 90 84 22 0
109 110 104 41 77 56 91 86 25 95 0
109 110 104 44 79 58 94 87 28 98 0
109 110 104 32 60 46 64 61 9 66 0
109 110 106 101 108 41 77 56 91 68 0
109 110 106 101 108 44 79 58 94 69 0
109 110 106 101 108 36 72 49 82 62 0
109 110 106 101 108 4 12 6 18 10 0
109 110 106 101 108 40 76 54 90 65 0
109 110 106 101 41 77 56 91 68 95 0
109 110 106 101 44 79 58 94 69 98 0
109 110 106 101 36 72 49 82 62 83 0
109 110 106 101 4 12 6 18 10 20 0
109 110 106 108 41 77 56 91 68 25 0
109 110 106 108 44 79 58 94 69 28 0
109 110 106 108 36 72 49 82 62 16 0
109 110 106 108 40 76 54 90 65 22 0
109 110 106 41 77 56 91 68 25 95 0
109 110 106 44 79 58 94 69 28 98 0
109 110 106 36 72 49 82 62 16 83 0
109 110 101 108 41 77 56 91 68 86 0
109 110 101 108 44 79 58 94 69 87 0
109 110 101 108 4 12 6 18 10 15 0
109 110 101 108 40 76 54 90 65 84 0
109 110 101 41 77 56 91 68 86 95 0
109 110 101 44 79 58 94 69 87 98 0
109 110 101 4 12 6 18 10 15 20 0
109 110 108 41 77 56 91 68 86 25 0
109 110 108 44 79 58 94 69 87 28 0
109 110 108 40 76 54 90 65 84 22 0
109 110 41 77 56 91 68 86 25 95 0
109 110 44 79 58 94 69 87 28 98 0
109 104 106 101 108 41 77 56 91 100 0
109 104 106 101 108 32 60 46 64 70 0
109 104 106 101 108 36 72 49 82 88 0
109 104 106 101 108 4 12 6 18 27 0
109 104 106 101 108 40 76 54 90 97 0
109 104 106 101 41 77 56 91 100 95 0
109 104 106 101 32 60 46 64 70 66 0
109 104 106 101 36 72 49 82 88 83 0
109 104 106 101 4 12 6 18 27 20 0
109 104 106 108 41 77 56 91 100 25 0
109 104 106 108 32 60 46 64 70 9 0
109 104 106 108 36 72 49 82 88 16 0
109 104 106 108 40 76 54 90 97 22 0
109 104 106 41 77 56 91 100 25 95 0
109 104 106 32 60 46 64 70 9 66 0
109 104 106 36 72 49 82 88 16 83 0
109 104 101 108 41 77 56 91 100 86 0
109 104 101 108 32 60 46 64 70 61 0
109 104 101 108 4 12 6 18 27 15 0
109 104 101 108 40 76 54 90 97 84 0
109 104 101 41 77 56 91 100 86 95 0
109 104 101 32 60 46 64 70 61 66 0
109 104 101 4 12 6 18 27 15 20 0
109 104 108 41 77 56 91 100 86 25 0
109 104 108 32 60 46 64 70 61 9 0
109 104 108 40 76 54 90 97 84 22 0
109 104 41 77 56 91 100 86 25 95 0
109 104 32 60 46 64 70 61 9 66 0
109 106 101 108 41 77 56 91 100 68 0
109 106 101 108 36 72 49 82 88 62 0
109 106 101 108 4 12 6 18 27 10 0
109 106 101 108 40 76 54 90 97 65 0
109 106 101 41 77 56 91 100 68 95 0
109 106 101 36 72 49 82 88 62 83 0
109 106 101 4 12 6 18 27 10 20 0
109 106 108 41 77 56 91 100 68 25 0
109 106 108 36 72 49 82 88 62 16 0
109 106 108 40 76 54 90 97 65 22 0
109 106 41 77 56 91 100 68 25 95 0
109 106 36 72 49 82 88 62 16 83 0
109 101 108 41 77 56 91 100 68 86 0
109 101 108 4 12 6 18 27 10 15 0
109 101 108 40 76 54 90 97 65 84 0
109 101 41 77 56 91 100 68 86 95 0
109 101 4 12 6 18 27 10 15 20 0
109 108 41 77 56 91 100 68 86 25 0
109 108 40 76 54 90 97 65 84 22 0
109 41 77 56 91 100 68 86 25 95 0
105 103 107 110 104 106 101 108 33 78 0
105 103 107 110 104 106 101 108 29 55 0
105 103 107 110 104 106 101 108 38 92 0
105 103 107 110 104 106 101 108 44 99 0
105 103 107 110 104 106 101 108 32 67 0
105 103 107 110 104 106 101 108 36 85 0
105 103 107 110 104 106 101 108 4 24 0
105 103 107 110 104 106 101 108 40 96 0
105 103 107 110 104 106 101 33 78 75 0
105 103 107 110 104 106 101 29 55 53 0
105 103 107 110 104 106 101 38 92 89 0
105 103 107 110 104 106 101 44 99 98 0
105 103 107 110 104 106 101 32 67 66 0
105 103 107 110 104 106 101 36 85 83 0
105 103 107 110 104 106 101 4 24 20 0
105 103 107 110 104 106 108 33 78 11 0
105 103 107 110 104 106 108 29 55 7 0
105 103 107 110 104 106 108 38 92 17 0
105 103 107 110 104 106 108 44 99 28 0
105 103 107 110 104 106 108 32 67 9 0
105 103 107 110 104 106 108 36 85 16 0
105 103 107 110 104 106 108 40 96 22 0
105 103 107 110 104 106 33 78 11 75 0
105 103 107 110 104 106 29 55 7 53 0
105 103 107 110 104 106 38 92 17 89 0
105 103 107 110 104 106 44 99 28 98 0
105 103 107 110 104 106 32 67 9 66 0
105 103 107 110 104 106 36 85 16 83 0
105 103 107 110 104 101 108 33 78 71 0
105 103 107 110 104 101 108 29 55 50 0
105 103 107 110 104 101 108 38 92 81 0
105 103 107 110 104 101 108 44 99 87 0
105 103 107 110 104 101 108 32 67 61 0
105 103 107 110 104 101 108 4 24 15 0
105 103 107 110 104 101 108 40 96 84 0
105 103 107 110 104 101 33 78 71 75 0
105 103 107 110 104 101 29 55 50 53 0
105 103 107 110 104 101 38 92 81 89 0
105 103 107 110 104 101 44 99 87 98 0
105 103 107 110 104 101 32 67 61 66 0
105 103 107 110 104 101 4 24 15 20 0
105 103 107 110 104 108 33 78 71 11 0
105 103 107 110 104 108 29 55 50 7 0
105 103 107 110 104 108 38 92 81 17 0
105 103 107 110 104 108 44 99 87 28 0
105 103 107 110 104 108 32 67 61 9 0
105 103 107 110 104 108 40 96 84 22 0
105 103 107 110 104 33 78 71 11 75 0
105 103 107 110 104 29 55 50 7 53 0
105 103 107 110 104 38 92 81 17 89 0
105 103 107 110 104 44 99 87 28 98 0
105 103 107 110 104 32 67 61 9 66 0
105 103 107 110 106 101 108 33 78 59 0
105 103 107 110 106 101 108 29 55 45 0
105 103 107 110 106 101 108 38 92 63 0
105 103 107 110 106 101 108 44 99 69 0
105 103 107 110 106 101 108 36 85 62 0
105 103 107 110 106 101 108 4 24 10 0
105 103 107 110 106 101 108 40 96 65 0
105 103 107 110 106 101 33 78 59 75 0
105 103 107 110 106 101 29 55 45 53 0
105 103 107 110 106 101 38 92 63 89 0
105 103 107 110 106 101 44 99 69 98 0
105 103 107 110 106 101 36 85 62 83 0
105 103 107 110 106 101 4 24 10 20 0
105 103 107 110 106 108 33 78 59 11 0
105 103 107 110 106 108 29 55 45 7 0
105 103 107 110 106 108 38 92 63 17 0
105 103 107 110 106 108 44 99 69 28 0
105 103 107 110 106 108 36 85 62 16 0
105 103 107 110 106 108 40 96 65 22 0
105 103 107 110 106 33 78 59 11 75 0
105 103 107 110 106 29 55 45 7 53 0
105 103 107 110 106 38 92 63 17 89 0
105 103 107 110 106 44 99 69 28 98 0
105 103 107 110 106 36 85 62 16 83 0
105 103 107 110 101 108 33 78 59 71 0
105 103 107 110 101 108 29 55 45 50 0
105 103 107 110 101 108 38 92 63 81 0
105 103 107 110 101 108 44 99 69 87 0
105 103 107 110 101 108 4 24 10 15 0
105 103 107 110 101 108 40 96 65 84 0
105 103 107 110 101 33 78 59 71 75 0
105 103 107 110 101 29 55 45 50 53 0
105 103 107 110 101 38 92 63 81 89 0
105 103 107 110 101 44 99 69 87 98 0
105 103 107 110 101 4 24 10 15 20 0
105 103 107 110 108 33 78 59 71 11 0
105 103 107 110 108 29 55 45 50 7 0
105 103 107 110 108 38 92 63 81 17 0
105 103 107 110 108 44 99 69 87 28 0
105 103 107 110 108 40 96 65 84 22 0
105 103 107 110 33 78 59 71 11 75 0
105 103 107 110 29 55 45 50 7 53 0
105 103 107 110 38 92 63 81 17 89 0
105 103 107 110 44 99 69 87 28 98 0
105 103 107 104 106 101 108 33 78 80 0
105 103 107 104 106 101 108 29 55 57 0
105 103 107 104 106 101 108 38 92 93 0
105 103 107 104 106 101 108 32 67 70 0
105 103 107 104 106 101 108 36 85 88 0
105 103 107 104 106 101 108 4 24 27 0
105 103 107 104 106 101 108 40 96 97 0
105 103 107 104 106 101 33 78 80 75 0
105 103 107 104 106 101 29 55 57 53 0
105 103 107 104 106 101 38 92 93 89 0
105 103 107 104 106 101 32 67 70 66 0
105 103 107 104 106 101 36 85 88 83 0
105 103 107 104 106 101 4 24 27 20 0
105 103 107 104 106 108 33 78 80 11 0
105 103 107 104 106 108 29 55 57 7 0
105 103 107 104 106 108 38 92 93 17 0
105 103 107 104 106 108 32 67 70 9 0
105 103 107 104 106 108 36 85 88 16 0
105 103 107 104 106 108 40 96 97 22 0
105 103 107 104 106 33 78 80 11 75 0
105 103 107 104 106 29 55 57 7 53 0
105 103 107 104 106 38 92 93 17 89 0
105 103 107 104 106 32 67 70 9 66 0
105 103 107 104 106 36 85 88 16 83 0
105 103 107 104 101 108 33 78 80 71 0
105 103 107 104 101 108 29 55 57 50 0
105 103 107 104 101 108 38 92 93 81 0
105 103 107 104 101 108 32 67 70 61 0
105 103 107 104 101 108 4 24 27 15 0
105 103 107 104 101 108 40 96 97 84 0
105 103 107 104 101 33 78 80 71 75 0
105 103 107 104 101 29 55 57 50 53 0
105 103 107 104 101 38 92 93 81 89 0
105 103 107 104 101 32 67 70 61 66 0
105 103 107 104 101 4 24 27 15 20 0
105 103 107 104 108 33 78 80 71 11 0
105 103 107 104 108 29 55 57 50 7 0
105 103 107 104 108 38 92 93 81 17 0
105 103 107 104 108 32 67 70 61 9 0
105 103 107 104 108 40 96 97 84 22 0
105 103 107 104 33 78 80 71 11 75 0
105 103 107 104 29 55 57 50 7 53 0
105 103 107 104 38 92 93 81 17 89 0
105 103 107 104 32 67 70 61 9 66 0
105 103 107 106 101 108 33 78 80 59 0
105 103 107 106 101 108 29 55 57 45 0
105 103 107 106 101 108 38 92 93 63 0
105 103 107 106 101 108 36 85 88 62 0
105 103 107 106 101 108 4 24 27 10 0
105 103 107 106 101 108 40 96 97 65 0
105 103 107 106 101 33 78 80 59 75 0
105 103 107 106 101 29 55 57 45 53 0
105 103 107 106 101 38 92 93 63 89 0
105 103 107 106 101 36 85 88 62 83 0
105 103 107 106 101 4 24 27 10 20 0
105 103 107 106 108 33 78 80 59 11 0
105 103 107 106 108 29 55 57 45 7 0
105 103 107 106 108 38 92 93 63 17 0
105 103 107 106 108 36 85 88 62 16 0
105 103 107 106 108 40 96 97 65 22 0
105 103 107 106 33 78 80 59 11 75 0
105 103 107 106 29 55 57 45 7 53 0
105 103 107 106 38 92 93 63 17 89 0
105 103 107 106 36 85 88 62 16 83 0
105 103 107 101 108 33 78 80 59 71 0
105 103 107 101 108 29 55 57 45 50 0
105 103 107 101 108 38 92 93 63 81 0
105 103 107 101 108 4 24 27 10 15 0
105 103 107 101 108 40 96 97 65 84 0
105 103 107 101 33 78 80 59 71 75 0
105 103 107 101 29 55 57 45 50 53 0
105 103 107 101 38 92 93 63 81 89 0
105 103 107 101 4 24 27 10 15 20 0
105 103 107 108 33 78 80 59 71 11 0
105 103 107 108 29 55 57 45 50 7 0
105 103 107 108 38 92 93 63 81 17 0
105 103 107 108 40 96 97 65 84 22 0
105 103 107 33 78 80 59 71 11 75 0
105 103 107 29 55 57 45 50 7 53 0
105 103 107 38 92 93 63 81 17 89 0
105 103 110 104 106 101 108 33 78 73 0
105 103 110 104 106 101 108 29 55 52 0
105 103 110 104 106 101 108 44 99 94 0
105 103 110 104 106 101 108 32 67 64 0
105 103 110 104 106 101 108 36 85 82 0
105 103 110 104 106 101 108 4 24 18 0
105 103 110 104 106 101 108 40 96 90 0
105 103 110 104 106 101 33 78 73 75 0
105 103 110 104 106 101 29 55 52 53 0
105 103 110 104 106 101 44 99 94 98 0
105 103 110 104 106 101 32 67 64 66 0
105 103 110 104 106 101 36 85 82 83 0
105 103 110 104 106 101 4 24 18 20 0
105 103 110 104 106 108 33 78 73 11 0
105 103 110 104 106 108 29 55 52 7 0
105 103 110 104 106 108 44 99 94 28 0
105 103 110 104 106 108 32 67 64 9 0
105 103 110 104 106 108 36 85 82 16 0
105 103 110 104 106 108 40 96 90 22 0
105 103 110 104 106 33 78 73 11 75 0
105 103 110 104 106 29 55 52 7 53 0
105 103 110 104 106 44 99 94 28 98 0
105 103 110 104 106 32 67 64 9 66 0
105 103 110 104 106 36 85 82 16 83 0
105 103 110 104 101 108 33 78 73 71 0
105 103 110 104 101 108 29 55 52 50 0
105 103 110 104 101 108 44 99 94 87 0
105 103 110 104 101 108 32 67 64 61 0
105 103 110 104 101 108 4 24 18 15 0
105 103 110 104 101 108 40 96 90 84 0
105 103 110 104 101 33 78 73 71 75 0
105 103 110 104 101 29 55 52 50 53 0
105 103 110 104 101 44 99 94 87 98 0
105 103 110 104 101 32 67 64 61 66 0
105 103 110 104 101 4 24 18 15 20 0
105 103 110 104 108 33 78 73 71 11 0
105 103 110 104 108 29 55 52 50 7 0
105 103 110 104 108 44 99 94 87 28 0
105 103 110 104 108 32 67 64 61 9 0
105 103 110 104 108 40 96 90 84 22 0
105 103 110 104 33 78 73 71 11 75 0
105 103 110 104 29 55 52 50 7 53 0
105 103 110 104 44 99 94 87 28 98 0
105 103 110 104 32 67 64 61 9 66 0
105 103 110 106 101 108 33 78 73 59 0
105 103 110 106 101 108 29 55 52 45 0
105 103 110 106 101 108 44 99 94 69 0
105 103 110 106 101 108 36 85 82 62 0
105 103 110 106 101 108 4 24 18 10 0
105 103 110 106 101 108 40 96 90 65 0
105 103 110 106 101 33 78 73 59 75 0
105 103 110 106 101 29 55 52 45 53 0
105 103 110 106 101 44 99 94 69 98 0
105 103 110 106 101 36 85 82 62 83 0
105 103 110 106 101 4 24 18 10 20 0
105 103 110 106 108 33 78 73 59 11 0
105 103 110 106 108 29 55 52 45 7 0
105 103 110 106 108 44 99 94 69 28 0
105 103 110 106 108 36 85 82 62 16 0
105 103 110 106 108 40 96 90 65 22 0
105 103 110 106 33 78 73 59 11 75 0
105 103 110 106 29 55 52 45 7 53 0
105 103 110 106 44 99 94 69 28 98 0
105 103 110 106 36 85 82 62 16 83 0
105 103 110 101 108 33 78 73 59 71 0
105 103 110 101 108 29 55 52 45 50 0
105 103 110 101 108 44 99 94 69 87 0
105 103 110 101 108 4 24 18 10 15 0
105 103 110 101 108 40 96 90 65 84 0
105 103 110 101 33 78 73 59 71 75 0
105 103 110 101 29 55 52 45 50 53 0
105 103 110 101 44 99 94 69 87 98 0
105 103 110 101 4 24 18 10 15 20 0
105 103 110 108 33 78 73 59 71 11 0
105 103 110 108 29 55 52 45 50 7 0
105 103 110 108 44 99 94 69 87 28 0
105 103 110 108 40 96 90 65 84 22 0
105 103 110 33 78 73 59 71 11 75 0
105 103 110 29 55 52 45 50 7 53 0
105 103 110 44 99 94 69 87 28 98 0
105 103 104 106 101 108 33 78 73 80 0
105 103 104 106 101 108 29 55 52 57 0
105 103 104 106 101 108 32 67 64 70 0
105 103 104 106 101 108 36 85 82 88 0
105 103 104 106 101 108 4 24 18 27 0
105 103 104 106 101 108 40 96 90 97 0
105 103 104 106 101 33 78 73 80 75 0
105 103 104 106 101 29 55 52 57 53 0
105 103 104 106 101 32 67 64 70 66 0
105 103 104 106 101 36 85 82 88 83 0
105 103 104 106 101 4 24 18 27 20 0
105 103 104 106 108 33 78 73 80 11 0
105 103 104 106 108 29 55 52 57 7 0
105 103 104 106 108 32 67 64 70 9 0
105 103 104 106 108 36 85 82 88 16 0
105 103 104 106 108 40 96 90 97 22 0
105 103 104 106 33 78 73 80 11 75 0
105 103 104 106 29 55 52 57 7 53 0
105 103 104 106 32 67 64 70 9 66 0
105 103 104 106 36 85 82 88 16 83 0
105 103 104 101 108 33 78 73 80 71 0
105 103 104 101 108 29 55 52 57 50 0
105 103 104 101 108 32 67 64 70 61 0
105 103 104 101 108 4 24 18 27 15 0
105 103 104 101 108 40 96 90 97 84 0
105 103 104 101 33 78 73 80 71 75 0
105 103 104 101 29 55 52 57 50 53 0
105 103 104 101 32 67 64 70 61 66 0
105 103 104 101 4 24 18 27 15 20 0
105 103 104 108 33 78 73 80 71 11 0
105 103 104 108 29 55 52 57 50 7 0
105 103 104 108 32 67 64 70 61 9 0
105 103 104 108 40 96 90 97 84 22 0
105 103 104 33 78 73 80 71 11 75 0
105 103 104 29 55 52 57 50 7 53 0
105 103 104 32 67 64 70 61 9 66 0
105 103 106 101 108 33 78 73 80 59 0
105 103 106 101 108 29 55 52 57 45 0
105 103 106 101 108 36 85 82 88 62 0
105 103 106 101 108 4 24 18 27 10 0
105 103 106 101 108 40 96 90 97 65 0
105 103 106 101 33 78 73 80 59 75 0
105 103 106 101 29 55 52 57 45 53 0
105 103 106 101 36 85 82 88 62 83 0
105 103 106 101 4 24 18 27 10 20 0
105 103 106 108 33 78 73 80 59 11 0
105 103 106 108 29 55 52 57 45 7 0
105 103 106 108 36 85 82 88 62 16 0
105 103 106 108 40 96 90 97 65 22 0
105 103 106 33 78 73 80 59 11 75 0
105 103 106 29 55 52 57 45 7 53 0
105 103 106 36 85 82 88 62 16 83 0
105 103 101 108 33 78 73 80 59 71 0
105 103 101 108 29 55 52 57 45 50 0
105 103 101 108 4 24 18 27 10 15 0
105 103 101 108 40 96 90 97 65 84 0
105 103 101 33 78 73 80 59 71 75 0
105 103 101 29 55 52 57 45 50 53 0
105 103 101 4 24 18 27 10 15 20 0
105 103 108 33 78 73 80 59 71 11 0
105 103 108 29 55 52 57 45 50 7 0
105 103 108 40 96 90 97 65 84 22 0
105 103 33 78 73 80 59 71 11 75 0
105 103 29 55 52 57 45 50 7 53 0
105 107 110 104 106 101 108 33 78 48 0
105 107 110 104 106 101 108 38 92 51 0
105 107 110 104 106 101 108 44 99 58 0
105 107 110 104 106 101 108 32 67 46 0
105 107 110 104 106 101 108 36 85 49 0
105 107 110 104 106 101 108 4 24 6 0
105 107 110 104 106 101 108 40 96 54 0
105 107 110 104 106 101 33 78 48 75 0
105 107 110 104 106 101 38 92 51 89 0
105 107 110 104 106 101 44 99 58 98 0
105 107 110 104 106 101 32 67 46 66 0
105 107 110 104 106 101 36 85 49 83 0
105 107 110 104 106 101 4 24 6 20 0
105 107 110 104 106 108 33 78 48 11 0
105 107 110 104 106 108 38 92 51 17 0
105 107 110 104 106 108 44 99 58 28 0
105 107 110 104 106 108 32 67 46 9 0
105 107 110 104 106 108 36 85 49 16 0
105 107 110 104 106 108 40 96 54 22 0
105 107 110 104 106 33 78 48 11 75 0
105 107 110 104 106 38 92 51 17 89 0
105 107 110 104 106 44 99 58 28 98 0
105 107 110 104 106 32 67 46 9 66 0
105 107 110 104 106 36 85 49 16 83 0
105 107 110 104 101 108 33 78 48 71 0
105 107 110 104 101 108 38 92 51 81 0
105 107 110 104 101 108 44 99 58 87 0
105 107 110 104 101 108 32 67 46 61 0
105 107 110 104 101 108 4 24 6 15 0
105 107 110 104 101 108 40 96 54 84 0
105 107 110 104 101 33 78 48 71 75 0
105 107 110 104 101 38 92 51 81 89 0
105 107 110 104 101 44 99 58 87 98 0
105 107 110 104 101 32 67 46 61 66 0
105 107 110 104 101 4 24 6 15 20 0
105 107 110 104 108 33 78 48 71 11 0
105 107 110 104 108 38 92 51 81 17 0
105 107 110 104 108 44 99 58 87 28 0
105 107 110 104 108 32 67 46 61 9 0
105 107 110 104 108 40 96 54 84 22 0
105 107 110 104 33 78 48 71 11 75 0
105 107 110 104 38 92 51 81 17 89 0
105 107 110 104 44 99 58 87 28 98 0
105 107 110 104 32 67 46 61 9 66 0
105 107 110 106 101 108 33 78 48 59 0
105 107 110 106 101 108 38 92 51 63 0
105 107 110 106 101 108 44 99 58 69 0
105 107 110 106 101 108 36 85 49 62 0
105 107 110 106 101 108 4 24 6 10 0
105 107 110 106 101 108 40 96 54 65 0
105 107 110 106 101 33 78 48 59 75 0
105 107 110 106 101 38 92 51 63 89 0
105 107 110 106 101 44 99 58 69 98 0
105 107 110 106 101 36 85 49 62 83 0
105 107 110 106 101 4 24 6 10 20 0
105 107 110 106 108 33 78 48 59 11 0
105 107 110 106 108 38 92 51 63 17 0
105 107 110 106 108 44 99 58 69 28 0
105 107 110 106 108 36 85 49 62 16 0
105 107 110 106 108 40 96 54 65 22 0
105 107 110 106 33 78 48 59 11 75 0
105 107 110 106 38 92 51 63 17 89 0
105 107 110 106 44 99 58 69 28 98 0
105 107 110 106 36 85 49 62 16 83 0
105 107 110 101 108 33 78 48 59 71 0
105 107 110 101 108 38 92 51 63 81 0
105 107 110 101 108 44 99 58 69 87 0
105 107 110 101 108 4 24 6 10 15 0
105 107 110 101 108 40 96 54 65 84 0
105 107 110 101 33 78 48 59 71 75 0
105 107 110 101 38 92 51 63 81 89 0
105 107 110 101 44 99 58 69 87 98 0
105 107 110 101 4 24 6 10 15 20 0
105 107 110 108 33 78 48 59 71 11 0
105 107 110 108 38 92 51 63 81 17 0
105 107 110 108 44 99 58 69 87 28 0
105 107 110 108 40 96 54 65 84 22 0
105 107 110 33 78 48 59 71 11 75 0
105 107 110 38 92 51 63 81 17 89 0
105 107 110 44 99 58 69 87 28 98 0
105 107 104 106 101 108 33 78 48 80 0
105 107 104 106 101 108 38 92 51 93 0
105 107 104 106 101 108 32 67 46 70 0
105 107 104 106 101 108 36 85 49 88 0
105 107 104 106 101 108 4 24 6 27 0
105 107 104 106 101 108 40 96 54 97 0
105 107 104 106 101 33 78 48 80 75 0
105 107 104 106 101 38 92 51 93 89 0
105 107 104 106 101 32 67 46 70 66 0
105 107 104 106 101 36 85 49 88 83 0
105 107 104 106 101 4 24 6 27 20 0
105 107 104 106 108 33 78 48 80 11 0
105 107 104 106 108 38 92 51 93 17 0
105 107 104 106 108 32 67 46 70 9 0
105 107 104 106 108 36 85 49 88 16 0
105 107 104 106 108 40 96 54 97 22 0
105 107 104 106 33 78 48 80 11 75 0
105 107 104 106 38 92 51 93 17 89 0
105 107 104 106 32 67 46 70 9 66 0
105 107 104 106 36 85 49 88 16 83 0
105 107 104 101 108 33 78 48 80 71 0
105 107 104 101 108 38 92 51 93 81 0
105 107 104 101 108 32 67 46 70 61 0
105 107 104 101 108 4 24 6 27 15 0
105 107 104 101 108 40 96 54 97 84 0
105 107 104 101 33 78 48 80 71 75 0
105 107 104 101 38 92 51 93 81 89 0
105 107 104 101 32 67 46 70 61 66 0
105 107 104 101 4 24 6 27 15 20 0
105 107 104 108 33 78 48 80 71 11 0
105 107 104 108 38 92 51 93 81 17 0
105 107 104 108 32 67 46 70 61 9 0
105 107 104 108 40 96 54 97 84 22 0
105 107 104 33 78 48 80 71 11 75 0
105 107 104 38 92 51 93 81 17 89 0
105 107 104 32 67 46 70 61 9 66 0
105 107 106 101 108 33 78 48 80 59 0
105 107 106 101 108 38 92 51 93 63 0
105 107 106 101 108 36 85 49 88 62 0
105 107 106 101 108 4 24 6 27 10 0
105 107 106 101 108 40 96 54 97 65 0
105 107 106 101 33 78 48 80 59 75 0
105 107 106 101 38 92 51 93 63 89 0
105 107 106 101 36 85 49 88 62 83 0
105 107 106 101 4 24 6 27 10 20 0
105 107 106 108 33 78 48 80 59 11 0
105 107 106 108 38 92 51 93 63 17 0
105 107 106 108 36 85 49 88 62 16 0
105 107 106 108 40 96 54 97 65 22 0
105 107 106 33 78 48 80 59 11 75 0
105 107 106 38 92 51 93 63 17 89 0
105 107 106 36 85 49 88 62 16 83 0
105 107 101 108 33 78 48 80 59 71 0
105 107 101 108 38 92 51 93 63 81 0
105 107 101 108 4 24 6 27 10 15 0
105 107 101 108 40 96 54 97 65 84 0
105 107 101 33 78 48 80 59 71 75 0
105 107 101 38 92 51 93 63 81 89 0
105 107 101 4 24 6 27 10 15 20 0
105 107 108 33 78 48 80 59 71 11 0
105 107 108 38 92 51 93 63 81 17 0
105 107 108 40 96 54 97 65 84 22 0
105 107 33 78 48 80 59 71 11 75 0
105 107 38 92 51 93 63 81 17 89 0
105 110 104 106 101 108 33 78 48 73 0
105 110 104 106 101 108 44 99 58 94 0
105 110 104 106 101 108 32 67 46 64 0
105 110 104 106 101 108 36 85 49 82 0
105 110 104 106 101 108 4 24 6 18 0
105 110 104 106 101 108 40 96 54 90 0
105 110 104 106 101 33 78 48 73 75 0
105 110 104 106 101 44 99 58 94 98 0
105 110 104 106 101 32 67 46 64 66 0
105 110 104 106 101 36 85 49 82 83 0
105 110 104 106 101 4 24 6 18 20 0
105 110 104 106 108 33 78 48 73 11 0
105 110 104 106 108 44 99 58 94 28 0
105 110 104 106 108 32 67 46 64 9 0
105 110 104 106 108 36 85 49 82 16 0
105 110 104 106 108 40 96 54 90 22 0
105 110 104 106 33 78 48 73 11 75 0
105 110 104 106 44 99 58 94 28 98 0
105 110 104 106 32 67 46 64 9 66 0
105 110 104 106 36 85 49 82 16 83 0
105 110 104 101 108 33 78 48 73 71 0
105 110 104 101 108 44 99 58 94 87 0
105 110 104 101 108 32 67 46 64 61 0
105 110 104 101 108 4 24 6 18 15 0
105 110 104 101 108 40 96 54 90 84 0
105 110 104 101 33 78 48 73 71 75 0
105 110 104 101 44 99 58 94 87 98 0
105 110 104 101 32 67 46 64 61 66 0
105 110 104 101 4 24 6 18 15 20 0
105 110 104 108 33 78 48 73 71 11 0
105 110 104 108 44 99 58 94 87 28 0
105 110 104 108 32 67 46 64 61 9 0
105 110 104 108 40 96 54 90 84 22 0
105 110 104 33 78 48 73 71 11 75 0
105 110 104 44 99 58 94 87 28 98 0
105 110 104 32 67 46 64 61 9 66 0
105 110 106 101 108 33 78 48 73 59 0
105 110 106 101 108 44 99 58 94 69 0
105 110 106 101 108 36 85 49 82 62 0
105 110 106 101 108 4 24 6 18 10 0
105 110 106 101 108 40 96 54 90 65 0
105 110 106 101 33 78 48 73 59 75 0
105 110 106 101 44 99 58 94 69 98 0
105 110 106 101 36 85 49 82 62 83 0
105 110 106 101 4 24 6 18 10 20 0
105 110 106 108 33 78 48 73 59 11 0
105 110 106 108 44 99 58 94 69 28 0
105 110 106 108 36 85 49 82 62 16 0
105 110 106 108 40 96 54 90 65 22 0
105 110 106 33 78 48 73 59 11 75 0
105 110 106 44 99 58 94 69 28 98 0
105 110 106 36 85 49 82 62 16 83 0
105 110 101 108 33 78 48 73 59 71 0
105 110 101 108 44 99 58 94 69 87 0
105 110 101 108 4 24 6 18 10 15 0
105 110 101 108 40 96 54 90 65 84 0
105 110 101 33 78 48 73 59 71 75 0
105 110 101 44 99 58 94 69 87 98 0
105 110 101 4 24 6 18 10 15 20 0
105 110 108 33 78 48 73 59 71 11 0
105 110 108 44 99 58 94 69 87 28 0
105 110 108 40 96 54 90 65 84 22 0
105 110 33 78 48 73 59 71 11 75 0
105 110 44 99 58 94 69 87 28 98 0
105 104 106 101 108 33 78 48 73 80 0
105 104 106 101 108 32 67 46 64 70 0
105 104 106 101 108 36 85 49 82 88 0
105 104 106 101 108 4 24 6 18 27 0
105 104 106 101 108 40 96 54 90 97 0
105 104 106 101 33 78 48 73 80 75 0
105 104 106 101 32 67 46 64 70 66 0
105 104 106 101 36 85 49 82 88 83 0
105 104 106 101 4 24 6 18 27 20 0
105 104 106 108 33 78 48 73 80 11 0
105 104 106 108 32 67 46 64 70 9 0
105 104 106 108 36 85 49 82 88 16 0
105 104 106 108 40 96 54 90 97 22 0
105 104 106 33 78 48 73 80 11 75 0
105 104 106 32 67 46 64 70 9 66 0
105 104 106 36 85 49 82 88 16 83 0
105 104 101 108 33 78 48 73 80 71 0
105 104 101 108 32 67 46 64 70 61 0
105 104 101 108 4 24 6 18 27 15 0
105 104 101 108 40 96 54 90 97 84 0
105 104 101 33 78 48 73 80 71 75 0
105 104 101 32 67 46 64 70 61 66 0
105 104 101 4 24 6 18 27 15 20 0
105 104 108 33 78 48 73 80 71 11 0
105 104 108 32 67 46 64 70 61 9 0
105 104 108 40 96 54 90 97 84 22 0
105 104 33 78 48 73 80 71 11 75 0
105 104 32 67 46 64 70 61 9 66 0
105 106 101 108 33 78 48 73 80 59 0
105 106 101 108 36 85 49 82 88 62 0
105 106 101 108 4 24 6 18 27 10 0
105 106 101 108 40 96 54 90 97 65 0
105 106 101 33 78 48 73 80 59 75 0
105 106 101 36 85 49 82 88 62 83 0
105 106 101 4 24 6 18 27 10 20 0
105 106 108 33 78 48 73 80 59 11 0
105 106 108 36 85 49 82 88 62 16 0
105 106 108 40 96 54 90 97 65 22 0
105 106 33 78 48 73 80 59 11 75 0
105 106 36 85 49 82 88 62 16 83 0
105 101 108 33 78 48 73 80 59 71 0
105 101 108 4 24 6 18 27 10 15 0
105 101 108 40 96 54 90 97 65 84 0
105 101 33 78 48 73 80 59 71 75 0
105 101 4 24 6 18 27 10 15 20 0
105 108 33 78 48 73 80 59 71 11 0
105 108 40 96 54 90 97 65 84 22 0
105 33 78 48 73 80 59 71 11 75 0
103 107 110 104 106 101 108 29 55 47 0
103 107 110 104 106 101 108 38 92 74 0
103 107 110 104 106 101 108 44 99 79 0
103 107 110 104 106 101 108 32 67 60 0
103 107 110 104 106 101 108 36 85 72 0
103 107 110 104 106 101 108 4 24 12 0
103 107 110 104 106 101 108 40 96 76 0
103 107 110 104 106 101 29 55 47 53 0
103 107 110 104 106 101 38 92 74 89 0
103 107 110 104 106 101 44 99 79 98 0
103 107 110 104 106 101 32 67 60 66 0
103 107 110 104 106 101 36 85 72 83 0
103 107 110 104 106 101 4 24 12 20 0
103 107 110 104 106 108 29 55 47 7 0
103 107 110 104 106 108 38 92 74 17 0
103 107 110 104 106 108 44 99 79 28 0
103 107 110 104 106 108 32 67 60 9 0
103 107 110 104 106 108 36 85 72 16 0
103 107 110 104 106 108 40 96 76 22 0
103 107 110 104 106 29 55 47 7 53 0
103 107 110 104 106 38 92 74 17 89 0
103 107 110 104 106 44 99 79 28 98 0
103 107 110 104 106 32 67 60 9 66 0
103 107 110 104 106 36 85 72 16 83 0
103 107 110 104 101 108 29 55 47 50 0
103 107 110 104 101 108 38 92 74 81 0
103 107 110 104 101 108 44 99 79 87 0
103 107 110 104 101 108 32 67 60 61 0
103 107 110 104 101 108 4 24 12 15 0
103 107 110 104 101 108 40 96 76 84 0
103 107 110 104 101 29 55 47 50 53 0
103 107 110 104 101 38 92 74 81 89 0
103 107 110 104 101 44 99 79 87 98 0
103 107 110 104 101 32 67 60 61 66 0
103 107 110 104 101 4 24 12 15 20 0
103 107 110 104 108 29 55 47 50 7 0
103 107 110 104 108 38 92 74 81 17 0
103 107 110 104 108 44 99 79 87 28 0
103 107 110 104 108 32 67 60 61 9 0
103 107 110 104 108 40 96 76 84 22 0
103 107 110 104 29 55 47 50 7 53 0
103 107 110 104 38 92 74 81 17 89 0
103 107 110 104 44 99 79 87 28 98 0
103 107 110 104 32 67 60 61 9 66 0
103 107 110 106 101 108 29 55 47 45 0
103 107 110 106 101 108 38 92 74 63 0
103 107 110 106 101 108 44 99 79 69 0
103 107 110 106 101 108 36 85 72 62 0
103 107 110 106 101 108 4 24 12 10 0
103 107 110 106 101 108 40 96 76 65 0
103 107 110 106 101 29 55 47 45 53 0
103 107 110 106 101 38 92 74 63 89 0
103 107 110 106 101 44 99 79 69 98 0
103 107 110 106 101 36 85 72 62 83 0
103 107 110 106 101 4 24 12 10 20 0
103 107 110 106 108 29 55 47 45 7 0
103 107 110 106 108 38 92 74 63 17 0
103 107 110 106 108 44 99 79 69 28 0
103 107 110 106 108 36 85 72 62 16 0
103 107 110 106 108 40 96 76 65 22 0
103 107 110 106 29 55 47 45 7 53 0
103 107 110 106 38 92 74 63 17 89 0
103 107 110 106 44 99 79 69 28 98 0
103 107 110 106 36 85 72 62 16 83 0
103 107 110 101 108 29 55 47 45 50 0
103 107 110 101 108 38 92 74 63 81 0
103 107 110 101 108 44 99 79 69 87 0
103 107 110 101 108 4 24 12 10 15 0
103 107 110 101 108 40 96 76 65 84 0
103 107 110 101 29 55 47 45 50 53 0
103 107 110 101 38 92 74 63 81 89 0
103 107 110 101 44 99 79 69 87 98 0
103 107 110 101 4 24 12 10 15 20 0
103 107 110 108 29 55 47 45 50 7 0
103 107 110 108 38 92 74 63 81 17 0
103 107 110 108 44 99 79 69 87 28 0
103 107 110 108 40 96 76 65 84 22 0
103 107 110 29 55 47 45 50 7 53 0
103 107 110 38 92 74 63 81 17 89 0
103 107 110 44 99 79 69 87 28 98 0
103 107 104 106 101 108 29 55 47 57 0
103 107 104 106 101 108 38 92 74 93 0
103 107 104 106 101 108 32 67 60 70 0
103 107 104 106 101 108 36 85 72 88 0
103 107 104 106 101 108 4 24 12 27 0
103 107 104 106 101 108 40 96 76 97 0
103 107 104 106 101 29 55 47 57 53 0
103 107 104 106 101 38 92 74 93 89 0
103 107 104 106 101 32 67 60 70 66 0
103 107 104 106 101 36 85 72 88 83 0
103 107 104 106 101 4 24 12 27 20 0
103 107 104 106 108 29 55 47 57 7 0
103 107 104 106 108 38 92 74 93 17 0
103 107 104 106 108 32 67 60 70 9 0
103 107 104 106 108 36 85 72 88 16 0
103 107 104 106 108 40 96 76 97 22 0
103 107 104 106 29 55 47 57 7 53 0
103 107 104 106 38 92 74 93 17 89 0
103 107 104 106 32 67 60 70 9 66 0
103 107 104 106 36 85 72 88 16 83 0
103 107 104 101 108 29 55 47 57 50 0
103 107 104 101 108 38 92 74 93 81 0
103 107 104 101 108 32 67 60 70 61 0
103 107 104 101 108 4 24 12 27 15 0
103 107 104 101 108 40 96 76 97 84 0
103 107 104 101 29 55 47 57 50 53 0
103 107 104 101 38 92 74 93 81 89 0
103 107 104 101 32 67 60 70 61 66 0
103 107 104 101 4 24 12 27 15 20 0
103 107 104 108 29 55 47 57 50 7 0
103 107 104 108 38 92 74 93 81 17 0
103 107 104 108 32 67 60 70 61 9 0
103 107 104 108 40 96 76 97 84 22 0
103 107 104 29 55 47 57 50 7 53 0
103 107 104 38 92 74 93 81 17 89 0
103 107 104 32 67 60 70 61 9 66 0
103 107 106 101 108 29 55 47 57 45 0
103 107 106 101 108 38 92 74 93 63 0
103 107 106 101 108 36 85 72 88 62 0
103 107 106 101 108 4 24 12 27 10 0
103 107 106 101 108 40 96 76 97 65 0
103 107 106 101 29 55 47 57 45 53 0
103 107 106 101 38 92 74 93 63 89 0
103 107 106 101 36 85 72 88 62 83 0
103 107 106 101 4 24 12 27 10 20 0
103 107 106 108 29 55 47 57 45 7 0
103 107 106 108 38 92 74 93 63 17 0
103 107 106 108 36 85 72 88 62 16 0
103 107 106 108 40 96 76 97 65 22 0
103 107 106 29 55 47 57 45 7 53 0
103 107 106 38 92 74 93 63 17 89 0
103 107 106 36 85 72 88 62 16 83 0
103 107 101 108 29 55 47 57 45 50 0
103 107 101 108 38 92 74 93 63 81 0
103 107 101 108 4 24 12 27 10 15 0
103 107 101 108 40 96 76 97 65 84 0
103 107 101 29 55 47 57 45 50 53 0
103 107 101 38 92 74 93 63 81 89 0
103 107 101 4 24 12 27 10 15 20 0
103 107 108 29 55 47 57 45 50 7 0
103 107 108 38 92 74 93 63 81 17 0
103 107 108 40 96 76 97 65 84 22 0
103 107 29 55 47 57 45 50 7 53 0
103 107 38 92 74 93 63 81 17 89 0
103 110 104 106 101 108 29 55 47 52 0
103 110 104 106 101 108 44 99 79 94 0
103 110 104 106 101 108 32 67 60 64 0
103 110 104 106 101 108 36 85 72 82 0
103 110 104 106 101 108 4 24 12 18 0
103 110 104 106 101 108 40 96 76 90 0
103 110 104 106 101 29 55 47 52 53 0
103 110 104 106 101 44 99 79 94 98 0
103 110 104 106 101 32 67 60 64 66 0
103 110 104 106 101 36 85 72 82 83 0
103 110 104 106 101 4 24 12 18 20 0
103 110 104 106 108 29 55 47 52 7 0
103 110 104 106 108 44 99 79 94 28 0
103 110 104 106 108 32 67 60 64 9 0
103 110 104 106 108 36 85 72 82 16 0
103 110 104 106 108 40 96 76 90 22 0
103 110 104 106 29 55 47 52 7 53 0
103 110 104 106 44 99 79 94 28 98 0
103 110 104 106 32 67 60 64 9 66 0
103 110 104 106 36 85 72 82 16 83 0
103 110 104 101 108 29 55 47 52 50 0
103 110 104 101 108 44 99 79 94 87 0
103 110 104 101 108 32 67 60 64 61 0
103 110 104 101 108 4 24 12 18 15 0
103 110 104 101 108 40 96 76 90 84 0
103 110 104 101 29 55 47 52 50 53 0
103 110 104 101 44 99 79 94 87 98 0
103 110 104 101 32 67 60 64 61 66 0
103 110 104 101 4 24 12 18 15 20 0
103 110 104 108 29 55 47 52 50 7 0
103 110 104 108 44 99 79 94 87 28 0
103 110 104 108 32 67 60 64 61 9 0
103 110 104 108 40 96 76 90 84 22 0
103 110 104 29 55 47 52 50 7 53 0
103 110 104 44 99 79 94 87 28 98 0
103 110 104 32 67 60 64 61 9 66 0
103 110 106 101 108 29 55 47 52 45 0
103 110 106 101 108 44 99 79 94 69 0
103 110 106 101 108 36 85 72 82 62 0
103 110 106 101 108 4 24 12 18 10 0
103 110 106 101 108 40 96 76 90 65 0
103 110 106 101 29 55 47 52 45 53 0
103 110 106 101 44 99 79 94 69 98 0
103 110 106 101 36 85 72 82 62 83 0
103 110 106 101 4 24 12 18 10 20 0
103 110 106 108 29 55 47 52 45 7 0
103 110 106 108 44 99 79 94 69 28 0
103 110 106 108 36 85 72 82 62 16 0
103 110 106 108 40 96 76 90 65 22 0
103 110 106 29 55 47 52 45 7 53 0
103 110 106 44 99 79 94 69 28 98 0
103 110 106 36 85 72 82 62 16 83 0
103 110 101 108 29 55 47 52 45 50 0
103 110 101 108 44 99 79 94 69 87 0
103 110 101 108 4 24 12 18 10 15 0
103 110 101 108 40 96 76 90 65 84 0
103 110 101 29 55 47 52 45 50 53 0
103 110 101 44 99 79 94 69 87 98 0
103 110 101 4 24 12 18 10 15 20 0
103 110 108 29 55 47 52 45 50 7 0
103 110 108 44 99 79 94 69 87 28 0
103 110 108 40 96 76 90 65 84 22 0
103 110 29 55 47 52 45 50 7 53 0
103 110 44 99 79 94 69 87 28 98 0
103 104 106 101 108 29 55 47 52 57 0
103 104 106 101 108 32 67 60 64 70 0
103 104 106 101 108 36 85 72 82 88 0
103 104 106 101 108 4 24 12 18 27 0
103 104 106 101 108 40 96 76 90 97 0
103 104 106 101 29 55 47 52 57 53 0
103 104 106 101 32 67 60 64 70 66 0
103 104 106 101 36 85 72 82 88 83 0
103 104 106 101 4 24 12 18 27 20 0
103 104 106 108 29 55 47 52 57 7 0
103 104 106 108 32 67 60 64 70 9 0
103 104 106 108 36 85 72 82 88 16 0
103 104 106 108 40 96 76 90 97 22 0
103 104 106 29 55 47 52 57 7 53 0
103 104 106 32 67 60 64 70 9 66 0
103 104 106 36 85 72 82 88 16 83 0
103 104 101 108 29 55 47 52 57 50 0
103 104 101 108 32 67 60 64 70 61 0
103 104 101 108 4 24 12 18 27 15 0
103 104 101 108 40 96 76 90 97 84 0
103 104 101 29 55 47 52 57 50 53 0
103 104 101 32 67 60 64 70 61 66 0
103 104 101 4 24 12 18 27 15 20 0
103 104 108 29 55 47 52 57 50 7 0
103 104 108 32 67 60 64 70 61 9 0
103 104 108 40 96 76 90 97 84 22 0
103 104 29 55 47 52 57 50 7 53 0
103 104 32 67 60 64 70 61 9 66 0
103 106 101 108 29 55 47 52 57 45 0
103 106 101 108 36 85 72 82 88 62 0
103 106 101 108 4 24 12 18 27 10 0
103 106 101 108 40 96 76 90 97 65 0
103 106 101 29 55 47 52 57 45 53 0
103 106 101 36 85 72 82 88 62 83 0
103 106 101 4 24 12 18 27 10 20 0
103 106 108 29 55 47 52 57 45 7 0
103 106 108 36 85 72 82 88 62 16 0
103 106 108 40 96 76 90 97 65 22 0
103 106 29 55 47 52 57 45 7 53 0
103 106 36 85 72 82 88 62 16 83 0
103 101 108 29 55 47 52 57 45 50 0
103 101 108 4 24 12 18 27 10 15 0
103 101 108 40 96 76 90 97 65 84 0
103 101 29 55 47 52 57 45 50 53 0
103 101 4 24 12 18 27 10 15 20 0
103 108 29 55 47 52 57 45 50 7 0
103 108 40 96 76 90 97 65 84 22 0
103 29 55 47 52 57 45 50 7 53 0
107 110 104 106 101 108 38 92 74 51 0
107 110 104 106 101 108 44 99 79 58 0
107 110 104 106 101 108 32 67 60 46 0
107 110 104 106 101 108 36 85 72 49 0
107 110 104 106 101 108 4 24 12 6 0
107 110 104 106 101 108 40 96 76 54 0
107 110 104 106 101 38 92 74 51 89 0
107 110 104 106 101 44 99 79 58 98 0
107 110 104 106 101 32 67 60 46 66 0
107 110 104 106 101 36 85 72 49 83 0
107 110 104 106 101 4 24 12 6 20 0
107 110 104 106 108 38 92 74 51 17 0
107 110 104 106 108 44 99 79 58 28 0
107 110 104 106 108 32 67 60 46 9 0
107 110 104 106 108 36 85 72 49 16 0
107 110 104 106 108 40 96 76 54 22 0
107 110 104 106 38 92 74 51 17 89 0
107 110 104 106 44 99 79 58 28 98 0
107 110 104 106 32 67 60 46 9 66 0
107 110 104 106 36 85 72 49 16 83 0
107 110 104 101 108 38 92 74 51 81 0
107 110 104 101 108 44 99 79 58 87 0
107 110 104 101 108 32 67 60 46 61 0
107 110 104 101 108 4 24 12 6 15 0
107 110 104 101 108 40 96 76 54 84 0
107 110 104 101 38 92 74 51 81 89 0
107 110 104 101 44 99 79 58 87 98 0
107 110 104 101 32 67 60 46 61 66 0
107 110 104 101 4 24 12 6 15 20 0
107 110 104 108 38 92 74 51 81 17 0
107 110 104 108 44 99 79 58 87 28 0
107 110 104 108 32 67 60 46 61 9 0
107 110 104 108 40 96 76 54 84 22 0
107 110 104 38 92 74 51 81 17 89 0
107 110 104 44 99 79 58 87 28 98 0
107 110 104 32 67 60 46 61 9 66 0
107 110 106 101 108 38 92 74 51 63 0
107 110 106 101 108 44 99 79 58 69 0
107 110 106 101 108 36 85 72 49 62 0
107 110 106 101 108 4 24 12 6 10 0
107 110 106 101 108 40 96 76 54 65 0
107 110 106 101 38 92 74 51 63 89 0
107 110 106 101 44 99 79 58 69 98 0
107 110 106 101 36 85 72 49 62 83 0
107 110 106 101 4 24 12 6 10 20 0
107 110 106 108 38 92 74 51 63 17 0
107 110 106 108 44 99 79 58 69 28 0
107 110 106 108 36 85 72 49 62 16 0
107 110 106 108 40 96 76 54 65 22 0
107 110 106 38 92 74 51 63 17 89 0
107 110 106 44 99 79 58 69 28 98 0
107 110 106 36 85 72 49 62 16 83 0
107 110 101 108 38 92 74 51 63 81 0
107 110 101 108 44 99 79 58 69 87 0
107 110 101 108 4 24 12 6 10 15 0
107 110 101 108 40 96 76 54 65 84 0
107 110 101 38 92 74 51 63 81 89 0
107 110 101 44 99 79 58 69 87 98 0
107 110 101 4 24 12 6 10 15 20 0
107 110 108 38 92 74 51 63 81 17 0
107 110 108 44 99 79 58 69 87 28 0
107 110 108 40 96 76 54 65 84 22 0
107 110 38 92 74 51 63 81 17 89 0
107 110 44 99 79 58 69 87 28 98 0
107 104 106 101 108 38 92 74 51 93 0
107 104 106 101 108 32 67 60 46 70 0
107 104 106 101 108 36 85 72 49 88 0
107 104 106 101 108 4 24 12 6 27 0
107 104 106 101 108 40 96 76 54 97 0
107 104 106 101 38 92 74 51 93 89 0
107 104 106 101 32 67 60 46 70 66 0
107 104 106 101 36 85 72 49 88 83 0
107 104 106 101 4 24 12 6 27 20 0
107 104 106 108 38 92 74 51 93 17 0
107 104 106 108 32 67 60 46 70 9 0
107 104 106 108 36 85 72 49 88 16 0
107 104 106 108 40 96 76 54 97 22 0
107 104 106 38 92 74 51 93 17 89 0
107 104 106 32 67 60 46 70 9 66 0
107 104 106 36 85 72 49 88 16 83 0
107 104 101 108 38 92 74 51 93 81 0
107 104 101 108 32 67 60 46 70 61 0
107 104 101 108 4 24 12 6 27 15 0
107 104 101 108 40 96 76 54 97 84 0
107 104 101 38 92 74 51 93 81 89 0
107 104 101 32 67 60 46 70 61 66 0
107 104 101 4 24 12 6 27 15 20 0
107 104 108 38 92 74 51 93 81 17 0
107 104 108 32 67 60 46 70 61 9 0
107 104 108 40 96 76 54 97 84 22 0
107 104 38 92 74 51 93 81 17 89 0
107 104 32 67 60 46 70 61 9 66 0
107 106 101 108 38 92 74 51 93 63 0
107 106 101 108 36 85 72 49 88 62 0
107 106 101 108 4 24 12 6 27 10 0
107 106 101 108 40 96 76 54 97 65 0
107 106 101 38 92 74 51 93 63 89 0
107 106 101 36 85 72 49 88 62 83 0
107 106 101 4 24 12 6 27 10 20 0
107 106 108 38 92 74 51 93 63 17 0
107 106 108 36 85 72 49 88 62 16 0
107 106 108 40 96 76 54 97 65 22 0
107 106 38 92 74 51 93 63 17 89 0
107 106 36 85 72 49 88 62 16 83 0
107 101 108 38 92 74 51 93 63 81 0
107 101 108 4 24 12 6 27 10 15 0
107 101 108 40 96 76 54 97 65 84 0
107 101 38 92 74 51 93 63 81 89 0
107 101 4 24 12 6 27 10 15 20 0
107 108 38 92 74 51 93 63 81 17 0
107 108 40 96 76 54 97 65 84 22 0
107 38 92 74 51 93 63 81 17 89 0
110 104 106 101 108 44 99 79 58 94 0
110 104 106 101 108 32 67 60 46 64 0
110 104 106 101 108 36 85 72 49 82 0
110 104 106 101 108 4 24 12 6 18 0
110 104 106 101 108 40 96 76 54 90 0
110 104 106 101 44 99 79 58 94 98 0
110 104 106 101 32 67 60 46 64 66 0
110 104 106 101 36 85 72 49 82 83 0
110 104 106 101 4 24 12 6 18 20 0
110 104 106 108 44 99 79 58 94 28 0
110 104 106 108 32 67 60 46 64 9 0
110 104 106 108 36 85 72 49 82 16 0
110 104 106 108 40 96 76 54 90 22 0
110 104 106 44 99 79 58 94 28 98 0
110 104 106 32 67 60 46 64 9 66 0
110 104 106 36 85 72 49 82 16 83 0
110 104 101 108 44 99 79 58 94 87 0
110 104 101 108 32 67 60 46 64 61 0
110 104 101 108 4 24 12 6 18 15 0
110 104 101 108 40 96 76 54 90 84 0
110 104 101 44 99 79 58 94 87 98 0
110 104 101 32 67 60 46 64 61 66 0
110 104 101 4 24 12 6 18 15 20 0
110 104 108 44 99 79 58 94 87 28 0
110 104 108 32 67 60 46 64 61 9 0
110 104 108 40 96 76 54 90 84 22 0
110 104 44 99 79 58 94 87 28 98 0
110 104 32 67 60 46 64 61 9 66 0
110 106 101 108 44 99 79 58 94 69 0
110 106 101 108 36 85 72 49 82 62 0
110 106 101 108 4 24 12 6 18 10 0
110 106 101 108 40 96 76 54 90 65 0
110 106 101 44 99 79 58 94 69 98 0
110 106 101 36 85 72 49 82 62 83 0
110 106 101 4 24 12 6 18 10 20 0
110 106 108 44 99 79 58 94 69 28 0
110 106 108 36 85 72 49 82 62 16 0
110 106 108 40 96 76 54 90 65 22 0
110 106 44 99 79 58 94 69 28 98 0
110 106 36 85 72 49 82 62 16 83 0
110 101 108 44 99 79 58 94 69 87 0
110 101 108 4 24 12 6 18 10 15 0
110 101 108 40 96 76 54 90 65 84 0
110 101 44 99 79 58 94 69 87 98 0
110 101 4 24 12 6 18 10 15 20 0
110 108 44 99 79 58 94 69 87 28 0
110 108 40 96 76 54 90 65 84 22 0
110 44 99 79 58 94 69 87 28 98 0
104 106 101 108 32 67 60 46 64 70 0
104 106 101 108 36 85 72 49 82 88 0
104 106 101 108 4 24 12 6 18 27 0
104 106 101 108 40 96 76 54 90 97 0
104 106 101 32 67 60 46 64 70 66 0
104 106 101 36 85 72 49 82 88 83 0
104 106 101 4 24 12 6 18 27 20 0
104 106 108 32 67 60 46 64 70 9 0
104 106 108 36 85 72 49 82 88 16 0
104 106 108 40 96 76 54 90 97 22 0
104 106 32 67 60 46 64 70 9 66 0
104 106 36 85 72 49 82 88 16 83 0
104 101 108 32 67 60 46 64 70 61 0
104 101 108 4 24 12 6 18 27 15 0
104 101 108 40 96 76 54 90 97 84 0
104 101 32 67 60 46 64 70 61 66 0
104 101 4 24 12 6 18 27 15 20 0
104 108 32 67 60 46 64 70 61 9 0
104 108 40 96 76 54 90 97 84 22 0
104 32 67 60 46 64 70 61 9 66 0
106 101 108 36 85 72 49 82 88 62 0
106 101 108 4 24 12 6 18 27 10 0
106 101 108 40 96 76 54 90 97 65 0
106 101 36 85 72 49 82 88 62 83 0
106 101 4 24 12 6 18 27 10 20 0
106 108 36 85 72 49 82 88 62 16 0
106 108 40 96 76 54 90 97 65 22 0
106 36 85 72 49 82 88 62 16 83 0
101 108 4 24 12 6 18 27 10 15 0
101 108 40 96 76 54 90 97 65 84 0
101 4 24 12 6 18 27 10 15 20 0
108 40 96 76 54 90 97 65 84 22 0
102 109 105 103 107 110 104 106 101 108 2 0
102 109 105 103 107 110 104 106 101 108 23 0
102 109 105 103 107 110 104 106 101 108 13 0
102 109 105 103 107 110 104 106 101 108 5 0
102 109 105 103 107 110 104 106 101 108 19 0
102 109 105 103 107 110 104 106 101 108 26 0
102 109 105 103 107 110 104 106 101 108 8 0
102 109 105 103 107 110 104 106 101 108 14 0
102 109 105 103 107 110 104 106 101 108 1 0
102 109 105 103 107 110 104 106 101 108 21 0
102 109 105 103 107 110 104 106 101 2 39 0
102 109 105 103 107 110 104 106 101 23 95 0
102 109 105 103 107 110 104 106 101 13 75 0
102 109 105 103 107 110 104 106 101 5 53 0
102 109 105 103 107 110 104 106 101 19 89 0
102 109 105 103 107 110 104 106 101 26 98 0
102 109 105 103 107 110 104 106 101 8 66 0
102 109 105 103 107 110 104 106 101 14 83 0
102 109 105 103 107 110 104 106 101 1 20 0
102 109 105 103 107 110 104 106 108 2 3 0
102 109 105 103 107 110 104 106 108 23 25 0
102 109 105 103 107 110 104 106 108 13 11 0
102 109 105 103 107 110 104 106 108 5 7 0
102 109 105 103 107 110 104 106 108 19 17 0
102 109 105 103 107 110 104 106 108 26 28 0
102 109 105 103 107 110 104 106 108 8 9 0
102 109 105 103 107 110 104 106 108 14 16 0
102 109 105 103 107 110 104 106 108 22 21 0
102 109 105 103 107 110 104 106 2 3 39 0
102 109 105 103 107 110 104 106 23 25 95 0
102 109 105 103 107 110 104 106 13 11 75 0
102 109 105 103 107 110 104 106 5 7 53 0
102 109 105 103 107 110 104 106 19 17 89 0
102 109 105 103 107 110 104 106 26 28 98 0
102 109 105 103 107 110 104 106 8 9 66 0
102 109 105 103 107 110 104 106 14 16 83 0
102 109 105 103 107 110 104 101 108 2 35 0
102 109 105 103 107 110 104 101 108 23 86 0
102 109 105 103 107 110 104 101 108 13 71 0
102 109 105 103 107 110 104 101 108 5 50 0
102 109 105 103 107 110 104 101 108 19 81 0
102 109 105 103 107 110 104 101 108 26 87 0
102 109 105 103 107 110 104 101 108 8 61 0
102 109 105 103 107 110 104 101 108 15 1 0
102 109 105 103 107 110 104 101 108 84 21 0
102 109 105 103 107 110 104 101 2 35 39 0
102 109 105 103 107 110 104 101 23 86 95 0
102 109 105 103 107 110 104 101 13 71 75 0
102 109 105 103 107 110 104 101 5 50 53 0
102 109 105 103 107 110 104 101 19 81 89 0
102 109 105 103 107 110 104 101 26 87 98 0
102 109 105 103 107 110 104 101 8 61 66 0
102 109 105 103 107 110 104 101 15 1 20 0
102 109 105 103 107 110 104 108 2 35 3 0
102 109 105 103 107 110 104 108 23 86 25 0
102 109 105 103 107 110 104 108 13 71 11 0
102 109 105 103 107 110 104 108 5 50 7 0
102 109 105 103 107 110 104 108 19 81 17 0
102 109 105 103 107 110 104 108 26 87 28 0
102 109 105 103 107 110 104 108 8 61 9 0
102 109 105 103 107 110 104 108 84 22 21 0
102 109 105 103 107 110 104 2 35 3 39 0
102 109 105 103 107 110 104 23 86 25 95 0
102 109 105 103 107 110 104 13 71 11 75 0
102 109 105 103 107 110 104 5 50 7 53 0
102 109 105 103 107 110 104 19 81 17 89 0
102 109 105 103 107 110 104 26 87 28 98 0
102 109 105 103 107 110 104 8 61 9 66 0
102 109 105 103 107 110 106 101 108 2 31 0
102 109 105 103 107 110 106 101 108 23 68 0
102 109 105 103 107 110 106 101 108 13 59 0
102 109 105 103 107 110 106 101 108 5 45 0
102 109 105 103 107 110 106 101 108 19 63 0
102 109 105 103 107 110 106 101 108 26 69 0
102 109 105 103 107 110 106 101 108 62 14 0
102 109 105 103 107 110 106 101 108 10 1 0
102 109 105 103 107 110 106 101 108 65 21 0
102 109 105 103 107 110 106 101 2 31 39 0
102 109 105 103 107 110 106 101 23 68 95 0
102 109 105 103 107 110 106 101 13 59 75 0
102 109 105 103 107 110 106 101 5 45 53 0
102 109 105 103 107 110 106 101 19 63 89 0
102 109 105 103 107 110 106 101 26 69 98 0
102 109 105 103 107 110 106 101 62 14 83 0
102 109 105 103 107 110 106 101 10 1 20 0
102 109 105 103 107 110 106 108 2 31 3 0
102 109 105 103 107 110 106 108 23 68 25 0
102 109 105 103 107 110 106 108 13 59 11 0
102 109 105 103 107 110 106 108 5 45 7 0
102 109 105 103 107 110 106 108 19 63 17 0
102 109 105 103 107 110 106 108 26 69 28 0
102 109 105 103 107 110 106 108 62 14 16 0
102 109 105 103 107 110 106 108 65 22 21 0
102 109 105 103 107 110 106 2 31 3 39 0
102 109 105 103 107 110 106 23 68 25 95 0
102 109 105 103 107 110 106 13 59 11 75 0
102 109 105 103 107 110 106 5 45 7 53 0
102 109 105 103 107 110 106 19 63 17 89 0
102 109 105 103 107 110 106 26 69 28 98 0
102 109 105 103 107 110 106 62 14 16 83 0
102 109 105 103 107 110 101 108 2 31 35 0
102 109 105 103 107 110 101 108 23 68 86 0
102 109 105 103 107 110 101 108 13 59 71 0
102 109 105 103 107 110 101 108 5 45 50 0
102 109 105 103 107 110 101 108 19 63 81 0
102 109 105 103 107 110 101 108 26 69 87 0
102 109 105 103 107 110 101 108 10 15 1 0
102 109 105 103 107 110 101 108 65 84 21 0
102 109 105 103 107 110 101 2 31 35 39 0
102 109 105 103 107 110 101 23 68 86 95 0
102 109 105 103 107 110 101 13 59 71 75 0
102 109 105 103 107 110 101 5 45 50 53 0
102 109 105 103 107 110 101 19 63 81 89 0
102 109 105 103 107 110 101 26 69 87 98 0
102 109 105 103 107 110 101 10 15 1 20 0
102 109 105 103 107 110 108 2 31 35 3 0
102 109 105 103 107 110 108 23 68 86 25 0
102 109 105 103 107 110 108 13 59 71 11 0
102 109 105 103 107 110 108 5 45 50 7 0
102 109 105 103 107 110 108 19 63 81 17 0
102 109 105 103 107 110 108 26 69 87 28 0
102 109 105 103 107 110 108 65 84 22 21 0
102 109 105 103 107 110 2 31 35 3 39 0
102 109 105 103 107 110 23 68 86 25 95 0
102 109 105 103 107 110 13 59 71 11 75 0
102 109 105 103 107 110 5 45 50 7 53 0
102 109 105 103 107 110 19 63 81 17 89 0
102 109 105 103 107 110 26 69 87 28 98 0
102 109 105 103 107 104 106 101 108 2 43 0
102 109 105 103 107 104 106 101 108 23 100 0
102 109 105 103 107 104 106 101 108 13 80 0
102 109 105 103 107 104 106 101 108 5 57 0
102 109 105 103 107 104 106 101 108 19 93 0
102 109 105 103 107 104 106 101 108 70 8 0
102 109 105 103 107 104 106 101 108 88 14 0
102 109 105 103 107 104 106 101 108 27 1 0
102 109 105 103 107 104 106 101 108 97 21 0
102 109 105 103 107 104 106 101 2 43 39 0
102 109 105 103 107 104 106 101 23 100 95 0
102 109 105 103 107 104 106 101 13 80 75 0
102 109 105 103 107 104 106 101 5 57 53 0
102 109 105 103 107 104 106 101 19 93 89 0
102 109 105 103 107 104 106 101 70 8 66 0
102 109 105 103 107 104 106 101 88 14 83 0
102 109 105 103 107 104 106 101 27 1 20 0
102 109 105 103 107 104 106 108 2 43 3 0
102 109 105 103 107 104 106 108 23 100 25 0
102 109 105 103 107 104 106 108 13 80 11 0
102 109 105 103 107 104 106 108 5 57 7 0
102 109 105 103 107 104 106 108 19 93 17 0
102 109 105 103 107 104 106 108 70 8 9 0
102 109 105 103 107 104 106 108 88 14 16 0
102 109 105 103 107 104 106 108 97 22 21 0
102 109 105 103 107 104 106 2 43 3 39 0
102 109 105 103 107 104 106 23 100 25 95 0
102 109 105 103 107 104 106 13 80 11 75 0
102 109 105 103 107 104 106 5 57 7 53 0
102 109 105 103 107 104 106 19 93 17 89 0
102 109 105 103 107 104 106 70 8 9 66 0
102 109 105 103 107 104 106 88 14 16 83 0
102 109 105 103 107 104 101 108 2 43 35 0
102 109 105 103 107 104 101 108 23 100 86 0
102 109 105 103 107 104 101 108 13 80 71 0
102 109 105 103 107 104 101 108 5 57 50 0
102 109 105 103 107 104 101 108 19 93 81 0
102 109 105 103 107 104 101 108 70 8 61 0
102 109 105 103 107 104 101 108 27 15 1 0
102 109 105 103 107 104 101 108 97 84 21 0
102 109 105 103 107 104 101 2 43 35 39 0
102 109 105 103 107 104 101 23 100 86 95 0
102 109 105 103 107 104 101 13 80 71 75 0
102 109 105 103 107 104 101 5 57 50 53 0
102 109 105 103 107 104 101 19 93 81 89 0
102 109 105 103 107 104 101 70 8 61 66 0
102 109 105 103 107 104 101 27 15 1 20 0
102 109 105 103 107 104 108 2 43 35 3 0
102 109 105 103 107 104 108 23 100 86 25 0
102 109 105 103 107 104 108 13 80 71 11 0
102 109 105 103 107 104 108 5 57 50 7 0
102 109 105 103 107 104 108 19 93 81 17 0
102 109 105 103 107 104 108 70 8 61 9 0
102 109 105 103 107 104 108 97 84 22 21 0
102 109 105 103 107 104 2 43 35 3 39 0
102 109 105 103 107 104 23 100 86 25 95 0
102 109 105 103 107 104 13 80 71 11 75 0
102 109 105 103 107 104 5 57 50 7 53 0
102 109 105 103 107 104 19 93 81 17 89 0
102 109 105 103 107 104 70 8 61 9 66 0
102 109 105 103 107 106 101 108 2 43 31 0
102 109 105 103 107 106 101 108 23 100 68 0
102 109 105 103 107 106 101 108 13 80 59 0
102 109 105 103 107 106 101 108 5 57 45 0
102 109 105 103 107 106 101 108 19 93 63 0
102 109 105 103 107 106 101 108 88 62 14 0
102 109 105 103 107 106 101 108 27 10 1 0
102 109 105 103 107 106 101 108 97 65 21 0
102 109 105 103 107 106 101 2 43 31 39 0
102 109 105 103 107 106 101 23 100 68 95 0
102 109 105 103 107 106 101 13 80 59 75 0
102 109 105 103 107 106 101 5 57 45 53 0
102 109 105 103 107 106 101 19 93 63 89 0
102 109 105 103 107 106 101 88 62 14 83 0
102 109 105 103 107 106 101 27 10 1 20 0
102 109 105 103 107 106 108 2 43 31 3 0
102 109 105 103 107 106 108 23 100 68 25 0
102 109 105 103 107 106 108 13 80 59 11 0
102 109 105 103 107 106 108 5 57 45 7 0
102 109 105 103 107 106 108 19 93 63 17 0
102 109 105 103 107 106 108 88 62 14 16 0
102 109 105 103 107 106 108 97 65 22 21 0
102 109 105 103 107 106 2 43 31 3 39 0
102 109 105 103 107 106 23 100 68 25 95 0
102 109 105 103 107 106 13 80 59 11 75 0
102 109 105 103 107 106 5 57 45 7 53 0
102 109 105 103 107 106 19 93 63 17 89 0
102 109 105 103 107 106 88 62 14 16 83 0
102 109 105 103 107 101 108 2 43 31 35 0
102 109 105 103 107 101 108 23 100 68 86 0
102 109 105 103 107 101 108 13 80 59 71 0
102 109 105 103 107 101 108 5 57 45 50 0
102 109 105 103 107 101 108 19 93 63 81 0
102 109 105 103 107 101 108 27 10 15 1 0
102 109 105 103 107 101 108 97 65 84 21 0
102 109 105 103 107 101 2 43 31 35 39 0
102 109 105 103 107 101 23 100 68 86 95 0
102 109 105 103 107 101 13 80 59 71 75 0
102 109 105 103 107 101 5 57 45 50 53 0
102 109 105 103 107 101 19 93 63 81 89 0
102 109 105 103 107 101 27 10 15 1 20 0
102 109 105 103 107 108 2 43 31 35 3 0
102 109 105 103 107 108 23 100 68 86 25 0
102 109 105 103 107 108 13 80 59 71 11 0
102 109 105 103 107 108 5 57 45 50 7 0
102 109 105 103 107 108 19 93 63 81 17 0
102 109 105 103 107 108 97 65 84 22 21 0
102 109 105 103 107 2 43 31 35 3 39 0
102 109 105 103 107 23 100 68 86 25 95 0
102 109 105 103 107 13 80 59 71 11 75 0
102 109 105 103 107 5 57 45 50 7 53 0
102 109 105 103 107 19 93 63 81 17 89 0
102 109 105 103 110 104 106 101 108 2 37 0
102 109 105 103 110 104 106 101 108 23 91 0
102 109 105 103 110 104 106 101 108 13 73 0
102 109 105 103 110 104 106 101 108 5 52 0
102 109 105 103 110 104 106 101 108 94 26 0
102 109 105 103 110 104 106 101 108 64 8 0
102 109 105 103 110 104 106 101 108 82 14 0
102 109 105 103 110 104 106 101 108 18 1 0
102 109 105 103 110 104 106 101 108 90 21 0
102 109 105 103 110 104 106 101 2 37 39 0
102 109 105 103 110 104 106 101 23 91 95 0
102 109 105 103 110 104 106 101 13 73 75 0
102 109 105 103 110 104 106 101 5 52 53 0
102 109 105 103 110 104 106 101 94 26 98 0
102 109 105 103 110 104 106 101 64 8 66 0
102 109 105 103 110 104 106 101 82 14 83 0
102 109 105 103 110 104 106 101 18 1 20 0
102 109 105 103 110 104 106 108 2 37 3 0
102 109 105 103 110 104 106 108 23 91 25 0
102 109 105 103 110 104 106 108 13 73 11 0
102 109 105 103 110 104 106 108 5 52 7 0
102 109 105 103 110 104 106 108 94 26 28 0
102 109 105 103 110 104 106 108 64 8 9 0
102 109 105 103 110 104 106 108 82 14 16 0
102 109 105 103 110 104 106 108 90 22 21 0
102 109 105 103 110 104 106 2 37 3 39 0
102 109 105 103 110 104 106 23 91 25 95 0
102 109 105 103 110 104 106 13 73 11 75 0
102 109 105 103 110 104 106 5 52 7 53 0
102 109 105 103 110 104 106 94 26 28 98 0
102 109 105 103 110 104 106 64 8 9 66 0
102 109 105 103 110 104 106 82 14 16 83 0
102 109 105 103 110 104 101 108 2 37 35 0
102 109 105 103 110 104 101 108 23 91 86 0
102 109 105 103 110 104 101 108 13 73 71 0
102 109 105 103 110 104 101 108 5 52 50 0
102 109 105 103 110 104 101 108 94 26 87 0
102 109 105 103 110 104 101 108 64 8 61 0
102 109 105 103 110 104 101 108 18 15 1 0
102 109 105 103 110 104 101 108 90 84 21 0
102 109 105 103 110 104 101 2 37 35 39 0
102 109 105 103 110 104 101 23 91 86 95 0
102 109 105 103 110 104 101 13 73 71 75 0
102 109 105 103 110 104 101 5 52 50 53 0
102 109 105 103 110 104 101 94 26 87 98 0
102 109 105 103 110 104 101 64 8 61 66 0
102 109 105 103 110 104 101 18 15 1 20 0
102 109 105 103 110 104 108 2 37 35 3 0
102 109 105 103 110 104 108 23 91 86 25 0
102 109 105 103 110 104 108 13 73 71 11 0
102 109 105 103 110 104 108 5 52 50 7 0
102 109 105 103 110 104 108 94 26 87 28 0
102 109 105 103 110 104 108 64 8 61 9 0
102 109 105 103 110 104 108 90 84 22 21 0
102 109 105 103 110 104 2 37 35 3 39 0
102 109 105 103 110 104 23 91 86 25 95 0
102 109 105 103 110 104 13 73 71 11 75 0
102 109 105 103 110 104 5 52 50 7 53 0
102 109 105 103 110 104 94 26 87 28 98 0
102 109 105 103 110 104 64 8 61 9 66 0
102 109 105 103 110 106 101 108 2 37 31 0
102 109 105 103 110 106 101 108 23 91 68 0
102 109 105 103 110 106 101 108 13 73 59 0
102 109 105 103 110 106 101 108 5 52 45 0
102 109 105 103 110 106 101 108 94 26 69 0
102 109 105 103 110 106 101 108 82 62 14 0
102 109 105 103 110 106 101 108 18 10 1 0
102 109 105 103 110 106 101 108 90 65 21 0
102 109 105 103 110 106 101 2 37 31 39 0
102 109 105 103 110 106 101 23 91 68 95 0
102 109 105 103 110 106 101 13 73 59 75 0
102 109 105 103 110 106 101 5 52 45 53 0
102 109 105 103 110 106 101 94 26 69 98 0
102 109 105 103 110 106 101 82 62 14 83 0
102 109 105 103 110 106 101 18 10 1 20 0
102 109 105 103 110 106 108 2 37 31 3 0
102 109 105 103 110 106 108 23 91 68 25 0
102 109 105 103 110 106 108 13 73 59 11 0
102 109 105 103 110 106 108 5 52 45 7 0
102 109 105 103 110 106 108 94 26 69 28 0
102 109 105 103 110 106 108 82 62 14 16 0
102 109 105 103 110 106 108 90 65 22 21 0
102 109 105 103 110 106 2 37 31 3 39 0
102 109 105 103 110 106 23 91 68 25 95 0
102 109 105 103 110 106 13 73 59 11 75 0
102 109 105 103 110 106 5 52 45 7 53 0
102 109 105 103 110 106 94 26 69 28 98 0
102 109 105 103 110 106 82 62 14 16 83 0
102 109 105 103 110 101 108 2 37 31 35 0
102 109 105 103 110 101 108 23 91 68 86 0
102 109 105 103 110 101 108 13 73 59 71 0
102 109 105 103 110 101 108 5 52 45 50 0
102 109 105 103 110 101 108 94 26 69 87 0
102 109 105 103 110 101 108 18 10 15 1 0
102 109 105 103 110 101 108 90 65 84 21 0
102 109 105 103 110 101 2 37 31 35 39 0
102 109 105 103 110 101 23 91 68 86 95 0
102 109 105 103 110 101 13 73 59 71 75 0
102 109 105 103 110 101 5 52 45 50 53 0
102 109 105 103 110 101 94 26 69 87 98 0
102 109 105 103 110 101 18 10 15 1 20 0
102 109 105 103 110 108 2 37 31 35 3 0
102 109 105 103 110 108 23 91 68 86 25 0
102 109 105 103 110 108 13 73 59 71 11 0
102 109 105 103 110 108 5 52 45 50 7 0
102 109 105 103 110 108 94 26 69 87 28 0
102 109 105 103 110 108 90 65 84 22 21 0
102 109 105 103 110 2 37 31 35 3 39 0
102 109 105 103 110 23 91 68 86 25 95 0
102 109 105 103 110 13 73 59 71 11 75 0
102 109 105 103 110 5 52 45 50 7 53 0
102 109 105 103 110 94 26 69 87 28 98 0
102 109 105 103 104 106 101 108 2 37 43 0
102 109 105 103 104 106 101 108 23 91 100 0
102 109 105 103 104 106 101 108 13 73 80 0
102 109 105 103 104 106 101 108 5 52 57 0
102 109 105 103 104 106 101 108 64 70 8 0
102 109 105 103 104 106 101 108 82 88 14 0
102 109 105 103 104 106 101 108 18 27 1 0
102 109 105 103 104 106 101 108 90 97 21 0
102 109 105 103 104 106 101 2 37 43 39 0
102 109 105 103 104 106 101 23 91 100 95 0
102 109 105 103 104 106 101 13 73 80 75 0
102 109 105 103 104 106 101 5 52 57 53 0
102 109 105 103 104 106 101 64 70 8 66 0
102 109 105 103 104 106 101 82 88 14 83 0
102 109 105 103 104 106 101 18 27 1 20 0
102 109 105 103 104 106 108 2 37 43 3 0
102 109 105 103 104 106 108 23 91 100 25 0
102 109 105 103 104 106 108 13 73 80 11 0
102 109 105 103 104 106 108 5 52 57 7 0
102 109 105 103 104 106 108 64 70 8 9 0
102 109 105 103 104 106 108 82 88 14 16 0
102 109 105 103 104 106 108 90 97 22 21 0
102 109 105 103 104 106 2 37 43 3 39 0
102 109 105 103 104 106 23 91 100 25 95 0
102 109 105 103 104 106 13 73 80 11 75 0
102 109 105 103 104 106 5 52 57 7 53 0
102 109 105 103 104 106 64 70 8 9 66 0
102 109 105 103 104 106 82 88 14 16 83 0
102 109 105 103 104 101 108 2 37 43 35 0
102 109 105 103 104 101 108 23 91 100 86 0
102 109 105 103 104 101 108 13 73 80 71 0
102 109 105 103 104 101 108 5 52 57 50 0
102 109 105 103 104 101 108 64 70 8 61 0
102 109 105 103 104 101 108 18 27 15 1 0
102 109 105 103 104 101 108 90 97 84 21 0
102 109 105 103 104 101 2 37 43 35 39 0
102 109 105 103 104 101 23 91 100 86 95 0
102 109 105 103 104 101 13 73 80 71 75 0
102 109 105 103 104 101 5 52 57 50 53 0
102 109 105 103 104 101 64 70 8 61 66 0
102 109 105 103 104 101 18 27 15 1 20 0
102 109 105 103 104 108 2 37 43 35 3 0
102 109 105 103 104 108 23 91 100 86 25 0
102 109 105 103 104 108 13 73 80 71 11 0
102 109 105 103 104 108 5 52 57 50 7 0
102 109 105 103 104 108 64 70 8 61 9 0
102 109 105 103 104 108 90 97 84 22 21 0
102 109 105 103 104 2 37 43 35 3 39 0
102 109 105 103 104 23 91 100 86 25 95 0
102 109 105 103 104 13 73 80 71 11 75 0
102 109 105 103 104 5 52 57 50 7 53 0
102 109 105 103 104 64 70 8 61 9 66 0
102 109 105 103 106 101 108 2 37 43 31 0
102 109 105 103 106 101 108 23 91 100 68 0
102 109 105 103 106 101 108 13 73 80 59 0
102 109 105 103 106 101 108 5 52 57 45 0
102 109 105 103 106 101 108 82 88 62 14 0
102 109 105 103 106 101 108 18 27 10 1 0
102 109 105 103 106 101 108 90 97 65 21 0
102 109 105 103 106 101 2 37 43 31 39 0
102 109 105 103 106 101 23 91 100 68 95 0
102 109 105 103 106 101 13 73 80 59 75 0
102 109 105 103 106 101 5 52 57 45 53 0
102 109 105 103 106 101 82 88 62 14 83 0
102 109 105 103 106 101 18 27 10 1 20 0
102 109 105 103 106 108 2 37 43 31 3 0
102 109 105 103 106 108 23 91 100 68 25 0
102 109 105 103 106 108 13 73 80 59 11 0
102 109 105 103 106 108 5 52 57 45 7 0
102 109 105 103 106 108 82 88 62 14 16 0
102 109 105 103 106 108 90 97 65 22 21 0
102 109 105 103 106 2 37 43 31 3 39 0
102 109 105 103 106 23 91 100 68 25 95 0
102 109 105 103 106 13 73 80 59 11 75 0
102 109 105 103 106 5 52 57 45 7 53 0
102 109 105 103 106 82 88 62 14 16 83 0
102 109 105 103 101 108 2 37 43 31 35 0
102 109 105 103 101 108 23 91 100 68 86 0
102 109 105 103 101 108 13 73 80 59 71 0
102 109 105 103 101 108 5 52 57 45 50 0
102 109 105 103 101 108 18 27 10 15 1 0
102 109 105 103 101 108 90 97 65 84 21 0
102 109 105 103 101 2 37 43 31 35 39 0
102 109 105 103 101 23 91 100 68 86 95 0
102 109 105 103 101 13 73 80 59 71 75 0
102 109 105 103 101 5 52 57 45 50 53 0
102 109 105 103 101 18 27 10 15 1 20 0
102 109 105 103 108 2 37 43 31 35 3 0
102 109 105 103 108 23 91 100 68 86 25 0
102 109 105 103 108 13 73 80 59 71 11 0
102 109 105 103 108 5 52 57 45 50 7 0
102 109 105 103 108 90 97 65 84 22 21 0
102 109 105 103 2 37 43 31 35 3 39 0
102 109 105 103 23 91 100 68 86 25 95 0
102 109 105 103 13 73 80 59 71 11 75 0
102 109 105 103 5 52 57 45 50 7 53 0
102 109 105 107 110 104 106 101 108 2 30 0
102 109 105 107 110 104 106 101 108 23 56 0
102 109 105 107 110 104 106 101 108 13 48 0
102 109 105 107 110 104 106 101 108 51 19 0
102 109 105 107 110 104 106 101 108 58 26 0
102 109 105 107 110 104 106 101 108 46 8 0
102 109 105 107 110 104 106 101 108 49 14 0
102 109 105 107 110 104 106 101 108 6 1 0
102 109 105 107 110 104 106 101 108 54 21 0
102 109 105 107 110 104 106 101 2 30 39 0
102 109 105 107 110 104 106 101 23 56 95 0
102 109 105 107 110 104 106 101 13 48 75 0
102 109 105 107 110 104 106 101 51 19 89 0
102 109 105 107 110 104 106 101 58 26 98 0
102 109 105 107 110 104 106 101 46 8 66 0
102 109 105 107 110 104 106 101 49 14 83 0
102 109 105 107 110 104 106 101 6 1 20 0
102 109 105 107 110 104 106 108 2 30 3 0
102 109 105 107 110 104 106 108 23 56 25 0
102 109 105 107 110 104 106 108 13 48 11 0
102 109 105 107 110 104 106 108 51 19 17 0
102 109 105 107 110 104 106 108 58 26 28 0
102 109 105 107 110 104 106 108 46 8 9 0
102 109 105 107 110 104 106 108 49 14 16 0
102 109 105 107 110 104 106 108 54 22 21 0
102 109 105 107 110 104 106 2 30 3 39 0
102 109 105 107 110 104 106 23 56 25 95 0
102 109 105 107 110 104 106 13 48 11 75 0
102 109 105 107 110 104 106 51 19 17 89 0
102 109 105 107 110 104 106 58 26 28 98 0
102 109 105 107 110 104 106 46 8 9 66 0
102 109 105 107 110 104 106 49 14 16 83 0
102 109 105 107 110 104 101 108 2 30 35 0
102 109 105 107 110 104 101 108 23 56 86 0
102 109 105 107 110 104 101 108 13 48 71 0
102 109 105 107 110 104 101 108 51 19 81 0
102 109 105 107 110 104 101 108 58 26 87 0
102 109 105 107 110 104 101 108 46 8 61 0
102 109 105 107 110 104 101 108 6 15 1 0
102 109 105 107 110 104 101 108 54 84 21 0
102 109 105 107 110 104 101 2 30 35 39 0
102 109 105 107 110 104 101 23 56 86 95 0
102 109 105 107 110 104 101 13 48 71 75 0
102 109 105 107 110 104 101 51 19 81 89 0
102 109 105 107 110 104 101 58 26 87 98 0
102 109 105 107 110 104 101 46 8 61 66 0
102 109 105 107 110 104 101 6 15 1 20 0
102 109 105 107 110 104 108 2 30 35 3 0
102 109 105 107 110 104 108 23 56 86 25 0
102 109 105 107 110 104 108 13 48 71 11 0
102 109 105 107 110 104 108 51 19 81 17 0
102 109 105 107 110 104 108 58 26 87 28 0
102 109 105 107 110 104 108 46 8 61 9 0
102 109 105 107 110 104 108 54 84 22 21 0
102 109 105 107 110 104 2 30 35 3 39 0
102 109 105 107 110 104 23 56 86 25 95 0
102 109 105 107 110 104 13 48 71 11 75 0
102 109 105 107 110 104 51 19 81 17 89 0
102 109 105 107 110 104 58 26 87 28 98 0
102 109 105 107 110 104 46 8 61 9 66 0
102 109 105 107 110 106 101 108 2 30 31 0
102 109 105 107 110 106 101 108 23 56 68 0
102 109 105 107 110 106 101 108 13 48 59 0
102 109 105 107 110 106 101 108 51 19 63 0
102 109 105 107 110 106 101 108 58 26 69 0
102 109 105 107 110 106 101 108 49 62 14 0
102 109 105 107 110 106 101 108 6 10 1 0
102 109 105 107 110 106 101 108 54 65 21 0
102 109 105 107 110 106 101 2 30 31 39 0
102 109 105 107 110 106 101 23 56 68 95 0
102 109 105 107 110 106 101 13 48 59 75 0
102 109 105 107 110 106 101 51 19 63 89 0
102 109 105 107 110 106 101 58 26 69 98 0
102 109 105 107 110 106 101 49 62 14 83 0
102 109 105 107 110 106 101 6 10 1 20 0
102 109 105 107 110 106 108 2 30 31 3 0
102 109 105 107 110 106 108 23 56 68 25 0
102 109 105 107 110 106 108 13 48 59 11 0
102 109 105 107 110 106 108 51 19 63 17 0
102 109 105 107 110 106 108 58 26 69 28 0
102 109 105 107 110 106 108 49 62 14 16 0
102 109 105 107 110 106 108 54 65 22 21 0
102 109 105 107 110 106 2 30 31 3 39 0
102 109 105 107 110 106 23 56 68 25 95 0
102 109 105 107 110 106 13 48 59 11 75 0
102 109 105 107 110 106 51 19 63 17 89 0
102 109 105 107 110 106 58 26 69 28 98 0
102 109 105 107 110 106 49 62 14 16 83 0
102 109 105 107 110 101 108 2 30 31 35 0
102 109 105 107 110 101 108 23 56 68 86 0
102 109 105 107 110 101 108 13 48 59 71 0
102 109 105 107 110 101 108 51 19 63 81 0
102 109 105 107 110 101 108 58 26 69 87 0
102 109 105 107 110 101 108 6 10 15 1 0
102 109 105 107 110 101 108 54 65 84 21 0
102 109 105 107 110 101 2 30 31 35 39 0
102 109 105 107 110 101 23 56 68 86 95 0
102 109 105 107 110 101 13 48 59 71 75 0
102 109 105 107 110 101 51 19 63 81 89 0
102 109 105 107 110 101 58 26 69 87 98 0
102 109 105 107 110 101 6 10 15 1 20 0
102 109 105 107 110 108 2 30 31 35 3 0
102 109 105 107 110 108 23 56 68 86 25 0
102 109 105 107 110 108 13 48 59 71 11 0
102 109 105 107 110 108 51 19 63 81 17 0
102 109 105 107 110 108 58 26 69 87 28 0
102 109 105 107 110 108 54 65 84 22 21 0
102 109 105 107 110 2 30 31 35 3 39 0
102 109 105 107 110 23 56 68 86 25 95 0
102 109 105 107 110 13 48 59 71 11 75 0
102 109 105 107 110 51 19 63 81 17 89 0
102 109 105 107 110 58 26 69 87 28 98 0
102 109 105 107 104 106 101 108 2 30 43 0
102 109 105 107 104 106 101 108 23 56 100 0
102 109 105 107 104 106 101 108 13 48 80 0
102 109 105 107 104 106 101 108 51 19 93 0
102 109 105 107 104 106 101 108 46 70 8 0
102 109 105 107 104 106 101 108 49 88 14 0
102 109 105 107 104 106 101 108 6 27 1 0
102 109 105 107 104 106 101 108 54 97 21 0
102 109 105 107 104 106 101 2 30 43 39 0
102 109 105 107 104 106 101 23 56 100 95 0
102 109 105 107 104 106 101 13 48 80 75 0
102 109 105 107 104 106 101 51 19 93 89 0
102 109 105 107 104 106 101 46 70 8 66 0
102 109 105 107 104 106 101 49 88 14 83 0
102 109 105 107 104 106 101 6 27 1 20 0
102 109 105 107 104 106 108 2 30 43 3 0
102 109 105 107 104 106 108 23 56 100 25 0
102 109 105 107 104 106 108 13 48 80 11 0
102 109 105 107 104 106 108 51 19 93 17 0
102 109 105 107 104 106 108 46 70 8 9 0
102 109 105 107 104 106 108 49 88 14 16 0
102 109 105 107 104 106 108 54 97 22 21 0
102 109 105 107 104 106 2 30 43 3 39 0
102 109 105 107 104 106 23 56 100 25 95 0
102 109 105 107 104 106 13 48 80 11 75 0
102 109 105 107 104 106 51 19 93 17 89 0
102 109 105 107 104 106 46 70 8 9 66 0
102 109 105 107 104 106 49 88 14 16 83 0
102 109 105 107 104 101 108 2 30 43 35 0
102 109 105 107 104 101 108 23 56 100 86 0
102 109 105 107 104 101 108 13 48 80 71 0
102 109 105 107 104 101 108 51 19 93 81 0
102 109 105 107 104 101 108 46 70 8 61 0
102 109 105 107 104 101 108 6 27 15 1 0
102 109 105 107 104 101 108 54 97 84 21 0
102 109 105 107 104 101 2 30 43 35 39 0
102 109 105 107 104 101 23 56 100 86 95 0
102 109 105 107 104 101 13 48 80 71 75 0
102 109 105 107 104 101 51 19 93 81 89 0
102 109 105 107 104 101 46 70 8 61 66 0
102 109 105 107 104 101 6 27 15 1 20 0
102 109 105 107 104 108 2 30 43 35 3 0
102 109 105 107 104 108 23 56 100 86 25 0
102 109 105 107 104 108 13 48 80 71 11 0
102 109 105 107 104 108 51 19 93 81 17 0
102 109 105 107 104 108 46 70 8 61 9 0
102 109 105 107 104 108 54 97 84 22 21 0
102 109 105 107 104 2 30 43 35 3 39 0
102 109 105 107 104 23 56 100 86 25 95 0
102 109 105 107 104 13 48 80 71 11 75 0
102 109 105 107 104 51 19 93 81 17 89 0
102 109 105 107 104 46 70 8 61 9 66 0
102 109 105 107 106 101 108 2 30 43 31 0
102 109 105 107 106 101 108 23 56 100 68 0
102 109 105 107 106 101 108 13 48 80 59 0
102 109 105 107 106 101 108 51 19 93 63 0
102 109 105 107 106 101 108 49 88 62 14 0
102 109 105 107 106 101 108 6 27 10 1 0
102 109 105 107 106 101 108 54 97 65 21 0
102 109 105 107 106 101 2 30 43 31 39 0
102 109 105 107 106 101 23 56 100 68 95 0
102 109 105 107 106 101 13 48 80 59 75 0
102 109 105 107 106 101 51 19 93 63 89 0
102 109 105 107 106 101 49 88 62 14 83 0
102 109 105 107 106 101 6 27 10 1 20 0
102 109 105 107 106 108 2 30 43 31 3 0
102 109 105 107 106 108 23 56 100 68 25 0
102 109 105 107 106 108 13 48 80 59 11 0
102 109 105 107 106 108 51 19 93 63 17 0
102 109 105 107 106 108 49 88 62 14 16 0
102 109 105 107 106 108 54 97 65 22 21 0
102 109 105 107 106 2 30 43 31 3 39 0
102 109 105 107 106 23 56 100 68 25 95 0
102 109 105 107 106 13 48 80 59 11 75 0
102 109 105 107 106 51 19 93 63 17 89 0
102 109 105 107 106 49 88 62 14 16 83 0
102 109 105 107 101 108 2 30 43 31 35 0
102 109 105 107 101 108 23 56 100 68 86 0
102 109 105 107 101 108 13 48 80 59 71 0
102 109 105 107 101 108 51 19 93 63 81 0
102 109 105 107 101 108 6 27 10 15 1 0
102 109 105 107 101 108 54 97 65 84 21 0
102 109 105 107 101 2 30 43 31 35 39 0
102 109 105 107 101 23 56 100 68 86 95 0
102 109 105 107 101 13 48 80 59 71 75 0
102 109 105 107 101 51 19 93 63 81 89 0
102 109 105 107 101 6 27 10 15 1 20 0
102 109 105 107 108 2 30 43 31 35 3 0
102 109 105 107 108 23 56 100 68 86 25 0
102 109 105 107 108 13 48 80 59 71 11 0
102 109 105 107 108 51 19 93 63 81 17 0
102 109 105 107 108 54 97 65 84 22 21 0
102 109 105 107 2 30 43 31 35 3 39 0
102 109 105 107 23 56 100 68 86 25 95 0
102 109 105 107 13 48 80 59 71 11 75 0
102 109 105 107 51 19 93 63 81 17 89 0
102 109 105 110 104 106 101 108 2 30 37 0
102 109 105 110 104 106 101 108 23 56 91 0
102 109 105 110 104 106 101 108 13 48 73 0
102 109 105 110 104 106 101 108 58 94 26 0
102 109 105 110 104 106 101 108 46 64 8 0
102 109 105 110 104 106 101 108 49 82 14 0
102 109 105 110 104 106 101 108 6 18 1 0
102 109 105 110 104 106 101 108 54 90 21 0
102 109 105 110 104 106 101 2 30 37 39 0
102 109 105 110 104 106 101 23 56 91 95 0
102 109 105 110 104 106 101 13 48 73 75 0
102 109 105 110 104 106 101 58 94 26 98 0
102 109 105 110 104 106 101 46 64 8 66 0
102 109 105 110 104 106 101 49 82 14 83 0
102 109 105 110 104 106 101 6 18 1 20 0
102 109 105 110 104 106 108 2 30 37 3 0
102 109 105 110 104 106 108 23 56 91 25 0
102 109 105 110 104 106 108 13 48 73 11 0
102 109 105 110 104 106 108 58 94 26 28 0
102 109 105 110 104 106 108 46 64 8 9 0
102 109 105 110 104 106 108 49 82 14 16 0
102 109 105 110 104 106 108 54 90 22 21 0
102 109 105 110 104 106 2 30 37 3 39 0
102 109 105 110 104 106 23 56 91 25 95 0
102 109 105 110 104 106 13 48 73 11 75 0
102 109 105 110 104 106 58 94 26 28 98 0
102 109 105 110 104 106 46 64 8 9 66 0
102 109 105 110 104 106 49 82 14 16 83 0
102 109 105 110 104 101 108 2 30 37 35 0
102 109 105 110 104 101 108 23 56 91 86 0
102 109 105 110 104 101 108 13 48 73 71 0
102 109 105 110 104 101 108 58 94 26 87 0
102 109 105 110 104 101 108 46 64 8 61 0
102 109 105 110 104 101 108 6 18 15 1 0
102 109 105 110 104 101 108 54 90 84 21 0
102 109 105 110 104 101 2 30 37 35 39 0
102 109 105 110 104 101 23 56 91 86 95 0
102 109 105 110 104 101 13 48 73 71 75 0
102 109 105 110 104 101 58 94 26 87 98 0
102 109 105 110 104 101 46 64 8 61 66 0
102 109 105 110 104 101 6 18 15 1 20 0
102 109 105 110 104 108 2 30 37 35 3 0
102 109 105 110 104 108 23 56 91 86 25 0
102 109 105 110 104 108 13 48 73 71 11 0
102 109 105 110 104 108 58 94 26 87 28 0
102 109 105 110 104 108 46 64 8 61 9 0
102 109 105 110 104 108 54 90 84 22 21 0
102 109 105 110 104 2 30 37 35 3 39 0
102 109 105 110 104 23 56 91 86 25 95 0
102 109 105 110 104 13 48 73 71 11 75 0
102 109 105 110 104 58 94 26 87 28 98 0
102 109 105 110 104 46 64 8 61 9 66 0
102 109 105 110 106 101 108 2 30 37 31 0
102 109 105 110 106 101 108 23 56 91 68 0
102 109 105 110 106 101 108 13 48 73 59 0
102 109 105 110 106 101 108 58 94 26 69 0
102 109 105 110 106 101 108 49 82 62 14 0
102 109 105 110 106 101 108 6 18 10 1 0
102 109 105 110 106 101 108 54 90 65 21 0
102 109 105 110 106 101 2 30 37 31 39 0
102 109 105 110 106 101 23 56 91 68 95 0
102 109 105 110 106 101 13 48 73 59 75 0
102 109 105 110 106 101 58 94 26 69 98 0
102 109 105 110 106 101 49 82 62 14 83 0
102 109 105 110 106 101 6 18 10 1 20 0
102 109 105 110 106 108 2 30 37 31 3 0
102 109 105 110 106 108 23 56 91 68 25 0
102 109 105 110 106 108 13 48 73 59 11 0
102 109 105 110 106 108 58 94 26 69 28 0
102 109 105 110 106 108 49 82 62 14 16 0
102 109 105 110 106 108 54 90 65 22 21 0
102 109 105 110 106 2 30 37 31 3 39 0
102 109 105 110 106 23 56 91 68 25 95 0
102 109 105 110 106 13 48 73 59 11 75 0
102 109 105 110 106 58 94 26 69 28 98 0
102 109 105 110 106 49 82 62 14 16 83 0
102 109 105 110 101 108 2 30 37 31 35 0
102 109 105 110 101 108 23 56 91 68 86 0
102 109 105 110 101 108 13 48 73 59 71 0
102 109 105 110 101 108 58 94 26 69 87 0
102 109 105 110 101 108 6 18 10 15 1 0
102 109 105 110 101 108 54 90 65 84 21 0
102 109 105 110 101 2 30 37 31 35 39 0
102 109 105 110 101 23 56 91 68 86 95 0
102 109 105 110 101 13 48 73 59 71 75 0
102 109 105 110 101 58 94 26 69 87 98 0
102 109 105 110 101 6 18 10 15 1 20 0
102 109 105 110 108 2 30 37 31 35 3 0
102 109 105 110 108 23 56 91 68 86 25 0
102 109 105 110 108 13 48 73 59 71 11 0
102 109 105 110 108 58 94 26 69 87 28 0
102 109 105 110 108 54 90 65 84 22 21 0
102 109 105 110 2 30 37 31 35 3 39 0
102 109 105 110 23 56 91 68 86 25 95 0
102 109 105 110 13 48 73 59 71 11 75 0
102 109 105 110 58 94 26 69 87 28 98 0
102 109 105 104 106 101 108 2 30 37 43 0
102 109 105 104 106 101 108 23 56 91 100 0
102 109 105 104 106 101 108 13 48 73 80 0
102 109 105 104 106 101 108 46 64 70 8 0
102 109 105 104 106 101 108 49 82 88 14 0
102 109 105 104 106 101 108 6 18 27 1 0
102 109 105 104 106 101 108 54 90 97 21 0
102 109 105 104 106 101 2 30 37 43 39 0
102 109 105 104 106 101 23 56 91 100 95 0
102 109 105 104 106 101 13 48 73 80 75 0
102 109 105 104 106 101 46 64 70 8 66 0
102 109 105 104 106 101 49 82 88 14 83 0
102 109 105 104 106 101 6 18 27 1 20 0
102 109 105 104 106 108 2 30 37 43 3 0
102 109 105 104 106 108 23 56 91 100 25 0
102 109 105 104 106 108 13 48 73 80 11 0
102 109 105 104 106 108 46 64 70 8 9 0
102 109 105 104 106 108 49 82 88 14 16 0
102 109 105 104 106 108 54 90 97 22 21 0
102 109 105 104 106 2 30 37 43 3 39 0
102 109 105 104 106 23 56 91 100 25 95 0
102 109 105 104 106 13 48 73 80 11 75 0
102 109 105 104 106 46 64 70 8 9 66 0
102 109 105 104 106 49 82 88 14 16 83 0
102 109 105 104 101 108 2 30 37 43 35 0
102 109 105 104 101 108 23 56 91 100 86 0
102 109 105 104 101 108 13 48 73 80 71 0
102 109 105 104 101 108 46 64 70 8 61 0
102 109 105 104 101 108 6 18 27 15 1 0
102 109 105 104 101 108 54 90 97 84 21 0
102 109 105 104 101 2 30 37 43 35 39 0
102 109 105 104 101 23 56 91 100 86 95 0
102 109 105 104 101 13 48 73 80 71 75 0
102 109 105 104 101 46 64 70 8 61 66 0
102 109 105 104 101 6 18 27 15 1 20 0
102 109 105 104 108 2 30 37 43 35 3 0
102 109 105 104 108 23 56 91 100 86 25 0
102 109 105 104 108 13 48 73 80 71 11 0
102 109 105 104 108 46 64 70 8 61 9 0
102 109 105 104 108 54 90 97 84 22 21 0
102 109 105 104 2 30 37 43 35 3 39 0
102 109 105 104 23 56 91 100 86 25 95 0
102 109 105 104 13 48 73 80 71 11 75 0
102 109 105 104 46 64 70 8 61 9 66 0
102 109 105 106 101 108 2 30 37 43 31 0
102 109 105 106 101 108 23 56 91 100 68 0
102 109 105 106 101 108 13 48 73 80 59 0
102 109 105 106 101 108 49 82 88 62 14 0
102 109 105 106 101 108 6 18 27 10 1 0
102 109 105 106 101 108 54 90 97 65 21 0
102 109 105 106 101 2 30 37 43 31 39 0
102 109 105 106 101 23 56 91 100 68 95 0
102 109 105 106 101 13 48 73 80 59 75 0
102 109 105 106 101 49 82 88 62 14 83 0
102 109 105 106 101 6 18 27 10 1 20 0
102 109 105 106 108 2 30 37 43 31 3 0
102 109 105 106 108 23 56 91 100 68 25 0
102 109 105 106 108 13 48 73 80 59 11 0
102 109 105 106 108 49 82 88 62 14 16 0
102 109 105 106 108 54 90 97 65 22 21 0
102 109 105 106 2 30 37 43 31 3 39 0
102 109 105 106 23 56 91 100 68 25 95 0
102 109 105 106 13 48 73 80 59 11 75 0
102 109 105 106 49 82 88 62 14 16 83 0
102 109 105 101 108 2 30 37 43 31 35 0
102 109 105 101 108 23 56 91 100 68 86 0
102 109 105 101 108 13 48 73 80 59 71 0
102 109 105 101 108 6 18 27 10 15 1 0
102 109 105 101 108 54 90 97 65 84 21 0
102 109 105 101 2 30 37 43 31 35 39 0
102 109 105 101 23 56 91 100 68 86 95 0
102 109 105 101 13 48 73 80 59 71 75 0
102 109 105 101 6 18 27 10 15 1 20 0
102 109 105 108 2 30 37 43 31 35 3 0
102 109 105 108 23 56 91 100 68 86 25 0
102 109 105 108 13 48 73 80 59 71 11 0
102 109 105 108 54 90 97 65 84 22 21 0
102 109 105 2 30 37 43 31 35 3 39 0
102 109 105 23 56 91 100 68 86 25 95 0
102 109 105 13 48 73 80 59 71 11 75 0
102 109 103 107 110 104 106 101 108 2 34 0
102 109 103 107 110 104 106 101 108 23 77 0
102 109 103 107 110 104 106 101 108 47 5 0
102 109 103 107 110 104 106 101 108 74 19 0
102 109 103 107 110 104 106 101 108 79 26 0
102 109 103 107 110 104 106 101 108 60 8 0
102 109 103 107 110 104 106 101 108 72 14 0
102 109 103 107 110 104 106 101 108 12 1 0
102 109 103 107 110 104 106 101 108 76 21 0
102 109 103 107 110 104 106 101 2 34 39 0
102 109 103 107 110 104 106 101 23 77 95 0
102 109 103 107 110 104 106 101 47 5 53 0
102 109 103 107 110 104 106 101 74 19 89 0
102 109 103 107 110 104 106 101 79 26 98 0
102 109 103 107 110 104 106 101 60 8 66 0
102 109 103 107 110 104 106 101 72 14 83 0
102 109 103 107 110 104 106 101 12 1 20 0
102 109 103 107 110 104 106 108 2 34 3 0
102 109 103 107 110 104 106 108 23 77 25 0
102 109 103 107 110 104 106 108 47 5 7 0
102 109 103 107 110 104 106 108 74 19 17 0
102 109 103 107 110 104 106 108 79 26 28 0
102 109 103 107 110 104 106 108 60 8 9 0
102 109 103 107 110 104 106 108 72 14 16 0
102 109 103 107 110 104 106 108 76 22 21 0
102 109 103 107 110 104 106 2 34 3 39 0
102 109 103 107 110 104 106 23 77 25 95 0
102 109 103 107 110 104 106 47 5 7 53 0
102 109 103 107 110 104 106 74 19 17 89 0
102 109 103 107 110 104 106 79 26 28 98 0
102 109 103 107 110 104 106 60 8 9 66 0
102 109 103 107 110 104 106 72 14 16 83 0
102 109 103 107 110 104 101 108 2 34 35 0
102 109 103 107 110 104 101 108 23 77 86 0
102 109 103 107 110 104 101 108 47 5 50 0
102 109 103 107 110 104 101 108 74 19 81 0
102 109 103 107 110 104 101 108 79 26 87 0
102 109 103 107 110 104 101 108 60 8 61 0
102 109 103 107 110 104 101 108 12 15 1 0
102 109 103 107 110 104 101 108 76 84 21 0
102 109 103 107 110 104 101 2 34 35 39 0
102 109 103 107 110 104 101 23 77 86 95 0
102 109 103 107 110 104 101 47 5 50 53 0
102 109 103 107 110 104 101 74 19 81 89 0
102 109 103 107 110 104 101 79 26 87 98 0
102 109 103 107 110 104 101 60 8 61 66 0
102 109 103 107 110 104 101 12 15 1 20 0
102 109 103 107 110 104 108 2 34 35 3 0
102 109 103 107 110 104 108 23 77 86 25 0
102 109 103 107 110 104 108 47 5 50 7 0
102 109 103 107 110 104 108 74 19 81 17 0
102 109 103 107 110 104 108 79 26 87 28 0
102 109 103 107 110 104 108 60 8 61 9 0
102 109 103 107 110 104 108 76 84 22 21 0
102 109 103 107 110 104 2 34 35 3 39 0
102 109 103 107 110 104 23 77 86 25 95 0
102 109 103 107 110 104 47 5 50 7 53 0
102 109 103 107 110 104 74 19 81 17 89 0
102 109 103 107 110 104 79 26 87 28 98 0
102 109 103 107 110 104 60 8 61 9 66 0
102 109 103 107 110 106 101 108 2 34 31 0
102 109 103 107 110 106 101 108 23 77 68 0
102 109 103 107 110 106 101 108 47 5 45 0
102 109 103 107 110 106 101 108 74 19 63 0
102 109 103 107 110 106 101 108 79 26 69 0
102 109 103 107 110 106 101 108 72 62 14 0
102 109 103 107 110 106 101 108 12 10 1 0
102 109 103 107 110 106 101 108 76 65 21 0
102 109 103 107 110 106 101 2 34 31 39 0
102 109 103 107 110 106 101 23 77 68 95 0
102 109 103 107 110 106 101 47 5 45 53 0
102 109 103 107 110 106 101 74 19 63 89 0
102 109 103 107 110 106 101 79 26 69 98 0
102 109 103 107 110 106 101 72 62 14 83 0
102 109 103 107 110 106 101 12 10 1 20 0
102 109 103 107 110 106 108 2 34 31 3 0
102 109 103 107 110 106 108 23 77 68 25 0
102 109 103 107 110 106 108 47 5 45 7 0
102 109 103 107 110 106 108 74 19 63 17 0
102 109 103 107 110 106 108 79 26 69 28 0
102 109 103 107 110 106 108 72 62 14 16 0
102 109 103 107 110 106 108 76 65 22 21 0
102 109 103 107 110 106 2 34 31 3 39 0
102 109 103 107 110 106 23 77 68 25 95 0
102 109 103 107 110 106 47 5 45 7 53 0
102 109 103 107 110 106 74 19 63 17 89 0
102 109 103 107 110 106 79 26 69 28 98 0
102 109 103 107 110 106 72 62 14 16 83 0
102 109 103 107 110 101 108 2 34 31 35 0
102 109 103 107 110 101 108 23 77 68 86 0
102 109 103 107 110 101 108 47 5 45 50 0
102 109 103 107 110 101 108 74 19 63 81 0
102 109 103 107 110 101 108 79 26 69 87 0
102 109 103 107 110 101 108 12 10 15 1 0
102 109 103 107 110 101 108 76 65 84 21 0
102 109 103 107 110 101 2 34 31 35 39 0
102 109 103 107 110 101 23 77 68 86 95 0
102 109 103 107 110 101 47 5 45 50 53 0
102 109 103 107 110 101 74 19 63 81 89 0
102 109 103 107 110 101 79 26 69 87 98 0
102 109 103 107 110 101 12 10 15 1 20 0
102 109 103 107 110 108 2 34 31 35 3 0
102 109 103 107 110 108 23 77 68 86 25 0
102 109 103 107 110 108 47 5 45 50 7 0
102 109 103 107 110 108 74 19 63 81 17 0
102 109 103 107 110 108 79 26 69 87 28 0
102 109 103 107 110 108 76 65 84 22 21 0
102 109 103 107 110 2 34 31 35 3 39 0
102 109 103 107 110 23 77 68 86 25 95 0
102 109 103 107 110 47 5 45 50 7 53 0
102 109 103 107 110 74 19 63 81 17 89 0
102 109 103 107 110 79 26 69 87 28 98 0
102 109 103 107 104 106 101 108 2 34 43 0
102 109 103 107 104 106 101 108 23 77 100 0
102 109 103 107 104 106 101 108 47 5 57 0
102 109 103 107 104 106 101 108 74 19 93 0
102 109 103 107 104 106 101 108 60 70 8 0
102 109 103 107 104 106 101 108 72 88 14 0
102 109 103 107 104 106 101 108 12 27 1 0
102 109 103 107 104 106 101 108 76 97 21 0
102 109 103 107 104 106 101 2 34 43 39 0
102 109 103 107 104 106 101 23 77 100 95 0
102 109 103 107 104 106 101 47 5 57 53 0
102 109 103 107 104 106 101 74 19 93 89 0
102 109 103 107 104 106 101 60 70 8 66 0
102 109 103 107 104 106 101 72 88 14 83 0
102 109 103 107 104 106 101 12 27 1 20 0
102 109 103 107 104 106 108 2 34 43 3 0
102 109 103 107 104 106 108 23 77 100 25 0
102 109 103 107 104 106 108 47 5 57 7 0
102 109 103 107 104 106 108 74 19 93 17 0
102 109 103 107 104 106 108 60 70 8 9 0
102 109 103 107 104 106 108 72 88 14 16 0
102 109 103 107 104 106 108 76 97 22 21 0
102 109 103 107 104 106 2 34 43 3 39 0
102 109 103 107 104 106 23 77 100 25 95 0
102 109 103 107 104 106 47 5 57 7 53 0
102 109 103 107 104 106 74 19 93 17 89 0
102 109 103 107 104 106 60 70 8 9 66 0
102 109 103 107 104 106 72 88 14 16 83 0
102 109 103 107 104 101 108 2 34 43 35 0
102 109 103 107 104 101 108 23 77 100 86 0
102 109 103 107 104 101 108 47 5 57 50 0
102 109 103 107 104 101 108 74 19 93 81 0
102 109 103 107 104 101 108 60 70 8 61 0
102 109 103 107 104 101 108 12 27 15 1 0
102 109 103 107 104 101 108 76 97 84 21 0
102 109 103 107 104 101 2 34 43 35 39 0
102 109 103 107 104 101 23 77 100 86 95 0
102 109 103 107 104 101 47 5 57 50 53 0
102 109 103 107 104 101 74 19 93 81 89 0
102 109 103 107 104 101 60 70 8 61 66 0
102 109 103 107 104 101 12 27 15 1 20 0
102 109 103 107 104 108 2 34 43 35 3 0
102 109 103 107 104 108 23 77 100 86 25 0
102 109 103 107 104 108 47 5 57 50 7 0
102 109 103 107 104 108 74 19 93 81 17 0
102 109 103 107 104 108 60 70 8 61 9 0
102 109 103 107 104 108 76 97 84 22 21 0
102 109 103 107 104 2 34 43 35 3 39 0
102 109 103 107 104 23 77 100 86 25 95 0
102 109 103 107 104 47 5 57 50 7 53 0
102 109 103 107 104 74 19 93 81 17 89 0
102 109 103 107 104 60 70 8 61 9 66 0
102 109 103 107 106 101 108 2 34 43 31 0
102 109 103 107 106 101 108 23 77 100 68 0
102 109 103 107 106 101 108 47 5 57 45 0
102 109 103 107 106 101 108 74 19 93 63 0
102 109 103 107 106 101 108 72 88 62 14 0
102 109 103 107 106 101 108 12 27 10 1 0
102 109 103 107 106 101 108 76 97 65 21 0
102 109 103 107 106 101 2 34 43 31 39 0
102 109 103 107 106 101 23 77 100 68 95 0
102 109 103 107 106 101 47 5 57 45 53 0
102 109 103 107 106 101 74 19 93 63 89 0
102 109 103 107 106 101 72 88 62 14 83 0
102 109 103 107 106 101 12 27 10 1 20 0
102 109 103 107 106 108 2 34 43 31 3 0
102 109 103 107 106 108 23 77 100 68 25 0
102 109 103 107 106 108 47 5 57 45 7 0
102 109 103 107 106 108 74 19 93 63 17 0
102 109 103 107 106 108 72 88 62 14 16 0
102 109 103 107 106 108 76 97 65 22 21 0
102 109 103 107 106 2 34 43 31 3 39 0
102 109 103 107 106 23 77 100 68 25 95 0
102 109 103 107 106 47 5 57 45 7 53 0
102 109 103 107 106 74 19 93 63 17 89 0
102 109 103 107 106 72 88 62 14 16 83 0
102 109 103 107 101 108 2 34 43 31 35 0
102 109 103 107 101 108 23 77 100 68 86 0
102 109 103 107 101 108 47 5 57 45 50 0
102 109 103 107 101 108 74 19 93 63 81 0
102 109 103 107 101 108 12 27 10 15 1 0
102 109 103 107 101 108 76 97 65 84 21 0
102 109 103 107 101 2 34 43 31 35 39 0
102 109 103 107 101 23 77 100 68 86 95 0
102 109 103 107 101 47 5 57 45 50 53 0
102 109 103 107 101 74 19 93 63 81 89 0
102 109 103 107 101 12 27 10 15 1 20 0
102 109 103 107 108 2 34 43 31 35 3 0
102 109 103 107 108 23 77 100 68 86 25 0
102 109 103 107 108 47 5 57 45 50 7 0
102 109 103 107 108 74 19 93 63 81 17 0
102 109 103 107 108 76 97 65 84 22 21 0
102 109 103 107 2 34 43 31 35 3 39 0
102 109 103 107 23 77 100 68 86 25 95 0
102 109 103 107 47 5 57 45 50 7 53 0
102 109 103 107 74 19 93 63 81 17 89 0
102 109 103 110 104 106 101 108 2 34 37 0
102 109 103 110 104 106 101 108 23 77 91 0
102 109 103 110 104 106 101 108 47 5 52 0
102 109 103 110 104 106 101 108 79 94 26 0
102 109 103 110 104 106 101 108 60 64 8 0
102 109 103 110 104 106 101 108 72 82 14 0
102 109 103 110 104 106 101 108 12 18 1 0
102 109 103 110 104 106 101 108 76 90 21 0
102 109 103 110 104 106 101 2 34 37 39 0
102 109 103 110 104 106 101 23 77 91 95 0
102 109 103 110 104 106 101 47 5 52 53 0
102 109 103 110 104 106 101 79 94 26 98 0
102 109 103 110 104 106 101 60 64 8 66 0
102 109 103 110 104 106 101 72 82 14 83 0
102 109 103 110 104 106 101 12 18 1 20 0
102 109 103 110 104 106 108 2 34 37 3 0
102 109 103 110 104 106 108 23 77 91 25 0
102 109 103 110 104 106 108 47 5 52 7 0
102 109 103 110 104 106 108 79 94 26 28 0
102 109 103 110 104 106 108 60 64 8 9 0
102 109 103 110 104 106 108 72 82 14 16 0
102 109 103 110 104 106 108 76 90 22 21 0
102 109 103 110 104 106 2 34 37 3 39 0
102 109 103 110 104 106 23 77 91 25 95 0
102 109 103 110 104 106 47 5 52 7 53 0
102 109 103 110 104 106 79 94 26 28 98 0
102 109 103 110 104 106 60 64 8 9 66 0
102 109 103 110 104 106 72 82 14 16 83 0
102 109 103 110 104 101 108 2 34 37 35 0
102 109 103 110 104 101 108 23 77 91 86 0
102 109 103 110 104 101 108 47 5 52 50 0
102 109 103 110 104 101 108 79 94 26 87 0
102 109 103 110 104 101 108 60 64 8 61 0
102 109 103 110 104 101 108 12 18 15 1 0
102 109 103 110 104 101 108 76 90 84 21 0
102 109 103 110 104 101 2 34 37 35 39 0
102 109 103 110 104 101 23 77 91 86 95 0
102 109 103 110 104 101 47 5 52 50 53 0
102 109 103 110 104 101 79 94 26 87 98 0
102 109 103 110 104 101 60 64 8 61 66 0
102 109 103 110 104 101 12 18 15 1 20 0
102 109 103 110 104 108 2 34 37 35 3 0
102 109 103 110 104 108 23 77 91 86 25 0
102 109 103 110 104 108 47 5 52 50 7 0
102 109 103 110 104 108 79 94 26 87 28 0
102 109 103 110 104 108 60 64 8 61 9 0
102 109 103 110 104 108 76 90 84 22 21 0
102 109 103 110 104 2 34 37 35 3 39 0
102 109 103 110 104 23 77 91 86 25 95 0
102 109 103 110 104 47 5 52 50 7 53 0
102 109 103 110 104 79 94 26 87 28 98 0
102 109 103 110 104 60 64 8 61 9 66 0
102 109 103 110 106 101 108 2 34 37 31 0
102 109 103 110 106 101 108 23 77 91 68 0
102 109 103 110 106 101 108 47 5 52 45 0
102 109 103 110 106 101 108 79 94 26 69 0
102 109 103 110 106 101 108 72 82 62 14 0
102 109 103 110 106 101 108 12 18 10 1 0
102 109 103 110 106 101 108 76 90 65 21 0
102 109 103 110 106 101 2 34 37 31 39 0
102 109 103 110 106 101 23 77 91 68 95 0
102 109 103 110 106 101 47 5 52 45 53 0
102 109 103 110 106 101 79 94 26 69 98 0
102 109 103 110 106 101 72 82 62 14 83 0
102 109 103 110 106 101 12 18 10 1 20 0
102 109 103 110 106 108 2 34 37 31 3 0
102 109 103 110 106 108 23 77 91 68 25 0
102 109 103 110 106 108 47 5 52 45 7 0
102 109 103 110 106 108 79 94 26 69 28 0
102 109 103 110 106 108 72 82 62 14 16 0
102 109 103 110 106 108 76 90 65 22 21 0
102 109 103 110 106 2 34 37 31 3 39 0
102 109 103 110 106 23 77 91 68 25 95 0
102 109 103 110 106 47 5 52 45 7 53 0
102 109 103 110 106 79 94 26 69 28 98 0
102 109 103 110 106 72 82 62 14 16 83 0
102 109 103 110 101 108 2 34 37 31 35 0
102 109 103 110 101 108 23 77 91 68 86 0
102 109 103 110 101 108 47 5 52 45 50 0
102 109 103 110 101 108 79 94 26 69 87 0
102 109 103 110 101 108 12 18 10 15 1 0
102 109 103 110 101 108 76 90 65 84 21 0
102 109 103 110 101 2 34 37 31 35 39 0
102 109 103 110 101 23 77 91 68 86 95 0
102 109 103 110 101 47 5 52 45 50 53 0
102 109 103 110 101 79 94 26 69 87 98 0
102 109 103 110 101 12 18 10 15 1 20 0
102 109 103 110 108 2 34 37 31 35 3 0
102 109 103 110 108 23 77 91 68 86 25 0
102 109 103 110 108 47 5 52 45 50 7 0
102 109 103 110 108 79 94 26 69 87 28 0
102 109 103 110 108 76 90 65 84 22 21 0
102 109 103 110 2 34 37 31 35 3 39 0
102 109 103 110 23 77 91 68 86 25 95 0
102 109 103 110 47 5 52 45 50 7 53 0
102 109 103 110 79 94 26 69 87 28 98 0
102 109 103 104 106 101 108 2 34 37 43 0
102 109 103 104 106 101 108 23 77 91 100 0
102 109 103 104 106 101 108 47 5 52 57 0
102 109 103 104 106 101 108 60 64 70 8 0
102 109 103 104 106 101 108 72 82 88 14 0
102 109 103 104 106 101 108 12 18 27 1 0
102 109 103 104 106 101 108 76 90 97 21 0
102 109 103 104 106 101 2 34 37 43 39 0
102 109 103 104 106 101 23 77 91 100 95 0
102 109 103 104 106 101 47 5 52 57 53 0
102 109 103 104 106 101 60 64 70 8 66 0
102 109 103 104 106 101 72 82 88 14 83 0
102 109 103 104 106 101 12 18 27 1 20 0
102 109 103 104 106 108 2 34 37 43 3 0
102 109 103 104 106 108 23 77 91 100 25 0
102 109 103 104 106 108 47 5 52 57 7 0
102 109 103 104 106 108 60 64 70 8 9 0
102 109 103 104 106 108 72 82 88 14 16 0
102 109 103 104 106 108 76 90 97 22 21 0
102 109 103 104 106 2 34 37 43 3 39 0
102 109 103 104 106 23 77 91 100 25 95 0
102 109 103 104 106 47 5 52 57 7 53 0
102 109 103 104 106 60 64 70 8 9 66 0
102 109 103 104 106 72 82 88 14 16 83 0
102 109 103 104 101 108 2 34 37 43 35 0
102 109 103 104 101 108 23 77 91 100 86 0
102 109 103 104 101 108 47 5 52 57 50 0
102 109 103 104 101 108 60 64 70 8 61 0
102 109 103 104 101 108 12 18 27 15 1 0
102 109 103 104 101 108 76 90 97 84 21 0
102 109 103 104 101 2 34 37 43 35 39 0
102 109 103 104 101 23 77 91 100 86 95 0
102 109 103 104 101 47 5 52 57 50 53 0
102 109 103 104 101 60 64 70 8 61 66 0
102 109 103 104 101 12 18 27 15 1 20 0
102 109 103 104 108 2 34 37 43 35 3 0
102 109 103 104 108 23 77 91 100 86 25 0
102 109 103 104 108 47 5 52 57 50 7 0
102 109 103 104 108 60 64 70 8 61 9 0
102 109 103 104 108 76 90 97 84 22 21 0
102 109 103 104 2 34 37 43 35 3 39 0
102 109 103 104 23 77 91 100 86 25 95 0
102 109 103 104 47 5 52 57 50 7 53 0
102 109 103 104 60 64 70 8 61 9 66 0
102 109 103 106 101 108 2 34 37 43 31 0
102 109 103 106 101 108 23 77 91 100 68 0
102 109 103 106 101 108 47 5 52 57 45 0
102 109 103 106 101 108 72 82 88 62 14 0
102 109 103 106 101 108 12 18 27 10 1 0
102 109 103 106 101 108 76 90 97 65 21 0
102 109 103 106 101 2 34 37 43 31 39 0
102 109 103 106 101 23 77 91 100 68 95 0
102 109 103 106 101 47 5 52 57 45 53 0
102 109 103 106 101 72 82 88 62 14 83 0
102 109 103 106 101 12 18 27 10 1 20 0
102 109 103 106 108 2 34 37 43 31 3 0
102 109 103 106 108 23 77 91 100 68 25 0
102 109 103 106 108 47 5 52 57 45 7 0
102 109 103 106 108 72 82 88 62 14 16 0
102 109 103 106 108 76 90 97 65 22 21 0
102 109 103 106 2 34 37 43 31 3 39 0
102 109 103 106 23 77 91 100 68 25 95 0
102 109 103 106 47 5 52 57 45 7 53 0
102 109 103 106 72 82 88 62 14 16 83 0
102 109 103 101 108 2 34 37 43 31 35 0
102 109 103 101 108 23 77 91 100 68 86 0
102 109 103 101 108 47 5 52 57 45 50 0
102 109 103 101 108 12 18 27 10 15 1 0
102 109 103 101 108 76 90 97 65 84 21 0
102 109 103 101 2 34 37 43 31 35 39 0
102 109 103 101 23 77 91 100 68 86 95 0
102 109 103 101 47 5 52 57 45 50 53 0
102 109 103 101 12 18 27 10 15 1 20 0
102 109 103 108 2 34 37 43 31 35 3 0
102 109 103 108 23 77 91 100 68 86 25 0
102 109 103 108 47 5 52 57 45 50 7 0
102 109 103 108 76 90 97 65 84 22 21 0
102 109 103 2 34 37 43 31 35 3 39 0
102 109 103 23 77 91 100 68 86 25 95 0
102 109 103 47 5 52 57 45 50 7 53 0
102 109 107 110 104 106 101 108 2 34 30 0
102 109 107 110 104 106 101 108 23 77 56 0
102 109 107 110 104 106 101 108 74 51 19 0
102 109 107 110 104 106 101 108 79 58 26 0
102 109 107 110 104 106 101 108 60 46 8 0
102 109 107 110 104 106 101 108 72 49 14 0
102 109 107 110 104 106 101 108 12 6 1 0
102 109 107 110 104 106 101 108 76 54 21 0
102 109 107 110 104 106 101 2 34 30 39 0
102 109 107 110 104 106 101 23 77 56 95 0
102 109 107 110 104 106 101 74 51 19 89 0
102 109 107 110 104 106 101 79 58 26 98 0
102 109 107 110 104 106 101 60 46 8 66 0
102 109 107 110 104 106 101 72 49 14 83 0
102 109 107 110 104 106 101 12 6 1 20 0
102 109 107 110 104 106 108 2 34 30 3 0
102 109 107 110 104 106 108 23 77 56 25 0
102 109 107 110 104 106 108 74 51 19 17 0
102 109 107 110 104 106 108 79 58 26 28 0
102 109 107 110 104 106 108 60 46 8 9 0
102 109 107 110 104 106 108 72 49 14 16 0
102 109 107 110 104 106 108 76 54 22 21 0
102 109 107 110 104 106 2 34 30 3 39 0
102 109 107 110 104 106 23 77 56 25 95 0
102 109 107 110 104 106 74 51 19 17 89 0
102 109 107 110 104 106 79 58 26 28 98 0
102 109 107 110 104 106 60 46 8 9 66 0
102 109 107 110 104 106 72 49 14 16 83 0
102 109 107 110 104 101 108 2 34 30 35 0
102 109 107 110 104 101 108 23 77 56 86 0
102 109 107 110 104 101 108 74 51 19 81 0
102 109 107 110 104 101 108 79 58 26 87 0
102 109 107 110 104 101 108 60 46 8 61 0
102 109 107 110 104 101 108 12 6 15 1 0
102 109 107 110 104 101 108 76 54 84 21 0
102 109 107 110 104 101 2 34 30 35 39 0
102 109 107 110 104 101 23 77 56 86 95 0
102 109 107 110 104 101 74 51 19 81 89 0
102 109 107 110 104 101 79 58 26 87 98 0
102 109 107 110 104 101 60 46 8 61 66 0
102 109 107 110 104 101 12 6 15 1 20 0
102 109 107 110 104 108 2 34 30 35 3 0
102 109 107 110 104 108 23 77 56 86 25 0
102 109 107 110 104 108 74 51 19 81 17 0
102 109 107 110 104 108 79 58 26 87 28 0
102 109 107 110 104 108 60 46 8 61 9 0
102 109 107 110 104 108 76 54 84 22 21 0
102 109 107 110 104 2 34 30 35 3 39 0
102 109 107 110 104 23 77 56 86 25 95 0
102 109 107 110 104 74 51 19 81 17 89 0
102 109 107 110 104 79 58 26 87 28 98 0
102 109 107 110 104 60 46 8 61 9 66 0
102 109 107 110 106 101 108 2 34 30 31 0
102 109 107 110 106 101 108 23 77 56 68 0
102 109 107 110 106 101 108 74 51 19 63 0
102 109 107 110 106 101 108 79 58 26 69 0
102 109 107 110 106 101 108 72 49 62 14 0
102 109 107 110 106 101 108 12 6 10 1 0
102 109 107 110 106 101 108 76 54 65 21 0
102 109 107 110 106 101 2 34 30 31 39 0
102 109 107 110 106 101 23 77 56 68 95 0
102 109 107 110 106 101 74 51 19 63 89 0
102 109 107 110 106 101 79 58 26 69 98 0
102 109 107 110 106 101 72 49 62 14 83 0
102 109 107 110 106 101 12 6 10 1 20 0
102 109 107 110 106 108 2 34 30 31 3 0
102 109 107 110 106 108 23 77 56 68 25 0
102 109 107 110 106 108 74 51 19 63 17 0
102 109 107 110 106 108 79 58 26 69 28 0
102 109 107 110 106 108 72 49 62 14 16 0
102 109 107 110 106 108 76 54 65 22 21 0
102 109 107 110 106 2 34 30 31 3 39 0
102 109 107 110 106 23 77 56 68 25 95 0
102 109 107 110 106 74 51 19 63 17 89 0
102 109 107 110 106 79 58 26 69 28 98 0
102 109 107 110 106 72 49 62 14 16 83 0
102 109 107 110 101 108 2 34 30 31 35 0
102 109 107 110 101 108 23 77 56 68 86 0
102 109 107 110 101 108 74 51 19 63 81 0
102 109 107 110 101 108 79 58 26 69 87 0
102 109 107 110 101 108 12 6 10 15 1 0
102 109 107 110 101 108 76 54 65 84 21 0
102 109 107 110 101 2 34 30 31 35 39 0
102 109 107 110 101 23 77 56 68 86 95 0
102 109 107 110 101 74 51 19 63 81 89 0
102 109 107 110 101 79 58 26 69 87 98 0
102 109 107 110 101 12 6 10 15 1 20 0
102 109 107 110 108 2 34 30 31 35 3 0
102 109 107 110 108 23 77 56 68 86 25 0
102 109 107 110 108 74 51 19 63 81 17 0
102 109 107 110 108 79 58 26 69 87 28 0
102 109 107 110 108 76 54 65 84 22 21 0
102 109 107 110 2 34 30 31 35 3 39 0
102 109 107 110 23 77 56 68 86 25 95 0
102 109 107 110 74 51 19 63 81 17 89 0
102 109 107 110 79 58 26 69 87 28 98 0
102 109 107 104 106 101 108 2 34 30 43 0
102 109 107 104 106 101 108 23 77 56 100 0
102 109 107 104 106 101 108 74 51 19 93 0
102 109 107 104 106 101 108 60 46 70 8 0
102 109 107 104 106 101 108 72 49 88 14 0
102 109 107 104 106 101 108 12 6 27 1 0
102 109 107 104 106 101 108 76 54 97 21 0
102 109 107 104 106 101 2 34 30 43 39 0
102 109 107 104 106 101 23 77 56 100 95 0
102 109 107 104 106 101 74 51 19 93 89 0
102 109 107 104 106 101 60 46 70 8 66 0
102 109 107 104 106 101 72 49 88 14 83 0
102 109 107 104 106 101 12 6 27 1 20 0
102 109 107 104 106 108 2 34 30 43 3 0
102 109 107 104 106 108 23 77 56 100 25 0
102 109 107 104 106 108 74 51 19 93 17 0
102 109 107 104 106 108 60 46 70 8 9 0
102 109 107 104 106 108 72 49 88 14 16 0
102 109 107 104 106 108 76 54 97 22 21 0
102 109 107 104 106 2 34 30 43 3 39 0
102 109 107 104 106 23 77 56 100 25 95 0
102 109 107 104 106 74 51 19 93 17 89 0
102 109 107 104 106 60 46 70 8 9 66 0
102 109 107 104 106 72 49 88 14 16 83 0
102 109 107 104 101 108 2 34 30 43 35 0
102 109 107 104 101 108 23 77 56 100 86 0
102 109 107 104 101 108 74 51 19 93 81 0
102 109 107 104 101 108 60 46 70 8 61 0
102 109 107 104 101 108 12 6 27 15 1 0
102 109 107 104 101 108 76 54 97 84 21 0
102 109 107 104 101 2 34 30 43 35 39 0
102 109 107 104 101 23 77 56 100 86 95 0
102 109 107 104 101 74 51 19 93 81 89 0
102 109 107 104 101 60 46 70 8 61 66 0
102 109 107 104 101 12 6 27 15 1 20 0
102 109 107 104 108 2 34 30 43 35 3 0
102 109 107 104 108 23 77 56 100 86 25 0
102 109 107 104 108 74 51 19 93 81 17 0
102 109 107 104 108 60 46 70 8 61 9 0
102 109 107 104 108 76 54 97 84 22 21 0
102 109 107 104 2 34 30 43 35 3 39 0
102 109 107 104 23 77 56 100 86 25 95 0
102 109 107 104 74 51 19 93 81 17 89 0
102 109 107 104 60 46 70 8 61 9 66 0
102 109 107 106 101 108 2 34 30 43 31 0
102 109 107 106 101 108 23 77 56 100 68 0
102 109 107 106 101 108 74 51 19 93 63 0
102 109 107 106 101 108 72 49 88 62 14 0
102 109 107 106 101 108 12 6 27 10 1 0
102 109 107 106 101 108 76 54 97 65 21 0
102 109 107 106 101 2 34 30 43 31 39 0
102 109 107 106 101 23 77 56 100 68 95 0
102 109 107 106 101 74 51 19 93 63 89 0
102 109 107 106 101 72 49 88 62 14 83 0
102 109 107 106 101 12 6 27 10 1 20 0
102 109 107 106 108 2 34 30 43 31 3 0
102 109 107 106 108 23 77 56 100 68 25 0
102 109 107 106 108 74 51 19 93 63 17 0
102 109 107 106 108 72 49 88 62 14 16 0
102 109 107 106 108 76 54 97 65 22 21 0
102 109 107 106 2 34 30 43 31 3 39 0
102 109 107 106 23 77 56 100 68 25 95 0
102 109 107 106 74 51 19 93 63 17 89 0
102 109 107 106 72 49 88 62 14 16 83 0
102 109 107 101 108 2 34 30 43 31 35 0
102 109 107 101 108 23 77 56 100 68 86 0
102 109 107 101 108 74 51 19 93 63 81 0
102 109 107 101 108 12 6 27 10 15 1 0
102 109 107 101 108 76 54 97 65 84 21 0
102 109 107 101 2 34 30 43 31 35 39 0
102 109 107 101 23 77 56 100 68 86 95 0
102 109 107 101 74 51 19 93 63 81 89 0
102 109 107 101 12 6 27 10 15 1 20 0
102 109 107 108 2 34 30 43 31 35 3 0
102 109 107 108 23 77 56 100 68 86 25 0
102 109 107 108 74 51 19 93 63 81 17 0
102 109 107 108 76 54 97 65 84 22 21 0
102 109 107 2 34 30 43 31 35 3 39 0
102 109 107 23 77 56 100 68 86 25 95 0
102 109 107 74 51 19 93 63 81 17 89 0
102 109 110 104 106 101 108 2 34 30 37 0
102 109 110 104 106 101 108 23 77 56 91 0
102 109 110 104 106 101 108 79 58 94 26 0
102 109 110 104 106 101 108 60 46 64 8 0
102 109 110 104 106 101 108 72 49 82 14 0
102 109 110 104 106 101 108 12 6 18 1 0
102 109 110 104 106 101 108 76 54 90 21 0
102 109 110 104 106 101 2 34 30 37 39 0
102 109 110 104 106 101 23 77 56 91 95 0
102 109 110 104 106 101 79 58 94 26 98 0
102 109 110 104 106 101 60 46 64 8 66 0
102 109 110 104 106 101 72 49 82 14 83 0
102 109 110 104 106 101 12 6 18 1 20 0
102 109 110 104 106 108 2 34 30 37 3 0
102 109 110 104 106 108 23 77 56 91 25 0
102 109 110 104 106 108 79 58 94 26 28 0
102 109 110 104 106 108 60 46 64 8 9 0
102 109 110 104 106 108 72 49 82 14 16 0
102 109 110 104 106 108 76 54 90 22 21 0
102 109 110 104 106 2 34 30 37 3 39 0
102 109 110 104 106 23 77 56 91 25 95 0
102 109 110 104 106 79 58 94 26 28 98 0
102 109 110 104 106 60 46 64 8 9 66 0
102 109 110 104 106 72 49 82 14 16 83 0
102 109 110 104 101 108 2 34 30 37 35 0
102 109 110 104 101 108 23 77 56 91 86 0
102 109 110 104 101 108 79 58 94 26 87 0
102 109 110 104 101 108 60 46 64 8 61 0
102 109 110 104 101 108 12 6 18 15 1 0
102 109 110 104 101 108 76 54 90 84 21 0
102 109 110 104 101 2 34 30 37 35 39 0
102 109 110 104 101 23 77 56 91 86 95 0
102 109 110 104 101 79 58 94 26 87 98 0
102 109 110 104 101 60 46 64 8 61 66 0
102 109 110 104 101 12 6 18 15 1 20 0
102 109 110 104 108 2 34 30 37 35 3 0
102 109 110 104 108 23 77 56 91 86 25 0
102 109 110 104 108 79 58 94 26 87 28 0
102 109 110 104 108 60 46 64 8 61 9 0
102 109 110 104 108 76 54 90 84 22 21 0
102 109 110 104 2 34 30 37 35 3 39 0
102 109 110 104 23 77 56 91 86 25 95 0
102 109 110 104 79 58 94 26 87 28 98 0
102 109 110 104 60 46 64 8 61 9 66 0
102 109 110 106 101 108 2 34 30 37 31 0
102 109 110 106 101 108 23 77 56 91 68 0
102 109 110 106 101 108 79 58 94 26 69 0
102 109 110 106 101 108 72 49 82 62 14 0
102 109 110 106 101 108 12 6 18 10 1 0
102 109 110 106 101 108 76 54 90 65 21 0
102 109 110 106 101 2 34 30 37 31 39 0
102 109 110 106 101 23 77 56 91 68 95 0
102 109 110 106 101 79 58 94 26 69 98 0
102 109 110 106 101 72 49 82 62 14 83 0
102 109 110 106 101 12 6 18 10 1 20 0
102 109 110 106 108 2 34 30 37 31 3 0
102 109 110 106 108 23 77 56 91 68 25 0
102 109 110 106 108 79 58 94 26 69 28 0
102 109 110 106 108 72 49 82 62 14 16 0
102 109 110 106 108 76 54 90 65 22 21 0
102 109 110 106 2 34 30 37 31 3 39 0
102 109 110 106 23 77 56 91 68 25 95 0
102 109 110 106 79 58 94 26 69 28 98 0
102 109 110 106 72 49 82 62 14 16 83 0
102 109 110 101 108 2 34 30 37 31 35 0
102 109 110 101 108 23 77 56 91 68 86 0
102 109 110 101 108 79 58 94 26 69 87 0
102 109 110 101 108 12 6 18 10 15 1 0
102 109 110 101 108 76 54 90 65 84 21 0
102 109 110 101 2 34 30 37 31 35 39 0
102 109 110 101 23 77 56 91 68 86 95 0
102 109 110 101 79 58 94 26 69 87 98 0
102 109 110 101 12 6 18 10 15 1 20 0
102 109 110 108 2 34 30 37 31 35 3 0
102 109 110 108 23 77 56 91 68 86 25 0
102 109 110 108 79 58 94 26 69 87 28 0
102 109 110 108 76 54 90 65 84 22 21 0
102 109 110 2 34 30 37 31 35 3 39 0
102 109 110 23 77 56 91 68 86 25 95 0
102 109 110 79 58 94 26 69 87 28 98 0
102 109 104 106 101 108 2 34 30 37 43 0
102 109 104 106 101 108 23 77 56 91 100 0
102 109 104 106 101 108 60 46 64 70 8 0
102 109 104 106 101 108 72 49 82 88 14 0
102 109 104 106 101 108 12 6 18 27 1 0
102 109 104 106 101 108 76 54 90 97 21 0
102 109 104 106 101 2 34 30 37 43 39 0
102 109 104 106 101 23 77 56 91 100 95 0
102 109 104 106 101 60 46 64 70 8 66 0
102 109 104 106 101 72 49 82 88 14 83 0
102 109 104 106 101 12 6 18 27 1 20 0
102 109 104 106 108 2 34 30 37 43 3 0
102 109 104 106 108 23 77 56 91 100 25 0
102 109 104 106 108 60 46 64 70 8 9 0
102 109 104 106 108 72 49 82 88 14 16 0
102 109 104 106 108 76 54 90 97 22 21 0
102 109 104 106 2 34 30 37 43 3 39 0
102 109 104 106 23 77 56 91 100 25 95 0
102 109 104 106 60 46 64 70 8 9 66 0
102 109 104 106 72 49 82 88 14 16 83 0
102 109 104 101 108 2 34 30 37 43 35 0
102 109 104 101 108 23 77 56 91 100 86 0
102 109 104 101 108 60 46 64 70 8 61 0
102 109 104 101 108 12 6 18 27 15 1 0
102 109 104 101 108 76 54 90 97 84 21 0
102 109 104 101 2 34 30 37 43 35 39 0
102 109 104 101 23 77 56 91 100 86 95 0
102 109 104 101 60 46 64 70 8 61 66 0
102 109 104 101 12 6 18 27 15 1 20 0
102 109 104 108 2 34 30 37 43 35 3 0
102 109 104 108 23 77 56 91 100 86 25 0
102 109 104 108 60 46 64 70 8 61 9 0
102 109 104 108 76 54 90 97 84 22 21 0
102 109 104 2 34 30 37 43 35 3 39 0
102 109 104 23 77 56 91 100 86 25 95 0
102 109 104 60 46 64 70 8 61 9 66 0
102 109 106 101 108 2 34 30 37 43 31 0
102 109 106 101 108 23 77 56 91 100 68 0
102 109 106 101 108 72 49 82 88 62 14 0
102 109 106 101 108 12 6 18 27 10 1 0
102 109 106 101 108 76 54 90 97 65 21 0
102 109 106 101 2 34 30 37 43 31 39 0
102 109 106 101 23 77 56 91 100 68 95 0
102 109 106 101 72 49 82 88 62 14 83 0
102 109 106 101 12 6 18 27 10 1 20 0
102 109 106 108 2 34 30 37 43 31 3 0
102 109 106 108 23 77 56 91 100 68 25 0
102 109 106 108 72 49 82 88 62 14 16 0
102 109 106 108 76 54 90 97 65 22 21 0
102 109 106 2 34 30 37 43 31 3 39 0
102 109 106 23 77 56 91 100 68 25 95 0
102 109 106 72 49 82 88 62 14 16 83 0
102 109 101 108 2 34 30 37 43 31 35 0
102 109 101 108 23 77 56 91 100 68 86 0
102 109 101 108 12 6 18 27 10 15 1 0
102 109 101 108 76 54 90 97 65 84 21 0
102 109 101 2 34 30 37 43 31 35 39 0
102 109 101 23 77 56 91 100 68 86 95 0
102 109 101 12 6 18 27 10 15 1 20 0
102 109 108 2 34 30 37 43 31 35 3 0
102 109 108 23 77 56 91 100 68 86 25 0
102 109 108 76 54 90 97 65 84 22 21 0
102 109 2 34 30 37 43 31 35 3 39 0
102 109 23 77 56 91 100 68 86 25 95 0
102 105 103 107 110 104 106 101 108 2 42 0
102 105 103 107 110 104 106 101 108 78 13 0
102 105 103 107 110 104 106 101 108 55 5 0
102 105 103 107 110 104 106 101 108 92 19 0
102 105 103 107 110 104 106 101 108 99 26 0
102 105 103 107 110 104 106 101 108 67 8 0
102 105 103 107 110 104 106 101 108 85 14 0
102 105 103 107 110 104 106 101 108 24 1 0
102 105 103 107 110 104 106 101 108 96 21 0
102 105 103 107 110 104 106 101 2 42 39 0
102 105 103 107 110 104 106 101 78 13 75 0
102 105 103 107 110 104 106 101 55 5 53 0
102 105 103 107 110 104 106 101 92 19 89 0
102 105 103 107 110 104 106 101 99 26 98 0
102 105 103 107 110 104 106 101 67 8 66 0
102 105 103 107 110 104 106 101 85 14 83 0
102 105 103 107 110 104 106 101 24 1 20 0
102 105 103 107 110 104 106 108 2 42 3 0
102 105 103 107 110 104 106 108 78 13 11 0
102 105 103 107 110 104 106 108 55 5 7 0
102 105 103 107 110 104 106 108 92 19 17 0
102 105 103 107 110 104 106 108 99 26 28 0
102 105 103 107 110 104 106 108 67 8 9 0
102 105 103 107 110 104 106 108 85 14 16 0
102 105 103 107 110 104 106 108 96 22 21 0
102 105 103 107 110 104 106 2 42 3 39 0
102 105 103 107 110 104 106 78 13 11 75 0
102 105 103 107 110 104 106 55 5 7 53 0
102 105 103 107 110 104 106 92 19 17 89 0
102 105 103 107 110 104 106 99 26 28 98 0
102 105 103 107 110 104 106 67 8 9 66 0
102 105 103 107 110 104 106 85 14 16 83 0
102 105 103 107 110 104 101 108 2 42 35 0
102 105 103 107 110 104 101 108 78 13 71 0
102 105 103 107 110 104 101 108 55 5 50 0
102 105 103 107 110 104 101 108 92 19 81 0
102 105 103 107 110 104 101 108 99 26 87 0
102 105 103 107 110 104 101 108 67 8 61 0
102 105 103 107 110 104 101 108 24 15 1 0
102 105 103 107 110 104 101 108 96 84 21 0
102 105 103 107 110 104 101 2 42 35 39 0
102 105 103 107 110 104 101 78 13 71 75 0
102 105 103 107 110 104 101 55 5 50 53 0
102 105 103 107 110 104 101 92 19 81 89 0
102 105 103 107 110 104 101 99 26 87 98 0
102 105 103 107 110 104 101 67 8 61 66 0
102 105 103 107 110 104 101 24 15 1 20 0
102 105 103 107 110 104 108 2 42 35 3 0
102 105 103 107 110 104 108 78 13 71 11 0
102 105 103 107 110 104 108 55 5 50 7 0
102 105 103 107 110 104 108 92 19 81 17 0
102 105 103 107 110 104 108 99 26 87 28 0
102 105 103 107 110 104 108 67 8 61 9 0
102 105 103 107 110 104 108 96 84 22 21 0
102 105 103 107 110 104 2 42 35 3 39 0
102 105 103 107 110 104 78 13 71 11 75 0
102 105 103 107 110 104 55 5 50 7 53 0
102 105 103 107 110 104 92 19 81 17 89 0
102 105 103 107 110 104 99 26 87 28 98 0
102 105 103 107 110 104 67 8 61 9 66 0
102 105 103 107 110 106 101 108 2 42 31 0
102 105 103 107 110 106 101 108 78 13 59 0
102 105 103 107 110 106 101 108 55 5 45 0
102 105 103 107 110 106 101 108 92 19 63 0
102 105 103 107 110 106 101 108 99 26 69 0
102 105 103 107 110 106 101 108 85 62 14 0
102 105 103 107 110 106 101 108 24 10 1 0
102 105 103 107 110 106 101 108 96 65 21 0
102 105 103 107 110 106 101 2 42 31 39 0
102 105 103 107 110 106 101 78 13 59 75 0
102 105 103 107 110 106 101 55 5 45 53 0
102 105 103 107 110 106 101 92 19 63 89 0
102 105 103 107 110 106 101 99 26 69 98 0
102 105 103 107 110 106 101 85 62 14 83 0
102 105 103 107 110 106 101 24 10 1 20 0
102 105 103 107 110 106 108 2 42 31 3 0
102 105 103 107 110 106 108 78 13 59 11 0
102 105 103 107 110 106 108 55 5 45 7 0
102 105 103 107 110 106 108 92 19 63 17 0
102 105 103 107 110 106 108 99 26 69 28 0
102 105 103 107 110 106 108 85 62 14 16 0
102 105 103 107 110 106 108 96 65 22 21 0
102 105 103 107 110 106 2 42 31 3 39 0
102 105 103 107 110 106 78 13 59 11 75 0
102 105 103 107 110 106 55 5 45 7 53 0
102 105 103 107 110 106 92 19 63 17 89 0
102 105 103 107 110 106 99 26 69 28 98 0
102 105 103 107 110 106 85 62 14 16 83 0
102 105 103 107 110 101 108 2 42 31 35 0
102 105 103 107 110 101 108 78 13 59 71 0
102 105 103 107 110 101 108 55 5 45 50 0
102 105 103 107 110 101 108 92 19 63 81 0
102 105 103 107 110 101 108 99 26 69 87 0
102 105 103 107 110 101 108 24 10 15 1 0
102 105 103 107 110 101 108 96 65 84 21 0
102 105 103 107 110 101 2 42 31 35 39 0
102 105 103 107 110 101 78 13 59 71 75 0
102 105 103 107 110 101 55 5 45 50 53 0
102 105 103 107 110 101 92 19 63 81 89 0
102 105 103 107 110 101 99 26 69 87 98 0
102 105 103 107 110 101 24 10 15 1 20 0
102 105 103 107 110 108 2 42 31 35 3 0
102 105 103 107 110 108 78 13 59 71 11 0
102 105 103 107 110 108 55 5 45 50 7 0
102 105 103 107 110 108 92 19 63 81 17 0
102 105 103 107 110 108 99 26 69 87 28 0
102 105 103 107 110 108 96 65 84 22 21 0
102 105 103 107 110 2 42 31 35 3 39 0
102 105 103 107 110 78 13 59 71 11 75 0
102 105 103 107 110 55 5 45 50 7 53 0
102 105 103 107 110 92 19 63 81 17 89 0
102 105 103 107 110 99 26 69 87 28 98 0
102 105 103 107 104 106 101 108 2 42 43 0
102 105 103 107 104 106 101 108 78 13 80 0
102 105 103 107 104 106 101 108 55 5 57 0
102 105 103 107 104 106 101 108 92 19 93 0
102 105 103 107 104 106 101 108 67 70 8 0
102 105 103 107 104 106 101 108 85 88 14 0
102 105 103 107 104 106 101 108 24 27 1 0
102 105 103 107 104 106 101 108 96 97 21 0
102 105 103 107 104 106 101 2 42 43 39 0
102 105 103 107 104 106 101 78 13 80 75 0
102 105 103 107 104 106 101 55 5 57 53 0
102 105 103 107 104 106 101 92 19 93 89 0
102 105 103 107 104 106 101 67 70 8 66 0
102 105 103 107 104 106 101 85 88 14 83 0
102 105 103 107 104 106 101 24 27 1 20 0
102 105 103 107 104 106 108 2 42 43 3 0
102 105 103 107 104 106 108 78 13 80 11 0
102 105 103 107 104 106 108 55 5 57 7 0
102 105 103 107 104 106 108 92 19 93 17 0
102 105 103 107 104 106 108 67 70 8 9 0
102 105 103 107 104 106 108 85 88 14 16 0
102 105 103 107 104 106 108 96 97 22 21 0
102 105 103 107 104 106 2 42 43 3 39 0
102 105 103 107 104 106 78 13 80 11 75 0
102 105 103 107 104 106 55 5 57 7 53 0
102 105 103 107 104 106 92 19 93 17 89 0
102 105 103 107 104 106 67 70 8 9 66 0
102 105 103 107 104 106 85 88 14 16 83 0
102 105 103 107 104 101 108 2 42 43 35 0
102 105 103 107 104 101 108 78 13 80 71 0
102 105 103 107 104 101 108 55 5 57 50 0
102 105 103 107 104 101 108 92 19 93 81 0
102 105 103 107 104 101 108 67 70 8 61 0
102 105 103 107 104 101 108 24 27 15 1 0
102 105 103 107 104 101 108 96 97 84 21 0
102 105 103 107 104 101 2 42 43 35 39 0
102 105 103 107 104 101 78 13 80 71 75 0
102 105 103 107 104 101 55 5 57 50 53 0
102 105 103 107 104 101 92 19 93 81 89 0
102 105 103 107 104 101 67 70 8 61 66 0
102 105 103 107 104 101 24 27 15 1 20 0
102 105 103 107 104 108 2 42 43 35 3 0
102 105 103 107 104 108 78 13 80 71 11 0
102 105 103 107 104 108 55 5 57 50 7 0
102 105 103 107 104 108 92 19 93 81 17 0
102 105 103 107 104 108 67 70 8 61 9 0
102 105 103 107 104 108 96 97 84 22 21 0
102 105 103 107 104 2 42 43 35 3 39 0
102 105 103 107 104 78 13 80 71 11 75 0
102 105 103 107 104 55 5 57 50 7 53 0
102 105 103 107 104 92 19 93 81 17 89 0
102 105 103 107 104 67 70 8 61 9 66 0
102 105 103 107 106 101 108 2 42 43 31 0
102 105 103 107 106 101 108 78 13 80 59 0
102 105 103 107 106 101 108 55 5 57 45 0
102 105 103 107 106 101 108 92 19 93 63 0
102 105 103 107 106 101 108 85 88 62 14 0
102 105 103 107 106 101 108 24 27 10 1 0
102 105 103 107 106 101 108 96 97 65 21 0
102 105 103 107 106 101 2 42 43 31 39 0
102 105 103 107 106 101 78 13 80 59 75 0
102 105 103 107 106 101 55 5 57 45 53 0
102 105 103 107 106 101 92 19 93 63 89 0
102 105 103 107 106 101 85 88 62 14 83 0
102 105 103 107 106 101 24 27 10 1 20 0
102 105 103 107 106 108 2 42 43 31 3 0
102 105 103 107 106 108 78 13 80 59 11 0
102 105 103 107 106 108 55 5 57 45 7 0
102 105 103 107 106 108 92 19 93 63 17 0
102 105 103 107 106 108 85 88 62 14 16 0
102 105 103 107 106 108 96 97 65 22 21 0
102 105 103 107 106 2 42 43 31 3 39 0
102 105 103 107 106 78 13 80 59 11 75 0
102 105 103 107 106 55 5 57 45 7 53 0
102 105 103 107 106 92 19 93 63 17 89 0
102 105 103 107 106 85 88 62 14 16 83 0
102 105 103 107 101 108 2 42 43 31 35 0
102 105 103 107 101 108 78 13 80 59 71 0
102 105 103 107 101 108 55 5 57 45 50 0
102 105 103 107 101 108 92 19 93 63 81 0
102 105 103 107 101 108 24 27 10 15 1 0
102 105 103 107 101 108 96 97 65 84 21 0
102 105 103 107 101 2 42 43 31 35 39 0
102 105 103 107 101 78 13 80 59 71 75 0
102 105 103 107 101 55 5 57 45 50 53 0
102 105 103 107 101 92 19 93 63 81 89 0
102 105 103 107 101 24 27 10 15 1 20 0
102 105 103 107 108 2 42 43 31 35 3 0
102 105 103 107 108 78 13 80 59 71 11 0
102 105 103 107 108 55 5 57 45 50 7 0
102 105 103 107 108 92 19 93 63 81 17 0
102 105 103 107 108 96 97 65 84 22 21 0
102 105 103 107 2 42 43 31 35 3 39 0
102 105 103 107 78 13 80 59 71 11 75 0
102 105 103 107 55 5 57 45 50 7 53 0
102 105 103 107 92 19 93 63 81 17 89 0
102 105 103 110 104 106 101 108 2 42 37 0
102 105 103 110 104 106 101 108 78 13 73 0
102 105 103 110 104 106 101 108 55 5 52 0
102 105 103 110 104 106 101 108 99 94 26 0
102 105 103 110 104 106 101 108 67 64 8 0
102 105 103 110 104 106 101 108 85 82 14 0
102 105 103 110 104 106 101 108 24 18 1 0
102 105 103 110 104 106 101 108 96 90 21 0
102 105 103 110 104 106 101 2 42 37 39 0
102 105 103 110 104 106 101 78 13 73 75 0
102 105 103 110 104 106 101 55 5 52 53 0
102 105 103 110 104 106 101 99 94 26 98 0
102 105 103 110 104 106 101 67 64 8 66 0
102 105 103 110 104 106 101 85 82 14 83 0
102 105 103 110 104 106 101 24 18 1 20 0
102 105 103 110 104 106 108 2 42 37 3 0
102 105 103 110 104 106 108 78 13 73 11 0
102 105 103 110 104 106 108 55 5 52 7 0
102 105 103 110 104 106 108 99 94 26 28 0
102 105 103 110 104 106 108 67 64 8 9 0
102 105 103 110 104 106 108 85 82 14 16 0
102 105 103 110 104 106 108 96 90 22 21 0
102 105 103 110 104 106 2 42 37 3 39 0
102 105 103 110 104 106 78 13 73 11 75 0
102 105 103 110 104 106 55 5 52 7 53 0
102 105 103 110 104 106 99 94 26 28 98 0
102 105 103 110 104 106 67 64 8 9 66 0
102 105 103 110 104 106 85 82 14 16 83 0
102 105 103 110 104 101 108 2 42 37 35 0
102 105 103 110 104 101 108 78 13 73 71 0
102 105 103 110 104 101 108 55 5 52 50 0
102 105 103 110 104 101 108 99 94 26 87 0
102 105 103 110 104 101 108 67 64 8 61 0
102 105 103 110 104 101 108 24 18 15 1 0
102 105 103 110 104 101 108 96 90 84 21 0
102 105 103 110 104 101 2 42 37 35 39 0
102 105 103 110 104 101 78 13 73 71 75 0
102 105 103 110 104 101 55 5 52 50 53 0
102 105 103 110 104 101 99 94 26 87 98 0
102 105 103 110 104 101 67 64 8 61 66 0
102 105 103 110 104 101 24 18 15 1 20 0
102 105 103 110 104 108 2 42 37 35 3 0
102 105 103 110 104 108 78 13 73 71 11 0
102 105 103 110 104 108 55 5 52 50 7 0
102 105 103 110 104 108 99 94 26 87 28 0
102 105 103 110 104 108 67 64 8 61 9 0
102 105 103 110 104 108 96 90 84 22 21 0
102 105 103 110 104 2 42 37 35 3 39 0
102 105 103 110 104 78 13 73 71 11 75 0
102 105 103 110 104 55 5 52 50 7 53 0
102 105 103 110 104 99 94 26 87 28 98 0
102 105 103 110 104 67 64 8 61 9 66 0
102 105 103 110 106 101 108 2 42 37 31 0
102 105 103 110 106 101 108 78 13 73 59 0
102 105 103 110 106 101 108 55 5 52 45 0
102 105 103 110 106 101 108 99 94 26 69 0
102 105 103 110 106 101 108 85 82 62 14 0
102 105 103 110 106 101 108 24 18 10 1 0
102 105 103 110 106 101 108 96 90 65 21 0
102 105 103 110 106 101 2 42 37 31 39 0
102 105 103 110 106 101 78 13 73 59 75 0
102 105 103 110 106 101 55 5 52 45 53 0
102 105 103 110 106 101 99 94 26 69 98 0
102 105 103 110 106 101 85 82 62 14 83 0
102 105 103 110 106 101 24 18 10 1 20 0
102 105 103 110 106 108 2 42 37 31 3 0
102 105 103 110 106 108 78 13 73 59 11 0
102 105 103 110 106 108 55 5 52 45 7 0
102 105 103 110 106 108 99 94 26 69 28 0
102 105 103 110 106 108 85 82 62 14 16 0
102 105 103 110 106 108 96 90 65 22 21 0
102 105 103 110 106 2 42 37 31 3 39 0
102 105 103 110 106 78 13 73 59 11 75 0
102 105 103 110 106 55 5 52 45 7 53 0
102 105 103 110 106 99 94 26 69 28 98 0
102 105 103 110 106 85 82 62 14 16 83 0
102 105 103 110 101 108 2 42 37 31 35 0
102 105 103 110 101 108 78 13 73 59 71 0
102 105 103 110 101 108 55 5 52 45 50 0
102 105 103 110 101 108 99 94 26 69 87 0
102 105 103 110 101 108 24 18 10 15 1 0
102 105 103 110 101 108 96 90 65 84 21 0
102 105 103 110 101 2 42 37 31 35 39 0
102 105 103 110 101 78 13 73 59 71 75 0
102 105 103 110 101 55 5 52 45 50 53 0
102 105 103 110 101 99 94 26 69 87 98 0
102 105 103 110 101 24 18 10 15 1 20 0
102 105 103 110 108 2 42 37 31 35 3 0
102 105 103 110 108 78 13 73 59 71 11 0
102 105 103 110 108 55 5 52 45 50 7 0
102 105 103 110 108 99 94 26 69 87 28 0
102 105 103 110 108 96 90 65 84 22 21 0
102 105 103 110 2 42 37 31 35 3 39 0
102 105 103 110 78 13 73 59 71 11 75 0
102 105 103 110 55 5 52 45 50 7 53 0
102 105 103 110 99 94 26 69 87 28 98 0
102 105 103 104 106 101 108 2 42 37 43 0
102 105 103 104 106 101 108 78 13 73 80 0
102 105 103 104 106 101 108 55 5 52 57 0
102 105 103 104 106 101 108 67 64 70 8 0
102 105 103 104 106 101 108 85 82 88 14 0
102 105 103 104 106 101 108 24 18 27 1 0
102 105 103 104 106 101 108 96 90 97 21 0
102 105 103 104 106 101 2 42 37 43 39 0
102 105 103 104 106 101 78 13 73 80 75 0
102 105 103 104 106 101 55 5 52 57 53 0
102 105 103 104 106 101 67 64 70 8 66 0
102 105 103 104 106 101 85 82 88 14 83 0
102 105 103 104 106 101 24 18 27 1 20 0
102 105 103 104 106 108 2 42 37 43 3 0
102 105 103 104 106 108 78 13 73 80 11 0
102 105 103 104 106 108 55 5 52 57 7 0
102 105 103 104 106 108 67 64 70 8 9 0
102 105 103 104 106 108 85 82 88 14 16 0
102 105 103 104 106 108 96 90 97 22 21 0
102 105 103 104 106 2 42 37 43 3 39 0
102 105 103 104 106 78 13 73 80 11 75 0
102 105 103 104 106 55 5 52 57 7 53 0
102 105 103 104 106 67 64 70 8 9 66 0
102 105 103 104 106 85 82 88 14 16 83 0
102 105 103 104 101 108 2 42 37 43 35 0
102 105 103 104 101 108 78 13 73 80 71 0
102 105 103 104 101 108 55 5 52 57 50 0
102 105 103 104 101 108 67 64 70 8 61 0
102 105 103 104 101 108 24 18 27 15 1 0
102 105 103 104 101 108 96 90 97 84 21 0
102 105 103 104 101 2 42 37 43 35 39 0
102 105 103 104 101 78 13 73 80 71 75 0
102 105 103 104 101 55 5 52 57 50 53 0
102 105 103 104 101 67 64 70 8 61 66 0
102 105 103 104 101 24 18 27 15 1 20 0
102 105 103 104 108 2 42 37 43 35 3 0
102 105 103 104 108 78 13 73 80 71 11 0
102 105 103 104 108 55 5 52 57 50 7 0
102 105 103 104 108 67 64 70 8 61 9 0
102 105 103 104 108 96 90 97 84 22 21 0
102 105 103 104 2 42 37 43 35 3 39 0
102 105 103 104 78 13 73 80 71 11 75 0
102 105 103 104 55 5 52 57 50 7 53 0
102 105 103 104 67 64 70 8 61 9 66 0
102 105 103 106 101 108 2 42 37 43 31 0
102 105 103 106 101 108 78 13 73 80 59 0
102 105 103 106 101 108 55 5 52 57 45 0
102 105 103 106 101 108 85 82 88 62 14 0
102 105 103 106 101 108 24 18 27 10 1 0
102 105 103 106 101 108 96 90 97 65 21 0
102 105 103 106 101 2 42 37 43 31 39 0
102 105 103 106 101 78 13 73 80 59 75 0
102 105 103 106 101 55 5 52 57 45 53 0
102 105 103 106 101 85 82 88 62 14 83 0
102 105 103 106 101 24 18 27 10 1 20 0
102 105 103 106 108 2 42 37 43 31 3 0
102 105 103 106 108 78 13 73 80 59 11 0
102 105 103 106 108 55 5 52 57 45 7 0
102 105 103 106 108 85 82 88 62 14 16 0
102 105 103 106 108 96 90 97 65 22 21 0
102 105 103 106 2 42 37 43 31 3 39 0
102 105 103 106 78 13 73 80 59 11 75 0
102 105 103 106 55 5 52 57 45 7 53 0
102 105 103 106 85 82 88 62 14 16 83 0
102 105 103 101 108 2 42 37 43 31 35 0
102 105 103 101 108 78 13 73 80 59 71 0
102 105 103 101 108 55 5 52 57 45 50 0
102 105 103 101 108 24 18 27 10 15 1 0
102 105 103 101 108 96 90 97 65 84 21 0
102 105 103 101 2 42 37 43 31 35 39 0
102 105 103 101 78 13 73 80 59 71 75 0
102 105 103 101 55 5 52 57 45 50 53 0
102 105 103 101 24 18 27 10 15 1 20 0
102 105 103 108 2 42 37 43 31 35 3 0
102 105 103 108 78 13 73 80 59 71 11 0
102 105 103 108 55 5 52 57 45 50 7 0
102 105 103 108 96 90 97 65 84 22 21 0
102 105 103 2 42 37 43 31 35 3 39 0
102 105 103 78 13 73 80 59 71 11 75 0
102 105 103 55 5 52 57 45 50 7 53 0
102 105 107 110 104 106 101 108 2 42 30 0
102 105 107 110 104 106 101 108 78 13 48 0
102 105 107 110 104 106 101 108 92 51 19 0
102 105 107 110 104 106 101 108 99 58 26 0
102 105 107 110 104 106 101 108 67 46 8 0
102 105 107 110 104 106 101 108 85 49 14 0
102 105 107 110 104 106 101 108 24 6 1 0
102 105 107 110 104 106 101 108 96 54 21 0
102 105 107 110 104 106 101 2 42 30 39 0
102 105 107 110 104 106 101 78 13 48 75 0
102 105 107 110 104 106 101 92 51 19 89 0
102 105 107 110 104 106 101 99 58 26 98 0
102 105 107 110 104 106 101 67 46 8 66 0
102 105 107 110 104 106 101 85 49 14 83 0
102 105 107 110 104 106 101 24 6 1 20 0
102 105 107 110 104 106 108 2 42 30 3 0
102 105 107 110 104 106 108 78 13 48 11 0
102 105 107 110 104 106 108 92 51 19 17 0
102 105 107 110 104 106 108 99 58 26 28 0
102 105 107 110 104 106 108 67 46 8 9 0
102 105 107 110 104 106 108 85 49 14 16 0
102 105 107 110 104 106 108 96 54 22 21 0
102 105 107 110 104 106 2 42 30 3 39 0
102 105 107 110 104 106 78 13 48 11 75 0
102 105 107 110 104 106 92 51 19 17 89 0
102 105 107 110 104 106 99 58 26 28 98 0
102 105 107 110 104 106 67 46 8 9 66 0
102 105 107 110 104 106 85 49 14 16 83 0
102 105 107 110 104 101 108 2 42 30 35 0
102 105 107 110 104 101 108 78 13 48 71 0
102 105 107 110 104 101 108 92 51 19 81 0
102 105 107 110 104 101 108 99 58 26 87 0
102 105 107 110 104 101 108 67 46 8 61 0
102 105 107 110 104 101 108 24 6 15 1 0
102 105 107 110 104 101 108 96 54 84 21 0
102 105 107 110 104 101 2 42 30 35 39 0
102 105 107 110 104 101 78 13 48 71 75 0
102 105 107 110 104 101 92 51 19 81 89 0
102 105 107 110 104 101 99 58 26 87 98 0
102 105 107 110 104 101 67 46 8 61 66 0
102 105 107 110 104 101 24 6 15 1 20 0
102 105 107 110 104 108 2 42 30 35 3 0
102 105 107 110 104 108 78 13 48 71 11 0
102 105 107 110 104 108 92 51 19 81 17 0
102 105 107 110 104 108 99 58 26 87 28 0
102 105 107 110 104 108 67 46 8 61 9 0
102 105 107 110 104 108 96 54 84 22 21 0
102 105 107 110 104 2 42 30 35 3 39 0
102 105 107 110 104 78 13 48 71 11 75 0
102 105 107 110 104 92 51 19 81 17 89 0
102 105 107 110 104 99 58 26 87 28 98 0
102 105 107 110 104 67 46 8 61 9 66 0
102 105 107 110 106 101 108 2 42 30 31 0
102 105 107 110 106 101 108 78 13 48 59 0
102 105 107 110 106 101 108 92 51 19 63 0
102 105 107 110 106 101 108 99 58 26 69 0
102 105 107 110 106 101 108 85 49 62 14 0
102 105 107 110 106 101 108 24 6 10 1 0
102 105 107 110 106 101 108 96 54 65 21 0
102 105 107 110 106 101 2 42 30 31 39 0
102 105 107 110 106 101 78 13 48 59 75 0
102 105 107 110 106 101 92 51 19 63 89 0
102 105 107 110 106 101 99 58 26 69 98 0
102 105 107 110 106 101 85 49 62 14 83 0
102 105 107 110 106 101 24 6 10 1 20 0
102 105 107 110 106 108 2 42 30 31 3 0
102 105 107 110 106 108 78 13 48 59 11 0
102 105 107 110 106 108 92 51 19 63 17 0
102 105 107 110 106 108 99 58 26 69 28 0
102 105 107 110 106 108 85 49 62 14 16 0
102 105 107 110 106 108 96 54 65 22 21 0
102 105 107 110 106 2 42 30 31 3 39 0
102 105 107 110 106 78 13 48 59 11 75 0
102 105 107 110 106 92 51 19 63 17 89 0
102 105 107 110 106 99 58 26 69 28 98 0
102 105 107 110 106 85 49 62 14 16 83 0
102 105 107 110 101 108 2 42 30 31 35 0
102 105 107 110 101 108 78 13 48 59 71 0
102 105 107 110 101 108 92 51 19 63 81 0
102 105 107 110 101 108 99 58 26 69 87 0
102 105 107 110 101 108 24 6 10 15 1 0
102 105 107 110 101 108 96 54 65 84 21 0
102 105 107 110 101 2 42 30 31 35 39 0
102 105 107 110 101 78 13 48 59 71 75 0
102 105 107 110 101 92 51 19 63 81 89 0
102 105 107 110 101 99 58 26 69 87 98 0
102 105 107 110 101 24 6 10 15 1 20 0
102 105 107 110 108 2 42 30 31 35 3 0
102 105 107 110 108 78 13 48 59 71 11 0
102 105 107 110 108 92 51 19 63 81 17 0
102 105 107 110 108 99 58 26 69 87 28 0
102 105 107 110 108 96 54 65 84 22 21 0
102 105 107 110 2 42 30 31 35 3 39 0
102 105 107 110 78 13 48 59 71 11 75 0
102 105 107 110 92 51 19 63 81 17 89 0
102 105 107 110 99 58 26 69 87 28 98 0
102 105 107 104 106 101 108 2 42 30 43 0
102 105 107 104 106 101 108 78 13 48 80 0
102 105 107 104 106 101 108 92 51 19 93 0
102 105 107 104 106 101 108 67 46 70 8 0
102 105 107 104 106 101 108 85 49 88 14 0
102 105 107 104 106 101 108 24 6 27 1 0
102 105 107 104 106 101 108 96 54 97 21 0
102 105 107 104 106 101 2 42 30 43 39 0
102 105 107 104 106 101 78 13 48 80 75 0
102 105 107 104 106 101 92 51 19 93 89 0
102 105 107 104 106 101 67 46 70 8 66 0
102 105 107 104 106 101 85 49 88 14 83 0
102 105 107 104 106 101 24 6 27 1 20 0
102 105 107 104 106 108 2 42 30 43 3 0
102 105 107 104 106 108 78 13 48 80 11 0
102 105 107 104 106 108 92 51 19 93 17 0
102 105 107 104 106 108 67 46 70 8 9 0
102 105 107 104 106 108 85 49 88 14 16 0
102 105 107 104 106 108 96 54 97 22 21 0
102 105 107 104 106 2 42 30 43 3 39 0
102 105 107 104 106 78 13 48 80 11 75 0
102 105 107 104 106 92 51 19 93 17 89 0
102 105 107 104 106 67 46 70 8 9 66 0
102 105 107 104 106 85 49 88 14 16 83 0
102 105 107 104 101 108 2 42 30 43 35 0
102 105 107 104 101 108 78 13 48 80 71 0
102 105 107 104 101 108 92 51 19 93 81 0
102 105 107 104 101 108 67 46 70 8 61 0
102 105 107 104 101 108 24 6 27 15 1 0
102 105 107 104 101 108 96 54 97 84 21 0
102 105 107 104 101 2 42 30 43 35 39 0
102 105 107 104 101 78 13 48 80 71 75 0
102 105 107 104 101 92 51 19 93 81 89 0
102 105 107 104 101 67 46 70 8 61 66 0
102 105 107 104 101 24 6 27 15 1 20 0
102 105 107 104 108 2 42 30 43 35 3 0
102 105 107 104 108 78 13 48 80 71 11 0
102 105 107 104 108 92 51 19 93 81 17 0
102 105 107 104 108 67 46 70 8 61 9 0
102 105 107 104 108 96 54 97 84 22 21 0
102 105 107 104 2 42 30 43 35 3 39 0
102 105 107 104 78 13 48 80 71 11 75 0
102 105 107 104 92 51 19 93 81 17 89 0
102 105 107 104 67 46 70 8 61 9 66 0
102 105 107 106 101 108 2 42 30 43 31 0
102 105 107 106 101 108 78 13 48 80 59 0
102 105 107 106 101 108 92 51 19 93 63 0
102 105 107 106 101 108 85 49 88 62 14 0
102 105 107 106 101 108 24 6 27 10 1 0
102 105 107 106 101 108 96 54 97 65 21 0
102 105 107 106 101 2 42 30 43 31 39 0
102 105 107 106 101 78 13 48 80 59 75 0
102 105 107 106 101 92 51 19 93 63 89 0
102 105 107 106 101 85 49 88 62 14 83 0
102 105 107 106 101 24 6 27 10 1 20 0
102 105 107 106 108 2 42 30 43 31 3 0
102 105 107 106 108 78 13 48 80 59 11 0
102 105 107 106 108 92 51 19 93 63 17 0
102 105 107 106 108 85 49 88 62 14 16 0
102 105 107 106 108 96 54 97 65 22 21 0
102 105 107 106 2 42 30 43 31 3 39 0
102 105 107 106 78 13 48 80 59 11 75 0
102 105 107 106 92 51 19 93 63 17 89 0
102 105 107 106 85 49 88 62 14 16 83 0
102 105 107 101 108 2 42 30 43 31 35 0
102 105 107 101 108 78 13 48 80 59 71 0
102 105 107 101 108 92 51 19 93 63 81 0
102 105 107 101 108 24 6 27 10 15 1 0
102 105 107 101 108 96 54 97 65 84 21 0
102 105 107 101 2 42 30 43 31 35 39 0
102 105 107 101 78 13 48 80 59 71 75 0
102 105 107 101 92 51 19 93 63 81 89 0
102 105 107 101 24 6 27 10 15 1 20 0
102 105 107 108 2 42 30 43 31 35 3 0
102 105 107 108 78 13 48 80 59 71 11 0
102 105 107 108 92 51 19 93 63 81 17 0
102 105 107 108 96 54 97 65 84 22 21 0
102 105 107 2 42 30 43 31 35 3 39 0
102 105 107 78 13 48 80 59 71 11 75 0
102 105 107 92 51 19 93 63 81 17 89 0
102 105 110 104 106 101 108 2 42 30 37 0
102 105 110 104 106 101 108 78 13 48 73 0
102 105 110 104 106 101 108 99 58 94 26 0
102 105 110 104 106 101 108 67 46 64 8 0
102 105 110 104 106 101 108 85 49 82 14 0
102 105 110 104 106 101 108 24 6 18 1 0
102 105 110 104 106 101 108 96 54 90 21 0
102 105 110 104 106 101 2 42 30 37 39 0
102 105 110 104 106 101 78 13 48 73 75 0
102 105 110 104 106 101 99 58 94 26 98 0
102 105 110 104 106 101 67 46 64 8 66 0
102 105 110 104 106 101 85 49 82 14 83 0
102 105 110 104 106 101 24 6 18 1 20 0
102 105 110 104 106 108 2 42 30 37 3 0
102 105 110 104 106 108 78 13 48 73 11 0
102 105 110 104 106 108 99 58 94 26 28 0
102 105 110 104 106 108 67 46 64 8 9 0
102 105 110 104 106 108 85 49 82 14 16 0
102 105 110 104 106 108 96 54 90 22 21 0
102 105 110 104 106 2 42 30 37 3 39 0
102 105 110 104 106 78 13 48 73 11 75 0
102 105 110 104 106 99 58 94 26 28 98 0
102 105 110 104 106 67 46 64 8 9 66 0
102 105 110 104 106 85 49 82 14 16 83 0
102 105 110 104 101 108 2 42 30 37 35 0
102 105 110 104 101 108 78 13 48 73 71 0
102 105 110 104 101 108 99 58 94 26 87 0
102 105 110 104 101 108 67 46 64 8 61 0
102 105 110 104 101 108 24 6 18 15 1 0
102 105 110 104 101 108 96 54 90 84 21 0
102 105 110 104 101 2 42 30 37 35 39 0
102 105 110 104 101 78 13 48 73 71 75 0
102 105 110 104 101 99 58 94 26 87 98 0
102 105 110 104 101 67 46 64 8 61 66 0
102 105 110 104 101 24 6 18 15 1 20 0
102 105 110 104 108 2 42 30 37 35 3 0
102 105 110 104 108 78 13 48 73 71 11 0
102 105 110 104 108 99 58 94 26 87 28 0
102 105 110 104 108 67 46 64 8 61 9 0
102 105 110 104 108 96 54 90 84 22 21 0
102 105 110 104 2 42 30 37 35 3 39 0
102 105 110 104 78 13 48 73 71 11 75 0
102 105 110 104 99 58 94 26 87 28 98 0
102 105 110 104 67 46 64 8 61 9 66 0
102 105 110 106 101 108 2 42 30 37 31 0
102 105 110 106 101 108 78 13 48 73 59 0
102 105 110 106 101 108 99 58 94 26 69 0
102 105 110 106 101 108 85 49 82 62 14 0
102 105 110 106 101 108 24 6 18 10 1 0
102 105 110 106 101 108 96 54 90 65 21 0
102 105 110 106 101 2 42 30 37 31 39 0
102 105 110 106 101 78 13 48 73 59 75 0
102 105 110 106 101 99 58 94 26 69 98 0
102 105 110 106 101 85 49 82 62 14 83 0
102 105 110 106 101 24 6 18 10 1 20 0
102 105 110 106 108 2 42 30 37 31 3 0
102 105 110 106 108 78 13 48 73 59 11 0
102 105 110 106 108 99 58 94 26 69 28 0
102 105 110 106 108 85 49 82 62 14 16 0
102 105 110 106 108 96 54 90 65 22 21 0
102 105 110 106 2 42 30 37 31 3 39 0
102 105 110 106 78 13 48 73 59 11 75 0
102 105 110 106 99 58 94 26 69 28 98 0
102 105 110 106 85 49 82 62 14 16 83 0
102 105 110 101 108 2 42 30 37 31 35 0
102 105 110 101 108 78 13 48 73 59 71 0
102 105 110 101 108 99 58 94 26 69 87 0
102 105 110 101 108 24 6 18 10 15 1 0
102 105 110 101 108 96 54 90 65 84 21 0
102 105 110 101 2 42 30 37 31 35 39 0
102 105 110 101 78 13 48 73 59 71 75 0
102 105 110 101 99 58 94 26 69 87 98 0
102 105 110 101 24 6 18 10 15 1 20 0
102 105 110 108 2 42 30 37 31 35 3 0
102 105 110 108 78 13 48 73 59 71 11 0
102 105 110 108 99 58 94 26 69 87 28 0
102 105 110 108 96 54 90 65 84 22 21 0
102 105 110 2 42 30 37 31 35 3 39 0
102 105 110 78 13 48 73 59 71 11 75 0
102 105 110 99 58 94 26 69 87 28 98 0
102 105 104 106 101 108 2 42 30 37 43 0
102 105 104 106 101 108 78 13 48 73 80 0
102 105 104 106 101 108 67 46 64 70 8 0
102 105 104 106 101 108 85 49 82 88 14 0
102 105 104 106 101 108 24 6 18 27 1 0
102 105 104 106 101 108 96 54 90 97 21 0
102 105 104 106 101 2 42 30 37 43 39 0
102 105 104 106 101 78 13 48 73 80 75 0
102 105 104 106 101 67 46 64 70 8 66 0
102 105 104 106 101 85 49 82 88 14 83 0
102 105 104 106 101 24 6 18 27 1 20 0
102 105 104 106 108 2 42 30 37 43 3 0
102 105 104 106 108 78 13 48 73 80 11 0
102 105 104 106 108 67 46 64 70 8 9 0
102 105 104 106 108 85 49 82 88 14 16 0
102 105 104 106 108 96 54 90 97 22 21 0
102 105 104 106 2 42 30 37 43 3 39 0
102 105 104 106 78 13 48 73 80 11 75 0
102 105 104 106 67 46 64 70 8 9 66 0
102 105 104 106 85 49 82 88 14 16 83 0
102 105 104 101 108 2 42 30 37 43 35 0
102 105 104 101 108 78 13 48 73 80 71 0
102 105 104 101 108 67 46 64 70 8 61 0
102 105 104 101 108 24 6 18 27 15 1 0
102 105 104 101 108 96 54 90 97 84 21 0
102 105 104 101 2 42 30 37 43 35 39 0
102 105 104 101 78 13 48 73 80 71 75 0
102 105 104 101 67 46 64 70 8 61 66 0
102 105 104 101 24 6 18 27 15 1 20 0
102 105 104 108 2 42 30 37 43 35 3 0
102 105 104 108 78 13 48 73 80 71 11 0
102 105 104 108 67 46 64 70 8 61 9 0
102 105 104 108 96 54 90 97 84 22 21 0
102 105 104 2 42 30 37 43 35 3 39 0
102 105 104 78 13 48 73 80 71 11 75 0
102 105 104 67 46 64 70 8 61 9 66 0
102 105 106 101 108 2 42 30 37 43 31 0
102 105 106 101 108 78 13 48 73 80 59 0
102 105 106 101 108 85 49 82 88 62 14 0
102 105 106 101 108 24 6 18 27 10 1 0
102 105 106 101 108 96 54 90 97 65 21 0
102 105 106 101 2 42 30 37 43 31 39 0
102 105 106 101 78 13 48 73 80 59 75 0
102 105 106 101 85 49 82 88 62 14 83 0
102 105 106 101 24 6 18 27 10 1 20 0
102 105 106 108 2 42 30 37 43 31 3 0
102 105 106 108 78 13 48 73 80 59 11 0
102 105 106 108 85 49 82 88 62 14 16 0
102 105 106 108 96 54 90 97 65 22 21 0
102 105 106 2 42 30 37 43 31 3 39 0
102 105 106 78 13 48 73 80 59 11 75 0
102 105 106 85 49 82 88 62 14 16 83 0
102 105 101 108 2 42 30 37 43 31 35 0
102 105 101 108 78 13 48 73 80 59 71 0
102 105 101 108 24 6 18 27 10 15 1 0
102 105 101 108 96 54 90 97 65 84 21 0
102 105 101 2 42 30 37 43 31 35 39 0
102 105 101 78 13 48 73 80 59 71 75 0
102 105 101 24 6 18 27 10 15 1 20 0
102 105 108 2 42 30 37 43 31 35 3 0
102 105 108 78 13 48 73 80 59 71 11 0
102 105 108 96 54 90 97 65 84 22 21 0
102 105 2 42 30 37 43 31 35 3 39 0
102 105 78 13 48 73 80 59 71 11 75 0
102 103 107 110 104 106 101 108 2 42 34 0
102 103 107 110 104 106 101 108 55 47 5 0
102 103 107 110 104 106 101 108 92 74 19 0
102 103 107 110 104 106 101 108 99 79 26 0
102 103 107 110 104 106 101 108 67 60 8 0
102 103 107 110 104 106 101 108 85 72 14 0
102 103 107 110 104 106 101 108 24 12 1 0
102 103 107 110 104 106 101 108 96 76 21 0
102 103 107 110 104 106 101 2 42 34 39 0
102 103 107 110 104 106 101 55 47 5 53 0
102 103 107 110 104 106 101 92 74 19 89 0
102 103 107 110 104 106 101 99 79 26 98 0
102 103 107 110 104 106 101 67 60 8 66 0
102 103 107 110 104 106 101 85 72 14 83 0
102 103 107 110 104 106 101 24 12 1 20 0
102 103 107 110 104 106 108 2 42 34 3 0
102 103 107 110 104 106 108 55 47 5 7 0
102 103 107 110 104 106 108 92 74 19 17 0
102 103 107 110 104 106 108 99 79 26 28 0
102 103 107 110 104 106 108 67 60 8 9 0
102 103 107 110 104 106 108 85 72 14 16 0
102 103 107 110 104 106 108 96 76 22 21 0
102 103 107 110 104 106 2 42 34 3 39 0
102 103 107 110 104 106 55 47 5 7 53 0
102 103 107 110 104 106 92 74 19 17 89 0
102 103 107 110 104 106 99 79 26 28 98 0
102 103 107 110 104 106 67 60 8 9 66 0
102 103 107 110 104 106 85 72 14 16 83 0
102 103 107 110 104 101 108 2 42 34 35 0
102 103 107 110 104 101 108 55 47 5 50 0
102 103 107 110 104 101 108 92 74 19 81 0
102 103 107 110 104 101 108 99 79 26 87 0
102 103 107 110 104 101 108 67 60 8 61 0
102 103 107 110 104 101 108 24 12 15 1 0
102 103 107 110 104 101 108 96 76 84 21 0
102 103 107 110 104 101 2 42 34 35 39 0
102 103 107 110 104 101 55 47 5 50 53 0
102 103 107 110 104 101 92 74 19 81 89 0
102 103 107 110 104 101 99 79 26 87 98 0
102 103 107 110 104 101 67 60 8 61 66 0
102 103 107 110 104 101 24 12 15 1 20 0
102 103 107 110 104 108 2 42 34 35 3 0
102 103 107 110 104 108 55 47 5 50 7 0
102 103 107 110 104 108 92 74 19 81 17 0
102 103 107 110 104 108 99 79 26 87 28 0
102 103 107 110 104 108 67 60 8 61 9 0
102 103 107 110 104 108 96 76 84 22 21 0
102 103 107 110 104 2 42 34 35 3 39 0
102 103 107 110 104 55 47 5 50 7 53 0
102 103 107 110 104 92 74 19 81 17 89 0
102 103 107 110 104 99 79 26 87 28 98 0
102 103 107 110 104 67 60 8 61 9 66 0
102 103 107 110 106 101 108 2 42 34 31 0
102 103 107 110 106 101 108 55 47 5 45 0
102 103 107 110 106 101 108 92 74 19 63 0
102 103 107 110 106 101 108 99 79 26 69 0
102 103 107 110 106 101 108 85 72 62 14 0
102 103 107 110 106 101 108 24 12 10 1 0
102 103 107 110 106 101 108 96 76 65 21 0
102 103 107 110 106 101 2 42 34 31 39 0
102 103 107 110 106 101 55 47 5 45 53 0
102 103 107 110 106 101 92 74 19 63 89 0
102 103 107 110 106 101 99 79 26 69 98 0
102 103 107 110 106 101 85 72 62 14 83 0
102 103 107 110 106 101 24 12 10 1 20 0
102 103 107 110 106 108 2 42 34 31 3 0
102 103 107 110 106 108 55 47 5 45 7 0
102 103 107 110 106 108 92 74 19 63 17 0
102 103 107 110 106 108 99 79 26 69 28 0
102 103 107 110 106 108 85 72 62 14 16 0
102 103 107 110 106 108 96 76 65 22 21 0
102 103 107 110 106 2 42 34 31 3 39 0
102 103 107 110 106 55 47 5 45 7 53 0
102 103 107 110 106 92 74 19 63 17 89 0
102 103 107 110 106 99 79 26 69 28 98 0
102 103 107 110 106 85 72 62 14 16 83 0
102 103 107 110 101 108 2 42 34 31 35 0
102 103 107 110 101 108 55 47 5 45 50 0
102 103 107 110 101 108 92 74 19 63 81 0
102 103 107 110 101 108 99 79 26 69 87 0
102 103 107 110 101 108 24 12 10 15 1 0
102 103 107 110 101 108 96 76 65 84 21 0
102 103 107 110 101 2 42 34 31 35 39 0
102 103 107 110 101 55 47 5 45 50 53 0
102 103 107 110 101 92 74 19 63 81 89 0
102 103 107 110 101 99 79 26 69 87 98 0
102 103 107 110 101 24 12 10 15 1 20 0
102 103 107 110 108 2 42 34 31 35 3 0
102 103 107 110 108 55 47 5 45 50 7 0
102 103 107 110 108 92 74 19 63 81 17 0
102 103 107 110 108 99 79 26 69 87 28 0
102 103 107 110 108 96 76 65 84 22 21 0
102 103 107 110 2 42 34 31 35 3 39 0
102 103 107 110 55 47 5 45 50 7 53 0
102 103 107 110 92 74 19 63 81 17 89 0
102 103 107 110 99 79 26 69 87 28 98 0
102 103 107 104 106 101 108 2 42 34 43 0
102 103 107 104 106 101 108 55 47 5 57 0
102 103 107 104 106 101 108 92 74 19 93 0
102 103 107 104 106 101 108 67 60 70 8 0
102 103 107 104 106 101 108 85 72 88 14 0
102 103 107 104 106 101 108 24 12 27 1 0
102 103 107 104 106 101 108 96 76 97 21 0
102 103 107 104 106 101 2 42 34 43 39 0
102 103 107 104 106 101 55 47 5 57 53 0
102 103 107 104 106 101 92 74 19 93 89 0
102 103 107 104 106 101 67 60 70 8 66 0
102 103 107 104 106 101 85 72 88 14 83 0
102 103 107 104 106 101 24 12 27 1 20 0
102 103 107 104 106 108 2 42 34 43 3 0
102 103 107 104 106 108 55 47 5 57 7 0
102 103 107 104 106 108 92 74 19 93 17 0
102 103 107 104 106 108 67 60 70 8 9 0
102 103 107 104 106 108 85 72 88 14 16 0
102 103 107 104 106 108 96 76 97 22 21 0
102 103 107 104 106 2 42 34 43 3 39 0
102 103 107 104 106 55 47 5 57 7 53 0
102 103 107 104 106 92 74 19 93 17 89 0
102 103 107 104 106 67 60 70 8 9 66 0
102 103 107 104 106 85 72 88 14 16 83 0
102 103 107 104 101 108 2 42 34 43 35 0
102 103 107 104 101 108 55 47 5 57 50 0
102 103 107 104 101 108 92 74 19 93 81 0
102 103 107 104 101 108 67 60 70 8 61 0
102 103 107 104 101 108 24 12 27 15 1 0
102 103 107 104 101 108 96 76 97 84 21 0
102 103 107 104 101 2 42 34 43 35 39 0
102 103 107 104 101 55 47 5 57 50 53 0
102 103 107 104 101 92 74 19 93 81 89 0
102 103 107 104 101 67 60 70 8 61 66 0
102 103 107 104 101 24 12 27 15 1 20 0
102 103 107 104 108 2 42 34 43 35 3 0
102 103 107 104 108 55 47 5 57 50 7 0
102 103 107 104 108 92 74 19 93 81 17 0
102 103 107 104 108 67 60 70 8 61 9 0
102 103 107 104 108 96 76 97 84 22 21 0
102 103 107 104 2 42 34 43 35 3 39 0
102 103 107 104 55 47 5 57 50 7 53 0
102 103 107 104 92 74 19 93 81 17 89 0
102 103 107 104 67 60 70 8 61 9 66 0
102 103 107 106 101 108 2 42 34 43 31 0
102 103 107 106 101 108 55 47 5 57 45 0
102 103 107 106 101 108 92 74 19 93 63 0
102 103 107 106 101 108 85 72 88 62 14 0
102 103 107 106 101 108 24 12 27 10 1 0
102 103 107 106 101 108 96 76 97 65 21 0
102 103 107 106 101 2 42 34 43 31 39 0
102 103 107 106 101 55 47 5 57 45 53 0
102 103 107 106 101 92 74 19 93 63 89 0
102 103 107 106 101 85 72 88 62 14 83 0
102 103 107 106 101 24 12 27 10 1 20 0
102 103 107 106 108 2 42 34 43 31 3 0
102 103 107 106 108 55 47 5 57 45 7 0
102 103 107 106 108 92 74 19 93 63 17 0
102 103 107 106 108 85 72 88 62 14 16 0
102 103 107 106 108 96 76 97 65 22 21 0
102 103 107 106 2 42 34 43 31 3 39 0
102 103 107 106 55 47 5 57 45 7 53 0
102 103 107 106 92 74 19 93 63 17 89 0
102 103 107 106 85 72 88 62 14 16 83 0
102 103 107 101 108 2 42 34 43 31 35 0
102 103 107 101 108 55 47 5 57 45 50 0
102 103 107 101 108 92 74 19 93 63 81 0
102 103 107 101 108 24 12 27 10 15 1 0
102 103 107 101 108 96 76 97 65 84 21 0
102 103 107 101 2 42 34 43 31 35 39 0
102 103 107 101 55 47 5 57 45 50 53 0
102 103 107 101 92 74 19 93 63 81 89 0
102 103 107 101 24 12 27 10 15 1 20 0
102 103 107 108 2 42 34 43 31 35 3 0
102 103 107 108 55 47 5 57 45 50 7 0
102 103 107 108 92 74 19 93 63 81 17 0
102 103 107 108 96 76 97 65 84 22 21 0
102 103 107 2 42 34 43 31 35 3 39 0
102 103 107 55 47 5 57 45 50 7 53 0
102 103 107 92 74 19 93 63 81 17 89 0
102 103 110 104 106 101 108 2 42 34 37 0
102 103 110 104 106 101 108 55 47 5 52 0
102 103 110 104 106 101 108 99 79 94 26 0
102 103 110 104 106 101 108 67 60 64 8 0
102 103 110 104 106 101 108 85 72 82 14 0
102 103 110 104 106 101 108 24 12 18 1 0
102 103 110 104 106 101 108 96 76 90 21 0
102 103 110 104 106 101 2 42 34 37 39 0
102 103 110 104 106 101 55 47 5 52 53 0
102 103 110 104 106 101 99 79 94 26 98 0
102 103 110 104 106 101 67 60 64 8 66 0
102 103 110 104 106 101 85 72 82 14 83 0
102 103 110 104 106 101 24 12 18 1 20 0
102 103 110 104 106 108 2 42 34 37 3 0
102 103 110 104 106 108 55 47 5 52 7 0
102 103 110 104 106 108 99 79 94 26 28 0
102 103 110 104 106 108 67 60 64 8 9 0
102 103 110 104 106 108 85 72 82 14 16 0
102 103 110 104 106 108 96 76 90 22 21 0
102 103 110 104 106 2 42 34 37 3 39 0
102 103 110 104 106 55 47 5 52 7 53 0
102 103 110 104 106 99 79 94 26 28 98 0
102 103 110 104 106 67 60 64 8 9 66 0
102 103 110 104 106 85 72 82 14 16 83 0
102 103 110 104 101 108 2 42 34 37 35 0
102 103 110 104 101 108 55 47 5 52 50 0
102 103 110 104 101 108 99 79 94 26 87 0
102 103 110 104 101 108 67 60 64 8 61 0
102 103 110 104 101 108 24 12 18 15 1 0
102 103 110 104 101 108 96 76 90 84 21 0
102 103 110 104 101 2 42 34 37 35 39 0
102 103 110 104 101 55 47 5 52 50 53 0
102 103 110 104 101 99 79 94 26 87 98 0
102 103 110 104 101 67 60 64 8 61 66 0
102 103 110 104 101 24 12 18 15 1 20 0
102 103 110 104 108 2 42 34 37 35 3 0
102 103 110 104 108 55 47 5 52 50 7 0
102 103 110 104 108 99 79 94 26 87 28 0
102 103 110 104 108 67 60 64 8 61 9 0
102 103 110 104 108 96 76 90 84 22 21 0
102 103 110 104 2 42 34 37 35 3 39 0
102 103 110 104 55 47 5 52 50 7 53 0
102 103 110 104 99 79 94 26 87 28 98 0
102 103 110 104 67 60 64 8 61 9 66 0
102 103 110 106 101 108 2 42 34 37 31 0
102 103 110 106 101 108 55 47 5 52 45 0
102 103 110 106 101 108 99 79 94 26 69 0
102 103 110 106 101 108 85 72 82 62 14 0
102 103 110 106 101 108 24 12 18 10 1 0
102 103 110 106 101 108 96 76 90 65 21 0
102 103 110 106 101 2 42 34 37 31 39 0
102 103 110 106 101 55 47 5 52 45 53 0
102 103 110 106 101 99 79 94 26 69 98 0
102 103 110 106 101 85 72 82 62 14 83 0
102 103 110 106 101 24 12 18 10 1 20 0
102 103 110 106 108 2 42 34 37 31 3 0
102 103 110 106 108 55 47 5 52 45 7 0
102 103 110 106 108 99 79 94 26 69 28 0
102 103 110 106 108 85 72 82 62 14 16 0
102 103 110 106 108 96 76 90 65 22 21 0
102 103 110 106 2 42 34 37 31 3 39 0
102 103 110 106 55 47 5 52 45 7 53 0
102 103 110 106 99 79 94 26 69 28 98 0
102 103 110 106 85 72 82 62 14 16 83 0
102 103 110 101 108 2 42 34 37 31 35 0
102 103 110 101 108 55 47 5 52 45 50 0
102 103 110 101 108 99 79 94 26 69 87 0
102 103 110 101 108 24 12 18 10 15 1 0
102 103 110 101 108 96 76 90 65 84 21 0
102 103 110 101 2 42 34 37 31 35 39 0
102 103 110 101 55 47 5 52 45 50 53 0
102 103 110 101 99 79 94 26 69 87 98 0
102 103 110 101 24 12 18 10 15 1 20 0
102 103 110 108 2 42 34 37 31 35 3 0
102 103 110 108 55 47 5 52 45 50 7 0
102 103 110 108 99 79 94 26 69 87 28 0
102 103 110 108 96 76 90 65 84 22 21 0
102 103 110 2 42 34 37 31 35 3 39 0
102 103 110 55 47 5 52 45 50 7 53 0
102 103 110 99 79 94 26 69 87 28 98 0
102 103 104 106 101 108 2 42 34 37 43 0
102 103 104 106 101 108 55 47 5 52 57 0
102 103 104 106 101 108 67 60 64 70 8 0
102 103 104 106 101 108 85 72 82 88 14 0
102 103 104 106 101 108 24 12 18 27 1 0
102 103 104 106 101 108 96 76 90 97 21 0
102 103 104 106 101 2 42 34 37 43 39 0
102 103 104 106 101 55 47 5 52 57 53 0
102 103 104 106 101 67 60 64 70 8 66 0
102 103 104 106 101 85 72 82 88 14 83 0
102 103 104 106 101 24 12 18 27 1 20 0
102 103 104 106 108 2 42 34 37 43 3 0
102 103 104 106 108 55 47 5 52 57 7 0
102 103 104 106 108 67 60 64 70 8 9 0
102 103 104 106 108 85 72 82 88 14 16 0
102 103 104 106 108 96 76 90 97 22 21 0
102 103 104 106 2 42 34 37 43 3 39 0
102 103 104 106 55 47 5 52 57 7 53 0
102 103 104 106 67 60 64 70 8 9 66 0
102 103 104 106 85 72 82 88 14 16 83 0
102 103 104 101 108 2 42 34 37 43 35 0
102 103 104 101 108 55 47 5 52 57 50 0
102 103 104 101 108 67 60 64 70 8 61 0
102 103 104 101 108 24 12 18 27 15 1 0
102 103 104 101 108 96 76 90 97 84 21 0
102 103 104 101 2 42 34 37 43 35 39 0
102 103 104 101 55 47 5 52 57 50 53 0
102 103 104 101 67 60 64 70 8 61 66 0
102 103 104 101 24 12 18 27 15 1 20 0
102 103 104 108 2 42 34 37 43 35 3 0
102 103 104 108 55 47 5 52 57 50 7 0
102 103 104 108 67 60 64 70 8 61 9 0
102 103 104 108 96 76 90 97 84 22 21 0
102 103 104 2 42 34 37 43 35 3 39 0
102 103 104 55 47 5 52 57 50 7 53 0
102 103 104 67 60 64 70 8 61 9 66 0
102 103 106 101 108 2 42 34 37 43 31 0
102 103 106 101 108 55 47 5 52 57 45 0
102 103 106 101 108 85 72 82 88 62 14 0
102 103 106 101 108 24 12 18 27 10 1 0
102 103 106 101 108 96 76 90 97 65 21 0
102 103 106 101 2 42 34 37 43 31 39 0
102 103 106 101 55 47 5 52 57 45 53 0
102 103 106 101 85 72 82 88 62 14 83 0
102 103 106 101 24 12 18 27 10 1 20 0
102 103 106 108 2 42 34 37 43 31 3 0
102 103 106 108 55 47 5 52 57 45 7 0
102 103 106 108 85 72 82 88 62 14 16 0
102 103 106 108 96 76 90 97 65 22 21 0
102 103 106 2 42 34 37 43 31 3 39 0
102 103 106 55 47 5 52 57 45 7 53 0
102 103 106 85 72 82 88 62 14 16 83 0
102 103 101 108 2 42 34 37 43 31 35 0
102 103 101 108 55 47 5 52 57 45 50 0
102 103 101 108 24 12 18 27 10 15 1 0
102 103 101 108 96 76 90 97 65 84 21 0
102 103 101 2 42 34 37 43 31 35 39 0
102 103 101 55 47 5 52 57 45 50 53 0
102 103 101 24 12 18 27 10 15 1 20 0
102 103 108 2 42 34 37 43 31 35 3 0
102 103 108 55 47 5 52 57 45 50 7 0
102 103 108 96 76 90 97 65 84 22 21 0
102 103 2 42 34 37 43 31 35 3 39 0
102 103 55 47 5 52 57 45 50 7 53 0
102 107 110 104 106 101 108 2 42 34 30 0
102 107 110 104 106 101 108 92 74 51 19 0
102 107 110 104 106 101 108 99 79 58 26 0
102 107 110 104 106 101 108 67 60 46 8 0
102 107 110 104 106 101 108 85 72 49 14 0
102 107 110 104 106 101 108 24 12 6 1 0
102 107 110 104 106 101 108 96 76 54 21 0
102 107 110 104 106 101 2 42 34 30 39 0
102 107 110 104 106 101 92 74 51 19 89 0
102 107 110 104 106 101 99 79 58 26 98 0
102 107 110 104 106 101 67 60 46 8 66 0
102 107 110 104 106 101 85 72 49 14 83 0
102 107 110 104 106 101 24 12 6 1 20 0
102 107 110 104 106 108 2 42 34 30 3 0
102 107 110 104 106 108 92 74 51 19 17 0
102 107 110 104 106 108 99 79 58 26 28 0
102 107 110 104 106 108 67 60 46 8 9 0
102 107 110 104 106 108 85 72 49 14 16 0
102 107 110 104 106 108 96 76 54 22 21 0
102 107 110 104 106 2 42 34 30 3 39 0
102 107 110 104 106 92 74 51 19 17 89 0
102 107 110 104 106 99 79 58 26 28 98 0
102 107 110 104 106 67 60 46 8 9 66 0
102 107 110 104 106 85 72 49 14 16 83 0
102 107 110 104 101 108 2 42 34 30 35 0
102 107 110 104 101 108 92 74 51 19 81 0
102 107 110 104 101 108 99 79 58 26 87 0
102 107 110 104 101 108 67 60 46 8 61 0
102 107 110 104 101 108 24 12 6 15 1 0
102 107 110 104 101 108 96 76 54 84 21 0
102 107 110 104 101 2 42 34 30 35 39 0
102 107 110 104 101 92 74 51 19 81 89 0
102 107 110 104 101 99 79 58 26 87 98 0
102 107 110 104 101 67 60 46 8 61 66 0
102 107 110 104 101 24 12 6 15 1 20 0
102 107 110 104 108 2 42 34 30 35 3 0
102 107 110 104 108 92 74 51 19 81 17 0
102 107 110 104 108 99 79 58 26 87 28 0
102 107 110 104 108 67 60 46 8 61 9 0
102 107 110 104 108 96 76 54 84 22 21 0
102 107 110 104 2 42 34 30 35 3 39 0
102 107 110 104 92 74 51 19 81 17 89 0
102 107 110 104 99 79 58 26 87 28 98 0
102 107 110 104 67 60 46 8 61 9 66 0
102 107 110 106 101 108 2 42 34 30 31 0
102 107 110 106 101 108 92 74 51 19 63 0
102 107 110 106 101 108 99 79 58 26 69 0
102 107 110 106 101 108 85 72 49 62 14 0
102 107 110 106 101 108 24 12 6 10 1 0
102 107 110 106 101 108 96 76 54 65 21 0
102 107 110 106 101 2 42 34 30 31 39 0
102 107 110 106 101 92 74 51 19 63 89 0
102 107 110 106 101 99 79 58 26 69 98 0
102 107 110 106 101 85 72 49 62 14 83 0
102 107 110 106 101 24 12 6 10 1 20 0
102 107 110 106 108 2 42 34 30 31 3 0
102 107 110 106 108 92 74 51 19 63 17 0
102 107 110 106 108 99 79 58 26 69 28 0
102 107 110 106 108 85 72 49 62 14 16 0
102 107 110 106 108 96 76 54 65 22 21 0
102 107 110 106 2 42 34 30 31 3 39 0
102 107 110 106 92 74 51 19 63 17 89 0
102 107 110 106 99 79 58 26 69 28 98 0
102 107 110 106 85 72 49 62 14 16 83 0
102 107 110 101 108 2 42 34 30 31 35 0
102 107 110 101 108 92 74 51 19 63 81 0
102 107 110 101 108 99 79 58 26 69 87 0
102 107 110 101 108 24 12 6 10 15 1 0
102 107 110 101 108 96 76 54 65 84 21 0
102 107 110 101 2 42 34 30 31 35 39 0
102 107 110 101 92 74 51 19 63 81 89 0
102 107 110 101 99 79 58 26 69 87 98 0
102 107 110 101 24 12 6 10 15 1 20 0
102 107 110 108 2 42 34 30 31 35 3 0
102 107 110 108 92 74 51 19 63 81 17 0
102 107 110 108 99 79 58 26 69 87 28 0
102 107 110 108 96 76 54 65 84 22 21 0
102 107 110 2 42 34 30 31 35 3 39 0
102 107 110 92 74 51 19 63 81 17 89 0
102 107 110 99 79 58 26 69 87 28 98 0
102 107 104 106 101 108 2 42 34 30 43 0
102 107 104 106 101 108 92 74 51 19 93 0
102 107 104 106 101 108 67 60 46 70 8 0
102 107 104 106 101 108 85 72 49 88 14 0
102 107 104 106 101 108 24 12 6 27 1 0
102 107 104 106 101 108 96 76 54 97 21 0
102 107 104 106 101 2 42 34 30 43 39 0
102 107 104 106 101 92 74 51 19 93 89 0
102 107 104 106 101 67 60 46 70 8 66 0
102 107 104 106 101 85 72 49 88 14 83 0
102 107 104 106 101 24 12 6 27 1 20 0
102 107 104 106 108 2 42 34 30 43 3 0
102 107 104 106 108 92 74 51 19 93 17 0
102 107 104 106 108 67 60 46 70 8 9 0
102 107 104 106 108 85 72 49 88 14 16 0
102 107 104 106 108 96 76 54 97 22 21 0
102 107 104 106 2 42 34 30 43 3 39 0
102 107 104 106 92 74 51 19 93 17 89 0
102 107 104 106 67 60 46 70 8 9 66 0
102 107 104 106 85 72 49 88 14 16 83 0
102 107 104 101 108 2 42 34 30 43 35 0
102 107 104 101 108 92 74 51 19 93 81 0
102 107 104 101 108 67 60 46 70 8 61 0
102 107 104 101 108 24 12 6 27 15 1 0
102 107 104 101 108 96 76 54 97 84 21 0
102 107 104 101 2 42 34 30 43 35 39 0
102 107 104 101 92 74 51 19 93 81 89 0
102 107 104 101 67 60 46 70 8 61 66 0
102 107 104 101 24 12 6 27 15 1 20 0
102 107 104 108 2 42 34 30 43 35 3 0
102 107 104 108 92 74 51 19 93 81 17 0
102 107 104 108 67 60 46 70 8 61 9 0
102 107 104 108 96 76 54 97 84 22 21 0
102 107 104 2 42 34 30 43 35 3 39 0
102 107 104 92 74 51 19 93 81 17 89 0
102 107 104 67 60 46 70 8 61 9 66 0
102 107 106 101 108 2 42 34 30 43 31 0
102 107 106 101 108 92 74 51 19 93 63 0
102 107 106 101 108 85 72 49 88 62 14 0
102 107 106 101 108 24 12 6 27 10 1 0
102 107 106 101 108 96 76 54 97 65 21 0
102 107 106 101 2 42 34 30 43 31 39 0
102 107 106 101 92 74 51 19 93 63 89 0
102 107 106 101 85 72 49 88 62 14 83 0
102 107 106 101 24 12 6 27 10 1 20 0
102 107 106 108 2 42 34 30 43 31 3 0
102 107 106 108 92 74 51 19 93 63 17 0
102 107 106 108 85 72 49 88 62 14 16 0
102 107 106 108 96 76 54 97 65 22 21 0
102 107 106 2 42 34 30 43 31 3 39 0
102 107 106 92 74 51 19 93 63 17 89 0
102 107 106 85 72 49 88 62 14 16 83 0
102 107 101 108 2 42 34 30 43 31 35 0
102 107 101 108 92 74 51 19 93 63 81 0
102 107 101 108 24 12 6 27 10 15 1 0
102 107 101 108 96 76 54 97 65 84 21 0
102 107 101 2 42 34 30 43 31 35 39 0
102 107 101 92 74 51 19 93 63 81 89 0
102 107 101 24 12 6 27 10 15 1 20 0
102 107 108 2 42 34 30 43 31 35 3 0
102 107 108 92 74 51 19 93 63 81 17 0
102 107 108 96 76 54 97 65 84 22 21 0
102 107 2 42 34 30 43 31 35 3 39 0
102 107 92 74 51 19 93 63 81 17 89 0
102 110 104 106 101 108 2 42 34 30 37 0
102 110 104 106 101 108 99 79 58 94 26 0
102 110 104 106 101 108 67 60 46 64 8 0
102 110 104 106 101 108 85 72 49 82 14 0
102 110 104 106 101 108 24 12 6 18 1 0
102 110 104 106 101 108 96 76 54 90 21 0
102 110 104 106 101 2 42 34 30 37 39 0
102 110 104 106 101 99 79 58 94 26 98 0
102 110 104 106 101 67 60 46 64 8 66 0
102 110 104 106 101 85 72 49 82 14 83 0
102 110 104 106 101 24 12 6 18 1 20 0
102 110 104 106 108 2 42 34 30 37 3 0
102 110 104 106 108 99 79 58 94 26 28 0
102 110 104 106 108 67 60 46 64 8 9 0
102 110 104 106 108 85 72 49 82 14 16 0
102 110 104 106 108 96 76 54 90 22 21 0
102 110 104 106 2 42 34 30 37 3 39 0
102 110 104 106 99 79 58 94 26 28 98 0
102 110 104 106 67 60 46 64 8 9 66 0
102 110 104 106 85 72 49 82 14 16 83 0
102 110 104 101 108 2 42 34 30 37 35 0
102 110 104 101 108 99 79 58 94 26 87 0
102 110 104 101 108 67 60 46 64 8 61 0
102 110 104 101 108 24 12 6 18 15 1 0
102 110 104 101 108 96 76 54 90 84 21 0
102 110 104 101 2 42 34 30 37 35 39 0
102 110 104 101 99 79 58 94 26 87 98 0
102 110 104 101 67 60 46 64 8 61 66 0
102 110 104 101 24 12 6 18 15 1 20 0
102 110 104 108 2 42 34 30 37 35 3 0
102 110 104 108 99 79 58 94 26 87 28 0
102 110 104 108 67 60 46 64 8 61 9 0
102 110 104 108 96 76 54 90 84 22 21 0
102 110 104 2 42 34 30 37 35 3 39 0
102 110 104 99 79 58 94 26 87 28 98 0
102 110 104 67 60 46 64 8 61 9 66 0
102 110 106 101 108 2 42 34 30 37 31 0
102 110 106 101 108 99 79 58 94 26 69 0
102 110 106 101 108 85 72 49 82 62 14 0
102 110 106 101 108 24 12 6 18 10 1 0
102 110 106 101 108 96 76 54 90 65 21 0
102 110 106 101 2 42 34 30 37 31 39 0
102 110 106 101 99 79 58 94 26 69 98 0
102 110 106 101 85 72 49 82 62 14 83 0
102 110 106 101 24 12 6 18 10 1 20 0
102 110 106 108 2 42 34 30 37 31 3 0
102 110 106 108 99 79 58 94 26 69 28 0
102 110 106 108 85 72 49 82 62 14 16 0
102 110 106 108 96 76 54 90 65 22 21 0
102 110 106 2 42 34 30 37 31 3 39 0
102 110 106 99 79 58 94 26 69 28 98 0
102 110 106 85 72 49 82 62 14 16 83 0
102 110 101 108 2 42 34 30 37 31 35 0
102 110 101 108 99 79 58 94 26 69 87 0
102 110 101 108 24 12 6 18 10 15 1 0
102 110 101 108 96 76 54 90 65 84 21 0
102 110 101 2 42 34 30 37 31 35 39 0
102 110 101 99 79 58 94 26 69 87 98 0
102 110 101 24 12 6 18 10 15 1 20 0
102 110 108 2 42 34 30 37 31 35 3 0
102 110 108 99 79 58 94 26 69 87 28 0
102 110 108 96 76 54 90 65 84 22 21 0
102 110 2 42 34 30 37 31 35 3 39 0
102 110 99 79 58 94 26 69 87 28 98 0
102 104 106 101 108 2 42 34 30 37 43 0
102 104 106 101 108 67 60 46 64 70 8 0
102 104 106 101 108 85 72 49 82 88 14 0
102 104 106 101 108 24 12 6 18 27 1 0
102 104 106 101 108 96 76 54 90 97 21 0
102 104 106 101 2 42 34 30 37 43 39 0
102 104 106 101 67 60 46 64 70 8 66 0
102 104 106 101 85 72 49 82 88 14 83 0
102 104 106 101 24 12 6 18 27 1 20 0
102 104 106 108 2 42 34 30 37 43 3 0
102 104 106 108 67 60 46 64 70 8 9 0
102 104 106 108 85 72 49 82 88 14 16 0
102 104 106 108 96 76 54 90 97 22 21 0
102 104 106 2 42 34 30 37 43 3 39 0
102 104 106 67 60 46 64 70 8 9 66 0
102 104 106 85 72 49 82 88 14 16 83 0
102 104 101 108 2 42 34 30 37 43 35 0
102 104 101 108 67 60 46 64 70 8 61 0
102 104 101 108 24 12 6 18 27 15 1 0
102 104 101 108 96 76 54 90 97 84 21 0
102 104 101 2 42 34 30 37 43 35 39 0
102 104 101 67 60 46 64 70 8 61 66 0
102 104 101 24 12 6 18 27 15 1 20 0
102 104 108 2 42 34 30 37 43 35 3 0
102 104 108 67 60 46 64 70 8 61 9 0
102 104 108 96 76 54 90 97 84 22 21 0
102 104 2 42 34 30 37 43 35 3 39 0
102 104 67 60 46 64 70 8 61 9 66 0
102 106 101 108 2 42 34 30 37 43 31 0
102 106 101 108 85 72 49 82 88 62 14 0
102 106 101 108 24 12 6 18 27 10 1 0
102 106 101 108 96 76 54 90 97 65 21 0
102 106 101 2 42 34 30 37 43 31 39 0
102 106 101 85 72 49 82 88 62 14 83 0
102 106 101 24 12 6 18 27 10 1 20 0
102 106 108 2 42 34 30 37 43 31 3 0
102 106 108 85 72 49 82 88 62 14 16 0
102 106 108 96 76 54 90 97 65 22 21 0
102 106 2 42 34 30 37 43 31 3 39 0
102 106 85 72 49 82 88 62 14 16 83 0
102 101 108 2 42 34 30 37 43 31 35 0
102 101 108 24 12 6 18 27 10 15 1 0
102 101 108 96 76 54 90 97 65 84 21 0
102 101 2 42 34 30 37 43 31 35 39 0
102 101 24 12 6 18 27 10 15 1 20 0
102 108 2 42 34 30 37 43 31 35 3 0
102 108 96 76 54 90 97 65 84 22 21 0
102 2 42 34 30 37 43 31 35 3 39 0
109 105 103 107 110 104 106 101 108 41 23 0
109 105 103 107 110 104 106 101 108 33 13 0
109 105 103 107 110 104 106 101 108 29 5 0
109 105 103 107 110 104 106 101 108 38 19 0
109 105 103 107 110 104 106 101 108 44 26 0
109 105 103 107 110 104 106 101 108 32 8 0
109 105 103 107 110 104 106 101 108 36 14 0
109 105 103 107 110 104 106 101 108 4 1 0
109 105 103 107 110 104 106 101 108 40 21 0
109 105 103 107 110 104 106 101 41 23 95 0
109 105 103 107 110 104 106 101 33 13 75 0
109 105 103 107 110 104 106 101 29 5 53 0
109 105 103 107 110 104 106 101 38 19 89 0
109 105 103 107 110 104 106 101 44 26 98 0
109 105 103 107 110 104 106 101 32 8 66 0
109 105 103 107 110 104 106 101 36 14 83 0
109 105 103 107 110 104 106 101 4 1 20 0
109 105 103 107 110 104 106 108 41 23 25 0
109 105 103 107 110 104 106 108 33 13 11 0
109 105 103 107 110 104 106 108 29 5 7 0
109 105 103 107 110 104 106 108 38 19 17 0
109 105 103 107 110 104 106 108 44 26 28 0
109 105 103 107 110 104 106 108 32 8 9 0
109 105 103 107 110 104 106 108 36 14 16 0
109 105 103 107 110 104 106 108 40 22 21 0
109 105 103 107 110 104 106 41 23 25 95 0
109 105 103 107 110 104 106 33 13 11 75 0
109 105 103 107 110 104 106 29 5 7 53 0
109 105 103 107 110 104 106 38 19 17 89 0
109 105 103 107 110 104 106 44 26 28 98 0
109 105 103 107 110 104 106 32 8 9 66 0
109 105 103 107 110 104 106 36 14 16 83 0
109 105 103 107 110 104 101 108 41 23 86 0
109 105 103 107 110 104 101 108 33 13 71 0
109 105 103 107 110 104 101 108 29 5 50 0
109 105 103 107 110 104 101 108 38 19 81 0
109 105 103 107 110 104 101 108 44 26 87 0
109 105 103 107 110 104 101 108 32 8 61 0
109 105 103 107 110 104 101 108 4 15 1 0
109 105 103 107 110 104 101 108 40 84 21 0
109 105 103 107 110 104 101 41 23 86 95 0
109 105 103 107 110 104 101 33 13 71 75 0
109 105 103 107 110 104 101 29 5 50 53 0
109 105 103 107 110 104 101 38 19 81 89 0
109 105 103 107 110 104 101 44 26 87 98 0
109 105 103 107 110 104 101 32 8 61 66 0
109 105 103 107 110 104 101 4 15 1 20 0
109 105 103 107 110 104 108 41 23 86 25 0
109 105 103 107 110 104 108 33 13 71 11 0
109 105 103 107 110 104 108 29 5 50 7 0
109 105 103 107 110 104 108 38 19 81 17 0
109 105 103 107 110 104 108 44 26 87 28 0
109 105 103 107 110 104 108 32 8 61 9 0
109 105 103 107 110 104 108 40 84 22 21 0
109 105 103 107 110 104 41 23 86 25 95 0
109 105 103 107 110 104 33 13 71 11 75 0
109 105 103 107 110 104 29 5 50 7 53 0
109 105 103 107 110 104 38 19 81 17 89 0
109 105 103 107 110 104 44 26 87 28 98 0
109 105 103 107 110 104 32 8 61 9 66 0
109 105 103 107 110 106 101 108 41 23 68 0
109 105 103 107 110 106 101 108 33 13 59 0
109 105 103 107 110 106 101 108 29 5 45 0
109 105 103 107 110 106 101 108 38 19 63 0
109 105 103 107 110 106 101 108 44 26 69 0
109 105 103 107 110 106 101 108 36 62 14 0
109 105 103 107 110 106 101 108 4 10 1 0
109 105 103 107 110 106 101 108 40 65 21 0
109 105 103 107 110 106 101 41 23 68 95 0
109 105 103 107 110 106 101 33 13 59 75 0
109 105 103 107 110 106 101 29 5 45 53 0
109 105 103 107 110 106 101 38 19 63 89 0
109 105 103 107 110 106 101 44 26 69 98 0
109 105 103 107 110 106 101 36 62 14 83 0
109 105 103 107 110 106 101 4 10 1 20 0
109 105 103 107 110 106 108 41 23 68 25 0
109 105 103 107 110 106 108 33 13 59 11 0
109 105 103 107 110 106 108 29 5 45 7 0
109 105 103 107 110 106 108 38 19 63 17 0
109 105 103 107 110 106 108 44 26 69 28 0
109 105 103 107 110 106 108 36 62 14 16 0
109 105 103 107 110 106 108 40 65 22 21 0
109 105 103 107 110 106 41 23 68 25 95 0
109 105 103 107 110 106 33 13 59 11 75 0
109 105 103 107 110 106 29 5 45 7 53 0
109 105 103 107 110 106 38 19 63 17 89 0
109 105 103 107 110 106 44 26 69 28 98 0
109 105 103 107 110 106 36 62 14 16 83 0
109 105 103 107 110 101 108 41 23 68 86 0
109 105 103 107 110 101 108 33 13 59 71 0
109 105 103 107 110 101 108 29 5 45 50 0
109 105 103 107 110 101 108 38 19 63 81 0
109 105 103 107 110 101 108 44 26 69 87 0
109 105 103 107 110 101 108 4 10 15 1 0
109 105 103 107 110 101 108 40 65 84 21 0
109 105 103 107 110 101 41 23 68 86 95 0
109 105 103 107 110 101 33 13 59 71 75 0
109 105 103 107 110 101 29 5 45 50 53 0
109 105 103 107 110 101 38 19 63 81 89 0
109 105 103 107 110 101 44 26 69 87 98 0
109 105 103 107 110 101 4 10 15 1 20 0
109 105 103 107 110 108 41 23 68 86 25 0
109 105 103 107 110 108 33 13 59 71 11 0
109 105 103 107 110 108 29 5 45 50 7 0
109 105 103 107 110 108 38 19 63 81 17 0
109 105 103 107 110 108 44 26 69 87 28 0
109 105 103 107 110 108 40 65 84 22 21 0
109 105 103 107 110 41 23 68 86 25 95 0
109 105 103 107 110 33 13 59 71 11 75 0
109 105 103 107 110 29 5 45 50 7 53 0
109 105 103 107 110 38 19 63 81 17 89 0
109 105 103 107 110 44 26 69 87 28 98 0
109 105 103 107 104 106 101 108 41 23 100 0
109 105 103 107 104 106 101 108 33 13 80 0
109 105 103 107 104 106 101 108 29 5 57 0
109 105 103 107 104 106 101 108 38 19 93 0
109 105 103 107 104 106 101 108 32 70 8 0
109 105 103 107 104 106 101 108 36 88 14 0
109 105 103 107 104 106 101 108 4 27 1 0
109 105 103 107 104 106 101 108 40 97 21 0
109 105 103 107 104 106 101 41 23 100 95 0
109 105 103 107 104 106 101 33 13 80 75 0
109 105 103 107 104 106 101 29 5 57 53 0
109 105 103 107 104 106 101 38 19 93 89 0
109 105 103 107 104 106 101 32 70 8 66 0
109 105 103 107 104 106 101 36 88 14 83 0
109 105 103 107 104 106 101 4 27 1 20 0
109 105 103 107 104 106 108 41 23 100 25 0
109 105 103 107 104 106 108 33 13 80 11 0
109 105 103 107 104 106 108 29 5 57 7 0
109 105 103 107 104 106 108 38 19 93 17 0
109 105 103 107 104 106 108 32 70 8 9 0
109 105 103 107 104 106 108 36 88 14 16 0
109 105 103 107 104 106 108 40 97 22 21 0
109 105 103 107 104 106 41 23 100 25 95 0
109 105 103 107 104 106 33 13 80 11 75 0
109 105 103 107 104 106 29 5 57 7 53 0
109 105 103 107 104 106 38 19 93 17 89 0
109 105 103 107 104 106 32 70 8 9 66 0
109 105 103 107 104 106 36 88 14 16 83 0
109 105 103 107 104 101 108 41 23 100 86 0
109 105 103 107 104 101 108 33 13 80 71 0
109 105 103 107 104 101 108 29 5 57 50 0
109 105 103 107 104 101 108 38 19 93 81 0
109 105 103 107 104 101 108 32 70 8 61 0
109 105 103 107 104 101 108 4 27 15 1 0
109 105 103 107 104 101 108 40 97 84 21 0
109 105 103 107 104 101 41 23 100 86 95 0
109 105 103 107 104 101 33 13 80 71 75 0
109 105 103 107 104 101 29 5 57 50 53 0
109 105 103 107 104 101 38 19 93 81 89 0
109 105 103 107 104 101 32 70 8 61 66 0
109 105 103 107 104 101 4 27 15 1 20 0
109 105 103 107 104 108 41 23 100 86 25 0
109 105 103 107 104 108 33 13 80 71 11 0
109 105 103 107 104 108 29 5 57 50 7 0
109 105 103 107 104 108 38 19 93 81 17 0
109 105 103 107 104 108 32 70 8 61 9 0
109 105 103 107 104 108 40 97 84 22 21 0
109 105 103 107 104 41 23 100 86 25 95 0
109 105 103 107 104 33 13 80 71 11 75 0
109 105 103 107 104 29 5 57 50 7 53 0
109 105 103 107 104 38 19 93 81 17 89 0
109 105 103 107 104 32 70 8 61 9 66 0
109 105 103 107 106 101 108 41 23 100 68 0
109 105 103 107 106 101 108 33 13 80 59 0
109 105 103 107 106 101 108 29 5 57 45 0
109 105 103 107 106 101 108 38 19 93 63 0
109 105 103 107 106 101 108 36 88 62 14 0
109 105 103 107 106 101 108 4 27 10 1 0
109 105 103 107 106 101 108 40 97 65 21 0
109 105 103 107 106 101 41 23 100 68 95 0
109 105 103 107 106 101 33 13 80 59 75 0
109 105 103 107 106 101 29 5 57 45 53 0
109 105 103 107 106 101 38 19 93 63 89 0
109 105 103 107 106 101 36 88 62 14 83 0
109 105 103 107 106 101 4 27 10 1 20 0
109 105 103 107 106 108 41 23 100 68 25 0
109 105 103 107 106 108 33 13 80 59 11 0
109 105 103 107 106 108 29 5 57 45 7 0
109 105 103 107 106 108 38 19 93 63 17 0
109 105 103 107 106 108 36 88 62 14 16 0
109 105 103 107 106 108 40 97 65 22 21 0
109 105 103 107 106 41 23 100 68 25 95 0
109 105 103 107 106 33 13 80 59 11 75 0
109 105 103 107 106 29 5 57 45 7 53 0
109 105 103 107 106 38 19 93 63 17 89 0
109 105 103 107 106 36 88 62 14 16 83 0
109 105 103 107 101 108 41 23 100 68 86 0
109 105 103 107 101 108 33 13 80 59 71 0
109 105 103 107 101 108 29 5 57 45 50 0
109 105 103 107 101 108 38 19 93 63 81 0
109 105 103 107 101 108 4 27 10 15 1 0
109 105 103 107 101 108 40 97 65 84 21 0
109 105 103 107 101 41 23 100 68 86 95 0
109 105 103 107 101 33 13 80 59 71 75 0
109 105 103 107 101 29 5 57 45 50 53 0
109 105 103 107 101 38 19 93 63 81 89 0
109 105 103 107 101 4 27 10 15 1 20 0
109 105 103 107 108 41 23 100 68 86 25 0
109 105 103 107 108 33 13 80 59 71 11 0
109 105 103 107 108 29 5 57 45 50 7 0
109 105 103 107 108 38 19 93 63 81 17 0
109 105 103 107 108 40 97 65 84 22 21 0
109 105 103 107 41 23 100 68 86 25 95 0
109 105 103 107 33 13 80 59 71 11 75 0
109 105 103 107 29 5 57 45 50 7 53 0
109 105 103 107 38 19 93 63 81 17 89 0
109 105 103 110 104 106 101 108 41 23 91 0
109 105 103 110 104 106 101 108 33 13 73 0
109 105 103 110 104 106 101 108 29 5 52 0
109 105 103 110 104 106 101 108 44 94 26 0
109 105 103 110 104 106 101 108 32 64 8 0
109 105 103 110 104 106 101 108 36 82 14 0
109 105 103 110 104 106 101 108 4 18 1 0
109 105 103 110 104 106 101 108 40 90 21 0
109 105 103 110 104 106 101 41 23 91 95 0
109 105 103 110 104 106 101 33 13 73 75 0
109 105 103 110 104 106 101 29 5 52 53 0
109 105 103 110 104 106 101 44 94 26 98 0
109 105 103 110 104 106 101 32 64 8 66 0
109 105 103 110 104 106 101 36 82 14 83 0
109 105 103 110 104 106 101 4 18 1 20 0
109 105 103 110 104 106 108 41 23 91 25 0
109 105 103 110 104 106 108 33 13 73 11 0
109 105 103 110 104 106 108 29 5 52 7 0
109 105 103 110 104 106 108 44 94 26 28 0
109 105 103 110 104 106 108 32 64 8 9 0
109 105 103 110 104 106 108 36 82 14 16 0
109 105 103 110 104 106 108 40 90 22 21 0
109 105 103 110 104 106 41 23 91 25 95 0
109 105 103 110 104 106 33 13 73 11 75 0
109 105 103 110 104 106 29 5 52 7 53 0
109 105 103 110 104 106 44 94 26 28 98 0
109 105 103 110 104 106 32 64 8 9 66 0
109 105 103 110 104 106 36 82 14 16 83 0
109 105 103 110 104 101 108 41 23 91 86 0
109 105 103 110 104 101 108 33 13 73 71 0
109 105 103 110 104 101 108 29 5 52 50 0
109 105 103 110 104 101 108 44 94 26 87 0
109 105 103 110 104 101 108 32 64 8 61 0
109 105 103 110 104 101 108 4 18 15 1 0
109 105 103 110 104 101 108 40 90 84 21 0
109 105 103 110 104 101 41 23 91 86 95 0
109 105 103 110 104 101 33 13 73 71 75 0
109 105 103 110 104 101 29 5 52 50 53 0
109 105 103 110 104 101 44 94 26 87 98 0
109 105 103 110 104 101 32 64 8 61 66 0
109 105 103 110 104 101 4 18 15 1 20 0
109 105 103 110 104 108 41 23 91 86 25 0
109 105 103 110 104 108 33 13 73 71 11 0
109 105 103 110 104 108 29 5 52 50 7 0
109 105 103 110 104 108 44 94 26 87 28 0
109 105 103 110 104 108 32 64 8 61 9 0
109 105 103 110 104 108 40 90 84 22 21 0
109 105 103 110 104 41 23 91 86 25 95 0
109 105 103 110 104 33 13 73 71 11 75 0
109 105 103 110 104 29 5 52 50 7 53 0
109 105 103 110 104 44 94 26 87 28 98 0
109 105 103 110 104 32 64 8 61 9 66 0
109 105 103 110 106 101 108 41 23 91 68 0
109 105 103 110 106 101 108 33 13 73 59 0
109 105 103 110 106 101 108 29 5 52 45 0
109 105 103 110 106 101 108 44 94 26 69 0
109 105 103 110 106 101 108 36 82 62 14 0
109 105 103 110 106 101 108 4 18 10 1 0
109 105 103 110 106 101 108 40 90 65 21 0
109 105 103 110 106 101 41 23 91 68 95 0
109 105 103 110 106 101 33 13 73 59 75 0
109 105 103 110 106 101 29 5 52 45 53 0
109 105 103 110 106 101 44 94 26 69 98 0
109 105 103 110 106 101 36 82 62 14 83 0
109 105 103 110 106 101 4 18 10 1 20 0
109 105 103 110 106 108 41 23 91 68 25 0
109 105 103 110 106 108 33 13 73 59 11 0
109 105 103 110 106 108 29 5 52 45 7 0
109 105 103 110 106 108 44 94 26 69 28 0
109 105 103 110 106 108 36 82 62 14 16 0
109 105 103 110 106 108 40 90 65 22 21 0
109 105 103 110 106 41 23 91 68 25 95 0
109 105 103 110 106 33 13 73 59 11 75 0
109 105 103 110 106 29 5 52 45 7 53 0
109 105 103 110 106 44 94 26 69 28 98 0
109 105 103 110 106 36 82 62 14 16 83 0
109 105 103 110 101 108 41 23 91 68 86 0
109 105 103 110 101 108 33 13 73 59 71 0
109 105 103 110 101 108 29 5 52 45 50 0
109 105 103 110 101 108 44 94 26 69 87 0
109 105 103 110 101 108 4 18 10 15 1 0
109 105 103 110 101 108 40 90 65 84 21 0
109 105 103 110 101 41 23 91 68 86 95 0
109 105 103 110 101 33 13 73 59 71 75 0
109 105 103 110 101 29 5 52 45 50 53 0
109 105 103 110 101 44 94 26 69 87 98 0
109 105 103 110 101 4 18 10 15 1 20 0
109 105 103 110 108 41 23 91 68 86 25 0
109 105 103 110 108 33 13 73 59 71 11 0
109 105 103 110 108 29 5 52 45 50 7 0
109 105 103 110 108 44 94 26 69 87 28 0
109 105 103 110 108 40 90 65 84 22 21 0
109 105 103 110 41 23 91 68 86 25 95 0
109 105 103 110 33 13 73 59 71 11 75 0
109 105 103 110 29 5 52 45 50 7 53 0
109 105 103 110 44 94 26 69 87 28 98 0
109 105 103 104 106 101 108 41 23 91 100 0
109 105 103 104 106 101 108 33 13 73 80 0
109 105 103 104 106 101 108 29 5 52 57 0
109 105 103 104 106 101 108 32 64 70 8 0
109 105 103 104 106 101 108 36 82 88 14 0
109 105 103 104 106 101 108 4 18 27 1 0
109 105 103 104 106 101 108 40 90 97 21 0
109 105 103 104 106 101 41 23 91 100 95 0
109 105 103 104 106 101 33 13 73 80 75 0
109 105 103 104 106 101 29 5 52 57 53 0
109 105 103 104 106 101 32 64 70 8 66 0
109 105 103 104 106 101 36 82 88 14 83 0
109 105 103 104 106 101 4 18 27 1 20 0
109 105 103 104 106 108 41 23 91 100 25 0
109 105 103 104 106 108 33 13 73 80 11 0
109 105 103 104 106 108 29 5 52 57 7 0
109 105 103 104 106 108 32 64 70 8 9 0
109 105 103 104 106 108 36 82 88 14 16 0
109 105 103 104 106 108 40 90 97 22 21 0
109 105 103 104 106 41 23 91 100 25 95 0
109 105 103 104 106 33 13 73 80 11 75 0
109 105 103 104 106 29 5 52 57 7 53 0
109 105 103 104 106 32 64 70 8 9 66 0
109 105 103 104 106 36 82 88 14 16 83 0
109 105 103 104 101 108 41 23 91 100 86 0
109 105 103 104 101 108 33 13 73 80 71 0
109 105 103 104 101 108 29 5 52 57 50 0
109 105 103 104 101 108 32 64 70 8 61 0
109 105 103 104 101 108 4 18 27 15 1 0
109 105 103 104 101 108 40 90 97 84 21 0
109 105 103 104 101 41 23 91 100 86 95 0
109 105 103 104 101 33 13 73 80 71 75 0
109 105 103 104 101 29 5 52 57 50 53 0
109 105 103 104 101 32 64 70 8 61 66 0
109 105 103 104 101 4 18 27 15 1 20 0
109 105 103 104 108 41 23 91 100 86 25 0
109 105 103 104 108 33 13 73 80 71 11 0
109 105 103 104 108 29 5 52 57 50 7 0
109 105 103 104 108 32 64 70 8 61 9 0
109 105 103 104 108 40 90 97 84 22 21 0
109 105 103 104 41 23 91 100 86 25 95 0
109 105 103 104 33 13 73 80 71 11 75 0
109 105 103 104 29 5 52 57 50 7 53 0
109 105 103 104 32 64 70 8 61 9 66 0
109 105 103 106 101 108 41 23 91 100 68 0
109 105 103 106 101 108 33 13 73 80 59 0
109 105 103 106 101 108 29 5 52 57 45 0
109 105 103 106 101 108 36 82 88 62 14 0
109 105 103 106 101 108 4 18 27 10 1 0
109 105 103 106 101 108 40 90 97 65 21 0
109 105 103 106 101 41 23 91 100 68 95 0
109 105 103 106 101 33 13 73 80 59 75 0
109 105 103 106 101 29 5 52 57 45 53 0
109 105 103 106 101 36 82 88 62 14 83 0
109 105 103 106 101 4 18 27 10 1 20 0
109 105 103 106 108 41 23 91 100 68 25 0
109 105 103 106 108 33 13 73 80 59 11 0
109 105 103 106 108 29 5 52 57 45 7 0
109 105 103 106 108 36 82 88 62 14 16 0
109 105 103 106 108 40 90 97 65 22 21 0
109 105 103 106 41 23 91 100 68 25 95 0
109 105 103 106 33 13 73 80 59 11 75 0
109 105 103 106 29 5 52 57 45 7 53 0
109 105 103 106 36 82 88 62 14 16 83 0
109 105 103 101 108 41 23 91 100 68 86 0
109 105 103 101 108 33 13 73 80 59 71 0
109 105 103 101 108 29 5 52 57 45 50 0
109 105 103 101 108 4 18 27 10 15 1 0
109 105 103 101 108 40 90 97 65 84 21 0
109 105 103 101 41 23 91 100 68 86 95 0
109 105 103 101 33 13 73 80 59 71 75 0
109 105 103 101 29 5 52 57 45 50 53 0
109 105 103 101 4 18 27 10 15 1 20 0
109 105 103 108 41 23 91 100 68 86 25 0
109 105 103 108 33 13 73 80 59 71 11 0
109 105 103 108 29 5 52 57 45 50 7 0
109 105 103 108 40 90 97 65 84 22 21 0
109 105 103 41 23 91 100 68 86 25 95 0
109 105 103 33 13 73 80 59 71 11 75 0
109 105 103 29 5 52 57 45 50 7 53 0
109 105 107 110 104 106 101 108 41 23 56 0
109 105 107 110 104 106 101 108 33 13 48 0
109 105 107 110 104 106 101 108 38 51 19 0
109 105 107 110 104 106 101 108 44 58 26 0
109 105 107 110 104 106 101 108 32 46 8 0
109 105 107 110 104 106 101 108 36 49 14 0
109 105 107 110 104 106 101 108 4 6 1 0
109 105 107 110 104 106 101 108 40 54 21 0
109 105 107 110 104 106 101 41 23 56 95 0
109 105 107 110 104 106 101 33 13 48 75 0
109 105 107 110 104 106 101 38 51 19 89 0
109 105 107 110 104 106 101 44 58 26 98 0
109 105 107 110 104 106 101 32 46 8 66 0
109 105 107 110 104 106 101 36 49 14 83 0
109 105 107 110 104 106 101 4 6 1 20 0
109 105 107 110 104 106 108 41 23 56 25 0
109 105 107 110 104 106 108 33 13 48 11 0
109 105 107 110 104 106 108 38 51 19 17 0
109 105 107 110 104 106 108 44 58 26 28 0
109 105 107 110 104 106 108 32 46 8 9 0
109 105 107 110 104 106 108 36 49 14 16 0
109 105 107 110 104 106 108 40 54 22 21 0
109 105 107 110 104 106 41 23 56 25 95 0
109 105 107 110 104 106 33 13 48 11 75 0
109 105 107 110 104 106 38 51 19 17 89 0
109 105 107 110 104 106 44 58 26 28 98 0
109 105 107 110 104 106 32 46 8 9 66 0
109 105 107 110 104 106 36 49 14 16 83 0
109 105 107 110 104 101 108 41 23 56 86 0
109 105 107 110 104 101 108 33 13 48 71 0
109 105 107 110 104 101 108 38 51 19 81 0
109 105 107 110 104 101 108 44 58 26 87 0
109 105 107 110 104 101 108 32 46 8 61 0
109 105 107 110 104 101 108 4 6 15 1 0
109 105 107 110 104 101 108 40 54 84 21 0
109 105 107 110 104 101 41 23 56 86 95 0
109 105 107 110 104 101 33 13 48 71 75 0
109 105 107 110 104 101 38 51 19 81 89 0
109 105 107 110 104 101 44 58 26 87 98 0
109 105 107 110 104 101 32 46 8 61 66 0
109 105 107 110 104 101 4 6 15 1 20 0
109 105 107 110 104 108 41 23 56 86 25 0
109 105 107 110 104 108 33 13 48 71 11 0
109 105 107 110 104 108 38 51 19 81 17 0
109 105 107 110 104 108 44 58 26 87 28 0
109 105 107 110 104 108 32 46 8 61 9 0
109 105 107 110 104 108 40 54 84 22 21 0
109 105 107 110 104 41 23 56 86 25 95 0
109 105 107 110 104 33 13 48 71 11 75 0
109 105 107 110 104 38 51 19 81 17 89 0
109 105 107 110 104 44 58 26 87 28 98 0
109 105 107 110 104 32 46 8 61 9 66 0
109 105 107 110 106 101 108 41 23 56 68 0
109 105 107 110 106 101 108 33 13 48 59 0
109 105 107 110 106 101 108 38 51 19 63 0
109 105 107 110 106 101 108 44 58 26 69 0
109 105 107 110 106 101 108 36 49 62 14 0
109 105 107 110 106 101 108 4 6 10 1 0
109 105 107 110 106 101 108 40 54 65 21 0
109 105 107 110 106 101 41 23 56 68 95 0
109 105 107 110 106 101 33 13 48 59 75 0
109 105 107 110 106 101 38 51 19 63 89 0
109 105 107 110 106 101 44 58 26 69 98 0
109 105 107 110 106 101 36 49 62 14 83 0
109 105 107 110 106 101 4 6 10 1 20 0
109 105 107 110 106 108 41 23 56 68 25 0
109 105 107 110 106 108 33 13 48 59 11 0
109 105 107 110 106 108 38 51 19 63 17 0
109 105 107 110 106 108 44 58 26 69 28 0
109 105 107 110 106 108 36 49 62 14 16 0
109 105 107 110 106 108 40 54 65 22 21 0
109 105 107 110 106 41 23 56 68 25 95 0
109 105 107 110 106 33 13 48 59 11 75 0
109 105 107 110 106 38 51 19 63 17 89 0
109 105 107 110 106 44 58 26 69 28 98 0
109 105 107 110 106 36 49 62 14 16 83 0
109 105 107 110 101 108 41 23 56 68 86 0
109 105 107 110 101 108 33 13 48 59 71 0
109 105 107 110 101 108 38 51 19 63 81 0
109 105 107 110 101 108 44 58 26 69 87 0
109 105 107 110 101 108 4 6 10 15 1 0
109 105 107 110 101 108 40 54 65 84 21 0
109 105 107 110 101 41 23 56 68 86 95 0
109 105 107 110 101 33 13 48 59 71 75 0
109 105 107 110 101 38 51 19 63 81 89 0
109 105 107 110 101 44 58 26 69 87 98 0
109 105 107 110 101 4 6 10 15 1 20 0
109 105 107 110 108 41 23 56 68 86 25 0
109 105 107 110 108 33 13 48 59 71 11 0
109 105 107 110 108 38 51 19 63 81 17 0
109 105 107 110 108 44 58 26 69 87 28 0
109 105 107 110 108 40 54 65 84 22 21 0
109 105 107 110 41 23 56 68 86 25 95 0
109 105 107 110 33 13 48 59 71 11 75 0
109 105 107 110 38 51 19 63 81 17 89 0
109 105 107 110 44 58 26 69 87 28 98 0
109 105 107 104 106 101 108 41 23 56 100 0
109 105 107 104 106 101 108 33 13 48 80 0
109 105 107 104 106 101 108 38 51 19 93 0
109 105 107 104 106 101 108 32 46 70 8 0
109 105 107 104 106 101 108 36 49 88 14 0
109 105 107 104 106 101 108 4 6 27 1 0
109 105 107 104 106 101 108 40 54 97 21 0
109 105 107 104 106 101 41 23 56 100 95 0
109 105 107 104 106 101 33 13 48 80 75 0
109 105 107 104 106 101 38 51 19 93 89 0
109 105 107 104 106 101 32 46 70 8 66 0
109 105 107 104 106 101 36 49 88 14 83 0
109 105 107 104 106 101 4 6 27 1 20 0
109 105 107 104 106 108 41 23 56 100 25 0
109 105 107 104 106 108 33 13 48 80 11 0
109 105 107 104 106 108 38 51 19 93 17 0
109 105 107 104 106 108 32 46 70 8 9 0
109 105 107 104 106 108 36 49 88 14 16 0
109 105 107 104 106 108 40 54 97 22 21 0
109 105 107 104 106 41 23 56 100 25 95 0
109 105 107 104 106 33 13 48 80 11 75 0
109 105 107 104 106 38 51 19 93 17 89 0
109 105 107 104 106 32 46 70 8 9 66 0
109 105 107 104 106 36 49 88 14 16 83 0
109 105 107 104 101 108 41 23 56 100 86 0
109 105 107 104 101 108 33 13 48 80 71 0
109 105 107 104 101 108 38 51 19 93 81 0
109 105 107 104 101 108 32 46 70 8 61 0
109 105 107 104 101 108 4 6 27 15 1 0
109 105 107 104 101 108 40 54 97 84 21 0
109 105 107 104 101 41 23 56 100 86 95 0
109 105 107 104 101 33 13 48 80 71 75 0
109 105 107 104 101 38 51 19 93 81 89 0
109 105 107 104 101 32 46 70 8 61 66 0
109 105 107 104 101 4 6 27 15 1 20 0
109 105 107 104 108 41 23 56 100 86 25 0
109 105 107 104 108 33 13 48 80 71 11 0
109 105 107 104 108 38 51 19 93 81 17 0
109 105 107 104 108 32 46 70 8 61 9 0
109 105 107 104 108 40 54 97 84 22 21 0
109 105 107 104 41 23 56 100 86 25 95 0
109 105 107 104 33 13 48 80 71 11 75 0
109 105 107 104 38 51 19 93 81 17 89 0
109 105 107 104 32 46 70 8 61 9 66 0
109 105 107 106 101 108 41 23 56 100 68 0
109 105 107 106 101 108 33 13 48 80 59 0
109 105 107 106 101 108 38 51 19 93 63 0
109 105 107 106 101 108 36 49 88 62 14 0
109 105 107 106 101 108 4 6 27 10 1 0
109 105 107 106 101 108 40 54 97 65 21 0
109 105 107 106 101 41 23 56 100 68 95 0
109 105 107 106 101 33 13 48 80 59 75 0
109 105 107 106 101 38 51 19 93 63 89 0
109 105 107 106 101 36 49 88 62 14 83 0
109 105 107 106 101 4 6 27 10 1 20 0
109 105 107 106 108 41 23 56 100 68 25 0
109 105 107 106 108 33 13 48 80 59 11 0
109 105 107 106 108 38 51 19 93 63 17 0
109 105 107 106 108 36 49 88 62 14 16 0
109 105 107 106 108 40 54 97 65 22 21 0
109 105 107 106 41 23 56 100 68 25 95 0
109 105 107 106 33 13 48 80 59 11 75 0
109 105 107 106 38 51 19 93 63 17 89 0
109 105 107 106 36 49 88 62 14 16 83 0
109 105 107 101 108 41 23 56 100 68 86 0
109 105 107 101 108 33 13 48 80 59 71 0
109 105 107 101 108 38 51 19 93 63 81 0
109 105 107 101 108 4 6 27 10 15 1 0
109 105 107 101 108 40 54 97 65 84 21 0
109 105 107 101 41 23 56 100 68 86 95 0
109 105 107 101 33 13 48 80 59 71 75 0
109 105 107 101 38 51 19 93 63 81 89 0
109 105 107 101 4 6 27 10 15 1 20 0
109 105 107 108 41 23 56 100 68 86 25 0
109 105 107 108 33 13 48 80 59 71 11 0
109 105 107 108 38 51 19 93 63 81 17 0
109 105 107 108 40 54 97 65 84 22 21 0
109 105 107 41 23 56 100 68 86 25 95 0
109 105 107 33 13 48 80 59 71 11 75 0
109 105 107 38 51 19 93 63 81 17 89 0
109 105 110 104 106 101 108 41 23 56 91 0
109 105 110 104 106 101 108 33 13 48 73 0
109 105 110 104 106 101 108 44 58 94 26 0
109 105 110 104 106 101 108 32 46 64 8 0
109 105 110 104 106 101 108 36 49 82 14 0
109 105 110 104 106 101 108 4 6 18 1 0
109 105 110 104 106 101 108 40 54 90 21 0
109 105 110 104 106 101 41 23 56 91 95 0
109 105 110 104 106 101 33 13 48 73 75 0
109 105 110 104 106 101 44 58 94 26 98 0
109 105 110 104 106 101 32 46 64 8 66 0
109 105 110 104 106 101 36 49 82 14 83 0
109 105 110 104 106 101 4 6 18 1 20 0
109 105 110 104 106 108 41 23 56 91 25 0
109 105 110 104 106 108 33 13 48 73 11 0
109 105 110 104 106 108 44 58 94 26 28 0
109 105 110 104 106 108 32 46 64 8 9 0
109 105 110 104 106 108 36 49 82 14 16 0
109 105 110 104 106 108 40 54 90 22 21 0
109 105 110 104 106 41 23 56 91 25 95 0
109 105 110 104 106 33 13 48 73 11 75 0
109 105 110 104 106 44 58 94 26 28 98 0
109 105 110 104 106 32 46 64 8 9 66 0
109 105 110 104 106 36 49 82 14 16 83 0
109 105 110 104 101 108 41 23 56 91 86 0
109 105 110 104 101 108 33 13 48 73 71 0
109 105 110 104 101 108 44 58 94 26 87 0
109 105 110 104 101 108 32 46 64 8 61 0
109 105 110 104 101 108 4 6 18 15 1 0
109 105 110 104 101 108 40 54 90 84 21 0
109 105 110 104 101 41 23 56 91 86 95 0
109 105 110 104 101 33 13 48 73 71 75 0
109 105 110 104 101 44 58 94 26 87 98 0
109 105 110 104 101 32 46 64 8 61 66 0
109 105 110 104 101 4 6 18 15 1 20 0
109 105 110 104 108 41 23 56 91 86 25 0
109 105 110 104 108 33 13 48 73 71 11 0
109 105 110 104 108 44 58 94 26 87 28 0
109 105 110 104 108 32 46 64 8 61 9 0
109 105 110 104 108 40 54 90 84 22 21 0
109 105 110 104 41 23 56 91 86 25 95 0
109 105 110 104 33 13 48 73 71 11 75 0
109 105 110 104 44 58 94 26 87 28 98 0
109 105 110 104 32 46 64 8 61 9 66 0
109 105 110 106 101 108 41 23 56 91 68 0
109 105 110 106 101 108 33 13 48 73 59 0
109 105 110 106 101 108 44 58 94 26 69 0
109 105 110 106 101 108 36 49 82 62 14 0
109 105 110 106 101 108 4 6 18 10 1 0
109 105 110 106 101 108 40 54 90 65 21 0
109 105 110 106 101 41 23 56 91 68 95 0
109 105 110 106 101 33 13 48 73 59 75 0
109 105 110 106 101 44 58 94 26 69 98 0
109 105 110 106 101 36 49 82 62 14 83 0
109 105 110 106 101 4 6 18 10 1 20 0
109 105 110 106 108 41 23 56 91 68 25 0
109 105 110 106 108 33 13 48 73 59 11 0
109 105 110 106 108 44 58 94 26 69 28 0
109 105 110 106 108 36 49 82 62 14 16 0
109 105 110 106 108 40 54 90 65 22 21 0
109 105 110 106 41 23 56 91 68 25 95 0
109 105 110 106 33 13 48 73 59 11 75 0
109 105 110 106 44 58 94 26 69 28 98 0
109 105 110 106 36 49 82 62 14 16 83 0
109 105 110 101 108 41 23 56 91 68 86 0
109 105 110 101 108 33 13 48 73 59 71 0
109 105 110 101 108 44 58 94 26 69 87 0
109 105 110 101 108 4 6 18 10 15 1 0
109 105 110 101 108 40 54 90 65 84 21 0
109 105 110 101 41 23 56 91 68 86 95 0
109 105 110 101 33 13 48 73 59 71 75 0
109 105 110 101 44 58 94 26 69 87 98 0
109 105 110 101 4 6 18 10 15 1 20 0
109 105 110 108 41 23 56 91 68 86 25 0
109 105 110 108 33 13 48 73 59 71 11 0
109 105 110 108 44 58 94 26 69 87 28 0
109 105 110 108 40 54 90 65 84 22 21 0
109 105 110 41 23 56 91 68 86 25 95 0
109 105 110 33 13 48 73 59 71 11 75 0
109 105 110 44 58 94 26 69 87 28 98 0
109 105 104 106 101 108 41 23 56 91 100 0
109 105 104 106 101 108 33 13 48 73 80 0
109 105 104 106 101 108 32 46 64 70 8 0
109 105 104 106 101 108 36 49 82 88 14 0
109 105 104 106 101 108 4 6 18 27 1 0
109 105 104 106 101 108 40 54 90 97 21 0
109 105 104 106 101 41 23 56 91 100 95 0
109 105 104 106 101 33 13 48 73 80 75 0
109 105 104 106 101 32 46 64 70 8 66 0
109 105 104 106 101 36 49 82 88 14 83 0
109 105 104 106 101 4 6 18 27 1 20 0
109 105 104 106 108 41 23 56 91 100 25 0
109 105 104 106 108 33 13 48 73 80 11 0
109 105 104 106 108 32 46 64 70 8 9 0
109 105 104 106 108 36 49 82 88 14 16 0
109 105 104 106 108 40 54 90 97 22 21 0
109 105 104 106 41 23 56 91 100 25 95 0
109 105 104 106 33 13 48 73 80 11 75 0
109 105 104 106 32 46 64 70 8 9 66 0
109 105 104 106 36 49 82 88 14 16 83 0
109 105 104 101 108 41 23 56 91 100 86 0
109 105 104 101 108 33 13 48 73 80 71 0
109 105 104 101 108 32 46 64 70 8 61 0
109 105 104 101 108 4 6 18 27 15 1 0
109 105 104 101 108 40 54 90 97 84 21 0
109 105 104 101 41 23 56 91 100 86 95 0
109 105 104 101 33 13 48 73 80 71 75 0
109 105 104 101 32 46 64 70 8 61 66 0
109 105 104 101 4 6 18 27 15 1 20 0
109 105 104 108 41 23 56 91 100 86 25 0
109 105 104 108 33 13 48 73 80 71 11 0
109 105 104 108 32 46 64 70 8 61 9 0
109 105 104 108 40 54 90 97 84 22 21 0
109 105 104 41 23 56 91 100 86 25 95 0
109 105 104 33 13 48 73 80 71 11 75 0
109 105 104 32 46 64 70 8 61 9 66 0
109 105 106 101 108 41 23 56 91 100 68 0
109 105 106 101 108 33 13 48 73 80 59 0
109 105 106 101 108 36 49 82 88 62 14 0
109 105 106 101 108 4 6 18 27 10 1 0
109 105 106 101 108 40 54 90 97 65 21 0
109 105 106 101 41 23 56 91 100 68 95 0
109 105 106 101 33 13 48 73 80 59 75 0
109 105 106 101 36 49 82 88 62 14 83 0
109 105 106 101 4 6 18 27 10 1 20 0
109 105 106 108 41 23 56 91 100 68 25 0
109 105 106 108 33 13 48 73 80 59 11 0
109 105 106 108 36 49 82 88 62 14 16 0
109 105 106 108 40 54 90 97 65 22 21 0
109 105 106 41 23 56 91 100 68 25 95 0
109 105 106 33 13 48 73 80 59 11 75 0
109 105 106 36 49 82 88 62 14 16 83 0
109 105 101 108 41 23 56 91 100 68 86 0
109 105 101 108 33 13 48 73 80 59 71 0
109 105 101 108 4 6 18 27 10 15 1 0
109 105 101 108 40 54 90 97 65 84 21 0
109 105 101 41 23 56 91 100 68 86 95 0
109 105 101 33 13 48 73 80 59 71 75 0
109 105 101 4 6 18 27 10 15 1 20 0
109 105 108 41 23 56 91 100 68 86 25 0
109 105 108 33 13 48 73 80 59 71 11 0
109 105 108 40 54 90 97 65 84 22 21 0
109 105 41 23 56 91 100 68 86 25 95 0
109 105 33 13 48 73 80 59 71 11 75 0
109 103 107 110 104 106 101 108 41 23 77 0
109 103 107 110 104 106 101 108 29 47 5 0
109 103 107 110 104 106 101 108 38 74 19 0
109 103 107 110 104 106 101 108 44 79 26 0
109 103 107 110 104 106 101 108 32 60 8 0
109 103 107 110 104 106 101 108 36 72 14 0
109 103 107 110 104 106 101 108 4 12 1 0
109 103 107 110 104 106 101 108 40 76 21 0
109 103 107 110 104 106 101 41 23 77 95 0
109 103 107 110 104 106 101 29 47 5 53 0
109 103 107 110 104 106 101 38 74 19 89 0
109 103 107 110 104 106 101 44 79 26 98 0
109 103 107 110 104 106 101 32 60 8 66 0
109 103 107 110 104 106 101 36 72 14 83 0
109 103 107 110 104 106 101 4 12 1 20 0
109 103 107 110 104 106 108 41 23 77 25 0
109 103 107 110 104 106 108 29 47 5 7 0
109 103 107 110 104 106 108 38 74 19 17 0
109 103 107 110 104 106 108 44 79 26 28 0
109 103 107 110 104 106 108 32 60 8 9 0
109 103 107 110 104 106 108 36 72 14 16 0
109 103 107 110 104 106 108 40 76 22 21 0
109 103 107 110 104 106 41 23 77 25 95 0
109 103 107 110 104 106 29 47 5 7 53 0
109 103 107 110 104 106 38 74 19 17 89 0
109 103 107 110 104 106 44 79 26 28 98 0
109 103 107 110 104 106 32 60 8 9 66 0
109 103 107 110 104 106 36 72 14 16 83 0
109 103 107 110 104 101 108 41 23 77 86 0
109 103 107 110 104 101 108 29 47 5 50 0
109 103 107 110 104 101 108 38 74 19 81 0
109 103 107 110 104 101 108 44 79 26 87 0
109 103 107 110 104 101 108 32 60 8 61 0
109 103 107 110 104 101 108 4 12 15 1 0
109 103 107 110 104 101 108 40 76 84 21 0
109 103 107 110 104 101 41 23 77 86 95 0
109 103 107 110 104 101 29 47 5 50 53 0
109 103 107 110 104 101 38 74 19 81 89 0
109 103 107 110 104 101 44 79 26 87 98 0
109 103 107 110 104 101 32 60 8 61 66 0
109 103 107 110 104 101 4 12 15 1 20 0
109 103 107 110 104 108 41 23 77 86 25 0
109 103 107 110 104 108 29 47 5 50 7 0
109 103 107 110 104 108 38 74 19 81 17 0
109 103 107 110 104 108 44 79 26 87 28 0
109 103 107 110 104 108 32 60 8 61 9 0
109 103 107 110 104 108 40 76 84 22 21 0
109 103 107 110 104 41 23 77 86 25 95 0
109 103 107 110 104 29 47 5 50 7 53 0
109 103 107 110 104 38 74 19 81 17 89 0
109 103 107 110 104 44 79 26 87 28 98 0
109 103 107 110 104 32 60 8 61 9 66 0
109 103 107 110 106 101 108 41 23 77 68 0
109 103 107 110 106 101 108 29 47 5 45 0
109 103 107 110 106 101 108 38 74 19 63 0
109 103 107 110 106 101 108 44 79 26 69 0
109 103 107 110 106 101 108 36 72 62 14 0
109 103 107 110 106 101 108 4 12 10 1 0
109 103 107 110 106 101 108 40 76 65 21 0
109 103 107 110 106 101 41 23 77 68 95 0
109 103 107 110 106 101 29 47 5 45 53 0
109 103 107 110 106 101 38 74 19 63 89 0
109 103 107 110 106 101 44 79 26 69 98 0
109 103 107 110 106 101 36 72 62 14 83 0
109 103 107 110 106 101 4 12 10 1 20 0
109 103 107 110 106 108 41 23 77 68 25 0
109 103 107 110 106 108 29 47 5 45 7 0
109 103 107 110 106 108 38 74 19 63 17 0
109 103 107 110 106 108 44 79 26 69 28 0
109 103 107 110 106 108 36 72 62 14 16 0
109 103 107 110 106 108 40 76 65 22 21 0
109 103 107 110 106 41 23 77 68 25 95 0
109 103 107 110 106 29 47 5 45 7 53 0
109 103 107 110 106 38 74 19 63 17 89 0
109 103 107 110 106 44 79 26 69 28 98 0
109 103 107 110 106 36 72 62 14 16 83 0
109 103 107 110 101 108 41 23 77 68 86 0
109 103 107 110 101 108 29 47 5 45 50 0
109 103 107 110 101 108 38 74 19 63 81 0
109 103 107 110 101 108 44 79 26 69 87 0
109 103 107 110 101 108 4 12 10 15 1 0
109 103 107 110 101 108 40 76 65 84 21 0
109 103 107 110 101 41 23 77 68 86 95 0
109 103 107 110 101 29 47 5 45 50 53 0
109 103 107 110 101 38 74 19 63 81 89 0
109 103 107 110 101 44 79 26 69 87 98 0
109 103 107 110 101 4 12 10 15 1 20 0
109 103 107 110 108 41 23 77 68 86 25 0
109 103 107 110 108 29 47 5 45 50 7 0
109 103 107 110 108 38 74 19 63 81 17 0
109 103 107 110 108 44 79 26 69 87 28 0
109 103 107 110 108 40 76 65 84 22 21 0
109 103 107 110 41 23 77 68 86 25 95 0
109 103 107 110 29 47 5 45 50 7 53 0
109 103 107 110 38 74 19 63 81 17 89 0
109 103 107 110 44 79 26 69 87 28 98 0
109 103 107 104 106 101 108 41 23 77 100 0
109 103 107 104 106 101 108 29 47 5 57 0
109 103 107 104 106 101 108 38 74 19 93 0
109 103 107 104 106 101 108 32 60 70 8 0
109 103 107 104 106 101 108 36 72 88 14 0
109 103 107 104 106 101 108 4 12 27 1 0
109 103 107 104 106 101 108 40 76 97 21 0
109 103 107 104 106 101 41 23 77 100 95 0
109 103 107 104 106 101 29 47 5 57 53 0
109 103 107 104 106 101 38 74 19 93 89 0
109 103 107 104 106 101 32 60 70 8 66 0
109 103 107 104 106 101 36 72 88 14 83 0
109 103 107 104 106 101 4 12 27 1 20 0
109 103 107 104 106 108 41 23 77 100 25 0
109 103 107 104 106 108 29 47 5 57 7 0
109 103 107 104 106 108 38 74 19 93 17 0
109 103 107 104 106 108 32 60 70 8 9 0
109 103 107 104 106 108 36 72 88 14 16 0
109 103 107 104 106 108 40 76 97 22 21 0
109 103 107 104 106 41 23 77 100 25 95 0
109 103 107 104 106 29 47 5 57 7 53 0
109 103 107 104 106 38 74 19 93 17 89 0
109 103 107 104 106 32 60 70 8 9 66 0
109 103 107 104 106 36 72 88 14 16 83 0
109 103 107 104 101 108 41 23 77 100 86 0
109 103 107 104 101 108 29 47 5 57 50 0
109 103 107 104 101 108 38 74 19 93 81 0
109 103 107 104 101 108 32 60 70 8 61 0
109 103 107 104 101 108 4 12 27 15 1 0
109 103 107 104 101 108 40 76 97 84 21 0
109 103 107 104 101 41 23 77 100 86 95 0
109 103 107 104 101 29 47 5 57 50 53 0
109 103 107 104 101 38 74 19 93 81 89 0
109 103 107 104 101 32 60 70 8 61 66 0
109 103 107 104 101 4 12 27 15 1 20 0
109 103 107 104 108 41 23 77 100 86 25 0
109 103 107 104 108 29 47 5 57 50 7 0
109 103 107 104 108 38 74 19 93 81 17 0
109 103 107 104 108 32 60 70 8 61 9 0
109 103 107 104 108 40 76 97 84 22 21 0
109 103 107 104 41 23 77 100 86 25 95 0
109 103 107 104 29 47 5 57 50 7 53 0
109 103 107 104 38 74 19 93 81 17 89 0
109 103 107 104 32 60 70 8 61 9 66 0
109 103 107 106 101 108 41 23 77 100 68 0
109 103 107 106 101 108 29 47 5 57 45 0
109 103 107 106 101 108 38 74 19 93 63 0
109 103 107 106 101 108 36 72 88 62 14 0
109 103 107 106 101 108 4 12 27 10 1 0
109 103 107 106 101 108 40 76 97 65 21 0
109 103 107 106 101 41 23 77 100 68 95 0
109 103 107 106 101 29 47 5 57 45 53 0
109 103 107 106 101 38 74 19 93 63 89 0
109 103 107 106 101 36 72 88 62 14 83 0
109 103 107 106 101 4 12 27 10 1 20 0
109 103 107 106 108 41 23 77 100 68 25 0
109 103 107 106 108 29 47 5 57 45 7 0
109 103 107 106 108 38 74 19 93 63 17 0
109 103 107 106 108 36 72 88 62 14 16 0
109 103 107 106 108 40 76 97 65 22 21 0
109 103 107 106 41 23 77 100 68 25 95 0
109 103 107 106 29 47 5 57 45 7 53 0
109 103 107 106 38 74 19 93 63 17 89 0
109 103 107 106 36 72 88 62 14 16 83 0
109 103 107 101 108 41 23 77 100 68 86 0
109 103 107 101 108 29 47 5 57 45 50 0
109 103 107 101 108 38 74 19 93 63 81 0
109 103 107 101 108 4 12 27 10 15 1 0
109 103 107 101 108 40 76 97 65 84 21 0
109 103 107 101 41 23 77 100 68 86 95 0
109 103 107 101 29 47 5 57 45 50 53 0
109 103 107 101 38 74 19 93 63 81 89 0
109 103 107 101 4 12 27 10 15 1 20 0
109 103 107 108 41 23 77 100 68 86 25 0
109 103 107 108 29 47 5 57 45 50 7 0
109 103 107 108 38 74 19 93 63 81 17 0
109 103 107 108 40 76 97 65 84 22 21 0
109 103 107 41 23 77 100 68 86 25 95 0
109 103 107 29 47 5 57 45 50 7 53 0
109 103 107 38 74 19 93 63 81 17 89 0
109 103 110 104 106 101 108 41 23 77 91 0
109 103 110 104 106 101 108 29 47 5 52 0
109 103 110 104 106 101 108 44 79 94 26 0
109 103 110 104 106 101 108 32 60 64 8 0
109 103 110 104 106 101 108 36 72 82 14 0
109 103 110 104 106 101 108 4 12 18 1 0
109 103 110 104 106 101 108 40 76 90 21 0
109 103 110 104 106 101 41 23 77 91 95 0
109 103 110 104 106 101 29 47 5 52 53 0
109 103 110 104 106 101 44 79 94 26 98 0
109 103 110 104 106 101 32 60 64 8 66 0
109 103 110 104 106 101 36 72 82 14 83 0
109 103 110 104 106 101 4 12 18 1 20 0
109 103 110 104 106 108 41 23 77 91 25 0
109 103 110 104 106 108 29 47 5 52 7 0
109 103 110 104 106 108 44 79 94 26 28 0
109 103 110 104 106 108 32 60 64 8 9 0
109 103 110 104 106 108 36 72 82 14 16 0
109 103 110 104 106 108 40 76 90 22 21 0
109 103 110 104 106 41 23 77 91 25 95 0
109 103 110 104 106 29 47 5 52 7 53 0
109 103 110 104 106 44 79 94 26 28 98 0
109 103 110 104 106 32 60 64 8 9 66 0
109 103 110 104 106 36 72 82 14 16 83 0
109 103 110 104 101 108 41 23 77 91 86 0
109 103 110 104 101 108 29 47 5 52 50 0
109 103 110 104 101 108 44 79 94 26 87 0
109 103 110 104 101 108 32 60 64 8 61 0
109 103 110 104 101 108 4 12 18 15 1 0
109 103 110 104 101 108 40 76 90 84 21 0
109 103 110 104 101 41 23 77 91 86 95 0
109 103 110 104 101 29 47 5 52 50 53 0
109 103 110 104 101 44 79 94 26 87 98 0
109 103 110 104 101 32 60 64 8 61 66 0
109 103 110 104 101 4 12 18 15 1 20 0
109 103 110 104 108 41 23 77 91 86 25 0
109 103 110 104 108 29 47 5 52 50 7 0
109 103 110 104 108 44 79 94 26 87 28 0
109 103 110 104 108 32 60 64 8 61 9 0
109 103 110 104 108 40 76 90 84 22 21 0
109 103 110 104 41 23 77 91 86 25 95 0
109 103 110 104 29 47 5 52 50 7 53 0
109 103 110 104 44 79 94 26 87 28 98 0
109 103 110 104 32 60 64 8 61 9 66 0
109 103 110 106 101 108 41 23 77 91 68 0
109 103 110 106 101 108 29 47 5 52 45 0
109 103 110 106 101 108 44 79 94 26 69 0
109 103 110 106 101 108 36 72 82 62 14 0
109 103 110 106 101 108 4 12 18 10 1 0
109 103 110 106 101 108 40 76 90 65 21 0
109 103 110 106 101 41 23 77 91 68 95 0
109 103 110 106 101 29 47 5 52 45 53 0
109 103 110 106 101 44 79 94 26 69 98 0
109 103 110 106 101 36 72 82 62 14 83 0
109 103 110 106 101 4 12 18 10 1 20 0
109 103 110 106 108 41 23 77 91 68 25 0
109 103 110 106 108 29 47 5 52 45 7 0
109 103 110 106 108 44 79 94 26 69 28 0
109 103 110 106 108 36 72 82 62 14 16 0
109 103 110 106 108 40 76 90 65 22 21 0
109 103 110 106 41 23 77 91 68 25 95 0
109 103 110 106 29 47 5 52 45 7 53 0
109 103 110 106 44 79 94 26 69 28 98 0
109 103 110 106 36 72 82 62 14 16 83 0
109 103 110 101 108 41 23 77 91 68 86 0
109 103 110 101 108 29 47 5 52 45 50 0
109 103 110 101 108 44 79 94 26 69 87 0
109 103 110 101 108 4 12 18 10 15 1 0
109 103 110 101 108 40 76 90 65 84 21 0
109 103 110 101 41 23 77 91 68 86 95 0
109 103 110 101 29 47 5 52 45 50 53 0
109 103 110 101 44 79 94 26 69 87 98 0
109 103 110 101 4 12 18 10 15 1 20 0
109 103 110 108 41 23 77 91 68 86 25 0
109 103 110 108 29 47 5 52 45 50 7 0
109 103 110 108 44 79 94 26 69 87 28 0
109 103 110 108 40 76 90 65 84 22 21 0
109 103 110 41 23 77 91 68 86 25 95 0
109 103 110 29 47 5 52 45 50 7 53 0
109 103 110 44 79 94 26 69 87 28 98 0
109 103 104 106 101 108 41 23 77 91 100 0
109 103 104 106 101 108 29 47 5 52 57 0
109 103 104 106 101 108 32 60 64 70 8 0
109 103 104 106 101 108 36 72 82 88 14 0
109 103 104 106 101 108 4 12 18 27 1 0
109 103 104 106 101 108 40 76 90 97 21 0
109 103 104 106 101 41 23 77 91 100 95 0
109 103 104 106 101 29 47 5 52 57 53 0
109 103 104 106 101 32 60 64 70 8 66 0
109 103 104 106 101 36 72 82 88 14 83 0
109 103 104 106 101 4 12 18 27 1 20 0
109 103 104 106 108 41 23 77 91 100 25 0
109 103 104 106 108 29 47 5 52 57 7 0
109 103 104 106 108 32 60 64 70 8 9 0
109 103 104 106 108 36 72 82 88 14 16 0
109 103 104 106 108 40 76 90 97 22 21 0
109 103 104 106 41 23 77 91 100 25 95 0
109 103 104 106 29 47 5 52 57 7 53 0
109 103 104 106 32 60 64 70 8 9 66 0
109 103 104 106 36 72 82 88 14 16 83 0
109 103 104 101 108 41 23 77 91 100 86 0
109 103 104 101 108 29 47 5 52 57 50 0
109 103 104 101 108 32 60 64 70 8 61 0
109 103 104 101 108 4 12 18 27 15 1 0
109 103 104 101 108 40 76 90 97 84 21 0
109 103 104 101 41 23 77 91 100 86 95 0
109 103 104 101 29 47 5 52 57 50 53 0
109 103 104 101 32 60 64 70 8 61 66 0
109 103 104 101 4 12 18 27 15 1 20 0
109 103 104 108 41 23 77 91 100 86 25 0
109 103 104 108 29 47 5 52 57 50 7 0
109 103 104 108 32 60 64 70 8 61 9 0
109 103 104 108 40 76 90 97 84 22 21 0
109 103 104 41 23 77 91 100 86 25 95 0
109 103 104 29 47 5 52 57 50 7 53 0
109 103 104 32 60 64 70 8 61 9 66 0
109 103 106 101 108 41 23 77 91 100 68 0
109 103 106 101 108 29 47 5 52 57 45 0
109 103 106 101 108 36 72 82 88 62 14 0
109 103 106 101 108 4 12 18 27 10 1 0
109 103 106 101 108 40 76 90 97 65 21 0
109 103 106 101 41 23 77 91 100 68 95 0
109 103 106 101 29 47 5 52 57 45 53 0
109 103 106 101 36 72 82 88 62 14 83 0
109 103 106 101 4 12 18 27 10 1 20 0
109 103 106 108 41 23 77 91 100 68 25 0
109 103 106 108 29 47 5 52 57 45 7 0
109 103 106 108 36 72 82 88 62 14 16 0
109 103 106 108 40 76 90 97 65 22 21 0
109 103 106 41 23 77 91 100 68 25 95 0
109 103 106 29 47 5 52 57 45 7 53 0
109 103 106 36 72 82 88 62 14 16 83 0
109 103 101 108 41 23 77 91 100 68 86 0
109 103 101 108 29 47 5 52 57 45 50 0
109 103 101 108 4 12 18 27 10 15 1 0
109 103 101 108 40 76 90 97 65 84 21 0
109 103 101 41 23 77 91 100 68 86 95 0
109 103 101 29 47 5 52 57 45 50 53 0
109 103 101 4 12 18 27 10 15 1 20 0
109 103 108 41 23 77 91 100 68 86 25 0
109 103 108 29 47 5 52 57 45 50 7 0
109 103 108 40 76 90 97 65 84 22 21 0
109 103 41 23 77 91 100 68 86 25 95 0
109 103 29 47 5 52 57 45 50 7 53 0
109 107 110 104 106 101 108 41 23 77 56 0
109 107 110 104 106 101 108 38 74 51 19 0
109 107 110 104 106 101 108 44 79 58 26 0
109 107 110 104 106 101 108 32 60 46 8 0
109 107 110 104 106 101 108 36 72 49 14 0
109 107 110 104 106 101 108 4 12 6 1 0
109 107 110 104 106 101 108 40 76 54 21 0
109 107 110 104 106 101 41 23 77 56 95 0
109 107 110 104 106 101 38 74 51 19 89 0
109 107 110 104 106 101 44 79 58 26 98 0
109 107 110 104 106 101 32 60 46 8 66 0
109 107 110 104 106 101 36 72 49 14 83 0
109 107 110 104 106 101 4 12 6 1 20 0
109 107 110 104 106 108 41 23 77 56 25 0
109 107 110 104 106 108 38 74 51 19 17 0
109 107 110 104 106 108 44 79 58 26 28 0
109 107 110 104 106 108 32 60 46 8 9 0
109 107 110 104 106 108 36 72 49 14 16 0
109 107 110 104 106 108 40 76 54 22 21 0
109 107 110 104 106 41 23 77 56 25 95 0
109 107 110 104 106 38 74 51 19 17 89 0
109 107 110 104 106 44 79 58 26 28 98 0
109 107 110 104 106 32 60 46 8 9 66 0
109 107 110 104 106 36 72 49 14 16 83 0
109 107 110 104 101 108 41 23 77 56 86 0
109 107 110 104 101 108 38 74 51 19 81 0
109 107 110 104 101 108 44 79 58 26 87 0
109 107 110 104 101 108 32 60 46 8 61 0
109 107 110 104 101 108 4 12 6 15 1 0
109 107 110 104 101 108 40 76 54 84 21 0
109 107 110 104 101 41 23 77 56 86 95 0
109 107 110 104 101 38 74 51 19 81 89 0
109 107 110 104 101 44 79 58 26 87 98 0
109 107 110 104 101 32 60 46 8 61 66 0
109 107 110 104 101 4 12 6 15 1 20 0
109 107 110 104 108 41 23 77 56 86 25 0
109 107 110 104 108 38 74 51 19 81 17 0
109 107 110 104 108 44 79 58 26 87 28 0
109 107 110 104 108 32 60 46 8 61 9 0
109 107 110 104 108 40 76 54 84 22 21 0
109 107 110 104 41 23 77 56 86 25 95 0
109 107 110 104 38 74 51 19 81 17 89 0
109 107 110 104 44 79 58 26 87 28 98 0
109 107 110 104 32 60 46 8 61 9 66 0
109 107 110 106 101 108 41 23 77 56 68 0
109 107 110 106 101 108 38 74 51 19 63 0
109 107 110 106 101 108 44 79 58 26 69 0
109 107 110 106 101 108 36 72 49 62 14 0
109 107 110 106 101 108 4 12 6 10 1 0
109 107 110 106 101 108 40 76 54 65 21 0
109 107 110 106 101 41 23 77 56 68 95 0
109 107 110 106 101 38 74 51 19 63 89 0
109 107 110 106 101 44 79 58 26 69 98 0
109 107 110 106 101 36 72 49 62 14 83 0
109 107 110 106 101 4 12 6 10 1 20 0
109 107 110 106 108 41 23 77 56 68 25 0
109 107 110 106 108 38 74 51 19 63 17 0
109 107 110 106 108 44 79 58 26 69 28 0
109 107 110 106 108 36 72 49 62 14 16 0
109 107 110 106 108 40 76 54 65 22 21 0
109 107 110 106 41 23 77 56 68 25 95 0
109 107 110 106 38 74 51 19 63 17 89 0
109 107 110 106 44 79 58 26 69 28 98 0
109 107 110 106 36 72 49 62 14 16 83 0
109 107 110 101 108 41 23 77 56 68 86 0
109 107 110 101 108 38 74 51 19 63 81 0
109 107 110 101 108 44 79 58 26 69 87 0
109 107 110 101 108 4 12 6 10 15 1 0
109 107 110 101 108 40 76 54 65 84 21 0
109 107 110 101 41 23 77 56 68 86 95 0
109 107 110 101 38 74 51 19 63 81 89 0
109 107 110 101 44 79 58 26 69 87 98 0
109 107 110 101 4 12 6 10 15 1 20 0
109 107 110 108 41 23 77 56 68 86 25 0
109 107 110 108 38 74 51 19 63 81 17 0
109 107 110 108 44 79 58 26 69 87 28 0
109 107 110 108 40 76 54 65 84 22 21 0
109 107 110 41 23 77 56 68 86 25 95 0
109 107 110 38 74 51 19 63 81 17 89 0
109 107 110 44 79 58 26 69 87 28 98 0
109 107 104 106 101 108 41 23 77 56 100 0
109 107 104 106 101 108 38 74 51 19 93 0
109 107 104 106 101 108 32 60 46 70 8 0
109 107 104 106 101 108 36 72 49 88 14 0
109 107 104 106 101 108 4 12 6 27 1 0
109 107 104 106 101 108 40 76 54 97 21 0
109 107 104 106 101 41 23 77 56 100 95 0
109 107 104 106 101 38 74 51 19 93 89 0
109 107 104 106 101 32 60 46 70 8 66 0
109 107 104 106 101 36 72 49 88 14 83 0
109 107 104 106 101 4 12 6 27 1 20 0
109 107 104 106 108 41 23 77 56 100 25 0
109 107 104 106 108 38 74 51 19 93 17 0
109 107 104 106 108 32 60 46 70 8 9 0
109 107 104 106 108 36 72 49 88 14 16 0
109 107 104 106 108 40 76 54 97 22 21 0
109 107 104 106 41 23 77 56 100 25 95 0
109 107 104 106 38 74 51 19 93 17 89 0
109 107 104 106 32 60 46 70 8 9 66 0
109 107 104 106 36 72 49 88 14 16 83 0
109 107 104 101 108 41 23 77 56 100 86 0
109 107 104 101 108 38 74 51 19 93 81 0
109 107 104 101 108 32 60 46 70 8 61 0
109 107 104 101 108 4 12 6 27 15 1 0
109 107 104 101 108 40 76 54 97 84 21 0
109 107 104 101 41 23 77 56 100 86 95 0
109 107 104 101 38 74 51 19 93 81 89 0
109 107 104 101 32 60 46 70 8 61 66 0
109 107 104 101 4 12 6 27 15 1 20 0
109 107 104 108 41 23 77 56 100 86 25 0
109 107 104 108 38 74 51 19 93 81 17 0
109 107 104 108 32 60 46 70 8 61 9 0
109 107 104 108 40 76 54 97 84 22 21 0
109 107 104 41 23 77 56 100 86 25 95 0
109 107 104 38 74 51 19 93 81 17 89 0
109 107 104 32 60 46 70 8 61 9 66 0
109 107 106 101 108 41 23 77 56 100 68 0
109 107 106 101 108 38 74 51 19 93 63 0
109 107 106 101 108 36 72 49 88 62 14 0
109 107 106 101 108 4 12 6 27 10 1 0
109 107 106 101 108 40 76 54 97 65 21 0
109 107 106 101 41 23 77 56 100 68 95 0
109 107 106 101 38 74 51 19 93 63 89 0
109 107 106 101 36 72 49 88 62 14 83 0
109 107 106 101 4 12 6 27 10 1 20 0
109 107 106 108 41 23 77 56 100 68 25 0
109 107 106 108 38 74 51 19 93 63 17 0
109 107 106 108 36 72 49 88 62 14 16 0
109 107 106 108 40 76 54 97 65 22 21 0
109 107 106 41 23 77 56 100 68 25 95 0
109 107 106 38 74 51 19 93 63 17 89 0
109 107 106 36 72 49 88 62 14 16 83 0
109 107 101 108 41 23 77 56 100 68 86 0
109 107 101 108 38 74 51 19 93 63 81 0
109 107 101 108 4 12 6 27 10 15 1 0
109 107 101 108 40 76 54 97 65 84 21 0
109 107 101 41 23 77 56 100 68 86 95 0
109 107 101 38 74 51 19 93 63 81 89 0
109 107 101 4 12 6 27 10 15 1 20 0
109 107 108 41 23 77 56 100 68 86 25 0
109 107 108 38 74 51 19 93 63 81 17 0
109 107 108 40 76 54 97 65 84 22 21 0
109 107 41 23 77 56 100 68 86 25 95 0
109 107 38 74 51 19 93 63 81 17 89 0
109 110 104 106 101 108 41 23 77 56 91 0
109 110 104 106 101 108 44 79 58 94 26 0
109 110 104 106 101 108 32 60 46 64 8 0
109 110 104 106 101 108 36 72 49 82 14 0
109 110 104 106 101 108 4 12 6 18 1 0
109 110 104 106 101 108 40 76 54 90 21 0
109 110 104 106 101 41 23 77 56 91 95 0
109 110 104 106 101 44 79 58 94 26 98 0
109 110 104 106 101 32 60 46 64 8 66 0
109 110 104 106 101 36 72 49 82 14 83 0
109 110 104 106 101 4 12 6 18 1 20 0
109 110 104 106 108 41 23 77 56 91 25 0
109 110 104 106 108 44 79 58 94 26 28 0
109 110 104 106 108 32 60 46 64 8 9 0
109 110 104 106 108 36 72 49 82 14 16 0
109 110 104 106 108 40 76 54 90 22 21 0
109 110 104 106 41 23 77 56 91 25 95 0
109 110 104 106 44 79 58 94 26 28 98 0
109 110 104 106 32 60 46 64 8 9 66 0
109 110 104 106 36 72 49 82 14 16 83 0
109 110 104 101 108 41 23 77 56 91 86 0
109 110 104 101 108 44 79 58 94 26 87 0
109 110 104 101 108 32 60 46 64 8 61 0
109 110 104 101 108 4 12 6 18 15 1 0
109 110 104 101 108 40 76 54 90 84 21 0
109 110 104 101 41 23 77 56 91 86 95 0
109 110 104 101 44 79 58 94 26 87 98 0
109 110 104 101 32 60 46 64 8 61 66 0
109 110 104 101 4 12 6 18 15 1 20 0
109 110 104 108 41 23 77 56 91 86 25 0
109 110 104 108 44 79 58 94 26 87 28 0
109 110 104 108 32 60 46 64 8 61 9 0
109 110 104 108 40 76 54 90 84 22 21 0
109 110 104 41 23 77 56 91 86 25 95 0
109 110 104 44 79 58 94 26 87 28 98 0
109 110 104 32 60 46 64 8 61 9 66 0
109 110 106 101 108 41 23 77 56 91 68 0
109 110 106 101 108 44 79 58 94 26 69 0
109 110 106 101 108 36 72 49 82 62 14 0
109 110 106 101 108 4 12 6 18 10 1 0
109 110 106 101 108 40 76 54 90 65 21 0
109 110 106 101 41 23 77 56 91 68 95 0
109 110 106 101 44 79 58 94 26 69 98 0
109 110 106 101 36 72 49 82 62 14 83 0
109 110 106 101 4 12 6 18 10 1 20 0
109 110 106 108 41 23 77 56 91 68 25 0
109 110 106 108 44 79 58 94 26 69 28 0
109 110 106 108 36 72 49 82 62 14 16 0
109 110 106 108 40 76 54 90 65 22 21 0
109 110 106 41 23 77 56 91 68 25 95 0
109 110 106 44 79 58 94 26 69 28 98 0
109 110 106 36 72 49 82 62 14 16 83 0
109 110 101 108 41 23 77 56 91 68 86 0
109 110 101 108 44 79 58 94 26 69 87 0
109 110 101 108 4 12 6 18 10 15 1 0
109 110 101 108 40 76 54 90 65 84 21 0
109 110 101 41 23 77 56 91 68 86 95 0
109 110 101 44 79 58 94 26 69 87 98 0
109 110 101 4 12 6 18 10 15 1 20 0
109 110 108 41 23 77 56 91 68 86 25 0
109 110 108 44 79 58 94 26 69 87 28 0
109 110 108 40 76 54 90 65 84 22 21 0
109 110 41 23 77 56 91 68 86 25 95 0
109 110 44 79 58 94 26 69 87 28 98 0
109 104 106 101 108 41 23 77 56 91 100 0
109 104 106 101 108 32 60 46 64 70 8 0
109 104 106 101 108 36 72 49 82 88 14 0
109 104 106 101 108 4 12 6 18 27 1 0
109 104 106 101 108 40 76 54 90 97 21 0
109 104 106 101 41 23 77 56 91 100 95 0
109 104 106 101 32 60 46 64 70 8 66 0
109 104 106 101 36 72 49 82 88 14 83 0
109 104 106 101 4 12 6 18 27 1 20 0
109 104 106 108 41 23 77 56 91 100 25 0
109 104 106 108 32 60 46 64 70 8 9 0
109 104 106 108 36 72 49 82 88 14 16 0
109 104 106 108 40 76 54 90 97 22 21 0
109 104 106 41 23 77 56 91 100 25 95 0
109 104 106 32 60 46 64 70 8 9 66 0
109 104 106 36 72 49 82 88 14 16 83 0
109 104 101 108 41 23 77 56 91 100 86 0
109 104 101 108 32 60 46 64 70 8 61 0
109 104 101 108 4 12 6 18 27 15 1 0
109 104 101 108 40 76 54 90 97 84 21 0
109 104 101 41 23 77 56 91 100 86 95 0
109 104 101 32 60 46 64 70 8 61 66 0
109 104 101 4 12 6 18 27 15 1 20 0
109 104 108 41 23 77 56 91 100 86 25 0
109 104 108 32 60 46 64 70 8 61 9 0
109 104 108 40 76 54 90 97 84 22 21 0
109 104 41 23 77 56 91 100 86 25 95 0
109 104 32 60 46 64 70 8 61 9 66 0
109 106 101 108 41 23 77 56 91 100 68 0
109 106 101 108 36 72 49 82 88 62 14 0
109 106 101 108 4 12 6 18 27 10 1 0
109 106 101 108 40 76 54 90 97 65 21 0
109 106 101 41 23 77 56 91 100 68 95 0
109 106 101 36 72 49 82 88 62 14 83 0
109 106 101 4 12 6 18 27 10 1 20 0
109 106 108 41 23 77 56 91 100 68 25 0
109 106 108 36 72 49 82 88 62 14 16 0
109 106 108 40 76 54 90 97 65 22 21 0
109 106 41 23 77 56 91 100 68 25 95 0
109 106 36 72 49 82 88 62 14 16 83 0
109 101 108 41 23 77 56 91 100 68 86 0
109 101 108 4 12 6 18 27 10 15 1 0
109 101 108 40 76 54 90 97 65 84 21 0
109 101 41 23 77 56 91 100 68 86 95 0
109 101 4 12 6 18 27 10 15 1 20 0
109 108 41 23 77 56 91 100 68 86 25 0
109 108 40 76 54 90 97 65 84 22 21 0
109 41 23 77 56 91 100 68 86 25 95 0
105 103 107 110 104 106 101 108 33 78 13 0
105 103 107 110 104 106 101 108 29 55 5 0
105 103 107 110 104 106 101 108 38 92 19 0
105 103 107 110 104 106 101 108 44 99 26 0
105 103 107 110 104 106 101 108 32 67 8 0
105 103 107 110 104 106 101 108 36 85 14 0
105 103 107 110 104 106 101 108 4 24 1 0
105 103 107 110 104 106 101 108 40 96 21 0
105 103 107 110 104 106 101 33 78 13 75 0
105 103 107 110 104 106 101 29 55 5 53 0
105 103 107 110 104 106 101 38 92 19 89 0
105 103 107 110 104 106 101 44 99 26 98 0
105 103 107 110 104 106 101 32 67 8 66 0
105 103 107 110 104 106 101 36 85 14 83 0
105 103 107 110 104 106 101 4 24 1 20 0
105 103 107 110 104 106 108 33 78 13 11 0
105 103 107 110 104 106 108 29 55 5 7 0
105 103 107 110 104 106 108 38 92 19 17 0
105 103 107 110 104 106 108 44 99 26 28 0
105 103 107 110 104 106 108 32 67 8 9 0
105 103 107 110 104 106 108 36 85 14 16 0
105 103 107 110 104 106 108 40 96 22 21 0
105 103 107 110 104 106 33 78 13 11 75 0
105 103 107 110 104 106 29 55 5 7 53 0
105 103 107 110 104 106 38 92 19 17 89 0
105 103 107 110 104 106 44 99 26 28 98 0
105 103 107 110 104 106 32 67 8 9 66 0
105 103 107 110 104 106 36 85 14 16 83 0
105 103 107 110 104 101 108 33 78 13 71 0
105 103 107 110 104 101 108 29 55 5 50 0
105 103 107 110 104 101 108 38 92 19 81 0
105 103 107 110 104 101 108 44 99 26 87 0
105 103 107 110 104 101 108 32 67 8 61 0
105 103 107 110 104 101 108 4 24 15 1 0
105 103 107 110 104 101 108 40 96 84 21 0
105 103 107 110 104 101 33 78 13 71 75 0
105 103 107 110 104 101 29 55 5 50 53 0
105 103 107 110 104 101 38 92 19 81 89 0
105 103 107 110 104 101 44 99 26 87 98 0
105 103 107 110 104 101 32 67 8 61 66 0
105 103 107 110 104 101 4 24 15 1 20 0
105 103 107 110 104 108 33 78 13 71 11 0
105 103 107 110 104 108 29 55 5 50 7 0
105 103 107 110 104 108 38 92 19 81 17 0
105 103 107 110 104 108 44 99 26 87 28 0
105 103 107 110 104 108 32 67 8 61 9 0
105 103 107 110 104 108 40 96 84 22 21 0
105 103 107 110 104 33 78 13 71 11 75 0
105 103 107 110 104 29 55 5 50 7 53 0
105 103 107 110 104 38 92 19 81 17 89 0
105 103 107 110 104 44 99 26 87 28 98 0
105 103 107 110 104 32 67 8 61 9 66 0
105 103 107 110 106 101 108 33 78 13 59 0
105 103 107 110 106 101 108 29 55 5 45 0
105 103 107 110 106 101 108 38 92 19 63 0
105 103 107 110 106 101 108 44 99 26 69 0
105 103 107 110 106 101 108 36 85 62 14 0
105 103 107 110 106 101 108 4 24 10 1 0
105 103 107 110 106 101 108 40 96 65 21 0
105 103 107 110 106 101 33 78 13 59 75 0
105 103 107 110 106 101 29 55 5 45 53 0
105 103 107 110 106 101 38 92 19 63 89 0
105 103 107 110 106 101 44 99 26 69 98 0
105 103 107 110 106 101 36 85 62 14 83 0
105 103 107 110 106 101 4 24 10 1 20 0
105 103 107 110 106 108 33 78 13 59 11 0
105 103 107 110 106 108 29 55 5 45 7 0
105 103 107 110 106 108 38 92 19 63 17 0
105 103 107 110 106 108 44 99 26 69 28 0
105 103 107 110 106 108 36 85 62 14 16 0
105 103 107 110 106 108 40 96 65 22 21 0
105 103 107 110 106 33 78 13 59 11 75 0
105 103 107 110 106 29 55 5 45 7 53 0
105 103 107 110 106 38 92 19 63 17 89 0
105 103 107 110 106 44 99 26 69 28 98 0
105 103 107 110 106 36 85 62 14 16 83 0
105 103 107 110 101 108 33 78 13 59 71 0
105 103 107 110 101 108 29 55 5 45 50 0
105 103 107 110 101 108 38 92 19 63 81 0
105 103 107 110 101 108 44 99 26 69 87 0
105 103 107 110 101 108 4 24 10 15 1 0
105 103 107 110 101 108 40 96 65 84 21 0
105 103 107 110 101 33 78 13 59 71 75 0
105 103 107 110 101 29 55 5 45 50 53 0
105 103 107 110 101 38 92 19 63 81 89 0
105 103 107 110 101 44 99 26 69 87 98 0
105 103 107 110 101 4 24 10 15 1 20 0
105 103 107 110 108 33 78 13 59 71 11 0
105 103 107 110 108 29 55 5 45 50 7 0
105 103 107 110 108 38 92 19 63 81 17 0
105 103 107 110 108 44 99 26 69 87 28 0
105 103 107 110 108 40 96 65 84 22 21 0
105 103 107 110 33 78 13 59 71 11 75 0
105 103 107 110 29 55 5 45 50 7 53 0
105 103 107 110 38 92 19 63 81 17 89 0
105 103 107 110 44 99 26 69 87 28 98 0
105 103 107 104 106 101 108 33 78 13 80 0
105 103 107 104 106 101 108 29 55 5 57 0
105 103 107 104 106 101 108 38 92 19 93 0
105 103 107 104 106 101 108 32 67 70 8 0
105 103 107 104 106 101 108 36 85 88 14 0
105 103 107 104 106 101 108 4 24 27 1 0
105 103 107 104 106 101 108 40 96 97 21 0
105 103 107 104 106 101 33 78 13 80 75 0
105 103 107 104 106 101 29 55 5 57 53 0
105 103 107 104 106 101 38 92 19 93 89 0
105 103 107 104 106 101 32 67 70 8 66 0
105 103 107 104 106 101 36 85 88 14 83 0
105 103 107 104 106 101 4 24 27 1 20 0
105 103 107 104 106 108 33 78 13 80 11 0
105 103 107 104 106 108 29 55 5 57 7 0
105 103 107 104 106 108 38 92 19 93 17 0
105 103 107 104 106 108 32 67 70 8 9 0
105 103 107 104 106 108 36 85 88 14 16 0
105 103 107 104 106 108 40 96 97 22 21 0
105 103 107 104 106 33 78 13 80 11 75 0
105 103 107 104 106 29 55 5 57 7 53 0
105 103 107 104 106 38 92 19 93 17 89 0
105 103 107 104 106 32 67 70 8 9 66 0
105 103 107 104 106 36 85 88 14 16 83 0
105 103 107 104 101 108 33 78 13 80 71 0
105 103 107 104 101 108 29 55 5 57 50 0
105 103 107 104 101 108 38 92 19 93 81 0
105 103 107 104 101 108 32 67 70 8 61 0
105 103 107 104 101 108 4 24 27 15 1 0
105 103 107 104 101 108 40 96 97 84 21 0
105 103 107 104 101 33 78 13 80 71 75 0
105 103 107 104 101 29 55 5 57 50 53 0
105 103 107 104 101 38 92 19 93 81 89 0
105 103 107 104 101 32 67 70 8 61 66 0
105 103 107 104 101 4 24 27 15 1 20 0
105 103 107 104 108 33 78 13 80 71 11 0
105 103 107 104 108 29 55 5 57 50 7 0
105 103 107 104 108 38 92 19 93 81 17 0
105 103 107 104 108 32 67 70 8 61 9 0
105 103 107 104 108 40 96 97 84 22 21 0
105 103 107 104 33 78 13 80 71 11 75 0
105 103 107 104 29 55 5 57 50 7 53 0
105 103 107 104 38 92 19 93 81 17 89 0
105 103 107 104 32 67 70 8 61 9 66 0
105 103 107 106 101 108 33 78 13 80 59 0
105 103 107 106 101 108 29 55 5 57 45 0
105 103 107 106 101 108 38 92 19 93 63 0
105 103 107 106 101 108 36 85 88 62 14 0
105 103 107 106 101 108 4 24 27 10 1 0
105 103 107 106 101 108 40 96 97 65 21 0
105 103 107 106 101 33 78 13 80 59 75 0
105 103 107 106 101 29 55 5 57 45 53 0
105 103 107 106 101 38 92 19 93 63 89 0
105 103 107 106 101 36 85 88 62 14 83 0
105 103 107 106 101 4 24 27 10 1 20 0
105 103 107 106 108 33 78 13 80 59 11 0
105 103 107 106 108 29 55 5 57 45 7 0
105 103 107 106 108 38 92 19 93 63 17 0
105 103 107 106 108 36 85 88 62 14 16 0
105 103 107 106 108 40 96 97 65 22 21 0
105 103 107 106 33 78 13 80 59 11 75 0
105 103 107 106 29 55 5 57 45 7 53 0
105 103 107 106 38 92 19 93 63 17 89 0
105 103 107 106 36 85 88 62 14 16 83 0
105 103 107 101 108 33 78 13 80 59 71 0
105 103 107 101 108 29 55 5 57 45 50 0
105 103 107 101 108 38 92 19 93 63 81 0
105 103 107 101 108 4 24 27 10 15 1 0
105 103 107 101 108 40 96 97 65 84 21 0
105 103 107 101 33 78 13 80 59 71 75 0
105 103 107 101 29 55 5 57 45 50 53 0
105 103 107 101 38 92 19 93 63 81 89 0
105 103 107 101 4 24 27 10 15 1 20 0
105 103 107 108 33 78 13 80 59 71 11 0
105 103 107 108 29 55 5 57 45 50 7 0
105 103 107 108 38 92 19 93 63 81 17 0
105 103 107 108 40 96 97 65 84 22 21 0
105 103 107 33 78 13 80 59 71 11 75 0
105 103 107 29 55 5 57 45 50 7 53 0
105 103 107 38 92 19 93 63 81 17 89 0
105 103 110 104 106 101 108 33 78 13 73 0
105 103 110 104 106 101 108 29 55 5 52 0
105 103 110 104 106 101 108 44 99 94 26 0
105 103 110 104 106 101 108 32 67 64 8 0
105 103 110 104 106 101 108 36 85 82 14 0
105 103 110 104 106 101 108 4 24 18 1 0
105 103 110 104 106 101 108 40 96 90 21 0
105 103 110 104 106 101 33 78 13 73 75 0
105 103 110 104 106 101 29 55 5 52 53 0
105 103 110 104 106 101 44 99 94 26 98 0
105 103 110 104 106 101 32 67 64 8 66 0
105 103 110 104 106 101 36 85 82 14 83 0
105 103 110 104 106 101 4 24 18 1 20 0
105 103 110 104 106 108 33 78 13 73 11 0
105 103 110 104 106 108 29 55 5 52 7 0
105 103 110 104 106 108 44 99 94 26 28 0
105 103 110 104 106 108 32 67 64 8 9 0
105 103 110 104 106 108 36 85 82 14 16 0
105 103 110 104 106 108 40 96 90 22 21 0
105 103 110 104 106 33 78 13 73 11 75 0
105 103 110 104 106 29 55 5 52 7 53 0
105 103 110 104 106 44 99 94 26 28 98 0
105 103 110 104 106 32 67 64 8 9 66 0
105 103 110 104 106 36 85 82 14 16 83 0
105 103 110 104 101 108 33 78 13 73 71 0
105 103 110 104 101 108 29 55 5 52 50 0
105 103 110 104 101 108 44 99 94 26 87 0
105 103 110 104 101 108 32 67 64 8 61 0
105 103 110 104 101 108 4 24 18 15 1 0
105 103 110 104 101 108 40 96 90 84 21 0
105 103 110 104 101 33 78 13 73 71 75 0
105 103 110 104 101 29 55 5 52 50 53 0
105 103 110 104 101 44 99 94 26 87 98 0
105 103 110 104 101 32 67 64 8 61 66 0
105 103 110 104 101 4 24 18 15 1 20 0
105 103 110 104 108 33 78 13 73 71 11 0
105 103 110 104 108 29 55 5 52 50 7 0
105 103 110 104 108 44 99 94 26 87 28 0
105 103 110 104 108 32 67 64 8 61 9 0
105 103 110 104 108 40 96 90 84 22 21 0
105 103 110 104 33 78 13 73 71 11 75 0
105 103 110 104 29 55 5 52 50 7 53 0
105 103 110 104 44 99 94 26 87 28 98 0
105 103 110 104 32 67 64 8 61 9 66 0
105 103 110 106 101 108 33 78 13 73 59 0
105 103 110 106 101 108 29 55 5 52 45 0
105 103 110 106 101 108 44 99 94 26 69 0
105 103 110 106 101 108 36 85 82 62 14 0
105 103 110 106 101 108 4 24 18 10 1 0
105 103 110 106 101 108 40 96 90 65 21 0
105 103 110 106 101 33 78 13 73 59 75 0
105 103 110 106 101 29 55 5 52 45 53 0
105 103 110 106 101 44 99 94 26 69 98 0
105 103 110 106 101 36 85 82 62 14 83 0
105 103 110 106 101 4 24 18 10 1 20 0
105 103 110 106 108 33 78 13 73 59 11 0
105 103 110 106 108 29 55 5 52 45 7 0
105 103 110 106 108 44 99 94 26 69 28 0
105 103 110 106 108 36 85 82 62 14 16 0
105 103 110 106 108 40 96 90 65 22 21 0
105 103 110 106 33 78 13 73 59 11 75 0
105 103 110 106 29 55 5 52 45 7 53 0
105 103 110 106 44 99 94 26 69 28 98 0
105 103 110 106 36 85 82 62 14 16 83 0
105 103 110 101 108 33 78 13 73 59 71 0
105 103 110 101 108 29 55 5 52 45 50 0
105 103 110 101 108 44 99 94 26 69 87 0
105 103 110 101 108 4 24 18 10 15 1 0
105 103 110 101 108 40 96 90 65 84 21 0
105 103 110 101 33 78 13 73 59 71 75 0
105 103 110 101 29 55 5 52 45 50 53 0
105 103 110 101 44 99 94 26 69 87 98 0
105 103 110 101 4 24 18 10 15 1 20 0
105 103 110 108 33 78 13 73 59 71 11 0
105 103 110 108 29 55 5 52 45 50 7 0
105 103 110 108 44 99 94 26 69 87 28 0
105 103 110 108 40 96 90 65 84 22 21 0
105 103 110 33 78 13 73 59 71 11 75 0
105 103 110 29 55 5 52 45 50 7 53 0
105 103 110 44 99 94 26 69 87 28 98 0
105 103 104 106 101 108 33 78 13 73 80 0
105 103 104 106 101 108 29 55 5 52 57 0
105 103 104 106 101 108 32 67 64 70 8 0
105 103 104 106 101 108 36 85 82 88 14 0
105 103 104 106 101 108 4 24 18 27 1 0
105 103 104 106 101 108 40 96 90 97 21 0
105 103 104 106 101 33 78 13 73 80 75 0
105 103 104 106 101 29 55 5 52 57 53 0
105 103 104 106 101 32 67 64 70 8 66 0
105 103 104 106 101 36 85 82 88 14 83 0
105 103 104 106 101 4 24 18 27 1 20 0
105 103 104 106 108 33 78 13 73 80 11 0
105 103 104 106 108 29 55 5 52 57 7 0
105 103 104 106 108 32 67 64 70 8 9 0
105 103 104 106 108 36 85 82 88 14 16 0
105 103 104 106 108 40 96 90 97 22 21 0
105 103 104 106 33 78 13 73 80 11 75 0
105 103 104 106 29 55 5 52 57 7 53 0
105 103 104 106 32 67 64 70 8 9 66 0
105 103 104 106 36 85 82 88 14 16 83 0
105 103 104 101 108 33 78 13 73 80 71 0
105 103 104 101 108 29 55 5 52 57 50 0
105 103 104 101 108 32 67 64 70 8 61 0
105 103 104 101 108 4 24 18 27 15 1 0
105 103 104 101 108 40 96 90 97 84 21 0
105 103 104 101 33 78 13 73 80 71 75 0
105 103 104 101 29 55 5 52 57 50 53 0
105 103 104 101 32 67 64 70 8 61 66 0
105 103 104 101 4 24 18 27 15 1 20 0
105 103 104 108 33 78 13 73 80 71 11 0
105 103 104 108 29 55 5 52 57 50 7 0
105 103 104 108 32 67 64 70 8 61 9 0
105 103 104 108 40 96 90 97 84 22 21 0
105 103 104 33 78 13 73 80 71 11 75 0
105 103 104 29 55 5 52 57 50 7 53 0
105 103 104 32 67 64 70 8 61 9 66 0
105 103 106 101 108 33 78 13 73 80 59 0
105 103 106 101 108 29 55 5 52 57 45 0
105 103 106 101 108 36 85 82 88 62 14 0
105 103 106 101 108 4 24 18 27 10 1 0
105 103 106 101 108 40 96 90 97 65 21 0
105 103 106 101 33 78 13 73 80 59 75 0
105 103 106 101 29 55 5 52 57 45 53 0
105 103 106 101 36 85 82 88 62 14 83 0
105 103 106 101 4 24 18 27 10 1 20 0
105 103 106 108 33 78 13 73 80 59 11 0
105 103 106 108 29 55 5 52 57 45 7 0
105 103 106 108 36 85 82 88 62 14 16 0
105 103 106 108 40 96 90 97 65 22 21 0
105 103 106 33 78 13 73 80 59 11 75 0
105 103 106 29 55 5 52 57 45 7 53 0
105 103 106 36 85 82 88 62 14 16 83 0
105 103 101 108 33 78 13 73 80 59 71 0
105 103 101 108 29 55 5 52 57 45 50 0
105 103 101 108 4 24 18 27 10 15 1 0
105 103 101 108 40 96 90 97 65 84 21 0
105 103 101 33 78 13 73 80 59 71 75 0
105 103 101 29 55 5 52 57 45 50 53 0
105 103 101 4 24 18 27 10 15 1 20 0
105 103 108 33 78 13 73 80 59 71 11 0
105 103 108 29 55 5 52 57 45 50 7 0
105 103 108 40 96 90 97 65 84 22 21 0
105 103 33 78 13 73 80 59 71 11 75 0
105 103 29 55 5 52 57 45 50 7 53 0
105 107 110 104 106 101 108 33 78 13 48 0
105 107 110 104 106 101 108 38 92 51 19 0
105 107 110 104 106 101 108 44 99 58 26 0
105 107 110 104 106 101 108 32 67 46 8 0
105 107 110 104 106 101 108 36 85 49 14 0
105 107 110 104 106 101 108 4 24 6 1 0
105 107 110 104 106 101 108 40 96 54 21 0
105 107 110 104 106 101 33 78 13 48 75 0
105 107 110 104 106 101 38 92 51 19 89 0
105 107 110 104 106 101 44 99 58 26 98 0
105 107 110 104 106 101 32 67 46 8 66 0
105 107 110 104 106 101 36 85 49 14 83 0
105 107 110 104 106 101 4 24 6 1 20 0
105 107 110 104 106 108 33 78 13 48 11 0
105 107 110 104 106 108 38 92 51 19 17 0
105 107 110 104 106 108 44 99 58 26 28 0
105 107 110 104 106 108 32 67 46 8 9 0
105 107 110 104 106 108 36 85 49 14 16 0
105 107 110 104 106 108 40 96 54 22 21 0
105 107 110 104 106 33 78 13 48 11 75 0
105 107 110 104 106 38 92 51 19 17 89 0
105 107 110 104 106 44 99 58 26 28 98 0
105 107 110 104 106 32 67 46 8 9 66 0
105 107 110 104 106 36 85 49 14 16 83 0
105 107 110 104 101 108 33 78 13 48 71 0
105 107 110 104 101 108 38 92 51 19 81 0
105 107 110 104 101 108 44 99 58 26 87 0
105 107 110 104 101 108 32 67 46 8 61 0
105 107 110 104 101 108 4 24 6 15 1 0
105 107 110 104 101 108 40 96 54 84 21 0
105 107 110 104 101 33 78 13 48 71 75 0
105 107 110 104 101 38 92 51 19 81 89 0
105 107 110 104 101 44 99 58 26 87 98 0
105 107 110 104 101 32 67 46 8 61 66 0
105 107 110 104 101 4 24 6 15 1 20 0
105 107 110 104 108 33 78 13 48 71 11 0
105 107 110 104 108 38 92 51 19 81 17 0
105 107 110 104 108 44 99 58 26 87 28 0
105 107 110 104 108 32 67 46 8 61 9 0
105 107 110 104 108 40 96 54 84 22 21 0
105 107 110 104 33 78 13 48 71 11 75 0
105 107 110 104 38 92 51 19 81 17 89 0
105 107 110 104 44 99 58 26 87 28 98 0
105 107 110 104 32 67 46 8 61 9 66 0
105 107 110 106 101 108 33 78 13 48 59 0
105 107 110 106 101 108 38 92 51 19 63 0
105 107 110 106 101 108 44 99 58 26 69 0
105 107 110 106 101 108 36 85 49 62 14 0
105 107 110 106 101 108 4 24 6 10 1 0
105 107 110 106 101 108 40 96 54 65 21 0
105 107 110 106 101 33 78 13 48 59 75 0
105 107 110 106 101 38 92 51 19 63 89 0
105 107 110 106 101 44 99 58 26 69 98 0
105 107 110 106 101 36 85 49 62 14 83 0
105 107 110 106 101 4 24 6 10 1 20 0
105 107 110 106 108 33 78 13 48 59 11 0
105 107 110 106 108 38 92 51 19 63 17 0
105 107 110 106 108 44 99 58 26 69 28 0
105 107 110 106 108 36 85 49 62 14 16 0
105 107 110 106 108 40 96 54 65 22 21 0
105 107 110 106 33 78 13 48 59 11 75 0
105 107 110 106 38 92 51 19 63 17 89 0
105 107 110 106 44 99 58 26 69 28 98 0
105 107 110 106 36 85 49 62 14 16 83 0
105 107 110 101 108 33 78 13 48 59 71 0
105 107 110 101 108 38 92 51 19 63 81 0
105 107 110 101 108 44 99 58 26 69 87 0
105 107 110 101 108 4 24 6 10 15 1 0
105 107 110 101 108 40 96 54 65 84 21 0
105 107 110 101 33 78 13 48 59 71 75 0
105 107 110 101 38 92 51 19 63 81 89 0
105 107 110 101 44 99 58 26 69 87 98 0
105 107 110 101 4 24 6 10 15 1 20 0
105 107 110 108 33 78 13 48 59 71 11 0
105 107 110 108 38 92 51 19 63 81 17 0
105 107 110 108 44 99 58 26 69 87 28 0
105 107 110 108 40 96 54 65 84 22 21 0
105 107 110 33 78 13 48 59 71 11 75 0
105 107 110 38 92 51 19 63 81 17 89 0
105 107 110 44 99 58 26 69 87 28 98 0
105 107 104 106 101 108 33 78 13 48 80 0
105 107 104 106 101 108 38 92 51 19 93 0
105 107 104 106 101 108 32 67 46 70 8 0
105 107 104 106 101 108 36 85 49 88 14 0
105 107 104 106 101 108 4 24 6 27 1 0
105 107 104 106 101 108 40 96 54 97 21 0
105 107 104 106 101 33 78 13 48 80 75 0
105 107 104 106 101 38 92 51 19 93 89 0
105 107 104 106 101 32 67 46 70 8 66 0
105 107 104 106 101 36 85 49 88 14 83 0
105 107 104 106 101 4 24 6 27 1 20 0
105 107 104 106 108 33 78 13 48 80 11 0
105 107 104 106 108 38 92 51 19 93 17 0
105 107 104 106 108 32 67 46 70 8 9 0
105 107 104 106 108 36 85 49 88 14 16 0
105 107 104 106 108 40 96 54 97 22 21 0
105 107 104 106 33 78 13 48 80 11 75 0
105 107 104 106 38 92 51 19 93 17 89 0
105 107 104 106 32 67 46 70 8 9 66 0
105 107 104 106 36 85 49 88 14 16 83 0
105 107 104 101 108 33 78 13 48 80 71 0
105 107 104 101 108 38 92 51 19 93 81 0
105 107 104 101 108 32 67 46 70 8 61 0
105 107 104 101 108 4 24 6 27 15 1 0
105 107 104 101 108 40 96 54 97 84 21 0
105 107 104 101 33 78 13 48 80 71 75 0
105 107 104 101 38 92 51 19 93 81 89 0
105 107 104 101 32 67 46 70 8 61 66 0
105 107 104 101 4 24 6 27 15 1 20 0
105 107 104 108 33 78 13 48 80 71 11 0
105 107 104 108 38 92 51 19 93 81 17 0
105 107 104 108 32 67 46 70 8 61 9 0
105 107 104 108 40 96 54 97 84 22 21 0
105 107 104 33 78 13 48 80 71 11 75 0
105 107 104 38 92 51 19 93 81 17 89 0
105 107 104 32 67 46 70 8 61 9 66 0
105 107 106 101 108 33 78 13 48 80 59 0
105 107 106 101 108 38 92 51 19 93 63 0
105 107 106 101 108 36 85 49 88 62 14 0
105 107 106 101 108 4 24 6 27 10 1 0
105 107 106 101 108 40 96 54 97 65 21 0
105 107 106 101 33 78 13 48 80 59 75 0
105 107 106 101 38 92 51 19 93 63 89 0
105 107 106 101 36 85 49 88 62 14 83 0
105 107 106 101 4 24 6 27 10 1 20 0
105 107 106 108 33 78 13 48 80 59 11 0
105 107 106 108 38 92 51 19 93 63 17 0
105 107 106 108 36 85 49 88 62 14 16 0
105 107 106 108 40 96 54 97 65 22 21 0
105 107 106 33 78 13 48 80 59 11 75 0
105 107 106 38 92 51 19 93 63 17 89 0
105 107 106 36 85 49 88 62 14 16 83 0
105 107 101 108 33 78 13 48 80 59 71 0
105 107 101 108 38 92 51 19 93 63 81 0
105 107 101 108 4 24 6 27 10 15 1 0
105 107 101 108 40 96 54 97 65 84 21 0
105 107 101 33 78 13 48 80 59 71 75 0
105 107 101 38 92 51 19 93 63 81 89 0
105 107 101 4 24 6 27 10 15 1 20 0
105 107 108 33 78 13 48 80 59 71 11 0
105 107 108 38 92 51 19 93 63 81 17 0
105 107 108 40 96 54 97 65 84 22 21 0
105 107 33 78 13 48 80 59 71 11 75 0
105 107 38 92 51 19 93 63 81 17 89 0
105 110 104 106 101 108 33 78 13 48 73 0
105 110 104 106 101 108 44 99 58 94 26 0
105 110 104 106 101 108 32 67 46 64 8 0
105 110 104 106 101 108 36 85 49 82 14 0
105 110 104 106 101 108 4 24 6 18 1 0
105 110 104 106 101 108 40 96 54 90 21 0
105 110 104 106 101 33 78 13 48 73 75 0
105 110 104 106 101 44 99 58 94 26 98 0
105 110 104 106 101 32 67 46 64 8 66 0
105 110 104 106 101 36 85 49 82 14 83 0
105 110 104 106 101 4 24 6 18 1 20 0
105 110 104 106 108 33 78 13 48 73 11 0
105 110 104 106 108 44 99 58 94 26 28 0
105 110 104 106 108 32 67 46 64 8 9 0
105 110 104 106 108 36 85 49 82 14 16 0
105 110 104 106 108 40 96 54 90 22 21 0
105 110 104 106 33 78 13 48 73 11 75 0
105 110 104 106 44 99 58 94 26 28 98 0
105 110 104 106 32 67 46 64 8 9 66 0
105 110 104 106 36 85 49 82 14 16 83 0
105 110 104 101 108 33 78 13 48 73 71 0
105 110 104 101 108 44 99 58 94 26 87 0
105 110 104 101 108 32 67 46 64 8 61 0
105 110 104 101 108 4 24 6 18 15 1 0
105 110 104 101 108 40 96 54 90 84 21 0
105 110 104 101 33 78 13 48 73 71 75 0
105 110 104 101 44 99 58 94 26 87 98 0
105 110 104 101 32 67 46 64 8 61 66 0
105 110 104 101 4 24 6 18 15 1 20 0
105 110 104 108 33 78 13 48 73 71 11 0
105 110 104 108 44 99 58 94 26 87 28 0
105 110 104 108 32 67 46 64 8 61 9 0
105 110 104 108 40 96 54 90 84 22 21 0
105 110 104 33 78 13 48 73 71 11 75 0
105 110 104 44 99 58 94 26 87 28 98 0
105 110 104 32 67 46 64 8 61 9 66 0
105 110 106 101 108 33 78 13 48 73 59 0
105 110 106 101 108 44 99 58 94 26 69 0
105 110 106 101 108 36 85 49 82 62 14 0
105 110 106 101 108 4 24 6 18 10 1 0
105 110 106 101 108 40 96 54 90 65 21 0
105 110 106 101 33 78 13 48 73 59 75 0
105 110 106 101 44 99 58 94 26 69 98 0
105 110 106 101 36 85 49 82 62 14 83 0
105 110 106 101 4 24 6 18 10 1 20 0
105 110 106 108 33 78 13 48 73 59 11 0
105 110 106 108 44 99 58 94 26 69 28 0
105 110 106 108 36 85 49 82 62 14 16 0
105 110 106 108 40 96 54 90 65 22 21 0
105 110 106 33 78 13 48 73 59 11 75 0
105 110 106 44 99 58 94 26 69 28 98 0
105 110 106 36 85 49 82 62 14 16 83 0
105 110 101 108 33 78 13 48 73 59 71 0
105 110 101 108 44 99 58 94 26 69 87 0
105 110 101 108 4 24 6 18 10 15 1 0
105 110 101 108 40 96 54 90 65 84 21 0
105 110 101 33 78 13 48 73 59 71 75 0
105 110 101 44 99 58 94 26 69 87 98 0
105 110 101 4 24 6 18 10 15 1 20 0
105 110 108 33 78 13 48 73 59 71 11 0
105 110 108 44 99 58 94 26 69 87 28 0
105 110 108 40 96 54 90 65 84 22 21 0
105 110 33 78 13 48 73 59 71 11 75 0
105 110 44 99 58 94 26 69 87 28 98 0
105 104 106 101 108 33 78 13 48 73 80 0
105 104 106 101 108 32 67 46 64 70 8 0
105 104 106 101 108 36 85 49 82 88 14 0
105 104 106 101 108 4 24 6 18 27 1 0
105 104 106 101 108 40 96 54 90 97 21 0
105 104 106 101 33 78 13 48 73 80 75 0
105 104 106 101 32 67 46 64 70 8 66 0
105 104 106 101 36 85 49 82 88 14 83 0
105 104 106 101 4 24 6 18 27 1 20 0
105 104 106 108 33 78 13 48 73 80 11 0
105 104 106 108 32 67 46 64 70 8 9 0
105 104 106 108 36 85 49 82 88 14 16 0
105 104 106 108 40 96 54 90 97 22 21 0
105 104 106 33 78 13 48 73 80 11 75 0
105 104 106 32 67 46 64 70 8 9 66 0
105 104 106 36 85 49 82 88 14 16 83 0
105 104 101 108 33 78 13 48 73 80 71 0
105 104 101 108 32 67 46 64 70 8 61 0
105 104 101 108 4 24 6 18 27 15 1 0
105 104 101 108 40 96 54 90 97 84 21 0
105 104 101 33 78 13 48 73 80 71 75 0
105 104 101 32 67 46 64 70 8 61 66 0
105 104 101 4 24 6 18 27 15 1 20 0
105 104 108 33 78 13 48 73 80 71 11 0
105 104 108 32 67 46 64 70 8 61 9 0
105 104 108 40 96 54 90 97 84 22 21 0
105 104 33 78 13 48 73 80 71 11 75 0
105 104 32 67 46 64 70 8 61 9 66 0
105 106 101 108 33 78 13 48 73 80 59 0
105 106 101 108 36 85 49 82 88 62 14 0
105 106 101 108 4 24 6 18 27 10 1 0
105 106 101 108 40 96 54 90 97 65 21 0
105 106 101 33 78 13 48 73 80 59 75 0
105 106 101 36 85 49 82 88 62 14 83 0
105 106 101 4 24 6 18 27 10 1 20 0
105 106 108 33 78 13 48 73 80 59 11 0
105 106 108 36 85 49 82 88 62 14 16 0
105 106 108 40 96 54 90 97 65 22 21 0
105 106 33 78 13 48 73 80 59 11 75 0
105 106 36 85 49 82 88 62 14 16 83 0
105 101 108 33 78 13 48 73 80 59 71 0
105 101 108 4 24 6 18 27 10 15 1 0
105 101 108 40 96 54 90 97 65 84 21 0
105 101 33 78 13 48 73 80 59 71 75 0
105 101 4 24 6 18 27 10 15 1 20 0
105 108 33 78 13 48 73 80 59 71 11 0
105 108 40 96 54 90 97 65 84 22 21 0
105 33 78 13 48 73 80 59 71 11 75 0
103 107 110 104 106 101 108 29 55 47 5 0
103 107 110 104 106 101 108 38 92 74 19 0
103 107 110 104 106 101 108 44 99 79 26 0
103 107 110 104 106 101 108 32 67 60 8 0
103 107 110 104 106 101 108 36 85 72 14 0
103 107 110 104 106 101 108 4 24 12 1 0
103 107 110 104 106 101 108 40 96 76 21 0
103 107 110 104 106 101 29 55 47 5 53 0
103 107 110 104 106 101 38 92 74 19 89 0
103 107 110 104 106 101 44 99 79 26 98 0
103 107 110 104 106 101 32 67 60 8 66 0
103 107 110 104 106 101 36 85 72 14 83 0
103 107 110 104 106 101 4 24 12 1 20 0
103 107 110 104 106 108 29 55 47 5 7 0
103 107 110 104 106 108 38 92 74 19 17 0
103 107 110 104 106 108 44 99 79 26 28 0
103 107 110 104 106 108 32 67 60 8 9 0
103 107 110 104 106 108 36 85 72 14 16 0
103 107 110 104 106 108 40 96 76 22 21 0
103 107 110 104 106 29 55 47 5 7 53 0
103 107 110 104 106 38 92 74 19 17 89 0
103 107 110 104 106 44 99 79 26 28 98 0
103 107 110 104 106 32 67 60 8 9 66 0
103 107 110 104 106 36 85 72 14 16 83 0
103 107 110 104 101 108 29 55 47 5 50 0
103 107 110 104 101 108 38 92 74 19 81 0
103 107 110 104 101 108 44 99 79 26 87 0
103 107 110 104 101 108 32 67 60 8 61 0
103 107 110 104 101 108 4 24 12 15 1 0
103 107 110 104 101 108 40 96 76 84 21 0
103 107 110 104 101 29 55 47 5 50 53 0
103 107 110 104 101 38 92 74 19 81 89 0
103 107 110 104 101 44 99 79 26 87 98 0
103 107 110 104 101 32 67 60 8 61 66 0
103 107 110 104 101 4 24 12 15 1 20 0
103 107 110 104 108 29 55 47 5 50 7 0
103 107 110 104 108 38 92 74 19 81 17 0
103 107 110 104 108 44 99 79 26 87 28 0
103 107 110 104 108 32 67 60 8 61 9 0
103 107 110 104 108 40 96 76 84 22 21 0
103 107 110 104 29 55 47 5 50 7 53 0
103 107 110 104 38 92 74 19 81 17 89 0
103 107 110 104 44 99 79 26 87 28 98 0
103 107 110 104 32 67 60 8 61 9 66 0
103 107 110 106 101 108 29 55 47 5 45 0
103 107 110 106 101 108 38 92 74 19 63 0
103 107 110 106 101 108 44 99 79 26 69 0
103 107 110 106 101 108 36 85 72 62 14 0
103 107 110 106 101 108 4 24 12 10 1 0
103 107 110 106 101 108 40 96 76 65 21 0
103 107 110 106 101 29 55 47 5 45 53 0
103 107 110 106 101 38 92 74 19 63 89 0
103 107 110 106 101 44 99 79 26 69 98 0
103 107 110 106 101 36 85 72 62 14 83 0
103 107 110 106 101 4 24 12 10 1 20 0
103 107 110 106 108 29 55 47 5 45 7 0
103 107 110 106 108 38 92 74 19 63 17 0
103 107 110 106 108 44 99 79 26 69 28 0
103 107 110 106 108 36 85 72 62 14 16 0
103 107 110 106 108 40 96 76 65 22 21 0
103 107 110 106 29 55 47 5 45 7 53 0
103 107 110 106 38 92 74 19 63 17 89 0
103 107 110 106 44 99 79 26 69 28 98 0
103 107 110 106 36 85 72 62 14 16 83 0
103 107 110 101 108 29 55 47 5 45 50 0
103 107 110 101 108 38 92 74 19 63 81 0
103 107 110 101 108 44 99 79 26 69 87 0
103 107 110 101 108 4 24 12 10 15 1 0
103 107 110 101 108 40 96 76 65 84 21 0
103 107 110 101 29 55 47 5 45 50 53 0
103 107 110 101 38 92 74 19 63 81 89 0
103 107 110 101 44 99 79 26 69 87 98 0
103 107 110 101 4 24 12 10 15 1 20 0
103 107 110 108 29 55 47 5 45 50 7 0
103 107 110 108 38 92 74 19 63 81 17 0
103 107 110 108 44 99 79 26 69 87 28 0
103 107 110 108 40 96 76 65 84 22 21 0
103 107 110 29 55 47 5 45 50 7 53 0
103 107 110 38 92 74 19 63 81 17 89 0
103 107 110 44 99 79 26 69 87 28 98 0
103 107 104 106 101 108 29 55 47 5 57 0
103 107 104 106 101 108 38 92 74 19 93 0
103 107 104 106 101 108 32 67 60 70 8 0
103 107 104 106 101 108 36 85 72 88 14 0
103 107 104 106 101 108 4 24 12 27 1 0
103 107 104 106 101 108 40 96 76 97 21 0
103 107 104 106 101 29 55 47 5 57 53 0
103 107 104 106 101 38 92 74 19 93 89 0
103 107 104 106 101 32 67 60 70 8 66 0
103 107 104 106 101 36 85 72 88 14 83 0
103 107 104 106 101 4 24 12 27 1 20 0
103 107 104 106 108 29 55 47 5 57 7 0
103 107 104 106 108 38 92 74 19 93 17 0
103 107 104 106 108 32 67 60 70 8 9 0
103 107 104 106 108 36 85 72 88 14 16 0
103 107 104 106 108 40 96 76 97 22 21 0
103 107 104 106 29 55 47 5 57 7 53 0
103 107 104 106 38 92 74 19 93 17 89 0
103 107 104 106 32 67 60 70 8 9 66 0
103 107 104 106 36 85 72 88 14 16 83 0
103 107 104 101 108 29 55 47 5 57 50 0
103 107 104 101 108 38 92 74 19 93 81 0
103 107 104 101 108 32 67 60 70 8 61 0
103 107 104 101 108 4 24 12 27 15 1 0
103 107 104 101 108 40 96 76 97 84 21 0
103 107 104 101 29 55 47 5 57 50 53 0
103 107 104 101 38 92 74 19 93 81 89 0
103 107 104 101 32 67 60 70 8 61 66 0
103 107 104 101 4 24 12 27 15 1 20 0
103 107 104 108 29 55 47 5 57 50 7 0
103 107 104 108 38 92 74 19 93 81 17 0
103 107 104 108 32 67 60 70 8 61 9 0
103 107 104 108 40 96 76 97 84 22 21 0
103 107 104 29 55 47 5 57 50 7 53 0
103 107 104 38 92 74 19 93 81 17 89 0
103 107 104 32 67 60 70 8 61 9 66 0
103 107 106 101 108 29 55 47 5 57 45 0
103 107 106 101 108 38 92 74 19 93 63 0
103 107 106 101 108 36 85 72 88 62 14 0
103 107 106 101 108 4 24 12 27 10 1 0
103 107 106 101 108 40 96 76 97 65 21 0
103 107 106 101 29 55 47 5 57 45 53 0
103 107 106 101 38 92 74 19 93 63 89 0
103 107 106 101 36 85 72 88 62 14 83 0
103 107 106 101 4 24 12 27 10 1 20 0
103 107 106 108 29 55 47 5 57 45 7 0
103 107 106 108 38 92 74 19 93 63 17 0
103 107 106 108 36 85 72 88 62 14 16 0
103 107 106 108 40 96 76 97 65 22 21 0
103 107 106 29 55 47 5 57 45 7 53 0
103 107 106 38 92 74 19 93 63 17 89 0
103 107 106 36 85 72 88 62 14 16 83 0
103 107 101 108 29 55 47 5 57 45 50 0
103 107 101 108 38 92 74 19 93 63 81 0
103 107 101 108 4 24 12 27 10 15 1 0
103 107 101 108 40 96 76 97 65 84 21 0
103 107 101 29 55 47 5 57 45 50 53 0
103 107 101 38 92 74 19 93 63 81 89 0
103 107 101 4 24 12 27 10 15 1 20 0
103 107 108 29 55 47 5 57 45 50 7 0
103 107 108 38 92 74 19 93 63 81 17 0
103 107 108 40 96 76 97 65 84 22 21 0
103 107 29 55 47 5 57 45 50 7 53 0
103 107 38 92 74 19 93 63 81 17 89 0
103 110 104 106 101 108 29 55 47 5 52 0
103 110 104 106 101 108 44 99 79 94 26 0
103 110 104 106 101 108 32 67 60 64 8 0
103 110 104 106 101 108 36 85 72 82 14 0
103 110 104 106 101 108 4 24 12 18 1 0
103 110 104 106 101 108 40 96 76 90 21 0
103 110 104 106 101 29 55 47 5 52 53 0
103 110 104 106 101 44 99 79 94 26 98 0
103 110 104 106 101 32 67 60 64 8 66 0
103 110 104 106 101 36 85 72 82 14 83 0
103 110 104 106 101 4 24 12 18 1 20 0
103 110 104 106 108 29 55 47 5 52 7 0
103 110 104 106 108 44 99 79 94 26 28 0
103 110 104 106 108 32 67 60 64 8 9 0
103 110 104 106 108 36 85 72 82 14 16 0
103 110 104 106 108 40 96 76 90 22 21 0
103 110 104 106 29 55 47 5 52 7 53 0
103 110 104 106 44 99 79 94 26 28 98 0
103 110 104 106 32 67 60 64 8 9 66 0
103 110 104 106 36 85 72 82 14 16 83 0
103 110 104 101 108 29 55 47 5 52 50 0
103 110 104 101 108 44 99 79 94 26 87 0
103 110 104 101 108 32 67 60 64 8 61 0
103 110 104 101 108 4 24 12 18 15 1 0
103 110 104 101 108 40 96 76 90 84 21 0
103 110 104 101 29 55 47 5 52 50 53 0
103 110 104 101 44 99 79 94 26 87 98 0
103 110 104 101 32 67 60 64 8 61 66 0
103 110 104 101 4 24 12 18 15 1 20 0
103 110 104 108 29 55 47 5 52 50 7 0
103 110 104 108 44 99 79 94 26 87 28 0
103 110 104 108 32 67 60 64 8 61 9 0
103 110 104 108 40 96 76 90 84 22 21 0
103 110 104 29 55 47 5 52 50 7 53 0
103 110 104 44 99 79 94 26 87 28 98 0
103 110 104 32 67 60 64 8 61 9 66 0
103 110 106 101 108 29 55 47 5 52 45 0
103 110 106 101 108 44 99 79 94 26 69 0
103 110 106 101 108 36 85 72 82 62 14 0
103 110 106 101 108 4 24 12 18 10 1 0
103 110 106 101 108 40 96 76 90 65 21 0
103 110 106 101 29 55 47 5 52 45 53 0
103 110 106 101 44 99 79 94 26 69 98 0
103 110 106 101 36 85 72 82 62 14 83 0
103 110 106 101 4 24 12 18 10 1 20 0
103 110 106 108 29 55 47 5 52 45 7 0
103 110 106 108 44 99 79 94 26 69 28 0
103 110 106 108 36 85 72 82 62 14 16 0
103 110 106 108 40 96 76 90 65 22 21 0
103 110 106 29 55 47 5 52 45 7 53 0
103 110 106 44 99 79 94 26 69 28 98 0
103 110 106 36 85 72 82 62 14 16 83 0
103 110 101 108 29 55 47 5 52 45 50 0
103 110 101 108 44 99 79 94 26 69 87 0
103 110 101 108 4 24 12 18 10 15 1 0
103 110 101 108 40 96 76 90 65 84 21 0
103 110 101 29 55 47 5 52 45 50 53 0
103 110 101 44 99 79 94 26 69 87 98 0
103 110 101 4 24 12 18 10 15 1 20 0
103 110 108 29 55 47 5 52 45 50 7 0
103 110 108 44 99 79 94 26 69 87 28 0
103 110 108 40 96 76 90 65 84 22 21 0
103 110 29 55 47 5 52 45 50 7 53 0
103 110 44 99 79 94 26 69 87 28 98 0
103 104 106 101 108 29 55 47 5 52 57 0
103 104 106 101 108 32 67 60 64 70 8 0
103 104 106 101 108 36 85 72 82 88 14 0
103 104 106 101 108 4 24 12 18 27 1 0
103 104 106 101 108 40 96 76 90 97 21 0
103 104 106 101 29 55 47 5 52 57 53 0
103 104 106 101 32 67 60 64 70 8 66 0
103 104 106 101 36 85 72 82 88 14 83 0
103 104 106 101 4 24 12 18 27 1 20 0
103 104 106 108 29 55 47 5 52 57 7 0
103 104 106 108 32 67 60 64 70 8 9 0
103 104 106 108 36 85 72 82 88 14 16 0
103 104 106 108 40 96 76 90 97 22 21 0
103 104 106 29 55 47 5 52 57 7 53 0
103 104 106 32 67 60 64 70 8 9 66 0
103 104 106 36 85 72 82 88 14 16 83 0
103 104 101 108 29 55 47 5 52 57 50 0
103 104 101 108 32 67 60 64 70 8 61 0
103 104 101 108 4 24 12 18 27 15 1 0
103 104 101 108 40 96 76 90 97 84 21 0
103 104 101 29 55 47 5 52 57 50 53 0
103 104 101 32 67 60 64 70 8 61 66 0
103 104 101 4 24 12 18 27 15 1 20 0
103 104 108 29 55 47 5 52 57 50 7 0
103 104 108 32 67 60 64 70 8 61 9 0
103 104 108 40 96 76 90 97 84 22 21 0
103 104 29 55 47 5 52 57 50 7 53 0
103 104 32 67 60 64 70 8 61 9 66 0
103 106 101 108 29 55 47 5 52 57 45 0
103 106 101 108 36 85 72 82 88 62 14 0
103 106 101 108 4 24 12 18 27 10 1 0
103 106 101 108 40 96 76 90 97 65 21 0
103 106 101 29 55 47 5 52 57 45 53 0
103 106 101 36 85 72 82 88 62 14 83 0
103 106 101 4 24 12 18 27 10 1 20 0
103 106 108 29 55 47 5 52 57 45 7 0
103 106 108 36 85 72 82 88 62 14 16 0
103 106 108 40 96 76 90 97 65 22 21 0
103 106 29 55 47 5 52 57 45 7 53 0
103 106 36 85 72 82 88 62 14 16 83 0
103 101 108 29 55 47 5 52 57 45 50 0
103 101 108 4 24 12 18 27 10 15 1 0
103 101 108 40 96 76 90 97 65 84 21 0
103 101 29 55 47 5 52 57 45 50 53 0
103 101 4 24 12 18 27 10 15 1 20 0
103 108 29 55 47 5 52 57 45 50 7 0
103 108 40 96 76 90 97 65 84 22 21 0
103 29 55 47 5 52 57 45 50 7 53 0
107 110 104 106 101 108 38 92 74 51 19 0
107 110 104 106 101 108 44 99 79 58 26 0
107 110 104 106 101 108 32 67 60 46 8 0
107 110 104 106 101 108 36 85 72 49 14 0
107 110 104 106 101 108 4 24 12 6 1 0
107 110 104 106 101 108 40 96 76 54 21 0
107 110 104 106 101 38 92 74 51 19 89 0
107 110 104 106 101 44 99 79 58 26 98 0
107 110 104 106 101 32 67 60 46 8 66 0
107 110 104 106 101 36 85 72 49 14 83 0
107 110 104 106 101 4 24 12 6 1 20 0
107 110 104 106 108 38 92 74 51 19 17 0
107 110 104 106 108 44 99 79 58 26 28 0
107 110 104 106 108 32 67 60 46 8 9 0
107 110 104 106 108 36 85 72 49 14 16 0
107 110 104 106 108 40 96 76 54 22 21 0
107 110 104 106 38 92 74 51 19 17 89 0
107 110 104 106 44 99 79 58 26 28 98 0
107 110 104 106 32 67 60 46 8 9 66 0
107 110 104 106 36 85 72 49 14 16 83 0
107 110 104 101 108 38 92 74 51 19 81 0
107 110 104 101 108 44 99 79 58 26 87 0
107 110 104 101 108 32 67 60 46 8 61 0
107 110 104 101 108 4 24 12 6 15 1 0
107 110 104 101 108 40 96 76 54 84 21 0
107 110 104 101 38 92 74 51 19 81 89 0
107 110 104 101 44 99 79 58 26 87 98 0
107 110 104 101 32 67 60 46 8 61 66 0
107 110 104 101 4 24 12 6 15 1 20 0
107 110 104 108 38 92 74 51 19 81 17 0
107 110 104 108 44 99 79 58 26 87 28 0
107 110 104 108 32 67 60 46 8 61 9 0
107 110 104 108 40 96 76 54 84 22 21 0
107 110 104 38 92 74 51 19 81 17 89 0
107 110 104 44 99 79 58 26 87 28 98 0
107 110 104 32 67 60 46 8 61 9 66 0
107 110 106 101 108 38 92 74 51 19 63 0
107 110 106 101 108 44 99 79 58 26 69 0
107 110 106 101 108 36 85 72 49 62 14 0
107 110 106 101 108 4 24 12 6 10 1 0
107 110 106 101 108 40 96 76 54 65 21 0
107 110 106 101 38 92 74 51 19 63 89 0
107 110 106 101 44 99 79 58 26 69 98 0
107 110 106 101 36 85 72 49 62 14 83 0
107 110 106 101 4 24 12 6 10 1 20 0
107 110 106 108 38 92 74 51 19 63 17 0
107 110 106 108 44 99 79 58 26 69 28 0
107 110 106 108 36 85 72 49 62 14 16 0
107 110 106 108 40 96 76 54 65 22 21 0
107 110 106 38 92 74 51 19 63 17 89 0
107 110 106 44 99 79 58 26 69 28 98 0
107 110 106 36 85 72 49 62 14 16 83 0
107 110 101 108 38 92 74 51 19 63 81 0
107 110 101 108 44 99 79 58 26 69 87 0
107 110 101 108 4 24 12 6 10 15 1 0
107 110 101 108 40 96 76 54 65 84 21 0
107 110 101 38 92 74 51 19 63 81 89 0
107 110 101 44 99 79 58 26 69 87 98 0
107 110 101 4 24 12 6 10 15 1 20 0
107 110 108 38 92 74 51 19 63 81 17 0
107 110 108 44 99 79 58 26 69 87 28 0
107 110 108 40 96 76 54 65 84 22 21 0
107 110 38 92 74 51 19 63 81 17 89 0
107 110 44 99 79 58 26 69 87 28 98 0
107 104 106 101 108 38 92 74 51 19 93 0
107 104 106 101 108 32 67 60 46 70 8 0
107 104 106 101 108 36 85 72 49 88 14 0
107 104 106 101 108 4 24 12 6 27 1 0
107 104 106 101 108 40 96 76 54 97 21 0
107 104 106 101 38 92 74 51 19 93 89 0
107 104 106 101 32 67 60 46 70 8 66 0
107 104 106 101 36 85 72 49 88 14 83 0
107 104 106 101 4 24 12 6 27 1 20 0
107 104 106 108 38 92 74 51 19 93 17 0
107 104 106 108 32 67 60 46 70 8 9 0
107 104 106 108 36 85 72 49 88 14 16 0
107 104 106 108 40 96 76 54 97 22 21 0
107 104 106 38 92 74 51 19 93 17 89 0
107 104 106 32 67 60 46 70 8 9 66 0
107 104 106 36 85 72 49 88 14 16 83 0
107 104 101 108 38 92 74 51 19 93 81 0
107 104 101 108 32 67 60 46 70 8 61 0
107 104 101 108 4 24 12 6 27 15 1 0
107 104 101 108 40 96 76 54 97 84 21 0
107 104 101 38 92 74 51 19 93 81 89 0
107 104 101 32 67 60 46 70 8 61 66 0
107 104 101 4 24 12 6 27 15 1 20 0
107 104 108 38 92 74 51 19 93 81 17 0
107 104 108 32 67 60 46 70 8 61 9 0
107 104 108 40 96 76 54 97 84 22 21 0
107 104 38 92 74 51 19 93 81 17 89 0
107 104 32 67 60 46 70 8 61 9 66 0
107 106 101 108 38 92 74 51 19 93 63 0
107 106 101 108 36 85 72 49 88 62 14 0
107 106 101 108 4 24 12 6 27 10 1 0
107 106 101 108 40 96 76 54 97 65 21 0
107 106 101 38 92 74 51 19 93 63 89 0
107 106 101 36 85 72 49 88 62 14 83 0
107 106 101 4 24 12 6 27 10 1 20 0
107 106 108 38 92 74 51 19 93 63 17 0
107 106 108 36 85 72 49 88 62 14 16 0
107 106 108 40 96 76 54 97 65 22 21 0
107 106 38 92 74 51 19 93 63 17 89 0
107 106 36 85 72 49 88 62 14 16 83 0
107 101 108 38 92 74 51 19 93 63 81 0
107 101 108 4 24 12 6 27 10 15 1 0
107 101 108 40 96 76 54 97 65 84 21 0
107 101 38 92 74 51 19 93 63 81 89 0
107 101 4 24 12 6 27 10 15 1 20 0
107 108 38 92 74 51 19 93 63 81 17 0
107 108 40 96 76 54 97 65 84 22 21 0
107 38 92 74 51 19 93 63 81 17 89 0
110 104 106 101 108 44 99 79 58 94 26 0
110 104 106 101 108 32 67 60 46 64 8 0
110 104 106 101 108 36 85 72 49 82 14 0
110 104 106 101 108 4 24 12 6 18 1 0
110 104 106 101 108 40 96 76 54 90 21 0
110 104 106 101 44 99 79 58 94 26 98 0
110 104 106 101 32 67 60 46 64 8 66 0
110 104 106 101 36 85 72 49 82 14 83 0
110 104 106 101 4 24 12 6 18 1 20 0
110 104 106 108 44 99 79 58 94 26 28 0
110 104 106 108 32 67 60 46 64 8 9 0
110 104 106 108 36 85 72 49 82 14 16 0
110 104 106 108 40 96 76 54 90 22 21 0
110 104 106 44 99 79 58 94 26 28 98 0
110 104 106 32 67 60 46 64 8 9 66 0
110 104 106 36 85 72 49 82 14 16 83 0
110 104 101 108 44 99 79 58 94 26 87 0
110 104 101 108 32 67 60 46 64 8 61 0
110 104 101 108 4 24 12 6 18 15 1 0
110 104 101 108 40 96 76 54 90 84 21 0
110 104 101 44 99 79 58 94 26 87 98 0
110 104 101 32 67 60 46 64 8 61 66 0
110 104 101 4 24 12 6 18 15 1 20 0
110 104 108 44 99 79 58 94 26 87 28 0
110 104 108 32 67 60 46 64 8 61 9 0
110 104 108 40 96 76 54 90 84 22 21 0
110 104 44 99 79 58 94 26 87 28 98 0
110 104 32 67 60 46 64 8 61 9 66 0
110 106 101 108 44 99 79 58 94 26 69 0
110 106 101 108 36 85 72 49 82 62 14 0
110 106 101 108 4 24 12 6 18 10 1 0
110 106 101 108 40 96 76 54 90 65 21 0
110 106 101 44 99 79 58 94 26 69 98 0
110 106 101 36 85 72 49 82 62 14 83 0
110 106 101 4 24 12 6 18 10 1 20 0
110 106 108 44 99 79 58 94 26 69 28 0
110 106 108 36 85 72 49 82 62 14 16 0
110 106 108 40 96 76 54 90 65 22 21 0
110 106 44 99 79 58 94 26 69 28 98 0
110 106 36 85 72 49 82 62 14 16 83 0
110 101 108 44 99 79 58 94 26 69 87 0
110 101 108 4 24 12 6 18 10 15 1 0
110 101 108 40 96 76 54 90 65 84 21 0
110 101 44 99 79 58 94 26 69 87 98 0
110 101 4 24 12 6 18 10 15 1 20 0
110 108 44 99 79 58 94 26 69 87 28 0
110 108 40 96 76 54 90 65 84 22 21 0
110 44 99 79 58 94 26 69 87 28 98 0
104 106 101 108 32 67 60 46 64 70 8 0
104 106 101 108 36 85 72 49 82 88 14 0
104 106 101 108 4 24 12 6 18 27 1 0
104 106 101 108 40 96 76 54 90 97 21 0
104 106 101 32 67 60 46 64 70 8 66 0
104 106 101 36 85 72 49 82 88 14 83 0
104 106 101 4 24 12 6 18 27 1 20 0
104 106 108 32 67 60 46 64 70 8 9 0
104 106 108 36 85 72 49 82 88 14 16 0
104 106 108 40 96 76 54 90 97 22 21 0
104 106 32 67 60 46 64 70 8 9 66 0
104 106 36 85 72 49 82 88 14 16 83 0
104 101 108 32 67 60 46 64 70 8 61 0
104 101 108 4 24 12 6 18 27 15 1 0
104 101 108 40 96 76 54 90 97 84 21 0
104 101 32 67 60 46 64 70 8 61 66 0
104 101 4 24 12 6 18 27 15 1 20 0
104 108 32 67 60 46 64 70 8 61 9 0
104 108 40 96 76 54 90 97 84 22 21 0
104 32 67 60 46 64 70 8 61 9 66 0
106 101 108 36 85 72 49 82 88 62 14 0
106 101 108 4 24 12 6 18 27 10 1 0
106 101 108 40 96 76 54 90 97 65 21 0
106 101 36 85 72 49 82 88 62 14 83 0
106 101 4 24 12 6 18 27 10 1 20 0
106 108 36 85 72 49 82 88 62 14 16 0
106 108 40 96 76 54 90 97 65 22 21 0
106 36 85 72 49 82 88 62 14 16 83 0
101 108 4 24 12 6 18 27 10 15 1 0
101 108 40 96 76 54 90 97 65 84 21 0
101 4 24 12 6 18 27 10 15 1 20 0
108 40 96 76 54 90 97 65 84 22 21 0
