c E(5,5) E(7,5) E(5,7) E(7,7) E(9,5) E(5,9) E(9,9) E(5,2) E(2,5) E(2,2) E(8,5) E(8,8) E(5,8) E(5,6) E(6,6) E(6,5) E(5,10) E(10,5) E(10,10) E(1,1) E(5,1) E(1,5) E(5,3) E(3,3) E(3,5) E(0,5) E(0,0) E(5,0) E(4,5) E(4,4) E(5,4) E(9,7) E(7,9) E(2,7) E(7,2) E(7,8) E(8,7) E(6,7) E(7,6) E(10,7) E(7,10) E(7,1) E(1,7) E(7,3) E(3,7) E(7,0) E(0,7) E(7,4) E(4,7) E(9,2) E(2,9) E(8,9) E(9,8) E(9,6) E(6,9) E(9,10) E(10,9) E(9,1) E(1,9) E(3,9) E(9,3) E(0,9) E(9,0) E(9,4) E(4,9) E(2,8) E(8,2) E(2,6) E(6,2) E(10,2) E(2,10) E(1,2) E(2,1) E(3,2) E(2,3) E(0,2) E(2,0) E(2,4) E(4,2) E(8,6) E(6,8) E(10,8) E(8,10) E(8,1) E(1,8) E(3,8) E(8,3) E(8,0) E(0,8) E(4,8) E(8,4) E(10,6) E(6,10) E(6,1) E(1,6) E(6,3) E(3,6) E(6,0) E(0,6) E(6,4) E(4,6) E(10,1) E(1,10) E(3,10) E(10,3) E(10,0) E(0,10) E(4,10) E(10,4) E(3,1) E(1,3) E(0,1) E(1,0) E(1,4) E(4,1) E(0,3) E(3,0) E(3,4) E(4,3) E(4,0) E(0,4) D(5) D(7) D(9) D(2) D(8) D(6) D(10) D(1) D(3) D(0) D(4)
c 1 2 3 4 5 6 7 8 9 10 11 12 13 14 15 16 17 18 19 20 21 22 23 24 25 26 27 28 29 30 31 32 33 34 35 36 37 38 39 40 41 42 43 44 45 46 47 48 49 50 51 52 53 54 55 56 57 58 59 60 61 62 63 64 65 66 67 68 69 70 71 72 73 74 75 76 77 78 79 80 81 82 83 84 85 86 87 88 89 90 91 92 93 94 95 96 97 98 99 100 101 102 103 104 105 106 107 108 109 110 111 112 113 114 115 116 117 118 119 120 121 122 123 124 125 126 127 128 129 130 131 132
p cnf 132 22650
-27 0
-20 0
-19 0
-10 0
-24 0
-30 0
-1 0
-15 0
-4 0
-12 0
-7 0
27 -27 0
112 -113 0
107 -106 0
76 -77 0
116 -117 0
121 -120 0
26 -28 0
99 -98 0
47 -46 0
89 -88 0
62 -63 0
113 -112 0
20 -20 0
103 -102 0
72 -73 0
111 -110 0
114 -115 0
22 -21 0
95 -94 0
43 -42 0
85 -84 0
59 -58 0
106 -107 0
102 -103 0
19 -19 0
70 -71 0
105 -104 0
109 -108 0
18 -17 0
92 -93 0
40 -41 0
82 -83 0
57 -56 0
77 -76 0
73 -72 0
71 -70 0
10 -10 0
75 -74 0
78 -79 0
9 -8 0
68 -69 0
34 -35 0
66 -67 0
51 -50 0
117 -116 0
110 -111 0
104 -105 0
74 -75 0
24 -24 0
118 -119 0
25 -23 0
97 -96 0
45 -44 0
86 -87 0
60 -61 0
120 -121 0
115 -114 0
108 -109 0
79 -78 0
119 -118 0
30 -30 0
29 -31 0
101 -100 0
49 -48 0
90 -91 0
65 -64 0
28 -26 0
21 -22 0
17 -18 0
8 -9 0
23 -25 0
31 -29 0
1 -1 0
14 -16 0
3 -2 0
13 -11 0
6 -5 0
98 -99 0
94 -95 0
93 -92 0
69 -68 0
96 -97 0
100 -101 0
16 -14 0
15 -15 0
38 -39 0
81 -80 0
55 -54 0
46 -47 0
42 -43 0
41 -40 0
35 -34 0
44 -45 0
48 -49 0
2 -3 0
39 -38 0
4 -4 0
36 -37 0
33 -32 0
88 -89 0
84 -85 0
83 -82 0
67 -66 0
87 -86 0
91 -90 0
11 -13 0
80 -81 0
37 -36 0
12 -12 0
52 -53 0
63 -62 0
58 -59 0
56 -57 0
50 -51 0
61 -60 0
64 -65 0
5 -6 0
54 -55 0
32 -33 0
53 -52 0
7 -7 0
131 129 128 125 130 132 122 127 123 126 124 0
131 129 128 125 130 132 122 127 123 126 62 0
131 129 128 125 130 132 122 127 123 126 59 0
131 129 128 125 130 132 122 127 123 126 57 0
131 129 128 125 130 132 122 127 123 126 51 0
131 129 128 125 130 132 122 127 123 126 60 0
131 129 128 125 130 132 122 127 123 126 65 0
131 129 128 125 130 132 122 127 123 126 6 0
131 129 128 125 130 132 122 127 123 126 55 0
131 129 128 125 130 132 122 127 123 126 33 0
131 129 128 125 130 132 122 127 123 126 52 0
131 129 128 125 130 132 122 127 123 124 89 0
131 129 128 125 130 132 122 127 123 124 85 0
131 129 128 125 130 132 122 127 123 124 82 0
131 129 128 125 130 132 122 127 123 124 66 0
131 129 128 125 130 132 122 127 123 124 86 0
131 129 128 125 130 132 122 127 123 124 90 0
131 129 128 125 130 132 122 127 123 124 13 0
131 129 128 125 130 132 122 127 123 124 81 0
131 129 128 125 130 132 122 127 123 124 36 0
131 129 128 125 130 132 122 127 123 124 53 0
131 129 128 125 130 132 122 127 123 89 62 0
131 129 128 125 130 132 122 127 123 85 59 0
131 129 128 125 130 132 122 127 123 82 57 0
131 129 128 125 130 132 122 127 123 66 51 0
131 129 128 125 130 132 122 127 123 86 60 0
131 129 128 125 130 132 122 127 123 90 65 0
131 129 128 125 130 132 122 127 123 13 6 0
131 129 128 125 130 132 122 127 123 81 55 0
131 129 128 125 130 132 122 127 123 36 33 0
131 129 128 125 130 132 122 127 126 124 47 0
131 129 128 125 130 132 122 127 126 124 43 0
131 129 128 125 130 132 122 127 126 124 40 0
131 129 128 125 130 132 122 127 126 124 34 0
131 129 128 125 130 132 122 127 126 124 45 0
131 129 128 125 130 132 122 127 126 124 49 0
131 129 128 125 130 132 122 127 126 124 3 0
131 129 128 125 130 132 122 127 126 124 38 0
131 129 128 125 130 132 122 127 126 124 37 0
131 129 128 125 130 132 122 127 126 124 32 0
131 129 128 125 130 132 122 127 126 47 62 0
131 129 128 125 130 132 122 127 126 43 59 0
131 129 128 125 130 132 122 127 126 40 57 0
131 129 128 125 130 132 122 127 126 34 51 0
131 129 128 125 130 132 122 127 126 45 60 0
131 129 128 125 130 132 122 127 126 49 65 0
131 129 128 125 130 132 122 127 126 3 6 0
131 129 128 125 130 132 122 127 126 38 55 0
131 129 128 125 130 132 122 127 126 37 52 0
131 129 128 125 130 132 122 127 124 47 89 0
131 129 128 125 130 132 122 127 124 43 85 0
131 129 128 125 130 132 122 127 124 40 82 0
131 129 128 125 130 132 122 127 124 34 66 0
131 129 128 125 130 132 122 127 124 45 86 0
131 129 128 125 130 132 122 127 124 49 90 0
131 129 128 125 130 132 122 127 124 3 13 0
131 129 128 125 130 132 122 127 124 38 81 0
131 129 128 125 130 132 122 127 124 32 53 0
131 129 128 125 130 132 122 127 47 89 62 0
131 129 128 125 130 132 122 127 43 85 59 0
131 129 128 125 130 132 122 127 40 82 57 0
131 129 128 125 130 132 122 127 34 66 51 0
131 129 128 125 130 132 122 127 45 86 60 0
131 129 128 125 130 132 122 127 49 90 65 0
131 129 128 125 130 132 122 127 3 13 6 0
131 129 128 125 130 132 122 127 38 81 55 0
131 129 128 125 130 132 122 123 126 124 99 0
131 129 128 125 130 132 122 123 126 124 95 0
131 129 128 125 130 132 122 123 126 124 92 0
131 129 128 125 130 132 122 123 126 124 68 0
131 129 128 125 130 132 122 123 126 124 97 0
131 129 128 125 130 132 122 123 126 124 101 0
131 129 128 125 130 132 122 123 126 124 14 0
131 129 128 125 130 132 122 123 126 124 39 0
131 129 128 125 130 132 122 123 126 124 80 0
131 129 128 125 130 132 122 123 126 124 54 0
131 129 128 125 130 132 122 123 126 99 62 0
131 129 128 125 130 132 122 123 126 95 59 0
131 129 128 125 130 132 122 123 126 92 57 0
131 129 128 125 130 132 122 123 126 68 51 0
131 129 128 125 130 132 122 123 126 97 60 0
131 129 128 125 130 132 122 123 126 101 65 0
131 129 128 125 130 132 122 123 126 14 6 0
131 129 128 125 130 132 122 123 126 39 33 0
131 129 128 125 130 132 122 123 126 80 52 0
131 129 128 125 130 132 122 123 124 99 89 0
131 129 128 125 130 132 122 123 124 95 85 0
131 129 128 125 130 132 122 123 124 92 82 0
131 129 128 125 130 132 122 123 124 68 66 0
131 129 128 125 130 132 122 123 124 97 86 0
131 129 128 125 130 132 122 123 124 101 90 0
131 129 128 125 130 132 122 123 124 14 13 0
131 129 128 125 130 132 122 123 124 39 36 0
131 129 128 125 130 132 122 123 124 54 53 0
131 129 128 125 130 132 122 123 99 89 62 0
131 129 128 125 130 132 122 123 95 85 59 0
131 129 128 125 130 132 122 123 92 82 57 0
131 129 128 125 130 132 122 123 68 66 51 0
131 129 128 125 130 132 122 123 97 86 60 0
131 129 128 125 130 132 122 123 101 90 65 0
131 129 128 125 130 132 122 123 14 13 6 0
131 129 128 125 130 132 122 123 39 36 33 0
131 129 128 125 130 132 122 126 124 99 47 0
131 129 128 125 130 132 122 126 124 95 43 0
131 129 128 125 130 132 122 126 124 92 40 0
131 129 128 125 130 132 122 126 124 68 34 0
131 129 128 125 130 132 122 126 124 97 45 0
131 129 128 125 130 132 122 126 124 101 49 0
131 129 128 125 130 132 122 126 124 14 3 0
131 129 128 125 130 132 122 126 124 80 37 0
131 129 128 125 130 132 122 126 124 54 32 0
131 129 128 125 130 132 122 126 99 47 62 0
131 129 128 125 130 132 122 126 95 43 59 0
131 129 128 125 130 132 122 126 92 40 57 0
131 129 128 125 130 132 122 126 68 34 51 0
131 129 128 125 130 132 122 126 97 45 60 0
131 129 128 125 130 132 122 126 101 49 65 0
131 129 128 125 130 132 122 126 14 3 6 0
131 129 128 125 130 132 122 126 80 37 52 0
131 129 128 125 130 132 122 124 99 47 89 0
131 129 128 125 130 132 122 124 95 43 85 0
131 129 128 125 130 132 122 124 92 40 82 0
131 129 128 125 130 132 122 124 68 34 66 0
131 129 128 125 130 132 122 124 97 45 86 0
131 129 128 125 130 132 122 124 101 49 90 0
131 129 128 125 130 132 122 124 14 3 13 0
131 129 128 125 130 132 122 124 54 32 53 0
131 129 128 125 130 132 122 99 47 89 62 0
131 129 128 125 130 132 122 95 43 85 59 0
131 129 128 125 130 132 122 92 40 82 57 0
131 129 128 125 130 132 122 68 34 66 51 0
131 129 128 125 130 132 122 97 45 86 60 0
131 129 128 125 130 132 122 101 49 90 65 0
131 129 128 125 130 132 122 14 3 13 6 0
131 129 128 125 130 132 127 123 126 124 26 0
131 129 128 125 130 132 127 123 126 124 22 0
131 129 128 125 130 132 127 123 126 124 18 0
131 129 128 125 130 132 127 123 126 124 9 0
131 129 128 125 130 132 127 123 126 124 25 0
131 129 128 125 130 132 127 123 126 124 29 0
131 129 128 125 130 132 127 123 126 124 16 0
131 129 128 125 130 132 127 123 126 124 2 0
131 129 128 125 130 132 127 123 126 124 11 0
131 129 128 125 130 132 127 123 126 124 5 0
131 129 128 125 130 132 127 123 126 26 62 0
131 129 128 125 130 132 127 123 126 22 59 0
131 129 128 125 130 132 127 123 126 18 57 0
131 129 128 125 130 132 127 123 126 9 51 0
131 129 128 125 130 132 127 123 126 25 60 0
131 129 128 125 130 132 127 123 126 29 65 0
131 129 128 125 130 132 127 123 126 16 55 0
131 129 128 125 130 132 127 123 126 2 33 0
131 129 128 125 130 132 127 123 126 11 52 0
131 129 128 125 130 132 127 123 124 26 89 0
131 129 128 125 130 132 127 123 124 22 85 0
131 129 128 125 130 132 127 123 124 18 82 0
131 129 128 125 130 132 127 123 124 9 66 0
131 129 128 125 130 132 127 123 124 25 86 0
131 129 128 125 130 132 127 123 124 29 90 0
131 129 128 125 130 132 127 123 124 16 81 0
131 129 128 125 130 132 127 123 124 2 36 0
131 129 128 125 130 132 127 123 124 5 53 0
131 129 128 125 130 132 127 123 26 89 62 0
131 129 128 125 130 132 127 123 22 85 59 0
131 129 128 125 130 132 127 123 18 82 57 0
131 129 128 125 130 132 127 123 9 66 51 0
131 129 128 125 130 132 127 123 25 86 60 0
131 129 128 125 130 132 127 123 29 90 65 0
131 129 128 125 130 132 127 123 16 81 55 0
131 129 128 125 130 132 127 123 2 36 33 0
131 129 128 125 130 132 127 126 124 26 47 0
131 129 128 125 130 132 127 126 124 22 43 0
131 129 128 125 130 132 127 126 124 18 40 0
131 129 128 125 130 132 127 126 124 9 34 0
131 129 128 125 130 132 127 126 124 25 45 0
131 129 128 125 130 132 127 126 124 29 49 0
131 129 128 125 130 132 127 126 124 16 38 0
131 129 128 125 130 132 127 126 124 11 37 0
131 129 128 125 130 132 127 126 124 5 32 0
131 129 128 125 130 132 127 126 26 47 62 0
131 129 128 125 130 132 127 126 22 43 59 0
131 129 128 125 130 132 127 126 18 40 57 0
131 129 128 125 130 132 127 126 9 34 51 0
131 129 128 125 130 132 127 126 25 45 60 0
131 129 128 125 130 132 127 126 29 49 65 0
131 129 128 125 130 132 127 126 16 38 55 0
131 129 128 125 130 132 127 126 11 37 52 0
131 129 128 125 130 132 127 124 26 47 89 0
131 129 128 125 130 132 127 124 22 43 85 0
131 129 128 125 130 132 127 124 18 40 82 0
131 129 128 125 130 132 127 124 9 34 66 0
131 129 128 125 130 132 127 124 25 45 86 0
131 129 128 125 130 132 127 124 29 49 90 0
131 129 128 125 130 132 127 124 16 38 81 0
131 129 128 125 130 132 127 124 5 32 53 0
131 129 128 125 130 132 127 26 47 89 62 0
131 129 128 125 130 132 127 22 43 85 59 0
131 129 128 125 130 132 127 18 40 82 57 0
131 129 128 125 130 132 127 9 34 66 51 0
131 129 128 125 130 132 127 25 45 86 60 0
131 129 128 125 130 132 127 29 49 90 65 0
131 129 128 125 130 132 127 16 38 81 55 0
131 129 128 125 130 132 123 126 124 26 99 0
131 129 128 125 130 132 123 126 124 22 95 0
131 129 128 125 130 132 123 126 124 18 92 0
131 129 128 125 130 132 123 126 124 9 68 0
131 129 128 125 130 132 123 126 124 25 97 0
131 129 128 125 130 132 123 126 124 29 101 0
131 129 128 125 130 132 123 126 124 2 39 0
131 129 128 125 130 132 123 126 124 11 80 0
131 129 128 125 130 132 123 126 124 5 54 0
131 129 128 125 130 132 123 126 26 99 62 0
131 129 128 125 130 132 123 126 22 95 59 0
131 129 128 125 130 132 123 126 18 92 57 0
131 129 128 125 130 132 123 126 9 68 51 0
131 129 128 125 130 132 123 126 25 97 60 0
131 129 128 125 130 132 123 126 29 101 65 0
131 129 128 125 130 132 123 126 2 39 33 0
131 129 128 125 130 132 123 126 11 80 52 0
131 129 128 125 130 132 123 124 26 99 89 0
131 129 128 125 130 132 123 124 22 95 85 0
131 129 128 125 130 132 123 124 18 92 82 0
131 129 128 125 130 132 123 124 9 68 66 0
131 129 128 125 130 132 123 124 25 97 86 0
131 129 128 125 130 132 123 124 29 101 90 0
131 129 128 125 130 132 123 124 2 39 36 0
131 129 128 125 130 132 123 124 5 54 53 0
131 129 128 125 130 132 123 26 99 89 62 0
131 129 128 125 130 132 123 22 95 85 59 0
131 129 128 125 130 132 123 18 92 82 57 0
131 129 128 125 130 132 123 9 68 66 51 0
131 129 128 125 130 132 123 25 97 86 60 0
131 129 128 125 130 132 123 29 101 90 65 0
131 129 128 125 130 132 123 2 39 36 33 0
131 129 128 125 130 132 126 124 26 99 47 0
131 129 128 125 130 132 126 124 22 95 43 0
131 129 128 125 130 132 126 124 18 92 40 0
131 129 128 125 130 132 126 124 9 68 34 0
131 129 128 125 130 132 126 124 25 97 45 0
131 129 128 125 130 132 126 124 29 101 49 0
131 129 128 125 130 132 126 124 11 80 37 0
131 129 128 125 130 132 126 124 5 54 32 0
131 129 128 125 130 132 126 26 99 47 62 0
131 129 128 125 130 132 126 22 95 43 59 0
131 129 128 125 130 132 126 18 92 40 57 0
131 129 128 125 130 132 126 9 68 34 51 0
131 129 128 125 130 132 126 25 97 45 60 0
131 129 128 125 130 132 126 29 101 49 65 0
131 129 128 125 130 132 126 11 80 37 52 0
131 129 128 125 130 132 124 26 99 47 89 0
131 129 128 125 130 132 124 22 95 43 85 0
131 129 128 125 130 132 124 18 92 40 82 0
131 129 128 125 130 132 124 9 68 34 66 0
131 129 128 125 130 132 124 25 97 45 86 0
131 129 128 125 130 132 124 29 101 49 90 0
131 129 128 125 130 132 124 5 54 32 53 0
131 129 128 125 130 132 26 99 47 89 62 0
131 129 128 125 130 132 22 95 43 85 59 0
131 129 128 125 130 132 18 92 40 82 57 0
131 129 128 125 130 132 9 68 34 66 51 0
131 129 128 125 130 132 25 97 45 86 60 0
131 129 128 125 130 132 29 101 49 90 65 0
131 129 128 125 130 122 127 123 126 124 121 0
131 129 128 125 130 122 127 123 126 124 114 0
131 129 128 125 130 122 127 123 126 124 109 0
131 129 128 125 130 122 127 123 126 124 78 0
131 129 128 125 130 122 127 123 126 124 118 0
131 129 128 125 130 122 127 123 126 124 31 0
131 129 128 125 130 122 127 123 126 124 100 0
131 129 128 125 130 122 127 123 126 124 48 0
131 129 128 125 130 122 127 123 126 124 91 0
131 129 128 125 130 122 127 123 126 124 64 0
131 129 128 125 130 122 127 123 126 121 62 0
131 129 128 125 130 122 127 123 126 114 59 0
131 129 128 125 130 122 127 123 126 109 57 0
131 129 128 125 130 122 127 123 126 78 51 0
131 129 128 125 130 122 127 123 126 118 60 0
131 129 128 125 130 122 127 123 126 31 6 0
131 129 128 125 130 122 127 123 126 100 55 0
131 129 128 125 130 122 127 123 126 48 33 0
131 129 128 125 130 122 127 123 126 91 52 0
131 129 128 125 130 122 127 123 124 121 89 0
131 129 128 125 130 122 127 123 124 114 85 0
131 129 128 125 130 122 127 123 124 109 82 0
131 129 128 125 130 122 127 123 124 78 66 0
131 129 128 125 130 122 127 123 124 118 86 0
131 129 128 125 130 122 127 123 124 31 13 0
131 129 128 125 130 122 127 123 124 100 81 0
131 129 128 125 130 122 127 123 124 48 36 0
131 129 128 125 130 122 127 123 124 64 53 0
131 129 128 125 130 122 127 123 121 89 62 0
131 129 128 125 130 122 127 123 114 85 59 0
131 129 128 125 130 122 127 123 109 82 57 0
131 129 128 125 130 122 127 123 78 66 51 0
131 129 128 125 130 122 127 123 118 86 60 0
131 129 128 125 130 122 127 123 31 13 6 0
131 129 128 125 130 122 127 123 100 81 55 0
131 129 128 125 130 122 127 123 48 36 33 0
131 129 128 125 130 122 127 126 124 121 47 0
131 129 128 125 130 122 127 126 124 114 43 0
131 129 128 125 130 122 127 126 124 109 40 0
131 129 128 125 130 122 127 126 124 78 34 0
131 129 128 125 130 122 127 126 124 118 45 0
131 129 128 125 130 122 127 126 124 31 3 0
131 129 128 125 130 122 127 126 124 100 38 0
131 129 128 125 130 122 127 126 124 91 37 0
131 129 128 125 130 122 127 126 124 64 32 0
131 129 128 125 130 122 127 126 121 47 62 0
131 129 128 125 130 122 127 126 114 43 59 0
131 129 128 125 130 122 127 126 109 40 57 0
131 129 128 125 130 122 127 126 78 34 51 0
131 129 128 125 130 122 127 126 118 45 60 0
131 129 128 125 130 122 127 126 31 3 6 0
131 129 128 125 130 122 127 126 100 38 55 0
131 129 128 125 130 122 127 126 91 37 52 0
131 129 128 125 130 122 127 124 121 47 89 0
131 129 128 125 130 122 127 124 114 43 85 0
131 129 128 125 130 122 127 124 109 40 82 0
131 129 128 125 130 122 127 124 78 34 66 0
131 129 128 125 130 122 127 124 118 45 86 0
131 129 128 125 130 122 127 124 31 3 13 0
131 129 128 125 130 122 127 124 100 38 81 0
131 129 128 125 130 122 127 124 64 32 53 0
131 129 128 125 130 122 127 121 47 89 62 0
131 129 128 125 130 122 127 114 43 85 59 0
131 129 128 125 130 122 127 109 40 82 57 0
131 129 128 125 130 122 127 78 34 66 51 0
131 129 128 125 130 122 127 118 45 86 60 0
131 129 128 125 130 122 127 31 3 13 6 0
131 129 128 125 130 122 127 100 38 81 55 0
131 129 128 125 130 122 123 126 124 121 99 0
131 129 128 125 130 122 123 126 124 114 95 0
131 129 128 125 130 122 123 126 124 109 92 0
131 129 128 125 130 122 123 126 124 78 68 0
131 129 128 125 130 122 123 126 124 118 97 0
131 129 128 125 130 122 123 126 124 31 14 0
131 129 128 125 130 122 123 126 124 48 39 0
131 129 128 125 130 122 123 126 124 91 80 0
131 129 128 125 130 122 123 126 124 64 54 0
131 129 128 125 130 122 123 126 121 99 62 0
131 129 128 125 130 122 123 126 114 95 59 0
131 129 128 125 130 122 123 126 109 92 57 0
131 129 128 125 130 122 123 126 78 68 51 0
131 129 128 125 130 122 123 126 118 97 60 0
131 129 128 125 130 122 123 126 31 14 6 0
131 129 128 125 130 122 123 126 48 39 33 0
131 129 128 125 130 122 123 126 91 80 52 0
131 129 128 125 130 122 123 124 121 99 89 0
131 129 128 125 130 122 123 124 114 95 85 0
131 129 128 125 130 122 123 124 109 92 82 0
131 129 128 125 130 122 123 124 78 68 66 0
131 129 128 125 130 122 123 124 118 97 86 0
131 129 128 125 130 122 123 124 31 14 13 0
131 129 128 125 130 122 123 124 48 39 36 0
131 129 128 125 130 122 123 124 64 54 53 0
131 129 128 125 130 122 123 121 99 89 62 0
131 129 128 125 130 122 123 114 95 85 59 0
131 129 128 125 130 122 123 109 92 82 57 0
131 129 128 125 130 122 123 78 68 66 51 0
131 129 128 125 130 122 123 118 97 86 60 0
131 129 128 125 130 122 123 31 14 13 6 0
131 129 128 125 130 122 123 48 39 36 33 0
131 129 128 125 130 122 126 124 121 99 47 0
131 129 128 125 130 122 126 124 114 95 43 0
131 129 128 125 130 122 126 124 109 92 40 0
131 129 128 125 130 122 126 124 78 68 34 0
131 129 128 125 130 122 126 124 118 97 45 0
131 129 128 125 130 122 126 124 31 14 3 0
131 129 128 125 130 122 126 124 91 80 37 0
131 129 128 125 130 122 126 124 64 54 32 0
131 129 128 125 130 122 126 121 99 47 62 0
131 129 128 125 130 122 126 114 95 43 59 0
131 129 128 125 130 122 126 109 92 40 57 0
131 129 128 125 130 122 126 78 68 34 51 0
131 129 128 125 130 122 126 118 97 45 60 0
131 129 128 125 130 122 126 31 14 3 6 0
131 129 128 125 130 122 126 91 80 37 52 0
131 129 128 125 130 122 124 121 99 47 89 0
131 129 128 125 130 122 124 114 95 43 85 0
131 129 128 125 130 122 124 109 92 40 82 0
131 129 128 125 130 122 124 78 68 34 66 0
131 129 128 125 130 122 124 118 97 45 86 0
131 129 128 125 130 122 124 31 14 3 13 0
131 129 128 125 130 122 124 64 54 32 53 0
131 129 128 125 130 122 121 99 47 89 62 0
131 129 128 125 130 122 114 95 43 85 59 0
131 129 128 125 130 122 109 92 40 82 57 0
131 129 128 125 130 122 78 68 34 66 51 0
131 129 128 125 130 122 118 97 45 86 60 0
131 129 128 125 130 122 31 14 3 13 6 0
131 129 128 125 130 127 123 126 124 121 26 0
131 129 128 125 130 127 123 126 124 114 22 0
131 129 128 125 130 127 123 126 124 109 18 0
131 129 128 125 130 127 123 126 124 78 9 0
131 129 128 125 130 127 123 126 124 118 25 0
131 129 128 125 130 127 123 126 124 100 16 0
131 129 128 125 130 127 123 126 124 48 2 0
131 129 128 125 130 127 123 126 124 91 11 0
131 129 128 125 130 127 123 126 124 64 5 0
131 129 128 125 130 127 123 126 121 26 62 0
131 129 128 125 130 127 123 126 114 22 59 0
131 129 128 125 130 127 123 126 109 18 57 0
131 129 128 125 130 127 123 126 78 9 51 0
131 129 128 125 130 127 123 126 118 25 60 0
131 129 128 125 130 127 123 126 100 16 55 0
131 129 128 125 130 127 123 126 48 2 33 0
131 129 128 125 130 127 123 126 91 11 52 0
131 129 128 125 130 127 123 124 121 26 89 0
131 129 128 125 130 127 123 124 114 22 85 0
131 129 128 125 130 127 123 124 109 18 82 0
131 129 128 125 130 127 123 124 78 9 66 0
131 129 128 125 130 127 123 124 118 25 86 0
131 129 128 125 130 127 123 124 100 16 81 0
131 129 128 125 130 127 123 124 48 2 36 0
131 129 128 125 130 127 123 124 64 5 53 0
131 129 128 125 130 127 123 121 26 89 62 0
131 129 128 125 130 127 123 114 22 85 59 0
131 129 128 125 130 127 123 109 18 82 57 0
131 129 128 125 130 127 123 78 9 66 51 0
131 129 128 125 130 127 123 118 25 86 60 0
131 129 128 125 130 127 123 100 16 81 55 0
131 129 128 125 130 127 123 48 2 36 33 0
131 129 128 125 130 127 126 124 121 26 47 0
131 129 128 125 130 127 126 124 114 22 43 0
131 129 128 125 130 127 126 124 109 18 40 0
131 129 128 125 130 127 126 124 78 9 34 0
131 129 128 125 130 127 126 124 118 25 45 0
131 129 128 125 130 127 126 124 100 16 38 0
131 129 128 125 130 127 126 124 91 11 37 0
131 129 128 125 130 127 126 124 64 5 32 0
131 129 128 125 130 127 126 121 26 47 62 0
131 129 128 125 130 127 126 114 22 43 59 0
131 129 128 125 130 127 126 109 18 40 57 0
131 129 128 125 130 127 126 78 9 34 51 0
131 129 128 125 130 127 126 118 25 45 60 0
131 129 128 125 130 127 126 100 16 38 55 0
131 129 128 125 130 127 126 91 11 37 52 0
131 129 128 125 130 127 124 121 26 47 89 0
131 129 128 125 130 127 124 114 22 43 85 0
131 129 128 125 130 127 124 109 18 40 82 0
131 129 128 125 130 127 124 78 9 34 66 0
131 129 128 125 130 127 124 118 25 45 86 0
131 129 128 125 130 127 124 100 16 38 81 0
131 129 128 125 130 127 124 64 5 32 53 0
131 129 128 125 130 127 121 26 47 89 62 0
131 129 128 125 130 127 114 22 43 85 59 0
131 129 128 125 130 127 109 18 40 82 57 0
131 129 128 125 130 127 78 9 34 66 51 0
131 129 128 125 130 127 118 25 45 86 60 0
131 129 128 125 130 127 100 16 38 81 55 0
131 129 128 125 130 123 126 124 121 26 99 0
131 129 128 125 130 123 126 124 114 22 95 0
131 129 128 125 130 123 126 124 109 18 92 0
131 129 128 125 130 123 126 124 78 9 68 0
131 129 128 125 130 123 126 124 118 25 97 0
131 129 128 125 130 123 126 124 48 2 39 0
131 129 128 125 130 123 126 124 91 11 80 0
131 129 128 125 130 123 126 124 64 5 54 0
131 129 128 125 130 123 126 121 26 99 62 0
131 129 128 125 130 123 126 114 22 95 59 0
131 129 128 125 130 123 126 109 18 92 57 0
131 129 128 125 130 123 126 78 9 68 51 0
131 129 128 125 130 123 126 118 25 97 60 0
131 129 128 125 130 123 126 48 2 39 33 0
131 129 128 125 130 123 126 91 11 80 52 0
131 129 128 125 130 123 124 121 26 99 89 0
131 129 128 125 130 123 124 114 22 95 85 0
131 129 128 125 130 123 124 109 18 92 82 0
131 129 128 125 130 123 124 78 9 68 66 0
131 129 128 125 130 123 124 118 25 97 86 0
131 129 128 125 130 123 124 48 2 39 36 0
131 129 128 125 130 123 124 64 5 54 53 0
131 129 128 125 130 123 121 26 99 89 62 0
131 129 128 125 130 123 114 22 95 85 59 0
131 129 128 125 130 123 109 18 92 82 57 0
131 129 128 125 130 123 78 9 68 66 51 0
131 129 128 125 130 123 118 25 97 86 60 0
131 129 128 125 130 123 48 2 39 36 33 0
131 129 128 125 130 126 124 121 26 99 47 0
131 129 128 125 130 126 124 114 22 95 43 0
131 129 128 125 130 126 124 109 18 92 40 0
131 129 128 125 130 126 124 78 9 68 34 0
131 129 128 125 130 126 124 118 25 97 45 0
131 129 128 125 130 126 124 91 11 80 37 0
131 129 128 125 130 126 124 64 5 54 32 0
131 129 128 125 130 126 121 26 99 47 62 0
131 129 128 125 130 126 114 22 95 43 59 0
131 129 128 125 130 126 109 18 92 40 57 0
131 129 128 125 130 126 78 9 68 34 51 0
131 129 128 125 130 126 118 25 97 45 60 0
131 129 128 125 130 126 91 11 80 37 52 0
131 129 128 125 130 124 121 26 99 47 89 0
131 129 128 125 130 124 114 22 95 43 85 0
131 129 128 125 130 124 109 18 92 40 82 0
131 129 128 125 130 124 78 9 68 34 66 0
131 129 128 125 130 124 118 25 97 45 86 0
131 129 128 125 130 124 64 5 54 32 53 0
131 129 128 125 130 121 26 99 47 89 62 0
131 129 128 125 130 114 22 95 43 85 59 0
131 129 128 125 130 109 18 92 40 82 57 0
131 129 128 125 130 78 9 68 34 66 51 0
131 129 128 125 130 118 25 97 45 86 60 0
131 129 128 125 132 122 127 123 126 124 116 0
131 129 128 125 132 122 127 123 126 124 111 0
131 129 128 125 132 122 127 123 126 124 105 0
131 129 128 125 132 122 127 123 126 124 75 0
131 129 128 125 132 122 127 123 126 124 119 0
131 129 128 125 132 122 127 123 126 124 23 0
131 129 128 125 132 122 127 123 126 124 96 0
131 129 128 125 132 122 127 123 126 124 44 0
131 129 128 125 132 122 127 123 126 124 87 0
131 129 128 125 132 122 127 123 126 124 61 0
131 129 128 125 132 122 127 123 126 116 62 0
131 129 128 125 132 122 127 123 126 111 59 0
131 129 128 125 132 122 127 123 126 105 57 0
131 129 128 125 132 122 127 123 126 75 51 0
131 129 128 125 132 122 127 123 126 119 65 0
131 129 128 125 132 122 127 123 126 23 6 0
131 129 128 125 132 122 127 123 126 96 55 0
131 129 128 125 132 122 127 123 126 44 33 0
131 129 128 125 132 122 127 123 126 87 52 0
131 129 128 125 132 122 127 123 124 116 89 0
131 129 128 125 132 122 127 123 124 111 85 0
131 129 128 125 132 122 127 123 124 105 82 0
131 129 128 125 132 122 127 123 124 75 66 0
131 129 128 125 132 122 127 123 124 119 90 0
131 129 128 125 132 122 127 123 124 23 13 0
131 129 128 125 132 122 127 123 124 96 81 0
131 129 128 125 132 122 127 123 124 44 36 0
131 129 128 125 132 122 127 123 124 61 53 0
131 129 128 125 132 122 127 123 116 89 62 0
131 129 128 125 132 122 127 123 111 85 59 0
131 129 128 125 132 122 127 123 105 82 57 0
131 129 128 125 132 122 127 123 75 66 51 0
131 129 128 125 132 122 127 123 119 90 65 0
131 129 128 125 132 122 127 123 23 13 6 0
131 129 128 125 132 122 127 123 96 81 55 0
131 129 128 125 132 122 127 123 44 36 33 0
131 129 128 125 132 122 127 126 124 116 47 0
131 129 128 125 132 122 127 126 124 111 43 0
131 129 128 125 132 122 127 126 124 105 40 0
131 129 128 125 132 122 127 126 124 75 34 0
131 129 128 125 132 122 127 126 124 119 49 0
131 129 128 125 132 122 127 126 124 23 3 0
131 129 128 125 132 122 127 126 124 96 38 0
131 129 128 125 132 122 127 126 124 87 37 0
131 129 128 125 132 122 127 126 124 61 32 0
131 129 128 125 132 122 127 126 116 47 62 0
131 129 128 125 132 122 127 126 111 43 59 0
131 129 128 125 132 122 127 126 105 40 57 0
131 129 128 125 132 122 127 126 75 34 51 0
131 129 128 125 132 122 127 126 119 49 65 0
131 129 128 125 132 122 127 126 23 3 6 0
131 129 128 125 132 122 127 126 96 38 55 0
131 129 128 125 132 122 127 126 87 37 52 0
131 129 128 125 132 122 127 124 116 47 89 0
131 129 128 125 132 122 127 124 111 43 85 0
131 129 128 125 132 122 127 124 105 40 82 0
131 129 128 125 132 122 127 124 75 34 66 0
131 129 128 125 132 122 127 124 119 49 90 0
131 129 128 125 132 122 127 124 23 3 13 0
131 129 128 125 132 122 127 124 96 38 81 0
131 129 128 125 132 122 127 124 61 32 53 0
131 129 128 125 132 122 127 116 47 89 62 0
131 129 128 125 132 122 127 111 43 85 59 0
131 129 128 125 132 122 127 105 40 82 57 0
131 129 128 125 132 122 127 75 34 66 51 0
131 129 128 125 132 122 127 119 49 90 65 0
131 129 128 125 132 122 127 23 3 13 6 0
131 129 128 125 132 122 127 96 38 81 55 0
131 129 128 125 132 122 123 126 124 116 99 0
131 129 128 125 132 122 123 126 124 111 95 0
131 129 128 125 132 122 123 126 124 105 92 0
131 129 128 125 132 122 123 126 124 75 68 0
131 129 128 125 132 122 123 126 124 119 101 0
131 129 128 125 132 122 123 126 124 23 14 0
131 129 128 125 132 122 123 126 124 44 39 0
131 129 128 125 132 122 123 126 124 87 80 0
131 129 128 125 132 122 123 126 124 61 54 0
131 129 128 125 132 122 123 126 116 99 62 0
131 129 128 125 132 122 123 126 111 95 59 0
131 129 128 125 132 122 123 126 105 92 57 0
131 129 128 125 132 122 123 126 75 68 51 0
131 129 128 125 132 122 123 126 119 101 65 0
131 129 128 125 132 122 123 126 23 14 6 0
131 129 128 125 132 122 123 126 44 39 33 0
131 129 128 125 132 122 123 126 87 80 52 0
131 129 128 125 132 122 123 124 116 99 89 0
131 129 128 125 132 122 123 124 111 95 85 0
131 129 128 125 132 122 123 124 105 92 82 0
131 129 128 125 132 122 123 124 75 68 66 0
131 129 128 125 132 122 123 124 119 101 90 0
131 129 128 125 132 122 123 124 23 14 13 0
131 129 128 125 132 122 123 124 44 39 36 0
131 129 128 125 132 122 123 124 61 54 53 0
131 129 128 125 132 122 123 116 99 89 62 0
131 129 128 125 132 122 123 111 95 85 59 0
131 129 128 125 132 122 123 105 92 82 57 0
131 129 128 125 132 122 123 75 68 66 51 0
131 129 128 125 132 122 123 119 101 90 65 0
131 129 128 125 132 122 123 23 14 13 6 0
131 129 128 125 132 122 123 44 39 36 33 0
131 129 128 125 132 122 126 124 116 99 47 0
131 129 128 125 132 122 126 124 111 95 43 0
131 129 128 125 132 122 126 124 105 92 40 0
131 129 128 125 132 122 126 124 75 68 34 0
131 129 128 125 132 122 126 124 119 101 49 0
131 129 128 125 132 122 126 124 23 14 3 0
131 129 128 125 132 122 126 124 87 80 37 0
131 129 128 125 132 122 126 124 61 54 32 0
131 129 128 125 132 122 126 116 99 47 62 0
131 129 128 125 132 122 126 111 95 43 59 0
131 129 128 125 132 122 126 105 92 40 57 0
131 129 128 125 132 122 126 75 68 34 51 0
131 129 128 125 132 122 126 119 101 49 65 0
131 129 128 125 132 122 126 23 14 3 6 0
131 129 128 125 132 122 126 87 80 37 52 0
131 129 128 125 132 122 124 116 99 47 89 0
131 129 128 125 132 122 124 111 95 43 85 0
131 129 128 125 132 122 124 105 92 40 82 0
131 129 128 125 132 122 124 75 68 34 66 0
131 129 128 125 132 122 124 119 101 49 90 0
131 129 128 125 132 122 124 23 14 3 13 0
131 129 128 125 132 122 124 61 54 32 53 0
131 129 128 125 132 122 116 99 47 89 62 0
131 129 128 125 132 122 111 95 43 85 59 0
131 129 128 125 132 122 105 92 40 82 57 0
131 129 128 125 132 122 75 68 34 66 51 0
131 129 128 125 132 122 119 101 49 90 65 0
131 129 128 125 132 122 23 14 3 13 6 0
131 129 128 125 132 127 123 126 124 116 26 0
131 129 128 125 132 127 123 126 124 111 22 0
131 129 128 125 132 127 123 126 124 105 18 0
131 129 128 125 132 127 123 126 124 75 9 0
131 129 128 125 132 127 123 126 124 119 29 0
131 129 128 125 132 127 123 126 124 96 16 0
131 129 128 125 132 127 123 126 124 44 2 0
131 129 128 125 132 127 123 126 124 87 11 0
131 129 128 125 132 127 123 126 124 61 5 0
131 129 128 125 132 127 123 126 116 26 62 0
131 129 128 125 132 127 123 126 111 22 59 0
131 129 128 125 132 127 123 126 105 18 57 0
131 129 128 125 132 127 123 126 75 9 51 0
131 129 128 125 132 127 123 126 119 29 65 0
131 129 128 125 132 127 123 126 96 16 55 0
131 129 128 125 132 127 123 126 44 2 33 0
131 129 128 125 132 127 123 126 87 11 52 0
131 129 128 125 132 127 123 124 116 26 89 0
131 129 128 125 132 127 123 124 111 22 85 0
131 129 128 125 132 127 123 124 105 18 82 0
131 129 128 125 132 127 123 124 75 9 66 0
131 129 128 125 132 127 123 124 119 29 90 0
131 129 128 125 132 127 123 124 96 16 81 0
131 129 128 125 132 127 123 124 44 2 36 0
131 129 128 125 132 127 123 124 61 5 53 0
131 129 128 125 132 127 123 116 26 89 62 0
131 129 128 125 132 127 123 111 22 85 59 0
131 129 128 125 132 127 123 105 18 82 57 0
131 129 128 125 132 127 123 75 9 66 51 0
131 129 128 125 132 127 123 119 29 90 65 0
131 129 128 125 132 127 123 96 16 81 55 0
131 129 128 125 132 127 123 44 2 36 33 0
131 129 128 125 132 127 126 124 116 26 47 0
131 129 128 125 132 127 126 124 111 22 43 0
131 129 128 125 132 127 126 124 105 18 40 0
131 129 128 125 132 127 126 124 75 9 34 0
131 129 128 125 132 127 126 124 119 29 49 0
131 129 128 125 132 127 126 124 96 16 38 0
131 129 128 125 132 127 126 124 87 11 37 0
131 129 128 125 132 127 126 124 61 5 32 0
131 129 128 125 132 127 126 116 26 47 62 0
131 129 128 125 132 127 126 111 22 43 59 0
131 129 128 125 132 127 126 105 18 40 57 0
131 129 128 125 132 127 126 75 9 34 51 0
131 129 128 125 132 127 126 119 29 49 65 0
131 129 128 125 132 127 126 96 16 38 55 0
131 129 128 125 132 127 126 87 11 37 52 0
131 129 128 125 132 127 124 116 26 47 89 0
131 129 128 125 132 127 124 111 22 43 85 0
131 129 128 125 132 127 124 105 18 40 82 0
131 129 128 125 132 127 124 75 9 34 66 0
131 129 128 125 132 127 124 119 29 49 90 0
131 129 128 125 132 127 124 96 16 38 81 0
131 129 128 125 132 127 124 61 5 32 53 0
131 129 128 125 132 127 116 26 47 89 62 0
131 129 128 125 132 127 111 22 43 85 59 0
131 129 128 125 132 127 105 18 40 82 57 0
131 129 128 125 132 127 75 9 34 66 51 0
131 129 128 125 132 127 119 29 49 90 65 0
131 129 128 125 132 127 96 16 38 81 55 0
131 129 128 125 132 123 126 124 116 26 99 0
131 129 128 125 132 123 126 124 111 22 95 0
131 129 128 125 132 123 126 124 105 18 92 0
131 129 128 125 132 123 126 124 75 9 68 0
131 129 128 125 132 123 126 124 119 29 101 0
131 129 128 125 132 123 126 124 44 2 39 0
131 129 128 125 132 123 126 124 87 11 80 0
131 129 128 125 132 123 126 124 61 5 54 0
131 129 128 125 132 123 126 116 26 99 62 0
131 129 128 125 132 123 126 111 22 95 59 0
131 129 128 125 132 123 126 105 18 92 57 0
131 129 128 125 132 123 126 75 9 68 51 0
131 129 128 125 132 123 126 119 29 101 65 0
131 129 128 125 132 123 126 44 2 39 33 0
131 129 128 125 132 123 126 87 11 80 52 0
131 129 128 125 132 123 124 116 26 99 89 0
131 129 128 125 132 123 124 111 22 95 85 0
131 129 128 125 132 123 124 105 18 92 82 0
131 129 128 125 132 123 124 75 9 68 66 0
131 129 128 125 132 123 124 119 29 101 90 0
131 129 128 125 132 123 124 44 2 39 36 0
131 129 128 125 132 123 124 61 5 54 53 0
131 129 128 125 132 123 116 26 99 89 62 0
131 129 128 125 132 123 111 22 95 85 59 0
131 129 128 125 132 123 105 18 92 82 57 0
131 129 128 125 132 123 75 9 68 66 51 0
131 129 128 125 132 123 119 29 101 90 65 0
131 129 128 125 132 123 44 2 39 36 33 0
131 129 128 125 132 126 124 116 26 99 47 0
131 129 128 125 132 126 124 111 22 95 43 0
131 129 128 125 132 126 124 105 18 92 40 0
131 129 128 125 132 126 124 75 9 68 34 0
131 129 128 125 132 126 124 119 29 101 49 0
131 129 128 125 132 126 124 87 11 80 37 0
131 129 128 125 132 126 124 61 5 54 32 0
131 129 128 125 132 126 116 26 99 47 62 0
131 129 128 125 132 126 111 22 95 43 59 0
131 129 128 125 132 126 105 18 92 40 57 0
131 129 128 125 132 126 75 9 68 34 51 0
131 129 128 125 132 126 119 29 101 49 65 0
131 129 128 125 132 126 87 11 80 37 52 0
131 129 128 125 132 124 116 26 99 47 89 0
131 129 128 125 132 124 111 22 95 43 85 0
131 129 128 125 132 124 105 18 92 40 82 0
131 129 128 125 132 124 75 9 68 34 66 0
131 129 128 125 132 124 119 29 101 49 90 0
131 129 128 125 132 124 61 5 54 32 53 0
131 129 128 125 132 116 26 99 47 89 62 0
131 129 128 125 132 111 22 95 43 85 59 0
131 129 128 125 132 105 18 92 40 82 57 0
131 129 128 125 132 75 9 68 34 66 51 0
131 129 128 125 132 119 29 101 49 90 65 0
131 129 128 125 122 127 123 126 124 116 121 0
131 129 128 125 122 127 123 126 124 111 114 0
131 129 128 125 122 127 123 126 124 105 109 0
131 129 128 125 122 127 123 126 124 75 78 0
131 129 128 125 122 127 123 126 124 23 31 0
131 129 128 125 122 127 123 126 124 96 100 0
131 129 128 125 122 127 123 126 124 44 48 0
131 129 128 125 122 127 123 126 124 87 91 0
131 129 128 125 122 127 123 126 124 61 64 0
131 129 128 125 122 127 123 126 116 121 62 0
131 129 128 125 122 127 123 126 111 114 59 0
131 129 128 125 122 127 123 126 105 109 57 0
131 129 128 125 122 127 123 126 75 78 51 0
131 129 128 125 122 127 123 126 23 31 6 0
131 129 128 125 122 127 123 126 96 100 55 0
131 129 128 125 122 127 123 126 44 48 33 0
131 129 128 125 122 127 123 126 87 91 52 0
131 129 128 125 122 127 123 124 116 121 89 0
131 129 128 125 122 127 123 124 111 114 85 0
131 129 128 125 122 127 123 124 105 109 82 0
131 129 128 125 122 127 123 124 75 78 66 0
131 129 128 125 122 127 123 124 23 31 13 0
131 129 128 125 122 127 123 124 96 100 81 0
131 129 128 125 122 127 123 124 44 48 36 0
131 129 128 125 122 127 123 124 61 64 53 0
131 129 128 125 122 127 123 116 121 89 62 0
131 129 128 125 122 127 123 111 114 85 59 0
131 129 128 125 122 127 123 105 109 82 57 0
131 129 128 125 122 127 123 75 78 66 51 0
131 129 128 125 122 127 123 23 31 13 6 0
131 129 128 125 122 127 123 96 100 81 55 0
131 129 128 125 122 127 123 44 48 36 33 0
131 129 128 125 122 127 126 124 116 121 47 0
131 129 128 125 122 127 126 124 111 114 43 0
131 129 128 125 122 127 126 124 105 109 40 0
131 129 128 125 122 127 126 124 75 78 34 0
131 129 128 125 122 127 126 124 23 31 3 0
131 129 128 125 122 127 126 124 96 100 38 0
131 129 128 125 122 127 126 124 87 91 37 0
131 129 128 125 122 127 126 124 61 64 32 0
131 129 128 125 122 127 126 116 121 47 62 0
131 129 128 125 122 127 126 111 114 43 59 0
131 129 128 125 122 127 126 105 109 40 57 0
131 129 128 125 122 127 126 75 78 34 51 0
131 129 128 125 122 127 126 23 31 3 6 0
131 129 128 125 122 127 126 96 100 38 55 0
131 129 128 125 122 127 126 87 91 37 52 0
131 129 128 125 122 127 124 116 121 47 89 0
131 129 128 125 122 127 124 111 114 43 85 0
131 129 128 125 122 127 124 105 109 40 82 0
131 129 128 125 122 127 124 75 78 34 66 0
131 129 128 125 122 127 124 23 31 3 13 0
131 129 128 125 122 127 124 96 100 38 81 0
131 129 128 125 122 127 124 61 64 32 53 0
131 129 128 125 122 127 116 121 47 89 62 0
131 129 128 125 122 127 111 114 43 85 59 0
131 129 128 125 122 127 105 109 40 82 57 0
131 129 128 125 122 127 75 78 34 66 51 0
131 129 128 125 122 127 23 31 3 13 6 0
131 129 128 125 122 127 96 100 38 81 55 0
131 129 128 125 122 123 126 124 116 121 99 0
131 129 128 125 122 123 126 124 111 114 95 0
131 129 128 125 122 123 126 124 105 109 92 0
131 129 128 125 122 123 126 124 75 78 68 0
131 129 128 125 122 123 126 124 23 31 14 0
131 129 128 125 122 123 126 124 44 48 39 0
131 129 128 125 122 123 126 124 87 91 80 0
131 129 128 125 122 123 126 124 61 64 54 0
131 129 128 125 122 123 126 116 121 99 62 0
131 129 128 125 122 123 126 111 114 95 59 0
131 129 128 125 122 123 126 105 109 92 57 0
131 129 128 125 122 123 126 75 78 68 51 0
131 129 128 125 122 123 126 23 31 14 6 0
131 129 128 125 122 123 126 44 48 39 33 0
131 129 128 125 122 123 126 87 91 80 52 0
131 129 128 125 122 123 124 116 121 99 89 0
131 129 128 125 122 123 124 111 114 95 85 0
131 129 128 125 122 123 124 105 109 92 82 0
131 129 128 125 122 123 124 75 78 68 66 0
131 129 128 125 122 123 124 23 31 14 13 0
131 129 128 125 122 123 124 44 48 39 36 0
131 129 128 125 122 123 124 61 64 54 53 0
131 129 128 125 122 123 116 121 99 89 62 0
131 129 128 125 122 123 111 114 95 85 59 0
131 129 128 125 122 123 105 109 92 82 57 0
131 129 128 125 122 123 75 78 68 66 51 0
131 129 128 125 122 123 23 31 14 13 6 0
131 129 128 125 122 123 44 48 39 36 33 0
131 129 128 125 122 126 124 116 121 99 47 0
131 129 128 125 122 126 124 111 114 95 43 0
131 129 128 125 122 126 124 105 109 92 40 0
131 129 128 125 122 126 124 75 78 68 34 0
131 129 128 125 122 126 124 23 31 14 3 0
131 129 128 125 122 126 124 87 91 80 37 0
131 129 128 125 122 126 124 61 64 54 32 0
131 129 128 125 122 126 116 121 99 47 62 0
131 129 128 125 122 126 111 114 95 43 59 0
131 129 128 125 122 126 105 109 92 40 57 0
131 129 128 125 122 126 75 78 68 34 51 0
131 129 128 125 122 126 23 31 14 3 6 0
131 129 128 125 122 126 87 91 80 37 52 0
131 129 128 125 122 124 116 121 99 47 89 0
131 129 128 125 122 124 111 114 95 43 85 0
131 129 128 125 122 124 105 109 92 40 82 0
131 129 128 125 122 124 75 78 68 34 66 0
131 129 128 125 122 124 23 31 14 3 13 0
131 129 128 125 122 124 61 64 54 32 53 0
131 129 128 125 122 116 121 99 47 89 62 0
131 129 128 125 122 111 114 95 43 85 59 0
131 129 128 125 122 105 109 92 40 82 57 0
131 129 128 125 122 75 78 68 34 66 51 0
131 129 128 125 122 23 31 14 3 13 6 0
131 129 128 125 127 123 126 124 116 121 26 0
131 129 128 125 127 123 126 124 111 114 22 0
131 129 128 125 127 123 126 124 105 109 18 0
131 129 128 125 127 123 126 124 75 78 9 0
131 129 128 125 127 123 126 124 96 100 16 0
131 129 128 125 127 123 126 124 44 48 2 0
131 129 128 125 127 123 126 124 87 91 11 0
131 129 128 125 127 123 126 124 61 64 5 0
131 129 128 125 127 123 126 116 121 26 62 0
131 129 128 125 127 123 126 111 114 22 59 0
131 129 128 125 127 123 126 105 109 18 57 0
131 129 128 125 127 123 126 75 78 9 51 0
131 129 128 125 127 123 126 96 100 16 55 0
131 129 128 125 127 123 126 44 48 2 33 0
131 129 128 125 127 123 126 87 91 11 52 0
131 129 128 125 127 123 124 116 121 26 89 0
131 129 128 125 127 123 124 111 114 22 85 0
131 129 128 125 127 123 124 105 109 18 82 0
131 129 128 125 127 123 124 75 78 9 66 0
131 129 128 125 127 123 124 96 100 16 81 0
131 129 128 125 127 123 124 44 48 2 36 0
131 129 128 125 127 123 124 61 64 5 53 0
131 129 128 125 127 123 116 121 26 89 62 0
131 129 128 125 127 123 111 114 22 85 59 0
131 129 128 125 127 123 105 109 18 82 57 0
131 129 128 125 127 123 75 78 9 66 51 0
131 129 128 125 127 123 96 100 16 81 55 0
131 129 128 125 127 123 44 48 2 36 33 0
131 129 128 125 127 126 124 116 121 26 47 0
131 129 128 125 127 126 124 111 114 22 43 0
131 129 128 125 127 126 124 105 109 18 40 0
131 129 128 125 127 126 124 75 78 9 34 0
131 129 128 125 127 126 124 96 100 16 38 0
131 129 128 125 127 126 124 87 91 11 37 0
131 129 128 125 127 126 124 61 64 5 32 0
131 129 128 125 127 126 116 121 26 47 62 0
131 129 128 125 127 126 111 114 22 43 59 0
131 129 128 125 127 126 105 109 18 40 57 0
131 129 128 125 127 126 75 78 9 34 51 0
131 129 128 125 127 126 96 100 16 38 55 0
131 129 128 125 127 126 87 91 11 37 52 0
131 129 128 125 127 124 116 121 26 47 89 0
131 129 128 125 127 124 111 114 22 43 85 0
131 129 128 125 127 124 105 109 18 40 82 0
131 129 128 125 127 124 75 78 9 34 66 0
131 129 128 125 127 124 96 100 16 38 81 0
131 129 128 125 127 124 61 64 5 32 53 0
131 129 128 125 127 116 121 26 47 89 62 0
131 129 128 125 127 111 114 22 43 85 59 0
131 129 128 125 127 105 109 18 40 82 57 0
131 129 128 125 127 75 78 9 34 66 51 0
131 129 128 125 127 96 100 16 38 81 55 0
131 129 128 125 123 126 124 116 121 26 99 0
131 129 128 125 123 126 124 111 114 22 95 0
131 129 128 125 123 126 124 105 109 18 92 0
131 129 128 125 123 126 124 75 78 9 68 0
131 129 128 125 123 126 124 44 48 2 39 0
131 129 128 125 123 126 124 87 91 11 80 0
131 129 128 125 123 126 124 61 64 5 54 0
131 129 128 125 123 126 116 121 26 99 62 0
131 129 128 125 123 126 111 114 22 95 59 0
131 129 128 125 123 126 105 109 18 92 57 0
131 129 128 125 123 126 75 78 9 68 51 0
131 129 128 125 123 126 44 48 2 39 33 0
131 129 128 125 123 126 87 91 11 80 52 0
131 129 128 125 123 124 116 121 26 99 89 0
131 129 128 125 123 124 111 114 22 95 85 0
131 129 128 125 123 124 105 109 18 92 82 0
131 129 128 125 123 124 75 78 9 68 66 0
131 129 128 125 123 124 44 48 2 39 36 0
131 129 128 125 123 124 61 64 5 54 53 0
131 129 128 125 123 116 121 26 99 89 62 0
131 129 128 125 123 111 114 22 95 85 59 0
131 129 128 125 123 105 109 18 92 82 57 0
131 129 128 125 123 75 78 9 68 66 51 0
131 129 128 125 123 44 48 2 39 36 33 0
131 129 128 125 126 124 116 121 26 99 47 0
131 129 128 125 126 124 111 114 22 95 43 0
131 129 128 125 126 124 105 109 18 92 40 0
131 129 128 125 126 124 75 78 9 68 34 0
131 129 128 125 126 124 87 91 11 80 37 0
131 129 128 125 126 124 61 64 5 54 32 0
131 129 128 125 126 116 121 26 99 47 62 0
131 129 128 125 126 111 114 22 95 43 59 0
131 129 128 125 126 105 109 18 92 40 57 0
131 129 128 125 126 75 78 9 68 34 51 0
131 129 128 125 126 87 91 11 80 37 52 0
131 129 128 125 124 116 121 26 99 47 89 0
131 129 128 125 124 111 114 22 95 43 85 0
131 129 128 125 124 105 109 18 92 40 82 0
131 129 128 125 124 75 78 9 68 34 66 0
131 129 128 125 124 61 64 5 54 32 53 0
131 129 128 125 116 121 26 99 47 89 62 0
131 129 128 125 111 114 22 95 43 85 59 0
131 129 128 125 105 109 18 92 40 82 57 0
131 129 128 125 75 78 9 68 34 66 51 0
131 129 128 130 132 122 127 123 126 124 76 0
131 129 128 130 132 122 127 123 126 124 72 0
131 129 128 130 132 122 127 123 126 124 70 0
131 129 128 130 132 122 127 123 126 124 74 0
131 129 128 130 132 122 127 123 126 124 79 0
131 129 128 130 132 122 127 123 126 124 8 0
131 129 128 130 132 122 127 123 126 124 69 0
131 129 128 130 132 122 127 123 126 124 35 0
131 129 128 130 132 122 127 123 126 124 67 0
131 129 128 130 132 122 127 123 126 124 50 0
131 129 128 130 132 122 127 123 126 76 62 0
131 129 128 130 132 122 127 123 126 72 59 0
131 129 128 130 132 122 127 123 126 70 57 0
131 129 128 130 132 122 127 123 126 74 60 0
131 129 128 130 132 122 127 123 126 79 65 0
131 129 128 130 132 122 127 123 126 8 6 0
131 129 128 130 132 122 127 123 126 69 55 0
131 129 128 130 132 122 127 123 126 35 33 0
131 129 128 130 132 122 127 123 126 67 52 0
131 129 128 130 132 122 127 123 124 76 89 0
131 129 128 130 132 122 127 123 124 72 85 0
131 129 128 130 132 122 127 123 124 70 82 0
131 129 128 130 132 122 127 123 124 74 86 0
131 129 128 130 132 122 127 123 124 79 90 0
131 129 128 130 132 122 127 123 124 8 13 0
131 129 128 130 132 122 127 123 124 69 81 0
131 129 128 130 132 122 127 123 124 35 36 0
131 129 128 130 132 122 127 123 124 50 53 0
131 129 128 130 132 122 127 123 76 89 62 0
131 129 128 130 132 122 127 123 72 85 59 0
131 129 128 130 132 122 127 123 70 82 57 0
131 129 128 130 132 122 127 123 74 86 60 0
131 129 128 130 132 122 127 123 79 90 65 0
131 129 128 130 132 122 127 123 8 13 6 0
131 129 128 130 132 122 127 123 69 81 55 0
131 129 128 130 132 122 127 123 35 36 33 0
131 129 128 130 132 122 127 126 124 76 47 0
131 129 128 130 132 122 127 126 124 72 43 0
131 129 128 130 132 122 127 126 124 70 40 0
131 129 128 130 132 122 127 126 124 74 45 0
131 129 128 130 132 122 127 126 124 79 49 0
131 129 128 130 132 122 127 126 124 8 3 0
131 129 128 130 132 122 127 126 124 69 38 0
131 129 128 130 132 122 127 126 124 67 37 0
131 129 128 130 132 122 127 126 124 50 32 0
131 129 128 130 132 122 127 126 76 47 62 0
131 129 128 130 132 122 127 126 72 43 59 0
131 129 128 130 132 122 127 126 70 40 57 0
131 129 128 130 132 122 127 126 74 45 60 0
131 129 128 130 132 122 127 126 79 49 65 0
131 129 128 130 132 122 127 126 8 3 6 0
131 129 128 130 132 122 127 126 69 38 55 0
131 129 128 130 132 122 127 126 67 37 52 0
131 129 128 130 132 122 127 124 76 47 89 0
131 129 128 130 132 122 127 124 72 43 85 0
131 129 128 130 132 122 127 124 70 40 82 0
131 129 128 130 132 122 127 124 74 45 86 0
131 129 128 130 132 122 127 124 79 49 90 0
131 129 128 130 132 122 127 124 8 3 13 0
131 129 128 130 132 122 127 124 69 38 81 0
131 129 128 130 132 122 127 124 50 32 53 0
131 129 128 130 132 122 127 76 47 89 62 0
131 129 128 130 132 122 127 72 43 85 59 0
131 129 128 130 132 122 127 70 40 82 57 0
131 129 128 130 132 122 127 74 45 86 60 0
131 129 128 130 132 122 127 79 49 90 65 0
131 129 128 130 132 122 127 8 3 13 6 0
131 129 128 130 132 122 127 69 38 81 55 0
131 129 128 130 132 122 123 126 124 76 99 0
131 129 128 130 132 122 123 126 124 72 95 0
131 129 128 130 132 122 123 126 124 70 92 0
131 129 128 130 132 122 123 126 124 74 97 0
131 129 128 130 132 122 123 126 124 79 101 0
131 129 128 130 132 122 123 126 124 8 14 0
131 129 128 130 132 122 123 126 124 35 39 0
131 129 128 130 132 122 123 126 124 67 80 0
131 129 128 130 132 122 123 126 124 50 54 0
131 129 128 130 132 122 123 126 76 99 62 0
131 129 128 130 132 122 123 126 72 95 59 0
131 129 128 130 132 122 123 126 70 92 57 0
131 129 128 130 132 122 123 126 74 97 60 0
131 129 128 130 132 122 123 126 79 101 65 0
131 129 128 130 132 122 123 126 8 14 6 0
131 129 128 130 132 122 123 126 35 39 33 0
131 129 128 130 132 122 123 126 67 80 52 0
131 129 128 130 132 122 123 124 76 99 89 0
131 129 128 130 132 122 123 124 72 95 85 0
131 129 128 130 132 122 123 124 70 92 82 0
131 129 128 130 132 122 123 124 74 97 86 0
131 129 128 130 132 122 123 124 79 101 90 0
131 129 128 130 132 122 123 124 8 14 13 0
131 129 128 130 132 122 123 124 35 39 36 0
131 129 128 130 132 122 123 124 50 54 53 0
131 129 128 130 132 122 123 76 99 89 62 0
131 129 128 130 132 122 123 72 95 85 59 0
131 129 128 130 132 122 123 70 92 82 57 0
131 129 128 130 132 122 123 74 97 86 60 0
131 129 128 130 132 122 123 79 101 90 65 0
131 129 128 130 132 122 123 8 14 13 6 0
131 129 128 130 132 122 123 35 39 36 33 0
131 129 128 130 132 122 126 124 76 99 47 0
131 129 128 130 132 122 126 124 72 95 43 0
131 129 128 130 132 122 126 124 70 92 40 0
131 129 128 130 132 122 126 124 74 97 45 0
131 129 128 130 132 122 126 124 79 101 49 0
131 129 128 130 132 122 126 124 8 14 3 0
131 129 128 130 132 122 126 124 67 80 37 0
131 129 128 130 132 122 126 124 50 54 32 0
131 129 128 130 132 122 126 76 99 47 62 0
131 129 128 130 132 122 126 72 95 43 59 0
131 129 128 130 132 122 126 70 92 40 57 0
131 129 128 130 132 122 126 74 97 45 60 0
131 129 128 130 132 122 126 79 101 49 65 0
131 129 128 130 132 122 126 8 14 3 6 0
131 129 128 130 132 122 126 67 80 37 52 0
131 129 128 130 132 122 124 76 99 47 89 0
131 129 128 130 132 122 124 72 95 43 85 0
131 129 128 130 132 122 124 70 92 40 82 0
131 129 128 130 132 122 124 74 97 45 86 0
131 129 128 130 132 122 124 79 101 49 90 0
131 129 128 130 132 122 124 8 14 3 13 0
131 129 128 130 132 122 124 50 54 32 53 0
131 129 128 130 132 122 76 99 47 89 62 0
131 129 128 130 132 122 72 95 43 85 59 0
131 129 128 130 132 122 70 92 40 82 57 0
131 129 128 130 132 122 74 97 45 86 60 0
131 129 128 130 132 122 79 101 49 90 65 0
131 129 128 130 132 122 8 14 3 13 6 0
131 129 128 130 132 127 123 126 124 76 26 0
131 129 128 130 132 127 123 126 124 72 22 0
131 129 128 130 132 127 123 126 124 70 18 0
131 129 128 130 132 127 123 126 124 74 25 0
131 129 128 130 132 127 123 126 124 79 29 0
131 129 128 130 132 127 123 126 124 69 16 0
131 129 128 130 132 127 123 126 124 35 2 0
131 129 128 130 132 127 123 126 124 67 11 0
131 129 128 130 132 127 123 126 124 50 5 0
131 129 128 130 132 127 123 126 76 26 62 0
131 129 128 130 132 127 123 126 72 22 59 0
131 129 128 130 132 127 123 126 70 18 57 0
131 129 128 130 132 127 123 126 74 25 60 0
131 129 128 130 132 127 123 126 79 29 65 0
131 129 128 130 132 127 123 126 69 16 55 0
131 129 128 130 132 127 123 126 35 2 33 0
131 129 128 130 132 127 123 126 67 11 52 0
131 129 128 130 132 127 123 124 76 26 89 0
131 129 128 130 132 127 123 124 72 22 85 0
131 129 128 130 132 127 123 124 70 18 82 0
131 129 128 130 132 127 123 124 74 25 86 0
131 129 128 130 132 127 123 124 79 29 90 0
131 129 128 130 132 127 123 124 69 16 81 0
131 129 128 130 132 127 123 124 35 2 36 0
131 129 128 130 132 127 123 124 50 5 53 0
131 129 128 130 132 127 123 76 26 89 62 0
131 129 128 130 132 127 123 72 22 85 59 0
131 129 128 130 132 127 123 70 18 82 57 0
131 129 128 130 132 127 123 74 25 86 60 0
131 129 128 130 132 127 123 79 29 90 65 0
131 129 128 130 132 127 123 69 16 81 55 0
131 129 128 130 132 127 123 35 2 36 33 0
131 129 128 130 132 127 126 124 76 26 47 0
131 129 128 130 132 127 126 124 72 22 43 0
131 129 128 130 132 127 126 124 70 18 40 0
131 129 128 130 132 127 126 124 74 25 45 0
131 129 128 130 132 127 126 124 79 29 49 0
131 129 128 130 132 127 126 124 69 16 38 0
131 129 128 130 132 127 126 124 67 11 37 0
131 129 128 130 132 127 126 124 50 5 32 0
131 129 128 130 132 127 126 76 26 47 62 0
131 129 128 130 132 127 126 72 22 43 59 0
131 129 128 130 132 127 126 70 18 40 57 0
131 129 128 130 132 127 126 74 25 45 60 0
131 129 128 130 132 127 126 79 29 49 65 0
131 129 128 130 132 127 126 69 16 38 55 0
131 129 128 130 132 127 126 67 11 37 52 0
131 129 128 130 132 127 124 76 26 47 89 0
131 129 128 130 132 127 124 72 22 43 85 0
131 129 128 130 132 127 124 70 18 40 82 0
131 129 128 130 132 127 124 74 25 45 86 0
131 129 128 130 132 127 124 79 29 49 90 0
131 129 128 130 132 127 124 69 16 38 81 0
131 129 128 130 132 127 124 50 5 32 53 0
131 129 128 130 132 127 76 26 47 89 62 0
131 129 128 130 132 127 72 22 43 85 59 0
131 129 128 130 132 127 70 18 40 82 57 0
131 129 128 130 132 127 74 25 45 86 60 0
131 129 128 130 132 127 79 29 49 90 65 0
131 129 128 130 132 127 69 16 38 81 55 0
131 129 128 130 132 123 126 124 76 26 99 0
131 129 128 130 132 123 126 124 72 22 95 0
131 129 128 130 132 123 126 124 70 18 92 0
131 129 128 130 132 123 126 124 74 25 97 0
131 129 128 130 132 123 126 124 79 29 101 0
131 129 128 130 132 123 126 124 35 2 39 0
131 129 128 130 132 123 126 124 67 11 80 0
131 129 128 130 132 123 126 124 50 5 54 0
131 129 128 130 132 123 126 76 26 99 62 0
131 129 128 130 132 123 126 72 22 95 59 0
131 129 128 130 132 123 126 70 18 92 57 0
131 129 128 130 132 123 126 74 25 97 60 0
131 129 128 130 132 123 126 79 29 101 65 0
131 129 128 130 132 123 126 35 2 39 33 0
131 129 128 130 132 123 126 67 11 80 52 0
131 129 128 130 132 123 124 76 26 99 89 0
131 129 128 130 132 123 124 72 22 95 85 0
131 129 128 130 132 123 124 70 18 92 82 0
131 129 128 130 132 123 124 74 25 97 86 0
131 129 128 130 132 123 124 79 29 101 90 0
131 129 128 130 132 123 124 35 2 39 36 0
131 129 128 130 132 123 124 50 5 54 53 0
131 129 128 130 132 123 76 26 99 89 62 0
131 129 128 130 132 123 72 22 95 85 59 0
131 129 128 130 132 123 70 18 92 82 57 0
131 129 128 130 132 123 74 25 97 86 60 0
131 129 128 130 132 123 79 29 101 90 65 0
131 129 128 130 132 123 35 2 39 36 33 0
131 129 128 130 132 126 124 76 26 99 47 0
131 129 128 130 132 126 124 72 22 95 43 0
131 129 128 130 132 126 124 70 18 92 40 0
131 129 128 130 132 126 124 74 25 97 45 0
131 129 128 130 132 126 124 79 29 101 49 0
131 129 128 130 132 126 124 67 11 80 37 0
131 129 128 130 132 126 124 50 5 54 32 0
131 129 128 130 132 126 76 26 99 47 62 0
131 129 128 130 132 126 72 22 95 43 59 0
131 129 128 130 132 126 70 18 92 40 57 0
131 129 128 130 132 126 74 25 97 45 60 0
131 129 128 130 132 126 79 29 101 49 65 0
131 129 128 130 132 126 67 11 80 37 52 0
131 129 128 130 132 124 76 26 99 47 89 0
131 129 128 130 132 124 72 22 95 43 85 0
131 129 128 130 132 124 70 18 92 40 82 0
131 129 128 130 132 124 74 25 97 45 86 0
131 129 128 130 132 124 79 29 101 49 90 0
131 129 128 130 132 124 50 5 54 32 53 0
131 129 128 130 132 76 26 99 47 89 62 0
131 129 128 130 132 72 22 95 43 85 59 0
131 129 128 130 132 70 18 92 40 82 57 0
131 129 128 130 132 74 25 97 45 86 60 0
131 129 128 130 132 79 29 101 49 90 65 0
131 129 128 130 122 127 123 126 124 76 121 0
131 129 128 130 122 127 123 126 124 72 114 0
131 129 128 130 122 127 123 126 124 70 109 0
131 129 128 130 122 127 123 126 124 74 118 0
131 129 128 130 122 127 123 126 124 8 31 0
131 129 128 130 122 127 123 126 124 69 100 0
131 129 128 130 122 127 123 126 124 35 48 0
131 129 128 130 122 127 123 126 124 67 91 0
131 129 128 130 122 127 123 126 124 50 64 0
131 129 128 130 122 127 123 126 76 121 62 0
131 129 128 130 122 127 123 126 72 114 59 0
131 129 128 130 122 127 123 126 70 109 57 0
131 129 128 130 122 127 123 126 74 118 60 0
131 129 128 130 122 127 123 126 8 31 6 0
131 129 128 130 122 127 123 126 69 100 55 0
131 129 128 130 122 127 123 126 35 48 33 0
131 129 128 130 122 127 123 126 67 91 52 0
131 129 128 130 122 127 123 124 76 121 89 0
131 129 128 130 122 127 123 124 72 114 85 0
131 129 128 130 122 127 123 124 70 109 82 0
131 129 128 130 122 127 123 124 74 118 86 0
131 129 128 130 122 127 123 124 8 31 13 0
131 129 128 130 122 127 123 124 69 100 81 0
131 129 128 130 122 127 123 124 35 48 36 0
131 129 128 130 122 127 123 124 50 64 53 0
131 129 128 130 122 127 123 76 121 89 62 0
131 129 128 130 122 127 123 72 114 85 59 0
131 129 128 130 122 127 123 70 109 82 57 0
131 129 128 130 122 127 123 74 118 86 60 0
131 129 128 130 122 127 123 8 31 13 6 0
131 129 128 130 122 127 123 69 100 81 55 0
131 129 128 130 122 127 123 35 48 36 33 0
131 129 128 130 122 127 126 124 76 121 47 0
131 129 128 130 122 127 126 124 72 114 43 0
131 129 128 130 122 127 126 124 70 109 40 0
131 129 128 130 122 127 126 124 74 118 45 0
131 129 128 130 122 127 126 124 8 31 3 0
131 129 128 130 122 127 126 124 69 100 38 0
131 129 128 130 122 127 126 124 67 91 37 0
131 129 128 130 122 127 126 124 50 64 32 0
131 129 128 130 122 127 126 76 121 47 62 0
131 129 128 130 122 127 126 72 114 43 59 0
131 129 128 130 122 127 126 70 109 40 57 0
131 129 128 130 122 127 126 74 118 45 60 0
131 129 128 130 122 127 126 8 31 3 6 0
131 129 128 130 122 127 126 69 100 38 55 0
131 129 128 130 122 127 126 67 91 37 52 0
131 129 128 130 122 127 124 76 121 47 89 0
131 129 128 130 122 127 124 72 114 43 85 0
131 129 128 130 122 127 124 70 109 40 82 0
131 129 128 130 122 127 124 74 118 45 86 0
131 129 128 130 122 127 124 8 31 3 13 0
131 129 128 130 122 127 124 69 100 38 81 0
131 129 128 130 122 127 124 50 64 32 53 0
131 129 128 130 122 127 76 121 47 89 62 0
131 129 128 130 122 127 72 114 43 85 59 0
131 129 128 130 122 127 70 109 40 82 57 0
131 129 128 130 122 127 74 118 45 86 60 0
131 129 128 130 122 127 8 31 3 13 6 0
131 129 128 130 122 127 69 100 38 81 55 0
131 129 128 130 122 123 126 124 76 121 99 0
131 129 128 130 122 123 126 124 72 114 95 0
131 129 128 130 122 123 126 124 70 109 92 0
131 129 128 130 122 123 126 124 74 118 97 0
131 129 128 130 122 123 126 124 8 31 14 0
131 129 128 130 122 123 126 124 35 48 39 0
131 129 128 130 122 123 126 124 67 91 80 0
131 129 128 130 122 123 126 124 50 64 54 0
131 129 128 130 122 123 126 76 121 99 62 0
131 129 128 130 122 123 126 72 114 95 59 0
131 129 128 130 122 123 126 70 109 92 57 0
131 129 128 130 122 123 126 74 118 97 60 0
131 129 128 130 122 123 126 8 31 14 6 0
131 129 128 130 122 123 126 35 48 39 33 0
131 129 128 130 122 123 126 67 91 80 52 0
131 129 128 130 122 123 124 76 121 99 89 0
131 129 128 130 122 123 124 72 114 95 85 0
131 129 128 130 122 123 124 70 109 92 82 0
131 129 128 130 122 123 124 74 118 97 86 0
131 129 128 130 122 123 124 8 31 14 13 0
131 129 128 130 122 123 124 35 48 39 36 0
131 129 128 130 122 123 124 50 64 54 53 0
131 129 128 130 122 123 76 121 99 89 62 0
131 129 128 130 122 123 72 114 95 85 59 0
131 129 128 130 122 123 70 109 92 82 57 0
131 129 128 130 122 123 74 118 97 86 60 0
131 129 128 130 122 123 8 31 14 13 6 0
131 129 128 130 122 123 35 48 39 36 33 0
131 129 128 130 122 126 124 76 121 99 47 0
131 129 128 130 122 126 124 72 114 95 43 0
131 129 128 130 122 126 124 70 109 92 40 0
131 129 128 130 122 126 124 74 118 97 45 0
131 129 128 130 122 126 124 8 31 14 3 0
131 129 128 130 122 126 124 67 91 80 37 0
131 129 128 130 122 126 124 50 64 54 32 0
131 129 128 130 122 126 76 121 99 47 62 0
131 129 128 130 122 126 72 114 95 43 59 0
131 129 128 130 122 126 70 109 92 40 57 0
131 129 128 130 122 126 74 118 97 45 60 0
131 129 128 130 122 126 8 31 14 3 6 0
131 129 128 130 122 126 67 91 80 37 52 0
131 129 128 130 122 124 76 121 99 47 89 0
131 129 128 130 122 124 72 114 95 43 85 0
131 129 128 130 122 124 70 109 92 40 82 0
131 129 128 130 122 124 74 118 97 45 86 0
131 129 128 130 122 124 8 31 14 3 13 0
131 129 128 130 122 124 50 64 54 32 53 0
131 129 128 130 122 76 121 99 47 89 62 0
131 129 128 130 122 72 114 95 43 85 59 0
131 129 128 130 122 70 109 92 40 82 57 0
131 129 128 130 122 74 118 97 45 86 60 0
131 129 128 130 122 8 31 14 3 13 6 0
131 129 128 130 127 123 126 124 76 121 26 0
131 129 128 130 127 123 126 124 72 114 22 0
131 129 128 130 127 123 126 124 70 109 18 0
131 129 128 130 127 123 126 124 74 118 25 0
131 129 128 130 127 123 126 124 69 100 16 0
131 129 128 130 127 123 126 124 35 48 2 0
131 129 128 130 127 123 126 124 67 91 11 0
131 129 128 130 127 123 126 124 50 64 5 0
131 129 128 130 127 123 126 76 121 26 62 0
131 129 128 130 127 123 126 72 114 22 59 0
131 129 128 130 127 123 126 70 109 18 57 0
131 129 128 130 127 123 126 74 118 25 60 0
131 129 128 130 127 123 126 69 100 16 55 0
131 129 128 130 127 123 126 35 48 2 33 0
131 129 128 130 127 123 126 67 91 11 52 0
131 129 128 130 127 123 124 76 121 26 89 0
131 129 128 130 127 123 124 72 114 22 85 0
131 129 128 130 127 123 124 70 109 18 82 0
131 129 128 130 127 123 124 74 118 25 86 0
131 129 128 130 127 123 124 69 100 16 81 0
131 129 128 130 127 123 124 35 48 2 36 0
131 129 128 130 127 123 124 50 64 5 53 0
131 129 128 130 127 123 76 121 26 89 62 0
131 129 128 130 127 123 72 114 22 85 59 0
131 129 128 130 127 123 70 109 18 82 57 0
131 129 128 130 127 123 74 118 25 86 60 0
131 129 128 130 127 123 69 100 16 81 55 0
131 129 128 130 127 123 35 48 2 36 33 0
131 129 128 130 127 126 124 76 121 26 47 0
131 129 128 130 127 126 124 72 114 22 43 0
131 129 128 130 127 126 124 70 109 18 40 0
131 129 128 130 127 126 124 74 118 25 45 0
131 129 128 130 127 126 124 69 100 16 38 0
131 129 128 130 127 126 124 67 91 11 37 0
131 129 128 130 127 126 124 50 64 5 32 0
131 129 128 130 127 126 76 121 26 47 62 0
131 129 128 130 127 126 72 114 22 43 59 0
131 129 128 130 127 126 70 109 18 40 57 0
131 129 128 130 127 126 74 118 25 45 60 0
131 129 128 130 127 126 69 100 16 38 55 0
131 129 128 130 127 126 67 91 11 37 52 0
131 129 128 130 127 124 76 121 26 47 89 0
131 129 128 130 127 124 72 114 22 43 85 0
131 129 128 130 127 124 70 109 18 40 82 0
131 129 128 130 127 124 74 118 25 45 86 0
131 129 128 130 127 124 69 100 16 38 81 0
131 129 128 130 127 124 50 64 5 32 53 0
131 129 128 130 127 76 121 26 47 89 62 0
131 129 128 130 127 72 114 22 43 85 59 0
131 129 128 130 127 70 109 18 40 82 57 0
131 129 128 130 127 74 118 25 45 86 60 0
131 129 128 130 127 69 100 16 38 81 55 0
131 129 128 130 123 126 124 76 121 26 99 0
131 129 128 130 123 126 124 72 114 22 95 0
131 129 128 130 123 126 124 70 109 18 92 0
131 129 128 130 123 126 124 74 118 25 97 0
131 129 128 130 123 126 124 35 48 2 39 0
131 129 128 130 123 126 124 67 91 11 80 0
131 129 128 130 123 126 124 50 64 5 54 0
131 129 128 130 123 126 76 121 26 99 62 0
131 129 128 130 123 126 72 114 22 95 59 0
131 129 128 130 123 126 70 109 18 92 57 0
131 129 128 130 123 126 74 118 25 97 60 0
131 129 128 130 123 126 35 48 2 39 33 0
131 129 128 130 123 126 67 91 11 80 52 0
131 129 128 130 123 124 76 121 26 99 89 0
131 129 128 130 123 124 72 114 22 95 85 0
131 129 128 130 123 124 70 109 18 92 82 0
131 129 128 130 123 124 74 118 25 97 86 0
131 129 128 130 123 124 35 48 2 39 36 0
131 129 128 130 123 124 50 64 5 54 53 0
131 129 128 130 123 76 121 26 99 89 62 0
131 129 128 130 123 72 114 22 95 85 59 0
131 129 128 130 123 70 109 18 92 82 57 0
131 129 128 130 123 74 118 25 97 86 60 0
131 129 128 130 123 35 48 2 39 36 33 0
131 129 128 130 126 124 76 121 26 99 47 0
131 129 128 130 126 124 72 114 22 95 43 0
131 129 128 130 126 124 70 109 18 92 40 0
131 129 128 130 126 124 74 118 25 97 45 0
131 129 128 130 126 124 67 91 11 80 37 0
131 129 128 130 126 124 50 64 5 54 32 0
131 129 128 130 126 76 121 26 99 47 62 0
131 129 128 130 126 72 114 22 95 43 59 0
131 129 128 130 126 70 109 18 92 40 57 0
131 129 128 130 126 74 118 25 97 45 60 0
131 129 128 130 126 67 91 11 80 37 52 0
131 129 128 130 124 76 121 26 99 47 89 0
131 129 128 130 124 72 114 22 95 43 85 0
131 129 128 130 124 70 109 18 92 40 82 0
131 129 128 130 124 74 118 25 97 45 86 0
131 129 128 130 124 50 64 5 54 32 53 0
131 129 128 130 76 121 26 99 47 89 62 0
131 129 128 130 72 114 22 95 43 85 59 0
131 129 128 130 70 109 18 92 40 82 57 0
131 129 128 130 74 118 25 97 45 86 60 0
131 129 128 132 122 127 123 126 124 76 116 0
131 129 128 132 122 127 123 126 124 72 111 0
131 129 128 132 122 127 123 126 124 70 105 0
131 129 128 132 122 127 123 126 124 79 119 0
131 129 128 132 122 127 123 126 124 8 23 0
131 129 128 132 122 127 123 126 124 69 96 0
131 129 128 132 122 127 123 126 124 35 44 0
131 129 128 132 122 127 123 126 124 67 87 0
131 129 128 132 122 127 123 126 124 50 61 0
131 129 128 132 122 127 123 126 76 116 62 0
131 129 128 132 122 127 123 126 72 111 59 0
131 129 128 132 122 127 123 126 70 105 57 0
131 129 128 132 122 127 123 126 79 119 65 0
131 129 128 132 122 127 123 126 8 23 6 0
131 129 128 132 122 127 123 126 69 96 55 0
131 129 128 132 122 127 123 126 35 44 33 0
131 129 128 132 122 127 123 126 67 87 52 0
131 129 128 132 122 127 123 124 76 116 89 0
131 129 128 132 122 127 123 124 72 111 85 0
131 129 128 132 122 127 123 124 70 105 82 0
131 129 128 132 122 127 123 124 79 119 90 0
131 129 128 132 122 127 123 124 8 23 13 0
131 129 128 132 122 127 123 124 69 96 81 0
131 129 128 132 122 127 123 124 35 44 36 0
131 129 128 132 122 127 123 124 50 61 53 0
131 129 128 132 122 127 123 76 116 89 62 0
131 129 128 132 122 127 123 72 111 85 59 0
131 129 128 132 122 127 123 70 105 82 57 0
131 129 128 132 122 127 123 79 119 90 65 0
131 129 128 132 122 127 123 8 23 13 6 0
131 129 128 132 122 127 123 69 96 81 55 0
131 129 128 132 122 127 123 35 44 36 33 0
131 129 128 132 122 127 126 124 76 116 47 0
131 129 128 132 122 127 126 124 72 111 43 0
131 129 128 132 122 127 126 124 70 105 40 0
131 129 128 132 122 127 126 124 79 119 49 0
131 129 128 132 122 127 126 124 8 23 3 0
131 129 128 132 122 127 126 124 69 96 38 0
131 129 128 132 122 127 126 124 67 87 37 0
131 129 128 132 122 127 126 124 50 61 32 0
131 129 128 132 122 127 126 76 116 47 62 0
131 129 128 132 122 127 126 72 111 43 59 0
131 129 128 132 122 127 126 70 105 40 57 0
131 129 128 132 122 127 126 79 119 49 65 0
131 129 128 132 122 127 126 8 23 3 6 0
131 129 128 132 122 127 126 69 96 38 55 0
131 129 128 132 122 127 126 67 87 37 52 0
131 129 128 132 122 127 124 76 116 47 89 0
131 129 128 132 122 127 124 72 111 43 85 0
131 129 128 132 122 127 124 70 105 40 82 0
131 129 128 132 122 127 124 79 119 49 90 0
131 129 128 132 122 127 124 8 23 3 13 0
131 129 128 132 122 127 124 69 96 38 81 0
131 129 128 132 122 127 124 50 61 32 53 0
131 129 128 132 122 127 76 116 47 89 62 0
131 129 128 132 122 127 72 111 43 85 59 0
131 129 128 132 122 127 70 105 40 82 57 0
131 129 128 132 122 127 79 119 49 90 65 0
131 129 128 132 122 127 8 23 3 13 6 0
131 129 128 132 122 127 69 96 38 81 55 0
131 129 128 132 122 123 126 124 76 116 99 0
131 129 128 132 122 123 126 124 72 111 95 0
131 129 128 132 122 123 126 124 70 105 92 0
131 129 128 132 122 123 126 124 79 119 101 0
131 129 128 132 122 123 126 124 8 23 14 0
131 129 128 132 122 123 126 124 35 44 39 0
131 129 128 132 122 123 126 124 67 87 80 0
131 129 128 132 122 123 126 124 50 61 54 0
131 129 128 132 122 123 126 76 116 99 62 0
131 129 128 132 122 123 126 72 111 95 59 0
131 129 128 132 122 123 126 70 105 92 57 0
131 129 128 132 122 123 126 79 119 101 65 0
131 129 128 132 122 123 126 8 23 14 6 0
131 129 128 132 122 123 126 35 44 39 33 0
131 129 128 132 122 123 126 67 87 80 52 0
131 129 128 132 122 123 124 76 116 99 89 0
131 129 128 132 122 123 124 72 111 95 85 0
131 129 128 132 122 123 124 70 105 92 82 0
131 129 128 132 122 123 124 79 119 101 90 0
131 129 128 132 122 123 124 8 23 14 13 0
131 129 128 132 122 123 124 35 44 39 36 0
131 129 128 132 122 123 124 50 61 54 53 0
131 129 128 132 122 123 76 116 99 89 62 0
131 129 128 132 122 123 72 111 95 85 59 0
131 129 128 132 122 123 70 105 92 82 57 0
131 129 128 132 122 123 79 119 101 90 65 0
131 129 128 132 122 123 8 23 14 13 6 0
131 129 128 132 122 123 35 44 39 36 33 0
131 129 128 132 122 126 124 76 116 99 47 0
131 129 128 132 122 126 124 72 111 95 43 0
131 129 128 132 122 126 124 70 105 92 40 0
131 129 128 132 122 126 124 79 119 101 49 0
131 129 128 132 122 126 124 8 23 14 3 0
131 129 128 132 122 126 124 67 87 80 37 0
131 129 128 132 122 126 124 50 61 54 32 0
131 129 128 132 122 126 76 116 99 47 62 0
131 129 128 132 122 126 72 111 95 43 59 0
131 129 128 132 122 126 70 105 92 40 57 0
131 129 128 132 122 126 79 119 101 49 65 0
131 129 128 132 122 126 8 23 14 3 6 0
131 129 128 132 122 126 67 87 80 37 52 0
131 129 128 132 122 124 76 116 99 47 89 0
131 129 128 132 122 124 72 111 95 43 85 0
131 129 128 132 122 124 70 105 92 40 82 0
131 129 128 132 122 124 79 119 101 49 90 0
131 129 128 132 122 124 8 23 14 3 13 0
131 129 128 132 122 124 50 61 54 32 53 0
131 129 128 132 122 76 116 99 47 89 62 0
131 129 128 132 122 72 111 95 43 85 59 0
131 129 128 132 122 70 105 92 40 82 57 0
131 129 128 132 122 79 119 101 49 90 65 0
131 129 128 132 122 8 23 14 3 13 6 0
131 129 128 132 127 123 126 124 76 116 26 0
131 129 128 132 127 123 126 124 72 111 22 0
131 129 128 132 127 123 126 124 70 105 18 0
131 129 128 132 127 123 126 124 79 119 29 0
131 129 128 132 127 123 126 124 69 96 16 0
131 129 128 132 127 123 126 124 35 44 2 0
131 129 128 132 127 123 126 124 67 87 11 0
131 129 128 132 127 123 126 124 50 61 5 0
131 129 128 132 127 123 126 76 116 26 62 0
131 129 128 132 127 123 126 72 111 22 59 0
131 129 128 132 127 123 126 70 105 18 57 0
131 129 128 132 127 123 126 79 119 29 65 0
131 129 128 132 127 123 126 69 96 16 55 0
131 129 128 132 127 123 126 35 44 2 33 0
131 129 128 132 127 123 126 67 87 11 52 0
131 129 128 132 127 123 124 76 116 26 89 0
131 129 128 132 127 123 124 72 111 22 85 0
131 129 128 132 127 123 124 70 105 18 82 0
131 129 128 132 127 123 124 79 119 29 90 0
131 129 128 132 127 123 124 69 96 16 81 0
131 129 128 132 127 123 124 35 44 2 36 0
131 129 128 132 127 123 124 50 61 5 53 0
131 129 128 132 127 123 76 116 26 89 62 0
131 129 128 132 127 123 72 111 22 85 59 0
131 129 128 132 127 123 70 105 18 82 57 0
131 129 128 132 127 123 79 119 29 90 65 0
131 129 128 132 127 123 69 96 16 81 55 0
131 129 128 132 127 123 35 44 2 36 33 0
131 129 128 132 127 126 124 76 116 26 47 0
131 129 128 132 127 126 124 72 111 22 43 0
131 129 128 132 127 126 124 70 105 18 40 0
131 129 128 132 127 126 124 79 119 29 49 0
131 129 128 132 127 126 124 69 96 16 38 0
131 129 128 132 127 126 124 67 87 11 37 0
131 129 128 132 127 126 124 50 61 5 32 0
131 129 128 132 127 126 76 116 26 47 62 0
131 129 128 132 127 126 72 111 22 43 59 0
131 129 128 132 127 126 70 105 18 40 57 0
131 129 128 132 127 126 79 119 29 49 65 0
131 129 128 132 127 126 69 96 16 38 55 0
131 129 128 132 127 126 67 87 11 37 52 0
131 129 128 132 127 124 76 116 26 47 89 0
131 129 128 132 127 124 72 111 22 43 85 0
131 129 128 132 127 124 70 105 18 40 82 0
131 129 128 132 127 124 79 119 29 49 90 0
131 129 128 132 127 124 69 96 16 38 81 0
131 129 128 132 127 124 50 61 5 32 53 0
131 129 128 132 127 76 116 26 47 89 62 0
131 129 128 132 127 72 111 22 43 85 59 0
131 129 128 132 127 70 105 18 40 82 57 0
131 129 128 132 127 79 119 29 49 90 65 0
131 129 128 132 127 69 96 16 38 81 55 0
131 129 128 132 123 126 124 76 116 26 99 0
131 129 128 132 123 126 124 72 111 22 95 0
131 129 128 132 123 126 124 70 105 18 92 0
131 129 128 132 123 126 124 79 119 29 101 0
131 129 128 132 123 126 124 35 44 2 39 0
131 129 128 132 123 126 124 67 87 11 80 0
131 129 128 132 123 126 124 50 61 5 54 0
131 129 128 132 123 126 76 116 26 99 62 0
131 129 128 132 123 126 72 111 22 95 59 0
131 129 128 132 123 126 70 105 18 92 57 0
131 129 128 132 123 126 79 119 29 101 65 0
131 129 128 132 123 126 35 44 2 39 33 0
131 129 128 132 123 126 67 87 11 80 52 0
131 129 128 132 123 124 76 116 26 99 89 0
131 129 128 132 123 124 72 111 22 95 85 0
131 129 128 132 123 124 70 105 18 92 82 0
131 129 128 132 123 124 79 119 29 101 90 0
131 129 128 132 123 124 35 44 2 39 36 0
131 129 128 132 123 124 50 61 5 54 53 0
131 129 128 132 123 76 116 26 99 89 62 0
131 129 128 132 123 72 111 22 95 85 59 0
131 129 128 132 123 70 105 18 92 82 57 0
131 129 128 132 123 79 119 29 101 90 65 0
131 129 128 132 123 35 44 2 39 36 33 0
131 129 128 132 126 124 76 116 26 99 47 0
131 129 128 132 126 124 72 111 22 95 43 0
131 129 128 132 126 124 70 105 18 92 40 0
131 129 128 132 126 124 79 119 29 101 49 0
131 129 128 132 126 124 67 87 11 80 37 0
131 129 128 132 126 124 50 61 5 54 32 0
131 129 128 132 126 76 116 26 99 47 62 0
131 129 128 132 126 72 111 22 95 43 59 0
131 129 128 132 126 70 105 18 92 40 57 0
131 129 128 132 126 79 119 29 101 49 65 0
131 129 128 132 126 67 87 11 80 37 52 0
131 129 128 132 124 76 116 26 99 47 89 0
131 129 128 132 124 72 111 22 95 43 85 0
131 129 128 132 124 70 105 18 92 40 82 0
131 129 128 132 124 79 119 29 101 49 90 0
131 129 128 132 124 50 61 5 54 32 53 0
131 129 128 132 76 116 26 99 47 89 62 0
131 129 128 132 72 111 22 95 43 85 59 0
131 129 128 132 70 105 18 92 40 82 57 0
131 129 128 132 79 119 29 101 49 90 65 0
131 129 128 122 127 123 126 124 76 116 121 0
131 129 128 122 127 123 126 124 72 111 114 0
131 129 128 122 127 123 126 124 70 105 109 0
131 129 128 122 127 123 126 124 8 23 31 0
131 129 128 122 127 123 126 124 69 96 100 0
131 129 128 122 127 123 126 124 35 44 48 0
131 129 128 122 127 123 126 124 67 87 91 0
131 129 128 122 127 123 126 124 50 61 64 0
131 129 128 122 127 123 126 76 116 121 62 0
131 129 128 122 127 123 126 72 111 114 59 0
131 129 128 122 127 123 126 70 105 109 57 0
131 129 128 122 127 123 126 8 23 31 6 0
131 129 128 122 127 123 126 69 96 100 55 0
131 129 128 122 127 123 126 35 44 48 33 0
131 129 128 122 127 123 126 67 87 91 52 0
131 129 128 122 127 123 124 76 116 121 89 0
131 129 128 122 127 123 124 72 111 114 85 0
131 129 128 122 127 123 124 70 105 109 82 0
131 129 128 122 127 123 124 8 23 31 13 0
131 129 128 122 127 123 124 69 96 100 81 0
131 129 128 122 127 123 124 35 44 48 36 0
131 129 128 122 127 123 124 50 61 64 53 0
131 129 128 122 127 123 76 116 121 89 62 0
131 129 128 122 127 123 72 111 114 85 59 0
131 129 128 122 127 123 70 105 109 82 57 0
131 129 128 122 127 123 8 23 31 13 6 0
131 129 128 122 127 123 69 96 100 81 55 0
131 129 128 122 127 123 35 44 48 36 33 0
131 129 128 122 127 126 124 76 116 121 47 0
131 129 128 122 127 126 124 72 111 114 43 0
131 129 128 122 127 126 124 70 105 109 40 0
131 129 128 122 127 126 124 8 23 31 3 0
131 129 128 122 127 126 124 69 96 100 38 0
131 129 128 122 127 126 124 67 87 91 37 0
131 129 128 122 127 126 124 50 61 64 32 0
131 129 128 122 127 126 76 116 121 47 62 0
131 129 128 122 127 126 72 111 114 43 59 0
131 129 128 122 127 126 70 105 109 40 57 0
131 129 128 122 127 126 8 23 31 3 6 0
131 129 128 122 127 126 69 96 100 38 55 0
131 129 128 122 127 126 67 87 91 37 52 0
131 129 128 122 127 124 76 116 121 47 89 0
131 129 128 122 127 124 72 111 114 43 85 0
131 129 128 122 127 124 70 105 109 40 82 0
131 129 128 122 127 124 8 23 31 3 13 0
131 129 128 122 127 124 69 96 100 38 81 0
131 129 128 122 127 124 50 61 64 32 53 0
131 129 128 122 127 76 116 121 47 89 62 0
131 129 128 122 127 72 111 114 43 85 59 0
131 129 128 122 127 70 105 109 40 82 57 0
131 129 128 122 127 8 23 31 3 13 6 0
131 129 128 122 127 69 96 100 38 81 55 0
131 129 128 122 123 126 124 76 116 121 99 0
131 129 128 122 123 126 124 72 111 114 95 0
131 129 128 122 123 126 124 70 105 109 92 0
131 129 128 122 123 126 124 8 23 31 14 0
131 129 128 122 123 126 124 35 44 48 39 0
131 129 128 122 123 126 124 67 87 91 80 0
131 129 128 122 123 126 124 50 61 64 54 0
131 129 128 122 123 126 76 116 121 99 62 0
131 129 128 122 123 126 72 111 114 95 59 0
131 129 128 122 123 126 70 105 109 92 57 0
131 129 128 122 123 126 8 23 31 14 6 0
131 129 128 122 123 126 35 44 48 39 33 0
131 129 128 122 123 126 67 87 91 80 52 0
131 129 128 122 123 124 76 116 121 99 89 0
131 129 128 122 123 124 72 111 114 95 85 0
131 129 128 122 123 124 70 105 109 92 82 0
131 129 128 122 123 124 8 23 31 14 13 0
131 129 128 122 123 124 35 44 48 39 36 0
131 129 128 122 123 124 50 61 64 54 53 0
131 129 128 122 123 76 116 121 99 89 62 0
131 129 128 122 123 72 111 114 95 85 59 0
131 129 128 122 123 70 105 109 92 82 57 0
131 129 128 122 123 8 23 31 14 13 6 0
131 129 128 122 123 35 44 48 39 36 33 0
131 129 128 122 126 124 76 116 121 99 47 0
131 129 128 122 126 124 72 111 114 95 43 0
131 129 128 122 126 124 70 105 109 92 40 0
131 129 128 122 126 124 8 23 31 14 3 0
131 129 128 122 126 124 67 87 91 80 37 0
131 129 128 122 126 124 50 61 64 54 32 0
131 129 128 122 126 76 116 121 99 47 62 0
131 129 128 122 126 72 111 114 95 43 59 0
131 129 128 122 126 70 105 109 92 40 57 0
131 129 128 122 126 8 23 31 14 3 6 0
131 129 128 122 126 67 87 91 80 37 52 0
131 129 128 122 124 76 116 121 99 47 89 0
131 129 128 122 124 72 111 114 95 43 85 0
131 129 128 122 124 70 105 109 92 40 82 0
131 129 128 122 124 8 23 31 14 3 13 0
131 129 128 122 124 50 61 64 54 32 53 0
131 129 128 122 76 116 121 99 47 89 62 0
131 129 128 122 72 111 114 95 43 85 59 0
131 129 128 122 70 105 109 92 40 82 57 0
131 129 128 122 8 23 31 14 3 13 6 0
131 129 128 127 123 126 124 76 116 121 26 0
131 129 128 127 123 126 124 72 111 114 22 0
131 129 128 127 123 126 124 70 105 109 18 0
131 129 128 127 123 126 124 69 96 100 16 0
131 129 128 127 123 126 124 35 44 48 2 0
131 129 128 127 123 126 124 67 87 91 11 0
131 129 128 127 123 126 124 50 61 64 5 0
131 129 128 127 123 126 76 116 121 26 62 0
131 129 128 127 123 126 72 111 114 22 59 0
131 129 128 127 123 126 70 105 109 18 57 0
131 129 128 127 123 126 69 96 100 16 55 0
131 129 128 127 123 126 35 44 48 2 33 0
131 129 128 127 123 126 67 87 91 11 52 0
131 129 128 127 123 124 76 116 121 26 89 0
131 129 128 127 123 124 72 111 114 22 85 0
131 129 128 127 123 124 70 105 109 18 82 0
131 129 128 127 123 124 69 96 100 16 81 0
131 129 128 127 123 124 35 44 48 2 36 0
131 129 128 127 123 124 50 61 64 5 53 0
131 129 128 127 123 76 116 121 26 89 62 0
131 129 128 127 123 72 111 114 22 85 59 0
131 129 128 127 123 70 105 109 18 82 57 0
131 129 128 127 123 69 96 100 16 81 55 0
131 129 128 127 123 35 44 48 2 36 33 0
131 129 128 127 126 124 76 116 121 26 47 0
131 129 128 127 126 124 72 111 114 22 43 0
131 129 128 127 126 124 70 105 109 18 40 0
131 129 128 127 126 124 69 96 100 16 38 0
131 129 128 127 126 124 67 87 91 11 37 0
131 129 128 127 126 124 50 61 64 5 32 0
131 129 128 127 126 76 116 121 26 47 62 0
131 129 128 127 126 72 111 114 22 43 59 0
131 129 128 127 126 70 105 109 18 40 57 0
131 129 128 127 126 69 96 100 16 38 55 0
131 129 128 127 126 67 87 91 11 37 52 0
131 129 128 127 124 76 116 121 26 47 89 0
131 129 128 127 124 72 111 114 22 43 85 0
131 129 128 127 124 70 105 109 18 40 82 0
131 129 128 127 124 69 96 100 16 38 81 0
131 129 128 127 124 50 61 64 5 32 53 0
131 129 128 127 76 116 121 26 47 89 62 0
131 129 128 127 72 111 114 22 43 85 59 0
131 129 128 127 70 105 109 18 40 82 57 0
131 129 128 127 69 96 100 16 38 81 55 0
131 129 128 123 126 124 76 116 121 26 99 0
131 129 128 123 126 124 72 111 114 22 95 0
131 129 128 123 126 124 70 105 109 18 92 0
131 129 128 123 126 124 35 44 48 2 39 0
131 129 128 123 126 124 67 87 91 11 80 0
131 129 128 123 126 124 50 61 64 5 54 0
131 129 128 123 126 76 116 121 26 99 62 0
131 129 128 123 126 72 111 114 22 95 59 0
131 129 128 123 126 70 105 109 18 92 57 0
131 129 128 123 126 35 44 48 2 39 33 0
131 129 128 123 126 67 87 91 11 80 52 0
131 129 128 123 124 76 116 121 26 99 89 0
131 129 128 123 124 72 111 114 22 95 85 0
131 129 128 123 124 70 105 109 18 92 82 0
131 129 128 123 124 35 44 48 2 39 36 0
131 129 128 123 124 50 61 64 5 54 53 0
131 129 128 123 76 116 121 26 99 89 62 0
131 129 128 123 72 111 114 22 95 85 59 0
131 129 128 123 70 105 109 18 92 82 57 0
131 129 128 123 35 44 48 2 39 36 33 0
131 129 128 126 124 76 116 121 26 99 47 0
131 129 128 126 124 72 111 114 22 95 43 0
131 129 128 126 124 70 105 109 18 92 40 0
131 129 128 126 124 67 87 91 11 80 37 0
131 129 128 126 124 50 61 64 5 54 32 0
131 129 128 126 76 116 121 26 99 47 62 0
131 129 128 126 72 111 114 22 95 43 59 0
131 129 128 126 70 105 109 18 92 40 57 0
131 129 128 126 67 87 91 11 80 37 52 0
131 129 128 124 76 116 121 26 99 47 89 0
131 129 128 124 72 111 114 22 95 43 85 0
131 129 128 124 70 105 109 18 92 40 82 0
131 129 128 124 50 61 64 5 54 32 53 0
131 129 128 76 116 121 26 99 47 89 62 0
131 129 128 72 111 114 22 95 43 85 59 0
131 129 128 70 105 109 18 92 40 82 57 0
131 129 125 130 132 122 127 123 126 124 107 0
131 129 125 130 132 122 127 123 126 124 103 0
131 129 125 130 132 122 127 123 126 124 71 0
131 129 125 130 132 122 127 123 126 124 104 0
131 129 125 130 132 122 127 123 126 124 108 0
131 129 125 130 132 122 127 123 126 124 17 0
131 129 125 130 132 122 127 123 126 124 93 0
131 129 125 130 132 122 127 123 126 124 41 0
131 129 125 130 132 122 127 123 126 124 83 0
131 129 125 130 132 122 127 123 126 124 56 0
131 129 125 130 132 122 127 123 126 107 62 0
131 129 125 130 132 122 127 123 126 103 59 0
131 129 125 130 132 122 127 123 126 71 51 0
131 129 125 130 132 122 127 123 126 104 60 0
131 129 125 130 132 122 127 123 126 108 65 0
131 129 125 130 132 122 127 123 126 17 6 0
131 129 125 130 132 122 127 123 126 93 55 0
131 129 125 130 132 122 127 123 126 41 33 0
131 129 125 130 132 122 127 123 126 83 52 0
131 129 125 130 132 122 127 123 124 107 89 0
131 129 125 130 132 122 127 123 124 103 85 0
131 129 125 130 132 122 127 123 124 71 66 0
131 129 125 130 132 122 127 123 124 104 86 0
131 129 125 130 132 122 127 123 124 108 90 0
131 129 125 130 132 122 127 123 124 17 13 0
131 129 125 130 132 122 127 123 124 93 81 0
131 129 125 130 132 122 127 123 124 41 36 0
131 129 125 130 132 122 127 123 124 56 53 0
131 129 125 130 132 122 127 123 107 89 62 0
131 129 125 130 132 122 127 123 103 85 59 0
131 129 125 130 132 122 127 123 71 66 51 0
131 129 125 130 132 122 127 123 104 86 60 0
131 129 125 130 132 122 127 123 108 90 65 0
131 129 125 130 132 122 127 123 17 13 6 0
131 129 125 130 132 122 127 123 93 81 55 0
131 129 125 130 132 122 127 123 41 36 33 0
131 129 125 130 132 122 127 126 124 107 47 0
131 129 125 130 132 122 127 126 124 103 43 0
131 129 125 130 132 122 127 126 124 71 34 0
131 129 125 130 132 122 127 126 124 104 45 0
131 129 125 130 132 122 127 126 124 108 49 0
131 129 125 130 132 122 127 126 124 17 3 0
131 129 125 130 132 122 127 126 124 93 38 0
131 129 125 130 132 122 127 126 124 83 37 0
131 129 125 130 132 122 127 126 124 56 32 0
131 129 125 130 132 122 127 126 107 47 62 0
131 129 125 130 132 122 127 126 103 43 59 0
131 129 125 130 132 122 127 126 71 34 51 0
131 129 125 130 132 122 127 126 104 45 60 0
131 129 125 130 132 122 127 126 108 49 65 0
131 129 125 130 132 122 127 126 17 3 6 0
131 129 125 130 132 122 127 126 93 38 55 0
131 129 125 130 132 122 127 126 83 37 52 0
131 129 125 130 132 122 127 124 107 47 89 0
131 129 125 130 132 122 127 124 103 43 85 0
131 129 125 130 132 122 127 124 71 34 66 0
131 129 125 130 132 122 127 124 104 45 86 0
131 129 125 130 132 122 127 124 108 49 90 0
131 129 125 130 132 122 127 124 17 3 13 0
131 129 125 130 132 122 127 124 93 38 81 0
131 129 125 130 132 122 127 124 56 32 53 0
131 129 125 130 132 122 127 107 47 89 62 0
131 129 125 130 132 122 127 103 43 85 59 0
131 129 125 130 132 122 127 71 34 66 51 0
131 129 125 130 132 122 127 104 45 86 60 0
131 129 125 130 132 122 127 108 49 90 65 0
131 129 125 130 132 122 127 17 3 13 6 0
131 129 125 130 132 122 127 93 38 81 55 0
131 129 125 130 132 122 123 126 124 107 99 0
131 129 125 130 132 122 123 126 124 103 95 0
131 129 125 130 132 122 123 126 124 71 68 0
131 129 125 130 132 122 123 126 124 104 97 0
131 129 125 130 132 122 123 126 124 108 101 0
131 129 125 130 132 122 123 126 124 17 14 0
131 129 125 130 132 122 123 126 124 41 39 0
131 129 125 130 132 122 123 126 124 83 80 0
131 129 125 130 132 122 123 126 124 56 54 0
131 129 125 130 132 122 123 126 107 99 62 0
131 129 125 130 132 122 123 126 103 95 59 0
131 129 125 130 132 122 123 126 71 68 51 0
131 129 125 130 132 122 123 126 104 97 60 0
131 129 125 130 132 122 123 126 108 101 65 0
131 129 125 130 132 122 123 126 17 14 6 0
131 129 125 130 132 122 123 126 41 39 33 0
131 129 125 130 132 122 123 126 83 80 52 0
131 129 125 130 132 122 123 124 107 99 89 0
131 129 125 130 132 122 123 124 103 95 85 0
131 129 125 130 132 122 123 124 71 68 66 0
131 129 125 130 132 122 123 124 104 97 86 0
131 129 125 130 132 122 123 124 108 101 90 0
131 129 125 130 132 122 123 124 17 14 13 0
131 129 125 130 132 122 123 124 41 39 36 0
131 129 125 130 132 122 123 124 56 54 53 0
131 129 125 130 132 122 123 107 99 89 62 0
131 129 125 130 132 122 123 103 95 85 59 0
131 129 125 130 132 122 123 71 68 66 51 0
131 129 125 130 132 122 123 104 97 86 60 0
131 129 125 130 132 122 123 108 101 90 65 0
131 129 125 130 132 122 123 17 14 13 6 0
131 129 125 130 132 122 123 41 39 36 33 0
131 129 125 130 132 122 126 124 107 99 47 0
131 129 125 130 132 122 126 124 103 95 43 0
131 129 125 130 132 122 126 124 71 68 34 0
131 129 125 130 132 122 126 124 104 97 45 0
131 129 125 130 132 122 126 124 108 101 49 0
131 129 125 130 132 122 126 124 17 14 3 0
131 129 125 130 132 122 126 124 83 80 37 0
131 129 125 130 132 122 126 124 56 54 32 0
131 129 125 130 132 122 126 107 99 47 62 0
131 129 125 130 132 122 126 103 95 43 59 0
131 129 125 130 132 122 126 71 68 34 51 0
131 129 125 130 132 122 126 104 97 45 60 0
131 129 125 130 132 122 126 108 101 49 65 0
131 129 125 130 132 122 126 17 14 3 6 0
131 129 125 130 132 122 126 83 80 37 52 0
131 129 125 130 132 122 124 107 99 47 89 0
131 129 125 130 132 122 124 103 95 43 85 0
131 129 125 130 132 122 124 71 68 34 66 0
131 129 125 130 132 122 124 104 97 45 86 0
131 129 125 130 132 122 124 108 101 49 90 0
131 129 125 130 132 122 124 17 14 3 13 0
131 129 125 130 132 122 124 56 54 32 53 0
131 129 125 130 132 122 107 99 47 89 62 0
131 129 125 130 132 122 103 95 43 85 59 0
131 129 125 130 132 122 71 68 34 66 51 0
131 129 125 130 132 122 104 97 45 86 60 0
131 129 125 130 132 122 108 101 49 90 65 0
131 129 125 130 132 122 17 14 3 13 6 0
131 129 125 130 132 127 123 126 124 107 26 0
131 129 125 130 132 127 123 126 124 103 22 0
131 129 125 130 132 127 123 126 124 71 9 0
131 129 125 130 132 127 123 126 124 104 25 0
131 129 125 130 132 127 123 126 124 108 29 0
131 129 125 130 132 127 123 126 124 93 16 0
131 129 125 130 132 127 123 126 124 41 2 0
131 129 125 130 132 127 123 126 124 83 11 0
131 129 125 130 132 127 123 126 124 56 5 0
131 129 125 130 132 127 123 126 107 26 62 0
131 129 125 130 132 127 123 126 103 22 59 0
131 129 125 130 132 127 123 126 71 9 51 0
131 129 125 130 132 127 123 126 104 25 60 0
131 129 125 130 132 127 123 126 108 29 65 0
131 129 125 130 132 127 123 126 93 16 55 0
131 129 125 130 132 127 123 126 41 2 33 0
131 129 125 130 132 127 123 126 83 11 52 0
131 129 125 130 132 127 123 124 107 26 89 0
131 129 125 130 132 127 123 124 103 22 85 0
131 129 125 130 132 127 123 124 71 9 66 0
131 129 125 130 132 127 123 124 104 25 86 0
131 129 125 130 132 127 123 124 108 29 90 0
131 129 125 130 132 127 123 124 93 16 81 0
131 129 125 130 132 127 123 124 41 2 36 0
131 129 125 130 132 127 123 124 56 5 53 0
131 129 125 130 132 127 123 107 26 89 62 0
131 129 125 130 132 127 123 103 22 85 59 0
131 129 125 130 132 127 123 71 9 66 51 0
131 129 125 130 132 127 123 104 25 86 60 0
131 129 125 130 132 127 123 108 29 90 65 0
131 129 125 130 132 127 123 93 16 81 55 0
131 129 125 130 132 127 123 41 2 36 33 0
131 129 125 130 132 127 126 124 107 26 47 0
131 129 125 130 132 127 126 124 103 22 43 0
131 129 125 130 132 127 126 124 71 9 34 0
131 129 125 130 132 127 126 124 104 25 45 0
131 129 125 130 132 127 126 124 108 29 49 0
131 129 125 130 132 127 126 124 93 16 38 0
131 129 125 130 132 127 126 124 83 11 37 0
131 129 125 130 132 127 126 124 56 5 32 0
131 129 125 130 132 127 126 107 26 47 62 0
131 129 125 130 132 127 126 103 22 43 59 0
131 129 125 130 132 127 126 71 9 34 51 0
131 129 125 130 132 127 126 104 25 45 60 0
131 129 125 130 132 127 126 108 29 49 65 0
131 129 125 130 132 127 126 93 16 38 55 0
131 129 125 130 132 127 126 83 11 37 52 0
131 129 125 130 132 127 124 107 26 47 89 0
131 129 125 130 132 127 124 103 22 43 85 0
131 129 125 130 132 127 124 71 9 34 66 0
131 129 125 130 132 127 124 104 25 45 86 0
131 129 125 130 132 127 124 108 29 49 90 0
131 129 125 130 132 127 124 93 16 38 81 0
131 129 125 130 132 127 124 56 5 32 53 0
131 129 125 130 132 127 107 26 47 89 62 0
131 129 125 130 132 127 103 22 43 85 59 0
131 129 125 130 132 127 71 9 34 66 51 0
131 129 125 130 132 127 104 25 45 86 60 0
131 129 125 130 132 127 108 29 49 90 65 0
131 129 125 130 132 127 93 16 38 81 55 0
131 129 125 130 132 123 126 124 107 26 99 0
131 129 125 130 132 123 126 124 103 22 95 0
131 129 125 130 132 123 126 124 71 9 68 0
131 129 125 130 132 123 126 124 104 25 97 0
131 129 125 130 132 123 126 124 108 29 101 0
131 129 125 130 132 123 126 124 41 2 39 0
131 129 125 130 132 123 126 124 83 11 80 0
131 129 125 130 132 123 126 124 56 5 54 0
131 129 125 130 132 123 126 107 26 99 62 0
131 129 125 130 132 123 126 103 22 95 59 0
131 129 125 130 132 123 126 71 9 68 51 0
131 129 125 130 132 123 126 104 25 97 60 0
131 129 125 130 132 123 126 108 29 101 65 0
131 129 125 130 132 123 126 41 2 39 33 0
131 129 125 130 132 123 126 83 11 80 52 0
131 129 125 130 132 123 124 107 26 99 89 0
131 129 125 130 132 123 124 103 22 95 85 0
131 129 125 130 132 123 124 71 9 68 66 0
131 129 125 130 132 123 124 104 25 97 86 0
131 129 125 130 132 123 124 108 29 101 90 0
131 129 125 130 132 123 124 41 2 39 36 0
131 129 125 130 132 123 124 56 5 54 53 0
131 129 125 130 132 123 107 26 99 89 62 0
131 129 125 130 132 123 103 22 95 85 59 0
131 129 125 130 132 123 71 9 68 66 51 0
131 129 125 130 132 123 104 25 97 86 60 0
131 129 125 130 132 123 108 29 101 90 65 0
131 129 125 130 132 123 41 2 39 36 33 0
131 129 125 130 132 126 124 107 26 99 47 0
131 129 125 130 132 126 124 103 22 95 43 0
131 129 125 130 132 126 124 71 9 68 34 0
131 129 125 130 132 126 124 104 25 97 45 0
131 129 125 130 132 126 124 108 29 101 49 0
131 129 125 130 132 126 124 83 11 80 37 0
131 129 125 130 132 126 124 56 5 54 32 0
131 129 125 130 132 126 107 26 99 47 62 0
131 129 125 130 132 126 103 22 95 43 59 0
131 129 125 130 132 126 71 9 68 34 51 0
131 129 125 130 132 126 104 25 97 45 60 0
131 129 125 130 132 126 108 29 101 49 65 0
131 129 125 130 132 126 83 11 80 37 52 0
131 129 125 130 132 124 107 26 99 47 89 0
131 129 125 130 132 124 103 22 95 43 85 0
131 129 125 130 132 124 71 9 68 34 66 0
131 129 125 130 132 124 104 25 97 45 86 0
131 129 125 130 132 124 108 29 101 49 90 0
131 129 125 130 132 124 56 5 54 32 53 0
131 129 125 130 132 107 26 99 47 89 62 0
131 129 125 130 132 103 22 95 43 85 59 0
131 129 125 130 132 71 9 68 34 66 51 0
131 129 125 130 132 104 25 97 45 86 60 0
131 129 125 130 132 108 29 101 49 90 65 0
131 129 125 130 122 127 123 126 124 107 121 0
131 129 125 130 122 127 123 126 124 103 114 0
131 129 125 130 122 127 123 126 124 71 78 0
131 129 125 130 122 127 123 126 124 104 118 0
131 129 125 130 122 127 123 126 124 17 31 0
131 129 125 130 122 127 123 126 124 93 100 0
131 129 125 130 122 127 123 126 124 41 48 0
131 129 125 130 122 127 123 126 124 83 91 0
131 129 125 130 122 127 123 126 124 56 64 0
131 129 125 130 122 127 123 126 107 121 62 0
131 129 125 130 122 127 123 126 103 114 59 0
131 129 125 130 122 127 123 126 71 78 51 0
131 129 125 130 122 127 123 126 104 118 60 0
131 129 125 130 122 127 123 126 17 31 6 0
131 129 125 130 122 127 123 126 93 100 55 0
131 129 125 130 122 127 123 126 41 48 33 0
131 129 125 130 122 127 123 126 83 91 52 0
131 129 125 130 122 127 123 124 107 121 89 0
131 129 125 130 122 127 123 124 103 114 85 0
131 129 125 130 122 127 123 124 71 78 66 0
131 129 125 130 122 127 123 124 104 118 86 0
131 129 125 130 122 127 123 124 17 31 13 0
131 129 125 130 122 127 123 124 93 100 81 0
131 129 125 130 122 127 123 124 41 48 36 0
131 129 125 130 122 127 123 124 56 64 53 0
131 129 125 130 122 127 123 107 121 89 62 0
131 129 125 130 122 127 123 103 114 85 59 0
131 129 125 130 122 127 123 71 78 66 51 0
131 129 125 130 122 127 123 104 118 86 60 0
131 129 125 130 122 127 123 17 31 13 6 0
131 129 125 130 122 127 123 93 100 81 55 0
131 129 125 130 122 127 123 41 48 36 33 0
131 129 125 130 122 127 126 124 107 121 47 0
131 129 125 130 122 127 126 124 103 114 43 0
131 129 125 130 122 127 126 124 71 78 34 0
131 129 125 130 122 127 126 124 104 118 45 0
131 129 125 130 122 127 126 124 17 31 3 0
131 129 125 130 122 127 126 124 93 100 38 0
131 129 125 130 122 127 126 124 83 91 37 0
131 129 125 130 122 127 126 124 56 64 32 0
131 129 125 130 122 127 126 107 121 47 62 0
131 129 125 130 122 127 126 103 114 43 59 0
131 129 125 130 122 127 126 71 78 34 51 0
131 129 125 130 122 127 126 104 118 45 60 0
131 129 125 130 122 127 126 17 31 3 6 0
131 129 125 130 122 127 126 93 100 38 55 0
131 129 125 130 122 127 126 83 91 37 52 0
131 129 125 130 122 127 124 107 121 47 89 0
131 129 125 130 122 127 124 103 114 43 85 0
131 129 125 130 122 127 124 71 78 34 66 0
131 129 125 130 122 127 124 104 118 45 86 0
131 129 125 130 122 127 124 17 31 3 13 0
131 129 125 130 122 127 124 93 100 38 81 0
131 129 125 130 122 127 124 56 64 32 53 0
131 129 125 130 122 127 107 121 47 89 62 0
131 129 125 130 122 127 103 114 43 85 59 0
131 129 125 130 122 127 71 78 34 66 51 0
131 129 125 130 122 127 104 118 45 86 60 0
131 129 125 130 122 127 17 31 3 13 6 0
131 129 125 130 122 127 93 100 38 81 55 0
131 129 125 130 122 123 126 124 107 121 99 0
131 129 125 130 122 123 126 124 103 114 95 0
131 129 125 130 122 123 126 124 71 78 68 0
131 129 125 130 122 123 126 124 104 118 97 0
131 129 125 130 122 123 126 124 17 31 14 0
131 129 125 130 122 123 126 124 41 48 39 0
131 129 125 130 122 123 126 124 83 91 80 0
131 129 125 130 122 123 126 124 56 64 54 0
131 129 125 130 122 123 126 107 121 99 62 0
131 129 125 130 122 123 126 103 114 95 59 0
131 129 125 130 122 123 126 71 78 68 51 0
131 129 125 130 122 123 126 104 118 97 60 0
131 129 125 130 122 123 126 17 31 14 6 0
131 129 125 130 122 123 126 41 48 39 33 0
131 129 125 130 122 123 126 83 91 80 52 0
131 129 125 130 122 123 124 107 121 99 89 0
131 129 125 130 122 123 124 103 114 95 85 0
131 129 125 130 122 123 124 71 78 68 66 0
131 129 125 130 122 123 124 104 118 97 86 0
131 129 125 130 122 123 124 17 31 14 13 0
131 129 125 130 122 123 124 41 48 39 36 0
131 129 125 130 122 123 124 56 64 54 53 0
131 129 125 130 122 123 107 121 99 89 62 0
131 129 125 130 122 123 103 114 95 85 59 0
131 129 125 130 122 123 71 78 68 66 51 0
131 129 125 130 122 123 104 118 97 86 60 0
131 129 125 130 122 123 17 31 14 13 6 0
131 129 125 130 122 123 41 48 39 36 33 0
131 129 125 130 122 126 124 107 121 99 47 0
131 129 125 130 122 126 124 103 114 95 43 0
131 129 125 130 122 126 124 71 78 68 34 0
131 129 125 130 122 126 124 104 118 97 45 0
131 129 125 130 122 126 124 17 31 14 3 0
131 129 125 130 122 126 124 83 91 80 37 0
131 129 125 130 122 126 124 56 64 54 32 0
131 129 125 130 122 126 107 121 99 47 62 0
131 129 125 130 122 126 103 114 95 43 59 0
131 129 125 130 122 126 71 78 68 34 51 0
131 129 125 130 122 126 104 118 97 45 60 0
131 129 125 130 122 126 17 31 14 3 6 0
131 129 125 130 122 126 83 91 80 37 52 0
131 129 125 130 122 124 107 121 99 47 89 0
131 129 125 130 122 124 103 114 95 43 85 0
131 129 125 130 122 124 71 78 68 34 66 0
131 129 125 130 122 124 104 118 97 45 86 0
131 129 125 130 122 124 17 31 14 3 13 0
131 129 125 130 122 124 56 64 54 32 53 0
131 129 125 130 122 107 121 99 47 89 62 0
131 129 125 130 122 103 114 95 43 85 59 0
131 129 125 130 122 71 78 68 34 66 51 0
131 129 125 130 122 104 118 97 45 86 60 0
131 129 125 130 122 17 31 14 3 13 6 0
131 129 125 130 127 123 126 124 107 121 26 0
131 129 125 130 127 123 126 124 103 114 22 0
131 129 125 130 127 123 126 124 71 78 9 0
131 129 125 130 127 123 126 124 104 118 25 0
131 129 125 130 127 123 126 124 93 100 16 0
131 129 125 130 127 123 126 124 41 48 2 0
131 129 125 130 127 123 126 124 83 91 11 0
131 129 125 130 127 123 126 124 56 64 5 0
131 129 125 130 127 123 126 107 121 26 62 0
131 129 125 130 127 123 126 103 114 22 59 0
131 129 125 130 127 123 126 71 78 9 51 0
131 129 125 130 127 123 126 104 118 25 60 0
131 129 125 130 127 123 126 93 100 16 55 0
131 129 125 130 127 123 126 41 48 2 33 0
131 129 125 130 127 123 126 83 91 11 52 0
131 129 125 130 127 123 124 107 121 26 89 0
131 129 125 130 127 123 124 103 114 22 85 0
131 129 125 130 127 123 124 71 78 9 66 0
131 129 125 130 127 123 124 104 118 25 86 0
131 129 125 130 127 123 124 93 100 16 81 0
131 129 125 130 127 123 124 41 48 2 36 0
131 129 125 130 127 123 124 56 64 5 53 0
131 129 125 130 127 123 107 121 26 89 62 0
131 129 125 130 127 123 103 114 22 85 59 0
131 129 125 130 127 123 71 78 9 66 51 0
131 129 125 130 127 123 104 118 25 86 60 0
131 129 125 130 127 123 93 100 16 81 55 0
131 129 125 130 127 123 41 48 2 36 33 0
131 129 125 130 127 126 124 107 121 26 47 0
131 129 125 130 127 126 124 103 114 22 43 0
131 129 125 130 127 126 124 71 78 9 34 0
131 129 125 130 127 126 124 104 118 25 45 0
131 129 125 130 127 126 124 93 100 16 38 0
131 129 125 130 127 126 124 83 91 11 37 0
131 129 125 130 127 126 124 56 64 5 32 0
131 129 125 130 127 126 107 121 26 47 62 0
131 129 125 130 127 126 103 114 22 43 59 0
131 129 125 130 127 126 71 78 9 34 51 0
131 129 125 130 127 126 104 118 25 45 60 0
131 129 125 130 127 126 93 100 16 38 55 0
131 129 125 130 127 126 83 91 11 37 52 0
131 129 125 130 127 124 107 121 26 47 89 0
131 129 125 130 127 124 103 114 22 43 85 0
131 129 125 130 127 124 71 78 9 34 66 0
131 129 125 130 127 124 104 118 25 45 86 0
131 129 125 130 127 124 93 100 16 38 81 0
131 129 125 130 127 124 56 64 5 32 53 0
131 129 125 130 127 107 121 26 47 89 62 0
131 129 125 130 127 103 114 22 43 85 59 0
131 129 125 130 127 71 78 9 34 66 51 0
131 129 125 130 127 104 118 25 45 86 60 0
131 129 125 130 127 93 100 16 38 81 55 0
131 129 125 130 123 126 124 107 121 26 99 0
131 129 125 130 123 126 124 103 114 22 95 0
131 129 125 130 123 126 124 71 78 9 68 0
131 129 125 130 123 126 124 104 118 25 97 0
131 129 125 130 123 126 124 41 48 2 39 0
131 129 125 130 123 126 124 83 91 11 80 0
131 129 125 130 123 126 124 56 64 5 54 0
131 129 125 130 123 126 107 121 26 99 62 0
131 129 125 130 123 126 103 114 22 95 59 0
131 129 125 130 123 126 71 78 9 68 51 0
131 129 125 130 123 126 104 118 25 97 60 0
131 129 125 130 123 126 41 48 2 39 33 0
131 129 125 130 123 126 83 91 11 80 52 0
131 129 125 130 123 124 107 121 26 99 89 0
131 129 125 130 123 124 103 114 22 95 85 0
131 129 125 130 123 124 71 78 9 68 66 0
131 129 125 130 123 124 104 118 25 97 86 0
131 129 125 130 123 124 41 48 2 39 36 0
131 129 125 130 123 124 56 64 5 54 53 0
131 129 125 130 123 107 121 26 99 89 62 0
131 129 125 130 123 103 114 22 95 85 59 0
131 129 125 130 123 71 78 9 68 66 51 0
131 129 125 130 123 104 118 25 97 86 60 0
131 129 125 130 123 41 48 2 39 36 33 0
131 129 125 130 126 124 107 121 26 99 47 0
131 129 125 130 126 124 103 114 22 95 43 0
131 129 125 130 126 124 71 78 9 68 34 0
131 129 125 130 126 124 104 118 25 97 45 0
131 129 125 130 126 124 83 91 11 80 37 0
131 129 125 130 126 124 56 64 5 54 32 0
131 129 125 130 126 107 121 26 99 47 62 0
131 129 125 130 126 103 114 22 95 43 59 0
131 129 125 130 126 71 78 9 68 34 51 0
131 129 125 130 126 104 118 25 97 45 60 0
131 129 125 130 126 83 91 11 80 37 52 0
131 129 125 130 124 107 121 26 99 47 89 0
131 129 125 130 124 103 114 22 95 43 85 0
131 129 125 130 124 71 78 9 68 34 66 0
131 129 125 130 124 104 118 25 97 45 86 0
131 129 125 130 124 56 64 5 54 32 53 0
131 129 125 130 107 121 26 99 47 89 62 0
131 129 125 130 103 114 22 95 43 85 59 0
131 129 125 130 71 78 9 68 34 66 51 0
131 129 125 130 104 118 25 97 45 86 60 0
131 129 125 132 122 127 123 126 124 107 116 0
131 129 125 132 122 127 123 126 124 103 111 0
131 129 125 132 122 127 123 126 124 71 75 0
131 129 125 132 122 127 123 126 124 108 119 0
131 129 125 132 122 127 123 126 124 17 23 0
131 129 125 132 122 127 123 126 124 93 96 0
131 129 125 132 122 127 123 126 124 41 44 0
131 129 125 132 122 127 123 126 124 83 87 0
131 129 125 132 122 127 123 126 124 56 61 0
131 129 125 132 122 127 123 126 107 116 62 0
131 129 125 132 122 127 123 126 103 111 59 0
131 129 125 132 122 127 123 126 71 75 51 0
131 129 125 132 122 127 123 126 108 119 65 0
131 129 125 132 122 127 123 126 17 23 6 0
131 129 125 132 122 127 123 126 93 96 55 0
131 129 125 132 122 127 123 126 41 44 33 0
131 129 125 132 122 127 123 126 83 87 52 0
131 129 125 132 122 127 123 124 107 116 89 0
131 129 125 132 122 127 123 124 103 111 85 0
131 129 125 132 122 127 123 124 71 75 66 0
131 129 125 132 122 127 123 124 108 119 90 0
131 129 125 132 122 127 123 124 17 23 13 0
131 129 125 132 122 127 123 124 93 96 81 0
131 129 125 132 122 127 123 124 41 44 36 0
131 129 125 132 122 127 123 124 56 61 53 0
131 129 125 132 122 127 123 107 116 89 62 0
131 129 125 132 122 127 123 103 111 85 59 0
131 129 125 132 122 127 123 71 75 66 51 0
131 129 125 132 122 127 123 108 119 90 65 0
131 129 125 132 122 127 123 17 23 13 6 0
131 129 125 132 122 127 123 93 96 81 55 0
131 129 125 132 122 127 123 41 44 36 33 0
131 129 125 132 122 127 126 124 107 116 47 0
131 129 125 132 122 127 126 124 103 111 43 0
131 129 125 132 122 127 126 124 71 75 34 0
131 129 125 132 122 127 126 124 108 119 49 0
131 129 125 132 122 127 126 124 17 23 3 0
131 129 125 132 122 127 126 124 93 96 38 0
131 129 125 132 122 127 126 124 83 87 37 0
131 129 125 132 122 127 126 124 56 61 32 0
131 129 125 132 122 127 126 107 116 47 62 0
131 129 125 132 122 127 126 103 111 43 59 0
131 129 125 132 122 127 126 71 75 34 51 0
131 129 125 132 122 127 126 108 119 49 65 0
131 129 125 132 122 127 126 17 23 3 6 0
131 129 125 132 122 127 126 93 96 38 55 0
131 129 125 132 122 127 126 83 87 37 52 0
131 129 125 132 122 127 124 107 116 47 89 0
131 129 125 132 122 127 124 103 111 43 85 0
131 129 125 132 122 127 124 71 75 34 66 0
131 129 125 132 122 127 124 108 119 49 90 0
131 129 125 132 122 127 124 17 23 3 13 0
131 129 125 132 122 127 124 93 96 38 81 0
131 129 125 132 122 127 124 56 61 32 53 0
131 129 125 132 122 127 107 116 47 89 62 0
131 129 125 132 122 127 103 111 43 85 59 0
131 129 125 132 122 127 71 75 34 66 51 0
131 129 125 132 122 127 108 119 49 90 65 0
131 129 125 132 122 127 17 23 3 13 6 0
131 129 125 132 122 127 93 96 38 81 55 0
131 129 125 132 122 123 126 124 107 116 99 0
131 129 125 132 122 123 126 124 103 111 95 0
131 129 125 132 122 123 126 124 71 75 68 0
131 129 125 132 122 123 126 124 108 119 101 0
131 129 125 132 122 123 126 124 17 23 14 0
131 129 125 132 122 123 126 124 41 44 39 0
131 129 125 132 122 123 126 124 83 87 80 0
131 129 125 132 122 123 126 124 56 61 54 0
131 129 125 132 122 123 126 107 116 99 62 0
131 129 125 132 122 123 126 103 111 95 59 0
131 129 125 132 122 123 126 71 75 68 51 0
131 129 125 132 122 123 126 108 119 101 65 0
131 129 125 132 122 123 126 17 23 14 6 0
131 129 125 132 122 123 126 41 44 39 33 0
131 129 125 132 122 123 126 83 87 80 52 0
131 129 125 132 122 123 124 107 116 99 89 0
131 129 125 132 122 123 124 103 111 95 85 0
131 129 125 132 122 123 124 71 75 68 66 0
131 129 125 132 122 123 124 108 119 101 90 0
131 129 125 132 122 123 124 17 23 14 13 0
131 129 125 132 122 123 124 41 44 39 36 0
131 129 125 132 122 123 124 56 61 54 53 0
131 129 125 132 122 123 107 116 99 89 62 0
131 129 125 132 122 123 103 111 95 85 59 0
131 129 125 132 122 123 71 75 68 66 51 0
131 129 125 132 122 123 108 119 101 90 65 0
131 129 125 132 122 123 17 23 14 13 6 0
131 129 125 132 122 123 41 44 39 36 33 0
131 129 125 132 122 126 124 107 116 99 47 0
131 129 125 132 122 126 124 103 111 95 43 0
131 129 125 132 122 126 124 71 75 68 34 0
131 129 125 132 122 126 124 108 119 101 49 0
131 129 125 132 122 126 124 17 23 14 3 0
131 129 125 132 122 126 124 83 87 80 37 0
131 129 125 132 122 126 124 56 61 54 32 0
131 129 125 132 122 126 107 116 99 47 62 0
131 129 125 132 122 126 103 111 95 43 59 0
131 129 125 132 122 126 71 75 68 34 51 0
131 129 125 132 122 126 108 119 101 49 65 0
131 129 125 132 122 126 17 23 14 3 6 0
131 129 125 132 122 126 83 87 80 37 52 0
131 129 125 132 122 124 107 116 99 47 89 0
131 129 125 132 122 124 103 111 95 43 85 0
131 129 125 132 122 124 71 75 68 34 66 0
131 129 125 132 122 124 108 119 101 49 90 0
131 129 125 132 122 124 17 23 14 3 13 0
131 129 125 132 122 124 56 61 54 32 53 0
131 129 125 132 122 107 116 99 47 89 62 0
131 129 125 132 122 103 111 95 43 85 59 0
131 129 125 132 122 71 75 68 34 66 51 0
131 129 125 132 122 108 119 101 49 90 65 0
131 129 125 132 122 17 23 14 3 13 6 0
131 129 125 132 127 123 126 124 107 116 26 0
131 129 125 132 127 123 126 124 103 111 22 0
131 129 125 132 127 123 126 124 71 75 9 0
131 129 125 132 127 123 126 124 108 119 29 0
131 129 125 132 127 123 126 124 93 96 16 0
131 129 125 132 127 123 126 124 41 44 2 0
131 129 125 132 127 123 126 124 83 87 11 0
131 129 125 132 127 123 126 124 56 61 5 0
131 129 125 132 127 123 126 107 116 26 62 0
131 129 125 132 127 123 126 103 111 22 59 0
131 129 125 132 127 123 126 71 75 9 51 0
131 129 125 132 127 123 126 108 119 29 65 0
131 129 125 132 127 123 126 93 96 16 55 0
131 129 125 132 127 123 126 41 44 2 33 0
131 129 125 132 127 123 126 83 87 11 52 0
131 129 125 132 127 123 124 107 116 26 89 0
131 129 125 132 127 123 124 103 111 22 85 0
131 129 125 132 127 123 124 71 75 9 66 0
131 129 125 132 127 123 124 108 119 29 90 0
131 129 125 132 127 123 124 93 96 16 81 0
131 129 125 132 127 123 124 41 44 2 36 0
131 129 125 132 127 123 124 56 61 5 53 0
131 129 125 132 127 123 107 116 26 89 62 0
131 129 125 132 127 123 103 111 22 85 59 0
131 129 125 132 127 123 71 75 9 66 51 0
131 129 125 132 127 123 108 119 29 90 65 0
131 129 125 132 127 123 93 96 16 81 55 0
131 129 125 132 127 123 41 44 2 36 33 0
131 129 125 132 127 126 124 107 116 26 47 0
131 129 125 132 127 126 124 103 111 22 43 0
131 129 125 132 127 126 124 71 75 9 34 0
131 129 125 132 127 126 124 108 119 29 49 0
131 129 125 132 127 126 124 93 96 16 38 0
131 129 125 132 127 126 124 83 87 11 37 0
131 129 125 132 127 126 124 56 61 5 32 0
131 129 125 132 127 126 107 116 26 47 62 0
131 129 125 132 127 126 103 111 22 43 59 0
131 129 125 132 127 126 71 75 9 34 51 0
131 129 125 132 127 126 108 119 29 49 65 0
131 129 125 132 127 126 93 96 16 38 55 0
131 129 125 132 127 126 83 87 11 37 52 0
131 129 125 132 127 124 107 116 26 47 89 0
131 129 125 132 127 124 103 111 22 43 85 0
131 129 125 132 127 124 71 75 9 34 66 0
131 129 125 132 127 124 108 119 29 49 90 0
131 129 125 132 127 124 93 96 16 38 81 0
131 129 125 132 127 124 56 61 5 32 53 0
131 129 125 132 127 107 116 26 47 89 62 0
131 129 125 132 127 103 111 22 43 85 59 0
131 129 125 132 127 71 75 9 34 66 51 0
131 129 125 132 127 108 119 29 49 90 65 0
131 129 125 132 127 93 96 16 38 81 55 0
131 129 125 132 123 126 124 107 116 26 99 0
131 129 125 132 123 126 124 103 111 22 95 0
131 129 125 132 123 126 124 71 75 9 68 0
131 129 125 132 123 126 124 108 119 29 101 0
131 129 125 132 123 126 124 41 44 2 39 0
131 129 125 132 123 126 124 83 87 11 80 0
131 129 125 132 123 126 124 56 61 5 54 0
131 129 125 132 123 126 107 116 26 99 62 0
131 129 125 132 123 126 103 111 22 95 59 0
131 129 125 132 123 126 71 75 9 68 51 0
131 129 125 132 123 126 108 119 29 101 65 0
131 129 125 132 123 126 41 44 2 39 33 0
131 129 125 132 123 126 83 87 11 80 52 0
131 129 125 132 123 124 107 116 26 99 89 0
131 129 125 132 123 124 103 111 22 95 85 0
131 129 125 132 123 124 71 75 9 68 66 0
131 129 125 132 123 124 108 119 29 101 90 0
131 129 125 132 123 124 41 44 2 39 36 0
131 129 125 132 123 124 56 61 5 54 53 0
131 129 125 132 123 107 116 26 99 89 62 0
131 129 125 132 123 103 111 22 95 85 59 0
131 129 125 132 123 71 75 9 68 66 51 0
131 129 125 132 123 108 119 29 101 90 65 0
131 129 125 132 123 41 44 2 39 36 33 0
131 129 125 132 126 124 107 116 26 99 47 0
131 129 125 132 126 124 103 111 22 95 43 0
131 129 125 132 126 124 71 75 9 68 34 0
131 129 125 132 126 124 108 119 29 101 49 0
131 129 125 132 126 124 83 87 11 80 37 0
131 129 125 132 126 124 56 61 5 54 32 0
131 129 125 132 126 107 116 26 99 47 62 0
131 129 125 132 126 103 111 22 95 43 59 0
131 129 125 132 126 71 75 9 68 34 51 0
131 129 125 132 126 108 119 29 101 49 65 0
131 129 125 132 126 83 87 11 80 37 52 0
131 129 125 132 124 107 116 26 99 47 89 0
131 129 125 132 124 103 111 22 95 43 85 0
131 129 125 132 124 71 75 9 68 34 66 0
131 129 125 132 124 108 119 29 101 49 90 0
131 129 125 132 124 56 61 5 54 32 53 0
131 129 125 132 107 116 26 99 47 89 62 0
131 129 125 132 103 111 22 95 43 85 59 0
131 129 125 132 71 75 9 68 34 66 51 0
131 129 125 132 108 119 29 101 49 90 65 0
131 129 125 122 127 123 126 124 107 116 121 0
131 129 125 122 127 123 126 124 103 111 114 0
131 129 125 122 127 123 126 124 71 75 78 0
131 129 125 122 127 123 126 124 17 23 31 0
131 129 125 122 127 123 126 124 93 96 100 0
131 129 125 122 127 123 126 124 41 44 48 0
131 129 125 122 127 123 126 124 83 87 91 0
131 129 125 122 127 123 126 124 56 61 64 0
131 129 125 122 127 123 126 107 116 121 62 0
131 129 125 122 127 123 126 103 111 114 59 0
131 129 125 122 127 123 126 71 75 78 51 0
131 129 125 122 127 123 126 17 23 31 6 0
131 129 125 122 127 123 126 93 96 100 55 0
131 129 125 122 127 123 126 41 44 48 33 0
131 129 125 122 127 123 126 83 87 91 52 0
131 129 125 122 127 123 124 107 116 121 89 0
131 129 125 122 127 123 124 103 111 114 85 0
131 129 125 122 127 123 124 71 75 78 66 0
131 129 125 122 127 123 124 17 23 31 13 0
131 129 125 122 127 123 124 93 96 100 81 0
131 129 125 122 127 123 124 41 44 48 36 0
131 129 125 122 127 123 124 56 61 64 53 0
131 129 125 122 127 123 107 116 121 89 62 0
131 129 125 122 127 123 103 111 114 85 59 0
131 129 125 122 127 123 71 75 78 66 51 0
131 129 125 122 127 123 17 23 31 13 6 0
131 129 125 122 127 123 93 96 100 81 55 0
131 129 125 122 127 123 41 44 48 36 33 0
131 129 125 122 127 126 124 107 116 121 47 0
131 129 125 122 127 126 124 103 111 114 43 0
131 129 125 122 127 126 124 71 75 78 34 0
131 129 125 122 127 126 124 17 23 31 3 0
131 129 125 122 127 126 124 93 96 100 38 0
131 129 125 122 127 126 124 83 87 91 37 0
131 129 125 122 127 126 124 56 61 64 32 0
131 129 125 122 127 126 107 116 121 47 62 0
131 129 125 122 127 126 103 111 114 43 59 0
131 129 125 122 127 126 71 75 78 34 51 0
131 129 125 122 127 126 17 23 31 3 6 0
131 129 125 122 127 126 93 96 100 38 55 0
131 129 125 122 127 126 83 87 91 37 52 0
131 129 125 122 127 124 107 116 121 47 89 0
131 129 125 122 127 124 103 111 114 43 85 0
131 129 125 122 127 124 71 75 78 34 66 0
131 129 125 122 127 124 17 23 31 3 13 0
131 129 125 122 127 124 93 96 100 38 81 0
131 129 125 122 127 124 56 61 64 32 53 0
131 129 125 122 127 107 116 121 47 89 62 0
131 129 125 122 127 103 111 114 43 85 59 0
131 129 125 122 127 71 75 78 34 66 51 0
131 129 125 122 127 17 23 31 3 13 6 0
131 129 125 122 127 93 96 100 38 81 55 0
131 129 125 122 123 126 124 107 116 121 99 0
131 129 125 122 123 126 124 103 111 114 95 0
131 129 125 122 123 126 124 71 75 78 68 0
131 129 125 122 123 126 124 17 23 31 14 0
131 129 125 122 123 126 124 41 44 48 39 0
131 129 125 122 123 126 124 83 87 91 80 0
131 129 125 122 123 126 124 56 61 64 54 0
131 129 125 122 123 126 107 116 121 99 62 0
131 129 125 122 123 126 103 111 114 95 59 0
131 129 125 122 123 126 71 75 78 68 51 0
131 129 125 122 123 126 17 23 31 14 6 0
131 129 125 122 123 126 41 44 48 39 33 0
131 129 125 122 123 126 83 87 91 80 52 0
131 129 125 122 123 124 107 116 121 99 89 0
131 129 125 122 123 124 103 111 114 95 85 0
131 129 125 122 123 124 71 75 78 68 66 0
131 129 125 122 123 124 17 23 31 14 13 0
131 129 125 122 123 124 41 44 48 39 36 0
131 129 125 122 123 124 56 61 64 54 53 0
131 129 125 122 123 107 116 121 99 89 62 0
131 129 125 122 123 103 111 114 95 85 59 0
131 129 125 122 123 71 75 78 68 66 51 0
131 129 125 122 123 17 23 31 14 13 6 0
131 129 125 122 123 41 44 48 39 36 33 0
131 129 125 122 126 124 107 116 121 99 47 0
131 129 125 122 126 124 103 111 114 95 43 0
131 129 125 122 126 124 71 75 78 68 34 0
131 129 125 122 126 124 17 23 31 14 3 0
131 129 125 122 126 124 83 87 91 80 37 0
131 129 125 122 126 124 56 61 64 54 32 0
131 129 125 122 126 107 116 121 99 47 62 0
131 129 125 122 126 103 111 114 95 43 59 0
131 129 125 122 126 71 75 78 68 34 51 0
131 129 125 122 126 17 23 31 14 3 6 0
131 129 125 122 126 83 87 91 80 37 52 0
131 129 125 122 124 107 116 121 99 47 89 0
131 129 125 122 124 103 111 114 95 43 85 0
131 129 125 122 124 71 75 78 68 34 66 0
131 129 125 122 124 17 23 31 14 3 13 0
131 129 125 122 124 56 61 64 54 32 53 0
131 129 125 122 107 116 121 99 47 89 62 0
131 129 125 122 103 111 114 95 43 85 59 0
131 129 125 122 71 75 78 68 34 66 51 0
131 129 125 122 17 23 31 14 3 13 6 0
131 129 125 127 123 126 124 107 116 121 26 0
131 129 125 127 123 126 124 103 111 114 22 0
131 129 125 127 123 126 124 71 75 78 9 0
131 129 125 127 123 126 124 93 96 100 16 0
131 129 125 127 123 126 124 41 44 48 2 0
131 129 125 127 123 126 124 83 87 91 11 0
131 129 125 127 123 126 124 56 61 64 5 0
131 129 125 127 123 126 107 116 121 26 62 0
131 129 125 127 123 126 103 111 114 22 59 0
131 129 125 127 123 126 71 75 78 9 51 0
131 129 125 127 123 126 93 96 100 16 55 0
131 129 125 127 123 126 41 44 48 2 33 0
131 129 125 127 123 126 83 87 91 11 52 0
131 129 125 127 123 124 107 116 121 26 89 0
131 129 125 127 123 124 103 111 114 22 85 0
131 129 125 127 123 124 71 75 78 9 66 0
131 129 125 127 123 124 93 96 100 16 81 0
131 129 125 127 123 124 41 44 48 2 36 0
131 129 125 127 123 124 56 61 64 5 53 0
131 129 125 127 123 107 116 121 26 89 62 0
131 129 125 127 123 103 111 114 22 85 59 0
131 129 125 127 123 71 75 78 9 66 51 0
131 129 125 127 123 93 96 100 16 81 55 0
131 129 125 127 123 41 44 48 2 36 33 0
131 129 125 127 126 124 107 116 121 26 47 0
131 129 125 127 126 124 103 111 114 22 43 0
131 129 125 127 126 124 71 75 78 9 34 0
131 129 125 127 126 124 93 96 100 16 38 0
131 129 125 127 126 124 83 87 91 11 37 0
131 129 125 127 126 124 56 61 64 5 32 0
131 129 125 127 126 107 116 121 26 47 62 0
131 129 125 127 126 103 111 114 22 43 59 0
131 129 125 127 126 71 75 78 9 34 51 0
131 129 125 127 126 93 96 100 16 38 55 0
131 129 125 127 126 83 87 91 11 37 52 0
131 129 125 127 124 107 116 121 26 47 89 0
131 129 125 127 124 103 111 114 22 43 85 0
131 129 125 127 124 71 75 78 9 34 66 0
131 129 125 127 124 93 96 100 16 38 81 0
131 129 125 127 124 56 61 64 5 32 53 0
131 129 125 127 107 116 121 26 47 89 62 0
131 129 125 127 103 111 114 22 43 85 59 0
131 129 125 127 71 75 78 9 34 66 51 0
131 129 125 127 93 96 100 16 38 81 55 0
131 129 125 123 126 124 107 116 121 26 99 0
131 129 125 123 126 124 103 111 114 22 95 0
131 129 125 123 126 124 71 75 78 9 68 0
131 129 125 123 126 124 41 44 48 2 39 0
131 129 125 123 126 124 83 87 91 11 80 0
131 129 125 123 126 124 56 61 64 5 54 0
131 129 125 123 126 107 116 121 26 99 62 0
131 129 125 123 126 103 111 114 22 95 59 0
131 129 125 123 126 71 75 78 9 68 51 0
131 129 125 123 126 41 44 48 2 39 33 0
131 129 125 123 126 83 87 91 11 80 52 0
131 129 125 123 124 107 116 121 26 99 89 0
131 129 125 123 124 103 111 114 22 95 85 0
131 129 125 123 124 71 75 78 9 68 66 0
131 129 125 123 124 41 44 48 2 39 36 0
131 129 125 123 124 56 61 64 5 54 53 0
131 129 125 123 107 116 121 26 99 89 62 0
131 129 125 123 103 111 114 22 95 85 59 0
131 129 125 123 71 75 78 9 68 66 51 0
131 129 125 123 41 44 48 2 39 36 33 0
131 129 125 126 124 107 116 121 26 99 47 0
131 129 125 126 124 103 111 114 22 95 43 0
131 129 125 126 124 71 75 78 9 68 34 0
131 129 125 126 124 83 87 91 11 80 37 0
131 129 125 126 124 56 61 64 5 54 32 0
131 129 125 126 107 116 121 26 99 47 62 0
131 129 125 126 103 111 114 22 95 43 59 0
131 129 125 126 71 75 78 9 68 34 51 0
131 129 125 126 83 87 91 11 80 37 52 0
131 129 125 124 107 116 121 26 99 47 89 0
131 129 125 124 103 111 114 22 95 43 85 0
131 129 125 124 71 75 78 9 68 34 66 0
131 129 125 124 56 61 64 5 54 32 53 0
131 129 125 107 116 121 26 99 47 89 62 0
131 129 125 103 111 114 22 95 43 85 59 0
131 129 125 71 75 78 9 68 34 66 51 0
131 129 130 132 122 127 123 126 124 107 76 0
131 129 130 132 122 127 123 126 124 103 72 0
131 129 130 132 122 127 123 126 124 104 74 0
131 129 130 132 122 127 123 126 124 108 79 0
131 129 130 132 122 127 123 126 124 17 8 0
131 129 130 132 122 127 123 126 124 93 69 0
131 129 130 132 122 127 123 126 124 41 35 0
131 129 130 132 122 127 123 126 124 83 67 0
131 129 130 132 122 127 123 126 124 56 50 0
131 129 130 132 122 127 123 126 107 76 62 0
131 129 130 132 122 127 123 126 103 72 59 0
131 129 130 132 122 127 123 126 104 74 60 0
131 129 130 132 122 127 123 126 108 79 65 0
131 129 130 132 122 127 123 126 17 8 6 0
131 129 130 132 122 127 123 126 93 69 55 0
131 129 130 132 122 127 123 126 41 35 33 0
131 129 130 132 122 127 123 126 83 67 52 0
131 129 130 132 122 127 123 124 107 76 89 0
131 129 130 132 122 127 123 124 103 72 85 0
131 129 130 132 122 127 123 124 104 74 86 0
131 129 130 132 122 127 123 124 108 79 90 0
131 129 130 132 122 127 123 124 17 8 13 0
131 129 130 132 122 127 123 124 93 69 81 0
131 129 130 132 122 127 123 124 41 35 36 0
131 129 130 132 122 127 123 124 56 50 53 0
131 129 130 132 122 127 123 107 76 89 62 0
131 129 130 132 122 127 123 103 72 85 59 0
131 129 130 132 122 127 123 104 74 86 60 0
131 129 130 132 122 127 123 108 79 90 65 0
131 129 130 132 122 127 123 17 8 13 6 0
131 129 130 132 122 127 123 93 69 81 55 0
131 129 130 132 122 127 123 41 35 36 33 0
131 129 130 132 122 127 126 124 107 76 47 0
131 129 130 132 122 127 126 124 103 72 43 0
131 129 130 132 122 127 126 124 104 74 45 0
131 129 130 132 122 127 126 124 108 79 49 0
131 129 130 132 122 127 126 124 17 8 3 0
131 129 130 132 122 127 126 124 93 69 38 0
131 129 130 132 122 127 126 124 83 67 37 0
131 129 130 132 122 127 126 124 56 50 32 0
131 129 130 132 122 127 126 107 76 47 62 0
131 129 130 132 122 127 126 103 72 43 59 0
131 129 130 132 122 127 126 104 74 45 60 0
131 129 130 132 122 127 126 108 79 49 65 0
131 129 130 132 122 127 126 17 8 3 6 0
131 129 130 132 122 127 126 93 69 38 55 0
131 129 130 132 122 127 126 83 67 37 52 0
131 129 130 132 122 127 124 107 76 47 89 0
131 129 130 132 122 127 124 103 72 43 85 0
131 129 130 132 122 127 124 104 74 45 86 0
131 129 130 132 122 127 124 108 79 49 90 0
131 129 130 132 122 127 124 17 8 3 13 0
131 129 130 132 122 127 124 93 69 38 81 0
131 129 130 132 122 127 124 56 50 32 53 0
131 129 130 132 122 127 107 76 47 89 62 0
131 129 130 132 122 127 103 72 43 85 59 0
131 129 130 132 122 127 104 74 45 86 60 0
131 129 130 132 122 127 108 79 49 90 65 0
131 129 130 132 122 127 17 8 3 13 6 0
131 129 130 132 122 127 93 69 38 81 55 0
131 129 130 132 122 123 126 124 107 76 99 0
131 129 130 132 122 123 126 124 103 72 95 0
131 129 130 132 122 123 126 124 104 74 97 0
131 129 130 132 122 123 126 124 108 79 101 0
131 129 130 132 122 123 126 124 17 8 14 0
131 129 130 132 122 123 126 124 41 35 39 0
131 129 130 132 122 123 126 124 83 67 80 0
131 129 130 132 122 123 126 124 56 50 54 0
131 129 130 132 122 123 126 107 76 99 62 0
131 129 130 132 122 123 126 103 72 95 59 0
131 129 130 132 122 123 126 104 74 97 60 0
131 129 130 132 122 123 126 108 79 101 65 0
131 129 130 132 122 123 126 17 8 14 6 0
131 129 130 132 122 123 126 41 35 39 33 0
131 129 130 132 122 123 126 83 67 80 52 0
131 129 130 132 122 123 124 107 76 99 89 0
131 129 130 132 122 123 124 103 72 95 85 0
131 129 130 132 122 123 124 104 74 97 86 0
131 129 130 132 122 123 124 108 79 101 90 0
131 129 130 132 122 123 124 17 8 14 13 0
131 129 130 132 122 123 124 41 35 39 36 0
131 129 130 132 122 123 124 56 50 54 53 0
131 129 130 132 122 123 107 76 99 89 62 0
131 129 130 132 122 123 103 72 95 85 59 0
131 129 130 132 122 123 104 74 97 86 60 0
131 129 130 132 122 123 108 79 101 90 65 0
131 129 130 132 122 123 17 8 14 13 6 0
131 129 130 132 122 123 41 35 39 36 33 0
131 129 130 132 122 126 124 107 76 99 47 0
131 129 130 132 122 126 124 103 72 95 43 0
131 129 130 132 122 126 124 104 74 97 45 0
131 129 130 132 122 126 124 108 79 101 49 0
131 129 130 132 122 126 124 17 8 14 3 0
131 129 130 132 122 126 124 83 67 80 37 0
131 129 130 132 122 126 124 56 50 54 32 0
131 129 130 132 122 126 107 76 99 47 62 0
131 129 130 132 122 126 103 72 95 43 59 0
131 129 130 132 122 126 104 74 97 45 60 0
131 129 130 132 122 126 108 79 101 49 65 0
131 129 130 132 122 126 17 8 14 3 6 0
131 129 130 132 122 126 83 67 80 37 52 0
131 129 130 132 122 124 107 76 99 47 89 0
131 129 130 132 122 124 103 72 95 43 85 0
131 129 130 132 122 124 104 74 97 45 86 0
131 129 130 132 122 124 108 79 101 49 90 0
131 129 130 132 122 124 17 8 14 3 13 0
131 129 130 132 122 124 56 50 54 32 53 0
131 129 130 132 122 107 76 99 47 89 62 0
131 129 130 132 122 103 72 95 43 85 59 0
131 129 130 132 122 104 74 97 45 86 60 0
131 129 130 132 122 108 79 101 49 90 65 0
131 129 130 132 122 17 8 14 3 13 6 0
131 129 130 132 127 123 126 124 107 76 26 0
131 129 130 132 127 123 126 124 103 72 22 0
131 129 130 132 127 123 126 124 104 74 25 0
131 129 130 132 127 123 126 124 108 79 29 0
131 129 130 132 127 123 126 124 93 69 16 0
131 129 130 132 127 123 126 124 41 35 2 0
131 129 130 132 127 123 126 124 83 67 11 0
131 129 130 132 127 123 126 124 56 50 5 0
131 129 130 132 127 123 126 107 76 26 62 0
131 129 130 132 127 123 126 103 72 22 59 0
131 129 130 132 127 123 126 104 74 25 60 0
131 129 130 132 127 123 126 108 79 29 65 0
131 129 130 132 127 123 126 93 69 16 55 0
131 129 130 132 127 123 126 41 35 2 33 0
131 129 130 132 127 123 126 83 67 11 52 0
131 129 130 132 127 123 124 107 76 26 89 0
131 129 130 132 127 123 124 103 72 22 85 0
131 129 130 132 127 123 124 104 74 25 86 0
131 129 130 132 127 123 124 108 79 29 90 0
131 129 130 132 127 123 124 93 69 16 81 0
131 129 130 132 127 123 124 41 35 2 36 0
131 129 130 132 127 123 124 56 50 5 53 0
131 129 130 132 127 123 107 76 26 89 62 0
131 129 130 132 127 123 103 72 22 85 59 0
131 129 130 132 127 123 104 74 25 86 60 0
131 129 130 132 127 123 108 79 29 90 65 0
131 129 130 132 127 123 93 69 16 81 55 0
131 129 130 132 127 123 41 35 2 36 33 0
131 129 130 132 127 126 124 107 76 26 47 0
131 129 130 132 127 126 124 103 72 22 43 0
131 129 130 132 127 126 124 104 74 25 45 0
131 129 130 132 127 126 124 108 79 29 49 0
131 129 130 132 127 126 124 93 69 16 38 0
131 129 130 132 127 126 124 83 67 11 37 0
131 129 130 132 127 126 124 56 50 5 32 0
131 129 130 132 127 126 107 76 26 47 62 0
131 129 130 132 127 126 103 72 22 43 59 0
131 129 130 132 127 126 104 74 25 45 60 0
131 129 130 132 127 126 108 79 29 49 65 0
131 129 130 132 127 126 93 69 16 38 55 0
131 129 130 132 127 126 83 67 11 37 52 0
131 129 130 132 127 124 107 76 26 47 89 0
131 129 130 132 127 124 103 72 22 43 85 0
131 129 130 132 127 124 104 74 25 45 86 0
131 129 130 132 127 124 108 79 29 49 90 0
131 129 130 132 127 124 93 69 16 38 81 0
131 129 130 132 127 124 56 50 5 32 53 0
131 129 130 132 127 107 76 26 47 89 62 0
131 129 130 132 127 103 72 22 43 85 59 0
131 129 130 132 127 104 74 25 45 86 60 0
131 129 130 132 127 108 79 29 49 90 65 0
131 129 130 132 127 93 69 16 38 81 55 0
131 129 130 132 123 126 124 107 76 26 99 0
131 129 130 132 123 126 124 103 72 22 95 0
131 129 130 132 123 126 124 104 74 25 97 0
131 129 130 132 123 126 124 108 79 29 101 0
131 129 130 132 123 126 124 41 35 2 39 0
131 129 130 132 123 126 124 83 67 11 80 0
131 129 130 132 123 126 124 56 50 5 54 0
131 129 130 132 123 126 107 76 26 99 62 0
131 129 130 132 123 126 103 72 22 95 59 0
131 129 130 132 123 126 104 74 25 97 60 0
131 129 130 132 123 126 108 79 29 101 65 0
131 129 130 132 123 126 41 35 2 39 33 0
131 129 130 132 123 126 83 67 11 80 52 0
131 129 130 132 123 124 107 76 26 99 89 0
131 129 130 132 123 124 103 72 22 95 85 0
131 129 130 132 123 124 104 74 25 97 86 0
131 129 130 132 123 124 108 79 29 101 90 0
131 129 130 132 123 124 41 35 2 39 36 0
131 129 130 132 123 124 56 50 5 54 53 0
131 129 130 132 123 107 76 26 99 89 62 0
131 129 130 132 123 103 72 22 95 85 59 0
131 129 130 132 123 104 74 25 97 86 60 0
131 129 130 132 123 108 79 29 101 90 65 0
131 129 130 132 123 41 35 2 39 36 33 0
131 129 130 132 126 124 107 76 26 99 47 0
131 129 130 132 126 124 103 72 22 95 43 0
131 129 130 132 126 124 104 74 25 97 45 0
131 129 130 132 126 124 108 79 29 101 49 0
131 129 130 132 126 124 83 67 11 80 37 0
131 129 130 132 126 124 56 50 5 54 32 0
131 129 130 132 126 107 76 26 99 47 62 0
131 129 130 132 126 103 72 22 95 43 59 0
131 129 130 132 126 104 74 25 97 45 60 0
131 129 130 132 126 108 79 29 101 49 65 0
131 129 130 132 126 83 67 11 80 37 52 0
131 129 130 132 124 107 76 26 99 47 89 0
131 129 130 132 124 103 72 22 95 43 85 0
131 129 130 132 124 104 74 25 97 45 86 0
131 129 130 132 124 108 79 29 101 49 90 0
131 129 130 132 124 56 50 5 54 32 53 0
131 129 130 132 107 76 26 99 47 89 62 0
131 129 130 132 103 72 22 95 43 85 59 0
131 129 130 132 104 74 25 97 45 86 60 0
131 129 130 132 108 79 29 101 49 90 65 0
131 129 130 122 127 123 126 124 107 76 121 0
131 129 130 122 127 123 126 124 103 72 114 0
131 129 130 122 127 123 126 124 104 74 118 0
131 129 130 122 127 123 126 124 17 8 31 0
131 129 130 122 127 123 126 124 93 69 100 0
131 129 130 122 127 123 126 124 41 35 48 0
131 129 130 122 127 123 126 124 83 67 91 0
131 129 130 122 127 123 126 124 56 50 64 0
131 129 130 122 127 123 126 107 76 121 62 0
131 129 130 122 127 123 126 103 72 114 59 0
131 129 130 122 127 123 126 104 74 118 60 0
131 129 130 122 127 123 126 17 8 31 6 0
131 129 130 122 127 123 126 93 69 100 55 0
131 129 130 122 127 123 126 41 35 48 33 0
131 129 130 122 127 123 126 83 67 91 52 0
131 129 130 122 127 123 124 107 76 121 89 0
131 129 130 122 127 123 124 103 72 114 85 0
131 129 130 122 127 123 124 104 74 118 86 0
131 129 130 122 127 123 124 17 8 31 13 0
131 129 130 122 127 123 124 93 69 100 81 0
131 129 130 122 127 123 124 41 35 48 36 0
131 129 130 122 127 123 124 56 50 64 53 0
131 129 130 122 127 123 107 76 121 89 62 0
131 129 130 122 127 123 103 72 114 85 59 0
131 129 130 122 127 123 104 74 118 86 60 0
131 129 130 122 127 123 17 8 31 13 6 0
131 129 130 122 127 123 93 69 100 81 55 0
131 129 130 122 127 123 41 35 48 36 33 0
131 129 130 122 127 126 124 107 76 121 47 0
131 129 130 122 127 126 124 103 72 114 43 0
131 129 130 122 127 126 124 104 74 118 45 0
131 129 130 122 127 126 124 17 8 31 3 0
131 129 130 122 127 126 124 93 69 100 38 0
131 129 130 122 127 126 124 83 67 91 37 0
131 129 130 122 127 126 124 56 50 64 32 0
131 129 130 122 127 126 107 76 121 47 62 0
131 129 130 122 127 126 103 72 114 43 59 0
131 129 130 122 127 126 104 74 118 45 60 0
131 129 130 122 127 126 17 8 31 3 6 0
131 129 130 122 127 126 93 69 100 38 55 0
131 129 130 122 127 126 83 67 91 37 52 0
131 129 130 122 127 124 107 76 121 47 89 0
131 129 130 122 127 124 103 72 114 43 85 0
131 129 130 122 127 124 104 74 118 45 86 0
131 129 130 122 127 124 17 8 31 3 13 0
131 129 130 122 127 124 93 69 100 38 81 0
131 129 130 122 127 124 56 50 64 32 53 0
131 129 130 122 127 107 76 121 47 89 62 0
131 129 130 122 127 103 72 114 43 85 59 0
131 129 130 122 127 104 74 118 45 86 60 0
131 129 130 122 127 17 8 31 3 13 6 0
131 129 130 122 127 93 69 100 38 81 55 0
131 129 130 122 123 126 124 107 76 121 99 0
131 129 130 122 123 126 124 103 72 114 95 0
131 129 130 122 123 126 124 104 74 118 97 0
131 129 130 122 123 126 124 17 8 31 14 0
131 129 130 122 123 126 124 41 35 48 39 0
131 129 130 122 123 126 124 83 67 91 80 0
131 129 130 122 123 126 124 56 50 64 54 0
131 129 130 122 123 126 107 76 121 99 62 0
131 129 130 122 123 126 103 72 114 95 59 0
131 129 130 122 123 126 104 74 118 97 60 0
131 129 130 122 123 126 17 8 31 14 6 0
131 129 130 122 123 126 41 35 48 39 33 0
131 129 130 122 123 126 83 67 91 80 52 0
131 129 130 122 123 124 107 76 121 99 89 0
131 129 130 122 123 124 103 72 114 95 85 0
131 129 130 122 123 124 104 74 118 97 86 0
131 129 130 122 123 124 17 8 31 14 13 0
131 129 130 122 123 124 41 35 48 39 36 0
131 129 130 122 123 124 56 50 64 54 53 0
131 129 130 122 123 107 76 121 99 89 62 0
131 129 130 122 123 103 72 114 95 85 59 0
131 129 130 122 123 104 74 118 97 86 60 0
131 129 130 122 123 17 8 31 14 13 6 0
131 129 130 122 123 41 35 48 39 36 33 0
131 129 130 122 126 124 107 76 121 99 47 0
131 129 130 122 126 124 103 72 114 95 43 0
131 129 130 122 126 124 104 74 118 97 45 0
131 129 130 122 126 124 17 8 31 14 3 0
131 129 130 122 126 124 83 67 91 80 37 0
131 129 130 122 126 124 56 50 64 54 32 0
131 129 130 122 126 107 76 121 99 47 62 0
131 129 130 122 126 103 72 114 95 43 59 0
131 129 130 122 126 104 74 118 97 45 60 0
131 129 130 122 126 17 8 31 14 3 6 0
131 129 130 122 126 83 67 91 80 37 52 0
131 129 130 122 124 107 76 121 99 47 89 0
131 129 130 122 124 103 72 114 95 43 85 0
131 129 130 122 124 104 74 118 97 45 86 0
131 129 130 122 124 17 8 31 14 3 13 0
131 129 130 122 124 56 50 64 54 32 53 0
131 129 130 122 107 76 121 99 47 89 62 0
131 129 130 122 103 72 114 95 43 85 59 0
131 129 130 122 104 74 118 97 45 86 60 0
131 129 130 122 17 8 31 14 3 13 6 0
131 129 130 127 123 126 124 107 76 121 26 0
131 129 130 127 123 126 124 103 72 114 22 0
131 129 130 127 123 126 124 104 74 118 25 0
131 129 130 127 123 126 124 93 69 100 16 0
131 129 130 127 123 126 124 41 35 48 2 0
131 129 130 127 123 126 124 83 67 91 11 0
131 129 130 127 123 126 124 56 50 64 5 0
131 129 130 127 123 126 107 76 121 26 62 0
131 129 130 127 123 126 103 72 114 22 59 0
131 129 130 127 123 126 104 74 118 25 60 0
131 129 130 127 123 126 93 69 100 16 55 0
131 129 130 127 123 126 41 35 48 2 33 0
131 129 130 127 123 126 83 67 91 11 52 0
131 129 130 127 123 124 107 76 121 26 89 0
131 129 130 127 123 124 103 72 114 22 85 0
131 129 130 127 123 124 104 74 118 25 86 0
131 129 130 127 123 124 93 69 100 16 81 0
131 129 130 127 123 124 41 35 48 2 36 0
131 129 130 127 123 124 56 50 64 5 53 0
131 129 130 127 123 107 76 121 26 89 62 0
131 129 130 127 123 103 72 114 22 85 59 0
131 129 130 127 123 104 74 118 25 86 60 0
131 129 130 127 123 93 69 100 16 81 55 0
131 129 130 127 123 41 35 48 2 36 33 0
131 129 130 127 126 124 107 76 121 26 47 0
131 129 130 127 126 124 103 72 114 22 43 0
131 129 130 127 126 124 104 74 118 25 45 0
131 129 130 127 126 124 93 69 100 16 38 0
131 129 130 127 126 124 83 67 91 11 37 0
131 129 130 127 126 124 56 50 64 5 32 0
131 129 130 127 126 107 76 121 26 47 62 0
131 129 130 127 126 103 72 114 22 43 59 0
131 129 130 127 126 104 74 118 25 45 60 0
131 129 130 127 126 93 69 100 16 38 55 0
131 129 130 127 126 83 67 91 11 37 52 0
131 129 130 127 124 107 76 121 26 47 89 0
131 129 130 127 124 103 72 114 22 43 85 0
131 129 130 127 124 104 74 118 25 45 86 0
131 129 130 127 124 93 69 100 16 38 81 0
131 129 130 127 124 56 50 64 5 32 53 0
131 129 130 127 107 76 121 26 47 89 62 0
131 129 130 127 103 72 114 22 43 85 59 0
131 129 130 127 104 74 118 25 45 86 60 0
131 129 130 127 93 69 100 16 38 81 55 0
131 129 130 123 126 124 107 76 121 26 99 0
131 129 130 123 126 124 103 72 114 22 95 0
131 129 130 123 126 124 104 74 118 25 97 0
131 129 130 123 126 124 41 35 48 2 39 0
131 129 130 123 126 124 83 67 91 11 80 0
131 129 130 123 126 124 56 50 64 5 54 0
131 129 130 123 126 107 76 121 26 99 62 0
131 129 130 123 126 103 72 114 22 95 59 0
131 129 130 123 126 104 74 118 25 97 60 0
131 129 130 123 126 41 35 48 2 39 33 0
131 129 130 123 126 83 67 91 11 80 52 0
131 129 130 123 124 107 76 121 26 99 89 0
131 129 130 123 124 103 72 114 22 95 85 0
131 129 130 123 124 104 74 118 25 97 86 0
131 129 130 123 124 41 35 48 2 39 36 0
131 129 130 123 124 56 50 64 5 54 53 0
131 129 130 123 107 76 121 26 99 89 62 0
131 129 130 123 103 72 114 22 95 85 59 0
131 129 130 123 104 74 118 25 97 86 60 0
131 129 130 123 41 35 48 2 39 36 33 0
131 129 130 126 124 107 76 121 26 99 47 0
131 129 130 126 124 103 72 114 22 95 43 0
131 129 130 126 124 104 74 118 25 97 45 0
131 129 130 126 124 83 67 91 11 80 37 0
131 129 130 126 124 56 50 64 5 54 32 0
131 129 130 126 107 76 121 26 99 47 62 0
131 129 130 126 103 72 114 22 95 43 59 0
131 129 130 126 104 74 118 25 97 45 60 0
131 129 130 126 83 67 91 11 80 37 52 0
131 129 130 124 107 76 121 26 99 47 89 0
131 129 130 124 103 72 114 22 95 43 85 0
131 129 130 124 104 74 118 25 97 45 86 0
131 129 130 124 56 50 64 5 54 32 53 0
131 129 130 107 76 121 26 99 47 89 62 0
131 129 130 103 72 114 22 95 43 85 59 0
131 129 130 104 74 118 25 97 45 86 60 0
131 129 132 122 127 123 126 124 107 76 116 0
131 129 132 122 127 123 126 124 103 72 111 0
131 129 132 122 127 123 126 124 108 79 119 0
131 129 132 122 127 123 126 124 17 8 23 0
131 129 132 122 127 123 126 124 93 69 96 0
131 129 132 122 127 123 126 124 41 35 44 0
131 129 132 122 127 123 126 124 83 67 87 0
131 129 132 122 127 123 126 124 56 50 61 0
131 129 132 122 127 123 126 107 76 116 62 0
131 129 132 122 127 123 126 103 72 111 59 0
131 129 132 122 127 123 126 108 79 119 65 0
131 129 132 122 127 123 126 17 8 23 6 0
131 129 132 122 127 123 126 93 69 96 55 0
131 129 132 122 127 123 126 41 35 44 33 0
131 129 132 122 127 123 126 83 67 87 52 0
131 129 132 122 127 123 124 107 76 116 89 0
131 129 132 122 127 123 124 103 72 111 85 0
131 129 132 122 127 123 124 108 79 119 90 0
131 129 132 122 127 123 124 17 8 23 13 0
131 129 132 122 127 123 124 93 69 96 81 0
131 129 132 122 127 123 124 41 35 44 36 0
131 129 132 122 127 123 124 56 50 61 53 0
131 129 132 122 127 123 107 76 116 89 62 0
131 129 132 122 127 123 103 72 111 85 59 0
131 129 132 122 127 123 108 79 119 90 65 0
131 129 132 122 127 123 17 8 23 13 6 0
131 129 132 122 127 123 93 69 96 81 55 0
131 129 132 122 127 123 41 35 44 36 33 0
131 129 132 122 127 126 124 107 76 116 47 0
131 129 132 122 127 126 124 103 72 111 43 0
131 129 132 122 127 126 124 108 79 119 49 0
131 129 132 122 127 126 124 17 8 23 3 0
131 129 132 122 127 126 124 93 69 96 38 0
131 129 132 122 127 126 124 83 67 87 37 0
131 129 132 122 127 126 124 56 50 61 32 0
131 129 132 122 127 126 107 76 116 47 62 0
131 129 132 122 127 126 103 72 111 43 59 0
131 129 132 122 127 126 108 79 119 49 65 0
131 129 132 122 127 126 17 8 23 3 6 0
131 129 132 122 127 126 93 69 96 38 55 0
131 129 132 122 127 126 83 67 87 37 52 0
131 129 132 122 127 124 107 76 116 47 89 0
131 129 132 122 127 124 103 72 111 43 85 0
131 129 132 122 127 124 108 79 119 49 90 0
131 129 132 122 127 124 17 8 23 3 13 0
131 129 132 122 127 124 93 69 96 38 81 0
131 129 132 122 127 124 56 50 61 32 53 0
131 129 132 122 127 107 76 116 47 89 62 0
131 129 132 122 127 103 72 111 43 85 59 0
131 129 132 122 127 108 79 119 49 90 65 0
131 129 132 122 127 17 8 23 3 13 6 0
131 129 132 122 127 93 69 96 38 81 55 0
131 129 132 122 123 126 124 107 76 116 99 0
131 129 132 122 123 126 124 103 72 111 95 0
131 129 132 122 123 126 124 108 79 119 101 0
131 129 132 122 123 126 124 17 8 23 14 0
131 129 132 122 123 126 124 41 35 44 39 0
131 129 132 122 123 126 124 83 67 87 80 0
131 129 132 122 123 126 124 56 50 61 54 0
131 129 132 122 123 126 107 76 116 99 62 0
131 129 132 122 123 126 103 72 111 95 59 0
131 129 132 122 123 126 108 79 119 101 65 0
131 129 132 122 123 126 17 8 23 14 6 0
131 129 132 122 123 126 41 35 44 39 33 0
131 129 132 122 123 126 83 67 87 80 52 0
131 129 132 122 123 124 107 76 116 99 89 0
131 129 132 122 123 124 103 72 111 95 85 0
131 129 132 122 123 124 108 79 119 101 90 0
131 129 132 122 123 124 17 8 23 14 13 0
131 129 132 122 123 124 41 35 44 39 36 0
131 129 132 122 123 124 56 50 61 54 53 0
131 129 132 122 123 107 76 116 99 89 62 0
131 129 132 122 123 103 72 111 95 85 59 0
131 129 132 122 123 108 79 119 101 90 65 0
131 129 132 122 123 17 8 23 14 13 6 0
131 129 132 122 123 41 35 44 39 36 33 0
131 129 132 122 126 124 107 76 116 99 47 0
131 129 132 122 126 124 103 72 111 95 43 0
131 129 132 122 126 124 108 79 119 101 49 0
131 129 132 122 126 124 17 8 23 14 3 0
131 129 132 122 126 124 83 67 87 80 37 0
131 129 132 122 126 124 56 50 61 54 32 0
131 129 132 122 126 107 76 116 99 47 62 0
131 129 132 122 126 103 72 111 95 43 59 0
131 129 132 122 126 108 79 119 101 49 65 0
131 129 132 122 126 17 8 23 14 3 6 0
131 129 132 122 126 83 67 87 80 37 52 0
131 129 132 122 124 107 76 116 99 47 89 0
131 129 132 122 124 103 72 111 95 43 85 0
131 129 132 122 124 108 79 119 101 49 90 0
131 129 132 122 124 17 8 23 14 3 13 0
131 129 132 122 124 56 50 61 54 32 53 0
131 129 132 122 107 76 116 99 47 89 62 0
131 129 132 122 103 72 111 95 43 85 59 0
131 129 132 122 108 79 119 101 49 90 65 0
131 129 132 122 17 8 23 14 3 13 6 0
131 129 132 127 123 126 124 107 76 116 26 0
131 129 132 127 123 126 124 103 72 111 22 0
131 129 132 127 123 126 124 108 79 119 29 0
131 129 132 127 123 126 124 93 69 96 16 0
131 129 132 127 123 126 124 41 35 44 2 0
131 129 132 127 123 126 124 83 67 87 11 0
131 129 132 127 123 126 124 56 50 61 5 0
131 129 132 127 123 126 107 76 116 26 62 0
131 129 132 127 123 126 103 72 111 22 59 0
131 129 132 127 123 126 108 79 119 29 65 0
131 129 132 127 123 126 93 69 96 16 55 0
131 129 132 127 123 126 41 35 44 2 33 0
131 129 132 127 123 126 83 67 87 11 52 0
131 129 132 127 123 124 107 76 116 26 89 0
131 129 132 127 123 124 103 72 111 22 85 0
131 129 132 127 123 124 108 79 119 29 90 0
131 129 132 127 123 124 93 69 96 16 81 0
131 129 132 127 123 124 41 35 44 2 36 0
131 129 132 127 123 124 56 50 61 5 53 0
131 129 132 127 123 107 76 116 26 89 62 0
131 129 132 127 123 103 72 111 22 85 59 0
131 129 132 127 123 108 79 119 29 90 65 0
131 129 132 127 123 93 69 96 16 81 55 0
131 129 132 127 123 41 35 44 2 36 33 0
131 129 132 127 126 124 107 76 116 26 47 0
131 129 132 127 126 124 103 72 111 22 43 0
131 129 132 127 126 124 108 79 119 29 49 0
131 129 132 127 126 124 93 69 96 16 38 0
131 129 132 127 126 124 83 67 87 11 37 0
131 129 132 127 126 124 56 50 61 5 32 0
131 129 132 127 126 107 76 116 26 47 62 0
131 129 132 127 126 103 72 111 22 43 59 0
131 129 132 127 126 108 79 119 29 49 65 0
131 129 132 127 126 93 69 96 16 38 55 0
131 129 132 127 126 83 67 87 11 37 52 0
131 129 132 127 124 107 76 116 26 47 89 0
131 129 132 127 124 103 72 111 22 43 85 0
131 129 132 127 124 108 79 119 29 49 90 0
131 129 132 127 124 93 69 96 16 38 81 0
131 129 132 127 124 56 50 61 5 32 53 0
131 129 132 127 107 76 116 26 47 89 62 0
131 129 132 127 103 72 111 22 43 85 59 0
131 129 132 127 108 79 119 29 49 90 65 0
131 129 132 127 93 69 96 16 38 81 55 0
131 129 132 123 126 124 107 76 116 26 99 0
131 129 132 123 126 124 103 72 111 22 95 0
131 129 132 123 126 124 108 79 119 29 101 0
131 129 132 123 126 124 41 35 44 2 39 0
131 129 132 123 126 124 83 67 87 11 80 0
131 129 132 123 126 124 56 50 61 5 54 0
131 129 132 123 126 107 76 116 26 99 62 0
131 129 132 123 126 103 72 111 22 95 59 0
131 129 132 123 126 108 79 119 29 101 65 0
131 129 132 123 126 41 35 44 2 39 33 0
131 129 132 123 126 83 67 87 11 80 52 0
131 129 132 123 124 107 76 116 26 99 89 0
131 129 132 123 124 103 72 111 22 95 85 0
131 129 132 123 124 108 79 119 29 101 90 0
131 129 132 123 124 41 35 44 2 39 36 0
131 129 132 123 124 56 50 61 5 54 53 0
131 129 132 123 107 76 116 26 99 89 62 0
131 129 132 123 103 72 111 22 95 85 59 0
131 129 132 123 108 79 119 29 101 90 65 0
131 129 132 123 41 35 44 2 39 36 33 0
131 129 132 126 124 107 76 116 26 99 47 0
131 129 132 126 124 103 72 111 22 95 43 0
131 129 132 126 124 108 79 119 29 101 49 0
131 129 132 126 124 83 67 87 11 80 37 0
131 129 132 126 124 56 50 61 5 54 32 0
131 129 132 126 107 76 116 26 99 47 62 0
131 129 132 126 103 72 111 22 95 43 59 0
131 129 132 126 108 79 119 29 101 49 65 0
131 129 132 126 83 67 87 11 80 37 52 0
131 129 132 124 107 76 116 26 99 47 89 0
131 129 132 124 103 72 111 22 95 43 85 0
131 129 132 124 108 79 119 29 101 49 90 0
131 129 132 124 56 50 61 5 54 32 53 0
131 129 132 107 76 116 26 99 47 89 62 0
131 129 132 103 72 111 22 95 43 85 59 0
131 129 132 108 79 119 29 101 49 90 65 0
131 129 122 127 123 126 124 107 76 116 121 0
131 129 122 127 123 126 124 103 72 111 114 0
131 129 122 127 123 126 124 17 8 23 31 0
131 129 122 127 123 126 124 93 69 96 100 0
131 129 122 127 123 126 124 41 35 44 48 0
131 129 122 127 123 126 124 83 67 87 91 0
131 129 122 127 123 126 124 56 50 61 64 0
131 129 122 127 123 126 107 76 116 121 62 0
131 129 122 127 123 126 103 72 111 114 59 0
131 129 122 127 123 126 17 8 23 31 6 0
131 129 122 127 123 126 93 69 96 100 55 0
131 129 122 127 123 126 41 35 44 48 33 0
131 129 122 127 123 126 83 67 87 91 52 0
131 129 122 127 123 124 107 76 116 121 89 0
131 129 122 127 123 124 103 72 111 114 85 0
131 129 122 127 123 124 17 8 23 31 13 0
131 129 122 127 123 124 93 69 96 100 81 0
131 129 122 127 123 124 41 35 44 48 36 0
131 129 122 127 123 124 56 50 61 64 53 0
131 129 122 127 123 107 76 116 121 89 62 0
131 129 122 127 123 103 72 111 114 85 59 0
131 129 122 127 123 17 8 23 31 13 6 0
131 129 122 127 123 93 69 96 100 81 55 0
131 129 122 127 123 41 35 44 48 36 33 0
131 129 122 127 126 124 107 76 116 121 47 0
131 129 122 127 126 124 103 72 111 114 43 0
131 129 122 127 126 124 17 8 23 31 3 0
131 129 122 127 126 124 93 69 96 100 38 0
131 129 122 127 126 124 83 67 87 91 37 0
131 129 122 127 126 124 56 50 61 64 32 0
131 129 122 127 126 107 76 116 121 47 62 0
131 129 122 127 126 103 72 111 114 43 59 0
131 129 122 127 126 17 8 23 31 3 6 0
131 129 122 127 126 93 69 96 100 38 55 0
131 129 122 127 126 83 67 87 91 37 52 0
131 129 122 127 124 107 76 116 121 47 89 0
131 129 122 127 124 103 72 111 114 43 85 0
131 129 122 127 124 17 8 23 31 3 13 0
131 129 122 127 124 93 69 96 100 38 81 0
131 129 122 127 124 56 50 61 64 32 53 0
131 129 122 127 107 76 116 121 47 89 62 0
131 129 122 127 103 72 111 114 43 85 59 0
131 129 122 127 17 8 23 31 3 13 6 0
131 129 122 127 93 69 96 100 38 81 55 0
131 129 122 123 126 124 107 76 116 121 99 0
131 129 122 123 126 124 103 72 111 114 95 0
131 129 122 123 126 124 17 8 23 31 14 0
131 129 122 123 126 124 41 35 44 48 39 0
131 129 122 123 126 124 83 67 87 91 80 0
131 129 122 123 126 124 56 50 61 64 54 0
131 129 122 123 126 107 76 116 121 99 62 0
131 129 122 123 126 103 72 111 114 95 59 0
131 129 122 123 126 17 8 23 31 14 6 0
131 129 122 123 126 41 35 44 48 39 33 0
131 129 122 123 126 83 67 87 91 80 52 0
131 129 122 123 124 107 76 116 121 99 89 0
131 129 122 123 124 103 72 111 114 95 85 0
131 129 122 123 124 17 8 23 31 14 13 0
131 129 122 123 124 41 35 44 48 39 36 0
131 129 122 123 124 56 50 61 64 54 53 0
131 129 122 123 107 76 116 121 99 89 62 0
131 129 122 123 103 72 111 114 95 85 59 0
131 129 122 123 17 8 23 31 14 13 6 0
131 129 122 123 41 35 44 48 39 36 33 0
131 129 122 126 124 107 76 116 121 99 47 0
131 129 122 126 124 103 72 111 114 95 43 0
131 129 122 126 124 17 8 23 31 14 3 0
131 129 122 126 124 83 67 87 91 80 37 0
131 129 122 126 124 56 50 61 64 54 32 0
131 129 122 126 107 76 116 121 99 47 62 0
131 129 122 126 103 72 111 114 95 43 59 0
131 129 122 126 17 8 23 31 14 3 6 0
131 129 122 126 83 67 87 91 80 37 52 0
131 129 122 124 107 76 116 121 99 47 89 0
131 129 122 124 103 72 111 114 95 43 85 0
131 129 122 124 17 8 23 31 14 3 13 0
131 129 122 124 56 50 61 64 54 32 53 0
131 129 122 107 76 116 121 99 47 89 62 0
131 129 122 103 72 111 114 95 43 85 59 0
131 129 122 17 8 23 31 14 3 13 6 0
131 129 127 123 126 124 107 76 116 121 26 0
131 129 127 123 126 124 103 72 111 114 22 0
131 129 127 123 126 124 93 69 96 100 16 0
131 129 127 123 126 124 41 35 44 48 2 0
131 129 127 123 126 124 83 67 87 91 11 0
131 129 127 123 126 124 56 50 61 64 5 0
131 129 127 123 126 107 76 116 121 26 62 0
131 129 127 123 126 103 72 111 114 22 59 0
131 129 127 123 126 93 69 96 100 16 55 0
131 129 127 123 126 41 35 44 48 2 33 0
131 129 127 123 126 83 67 87 91 11 52 0
131 129 127 123 124 107 76 116 121 26 89 0
131 129 127 123 124 103 72 111 114 22 85 0
131 129 127 123 124 93 69 96 100 16 81 0
131 129 127 123 124 41 35 44 48 2 36 0
131 129 127 123 124 56 50 61 64 5 53 0
131 129 127 123 107 76 116 121 26 89 62 0
131 129 127 123 103 72 111 114 22 85 59 0
131 129 127 123 93 69 96 100 16 81 55 0
131 129 127 123 41 35 44 48 2 36 33 0
131 129 127 126 124 107 76 116 121 26 47 0
131 129 127 126 124 103 72 111 114 22 43 0
131 129 127 126 124 93 69 96 100 16 38 0
131 129 127 126 124 83 67 87 91 11 37 0
131 129 127 126 124 56 50 61 64 5 32 0
131 129 127 126 107 76 116 121 26 47 62 0
131 129 127 126 103 72 111 114 22 43 59 0
131 129 127 126 93 69 96 100 16 38 55 0
131 129 127 126 83 67 87 91 11 37 52 0
131 129 127 124 107 76 116 121 26 47 89 0
131 129 127 124 103 72 111 114 22 43 85 0
131 129 127 124 93 69 96 100 16 38 81 0
131 129 127 124 56 50 61 64 5 32 53 0
131 129 127 107 76 116 121 26 47 89 62 0
131 129 127 103 72 111 114 22 43 85 59 0
131 129 127 93 69 96 100 16 38 81 55 0
131 129 123 126 124 107 76 116 121 26 99 0
131 129 123 126 124 103 72 111 114 22 95 0
131 129 123 126 124 41 35 44 48 2 39 0
131 129 123 126 124 83 67 87 91 11 80 0
131 129 123 126 124 56 50 61 64 5 54 0
131 129 123 126 107 76 116 121 26 99 62 0
131 129 123 126 103 72 111 114 22 95 59 0
131 129 123 126 41 35 44 48 2 39 33 0
131 129 123 126 83 67 87 91 11 80 52 0
131 129 123 124 107 76 116 121 26 99 89 0
131 129 123 124 103 72 111 114 22 95 85 0
131 129 123 124 41 35 44 48 2 39 36 0
131 129 123 124 56 50 61 64 5 54 53 0
131 129 123 107 76 116 121 26 99 89 62 0
131 129 123 103 72 111 114 22 95 85 59 0
131 129 123 41 35 44 48 2 39 36 33 0
131 129 126 124 107 76 116 121 26 99 47 0
131 129 126 124 103 72 111 114 22 95 43 0
131 129 126 124 83 67 87 91 11 80 37 0
131 129 126 124 56 50 61 64 5 54 32 0
131 129 126 107 76 116 121 26 99 47 62 0
131 129 126 103 72 111 114 22 95 43 59 0
131 129 126 83 67 87 91 11 80 37 52 0
131 129 124 107 76 116 121 26 99 47 89 0
131 129 124 103 72 111 114 22 95 43 85 0
131 129 124 56 50 61 64 5 54 32 53 0
131 129 107 76 116 121 26 99 47 89 62 0
131 129 103 72 111 114 22 95 43 85 59 0
131 128 125 130 132 122 127 123 126 124 112 0
131 128 125 130 132 122 127 123 126 124 102 0
131 128 125 130 132 122 127 123 126 124 73 0
131 128 125 130 132 122 127 123 126 124 110 0
131 128 125 130 132 122 127 123 126 124 115 0
131 128 125 130 132 122 127 123 126 124 21 0
131 128 125 130 132 122 127 123 126 124 94 0
131 128 125 130 132 122 127 123 126 124 42 0
131 128 125 130 132 122 127 123 126 124 84 0
131 128 125 130 132 122 127 123 126 124 58 0
131 128 125 130 132 122 127 123 126 112 62 0
131 128 125 130 132 122 127 123 126 102 57 0
131 128 125 130 132 122 127 123 126 73 51 0
131 128 125 130 132 122 127 123 126 110 60 0
131 128 125 130 132 122 127 123 126 115 65 0
131 128 125 130 132 122 127 123 126 21 6 0
131 128 125 130 132 122 127 123 126 94 55 0
131 128 125 130 132 122 127 123 126 42 33 0
131 128 125 130 132 122 127 123 126 84 52 0
131 128 125 130 132 122 127 123 124 112 89 0
131 128 125 130 132 122 127 123 124 102 82 0
131 128 125 130 132 122 127 123 124 73 66 0
131 128 125 130 132 122 127 123 124 110 86 0
131 128 125 130 132 122 127 123 124 115 90 0
131 128 125 130 132 122 127 123 124 21 13 0
131 128 125 130 132 122 127 123 124 94 81 0
131 128 125 130 132 122 127 123 124 42 36 0
131 128 125 130 132 122 127 123 124 58 53 0
131 128 125 130 132 122 127 123 112 89 62 0
131 128 125 130 132 122 127 123 102 82 57 0
131 128 125 130 132 122 127 123 73 66 51 0
131 128 125 130 132 122 127 123 110 86 60 0
131 128 125 130 132 122 127 123 115 90 65 0
131 128 125 130 132 122 127 123 21 13 6 0
131 128 125 130 132 122 127 123 94 81 55 0
131 128 125 130 132 122 127 123 42 36 33 0
131 128 125 130 132 122 127 126 124 112 47 0
131 128 125 130 132 122 127 126 124 102 40 0
131 128 125 130 132 122 127 126 124 73 34 0
131 128 125 130 132 122 127 126 124 110 45 0
131 128 125 130 132 122 127 126 124 115 49 0
131 128 125 130 132 122 127 126 124 21 3 0
131 128 125 130 132 122 127 126 124 94 38 0
131 128 125 130 132 122 127 126 124 84 37 0
131 128 125 130 132 122 127 126 124 58 32 0
131 128 125 130 132 122 127 126 112 47 62 0
131 128 125 130 132 122 127 126 102 40 57 0
131 128 125 130 132 122 127 126 73 34 51 0
131 128 125 130 132 122 127 126 110 45 60 0
131 128 125 130 132 122 127 126 115 49 65 0
131 128 125 130 132 122 127 126 21 3 6 0
131 128 125 130 132 122 127 126 94 38 55 0
131 128 125 130 132 122 127 126 84 37 52 0
131 128 125 130 132 122 127 124 112 47 89 0
131 128 125 130 132 122 127 124 102 40 82 0
131 128 125 130 132 122 127 124 73 34 66 0
131 128 125 130 132 122 127 124 110 45 86 0
131 128 125 130 132 122 127 124 115 49 90 0
131 128 125 130 132 122 127 124 21 3 13 0
131 128 125 130 132 122 127 124 94 38 81 0
131 128 125 130 132 122 127 124 58 32 53 0
131 128 125 130 132 122 127 112 47 89 62 0
131 128 125 130 132 122 127 102 40 82 57 0
131 128 125 130 132 122 127 73 34 66 51 0
131 128 125 130 132 122 127 110 45 86 60 0
131 128 125 130 132 122 127 115 49 90 65 0
131 128 125 130 132 122 127 21 3 13 6 0
131 128 125 130 132 122 127 94 38 81 55 0
131 128 125 130 132 122 123 126 124 112 99 0
131 128 125 130 132 122 123 126 124 102 92 0
131 128 125 130 132 122 123 126 124 73 68 0
131 128 125 130 132 122 123 126 124 110 97 0
131 128 125 130 132 122 123 126 124 115 101 0
131 128 125 130 132 122 123 126 124 21 14 0
131 128 125 130 132 122 123 126 124 42 39 0
131 128 125 130 132 122 123 126 124 84 80 0
131 128 125 130 132 122 123 126 124 58 54 0
131 128 125 130 132 122 123 126 112 99 62 0
131 128 125 130 132 122 123 126 102 92 57 0
131 128 125 130 132 122 123 126 73 68 51 0
131 128 125 130 132 122 123 126 110 97 60 0
131 128 125 130 132 122 123 126 115 101 65 0
131 128 125 130 132 122 123 126 21 14 6 0
131 128 125 130 132 122 123 126 42 39 33 0
131 128 125 130 132 122 123 126 84 80 52 0
131 128 125 130 132 122 123 124 112 99 89 0
131 128 125 130 132 122 123 124 102 92 82 0
131 128 125 130 132 122 123 124 73 68 66 0
131 128 125 130 132 122 123 124 110 97 86 0
131 128 125 130 132 122 123 124 115 101 90 0
131 128 125 130 132 122 123 124 21 14 13 0
131 128 125 130 132 122 123 124 42 39 36 0
131 128 125 130 132 122 123 124 58 54 53 0
131 128 125 130 132 122 123 112 99 89 62 0
131 128 125 130 132 122 123 102 92 82 57 0
131 128 125 130 132 122 123 73 68 66 51 0
131 128 125 130 132 122 123 110 97 86 60 0
131 128 125 130 132 122 123 115 101 90 65 0
131 128 125 130 132 122 123 21 14 13 6 0
131 128 125 130 132 122 123 42 39 36 33 0
131 128 125 130 132 122 126 124 112 99 47 0
131 128 125 130 132 122 126 124 102 92 40 0
131 128 125 130 132 122 126 124 73 68 34 0
131 128 125 130 132 122 126 124 110 97 45 0
131 128 125 130 132 122 126 124 115 101 49 0
131 128 125 130 132 122 126 124 21 14 3 0
131 128 125 130 132 122 126 124 84 80 37 0
131 128 125 130 132 122 126 124 58 54 32 0
131 128 125 130 132 122 126 112 99 47 62 0
131 128 125 130 132 122 126 102 92 40 57 0
131 128 125 130 132 122 126 73 68 34 51 0
131 128 125 130 132 122 126 110 97 45 60 0
131 128 125 130 132 122 126 115 101 49 65 0
131 128 125 130 132 122 126 21 14 3 6 0
131 128 125 130 132 122 126 84 80 37 52 0
131 128 125 130 132 122 124 112 99 47 89 0
131 128 125 130 132 122 124 102 92 40 82 0
131 128 125 130 132 122 124 73 68 34 66 0
131 128 125 130 132 122 124 110 97 45 86 0
131 128 125 130 132 122 124 115 101 49 90 0
131 128 125 130 132 122 124 21 14 3 13 0
131 128 125 130 132 122 124 58 54 32 53 0
131 128 125 130 132 122 112 99 47 89 62 0
131 128 125 130 132 122 102 92 40 82 57 0
131 128 125 130 132 122 73 68 34 66 51 0
131 128 125 130 132 122 110 97 45 86 60 0
131 128 125 130 132 122 115 101 49 90 65 0
131 128 125 130 132 122 21 14 3 13 6 0
131 128 125 130 132 127 123 126 124 112 26 0
131 128 125 130 132 127 123 126 124 102 18 0
131 128 125 130 132 127 123 126 124 73 9 0
131 128 125 130 132 127 123 126 124 110 25 0
131 128 125 130 132 127 123 126 124 115 29 0
131 128 125 130 132 127 123 126 124 94 16 0
131 128 125 130 132 127 123 126 124 42 2 0
131 128 125 130 132 127 123 126 124 84 11 0
131 128 125 130 132 127 123 126 124 58 5 0
131 128 125 130 132 127 123 126 112 26 62 0
131 128 125 130 132 127 123 126 102 18 57 0
131 128 125 130 132 127 123 126 73 9 51 0
131 128 125 130 132 127 123 126 110 25 60 0
131 128 125 130 132 127 123 126 115 29 65 0
131 128 125 130 132 127 123 126 94 16 55 0
131 128 125 130 132 127 123 126 42 2 33 0
131 128 125 130 132 127 123 126 84 11 52 0
131 128 125 130 132 127 123 124 112 26 89 0
131 128 125 130 132 127 123 124 102 18 82 0
131 128 125 130 132 127 123 124 73 9 66 0
131 128 125 130 132 127 123 124 110 25 86 0
131 128 125 130 132 127 123 124 115 29 90 0
131 128 125 130 132 127 123 124 94 16 81 0
131 128 125 130 132 127 123 124 42 2 36 0
131 128 125 130 132 127 123 124 58 5 53 0
131 128 125 130 132 127 123 112 26 89 62 0
131 128 125 130 132 127 123 102 18 82 57 0
131 128 125 130 132 127 123 73 9 66 51 0
131 128 125 130 132 127 123 110 25 86 60 0
131 128 125 130 132 127 123 115 29 90 65 0
131 128 125 130 132 127 123 94 16 81 55 0
131 128 125 130 132 127 123 42 2 36 33 0
131 128 125 130 132 127 126 124 112 26 47 0
131 128 125 130 132 127 126 124 102 18 40 0
131 128 125 130 132 127 126 124 73 9 34 0
131 128 125 130 132 127 126 124 110 25 45 0
131 128 125 130 132 127 126 124 115 29 49 0
131 128 125 130 132 127 126 124 94 16 38 0
131 128 125 130 132 127 126 124 84 11 37 0
131 128 125 130 132 127 126 124 58 5 32 0
131 128 125 130 132 127 126 112 26 47 62 0
131 128 125 130 132 127 126 102 18 40 57 0
131 128 125 130 132 127 126 73 9 34 51 0
131 128 125 130 132 127 126 110 25 45 60 0
131 128 125 130 132 127 126 115 29 49 65 0
131 128 125 130 132 127 126 94 16 38 55 0
131 128 125 130 132 127 126 84 11 37 52 0
131 128 125 130 132 127 124 112 26 47 89 0
131 128 125 130 132 127 124 102 18 40 82 0
131 128 125 130 132 127 124 73 9 34 66 0
131 128 125 130 132 127 124 110 25 45 86 0
131 128 125 130 132 127 124 115 29 49 90 0
131 128 125 130 132 127 124 94 16 38 81 0
131 128 125 130 132 127 124 58 5 32 53 0
131 128 125 130 132 127 112 26 47 89 62 0
131 128 125 130 132 127 102 18 40 82 57 0
131 128 125 130 132 127 73 9 34 66 51 0
131 128 125 130 132 127 110 25 45 86 60 0
131 128 125 130 132 127 115 29 49 90 65 0
131 128 125 130 132 127 94 16 38 81 55 0
131 128 125 130 132 123 126 124 112 26 99 0
131 128 125 130 132 123 126 124 102 18 92 0
131 128 125 130 132 123 126 124 73 9 68 0
131 128 125 130 132 123 126 124 110 25 97 0
131 128 125 130 132 123 126 124 115 29 101 0
131 128 125 130 132 123 126 124 42 2 39 0
131 128 125 130 132 123 126 124 84 11 80 0
131 128 125 130 132 123 126 124 58 5 54 0
131 128 125 130 132 123 126 112 26 99 62 0
131 128 125 130 132 123 126 102 18 92 57 0
131 128 125 130 132 123 126 73 9 68 51 0
131 128 125 130 132 123 126 110 25 97 60 0
131 128 125 130 132 123 126 115 29 101 65 0
131 128 125 130 132 123 126 42 2 39 33 0
131 128 125 130 132 123 126 84 11 80 52 0
131 128 125 130 132 123 124 112 26 99 89 0
131 128 125 130 132 123 124 102 18 92 82 0
131 128 125 130 132 123 124 73 9 68 66 0
131 128 125 130 132 123 124 110 25 97 86 0
131 128 125 130 132 123 124 115 29 101 90 0
131 128 125 130 132 123 124 42 2 39 36 0
131 128 125 130 132 123 124 58 5 54 53 0
131 128 125 130 132 123 112 26 99 89 62 0
131 128 125 130 132 123 102 18 92 82 57 0
131 128 125 130 132 123 73 9 68 66 51 0
131 128 125 130 132 123 110 25 97 86 60 0
131 128 125 130 132 123 115 29 101 90 65 0
131 128 125 130 132 123 42 2 39 36 33 0
131 128 125 130 132 126 124 112 26 99 47 0
131 128 125 130 132 126 124 102 18 92 40 0
131 128 125 130 132 126 124 73 9 68 34 0
131 128 125 130 132 126 124 110 25 97 45 0
131 128 125 130 132 126 124 115 29 101 49 0
131 128 125 130 132 126 124 84 11 80 37 0
131 128 125 130 132 126 124 58 5 54 32 0
131 128 125 130 132 126 112 26 99 47 62 0
131 128 125 130 132 126 102 18 92 40 57 0
131 128 125 130 132 126 73 9 68 34 51 0
131 128 125 130 132 126 110 25 97 45 60 0
131 128 125 130 132 126 115 29 101 49 65 0
131 128 125 130 132 126 84 11 80 37 52 0
131 128 125 130 132 124 112 26 99 47 89 0
131 128 125 130 132 124 102 18 92 40 82 0
131 128 125 130 132 124 73 9 68 34 66 0
131 128 125 130 132 124 110 25 97 45 86 0
131 128 125 130 132 124 115 29 101 49 90 0
131 128 125 130 132 124 58 5 54 32 53 0
131 128 125 130 132 112 26 99 47 89 62 0
131 128 125 130 132 102 18 92 40 82 57 0
131 128 125 130 132 73 9 68 34 66 51 0
131 128 125 130 132 110 25 97 45 86 60 0
131 128 125 130 132 115 29 101 49 90 65 0
131 128 125 130 122 127 123 126 124 112 121 0
131 128 125 130 122 127 123 126 124 102 109 0
131 128 125 130 122 127 123 126 124 73 78 0
131 128 125 130 122 127 123 126 124 110 118 0
131 128 125 130 122 127 123 126 124 21 31 0
131 128 125 130 122 127 123 126 124 94 100 0
131 128 125 130 122 127 123 126 124 42 48 0
131 128 125 130 122 127 123 126 124 84 91 0
131 128 125 130 122 127 123 126 124 58 64 0
131 128 125 130 122 127 123 126 112 121 62 0
131 128 125 130 122 127 123 126 102 109 57 0
131 128 125 130 122 127 123 126 73 78 51 0
131 128 125 130 122 127 123 126 110 118 60 0
131 128 125 130 122 127 123 126 21 31 6 0
131 128 125 130 122 127 123 126 94 100 55 0
131 128 125 130 122 127 123 126 42 48 33 0
131 128 125 130 122 127 123 126 84 91 52 0
131 128 125 130 122 127 123 124 112 121 89 0
131 128 125 130 122 127 123 124 102 109 82 0
131 128 125 130 122 127 123 124 73 78 66 0
131 128 125 130 122 127 123 124 110 118 86 0
131 128 125 130 122 127 123 124 21 31 13 0
131 128 125 130 122 127 123 124 94 100 81 0
131 128 125 130 122 127 123 124 42 48 36 0
131 128 125 130 122 127 123 124 58 64 53 0
131 128 125 130 122 127 123 112 121 89 62 0
131 128 125 130 122 127 123 102 109 82 57 0
131 128 125 130 122 127 123 73 78 66 51 0
131 128 125 130 122 127 123 110 118 86 60 0
131 128 125 130 122 127 123 21 31 13 6 0
131 128 125 130 122 127 123 94 100 81 55 0
131 128 125 130 122 127 123 42 48 36 33 0
131 128 125 130 122 127 126 124 112 121 47 0
131 128 125 130 122 127 126 124 102 109 40 0
131 128 125 130 122 127 126 124 73 78 34 0
131 128 125 130 122 127 126 124 110 118 45 0
131 128 125 130 122 127 126 124 21 31 3 0
131 128 125 130 122 127 126 124 94 100 38 0
131 128 125 130 122 127 126 124 84 91 37 0
131 128 125 130 122 127 126 124 58 64 32 0
131 128 125 130 122 127 126 112 121 47 62 0
131 128 125 130 122 127 126 102 109 40 57 0
131 128 125 130 122 127 126 73 78 34 51 0
131 128 125 130 122 127 126 110 118 45 60 0
131 128 125 130 122 127 126 21 31 3 6 0
131 128 125 130 122 127 126 94 100 38 55 0
131 128 125 130 122 127 126 84 91 37 52 0
131 128 125 130 122 127 124 112 121 47 89 0
131 128 125 130 122 127 124 102 109 40 82 0
131 128 125 130 122 127 124 73 78 34 66 0
131 128 125 130 122 127 124 110 118 45 86 0
131 128 125 130 122 127 124 21 31 3 13 0
131 128 125 130 122 127 124 94 100 38 81 0
131 128 125 130 122 127 124 58 64 32 53 0
131 128 125 130 122 127 112 121 47 89 62 0
131 128 125 130 122 127 102 109 40 82 57 0
131 128 125 130 122 127 73 78 34 66 51 0
131 128 125 130 122 127 110 118 45 86 60 0
131 128 125 130 122 127 21 31 3 13 6 0
131 128 125 130 122 127 94 100 38 81 55 0
131 128 125 130 122 123 126 124 112 121 99 0
131 128 125 130 122 123 126 124 102 109 92 0
131 128 125 130 122 123 126 124 73 78 68 0
131 128 125 130 122 123 126 124 110 118 97 0
131 128 125 130 122 123 126 124 21 31 14 0
131 128 125 130 122 123 126 124 42 48 39 0
131 128 125 130 122 123 126 124 84 91 80 0
131 128 125 130 122 123 126 124 58 64 54 0
131 128 125 130 122 123 126 112 121 99 62 0
131 128 125 130 122 123 126 102 109 92 57 0
131 128 125 130 122 123 126 73 78 68 51 0
131 128 125 130 122 123 126 110 118 97 60 0
131 128 125 130 122 123 126 21 31 14 6 0
131 128 125 130 122 123 126 42 48 39 33 0
131 128 125 130 122 123 126 84 91 80 52 0
131 128 125 130 122 123 124 112 121 99 89 0
131 128 125 130 122 123 124 102 109 92 82 0
131 128 125 130 122 123 124 73 78 68 66 0
131 128 125 130 122 123 124 110 118 97 86 0
131 128 125 130 122 123 124 21 31 14 13 0
131 128 125 130 122 123 124 42 48 39 36 0
131 128 125 130 122 123 124 58 64 54 53 0
131 128 125 130 122 123 112 121 99 89 62 0
131 128 125 130 122 123 102 109 92 82 57 0
131 128 125 130 122 123 73 78 68 66 51 0
131 128 125 130 122 123 110 118 97 86 60 0
131 128 125 130 122 123 21 31 14 13 6 0
131 128 125 130 122 123 42 48 39 36 33 0
131 128 125 130 122 126 124 112 121 99 47 0
131 128 125 130 122 126 124 102 109 92 40 0
131 128 125 130 122 126 124 73 78 68 34 0
131 128 125 130 122 126 124 110 118 97 45 0
131 128 125 130 122 126 124 21 31 14 3 0
131 128 125 130 122 126 124 84 91 80 37 0
131 128 125 130 122 126 124 58 64 54 32 0
131 128 125 130 122 126 112 121 99 47 62 0
131 128 125 130 122 126 102 109 92 40 57 0
131 128 125 130 122 126 73 78 68 34 51 0
131 128 125 130 122 126 110 118 97 45 60 0
131 128 125 130 122 126 21 31 14 3 6 0
131 128 125 130 122 126 84 91 80 37 52 0
131 128 125 130 122 124 112 121 99 47 89 0
131 128 125 130 122 124 102 109 92 40 82 0
131 128 125 130 122 124 73 78 68 34 66 0
131 128 125 130 122 124 110 118 97 45 86 0
131 128 125 130 122 124 21 31 14 3 13 0
131 128 125 130 122 124 58 64 54 32 53 0
131 128 125 130 122 112 121 99 47 89 62 0
131 128 125 130 122 102 109 92 40 82 57 0
131 128 125 130 122 73 78 68 34 66 51 0
131 128 125 130 122 110 118 97 45 86 60 0
131 128 125 130 122 21 31 14 3 13 6 0
131 128 125 130 127 123 126 124 112 121 26 0
131 128 125 130 127 123 126 124 102 109 18 0
131 128 125 130 127 123 126 124 73 78 9 0
131 128 125 130 127 123 126 124 110 118 25 0
131 128 125 130 127 123 126 124 94 100 16 0
131 128 125 130 127 123 126 124 42 48 2 0
131 128 125 130 127 123 126 124 84 91 11 0
131 128 125 130 127 123 126 124 58 64 5 0
131 128 125 130 127 123 126 112 121 26 62 0
131 128 125 130 127 123 126 102 109 18 57 0
131 128 125 130 127 123 126 73 78 9 51 0
131 128 125 130 127 123 126 110 118 25 60 0
131 128 125 130 127 123 126 94 100 16 55 0
131 128 125 130 127 123 126 42 48 2 33 0
131 128 125 130 127 123 126 84 91 11 52 0
131 128 125 130 127 123 124 112 121 26 89 0
131 128 125 130 127 123 124 102 109 18 82 0
131 128 125 130 127 123 124 73 78 9 66 0
131 128 125 130 127 123 124 110 118 25 86 0
131 128 125 130 127 123 124 94 100 16 81 0
131 128 125 130 127 123 124 42 48 2 36 0
131 128 125 130 127 123 124 58 64 5 53 0
131 128 125 130 127 123 112 121 26 89 62 0
131 128 125 130 127 123 102 109 18 82 57 0
131 128 125 130 127 123 73 78 9 66 51 0
131 128 125 130 127 123 110 118 25 86 60 0
131 128 125 130 127 123 94 100 16 81 55 0
131 128 125 130 127 123 42 48 2 36 33 0
131 128 125 130 127 126 124 112 121 26 47 0
131 128 125 130 127 126 124 102 109 18 40 0
131 128 125 130 127 126 124 73 78 9 34 0
131 128 125 130 127 126 124 110 118 25 45 0
131 128 125 130 127 126 124 94 100 16 38 0
131 128 125 130 127 126 124 84 91 11 37 0
131 128 125 130 127 126 124 58 64 5 32 0
131 128 125 130 127 126 112 121 26 47 62 0
131 128 125 130 127 126 102 109 18 40 57 0
131 128 125 130 127 126 73 78 9 34 51 0
131 128 125 130 127 126 110 118 25 45 60 0
131 128 125 130 127 126 94 100 16 38 55 0
131 128 125 130 127 126 84 91 11 37 52 0
131 128 125 130 127 124 112 121 26 47 89 0
131 128 125 130 127 124 102 109 18 40 82 0
131 128 125 130 127 124 73 78 9 34 66 0
131 128 125 130 127 124 110 118 25 45 86 0
131 128 125 130 127 124 94 100 16 38 81 0
131 128 125 130 127 124 58 64 5 32 53 0
131 128 125 130 127 112 121 26 47 89 62 0
131 128 125 130 127 102 109 18 40 82 57 0
131 128 125 130 127 73 78 9 34 66 51 0
131 128 125 130 127 110 118 25 45 86 60 0
131 128 125 130 127 94 100 16 38 81 55 0
131 128 125 130 123 126 124 112 121 26 99 0
131 128 125 130 123 126 124 102 109 18 92 0
131 128 125 130 123 126 124 73 78 9 68 0
131 128 125 130 123 126 124 110 118 25 97 0
131 128 125 130 123 126 124 42 48 2 39 0
131 128 125 130 123 126 124 84 91 11 80 0
131 128 125 130 123 126 124 58 64 5 54 0
131 128 125 130 123 126 112 121 26 99 62 0
131 128 125 130 123 126 102 109 18 92 57 0
131 128 125 130 123 126 73 78 9 68 51 0
131 128 125 130 123 126 110 118 25 97 60 0
131 128 125 130 123 126 42 48 2 39 33 0
131 128 125 130 123 126 84 91 11 80 52 0
131 128 125 130 123 124 112 121 26 99 89 0
131 128 125 130 123 124 102 109 18 92 82 0
131 128 125 130 123 124 73 78 9 68 66 0
131 128 125 130 123 124 110 118 25 97 86 0
131 128 125 130 123 124 42 48 2 39 36 0
131 128 125 130 123 124 58 64 5 54 53 0
131 128 125 130 123 112 121 26 99 89 62 0
131 128 125 130 123 102 109 18 92 82 57 0
131 128 125 130 123 73 78 9 68 66 51 0
131 128 125 130 123 110 118 25 97 86 60 0
131 128 125 130 123 42 48 2 39 36 33 0
131 128 125 130 126 124 112 121 26 99 47 0
131 128 125 130 126 124 102 109 18 92 40 0
131 128 125 130 126 124 73 78 9 68 34 0
131 128 125 130 126 124 110 118 25 97 45 0
131 128 125 130 126 124 84 91 11 80 37 0
131 128 125 130 126 124 58 64 5 54 32 0
131 128 125 130 126 112 121 26 99 47 62 0
131 128 125 130 126 102 109 18 92 40 57 0
131 128 125 130 126 73 78 9 68 34 51 0
131 128 125 130 126 110 118 25 97 45 60 0
131 128 125 130 126 84 91 11 80 37 52 0
131 128 125 130 124 112 121 26 99 47 89 0
131 128 125 130 124 102 109 18 92 40 82 0
131 128 125 130 124 73 78 9 68 34 66 0
131 128 125 130 124 110 118 25 97 45 86 0
131 128 125 130 124 58 64 5 54 32 53 0
131 128 125 130 112 121 26 99 47 89 62 0
131 128 125 130 102 109 18 92 40 82 57 0
131 128 125 130 73 78 9 68 34 66 51 0
131 128 125 130 110 118 25 97 45 86 60 0
131 128 125 132 122 127 123 126 124 112 116 0
131 128 125 132 122 127 123 126 124 102 105 0
131 128 125 132 122 127 123 126 124 73 75 0
131 128 125 132 122 127 123 126 124 115 119 0
131 128 125 132 122 127 123 126 124 21 23 0
131 128 125 132 122 127 123 126 124 94 96 0
131 128 125 132 122 127 123 126 124 42 44 0
131 128 125 132 122 127 123 126 124 84 87 0
131 128 125 132 122 127 123 126 124 58 61 0
131 128 125 132 122 127 123 126 112 116 62 0
131 128 125 132 122 127 123 126 102 105 57 0
131 128 125 132 122 127 123 126 73 75 51 0
131 128 125 132 122 127 123 126 115 119 65 0
131 128 125 132 122 127 123 126 21 23 6 0
131 128 125 132 122 127 123 126 94 96 55 0
131 128 125 132 122 127 123 126 42 44 33 0
131 128 125 132 122 127 123 126 84 87 52 0
131 128 125 132 122 127 123 124 112 116 89 0
131 128 125 132 122 127 123 124 102 105 82 0
131 128 125 132 122 127 123 124 73 75 66 0
131 128 125 132 122 127 123 124 115 119 90 0
131 128 125 132 122 127 123 124 21 23 13 0
131 128 125 132 122 127 123 124 94 96 81 0
131 128 125 132 122 127 123 124 42 44 36 0
131 128 125 132 122 127 123 124 58 61 53 0
131 128 125 132 122 127 123 112 116 89 62 0
131 128 125 132 122 127 123 102 105 82 57 0
131 128 125 132 122 127 123 73 75 66 51 0
131 128 125 132 122 127 123 115 119 90 65 0
131 128 125 132 122 127 123 21 23 13 6 0
131 128 125 132 122 127 123 94 96 81 55 0
131 128 125 132 122 127 123 42 44 36 33 0
131 128 125 132 122 127 126 124 112 116 47 0
131 128 125 132 122 127 126 124 102 105 40 0
131 128 125 132 122 127 126 124 73 75 34 0
131 128 125 132 122 127 126 124 115 119 49 0
131 128 125 132 122 127 126 124 21 23 3 0
131 128 125 132 122 127 126 124 94 96 38 0
131 128 125 132 122 127 126 124 84 87 37 0
131 128 125 132 122 127 126 124 58 61 32 0
131 128 125 132 122 127 126 112 116 47 62 0
131 128 125 132 122 127 126 102 105 40 57 0
131 128 125 132 122 127 126 73 75 34 51 0
131 128 125 132 122 127 126 115 119 49 65 0
131 128 125 132 122 127 126 21 23 3 6 0
131 128 125 132 122 127 126 94 96 38 55 0
131 128 125 132 122 127 126 84 87 37 52 0
131 128 125 132 122 127 124 112 116 47 89 0
131 128 125 132 122 127 124 102 105 40 82 0
131 128 125 132 122 127 124 73 75 34 66 0
131 128 125 132 122 127 124 115 119 49 90 0
131 128 125 132 122 127 124 21 23 3 13 0
131 128 125 132 122 127 124 94 96 38 81 0
131 128 125 132 122 127 124 58 61 32 53 0
131 128 125 132 122 127 112 116 47 89 62 0
131 128 125 132 122 127 102 105 40 82 57 0
131 128 125 132 122 127 73 75 34 66 51 0
131 128 125 132 122 127 115 119 49 90 65 0
131 128 125 132 122 127 21 23 3 13 6 0
131 128 125 132 122 127 94 96 38 81 55 0
131 128 125 132 122 123 126 124 112 116 99 0
131 128 125 132 122 123 126 124 102 105 92 0
131 128 125 132 122 123 126 124 73 75 68 0
131 128 125 132 122 123 126 124 115 119 101 0
131 128 125 132 122 123 126 124 21 23 14 0
131 128 125 132 122 123 126 124 42 44 39 0
131 128 125 132 122 123 126 124 84 87 80 0
131 128 125 132 122 123 126 124 58 61 54 0
131 128 125 132 122 123 126 112 116 99 62 0
131 128 125 132 122 123 126 102 105 92 57 0
131 128 125 132 122 123 126 73 75 68 51 0
131 128 125 132 122 123 126 115 119 101 65 0
131 128 125 132 122 123 126 21 23 14 6 0
131 128 125 132 122 123 126 42 44 39 33 0
131 128 125 132 122 123 126 84 87 80 52 0
131 128 125 132 122 123 124 112 116 99 89 0
131 128 125 132 122 123 124 102 105 92 82 0
131 128 125 132 122 123 124 73 75 68 66 0
131 128 125 132 122 123 124 115 119 101 90 0
131 128 125 132 122 123 124 21 23 14 13 0
131 128 125 132 122 123 124 42 44 39 36 0
131 128 125 132 122 123 124 58 61 54 53 0
131 128 125 132 122 123 112 116 99 89 62 0
131 128 125 132 122 123 102 105 92 82 57 0
131 128 125 132 122 123 73 75 68 66 51 0
131 128 125 132 122 123 115 119 101 90 65 0
131 128 125 132 122 123 21 23 14 13 6 0
131 128 125 132 122 123 42 44 39 36 33 0
131 128 125 132 122 126 124 112 116 99 47 0
131 128 125 132 122 126 124 102 105 92 40 0
131 128 125 132 122 126 124 73 75 68 34 0
131 128 125 132 122 126 124 115 119 101 49 0
131 128 125 132 122 126 124 21 23 14 3 0
131 128 125 132 122 126 124 84 87 80 37 0
131 128 125 132 122 126 124 58 61 54 32 0
131 128 125 132 122 126 112 116 99 47 62 0
131 128 125 132 122 126 102 105 92 40 57 0
131 128 125 132 122 126 73 75 68 34 51 0
131 128 125 132 122 126 115 119 101 49 65 0
131 128 125 132 122 126 21 23 14 3 6 0
131 128 125 132 122 126 84 87 80 37 52 0
131 128 125 132 122 124 112 116 99 47 89 0
131 128 125 132 122 124 102 105 92 40 82 0
131 128 125 132 122 124 73 75 68 34 66 0
131 128 125 132 122 124 115 119 101 49 90 0
131 128 125 132 122 124 21 23 14 3 13 0
131 128 125 132 122 124 58 61 54 32 53 0
131 128 125 132 122 112 116 99 47 89 62 0
131 128 125 132 122 102 105 92 40 82 57 0
131 128 125 132 122 73 75 68 34 66 51 0
131 128 125 132 122 115 119 101 49 90 65 0
131 128 125 132 122 21 23 14 3 13 6 0
131 128 125 132 127 123 126 124 112 116 26 0
131 128 125 132 127 123 126 124 102 105 18 0
131 128 125 132 127 123 126 124 73 75 9 0
131 128 125 132 127 123 126 124 115 119 29 0
131 128 125 132 127 123 126 124 94 96 16 0
131 128 125 132 127 123 126 124 42 44 2 0
131 128 125 132 127 123 126 124 84 87 11 0
131 128 125 132 127 123 126 124 58 61 5 0
131 128 125 132 127 123 126 112 116 26 62 0
131 128 125 132 127 123 126 102 105 18 57 0
131 128 125 132 127 123 126 73 75 9 51 0
131 128 125 132 127 123 126 115 119 29 65 0
131 128 125 132 127 123 126 94 96 16 55 0
131 128 125 132 127 123 126 42 44 2 33 0
131 128 125 132 127 123 126 84 87 11 52 0
131 128 125 132 127 123 124 112 116 26 89 0
131 128 125 132 127 123 124 102 105 18 82 0
131 128 125 132 127 123 124 73 75 9 66 0
131 128 125 132 127 123 124 115 119 29 90 0
131 128 125 132 127 123 124 94 96 16 81 0
131 128 125 132 127 123 124 42 44 2 36 0
131 128 125 132 127 123 124 58 61 5 53 0
131 128 125 132 127 123 112 116 26 89 62 0
131 128 125 132 127 123 102 105 18 82 57 0
131 128 125 132 127 123 73 75 9 66 51 0
131 128 125 132 127 123 115 119 29 90 65 0
131 128 125 132 127 123 94 96 16 81 55 0
131 128 125 132 127 123 42 44 2 36 33 0
131 128 125 132 127 126 124 112 116 26 47 0
131 128 125 132 127 126 124 102 105 18 40 0
131 128 125 132 127 126 124 73 75 9 34 0
131 128 125 132 127 126 124 115 119 29 49 0
131 128 125 132 127 126 124 94 96 16 38 0
131 128 125 132 127 126 124 84 87 11 37 0
131 128 125 132 127 126 124 58 61 5 32 0
131 128 125 132 127 126 112 116 26 47 62 0
131 128 125 132 127 126 102 105 18 40 57 0
131 128 125 132 127 126 73 75 9 34 51 0
131 128 125 132 127 126 115 119 29 49 65 0
131 128 125 132 127 126 94 96 16 38 55 0
131 128 125 132 127 126 84 87 11 37 52 0
131 128 125 132 127 124 112 116 26 47 89 0
131 128 125 132 127 124 102 105 18 40 82 0
131 128 125 132 127 124 73 75 9 34 66 0
131 128 125 132 127 124 115 119 29 49 90 0
131 128 125 132 127 124 94 96 16 38 81 0
131 128 125 132 127 124 58 61 5 32 53 0
131 128 125 132 127 112 116 26 47 89 62 0
131 128 125 132 127 102 105 18 40 82 57 0
131 128 125 132 127 73 75 9 34 66 51 0
131 128 125 132 127 115 119 29 49 90 65 0
131 128 125 132 127 94 96 16 38 81 55 0
131 128 125 132 123 126 124 112 116 26 99 0
131 128 125 132 123 126 124 102 105 18 92 0
131 128 125 132 123 126 124 73 75 9 68 0
131 128 125 132 123 126 124 115 119 29 101 0
131 128 125 132 123 126 124 42 44 2 39 0
131 128 125 132 123 126 124 84 87 11 80 0
131 128 125 132 123 126 124 58 61 5 54 0
131 128 125 132 123 126 112 116 26 99 62 0
131 128 125 132 123 126 102 105 18 92 57 0
131 128 125 132 123 126 73 75 9 68 51 0
131 128 125 132 123 126 115 119 29 101 65 0
131 128 125 132 123 126 42 44 2 39 33 0
131 128 125 132 123 126 84 87 11 80 52 0
131 128 125 132 123 124 112 116 26 99 89 0
131 128 125 132 123 124 102 105 18 92 82 0
131 128 125 132 123 124 73 75 9 68 66 0
131 128 125 132 123 124 115 119 29 101 90 0
131 128 125 132 123 124 42 44 2 39 36 0
131 128 125 132 123 124 58 61 5 54 53 0
131 128 125 132 123 112 116 26 99 89 62 0
131 128 125 132 123 102 105 18 92 82 57 0
131 128 125 132 123 73 75 9 68 66 51 0
131 128 125 132 123 115 119 29 101 90 65 0
131 128 125 132 123 42 44 2 39 36 33 0
131 128 125 132 126 124 112 116 26 99 47 0
131 128 125 132 126 124 102 105 18 92 40 0
131 128 125 132 126 124 73 75 9 68 34 0
131 128 125 132 126 124 115 119 29 101 49 0
131 128 125 132 126 124 84 87 11 80 37 0
131 128 125 132 126 124 58 61 5 54 32 0
131 128 125 132 126 112 116 26 99 47 62 0
131 128 125 132 126 102 105 18 92 40 57 0
131 128 125 132 126 73 75 9 68 34 51 0
131 128 125 132 126 115 119 29 101 49 65 0
131 128 125 132 126 84 87 11 80 37 52 0
131 128 125 132 124 112 116 26 99 47 89 0
131 128 125 132 124 102 105 18 92 40 82 0
131 128 125 132 124 73 75 9 68 34 66 0
131 128 125 132 124 115 119 29 101 49 90 0
131 128 125 132 124 58 61 5 54 32 53 0
131 128 125 132 112 116 26 99 47 89 62 0
131 128 125 132 102 105 18 92 40 82 57 0
131 128 125 132 73 75 9 68 34 66 51 0
131 128 125 132 115 119 29 101 49 90 65 0
131 128 125 122 127 123 126 124 112 116 121 0
131 128 125 122 127 123 126 124 102 105 109 0
131 128 125 122 127 123 126 124 73 75 78 0
131 128 125 122 127 123 126 124 21 23 31 0
131 128 125 122 127 123 126 124 94 96 100 0
131 128 125 122 127 123 126 124 42 44 48 0
131 128 125 122 127 123 126 124 84 87 91 0
131 128 125 122 127 123 126 124 58 61 64 0
131 128 125 122 127 123 126 112 116 121 62 0
131 128 125 122 127 123 126 102 105 109 57 0
131 128 125 122 127 123 126 73 75 78 51 0
131 128 125 122 127 123 126 21 23 31 6 0
131 128 125 122 127 123 126 94 96 100 55 0
131 128 125 122 127 123 126 42 44 48 33 0
131 128 125 122 127 123 126 84 87 91 52 0
131 128 125 122 127 123 124 112 116 121 89 0
131 128 125 122 127 123 124 102 105 109 82 0
131 128 125 122 127 123 124 73 75 78 66 0
131 128 125 122 127 123 124 21 23 31 13 0
131 128 125 122 127 123 124 94 96 100 81 0
131 128 125 122 127 123 124 42 44 48 36 0
131 128 125 122 127 123 124 58 61 64 53 0
131 128 125 122 127 123 112 116 121 89 62 0
131 128 125 122 127 123 102 105 109 82 57 0
131 128 125 122 127 123 73 75 78 66 51 0
131 128 125 122 127 123 21 23 31 13 6 0
131 128 125 122 127 123 94 96 100 81 55 0
131 128 125 122 127 123 42 44 48 36 33 0
131 128 125 122 127 126 124 112 116 121 47 0
131 128 125 122 127 126 124 102 105 109 40 0
131 128 125 122 127 126 124 73 75 78 34 0
131 128 125 122 127 126 124 21 23 31 3 0
131 128 125 122 127 126 124 94 96 100 38 0
131 128 125 122 127 126 124 84 87 91 37 0
131 128 125 122 127 126 124 58 61 64 32 0
131 128 125 122 127 126 112 116 121 47 62 0
131 128 125 122 127 126 102 105 109 40 57 0
131 128 125 122 127 126 73 75 78 34 51 0
131 128 125 122 127 126 21 23 31 3 6 0
131 128 125 122 127 126 94 96 100 38 55 0
131 128 125 122 127 126 84 87 91 37 52 0
131 128 125 122 127 124 112 116 121 47 89 0
131 128 125 122 127 124 102 105 109 40 82 0
131 128 125 122 127 124 73 75 78 34 66 0
131 128 125 122 127 124 21 23 31 3 13 0
131 128 125 122 127 124 94 96 100 38 81 0
131 128 125 122 127 124 58 61 64 32 53 0
131 128 125 122 127 112 116 121 47 89 62 0
131 128 125 122 127 102 105 109 40 82 57 0
131 128 125 122 127 73 75 78 34 66 51 0
131 128 125 122 127 21 23 31 3 13 6 0
131 128 125 122 127 94 96 100 38 81 55 0
131 128 125 122 123 126 124 112 116 121 99 0
131 128 125 122 123 126 124 102 105 109 92 0
131 128 125 122 123 126 124 73 75 78 68 0
131 128 125 122 123 126 124 21 23 31 14 0
131 128 125 122 123 126 124 42 44 48 39 0
131 128 125 122 123 126 124 84 87 91 80 0
131 128 125 122 123 126 124 58 61 64 54 0
131 128 125 122 123 126 112 116 121 99 62 0
131 128 125 122 123 126 102 105 109 92 57 0
131 128 125 122 123 126 73 75 78 68 51 0
131 128 125 122 123 126 21 23 31 14 6 0
131 128 125 122 123 126 42 44 48 39 33 0
131 128 125 122 123 126 84 87 91 80 52 0
131 128 125 122 123 124 112 116 121 99 89 0
131 128 125 122 123 124 102 105 109 92 82 0
131 128 125 122 123 124 73 75 78 68 66 0
131 128 125 122 123 124 21 23 31 14 13 0
131 128 125 122 123 124 42 44 48 39 36 0
131 128 125 122 123 124 58 61 64 54 53 0
131 128 125 122 123 112 116 121 99 89 62 0
131 128 125 122 123 102 105 109 92 82 57 0
131 128 125 122 123 73 75 78 68 66 51 0
131 128 125 122 123 21 23 31 14 13 6 0
131 128 125 122 123 42 44 48 39 36 33 0
131 128 125 122 126 124 112 116 121 99 47 0
131 128 125 122 126 124 102 105 109 92 40 0
131 128 125 122 126 124 73 75 78 68 34 0
131 128 125 122 126 124 21 23 31 14 3 0
131 128 125 122 126 124 84 87 91 80 37 0
131 128 125 122 126 124 58 61 64 54 32 0
131 128 125 122 126 112 116 121 99 47 62 0
131 128 125 122 126 102 105 109 92 40 57 0
131 128 125 122 126 73 75 78 68 34 51 0
131 128 125 122 126 21 23 31 14 3 6 0
131 128 125 122 126 84 87 91 80 37 52 0
131 128 125 122 124 112 116 121 99 47 89 0
131 128 125 122 124 102 105 109 92 40 82 0
131 128 125 122 124 73 75 78 68 34 66 0
131 128 125 122 124 21 23 31 14 3 13 0
131 128 125 122 124 58 61 64 54 32 53 0
131 128 125 122 112 116 121 99 47 89 62 0
131 128 125 122 102 105 109 92 40 82 57 0
131 128 125 122 73 75 78 68 34 66 51 0
131 128 125 122 21 23 31 14 3 13 6 0
131 128 125 127 123 126 124 112 116 121 26 0
131 128 125 127 123 126 124 102 105 109 18 0
131 128 125 127 123 126 124 73 75 78 9 0
131 128 125 127 123 126 124 94 96 100 16 0
131 128 125 127 123 126 124 42 44 48 2 0
131 128 125 127 123 126 124 84 87 91 11 0
131 128 125 127 123 126 124 58 61 64 5 0
131 128 125 127 123 126 112 116 121 26 62 0
131 128 125 127 123 126 102 105 109 18 57 0
131 128 125 127 123 126 73 75 78 9 51 0
131 128 125 127 123 126 94 96 100 16 55 0
131 128 125 127 123 126 42 44 48 2 33 0
131 128 125 127 123 126 84 87 91 11 52 0
131 128 125 127 123 124 112 116 121 26 89 0
131 128 125 127 123 124 102 105 109 18 82 0
131 128 125 127 123 124 73 75 78 9 66 0
131 128 125 127 123 124 94 96 100 16 81 0
131 128 125 127 123 124 42 44 48 2 36 0
131 128 125 127 123 124 58 61 64 5 53 0
131 128 125 127 123 112 116 121 26 89 62 0
131 128 125 127 123 102 105 109 18 82 57 0
131 128 125 127 123 73 75 78 9 66 51 0
131 128 125 127 123 94 96 100 16 81 55 0
131 128 125 127 123 42 44 48 2 36 33 0
131 128 125 127 126 124 112 116 121 26 47 0
131 128 125 127 126 124 102 105 109 18 40 0
131 128 125 127 126 124 73 75 78 9 34 0
131 128 125 127 126 124 94 96 100 16 38 0
131 128 125 127 126 124 84 87 91 11 37 0
131 128 125 127 126 124 58 61 64 5 32 0
131 128 125 127 126 112 116 121 26 47 62 0
131 128 125 127 126 102 105 109 18 40 57 0
131 128 125 127 126 73 75 78 9 34 51 0
131 128 125 127 126 94 96 100 16 38 55 0
131 128 125 127 126 84 87 91 11 37 52 0
131 128 125 127 124 112 116 121 26 47 89 0
131 128 125 127 124 102 105 109 18 40 82 0
131 128 125 127 124 73 75 78 9 34 66 0
131 128 125 127 124 94 96 100 16 38 81 0
131 128 125 127 124 58 61 64 5 32 53 0
131 128 125 127 112 116 121 26 47 89 62 0
131 128 125 127 102 105 109 18 40 82 57 0
131 128 125 127 73 75 78 9 34 66 51 0
131 128 125 127 94 96 100 16 38 81 55 0
131 128 125 123 126 124 112 116 121 26 99 0
131 128 125 123 126 124 102 105 109 18 92 0
131 128 125 123 126 124 73 75 78 9 68 0
131 128 125 123 126 124 42 44 48 2 39 0
131 128 125 123 126 124 84 87 91 11 80 0
131 128 125 123 126 124 58 61 64 5 54 0
131 128 125 123 126 112 116 121 26 99 62 0
131 128 125 123 126 102 105 109 18 92 57 0
131 128 125 123 126 73 75 78 9 68 51 0
131 128 125 123 126 42 44 48 2 39 33 0
131 128 125 123 126 84 87 91 11 80 52 0
131 128 125 123 124 112 116 121 26 99 89 0
131 128 125 123 124 102 105 109 18 92 82 0
131 128 125 123 124 73 75 78 9 68 66 0
131 128 125 123 124 42 44 48 2 39 36 0
131 128 125 123 124 58 61 64 5 54 53 0
131 128 125 123 112 116 121 26 99 89 62 0
131 128 125 123 102 105 109 18 92 82 57 0
131 128 125 123 73 75 78 9 68 66 51 0
131 128 125 123 42 44 48 2 39 36 33 0
131 128 125 126 124 112 116 121 26 99 47 0
131 128 125 126 124 102 105 109 18 92 40 0
131 128 125 126 124 73 75 78 9 68 34 0
131 128 125 126 124 84 87 91 11 80 37 0
131 128 125 126 124 58 61 64 5 54 32 0
131 128 125 126 112 116 121 26 99 47 62 0
131 128 125 126 102 105 109 18 92 40 57 0
131 128 125 126 73 75 78 9 68 34 51 0
131 128 125 126 84 87 91 11 80 37 52 0
131 128 125 124 112 116 121 26 99 47 89 0
131 128 125 124 102 105 109 18 92 40 82 0
131 128 125 124 73 75 78 9 68 34 66 0
131 128 125 124 58 61 64 5 54 32 53 0
131 128 125 112 116 121 26 99 47 89 62 0
131 128 125 102 105 109 18 92 40 82 57 0
131 128 125 73 75 78 9 68 34 66 51 0
131 128 130 132 122 127 123 126 124 112 76 0
131 128 130 132 122 127 123 126 124 102 70 0
131 128 130 132 122 127 123 126 124 110 74 0
131 128 130 132 122 127 123 126 124 115 79 0
131 128 130 132 122 127 123 126 124 21 8 0
131 128 130 132 122 127 123 126 124 94 69 0
131 128 130 132 122 127 123 126 124 42 35 0
131 128 130 132 122 127 123 126 124 84 67 0
131 128 130 132 122 127 123 126 124 58 50 0
131 128 130 132 122 127 123 126 112 76 62 0
131 128 130 132 122 127 123 126 102 70 57 0
131 128 130 132 122 127 123 126 110 74 60 0
131 128 130 132 122 127 123 126 115 79 65 0
131 128 130 132 122 127 123 126 21 8 6 0
131 128 130 132 122 127 123 126 94 69 55 0
131 128 130 132 122 127 123 126 42 35 33 0
131 128 130 132 122 127 123 126 84 67 52 0
131 128 130 132 122 127 123 124 112 76 89 0
131 128 130 132 122 127 123 124 102 70 82 0
131 128 130 132 122 127 123 124 110 74 86 0
131 128 130 132 122 127 123 124 115 79 90 0
131 128 130 132 122 127 123 124 21 8 13 0
131 128 130 132 122 127 123 124 94 69 81 0
131 128 130 132 122 127 123 124 42 35 36 0
131 128 130 132 122 127 123 124 58 50 53 0
131 128 130 132 122 127 123 112 76 89 62 0
131 128 130 132 122 127 123 102 70 82 57 0
131 128 130 132 122 127 123 110 74 86 60 0
131 128 130 132 122 127 123 115 79 90 65 0
131 128 130 132 122 127 123 21 8 13 6 0
131 128 130 132 122 127 123 94 69 81 55 0
131 128 130 132 122 127 123 42 35 36 33 0
131 128 130 132 122 127 126 124 112 76 47 0
131 128 130 132 122 127 126 124 102 70 40 0
131 128 130 132 122 127 126 124 110 74 45 0
131 128 130 132 122 127 126 124 115 79 49 0
131 128 130 132 122 127 126 124 21 8 3 0
131 128 130 132 122 127 126 124 94 69 38 0
131 128 130 132 122 127 126 124 84 67 37 0
131 128 130 132 122 127 126 124 58 50 32 0
131 128 130 132 122 127 126 112 76 47 62 0
131 128 130 132 122 127 126 102 70 40 57 0
131 128 130 132 122 127 126 110 74 45 60 0
131 128 130 132 122 127 126 115 79 49 65 0
131 128 130 132 122 127 126 21 8 3 6 0
131 128 130 132 122 127 126 94 69 38 55 0
131 128 130 132 122 127 126 84 67 37 52 0
131 128 130 132 122 127 124 112 76 47 89 0
131 128 130 132 122 127 124 102 70 40 82 0
131 128 130 132 122 127 124 110 74 45 86 0
131 128 130 132 122 127 124 115 79 49 90 0
131 128 130 132 122 127 124 21 8 3 13 0
131 128 130 132 122 127 124 94 69 38 81 0
131 128 130 132 122 127 124 58 50 32 53 0
131 128 130 132 122 127 112 76 47 89 62 0
131 128 130 132 122 127 102 70 40 82 57 0
131 128 130 132 122 127 110 74 45 86 60 0
131 128 130 132 122 127 115 79 49 90 65 0
131 128 130 132 122 127 21 8 3 13 6 0
131 128 130 132 122 127 94 69 38 81 55 0
131 128 130 132 122 123 126 124 112 76 99 0
131 128 130 132 122 123 126 124 102 70 92 0
131 128 130 132 122 123 126 124 110 74 97 0
131 128 130 132 122 123 126 124 115 79 101 0
131 128 130 132 122 123 126 124 21 8 14 0
131 128 130 132 122 123 126 124 42 35 39 0
131 128 130 132 122 123 126 124 84 67 80 0
131 128 130 132 122 123 126 124 58 50 54 0
131 128 130 132 122 123 126 112 76 99 62 0
131 128 130 132 122 123 126 102 70 92 57 0
131 128 130 132 122 123 126 110 74 97 60 0
131 128 130 132 122 123 126 115 79 101 65 0
131 128 130 132 122 123 126 21 8 14 6 0
131 128 130 132 122 123 126 42 35 39 33 0
131 128 130 132 122 123 126 84 67 80 52 0
131 128 130 132 122 123 124 112 76 99 89 0
131 128 130 132 122 123 124 102 70 92 82 0
131 128 130 132 122 123 124 110 74 97 86 0
131 128 130 132 122 123 124 115 79 101 90 0
131 128 130 132 122 123 124 21 8 14 13 0
131 128 130 132 122 123 124 42 35 39 36 0
131 128 130 132 122 123 124 58 50 54 53 0
131 128 130 132 122 123 112 76 99 89 62 0
131 128 130 132 122 123 102 70 92 82 57 0
131 128 130 132 122 123 110 74 97 86 60 0
131 128 130 132 122 123 115 79 101 90 65 0
131 128 130 132 122 123 21 8 14 13 6 0
131 128 130 132 122 123 42 35 39 36 33 0
131 128 130 132 122 126 124 112 76 99 47 0
131 128 130 132 122 126 124 102 70 92 40 0
131 128 130 132 122 126 124 110 74 97 45 0
131 128 130 132 122 126 124 115 79 101 49 0
131 128 130 132 122 126 124 21 8 14 3 0
131 128 130 132 122 126 124 84 67 80 37 0
131 128 130 132 122 126 124 58 50 54 32 0
131 128 130 132 122 126 112 76 99 47 62 0
131 128 130 132 122 126 102 70 92 40 57 0
131 128 130 132 122 126 110 74 97 45 60 0
131 128 130 132 122 126 115 79 101 49 65 0
131 128 130 132 122 126 21 8 14 3 6 0
131 128 130 132 122 126 84 67 80 37 52 0
131 128 130 132 122 124 112 76 99 47 89 0
131 128 130 132 122 124 102 70 92 40 82 0
131 128 130 132 122 124 110 74 97 45 86 0
131 128 130 132 122 124 115 79 101 49 90 0
131 128 130 132 122 124 21 8 14 3 13 0
131 128 130 132 122 124 58 50 54 32 53 0
131 128 130 132 122 112 76 99 47 89 62 0
131 128 130 132 122 102 70 92 40 82 57 0
131 128 130 132 122 110 74 97 45 86 60 0
131 128 130 132 122 115 79 101 49 90 65 0
131 128 130 132 122 21 8 14 3 13 6 0
131 128 130 132 127 123 126 124 112 76 26 0
131 128 130 132 127 123 126 124 102 70 18 0
131 128 130 132 127 123 126 124 110 74 25 0
131 128 130 132 127 123 126 124 115 79 29 0
131 128 130 132 127 123 126 124 94 69 16 0
131 128 130 132 127 123 126 124 42 35 2 0
131 128 130 132 127 123 126 124 84 67 11 0
131 128 130 132 127 123 126 124 58 50 5 0
131 128 130 132 127 123 126 112 76 26 62 0
131 128 130 132 127 123 126 102 70 18 57 0
131 128 130 132 127 123 126 110 74 25 60 0
131 128 130 132 127 123 126 115 79 29 65 0
131 128 130 132 127 123 126 94 69 16 55 0
131 128 130 132 127 123 126 42 35 2 33 0
131 128 130 132 127 123 126 84 67 11 52 0
131 128 130 132 127 123 124 112 76 26 89 0
131 128 130 132 127 123 124 102 70 18 82 0
131 128 130 132 127 123 124 110 74 25 86 0
131 128 130 132 127 123 124 115 79 29 90 0
131 128 130 132 127 123 124 94 69 16 81 0
131 128 130 132 127 123 124 42 35 2 36 0
131 128 130 132 127 123 124 58 50 5 53 0
131 128 130 132 127 123 112 76 26 89 62 0
131 128 130 132 127 123 102 70 18 82 57 0
131 128 130 132 127 123 110 74 25 86 60 0
131 128 130 132 127 123 115 79 29 90 65 0
131 128 130 132 127 123 94 69 16 81 55 0
131 128 130 132 127 123 42 35 2 36 33 0
131 128 130 132 127 126 124 112 76 26 47 0
131 128 130 132 127 126 124 102 70 18 40 0
131 128 130 132 127 126 124 110 74 25 45 0
131 128 130 132 127 126 124 115 79 29 49 0
131 128 130 132 127 126 124 94 69 16 38 0
131 128 130 132 127 126 124 84 67 11 37 0
131 128 130 132 127 126 124 58 50 5 32 0
131 128 130 132 127 126 112 76 26 47 62 0
131 128 130 132 127 126 102 70 18 40 57 0
131 128 130 132 127 126 110 74 25 45 60 0
131 128 130 132 127 126 115 79 29 49 65 0
131 128 130 132 127 126 94 69 16 38 55 0
131 128 130 132 127 126 84 67 11 37 52 0
131 128 130 132 127 124 112 76 26 47 89 0
131 128 130 132 127 124 102 70 18 40 82 0
131 128 130 132 127 124 110 74 25 45 86 0
131 128 130 132 127 124 115 79 29 49 90 0
131 128 130 132 127 124 94 69 16 38 81 0
131 128 130 132 127 124 58 50 5 32 53 0
131 128 130 132 127 112 76 26 47 89 62 0
131 128 130 132 127 102 70 18 40 82 57 0
131 128 130 132 127 110 74 25 45 86 60 0
131 128 130 132 127 115 79 29 49 90 65 0
131 128 130 132 127 94 69 16 38 81 55 0
131 128 130 132 123 126 124 112 76 26 99 0
131 128 130 132 123 126 124 102 70 18 92 0
131 128 130 132 123 126 124 110 74 25 97 0
131 128 130 132 123 126 124 115 79 29 101 0
131 128 130 132 123 126 124 42 35 2 39 0
131 128 130 132 123 126 124 84 67 11 80 0
131 128 130 132 123 126 124 58 50 5 54 0
131 128 130 132 123 126 112 76 26 99 62 0
131 128 130 132 123 126 102 70 18 92 57 0
131 128 130 132 123 126 110 74 25 97 60 0
131 128 130 132 123 126 115 79 29 101 65 0
131 128 130 132 123 126 42 35 2 39 33 0
131 128 130 132 123 126 84 67 11 80 52 0
131 128 130 132 123 124 112 76 26 99 89 0
131 128 130 132 123 124 102 70 18 92 82 0
131 128 130 132 123 124 110 74 25 97 86 0
131 128 130 132 123 124 115 79 29 101 90 0
131 128 130 132 123 124 42 35 2 39 36 0
131 128 130 132 123 124 58 50 5 54 53 0
131 128 130 132 123 112 76 26 99 89 62 0
131 128 130 132 123 102 70 18 92 82 57 0
131 128 130 132 123 110 74 25 97 86 60 0
131 128 130 132 123 115 79 29 101 90 65 0
131 128 130 132 123 42 35 2 39 36 33 0
131 128 130 132 126 124 112 76 26 99 47 0
131 128 130 132 126 124 102 70 18 92 40 0
131 128 130 132 126 124 110 74 25 97 45 0
131 128 130 132 126 124 115 79 29 101 49 0
131 128 130 132 126 124 84 67 11 80 37 0
131 128 130 132 126 124 58 50 5 54 32 0
131 128 130 132 126 112 76 26 99 47 62 0
131 128 130 132 126 102 70 18 92 40 57 0
131 128 130 132 126 110 74 25 97 45 60 0
131 128 130 132 126 115 79 29 101 49 65 0
131 128 130 132 126 84 67 11 80 37 52 0
131 128 130 132 124 112 76 26 99 47 89 0
131 128 130 132 124 102 70 18 92 40 82 0
131 128 130 132 124 110 74 25 97 45 86 0
131 128 130 132 124 115 79 29 101 49 90 0
131 128 130 132 124 58 50 5 54 32 53 0
131 128 130 132 112 76 26 99 47 89 62 0
131 128 130 132 102 70 18 92 40 82 57 0
131 128 130 132 110 74 25 97 45 86 60 0
131 128 130 132 115 79 29 101 49 90 65 0
131 128 130 122 127 123 126 124 112 76 121 0
131 128 130 122 127 123 126 124 102 70 109 0
131 128 130 122 127 123 126 124 110 74 118 0
131 128 130 122 127 123 126 124 21 8 31 0
131 128 130 122 127 123 126 124 94 69 100 0
131 128 130 122 127 123 126 124 42 35 48 0
131 128 130 122 127 123 126 124 84 67 91 0
131 128 130 122 127 123 126 124 58 50 64 0
131 128 130 122 127 123 126 112 76 121 62 0
131 128 130 122 127 123 126 102 70 109 57 0
131 128 130 122 127 123 126 110 74 118 60 0
131 128 130 122 127 123 126 21 8 31 6 0
131 128 130 122 127 123 126 94 69 100 55 0
131 128 130 122 127 123 126 42 35 48 33 0
131 128 130 122 127 123 126 84 67 91 52 0
131 128 130 122 127 123 124 112 76 121 89 0
131 128 130 122 127 123 124 102 70 109 82 0
131 128 130 122 127 123 124 110 74 118 86 0
131 128 130 122 127 123 124 21 8 31 13 0
131 128 130 122 127 123 124 94 69 100 81 0
131 128 130 122 127 123 124 42 35 48 36 0
131 128 130 122 127 123 124 58 50 64 53 0
131 128 130 122 127 123 112 76 121 89 62 0
131 128 130 122 127 123 102 70 109 82 57 0
131 128 130 122 127 123 110 74 118 86 60 0
131 128 130 122 127 123 21 8 31 13 6 0
131 128 130 122 127 123 94 69 100 81 55 0
131 128 130 122 127 123 42 35 48 36 33 0
131 128 130 122 127 126 124 112 76 121 47 0
131 128 130 122 127 126 124 102 70 109 40 0
131 128 130 122 127 126 124 110 74 118 45 0
131 128 130 122 127 126 124 21 8 31 3 0
131 128 130 122 127 126 124 94 69 100 38 0
131 128 130 122 127 126 124 84 67 91 37 0
131 128 130 122 127 126 124 58 50 64 32 0
131 128 130 122 127 126 112 76 121 47 62 0
131 128 130 122 127 126 102 70 109 40 57 0
131 128 130 122 127 126 110 74 118 45 60 0
131 128 130 122 127 126 21 8 31 3 6 0
131 128 130 122 127 126 94 69 100 38 55 0
131 128 130 122 127 126 84 67 91 37 52 0
131 128 130 122 127 124 112 76 121 47 89 0
131 128 130 122 127 124 102 70 109 40 82 0
131 128 130 122 127 124 110 74 118 45 86 0
131 128 130 122 127 124 21 8 31 3 13 0
131 128 130 122 127 124 94 69 100 38 81 0
131 128 130 122 127 124 58 50 64 32 53 0
131 128 130 122 127 112 76 121 47 89 62 0
131 128 130 122 127 102 70 109 40 82 57 0
131 128 130 122 127 110 74 118 45 86 60 0
131 128 130 122 127 21 8 31 3 13 6 0
131 128 130 122 127 94 69 100 38 81 55 0
131 128 130 122 123 126 124 112 76 121 99 0
131 128 130 122 123 126 124 102 70 109 92 0
131 128 130 122 123 126 124 110 74 118 97 0
131 128 130 122 123 126 124 21 8 31 14 0
131 128 130 122 123 126 124 42 35 48 39 0
131 128 130 122 123 126 124 84 67 91 80 0
131 128 130 122 123 126 124 58 50 64 54 0
131 128 130 122 123 126 112 76 121 99 62 0
131 128 130 122 123 126 102 70 109 92 57 0
131 128 130 122 123 126 110 74 118 97 60 0
131 128 130 122 123 126 21 8 31 14 6 0
131 128 130 122 123 126 42 35 48 39 33 0
131 128 130 122 123 126 84 67 91 80 52 0
131 128 130 122 123 124 112 76 121 99 89 0
131 128 130 122 123 124 102 70 109 92 82 0
131 128 130 122 123 124 110 74 118 97 86 0
131 128 130 122 123 124 21 8 31 14 13 0
131 128 130 122 123 124 42 35 48 39 36 0
131 128 130 122 123 124 58 50 64 54 53 0
131 128 130 122 123 112 76 121 99 89 62 0
131 128 130 122 123 102 70 109 92 82 57 0
131 128 130 122 123 110 74 118 97 86 60 0
131 128 130 122 123 21 8 31 14 13 6 0
131 128 130 122 123 42 35 48 39 36 33 0
131 128 130 122 126 124 112 76 121 99 47 0
131 128 130 122 126 124 102 70 109 92 40 0
131 128 130 122 126 124 110 74 118 97 45 0
131 128 130 122 126 124 21 8 31 14 3 0
131 128 130 122 126 124 84 67 91 80 37 0
131 128 130 122 126 124 58 50 64 54 32 0
131 128 130 122 126 112 76 121 99 47 62 0
131 128 130 122 126 102 70 109 92 40 57 0
131 128 130 122 126 110 74 118 97 45 60 0
131 128 130 122 126 21 8 31 14 3 6 0
131 128 130 122 126 84 67 91 80 37 52 0
131 128 130 122 124 112 76 121 99 47 89 0
131 128 130 122 124 102 70 109 92 40 82 0
131 128 130 122 124 110 74 118 97 45 86 0
131 128 130 122 124 21 8 31 14 3 13 0
131 128 130 122 124 58 50 64 54 32 53 0
131 128 130 122 112 76 121 99 47 89 62 0
131 128 130 122 102 70 109 92 40 82 57 0
131 128 130 122 110 74 118 97 45 86 60 0
131 128 130 122 21 8 31 14 3 13 6 0
131 128 130 127 123 126 124 112 76 121 26 0
131 128 130 127 123 126 124 102 70 109 18 0
131 128 130 127 123 126 124 110 74 118 25 0
131 128 130 127 123 126 124 94 69 100 16 0
131 128 130 127 123 126 124 42 35 48 2 0
131 128 130 127 123 126 124 84 67 91 11 0
131 128 130 127 123 126 124 58 50 64 5 0
131 128 130 127 123 126 112 76 121 26 62 0
131 128 130 127 123 126 102 70 109 18 57 0
131 128 130 127 123 126 110 74 118 25 60 0
131 128 130 127 123 126 94 69 100 16 55 0
131 128 130 127 123 126 42 35 48 2 33 0
131 128 130 127 123 126 84 67 91 11 52 0
131 128 130 127 123 124 112 76 121 26 89 0
131 128 130 127 123 124 102 70 109 18 82 0
131 128 130 127 123 124 110 74 118 25 86 0
131 128 130 127 123 124 94 69 100 16 81 0
131 128 130 127 123 124 42 35 48 2 36 0
131 128 130 127 123 124 58 50 64 5 53 0
131 128 130 127 123 112 76 121 26 89 62 0
131 128 130 127 123 102 70 109 18 82 57 0
131 128 130 127 123 110 74 118 25 86 60 0
131 128 130 127 123 94 69 100 16 81 55 0
131 128 130 127 123 42 35 48 2 36 33 0
131 128 130 127 126 124 112 76 121 26 47 0
131 128 130 127 126 124 102 70 109 18 40 0
131 128 130 127 126 124 110 74 118 25 45 0
131 128 130 127 126 124 94 69 100 16 38 0
131 128 130 127 126 124 84 67 91 11 37 0
131 128 130 127 126 124 58 50 64 5 32 0
131 128 130 127 126 112 76 121 26 47 62 0
131 128 130 127 126 102 70 109 18 40 57 0
131 128 130 127 126 110 74 118 25 45 60 0
131 128 130 127 126 94 69 100 16 38 55 0
131 128 130 127 126 84 67 91 11 37 52 0
131 128 130 127 124 112 76 121 26 47 89 0
131 128 130 127 124 102 70 109 18 40 82 0
131 128 130 127 124 110 74 118 25 45 86 0
131 128 130 127 124 94 69 100 16 38 81 0
131 128 130 127 124 58 50 64 5 32 53 0
131 128 130 127 112 76 121 26 47 89 62 0
131 128 130 127 102 70 109 18 40 82 57 0
131 128 130 127 110 74 118 25 45 86 60 0
131 128 130 127 94 69 100 16 38 81 55 0
131 128 130 123 126 124 112 76 121 26 99 0
131 128 130 123 126 124 102 70 109 18 92 0
131 128 130 123 126 124 110 74 118 25 97 0
131 128 130 123 126 124 42 35 48 2 39 0
131 128 130 123 126 124 84 67 91 11 80 0
131 128 130 123 126 124 58 50 64 5 54 0
131 128 130 123 126 112 76 121 26 99 62 0
131 128 130 123 126 102 70 109 18 92 57 0
131 128 130 123 126 110 74 118 25 97 60 0
131 128 130 123 126 42 35 48 2 39 33 0
131 128 130 123 126 84 67 91 11 80 52 0
131 128 130 123 124 112 76 121 26 99 89 0
131 128 130 123 124 102 70 109 18 92 82 0
131 128 130 123 124 110 74 118 25 97 86 0
131 128 130 123 124 42 35 48 2 39 36 0
131 128 130 123 124 58 50 64 5 54 53 0
131 128 130 123 112 76 121 26 99 89 62 0
131 128 130 123 102 70 109 18 92 82 57 0
131 128 130 123 110 74 118 25 97 86 60 0
131 128 130 123 42 35 48 2 39 36 33 0
131 128 130 126 124 112 76 121 26 99 47 0
131 128 130 126 124 102 70 109 18 92 40 0
131 128 130 126 124 110 74 118 25 97 45 0
131 128 130 126 124 84 67 91 11 80 37 0
131 128 130 126 124 58 50 64 5 54 32 0
131 128 130 126 112 76 121 26 99 47 62 0
131 128 130 126 102 70 109 18 92 40 57 0
131 128 130 126 110 74 118 25 97 45 60 0
131 128 130 126 84 67 91 11 80 37 52 0
131 128 130 124 112 76 121 26 99 47 89 0
131 128 130 124 102 70 109 18 92 40 82 0
131 128 130 124 110 74 118 25 97 45 86 0
131 128 130 124 58 50 64 5 54 32 53 0
131 128 130 112 76 121 26 99 47 89 62 0
131 128 130 102 70 109 18 92 40 82 57 0
131 128 130 110 74 118 25 97 45 86 60 0
131 128 132 122 127 123 126 124 112 76 116 0
131 128 132 122 127 123 126 124 102 70 105 0
131 128 132 122 127 123 126 124 115 79 119 0
131 128 132 122 127 123 126 124 21 8 23 0
131 128 132 122 127 123 126 124 94 69 96 0
131 128 132 122 127 123 126 124 42 35 44 0
131 128 132 122 127 123 126 124 84 67 87 0
131 128 132 122 127 123 126 124 58 50 61 0
131 128 132 122 127 123 126 112 76 116 62 0
131 128 132 122 127 123 126 102 70 105 57 0
131 128 132 122 127 123 126 115 79 119 65 0
131 128 132 122 127 123 126 21 8 23 6 0
131 128 132 122 127 123 126 94 69 96 55 0
131 128 132 122 127 123 126 42 35 44 33 0
131 128 132 122 127 123 126 84 67 87 52 0
131 128 132 122 127 123 124 112 76 116 89 0
131 128 132 122 127 123 124 102 70 105 82 0
131 128 132 122 127 123 124 115 79 119 90 0
131 128 132 122 127 123 124 21 8 23 13 0
131 128 132 122 127 123 124 94 69 96 81 0
131 128 132 122 127 123 124 42 35 44 36 0
131 128 132 122 127 123 124 58 50 61 53 0
131 128 132 122 127 123 112 76 116 89 62 0
131 128 132 122 127 123 102 70 105 82 57 0
131 128 132 122 127 123 115 79 119 90 65 0
131 128 132 122 127 123 21 8 23 13 6 0
131 128 132 122 127 123 94 69 96 81 55 0
131 128 132 122 127 123 42 35 44 36 33 0
131 128 132 122 127 126 124 112 76 116 47 0
131 128 132 122 127 126 124 102 70 105 40 0
131 128 132 122 127 126 124 115 79 119 49 0
131 128 132 122 127 126 124 21 8 23 3 0
131 128 132 122 127 126 124 94 69 96 38 0
131 128 132 122 127 126 124 84 67 87 37 0
131 128 132 122 127 126 124 58 50 61 32 0
131 128 132 122 127 126 112 76 116 47 62 0
131 128 132 122 127 126 102 70 105 40 57 0
131 128 132 122 127 126 115 79 119 49 65 0
131 128 132 122 127 126 21 8 23 3 6 0
131 128 132 122 127 126 94 69 96 38 55 0
131 128 132 122 127 126 84 67 87 37 52 0
131 128 132 122 127 124 112 76 116 47 89 0
131 128 132 122 127 124 102 70 105 40 82 0
131 128 132 122 127 124 115 79 119 49 90 0
131 128 132 122 127 124 21 8 23 3 13 0
131 128 132 122 127 124 94 69 96 38 81 0
131 128 132 122 127 124 58 50 61 32 53 0
131 128 132 122 127 112 76 116 47 89 62 0
131 128 132 122 127 102 70 105 40 82 57 0
131 128 132 122 127 115 79 119 49 90 65 0
131 128 132 122 127 21 8 23 3 13 6 0
131 128 132 122 127 94 69 96 38 81 55 0
131 128 132 122 123 126 124 112 76 116 99 0
131 128 132 122 123 126 124 102 70 105 92 0
131 128 132 122 123 126 124 115 79 119 101 0
131 128 132 122 123 126 124 21 8 23 14 0
131 128 132 122 123 126 124 42 35 44 39 0
131 128 132 122 123 126 124 84 67 87 80 0
131 128 132 122 123 126 124 58 50 61 54 0
131 128 132 122 123 126 112 76 116 99 62 0
131 128 132 122 123 126 102 70 105 92 57 0
131 128 132 122 123 126 115 79 119 101 65 0
131 128 132 122 123 126 21 8 23 14 6 0
131 128 132 122 123 126 42 35 44 39 33 0
131 128 132 122 123 126 84 67 87 80 52 0
131 128 132 122 123 124 112 76 116 99 89 0
131 128 132 122 123 124 102 70 105 92 82 0
131 128 132 122 123 124 115 79 119 101 90 0
131 128 132 122 123 124 21 8 23 14 13 0
131 128 132 122 123 124 42 35 44 39 36 0
131 128 132 122 123 124 58 50 61 54 53 0
131 128 132 122 123 112 76 116 99 89 62 0
131 128 132 122 123 102 70 105 92 82 57 0
131 128 132 122 123 115 79 119 101 90 65 0
131 128 132 122 123 21 8 23 14 13 6 0
131 128 132 122 123 42 35 44 39 36 33 0
131 128 132 122 126 124 112 76 116 99 47 0
131 128 132 122 126 124 102 70 105 92 40 0
131 128 132 122 126 124 115 79 119 101 49 0
131 128 132 122 126 124 21 8 23 14 3 0
131 128 132 122 126 124 84 67 87 80 37 0
131 128 132 122 126 124 58 50 61 54 32 0
131 128 132 122 126 112 76 116 99 47 62 0
131 128 132 122 126 102 70 105 92 40 57 0
131 128 132 122 126 115 79 119 101 49 65 0
131 128 132 122 126 21 8 23 14 3 6 0
131 128 132 122 126 84 67 87 80 37 52 0
131 128 132 122 124 112 76 116 99 47 89 0
131 128 132 122 124 102 70 105 92 40 82 0
131 128 132 122 124 115 79 119 101 49 90 0
131 128 132 122 124 21 8 23 14 3 13 0
131 128 132 122 124 58 50 61 54 32 53 0
131 128 132 122 112 76 116 99 47 89 62 0
131 128 132 122 102 70 105 92 40 82 57 0
131 128 132 122 115 79 119 101 49 90 65 0
131 128 132 122 21 8 23 14 3 13 6 0
131 128 132 127 123 126 124 112 76 116 26 0
131 128 132 127 123 126 124 102 70 105 18 0
131 128 132 127 123 126 124 115 79 119 29 0
131 128 132 127 123 126 124 94 69 96 16 0
131 128 132 127 123 126 124 42 35 44 2 0
131 128 132 127 123 126 124 84 67 87 11 0
131 128 132 127 123 126 124 58 50 61 5 0
131 128 132 127 123 126 112 76 116 26 62 0
131 128 132 127 123 126 102 70 105 18 57 0
131 128 132 127 123 126 115 79 119 29 65 0
131 128 132 127 123 126 94 69 96 16 55 0
131 128 132 127 123 126 42 35 44 2 33 0
131 128 132 127 123 126 84 67 87 11 52 0
131 128 132 127 123 124 112 76 116 26 89 0
131 128 132 127 123 124 102 70 105 18 82 0
131 128 132 127 123 124 115 79 119 29 90 0
131 128 132 127 123 124 94 69 96 16 81 0
131 128 132 127 123 124 42 35 44 2 36 0
131 128 132 127 123 124 58 50 61 5 53 0
131 128 132 127 123 112 76 116 26 89 62 0
131 128 132 127 123 102 70 105 18 82 57 0
131 128 132 127 123 115 79 119 29 90 65 0
131 128 132 127 123 94 69 96 16 81 55 0
131 128 132 127 123 42 35 44 2 36 33 0
131 128 132 127 126 124 112 76 116 26 47 0
131 128 132 127 126 124 102 70 105 18 40 0
131 128 132 127 126 124 115 79 119 29 49 0
131 128 132 127 126 124 94 69 96 16 38 0
131 128 132 127 126 124 84 67 87 11 37 0
131 128 132 127 126 124 58 50 61 5 32 0
131 128 132 127 126 112 76 116 26 47 62 0
131 128 132 127 126 102 70 105 18 40 57 0
131 128 132 127 126 115 79 119 29 49 65 0
131 128 132 127 126 94 69 96 16 38 55 0
131 128 132 127 126 84 67 87 11 37 52 0
131 128 132 127 124 112 76 116 26 47 89 0
131 128 132 127 124 102 70 105 18 40 82 0
131 128 132 127 124 115 79 119 29 49 90 0
131 128 132 127 124 94 69 96 16 38 81 0
131 128 132 127 124 58 50 61 5 32 53 0
131 128 132 127 112 76 116 26 47 89 62 0
131 128 132 127 102 70 105 18 40 82 57 0
131 128 132 127 115 79 119 29 49 90 65 0
131 128 132 127 94 69 96 16 38 81 55 0
131 128 132 123 126 124 112 76 116 26 99 0
131 128 132 123 126 124 102 70 105 18 92 0
131 128 132 123 126 124 115 79 119 29 101 0
131 128 132 123 126 124 42 35 44 2 39 0
131 128 132 123 126 124 84 67 87 11 80 0
131 128 132 123 126 124 58 50 61 5 54 0
131 128 132 123 126 112 76 116 26 99 62 0
131 128 132 123 126 102 70 105 18 92 57 0
131 128 132 123 126 115 79 119 29 101 65 0
131 128 132 123 126 42 35 44 2 39 33 0
131 128 132 123 126 84 67 87 11 80 52 0
131 128 132 123 124 112 76 116 26 99 89 0
131 128 132 123 124 102 70 105 18 92 82 0
131 128 132 123 124 115 79 119 29 101 90 0
131 128 132 123 124 42 35 44 2 39 36 0
131 128 132 123 124 58 50 61 5 54 53 0
131 128 132 123 112 76 116 26 99 89 62 0
131 128 132 123 102 70 105 18 92 82 57 0
131 128 132 123 115 79 119 29 101 90 65 0
131 128 132 123 42 35 44 2 39 36 33 0
131 128 132 126 124 112 76 116 26 99 47 0
131 128 132 126 124 102 70 105 18 92 40 0
131 128 132 126 124 115 79 119 29 101 49 0
131 128 132 126 124 84 67 87 11 80 37 0
131 128 132 126 124 58 50 61 5 54 32 0
131 128 132 126 112 76 116 26 99 47 62 0
131 128 132 126 102 70 105 18 92 40 57 0
131 128 132 126 115 79 119 29 101 49 65 0
131 128 132 126 84 67 87 11 80 37 52 0
131 128 132 124 112 76 116 26 99 47 89 0
131 128 132 124 102 70 105 18 92 40 82 0
131 128 132 124 115 79 119 29 101 49 90 0
131 128 132 124 58 50 61 5 54 32 53 0
131 128 132 112 76 116 26 99 47 89 62 0
131 128 132 102 70 105 18 92 40 82 57 0
131 128 132 115 79 119 29 101 49 90 65 0
131 128 122 127 123 126 124 112 76 116 121 0
131 128 122 127 123 126 124 102 70 105 109 0
131 128 122 127 123 126 124 21 8 23 31 0
131 128 122 127 123 126 124 94 69 96 100 0
131 128 122 127 123 126 124 42 35 44 48 0
131 128 122 127 123 126 124 84 67 87 91 0
131 128 122 127 123 126 124 58 50 61 64 0
131 128 122 127 123 126 112 76 116 121 62 0
131 128 122 127 123 126 102 70 105 109 57 0
131 128 122 127 123 126 21 8 23 31 6 0
131 128 122 127 123 126 94 69 96 100 55 0
131 128 122 127 123 126 42 35 44 48 33 0
131 128 122 127 123 126 84 67 87 91 52 0
131 128 122 127 123 124 112 76 116 121 89 0
131 128 122 127 123 124 102 70 105 109 82 0
131 128 122 127 123 124 21 8 23 31 13 0
131 128 122 127 123 124 94 69 96 100 81 0
131 128 122 127 123 124 42 35 44 48 36 0
131 128 122 127 123 124 58 50 61 64 53 0
131 128 122 127 123 112 76 116 121 89 62 0
131 128 122 127 123 102 70 105 109 82 57 0
131 128 122 127 123 21 8 23 31 13 6 0
131 128 122 127 123 94 69 96 100 81 55 0
131 128 122 127 123 42 35 44 48 36 33 0
131 128 122 127 126 124 112 76 116 121 47 0
131 128 122 127 126 124 102 70 105 109 40 0
131 128 122 127 126 124 21 8 23 31 3 0
131 128 122 127 126 124 94 69 96 100 38 0
131 128 122 127 126 124 84 67 87 91 37 0
131 128 122 127 126 124 58 50 61 64 32 0
131 128 122 127 126 112 76 116 121 47 62 0
131 128 122 127 126 102 70 105 109 40 57 0
131 128 122 127 126 21 8 23 31 3 6 0
131 128 122 127 126 94 69 96 100 38 55 0
131 128 122 127 126 84 67 87 91 37 52 0
131 128 122 127 124 112 76 116 121 47 89 0
131 128 122 127 124 102 70 105 109 40 82 0
131 128 122 127 124 21 8 23 31 3 13 0
131 128 122 127 124 94 69 96 100 38 81 0
131 128 122 127 124 58 50 61 64 32 53 0
131 128 122 127 112 76 116 121 47 89 62 0
131 128 122 127 102 70 105 109 40 82 57 0
131 128 122 127 21 8 23 31 3 13 6 0
131 128 122 127 94 69 96 100 38 81 55 0
131 128 122 123 126 124 112 76 116 121 99 0
131 128 122 123 126 124 102 70 105 109 92 0
131 128 122 123 126 124 21 8 23 31 14 0
131 128 122 123 126 124 42 35 44 48 39 0
131 128 122 123 126 124 84 67 87 91 80 0
131 128 122 123 126 124 58 50 61 64 54 0
131 128 122 123 126 112 76 116 121 99 62 0
131 128 122 123 126 102 70 105 109 92 57 0
131 128 122 123 126 21 8 23 31 14 6 0
131 128 122 123 126 42 35 44 48 39 33 0
131 128 122 123 126 84 67 87 91 80 52 0
131 128 122 123 124 112 76 116 121 99 89 0
131 128 122 123 124 102 70 105 109 92 82 0
131 128 122 123 124 21 8 23 31 14 13 0
131 128 122 123 124 42 35 44 48 39 36 0
131 128 122 123 124 58 50 61 64 54 53 0
131 128 122 123 112 76 116 121 99 89 62 0
131 128 122 123 102 70 105 109 92 82 57 0
131 128 122 123 21 8 23 31 14 13 6 0
131 128 122 123 42 35 44 48 39 36 33 0
131 128 122 126 124 112 76 116 121 99 47 0
131 128 122 126 124 102 70 105 109 92 40 0
131 128 122 126 124 21 8 23 31 14 3 0
131 128 122 126 124 84 67 87 91 80 37 0
131 128 122 126 124 58 50 61 64 54 32 0
131 128 122 126 112 76 116 121 99 47 62 0
131 128 122 126 102 70 105 109 92 40 57 0
131 128 122 126 21 8 23 31 14 3 6 0
131 128 122 126 84 67 87 91 80 37 52 0
131 128 122 124 112 76 116 121 99 47 89 0
131 128 122 124 102 70 105 109 92 40 82 0
131 128 122 124 21 8 23 31 14 3 13 0
131 128 122 124 58 50 61 64 54 32 53 0
131 128 122 112 76 116 121 99 47 89 62 0
131 128 122 102 70 105 109 92 40 82 57 0
131 128 122 21 8 23 31 14 3 13 6 0
131 128 127 123 126 124 112 76 116 121 26 0
131 128 127 123 126 124 102 70 105 109 18 0
131 128 127 123 126 124 94 69 96 100 16 0
131 128 127 123 126 124 42 35 44 48 2 0
131 128 127 123 126 124 84 67 87 91 11 0
131 128 127 123 126 124 58 50 61 64 5 0
131 128 127 123 126 112 76 116 121 26 62 0
131 128 127 123 126 102 70 105 109 18 57 0
131 128 127 123 126 94 69 96 100 16 55 0
131 128 127 123 126 42 35 44 48 2 33 0
131 128 127 123 126 84 67 87 91 11 52 0
131 128 127 123 124 112 76 116 121 26 89 0
131 128 127 123 124 102 70 105 109 18 82 0
131 128 127 123 124 94 69 96 100 16 81 0
131 128 127 123 124 42 35 44 48 2 36 0
131 128 127 123 124 58 50 61 64 5 53 0
131 128 127 123 112 76 116 121 26 89 62 0
131 128 127 123 102 70 105 109 18 82 57 0
131 128 127 123 94 69 96 100 16 81 55 0
131 128 127 123 42 35 44 48 2 36 33 0
131 128 127 126 124 112 76 116 121 26 47 0
131 128 127 126 124 102 70 105 109 18 40 0
131 128 127 126 124 94 69 96 100 16 38 0
131 128 127 126 124 84 67 87 91 11 37 0
131 128 127 126 124 58 50 61 64 5 32 0
131 128 127 126 112 76 116 121 26 47 62 0
131 128 127 126 102 70 105 109 18 40 57 0
131 128 127 126 94 69 96 100 16 38 55 0
131 128 127 126 84 67 87 91 11 37 52 0
131 128 127 124 112 76 116 121 26 47 89 0
131 128 127 124 102 70 105 109 18 40 82 0
131 128 127 124 94 69 96 100 16 38 81 0
131 128 127 124 58 50 61 64 5 32 53 0
131 128 127 112 76 116 121 26 47 89 62 0
131 128 127 102 70 105 109 18 40 82 57 0
131 128 127 94 69 96 100 16 38 81 55 0
131 128 123 126 124 112 76 116 121 26 99 0
131 128 123 126 124 102 70 105 109 18 92 0
131 128 123 126 124 42 35 44 48 2 39 0
131 128 123 126 124 84 67 87 91 11 80 0
131 128 123 126 124 58 50 61 64 5 54 0
131 128 123 126 112 76 116 121 26 99 62 0
131 128 123 126 102 70 105 109 18 92 57 0
131 128 123 126 42 35 44 48 2 39 33 0
131 128 123 126 84 67 87 91 11 80 52 0
131 128 123 124 112 76 116 121 26 99 89 0
131 128 123 124 102 70 105 109 18 92 82 0
131 128 123 124 42 35 44 48 2 39 36 0
131 128 123 124 58 50 61 64 5 54 53 0
131 128 123 112 76 116 121 26 99 89 62 0
131 128 123 102 70 105 109 18 92 82 57 0
131 128 123 42 35 44 48 2 39 36 33 0
131 128 126 124 112 76 116 121 26 99 47 0
131 128 126 124 102 70 105 109 18 92 40 0
131 128 126 124 84 67 87 91 11 80 37 0
131 128 126 124 58 50 61 64 5 54 32 0
131 128 126 112 76 116 121 26 99 47 62 0
131 128 126 102 70 105 109 18 92 40 57 0
131 128 126 84 67 87 91 11 80 37 52 0
131 128 124 112 76 116 121 26 99 47 89 0
131 128 124 102 70 105 109 18 92 40 82 0
131 128 124 58 50 61 64 5 54 32 53 0
131 128 112 76 116 121 26 99 47 89 62 0
131 128 102 70 105 109 18 92 40 82 57 0
131 125 130 132 122 127 123 126 124 112 107 0
131 125 130 132 122 127 123 126 124 73 71 0
131 125 130 132 122 127 123 126 124 110 104 0
131 125 130 132 122 127 123 126 124 115 108 0
131 125 130 132 122 127 123 126 124 21 17 0
131 125 130 132 122 127 123 126 124 94 93 0
131 125 130 132 122 127 123 126 124 42 41 0
131 125 130 132 122 127 123 126 124 84 83 0
131 125 130 132 122 127 123 126 124 58 56 0
131 125 130 132 122 127 123 126 112 107 62 0
131 125 130 132 122 127 123 126 73 71 51 0
131 125 130 132 122 127 123 126 110 104 60 0
131 125 130 132 122 127 123 126 115 108 65 0
131 125 130 132 122 127 123 126 21 17 6 0
131 125 130 132 122 127 123 126 94 93 55 0
131 125 130 132 122 127 123 126 42 41 33 0
131 125 130 132 122 127 123 126 84 83 52 0
131 125 130 132 122 127 123 124 112 107 89 0
131 125 130 132 122 127 123 124 73 71 66 0
131 125 130 132 122 127 123 124 110 104 86 0
131 125 130 132 122 127 123 124 115 108 90 0
131 125 130 132 122 127 123 124 21 17 13 0
131 125 130 132 122 127 123 124 94 93 81 0
131 125 130 132 122 127 123 124 42 41 36 0
131 125 130 132 122 127 123 124 58 56 53 0
131 125 130 132 122 127 123 112 107 89 62 0
131 125 130 132 122 127 123 73 71 66 51 0
131 125 130 132 122 127 123 110 104 86 60 0
131 125 130 132 122 127 123 115 108 90 65 0
131 125 130 132 122 127 123 21 17 13 6 0
131 125 130 132 122 127 123 94 93 81 55 0
131 125 130 132 122 127 123 42 41 36 33 0
131 125 130 132 122 127 126 124 112 107 47 0
131 125 130 132 122 127 126 124 73 71 34 0
131 125 130 132 122 127 126 124 110 104 45 0
131 125 130 132 122 127 126 124 115 108 49 0
131 125 130 132 122 127 126 124 21 17 3 0
131 125 130 132 122 127 126 124 94 93 38 0
131 125 130 132 122 127 126 124 84 83 37 0
131 125 130 132 122 127 126 124 58 56 32 0
131 125 130 132 122 127 126 112 107 47 62 0
131 125 130 132 122 127 126 73 71 34 51 0
131 125 130 132 122 127 126 110 104 45 60 0
131 125 130 132 122 127 126 115 108 49 65 0
131 125 130 132 122 127 126 21 17 3 6 0
131 125 130 132 122 127 126 94 93 38 55 0
131 125 130 132 122 127 126 84 83 37 52 0
131 125 130 132 122 127 124 112 107 47 89 0
131 125 130 132 122 127 124 73 71 34 66 0
131 125 130 132 122 127 124 110 104 45 86 0
131 125 130 132 122 127 124 115 108 49 90 0
131 125 130 132 122 127 124 21 17 3 13 0
131 125 130 132 122 127 124 94 93 38 81 0
131 125 130 132 122 127 124 58 56 32 53 0
131 125 130 132 122 127 112 107 47 89 62 0
131 125 130 132 122 127 73 71 34 66 51 0
131 125 130 132 122 127 110 104 45 86 60 0
131 125 130 132 122 127 115 108 49 90 65 0
131 125 130 132 122 127 21 17 3 13 6 0
131 125 130 132 122 127 94 93 38 81 55 0
131 125 130 132 122 123 126 124 112 107 99 0
131 125 130 132 122 123 126 124 73 71 68 0
131 125 130 132 122 123 126 124 110 104 97 0
131 125 130 132 122 123 126 124 115 108 101 0
131 125 130 132 122 123 126 124 21 17 14 0
131 125 130 132 122 123 126 124 42 41 39 0
131 125 130 132 122 123 126 124 84 83 80 0
131 125 130 132 122 123 126 124 58 56 54 0
131 125 130 132 122 123 126 112 107 99 62 0
131 125 130 132 122 123 126 73 71 68 51 0
131 125 130 132 122 123 126 110 104 97 60 0
131 125 130 132 122 123 126 115 108 101 65 0
131 125 130 132 122 123 126 21 17 14 6 0
131 125 130 132 122 123 126 42 41 39 33 0
131 125 130 132 122 123 126 84 83 80 52 0
131 125 130 132 122 123 124 112 107 99 89 0
131 125 130 132 122 123 124 73 71 68 66 0
131 125 130 132 122 123 124 110 104 97 86 0
131 125 130 132 122 123 124 115 108 101 90 0
131 125 130 132 122 123 124 21 17 14 13 0
131 125 130 132 122 123 124 42 41 39 36 0
131 125 130 132 122 123 124 58 56 54 53 0
131 125 130 132 122 123 112 107 99 89 62 0
131 125 130 132 122 123 73 71 68 66 51 0
131 125 130 132 122 123 110 104 97 86 60 0
131 125 130 132 122 123 115 108 101 90 65 0
131 125 130 132 122 123 21 17 14 13 6 0
131 125 130 132 122 123 42 41 39 36 33 0
131 125 130 132 122 126 124 112 107 99 47 0
131 125 130 132 122 126 124 73 71 68 34 0
131 125 130 132 122 126 124 110 104 97 45 0
131 125 130 132 122 126 124 115 108 101 49 0
131 125 130 132 122 126 124 21 17 14 3 0
131 125 130 132 122 126 124 84 83 80 37 0
131 125 130 132 122 126 124 58 56 54 32 0
131 125 130 132 122 126 112 107 99 47 62 0
131 125 130 132 122 126 73 71 68 34 51 0
131 125 130 132 122 126 110 104 97 45 60 0
131 125 130 132 122 126 115 108 101 49 65 0
131 125 130 132 122 126 21 17 14 3 6 0
131 125 130 132 122 126 84 83 80 37 52 0
131 125 130 132 122 124 112 107 99 47 89 0
131 125 130 132 122 124 73 71 68 34 66 0
131 125 130 132 122 124 110 104 97 45 86 0
131 125 130 132 122 124 115 108 101 49 90 0
131 125 130 132 122 124 21 17 14 3 13 0
131 125 130 132 122 124 58 56 54 32 53 0
131 125 130 132 122 112 107 99 47 89 62 0
131 125 130 132 122 73 71 68 34 66 51 0
131 125 130 132 122 110 104 97 45 86 60 0
131 125 130 132 122 115 108 101 49 90 65 0
131 125 130 132 122 21 17 14 3 13 6 0
131 125 130 132 127 123 126 124 112 107 26 0
131 125 130 132 127 123 126 124 73 71 9 0
131 125 130 132 127 123 126 124 110 104 25 0
131 125 130 132 127 123 126 124 115 108 29 0
131 125 130 132 127 123 126 124 94 93 16 0
131 125 130 132 127 123 126 124 42 41 2 0
131 125 130 132 127 123 126 124 84 83 11 0
131 125 130 132 127 123 126 124 58 56 5 0
131 125 130 132 127 123 126 112 107 26 62 0
131 125 130 132 127 123 126 73 71 9 51 0
131 125 130 132 127 123 126 110 104 25 60 0
131 125 130 132 127 123 126 115 108 29 65 0
131 125 130 132 127 123 126 94 93 16 55 0
131 125 130 132 127 123 126 42 41 2 33 0
131 125 130 132 127 123 126 84 83 11 52 0
131 125 130 132 127 123 124 112 107 26 89 0
131 125 130 132 127 123 124 73 71 9 66 0
131 125 130 132 127 123 124 110 104 25 86 0
131 125 130 132 127 123 124 115 108 29 90 0
131 125 130 132 127 123 124 94 93 16 81 0
131 125 130 132 127 123 124 42 41 2 36 0
131 125 130 132 127 123 124 58 56 5 53 0
131 125 130 132 127 123 112 107 26 89 62 0
131 125 130 132 127 123 73 71 9 66 51 0
131 125 130 132 127 123 110 104 25 86 60 0
131 125 130 132 127 123 115 108 29 90 65 0
131 125 130 132 127 123 94 93 16 81 55 0
131 125 130 132 127 123 42 41 2 36 33 0
131 125 130 132 127 126 124 112 107 26 47 0
131 125 130 132 127 126 124 73 71 9 34 0
131 125 130 132 127 126 124 110 104 25 45 0
131 125 130 132 127 126 124 115 108 29 49 0
131 125 130 132 127 126 124 94 93 16 38 0
131 125 130 132 127 126 124 84 83 11 37 0
131 125 130 132 127 126 124 58 56 5 32 0
131 125 130 132 127 126 112 107 26 47 62 0
131 125 130 132 127 126 73 71 9 34 51 0
131 125 130 132 127 126 110 104 25 45 60 0
131 125 130 132 127 126 115 108 29 49 65 0
131 125 130 132 127 126 94 93 16 38 55 0
131 125 130 132 127 126 84 83 11 37 52 0
131 125 130 132 127 124 112 107 26 47 89 0
131 125 130 132 127 124 73 71 9 34 66 0
131 125 130 132 127 124 110 104 25 45 86 0
131 125 130 132 127 124 115 108 29 49 90 0
131 125 130 132 127 124 94 93 16 38 81 0
131 125 130 132 127 124 58 56 5 32 53 0
131 125 130 132 127 112 107 26 47 89 62 0
131 125 130 132 127 73 71 9 34 66 51 0
131 125 130 132 127 110 104 25 45 86 60 0
131 125 130 132 127 115 108 29 49 90 65 0
131 125 130 132 127 94 93 16 38 81 55 0
131 125 130 132 123 126 124 112 107 26 99 0
131 125 130 132 123 126 124 73 71 9 68 0
131 125 130 132 123 126 124 110 104 25 97 0
131 125 130 132 123 126 124 115 108 29 101 0
131 125 130 132 123 126 124 42 41 2 39 0
131 125 130 132 123 126 124 84 83 11 80 0
131 125 130 132 123 126 124 58 56 5 54 0
131 125 130 132 123 126 112 107 26 99 62 0
131 125 130 132 123 126 73 71 9 68 51 0
131 125 130 132 123 126 110 104 25 97 60 0
131 125 130 132 123 126 115 108 29 101 65 0
131 125 130 132 123 126 42 41 2 39 33 0
131 125 130 132 123 126 84 83 11 80 52 0
131 125 130 132 123 124 112 107 26 99 89 0
131 125 130 132 123 124 73 71 9 68 66 0
131 125 130 132 123 124 110 104 25 97 86 0
131 125 130 132 123 124 115 108 29 101 90 0
131 125 130 132 123 124 42 41 2 39 36 0
131 125 130 132 123 124 58 56 5 54 53 0
131 125 130 132 123 112 107 26 99 89 62 0
131 125 130 132 123 73 71 9 68 66 51 0
131 125 130 132 123 110 104 25 97 86 60 0
131 125 130 132 123 115 108 29 101 90 65 0
131 125 130 132 123 42 41 2 39 36 33 0
131 125 130 132 126 124 112 107 26 99 47 0
131 125 130 132 126 124 73 71 9 68 34 0
131 125 130 132 126 124 110 104 25 97 45 0
131 125 130 132 126 124 115 108 29 101 49 0
131 125 130 132 126 124 84 83 11 80 37 0
131 125 130 132 126 124 58 56 5 54 32 0
131 125 130 132 126 112 107 26 99 47 62 0
131 125 130 132 126 73 71 9 68 34 51 0
131 125 130 132 126 110 104 25 97 45 60 0
131 125 130 132 126 115 108 29 101 49 65 0
131 125 130 132 126 84 83 11 80 37 52 0
131 125 130 132 124 112 107 26 99 47 89 0
131 125 130 132 124 73 71 9 68 34 66 0
131 125 130 132 124 110 104 25 97 45 86 0
131 125 130 132 124 115 108 29 101 49 90 0
131 125 130 132 124 58 56 5 54 32 53 0
131 125 130 132 112 107 26 99 47 89 62 0
131 125 130 132 73 71 9 68 34 66 51 0
131 125 130 132 110 104 25 97 45 86 60 0
131 125 130 132 115 108 29 101 49 90 65 0
131 125 130 122 127 123 126 124 112 107 121 0
131 125 130 122 127 123 126 124 73 71 78 0
131 125 130 122 127 123 126 124 110 104 118 0
131 125 130 122 127 123 126 124 21 17 31 0
131 125 130 122 127 123 126 124 94 93 100 0
131 125 130 122 127 123 126 124 42 41 48 0
131 125 130 122 127 123 126 124 84 83 91 0
131 125 130 122 127 123 126 124 58 56 64 0
131 125 130 122 127 123 126 112 107 121 62 0
131 125 130 122 127 123 126 73 71 78 51 0
131 125 130 122 127 123 126 110 104 118 60 0
131 125 130 122 127 123 126 21 17 31 6 0
131 125 130 122 127 123 126 94 93 100 55 0
131 125 130 122 127 123 126 42 41 48 33 0
131 125 130 122 127 123 126 84 83 91 52 0
131 125 130 122 127 123 124 112 107 121 89 0
131 125 130 122 127 123 124 73 71 78 66 0
131 125 130 122 127 123 124 110 104 118 86 0
131 125 130 122 127 123 124 21 17 31 13 0
131 125 130 122 127 123 124 94 93 100 81 0
131 125 130 122 127 123 124 42 41 48 36 0
131 125 130 122 127 123 124 58 56 64 53 0
131 125 130 122 127 123 112 107 121 89 62 0
131 125 130 122 127 123 73 71 78 66 51 0
131 125 130 122 127 123 110 104 118 86 60 0
131 125 130 122 127 123 21 17 31 13 6 0
131 125 130 122 127 123 94 93 100 81 55 0
131 125 130 122 127 123 42 41 48 36 33 0
131 125 130 122 127 126 124 112 107 121 47 0
131 125 130 122 127 126 124 73 71 78 34 0
131 125 130 122 127 126 124 110 104 118 45 0
131 125 130 122 127 126 124 21 17 31 3 0
131 125 130 122 127 126 124 94 93 100 38 0
131 125 130 122 127 126 124 84 83 91 37 0
131 125 130 122 127 126 124 58 56 64 32 0
131 125 130 122 127 126 112 107 121 47 62 0
131 125 130 122 127 126 73 71 78 34 51 0
131 125 130 122 127 126 110 104 118 45 60 0
131 125 130 122 127 126 21 17 31 3 6 0
131 125 130 122 127 126 94 93 100 38 55 0
131 125 130 122 127 126 84 83 91 37 52 0
131 125 130 122 127 124 112 107 121 47 89 0
131 125 130 122 127 124 73 71 78 34 66 0
131 125 130 122 127 124 110 104 118 45 86 0
131 125 130 122 127 124 21 17 31 3 13 0
131 125 130 122 127 124 94 93 100 38 81 0
131 125 130 122 127 124 58 56 64 32 53 0
131 125 130 122 127 112 107 121 47 89 62 0
131 125 130 122 127 73 71 78 34 66 51 0
131 125 130 122 127 110 104 118 45 86 60 0
131 125 130 122 127 21 17 31 3 13 6 0
131 125 130 122 127 94 93 100 38 81 55 0
131 125 130 122 123 126 124 112 107 121 99 0
131 125 130 122 123 126 124 73 71 78 68 0
131 125 130 122 123 126 124 110 104 118 97 0
131 125 130 122 123 126 124 21 17 31 14 0
131 125 130 122 123 126 124 42 41 48 39 0
131 125 130 122 123 126 124 84 83 91 80 0
131 125 130 122 123 126 124 58 56 64 54 0
131 125 130 122 123 126 112 107 121 99 62 0
131 125 130 122 123 126 73 71 78 68 51 0
131 125 130 122 123 126 110 104 118 97 60 0
131 125 130 122 123 126 21 17 31 14 6 0
131 125 130 122 123 126 42 41 48 39 33 0
131 125 130 122 123 126 84 83 91 80 52 0
131 125 130 122 123 124 112 107 121 99 89 0
131 125 130 122 123 124 73 71 78 68 66 0
131 125 130 122 123 124 110 104 118 97 86 0
131 125 130 122 123 124 21 17 31 14 13 0
131 125 130 122 123 124 42 41 48 39 36 0
131 125 130 122 123 124 58 56 64 54 53 0
131 125 130 122 123 112 107 121 99 89 62 0
131 125 130 122 123 73 71 78 68 66 51 0
131 125 130 122 123 110 104 118 97 86 60 0
131 125 130 122 123 21 17 31 14 13 6 0
131 125 130 122 123 42 41 48 39 36 33 0
131 125 130 122 126 124 112 107 121 99 47 0
131 125 130 122 126 124 73 71 78 68 34 0
131 125 130 122 126 124 110 104 118 97 45 0
131 125 130 122 126 124 21 17 31 14 3 0
131 125 130 122 126 124 84 83 91 80 37 0
131 125 130 122 126 124 58 56 64 54 32 0
131 125 130 122 126 112 107 121 99 47 62 0
131 125 130 122 126 73 71 78 68 34 51 0
131 125 130 122 126 110 104 118 97 45 60 0
131 125 130 122 126 21 17 31 14 3 6 0
131 125 130 122 126 84 83 91 80 37 52 0
131 125 130 122 124 112 107 121 99 47 89 0
131 125 130 122 124 73 71 78 68 34 66 0
131 125 130 122 124 110 104 118 97 45 86 0
131 125 130 122 124 21 17 31 14 3 13 0
131 125 130 122 124 58 56 64 54 32 53 0
131 125 130 122 112 107 121 99 47 89 62 0
131 125 130 122 73 71 78 68 34 66 51 0
131 125 130 122 110 104 118 97 45 86 60 0
131 125 130 122 21 17 31 14 3 13 6 0
131 125 130 127 123 126 124 112 107 121 26 0
131 125 130 127 123 126 124 73 71 78 9 0
131 125 130 127 123 126 124 110 104 118 25 0
131 125 130 127 123 126 124 94 93 100 16 0
131 125 130 127 123 126 124 42 41 48 2 0
131 125 130 127 123 126 124 84 83 91 11 0
131 125 130 127 123 126 124 58 56 64 5 0
131 125 130 127 123 126 112 107 121 26 62 0
131 125 130 127 123 126 73 71 78 9 51 0
131 125 130 127 123 126 110 104 118 25 60 0
131 125 130 127 123 126 94 93 100 16 55 0
131 125 130 127 123 126 42 41 48 2 33 0
131 125 130 127 123 126 84 83 91 11 52 0
131 125 130 127 123 124 112 107 121 26 89 0
131 125 130 127 123 124 73 71 78 9 66 0
131 125 130 127 123 124 110 104 118 25 86 0
131 125 130 127 123 124 94 93 100 16 81 0
131 125 130 127 123 124 42 41 48 2 36 0
131 125 130 127 123 124 58 56 64 5 53 0
131 125 130 127 123 112 107 121 26 89 62 0
131 125 130 127 123 73 71 78 9 66 51 0
131 125 130 127 123 110 104 118 25 86 60 0
131 125 130 127 123 94 93 100 16 81 55 0
131 125 130 127 123 42 41 48 2 36 33 0
131 125 130 127 126 124 112 107 121 26 47 0
131 125 130 127 126 124 73 71 78 9 34 0
131 125 130 127 126 124 110 104 118 25 45 0
131 125 130 127 126 124 94 93 100 16 38 0
131 125 130 127 126 124 84 83 91 11 37 0
131 125 130 127 126 124 58 56 64 5 32 0
131 125 130 127 126 112 107 121 26 47 62 0
131 125 130 127 126 73 71 78 9 34 51 0
131 125 130 127 126 110 104 118 25 45 60 0
131 125 130 127 126 94 93 100 16 38 55 0
131 125 130 127 126 84 83 91 11 37 52 0
131 125 130 127 124 112 107 121 26 47 89 0
131 125 130 127 124 73 71 78 9 34 66 0
131 125 130 127 124 110 104 118 25 45 86 0
131 125 130 127 124 94 93 100 16 38 81 0
131 125 130 127 124 58 56 64 5 32 53 0
131 125 130 127 112 107 121 26 47 89 62 0
131 125 130 127 73 71 78 9 34 66 51 0
131 125 130 127 110 104 118 25 45 86 60 0
131 125 130 127 94 93 100 16 38 81 55 0
131 125 130 123 126 124 112 107 121 26 99 0
131 125 130 123 126 124 73 71 78 9 68 0
131 125 130 123 126 124 110 104 118 25 97 0
131 125 130 123 126 124 42 41 48 2 39 0
131 125 130 123 126 124 84 83 91 11 80 0
131 125 130 123 126 124 58 56 64 5 54 0
131 125 130 123 126 112 107 121 26 99 62 0
131 125 130 123 126 73 71 78 9 68 51 0
131 125 130 123 126 110 104 118 25 97 60 0
131 125 130 123 126 42 41 48 2 39 33 0
131 125 130 123 126 84 83 91 11 80 52 0
131 125 130 123 124 112 107 121 26 99 89 0
131 125 130 123 124 73 71 78 9 68 66 0
131 125 130 123 124 110 104 118 25 97 86 0
131 125 130 123 124 42 41 48 2 39 36 0
131 125 130 123 124 58 56 64 5 54 53 0
131 125 130 123 112 107 121 26 99 89 62 0
131 125 130 123 73 71 78 9 68 66 51 0
131 125 130 123 110 104 118 25 97 86 60 0
131 125 130 123 42 41 48 2 39 36 33 0
131 125 130 126 124 112 107 121 26 99 47 0
131 125 130 126 124 73 71 78 9 68 34 0
131 125 130 126 124 110 104 118 25 97 45 0
131 125 130 126 124 84 83 91 11 80 37 0
131 125 130 126 124 58 56 64 5 54 32 0
131 125 130 126 112 107 121 26 99 47 62 0
131 125 130 126 73 71 78 9 68 34 51 0
131 125 130 126 110 104 118 25 97 45 60 0
131 125 130 126 84 83 91 11 80 37 52 0
131 125 130 124 112 107 121 26 99 47 89 0
131 125 130 124 73 71 78 9 68 34 66 0
131 125 130 124 110 104 118 25 97 45 86 0
131 125 130 124 58 56 64 5 54 32 53 0
131 125 130 112 107 121 26 99 47 89 62 0
131 125 130 73 71 78 9 68 34 66 51 0
131 125 130 110 104 118 25 97 45 86 60 0
131 125 132 122 127 123 126 124 112 107 116 0
131 125 132 122 127 123 126 124 73 71 75 0
131 125 132 122 127 123 126 124 115 108 119 0
131 125 132 122 127 123 126 124 21 17 23 0
131 125 132 122 127 123 126 124 94 93 96 0
131 125 132 122 127 123 126 124 42 41 44 0
131 125 132 122 127 123 126 124 84 83 87 0
131 125 132 122 127 123 126 124 58 56 61 0
131 125 132 122 127 123 126 112 107 116 62 0
131 125 132 122 127 123 126 73 71 75 51 0
131 125 132 122 127 123 126 115 108 119 65 0
131 125 132 122 127 123 126 21 17 23 6 0
131 125 132 122 127 123 126 94 93 96 55 0
131 125 132 122 127 123 126 42 41 44 33 0
131 125 132 122 127 123 126 84 83 87 52 0
131 125 132 122 127 123 124 112 107 116 89 0
131 125 132 122 127 123 124 73 71 75 66 0
131 125 132 122 127 123 124 115 108 119 90 0
131 125 132 122 127 123 124 21 17 23 13 0
131 125 132 122 127 123 124 94 93 96 81 0
131 125 132 122 127 123 124 42 41 44 36 0
131 125 132 122 127 123 124 58 56 61 53 0
131 125 132 122 127 123 112 107 116 89 62 0
131 125 132 122 127 123 73 71 75 66 51 0
131 125 132 122 127 123 115 108 119 90 65 0
131 125 132 122 127 123 21 17 23 13 6 0
131 125 132 122 127 123 94 93 96 81 55 0
131 125 132 122 127 123 42 41 44 36 33 0
131 125 132 122 127 126 124 112 107 116 47 0
131 125 132 122 127 126 124 73 71 75 34 0
131 125 132 122 127 126 124 115 108 119 49 0
131 125 132 122 127 126 124 21 17 23 3 0
131 125 132 122 127 126 124 94 93 96 38 0
131 125 132 122 127 126 124 84 83 87 37 0
131 125 132 122 127 126 124 58 56 61 32 0
131 125 132 122 127 126 112 107 116 47 62 0
131 125 132 122 127 126 73 71 75 34 51 0
131 125 132 122 127 126 115 108 119 49 65 0
131 125 132 122 127 126 21 17 23 3 6 0
131 125 132 122 127 126 94 93 96 38 55 0
131 125 132 122 127 126 84 83 87 37 52 0
131 125 132 122 127 124 112 107 116 47 89 0
131 125 132 122 127 124 73 71 75 34 66 0
131 125 132 122 127 124 115 108 119 49 90 0
131 125 132 122 127 124 21 17 23 3 13 0
131 125 132 122 127 124 94 93 96 38 81 0
131 125 132 122 127 124 58 56 61 32 53 0
131 125 132 122 127 112 107 116 47 89 62 0
131 125 132 122 127 73 71 75 34 66 51 0
131 125 132 122 127 115 108 119 49 90 65 0
131 125 132 122 127 21 17 23 3 13 6 0
131 125 132 122 127 94 93 96 38 81 55 0
131 125 132 122 123 126 124 112 107 116 99 0
131 125 132 122 123 126 124 73 71 75 68 0
131 125 132 122 123 126 124 115 108 119 101 0
131 125 132 122 123 126 124 21 17 23 14 0
131 125 132 122 123 126 124 42 41 44 39 0
131 125 132 122 123 126 124 84 83 87 80 0
131 125 132 122 123 126 124 58 56 61 54 0
131 125 132 122 123 126 112 107 116 99 62 0
131 125 132 122 123 126 73 71 75 68 51 0
131 125 132 122 123 126 115 108 119 101 65 0
131 125 132 122 123 126 21 17 23 14 6 0
131 125 132 122 123 126 42 41 44 39 33 0
131 125 132 122 123 126 84 83 87 80 52 0
131 125 132 122 123 124 112 107 116 99 89 0
131 125 132 122 123 124 73 71 75 68 66 0
131 125 132 122 123 124 115 108 119 101 90 0
131 125 132 122 123 124 21 17 23 14 13 0
131 125 132 122 123 124 42 41 44 39 36 0
131 125 132 122 123 124 58 56 61 54 53 0
131 125 132 122 123 112 107 116 99 89 62 0
131 125 132 122 123 73 71 75 68 66 51 0
131 125 132 122 123 115 108 119 101 90 65 0
131 125 132 122 123 21 17 23 14 13 6 0
131 125 132 122 123 42 41 44 39 36 33 0
131 125 132 122 126 124 112 107 116 99 47 0
131 125 132 122 126 124 73 71 75 68 34 0
131 125 132 122 126 124 115 108 119 101 49 0
131 125 132 122 126 124 21 17 23 14 3 0
131 125 132 122 126 124 84 83 87 80 37 0
131 125 132 122 126 124 58 56 61 54 32 0
131 125 132 122 126 112 107 116 99 47 62 0
131 125 132 122 126 73 71 75 68 34 51 0
131 125 132 122 126 115 108 119 101 49 65 0
131 125 132 122 126 21 17 23 14 3 6 0
131 125 132 122 126 84 83 87 80 37 52 0
131 125 132 122 124 112 107 116 99 47 89 0
131 125 132 122 124 73 71 75 68 34 66 0
131 125 132 122 124 115 108 119 101 49 90 0
131 125 132 122 124 21 17 23 14 3 13 0
131 125 132 122 124 58 56 61 54 32 53 0
131 125 132 122 112 107 116 99 47 89 62 0
131 125 132 122 73 71 75 68 34 66 51 0
131 125 132 122 115 108 119 101 49 90 65 0
131 125 132 122 21 17 23 14 3 13 6 0
131 125 132 127 123 126 124 112 107 116 26 0
131 125 132 127 123 126 124 73 71 75 9 0
131 125 132 127 123 126 124 115 108 119 29 0
131 125 132 127 123 126 124 94 93 96 16 0
131 125 132 127 123 126 124 42 41 44 2 0
131 125 132 127 123 126 124 84 83 87 11 0
131 125 132 127 123 126 124 58 56 61 5 0
131 125 132 127 123 126 112 107 116 26 62 0
131 125 132 127 123 126 73 71 75 9 51 0
131 125 132 127 123 126 115 108 119 29 65 0
131 125 132 127 123 126 94 93 96 16 55 0
131 125 132 127 123 126 42 41 44 2 33 0
131 125 132 127 123 126 84 83 87 11 52 0
131 125 132 127 123 124 112 107 116 26 89 0
131 125 132 127 123 124 73 71 75 9 66 0
131 125 132 127 123 124 115 108 119 29 90 0
131 125 132 127 123 124 94 93 96 16 81 0
131 125 132 127 123 124 42 41 44 2 36 0
131 125 132 127 123 124 58 56 61 5 53 0
131 125 132 127 123 112 107 116 26 89 62 0
131 125 132 127 123 73 71 75 9 66 51 0
131 125 132 127 123 115 108 119 29 90 65 0
131 125 132 127 123 94 93 96 16 81 55 0
131 125 132 127 123 42 41 44 2 36 33 0
131 125 132 127 126 124 112 107 116 26 47 0
131 125 132 127 126 124 73 71 75 9 34 0
131 125 132 127 126 124 115 108 119 29 49 0
131 125 132 127 126 124 94 93 96 16 38 0
131 125 132 127 126 124 84 83 87 11 37 0
131 125 132 127 126 124 58 56 61 5 32 0
131 125 132 127 126 112 107 116 26 47 62 0
131 125 132 127 126 73 71 75 9 34 51 0
131 125 132 127 126 115 108 119 29 49 65 0
131 125 132 127 126 94 93 96 16 38 55 0
131 125 132 127 126 84 83 87 11 37 52 0
131 125 132 127 124 112 107 116 26 47 89 0
131 125 132 127 124 73 71 75 9 34 66 0
131 125 132 127 124 115 108 119 29 49 90 0
131 125 132 127 124 94 93 96 16 38 81 0
131 125 132 127 124 58 56 61 5 32 53 0
131 125 132 127 112 107 116 26 47 89 62 0
131 125 132 127 73 71 75 9 34 66 51 0
131 125 132 127 115 108 119 29 49 90 65 0
131 125 132 127 94 93 96 16 38 81 55 0
131 125 132 123 126 124 112 107 116 26 99 0
131 125 132 123 126 124 73 71 75 9 68 0
131 125 132 123 126 124 115 108 119 29 101 0
131 125 132 123 126 124 42 41 44 2 39 0
131 125 132 123 126 124 84 83 87 11 80 0
131 125 132 123 126 124 58 56 61 5 54 0
131 125 132 123 126 112 107 116 26 99 62 0
131 125 132 123 126 73 71 75 9 68 51 0
131 125 132 123 126 115 108 119 29 101 65 0
131 125 132 123 126 42 41 44 2 39 33 0
131 125 132 123 126 84 83 87 11 80 52 0
131 125 132 123 124 112 107 116 26 99 89 0
131 125 132 123 124 73 71 75 9 68 66 0
131 125 132 123 124 115 108 119 29 101 90 0
131 125 132 123 124 42 41 44 2 39 36 0
131 125 132 123 124 58 56 61 5 54 53 0
131 125 132 123 112 107 116 26 99 89 62 0
131 125 132 123 73 71 75 9 68 66 51 0
131 125 132 123 115 108 119 29 101 90 65 0
131 125 132 123 42 41 44 2 39 36 33 0
131 125 132 126 124 112 107 116 26 99 47 0
131 125 132 126 124 73 71 75 9 68 34 0
131 125 132 126 124 115 108 119 29 101 49 0
131 125 132 126 124 84 83 87 11 80 37 0
131 125 132 126 124 58 56 61 5 54 32 0
131 125 132 126 112 107 116 26 99 47 62 0
131 125 132 126 73 71 75 9 68 34 51 0
131 125 132 126 115 108 119 29 101 49 65 0
131 125 132 126 84 83 87 11 80 37 52 0
131 125 132 124 112 107 116 26 99 47 89 0
131 125 132 124 73 71 75 9 68 34 66 0
131 125 132 124 115 108 119 29 101 49 90 0
131 125 132 124 58 56 61 5 54 32 53 0
131 125 132 112 107 116 26 99 47 89 62 0
131 125 132 73 71 75 9 68 34 66 51 0
131 125 132 115 108 119 29 101 49 90 65 0
131 125 122 127 123 126 124 112 107 116 121 0
131 125 122 127 123 126 124 73 71 75 78 0
131 125 122 127 123 126 124 21 17 23 31 0
131 125 122 127 123 126 124 94 93 96 100 0
131 125 122 127 123 126 124 42 41 44 48 0
131 125 122 127 123 126 124 84 83 87 91 0
131 125 122 127 123 126 124 58 56 61 64 0
131 125 122 127 123 126 112 107 116 121 62 0
131 125 122 127 123 126 73 71 75 78 51 0
131 125 122 127 123 126 21 17 23 31 6 0
131 125 122 127 123 126 94 93 96 100 55 0
131 125 122 127 123 126 42 41 44 48 33 0
131 125 122 127 123 126 84 83 87 91 52 0
131 125 122 127 123 124 112 107 116 121 89 0
131 125 122 127 123 124 73 71 75 78 66 0
131 125 122 127 123 124 21 17 23 31 13 0
131 125 122 127 123 124 94 93 96 100 81 0
131 125 122 127 123 124 42 41 44 48 36 0
131 125 122 127 123 124 58 56 61 64 53 0
131 125 122 127 123 112 107 116 121 89 62 0
131 125 122 127 123 73 71 75 78 66 51 0
131 125 122 127 123 21 17 23 31 13 6 0
131 125 122 127 123 94 93 96 100 81 55 0
131 125 122 127 123 42 41 44 48 36 33 0
131 125 122 127 126 124 112 107 116 121 47 0
131 125 122 127 126 124 73 71 75 78 34 0
131 125 122 127 126 124 21 17 23 31 3 0
131 125 122 127 126 124 94 93 96 100 38 0
131 125 122 127 126 124 84 83 87 91 37 0
131 125 122 127 126 124 58 56 61 64 32 0
131 125 122 127 126 112 107 116 121 47 62 0
131 125 122 127 126 73 71 75 78 34 51 0
131 125 122 127 126 21 17 23 31 3 6 0
131 125 122 127 126 94 93 96 100 38 55 0
131 125 122 127 126 84 83 87 91 37 52 0
131 125 122 127 124 112 107 116 121 47 89 0
131 125 122 127 124 73 71 75 78 34 66 0
131 125 122 127 124 21 17 23 31 3 13 0
131 125 122 127 124 94 93 96 100 38 81 0
131 125 122 127 124 58 56 61 64 32 53 0
131 125 122 127 112 107 116 121 47 89 62 0
131 125 122 127 73 71 75 78 34 66 51 0
131 125 122 127 21 17 23 31 3 13 6 0
131 125 122 127 94 93 96 100 38 81 55 0
131 125 122 123 126 124 112 107 116 121 99 0
131 125 122 123 126 124 73 71 75 78 68 0
131 125 122 123 126 124 21 17 23 31 14 0
131 125 122 123 126 124 42 41 44 48 39 0
131 125 122 123 126 124 84 83 87 91 80 0
131 125 122 123 126 124 58 56 61 64 54 0
131 125 122 123 126 112 107 116 121 99 62 0
131 125 122 123 126 73 71 75 78 68 51 0
131 125 122 123 126 21 17 23 31 14 6 0
131 125 122 123 126 42 41 44 48 39 33 0
131 125 122 123 126 84 83 87 91 80 52 0
131 125 122 123 124 112 107 116 121 99 89 0
131 125 122 123 124 73 71 75 78 68 66 0
131 125 122 123 124 21 17 23 31 14 13 0
131 125 122 123 124 42 41 44 48 39 36 0
131 125 122 123 124 58 56 61 64 54 53 0
131 125 122 123 112 107 116 121 99 89 62 0
131 125 122 123 73 71 75 78 68 66 51 0
131 125 122 123 21 17 23 31 14 13 6 0
131 125 122 123 42 41 44 48 39 36 33 0
131 125 122 126 124 112 107 116 121 99 47 0
131 125 122 126 124 73 71 75 78 68 34 0
131 125 122 126 124 21 17 23 31 14 3 0
131 125 122 126 124 84 83 87 91 80 37 0
131 125 122 126 124 58 56 61 64 54 32 0
131 125 122 126 112 107 116 121 99 47 62 0
131 125 122 126 73 71 75 78 68 34 51 0
131 125 122 126 21 17 23 31 14 3 6 0
131 125 122 126 84 83 87 91 80 37 52 0
131 125 122 124 112 107 116 121 99 47 89 0
131 125 122 124 73 71 75 78 68 34 66 0
131 125 122 124 21 17 23 31 14 3 13 0
131 125 122 124 58 56 61 64 54 32 53 0
131 125 122 112 107 116 121 99 47 89 62 0
131 125 122 73 71 75 78 68 34 66 51 0
131 125 122 21 17 23 31 14 3 13 6 0
131 125 127 123 126 124 112 107 116 121 26 0
131 125 127 123 126 124 73 71 75 78 9 0
131 125 127 123 126 124 94 93 96 100 16 0
131 125 127 123 126 124 42 41 44 48 2 0
131 125 127 123 126 124 84 83 87 91 11 0
131 125 127 123 126 124 58 56 61 64 5 0
131 125 127 123 126 112 107 116 121 26 62 0
131 125 127 123 126 73 71 75 78 9 51 0
131 125 127 123 126 94 93 96 100 16 55 0
131 125 127 123 126 42 41 44 48 2 33 0
131 125 127 123 126 84 83 87 91 11 52 0
131 125 127 123 124 112 107 116 121 26 89 0
131 125 127 123 124 73 71 75 78 9 66 0
131 125 127 123 124 94 93 96 100 16 81 0
131 125 127 123 124 42 41 44 48 2 36 0
131 125 127 123 124 58 56 61 64 5 53 0
131 125 127 123 112 107 116 121 26 89 62 0
131 125 127 123 73 71 75 78 9 66 51 0
131 125 127 123 94 93 96 100 16 81 55 0
131 125 127 123 42 41 44 48 2 36 33 0
131 125 127 126 124 112 107 116 121 26 47 0
131 125 127 126 124 73 71 75 78 9 34 0
131 125 127 126 124 94 93 96 100 16 38 0
131 125 127 126 124 84 83 87 91 11 37 0
131 125 127 126 124 58 56 61 64 5 32 0
131 125 127 126 112 107 116 121 26 47 62 0
131 125 127 126 73 71 75 78 9 34 51 0
131 125 127 126 94 93 96 100 16 38 55 0
131 125 127 126 84 83 87 91 11 37 52 0
131 125 127 124 112 107 116 121 26 47 89 0
131 125 127 124 73 71 75 78 9 34 66 0
131 125 127 124 94 93 96 100 16 38 81 0
131 125 127 124 58 56 61 64 5 32 53 0
131 125 127 112 107 116 121 26 47 89 62 0
131 125 127 73 71 75 78 9 34 66 51 0
131 125 127 94 93 96 100 16 38 81 55 0
131 125 123 126 124 112 107 116 121 26 99 0
131 125 123 126 124 73 71 75 78 9 68 0
131 125 123 126 124 42 41 44 48 2 39 0
131 125 123 126 124 84 83 87 91 11 80 0
131 125 123 126 124 58 56 61 64 5 54 0
131 125 123 126 112 107 116 121 26 99 62 0
131 125 123 126 73 71 75 78 9 68 51 0
131 125 123 126 42 41 44 48 2 39 33 0
131 125 123 126 84 83 87 91 11 80 52 0
131 125 123 124 112 107 116 121 26 99 89 0
131 125 123 124 73 71 75 78 9 68 66 0
131 125 123 124 42 41 44 48 2 39 36 0
131 125 123 124 58 56 61 64 5 54 53 0
131 125 123 112 107 116 121 26 99 89 62 0
131 125 123 73 71 75 78 9 68 66 51 0
131 125 123 42 41 44 48 2 39 36 33 0
131 125 126 124 112 107 116 121 26 99 47 0
131 125 126 124 73 71 75 78 9 68 34 0
131 125 126 124 84 83 87 91 11 80 37 0
131 125 126 124 58 56 61 64 5 54 32 0
131 125 126 112 107 116 121 26 99 47 62 0
131 125 126 73 71 75 78 9 68 34 51 0
131 125 126 84 83 87 91 11 80 37 52 0
131 125 124 112 107 116 121 26 99 47 89 0
131 125 124 73 71 75 78 9 68 34 66 0
131 125 124 58 56 61 64 5 54 32 53 0
131 125 112 107 116 121 26 99 47 89 62 0
131 125 73 71 75 78 9 68 34 66 51 0
131 130 132 122 127 123 126 124 112 107 76 0
131 130 132 122 127 123 126 124 110 104 74 0
131 130 132 122 127 123 126 124 115 108 79 0
131 130 132 122 127 123 126 124 21 17 8 0
131 130 132 122 127 123 126 124 94 93 69 0
131 130 132 122 127 123 126 124 42 41 35 0
131 130 132 122 127 123 126 124 84 83 67 0
131 130 132 122 127 123 126 124 58 56 50 0
131 130 132 122 127 123 126 112 107 76 62 0
131 130 132 122 127 123 126 110 104 74 60 0
131 130 132 122 127 123 126 115 108 79 65 0
131 130 132 122 127 123 126 21 17 8 6 0
131 130 132 122 127 123 126 94 93 69 55 0
131 130 132 122 127 123 126 42 41 35 33 0
131 130 132 122 127 123 126 84 83 67 52 0
131 130 132 122 127 123 124 112 107 76 89 0
131 130 132 122 127 123 124 110 104 74 86 0
131 130 132 122 127 123 124 115 108 79 90 0
131 130 132 122 127 123 124 21 17 8 13 0
131 130 132 122 127 123 124 94 93 69 81 0
131 130 132 122 127 123 124 42 41 35 36 0
131 130 132 122 127 123 124 58 56 50 53 0
131 130 132 122 127 123 112 107 76 89 62 0
131 130 132 122 127 123 110 104 74 86 60 0
131 130 132 122 127 123 115 108 79 90 65 0
131 130 132 122 127 123 21 17 8 13 6 0
131 130 132 122 127 123 94 93 69 81 55 0
131 130 132 122 127 123 42 41 35 36 33 0
131 130 132 122 127 126 124 112 107 76 47 0
131 130 132 122 127 126 124 110 104 74 45 0
131 130 132 122 127 126 124 115 108 79 49 0
131 130 132 122 127 126 124 21 17 8 3 0
131 130 132 122 127 126 124 94 93 69 38 0
131 130 132 122 127 126 124 84 83 67 37 0
131 130 132 122 127 126 124 58 56 50 32 0
131 130 132 122 127 126 112 107 76 47 62 0
131 130 132 122 127 126 110 104 74 45 60 0
131 130 132 122 127 126 115 108 79 49 65 0
131 130 132 122 127 126 21 17 8 3 6 0
131 130 132 122 127 126 94 93 69 38 55 0
131 130 132 122 127 126 84 83 67 37 52 0
131 130 132 122 127 124 112 107 76 47 89 0
131 130 132 122 127 124 110 104 74 45 86 0
131 130 132 122 127 124 115 108 79 49 90 0
131 130 132 122 127 124 21 17 8 3 13 0
131 130 132 122 127 124 94 93 69 38 81 0
131 130 132 122 127 124 58 56 50 32 53 0
131 130 132 122 127 112 107 76 47 89 62 0
131 130 132 122 127 110 104 74 45 86 60 0
131 130 132 122 127 115 108 79 49 90 65 0
131 130 132 122 127 21 17 8 3 13 6 0
131 130 132 122 127 94 93 69 38 81 55 0
131 130 132 122 123 126 124 112 107 76 99 0
131 130 132 122 123 126 124 110 104 74 97 0
131 130 132 122 123 126 124 115 108 79 101 0
131 130 132 122 123 126 124 21 17 8 14 0
131 130 132 122 123 126 124 42 41 35 39 0
131 130 132 122 123 126 124 84 83 67 80 0
131 130 132 122 123 126 124 58 56 50 54 0
131 130 132 122 123 126 112 107 76 99 62 0
131 130 132 122 123 126 110 104 74 97 60 0
131 130 132 122 123 126 115 108 79 101 65 0
131 130 132 122 123 126 21 17 8 14 6 0
131 130 132 122 123 126 42 41 35 39 33 0
131 130 132 122 123 126 84 83 67 80 52 0
131 130 132 122 123 124 112 107 76 99 89 0
131 130 132 122 123 124 110 104 74 97 86 0
131 130 132 122 123 124 115 108 79 101 90 0
131 130 132 122 123 124 21 17 8 14 13 0
131 130 132 122 123 124 42 41 35 39 36 0
131 130 132 122 123 124 58 56 50 54 53 0
131 130 132 122 123 112 107 76 99 89 62 0
131 130 132 122 123 110 104 74 97 86 60 0
131 130 132 122 123 115 108 79 101 90 65 0
131 130 132 122 123 21 17 8 14 13 6 0
131 130 132 122 123 42 41 35 39 36 33 0
131 130 132 122 126 124 112 107 76 99 47 0
131 130 132 122 126 124 110 104 74 97 45 0
131 130 132 122 126 124 115 108 79 101 49 0
131 130 132 122 126 124 21 17 8 14 3 0
131 130 132 122 126 124 84 83 67 80 37 0
131 130 132 122 126 124 58 56 50 54 32 0
131 130 132 122 126 112 107 76 99 47 62 0
131 130 132 122 126 110 104 74 97 45 60 0
131 130 132 122 126 115 108 79 101 49 65 0
131 130 132 122 126 21 17 8 14 3 6 0
131 130 132 122 126 84 83 67 80 37 52 0
131 130 132 122 124 112 107 76 99 47 89 0
131 130 132 122 124 110 104 74 97 45 86 0
131 130 132 122 124 115 108 79 101 49 90 0
131 130 132 122 124 21 17 8 14 3 13 0
131 130 132 122 124 58 56 50 54 32 53 0
131 130 132 122 112 107 76 99 47 89 62 0
131 130 132 122 110 104 74 97 45 86 60 0
131 130 132 122 115 108 79 101 49 90 65 0
131 130 132 122 21 17 8 14 3 13 6 0
131 130 132 127 123 126 124 112 107 76 26 0
131 130 132 127 123 126 124 110 104 74 25 0
131 130 132 127 123 126 124 115 108 79 29 0
131 130 132 127 123 126 124 94 93 69 16 0
131 130 132 127 123 126 124 42 41 35 2 0
131 130 132 127 123 126 124 84 83 67 11 0
131 130 132 127 123 126 124 58 56 50 5 0
131 130 132 127 123 126 112 107 76 26 62 0
131 130 132 127 123 126 110 104 74 25 60 0
131 130 132 127 123 126 115 108 79 29 65 0
131 130 132 127 123 126 94 93 69 16 55 0
131 130 132 127 123 126 42 41 35 2 33 0
131 130 132 127 123 126 84 83 67 11 52 0
131 130 132 127 123 124 112 107 76 26 89 0
131 130 132 127 123 124 110 104 74 25 86 0
131 130 132 127 123 124 115 108 79 29 90 0
131 130 132 127 123 124 94 93 69 16 81 0
131 130 132 127 123 124 42 41 35 2 36 0
131 130 132 127 123 124 58 56 50 5 53 0
131 130 132 127 123 112 107 76 26 89 62 0
131 130 132 127 123 110 104 74 25 86 60 0
131 130 132 127 123 115 108 79 29 90 65 0
131 130 132 127 123 94 93 69 16 81 55 0
131 130 132 127 123 42 41 35 2 36 33 0
131 130 132 127 126 124 112 107 76 26 47 0
131 130 132 127 126 124 110 104 74 25 45 0
131 130 132 127 126 124 115 108 79 29 49 0
131 130 132 127 126 124 94 93 69 16 38 0
131 130 132 127 126 124 84 83 67 11 37 0
131 130 132 127 126 124 58 56 50 5 32 0
131 130 132 127 126 112 107 76 26 47 62 0
131 130 132 127 126 110 104 74 25 45 60 0
131 130 132 127 126 115 108 79 29 49 65 0
131 130 132 127 126 94 93 69 16 38 55 0
131 130 132 127 126 84 83 67 11 37 52 0
131 130 132 127 124 112 107 76 26 47 89 0
131 130 132 127 124 110 104 74 25 45 86 0
131 130 132 127 124 115 108 79 29 49 90 0
131 130 132 127 124 94 93 69 16 38 81 0
131 130 132 127 124 58 56 50 5 32 53 0
131 130 132 127 112 107 76 26 47 89 62 0
131 130 132 127 110 104 74 25 45 86 60 0
131 130 132 127 115 108 79 29 49 90 65 0
131 130 132 127 94 93 69 16 38 81 55 0
131 130 132 123 126 124 112 107 76 26 99 0
131 130 132 123 126 124 110 104 74 25 97 0
131 130 132 123 126 124 115 108 79 29 101 0
131 130 132 123 126 124 42 41 35 2 39 0
131 130 132 123 126 124 84 83 67 11 80 0
131 130 132 123 126 124 58 56 50 5 54 0
131 130 132 123 126 112 107 76 26 99 62 0
131 130 132 123 126 110 104 74 25 97 60 0
131 130 132 123 126 115 108 79 29 101 65 0
131 130 132 123 126 42 41 35 2 39 33 0
131 130 132 123 126 84 83 67 11 80 52 0
131 130 132 123 124 112 107 76 26 99 89 0
131 130 132 123 124 110 104 74 25 97 86 0
131 130 132 123 124 115 108 79 29 101 90 0
131 130 132 123 124 42 41 35 2 39 36 0
131 130 132 123 124 58 56 50 5 54 53 0
131 130 132 123 112 107 76 26 99 89 62 0
131 130 132 123 110 104 74 25 97 86 60 0
131 130 132 123 115 108 79 29 101 90 65 0
131 130 132 123 42 41 35 2 39 36 33 0
131 130 132 126 124 112 107 76 26 99 47 0
131 130 132 126 124 110 104 74 25 97 45 0
131 130 132 126 124 115 108 79 29 101 49 0
131 130 132 126 124 84 83 67 11 80 37 0
131 130 132 126 124 58 56 50 5 54 32 0
131 130 132 126 112 107 76 26 99 47 62 0
131 130 132 126 110 104 74 25 97 45 60 0
131 130 132 126 115 108 79 29 101 49 65 0
131 130 132 126 84 83 67 11 80 37 52 0
131 130 132 124 112 107 76 26 99 47 89 0
131 130 132 124 110 104 74 25 97 45 86 0
131 130 132 124 115 108 79 29 101 49 90 0
131 130 132 124 58 56 50 5 54 32 53 0
131 130 132 112 107 76 26 99 47 89 62 0
131 130 132 110 104 74 25 97 45 86 60 0
131 130 132 115 108 79 29 101 49 90 65 0
131 130 122 127 123 126 124 112 107 76 121 0
131 130 122 127 123 126 124 110 104 74 118 0
131 130 122 127 123 126 124 21 17 8 31 0
131 130 122 127 123 126 124 94 93 69 100 0
131 130 122 127 123 126 124 42 41 35 48 0
131 130 122 127 123 126 124 84 83 67 91 0
131 130 122 127 123 126 124 58 56 50 64 0
131 130 122 127 123 126 112 107 76 121 62 0
131 130 122 127 123 126 110 104 74 118 60 0
131 130 122 127 123 126 21 17 8 31 6 0
131 130 122 127 123 126 94 93 69 100 55 0
131 130 122 127 123 126 42 41 35 48 33 0
131 130 122 127 123 126 84 83 67 91 52 0
131 130 122 127 123 124 112 107 76 121 89 0
131 130 122 127 123 124 110 104 74 118 86 0
131 130 122 127 123 124 21 17 8 31 13 0
131 130 122 127 123 124 94 93 69 100 81 0
131 130 122 127 123 124 42 41 35 48 36 0
131 130 122 127 123 124 58 56 50 64 53 0
131 130 122 127 123 112 107 76 121 89 62 0
131 130 122 127 123 110 104 74 118 86 60 0
131 130 122 127 123 21 17 8 31 13 6 0
131 130 122 127 123 94 93 69 100 81 55 0
131 130 122 127 123 42 41 35 48 36 33 0
131 130 122 127 126 124 112 107 76 121 47 0
131 130 122 127 126 124 110 104 74 118 45 0
131 130 122 127 126 124 21 17 8 31 3 0
131 130 122 127 126 124 94 93 69 100 38 0
131 130 122 127 126 124 84 83 67 91 37 0
131 130 122 127 126 124 58 56 50 64 32 0
131 130 122 127 126 112 107 76 121 47 62 0
131 130 122 127 126 110 104 74 118 45 60 0
131 130 122 127 126 21 17 8 31 3 6 0
131 130 122 127 126 94 93 69 100 38 55 0
131 130 122 127 126 84 83 67 91 37 52 0
131 130 122 127 124 112 107 76 121 47 89 0
131 130 122 127 124 110 104 74 118 45 86 0
131 130 122 127 124 21 17 8 31 3 13 0
131 130 122 127 124 94 93 69 100 38 81 0
131 130 122 127 124 58 56 50 64 32 53 0
131 130 122 127 112 107 76 121 47 89 62 0
131 130 122 127 110 104 74 118 45 86 60 0
131 130 122 127 21 17 8 31 3 13 6 0
131 130 122 127 94 93 69 100 38 81 55 0
131 130 122 123 126 124 112 107 76 121 99 0
131 130 122 123 126 124 110 104 74 118 97 0
131 130 122 123 126 124 21 17 8 31 14 0
131 130 122 123 126 124 42 41 35 48 39 0
131 130 122 123 126 124 84 83 67 91 80 0
131 130 122 123 126 124 58 56 50 64 54 0
131 130 122 123 126 112 107 76 121 99 62 0
131 130 122 123 126 110 104 74 118 97 60 0
131 130 122 123 126 21 17 8 31 14 6 0
131 130 122 123 126 42 41 35 48 39 33 0
131 130 122 123 126 84 83 67 91 80 52 0
131 130 122 123 124 112 107 76 121 99 89 0
131 130 122 123 124 110 104 74 118 97 86 0
131 130 122 123 124 21 17 8 31 14 13 0
131 130 122 123 124 42 41 35 48 39 36 0
131 130 122 123 124 58 56 50 64 54 53 0
131 130 122 123 112 107 76 121 99 89 62 0
131 130 122 123 110 104 74 118 97 86 60 0
131 130 122 123 21 17 8 31 14 13 6 0
131 130 122 123 42 41 35 48 39 36 33 0
131 130 122 126 124 112 107 76 121 99 47 0
131 130 122 126 124 110 104 74 118 97 45 0
131 130 122 126 124 21 17 8 31 14 3 0
131 130 122 126 124 84 83 67 91 80 37 0
131 130 122 126 124 58 56 50 64 54 32 0
131 130 122 126 112 107 76 121 99 47 62 0
131 130 122 126 110 104 74 118 97 45 60 0
131 130 122 126 21 17 8 31 14 3 6 0
131 130 122 126 84 83 67 91 80 37 52 0
131 130 122 124 112 107 76 121 99 47 89 0
131 130 122 124 110 104 74 118 97 45 86 0
131 130 122 124 21 17 8 31 14 3 13 0
131 130 122 124 58 56 50 64 54 32 53 0
131 130 122 112 107 76 121 99 47 89 62 0
131 130 122 110 104 74 118 97 45 86 60 0
131 130 122 21 17 8 31 14 3 13 6 0
131 130 127 123 126 124 112 107 76 121 26 0
131 130 127 123 126 124 110 104 74 118 25 0
131 130 127 123 126 124 94 93 69 100 16 0
131 130 127 123 126 124 42 41 35 48 2 0
131 130 127 123 126 124 84 83 67 91 11 0
131 130 127 123 126 124 58 56 50 64 5 0
131 130 127 123 126 112 107 76 121 26 62 0
131 130 127 123 126 110 104 74 118 25 60 0
131 130 127 123 126 94 93 69 100 16 55 0
131 130 127 123 126 42 41 35 48 2 33 0
131 130 127 123 126 84 83 67 91 11 52 0
131 130 127 123 124 112 107 76 121 26 89 0
131 130 127 123 124 110 104 74 118 25 86 0
131 130 127 123 124 94 93 69 100 16 81 0
131 130 127 123 124 42 41 35 48 2 36 0
131 130 127 123 124 58 56 50 64 5 53 0
131 130 127 123 112 107 76 121 26 89 62 0
131 130 127 123 110 104 74 118 25 86 60 0
131 130 127 123 94 93 69 100 16 81 55 0
131 130 127 123 42 41 35 48 2 36 33 0
131 130 127 126 124 112 107 76 121 26 47 0
131 130 127 126 124 110 104 74 118 25 45 0
131 130 127 126 124 94 93 69 100 16 38 0
131 130 127 126 124 84 83 67 91 11 37 0
131 130 127 126 124 58 56 50 64 5 32 0
131 130 127 126 112 107 76 121 26 47 62 0
131 130 127 126 110 104 74 118 25 45 60 0
131 130 127 126 94 93 69 100 16 38 55 0
131 130 127 126 84 83 67 91 11 37 52 0
131 130 127 124 112 107 76 121 26 47 89 0
131 130 127 124 110 104 74 118 25 45 86 0
131 130 127 124 94 93 69 100 16 38 81 0
131 130 127 124 58 56 50 64 5 32 53 0
131 130 127 112 107 76 121 26 47 89 62 0
131 130 127 110 104 74 118 25 45 86 60 0
131 130 127 94 93 69 100 16 38 81 55 0
131 130 123 126 124 112 107 76 121 26 99 0
131 130 123 126 124 110 104 74 118 25 97 0
131 130 123 126 124 42 41 35 48 2 39 0
131 130 123 126 124 84 83 67 91 11 80 0
131 130 123 126 124 58 56 50 64 5 54 0
131 130 123 126 112 107 76 121 26 99 62 0
131 130 123 126 110 104 74 118 25 97 60 0
131 130 123 126 42 41 35 48 2 39 33 0
131 130 123 126 84 83 67 91 11 80 52 0
131 130 123 124 112 107 76 121 26 99 89 0
131 130 123 124 110 104 74 118 25 97 86 0
131 130 123 124 42 41 35 48 2 39 36 0
131 130 123 124 58 56 50 64 5 54 53 0
131 130 123 112 107 76 121 26 99 89 62 0
131 130 123 110 104 74 118 25 97 86 60 0
131 130 123 42 41 35 48 2 39 36 33 0
131 130 126 124 112 107 76 121 26 99 47 0
131 130 126 124 110 104 74 118 25 97 45 0
131 130 126 124 84 83 67 91 11 80 37 0
131 130 126 124 58 56 50 64 5 54 32 0
131 130 126 112 107 76 121 26 99 47 62 0
131 130 126 110 104 74 118 25 97 45 60 0
131 130 126 84 83 67 91 11 80 37 52 0
131 130 124 112 107 76 121 26 99 47 89 0
131 130 124 110 104 74 118 25 97 45 86 0
131 130 124 58 56 50 64 5 54 32 53 0
131 130 112 107 76 121 26 99 47 89 62 0
131 130 110 104 74 118 25 97 45 86 60 0
131 132 122 127 123 126 124 112 107 76 116 0
131 132 122 127 123 126 124 115 108 79 119 0
131 132 122 127 123 126 124 21 17 8 23 0
131 132 122 127 123 126 124 94 93 69 96 0
131 132 122 127 123 126 124 42 41 35 44 0
131 132 122 127 123 126 124 84 83 67 87 0
131 132 122 127 123 126 124 58 56 50 61 0
131 132 122 127 123 126 112 107 76 116 62 0
131 132 122 127 123 126 115 108 79 119 65 0
131 132 122 127 123 126 21 17 8 23 6 0
131 132 122 127 123 126 94 93 69 96 55 0
131 132 122 127 123 126 42 41 35 44 33 0
131 132 122 127 123 126 84 83 67 87 52 0
131 132 122 127 123 124 112 107 76 116 89 0
131 132 122 127 123 124 115 108 79 119 90 0
131 132 122 127 123 124 21 17 8 23 13 0
131 132 122 127 123 124 94 93 69 96 81 0
131 132 122 127 123 124 42 41 35 44 36 0
131 132 122 127 123 124 58 56 50 61 53 0
131 132 122 127 123 112 107 76 116 89 62 0
131 132 122 127 123 115 108 79 119 90 65 0
131 132 122 127 123 21 17 8 23 13 6 0
131 132 122 127 123 94 93 69 96 81 55 0
131 132 122 127 123 42 41 35 44 36 33 0
131 132 122 127 126 124 112 107 76 116 47 0
131 132 122 127 126 124 115 108 79 119 49 0
131 132 122 127 126 124 21 17 8 23 3 0
131 132 122 127 126 124 94 93 69 96 38 0
131 132 122 127 126 124 84 83 67 87 37 0
131 132 122 127 126 124 58 56 50 61 32 0
131 132 122 127 126 112 107 76 116 47 62 0
131 132 122 127 126 115 108 79 119 49 65 0
131 132 122 127 126 21 17 8 23 3 6 0
131 132 122 127 126 94 93 69 96 38 55 0
131 132 122 127 126 84 83 67 87 37 52 0
131 132 122 127 124 112 107 76 116 47 89 0
131 132 122 127 124 115 108 79 119 49 90 0
131 132 122 127 124 21 17 8 23 3 13 0
131 132 122 127 124 94 93 69 96 38 81 0
131 132 122 127 124 58 56 50 61 32 53 0
131 132 122 127 112 107 76 116 47 89 62 0
131 132 122 127 115 108 79 119 49 90 65 0
131 132 122 127 21 17 8 23 3 13 6 0
131 132 122 127 94 93 69 96 38 81 55 0
131 132 122 123 126 124 112 107 76 116 99 0
131 132 122 123 126 124 115 108 79 119 101 0
131 132 122 123 126 124 21 17 8 23 14 0
131 132 122 123 126 124 42 41 35 44 39 0
131 132 122 123 126 124 84 83 67 87 80 0
131 132 122 123 126 124 58 56 50 61 54 0
131 132 122 123 126 112 107 76 116 99 62 0
131 132 122 123 126 115 108 79 119 101 65 0
131 132 122 123 126 21 17 8 23 14 6 0
131 132 122 123 126 42 41 35 44 39 33 0
131 132 122 123 126 84 83 67 87 80 52 0
131 132 122 123 124 112 107 76 116 99 89 0
131 132 122 123 124 115 108 79 119 101 90 0
131 132 122 123 124 21 17 8 23 14 13 0
131 132 122 123 124 42 41 35 44 39 36 0
131 132 122 123 124 58 56 50 61 54 53 0
131 132 122 123 112 107 76 116 99 89 62 0
131 132 122 123 115 108 79 119 101 90 65 0
131 132 122 123 21 17 8 23 14 13 6 0
131 132 122 123 42 41 35 44 39 36 33 0
131 132 122 126 124 112 107 76 116 99 47 0
131 132 122 126 124 115 108 79 119 101 49 0
131 132 122 126 124 21 17 8 23 14 3 0
131 132 122 126 124 84 83 67 87 80 37 0
131 132 122 126 124 58 56 50 61 54 32 0
131 132 122 126 112 107 76 116 99 47 62 0
131 132 122 126 115 108 79 119 101 49 65 0
131 132 122 126 21 17 8 23 14 3 6 0
131 132 122 126 84 83 67 87 80 37 52 0
131 132 122 124 112 107 76 116 99 47 89 0
131 132 122 124 115 108 79 119 101 49 90 0
131 132 122 124 21 17 8 23 14 3 13 0
131 132 122 124 58 56 50 61 54 32 53 0
131 132 122 112 107 76 116 99 47 89 62 0
131 132 122 115 108 79 119 101 49 90 65 0
131 132 122 21 17 8 23 14 3 13 6 0
131 132 127 123 126 124 112 107 76 116 26 0
131 132 127 123 126 124 115 108 79 119 29 0
131 132 127 123 126 124 94 93 69 96 16 0
131 132 127 123 126 124 42 41 35 44 2 0
131 132 127 123 126 124 84 83 67 87 11 0
131 132 127 123 126 124 58 56 50 61 5 0
131 132 127 123 126 112 107 76 116 26 62 0
131 132 127 123 126 115 108 79 119 29 65 0
131 132 127 123 126 94 93 69 96 16 55 0
131 132 127 123 126 42 41 35 44 2 33 0
131 132 127 123 126 84 83 67 87 11 52 0
131 132 127 123 124 112 107 76 116 26 89 0
131 132 127 123 124 115 108 79 119 29 90 0
131 132 127 123 124 94 93 69 96 16 81 0
131 132 127 123 124 42 41 35 44 2 36 0
131 132 127 123 124 58 56 50 61 5 53 0
131 132 127 123 112 107 76 116 26 89 62 0
131 132 127 123 115 108 79 119 29 90 65 0
131 132 127 123 94 93 69 96 16 81 55 0
131 132 127 123 42 41 35 44 2 36 33 0
131 132 127 126 124 112 107 76 116 26 47 0
131 132 127 126 124 115 108 79 119 29 49 0
131 132 127 126 124 94 93 69 96 16 38 0
131 132 127 126 124 84 83 67 87 11 37 0
131 132 127 126 124 58 56 50 61 5 32 0
131 132 127 126 112 107 76 116 26 47 62 0
131 132 127 126 115 108 79 119 29 49 65 0
131 132 127 126 94 93 69 96 16 38 55 0
131 132 127 126 84 83 67 87 11 37 52 0
131 132 127 124 112 107 76 116 26 47 89 0
131 132 127 124 115 108 79 119 29 49 90 0
131 132 127 124 94 93 69 96 16 38 81 0
131 132 127 124 58 56 50 61 5 32 53 0
131 132 127 112 107 76 116 26 47 89 62 0
131 132 127 115 108 79 119 29 49 90 65 0
131 132 127 94 93 69 96 16 38 81 55 0
131 132 123 126 124 112 107 76 116 26 99 0
131 132 123 126 124 115 108 79 119 29 101 0
131 132 123 126 124 42 41 35 44 2 39 0
131 132 123 126 124 84 83 67 87 11 80 0
131 132 123 126 124 58 56 50 61 5 54 0
131 132 123 126 112 107 76 116 26 99 62 0
131 132 123 126 115 108 79 119 29 101 65 0
131 132 123 126 42 41 35 44 2 39 33 0
131 132 123 126 84 83 67 87 11 80 52 0
131 132 123 124 112 107 76 116 26 99 89 0
131 132 123 124 115 108 79 119 29 101 90 0
131 132 123 124 42 41 35 44 2 39 36 0
131 132 123 124 58 56 50 61 5 54 53 0
131 132 123 112 107 76 116 26 99 89 62 0
131 132 123 115 108 79 119 29 101 90 65 0
131 132 123 42 41 35 44 2 39 36 33 0
131 132 126 124 112 107 76 116 26 99 47 0
131 132 126 124 115 108 79 119 29 101 49 0
131 132 126 124 84 83 67 87 11 80 37 0
131 132 126 124 58 56 50 61 5 54 32 0
131 132 126 112 107 76 116 26 99 47 62 0
131 132 126 115 108 79 119 29 101 49 65 0
131 132 126 84 83 67 87 11 80 37 52 0
131 132 124 112 107 76 116 26 99 47 89 0
131 132 124 115 108 79 119 29 101 49 90 0
131 132 124 58 56 50 61 5 54 32 53 0
131 132 112 107 76 116 26 99 47 89 62 0
131 132 115 108 79 119 29 101 49 90 65 0
131 122 127 123 126 124 112 107 76 116 121 0
131 122 127 123 126 124 21 17 8 23 31 0
131 122 127 123 126 124 94 93 69 96 100 0
131 122 127 123 126 124 42 41 35 44 48 0
131 122 127 123 126 124 84 83 67 87 91 0
131 122 127 123 126 124 58 56 50 61 64 0
131 122 127 123 126 112 107 76 116 121 62 0
131 122 127 123 126 21 17 8 23 31 6 0
131 122 127 123 126 94 93 69 96 100 55 0
131 122 127 123 126 42 41 35 44 48 33 0
131 122 127 123 126 84 83 67 87 91 52 0
131 122 127 123 124 112 107 76 116 121 89 0
131 122 127 123 124 21 17 8 23 31 13 0
131 122 127 123 124 94 93 69 96 100 81 0
131 122 127 123 124 42 41 35 44 48 36 0
131 122 127 123 124 58 56 50 61 64 53 0
131 122 127 123 112 107 76 116 121 89 62 0
131 122 127 123 21 17 8 23 31 13 6 0
131 122 127 123 94 93 69 96 100 81 55 0
131 122 127 123 42 41 35 44 48 36 33 0
131 122 127 126 124 112 107 76 116 121 47 0
131 122 127 126 124 21 17 8 23 31 3 0
131 122 127 126 124 94 93 69 96 100 38 0
131 122 127 126 124 84 83 67 87 91 37 0
131 122 127 126 124 58 56 50 61 64 32 0
131 122 127 126 112 107 76 116 121 47 62 0
131 122 127 126 21 17 8 23 31 3 6 0
131 122 127 126 94 93 69 96 100 38 55 0
131 122 127 126 84 83 67 87 91 37 52 0
131 122 127 124 112 107 76 116 121 47 89 0
131 122 127 124 21 17 8 23 31 3 13 0
131 122 127 124 94 93 69 96 100 38 81 0
131 122 127 124 58 56 50 61 64 32 53 0
131 122 127 112 107 76 116 121 47 89 62 0
131 122 127 21 17 8 23 31 3 13 6 0
131 122 127 94 93 69 96 100 38 81 55 0
131 122 123 126 124 112 107 76 116 121 99 0
131 122 123 126 124 21 17 8 23 31 14 0
131 122 123 126 124 42 41 35 44 48 39 0
131 122 123 126 124 84 83 67 87 91 80 0
131 122 123 126 124 58 56 50 61 64 54 0
131 122 123 126 112 107 76 116 121 99 62 0
131 122 123 126 21 17 8 23 31 14 6 0
131 122 123 126 42 41 35 44 48 39 33 0
131 122 123 126 84 83 67 87 91 80 52 0
131 122 123 124 112 107 76 116 121 99 89 0
131 122 123 124 21 17 8 23 31 14 13 0
131 122 123 124 42 41 35 44 48 39 36 0
131 122 123 124 58 56 50 61 64 54 53 0
131 122 123 112 107 76 116 121 99 89 62 0
131 122 123 21 17 8 23 31 14 13 6 0
131 122 123 42 41 35 44 48 39 36 33 0
131 122 126 124 112 107 76 116 121 99 47 0
131 122 126 124 21 17 8 23 31 14 3 0
131 122 126 124 84 83 67 87 91 80 37 0
131 122 126 124 58 56 50 61 64 54 32 0
131 122 126 112 107 76 116 121 99 47 62 0
131 122 126 21 17 8 23 31 14 3 6 0
131 122 126 84 83 67 87 91 80 37 52 0
131 122 124 112 107 76 116 121 99 47 89 0
131 122 124 21 17 8 23 31 14 3 13 0
131 122 124 58 56 50 61 64 54 32 53 0
131 122 112 107 76 116 121 99 47 89 62 0
131 122 21 17 8 23 31 14 3 13 6 0
131 127 123 126 124 112 107 76 116 121 26 0
131 127 123 126 124 94 93 69 96 100 16 0
131 127 123 126 124 42 41 35 44 48 2 0
131 127 123 126 124 84 83 67 87 91 11 0
131 127 123 126 124 58 56 50 61 64 5 0
131 127 123 126 112 107 76 116 121 26 62 0
131 127 123 126 94 93 69 96 100 16 55 0
131 127 123 126 42 41 35 44 48 2 33 0
131 127 123 126 84 83 67 87 91 11 52 0
131 127 123 124 112 107 76 116 121 26 89 0
131 127 123 124 94 93 69 96 100 16 81 0
131 127 123 124 42 41 35 44 48 2 36 0
131 127 123 124 58 56 50 61 64 5 53 0
131 127 123 112 107 76 116 121 26 89 62 0
131 127 123 94 93 69 96 100 16 81 55 0
131 127 123 42 41 35 44 48 2 36 33 0
131 127 126 124 112 107 76 116 121 26 47 0
131 127 126 124 94 93 69 96 100 16 38 0
131 127 126 124 84 83 67 87 91 11 37 0
131 127 126 124 58 56 50 61 64 5 32 0
131 127 126 112 107 76 116 121 26 47 62 0
131 127 126 94 93 69 96 100 16 38 55 0
131 127 126 84 83 67 87 91 11 37 52 0
131 127 124 112 107 76 116 121 26 47 89 0
131 127 124 94 93 69 96 100 16 38 81 0
131 127 124 58 56 50 61 64 5 32 53 0
131 127 112 107 76 116 121 26 47 89 62 0
131 127 94 93 69 96 100 16 38 81 55 0
131 123 126 124 112 107 76 116 121 26 99 0
131 123 126 124 42 41 35 44 48 2 39 0
131 123 126 124 84 83 67 87 91 11 80 0
131 123 126 124 58 56 50 61 64 5 54 0
131 123 126 112 107 76 116 121 26 99 62 0
131 123 126 42 41 35 44 48 2 39 33 0
131 123 126 84 83 67 87 91 11 80 52 0
131 123 124 112 107 76 116 121 26 99 89 0
131 123 124 42 41 35 44 48 2 39 36 0
131 123 124 58 56 50 61 64 5 54 53 0
131 123 112 107 76 116 121 26 99 89 62 0
131 123 42 41 35 44 48 2 39 36 33 0
131 126 124 112 107 76 116 121 26 99 47 0
131 126 124 84 83 67 87 91 11 80 37 0
131 126 124 58 56 50 61 64 5 54 32 0
131 126 112 107 76 116 121 26 99 47 62 0
131 126 84 83 67 87 91 11 80 37 52 0
131 124 112 107 76 116 121 26 99 47 89 0
131 124 58 56 50 61 64 5 54 32 53 0
131 112 107 76 116 121 26 99 47 89 62 0
129 128 125 130 132 122 127 123 126 124 113 0
129 128 125 130 132 122 127 123 126 124 106 0
129 128 125 130 132 122 127 123 126 124 77 0
129 128 125 130 132 122 127 123 126 124 117 0
129 128 125 130 132 122 127 123 126 124 120 0
129 128 125 130 132 122 127 123 126 124 28 0
129 128 125 130 132 122 127 123 126 124 98 0
129 128 125 130 132 122 127 123 126 124 46 0
129 128 125 130 132 122 127 123 126 124 88 0
129 128 125 130 132 122 127 123 126 124 63 0
129 128 125 130 132 122 127 123 126 113 59 0
129 128 125 130 132 122 127 123 126 106 57 0
129 128 125 130 132 122 127 123 126 77 51 0
129 128 125 130 132 122 127 123 126 117 60 0
129 128 125 130 132 122 127 123 126 120 65 0
129 128 125 130 132 122 127 123 126 28 6 0
129 128 125 130 132 122 127 123 126 98 55 0
129 128 125 130 132 122 127 123 126 46 33 0
129 128 125 130 132 122 127 123 126 88 52 0
129 128 125 130 132 122 127 123 124 113 85 0
129 128 125 130 132 122 127 123 124 106 82 0
129 128 125 130 132 122 127 123 124 77 66 0
129 128 125 130 132 122 127 123 124 117 86 0
129 128 125 130 132 122 127 123 124 120 90 0
129 128 125 130 132 122 127 123 124 28 13 0
129 128 125 130 132 122 127 123 124 98 81 0
129 128 125 130 132 122 127 123 124 46 36 0
129 128 125 130 132 122 127 123 124 63 53 0
129 128 125 130 132 122 127 123 113 85 59 0
129 128 125 130 132 122 127 123 106 82 57 0
129 128 125 130 132 122 127 123 77 66 51 0
129 128 125 130 132 122 127 123 117 86 60 0
129 128 125 130 132 122 127 123 120 90 65 0
129 128 125 130 132 122 127 123 28 13 6 0
129 128 125 130 132 122 127 123 98 81 55 0
129 128 125 130 132 122 127 123 46 36 33 0
129 128 125 130 132 122 127 126 124 113 43 0
129 128 125 130 132 122 127 126 124 106 40 0
129 128 125 130 132 122 127 126 124 77 34 0
129 128 125 130 132 122 127 126 124 117 45 0
129 128 125 130 132 122 127 126 124 120 49 0
129 128 125 130 132 122 127 126 124 28 3 0
129 128 125 130 132 122 127 126 124 98 38 0
129 128 125 130 132 122 127 126 124 88 37 0
129 128 125 130 132 122 127 126 124 63 32 0
129 128 125 130 132 122 127 126 113 43 59 0
129 128 125 130 132 122 127 126 106 40 57 0
129 128 125 130 132 122 127 126 77 34 51 0
129 128 125 130 132 122 127 126 117 45 60 0
129 128 125 130 132 122 127 126 120 49 65 0
129 128 125 130 132 122 127 126 28 3 6 0
129 128 125 130 132 122 127 126 98 38 55 0
129 128 125 130 132 122 127 126 88 37 52 0
129 128 125 130 132 122 127 124 113 43 85 0
129 128 125 130 132 122 127 124 106 40 82 0
129 128 125 130 132 122 127 124 77 34 66 0
129 128 125 130 132 122 127 124 117 45 86 0
129 128 125 130 132 122 127 124 120 49 90 0
129 128 125 130 132 122 127 124 28 3 13 0
129 128 125 130 132 122 127 124 98 38 81 0
129 128 125 130 132 122 127 124 63 32 53 0
129 128 125 130 132 122 127 113 43 85 59 0
129 128 125 130 132 122 127 106 40 82 57 0
129 128 125 130 132 122 127 77 34 66 51 0
129 128 125 130 132 122 127 117 45 86 60 0
129 128 125 130 132 122 127 120 49 90 65 0
129 128 125 130 132 122 127 28 3 13 6 0
129 128 125 130 132 122 127 98 38 81 55 0
129 128 125 130 132 122 123 126 124 113 95 0
129 128 125 130 132 122 123 126 124 106 92 0
129 128 125 130 132 122 123 126 124 77 68 0
129 128 125 130 132 122 123 126 124 117 97 0
129 128 125 130 132 122 123 126 124 120 101 0
129 128 125 130 132 122 123 126 124 28 14 0
129 128 125 130 132 122 123 126 124 46 39 0
129 128 125 130 132 122 123 126 124 88 80 0
129 128 125 130 132 122 123 126 124 63 54 0
129 128 125 130 132 122 123 126 113 95 59 0
129 128 125 130 132 122 123 126 106 92 57 0
129 128 125 130 132 122 123 126 77 68 51 0
129 128 125 130 132 122 123 126 117 97 60 0
129 128 125 130 132 122 123 126 120 101 65 0
129 128 125 130 132 122 123 126 28 14 6 0
129 128 125 130 132 122 123 126 46 39 33 0
129 128 125 130 132 122 123 126 88 80 52 0
129 128 125 130 132 122 123 124 113 95 85 0
129 128 125 130 132 122 123 124 106 92 82 0
129 128 125 130 132 122 123 124 77 68 66 0
129 128 125 130 132 122 123 124 117 97 86 0
129 128 125 130 132 122 123 124 120 101 90 0
129 128 125 130 132 122 123 124 28 14 13 0
129 128 125 130 132 122 123 124 46 39 36 0
129 128 125 130 132 122 123 124 63 54 53 0
129 128 125 130 132 122 123 113 95 85 59 0
129 128 125 130 132 122 123 106 92 82 57 0
129 128 125 130 132 122 123 77 68 66 51 0
129 128 125 130 132 122 123 117 97 86 60 0
129 128 125 130 132 122 123 120 101 90 65 0
129 128 125 130 132 122 123 28 14 13 6 0
129 128 125 130 132 122 123 46 39 36 33 0
129 128 125 130 132 122 126 124 113 95 43 0
129 128 125 130 132 122 126 124 106 92 40 0
129 128 125 130 132 122 126 124 77 68 34 0
129 128 125 130 132 122 126 124 117 97 45 0
129 128 125 130 132 122 126 124 120 101 49 0
129 128 125 130 132 122 126 124 28 14 3 0
129 128 125 130 132 122 126 124 88 80 37 0
129 128 125 130 132 122 126 124 63 54 32 0
129 128 125 130 132 122 126 113 95 43 59 0
129 128 125 130 132 122 126 106 92 40 57 0
129 128 125 130 132 122 126 77 68 34 51 0
129 128 125 130 132 122 126 117 97 45 60 0
129 128 125 130 132 122 126 120 101 49 65 0
129 128 125 130 132 122 126 28 14 3 6 0
129 128 125 130 132 122 126 88 80 37 52 0
129 128 125 130 132 122 124 113 95 43 85 0
129 128 125 130 132 122 124 106 92 40 82 0
129 128 125 130 132 122 124 77 68 34 66 0
129 128 125 130 132 122 124 117 97 45 86 0
129 128 125 130 132 122 124 120 101 49 90 0
129 128 125 130 132 122 124 28 14 3 13 0
129 128 125 130 132 122 124 63 54 32 53 0
129 128 125 130 132 122 113 95 43 85 59 0
129 128 125 130 132 122 106 92 40 82 57 0
129 128 125 130 132 122 77 68 34 66 51 0
129 128 125 130 132 122 117 97 45 86 60 0
129 128 125 130 132 122 120 101 49 90 65 0
129 128 125 130 132 122 28 14 3 13 6 0
129 128 125 130 132 127 123 126 124 113 22 0
129 128 125 130 132 127 123 126 124 106 18 0
129 128 125 130 132 127 123 126 124 77 9 0
129 128 125 130 132 127 123 126 124 117 25 0
129 128 125 130 132 127 123 126 124 120 29 0
129 128 125 130 132 127 123 126 124 98 16 0
129 128 125 130 132 127 123 126 124 46 2 0
129 128 125 130 132 127 123 126 124 88 11 0
129 128 125 130 132 127 123 126 124 63 5 0
129 128 125 130 132 127 123 126 113 22 59 0
129 128 125 130 132 127 123 126 106 18 57 0
129 128 125 130 132 127 123 126 77 9 51 0
129 128 125 130 132 127 123 126 117 25 60 0
129 128 125 130 132 127 123 126 120 29 65 0
129 128 125 130 132 127 123 126 98 16 55 0
129 128 125 130 132 127 123 126 46 2 33 0
129 128 125 130 132 127 123 126 88 11 52 0
129 128 125 130 132 127 123 124 113 22 85 0
129 128 125 130 132 127 123 124 106 18 82 0
129 128 125 130 132 127 123 124 77 9 66 0
129 128 125 130 132 127 123 124 117 25 86 0
129 128 125 130 132 127 123 124 120 29 90 0
129 128 125 130 132 127 123 124 98 16 81 0
129 128 125 130 132 127 123 124 46 2 36 0
129 128 125 130 132 127 123 124 63 5 53 0
129 128 125 130 132 127 123 113 22 85 59 0
129 128 125 130 132 127 123 106 18 82 57 0
129 128 125 130 132 127 123 77 9 66 51 0
129 128 125 130 132 127 123 117 25 86 60 0
129 128 125 130 132 127 123 120 29 90 65 0
129 128 125 130 132 127 123 98 16 81 55 0
129 128 125 130 132 127 123 46 2 36 33 0
129 128 125 130 132 127 126 124 113 22 43 0
129 128 125 130 132 127 126 124 106 18 40 0
129 128 125 130 132 127 126 124 77 9 34 0
129 128 125 130 132 127 126 124 117 25 45 0
129 128 125 130 132 127 126 124 120 29 49 0
129 128 125 130 132 127 126 124 98 16 38 0
129 128 125 130 132 127 126 124 88 11 37 0
129 128 125 130 132 127 126 124 63 5 32 0
129 128 125 130 132 127 126 113 22 43 59 0
129 128 125 130 132 127 126 106 18 40 57 0
129 128 125 130 132 127 126 77 9 34 51 0
129 128 125 130 132 127 126 117 25 45 60 0
129 128 125 130 132 127 126 120 29 49 65 0
129 128 125 130 132 127 126 98 16 38 55 0
129 128 125 130 132 127 126 88 11 37 52 0
129 128 125 130 132 127 124 113 22 43 85 0
129 128 125 130 132 127 124 106 18 40 82 0
129 128 125 130 132 127 124 77 9 34 66 0
129 128 125 130 132 127 124 117 25 45 86 0
129 128 125 130 132 127 124 120 29 49 90 0
129 128 125 130 132 127 124 98 16 38 81 0
129 128 125 130 132 127 124 63 5 32 53 0
129 128 125 130 132 127 113 22 43 85 59 0
129 128 125 130 132 127 106 18 40 82 57 0
129 128 125 130 132 127 77 9 34 66 51 0
129 128 125 130 132 127 117 25 45 86 60 0
129 128 125 130 132 127 120 29 49 90 65 0
129 128 125 130 132 127 98 16 38 81 55 0
129 128 125 130 132 123 126 124 113 22 95 0
129 128 125 130 132 123 126 124 106 18 92 0
129 128 125 130 132 123 126 124 77 9 68 0
129 128 125 130 132 123 126 124 117 25 97 0
129 128 125 130 132 123 126 124 120 29 101 0
129 128 125 130 132 123 126 124 46 2 39 0
129 128 125 130 132 123 126 124 88 11 80 0
129 128 125 130 132 123 126 124 63 5 54 0
129 128 125 130 132 123 126 113 22 95 59 0
129 128 125 130 132 123 126 106 18 92 57 0
129 128 125 130 132 123 126 77 9 68 51 0
129 128 125 130 132 123 126 117 25 97 60 0
129 128 125 130 132 123 126 120 29 101 65 0
129 128 125 130 132 123 126 46 2 39 33 0
129 128 125 130 132 123 126 88 11 80 52 0
129 128 125 130 132 123 124 113 22 95 85 0
129 128 125 130 132 123 124 106 18 92 82 0
129 128 125 130 132 123 124 77 9 68 66 0
129 128 125 130 132 123 124 117 25 97 86 0
129 128 125 130 132 123 124 120 29 101 90 0
129 128 125 130 132 123 124 46 2 39 36 0
129 128 125 130 132 123 124 63 5 54 53 0
129 128 125 130 132 123 113 22 95 85 59 0
129 128 125 130 132 123 106 18 92 82 57 0
129 128 125 130 132 123 77 9 68 66 51 0
129 128 125 130 132 123 117 25 97 86 60 0
129 128 125 130 132 123 120 29 101 90 65 0
129 128 125 130 132 123 46 2 39 36 33 0
129 128 125 130 132 126 124 113 22 95 43 0
129 128 125 130 132 126 124 106 18 92 40 0
129 128 125 130 132 126 124 77 9 68 34 0
129 128 125 130 132 126 124 117 25 97 45 0
129 128 125 130 132 126 124 120 29 101 49 0
129 128 125 130 132 126 124 88 11 80 37 0
129 128 125 130 132 126 124 63 5 54 32 0
129 128 125 130 132 126 113 22 95 43 59 0
129 128 125 130 132 126 106 18 92 40 57 0
129 128 125 130 132 126 77 9 68 34 51 0
129 128 125 130 132 126 117 25 97 45 60 0
129 128 125 130 132 126 120 29 101 49 65 0
129 128 125 130 132 126 88 11 80 37 52 0
129 128 125 130 132 124 113 22 95 43 85 0
129 128 125 130 132 124 106 18 92 40 82 0
129 128 125 130 132 124 77 9 68 34 66 0
129 128 125 130 132 124 117 25 97 45 86 0
129 128 125 130 132 124 120 29 101 49 90 0
129 128 125 130 132 124 63 5 54 32 53 0
129 128 125 130 132 113 22 95 43 85 59 0
129 128 125 130 132 106 18 92 40 82 57 0
129 128 125 130 132 77 9 68 34 66 51 0
129 128 125 130 132 117 25 97 45 86 60 0
129 128 125 130 132 120 29 101 49 90 65 0
129 128 125 130 122 127 123 126 124 113 114 0
129 128 125 130 122 127 123 126 124 106 109 0
129 128 125 130 122 127 123 126 124 77 78 0
129 128 125 130 122 127 123 126 124 117 118 0
129 128 125 130 122 127 123 126 124 28 31 0
129 128 125 130 122 127 123 126 124 98 100 0
129 128 125 130 122 127 123 126 124 46 48 0
129 128 125 130 122 127 123 126 124 88 91 0
129 128 125 130 122 127 123 126 124 63 64 0
129 128 125 130 122 127 123 126 113 114 59 0
129 128 125 130 122 127 123 126 106 109 57 0
129 128 125 130 122 127 123 126 77 78 51 0
129 128 125 130 122 127 123 126 117 118 60 0
129 128 125 130 122 127 123 126 28 31 6 0
129 128 125 130 122 127 123 126 98 100 55 0
129 128 125 130 122 127 123 126 46 48 33 0
129 128 125 130 122 127 123 126 88 91 52 0
129 128 125 130 122 127 123 124 113 114 85 0
129 128 125 130 122 127 123 124 106 109 82 0
129 128 125 130 122 127 123 124 77 78 66 0
129 128 125 130 122 127 123 124 117 118 86 0
129 128 125 130 122 127 123 124 28 31 13 0
129 128 125 130 122 127 123 124 98 100 81 0
129 128 125 130 122 127 123 124 46 48 36 0
129 128 125 130 122 127 123 124 63 64 53 0
129 128 125 130 122 127 123 113 114 85 59 0
129 128 125 130 122 127 123 106 109 82 57 0
129 128 125 130 122 127 123 77 78 66 51 0
129 128 125 130 122 127 123 117 118 86 60 0
129 128 125 130 122 127 123 28 31 13 6 0
129 128 125 130 122 127 123 98 100 81 55 0
129 128 125 130 122 127 123 46 48 36 33 0
129 128 125 130 122 127 126 124 113 114 43 0
129 128 125 130 122 127 126 124 106 109 40 0
129 128 125 130 122 127 126 124 77 78 34 0
129 128 125 130 122 127 126 124 117 118 45 0
129 128 125 130 122 127 126 124 28 31 3 0
129 128 125 130 122 127 126 124 98 100 38 0
129 128 125 130 122 127 126 124 88 91 37 0
129 128 125 130 122 127 126 124 63 64 32 0
129 128 125 130 122 127 126 113 114 43 59 0
129 128 125 130 122 127 126 106 109 40 57 0
129 128 125 130 122 127 126 77 78 34 51 0
129 128 125 130 122 127 126 117 118 45 60 0
129 128 125 130 122 127 126 28 31 3 6 0
129 128 125 130 122 127 126 98 100 38 55 0
129 128 125 130 122 127 126 88 91 37 52 0
129 128 125 130 122 127 124 113 114 43 85 0
129 128 125 130 122 127 124 106 109 40 82 0
129 128 125 130 122 127 124 77 78 34 66 0
129 128 125 130 122 127 124 117 118 45 86 0
129 128 125 130 122 127 124 28 31 3 13 0
129 128 125 130 122 127 124 98 100 38 81 0
129 128 125 130 122 127 124 63 64 32 53 0
129 128 125 130 122 127 113 114 43 85 59 0
129 128 125 130 122 127 106 109 40 82 57 0
129 128 125 130 122 127 77 78 34 66 51 0
129 128 125 130 122 127 117 118 45 86 60 0
129 128 125 130 122 127 28 31 3 13 6 0
129 128 125 130 122 127 98 100 38 81 55 0
129 128 125 130 122 123 126 124 113 114 95 0
129 128 125 130 122 123 126 124 106 109 92 0
129 128 125 130 122 123 126 124 77 78 68 0
129 128 125 130 122 123 126 124 117 118 97 0
129 128 125 130 122 123 126 124 28 31 14 0
129 128 125 130 122 123 126 124 46 48 39 0
129 128 125 130 122 123 126 124 88 91 80 0
129 128 125 130 122 123 126 124 63 64 54 0
129 128 125 130 122 123 126 113 114 95 59 0
129 128 125 130 122 123 126 106 109 92 57 0
129 128 125 130 122 123 126 77 78 68 51 0
129 128 125 130 122 123 126 117 118 97 60 0
129 128 125 130 122 123 126 28 31 14 6 0
129 128 125 130 122 123 126 46 48 39 33 0
129 128 125 130 122 123 126 88 91 80 52 0
129 128 125 130 122 123 124 113 114 95 85 0
129 128 125 130 122 123 124 106 109 92 82 0
129 128 125 130 122 123 124 77 78 68 66 0
129 128 125 130 122 123 124 117 118 97 86 0
129 128 125 130 122 123 124 28 31 14 13 0
129 128 125 130 122 123 124 46 48 39 36 0
129 128 125 130 122 123 124 63 64 54 53 0
129 128 125 130 122 123 113 114 95 85 59 0
129 128 125 130 122 123 106 109 92 82 57 0
129 128 125 130 122 123 77 78 68 66 51 0
129 128 125 130 122 123 117 118 97 86 60 0
129 128 125 130 122 123 28 31 14 13 6 0
129 128 125 130 122 123 46 48 39 36 33 0
129 128 125 130 122 126 124 113 114 95 43 0
129 128 125 130 122 126 124 106 109 92 40 0
129 128 125 130 122 126 124 77 78 68 34 0
129 128 125 130 122 126 124 117 118 97 45 0
129 128 125 130 122 126 124 28 31 14 3 0
129 128 125 130 122 126 124 88 91 80 37 0
129 128 125 130 122 126 124 63 64 54 32 0
129 128 125 130 122 126 113 114 95 43 59 0
129 128 125 130 122 126 106 109 92 40 57 0
129 128 125 130 122 126 77 78 68 34 51 0
129 128 125 130 122 126 117 118 97 45 60 0
129 128 125 130 122 126 28 31 14 3 6 0
129 128 125 130 122 126 88 91 80 37 52 0
129 128 125 130 122 124 113 114 95 43 85 0
129 128 125 130 122 124 106 109 92 40 82 0
129 128 125 130 122 124 77 78 68 34 66 0
129 128 125 130 122 124 117 118 97 45 86 0
129 128 125 130 122 124 28 31 14 3 13 0
129 128 125 130 122 124 63 64 54 32 53 0
129 128 125 130 122 113 114 95 43 85 59 0
129 128 125 130 122 106 109 92 40 82 57 0
129 128 125 130 122 77 78 68 34 66 51 0
129 128 125 130 122 117 118 97 45 86 60 0
129 128 125 130 122 28 31 14 3 13 6 0
129 128 125 130 127 123 126 124 113 114 22 0
129 128 125 130 127 123 126 124 106 109 18 0
129 128 125 130 127 123 126 124 77 78 9 0
129 128 125 130 127 123 126 124 117 118 25 0
129 128 125 130 127 123 126 124 98 100 16 0
129 128 125 130 127 123 126 124 46 48 2 0
129 128 125 130 127 123 126 124 88 91 11 0
129 128 125 130 127 123 126 124 63 64 5 0
129 128 125 130 127 123 126 113 114 22 59 0
129 128 125 130 127 123 126 106 109 18 57 0
129 128 125 130 127 123 126 77 78 9 51 0
129 128 125 130 127 123 126 117 118 25 60 0
129 128 125 130 127 123 126 98 100 16 55 0
129 128 125 130 127 123 126 46 48 2 33 0
129 128 125 130 127 123 126 88 91 11 52 0
129 128 125 130 127 123 124 113 114 22 85 0
129 128 125 130 127 123 124 106 109 18 82 0
129 128 125 130 127 123 124 77 78 9 66 0
129 128 125 130 127 123 124 117 118 25 86 0
129 128 125 130 127 123 124 98 100 16 81 0
129 128 125 130 127 123 124 46 48 2 36 0
129 128 125 130 127 123 124 63 64 5 53 0
129 128 125 130 127 123 113 114 22 85 59 0
129 128 125 130 127 123 106 109 18 82 57 0
129 128 125 130 127 123 77 78 9 66 51 0
129 128 125 130 127 123 117 118 25 86 60 0
129 128 125 130 127 123 98 100 16 81 55 0
129 128 125 130 127 123 46 48 2 36 33 0
129 128 125 130 127 126 124 113 114 22 43 0
129 128 125 130 127 126 124 106 109 18 40 0
129 128 125 130 127 126 124 77 78 9 34 0
129 128 125 130 127 126 124 117 118 25 45 0
129 128 125 130 127 126 124 98 100 16 38 0
129 128 125 130 127 126 124 88 91 11 37 0
129 128 125 130 127 126 124 63 64 5 32 0
129 128 125 130 127 126 113 114 22 43 59 0
129 128 125 130 127 126 106 109 18 40 57 0
129 128 125 130 127 126 77 78 9 34 51 0
129 128 125 130 127 126 117 118 25 45 60 0
129 128 125 130 127 126 98 100 16 38 55 0
129 128 125 130 127 126 88 91 11 37 52 0
129 128 125 130 127 124 113 114 22 43 85 0
129 128 125 130 127 124 106 109 18 40 82 0
129 128 125 130 127 124 77 78 9 34 66 0
129 128 125 130 127 124 117 118 25 45 86 0
129 128 125 130 127 124 98 100 16 38 81 0
129 128 125 130 127 124 63 64 5 32 53 0
129 128 125 130 127 113 114 22 43 85 59 0
129 128 125 130 127 106 109 18 40 82 57 0
129 128 125 130 127 77 78 9 34 66 51 0
129 128 125 130 127 117 118 25 45 86 60 0
129 128 125 130 127 98 100 16 38 81 55 0
129 128 125 130 123 126 124 113 114 22 95 0
129 128 125 130 123 126 124 106 109 18 92 0
129 128 125 130 123 126 124 77 78 9 68 0
129 128 125 130 123 126 124 117 118 25 97 0
129 128 125 130 123 126 124 46 48 2 39 0
129 128 125 130 123 126 124 88 91 11 80 0
129 128 125 130 123 126 124 63 64 5 54 0
129 128 125 130 123 126 113 114 22 95 59 0
129 128 125 130 123 126 106 109 18 92 57 0
129 128 125 130 123 126 77 78 9 68 51 0
129 128 125 130 123 126 117 118 25 97 60 0
129 128 125 130 123 126 46 48 2 39 33 0
129 128 125 130 123 126 88 91 11 80 52 0
129 128 125 130 123 124 113 114 22 95 85 0
129 128 125 130 123 124 106 109 18 92 82 0
129 128 125 130 123 124 77 78 9 68 66 0
129 128 125 130 123 124 117 118 25 97 86 0
129 128 125 130 123 124 46 48 2 39 36 0
129 128 125 130 123 124 63 64 5 54 53 0
129 128 125 130 123 113 114 22 95 85 59 0
129 128 125 130 123 106 109 18 92 82 57 0
129 128 125 130 123 77 78 9 68 66 51 0
129 128 125 130 123 117 118 25 97 86 60 0
129 128 125 130 123 46 48 2 39 36 33 0
129 128 125 130 126 124 113 114 22 95 43 0
129 128 125 130 126 124 106 109 18 92 40 0
129 128 125 130 126 124 77 78 9 68 34 0
129 128 125 130 126 124 117 118 25 97 45 0
129 128 125 130 126 124 88 91 11 80 37 0
129 128 125 130 126 124 63 64 5 54 32 0
129 128 125 130 126 113 114 22 95 43 59 0
129 128 125 130 126 106 109 18 92 40 57 0
129 128 125 130 126 77 78 9 68 34 51 0
129 128 125 130 126 117 118 25 97 45 60 0
129 128 125 130 126 88 91 11 80 37 52 0
129 128 125 130 124 113 114 22 95 43 85 0
129 128 125 130 124 106 109 18 92 40 82 0
129 128 125 130 124 77 78 9 68 34 66 0
129 128 125 130 124 117 118 25 97 45 86 0
129 128 125 130 124 63 64 5 54 32 53 0
129 128 125 130 113 114 22 95 43 85 59 0
129 128 125 130 106 109 18 92 40 82 57 0
129 128 125 130 77 78 9 68 34 66 51 0
129 128 125 130 117 118 25 97 45 86 60 0
129 128 125 132 122 127 123 126 124 113 111 0
129 128 125 132 122 127 123 126 124 106 105 0
129 128 125 132 122 127 123 126 124 77 75 0
129 128 125 132 122 127 123 126 124 120 119 0
129 128 125 132 122 127 123 126 124 28 23 0
129 128 125 132 122 127 123 126 124 98 96 0
129 128 125 132 122 127 123 126 124 46 44 0
129 128 125 132 122 127 123 126 124 88 87 0
129 128 125 132 122 127 123 126 124 63 61 0
129 128 125 132 122 127 123 126 113 111 59 0
129 128 125 132 122 127 123 126 106 105 57 0
129 128 125 132 122 127 123 126 77 75 51 0
129 128 125 132 122 127 123 126 120 119 65 0
129 128 125 132 122 127 123 126 28 23 6 0
129 128 125 132 122 127 123 126 98 96 55 0
129 128 125 132 122 127 123 126 46 44 33 0
129 128 125 132 122 127 123 126 88 87 52 0
129 128 125 132 122 127 123 124 113 111 85 0
129 128 125 132 122 127 123 124 106 105 82 0
129 128 125 132 122 127 123 124 77 75 66 0
129 128 125 132 122 127 123 124 120 119 90 0
129 128 125 132 122 127 123 124 28 23 13 0
129 128 125 132 122 127 123 124 98 96 81 0
129 128 125 132 122 127 123 124 46 44 36 0
129 128 125 132 122 127 123 124 63 61 53 0
129 128 125 132 122 127 123 113 111 85 59 0
129 128 125 132 122 127 123 106 105 82 57 0
129 128 125 132 122 127 123 77 75 66 51 0
129 128 125 132 122 127 123 120 119 90 65 0
129 128 125 132 122 127 123 28 23 13 6 0
129 128 125 132 122 127 123 98 96 81 55 0
129 128 125 132 122 127 123 46 44 36 33 0
129 128 125 132 122 127 126 124 113 111 43 0
129 128 125 132 122 127 126 124 106 105 40 0
129 128 125 132 122 127 126 124 77 75 34 0
129 128 125 132 122 127 126 124 120 119 49 0
129 128 125 132 122 127 126 124 28 23 3 0
129 128 125 132 122 127 126 124 98 96 38 0
129 128 125 132 122 127 126 124 88 87 37 0
129 128 125 132 122 127 126 124 63 61 32 0
129 128 125 132 122 127 126 113 111 43 59 0
129 128 125 132 122 127 126 106 105 40 57 0
129 128 125 132 122 127 126 77 75 34 51 0
129 128 125 132 122 127 126 120 119 49 65 0
129 128 125 132 122 127 126 28 23 3 6 0
129 128 125 132 122 127 126 98 96 38 55 0
129 128 125 132 122 127 126 88 87 37 52 0
129 128 125 132 122 127 124 113 111 43 85 0
129 128 125 132 122 127 124 106 105 40 82 0
129 128 125 132 122 127 124 77 75 34 66 0
129 128 125 132 122 127 124 120 119 49 90 0
129 128 125 132 122 127 124 28 23 3 13 0
129 128 125 132 122 127 124 98 96 38 81 0
129 128 125 132 122 127 124 63 61 32 53 0
129 128 125 132 122 127 113 111 43 85 59 0
129 128 125 132 122 127 106 105 40 82 57 0
129 128 125 132 122 127 77 75 34 66 51 0
129 128 125 132 122 127 120 119 49 90 65 0
129 128 125 132 122 127 28 23 3 13 6 0
129 128 125 132 122 127 98 96 38 81 55 0
129 128 125 132 122 123 126 124 113 111 95 0
129 128 125 132 122 123 126 124 106 105 92 0
129 128 125 132 122 123 126 124 77 75 68 0
129 128 125 132 122 123 126 124 120 119 101 0
129 128 125 132 122 123 126 124 28 23 14 0
129 128 125 132 122 123 126 124 46 44 39 0
129 128 125 132 122 123 126 124 88 87 80 0
129 128 125 132 122 123 126 124 63 61 54 0
129 128 125 132 122 123 126 113 111 95 59 0
129 128 125 132 122 123 126 106 105 92 57 0
129 128 125 132 122 123 126 77 75 68 51 0
129 128 125 132 122 123 126 120 119 101 65 0
129 128 125 132 122 123 126 28 23 14 6 0
129 128 125 132 122 123 126 46 44 39 33 0
129 128 125 132 122 123 126 88 87 80 52 0
129 128 125 132 122 123 124 113 111 95 85 0
129 128 125 132 122 123 124 106 105 92 82 0
129 128 125 132 122 123 124 77 75 68 66 0
129 128 125 132 122 123 124 120 119 101 90 0
129 128 125 132 122 123 124 28 23 14 13 0
129 128 125 132 122 123 124 46 44 39 36 0
129 128 125 132 122 123 124 63 61 54 53 0
129 128 125 132 122 123 113 111 95 85 59 0
129 128 125 132 122 123 106 105 92 82 57 0
129 128 125 132 122 123 77 75 68 66 51 0
129 128 125 132 122 123 120 119 101 90 65 0
129 128 125 132 122 123 28 23 14 13 6 0
129 128 125 132 122 123 46 44 39 36 33 0
129 128 125 132 122 126 124 113 111 95 43 0
129 128 125 132 122 126 124 106 105 92 40 0
129 128 125 132 122 126 124 77 75 68 34 0
129 128 125 132 122 126 124 120 119 101 49 0
129 128 125 132 122 126 124 28 23 14 3 0
129 128 125 132 122 126 124 88 87 80 37 0
129 128 125 132 122 126 124 63 61 54 32 0
129 128 125 132 122 126 113 111 95 43 59 0
129 128 125 132 122 126 106 105 92 40 57 0
129 128 125 132 122 126 77 75 68 34 51 0
129 128 125 132 122 126 120 119 101 49 65 0
129 128 125 132 122 126 28 23 14 3 6 0
129 128 125 132 122 126 88 87 80 37 52 0
129 128 125 132 122 124 113 111 95 43 85 0
129 128 125 132 122 124 106 105 92 40 82 0
129 128 125 132 122 124 77 75 68 34 66 0
129 128 125 132 122 124 120 119 101 49 90 0
129 128 125 132 122 124 28 23 14 3 13 0
129 128 125 132 122 124 63 61 54 32 53 0
129 128 125 132 122 113 111 95 43 85 59 0
129 128 125 132 122 106 105 92 40 82 57 0
129 128 125 132 122 77 75 68 34 66 51 0
129 128 125 132 122 120 119 101 49 90 65 0
129 128 125 132 122 28 23 14 3 13 6 0
129 128 125 132 127 123 126 124 113 111 22 0
129 128 125 132 127 123 126 124 106 105 18 0
129 128 125 132 127 123 126 124 77 75 9 0
129 128 125 132 127 123 126 124 120 119 29 0
129 128 125 132 127 123 126 124 98 96 16 0
129 128 125 132 127 123 126 124 46 44 2 0
129 128 125 132 127 123 126 124 88 87 11 0
129 128 125 132 127 123 126 124 63 61 5 0
129 128 125 132 127 123 126 113 111 22 59 0
129 128 125 132 127 123 126 106 105 18 57 0
129 128 125 132 127 123 126 77 75 9 51 0
129 128 125 132 127 123 126 120 119 29 65 0
129 128 125 132 127 123 126 98 96 16 55 0
129 128 125 132 127 123 126 46 44 2 33 0
129 128 125 132 127 123 126 88 87 11 52 0
129 128 125 132 127 123 124 113 111 22 85 0
129 128 125 132 127 123 124 106 105 18 82 0
129 128 125 132 127 123 124 77 75 9 66 0
129 128 125 132 127 123 124 120 119 29 90 0
129 128 125 132 127 123 124 98 96 16 81 0
129 128 125 132 127 123 124 46 44 2 36 0
129 128 125 132 127 123 124 63 61 5 53 0
129 128 125 132 127 123 113 111 22 85 59 0
129 128 125 132 127 123 106 105 18 82 57 0
129 128 125 132 127 123 77 75 9 66 51 0
129 128 125 132 127 123 120 119 29 90 65 0
129 128 125 132 127 123 98 96 16 81 55 0
129 128 125 132 127 123 46 44 2 36 33 0
129 128 125 132 127 126 124 113 111 22 43 0
129 128 125 132 127 126 124 106 105 18 40 0
129 128 125 132 127 126 124 77 75 9 34 0
129 128 125 132 127 126 124 120 119 29 49 0
129 128 125 132 127 126 124 98 96 16 38 0
129 128 125 132 127 126 124 88 87 11 37 0
129 128 125 132 127 126 124 63 61 5 32 0
129 128 125 132 127 126 113 111 22 43 59 0
129 128 125 132 127 126 106 105 18 40 57 0
129 128 125 132 127 126 77 75 9 34 51 0
129 128 125 132 127 126 120 119 29 49 65 0
129 128 125 132 127 126 98 96 16 38 55 0
129 128 125 132 127 126 88 87 11 37 52 0
129 128 125 132 127 124 113 111 22 43 85 0
129 128 125 132 127 124 106 105 18 40 82 0
129 128 125 132 127 124 77 75 9 34 66 0
129 128 125 132 127 124 120 119 29 49 90 0
129 128 125 132 127 124 98 96 16 38 81 0
129 128 125 132 127 124 63 61 5 32 53 0
129 128 125 132 127 113 111 22 43 85 59 0
129 128 125 132 127 106 105 18 40 82 57 0
129 128 125 132 127 77 75 9 34 66 51 0
129 128 125 132 127 120 119 29 49 90 65 0
129 128 125 132 127 98 96 16 38 81 55 0
129 128 125 132 123 126 124 113 111 22 95 0
129 128 125 132 123 126 124 106 105 18 92 0
129 128 125 132 123 126 124 77 75 9 68 0
129 128 125 132 123 126 124 120 119 29 101 0
129 128 125 132 123 126 124 46 44 2 39 0
129 128 125 132 123 126 124 88 87 11 80 0
129 128 125 132 123 126 124 63 61 5 54 0
129 128 125 132 123 126 113 111 22 95 59 0
129 128 125 132 123 126 106 105 18 92 57 0
129 128 125 132 123 126 77 75 9 68 51 0
129 128 125 132 123 126 120 119 29 101 65 0
129 128 125 132 123 126 46 44 2 39 33 0
129 128 125 132 123 126 88 87 11 80 52 0
129 128 125 132 123 124 113 111 22 95 85 0
129 128 125 132 123 124 106 105 18 92 82 0
129 128 125 132 123 124 77 75 9 68 66 0
129 128 125 132 123 124 120 119 29 101 90 0
129 128 125 132 123 124 46 44 2 39 36 0
129 128 125 132 123 124 63 61 5 54 53 0
129 128 125 132 123 113 111 22 95 85 59 0
129 128 125 132 123 106 105 18 92 82 57 0
129 128 125 132 123 77 75 9 68 66 51 0
129 128 125 132 123 120 119 29 101 90 65 0
129 128 125 132 123 46 44 2 39 36 33 0
129 128 125 132 126 124 113 111 22 95 43 0
129 128 125 132 126 124 106 105 18 92 40 0
129 128 125 132 126 124 77 75 9 68 34 0
129 128 125 132 126 124 120 119 29 101 49 0
129 128 125 132 126 124 88 87 11 80 37 0
129 128 125 132 126 124 63 61 5 54 32 0
129 128 125 132 126 113 111 22 95 43 59 0
129 128 125 132 126 106 105 18 92 40 57 0
129 128 125 132 126 77 75 9 68 34 51 0
129 128 125 132 126 120 119 29 101 49 65 0
129 128 125 132 126 88 87 11 80 37 52 0
129 128 125 132 124 113 111 22 95 43 85 0
129 128 125 132 124 106 105 18 92 40 82 0
129 128 125 132 124 77 75 9 68 34 66 0
129 128 125 132 124 120 119 29 101 49 90 0
129 128 125 132 124 63 61 5 54 32 53 0
129 128 125 132 113 111 22 95 43 85 59 0
129 128 125 132 106 105 18 92 40 82 57 0
129 128 125 132 77 75 9 68 34 66 51 0
129 128 125 132 120 119 29 101 49 90 65 0
129 128 125 122 127 123 126 124 113 111 114 0
129 128 125 122 127 123 126 124 106 105 109 0
129 128 125 122 127 123 126 124 77 75 78 0
129 128 125 122 127 123 126 124 28 23 31 0
129 128 125 122 127 123 126 124 98 96 100 0
129 128 125 122 127 123 126 124 46 44 48 0
129 128 125 122 127 123 126 124 88 87 91 0
129 128 125 122 127 123 126 124 63 61 64 0
129 128 125 122 127 123 126 113 111 114 59 0
129 128 125 122 127 123 126 106 105 109 57 0
129 128 125 122 127 123 126 77 75 78 51 0
129 128 125 122 127 123 126 28 23 31 6 0
129 128 125 122 127 123 126 98 96 100 55 0
129 128 125 122 127 123 126 46 44 48 33 0
129 128 125 122 127 123 126 88 87 91 52 0
129 128 125 122 127 123 124 113 111 114 85 0
129 128 125 122 127 123 124 106 105 109 82 0
129 128 125 122 127 123 124 77 75 78 66 0
129 128 125 122 127 123 124 28 23 31 13 0
129 128 125 122 127 123 124 98 96 100 81 0
129 128 125 122 127 123 124 46 44 48 36 0
129 128 125 122 127 123 124 63 61 64 53 0
129 128 125 122 127 123 113 111 114 85 59 0
129 128 125 122 127 123 106 105 109 82 57 0
129 128 125 122 127 123 77 75 78 66 51 0
129 128 125 122 127 123 28 23 31 13 6 0
129 128 125 122 127 123 98 96 100 81 55 0
129 128 125 122 127 123 46 44 48 36 33 0
129 128 125 122 127 126 124 113 111 114 43 0
129 128 125 122 127 126 124 106 105 109 40 0
129 128 125 122 127 126 124 77 75 78 34 0
129 128 125 122 127 126 124 28 23 31 3 0
129 128 125 122 127 126 124 98 96 100 38 0
129 128 125 122 127 126 124 88 87 91 37 0
129 128 125 122 127 126 124 63 61 64 32 0
129 128 125 122 127 126 113 111 114 43 59 0
129 128 125 122 127 126 106 105 109 40 57 0
129 128 125 122 127 126 77 75 78 34 51 0
129 128 125 122 127 126 28 23 31 3 6 0
129 128 125 122 127 126 98 96 100 38 55 0
129 128 125 122 127 126 88 87 91 37 52 0
129 128 125 122 127 124 113 111 114 43 85 0
129 128 125 122 127 124 106 105 109 40 82 0
129 128 125 122 127 124 77 75 78 34 66 0
129 128 125 122 127 124 28 23 31 3 13 0
129 128 125 122 127 124 98 96 100 38 81 0
129 128 125 122 127 124 63 61 64 32 53 0
129 128 125 122 127 113 111 114 43 85 59 0
129 128 125 122 127 106 105 109 40 82 57 0
129 128 125 122 127 77 75 78 34 66 51 0
129 128 125 122 127 28 23 31 3 13 6 0
129 128 125 122 127 98 96 100 38 81 55 0
129 128 125 122 123 126 124 113 111 114 95 0
129 128 125 122 123 126 124 106 105 109 92 0
129 128 125 122 123 126 124 77 75 78 68 0
129 128 125 122 123 126 124 28 23 31 14 0
129 128 125 122 123 126 124 46 44 48 39 0
129 128 125 122 123 126 124 88 87 91 80 0
129 128 125 122 123 126 124 63 61 64 54 0
129 128 125 122 123 126 113 111 114 95 59 0
129 128 125 122 123 126 106 105 109 92 57 0
129 128 125 122 123 126 77 75 78 68 51 0
129 128 125 122 123 126 28 23 31 14 6 0
129 128 125 122 123 126 46 44 48 39 33 0
129 128 125 122 123 126 88 87 91 80 52 0
129 128 125 122 123 124 113 111 114 95 85 0
129 128 125 122 123 124 106 105 109 92 82 0
129 128 125 122 123 124 77 75 78 68 66 0
129 128 125 122 123 124 28 23 31 14 13 0
129 128 125 122 123 124 46 44 48 39 36 0
129 128 125 122 123 124 63 61 64 54 53 0
129 128 125 122 123 113 111 114 95 85 59 0
129 128 125 122 123 106 105 109 92 82 57 0
129 128 125 122 123 77 75 78 68 66 51 0
129 128 125 122 123 28 23 31 14 13 6 0
129 128 125 122 123 46 44 48 39 36 33 0
129 128 125 122 126 124 113 111 114 95 43 0
129 128 125 122 126 124 106 105 109 92 40 0
129 128 125 122 126 124 77 75 78 68 34 0
129 128 125 122 126 124 28 23 31 14 3 0
129 128 125 122 126 124 88 87 91 80 37 0
129 128 125 122 126 124 63 61 64 54 32 0
129 128 125 122 126 113 111 114 95 43 59 0
129 128 125 122 126 106 105 109 92 40 57 0
129 128 125 122 126 77 75 78 68 34 51 0
129 128 125 122 126 28 23 31 14 3 6 0
129 128 125 122 126 88 87 91 80 37 52 0
129 128 125 122 124 113 111 114 95 43 85 0
129 128 125 122 124 106 105 109 92 40 82 0
129 128 125 122 124 77 75 78 68 34 66 0
129 128 125 122 124 28 23 31 14 3 13 0
129 128 125 122 124 63 61 64 54 32 53 0
129 128 125 122 113 111 114 95 43 85 59 0
129 128 125 122 106 105 109 92 40 82 57 0
129 128 125 122 77 75 78 68 34 66 51 0
129 128 125 122 28 23 31 14 3 13 6 0
129 128 125 127 123 126 124 113 111 114 22 0
129 128 125 127 123 126 124 106 105 109 18 0
129 128 125 127 123 126 124 77 75 78 9 0
129 128 125 127 123 126 124 98 96 100 16 0
129 128 125 127 123 126 124 46 44 48 2 0
129 128 125 127 123 126 124 88 87 91 11 0
129 128 125 127 123 126 124 63 61 64 5 0
129 128 125 127 123 126 113 111 114 22 59 0
129 128 125 127 123 126 106 105 109 18 57 0
129 128 125 127 123 126 77 75 78 9 51 0
129 128 125 127 123 126 98 96 100 16 55 0
129 128 125 127 123 126 46 44 48 2 33 0
129 128 125 127 123 126 88 87 91 11 52 0
129 128 125 127 123 124 113 111 114 22 85 0
129 128 125 127 123 124 106 105 109 18 82 0
129 128 125 127 123 124 77 75 78 9 66 0
129 128 125 127 123 124 98 96 100 16 81 0
129 128 125 127 123 124 46 44 48 2 36 0
129 128 125 127 123 124 63 61 64 5 53 0
129 128 125 127 123 113 111 114 22 85 59 0
129 128 125 127 123 106 105 109 18 82 57 0
129 128 125 127 123 77 75 78 9 66 51 0
129 128 125 127 123 98 96 100 16 81 55 0
129 128 125 127 123 46 44 48 2 36 33 0
129 128 125 127 126 124 113 111 114 22 43 0
129 128 125 127 126 124 106 105 109 18 40 0
129 128 125 127 126 124 77 75 78 9 34 0
129 128 125 127 126 124 98 96 100 16 38 0
129 128 125 127 126 124 88 87 91 11 37 0
129 128 125 127 126 124 63 61 64 5 32 0
129 128 125 127 126 113 111 114 22 43 59 0
129 128 125 127 126 106 105 109 18 40 57 0
129 128 125 127 126 77 75 78 9 34 51 0
129 128 125 127 126 98 96 100 16 38 55 0
129 128 125 127 126 88 87 91 11 37 52 0
129 128 125 127 124 113 111 114 22 43 85 0
129 128 125 127 124 106 105 109 18 40 82 0
129 128 125 127 124 77 75 78 9 34 66 0
129 128 125 127 124 98 96 100 16 38 81 0
129 128 125 127 124 63 61 64 5 32 53 0
129 128 125 127 113 111 114 22 43 85 59 0
129 128 125 127 106 105 109 18 40 82 57 0
129 128 125 127 77 75 78 9 34 66 51 0
129 128 125 127 98 96 100 16 38 81 55 0
129 128 125 123 126 124 113 111 114 22 95 0
129 128 125 123 126 124 106 105 109 18 92 0
129 128 125 123 126 124 77 75 78 9 68 0
129 128 125 123 126 124 46 44 48 2 39 0
129 128 125 123 126 124 88 87 91 11 80 0
129 128 125 123 126 124 63 61 64 5 54 0
129 128 125 123 126 113 111 114 22 95 59 0
129 128 125 123 126 106 105 109 18 92 57 0
129 128 125 123 126 77 75 78 9 68 51 0
129 128 125 123 126 46 44 48 2 39 33 0
129 128 125 123 126 88 87 91 11 80 52 0
129 128 125 123 124 113 111 114 22 95 85 0
129 128 125 123 124 106 105 109 18 92 82 0
129 128 125 123 124 77 75 78 9 68 66 0
129 128 125 123 124 46 44 48 2 39 36 0
129 128 125 123 124 63 61 64 5 54 53 0
129 128 125 123 113 111 114 22 95 85 59 0
129 128 125 123 106 105 109 18 92 82 57 0
129 128 125 123 77 75 78 9 68 66 51 0
129 128 125 123 46 44 48 2 39 36 33 0
129 128 125 126 124 113 111 114 22 95 43 0
129 128 125 126 124 106 105 109 18 92 40 0
129 128 125 126 124 77 75 78 9 68 34 0
129 128 125 126 124 88 87 91 11 80 37 0
129 128 125 126 124 63 61 64 5 54 32 0
129 128 125 126 113 111 114 22 95 43 59 0
129 128 125 126 106 105 109 18 92 40 57 0
129 128 125 126 77 75 78 9 68 34 51 0
129 128 125 126 88 87 91 11 80 37 52 0
129 128 125 124 113 111 114 22 95 43 85 0
129 128 125 124 106 105 109 18 92 40 82 0
129 128 125 124 77 75 78 9 68 34 66 0
129 128 125 124 63 61 64 5 54 32 53 0
129 128 125 113 111 114 22 95 43 85 59 0
129 128 125 106 105 109 18 92 40 82 57 0
129 128 125 77 75 78 9 68 34 66 51 0
129 128 130 132 122 127 123 126 124 113 72 0
129 128 130 132 122 127 123 126 124 106 70 0
129 128 130 132 122 127 123 126 124 117 74 0
129 128 130 132 122 127 123 126 124 120 79 0
129 128 130 132 122 127 123 126 124 28 8 0
129 128 130 132 122 127 123 126 124 98 69 0
129 128 130 132 122 127 123 126 124 46 35 0
129 128 130 132 122 127 123 126 124 88 67 0
129 128 130 132 122 127 123 126 124 63 50 0
129 128 130 132 122 127 123 126 113 72 59 0
129 128 130 132 122 127 123 126 106 70 57 0
129 128 130 132 122 127 123 126 117 74 60 0
129 128 130 132 122 127 123 126 120 79 65 0
129 128 130 132 122 127 123 126 28 8 6 0
129 128 130 132 122 127 123 126 98 69 55 0
129 128 130 132 122 127 123 126 46 35 33 0
129 128 130 132 122 127 123 126 88 67 52 0
129 128 130 132 122 127 123 124 113 72 85 0
129 128 130 132 122 127 123 124 106 70 82 0
129 128 130 132 122 127 123 124 117 74 86 0
129 128 130 132 122 127 123 124 120 79 90 0
129 128 130 132 122 127 123 124 28 8 13 0
129 128 130 132 122 127 123 124 98 69 81 0
129 128 130 132 122 127 123 124 46 35 36 0
129 128 130 132 122 127 123 124 63 50 53 0
129 128 130 132 122 127 123 113 72 85 59 0
129 128 130 132 122 127 123 106 70 82 57 0
129 128 130 132 122 127 123 117 74 86 60 0
129 128 130 132 122 127 123 120 79 90 65 0
129 128 130 132 122 127 123 28 8 13 6 0
129 128 130 132 122 127 123 98 69 81 55 0
129 128 130 132 122 127 123 46 35 36 33 0
129 128 130 132 122 127 126 124 113 72 43 0
129 128 130 132 122 127 126 124 106 70 40 0
129 128 130 132 122 127 126 124 117 74 45 0
129 128 130 132 122 127 126 124 120 79 49 0
129 128 130 132 122 127 126 124 28 8 3 0
129 128 130 132 122 127 126 124 98 69 38 0
129 128 130 132 122 127 126 124 88 67 37 0
129 128 130 132 122 127 126 124 63 50 32 0
129 128 130 132 122 127 126 113 72 43 59 0
129 128 130 132 122 127 126 106 70 40 57 0
129 128 130 132 122 127 126 117 74 45 60 0
129 128 130 132 122 127 126 120 79 49 65 0
129 128 130 132 122 127 126 28 8 3 6 0
129 128 130 132 122 127 126 98 69 38 55 0
129 128 130 132 122 127 126 88 67 37 52 0
129 128 130 132 122 127 124 113 72 43 85 0
129 128 130 132 122 127 124 106 70 40 82 0
129 128 130 132 122 127 124 117 74 45 86 0
129 128 130 132 122 127 124 120 79 49 90 0
129 128 130 132 122 127 124 28 8 3 13 0
129 128 130 132 122 127 124 98 69 38 81 0
129 128 130 132 122 127 124 63 50 32 53 0
129 128 130 132 122 127 113 72 43 85 59 0
129 128 130 132 122 127 106 70 40 82 57 0
129 128 130 132 122 127 117 74 45 86 60 0
129 128 130 132 122 127 120 79 49 90 65 0
129 128 130 132 122 127 28 8 3 13 6 0
129 128 130 132 122 127 98 69 38 81 55 0
129 128 130 132 122 123 126 124 113 72 95 0
129 128 130 132 122 123 126 124 106 70 92 0
129 128 130 132 122 123 126 124 117 74 97 0
129 128 130 132 122 123 126 124 120 79 101 0
129 128 130 132 122 123 126 124 28 8 14 0
129 128 130 132 122 123 126 124 46 35 39 0
129 128 130 132 122 123 126 124 88 67 80 0
129 128 130 132 122 123 126 124 63 50 54 0
129 128 130 132 122 123 126 113 72 95 59 0
129 128 130 132 122 123 126 106 70 92 57 0
129 128 130 132 122 123 126 117 74 97 60 0
129 128 130 132 122 123 126 120 79 101 65 0
129 128 130 132 122 123 126 28 8 14 6 0
129 128 130 132 122 123 126 46 35 39 33 0
129 128 130 132 122 123 126 88 67 80 52 0
129 128 130 132 122 123 124 113 72 95 85 0
129 128 130 132 122 123 124 106 70 92 82 0
129 128 130 132 122 123 124 117 74 97 86 0
129 128 130 132 122 123 124 120 79 101 90 0
129 128 130 132 122 123 124 28 8 14 13 0
129 128 130 132 122 123 124 46 35 39 36 0
129 128 130 132 122 123 124 63 50 54 53 0
129 128 130 132 122 123 113 72 95 85 59 0
129 128 130 132 122 123 106 70 92 82 57 0
129 128 130 132 122 123 117 74 97 86 60 0
129 128 130 132 122 123 120 79 101 90 65 0
129 128 130 132 122 123 28 8 14 13 6 0
129 128 130 132 122 123 46 35 39 36 33 0
129 128 130 132 122 126 124 113 72 95 43 0
129 128 130 132 122 126 124 106 70 92 40 0
129 128 130 132 122 126 124 117 74 97 45 0
129 128 130 132 122 126 124 120 79 101 49 0
129 128 130 132 122 126 124 28 8 14 3 0
129 128 130 132 122 126 124 88 67 80 37 0
129 128 130 132 122 126 124 63 50 54 32 0
129 128 130 132 122 126 113 72 95 43 59 0
129 128 130 132 122 126 106 70 92 40 57 0
129 128 130 132 122 126 117 74 97 45 60 0
129 128 130 132 122 126 120 79 101 49 65 0
129 128 130 132 122 126 28 8 14 3 6 0
129 128 130 132 122 126 88 67 80 37 52 0
129 128 130 132 122 124 113 72 95 43 85 0
129 128 130 132 122 124 106 70 92 40 82 0
129 128 130 132 122 124 117 74 97 45 86 0
129 128 130 132 122 124 120 79 101 49 90 0
129 128 130 132 122 124 28 8 14 3 13 0
129 128 130 132 122 124 63 50 54 32 53 0
129 128 130 132 122 113 72 95 43 85 59 0
129 128 130 132 122 106 70 92 40 82 57 0
129 128 130 132 122 117 74 97 45 86 60 0
129 128 130 132 122 120 79 101 49 90 65 0
129 128 130 132 122 28 8 14 3 13 6 0
129 128 130 132 127 123 126 124 113 72 22 0
129 128 130 132 127 123 126 124 106 70 18 0
129 128 130 132 127 123 126 124 117 74 25 0
129 128 130 132 127 123 126 124 120 79 29 0
129 128 130 132 127 123 126 124 98 69 16 0
129 128 130 132 127 123 126 124 46 35 2 0
129 128 130 132 127 123 126 124 88 67 11 0
129 128 130 132 127 123 126 124 63 50 5 0
129 128 130 132 127 123 126 113 72 22 59 0
129 128 130 132 127 123 126 106 70 18 57 0
129 128 130 132 127 123 126 117 74 25 60 0
129 128 130 132 127 123 126 120 79 29 65 0
129 128 130 132 127 123 126 98 69 16 55 0
129 128 130 132 127 123 126 46 35 2 33 0
129 128 130 132 127 123 126 88 67 11 52 0
129 128 130 132 127 123 124 113 72 22 85 0
129 128 130 132 127 123 124 106 70 18 82 0
129 128 130 132 127 123 124 117 74 25 86 0
129 128 130 132 127 123 124 120 79 29 90 0
129 128 130 132 127 123 124 98 69 16 81 0
129 128 130 132 127 123 124 46 35 2 36 0
129 128 130 132 127 123 124 63 50 5 53 0
129 128 130 132 127 123 113 72 22 85 59 0
129 128 130 132 127 123 106 70 18 82 57 0
129 128 130 132 127 123 117 74 25 86 60 0
129 128 130 132 127 123 120 79 29 90 65 0
129 128 130 132 127 123 98 69 16 81 55 0
129 128 130 132 127 123 46 35 2 36 33 0
129 128 130 132 127 126 124 113 72 22 43 0
129 128 130 132 127 126 124 106 70 18 40 0
129 128 130 132 127 126 124 117 74 25 45 0
129 128 130 132 127 126 124 120 79 29 49 0
129 128 130 132 127 126 124 98 69 16 38 0
129 128 130 132 127 126 124 88 67 11 37 0
129 128 130 132 127 126 124 63 50 5 32 0
129 128 130 132 127 126 113 72 22 43 59 0
129 128 130 132 127 126 106 70 18 40 57 0
129 128 130 132 127 126 117 74 25 45 60 0
129 128 130 132 127 126 120 79 29 49 65 0
129 128 130 132 127 126 98 69 16 38 55 0
129 128 130 132 127 126 88 67 11 37 52 0
129 128 130 132 127 124 113 72 22 43 85 0
129 128 130 132 127 124 106 70 18 40 82 0
129 128 130 132 127 124 117 74 25 45 86 0
129 128 130 132 127 124 120 79 29 49 90 0
129 128 130 132 127 124 98 69 16 38 81 0
129 128 130 132 127 124 63 50 5 32 53 0
129 128 130 132 127 113 72 22 43 85 59 0
129 128 130 132 127 106 70 18 40 82 57 0
129 128 130 132 127 117 74 25 45 86 60 0
129 128 130 132 127 120 79 29 49 90 65 0
129 128 130 132 127 98 69 16 38 81 55 0
129 128 130 132 123 126 124 113 72 22 95 0
129 128 130 132 123 126 124 106 70 18 92 0
129 128 130 132 123 126 124 117 74 25 97 0
129 128 130 132 123 126 124 120 79 29 101 0
129 128 130 132 123 126 124 46 35 2 39 0
129 128 130 132 123 126 124 88 67 11 80 0
129 128 130 132 123 126 124 63 50 5 54 0
129 128 130 132 123 126 113 72 22 95 59 0
129 128 130 132 123 126 106 70 18 92 57 0
129 128 130 132 123 126 117 74 25 97 60 0
129 128 130 132 123 126 120 79 29 101 65 0
129 128 130 132 123 126 46 35 2 39 33 0
129 128 130 132 123 126 88 67 11 80 52 0
129 128 130 132 123 124 113 72 22 95 85 0
129 128 130 132 123 124 106 70 18 92 82 0
129 128 130 132 123 124 117 74 25 97 86 0
129 128 130 132 123 124 120 79 29 101 90 0
129 128 130 132 123 124 46 35 2 39 36 0
129 128 130 132 123 124 63 50 5 54 53 0
129 128 130 132 123 113 72 22 95 85 59 0
129 128 130 132 123 106 70 18 92 82 57 0
129 128 130 132 123 117 74 25 97 86 60 0
129 128 130 132 123 120 79 29 101 90 65 0
129 128 130 132 123 46 35 2 39 36 33 0
129 128 130 132 126 124 113 72 22 95 43 0
129 128 130 132 126 124 106 70 18 92 40 0
129 128 130 132 126 124 117 74 25 97 45 0
129 128 130 132 126 124 120 79 29 101 49 0
129 128 130 132 126 124 88 67 11 80 37 0
129 128 130 132 126 124 63 50 5 54 32 0
129 128 130 132 126 113 72 22 95 43 59 0
129 128 130 132 126 106 70 18 92 40 57 0
129 128 130 132 126 117 74 25 97 45 60 0
129 128 130 132 126 120 79 29 101 49 65 0
129 128 130 132 126 88 67 11 80 37 52 0
129 128 130 132 124 113 72 22 95 43 85 0
129 128 130 132 124 106 70 18 92 40 82 0
129 128 130 132 124 117 74 25 97 45 86 0
129 128 130 132 124 120 79 29 101 49 90 0
129 128 130 132 124 63 50 5 54 32 53 0
129 128 130 132 113 72 22 95 43 85 59 0
129 128 130 132 106 70 18 92 40 82 57 0
129 128 130 132 117 74 25 97 45 86 60 0
129 128 130 132 120 79 29 101 49 90 65 0
129 128 130 122 127 123 126 124 113 72 114 0
129 128 130 122 127 123 126 124 106 70 109 0
129 128 130 122 127 123 126 124 117 74 118 0
129 128 130 122 127 123 126 124 28 8 31 0
129 128 130 122 127 123 126 124 98 69 100 0
129 128 130 122 127 123 126 124 46 35 48 0
129 128 130 122 127 123 126 124 88 67 91 0
129 128 130 122 127 123 126 124 63 50 64 0
129 128 130 122 127 123 126 113 72 114 59 0
129 128 130 122 127 123 126 106 70 109 57 0
129 128 130 122 127 123 126 117 74 118 60 0
129 128 130 122 127 123 126 28 8 31 6 0
129 128 130 122 127 123 126 98 69 100 55 0
129 128 130 122 127 123 126 46 35 48 33 0
129 128 130 122 127 123 126 88 67 91 52 0
129 128 130 122 127 123 124 113 72 114 85 0
129 128 130 122 127 123 124 106 70 109 82 0
129 128 130 122 127 123 124 117 74 118 86 0
129 128 130 122 127 123 124 28 8 31 13 0
129 128 130 122 127 123 124 98 69 100 81 0
129 128 130 122 127 123 124 46 35 48 36 0
129 128 130 122 127 123 124 63 50 64 53 0
129 128 130 122 127 123 113 72 114 85 59 0
129 128 130 122 127 123 106 70 109 82 57 0
129 128 130 122 127 123 117 74 118 86 60 0
129 128 130 122 127 123 28 8 31 13 6 0
129 128 130 122 127 123 98 69 100 81 55 0
129 128 130 122 127 123 46 35 48 36 33 0
129 128 130 122 127 126 124 113 72 114 43 0
129 128 130 122 127 126 124 106 70 109 40 0
129 128 130 122 127 126 124 117 74 118 45 0
129 128 130 122 127 126 124 28 8 31 3 0
129 128 130 122 127 126 124 98 69 100 38 0
129 128 130 122 127 126 124 88 67 91 37 0
129 128 130 122 127 126 124 63 50 64 32 0
129 128 130 122 127 126 113 72 114 43 59 0
129 128 130 122 127 126 106 70 109 40 57 0
129 128 130 122 127 126 117 74 118 45 60 0
129 128 130 122 127 126 28 8 31 3 6 0
129 128 130 122 127 126 98 69 100 38 55 0
129 128 130 122 127 126 88 67 91 37 52 0
129 128 130 122 127 124 113 72 114 43 85 0
129 128 130 122 127 124 106 70 109 40 82 0
129 128 130 122 127 124 117 74 118 45 86 0
129 128 130 122 127 124 28 8 31 3 13 0
129 128 130 122 127 124 98 69 100 38 81 0
129 128 130 122 127 124 63 50 64 32 53 0
129 128 130 122 127 113 72 114 43 85 59 0
129 128 130 122 127 106 70 109 40 82 57 0
129 128 130 122 127 117 74 118 45 86 60 0
129 128 130 122 127 28 8 31 3 13 6 0
129 128 130 122 127 98 69 100 38 81 55 0
129 128 130 122 123 126 124 113 72 114 95 0
129 128 130 122 123 126 124 106 70 109 92 0
129 128 130 122 123 126 124 117 74 118 97 0
129 128 130 122 123 126 124 28 8 31 14 0
129 128 130 122 123 126 124 46 35 48 39 0
129 128 130 122 123 126 124 88 67 91 80 0
129 128 130 122 123 126 124 63 50 64 54 0
129 128 130 122 123 126 113 72 114 95 59 0
129 128 130 122 123 126 106 70 109 92 57 0
129 128 130 122 123 126 117 74 118 97 60 0
129 128 130 122 123 126 28 8 31 14 6 0
129 128 130 122 123 126 46 35 48 39 33 0
129 128 130 122 123 126 88 67 91 80 52 0
129 128 130 122 123 124 113 72 114 95 85 0
129 128 130 122 123 124 106 70 109 92 82 0
129 128 130 122 123 124 117 74 118 97 86 0
129 128 130 122 123 124 28 8 31 14 13 0
129 128 130 122 123 124 46 35 48 39 36 0
129 128 130 122 123 124 63 50 64 54 53 0
129 128 130 122 123 113 72 114 95 85 59 0
129 128 130 122 123 106 70 109 92 82 57 0
129 128 130 122 123 117 74 118 97 86 60 0
129 128 130 122 123 28 8 31 14 13 6 0
129 128 130 122 123 46 35 48 39 36 33 0
129 128 130 122 126 124 113 72 114 95 43 0
129 128 130 122 126 124 106 70 109 92 40 0
129 128 130 122 126 124 117 74 118 97 45 0
129 128 130 122 126 124 28 8 31 14 3 0
129 128 130 122 126 124 88 67 91 80 37 0
129 128 130 122 126 124 63 50 64 54 32 0
129 128 130 122 126 113 72 114 95 43 59 0
129 128 130 122 126 106 70 109 92 40 57 0
129 128 130 122 126 117 74 118 97 45 60 0
129 128 130 122 126 28 8 31 14 3 6 0
129 128 130 122 126 88 67 91 80 37 52 0
129 128 130 122 124 113 72 114 95 43 85 0
129 128 130 122 124 106 70 109 92 40 82 0
129 128 130 122 124 117 74 118 97 45 86 0
129 128 130 122 124 28 8 31 14 3 13 0
129 128 130 122 124 63 50 64 54 32 53 0
129 128 130 122 113 72 114 95 43 85 59 0
129 128 130 122 106 70 109 92 40 82 57 0
129 128 130 122 117 74 118 97 45 86 60 0
129 128 130 122 28 8 31 14 3 13 6 0
129 128 130 127 123 126 124 113 72 114 22 0
129 128 130 127 123 126 124 106 70 109 18 0
129 128 130 127 123 126 124 117 74 118 25 0
129 128 130 127 123 126 124 98 69 100 16 0
129 128 130 127 123 126 124 46 35 48 2 0
129 128 130 127 123 126 124 88 67 91 11 0
129 128 130 127 123 126 124 63 50 64 5 0
129 128 130 127 123 126 113 72 114 22 59 0
129 128 130 127 123 126 106 70 109 18 57 0
129 128 130 127 123 126 117 74 118 25 60 0
129 128 130 127 123 126 98 69 100 16 55 0
129 128 130 127 123 126 46 35 48 2 33 0
129 128 130 127 123 126 88 67 91 11 52 0
129 128 130 127 123 124 113 72 114 22 85 0
129 128 130 127 123 124 106 70 109 18 82 0
129 128 130 127 123 124 117 74 118 25 86 0
129 128 130 127 123 124 98 69 100 16 81 0
129 128 130 127 123 124 46 35 48 2 36 0
129 128 130 127 123 124 63 50 64 5 53 0
129 128 130 127 123 113 72 114 22 85 59 0
129 128 130 127 123 106 70 109 18 82 57 0
129 128 130 127 123 117 74 118 25 86 60 0
129 128 130 127 123 98 69 100 16 81 55 0
129 128 130 127 123 46 35 48 2 36 33 0
129 128 130 127 126 124 113 72 114 22 43 0
129 128 130 127 126 124 106 70 109 18 40 0
129 128 130 127 126 124 117 74 118 25 45 0
129 128 130 127 126 124 98 69 100 16 38 0
129 128 130 127 126 124 88 67 91 11 37 0
129 128 130 127 126 124 63 50 64 5 32 0
129 128 130 127 126 113 72 114 22 43 59 0
129 128 130 127 126 106 70 109 18 40 57 0
129 128 130 127 126 117 74 118 25 45 60 0
129 128 130 127 126 98 69 100 16 38 55 0
129 128 130 127 126 88 67 91 11 37 52 0
129 128 130 127 124 113 72 114 22 43 85 0
129 128 130 127 124 106 70 109 18 40 82 0
129 128 130 127 124 117 74 118 25 45 86 0
129 128 130 127 124 98 69 100 16 38 81 0
129 128 130 127 124 63 50 64 5 32 53 0
129 128 130 127 113 72 114 22 43 85 59 0
129 128 130 127 106 70 109 18 40 82 57 0
129 128 130 127 117 74 118 25 45 86 60 0
129 128 130 127 98 69 100 16 38 81 55 0
129 128 130 123 126 124 113 72 114 22 95 0
129 128 130 123 126 124 106 70 109 18 92 0
129 128 130 123 126 124 117 74 118 25 97 0
129 128 130 123 126 124 46 35 48 2 39 0
129 128 130 123 126 124 88 67 91 11 80 0
129 128 130 123 126 124 63 50 64 5 54 0
129 128 130 123 126 113 72 114 22 95 59 0
129 128 130 123 126 106 70 109 18 92 57 0
129 128 130 123 126 117 74 118 25 97 60 0
129 128 130 123 126 46 35 48 2 39 33 0
129 128 130 123 126 88 67 91 11 80 52 0
129 128 130 123 124 113 72 114 22 95 85 0
129 128 130 123 124 106 70 109 18 92 82 0
129 128 130 123 124 117 74 118 25 97 86 0
129 128 130 123 124 46 35 48 2 39 36 0
129 128 130 123 124 63 50 64 5 54 53 0
129 128 130 123 113 72 114 22 95 85 59 0
129 128 130 123 106 70 109 18 92 82 57 0
129 128 130 123 117 74 118 25 97 86 60 0
129 128 130 123 46 35 48 2 39 36 33 0
129 128 130 126 124 113 72 114 22 95 43 0
129 128 130 126 124 106 70 109 18 92 40 0
129 128 130 126 124 117 74 118 25 97 45 0
129 128 130 126 124 88 67 91 11 80 37 0
129 128 130 126 124 63 50 64 5 54 32 0
129 128 130 126 113 72 114 22 95 43 59 0
129 128 130 126 106 70 109 18 92 40 57 0
129 128 130 126 117 74 118 25 97 45 60 0
129 128 130 126 88 67 91 11 80 37 52 0
129 128 130 124 113 72 114 22 95 43 85 0
129 128 130 124 106 70 109 18 92 40 82 0
129 128 130 124 117 74 118 25 97 45 86 0
129 128 130 124 63 50 64 5 54 32 53 0
129 128 130 113 72 114 22 95 43 85 59 0
129 128 130 106 70 109 18 92 40 82 57 0
129 128 130 117 74 118 25 97 45 86 60 0
129 128 132 122 127 123 126 124 113 72 111 0
129 128 132 122 127 123 126 124 106 70 105 0
129 128 132 122 127 123 126 124 120 79 119 0
129 128 132 122 127 123 126 124 28 8 23 0
129 128 132 122 127 123 126 124 98 69 96 0
129 128 132 122 127 123 126 124 46 35 44 0
129 128 132 122 127 123 126 124 88 67 87 0
129 128 132 122 127 123 126 124 63 50 61 0
129 128 132 122 127 123 126 113 72 111 59 0
129 128 132 122 127 123 126 106 70 105 57 0
129 128 132 122 127 123 126 120 79 119 65 0
129 128 132 122 127 123 126 28 8 23 6 0
129 128 132 122 127 123 126 98 69 96 55 0
129 128 132 122 127 123 126 46 35 44 33 0
129 128 132 122 127 123 126 88 67 87 52 0
129 128 132 122 127 123 124 113 72 111 85 0
129 128 132 122 127 123 124 106 70 105 82 0
129 128 132 122 127 123 124 120 79 119 90 0
129 128 132 122 127 123 124 28 8 23 13 0
129 128 132 122 127 123 124 98 69 96 81 0
129 128 132 122 127 123 124 46 35 44 36 0
129 128 132 122 127 123 124 63 50 61 53 0
129 128 132 122 127 123 113 72 111 85 59 0
129 128 132 122 127 123 106 70 105 82 57 0
129 128 132 122 127 123 120 79 119 90 65 0
129 128 132 122 127 123 28 8 23 13 6 0
129 128 132 122 127 123 98 69 96 81 55 0
129 128 132 122 127 123 46 35 44 36 33 0
129 128 132 122 127 126 124 113 72 111 43 0
129 128 132 122 127 126 124 106 70 105 40 0
129 128 132 122 127 126 124 120 79 119 49 0
129 128 132 122 127 126 124 28 8 23 3 0
129 128 132 122 127 126 124 98 69 96 38 0
129 128 132 122 127 126 124 88 67 87 37 0
129 128 132 122 127 126 124 63 50 61 32 0
129 128 132 122 127 126 113 72 111 43 59 0
129 128 132 122 127 126 106 70 105 40 57 0
129 128 132 122 127 126 120 79 119 49 65 0
129 128 132 122 127 126 28 8 23 3 6 0
129 128 132 122 127 126 98 69 96 38 55 0
129 128 132 122 127 126 88 67 87 37 52 0
129 128 132 122 127 124 113 72 111 43 85 0
129 128 132 122 127 124 106 70 105 40 82 0
129 128 132 122 127 124 120 79 119 49 90 0
129 128 132 122 127 124 28 8 23 3 13 0
129 128 132 122 127 124 98 69 96 38 81 0
129 128 132 122 127 124 63 50 61 32 53 0
129 128 132 122 127 113 72 111 43 85 59 0
129 128 132 122 127 106 70 105 40 82 57 0
129 128 132 122 127 120 79 119 49 90 65 0
129 128 132 122 127 28 8 23 3 13 6 0
129 128 132 122 127 98 69 96 38 81 55 0
129 128 132 122 123 126 124 113 72 111 95 0
129 128 132 122 123 126 124 106 70 105 92 0
129 128 132 122 123 126 124 120 79 119 101 0
129 128 132 122 123 126 124 28 8 23 14 0
129 128 132 122 123 126 124 46 35 44 39 0
129 128 132 122 123 126 124 88 67 87 80 0
129 128 132 122 123 126 124 63 50 61 54 0
129 128 132 122 123 126 113 72 111 95 59 0
129 128 132 122 123 126 106 70 105 92 57 0
129 128 132 122 123 126 120 79 119 101 65 0
129 128 132 122 123 126 28 8 23 14 6 0
129 128 132 122 123 126 46 35 44 39 33 0
129 128 132 122 123 126 88 67 87 80 52 0
129 128 132 122 123 124 113 72 111 95 85 0
129 128 132 122 123 124 106 70 105 92 82 0
129 128 132 122 123 124 120 79 119 101 90 0
129 128 132 122 123 124 28 8 23 14 13 0
129 128 132 122 123 124 46 35 44 39 36 0
129 128 132 122 123 124 63 50 61 54 53 0
129 128 132 122 123 113 72 111 95 85 59 0
129 128 132 122 123 106 70 105 92 82 57 0
129 128 132 122 123 120 79 119 101 90 65 0
129 128 132 122 123 28 8 23 14 13 6 0
129 128 132 122 123 46 35 44 39 36 33 0
129 128 132 122 126 124 113 72 111 95 43 0
129 128 132 122 126 124 106 70 105 92 40 0
129 128 132 122 126 124 120 79 119 101 49 0
129 128 132 122 126 124 28 8 23 14 3 0
129 128 132 122 126 124 88 67 87 80 37 0
129 128 132 122 126 124 63 50 61 54 32 0
129 128 132 122 126 113 72 111 95 43 59 0
129 128 132 122 126 106 70 105 92 40 57 0
129 128 132 122 126 120 79 119 101 49 65 0
129 128 132 122 126 28 8 23 14 3 6 0
129 128 132 122 126 88 67 87 80 37 52 0
129 128 132 122 124 113 72 111 95 43 85 0
129 128 132 122 124 106 70 105 92 40 82 0
129 128 132 122 124 120 79 119 101 49 90 0
129 128 132 122 124 28 8 23 14 3 13 0
129 128 132 122 124 63 50 61 54 32 53 0
129 128 132 122 113 72 111 95 43 85 59 0
129 128 132 122 106 70 105 92 40 82 57 0
129 128 132 122 120 79 119 101 49 90 65 0
129 128 132 122 28 8 23 14 3 13 6 0
129 128 132 127 123 126 124 113 72 111 22 0
129 128 132 127 123 126 124 106 70 105 18 0
129 128 132 127 123 126 124 120 79 119 29 0
129 128 132 127 123 126 124 98 69 96 16 0
129 128 132 127 123 126 124 46 35 44 2 0
129 128 132 127 123 126 124 88 67 87 11 0
129 128 132 127 123 126 124 63 50 61 5 0
129 128 132 127 123 126 113 72 111 22 59 0
129 128 132 127 123 126 106 70 105 18 57 0
129 128 132 127 123 126 120 79 119 29 65 0
129 128 132 127 123 126 98 69 96 16 55 0
129 128 132 127 123 126 46 35 44 2 33 0
129 128 132 127 123 126 88 67 87 11 52 0
129 128 132 127 123 124 113 72 111 22 85 0
129 128 132 127 123 124 106 70 105 18 82 0
129 128 132 127 123 124 120 79 119 29 90 0
129 128 132 127 123 124 98 69 96 16 81 0
129 128 132 127 123 124 46 35 44 2 36 0
129 128 132 127 123 124 63 50 61 5 53 0
129 128 132 127 123 113 72 111 22 85 59 0
129 128 132 127 123 106 70 105 18 82 57 0
129 128 132 127 123 120 79 119 29 90 65 0
129 128 132 127 123 98 69 96 16 81 55 0
129 128 132 127 123 46 35 44 2 36 33 0
129 128 132 127 126 124 113 72 111 22 43 0
129 128 132 127 126 124 106 70 105 18 40 0
129 128 132 127 126 124 120 79 119 29 49 0
129 128 132 127 126 124 98 69 96 16 38 0
129 128 132 127 126 124 88 67 87 11 37 0
129 128 132 127 126 124 63 50 61 5 32 0
129 128 132 127 126 113 72 111 22 43 59 0
129 128 132 127 126 106 70 105 18 40 57 0
129 128 132 127 126 120 79 119 29 49 65 0
129 128 132 127 126 98 69 96 16 38 55 0
129 128 132 127 126 88 67 87 11 37 52 0
129 128 132 127 124 113 72 111 22 43 85 0
129 128 132 127 124 106 70 105 18 40 82 0
129 128 132 127 124 120 79 119 29 49 90 0
129 128 132 127 124 98 69 96 16 38 81 0
129 128 132 127 124 63 50 61 5 32 53 0
129 128 132 127 113 72 111 22 43 85 59 0
129 128 132 127 106 70 105 18 40 82 57 0
129 128 132 127 120 79 119 29 49 90 65 0
129 128 132 127 98 69 96 16 38 81 55 0
129 128 132 123 126 124 113 72 111 22 95 0
129 128 132 123 126 124 106 70 105 18 92 0
129 128 132 123 126 124 120 79 119 29 101 0
129 128 132 123 126 124 46 35 44 2 39 0
129 128 132 123 126 124 88 67 87 11 80 0
129 128 132 123 126 124 63 50 61 5 54 0
129 128 132 123 126 113 72 111 22 95 59 0
129 128 132 123 126 106 70 105 18 92 57 0
129 128 132 123 126 120 79 119 29 101 65 0
129 128 132 123 126 46 35 44 2 39 33 0
129 128 132 123 126 88 67 87 11 80 52 0
129 128 132 123 124 113 72 111 22 95 85 0
129 128 132 123 124 106 70 105 18 92 82 0
129 128 132 123 124 120 79 119 29 101 90 0
129 128 132 123 124 46 35 44 2 39 36 0
129 128 132 123 124 63 50 61 5 54 53 0
129 128 132 123 113 72 111 22 95 85 59 0
129 128 132 123 106 70 105 18 92 82 57 0
129 128 132 123 120 79 119 29 101 90 65 0
129 128 132 123 46 35 44 2 39 36 33 0
129 128 132 126 124 113 72 111 22 95 43 0
129 128 132 126 124 106 70 105 18 92 40 0
129 128 132 126 124 120 79 119 29 101 49 0
129 128 132 126 124 88 67 87 11 80 37 0
129 128 132 126 124 63 50 61 5 54 32 0
129 128 132 126 113 72 111 22 95 43 59 0
129 128 132 126 106 70 105 18 92 40 57 0
129 128 132 126 120 79 119 29 101 49 65 0
129 128 132 126 88 67 87 11 80 37 52 0
129 128 132 124 113 72 111 22 95 43 85 0
129 128 132 124 106 70 105 18 92 40 82 0
129 128 132 124 120 79 119 29 101 49 90 0
129 128 132 124 63 50 61 5 54 32 53 0
129 128 132 113 72 111 22 95 43 85 59 0
129 128 132 106 70 105 18 92 40 82 57 0
129 128 132 120 79 119 29 101 49 90 65 0
129 128 122 127 123 126 124 113 72 111 114 0
129 128 122 127 123 126 124 106 70 105 109 0
129 128 122 127 123 126 124 28 8 23 31 0
129 128 122 127 123 126 124 98 69 96 100 0
129 128 122 127 123 126 124 46 35 44 48 0
129 128 122 127 123 126 124 88 67 87 91 0
129 128 122 127 123 126 124 63 50 61 64 0
129 128 122 127 123 126 113 72 111 114 59 0
129 128 122 127 123 126 106 70 105 109 57 0
129 128 122 127 123 126 28 8 23 31 6 0
129 128 122 127 123 126 98 69 96 100 55 0
129 128 122 127 123 126 46 35 44 48 33 0
129 128 122 127 123 126 88 67 87 91 52 0
129 128 122 127 123 124 113 72 111 114 85 0
129 128 122 127 123 124 106 70 105 109 82 0
129 128 122 127 123 124 28 8 23 31 13 0
129 128 122 127 123 124 98 69 96 100 81 0
129 128 122 127 123 124 46 35 44 48 36 0
129 128 122 127 123 124 63 50 61 64 53 0
129 128 122 127 123 113 72 111 114 85 59 0
129 128 122 127 123 106 70 105 109 82 57 0
129 128 122 127 123 28 8 23 31 13 6 0
129 128 122 127 123 98 69 96 100 81 55 0
129 128 122 127 123 46 35 44 48 36 33 0
129 128 122 127 126 124 113 72 111 114 43 0
129 128 122 127 126 124 106 70 105 109 40 0
129 128 122 127 126 124 28 8 23 31 3 0
129 128 122 127 126 124 98 69 96 100 38 0
129 128 122 127 126 124 88 67 87 91 37 0
129 128 122 127 126 124 63 50 61 64 32 0
129 128 122 127 126 113 72 111 114 43 59 0
129 128 122 127 126 106 70 105 109 40 57 0
129 128 122 127 126 28 8 23 31 3 6 0
129 128 122 127 126 98 69 96 100 38 55 0
129 128 122 127 126 88 67 87 91 37 52 0
129 128 122 127 124 113 72 111 114 43 85 0
129 128 122 127 124 106 70 105 109 40 82 0
129 128 122 127 124 28 8 23 31 3 13 0
129 128 122 127 124 98 69 96 100 38 81 0
129 128 122 127 124 63 50 61 64 32 53 0
129 128 122 127 113 72 111 114 43 85 59 0
129 128 122 127 106 70 105 109 40 82 57 0
129 128 122 127 28 8 23 31 3 13 6 0
129 128 122 127 98 69 96 100 38 81 55 0
129 128 122 123 126 124 113 72 111 114 95 0
129 128 122 123 126 124 106 70 105 109 92 0
129 128 122 123 126 124 28 8 23 31 14 0
129 128 122 123 126 124 46 35 44 48 39 0
129 128 122 123 126 124 88 67 87 91 80 0
129 128 122 123 126 124 63 50 61 64 54 0
129 128 122 123 126 113 72 111 114 95 59 0
129 128 122 123 126 106 70 105 109 92 57 0
129 128 122 123 126 28 8 23 31 14 6 0
129 128 122 123 126 46 35 44 48 39 33 0
129 128 122 123 126 88 67 87 91 80 52 0
129 128 122 123 124 113 72 111 114 95 85 0
129 128 122 123 124 106 70 105 109 92 82 0
129 128 122 123 124 28 8 23 31 14 13 0
129 128 122 123 124 46 35 44 48 39 36 0
129 128 122 123 124 63 50 61 64 54 53 0
129 128 122 123 113 72 111 114 95 85 59 0
129 128 122 123 106 70 105 109 92 82 57 0
129 128 122 123 28 8 23 31 14 13 6 0
129 128 122 123 46 35 44 48 39 36 33 0
129 128 122 126 124 113 72 111 114 95 43 0
129 128 122 126 124 106 70 105 109 92 40 0
129 128 122 126 124 28 8 23 31 14 3 0
129 128 122 126 124 88 67 87 91 80 37 0
129 128 122 126 124 63 50 61 64 54 32 0
129 128 122 126 113 72 111 114 95 43 59 0
129 128 122 126 106 70 105 109 92 40 57 0
129 128 122 126 28 8 23 31 14 3 6 0
129 128 122 126 88 67 87 91 80 37 52 0
129 128 122 124 113 72 111 114 95 43 85 0
129 128 122 124 106 70 105 109 92 40 82 0
129 128 122 124 28 8 23 31 14 3 13 0
129 128 122 124 63 50 61 64 54 32 53 0
129 128 122 113 72 111 114 95 43 85 59 0
129 128 122 106 70 105 109 92 40 82 57 0
129 128 122 28 8 23 31 14 3 13 6 0
129 128 127 123 126 124 113 72 111 114 22 0
129 128 127 123 126 124 106 70 105 109 18 0
129 128 127 123 126 124 98 69 96 100 16 0
129 128 127 123 126 124 46 35 44 48 2 0
129 128 127 123 126 124 88 67 87 91 11 0
129 128 127 123 126 124 63 50 61 64 5 0
129 128 127 123 126 113 72 111 114 22 59 0
129 128 127 123 126 106 70 105 109 18 57 0
129 128 127 123 126 98 69 96 100 16 55 0
129 128 127 123 126 46 35 44 48 2 33 0
129 128 127 123 126 88 67 87 91 11 52 0
129 128 127 123 124 113 72 111 114 22 85 0
129 128 127 123 124 106 70 105 109 18 82 0
129 128 127 123 124 98 69 96 100 16 81 0
129 128 127 123 124 46 35 44 48 2 36 0
129 128 127 123 124 63 50 61 64 5 53 0
129 128 127 123 113 72 111 114 22 85 59 0
129 128 127 123 106 70 105 109 18 82 57 0
129 128 127 123 98 69 96 100 16 81 55 0
129 128 127 123 46 35 44 48 2 36 33 0
129 128 127 126 124 113 72 111 114 22 43 0
129 128 127 126 124 106 70 105 109 18 40 0
129 128 127 126 124 98 69 96 100 16 38 0
129 128 127 126 124 88 67 87 91 11 37 0
129 128 127 126 124 63 50 61 64 5 32 0
129 128 127 126 113 72 111 114 22 43 59 0
129 128 127 126 106 70 105 109 18 40 57 0
129 128 127 126 98 69 96 100 16 38 55 0
129 128 127 126 88 67 87 91 11 37 52 0
129 128 127 124 113 72 111 114 22 43 85 0
129 128 127 124 106 70 105 109 18 40 82 0
129 128 127 124 98 69 96 100 16 38 81 0
129 128 127 124 63 50 61 64 5 32 53 0
129 128 127 113 72 111 114 22 43 85 59 0
129 128 127 106 70 105 109 18 40 82 57 0
129 128 127 98 69 96 100 16 38 81 55 0
129 128 123 126 124 113 72 111 114 22 95 0
129 128 123 126 124 106 70 105 109 18 92 0
129 128 123 126 124 46 35 44 48 2 39 0
129 128 123 126 124 88 67 87 91 11 80 0
129 128 123 126 124 63 50 61 64 5 54 0
129 128 123 126 113 72 111 114 22 95 59 0
129 128 123 126 106 70 105 109 18 92 57 0
129 128 123 126 46 35 44 48 2 39 33 0
129 128 123 126 88 67 87 91 11 80 52 0
129 128 123 124 113 72 111 114 22 95 85 0
129 128 123 124 106 70 105 109 18 92 82 0
129 128 123 124 46 35 44 48 2 39 36 0
129 128 123 124 63 50 61 64 5 54 53 0
129 128 123 113 72 111 114 22 95 85 59 0
129 128 123 106 70 105 109 18 92 82 57 0
129 128 123 46 35 44 48 2 39 36 33 0
129 128 126 124 113 72 111 114 22 95 43 0
129 128 126 124 106 70 105 109 18 92 40 0
129 128 126 124 88 67 87 91 11 80 37 0
129 128 126 124 63 50 61 64 5 54 32 0
129 128 126 113 72 111 114 22 95 43 59 0
129 128 126 106 70 105 109 18 92 40 57 0
129 128 126 88 67 87 91 11 80 37 52 0
129 128 124 113 72 111 114 22 95 43 85 0
129 128 124 106 70 105 109 18 92 40 82 0
129 128 124 63 50 61 64 5 54 32 53 0
129 128 113 72 111 114 22 95 43 85 59 0
129 128 106 70 105 109 18 92 40 82 57 0
129 125 130 132 122 127 123 126 124 113 103 0
129 125 130 132 122 127 123 126 124 77 71 0
129 125 130 132 122 127 123 126 124 117 104 0
129 125 130 132 122 127 123 126 124 120 108 0
129 125 130 132 122 127 123 126 124 28 17 0
129 125 130 132 122 127 123 126 124 98 93 0
129 125 130 132 122 127 123 126 124 46 41 0
129 125 130 132 122 127 123 126 124 88 83 0
129 125 130 132 122 127 123 126 124 63 56 0
129 125 130 132 122 127 123 126 113 103 59 0
129 125 130 132 122 127 123 126 77 71 51 0
129 125 130 132 122 127 123 126 117 104 60 0
129 125 130 132 122 127 123 126 120 108 65 0
129 125 130 132 122 127 123 126 28 17 6 0
129 125 130 132 122 127 123 126 98 93 55 0
129 125 130 132 122 127 123 126 46 41 33 0
129 125 130 132 122 127 123 126 88 83 52 0
129 125 130 132 122 127 123 124 113 103 85 0
129 125 130 132 122 127 123 124 77 71 66 0
129 125 130 132 122 127 123 124 117 104 86 0
129 125 130 132 122 127 123 124 120 108 90 0
129 125 130 132 122 127 123 124 28 17 13 0
129 125 130 132 122 127 123 124 98 93 81 0
129 125 130 132 122 127 123 124 46 41 36 0
129 125 130 132 122 127 123 124 63 56 53 0
129 125 130 132 122 127 123 113 103 85 59 0
129 125 130 132 122 127 123 77 71 66 51 0
129 125 130 132 122 127 123 117 104 86 60 0
129 125 130 132 122 127 123 120 108 90 65 0
129 125 130 132 122 127 123 28 17 13 6 0
129 125 130 132 122 127 123 98 93 81 55 0
129 125 130 132 122 127 123 46 41 36 33 0
129 125 130 132 122 127 126 124 113 103 43 0
129 125 130 132 122 127 126 124 77 71 34 0
129 125 130 132 122 127 126 124 117 104 45 0
129 125 130 132 122 127 126 124 120 108 49 0
129 125 130 132 122 127 126 124 28 17 3 0
129 125 130 132 122 127 126 124 98 93 38 0
129 125 130 132 122 127 126 124 88 83 37 0
129 125 130 132 122 127 126 124 63 56 32 0
129 125 130 132 122 127 126 113 103 43 59 0
129 125 130 132 122 127 126 77 71 34 51 0
129 125 130 132 122 127 126 117 104 45 60 0
129 125 130 132 122 127 126 120 108 49 65 0
129 125 130 132 122 127 126 28 17 3 6 0
129 125 130 132 122 127 126 98 93 38 55 0
129 125 130 132 122 127 126 88 83 37 52 0
129 125 130 132 122 127 124 113 103 43 85 0
129 125 130 132 122 127 124 77 71 34 66 0
129 125 130 132 122 127 124 117 104 45 86 0
129 125 130 132 122 127 124 120 108 49 90 0
129 125 130 132 122 127 124 28 17 3 13 0
129 125 130 132 122 127 124 98 93 38 81 0
129 125 130 132 122 127 124 63 56 32 53 0
129 125 130 132 122 127 113 103 43 85 59 0
129 125 130 132 122 127 77 71 34 66 51 0
129 125 130 132 122 127 117 104 45 86 60 0
129 125 130 132 122 127 120 108 49 90 65 0
129 125 130 132 122 127 28 17 3 13 6 0
129 125 130 132 122 127 98 93 38 81 55 0
129 125 130 132 122 123 126 124 113 103 95 0
129 125 130 132 122 123 126 124 77 71 68 0
129 125 130 132 122 123 126 124 117 104 97 0
129 125 130 132 122 123 126 124 120 108 101 0
129 125 130 132 122 123 126 124 28 17 14 0
129 125 130 132 122 123 126 124 46 41 39 0
129 125 130 132 122 123 126 124 88 83 80 0
129 125 130 132 122 123 126 124 63 56 54 0
129 125 130 132 122 123 126 113 103 95 59 0
129 125 130 132 122 123 126 77 71 68 51 0
129 125 130 132 122 123 126 117 104 97 60 0
129 125 130 132 122 123 126 120 108 101 65 0
129 125 130 132 122 123 126 28 17 14 6 0
129 125 130 132 122 123 126 46 41 39 33 0
129 125 130 132 122 123 126 88 83 80 52 0
129 125 130 132 122 123 124 113 103 95 85 0
129 125 130 132 122 123 124 77 71 68 66 0
129 125 130 132 122 123 124 117 104 97 86 0
129 125 130 132 122 123 124 120 108 101 90 0
129 125 130 132 122 123 124 28 17 14 13 0
129 125 130 132 122 123 124 46 41 39 36 0
129 125 130 132 122 123 124 63 56 54 53 0
129 125 130 132 122 123 113 103 95 85 59 0
129 125 130 132 122 123 77 71 68 66 51 0
129 125 130 132 122 123 117 104 97 86 60 0
129 125 130 132 122 123 120 108 101 90 65 0
129 125 130 132 122 123 28 17 14 13 6 0
129 125 130 132 122 123 46 41 39 36 33 0
129 125 130 132 122 126 124 113 103 95 43 0
129 125 130 132 122 126 124 77 71 68 34 0
129 125 130 132 122 126 124 117 104 97 45 0
129 125 130 132 122 126 124 120 108 101 49 0
129 125 130 132 122 126 124 28 17 14 3 0
129 125 130 132 122 126 124 88 83 80 37 0
129 125 130 132 122 126 124 63 56 54 32 0
129 125 130 132 122 126 113 103 95 43 59 0
129 125 130 132 122 126 77 71 68 34 51 0
129 125 130 132 122 126 117 104 97 45 60 0
129 125 130 132 122 126 120 108 101 49 65 0
129 125 130 132 122 126 28 17 14 3 6 0
129 125 130 132 122 126 88 83 80 37 52 0
129 125 130 132 122 124 113 103 95 43 85 0
129 125 130 132 122 124 77 71 68 34 66 0
129 125 130 132 122 124 117 104 97 45 86 0
129 125 130 132 122 124 120 108 101 49 90 0
129 125 130 132 122 124 28 17 14 3 13 0
129 125 130 132 122 124 63 56 54 32 53 0
129 125 130 132 122 113 103 95 43 85 59 0
129 125 130 132 122 77 71 68 34 66 51 0
129 125 130 132 122 117 104 97 45 86 60 0
129 125 130 132 122 120 108 101 49 90 65 0
129 125 130 132 122 28 17 14 3 13 6 0
129 125 130 132 127 123 126 124 113 103 22 0
129 125 130 132 127 123 126 124 77 71 9 0
129 125 130 132 127 123 126 124 117 104 25 0
129 125 130 132 127 123 126 124 120 108 29 0
129 125 130 132 127 123 126 124 98 93 16 0
129 125 130 132 127 123 126 124 46 41 2 0
129 125 130 132 127 123 126 124 88 83 11 0
129 125 130 132 127 123 126 124 63 56 5 0
129 125 130 132 127 123 126 113 103 22 59 0
129 125 130 132 127 123 126 77 71 9 51 0
129 125 130 132 127 123 126 117 104 25 60 0
129 125 130 132 127 123 126 120 108 29 65 0
129 125 130 132 127 123 126 98 93 16 55 0
129 125 130 132 127 123 126 46 41 2 33 0
129 125 130 132 127 123 126 88 83 11 52 0
129 125 130 132 127 123 124 113 103 22 85 0
129 125 130 132 127 123 124 77 71 9 66 0
129 125 130 132 127 123 124 117 104 25 86 0
129 125 130 132 127 123 124 120 108 29 90 0
129 125 130 132 127 123 124 98 93 16 81 0
129 125 130 132 127 123 124 46 41 2 36 0
129 125 130 132 127 123 124 63 56 5 53 0
129 125 130 132 127 123 113 103 22 85 59 0
129 125 130 132 127 123 77 71 9 66 51 0
129 125 130 132 127 123 117 104 25 86 60 0
129 125 130 132 127 123 120 108 29 90 65 0
129 125 130 132 127 123 98 93 16 81 55 0
129 125 130 132 127 123 46 41 2 36 33 0
129 125 130 132 127 126 124 113 103 22 43 0
129 125 130 132 127 126 124 77 71 9 34 0
129 125 130 132 127 126 124 117 104 25 45 0
129 125 130 132 127 126 124 120 108 29 49 0
129 125 130 132 127 126 124 98 93 16 38 0
129 125 130 132 127 126 124 88 83 11 37 0
129 125 130 132 127 126 124 63 56 5 32 0
129 125 130 132 127 126 113 103 22 43 59 0
129 125 130 132 127 126 77 71 9 34 51 0
129 125 130 132 127 126 117 104 25 45 60 0
129 125 130 132 127 126 120 108 29 49 65 0
129 125 130 132 127 126 98 93 16 38 55 0
129 125 130 132 127 126 88 83 11 37 52 0
129 125 130 132 127 124 113 103 22 43 85 0
129 125 130 132 127 124 77 71 9 34 66 0
129 125 130 132 127 124 117 104 25 45 86 0
129 125 130 132 127 124 120 108 29 49 90 0
129 125 130 132 127 124 98 93 16 38 81 0
129 125 130 132 127 124 63 56 5 32 53 0
129 125 130 132 127 113 103 22 43 85 59 0
129 125 130 132 127 77 71 9 34 66 51 0
129 125 130 132 127 117 104 25 45 86 60 0
129 125 130 132 127 120 108 29 49 90 65 0
129 125 130 132 127 98 93 16 38 81 55 0
129 125 130 132 123 126 124 113 103 22 95 0
129 125 130 132 123 126 124 77 71 9 68 0
129 125 130 132 123 126 124 117 104 25 97 0
129 125 130 132 123 126 124 120 108 29 101 0
129 125 130 132 123 126 124 46 41 2 39 0
129 125 130 132 123 126 124 88 83 11 80 0
129 125 130 132 123 126 124 63 56 5 54 0
129 125 130 132 123 126 113 103 22 95 59 0
129 125 130 132 123 126 77 71 9 68 51 0
129 125 130 132 123 126 117 104 25 97 60 0
129 125 130 132 123 126 120 108 29 101 65 0
129 125 130 132 123 126 46 41 2 39 33 0
129 125 130 132 123 126 88 83 11 80 52 0
129 125 130 132 123 124 113 103 22 95 85 0
129 125 130 132 123 124 77 71 9 68 66 0
129 125 130 132 123 124 117 104 25 97 86 0
129 125 130 132 123 124 120 108 29 101 90 0
129 125 130 132 123 124 46 41 2 39 36 0
129 125 130 132 123 124 63 56 5 54 53 0
129 125 130 132 123 113 103 22 95 85 59 0
129 125 130 132 123 77 71 9 68 66 51 0
129 125 130 132 123 117 104 25 97 86 60 0
129 125 130 132 123 120 108 29 101 90 65 0
129 125 130 132 123 46 41 2 39 36 33 0
129 125 130 132 126 124 113 103 22 95 43 0
129 125 130 132 126 124 77 71 9 68 34 0
129 125 130 132 126 124 117 104 25 97 45 0
129 125 130 132 126 124 120 108 29 101 49 0
129 125 130 132 126 124 88 83 11 80 37 0
129 125 130 132 126 124 63 56 5 54 32 0
129 125 130 132 126 113 103 22 95 43 59 0
129 125 130 132 126 77 71 9 68 34 51 0
129 125 130 132 126 117 104 25 97 45 60 0
129 125 130 132 126 120 108 29 101 49 65 0
129 125 130 132 126 88 83 11 80 37 52 0
129 125 130 132 124 113 103 22 95 43 85 0
129 125 130 132 124 77 71 9 68 34 66 0
129 125 130 132 124 117 104 25 97 45 86 0
129 125 130 132 124 120 108 29 101 49 90 0
129 125 130 132 124 63 56 5 54 32 53 0
129 125 130 132 113 103 22 95 43 85 59 0
129 125 130 132 77 71 9 68 34 66 51 0
129 125 130 132 117 104 25 97 45 86 60 0
129 125 130 132 120 108 29 101 49 90 65 0
129 125 130 122 127 123 126 124 113 103 114 0
129 125 130 122 127 123 126 124 77 71 78 0
129 125 130 122 127 123 126 124 117 104 118 0
129 125 130 122 127 123 126 124 28 17 31 0
129 125 130 122 127 123 126 124 98 93 100 0
129 125 130 122 127 123 126 124 46 41 48 0
129 125 130 122 127 123 126 124 88 83 91 0
129 125 130 122 127 123 126 124 63 56 64 0
129 125 130 122 127 123 126 113 103 114 59 0
129 125 130 122 127 123 126 77 71 78 51 0
129 125 130 122 127 123 126 117 104 118 60 0
129 125 130 122 127 123 126 28 17 31 6 0
129 125 130 122 127 123 126 98 93 100 55 0
129 125 130 122 127 123 126 46 41 48 33 0
129 125 130 122 127 123 126 88 83 91 52 0
129 125 130 122 127 123 124 113 103 114 85 0
129 125 130 122 127 123 124 77 71 78 66 0
129 125 130 122 127 123 124 117 104 118 86 0
129 125 130 122 127 123 124 28 17 31 13 0
129 125 130 122 127 123 124 98 93 100 81 0
129 125 130 122 127 123 124 46 41 48 36 0
129 125 130 122 127 123 124 63 56 64 53 0
129 125 130 122 127 123 113 103 114 85 59 0
129 125 130 122 127 123 77 71 78 66 51 0
129 125 130 122 127 123 117 104 118 86 60 0
129 125 130 122 127 123 28 17 31 13 6 0
129 125 130 122 127 123 98 93 100 81 55 0
129 125 130 122 127 123 46 41 48 36 33 0
129 125 130 122 127 126 124 113 103 114 43 0
129 125 130 122 127 126 124 77 71 78 34 0
129 125 130 122 127 126 124 117 104 118 45 0
129 125 130 122 127 126 124 28 17 31 3 0
129 125 130 122 127 126 124 98 93 100 38 0
129 125 130 122 127 126 124 88 83 91 37 0
129 125 130 122 127 126 124 63 56 64 32 0
129 125 130 122 127 126 113 103 114 43 59 0
129 125 130 122 127 126 77 71 78 34 51 0
129 125 130 122 127 126 117 104 118 45 60 0
129 125 130 122 127 126 28 17 31 3 6 0
129 125 130 122 127 126 98 93 100 38 55 0
129 125 130 122 127 126 88 83 91 37 52 0
129 125 130 122 127 124 113 103 114 43 85 0
129 125 130 122 127 124 77 71 78 34 66 0
129 125 130 122 127 124 117 104 118 45 86 0
129 125 130 122 127 124 28 17 31 3 13 0
129 125 130 122 127 124 98 93 100 38 81 0
129 125 130 122 127 124 63 56 64 32 53 0
129 125 130 122 127 113 103 114 43 85 59 0
129 125 130 122 127 77 71 78 34 66 51 0
129 125 130 122 127 117 104 118 45 86 60 0
129 125 130 122 127 28 17 31 3 13 6 0
129 125 130 122 127 98 93 100 38 81 55 0
129 125 130 122 123 126 124 113 103 114 95 0
129 125 130 122 123 126 124 77 71 78 68 0
129 125 130 122 123 126 124 117 104 118 97 0
129 125 130 122 123 126 124 28 17 31 14 0
129 125 130 122 123 126 124 46 41 48 39 0
129 125 130 122 123 126 124 88 83 91 80 0
129 125 130 122 123 126 124 63 56 64 54 0
129 125 130 122 123 126 113 103 114 95 59 0
129 125 130 122 123 126 77 71 78 68 51 0
129 125 130 122 123 126 117 104 118 97 60 0
129 125 130 122 123 126 28 17 31 14 6 0
129 125 130 122 123 126 46 41 48 39 33 0
129 125 130 122 123 126 88 83 91 80 52 0
129 125 130 122 123 124 113 103 114 95 85 0
129 125 130 122 123 124 77 71 78 68 66 0
129 125 130 122 123 124 117 104 118 97 86 0
129 125 130 122 123 124 28 17 31 14 13 0
129 125 130 122 123 124 46 41 48 39 36 0
129 125 130 122 123 124 63 56 64 54 53 0
129 125 130 122 123 113 103 114 95 85 59 0
129 125 130 122 123 77 71 78 68 66 51 0
129 125 130 122 123 117 104 118 97 86 60 0
129 125 130 122 123 28 17 31 14 13 6 0
129 125 130 122 123 46 41 48 39 36 33 0
129 125 130 122 126 124 113 103 114 95 43 0
129 125 130 122 126 124 77 71 78 68 34 0
129 125 130 122 126 124 117 104 118 97 45 0
129 125 130 122 126 124 28 17 31 14 3 0
129 125 130 122 126 124 88 83 91 80 37 0
129 125 130 122 126 124 63 56 64 54 32 0
129 125 130 122 126 113 103 114 95 43 59 0
129 125 130 122 126 77 71 78 68 34 51 0
129 125 130 122 126 117 104 118 97 45 60 0
129 125 130 122 126 28 17 31 14 3 6 0
129 125 130 122 126 88 83 91 80 37 52 0
129 125 130 122 124 113 103 114 95 43 85 0
129 125 130 122 124 77 71 78 68 34 66 0
129 125 130 122 124 117 104 118 97 45 86 0
129 125 130 122 124 28 17 31 14 3 13 0
129 125 130 122 124 63 56 64 54 32 53 0
129 125 130 122 113 103 114 95 43 85 59 0
129 125 130 122 77 71 78 68 34 66 51 0
129 125 130 122 117 104 118 97 45 86 60 0
129 125 130 122 28 17 31 14 3 13 6 0
129 125 130 127 123 126 124 113 103 114 22 0
129 125 130 127 123 126 124 77 71 78 9 0
129 125 130 127 123 126 124 117 104 118 25 0
129 125 130 127 123 126 124 98 93 100 16 0
129 125 130 127 123 126 124 46 41 48 2 0
129 125 130 127 123 126 124 88 83 91 11 0
129 125 130 127 123 126 124 63 56 64 5 0
129 125 130 127 123 126 113 103 114 22 59 0
129 125 130 127 123 126 77 71 78 9 51 0
129 125 130 127 123 126 117 104 118 25 60 0
129 125 130 127 123 126 98 93 100 16 55 0
129 125 130 127 123 126 46 41 48 2 33 0
129 125 130 127 123 126 88 83 91 11 52 0
129 125 130 127 123 124 113 103 114 22 85 0
129 125 130 127 123 124 77 71 78 9 66 0
129 125 130 127 123 124 117 104 118 25 86 0
129 125 130 127 123 124 98 93 100 16 81 0
129 125 130 127 123 124 46 41 48 2 36 0
129 125 130 127 123 124 63 56 64 5 53 0
129 125 130 127 123 113 103 114 22 85 59 0
129 125 130 127 123 77 71 78 9 66 51 0
129 125 130 127 123 117 104 118 25 86 60 0
129 125 130 127 123 98 93 100 16 81 55 0
129 125 130 127 123 46 41 48 2 36 33 0
129 125 130 127 126 124 113 103 114 22 43 0
129 125 130 127 126 124 77 71 78 9 34 0
129 125 130 127 126 124 117 104 118 25 45 0
129 125 130 127 126 124 98 93 100 16 38 0
129 125 130 127 126 124 88 83 91 11 37 0
129 125 130 127 126 124 63 56 64 5 32 0
129 125 130 127 126 113 103 114 22 43 59 0
129 125 130 127 126 77 71 78 9 34 51 0
129 125 130 127 126 117 104 118 25 45 60 0
129 125 130 127 126 98 93 100 16 38 55 0
129 125 130 127 126 88 83 91 11 37 52 0
129 125 130 127 124 113 103 114 22 43 85 0
129 125 130 127 124 77 71 78 9 34 66 0
129 125 130 127 124 117 104 118 25 45 86 0
129 125 130 127 124 98 93 100 16 38 81 0
129 125 130 127 124 63 56 64 5 32 53 0
129 125 130 127 113 103 114 22 43 85 59 0
129 125 130 127 77 71 78 9 34 66 51 0
129 125 130 127 117 104 118 25 45 86 60 0
129 125 130 127 98 93 100 16 38 81 55 0
129 125 130 123 126 124 113 103 114 22 95 0
129 125 130 123 126 124 77 71 78 9 68 0
129 125 130 123 126 124 117 104 118 25 97 0
129 125 130 123 126 124 46 41 48 2 39 0
129 125 130 123 126 124 88 83 91 11 80 0
129 125 130 123 126 124 63 56 64 5 54 0
129 125 130 123 126 113 103 114 22 95 59 0
129 125 130 123 126 77 71 78 9 68 51 0
129 125 130 123 126 117 104 118 25 97 60 0
129 125 130 123 126 46 41 48 2 39 33 0
129 125 130 123 126 88 83 91 11 80 52 0
129 125 130 123 124 113 103 114 22 95 85 0
129 125 130 123 124 77 71 78 9 68 66 0
129 125 130 123 124 117 104 118 25 97 86 0
129 125 130 123 124 46 41 48 2 39 36 0
129 125 130 123 124 63 56 64 5 54 53 0
129 125 130 123 113 103 114 22 95 85 59 0
129 125 130 123 77 71 78 9 68 66 51 0
129 125 130 123 117 104 118 25 97 86 60 0
129 125 130 123 46 41 48 2 39 36 33 0
129 125 130 126 124 113 103 114 22 95 43 0
129 125 130 126 124 77 71 78 9 68 34 0
129 125 130 126 124 117 104 118 25 97 45 0
129 125 130 126 124 88 83 91 11 80 37 0
129 125 130 126 124 63 56 64 5 54 32 0
129 125 130 126 113 103 114 22 95 43 59 0
129 125 130 126 77 71 78 9 68 34 51 0
129 125 130 126 117 104 118 25 97 45 60 0
129 125 130 126 88 83 91 11 80 37 52 0
129 125 130 124 113 103 114 22 95 43 85 0
129 125 130 124 77 71 78 9 68 34 66 0
129 125 130 124 117 104 118 25 97 45 86 0
129 125 130 124 63 56 64 5 54 32 53 0
129 125 130 113 103 114 22 95 43 85 59 0
129 125 130 77 71 78 9 68 34 66 51 0
129 125 130 117 104 118 25 97 45 86 60 0
129 125 132 122 127 123 126 124 113 103 111 0
129 125 132 122 127 123 126 124 77 71 75 0
129 125 132 122 127 123 126 124 120 108 119 0
129 125 132 122 127 123 126 124 28 17 23 0
129 125 132 122 127 123 126 124 98 93 96 0
129 125 132 122 127 123 126 124 46 41 44 0
129 125 132 122 127 123 126 124 88 83 87 0
129 125 132 122 127 123 126 124 63 56 61 0
129 125 132 122 127 123 126 113 103 111 59 0
129 125 132 122 127 123 126 77 71 75 51 0
129 125 132 122 127 123 126 120 108 119 65 0
129 125 132 122 127 123 126 28 17 23 6 0
129 125 132 122 127 123 126 98 93 96 55 0
129 125 132 122 127 123 126 46 41 44 33 0
129 125 132 122 127 123 126 88 83 87 52 0
129 125 132 122 127 123 124 113 103 111 85 0
129 125 132 122 127 123 124 77 71 75 66 0
129 125 132 122 127 123 124 120 108 119 90 0
129 125 132 122 127 123 124 28 17 23 13 0
129 125 132 122 127 123 124 98 93 96 81 0
129 125 132 122 127 123 124 46 41 44 36 0
129 125 132 122 127 123 124 63 56 61 53 0
129 125 132 122 127 123 113 103 111 85 59 0
129 125 132 122 127 123 77 71 75 66 51 0
129 125 132 122 127 123 120 108 119 90 65 0
129 125 132 122 127 123 28 17 23 13 6 0
129 125 132 122 127 123 98 93 96 81 55 0
129 125 132 122 127 123 46 41 44 36 33 0
129 125 132 122 127 126 124 113 103 111 43 0
129 125 132 122 127 126 124 77 71 75 34 0
129 125 132 122 127 126 124 120 108 119 49 0
129 125 132 122 127 126 124 28 17 23 3 0
129 125 132 122 127 126 124 98 93 96 38 0
129 125 132 122 127 126 124 88 83 87 37 0
129 125 132 122 127 126 124 63 56 61 32 0
129 125 132 122 127 126 113 103 111 43 59 0
129 125 132 122 127 126 77 71 75 34 51 0
129 125 132 122 127 126 120 108 119 49 65 0
129 125 132 122 127 126 28 17 23 3 6 0
129 125 132 122 127 126 98 93 96 38 55 0
129 125 132 122 127 126 88 83 87 37 52 0
129 125 132 122 127 124 113 103 111 43 85 0
129 125 132 122 127 124 77 71 75 34 66 0
129 125 132 122 127 124 120 108 119 49 90 0
129 125 132 122 127 124 28 17 23 3 13 0
129 125 132 122 127 124 98 93 96 38 81 0
129 125 132 122 127 124 63 56 61 32 53 0
129 125 132 122 127 113 103 111 43 85 59 0
129 125 132 122 127 77 71 75 34 66 51 0
129 125 132 122 127 120 108 119 49 90 65 0
129 125 132 122 127 28 17 23 3 13 6 0
129 125 132 122 127 98 93 96 38 81 55 0
129 125 132 122 123 126 124 113 103 111 95 0
129 125 132 122 123 126 124 77 71 75 68 0
129 125 132 122 123 126 124 120 108 119 101 0
129 125 132 122 123 126 124 28 17 23 14 0
129 125 132 122 123 126 124 46 41 44 39 0
129 125 132 122 123 126 124 88 83 87 80 0
129 125 132 122 123 126 124 63 56 61 54 0
129 125 132 122 123 126 113 103 111 95 59 0
129 125 132 122 123 126 77 71 75 68 51 0
129 125 132 122 123 126 120 108 119 101 65 0
129 125 132 122 123 126 28 17 23 14 6 0
129 125 132 122 123 126 46 41 44 39 33 0
129 125 132 122 123 126 88 83 87 80 52 0
129 125 132 122 123 124 113 103 111 95 85 0
129 125 132 122 123 124 77 71 75 68 66 0
129 125 132 122 123 124 120 108 119 101 90 0
129 125 132 122 123 124 28 17 23 14 13 0
129 125 132 122 123 124 46 41 44 39 36 0
129 125 132 122 123 124 63 56 61 54 53 0
129 125 132 122 123 113 103 111 95 85 59 0
129 125 132 122 123 77 71 75 68 66 51 0
129 125 132 122 123 120 108 119 101 90 65 0
129 125 132 122 123 28 17 23 14 13 6 0
129 125 132 122 123 46 41 44 39 36 33 0
129 125 132 122 126 124 113 103 111 95 43 0
129 125 132 122 126 124 77 71 75 68 34 0
129 125 132 122 126 124 120 108 119 101 49 0
129 125 132 122 126 124 28 17 23 14 3 0
129 125 132 122 126 124 88 83 87 80 37 0
129 125 132 122 126 124 63 56 61 54 32 0
129 125 132 122 126 113 103 111 95 43 59 0
129 125 132 122 126 77 71 75 68 34 51 0
129 125 132 122 126 120 108 119 101 49 65 0
129 125 132 122 126 28 17 23 14 3 6 0
129 125 132 122 126 88 83 87 80 37 52 0
129 125 132 122 124 113 103 111 95 43 85 0
129 125 132 122 124 77 71 75 68 34 66 0
129 125 132 122 124 120 108 119 101 49 90 0
129 125 132 122 124 28 17 23 14 3 13 0
129 125 132 122 124 63 56 61 54 32 53 0
129 125 132 122 113 103 111 95 43 85 59 0
129 125 132 122 77 71 75 68 34 66 51 0
129 125 132 122 120 108 119 101 49 90 65 0
129 125 132 122 28 17 23 14 3 13 6 0
129 125 132 127 123 126 124 113 103 111 22 0
129 125 132 127 123 126 124 77 71 75 9 0
129 125 132 127 123 126 124 120 108 119 29 0
129 125 132 127 123 126 124 98 93 96 16 0
129 125 132 127 123 126 124 46 41 44 2 0
129 125 132 127 123 126 124 88 83 87 11 0
129 125 132 127 123 126 124 63 56 61 5 0
129 125 132 127 123 126 113 103 111 22 59 0
129 125 132 127 123 126 77 71 75 9 51 0
129 125 132 127 123 126 120 108 119 29 65 0
129 125 132 127 123 126 98 93 96 16 55 0
129 125 132 127 123 126 46 41 44 2 33 0
129 125 132 127 123 126 88 83 87 11 52 0
129 125 132 127 123 124 113 103 111 22 85 0
129 125 132 127 123 124 77 71 75 9 66 0
129 125 132 127 123 124 120 108 119 29 90 0
129 125 132 127 123 124 98 93 96 16 81 0
129 125 132 127 123 124 46 41 44 2 36 0
129 125 132 127 123 124 63 56 61 5 53 0
129 125 132 127 123 113 103 111 22 85 59 0
129 125 132 127 123 77 71 75 9 66 51 0
129 125 132 127 123 120 108 119 29 90 65 0
129 125 132 127 123 98 93 96 16 81 55 0
129 125 132 127 123 46 41 44 2 36 33 0
129 125 132 127 126 124 113 103 111 22 43 0
129 125 132 127 126 124 77 71 75 9 34 0
129 125 132 127 126 124 120 108 119 29 49 0
129 125 132 127 126 124 98 93 96 16 38 0
129 125 132 127 126 124 88 83 87 11 37 0
129 125 132 127 126 124 63 56 61 5 32 0
129 125 132 127 126 113 103 111 22 43 59 0
129 125 132 127 126 77 71 75 9 34 51 0
129 125 132 127 126 120 108 119 29 49 65 0
129 125 132 127 126 98 93 96 16 38 55 0
129 125 132 127 126 88 83 87 11 37 52 0
129 125 132 127 124 113 103 111 22 43 85 0
129 125 132 127 124 77 71 75 9 34 66 0
129 125 132 127 124 120 108 119 29 49 90 0
129 125 132 127 124 98 93 96 16 38 81 0
129 125 132 127 124 63 56 61 5 32 53 0
129 125 132 127 113 103 111 22 43 85 59 0
129 125 132 127 77 71 75 9 34 66 51 0
129 125 132 127 120 108 119 29 49 90 65 0
129 125 132 127 98 93 96 16 38 81 55 0
129 125 132 123 126 124 113 103 111 22 95 0
129 125 132 123 126 124 77 71 75 9 68 0
129 125 132 123 126 124 120 108 119 29 101 0
129 125 132 123 126 124 46 41 44 2 39 0
129 125 132 123 126 124 88 83 87 11 80 0
129 125 132 123 126 124 63 56 61 5 54 0
129 125 132 123 126 113 103 111 22 95 59 0
129 125 132 123 126 77 71 75 9 68 51 0
129 125 132 123 126 120 108 119 29 101 65 0
129 125 132 123 126 46 41 44 2 39 33 0
129 125 132 123 126 88 83 87 11 80 52 0
129 125 132 123 124 113 103 111 22 95 85 0
129 125 132 123 124 77 71 75 9 68 66 0
129 125 132 123 124 120 108 119 29 101 90 0
129 125 132 123 124 46 41 44 2 39 36 0
129 125 132 123 124 63 56 61 5 54 53 0
129 125 132 123 113 103 111 22 95 85 59 0
129 125 132 123 77 71 75 9 68 66 51 0
129 125 132 123 120 108 119 29 101 90 65 0
129 125 132 123 46 41 44 2 39 36 33 0
129 125 132 126 124 113 103 111 22 95 43 0
129 125 132 126 124 77 71 75 9 68 34 0
129 125 132 126 124 120 108 119 29 101 49 0
129 125 132 126 124 88 83 87 11 80 37 0
129 125 132 126 124 63 56 61 5 54 32 0
129 125 132 126 113 103 111 22 95 43 59 0
129 125 132 126 77 71 75 9 68 34 51 0
129 125 132 126 120 108 119 29 101 49 65 0
129 125 132 126 88 83 87 11 80 37 52 0
129 125 132 124 113 103 111 22 95 43 85 0
129 125 132 124 77 71 75 9 68 34 66 0
129 125 132 124 120 108 119 29 101 49 90 0
129 125 132 124 63 56 61 5 54 32 53 0
129 125 132 113 103 111 22 95 43 85 59 0
129 125 132 77 71 75 9 68 34 66 51 0
129 125 132 120 108 119 29 101 49 90 65 0
129 125 122 127 123 126 124 113 103 111 114 0
129 125 122 127 123 126 124 77 71 75 78 0
129 125 122 127 123 126 124 28 17 23 31 0
129 125 122 127 123 126 124 98 93 96 100 0
129 125 122 127 123 126 124 46 41 44 48 0
129 125 122 127 123 126 124 88 83 87 91 0
129 125 122 127 123 126 124 63 56 61 64 0
129 125 122 127 123 126 113 103 111 114 59 0
129 125 122 127 123 126 77 71 75 78 51 0
129 125 122 127 123 126 28 17 23 31 6 0
129 125 122 127 123 126 98 93 96 100 55 0
129 125 122 127 123 126 46 41 44 48 33 0
129 125 122 127 123 126 88 83 87 91 52 0
129 125 122 127 123 124 113 103 111 114 85 0
129 125 122 127 123 124 77 71 75 78 66 0
129 125 122 127 123 124 28 17 23 31 13 0
129 125 122 127 123 124 98 93 96 100 81 0
129 125 122 127 123 124 46 41 44 48 36 0
129 125 122 127 123 124 63 56 61 64 53 0
129 125 122 127 123 113 103 111 114 85 59 0
129 125 122 127 123 77 71 75 78 66 51 0
129 125 122 127 123 28 17 23 31 13 6 0
129 125 122 127 123 98 93 96 100 81 55 0
129 125 122 127 123 46 41 44 48 36 33 0
129 125 122 127 126 124 113 103 111 114 43 0
129 125 122 127 126 124 77 71 75 78 34 0
129 125 122 127 126 124 28 17 23 31 3 0
129 125 122 127 126 124 98 93 96 100 38 0
129 125 122 127 126 124 88 83 87 91 37 0
129 125 122 127 126 124 63 56 61 64 32 0
129 125 122 127 126 113 103 111 114 43 59 0
129 125 122 127 126 77 71 75 78 34 51 0
129 125 122 127 126 28 17 23 31 3 6 0
129 125 122 127 126 98 93 96 100 38 55 0
129 125 122 127 126 88 83 87 91 37 52 0
129 125 122 127 124 113 103 111 114 43 85 0
129 125 122 127 124 77 71 75 78 34 66 0
129 125 122 127 124 28 17 23 31 3 13 0
129 125 122 127 124 98 93 96 100 38 81 0
129 125 122 127 124 63 56 61 64 32 53 0
129 125 122 127 113 103 111 114 43 85 59 0
129 125 122 127 77 71 75 78 34 66 51 0
129 125 122 127 28 17 23 31 3 13 6 0
129 125 122 127 98 93 96 100 38 81 55 0
129 125 122 123 126 124 113 103 111 114 95 0
129 125 122 123 126 124 77 71 75 78 68 0
129 125 122 123 126 124 28 17 23 31 14 0
129 125 122 123 126 124 46 41 44 48 39 0
129 125 122 123 126 124 88 83 87 91 80 0
129 125 122 123 126 124 63 56 61 64 54 0
129 125 122 123 126 113 103 111 114 95 59 0
129 125 122 123 126 77 71 75 78 68 51 0
129 125 122 123 126 28 17 23 31 14 6 0
129 125 122 123 126 46 41 44 48 39 33 0
129 125 122 123 126 88 83 87 91 80 52 0
129 125 122 123 124 113 103 111 114 95 85 0
129 125 122 123 124 77 71 75 78 68 66 0
129 125 122 123 124 28 17 23 31 14 13 0
129 125 122 123 124 46 41 44 48 39 36 0
129 125 122 123 124 63 56 61 64 54 53 0
129 125 122 123 113 103 111 114 95 85 59 0
129 125 122 123 77 71 75 78 68 66 51 0
129 125 122 123 28 17 23 31 14 13 6 0
129 125 122 123 46 41 44 48 39 36 33 0
129 125 122 126 124 113 103 111 114 95 43 0
129 125 122 126 124 77 71 75 78 68 34 0
129 125 122 126 124 28 17 23 31 14 3 0
129 125 122 126 124 88 83 87 91 80 37 0
129 125 122 126 124 63 56 61 64 54 32 0
129 125 122 126 113 103 111 114 95 43 59 0
129 125 122 126 77 71 75 78 68 34 51 0
129 125 122 126 28 17 23 31 14 3 6 0
129 125 122 126 88 83 87 91 80 37 52 0
129 125 122 124 113 103 111 114 95 43 85 0
129 125 122 124 77 71 75 78 68 34 66 0
129 125 122 124 28 17 23 31 14 3 13 0
129 125 122 124 63 56 61 64 54 32 53 0
129 125 122 113 103 111 114 95 43 85 59 0
129 125 122 77 71 75 78 68 34 66 51 0
129 125 122 28 17 23 31 14 3 13 6 0
129 125 127 123 126 124 113 103 111 114 22 0
129 125 127 123 126 124 77 71 75 78 9 0
129 125 127 123 126 124 98 93 96 100 16 0
129 125 127 123 126 124 46 41 44 48 2 0
129 125 127 123 126 124 88 83 87 91 11 0
129 125 127 123 126 124 63 56 61 64 5 0
129 125 127 123 126 113 103 111 114 22 59 0
129 125 127 123 126 77 71 75 78 9 51 0
129 125 127 123 126 98 93 96 100 16 55 0
129 125 127 123 126 46 41 44 48 2 33 0
129 125 127 123 126 88 83 87 91 11 52 0
129 125 127 123 124 113 103 111 114 22 85 0
129 125 127 123 124 77 71 75 78 9 66 0
129 125 127 123 124 98 93 96 100 16 81 0
129 125 127 123 124 46 41 44 48 2 36 0
129 125 127 123 124 63 56 61 64 5 53 0
129 125 127 123 113 103 111 114 22 85 59 0
129 125 127 123 77 71 75 78 9 66 51 0
129 125 127 123 98 93 96 100 16 81 55 0
129 125 127 123 46 41 44 48 2 36 33 0
129 125 127 126 124 113 103 111 114 22 43 0
129 125 127 126 124 77 71 75 78 9 34 0
129 125 127 126 124 98 93 96 100 16 38 0
129 125 127 126 124 88 83 87 91 11 37 0
129 125 127 126 124 63 56 61 64 5 32 0
129 125 127 126 113 103 111 114 22 43 59 0
129 125 127 126 77 71 75 78 9 34 51 0
129 125 127 126 98 93 96 100 16 38 55 0
129 125 127 126 88 83 87 91 11 37 52 0
129 125 127 124 113 103 111 114 22 43 85 0
129 125 127 124 77 71 75 78 9 34 66 0
129 125 127 124 98 93 96 100 16 38 81 0
129 125 127 124 63 56 61 64 5 32 53 0
129 125 127 113 103 111 114 22 43 85 59 0
129 125 127 77 71 75 78 9 34 66 51 0
129 125 127 98 93 96 100 16 38 81 55 0
129 125 123 126 124 113 103 111 114 22 95 0
129 125 123 126 124 77 71 75 78 9 68 0
129 125 123 126 124 46 41 44 48 2 39 0
129 125 123 126 124 88 83 87 91 11 80 0
129 125 123 126 124 63 56 61 64 5 54 0
129 125 123 126 113 103 111 114 22 95 59 0
129 125 123 126 77 71 75 78 9 68 51 0
129 125 123 126 46 41 44 48 2 39 33 0
129 125 123 126 88 83 87 91 11 80 52 0
129 125 123 124 113 103 111 114 22 95 85 0
129 125 123 124 77 71 75 78 9 68 66 0
129 125 123 124 46 41 44 48 2 39 36 0
129 125 123 124 63 56 61 64 5 54 53 0
129 125 123 113 103 111 114 22 95 85 59 0
129 125 123 77 71 75 78 9 68 66 51 0
129 125 123 46 41 44 48 2 39 36 33 0
129 125 126 124 113 103 111 114 22 95 43 0
129 125 126 124 77 71 75 78 9 68 34 0
129 125 126 124 88 83 87 91 11 80 37 0
129 125 126 124 63 56 61 64 5 54 32 0
129 125 126 113 103 111 114 22 95 43 59 0
129 125 126 77 71 75 78 9 68 34 51 0
129 125 126 88 83 87 91 11 80 37 52 0
129 125 124 113 103 111 114 22 95 43 85 0
129 125 124 77 71 75 78 9 68 34 66 0
129 125 124 63 56 61 64 5 54 32 53 0
129 125 113 103 111 114 22 95 43 85 59 0
129 125 77 71 75 78 9 68 34 66 51 0
129 130 132 122 127 123 126 124 113 103 72 0
129 130 132 122 127 123 126 124 117 104 74 0
129 130 132 122 127 123 126 124 120 108 79 0
129 130 132 122 127 123 126 124 28 17 8 0
129 130 132 122 127 123 126 124 98 93 69 0
129 130 132 122 127 123 126 124 46 41 35 0
129 130 132 122 127 123 126 124 88 83 67 0
129 130 132 122 127 123 126 124 63 56 50 0
129 130 132 122 127 123 126 113 103 72 59 0
129 130 132 122 127 123 126 117 104 74 60 0
129 130 132 122 127 123 126 120 108 79 65 0
129 130 132 122 127 123 126 28 17 8 6 0
129 130 132 122 127 123 126 98 93 69 55 0
129 130 132 122 127 123 126 46 41 35 33 0
129 130 132 122 127 123 126 88 83 67 52 0
129 130 132 122 127 123 124 113 103 72 85 0
129 130 132 122 127 123 124 117 104 74 86 0
129 130 132 122 127 123 124 120 108 79 90 0
129 130 132 122 127 123 124 28 17 8 13 0
129 130 132 122 127 123 124 98 93 69 81 0
129 130 132 122 127 123 124 46 41 35 36 0
129 130 132 122 127 123 124 63 56 50 53 0
129 130 132 122 127 123 113 103 72 85 59 0
129 130 132 122 127 123 117 104 74 86 60 0
129 130 132 122 127 123 120 108 79 90 65 0
129 130 132 122 127 123 28 17 8 13 6 0
129 130 132 122 127 123 98 93 69 81 55 0
129 130 132 122 127 123 46 41 35 36 33 0
129 130 132 122 127 126 124 113 103 72 43 0
129 130 132 122 127 126 124 117 104 74 45 0
129 130 132 122 127 126 124 120 108 79 49 0
129 130 132 122 127 126 124 28 17 8 3 0
129 130 132 122 127 126 124 98 93 69 38 0
129 130 132 122 127 126 124 88 83 67 37 0
129 130 132 122 127 126 124 63 56 50 32 0
129 130 132 122 127 126 113 103 72 43 59 0
129 130 132 122 127 126 117 104 74 45 60 0
129 130 132 122 127 126 120 108 79 49 65 0
129 130 132 122 127 126 28 17 8 3 6 0
129 130 132 122 127 126 98 93 69 38 55 0
129 130 132 122 127 126 88 83 67 37 52 0
129 130 132 122 127 124 113 103 72 43 85 0
129 130 132 122 127 124 117 104 74 45 86 0
129 130 132 122 127 124 120 108 79 49 90 0
129 130 132 122 127 124 28 17 8 3 13 0
129 130 132 122 127 124 98 93 69 38 81 0
129 130 132 122 127 124 63 56 50 32 53 0
129 130 132 122 127 113 103 72 43 85 59 0
129 130 132 122 127 117 104 74 45 86 60 0
129 130 132 122 127 120 108 79 49 90 65 0
129 130 132 122 127 28 17 8 3 13 6 0
129 130 132 122 127 98 93 69 38 81 55 0
129 130 132 122 123 126 124 113 103 72 95 0
129 130 132 122 123 126 124 117 104 74 97 0
129 130 132 122 123 126 124 120 108 79 101 0
129 130 132 122 123 126 124 28 17 8 14 0
129 130 132 122 123 126 124 46 41 35 39 0
129 130 132 122 123 126 124 88 83 67 80 0
129 130 132 122 123 126 124 63 56 50 54 0
129 130 132 122 123 126 113 103 72 95 59 0
129 130 132 122 123 126 117 104 74 97 60 0
129 130 132 122 123 126 120 108 79 101 65 0
129 130 132 122 123 126 28 17 8 14 6 0
129 130 132 122 123 126 46 41 35 39 33 0
129 130 132 122 123 126 88 83 67 80 52 0
129 130 132 122 123 124 113 103 72 95 85 0
129 130 132 122 123 124 117 104 74 97 86 0
129 130 132 122 123 124 120 108 79 101 90 0
129 130 132 122 123 124 28 17 8 14 13 0
129 130 132 122 123 124 46 41 35 39 36 0
129 130 132 122 123 124 63 56 50 54 53 0
129 130 132 122 123 113 103 72 95 85 59 0
129 130 132 122 123 117 104 74 97 86 60 0
129 130 132 122 123 120 108 79 101 90 65 0
129 130 132 122 123 28 17 8 14 13 6 0
129 130 132 122 123 46 41 35 39 36 33 0
129 130 132 122 126 124 113 103 72 95 43 0
129 130 132 122 126 124 117 104 74 97 45 0
129 130 132 122 126 124 120 108 79 101 49 0
129 130 132 122 126 124 28 17 8 14 3 0
129 130 132 122 126 124 88 83 67 80 37 0
129 130 132 122 126 124 63 56 50 54 32 0
129 130 132 122 126 113 103 72 95 43 59 0
129 130 132 122 126 117 104 74 97 45 60 0
129 130 132 122 126 120 108 79 101 49 65 0
129 130 132 122 126 28 17 8 14 3 6 0
129 130 132 122 126 88 83 67 80 37 52 0
129 130 132 122 124 113 103 72 95 43 85 0
129 130 132 122 124 117 104 74 97 45 86 0
129 130 132 122 124 120 108 79 101 49 90 0
129 130 132 122 124 28 17 8 14 3 13 0
129 130 132 122 124 63 56 50 54 32 53 0
129 130 132 122 113 103 72 95 43 85 59 0
129 130 132 122 117 104 74 97 45 86 60 0
129 130 132 122 120 108 79 101 49 90 65 0
129 130 132 122 28 17 8 14 3 13 6 0
129 130 132 127 123 126 124 113 103 72 22 0
129 130 132 127 123 126 124 117 104 74 25 0
129 130 132 127 123 126 124 120 108 79 29 0
129 130 132 127 123 126 124 98 93 69 16 0
129 130 132 127 123 126 124 46 41 35 2 0
129 130 132 127 123 126 124 88 83 67 11 0
129 130 132 127 123 126 124 63 56 50 5 0
129 130 132 127 123 126 113 103 72 22 59 0
129 130 132 127 123 126 117 104 74 25 60 0
129 130 132 127 123 126 120 108 79 29 65 0
129 130 132 127 123 126 98 93 69 16 55 0
129 130 132 127 123 126 46 41 35 2 33 0
129 130 132 127 123 126 88 83 67 11 52 0
129 130 132 127 123 124 113 103 72 22 85 0
129 130 132 127 123 124 117 104 74 25 86 0
129 130 132 127 123 124 120 108 79 29 90 0
129 130 132 127 123 124 98 93 69 16 81 0
129 130 132 127 123 124 46 41 35 2 36 0
129 130 132 127 123 124 63 56 50 5 53 0
129 130 132 127 123 113 103 72 22 85 59 0
129 130 132 127 123 117 104 74 25 86 60 0
129 130 132 127 123 120 108 79 29 90 65 0
129 130 132 127 123 98 93 69 16 81 55 0
129 130 132 127 123 46 41 35 2 36 33 0
129 130 132 127 126 124 113 103 72 22 43 0
129 130 132 127 126 124 117 104 74 25 45 0
129 130 132 127 126 124 120 108 79 29 49 0
129 130 132 127 126 124 98 93 69 16 38 0
129 130 132 127 126 124 88 83 67 11 37 0
129 130 132 127 126 124 63 56 50 5 32 0
129 130 132 127 126 113 103 72 22 43 59 0
129 130 132 127 126 117 104 74 25 45 60 0
129 130 132 127 126 120 108 79 29 49 65 0
129 130 132 127 126 98 93 69 16 38 55 0
129 130 132 127 126 88 83 67 11 37 52 0
129 130 132 127 124 113 103 72 22 43 85 0
129 130 132 127 124 117 104 74 25 45 86 0
129 130 132 127 124 120 108 79 29 49 90 0
129 130 132 127 124 98 93 69 16 38 81 0
129 130 132 127 124 63 56 50 5 32 53 0
129 130 132 127 113 103 72 22 43 85 59 0
129 130 132 127 117 104 74 25 45 86 60 0
129 130 132 127 120 108 79 29 49 90 65 0
129 130 132 127 98 93 69 16 38 81 55 0
129 130 132 123 126 124 113 103 72 22 95 0
129 130 132 123 126 124 117 104 74 25 97 0
129 130 132 123 126 124 120 108 79 29 101 0
129 130 132 123 126 124 46 41 35 2 39 0
129 130 132 123 126 124 88 83 67 11 80 0
129 130 132 123 126 124 63 56 50 5 54 0
129 130 132 123 126 113 103 72 22 95 59 0
129 130 132 123 126 117 104 74 25 97 60 0
129 130 132 123 126 120 108 79 29 101 65 0
129 130 132 123 126 46 41 35 2 39 33 0
129 130 132 123 126 88 83 67 11 80 52 0
129 130 132 123 124 113 103 72 22 95 85 0
129 130 132 123 124 117 104 74 25 97 86 0
129 130 132 123 124 120 108 79 29 101 90 0
129 130 132 123 124 46 41 35 2 39 36 0
129 130 132 123 124 63 56 50 5 54 53 0
129 130 132 123 113 103 72 22 95 85 59 0
129 130 132 123 117 104 74 25 97 86 60 0
129 130 132 123 120 108 79 29 101 90 65 0
129 130 132 123 46 41 35 2 39 36 33 0
129 130 132 126 124 113 103 72 22 95 43 0
129 130 132 126 124 117 104 74 25 97 45 0
129 130 132 126 124 120 108 79 29 101 49 0
129 130 132 126 124 88 83 67 11 80 37 0
129 130 132 126 124 63 56 50 5 54 32 0
129 130 132 126 113 103 72 22 95 43 59 0
129 130 132 126 117 104 74 25 97 45 60 0
129 130 132 126 120 108 79 29 101 49 65 0
129 130 132 126 88 83 67 11 80 37 52 0
129 130 132 124 113 103 72 22 95 43 85 0
129 130 132 124 117 104 74 25 97 45 86 0
129 130 132 124 120 108 79 29 101 49 90 0
129 130 132 124 63 56 50 5 54 32 53 0
129 130 132 113 103 72 22 95 43 85 59 0
129 130 132 117 104 74 25 97 45 86 60 0
129 130 132 120 108 79 29 101 49 90 65 0
129 130 122 127 123 126 124 113 103 72 114 0
129 130 122 127 123 126 124 117 104 74 118 0
129 130 122 127 123 126 124 28 17 8 31 0
129 130 122 127 123 126 124 98 93 69 100 0
129 130 122 127 123 126 124 46 41 35 48 0
129 130 122 127 123 126 124 88 83 67 91 0
129 130 122 127 123 126 124 63 56 50 64 0
129 130 122 127 123 126 113 103 72 114 59 0
129 130 122 127 123 126 117 104 74 118 60 0
129 130 122 127 123 126 28 17 8 31 6 0
129 130 122 127 123 126 98 93 69 100 55 0
129 130 122 127 123 126 46 41 35 48 33 0
129 130 122 127 123 126 88 83 67 91 52 0
129 130 122 127 123 124 113 103 72 114 85 0
129 130 122 127 123 124 117 104 74 118 86 0
129 130 122 127 123 124 28 17 8 31 13 0
129 130 122 127 123 124 98 93 69 100 81 0
129 130 122 127 123 124 46 41 35 48 36 0
129 130 122 127 123 124 63 56 50 64 53 0
129 130 122 127 123 113 103 72 114 85 59 0
129 130 122 127 123 117 104 74 118 86 60 0
129 130 122 127 123 28 17 8 31 13 6 0
129 130 122 127 123 98 93 69 100 81 55 0
129 130 122 127 123 46 41 35 48 36 33 0
129 130 122 127 126 124 113 103 72 114 43 0
129 130 122 127 126 124 117 104 74 118 45 0
129 130 122 127 126 124 28 17 8 31 3 0
129 130 122 127 126 124 98 93 69 100 38 0
129 130 122 127 126 124 88 83 67 91 37 0
129 130 122 127 126 124 63 56 50 64 32 0
129 130 122 127 126 113 103 72 114 43 59 0
129 130 122 127 126 117 104 74 118 45 60 0
129 130 122 127 126 28 17 8 31 3 6 0
129 130 122 127 126 98 93 69 100 38 55 0
129 130 122 127 126 88 83 67 91 37 52 0
129 130 122 127 124 113 103 72 114 43 85 0
129 130 122 127 124 117 104 74 118 45 86 0
129 130 122 127 124 28 17 8 31 3 13 0
129 130 122 127 124 98 93 69 100 38 81 0
129 130 122 127 124 63 56 50 64 32 53 0
129 130 122 127 113 103 72 114 43 85 59 0
129 130 122 127 117 104 74 118 45 86 60 0
129 130 122 127 28 17 8 31 3 13 6 0
129 130 122 127 98 93 69 100 38 81 55 0
129 130 122 123 126 124 113 103 72 114 95 0
129 130 122 123 126 124 117 104 74 118 97 0
129 130 122 123 126 124 28 17 8 31 14 0
129 130 122 123 126 124 46 41 35 48 39 0
129 130 122 123 126 124 88 83 67 91 80 0
129 130 122 123 126 124 63 56 50 64 54 0
129 130 122 123 126 113 103 72 114 95 59 0
129 130 122 123 126 117 104 74 118 97 60 0
129 130 122 123 126 28 17 8 31 14 6 0
129 130 122 123 126 46 41 35 48 39 33 0
129 130 122 123 126 88 83 67 91 80 52 0
129 130 122 123 124 113 103 72 114 95 85 0
129 130 122 123 124 117 104 74 118 97 86 0
129 130 122 123 124 28 17 8 31 14 13 0
129 130 122 123 124 46 41 35 48 39 36 0
129 130 122 123 124 63 56 50 64 54 53 0
129 130 122 123 113 103 72 114 95 85 59 0
129 130 122 123 117 104 74 118 97 86 60 0
129 130 122 123 28 17 8 31 14 13 6 0
129 130 122 123 46 41 35 48 39 36 33 0
129 130 122 126 124 113 103 72 114 95 43 0
129 130 122 126 124 117 104 74 118 97 45 0
129 130 122 126 124 28 17 8 31 14 3 0
129 130 122 126 124 88 83 67 91 80 37 0
129 130 122 126 124 63 56 50 64 54 32 0
129 130 122 126 113 103 72 114 95 43 59 0
129 130 122 126 117 104 74 118 97 45 60 0
129 130 122 126 28 17 8 31 14 3 6 0
129 130 122 126 88 83 67 91 80 37 52 0
129 130 122 124 113 103 72 114 95 43 85 0
129 130 122 124 117 104 74 118 97 45 86 0
129 130 122 124 28 17 8 31 14 3 13 0
129 130 122 124 63 56 50 64 54 32 53 0
129 130 122 113 103 72 114 95 43 85 59 0
129 130 122 117 104 74 118 97 45 86 60 0
129 130 122 28 17 8 31 14 3 13 6 0
129 130 127 123 126 124 113 103 72 114 22 0
129 130 127 123 126 124 117 104 74 118 25 0
129 130 127 123 126 124 98 93 69 100 16 0
129 130 127 123 126 124 46 41 35 48 2 0
129 130 127 123 126 124 88 83 67 91 11 0
129 130 127 123 126 124 63 56 50 64 5 0
129 130 127 123 126 113 103 72 114 22 59 0
129 130 127 123 126 117 104 74 118 25 60 0
129 130 127 123 126 98 93 69 100 16 55 0
129 130 127 123 126 46 41 35 48 2 33 0
129 130 127 123 126 88 83 67 91 11 52 0
129 130 127 123 124 113 103 72 114 22 85 0
129 130 127 123 124 117 104 74 118 25 86 0
129 130 127 123 124 98 93 69 100 16 81 0
129 130 127 123 124 46 41 35 48 2 36 0
129 130 127 123 124 63 56 50 64 5 53 0
129 130 127 123 113 103 72 114 22 85 59 0
129 130 127 123 117 104 74 118 25 86 60 0
129 130 127 123 98 93 69 100 16 81 55 0
129 130 127 123 46 41 35 48 2 36 33 0
129 130 127 126 124 113 103 72 114 22 43 0
129 130 127 126 124 117 104 74 118 25 45 0
129 130 127 126 124 98 93 69 100 16 38 0
129 130 127 126 124 88 83 67 91 11 37 0
129 130 127 126 124 63 56 50 64 5 32 0
129 130 127 126 113 103 72 114 22 43 59 0
129 130 127 126 117 104 74 118 25 45 60 0
129 130 127 126 98 93 69 100 16 38 55 0
129 130 127 126 88 83 67 91 11 37 52 0
129 130 127 124 113 103 72 114 22 43 85 0
129 130 127 124 117 104 74 118 25 45 86 0
129 130 127 124 98 93 69 100 16 38 81 0
129 130 127 124 63 56 50 64 5 32 53 0
129 130 127 113 103 72 114 22 43 85 59 0
129 130 127 117 104 74 118 25 45 86 60 0
129 130 127 98 93 69 100 16 38 81 55 0
129 130 123 126 124 113 103 72 114 22 95 0
129 130 123 126 124 117 104 74 118 25 97 0
129 130 123 126 124 46 41 35 48 2 39 0
129 130 123 126 124 88 83 67 91 11 80 0
129 130 123 126 124 63 56 50 64 5 54 0
129 130 123 126 113 103 72 114 22 95 59 0
129 130 123 126 117 104 74 118 25 97 60 0
129 130 123 126 46 41 35 48 2 39 33 0
129 130 123 126 88 83 67 91 11 80 52 0
129 130 123 124 113 103 72 114 22 95 85 0
129 130 123 124 117 104 74 118 25 97 86 0
129 130 123 124 46 41 35 48 2 39 36 0
129 130 123 124 63 56 50 64 5 54 53 0
129 130 123 113 103 72 114 22 95 85 59 0
129 130 123 117 104 74 118 25 97 86 60 0
129 130 123 46 41 35 48 2 39 36 33 0
129 130 126 124 113 103 72 114 22 95 43 0
129 130 126 124 117 104 74 118 25 97 45 0
129 130 126 124 88 83 67 91 11 80 37 0
129 130 126 124 63 56 50 64 5 54 32 0
129 130 126 113 103 72 114 22 95 43 59 0
129 130 126 117 104 74 118 25 97 45 60 0
129 130 126 88 83 67 91 11 80 37 52 0
129 130 124 113 103 72 114 22 95 43 85 0
129 130 124 117 104 74 118 25 97 45 86 0
129 130 124 63 56 50 64 5 54 32 53 0
129 130 113 103 72 114 22 95 43 85 59 0
129 130 117 104 74 118 25 97 45 86 60 0
129 132 122 127 123 126 124 113 103 72 111 0
129 132 122 127 123 126 124 120 108 79 119 0
129 132 122 127 123 126 124 28 17 8 23 0
129 132 122 127 123 126 124 98 93 69 96 0
129 132 122 127 123 126 124 46 41 35 44 0
129 132 122 127 123 126 124 88 83 67 87 0
129 132 122 127 123 126 124 63 56 50 61 0
129 132 122 127 123 126 113 103 72 111 59 0
129 132 122 127 123 126 120 108 79 119 65 0
129 132 122 127 123 126 28 17 8 23 6 0
129 132 122 127 123 126 98 93 69 96 55 0
129 132 122 127 123 126 46 41 35 44 33 0
129 132 122 127 123 126 88 83 67 87 52 0
129 132 122 127 123 124 113 103 72 111 85 0
129 132 122 127 123 124 120 108 79 119 90 0
129 132 122 127 123 124 28 17 8 23 13 0
129 132 122 127 123 124 98 93 69 96 81 0
129 132 122 127 123 124 46 41 35 44 36 0
129 132 122 127 123 124 63 56 50 61 53 0
129 132 122 127 123 113 103 72 111 85 59 0
129 132 122 127 123 120 108 79 119 90 65 0
129 132 122 127 123 28 17 8 23 13 6 0
129 132 122 127 123 98 93 69 96 81 55 0
129 132 122 127 123 46 41 35 44 36 33 0
129 132 122 127 126 124 113 103 72 111 43 0
129 132 122 127 126 124 120 108 79 119 49 0
129 132 122 127 126 124 28 17 8 23 3 0
129 132 122 127 126 124 98 93 69 96 38 0
129 132 122 127 126 124 88 83 67 87 37 0
129 132 122 127 126 124 63 56 50 61 32 0
129 132 122 127 126 113 103 72 111 43 59 0
129 132 122 127 126 120 108 79 119 49 65 0
129 132 122 127 126 28 17 8 23 3 6 0
129 132 122 127 126 98 93 69 96 38 55 0
129 132 122 127 126 88 83 67 87 37 52 0
129 132 122 127 124 113 103 72 111 43 85 0
129 132 122 127 124 120 108 79 119 49 90 0
129 132 122 127 124 28 17 8 23 3 13 0
129 132 122 127 124 98 93 69 96 38 81 0
129 132 122 127 124 63 56 50 61 32 53 0
129 132 122 127 113 103 72 111 43 85 59 0
129 132 122 127 120 108 79 119 49 90 65 0
129 132 122 127 28 17 8 23 3 13 6 0
129 132 122 127 98 93 69 96 38 81 55 0
129 132 122 123 126 124 113 103 72 111 95 0
129 132 122 123 126 124 120 108 79 119 101 0
129 132 122 123 126 124 28 17 8 23 14 0
129 132 122 123 126 124 46 41 35 44 39 0
129 132 122 123 126 124 88 83 67 87 80 0
129 132 122 123 126 124 63 56 50 61 54 0
129 132 122 123 126 113 103 72 111 95 59 0
129 132 122 123 126 120 108 79 119 101 65 0
129 132 122 123 126 28 17 8 23 14 6 0
129 132 122 123 126 46 41 35 44 39 33 0
129 132 122 123 126 88 83 67 87 80 52 0
129 132 122 123 124 113 103 72 111 95 85 0
129 132 122 123 124 120 108 79 119 101 90 0
129 132 122 123 124 28 17 8 23 14 13 0
129 132 122 123 124 46 41 35 44 39 36 0
129 132 122 123 124 63 56 50 61 54 53 0
129 132 122 123 113 103 72 111 95 85 59 0
129 132 122 123 120 108 79 119 101 90 65 0
129 132 122 123 28 17 8 23 14 13 6 0
129 132 122 123 46 41 35 44 39 36 33 0
129 132 122 126 124 113 103 72 111 95 43 0
129 132 122 126 124 120 108 79 119 101 49 0
129 132 122 126 124 28 17 8 23 14 3 0
129 132 122 126 124 88 83 67 87 80 37 0
129 132 122 126 124 63 56 50 61 54 32 0
129 132 122 126 113 103 72 111 95 43 59 0
129 132 122 126 120 108 79 119 101 49 65 0
129 132 122 126 28 17 8 23 14 3 6 0
129 132 122 126 88 83 67 87 80 37 52 0
129 132 122 124 113 103 72 111 95 43 85 0
129 132 122 124 120 108 79 119 101 49 90 0
129 132 122 124 28 17 8 23 14 3 13 0
129 132 122 124 63 56 50 61 54 32 53 0
129 132 122 113 103 72 111 95 43 85 59 0
129 132 122 120 108 79 119 101 49 90 65 0
129 132 122 28 17 8 23 14 3 13 6 0
129 132 127 123 126 124 113 103 72 111 22 0
129 132 127 123 126 124 120 108 79 119 29 0
129 132 127 123 126 124 98 93 69 96 16 0
129 132 127 123 126 124 46 41 35 44 2 0
129 132 127 123 126 124 88 83 67 87 11 0
129 132 127 123 126 124 63 56 50 61 5 0
129 132 127 123 126 113 103 72 111 22 59 0
129 132 127 123 126 120 108 79 119 29 65 0
129 132 127 123 126 98 93 69 96 16 55 0
129 132 127 123 126 46 41 35 44 2 33 0
129 132 127 123 126 88 83 67 87 11 52 0
129 132 127 123 124 113 103 72 111 22 85 0
129 132 127 123 124 120 108 79 119 29 90 0
129 132 127 123 124 98 93 69 96 16 81 0
129 132 127 123 124 46 41 35 44 2 36 0
129 132 127 123 124 63 56 50 61 5 53 0
129 132 127 123 113 103 72 111 22 85 59 0
129 132 127 123 120 108 79 119 29 90 65 0
129 132 127 123 98 93 69 96 16 81 55 0
129 132 127 123 46 41 35 44 2 36 33 0
129 132 127 126 124 113 103 72 111 22 43 0
129 132 127 126 124 120 108 79 119 29 49 0
129 132 127 126 124 98 93 69 96 16 38 0
129 132 127 126 124 88 83 67 87 11 37 0
129 132 127 126 124 63 56 50 61 5 32 0
129 132 127 126 113 103 72 111 22 43 59 0
129 132 127 126 120 108 79 119 29 49 65 0
129 132 127 126 98 93 69 96 16 38 55 0
129 132 127 126 88 83 67 87 11 37 52 0
129 132 127 124 113 103 72 111 22 43 85 0
129 132 127 124 120 108 79 119 29 49 90 0
129 132 127 124 98 93 69 96 16 38 81 0
129 132 127 124 63 56 50 61 5 32 53 0
129 132 127 113 103 72 111 22 43 85 59 0
129 132 127 120 108 79 119 29 49 90 65 0
129 132 127 98 93 69 96 16 38 81 55 0
129 132 123 126 124 113 103 72 111 22 95 0
129 132 123 126 124 120 108 79 119 29 101 0
129 132 123 126 124 46 41 35 44 2 39 0
129 132 123 126 124 88 83 67 87 11 80 0
129 132 123 126 124 63 56 50 61 5 54 0
129 132 123 126 113 103 72 111 22 95 59 0
129 132 123 126 120 108 79 119 29 101 65 0
129 132 123 126 46 41 35 44 2 39 33 0
129 132 123 126 88 83 67 87 11 80 52 0
129 132 123 124 113 103 72 111 22 95 85 0
129 132 123 124 120 108 79 119 29 101 90 0
129 132 123 124 46 41 35 44 2 39 36 0
129 132 123 124 63 56 50 61 5 54 53 0
129 132 123 113 103 72 111 22 95 85 59 0
129 132 123 120 108 79 119 29 101 90 65 0
129 132 123 46 41 35 44 2 39 36 33 0
129 132 126 124 113 103 72 111 22 95 43 0
129 132 126 124 120 108 79 119 29 101 49 0
129 132 126 124 88 83 67 87 11 80 37 0
129 132 126 124 63 56 50 61 5 54 32 0
129 132 126 113 103 72 111 22 95 43 59 0
129 132 126 120 108 79 119 29 101 49 65 0
129 132 126 88 83 67 87 11 80 37 52 0
129 132 124 113 103 72 111 22 95 43 85 0
129 132 124 120 108 79 119 29 101 49 90 0
129 132 124 63 56 50 61 5 54 32 53 0
129 132 113 103 72 111 22 95 43 85 59 0
129 132 120 108 79 119 29 101 49 90 65 0
129 122 127 123 126 124 113 103 72 111 114 0
129 122 127 123 126 124 28 17 8 23 31 0
129 122 127 123 126 124 98 93 69 96 100 0
129 122 127 123 126 124 46 41 35 44 48 0
129 122 127 123 126 124 88 83 67 87 91 0
129 122 127 123 126 124 63 56 50 61 64 0
129 122 127 123 126 113 103 72 111 114 59 0
129 122 127 123 126 28 17 8 23 31 6 0
129 122 127 123 126 98 93 69 96 100 55 0
129 122 127 123 126 46 41 35 44 48 33 0
129 122 127 123 126 88 83 67 87 91 52 0
129 122 127 123 124 113 103 72 111 114 85 0
129 122 127 123 124 28 17 8 23 31 13 0
129 122 127 123 124 98 93 69 96 100 81 0
129 122 127 123 124 46 41 35 44 48 36 0
129 122 127 123 124 63 56 50 61 64 53 0
129 122 127 123 113 103 72 111 114 85 59 0
129 122 127 123 28 17 8 23 31 13 6 0
129 122 127 123 98 93 69 96 100 81 55 0
129 122 127 123 46 41 35 44 48 36 33 0
129 122 127 126 124 113 103 72 111 114 43 0
129 122 127 126 124 28 17 8 23 31 3 0
129 122 127 126 124 98 93 69 96 100 38 0
129 122 127 126 124 88 83 67 87 91 37 0
129 122 127 126 124 63 56 50 61 64 32 0
129 122 127 126 113 103 72 111 114 43 59 0
129 122 127 126 28 17 8 23 31 3 6 0
129 122 127 126 98 93 69 96 100 38 55 0
129 122 127 126 88 83 67 87 91 37 52 0
129 122 127 124 113 103 72 111 114 43 85 0
129 122 127 124 28 17 8 23 31 3 13 0
129 122 127 124 98 93 69 96 100 38 81 0
129 122 127 124 63 56 50 61 64 32 53 0
129 122 127 113 103 72 111 114 43 85 59 0
129 122 127 28 17 8 23 31 3 13 6 0
129 122 127 98 93 69 96 100 38 81 55 0
129 122 123 126 124 113 103 72 111 114 95 0
129 122 123 126 124 28 17 8 23 31 14 0
129 122 123 126 124 46 41 35 44 48 39 0
129 122 123 126 124 88 83 67 87 91 80 0
129 122 123 126 124 63 56 50 61 64 54 0
129 122 123 126 113 103 72 111 114 95 59 0
129 122 123 126 28 17 8 23 31 14 6 0
129 122 123 126 46 41 35 44 48 39 33 0
129 122 123 126 88 83 67 87 91 80 52 0
129 122 123 124 113 103 72 111 114 95 85 0
129 122 123 124 28 17 8 23 31 14 13 0
129 122 123 124 46 41 35 44 48 39 36 0
129 122 123 124 63 56 50 61 64 54 53 0
129 122 123 113 103 72 111 114 95 85 59 0
129 122 123 28 17 8 23 31 14 13 6 0
129 122 123 46 41 35 44 48 39 36 33 0
129 122 126 124 113 103 72 111 114 95 43 0
129 122 126 124 28 17 8 23 31 14 3 0
129 122 126 124 88 83 67 87 91 80 37 0
129 122 126 124 63 56 50 61 64 54 32 0
129 122 126 113 103 72 111 114 95 43 59 0
129 122 126 28 17 8 23 31 14 3 6 0
129 122 126 88 83 67 87 91 80 37 52 0
129 122 124 113 103 72 111 114 95 43 85 0
129 122 124 28 17 8 23 31 14 3 13 0
129 122 124 63 56 50 61 64 54 32 53 0
129 122 113 103 72 111 114 95 43 85 59 0
129 122 28 17 8 23 31 14 3 13 6 0
129 127 123 126 124 113 103 72 111 114 22 0
129 127 123 126 124 98 93 69 96 100 16 0
129 127 123 126 124 46 41 35 44 48 2 0
129 127 123 126 124 88 83 67 87 91 11 0
129 127 123 126 124 63 56 50 61 64 5 0
129 127 123 126 113 103 72 111 114 22 59 0
129 127 123 126 98 93 69 96 100 16 55 0
129 127 123 126 46 41 35 44 48 2 33 0
129 127 123 126 88 83 67 87 91 11 52 0
129 127 123 124 113 103 72 111 114 22 85 0
129 127 123 124 98 93 69 96 100 16 81 0
129 127 123 124 46 41 35 44 48 2 36 0
129 127 123 124 63 56 50 61 64 5 53 0
129 127 123 113 103 72 111 114 22 85 59 0
129 127 123 98 93 69 96 100 16 81 55 0
129 127 123 46 41 35 44 48 2 36 33 0
129 127 126 124 113 103 72 111 114 22 43 0
129 127 126 124 98 93 69 96 100 16 38 0
129 127 126 124 88 83 67 87 91 11 37 0
129 127 126 124 63 56 50 61 64 5 32 0
129 127 126 113 103 72 111 114 22 43 59 0
129 127 126 98 93 69 96 100 16 38 55 0
129 127 126 88 83 67 87 91 11 37 52 0
129 127 124 113 103 72 111 114 22 43 85 0
129 127 124 98 93 69 96 100 16 38 81 0
129 127 124 63 56 50 61 64 5 32 53 0
129 127 113 103 72 111 114 22 43 85 59 0
129 127 98 93 69 96 100 16 38 81 55 0
129 123 126 124 113 103 72 111 114 22 95 0
129 123 126 124 46 41 35 44 48 2 39 0
129 123 126 124 88 83 67 87 91 11 80 0
129 123 126 124 63 56 50 61 64 5 54 0
129 123 126 113 103 72 111 114 22 95 59 0
129 123 126 46 41 35 44 48 2 39 33 0
129 123 126 88 83 67 87 91 11 80 52 0
129 123 124 113 103 72 111 114 22 95 85 0
129 123 124 46 41 35 44 48 2 39 36 0
129 123 124 63 56 50 61 64 5 54 53 0
129 123 113 103 72 111 114 22 95 85 59 0
129 123 46 41 35 44 48 2 39 36 33 0
129 126 124 113 103 72 111 114 22 95 43 0
129 126 124 88 83 67 87 91 11 80 37 0
129 126 124 63 56 50 61 64 5 54 32 0
129 126 113 103 72 111 114 22 95 43 59 0
129 126 88 83 67 87 91 11 80 37 52 0
129 124 113 103 72 111 114 22 95 43 85 0
129 124 63 56 50 61 64 5 54 32 53 0
129 113 103 72 111 114 22 95 43 85 59 0
128 125 130 132 122 127 123 126 124 106 102 0
128 125 130 132 122 127 123 126 124 77 73 0
128 125 130 132 122 127 123 126 124 117 110 0
128 125 130 132 122 127 123 126 124 120 115 0
128 125 130 132 122 127 123 126 124 28 21 0
128 125 130 132 122 127 123 126 124 98 94 0
128 125 130 132 122 127 123 126 124 46 42 0
128 125 130 132 122 127 123 126 124 88 84 0
128 125 130 132 122 127 123 126 124 63 58 0
128 125 130 132 122 127 123 126 106 102 57 0
128 125 130 132 122 127 123 126 77 73 51 0
128 125 130 132 122 127 123 126 117 110 60 0
128 125 130 132 122 127 123 126 120 115 65 0
128 125 130 132 122 127 123 126 28 21 6 0
128 125 130 132 122 127 123 126 98 94 55 0
128 125 130 132 122 127 123 126 46 42 33 0
128 125 130 132 122 127 123 126 88 84 52 0
128 125 130 132 122 127 123 124 106 102 82 0
128 125 130 132 122 127 123 124 77 73 66 0
128 125 130 132 122 127 123 124 117 110 86 0
128 125 130 132 122 127 123 124 120 115 90 0
128 125 130 132 122 127 123 124 28 21 13 0
128 125 130 132 122 127 123 124 98 94 81 0
128 125 130 132 122 127 123 124 46 42 36 0
128 125 130 132 122 127 123 124 63 58 53 0
128 125 130 132 122 127 123 106 102 82 57 0
128 125 130 132 122 127 123 77 73 66 51 0
128 125 130 132 122 127 123 117 110 86 60 0
128 125 130 132 122 127 123 120 115 90 65 0
128 125 130 132 122 127 123 28 21 13 6 0
128 125 130 132 122 127 123 98 94 81 55 0
128 125 130 132 122 127 123 46 42 36 33 0
128 125 130 132 122 127 126 124 106 102 40 0
128 125 130 132 122 127 126 124 77 73 34 0
128 125 130 132 122 127 126 124 117 110 45 0
128 125 130 132 122 127 126 124 120 115 49 0
128 125 130 132 122 127 126 124 28 21 3 0
128 125 130 132 122 127 126 124 98 94 38 0
128 125 130 132 122 127 126 124 88 84 37 0
128 125 130 132 122 127 126 124 63 58 32 0
128 125 130 132 122 127 126 106 102 40 57 0
128 125 130 132 122 127 126 77 73 34 51 0
128 125 130 132 122 127 126 117 110 45 60 0
128 125 130 132 122 127 126 120 115 49 65 0
128 125 130 132 122 127 126 28 21 3 6 0
128 125 130 132 122 127 126 98 94 38 55 0
128 125 130 132 122 127 126 88 84 37 52 0
128 125 130 132 122 127 124 106 102 40 82 0
128 125 130 132 122 127 124 77 73 34 66 0
128 125 130 132 122 127 124 117 110 45 86 0
128 125 130 132 122 127 124 120 115 49 90 0
128 125 130 132 122 127 124 28 21 3 13 0
128 125 130 132 122 127 124 98 94 38 81 0
128 125 130 132 122 127 124 63 58 32 53 0
128 125 130 132 122 127 106 102 40 82 57 0
128 125 130 132 122 127 77 73 34 66 51 0
128 125 130 132 122 127 117 110 45 86 60 0
128 125 130 132 122 127 120 115 49 90 65 0
128 125 130 132 122 127 28 21 3 13 6 0
128 125 130 132 122 127 98 94 38 81 55 0
128 125 130 132 122 123 126 124 106 102 92 0
128 125 130 132 122 123 126 124 77 73 68 0
128 125 130 132 122 123 126 124 117 110 97 0
128 125 130 132 122 123 126 124 120 115 101 0
128 125 130 132 122 123 126 124 28 21 14 0
128 125 130 132 122 123 126 124 46 42 39 0
128 125 130 132 122 123 126 124 88 84 80 0
128 125 130 132 122 123 126 124 63 58 54 0
128 125 130 132 122 123 126 106 102 92 57 0
128 125 130 132 122 123 126 77 73 68 51 0
128 125 130 132 122 123 126 117 110 97 60 0
128 125 130 132 122 123 126 120 115 101 65 0
128 125 130 132 122 123 126 28 21 14 6 0
128 125 130 132 122 123 126 46 42 39 33 0
128 125 130 132 122 123 126 88 84 80 52 0
128 125 130 132 122 123 124 106 102 92 82 0
128 125 130 132 122 123 124 77 73 68 66 0
128 125 130 132 122 123 124 117 110 97 86 0
128 125 130 132 122 123 124 120 115 101 90 0
128 125 130 132 122 123 124 28 21 14 13 0
128 125 130 132 122 123 124 46 42 39 36 0
128 125 130 132 122 123 124 63 58 54 53 0
128 125 130 132 122 123 106 102 92 82 57 0
128 125 130 132 122 123 77 73 68 66 51 0
128 125 130 132 122 123 117 110 97 86 60 0
128 125 130 132 122 123 120 115 101 90 65 0
128 125 130 132 122 123 28 21 14 13 6 0
128 125 130 132 122 123 46 42 39 36 33 0
128 125 130 132 122 126 124 106 102 92 40 0
128 125 130 132 122 126 124 77 73 68 34 0
128 125 130 132 122 126 124 117 110 97 45 0
128 125 130 132 122 126 124 120 115 101 49 0
128 125 130 132 122 126 124 28 21 14 3 0
128 125 130 132 122 126 124 88 84 80 37 0
128 125 130 132 122 126 124 63 58 54 32 0
128 125 130 132 122 126 106 102 92 40 57 0
128 125 130 132 122 126 77 73 68 34 51 0
128 125 130 132 122 126 117 110 97 45 60 0
128 125 130 132 122 126 120 115 101 49 65 0
128 125 130 132 122 126 28 21 14 3 6 0
128 125 130 132 122 126 88 84 80 37 52 0
128 125 130 132 122 124 106 102 92 40 82 0
128 125 130 132 122 124 77 73 68 34 66 0
128 125 130 132 122 124 117 110 97 45 86 0
128 125 130 132 122 124 120 115 101 49 90 0
128 125 130 132 122 124 28 21 14 3 13 0
128 125 130 132 122 124 63 58 54 32 53 0
128 125 130 132 122 106 102 92 40 82 57 0
128 125 130 132 122 77 73 68 34 66 51 0
128 125 130 132 122 117 110 97 45 86 60 0
128 125 130 132 122 120 115 101 49 90 65 0
128 125 130 132 122 28 21 14 3 13 6 0
128 125 130 132 127 123 126 124 106 102 18 0
128 125 130 132 127 123 126 124 77 73 9 0
128 125 130 132 127 123 126 124 117 110 25 0
128 125 130 132 127 123 126 124 120 115 29 0
128 125 130 132 127 123 126 124 98 94 16 0
128 125 130 132 127 123 126 124 46 42 2 0
128 125 130 132 127 123 126 124 88 84 11 0
128 125 130 132 127 123 126 124 63 58 5 0
128 125 130 132 127 123 126 106 102 18 57 0
128 125 130 132 127 123 126 77 73 9 51 0
128 125 130 132 127 123 126 117 110 25 60 0
128 125 130 132 127 123 126 120 115 29 65 0
128 125 130 132 127 123 126 98 94 16 55 0
128 125 130 132 127 123 126 46 42 2 33 0
128 125 130 132 127 123 126 88 84 11 52 0
128 125 130 132 127 123 124 106 102 18 82 0
128 125 130 132 127 123 124 77 73 9 66 0
128 125 130 132 127 123 124 117 110 25 86 0
128 125 130 132 127 123 124 120 115 29 90 0
128 125 130 132 127 123 124 98 94 16 81 0
128 125 130 132 127 123 124 46 42 2 36 0
128 125 130 132 127 123 124 63 58 5 53 0
128 125 130 132 127 123 106 102 18 82 57 0
128 125 130 132 127 123 77 73 9 66 51 0
128 125 130 132 127 123 117 110 25 86 60 0
128 125 130 132 127 123 120 115 29 90 65 0
128 125 130 132 127 123 98 94 16 81 55 0
128 125 130 132 127 123 46 42 2 36 33 0
128 125 130 132 127 126 124 106 102 18 40 0
128 125 130 132 127 126 124 77 73 9 34 0
128 125 130 132 127 126 124 117 110 25 45 0
128 125 130 132 127 126 124 120 115 29 49 0
128 125 130 132 127 126 124 98 94 16 38 0
128 125 130 132 127 126 124 88 84 11 37 0
128 125 130 132 127 126 124 63 58 5 32 0
128 125 130 132 127 126 106 102 18 40 57 0
128 125 130 132 127 126 77 73 9 34 51 0
128 125 130 132 127 126 117 110 25 45 60 0
128 125 130 132 127 126 120 115 29 49 65 0
128 125 130 132 127 126 98 94 16 38 55 0
128 125 130 132 127 126 88 84 11 37 52 0
128 125 130 132 127 124 106 102 18 40 82 0
128 125 130 132 127 124 77 73 9 34 66 0
128 125 130 132 127 124 117 110 25 45 86 0
128 125 130 132 127 124 120 115 29 49 90 0
128 125 130 132 127 124 98 94 16 38 81 0
128 125 130 132 127 124 63 58 5 32 53 0
128 125 130 132 127 106 102 18 40 82 57 0
128 125 130 132 127 77 73 9 34 66 51 0
128 125 130 132 127 117 110 25 45 86 60 0
128 125 130 132 127 120 115 29 49 90 65 0
128 125 130 132 127 98 94 16 38 81 55 0
128 125 130 132 123 126 124 106 102 18 92 0
128 125 130 132 123 126 124 77 73 9 68 0
128 125 130 132 123 126 124 117 110 25 97 0
128 125 130 132 123 126 124 120 115 29 101 0
128 125 130 132 123 126 124 46 42 2 39 0
128 125 130 132 123 126 124 88 84 11 80 0
128 125 130 132 123 126 124 63 58 5 54 0
128 125 130 132 123 126 106 102 18 92 57 0
128 125 130 132 123 126 77 73 9 68 51 0
128 125 130 132 123 126 117 110 25 97 60 0
128 125 130 132 123 126 120 115 29 101 65 0
128 125 130 132 123 126 46 42 2 39 33 0
128 125 130 132 123 126 88 84 11 80 52 0
128 125 130 132 123 124 106 102 18 92 82 0
128 125 130 132 123 124 77 73 9 68 66 0
128 125 130 132 123 124 117 110 25 97 86 0
128 125 130 132 123 124 120 115 29 101 90 0
128 125 130 132 123 124 46 42 2 39 36 0
128 125 130 132 123 124 63 58 5 54 53 0
128 125 130 132 123 106 102 18 92 82 57 0
128 125 130 132 123 77 73 9 68 66 51 0
128 125 130 132 123 117 110 25 97 86 60 0
128 125 130 132 123 120 115 29 101 90 65 0
128 125 130 132 123 46 42 2 39 36 33 0
128 125 130 132 126 124 106 102 18 92 40 0
128 125 130 132 126 124 77 73 9 68 34 0
128 125 130 132 126 124 117 110 25 97 45 0
128 125 130 132 126 124 120 115 29 101 49 0
128 125 130 132 126 124 88 84 11 80 37 0
128 125 130 132 126 124 63 58 5 54 32 0
128 125 130 132 126 106 102 18 92 40 57 0
128 125 130 132 126 77 73 9 68 34 51 0
128 125 130 132 126 117 110 25 97 45 60 0
128 125 130 132 126 120 115 29 101 49 65 0
128 125 130 132 126 88 84 11 80 37 52 0
128 125 130 132 124 106 102 18 92 40 82 0
128 125 130 132 124 77 73 9 68 34 66 0
128 125 130 132 124 117 110 25 97 45 86 0
128 125 130 132 124 120 115 29 101 49 90 0
128 125 130 132 124 63 58 5 54 32 53 0
128 125 130 132 106 102 18 92 40 82 57 0
128 125 130 132 77 73 9 68 34 66 51 0
128 125 130 132 117 110 25 97 45 86 60 0
128 125 130 132 120 115 29 101 49 90 65 0
128 125 130 122 127 123 126 124 106 102 109 0
128 125 130 122 127 123 126 124 77 73 78 0
128 125 130 122 127 123 126 124 117 110 118 0
128 125 130 122 127 123 126 124 28 21 31 0
128 125 130 122 127 123 126 124 98 94 100 0
128 125 130 122 127 123 126 124 46 42 48 0
128 125 130 122 127 123 126 124 88 84 91 0
128 125 130 122 127 123 126 124 63 58 64 0
128 125 130 122 127 123 126 106 102 109 57 0
128 125 130 122 127 123 126 77 73 78 51 0
128 125 130 122 127 123 126 117 110 118 60 0
128 125 130 122 127 123 126 28 21 31 6 0
128 125 130 122 127 123 126 98 94 100 55 0
128 125 130 122 127 123 126 46 42 48 33 0
128 125 130 122 127 123 126 88 84 91 52 0
128 125 130 122 127 123 124 106 102 109 82 0
128 125 130 122 127 123 124 77 73 78 66 0
128 125 130 122 127 123 124 117 110 118 86 0
128 125 130 122 127 123 124 28 21 31 13 0
128 125 130 122 127 123 124 98 94 100 81 0
128 125 130 122 127 123 124 46 42 48 36 0
128 125 130 122 127 123 124 63 58 64 53 0
128 125 130 122 127 123 106 102 109 82 57 0
128 125 130 122 127 123 77 73 78 66 51 0
128 125 130 122 127 123 117 110 118 86 60 0
128 125 130 122 127 123 28 21 31 13 6 0
128 125 130 122 127 123 98 94 100 81 55 0
128 125 130 122 127 123 46 42 48 36 33 0
128 125 130 122 127 126 124 106 102 109 40 0
128 125 130 122 127 126 124 77 73 78 34 0
128 125 130 122 127 126 124 117 110 118 45 0
128 125 130 122 127 126 124 28 21 31 3 0
128 125 130 122 127 126 124 98 94 100 38 0
128 125 130 122 127 126 124 88 84 91 37 0
128 125 130 122 127 126 124 63 58 64 32 0
128 125 130 122 127 126 106 102 109 40 57 0
128 125 130 122 127 126 77 73 78 34 51 0
128 125 130 122 127 126 117 110 118 45 60 0
128 125 130 122 127 126 28 21 31 3 6 0
128 125 130 122 127 126 98 94 100 38 55 0
128 125 130 122 127 126 88 84 91 37 52 0
128 125 130 122 127 124 106 102 109 40 82 0
128 125 130 122 127 124 77 73 78 34 66 0
128 125 130 122 127 124 117 110 118 45 86 0
128 125 130 122 127 124 28 21 31 3 13 0
128 125 130 122 127 124 98 94 100 38 81 0
128 125 130 122 127 124 63 58 64 32 53 0
128 125 130 122 127 106 102 109 40 82 57 0
128 125 130 122 127 77 73 78 34 66 51 0
128 125 130 122 127 117 110 118 45 86 60 0
128 125 130 122 127 28 21 31 3 13 6 0
128 125 130 122 127 98 94 100 38 81 55 0
128 125 130 122 123 126 124 106 102 109 92 0
128 125 130 122 123 126 124 77 73 78 68 0
128 125 130 122 123 126 124 117 110 118 97 0
128 125 130 122 123 126 124 28 21 31 14 0
128 125 130 122 123 126 124 46 42 48 39 0
128 125 130 122 123 126 124 88 84 91 80 0
128 125 130 122 123 126 124 63 58 64 54 0
128 125 130 122 123 126 106 102 109 92 57 0
128 125 130 122 123 126 77 73 78 68 51 0
128 125 130 122 123 126 117 110 118 97 60 0
128 125 130 122 123 126 28 21 31 14 6 0
128 125 130 122 123 126 46 42 48 39 33 0
128 125 130 122 123 126 88 84 91 80 52 0
128 125 130 122 123 124 106 102 109 92 82 0
128 125 130 122 123 124 77 73 78 68 66 0
128 125 130 122 123 124 117 110 118 97 86 0
128 125 130 122 123 124 28 21 31 14 13 0
128 125 130 122 123 124 46 42 48 39 36 0
128 125 130 122 123 124 63 58 64 54 53 0
128 125 130 122 123 106 102 109 92 82 57 0
128 125 130 122 123 77 73 78 68 66 51 0
128 125 130 122 123 117 110 118 97 86 60 0
128 125 130 122 123 28 21 31 14 13 6 0
128 125 130 122 123 46 42 48 39 36 33 0
128 125 130 122 126 124 106 102 109 92 40 0
128 125 130 122 126 124 77 73 78 68 34 0
128 125 130 122 126 124 117 110 118 97 45 0
128 125 130 122 126 124 28 21 31 14 3 0
128 125 130 122 126 124 88 84 91 80 37 0
128 125 130 122 126 124 63 58 64 54 32 0
128 125 130 122 126 106 102 109 92 40 57 0
128 125 130 122 126 77 73 78 68 34 51 0
128 125 130 122 126 117 110 118 97 45 60 0
128 125 130 122 126 28 21 31 14 3 6 0
128 125 130 122 126 88 84 91 80 37 52 0
128 125 130 122 124 106 102 109 92 40 82 0
128 125 130 122 124 77 73 78 68 34 66 0
128 125 130 122 124 117 110 118 97 45 86 0
128 125 130 122 124 28 21 31 14 3 13 0
128 125 130 122 124 63 58 64 54 32 53 0
128 125 130 122 106 102 109 92 40 82 57 0
128 125 130 122 77 73 78 68 34 66 51 0
128 125 130 122 117 110 118 97 45 86 60 0
128 125 130 122 28 21 31 14 3 13 6 0
128 125 130 127 123 126 124 106 102 109 18 0
128 125 130 127 123 126 124 77 73 78 9 0
128 125 130 127 123 126 124 117 110 118 25 0
128 125 130 127 123 126 124 98 94 100 16 0
128 125 130 127 123 126 124 46 42 48 2 0
128 125 130 127 123 126 124 88 84 91 11 0
128 125 130 127 123 126 124 63 58 64 5 0
128 125 130 127 123 126 106 102 109 18 57 0
128 125 130 127 123 126 77 73 78 9 51 0
128 125 130 127 123 126 117 110 118 25 60 0
128 125 130 127 123 126 98 94 100 16 55 0
128 125 130 127 123 126 46 42 48 2 33 0
128 125 130 127 123 126 88 84 91 11 52 0
128 125 130 127 123 124 106 102 109 18 82 0
128 125 130 127 123 124 77 73 78 9 66 0
128 125 130 127 123 124 117 110 118 25 86 0
128 125 130 127 123 124 98 94 100 16 81 0
128 125 130 127 123 124 46 42 48 2 36 0
128 125 130 127 123 124 63 58 64 5 53 0
128 125 130 127 123 106 102 109 18 82 57 0
128 125 130 127 123 77 73 78 9 66 51 0
128 125 130 127 123 117 110 118 25 86 60 0
128 125 130 127 123 98 94 100 16 81 55 0
128 125 130 127 123 46 42 48 2 36 33 0
128 125 130 127 126 124 106 102 109 18 40 0
128 125 130 127 126 124 77 73 78 9 34 0
128 125 130 127 126 124 117 110 118 25 45 0
128 125 130 127 126 124 98 94 100 16 38 0
128 125 130 127 126 124 88 84 91 11 37 0
128 125 130 127 126 124 63 58 64 5 32 0
128 125 130 127 126 106 102 109 18 40 57 0
128 125 130 127 126 77 73 78 9 34 51 0
128 125 130 127 126 117 110 118 25 45 60 0
128 125 130 127 126 98 94 100 16 38 55 0
128 125 130 127 126 88 84 91 11 37 52 0
128 125 130 127 124 106 102 109 18 40 82 0
128 125 130 127 124 77 73 78 9 34 66 0
128 125 130 127 124 117 110 118 25 45 86 0
128 125 130 127 124 98 94 100 16 38 81 0
128 125 130 127 124 63 58 64 5 32 53 0
128 125 130 127 106 102 109 18 40 82 57 0
128 125 130 127 77 73 78 9 34 66 51 0
128 125 130 127 117 110 118 25 45 86 60 0
128 125 130 127 98 94 100 16 38 81 55 0
128 125 130 123 126 124 106 102 109 18 92 0
128 125 130 123 126 124 77 73 78 9 68 0
128 125 130 123 126 124 117 110 118 25 97 0
128 125 130 123 126 124 46 42 48 2 39 0
128 125 130 123 126 124 88 84 91 11 80 0
128 125 130 123 126 124 63 58 64 5 54 0
128 125 130 123 126 106 102 109 18 92 57 0
128 125 130 123 126 77 73 78 9 68 51 0
128 125 130 123 126 117 110 118 25 97 60 0
128 125 130 123 126 46 42 48 2 39 33 0
128 125 130 123 126 88 84 91 11 80 52 0
128 125 130 123 124 106 102 109 18 92 82 0
128 125 130 123 124 77 73 78 9 68 66 0
128 125 130 123 124 117 110 118 25 97 86 0
128 125 130 123 124 46 42 48 2 39 36 0
128 125 130 123 124 63 58 64 5 54 53 0
128 125 130 123 106 102 109 18 92 82 57 0
128 125 130 123 77 73 78 9 68 66 51 0
128 125 130 123 117 110 118 25 97 86 60 0
128 125 130 123 46 42 48 2 39 36 33 0
128 125 130 126 124 106 102 109 18 92 40 0
128 125 130 126 124 77 73 78 9 68 34 0
128 125 130 126 124 117 110 118 25 97 45 0
128 125 130 126 124 88 84 91 11 80 37 0
128 125 130 126 124 63 58 64 5 54 32 0
128 125 130 126 106 102 109 18 92 40 57 0
128 125 130 126 77 73 78 9 68 34 51 0
128 125 130 126 117 110 118 25 97 45 60 0
128 125 130 126 88 84 91 11 80 37 52 0
128 125 130 124 106 102 109 18 92 40 82 0
128 125 130 124 77 73 78 9 68 34 66 0
128 125 130 124 117 110 118 25 97 45 86 0
128 125 130 124 63 58 64 5 54 32 53 0
128 125 130 106 102 109 18 92 40 82 57 0
128 125 130 77 73 78 9 68 34 66 51 0
128 125 130 117 110 118 25 97 45 86 60 0
128 125 132 122 127 123 126 124 106 102 105 0
128 125 132 122 127 123 126 124 77 73 75 0
128 125 132 122 127 123 126 124 120 115 119 0
128 125 132 122 127 123 126 124 28 21 23 0
128 125 132 122 127 123 126 124 98 94 96 0
128 125 132 122 127 123 126 124 46 42 44 0
128 125 132 122 127 123 126 124 88 84 87 0
128 125 132 122 127 123 126 124 63 58 61 0
128 125 132 122 127 123 126 106 102 105 57 0
128 125 132 122 127 123 126 77 73 75 51 0
128 125 132 122 127 123 126 120 115 119 65 0
128 125 132 122 127 123 126 28 21 23 6 0
128 125 132 122 127 123 126 98 94 96 55 0
128 125 132 122 127 123 126 46 42 44 33 0
128 125 132 122 127 123 126 88 84 87 52 0
128 125 132 122 127 123 124 106 102 105 82 0
128 125 132 122 127 123 124 77 73 75 66 0
128 125 132 122 127 123 124 120 115 119 90 0
128 125 132 122 127 123 124 28 21 23 13 0
128 125 132 122 127 123 124 98 94 96 81 0
128 125 132 122 127 123 124 46 42 44 36 0
128 125 132 122 127 123 124 63 58 61 53 0
128 125 132 122 127 123 106 102 105 82 57 0
128 125 132 122 127 123 77 73 75 66 51 0
128 125 132 122 127 123 120 115 119 90 65 0
128 125 132 122 127 123 28 21 23 13 6 0
128 125 132 122 127 123 98 94 96 81 55 0
128 125 132 122 127 123 46 42 44 36 33 0
128 125 132 122 127 126 124 106 102 105 40 0
128 125 132 122 127 126 124 77 73 75 34 0
128 125 132 122 127 126 124 120 115 119 49 0
128 125 132 122 127 126 124 28 21 23 3 0
128 125 132 122 127 126 124 98 94 96 38 0
128 125 132 122 127 126 124 88 84 87 37 0
128 125 132 122 127 126 124 63 58 61 32 0
128 125 132 122 127 126 106 102 105 40 57 0
128 125 132 122 127 126 77 73 75 34 51 0
128 125 132 122 127 126 120 115 119 49 65 0
128 125 132 122 127 126 28 21 23 3 6 0
128 125 132 122 127 126 98 94 96 38 55 0
128 125 132 122 127 126 88 84 87 37 52 0
128 125 132 122 127 124 106 102 105 40 82 0
128 125 132 122 127 124 77 73 75 34 66 0
128 125 132 122 127 124 120 115 119 49 90 0
128 125 132 122 127 124 28 21 23 3 13 0
128 125 132 122 127 124 98 94 96 38 81 0
128 125 132 122 127 124 63 58 61 32 53 0
128 125 132 122 127 106 102 105 40 82 57 0
128 125 132 122 127 77 73 75 34 66 51 0
128 125 132 122 127 120 115 119 49 90 65 0
128 125 132 122 127 28 21 23 3 13 6 0
128 125 132 122 127 98 94 96 38 81 55 0
128 125 132 122 123 126 124 106 102 105 92 0
128 125 132 122 123 126 124 77 73 75 68 0
128 125 132 122 123 126 124 120 115 119 101 0
128 125 132 122 123 126 124 28 21 23 14 0
128 125 132 122 123 126 124 46 42 44 39 0
128 125 132 122 123 126 124 88 84 87 80 0
128 125 132 122 123 126 124 63 58 61 54 0
128 125 132 122 123 126 106 102 105 92 57 0
128 125 132 122 123 126 77 73 75 68 51 0
128 125 132 122 123 126 120 115 119 101 65 0
128 125 132 122 123 126 28 21 23 14 6 0
128 125 132 122 123 126 46 42 44 39 33 0
128 125 132 122 123 126 88 84 87 80 52 0
128 125 132 122 123 124 106 102 105 92 82 0
128 125 132 122 123 124 77 73 75 68 66 0
128 125 132 122 123 124 120 115 119 101 90 0
128 125 132 122 123 124 28 21 23 14 13 0
128 125 132 122 123 124 46 42 44 39 36 0
128 125 132 122 123 124 63 58 61 54 53 0
128 125 132 122 123 106 102 105 92 82 57 0
128 125 132 122 123 77 73 75 68 66 51 0
128 125 132 122 123 120 115 119 101 90 65 0
128 125 132 122 123 28 21 23 14 13 6 0
128 125 132 122 123 46 42 44 39 36 33 0
128 125 132 122 126 124 106 102 105 92 40 0
128 125 132 122 126 124 77 73 75 68 34 0
128 125 132 122 126 124 120 115 119 101 49 0
128 125 132 122 126 124 28 21 23 14 3 0
128 125 132 122 126 124 88 84 87 80 37 0
128 125 132 122 126 124 63 58 61 54 32 0
128 125 132 122 126 106 102 105 92 40 57 0
128 125 132 122 126 77 73 75 68 34 51 0
128 125 132 122 126 120 115 119 101 49 65 0
128 125 132 122 126 28 21 23 14 3 6 0
128 125 132 122 126 88 84 87 80 37 52 0
128 125 132 122 124 106 102 105 92 40 82 0
128 125 132 122 124 77 73 75 68 34 66 0
128 125 132 122 124 120 115 119 101 49 90 0
128 125 132 122 124 28 21 23 14 3 13 0
128 125 132 122 124 63 58 61 54 32 53 0
128 125 132 122 106 102 105 92 40 82 57 0
128 125 132 122 77 73 75 68 34 66 51 0
128 125 132 122 120 115 119 101 49 90 65 0
128 125 132 122 28 21 23 14 3 13 6 0
128 125 132 127 123 126 124 106 102 105 18 0
128 125 132 127 123 126 124 77 73 75 9 0
128 125 132 127 123 126 124 120 115 119 29 0
128 125 132 127 123 126 124 98 94 96 16 0
128 125 132 127 123 126 124 46 42 44 2 0
128 125 132 127 123 126 124 88 84 87 11 0
128 125 132 127 123 126 124 63 58 61 5 0
128 125 132 127 123 126 106 102 105 18 57 0
128 125 132 127 123 126 77 73 75 9 51 0
128 125 132 127 123 126 120 115 119 29 65 0
128 125 132 127 123 126 98 94 96 16 55 0
128 125 132 127 123 126 46 42 44 2 33 0
128 125 132 127 123 126 88 84 87 11 52 0
128 125 132 127 123 124 106 102 105 18 82 0
128 125 132 127 123 124 77 73 75 9 66 0
128 125 132 127 123 124 120 115 119 29 90 0
128 125 132 127 123 124 98 94 96 16 81 0
128 125 132 127 123 124 46 42 44 2 36 0
128 125 132 127 123 124 63 58 61 5 53 0
128 125 132 127 123 106 102 105 18 82 57 0
128 125 132 127 123 77 73 75 9 66 51 0
128 125 132 127 123 120 115 119 29 90 65 0
128 125 132 127 123 98 94 96 16 81 55 0
128 125 132 127 123 46 42 44 2 36 33 0
128 125 132 127 126 124 106 102 105 18 40 0
128 125 132 127 126 124 77 73 75 9 34 0
128 125 132 127 126 124 120 115 119 29 49 0
128 125 132 127 126 124 98 94 96 16 38 0
128 125 132 127 126 124 88 84 87 11 37 0
128 125 132 127 126 124 63 58 61 5 32 0
128 125 132 127 126 106 102 105 18 40 57 0
128 125 132 127 126 77 73 75 9 34 51 0
128 125 132 127 126 120 115 119 29 49 65 0
128 125 132 127 126 98 94 96 16 38 55 0
128 125 132 127 126 88 84 87 11 37 52 0
128 125 132 127 124 106 102 105 18 40 82 0
128 125 132 127 124 77 73 75 9 34 66 0
128 125 132 127 124 120 115 119 29 49 90 0
128 125 132 127 124 98 94 96 16 38 81 0
128 125 132 127 124 63 58 61 5 32 53 0
128 125 132 127 106 102 105 18 40 82 57 0
128 125 132 127 77 73 75 9 34 66 51 0
128 125 132 127 120 115 119 29 49 90 65 0
128 125 132 127 98 94 96 16 38 81 55 0
128 125 132 123 126 124 106 102 105 18 92 0
128 125 132 123 126 124 77 73 75 9 68 0
128 125 132 123 126 124 120 115 119 29 101 0
128 125 132 123 126 124 46 42 44 2 39 0
128 125 132 123 126 124 88 84 87 11 80 0
128 125 132 123 126 124 63 58 61 5 54 0
128 125 132 123 126 106 102 105 18 92 57 0
128 125 132 123 126 77 73 75 9 68 51 0
128 125 132 123 126 120 115 119 29 101 65 0
128 125 132 123 126 46 42 44 2 39 33 0
128 125 132 123 126 88 84 87 11 80 52 0
128 125 132 123 124 106 102 105 18 92 82 0
128 125 132 123 124 77 73 75 9 68 66 0
128 125 132 123 124 120 115 119 29 101 90 0
128 125 132 123 124 46 42 44 2 39 36 0
128 125 132 123 124 63 58 61 5 54 53 0
128 125 132 123 106 102 105 18 92 82 57 0
128 125 132 123 77 73 75 9 68 66 51 0
128 125 132 123 120 115 119 29 101 90 65 0
128 125 132 123 46 42 44 2 39 36 33 0
128 125 132 126 124 106 102 105 18 92 40 0
128 125 132 126 124 77 73 75 9 68 34 0
128 125 132 126 124 120 115 119 29 101 49 0
128 125 132 126 124 88 84 87 11 80 37 0
128 125 132 126 124 63 58 61 5 54 32 0
128 125 132 126 106 102 105 18 92 40 57 0
128 125 132 126 77 73 75 9 68 34 51 0
128 125 132 126 120 115 119 29 101 49 65 0
128 125 132 126 88 84 87 11 80 37 52 0
128 125 132 124 106 102 105 18 92 40 82 0
128 125 132 124 77 73 75 9 68 34 66 0
128 125 132 124 120 115 119 29 101 49 90 0
128 125 132 124 63 58 61 5 54 32 53 0
128 125 132 106 102 105 18 92 40 82 57 0
128 125 132 77 73 75 9 68 34 66 51 0
128 125 132 120 115 119 29 101 49 90 65 0
128 125 122 127 123 126 124 106 102 105 109 0
128 125 122 127 123 126 124 77 73 75 78 0
128 125 122 127 123 126 124 28 21 23 31 0
128 125 122 127 123 126 124 98 94 96 100 0
128 125 122 127 123 126 124 46 42 44 48 0
128 125 122 127 123 126 124 88 84 87 91 0
128 125 122 127 123 126 124 63 58 61 64 0
128 125 122 127 123 126 106 102 105 109 57 0
128 125 122 127 123 126 77 73 75 78 51 0
128 125 122 127 123 126 28 21 23 31 6 0
128 125 122 127 123 126 98 94 96 100 55 0
128 125 122 127 123 126 46 42 44 48 33 0
128 125 122 127 123 126 88 84 87 91 52 0
128 125 122 127 123 124 106 102 105 109 82 0
128 125 122 127 123 124 77 73 75 78 66 0
128 125 122 127 123 124 28 21 23 31 13 0
128 125 122 127 123 124 98 94 96 100 81 0
128 125 122 127 123 124 46 42 44 48 36 0
128 125 122 127 123 124 63 58 61 64 53 0
128 125 122 127 123 106 102 105 109 82 57 0
128 125 122 127 123 77 73 75 78 66 51 0
128 125 122 127 123 28 21 23 31 13 6 0
128 125 122 127 123 98 94 96 100 81 55 0
128 125 122 127 123 46 42 44 48 36 33 0
128 125 122 127 126 124 106 102 105 109 40 0
128 125 122 127 126 124 77 73 75 78 34 0
128 125 122 127 126 124 28 21 23 31 3 0
128 125 122 127 126 124 98 94 96 100 38 0
128 125 122 127 126 124 88 84 87 91 37 0
128 125 122 127 126 124 63 58 61 64 32 0
128 125 122 127 126 106 102 105 109 40 57 0
128 125 122 127 126 77 73 75 78 34 51 0
128 125 122 127 126 28 21 23 31 3 6 0
128 125 122 127 126 98 94 96 100 38 55 0
128 125 122 127 126 88 84 87 91 37 52 0
128 125 122 127 124 106 102 105 109 40 82 0
128 125 122 127 124 77 73 75 78 34 66 0
128 125 122 127 124 28 21 23 31 3 13 0
128 125 122 127 124 98 94 96 100 38 81 0
128 125 122 127 124 63 58 61 64 32 53 0
128 125 122 127 106 102 105 109 40 82 57 0
128 125 122 127 77 73 75 78 34 66 51 0
128 125 122 127 28 21 23 31 3 13 6 0
128 125 122 127 98 94 96 100 38 81 55 0
128 125 122 123 126 124 106 102 105 109 92 0
128 125 122 123 126 124 77 73 75 78 68 0
128 125 122 123 126 124 28 21 23 31 14 0
128 125 122 123 126 124 46 42 44 48 39 0
128 125 122 123 126 124 88 84 87 91 80 0
128 125 122 123 126 124 63 58 61 64 54 0
128 125 122 123 126 106 102 105 109 92 57 0
128 125 122 123 126 77 73 75 78 68 51 0
128 125 122 123 126 28 21 23 31 14 6 0
128 125 122 123 126 46 42 44 48 39 33 0
128 125 122 123 126 88 84 87 91 80 52 0
128 125 122 123 124 106 102 105 109 92 82 0
128 125 122 123 124 77 73 75 78 68 66 0
128 125 122 123 124 28 21 23 31 14 13 0
128 125 122 123 124 46 42 44 48 39 36 0
128 125 122 123 124 63 58 61 64 54 53 0
128 125 122 123 106 102 105 109 92 82 57 0
128 125 122 123 77 73 75 78 68 66 51 0
128 125 122 123 28 21 23 31 14 13 6 0
128 125 122 123 46 42 44 48 39 36 33 0
128 125 122 126 124 106 102 105 109 92 40 0
128 125 122 126 124 77 73 75 78 68 34 0
128 125 122 126 124 28 21 23 31 14 3 0
128 125 122 126 124 88 84 87 91 80 37 0
128 125 122 126 124 63 58 61 64 54 32 0
128 125 122 126 106 102 105 109 92 40 57 0
128 125 122 126 77 73 75 78 68 34 51 0
128 125 122 126 28 21 23 31 14 3 6 0
128 125 122 126 88 84 87 91 80 37 52 0
128 125 122 124 106 102 105 109 92 40 82 0
128 125 122 124 77 73 75 78 68 34 66 0
128 125 122 124 28 21 23 31 14 3 13 0
128 125 122 124 63 58 61 64 54 32 53 0
128 125 122 106 102 105 109 92 40 82 57 0
128 125 122 77 73 75 78 68 34 66 51 0
128 125 122 28 21 23 31 14 3 13 6 0
128 125 127 123 126 124 106 102 105 109 18 0
128 125 127 123 126 124 77 73 75 78 9 0
128 125 127 123 126 124 98 94 96 100 16 0
128 125 127 123 126 124 46 42 44 48 2 0
128 125 127 123 126 124 88 84 87 91 11 0
128 125 127 123 126 124 63 58 61 64 5 0
128 125 127 123 126 106 102 105 109 18 57 0
128 125 127 123 126 77 73 75 78 9 51 0
128 125 127 123 126 98 94 96 100 16 55 0
128 125 127 123 126 46 42 44 48 2 33 0
128 125 127 123 126 88 84 87 91 11 52 0
128 125 127 123 124 106 102 105 109 18 82 0
128 125 127 123 124 77 73 75 78 9 66 0
128 125 127 123 124 98 94 96 100 16 81 0
128 125 127 123 124 46 42 44 48 2 36 0
128 125 127 123 124 63 58 61 64 5 53 0
128 125 127 123 106 102 105 109 18 82 57 0
128 125 127 123 77 73 75 78 9 66 51 0
128 125 127 123 98 94 96 100 16 81 55 0
128 125 127 123 46 42 44 48 2 36 33 0
128 125 127 126 124 106 102 105 109 18 40 0
128 125 127 126 124 77 73 75 78 9 34 0
128 125 127 126 124 98 94 96 100 16 38 0
128 125 127 126 124 88 84 87 91 11 37 0
128 125 127 126 124 63 58 61 64 5 32 0
128 125 127 126 106 102 105 109 18 40 57 0
128 125 127 126 77 73 75 78 9 34 51 0
128 125 127 126 98 94 96 100 16 38 55 0
128 125 127 126 88 84 87 91 11 37 52 0
128 125 127 124 106 102 105 109 18 40 82 0
128 125 127 124 77 73 75 78 9 34 66 0
128 125 127 124 98 94 96 100 16 38 81 0
128 125 127 124 63 58 61 64 5 32 53 0
128 125 127 106 102 105 109 18 40 82 57 0
128 125 127 77 73 75 78 9 34 66 51 0
128 125 127 98 94 96 100 16 38 81 55 0
128 125 123 126 124 106 102 105 109 18 92 0
128 125 123 126 124 77 73 75 78 9 68 0
128 125 123 126 124 46 42 44 48 2 39 0
128 125 123 126 124 88 84 87 91 11 80 0
128 125 123 126 124 63 58 61 64 5 54 0
128 125 123 126 106 102 105 109 18 92 57 0
128 125 123 126 77 73 75 78 9 68 51 0
128 125 123 126 46 42 44 48 2 39 33 0
128 125 123 126 88 84 87 91 11 80 52 0
128 125 123 124 106 102 105 109 18 92 82 0
128 125 123 124 77 73 75 78 9 68 66 0
128 125 123 124 46 42 44 48 2 39 36 0
128 125 123 124 63 58 61 64 5 54 53 0
128 125 123 106 102 105 109 18 92 82 57 0
128 125 123 77 73 75 78 9 68 66 51 0
128 125 123 46 42 44 48 2 39 36 33 0
128 125 126 124 106 102 105 109 18 92 40 0
128 125 126 124 77 73 75 78 9 68 34 0
128 125 126 124 88 84 87 91 11 80 37 0
128 125 126 124 63 58 61 64 5 54 32 0
128 125 126 106 102 105 109 18 92 40 57 0
128 125 126 77 73 75 78 9 68 34 51 0
128 125 126 88 84 87 91 11 80 37 52 0
128 125 124 106 102 105 109 18 92 40 82 0
128 125 124 77 73 75 78 9 68 34 66 0
128 125 124 63 58 61 64 5 54 32 53 0
128 125 106 102 105 109 18 92 40 82 57 0
128 125 77 73 75 78 9 68 34 66 51 0
128 130 132 122 127 123 126 124 106 102 70 0
128 130 132 122 127 123 126 124 117 110 74 0
128 130 132 122 127 123 126 124 120 115 79 0
128 130 132 122 127 123 126 124 28 21 8 0
128 130 132 122 127 123 126 124 98 94 69 0
128 130 132 122 127 123 126 124 46 42 35 0
128 130 132 122 127 123 126 124 88 84 67 0
128 130 132 122 127 123 126 124 63 58 50 0
128 130 132 122 127 123 126 106 102 70 57 0
128 130 132 122 127 123 126 117 110 74 60 0
128 130 132 122 127 123 126 120 115 79 65 0
128 130 132 122 127 123 126 28 21 8 6 0
128 130 132 122 127 123 126 98 94 69 55 0
128 130 132 122 127 123 126 46 42 35 33 0
128 130 132 122 127 123 126 88 84 67 52 0
128 130 132 122 127 123 124 106 102 70 82 0
128 130 132 122 127 123 124 117 110 74 86 0
128 130 132 122 127 123 124 120 115 79 90 0
128 130 132 122 127 123 124 28 21 8 13 0
128 130 132 122 127 123 124 98 94 69 81 0
128 130 132 122 127 123 124 46 42 35 36 0
128 130 132 122 127 123 124 63 58 50 53 0
128 130 132 122 127 123 106 102 70 82 57 0
128 130 132 122 127 123 117 110 74 86 60 0
128 130 132 122 127 123 120 115 79 90 65 0
128 130 132 122 127 123 28 21 8 13 6 0
128 130 132 122 127 123 98 94 69 81 55 0
128 130 132 122 127 123 46 42 35 36 33 0
128 130 132 122 127 126 124 106 102 70 40 0
128 130 132 122 127 126 124 117 110 74 45 0
128 130 132 122 127 126 124 120 115 79 49 0
128 130 132 122 127 126 124 28 21 8 3 0
128 130 132 122 127 126 124 98 94 69 38 0
128 130 132 122 127 126 124 88 84 67 37 0
128 130 132 122 127 126 124 63 58 50 32 0
128 130 132 122 127 126 106 102 70 40 57 0
128 130 132 122 127 126 117 110 74 45 60 0
128 130 132 122 127 126 120 115 79 49 65 0
128 130 132 122 127 126 28 21 8 3 6 0
128 130 132 122 127 126 98 94 69 38 55 0
128 130 132 122 127 126 88 84 67 37 52 0
128 130 132 122 127 124 106 102 70 40 82 0
128 130 132 122 127 124 117 110 74 45 86 0
128 130 132 122 127 124 120 115 79 49 90 0
128 130 132 122 127 124 28 21 8 3 13 0
128 130 132 122 127 124 98 94 69 38 81 0
128 130 132 122 127 124 63 58 50 32 53 0
128 130 132 122 127 106 102 70 40 82 57 0
128 130 132 122 127 117 110 74 45 86 60 0
128 130 132 122 127 120 115 79 49 90 65 0
128 130 132 122 127 28 21 8 3 13 6 0
128 130 132 122 127 98 94 69 38 81 55 0
128 130 132 122 123 126 124 106 102 70 92 0
128 130 132 122 123 126 124 117 110 74 97 0
128 130 132 122 123 126 124 120 115 79 101 0
128 130 132 122 123 126 124 28 21 8 14 0
128 130 132 122 123 126 124 46 42 35 39 0
128 130 132 122 123 126 124 88 84 67 80 0
128 130 132 122 123 126 124 63 58 50 54 0
128 130 132 122 123 126 106 102 70 92 57 0
128 130 132 122 123 126 117 110 74 97 60 0
128 130 132 122 123 126 120 115 79 101 65 0
128 130 132 122 123 126 28 21 8 14 6 0
128 130 132 122 123 126 46 42 35 39 33 0
128 130 132 122 123 126 88 84 67 80 52 0
128 130 132 122 123 124 106 102 70 92 82 0
128 130 132 122 123 124 117 110 74 97 86 0
128 130 132 122 123 124 120 115 79 101 90 0
128 130 132 122 123 124 28 21 8 14 13 0
128 130 132 122 123 124 46 42 35 39 36 0
128 130 132 122 123 124 63 58 50 54 53 0
128 130 132 122 123 106 102 70 92 82 57 0
128 130 132 122 123 117 110 74 97 86 60 0
128 130 132 122 123 120 115 79 101 90 65 0
128 130 132 122 123 28 21 8 14 13 6 0
128 130 132 122 123 46 42 35 39 36 33 0
128 130 132 122 126 124 106 102 70 92 40 0
128 130 132 122 126 124 117 110 74 97 45 0
128 130 132 122 126 124 120 115 79 101 49 0
128 130 132 122 126 124 28 21 8 14 3 0
128 130 132 122 126 124 88 84 67 80 37 0
128 130 132 122 126 124 63 58 50 54 32 0
128 130 132 122 126 106 102 70 92 40 57 0
128 130 132 122 126 117 110 74 97 45 60 0
128 130 132 122 126 120 115 79 101 49 65 0
128 130 132 122 126 28 21 8 14 3 6 0
128 130 132 122 126 88 84 67 80 37 52 0
128 130 132 122 124 106 102 70 92 40 82 0
128 130 132 122 124 117 110 74 97 45 86 0
128 130 132 122 124 120 115 79 101 49 90 0
128 130 132 122 124 28 21 8 14 3 13 0
128 130 132 122 124 63 58 50 54 32 53 0
128 130 132 122 106 102 70 92 40 82 57 0
128 130 132 122 117 110 74 97 45 86 60 0
128 130 132 122 120 115 79 101 49 90 65 0
128 130 132 122 28 21 8 14 3 13 6 0
128 130 132 127 123 126 124 106 102 70 18 0
128 130 132 127 123 126 124 117 110 74 25 0
128 130 132 127 123 126 124 120 115 79 29 0
128 130 132 127 123 126 124 98 94 69 16 0
128 130 132 127 123 126 124 46 42 35 2 0
128 130 132 127 123 126 124 88 84 67 11 0
128 130 132 127 123 126 124 63 58 50 5 0
128 130 132 127 123 126 106 102 70 18 57 0
128 130 132 127 123 126 117 110 74 25 60 0
128 130 132 127 123 126 120 115 79 29 65 0
128 130 132 127 123 126 98 94 69 16 55 0
128 130 132 127 123 126 46 42 35 2 33 0
128 130 132 127 123 126 88 84 67 11 52 0
128 130 132 127 123 124 106 102 70 18 82 0
128 130 132 127 123 124 117 110 74 25 86 0
128 130 132 127 123 124 120 115 79 29 90 0
128 130 132 127 123 124 98 94 69 16 81 0
128 130 132 127 123 124 46 42 35 2 36 0
128 130 132 127 123 124 63 58 50 5 53 0
128 130 132 127 123 106 102 70 18 82 57 0
128 130 132 127 123 117 110 74 25 86 60 0
128 130 132 127 123 120 115 79 29 90 65 0
128 130 132 127 123 98 94 69 16 81 55 0
128 130 132 127 123 46 42 35 2 36 33 0
128 130 132 127 126 124 106 102 70 18 40 0
128 130 132 127 126 124 117 110 74 25 45 0
128 130 132 127 126 124 120 115 79 29 49 0
128 130 132 127 126 124 98 94 69 16 38 0
128 130 132 127 126 124 88 84 67 11 37 0
128 130 132 127 126 124 63 58 50 5 32 0
128 130 132 127 126 106 102 70 18 40 57 0
128 130 132 127 126 117 110 74 25 45 60 0
128 130 132 127 126 120 115 79 29 49 65 0
128 130 132 127 126 98 94 69 16 38 55 0
128 130 132 127 126 88 84 67 11 37 52 0
128 130 132 127 124 106 102 70 18 40 82 0
128 130 132 127 124 117 110 74 25 45 86 0
128 130 132 127 124 120 115 79 29 49 90 0
128 130 132 127 124 98 94 69 16 38 81 0
128 130 132 127 124 63 58 50 5 32 53 0
128 130 132 127 106 102 70 18 40 82 57 0
128 130 132 127 117 110 74 25 45 86 60 0
128 130 132 127 120 115 79 29 49 90 65 0
128 130 132 127 98 94 69 16 38 81 55 0
128 130 132 123 126 124 106 102 70 18 92 0
128 130 132 123 126 124 117 110 74 25 97 0
128 130 132 123 126 124 120 115 79 29 101 0
128 130 132 123 126 124 46 42 35 2 39 0
128 130 132 123 126 124 88 84 67 11 80 0
128 130 132 123 126 124 63 58 50 5 54 0
128 130 132 123 126 106 102 70 18 92 57 0
128 130 132 123 126 117 110 74 25 97 60 0
128 130 132 123 126 120 115 79 29 101 65 0
128 130 132 123 126 46 42 35 2 39 33 0
128 130 132 123 126 88 84 67 11 80 52 0
128 130 132 123 124 106 102 70 18 92 82 0
128 130 132 123 124 117 110 74 25 97 86 0
128 130 132 123 124 120 115 79 29 101 90 0
128 130 132 123 124 46 42 35 2 39 36 0
128 130 132 123 124 63 58 50 5 54 53 0
128 130 132 123 106 102 70 18 92 82 57 0
128 130 132 123 117 110 74 25 97 86 60 0
128 130 132 123 120 115 79 29 101 90 65 0
128 130 132 123 46 42 35 2 39 36 33 0
128 130 132 126 124 106 102 70 18 92 40 0
128 130 132 126 124 117 110 74 25 97 45 0
128 130 132 126 124 120 115 79 29 101 49 0
128 130 132 126 124 88 84 67 11 80 37 0
128 130 132 126 124 63 58 50 5 54 32 0
128 130 132 126 106 102 70 18 92 40 57 0
128 130 132 126 117 110 74 25 97 45 60 0
128 130 132 126 120 115 79 29 101 49 65 0
128 130 132 126 88 84 67 11 80 37 52 0
128 130 132 124 106 102 70 18 92 40 82 0
128 130 132 124 117 110 74 25 97 45 86 0
128 130 132 124 120 115 79 29 101 49 90 0
128 130 132 124 63 58 50 5 54 32 53 0
128 130 132 106 102 70 18 92 40 82 57 0
128 130 132 117 110 74 25 97 45 86 60 0
128 130 132 120 115 79 29 101 49 90 65 0
128 130 122 127 123 126 124 106 102 70 109 0
128 130 122 127 123 126 124 117 110 74 118 0
128 130 122 127 123 126 124 28 21 8 31 0
128 130 122 127 123 126 124 98 94 69 100 0
128 130 122 127 123 126 124 46 42 35 48 0
128 130 122 127 123 126 124 88 84 67 91 0
128 130 122 127 123 126 124 63 58 50 64 0
128 130 122 127 123 126 106 102 70 109 57 0
128 130 122 127 123 126 117 110 74 118 60 0
128 130 122 127 123 126 28 21 8 31 6 0
128 130 122 127 123 126 98 94 69 100 55 0
128 130 122 127 123 126 46 42 35 48 33 0
128 130 122 127 123 126 88 84 67 91 52 0
128 130 122 127 123 124 106 102 70 109 82 0
128 130 122 127 123 124 117 110 74 118 86 0
128 130 122 127 123 124 28 21 8 31 13 0
128 130 122 127 123 124 98 94 69 100 81 0
128 130 122 127 123 124 46 42 35 48 36 0
128 130 122 127 123 124 63 58 50 64 53 0
128 130 122 127 123 106 102 70 109 82 57 0
128 130 122 127 123 117 110 74 118 86 60 0
128 130 122 127 123 28 21 8 31 13 6 0
128 130 122 127 123 98 94 69 100 81 55 0
128 130 122 127 123 46 42 35 48 36 33 0
128 130 122 127 126 124 106 102 70 109 40 0
128 130 122 127 126 124 117 110 74 118 45 0
128 130 122 127 126 124 28 21 8 31 3 0
128 130 122 127 126 124 98 94 69 100 38 0
128 130 122 127 126 124 88 84 67 91 37 0
128 130 122 127 126 124 63 58 50 64 32 0
128 130 122 127 126 106 102 70 109 40 57 0
128 130 122 127 126 117 110 74 118 45 60 0
128 130 122 127 126 28 21 8 31 3 6 0
128 130 122 127 126 98 94 69 100 38 55 0
128 130 122 127 126 88 84 67 91 37 52 0
128 130 122 127 124 106 102 70 109 40 82 0
128 130 122 127 124 117 110 74 118 45 86 0
128 130 122 127 124 28 21 8 31 3 13 0
128 130 122 127 124 98 94 69 100 38 81 0
128 130 122 127 124 63 58 50 64 32 53 0
128 130 122 127 106 102 70 109 40 82 57 0
128 130 122 127 117 110 74 118 45 86 60 0
128 130 122 127 28 21 8 31 3 13 6 0
128 130 122 127 98 94 69 100 38 81 55 0
128 130 122 123 126 124 106 102 70 109 92 0
128 130 122 123 126 124 117 110 74 118 97 0
128 130 122 123 126 124 28 21 8 31 14 0
128 130 122 123 126 124 46 42 35 48 39 0
128 130 122 123 126 124 88 84 67 91 80 0
128 130 122 123 126 124 63 58 50 64 54 0
128 130 122 123 126 106 102 70 109 92 57 0
128 130 122 123 126 117 110 74 118 97 60 0
128 130 122 123 126 28 21 8 31 14 6 0
128 130 122 123 126 46 42 35 48 39 33 0
128 130 122 123 126 88 84 67 91 80 52 0
128 130 122 123 124 106 102 70 109 92 82 0
128 130 122 123 124 117 110 74 118 97 86 0
128 130 122 123 124 28 21 8 31 14 13 0
128 130 122 123 124 46 42 35 48 39 36 0
128 130 122 123 124 63 58 50 64 54 53 0
128 130 122 123 106 102 70 109 92 82 57 0
128 130 122 123 117 110 74 118 97 86 60 0
128 130 122 123 28 21 8 31 14 13 6 0
128 130 122 123 46 42 35 48 39 36 33 0
128 130 122 126 124 106 102 70 109 92 40 0
128 130 122 126 124 117 110 74 118 97 45 0
128 130 122 126 124 28 21 8 31 14 3 0
128 130 122 126 124 88 84 67 91 80 37 0
128 130 122 126 124 63 58 50 64 54 32 0
128 130 122 126 106 102 70 109 92 40 57 0
128 130 122 126 117 110 74 118 97 45 60 0
128 130 122 126 28 21 8 31 14 3 6 0
128 130 122 126 88 84 67 91 80 37 52 0
128 130 122 124 106 102 70 109 92 40 82 0
128 130 122 124 117 110 74 118 97 45 86 0
128 130 122 124 28 21 8 31 14 3 13 0
128 130 122 124 63 58 50 64 54 32 53 0
128 130 122 106 102 70 109 92 40 82 57 0
128 130 122 117 110 74 118 97 45 86 60 0
128 130 122 28 21 8 31 14 3 13 6 0
128 130 127 123 126 124 106 102 70 109 18 0
128 130 127 123 126 124 117 110 74 118 25 0
128 130 127 123 126 124 98 94 69 100 16 0
128 130 127 123 126 124 46 42 35 48 2 0
128 130 127 123 126 124 88 84 67 91 11 0
128 130 127 123 126 124 63 58 50 64 5 0
128 130 127 123 126 106 102 70 109 18 57 0
128 130 127 123 126 117 110 74 118 25 60 0
128 130 127 123 126 98 94 69 100 16 55 0
128 130 127 123 126 46 42 35 48 2 33 0
128 130 127 123 126 88 84 67 91 11 52 0
128 130 127 123 124 106 102 70 109 18 82 0
128 130 127 123 124 117 110 74 118 25 86 0
128 130 127 123 124 98 94 69 100 16 81 0
128 130 127 123 124 46 42 35 48 2 36 0
128 130 127 123 124 63 58 50 64 5 53 0
128 130 127 123 106 102 70 109 18 82 57 0
128 130 127 123 117 110 74 118 25 86 60 0
128 130 127 123 98 94 69 100 16 81 55 0
128 130 127 123 46 42 35 48 2 36 33 0
128 130 127 126 124 106 102 70 109 18 40 0
128 130 127 126 124 117 110 74 118 25 45 0
128 130 127 126 124 98 94 69 100 16 38 0
128 130 127 126 124 88 84 67 91 11 37 0
128 130 127 126 124 63 58 50 64 5 32 0
128 130 127 126 106 102 70 109 18 40 57 0
128 130 127 126 117 110 74 118 25 45 60 0
128 130 127 126 98 94 69 100 16 38 55 0
128 130 127 126 88 84 67 91 11 37 52 0
128 130 127 124 106 102 70 109 18 40 82 0
128 130 127 124 117 110 74 118 25 45 86 0
128 130 127 124 98 94 69 100 16 38 81 0
128 130 127 124 63 58 50 64 5 32 53 0
128 130 127 106 102 70 109 18 40 82 57 0
128 130 127 117 110 74 118 25 45 86 60 0
128 130 127 98 94 69 100 16 38 81 55 0
128 130 123 126 124 106 102 70 109 18 92 0
128 130 123 126 124 117 110 74 118 25 97 0
128 130 123 126 124 46 42 35 48 2 39 0
128 130 123 126 124 88 84 67 91 11 80 0
128 130 123 126 124 63 58 50 64 5 54 0
128 130 123 126 106 102 70 109 18 92 57 0
128 130 123 126 117 110 74 118 25 97 60 0
128 130 123 126 46 42 35 48 2 39 33 0
128 130 123 126 88 84 67 91 11 80 52 0
128 130 123 124 106 102 70 109 18 92 82 0
128 130 123 124 117 110 74 118 25 97 86 0
128 130 123 124 46 42 35 48 2 39 36 0
128 130 123 124 63 58 50 64 5 54 53 0
128 130 123 106 102 70 109 18 92 82 57 0
128 130 123 117 110 74 118 25 97 86 60 0
128 130 123 46 42 35 48 2 39 36 33 0
128 130 126 124 106 102 70 109 18 92 40 0
128 130 126 124 117 110 74 118 25 97 45 0
128 130 126 124 88 84 67 91 11 80 37 0
128 130 126 124 63 58 50 64 5 54 32 0
128 130 126 106 102 70 109 18 92 40 57 0
128 130 126 117 110 74 118 25 97 45 60 0
128 130 126 88 84 67 91 11 80 37 52 0
128 130 124 106 102 70 109 18 92 40 82 0
128 130 124 117 110 74 118 25 97 45 86 0
128 130 124 63 58 50 64 5 54 32 53 0
128 130 106 102 70 109 18 92 40 82 57 0
128 130 117 110 74 118 25 97 45 86 60 0
128 132 122 127 123 126 124 106 102 70 105 0
128 132 122 127 123 126 124 120 115 79 119 0
128 132 122 127 123 126 124 28 21 8 23 0
128 132 122 127 123 126 124 98 94 69 96 0
128 132 122 127 123 126 124 46 42 35 44 0
128 132 122 127 123 126 124 88 84 67 87 0
128 132 122 127 123 126 124 63 58 50 61 0
128 132 122 127 123 126 106 102 70 105 57 0
128 132 122 127 123 126 120 115 79 119 65 0
128 132 122 127 123 126 28 21 8 23 6 0
128 132 122 127 123 126 98 94 69 96 55 0
128 132 122 127 123 126 46 42 35 44 33 0
128 132 122 127 123 126 88 84 67 87 52 0
128 132 122 127 123 124 106 102 70 105 82 0
128 132 122 127 123 124 120 115 79 119 90 0
128 132 122 127 123 124 28 21 8 23 13 0
128 132 122 127 123 124 98 94 69 96 81 0
128 132 122 127 123 124 46 42 35 44 36 0
128 132 122 127 123 124 63 58 50 61 53 0
128 132 122 127 123 106 102 70 105 82 57 0
128 132 122 127 123 120 115 79 119 90 65 0
128 132 122 127 123 28 21 8 23 13 6 0
128 132 122 127 123 98 94 69 96 81 55 0
128 132 122 127 123 46 42 35 44 36 33 0
128 132 122 127 126 124 106 102 70 105 40 0
128 132 122 127 126 124 120 115 79 119 49 0
128 132 122 127 126 124 28 21 8 23 3 0
128 132 122 127 126 124 98 94 69 96 38 0
128 132 122 127 126 124 88 84 67 87 37 0
128 132 122 127 126 124 63 58 50 61 32 0
128 132 122 127 126 106 102 70 105 40 57 0
128 132 122 127 126 120 115 79 119 49 65 0
128 132 122 127 126 28 21 8 23 3 6 0
128 132 122 127 126 98 94 69 96 38 55 0
128 132 122 127 126 88 84 67 87 37 52 0
128 132 122 127 124 106 102 70 105 40 82 0
128 132 122 127 124 120 115 79 119 49 90 0
128 132 122 127 124 28 21 8 23 3 13 0
128 132 122 127 124 98 94 69 96 38 81 0
128 132 122 127 124 63 58 50 61 32 53 0
128 132 122 127 106 102 70 105 40 82 57 0
128 132 122 127 120 115 79 119 49 90 65 0
128 132 122 127 28 21 8 23 3 13 6 0
128 132 122 127 98 94 69 96 38 81 55 0
128 132 122 123 126 124 106 102 70 105 92 0
128 132 122 123 126 124 120 115 79 119 101 0
128 132 122 123 126 124 28 21 8 23 14 0
128 132 122 123 126 124 46 42 35 44 39 0
128 132 122 123 126 124 88 84 67 87 80 0
128 132 122 123 126 124 63 58 50 61 54 0
128 132 122 123 126 106 102 70 105 92 57 0
128 132 122 123 126 120 115 79 119 101 65 0
128 132 122 123 126 28 21 8 23 14 6 0
128 132 122 123 126 46 42 35 44 39 33 0
128 132 122 123 126 88 84 67 87 80 52 0
128 132 122 123 124 106 102 70 105 92 82 0
128 132 122 123 124 120 115 79 119 101 90 0
128 132 122 123 124 28 21 8 23 14 13 0
128 132 122 123 124 46 42 35 44 39 36 0
128 132 122 123 124 63 58 50 61 54 53 0
128 132 122 123 106 102 70 105 92 82 57 0
128 132 122 123 120 115 79 119 101 90 65 0
128 132 122 123 28 21 8 23 14 13 6 0
128 132 122 123 46 42 35 44 39 36 33 0
128 132 122 126 124 106 102 70 105 92 40 0
128 132 122 126 124 120 115 79 119 101 49 0
128 132 122 126 124 28 21 8 23 14 3 0
128 132 122 126 124 88 84 67 87 80 37 0
128 132 122 126 124 63 58 50 61 54 32 0
128 132 122 126 106 102 70 105 92 40 57 0
128 132 122 126 120 115 79 119 101 49 65 0
128 132 122 126 28 21 8 23 14 3 6 0
128 132 122 126 88 84 67 87 80 37 52 0
128 132 122 124 106 102 70 105 92 40 82 0
128 132 122 124 120 115 79 119 101 49 90 0
128 132 122 124 28 21 8 23 14 3 13 0
128 132 122 124 63 58 50 61 54 32 53 0
128 132 122 106 102 70 105 92 40 82 57 0
128 132 122 120 115 79 119 101 49 90 65 0
128 132 122 28 21 8 23 14 3 13 6 0
128 132 127 123 126 124 106 102 70 105 18 0
128 132 127 123 126 124 120 115 79 119 29 0
128 132 127 123 126 124 98 94 69 96 16 0
128 132 127 123 126 124 46 42 35 44 2 0
128 132 127 123 126 124 88 84 67 87 11 0
128 132 127 123 126 124 63 58 50 61 5 0
128 132 127 123 126 106 102 70 105 18 57 0
128 132 127 123 126 120 115 79 119 29 65 0
128 132 127 123 126 98 94 69 96 16 55 0
128 132 127 123 126 46 42 35 44 2 33 0
128 132 127 123 126 88 84 67 87 11 52 0
128 132 127 123 124 106 102 70 105 18 82 0
128 132 127 123 124 120 115 79 119 29 90 0
128 132 127 123 124 98 94 69 96 16 81 0
128 132 127 123 124 46 42 35 44 2 36 0
128 132 127 123 124 63 58 50 61 5 53 0
128 132 127 123 106 102 70 105 18 82 57 0
128 132 127 123 120 115 79 119 29 90 65 0
128 132 127 123 98 94 69 96 16 81 55 0
128 132 127 123 46 42 35 44 2 36 33 0
128 132 127 126 124 106 102 70 105 18 40 0
128 132 127 126 124 120 115 79 119 29 49 0
128 132 127 126 124 98 94 69 96 16 38 0
128 132 127 126 124 88 84 67 87 11 37 0
128 132 127 126 124 63 58 50 61 5 32 0
128 132 127 126 106 102 70 105 18 40 57 0
128 132 127 126 120 115 79 119 29 49 65 0
128 132 127 126 98 94 69 96 16 38 55 0
128 132 127 126 88 84 67 87 11 37 52 0
128 132 127 124 106 102 70 105 18 40 82 0
128 132 127 124 120 115 79 119 29 49 90 0
128 132 127 124 98 94 69 96 16 38 81 0
128 132 127 124 63 58 50 61 5 32 53 0
128 132 127 106 102 70 105 18 40 82 57 0
128 132 127 120 115 79 119 29 49 90 65 0
128 132 127 98 94 69 96 16 38 81 55 0
128 132 123 126 124 106 102 70 105 18 92 0
128 132 123 126 124 120 115 79 119 29 101 0
128 132 123 126 124 46 42 35 44 2 39 0
128 132 123 126 124 88 84 67 87 11 80 0
128 132 123 126 124 63 58 50 61 5 54 0
128 132 123 126 106 102 70 105 18 92 57 0
128 132 123 126 120 115 79 119 29 101 65 0
128 132 123 126 46 42 35 44 2 39 33 0
128 132 123 126 88 84 67 87 11 80 52 0
128 132 123 124 106 102 70 105 18 92 82 0
128 132 123 124 120 115 79 119 29 101 90 0
128 132 123 124 46 42 35 44 2 39 36 0
128 132 123 124 63 58 50 61 5 54 53 0
128 132 123 106 102 70 105 18 92 82 57 0
128 132 123 120 115 79 119 29 101 90 65 0
128 132 123 46 42 35 44 2 39 36 33 0
128 132 126 124 106 102 70 105 18 92 40 0
128 132 126 124 120 115 79 119 29 101 49 0
128 132 126 124 88 84 67 87 11 80 37 0
128 132 126 124 63 58 50 61 5 54 32 0
128 132 126 106 102 70 105 18 92 40 57 0
128 132 126 120 115 79 119 29 101 49 65 0
128 132 126 88 84 67 87 11 80 37 52 0
128 132 124 106 102 70 105 18 92 40 82 0
128 132 124 120 115 79 119 29 101 49 90 0
128 132 124 63 58 50 61 5 54 32 53 0
128 132 106 102 70 105 18 92 40 82 57 0
128 132 120 115 79 119 29 101 49 90 65 0
128 122 127 123 126 124 106 102 70 105 109 0
128 122 127 123 126 124 28 21 8 23 31 0
128 122 127 123 126 124 98 94 69 96 100 0
128 122 127 123 126 124 46 42 35 44 48 0
128 122 127 123 126 124 88 84 67 87 91 0
128 122 127 123 126 124 63 58 50 61 64 0
128 122 127 123 126 106 102 70 105 109 57 0
128 122 127 123 126 28 21 8 23 31 6 0
128 122 127 123 126 98 94 69 96 100 55 0
128 122 127 123 126 46 42 35 44 48 33 0
128 122 127 123 126 88 84 67 87 91 52 0
128 122 127 123 124 106 102 70 105 109 82 0
128 122 127 123 124 28 21 8 23 31 13 0
128 122 127 123 124 98 94 69 96 100 81 0
128 122 127 123 124 46 42 35 44 48 36 0
128 122 127 123 124 63 58 50 61 64 53 0
128 122 127 123 106 102 70 105 109 82 57 0
128 122 127 123 28 21 8 23 31 13 6 0
128 122 127 123 98 94 69 96 100 81 55 0
128 122 127 123 46 42 35 44 48 36 33 0
128 122 127 126 124 106 102 70 105 109 40 0
128 122 127 126 124 28 21 8 23 31 3 0
128 122 127 126 124 98 94 69 96 100 38 0
128 122 127 126 124 88 84 67 87 91 37 0
128 122 127 126 124 63 58 50 61 64 32 0
128 122 127 126 106 102 70 105 109 40 57 0
128 122 127 126 28 21 8 23 31 3 6 0
128 122 127 126 98 94 69 96 100 38 55 0
128 122 127 126 88 84 67 87 91 37 52 0
128 122 127 124 106 102 70 105 109 40 82 0
128 122 127 124 28 21 8 23 31 3 13 0
128 122 127 124 98 94 69 96 100 38 81 0
128 122 127 124 63 58 50 61 64 32 53 0
128 122 127 106 102 70 105 109 40 82 57 0
128 122 127 28 21 8 23 31 3 13 6 0
128 122 127 98 94 69 96 100 38 81 55 0
128 122 123 126 124 106 102 70 105 109 92 0
128 122 123 126 124 28 21 8 23 31 14 0
128 122 123 126 124 46 42 35 44 48 39 0
128 122 123 126 124 88 84 67 87 91 80 0
128 122 123 126 124 63 58 50 61 64 54 0
128 122 123 126 106 102 70 105 109 92 57 0
128 122 123 126 28 21 8 23 31 14 6 0
128 122 123 126 46 42 35 44 48 39 33 0
128 122 123 126 88 84 67 87 91 80 52 0
128 122 123 124 106 102 70 105 109 92 82 0
128 122 123 124 28 21 8 23 31 14 13 0
128 122 123 124 46 42 35 44 48 39 36 0
128 122 123 124 63 58 50 61 64 54 53 0
128 122 123 106 102 70 105 109 92 82 57 0
128 122 123 28 21 8 23 31 14 13 6 0
128 122 123 46 42 35 44 48 39 36 33 0
128 122 126 124 106 102 70 105 109 92 40 0
128 122 126 124 28 21 8 23 31 14 3 0
128 122 126 124 88 84 67 87 91 80 37 0
128 122 126 124 63 58 50 61 64 54 32 0
128 122 126 106 102 70 105 109 92 40 57 0
128 122 126 28 21 8 23 31 14 3 6 0
128 122 126 88 84 67 87 91 80 37 52 0
128 122 124 106 102 70 105 109 92 40 82 0
128 122 124 28 21 8 23 31 14 3 13 0
128 122 124 63 58 50 61 64 54 32 53 0
128 122 106 102 70 105 109 92 40 82 57 0
128 122 28 21 8 23 31 14 3 13 6 0
128 127 123 126 124 106 102 70 105 109 18 0
128 127 123 126 124 98 94 69 96 100 16 0
128 127 123 126 124 46 42 35 44 48 2 0
128 127 123 126 124 88 84 67 87 91 11 0
128 127 123 126 124 63 58 50 61 64 5 0
128 127 123 126 106 102 70 105 109 18 57 0
128 127 123 126 98 94 69 96 100 16 55 0
128 127 123 126 46 42 35 44 48 2 33 0
128 127 123 126 88 84 67 87 91 11 52 0
128 127 123 124 106 102 70 105 109 18 82 0
128 127 123 124 98 94 69 96 100 16 81 0
128 127 123 124 46 42 35 44 48 2 36 0
128 127 123 124 63 58 50 61 64 5 53 0
128 127 123 106 102 70 105 109 18 82 57 0
128 127 123 98 94 69 96 100 16 81 55 0
128 127 123 46 42 35 44 48 2 36 33 0
128 127 126 124 106 102 70 105 109 18 40 0
128 127 126 124 98 94 69 96 100 16 38 0
128 127 126 124 88 84 67 87 91 11 37 0
128 127 126 124 63 58 50 61 64 5 32 0
128 127 126 106 102 70 105 109 18 40 57 0
128 127 126 98 94 69 96 100 16 38 55 0
128 127 126 88 84 67 87 91 11 37 52 0
128 127 124 106 102 70 105 109 18 40 82 0
128 127 124 98 94 69 96 100 16 38 81 0
128 127 124 63 58 50 61 64 5 32 53 0
128 127 106 102 70 105 109 18 40 82 57 0
128 127 98 94 69 96 100 16 38 81 55 0
128 123 126 124 106 102 70 105 109 18 92 0
128 123 126 124 46 42 35 44 48 2 39 0
128 123 126 124 88 84 67 87 91 11 80 0
128 123 126 124 63 58 50 61 64 5 54 0
128 123 126 106 102 70 105 109 18 92 57 0
128 123 126 46 42 35 44 48 2 39 33 0
128 123 126 88 84 67 87 91 11 80 52 0
128 123 124 106 102 70 105 109 18 92 82 0
128 123 124 46 42 35 44 48 2 39 36 0
128 123 124 63 58 50 61 64 5 54 53 0
128 123 106 102 70 105 109 18 92 82 57 0
128 123 46 42 35 44 48 2 39 36 33 0
128 126 124 106 102 70 105 109 18 92 40 0
128 126 124 88 84 67 87 91 11 80 37 0
128 126 124 63 58 50 61 64 5 54 32 0
128 126 106 102 70 105 109 18 92 40 57 0
128 126 88 84 67 87 91 11 80 37 52 0
128 124 106 102 70 105 109 18 92 40 82 0
128 124 63 58 50 61 64 5 54 32 53 0
128 106 102 70 105 109 18 92 40 82 57 0
125 130 132 122 127 123 126 124 77 73 71 0
125 130 132 122 127 123 126 124 117 110 104 0
125 130 132 122 127 123 126 124 120 115 108 0
125 130 132 122 127 123 126 124 28 21 17 0
125 130 132 122 127 123 126 124 98 94 93 0
125 130 132 122 127 123 126 124 46 42 41 0
125 130 132 122 127 123 126 124 88 84 83 0
125 130 132 122 127 123 126 124 63 58 56 0
125 130 132 122 127 123 126 77 73 71 51 0
125 130 132 122 127 123 126 117 110 104 60 0
125 130 132 122 127 123 126 120 115 108 65 0
125 130 132 122 127 123 126 28 21 17 6 0
125 130 132 122 127 123 126 98 94 93 55 0
125 130 132 122 127 123 126 46 42 41 33 0
125 130 132 122 127 123 126 88 84 83 52 0
125 130 132 122 127 123 124 77 73 71 66 0
125 130 132 122 127 123 124 117 110 104 86 0
125 130 132 122 127 123 124 120 115 108 90 0
125 130 132 122 127 123 124 28 21 17 13 0
125 130 132 122 127 123 124 98 94 93 81 0
125 130 132 122 127 123 124 46 42 41 36 0
125 130 132 122 127 123 124 63 58 56 53 0
125 130 132 122 127 123 77 73 71 66 51 0
125 130 132 122 127 123 117 110 104 86 60 0
125 130 132 122 127 123 120 115 108 90 65 0
125 130 132 122 127 123 28 21 17 13 6 0
125 130 132 122 127 123 98 94 93 81 55 0
125 130 132 122 127 123 46 42 41 36 33 0
125 130 132 122 127 126 124 77 73 71 34 0
125 130 132 122 127 126 124 117 110 104 45 0
125 130 132 122 127 126 124 120 115 108 49 0
125 130 132 122 127 126 124 28 21 17 3 0
125 130 132 122 127 126 124 98 94 93 38 0
125 130 132 122 127 126 124 88 84 83 37 0
125 130 132 122 127 126 124 63 58 56 32 0
125 130 132 122 127 126 77 73 71 34 51 0
125 130 132 122 127 126 117 110 104 45 60 0
125 130 132 122 127 126 120 115 108 49 65 0
125 130 132 122 127 126 28 21 17 3 6 0
125 130 132 122 127 126 98 94 93 38 55 0
125 130 132 122 127 126 88 84 83 37 52 0
125 130 132 122 127 124 77 73 71 34 66 0
125 130 132 122 127 124 117 110 104 45 86 0
125 130 132 122 127 124 120 115 108 49 90 0
125 130 132 122 127 124 28 21 17 3 13 0
125 130 132 122 127 124 98 94 93 38 81 0
125 130 132 122 127 124 63 58 56 32 53 0
125 130 132 122 127 77 73 71 34 66 51 0
125 130 132 122 127 117 110 104 45 86 60 0
125 130 132 122 127 120 115 108 49 90 65 0
125 130 132 122 127 28 21 17 3 13 6 0
125 130 132 122 127 98 94 93 38 81 55 0
125 130 132 122 123 126 124 77 73 71 68 0
125 130 132 122 123 126 124 117 110 104 97 0
125 130 132 122 123 126 124 120 115 108 101 0
125 130 132 122 123 126 124 28 21 17 14 0
125 130 132 122 123 126 124 46 42 41 39 0
125 130 132 122 123 126 124 88 84 83 80 0
125 130 132 122 123 126 124 63 58 56 54 0
125 130 132 122 123 126 77 73 71 68 51 0
125 130 132 122 123 126 117 110 104 97 60 0
125 130 132 122 123 126 120 115 108 101 65 0
125 130 132 122 123 126 28 21 17 14 6 0
125 130 132 122 123 126 46 42 41 39 33 0
125 130 132 122 123 126 88 84 83 80 52 0
125 130 132 122 123 124 77 73 71 68 66 0
125 130 132 122 123 124 117 110 104 97 86 0
125 130 132 122 123 124 120 115 108 101 90 0
125 130 132 122 123 124 28 21 17 14 13 0
125 130 132 122 123 124 46 42 41 39 36 0
125 130 132 122 123 124 63 58 56 54 53 0
125 130 132 122 123 77 73 71 68 66 51 0
125 130 132 122 123 117 110 104 97 86 60 0
125 130 132 122 123 120 115 108 101 90 65 0
125 130 132 122 123 28 21 17 14 13 6 0
125 130 132 122 123 46 42 41 39 36 33 0
125 130 132 122 126 124 77 73 71 68 34 0
125 130 132 122 126 124 117 110 104 97 45 0
125 130 132 122 126 124 120 115 108 101 49 0
125 130 132 122 126 124 28 21 17 14 3 0
125 130 132 122 126 124 88 84 83 80 37 0
125 130 132 122 126 124 63 58 56 54 32 0
125 130 132 122 126 77 73 71 68 34 51 0
125 130 132 122 126 117 110 104 97 45 60 0
125 130 132 122 126 120 115 108 101 49 65 0
125 130 132 122 126 28 21 17 14 3 6 0
125 130 132 122 126 88 84 83 80 37 52 0
125 130 132 122 124 77 73 71 68 34 66 0
125 130 132 122 124 117 110 104 97 45 86 0
125 130 132 122 124 120 115 108 101 49 90 0
125 130 132 122 124 28 21 17 14 3 13 0
125 130 132 122 124 63 58 56 54 32 53 0
125 130 132 122 77 73 71 68 34 66 51 0
125 130 132 122 117 110 104 97 45 86 60 0
125 130 132 122 120 115 108 101 49 90 65 0
125 130 132 122 28 21 17 14 3 13 6 0
125 130 132 127 123 126 124 77 73 71 9 0
125 130 132 127 123 126 124 117 110 104 25 0
125 130 132 127 123 126 124 120 115 108 29 0
125 130 132 127 123 126 124 98 94 93 16 0
125 130 132 127 123 126 124 46 42 41 2 0
125 130 132 127 123 126 124 88 84 83 11 0
125 130 132 127 123 126 124 63 58 56 5 0
125 130 132 127 123 126 77 73 71 9 51 0
125 130 132 127 123 126 117 110 104 25 60 0
125 130 132 127 123 126 120 115 108 29 65 0
125 130 132 127 123 126 98 94 93 16 55 0
125 130 132 127 123 126 46 42 41 2 33 0
125 130 132 127 123 126 88 84 83 11 52 0
125 130 132 127 123 124 77 73 71 9 66 0
125 130 132 127 123 124 117 110 104 25 86 0
125 130 132 127 123 124 120 115 108 29 90 0
125 130 132 127 123 124 98 94 93 16 81 0
125 130 132 127 123 124 46 42 41 2 36 0
125 130 132 127 123 124 63 58 56 5 53 0
125 130 132 127 123 77 73 71 9 66 51 0
125 130 132 127 123 117 110 104 25 86 60 0
125 130 132 127 123 120 115 108 29 90 65 0
125 130 132 127 123 98 94 93 16 81 55 0
125 130 132 127 123 46 42 41 2 36 33 0
125 130 132 127 126 124 77 73 71 9 34 0
125 130 132 127 126 124 117 110 104 25 45 0
125 130 132 127 126 124 120 115 108 29 49 0
125 130 132 127 126 124 98 94 93 16 38 0
125 130 132 127 126 124 88 84 83 11 37 0
125 130 132 127 126 124 63 58 56 5 32 0
125 130 132 127 126 77 73 71 9 34 51 0
125 130 132 127 126 117 110 104 25 45 60 0
125 130 132 127 126 120 115 108 29 49 65 0
125 130 132 127 126 98 94 93 16 38 55 0
125 130 132 127 126 88 84 83 11 37 52 0
125 130 132 127 124 77 73 71 9 34 66 0
125 130 132 127 124 117 110 104 25 45 86 0
125 130 132 127 124 120 115 108 29 49 90 0
125 130 132 127 124 98 94 93 16 38 81 0
125 130 132 127 124 63 58 56 5 32 53 0
125 130 132 127 77 73 71 9 34 66 51 0
125 130 132 127 117 110 104 25 45 86 60 0
125 130 132 127 120 115 108 29 49 90 65 0
125 130 132 127 98 94 93 16 38 81 55 0
125 130 132 123 126 124 77 73 71 9 68 0
125 130 132 123 126 124 117 110 104 25 97 0
125 130 132 123 126 124 120 115 108 29 101 0
125 130 132 123 126 124 46 42 41 2 39 0
125 130 132 123 126 124 88 84 83 11 80 0
125 130 132 123 126 124 63 58 56 5 54 0
125 130 132 123 126 77 73 71 9 68 51 0
125 130 132 123 126 117 110 104 25 97 60 0
125 130 132 123 126 120 115 108 29 101 65 0
125 130 132 123 126 46 42 41 2 39 33 0
125 130 132 123 126 88 84 83 11 80 52 0
125 130 132 123 124 77 73 71 9 68 66 0
125 130 132 123 124 117 110 104 25 97 86 0
125 130 132 123 124 120 115 108 29 101 90 0
125 130 132 123 124 46 42 41 2 39 36 0
125 130 132 123 124 63 58 56 5 54 53 0
125 130 132 123 77 73 71 9 68 66 51 0
125 130 132 123 117 110 104 25 97 86 60 0
125 130 132 123 120 115 108 29 101 90 65 0
125 130 132 123 46 42 41 2 39 36 33 0
125 130 132 126 124 77 73 71 9 68 34 0
125 130 132 126 124 117 110 104 25 97 45 0
125 130 132 126 124 120 115 108 29 101 49 0
125 130 132 126 124 88 84 83 11 80 37 0
125 130 132 126 124 63 58 56 5 54 32 0
125 130 132 126 77 73 71 9 68 34 51 0
125 130 132 126 117 110 104 25 97 45 60 0
125 130 132 126 120 115 108 29 101 49 65 0
125 130 132 126 88 84 83 11 80 37 52 0
125 130 132 124 77 73 71 9 68 34 66 0
125 130 132 124 117 110 104 25 97 45 86 0
125 130 132 124 120 115 108 29 101 49 90 0
125 130 132 124 63 58 56 5 54 32 53 0
125 130 132 77 73 71 9 68 34 66 51 0
125 130 132 117 110 104 25 97 45 86 60 0
125 130 132 120 115 108 29 101 49 90 65 0
125 130 122 127 123 126 124 77 73 71 78 0
125 130 122 127 123 126 124 117 110 104 118 0
125 130 122 127 123 126 124 28 21 17 31 0
125 130 122 127 123 126 124 98 94 93 100 0
125 130 122 127 123 126 124 46 42 41 48 0
125 130 122 127 123 126 124 88 84 83 91 0
125 130 122 127 123 126 124 63 58 56 64 0
125 130 122 127 123 126 77 73 71 78 51 0
125 130 122 127 123 126 117 110 104 118 60 0
125 130 122 127 123 126 28 21 17 31 6 0
125 130 122 127 123 126 98 94 93 100 55 0
125 130 122 127 123 126 46 42 41 48 33 0
125 130 122 127 123 126 88 84 83 91 52 0
125 130 122 127 123 124 77 73 71 78 66 0
125 130 122 127 123 124 117 110 104 118 86 0
125 130 122 127 123 124 28 21 17 31 13 0
125 130 122 127 123 124 98 94 93 100 81 0
125 130 122 127 123 124 46 42 41 48 36 0
125 130 122 127 123 124 63 58 56 64 53 0
125 130 122 127 123 77 73 71 78 66 51 0
125 130 122 127 123 117 110 104 118 86 60 0
125 130 122 127 123 28 21 17 31 13 6 0
125 130 122 127 123 98 94 93 100 81 55 0
125 130 122 127 123 46 42 41 48 36 33 0
125 130 122 127 126 124 77 73 71 78 34 0
125 130 122 127 126 124 117 110 104 118 45 0
125 130 122 127 126 124 28 21 17 31 3 0
125 130 122 127 126 124 98 94 93 100 38 0
125 130 122 127 126 124 88 84 83 91 37 0
125 130 122 127 126 124 63 58 56 64 32 0
125 130 122 127 126 77 73 71 78 34 51 0
125 130 122 127 126 117 110 104 118 45 60 0
125 130 122 127 126 28 21 17 31 3 6 0
125 130 122 127 126 98 94 93 100 38 55 0
125 130 122 127 126 88 84 83 91 37 52 0
125 130 122 127 124 77 73 71 78 34 66 0
125 130 122 127 124 117 110 104 118 45 86 0
125 130 122 127 124 28 21 17 31 3 13 0
125 130 122 127 124 98 94 93 100 38 81 0
125 130 122 127 124 63 58 56 64 32 53 0
125 130 122 127 77 73 71 78 34 66 51 0
125 130 122 127 117 110 104 118 45 86 60 0
125 130 122 127 28 21 17 31 3 13 6 0
125 130 122 127 98 94 93 100 38 81 55 0
125 130 122 123 126 124 77 73 71 78 68 0
125 130 122 123 126 124 117 110 104 118 97 0
125 130 122 123 126 124 28 21 17 31 14 0
125 130 122 123 126 124 46 42 41 48 39 0
125 130 122 123 126 124 88 84 83 91 80 0
125 130 122 123 126 124 63 58 56 64 54 0
125 130 122 123 126 77 73 71 78 68 51 0
125 130 122 123 126 117 110 104 118 97 60 0
125 130 122 123 126 28 21 17 31 14 6 0
125 130 122 123 126 46 42 41 48 39 33 0
125 130 122 123 126 88 84 83 91 80 52 0
125 130 122 123 124 77 73 71 78 68 66 0
125 130 122 123 124 117 110 104 118 97 86 0
125 130 122 123 124 28 21 17 31 14 13 0
125 130 122 123 124 46 42 41 48 39 36 0
125 130 122 123 124 63 58 56 64 54 53 0
125 130 122 123 77 73 71 78 68 66 51 0
125 130 122 123 117 110 104 118 97 86 60 0
125 130 122 123 28 21 17 31 14 13 6 0
125 130 122 123 46 42 41 48 39 36 33 0
125 130 122 126 124 77 73 71 78 68 34 0
125 130 122 126 124 117 110 104 118 97 45 0
125 130 122 126 124 28 21 17 31 14 3 0
125 130 122 126 124 88 84 83 91 80 37 0
125 130 122 126 124 63 58 56 64 54 32 0
125 130 122 126 77 73 71 78 68 34 51 0
125 130 122 126 117 110 104 118 97 45 60 0
125 130 122 126 28 21 17 31 14 3 6 0
125 130 122 126 88 84 83 91 80 37 52 0
125 130 122 124 77 73 71 78 68 34 66 0
125 130 122 124 117 110 104 118 97 45 86 0
125 130 122 124 28 21 17 31 14 3 13 0
125 130 122 124 63 58 56 64 54 32 53 0
125 130 122 77 73 71 78 68 34 66 51 0
125 130 122 117 110 104 118 97 45 86 60 0
125 130 122 28 21 17 31 14 3 13 6 0
125 130 127 123 126 124 77 73 71 78 9 0
125 130 127 123 126 124 117 110 104 118 25 0
125 130 127 123 126 124 98 94 93 100 16 0
125 130 127 123 126 124 46 42 41 48 2 0
125 130 127 123 126 124 88 84 83 91 11 0
125 130 127 123 126 124 63 58 56 64 5 0
125 130 127 123 126 77 73 71 78 9 51 0
125 130 127 123 126 117 110 104 118 25 60 0
125 130 127 123 126 98 94 93 100 16 55 0
125 130 127 123 126 46 42 41 48 2 33 0
125 130 127 123 126 88 84 83 91 11 52 0
125 130 127 123 124 77 73 71 78 9 66 0
125 130 127 123 124 117 110 104 118 25 86 0
125 130 127 123 124 98 94 93 100 16 81 0
125 130 127 123 124 46 42 41 48 2 36 0
125 130 127 123 124 63 58 56 64 5 53 0
125 130 127 123 77 73 71 78 9 66 51 0
125 130 127 123 117 110 104 118 25 86 60 0
125 130 127 123 98 94 93 100 16 81 55 0
125 130 127 123 46 42 41 48 2 36 33 0
125 130 127 126 124 77 73 71 78 9 34 0
125 130 127 126 124 117 110 104 118 25 45 0
125 130 127 126 124 98 94 93 100 16 38 0
125 130 127 126 124 88 84 83 91 11 37 0
125 130 127 126 124 63 58 56 64 5 32 0
125 130 127 126 77 73 71 78 9 34 51 0
125 130 127 126 117 110 104 118 25 45 60 0
125 130 127 126 98 94 93 100 16 38 55 0
125 130 127 126 88 84 83 91 11 37 52 0
125 130 127 124 77 73 71 78 9 34 66 0
125 130 127 124 117 110 104 118 25 45 86 0
125 130 127 124 98 94 93 100 16 38 81 0
125 130 127 124 63 58 56 64 5 32 53 0
125 130 127 77 73 71 78 9 34 66 51 0
125 130 127 117 110 104 118 25 45 86 60 0
125 130 127 98 94 93 100 16 38 81 55 0
125 130 123 126 124 77 73 71 78 9 68 0
125 130 123 126 124 117 110 104 118 25 97 0
125 130 123 126 124 46 42 41 48 2 39 0
125 130 123 126 124 88 84 83 91 11 80 0
125 130 123 126 124 63 58 56 64 5 54 0
125 130 123 126 77 73 71 78 9 68 51 0
125 130 123 126 117 110 104 118 25 97 60 0
125 130 123 126 46 42 41 48 2 39 33 0
125 130 123 126 88 84 83 91 11 80 52 0
125 130 123 124 77 73 71 78 9 68 66 0
125 130 123 124 117 110 104 118 25 97 86 0
125 130 123 124 46 42 41 48 2 39 36 0
125 130 123 124 63 58 56 64 5 54 53 0
125 130 123 77 73 71 78 9 68 66 51 0
125 130 123 117 110 104 118 25 97 86 60 0
125 130 123 46 42 41 48 2 39 36 33 0
125 130 126 124 77 73 71 78 9 68 34 0
125 130 126 124 117 110 104 118 25 97 45 0
125 130 126 124 88 84 83 91 11 80 37 0
125 130 126 124 63 58 56 64 5 54 32 0
125 130 126 77 73 71 78 9 68 34 51 0
125 130 126 117 110 104 118 25 97 45 60 0
125 130 126 88 84 83 91 11 80 37 52 0
125 130 124 77 73 71 78 9 68 34 66 0
125 130 124 117 110 104 118 25 97 45 86 0
125 130 124 63 58 56 64 5 54 32 53 0
125 130 77 73 71 78 9 68 34 66 51 0
125 130 117 110 104 118 25 97 45 86 60 0
125 132 122 127 123 126 124 77 73 71 75 0
125 132 122 127 123 126 124 120 115 108 119 0
125 132 122 127 123 126 124 28 21 17 23 0
125 132 122 127 123 126 124 98 94 93 96 0
125 132 122 127 123 126 124 46 42 41 44 0
125 132 122 127 123 126 124 88 84 83 87 0
125 132 122 127 123 126 124 63 58 56 61 0
125 132 122 127 123 126 77 73 71 75 51 0
125 132 122 127 123 126 120 115 108 119 65 0
125 132 122 127 123 126 28 21 17 23 6 0
125 132 122 127 123 126 98 94 93 96 55 0
125 132 122 127 123 126 46 42 41 44 33 0
125 132 122 127 123 126 88 84 83 87 52 0
125 132 122 127 123 124 77 73 71 75 66 0
125 132 122 127 123 124 120 115 108 119 90 0
125 132 122 127 123 124 28 21 17 23 13 0
125 132 122 127 123 124 98 94 93 96 81 0
125 132 122 127 123 124 46 42 41 44 36 0
125 132 122 127 123 124 63 58 56 61 53 0
125 132 122 127 123 77 73 71 75 66 51 0
125 132 122 127 123 120 115 108 119 90 65 0
125 132 122 127 123 28 21 17 23 13 6 0
125 132 122 127 123 98 94 93 96 81 55 0
125 132 122 127 123 46 42 41 44 36 33 0
125 132 122 127 126 124 77 73 71 75 34 0
125 132 122 127 126 124 120 115 108 119 49 0
125 132 122 127 126 124 28 21 17 23 3 0
125 132 122 127 126 124 98 94 93 96 38 0
125 132 122 127 126 124 88 84 83 87 37 0
125 132 122 127 126 124 63 58 56 61 32 0
125 132 122 127 126 77 73 71 75 34 51 0
125 132 122 127 126 120 115 108 119 49 65 0
125 132 122 127 126 28 21 17 23 3 6 0
125 132 122 127 126 98 94 93 96 38 55 0
125 132 122 127 126 88 84 83 87 37 52 0
125 132 122 127 124 77 73 71 75 34 66 0
125 132 122 127 124 120 115 108 119 49 90 0
125 132 122 127 124 28 21 17 23 3 13 0
125 132 122 127 124 98 94 93 96 38 81 0
125 132 122 127 124 63 58 56 61 32 53 0
125 132 122 127 77 73 71 75 34 66 51 0
125 132 122 127 120 115 108 119 49 90 65 0
125 132 122 127 28 21 17 23 3 13 6 0
125 132 122 127 98 94 93 96 38 81 55 0
125 132 122 123 126 124 77 73 71 75 68 0
125 132 122 123 126 124 120 115 108 119 101 0
125 132 122 123 126 124 28 21 17 23 14 0
125 132 122 123 126 124 46 42 41 44 39 0
125 132 122 123 126 124 88 84 83 87 80 0
125 132 122 123 126 124 63 58 56 61 54 0
125 132 122 123 126 77 73 71 75 68 51 0
125 132 122 123 126 120 115 108 119 101 65 0
125 132 122 123 126 28 21 17 23 14 6 0
125 132 122 123 126 46 42 41 44 39 33 0
125 132 122 123 126 88 84 83 87 80 52 0
125 132 122 123 124 77 73 71 75 68 66 0
125 132 122 123 124 120 115 108 119 101 90 0
125 132 122 123 124 28 21 17 23 14 13 0
125 132 122 123 124 46 42 41 44 39 36 0
125 132 122 123 124 63 58 56 61 54 53 0
125 132 122 123 77 73 71 75 68 66 51 0
125 132 122 123 120 115 108 119 101 90 65 0
125 132 122 123 28 21 17 23 14 13 6 0
125 132 122 123 46 42 41 44 39 36 33 0
125 132 122 126 124 77 73 71 75 68 34 0
125 132 122 126 124 120 115 108 119 101 49 0
125 132 122 126 124 28 21 17 23 14 3 0
125 132 122 126 124 88 84 83 87 80 37 0
125 132 122 126 124 63 58 56 61 54 32 0
125 132 122 126 77 73 71 75 68 34 51 0
125 132 122 126 120 115 108 119 101 49 65 0
125 132 122 126 28 21 17 23 14 3 6 0
125 132 122 126 88 84 83 87 80 37 52 0
125 132 122 124 77 73 71 75 68 34 66 0
125 132 122 124 120 115 108 119 101 49 90 0
125 132 122 124 28 21 17 23 14 3 13 0
125 132 122 124 63 58 56 61 54 32 53 0
125 132 122 77 73 71 75 68 34 66 51 0
125 132 122 120 115 108 119 101 49 90 65 0
125 132 122 28 21 17 23 14 3 13 6 0
125 132 127 123 126 124 77 73 71 75 9 0
125 132 127 123 126 124 120 115 108 119 29 0
125 132 127 123 126 124 98 94 93 96 16 0
125 132 127 123 126 124 46 42 41 44 2 0
125 132 127 123 126 124 88 84 83 87 11 0
125 132 127 123 126 124 63 58 56 61 5 0
125 132 127 123 126 77 73 71 75 9 51 0
125 132 127 123 126 120 115 108 119 29 65 0
125 132 127 123 126 98 94 93 96 16 55 0
125 132 127 123 126 46 42 41 44 2 33 0
125 132 127 123 126 88 84 83 87 11 52 0
125 132 127 123 124 77 73 71 75 9 66 0
125 132 127 123 124 120 115 108 119 29 90 0
125 132 127 123 124 98 94 93 96 16 81 0
125 132 127 123 124 46 42 41 44 2 36 0
125 132 127 123 124 63 58 56 61 5 53 0
125 132 127 123 77 73 71 75 9 66 51 0
125 132 127 123 120 115 108 119 29 90 65 0
125 132 127 123 98 94 93 96 16 81 55 0
125 132 127 123 46 42 41 44 2 36 33 0
125 132 127 126 124 77 73 71 75 9 34 0
125 132 127 126 124 120 115 108 119 29 49 0
125 132 127 126 124 98 94 93 96 16 38 0
125 132 127 126 124 88 84 83 87 11 37 0
125 132 127 126 124 63 58 56 61 5 32 0
125 132 127 126 77 73 71 75 9 34 51 0
125 132 127 126 120 115 108 119 29 49 65 0
125 132 127 126 98 94 93 96 16 38 55 0
125 132 127 126 88 84 83 87 11 37 52 0
125 132 127 124 77 73 71 75 9 34 66 0
125 132 127 124 120 115 108 119 29 49 90 0
125 132 127 124 98 94 93 96 16 38 81 0
125 132 127 124 63 58 56 61 5 32 53 0
125 132 127 77 73 71 75 9 34 66 51 0
125 132 127 120 115 108 119 29 49 90 65 0
125 132 127 98 94 93 96 16 38 81 55 0
125 132 123 126 124 77 73 71 75 9 68 0
125 132 123 126 124 120 115 108 119 29 101 0
125 132 123 126 124 46 42 41 44 2 39 0
125 132 123 126 124 88 84 83 87 11 80 0
125 132 123 126 124 63 58 56 61 5 54 0
125 132 123 126 77 73 71 75 9 68 51 0
125 132 123 126 120 115 108 119 29 101 65 0
125 132 123 126 46 42 41 44 2 39 33 0
125 132 123 126 88 84 83 87 11 80 52 0
125 132 123 124 77 73 71 75 9 68 66 0
125 132 123 124 120 115 108 119 29 101 90 0
125 132 123 124 46 42 41 44 2 39 36 0
125 132 123 124 63 58 56 61 5 54 53 0
125 132 123 77 73 71 75 9 68 66 51 0
125 132 123 120 115 108 119 29 101 90 65 0
125 132 123 46 42 41 44 2 39 36 33 0
125 132 126 124 77 73 71 75 9 68 34 0
125 132 126 124 120 115 108 119 29 101 49 0
125 132 126 124 88 84 83 87 11 80 37 0
125 132 126 124 63 58 56 61 5 54 32 0
125 132 126 77 73 71 75 9 68 34 51 0
125 132 126 120 115 108 119 29 101 49 65 0
125 132 126 88 84 83 87 11 80 37 52 0
125 132 124 77 73 71 75 9 68 34 66 0
125 132 124 120 115 108 119 29 101 49 90 0
125 132 124 63 58 56 61 5 54 32 53 0
125 132 77 73 71 75 9 68 34 66 51 0
125 132 120 115 108 119 29 101 49 90 65 0
125 122 127 123 126 124 77 73 71 75 78 0
125 122 127 123 126 124 28 21 17 23 31 0
125 122 127 123 126 124 98 94 93 96 100 0
125 122 127 123 126 124 46 42 41 44 48 0
125 122 127 123 126 124 88 84 83 87 91 0
125 122 127 123 126 124 63 58 56 61 64 0
125 122 127 123 126 77 73 71 75 78 51 0
125 122 127 123 126 28 21 17 23 31 6 0
125 122 127 123 126 98 94 93 96 100 55 0
125 122 127 123 126 46 42 41 44 48 33 0
125 122 127 123 126 88 84 83 87 91 52 0
125 122 127 123 124 77 73 71 75 78 66 0
125 122 127 123 124 28 21 17 23 31 13 0
125 122 127 123 124 98 94 93 96 100 81 0
125 122 127 123 124 46 42 41 44 48 36 0
125 122 127 123 124 63 58 56 61 64 53 0
125 122 127 123 77 73 71 75 78 66 51 0
125 122 127 123 28 21 17 23 31 13 6 0
125 122 127 123 98 94 93 96 100 81 55 0
125 122 127 123 46 42 41 44 48 36 33 0
125 122 127 126 124 77 73 71 75 78 34 0
125 122 127 126 124 28 21 17 23 31 3 0
125 122 127 126 124 98 94 93 96 100 38 0
125 122 127 126 124 88 84 83 87 91 37 0
125 122 127 126 124 63 58 56 61 64 32 0
125 122 127 126 77 73 71 75 78 34 51 0
125 122 127 126 28 21 17 23 31 3 6 0
125 122 127 126 98 94 93 96 100 38 55 0
125 122 127 126 88 84 83 87 91 37 52 0
125 122 127 124 77 73 71 75 78 34 66 0
125 122 127 124 28 21 17 23 31 3 13 0
125 122 127 124 98 94 93 96 100 38 81 0
125 122 127 124 63 58 56 61 64 32 53 0
125 122 127 77 73 71 75 78 34 66 51 0
125 122 127 28 21 17 23 31 3 13 6 0
125 122 127 98 94 93 96 100 38 81 55 0
125 122 123 126 124 77 73 71 75 78 68 0
125 122 123 126 124 28 21 17 23 31 14 0
125 122 123 126 124 46 42 41 44 48 39 0
125 122 123 126 124 88 84 83 87 91 80 0
125 122 123 126 124 63 58 56 61 64 54 0
125 122 123 126 77 73 71 75 78 68 51 0
125 122 123 126 28 21 17 23 31 14 6 0
125 122 123 126 46 42 41 44 48 39 33 0
125 122 123 126 88 84 83 87 91 80 52 0
125 122 123 124 77 73 71 75 78 68 66 0
125 122 123 124 28 21 17 23 31 14 13 0
125 122 123 124 46 42 41 44 48 39 36 0
125 122 123 124 63 58 56 61 64 54 53 0
125 122 123 77 73 71 75 78 68 66 51 0
125 122 123 28 21 17 23 31 14 13 6 0
125 122 123 46 42 41 44 48 39 36 33 0
125 122 126 124 77 73 71 75 78 68 34 0
125 122 126 124 28 21 17 23 31 14 3 0
125 122 126 124 88 84 83 87 91 80 37 0
125 122 126 124 63 58 56 61 64 54 32 0
125 122 126 77 73 71 75 78 68 34 51 0
125 122 126 28 21 17 23 31 14 3 6 0
125 122 126 88 84 83 87 91 80 37 52 0
125 122 124 77 73 71 75 78 68 34 66 0
125 122 124 28 21 17 23 31 14 3 13 0
125 122 124 63 58 56 61 64 54 32 53 0
125 122 77 73 71 75 78 68 34 66 51 0
125 122 28 21 17 23 31 14 3 13 6 0
125 127 123 126 124 77 73 71 75 78 9 0
125 127 123 126 124 98 94 93 96 100 16 0
125 127 123 126 124 46 42 41 44 48 2 0
125 127 123 126 124 88 84 83 87 91 11 0
125 127 123 126 124 63 58 56 61 64 5 0
125 127 123 126 77 73 71 75 78 9 51 0
125 127 123 126 98 94 93 96 100 16 55 0
125 127 123 126 46 42 41 44 48 2 33 0
125 127 123 126 88 84 83 87 91 11 52 0
125 127 123 124 77 73 71 75 78 9 66 0
125 127 123 124 98 94 93 96 100 16 81 0
125 127 123 124 46 42 41 44 48 2 36 0
125 127 123 124 63 58 56 61 64 5 53 0
125 127 123 77 73 71 75 78 9 66 51 0
125 127 123 98 94 93 96 100 16 81 55 0
125 127 123 46 42 41 44 48 2 36 33 0
125 127 126 124 77 73 71 75 78 9 34 0
125 127 126 124 98 94 93 96 100 16 38 0
125 127 126 124 88 84 83 87 91 11 37 0
125 127 126 124 63 58 56 61 64 5 32 0
125 127 126 77 73 71 75 78 9 34 51 0
125 127 126 98 94 93 96 100 16 38 55 0
125 127 126 88 84 83 87 91 11 37 52 0
125 127 124 77 73 71 75 78 9 34 66 0
125 127 124 98 94 93 96 100 16 38 81 0
125 127 124 63 58 56 61 64 5 32 53 0
125 127 77 73 71 75 78 9 34 66 51 0
125 127 98 94 93 96 100 16 38 81 55 0
125 123 126 124 77 73 71 75 78 9 68 0
125 123 126 124 46 42 41 44 48 2 39 0
125 123 126 124 88 84 83 87 91 11 80 0
125 123 126 124 63 58 56 61 64 5 54 0
125 123 126 77 73 71 75 78 9 68 51 0
125 123 126 46 42 41 44 48 2 39 33 0
125 123 126 88 84 83 87 91 11 80 52 0
125 123 124 77 73 71 75 78 9 68 66 0
125 123 124 46 42 41 44 48 2 39 36 0
125 123 124 63 58 56 61 64 5 54 53 0
125 123 77 73 71 75 78 9 68 66 51 0
125 123 46 42 41 44 48 2 39 36 33 0
125 126 124 77 73 71 75 78 9 68 34 0
125 126 124 88 84 83 87 91 11 80 37 0
125 126 124 63 58 56 61 64 5 54 32 0
125 126 77 73 71 75 78 9 68 34 51 0
125 126 88 84 83 87 91 11 80 37 52 0
125 124 77 73 71 75 78 9 68 34 66 0
125 124 63 58 56 61 64 5 54 32 53 0
125 77 73 71 75 78 9 68 34 66 51 0
130 132 122 127 123 126 124 117 110 104 74 0
130 132 122 127 123 126 124 120 115 108 79 0
130 132 122 127 123 126 124 28 21 17 8 0
130 132 122 127 123 126 124 98 94 93 69 0
130 132 122 127 123 126 124 46 42 41 35 0
130 132 122 127 123 126 124 88 84 83 67 0
130 132 122 127 123 126 124 63 58 56 50 0
130 132 122 127 123 126 117 110 104 74 60 0
130 132 122 127 123 126 120 115 108 79 65 0
130 132 122 127 123 126 28 21 17 8 6 0
130 132 122 127 123 126 98 94 93 69 55 0
130 132 122 127 123 126 46 42 41 35 33 0
130 132 122 127 123 126 88 84 83 67 52 0
130 132 122 127 123 124 117 110 104 74 86 0
130 132 122 127 123 124 120 115 108 79 90 0
130 132 122 127 123 124 28 21 17 8 13 0
130 132 122 127 123 124 98 94 93 69 81 0
130 132 122 127 123 124 46 42 41 35 36 0
130 132 122 127 123 124 63 58 56 50 53 0
130 132 122 127 123 117 110 104 74 86 60 0
130 132 122 127 123 120 115 108 79 90 65 0
130 132 122 127 123 28 21 17 8 13 6 0
130 132 122 127 123 98 94 93 69 81 55 0
130 132 122 127 123 46 42 41 35 36 33 0
130 132 122 127 126 124 117 110 104 74 45 0
130 132 122 127 126 124 120 115 108 79 49 0
130 132 122 127 126 124 28 21 17 8 3 0
130 132 122 127 126 124 98 94 93 69 38 0
130 132 122 127 126 124 88 84 83 67 37 0
130 132 122 127 126 124 63 58 56 50 32 0
130 132 122 127 126 117 110 104 74 45 60 0
130 132 122 127 126 120 115 108 79 49 65 0
130 132 122 127 126 28 21 17 8 3 6 0
130 132 122 127 126 98 94 93 69 38 55 0
130 132 122 127 126 88 84 83 67 37 52 0
130 132 122 127 124 117 110 104 74 45 86 0
130 132 122 127 124 120 115 108 79 49 90 0
130 132 122 127 124 28 21 17 8 3 13 0
130 132 122 127 124 98 94 93 69 38 81 0
130 132 122 127 124 63 58 56 50 32 53 0
130 132 122 127 117 110 104 74 45 86 60 0
130 132 122 127 120 115 108 79 49 90 65 0
130 132 122 127 28 21 17 8 3 13 6 0
130 132 122 127 98 94 93 69 38 81 55 0
130 132 122 123 126 124 117 110 104 74 97 0
130 132 122 123 126 124 120 115 108 79 101 0
130 132 122 123 126 124 28 21 17 8 14 0
130 132 122 123 126 124 46 42 41 35 39 0
130 132 122 123 126 124 88 84 83 67 80 0
130 132 122 123 126 124 63 58 56 50 54 0
130 132 122 123 126 117 110 104 74 97 60 0
130 132 122 123 126 120 115 108 79 101 65 0
130 132 122 123 126 28 21 17 8 14 6 0
130 132 122 123 126 46 42 41 35 39 33 0
130 132 122 123 126 88 84 83 67 80 52 0
130 132 122 123 124 117 110 104 74 97 86 0
130 132 122 123 124 120 115 108 79 101 90 0
130 132 122 123 124 28 21 17 8 14 13 0
130 132 122 123 124 46 42 41 35 39 36 0
130 132 122 123 124 63 58 56 50 54 53 0
130 132 122 123 117 110 104 74 97 86 60 0
130 132 122 123 120 115 108 79 101 90 65 0
130 132 122 123 28 21 17 8 14 13 6 0
130 132 122 123 46 42 41 35 39 36 33 0
130 132 122 126 124 117 110 104 74 97 45 0
130 132 122 126 124 120 115 108 79 101 49 0
130 132 122 126 124 28 21 17 8 14 3 0
130 132 122 126 124 88 84 83 67 80 37 0
130 132 122 126 124 63 58 56 50 54 32 0
130 132 122 126 117 110 104 74 97 45 60 0
130 132 122 126 120 115 108 79 101 49 65 0
130 132 122 126 28 21 17 8 14 3 6 0
130 132 122 126 88 84 83 67 80 37 52 0
130 132 122 124 117 110 104 74 97 45 86 0
130 132 122 124 120 115 108 79 101 49 90 0
130 132 122 124 28 21 17 8 14 3 13 0
130 132 122 124 63 58 56 50 54 32 53 0
130 132 122 117 110 104 74 97 45 86 60 0
130 132 122 120 115 108 79 101 49 90 65 0
130 132 122 28 21 17 8 14 3 13 6 0
130 132 127 123 126 124 117 110 104 74 25 0
130 132 127 123 126 124 120 115 108 79 29 0
130 132 127 123 126 124 98 94 93 69 16 0
130 132 127 123 126 124 46 42 41 35 2 0
130 132 127 123 126 124 88 84 83 67 11 0
130 132 127 123 126 124 63 58 56 50 5 0
130 132 127 123 126 117 110 104 74 25 60 0
130 132 127 123 126 120 115 108 79 29 65 0
130 132 127 123 126 98 94 93 69 16 55 0
130 132 127 123 126 46 42 41 35 2 33 0
130 132 127 123 126 88 84 83 67 11 52 0
130 132 127 123 124 117 110 104 74 25 86 0
130 132 127 123 124 120 115 108 79 29 90 0
130 132 127 123 124 98 94 93 69 16 81 0
130 132 127 123 124 46 42 41 35 2 36 0
130 132 127 123 124 63 58 56 50 5 53 0
130 132 127 123 117 110 104 74 25 86 60 0
130 132 127 123 120 115 108 79 29 90 65 0
130 132 127 123 98 94 93 69 16 81 55 0
130 132 127 123 46 42 41 35 2 36 33 0
130 132 127 126 124 117 110 104 74 25 45 0
130 132 127 126 124 120 115 108 79 29 49 0
130 132 127 126 124 98 94 93 69 16 38 0
130 132 127 126 124 88 84 83 67 11 37 0
130 132 127 126 124 63 58 56 50 5 32 0
130 132 127 126 117 110 104 74 25 45 60 0
130 132 127 126 120 115 108 79 29 49 65 0
130 132 127 126 98 94 93 69 16 38 55 0
130 132 127 126 88 84 83 67 11 37 52 0
130 132 127 124 117 110 104 74 25 45 86 0
130 132 127 124 120 115 108 79 29 49 90 0
130 132 127 124 98 94 93 69 16 38 81 0
130 132 127 124 63 58 56 50 5 32 53 0
130 132 127 117 110 104 74 25 45 86 60 0
130 132 127 120 115 108 79 29 49 90 65 0
130 132 127 98 94 93 69 16 38 81 55 0
130 132 123 126 124 117 110 104 74 25 97 0
130 132 123 126 124 120 115 108 79 29 101 0
130 132 123 126 124 46 42 41 35 2 39 0
130 132 123 126 124 88 84 83 67 11 80 0
130 132 123 126 124 63 58 56 50 5 54 0
130 132 123 126 117 110 104 74 25 97 60 0
130 132 123 126 120 115 108 79 29 101 65 0
130 132 123 126 46 42 41 35 2 39 33 0
130 132 123 126 88 84 83 67 11 80 52 0
130 132 123 124 117 110 104 74 25 97 86 0
130 132 123 124 120 115 108 79 29 101 90 0
130 132 123 124 46 42 41 35 2 39 36 0
130 132 123 124 63 58 56 50 5 54 53 0
130 132 123 117 110 104 74 25 97 86 60 0
130 132 123 120 115 108 79 29 101 90 65 0
130 132 123 46 42 41 35 2 39 36 33 0
130 132 126 124 117 110 104 74 25 97 45 0
130 132 126 124 120 115 108 79 29 101 49 0
130 132 126 124 88 84 83 67 11 80 37 0
130 132 126 124 63 58 56 50 5 54 32 0
130 132 126 117 110 104 74 25 97 45 60 0
130 132 126 120 115 108 79 29 101 49 65 0
130 132 126 88 84 83 67 11 80 37 52 0
130 132 124 117 110 104 74 25 97 45 86 0
130 132 124 120 115 108 79 29 101 49 90 0
130 132 124 63 58 56 50 5 54 32 53 0
130 132 117 110 104 74 25 97 45 86 60 0
130 132 120 115 108 79 29 101 49 90 65 0
130 122 127 123 126 124 117 110 104 74 118 0
130 122 127 123 126 124 28 21 17 8 31 0
130 122 127 123 126 124 98 94 93 69 100 0
130 122 127 123 126 124 46 42 41 35 48 0
130 122 127 123 126 124 88 84 83 67 91 0
130 122 127 123 126 124 63 58 56 50 64 0
130 122 127 123 126 117 110 104 74 118 60 0
130 122 127 123 126 28 21 17 8 31 6 0
130 122 127 123 126 98 94 93 69 100 55 0
130 122 127 123 126 46 42 41 35 48 33 0
130 122 127 123 126 88 84 83 67 91 52 0
130 122 127 123 124 117 110 104 74 118 86 0
130 122 127 123 124 28 21 17 8 31 13 0
130 122 127 123 124 98 94 93 69 100 81 0
130 122 127 123 124 46 42 41 35 48 36 0
130 122 127 123 124 63 58 56 50 64 53 0
130 122 127 123 117 110 104 74 118 86 60 0
130 122 127 123 28 21 17 8 31 13 6 0
130 122 127 123 98 94 93 69 100 81 55 0
130 122 127 123 46 42 41 35 48 36 33 0
130 122 127 126 124 117 110 104 74 118 45 0
130 122 127 126 124 28 21 17 8 31 3 0
130 122 127 126 124 98 94 93 69 100 38 0
130 122 127 126 124 88 84 83 67 91 37 0
130 122 127 126 124 63 58 56 50 64 32 0
130 122 127 126 117 110 104 74 118 45 60 0
130 122 127 126 28 21 17 8 31 3 6 0
130 122 127 126 98 94 93 69 100 38 55 0
130 122 127 126 88 84 83 67 91 37 52 0
130 122 127 124 117 110 104 74 118 45 86 0
130 122 127 124 28 21 17 8 31 3 13 0
130 122 127 124 98 94 93 69 100 38 81 0
130 122 127 124 63 58 56 50 64 32 53 0
130 122 127 117 110 104 74 118 45 86 60 0
130 122 127 28 21 17 8 31 3 13 6 0
130 122 127 98 94 93 69 100 38 81 55 0
130 122 123 126 124 117 110 104 74 118 97 0
130 122 123 126 124 28 21 17 8 31 14 0
130 122 123 126 124 46 42 41 35 48 39 0
130 122 123 126 124 88 84 83 67 91 80 0
130 122 123 126 124 63 58 56 50 64 54 0
130 122 123 126 117 110 104 74 118 97 60 0
130 122 123 126 28 21 17 8 31 14 6 0
130 122 123 126 46 42 41 35 48 39 33 0
130 122 123 126 88 84 83 67 91 80 52 0
130 122 123 124 117 110 104 74 118 97 86 0
130 122 123 124 28 21 17 8 31 14 13 0
130 122 123 124 46 42 41 35 48 39 36 0
130 122 123 124 63 58 56 50 64 54 53 0
130 122 123 117 110 104 74 118 97 86 60 0
130 122 123 28 21 17 8 31 14 13 6 0
130 122 123 46 42 41 35 48 39 36 33 0
130 122 126 124 117 110 104 74 118 97 45 0
130 122 126 124 28 21 17 8 31 14 3 0
130 122 126 124 88 84 83 67 91 80 37 0
130 122 126 124 63 58 56 50 64 54 32 0
130 122 126 117 110 104 74 118 97 45 60 0
130 122 126 28 21 17 8 31 14 3 6 0
130 122 126 88 84 83 67 91 80 37 52 0
130 122 124 117 110 104 74 118 97 45 86 0
130 122 124 28 21 17 8 31 14 3 13 0
130 122 124 63 58 56 50 64 54 32 53 0
130 122 117 110 104 74 118 97 45 86 60 0
130 122 28 21 17 8 31 14 3 13 6 0
130 127 123 126 124 117 110 104 74 118 25 0
130 127 123 126 124 98 94 93 69 100 16 0
130 127 123 126 124 46 42 41 35 48 2 0
130 127 123 126 124 88 84 83 67 91 11 0
130 127 123 126 124 63 58 56 50 64 5 0
130 127 123 126 117 110 104 74 118 25 60 0
130 127 123 126 98 94 93 69 100 16 55 0
130 127 123 126 46 42 41 35 48 2 33 0
130 127 123 126 88 84 83 67 91 11 52 0
130 127 123 124 117 110 104 74 118 25 86 0
130 127 123 124 98 94 93 69 100 16 81 0
130 127 123 124 46 42 41 35 48 2 36 0
130 127 123 124 63 58 56 50 64 5 53 0
130 127 123 117 110 104 74 118 25 86 60 0
130 127 123 98 94 93 69 100 16 81 55 0
130 127 123 46 42 41 35 48 2 36 33 0
130 127 126 124 117 110 104 74 118 25 45 0
130 127 126 124 98 94 93 69 100 16 38 0
130 127 126 124 88 84 83 67 91 11 37 0
130 127 126 124 63 58 56 50 64 5 32 0
130 127 126 117 110 104 74 118 25 45 60 0
130 127 126 98 94 93 69 100 16 38 55 0
130 127 126 88 84 83 67 91 11 37 52 0
130 127 124 117 110 104 74 118 25 45 86 0
130 127 124 98 94 93 69 100 16 38 81 0
130 127 124 63 58 56 50 64 5 32 53 0
130 127 117 110 104 74 118 25 45 86 60 0
130 127 98 94 93 69 100 16 38 81 55 0
130 123 126 124 117 110 104 74 118 25 97 0
130 123 126 124 46 42 41 35 48 2 39 0
130 123 126 124 88 84 83 67 91 11 80 0
130 123 126 124 63 58 56 50 64 5 54 0
130 123 126 117 110 104 74 118 25 97 60 0
130 123 126 46 42 41 35 48 2 39 33 0
130 123 126 88 84 83 67 91 11 80 52 0
130 123 124 117 110 104 74 118 25 97 86 0
130 123 124 46 42 41 35 48 2 39 36 0
130 123 124 63 58 56 50 64 5 54 53 0
130 123 117 110 104 74 118 25 97 86 60 0
130 123 46 42 41 35 48 2 39 36 33 0
130 126 124 117 110 104 74 118 25 97 45 0
130 126 124 88 84 83 67 91 11 80 37 0
130 126 124 63 58 56 50 64 5 54 32 0
130 126 117 110 104 74 118 25 97 45 60 0
130 126 88 84 83 67 91 11 80 37 52 0
130 124 117 110 104 74 118 25 97 45 86 0
130 124 63 58 56 50 64 5 54 32 53 0
130 117 110 104 74 118 25 97 45 86 60 0
132 122 127 123 126 124 120 115 108 79 119 0
132 122 127 123 126 124 28 21 17 8 23 0
132 122 127 123 126 124 98 94 93 69 96 0
132 122 127 123 126 124 46 42 41 35 44 0
132 122 127 123 126 124 88 84 83 67 87 0
132 122 127 123 126 124 63 58 56 50 61 0
132 122 127 123 126 120 115 108 79 119 65 0
132 122 127 123 126 28 21 17 8 23 6 0
132 122 127 123 126 98 94 93 69 96 55 0
132 122 127 123 126 46 42 41 35 44 33 0
132 122 127 123 126 88 84 83 67 87 52 0
132 122 127 123 124 120 115 108 79 119 90 0
132 122 127 123 124 28 21 17 8 23 13 0
132 122 127 123 124 98 94 93 69 96 81 0
132 122 127 123 124 46 42 41 35 44 36 0
132 122 127 123 124 63 58 56 50 61 53 0
132 122 127 123 120 115 108 79 119 90 65 0
132 122 127 123 28 21 17 8 23 13 6 0
132 122 127 123 98 94 93 69 96 81 55 0
132 122 127 123 46 42 41 35 44 36 33 0
132 122 127 126 124 120 115 108 79 119 49 0
132 122 127 126 124 28 21 17 8 23 3 0
132 122 127 126 124 98 94 93 69 96 38 0
132 122 127 126 124 88 84 83 67 87 37 0
132 122 127 126 124 63 58 56 50 61 32 0
132 122 127 126 120 115 108 79 119 49 65 0
132 122 127 126 28 21 17 8 23 3 6 0
132 122 127 126 98 94 93 69 96 38 55 0
132 122 127 126 88 84 83 67 87 37 52 0
132 122 127 124 120 115 108 79 119 49 90 0
132 122 127 124 28 21 17 8 23 3 13 0
132 122 127 124 98 94 93 69 96 38 81 0
132 122 127 124 63 58 56 50 61 32 53 0
132 122 127 120 115 108 79 119 49 90 65 0
132 122 127 28 21 17 8 23 3 13 6 0
132 122 127 98 94 93 69 96 38 81 55 0
132 122 123 126 124 120 115 108 79 119 101 0
132 122 123 126 124 28 21 17 8 23 14 0
132 122 123 126 124 46 42 41 35 44 39 0
132 122 123 126 124 88 84 83 67 87 80 0
132 122 123 126 124 63 58 56 50 61 54 0
132 122 123 126 120 115 108 79 119 101 65 0
132 122 123 126 28 21 17 8 23 14 6 0
132 122 123 126 46 42 41 35 44 39 33 0
132 122 123 126 88 84 83 67 87 80 52 0
132 122 123 124 120 115 108 79 119 101 90 0
132 122 123 124 28 21 17 8 23 14 13 0
132 122 123 124 46 42 41 35 44 39 36 0
132 122 123 124 63 58 56 50 61 54 53 0
132 122 123 120 115 108 79 119 101 90 65 0
132 122 123 28 21 17 8 23 14 13 6 0
132 122 123 46 42 41 35 44 39 36 33 0
132 122 126 124 120 115 108 79 119 101 49 0
132 122 126 124 28 21 17 8 23 14 3 0
132 122 126 124 88 84 83 67 87 80 37 0
132 122 126 124 63 58 56 50 61 54 32 0
132 122 126 120 115 108 79 119 101 49 65 0
132 122 126 28 21 17 8 23 14 3 6 0
132 122 126 88 84 83 67 87 80 37 52 0
132 122 124 120 115 108 79 119 101 49 90 0
132 122 124 28 21 17 8 23 14 3 13 0
132 122 124 63 58 56 50 61 54 32 53 0
132 122 120 115 108 79 119 101 49 90 65 0
132 122 28 21 17 8 23 14 3 13 6 0
132 127 123 126 124 120 115 108 79 119 29 0
132 127 123 126 124 98 94 93 69 96 16 0
132 127 123 126 124 46 42 41 35 44 2 0
132 127 123 126 124 88 84 83 67 87 11 0
132 127 123 126 124 63 58 56 50 61 5 0
132 127 123 126 120 115 108 79 119 29 65 0
132 127 123 126 98 94 93 69 96 16 55 0
132 127 123 126 46 42 41 35 44 2 33 0
132 127 123 126 88 84 83 67 87 11 52 0
132 127 123 124 120 115 108 79 119 29 90 0
132 127 123 124 98 94 93 69 96 16 81 0
132 127 123 124 46 42 41 35 44 2 36 0
132 127 123 124 63 58 56 50 61 5 53 0
132 127 123 120 115 108 79 119 29 90 65 0
132 127 123 98 94 93 69 96 16 81 55 0
132 127 123 46 42 41 35 44 2 36 33 0
132 127 126 124 120 115 108 79 119 29 49 0
132 127 126 124 98 94 93 69 96 16 38 0
132 127 126 124 88 84 83 67 87 11 37 0
132 127 126 124 63 58 56 50 61 5 32 0
132 127 126 120 115 108 79 119 29 49 65 0
132 127 126 98 94 93 69 96 16 38 55 0
132 127 126 88 84 83 67 87 11 37 52 0
132 127 124 120 115 108 79 119 29 49 90 0
132 127 124 98 94 93 69 96 16 38 81 0
132 127 124 63 58 56 50 61 5 32 53 0
132 127 120 115 108 79 119 29 49 90 65 0
132 127 98 94 93 69 96 16 38 81 55 0
132 123 126 124 120 115 108 79 119 29 101 0
132 123 126 124 46 42 41 35 44 2 39 0
132 123 126 124 88 84 83 67 87 11 80 0
132 123 126 124 63 58 56 50 61 5 54 0
132 123 126 120 115 108 79 119 29 101 65 0
132 123 126 46 42 41 35 44 2 39 33 0
132 123 126 88 84 83 67 87 11 80 52 0
132 123 124 120 115 108 79 119 29 101 90 0
132 123 124 46 42 41 35 44 2 39 36 0
132 123 124 63 58 56 50 61 5 54 53 0
132 123 120 115 108 79 119 29 101 90 65 0
132 123 46 42 41 35 44 2 39 36 33 0
132 126 124 120 115 108 79 119 29 101 49 0
132 126 124 88 84 83 67 87 11 80 37 0
132 126 124 63 58 56 50 61 5 54 32 0
132 126 120 115 108 79 119 29 101 49 65 0
132 126 88 84 83 67 87 11 80 37 52 0
132 124 120 115 108 79 119 29 101 49 90 0
132 124 63 58 56 50 61 5 54 32 53 0
132 120 115 108 79 119 29 101 49 90 65 0
122 127 123 126 124 28 21 17 8 23 31 0
122 127 123 126 124 98 94 93 69 96 100 0
122 127 123 126 124 46 42 41 35 44 48 0
122 127 123 126 124 88 84 83 67 87 91 0
122 127 123 126 124 63 58 56 50 61 64 0
122 127 123 126 28 21 17 8 23 31 6 0
122 127 123 126 98 94 93 69 96 100 55 0
122 127 123 126 46 42 41 35 44 48 33 0
122 127 123 126 88 84 83 67 87 91 52 0
122 127 123 124 28 21 17 8 23 31 13 0
122 127 123 124 98 94 93 69 96 100 81 0
122 127 123 124 46 42 41 35 44 48 36 0
122 127 123 124 63 58 56 50 61 64 53 0
122 127 123 28 21 17 8 23 31 13 6 0
122 127 123 98 94 93 69 96 100 81 55 0
122 127 123 46 42 41 35 44 48 36 33 0
122 127 126 124 28 21 17 8 23 31 3 0
122 127 126 124 98 94 93 69 96 100 38 0
122 127 126 124 88 84 83 67 87 91 37 0
122 127 126 124 63 58 56 50 61 64 32 0
122 127 126 28 21 17 8 23 31 3 6 0
122 127 126 98 94 93 69 96 100 38 55 0
122 127 126 88 84 83 67 87 91 37 52 0
122 127 124 28 21 17 8 23 31 3 13 0
122 127 124 98 94 93 69 96 100 38 81 0
122 127 124 63 58 56 50 61 64 32 53 0
122 127 28 21 17 8 23 31 3 13 6 0
122 127 98 94 93 69 96 100 38 81 55 0
122 123 126 124 28 21 17 8 23 31 14 0
122 123 126 124 46 42 41 35 44 48 39 0
122 123 126 124 88 84 83 67 87 91 80 0
122 123 126 124 63 58 56 50 61 64 54 0
122 123 126 28 21 17 8 23 31 14 6 0
122 123 126 46 42 41 35 44 48 39 33 0
122 123 126 88 84 83 67 87 91 80 52 0
122 123 124 28 21 17 8 23 31 14 13 0
122 123 124 46 42 41 35 44 48 39 36 0
122 123 124 63 58 56 50 61 64 54 53 0
122 123 28 21 17 8 23 31 14 13 6 0
122 123 46 42 41 35 44 48 39 36 33 0
122 126 124 28 21 17 8 23 31 14 3 0
122 126 124 88 84 83 67 87 91 80 37 0
122 126 124 63 58 56 50 61 64 54 32 0
122 126 28 21 17 8 23 31 14 3 6 0
122 126 88 84 83 67 87 91 80 37 52 0
122 124 28 21 17 8 23 31 14 3 13 0
122 124 63 58 56 50 61 64 54 32 53 0
122 28 21 17 8 23 31 14 3 13 6 0
127 123 126 124 98 94 93 69 96 100 16 0
127 123 126 124 46 42 41 35 44 48 2 0
127 123 126 124 88 84 83 67 87 91 11 0
127 123 126 124 63 58 56 50 61 64 5 0
127 123 126 98 94 93 69 96 100 16 55 0
127 123 126 46 42 41 35 44 48 2 33 0
127 123 126 88 84 83 67 87 91 11 52 0
127 123 124 98 94 93 69 96 100 16 81 0
127 123 124 46 42 41 35 44 48 2 36 0
127 123 124 63 58 56 50 61 64 5 53 0
127 123 98 94 93 69 96 100 16 81 55 0
127 123 46 42 41 35 44 48 2 36 33 0
127 126 124 98 94 93 69 96 100 16 38 0
127 126 124 88 84 83 67 87 91 11 37 0
127 126 124 63 58 56 50 61 64 5 32 0
127 126 98 94 93 69 96 100 16 38 55 0
127 126 88 84 83 67 87 91 11 37 52 0
127 124 98 94 93 69 96 100 16 38 81 0
127 124 63 58 56 50 61 64 5 32 53 0
127 98 94 93 69 96 100 16 38 81 55 0
123 126 124 46 42 41 35 44 48 2 39 0
123 126 124 88 84 83 67 87 91 11 80 0
123 126 124 63 58 56 50 61 64 5 54 0
123 126 46 42 41 35 44 48 2 39 33 0
123 126 88 84 83 67 87 91 11 80 52 0
123 124 46 42 41 35 44 48 2 39 36 0
123 124 63 58 56 50 61 64 5 54 53 0
123 46 42 41 35 44 48 2 39 36 33 0
126 124 88 84 83 67 87 91 11 80 37 0
126 124 63 58 56 50 61 64 5 54 32 0
126 88 84 83 67 87 91 11 80 37 52 0
124 63 58 56 50 61 64 5 54 32 53 0
131 129 128 125 130 132 122 127 123 126 124 27 0
131 129 128 125 130 132 122 127 123 126 124 20 0
131 129 128 125 130 132 122 127 123 126 124 19 0
131 129 128 125 130 132 122 127 123 126 124 10 0
131 129 128 125 130 132 122 127 123 126 124 24 0
131 129 128 125 130 132 122 127 123 126 124 30 0
131 129 128 125 130 132 122 127 123 126 124 1 0
131 129 128 125 130 132 122 127 123 126 124 15 0
131 129 128 125 130 132 122 127 123 126 124 4 0
131 129 128 125 130 132 122 127 123 126 124 12 0
131 129 128 125 130 132 122 127 123 126 124 7 0
131 129 128 125 130 132 122 127 123 126 27 62 0
131 129 128 125 130 132 122 127 123 126 20 59 0
131 129 128 125 130 132 122 127 123 126 19 57 0
131 129 128 125 130 132 122 127 123 126 10 51 0
131 129 128 125 130 132 122 127 123 126 24 60 0
131 129 128 125 130 132 122 127 123 126 30 65 0
131 129 128 125 130 132 122 127 123 126 1 6 0
131 129 128 125 130 132 122 127 123 126 15 55 0
131 129 128 125 130 132 122 127 123 126 4 33 0
131 129 128 125 130 132 122 127 123 126 12 52 0
131 129 128 125 130 132 122 127 123 124 27 89 0
131 129 128 125 130 132 122 127 123 124 20 85 0
131 129 128 125 130 132 122 127 123 124 19 82 0
131 129 128 125 130 132 122 127 123 124 10 66 0
131 129 128 125 130 132 122 127 123 124 24 86 0
131 129 128 125 130 132 122 127 123 124 30 90 0
131 129 128 125 130 132 122 127 123 124 1 13 0
131 129 128 125 130 132 122 127 123 124 15 81 0
131 129 128 125 130 132 122 127 123 124 4 36 0
131 129 128 125 130 132 122 127 123 124 53 7 0
131 129 128 125 130 132 122 127 123 27 89 62 0
131 129 128 125 130 132 122 127 123 20 85 59 0
131 129 128 125 130 132 122 127 123 19 82 57 0
131 129 128 125 130 132 122 127 123 10 66 51 0
131 129 128 125 130 132 122 127 123 24 86 60 0
131 129 128 125 130 132 122 127 123 30 90 65 0
131 129 128 125 130 132 122 127 123 1 13 6 0
131 129 128 125 130 132 122 127 123 15 81 55 0
131 129 128 125 130 132 122 127 123 4 36 33 0
131 129 128 125 130 132 122 127 126 124 27 47 0
131 129 128 125 130 132 122 127 126 124 20 43 0
131 129 128 125 130 132 122 127 126 124 19 40 0
131 129 128 125 130 132 122 127 126 124 10 34 0
131 129 128 125 130 132 122 127 126 124 24 45 0
131 129 128 125 130 132 122 127 126 124 30 49 0
131 129 128 125 130 132 122 127 126 124 1 3 0
131 129 128 125 130 132 122 127 126 124 15 38 0
131 129 128 125 130 132 122 127 126 124 37 12 0
131 129 128 125 130 132 122 127 126 124 32 7 0
131 129 128 125 130 132 122 127 126 27 47 62 0
131 129 128 125 130 132 122 127 126 20 43 59 0
131 129 128 125 130 132 122 127 126 19 40 57 0
131 129 128 125 130 132 122 127 126 10 34 51 0
131 129 128 125 130 132 122 127 126 24 45 60 0
131 129 128 125 130 132 122 127 126 30 49 65 0
131 129 128 125 130 132 122 127 126 1 3 6 0
131 129 128 125 130 132 122 127 126 15 38 55 0
131 129 128 125 130 132 122 127 126 37 12 52 0
131 129 128 125 130 132 122 127 124 27 47 89 0
131 129 128 125 130 132 122 127 124 20 43 85 0
131 129 128 125 130 132 122 127 124 19 40 82 0
131 129 128 125 130 132 122 127 124 10 34 66 0
131 129 128 125 130 132 122 127 124 24 45 86 0
131 129 128 125 130 132 122 127 124 30 49 90 0
131 129 128 125 130 132 122 127 124 1 3 13 0
131 129 128 125 130 132 122 127 124 15 38 81 0
131 129 128 125 130 132 122 127 124 32 53 7 0
131 129 128 125 130 132 122 127 27 47 89 62 0
131 129 128 125 130 132 122 127 20 43 85 59 0
131 129 128 125 130 132 122 127 19 40 82 57 0
131 129 128 125 130 132 122 127 10 34 66 51 0
131 129 128 125 130 132 122 127 24 45 86 60 0
131 129 128 125 130 132 122 127 30 49 90 65 0
131 129 128 125 130 132 122 127 1 3 13 6 0
131 129 128 125 130 132 122 127 15 38 81 55 0
131 129 128 125 130 132 122 123 126 124 27 99 0
131 129 128 125 130 132 122 123 126 124 20 95 0
131 129 128 125 130 132 122 123 126 124 19 92 0
131 129 128 125 130 132 122 123 126 124 10 68 0
131 129 128 125 130 132 122 123 126 124 24 97 0
131 129 128 125 130 132 122 123 126 124 30 101 0
131 129 128 125 130 132 122 123 126 124 1 14 0
131 129 128 125 130 132 122 123 126 124 39 4 0
131 129 128 125 130 132 122 123 126 124 80 12 0
131 129 128 125 130 132 122 123 126 124 54 7 0
131 129 128 125 130 132 122 123 126 27 99 62 0
131 129 128 125 130 132 122 123 126 20 95 59 0
131 129 128 125 130 132 122 123 126 19 92 57 0
131 129 128 125 130 132 122 123 126 10 68 51 0
131 129 128 125 130 132 122 123 126 24 97 60 0
131 129 128 125 130 132 122 123 126 30 101 65 0
131 129 128 125 130 132 122 123 126 1 14 6 0
131 129 128 125 130 132 122 123 126 39 4 33 0
131 129 128 125 130 132 122 123 126 80 12 52 0
131 129 128 125 130 132 122 123 124 27 99 89 0
131 129 128 125 130 132 122 123 124 20 95 85 0
131 129 128 125 130 132 122 123 124 19 92 82 0
131 129 128 125 130 132 122 123 124 10 68 66 0
131 129 128 125 130 132 122 123 124 24 97 86 0
131 129 128 125 130 132 122 123 124 30 101 90 0
131 129 128 125 130 132 122 123 124 1 14 13 0
131 129 128 125 130 132 122 123 124 39 4 36 0
131 129 128 125 130 132 122 123 124 54 53 7 0
131 129 128 125 130 132 122 123 27 99 89 62 0
131 129 128 125 130 132 122 123 20 95 85 59 0
131 129 128 125 130 132 122 123 19 92 82 57 0
131 129 128 125 130 132 122 123 10 68 66 51 0
131 129 128 125 130 132 122 123 24 97 86 60 0
131 129 128 125 130 132 122 123 30 101 90 65 0
131 129 128 125 130 132 122 123 1 14 13 6 0
131 129 128 125 130 132 122 123 39 4 36 33 0
131 129 128 125 130 132 122 126 124 27 99 47 0
131 129 128 125 130 132 122 126 124 20 95 43 0
131 129 128 125 130 132 122 126 124 19 92 40 0
131 129 128 125 130 132 122 126 124 10 68 34 0
131 129 128 125 130 132 122 126 124 24 97 45 0
131 129 128 125 130 132 122 126 124 30 101 49 0
131 129 128 125 130 132 122 126 124 1 14 3 0
131 129 128 125 130 132 122 126 124 80 37 12 0
131 129 128 125 130 132 122 126 124 54 32 7 0
131 129 128 125 130 132 122 126 27 99 47 62 0
131 129 128 125 130 132 122 126 20 95 43 59 0
131 129 128 125 130 132 122 126 19 92 40 57 0
131 129 128 125 130 132 122 126 10 68 34 51 0
131 129 128 125 130 132 122 126 24 97 45 60 0
131 129 128 125 130 132 122 126 30 101 49 65 0
131 129 128 125 130 132 122 126 1 14 3 6 0
131 129 128 125 130 132 122 126 80 37 12 52 0
131 129 128 125 130 132 122 124 27 99 47 89 0
131 129 128 125 130 132 122 124 20 95 43 85 0
131 129 128 125 130 132 122 124 19 92 40 82 0
131 129 128 125 130 132 122 124 10 68 34 66 0
131 129 128 125 130 132 122 124 24 97 45 86 0
131 129 128 125 130 132 122 124 30 101 49 90 0
131 129 128 125 130 132 122 124 1 14 3 13 0
131 129 128 125 130 132 122 124 54 32 53 7 0
131 129 128 125 130 132 122 27 99 47 89 62 0
131 129 128 125 130 132 122 20 95 43 85 59 0
131 129 128 125 130 132 122 19 92 40 82 57 0
131 129 128 125 130 132 122 10 68 34 66 51 0
131 129 128 125 130 132 122 24 97 45 86 60 0
131 129 128 125 130 132 122 30 101 49 90 65 0
131 129 128 125 130 132 122 1 14 3 13 6 0
131 129 128 125 130 132 127 123 126 124 27 26 0
131 129 128 125 130 132 127 123 126 124 20 22 0
131 129 128 125 130 132 127 123 126 124 19 18 0
131 129 128 125 130 132 127 123 126 124 10 9 0
131 129 128 125 130 132 127 123 126 124 24 25 0
131 129 128 125 130 132 127 123 126 124 30 29 0
131 129 128 125 130 132 127 123 126 124 16 15 0
131 129 128 125 130 132 127 123 126 124 2 4 0
131 129 128 125 130 132 127 123 126 124 11 12 0
131 129 128 125 130 132 127 123 126 124 5 7 0
131 129 128 125 130 132 127 123 126 27 26 62 0
131 129 128 125 130 132 127 123 126 20 22 59 0
131 129 128 125 130 132 127 123 126 19 18 57 0
131 129 128 125 130 132 127 123 126 10 9 51 0
131 129 128 125 130 132 127 123 126 24 25 60 0
131 129 128 125 130 132 127 123 126 30 29 65 0
131 129 128 125 130 132 127 123 126 16 15 55 0
131 129 128 125 130 132 127 123 126 2 4 33 0
131 129 128 125 130 132 127 123 126 11 12 52 0
131 129 128 125 130 132 127 123 124 27 26 89 0
131 129 128 125 130 132 127 123 124 20 22 85 0
131 129 128 125 130 132 127 123 124 19 18 82 0
131 129 128 125 130 132 127 123 124 10 9 66 0
131 129 128 125 130 132 127 123 124 24 25 86 0
131 129 128 125 130 132 127 123 124 30 29 90 0
131 129 128 125 130 132 127 123 124 16 15 81 0
131 129 128 125 130 132 127 123 124 2 4 36 0
131 129 128 125 130 132 127 123 124 5 53 7 0
131 129 128 125 130 132 127 123 27 26 89 62 0
131 129 128 125 130 132 127 123 20 22 85 59 0
131 129 128 125 130 132 127 123 19 18 82 57 0
131 129 128 125 130 132 127 123 10 9 66 51 0
131 129 128 125 130 132 127 123 24 25 86 60 0
131 129 128 125 130 132 127 123 30 29 90 65 0
131 129 128 125 130 132 127 123 16 15 81 55 0
131 129 128 125 130 132 127 123 2 4 36 33 0
131 129 128 125 130 132 127 126 124 27 26 47 0
131 129 128 125 130 132 127 126 124 20 22 43 0
131 129 128 125 130 132 127 126 124 19 18 40 0
131 129 128 125 130 132 127 126 124 10 9 34 0
131 129 128 125 130 132 127 126 124 24 25 45 0
131 129 128 125 130 132 127 126 124 30 29 49 0
131 129 128 125 130 132 127 126 124 16 15 38 0
131 129 128 125 130 132 127 126 124 11 37 12 0
131 129 128 125 130 132 127 126 124 5 32 7 0
131 129 128 125 130 132 127 126 27 26 47 62 0
131 129 128 125 130 132 127 126 20 22 43 59 0
131 129 128 125 130 132 127 126 19 18 40 57 0
131 129 128 125 130 132 127 126 10 9 34 51 0
131 129 128 125 130 132 127 126 24 25 45 60 0
131 129 128 125 130 132 127 126 30 29 49 65 0
131 129 128 125 130 132 127 126 16 15 38 55 0
131 129 128 125 130 132 127 126 11 37 12 52 0
131 129 128 125 130 132 127 124 27 26 47 89 0
131 129 128 125 130 132 127 124 20 22 43 85 0
131 129 128 125 130 132 127 124 19 18 40 82 0
131 129 128 125 130 132 127 124 10 9 34 66 0
131 129 128 125 130 132 127 124 24 25 45 86 0
131 129 128 125 130 132 127 124 30 29 49 90 0
131 129 128 125 130 132 127 124 16 15 38 81 0
131 129 128 125 130 132 127 124 5 32 53 7 0
131 129 128 125 130 132 127 27 26 47 89 62 0
131 129 128 125 130 132 127 20 22 43 85 59 0
131 129 128 125 130 132 127 19 18 40 82 57 0
131 129 128 125 130 132 127 10 9 34 66 51 0
131 129 128 125 130 132 127 24 25 45 86 60 0
131 129 128 125 130 132 127 30 29 49 90 65 0
131 129 128 125 130 132 127 16 15 38 81 55 0
131 129 128 125 130 132 123 126 124 27 26 99 0
131 129 128 125 130 132 123 126 124 20 22 95 0
131 129 128 125 130 132 123 126 124 19 18 92 0
131 129 128 125 130 132 123 126 124 10 9 68 0
131 129 128 125 130 132 123 126 124 24 25 97 0
131 129 128 125 130 132 123 126 124 30 29 101 0
131 129 128 125 130 132 123 126 124 2 39 4 0
131 129 128 125 130 132 123 126 124 11 80 12 0
131 129 128 125 130 132 123 126 124 5 54 7 0
131 129 128 125 130 132 123 126 27 26 99 62 0
131 129 128 125 130 132 123 126 20 22 95 59 0
131 129 128 125 130 132 123 126 19 18 92 57 0
131 129 128 125 130 132 123 126 10 9 68 51 0
131 129 128 125 130 132 123 126 24 25 97 60 0
131 129 128 125 130 132 123 126 30 29 101 65 0
131 129 128 125 130 132 123 126 2 39 4 33 0
131 129 128 125 130 132 123 126 11 80 12 52 0
131 129 128 125 130 132 123 124 27 26 99 89 0
131 129 128 125 130 132 123 124 20 22 95 85 0
131 129 128 125 130 132 123 124 19 18 92 82 0
131 129 128 125 130 132 123 124 10 9 68 66 0
131 129 128 125 130 132 123 124 24 25 97 86 0
131 129 128 125 130 132 123 124 30 29 101 90 0
131 129 128 125 130 132 123 124 2 39 4 36 0
131 129 128 125 130 132 123 124 5 54 53 7 0
131 129 128 125 130 132 123 27 26 99 89 62 0
131 129 128 125 130 132 123 20 22 95 85 59 0
131 129 128 125 130 132 123 19 18 92 82 57 0
131 129 128 125 130 132 123 10 9 68 66 51 0
131 129 128 125 130 132 123 24 25 97 86 60 0
131 129 128 125 130 132 123 30 29 101 90 65 0
131 129 128 125 130 132 123 2 39 4 36 33 0
131 129 128 125 130 132 126 124 27 26 99 47 0
131 129 128 125 130 132 126 124 20 22 95 43 0
131 129 128 125 130 132 126 124 19 18 92 40 0
131 129 128 125 130 132 126 124 10 9 68 34 0
131 129 128 125 130 132 126 124 24 25 97 45 0
131 129 128 125 130 132 126 124 30 29 101 49 0
131 129 128 125 130 132 126 124 11 80 37 12 0
131 129 128 125 130 132 126 124 5 54 32 7 0
131 129 128 125 130 132 126 27 26 99 47 62 0
131 129 128 125 130 132 126 20 22 95 43 59 0
131 129 128 125 130 132 126 19 18 92 40 57 0
131 129 128 125 130 132 126 10 9 68 34 51 0
131 129 128 125 130 132 126 24 25 97 45 60 0
131 129 128 125 130 132 126 30 29 101 49 65 0
131 129 128 125 130 132 126 11 80 37 12 52 0
131 129 128 125 130 132 124 27 26 99 47 89 0
131 129 128 125 130 132 124 20 22 95 43 85 0
131 129 128 125 130 132 124 19 18 92 40 82 0
131 129 128 125 130 132 124 10 9 68 34 66 0
131 129 128 125 130 132 124 24 25 97 45 86 0
131 129 128 125 130 132 124 30 29 101 49 90 0
131 129 128 125 130 132 124 5 54 32 53 7 0
131 129 128 125 130 132 27 26 99 47 89 62 0
131 129 128 125 130 132 20 22 95 43 85 59 0
131 129 128 125 130 132 19 18 92 40 82 57 0
131 129 128 125 130 132 10 9 68 34 66 51 0
131 129 128 125 130 132 24 25 97 45 86 60 0
131 129 128 125 130 132 30 29 101 49 90 65 0
131 129 128 125 130 122 127 123 126 124 27 121 0
131 129 128 125 130 122 127 123 126 124 20 114 0
131 129 128 125 130 122 127 123 126 124 19 109 0
131 129 128 125 130 122 127 123 126 124 10 78 0
131 129 128 125 130 122 127 123 126 124 24 118 0
131 129 128 125 130 122 127 123 126 124 31 1 0
131 129 128 125 130 122 127 123 126 124 100 15 0
131 129 128 125 130 122 127 123 126 124 48 4 0
131 129 128 125 130 122 127 123 126 124 91 12 0
131 129 128 125 130 122 127 123 126 124 64 7 0
131 129 128 125 130 122 127 123 126 27 121 62 0
131 129 128 125 130 122 127 123 126 20 114 59 0
131 129 128 125 130 122 127 123 126 19 109 57 0
131 129 128 125 130 122 127 123 126 10 78 51 0
131 129 128 125 130 122 127 123 126 24 118 60 0
131 129 128 125 130 122 127 123 126 31 1 6 0
131 129 128 125 130 122 127 123 126 100 15 55 0
131 129 128 125 130 122 127 123 126 48 4 33 0
131 129 128 125 130 122 127 123 126 91 12 52 0
131 129 128 125 130 122 127 123 124 27 121 89 0
131 129 128 125 130 122 127 123 124 20 114 85 0
131 129 128 125 130 122 127 123 124 19 109 82 0
131 129 128 125 130 122 127 123 124 10 78 66 0
131 129 128 125 130 122 127 123 124 24 118 86 0
131 129 128 125 130 122 127 123 124 31 1 13 0
131 129 128 125 130 122 127 123 124 100 15 81 0
131 129 128 125 130 122 127 123 124 48 4 36 0
131 129 128 125 130 122 127 123 124 64 53 7 0
131 129 128 125 130 122 127 123 27 121 89 62 0
131 129 128 125 130 122 127 123 20 114 85 59 0
131 129 128 125 130 122 127 123 19 109 82 57 0
131 129 128 125 130 122 127 123 10 78 66 51 0
131 129 128 125 130 122 127 123 24 118 86 60 0
131 129 128 125 130 122 127 123 31 1 13 6 0
131 129 128 125 130 122 127 123 100 15 81 55 0
131 129 128 125 130 122 127 123 48 4 36 33 0
131 129 128 125 130 122 127 126 124 27 121 47 0
131 129 128 125 130 122 127 126 124 20 114 43 0
131 129 128 125 130 122 127 126 124 19 109 40 0
131 129 128 125 130 122 127 126 124 10 78 34 0
131 129 128 125 130 122 127 126 124 24 118 45 0
131 129 128 125 130 122 127 126 124 31 1 3 0
131 129 128 125 130 122 127 126 124 100 15 38 0
131 129 128 125 130 122 127 126 124 91 37 12 0
131 129 128 125 130 122 127 126 124 64 32 7 0
131 129 128 125 130 122 127 126 27 121 47 62 0
131 129 128 125 130 122 127 126 20 114 43 59 0
131 129 128 125 130 122 127 126 19 109 40 57 0
131 129 128 125 130 122 127 126 10 78 34 51 0
131 129 128 125 130 122 127 126 24 118 45 60 0
131 129 128 125 130 122 127 126 31 1 3 6 0
131 129 128 125 130 122 127 126 100 15 38 55 0
131 129 128 125 130 122 127 126 91 37 12 52 0
131 129 128 125 130 122 127 124 27 121 47 89 0
131 129 128 125 130 122 127 124 20 114 43 85 0
131 129 128 125 130 122 127 124 19 109 40 82 0
131 129 128 125 130 122 127 124 10 78 34 66 0
131 129 128 125 130 122 127 124 24 118 45 86 0
131 129 128 125 130 122 127 124 31 1 3 13 0
131 129 128 125 130 122 127 124 100 15 38 81 0
131 129 128 125 130 122 127 124 64 32 53 7 0
131 129 128 125 130 122 127 27 121 47 89 62 0
131 129 128 125 130 122 127 20 114 43 85 59 0
131 129 128 125 130 122 127 19 109 40 82 57 0
131 129 128 125 130 122 127 10 78 34 66 51 0
131 129 128 125 130 122 127 24 118 45 86 60 0
131 129 128 125 130 122 127 31 1 3 13 6 0
131 129 128 125 130 122 127 100 15 38 81 55 0
131 129 128 125 130 122 123 126 124 27 121 99 0
131 129 128 125 130 122 123 126 124 20 114 95 0
131 129 128 125 130 122 123 126 124 19 109 92 0
131 129 128 125 130 122 123 126 124 10 78 68 0
131 129 128 125 130 122 123 126 124 24 118 97 0
131 129 128 125 130 122 123 126 124 31 1 14 0
131 129 128 125 130 122 123 126 124 48 39 4 0
131 129 128 125 130 122 123 126 124 91 80 12 0
131 129 128 125 130 122 123 126 124 64 54 7 0
131 129 128 125 130 122 123 126 27 121 99 62 0
131 129 128 125 130 122 123 126 20 114 95 59 0
131 129 128 125 130 122 123 126 19 109 92 57 0
131 129 128 125 130 122 123 126 10 78 68 51 0
131 129 128 125 130 122 123 126 24 118 97 60 0
131 129 128 125 130 122 123 126 31 1 14 6 0
131 129 128 125 130 122 123 126 48 39 4 33 0
131 129 128 125 130 122 123 126 91 80 12 52 0
131 129 128 125 130 122 123 124 27 121 99 89 0
131 129 128 125 130 122 123 124 20 114 95 85 0
131 129 128 125 130 122 123 124 19 109 92 82 0
131 129 128 125 130 122 123 124 10 78 68 66 0
131 129 128 125 130 122 123 124 24 118 97 86 0
131 129 128 125 130 122 123 124 31 1 14 13 0
131 129 128 125 130 122 123 124 48 39 4 36 0
131 129 128 125 130 122 123 124 64 54 53 7 0
131 129 128 125 130 122 123 27 121 99 89 62 0
131 129 128 125 130 122 123 20 114 95 85 59 0
131 129 128 125 130 122 123 19 109 92 82 57 0
131 129 128 125 130 122 123 10 78 68 66 51 0
131 129 128 125 130 122 123 24 118 97 86 60 0
131 129 128 125 130 122 123 31 1 14 13 6 0
131 129 128 125 130 122 123 48 39 4 36 33 0
131 129 128 125 130 122 126 124 27 121 99 47 0
131 129 128 125 130 122 126 124 20 114 95 43 0
131 129 128 125 130 122 126 124 19 109 92 40 0
131 129 128 125 130 122 126 124 10 78 68 34 0
131 129 128 125 130 122 126 124 24 118 97 45 0
131 129 128 125 130 122 126 124 31 1 14 3 0
131 129 128 125 130 122 126 124 91 80 37 12 0
131 129 128 125 130 122 126 124 64 54 32 7 0
131 129 128 125 130 122 126 27 121 99 47 62 0
131 129 128 125 130 122 126 20 114 95 43 59 0
131 129 128 125 130 122 126 19 109 92 40 57 0
131 129 128 125 130 122 126 10 78 68 34 51 0
131 129 128 125 130 122 126 24 118 97 45 60 0
131 129 128 125 130 122 126 31 1 14 3 6 0
131 129 128 125 130 122 126 91 80 37 12 52 0
131 129 128 125 130 122 124 27 121 99 47 89 0
131 129 128 125 130 122 124 20 114 95 43 85 0
131 129 128 125 130 122 124 19 109 92 40 82 0
131 129 128 125 130 122 124 10 78 68 34 66 0
131 129 128 125 130 122 124 24 118 97 45 86 0
131 129 128 125 130 122 124 31 1 14 3 13 0
131 129 128 125 130 122 124 64 54 32 53 7 0
131 129 128 125 130 122 27 121 99 47 89 62 0
131 129 128 125 130 122 20 114 95 43 85 59 0
131 129 128 125 130 122 19 109 92 40 82 57 0
131 129 128 125 130 122 10 78 68 34 66 51 0
131 129 128 125 130 122 24 118 97 45 86 60 0
131 129 128 125 130 122 31 1 14 3 13 6 0
131 129 128 125 130 127 123 126 124 27 121 26 0
131 129 128 125 130 127 123 126 124 20 114 22 0
131 129 128 125 130 127 123 126 124 19 109 18 0
131 129 128 125 130 127 123 126 124 10 78 9 0
131 129 128 125 130 127 123 126 124 24 118 25 0
131 129 128 125 130 127 123 126 124 100 16 15 0
131 129 128 125 130 127 123 126 124 48 2 4 0
131 129 128 125 130 127 123 126 124 91 11 12 0
131 129 128 125 130 127 123 126 124 64 5 7 0
131 129 128 125 130 127 123 126 27 121 26 62 0
131 129 128 125 130 127 123 126 20 114 22 59 0
131 129 128 125 130 127 123 126 19 109 18 57 0
131 129 128 125 130 127 123 126 10 78 9 51 0
131 129 128 125 130 127 123 126 24 118 25 60 0
131 129 128 125 130 127 123 126 100 16 15 55 0
131 129 128 125 130 127 123 126 48 2 4 33 0
131 129 128 125 130 127 123 126 91 11 12 52 0
131 129 128 125 130 127 123 124 27 121 26 89 0
131 129 128 125 130 127 123 124 20 114 22 85 0
131 129 128 125 130 127 123 124 19 109 18 82 0
131 129 128 125 130 127 123 124 10 78 9 66 0
131 129 128 125 130 127 123 124 24 118 25 86 0
131 129 128 125 130 127 123 124 100 16 15 81 0
131 129 128 125 130 127 123 124 48 2 4 36 0
131 129 128 125 130 127 123 124 64 5 53 7 0
131 129 128 125 130 127 123 27 121 26 89 62 0
131 129 128 125 130 127 123 20 114 22 85 59 0
131 129 128 125 130 127 123 19 109 18 82 57 0
131 129 128 125 130 127 123 10 78 9 66 51 0
131 129 128 125 130 127 123 24 118 25 86 60 0
131 129 128 125 130 127 123 100 16 15 81 55 0
131 129 128 125 130 127 123 48 2 4 36 33 0
131 129 128 125 130 127 126 124 27 121 26 47 0
131 129 128 125 130 127 126 124 20 114 22 43 0
131 129 128 125 130 127 126 124 19 109 18 40 0
131 129 128 125 130 127 126 124 10 78 9 34 0
131 129 128 125 130 127 126 124 24 118 25 45 0
131 129 128 125 130 127 126 124 100 16 15 38 0
131 129 128 125 130 127 126 124 91 11 37 12 0
131 129 128 125 130 127 126 124 64 5 32 7 0
131 129 128 125 130 127 126 27 121 26 47 62 0
131 129 128 125 130 127 126 20 114 22 43 59 0
131 129 128 125 130 127 126 19 109 18 40 57 0
131 129 128 125 130 127 126 10 78 9 34 51 0
131 129 128 125 130 127 126 24 118 25 45 60 0
131 129 128 125 130 127 126 100 16 15 38 55 0
131 129 128 125 130 127 126 91 11 37 12 52 0
131 129 128 125 130 127 124 27 121 26 47 89 0
131 129 128 125 130 127 124 20 114 22 43 85 0
131 129 128 125 130 127 124 19 109 18 40 82 0
131 129 128 125 130 127 124 10 78 9 34 66 0
131 129 128 125 130 127 124 24 118 25 45 86 0
131 129 128 125 130 127 124 100 16 15 38 81 0
131 129 128 125 130 127 124 64 5 32 53 7 0
131 129 128 125 130 127 27 121 26 47 89 62 0
131 129 128 125 130 127 20 114 22 43 85 59 0
131 129 128 125 130 127 19 109 18 40 82 57 0
131 129 128 125 130 127 10 78 9 34 66 51 0
131 129 128 125 130 127 24 118 25 45 86 60 0
131 129 128 125 130 127 100 16 15 38 81 55 0
131 129 128 125 130 123 126 124 27 121 26 99 0
131 129 128 125 130 123 126 124 20 114 22 95 0
131 129 128 125 130 123 126 124 19 109 18 92 0
131 129 128 125 130 123 126 124 10 78 9 68 0
131 129 128 125 130 123 126 124 24 118 25 97 0
131 129 128 125 130 123 126 124 48 2 39 4 0
131 129 128 125 130 123 126 124 91 11 80 12 0
131 129 128 125 130 123 126 124 64 5 54 7 0
131 129 128 125 130 123 126 27 121 26 99 62 0
131 129 128 125 130 123 126 20 114 22 95 59 0
131 129 128 125 130 123 126 19 109 18 92 57 0
131 129 128 125 130 123 126 10 78 9 68 51 0
131 129 128 125 130 123 126 24 118 25 97 60 0
131 129 128 125 130 123 126 48 2 39 4 33 0
131 129 128 125 130 123 126 91 11 80 12 52 0
131 129 128 125 130 123 124 27 121 26 99 89 0
131 129 128 125 130 123 124 20 114 22 95 85 0
131 129 128 125 130 123 124 19 109 18 92 82 0
131 129 128 125 130 123 124 10 78 9 68 66 0
131 129 128 125 130 123 124 24 118 25 97 86 0
131 129 128 125 130 123 124 48 2 39 4 36 0
131 129 128 125 130 123 124 64 5 54 53 7 0
131 129 128 125 130 123 27 121 26 99 89 62 0
131 129 128 125 130 123 20 114 22 95 85 59 0
131 129 128 125 130 123 19 109 18 92 82 57 0
131 129 128 125 130 123 10 78 9 68 66 51 0
131 129 128 125 130 123 24 118 25 97 86 60 0
131 129 128 125 130 123 48 2 39 4 36 33 0
131 129 128 125 130 126 124 27 121 26 99 47 0
131 129 128 125 130 126 124 20 114 22 95 43 0
131 129 128 125 130 126 124 19 109 18 92 40 0
131 129 128 125 130 126 124 10 78 9 68 34 0
131 129 128 125 130 126 124 24 118 25 97 45 0
131 129 128 125 130 126 124 91 11 80 37 12 0
131 129 128 125 130 126 124 64 5 54 32 7 0
131 129 128 125 130 126 27 121 26 99 47 62 0
131 129 128 125 130 126 20 114 22 95 43 59 0
131 129 128 125 130 126 19 109 18 92 40 57 0
131 129 128 125 130 126 10 78 9 68 34 51 0
131 129 128 125 130 126 24 118 25 97 45 60 0
131 129 128 125 130 126 91 11 80 37 12 52 0
131 129 128 125 130 124 27 121 26 99 47 89 0
131 129 128 125 130 124 20 114 22 95 43 85 0
131 129 128 125 130 124 19 109 18 92 40 82 0
131 129 128 125 130 124 10 78 9 68 34 66 0
131 129 128 125 130 124 24 118 25 97 45 86 0
131 129 128 125 130 124 64 5 54 32 53 7 0
131 129 128 125 130 27 121 26 99 47 89 62 0
131 129 128 125 130 20 114 22 95 43 85 59 0
131 129 128 125 130 19 109 18 92 40 82 57 0
131 129 128 125 130 10 78 9 68 34 66 51 0
131 129 128 125 130 24 118 25 97 45 86 60 0
131 129 128 125 132 122 127 123 126 124 27 116 0
131 129 128 125 132 122 127 123 126 124 20 111 0
131 129 128 125 132 122 127 123 126 124 19 105 0
131 129 128 125 132 122 127 123 126 124 10 75 0
131 129 128 125 132 122 127 123 126 124 119 30 0
131 129 128 125 132 122 127 123 126 124 23 1 0
131 129 128 125 132 122 127 123 126 124 96 15 0
131 129 128 125 132 122 127 123 126 124 44 4 0
131 129 128 125 132 122 127 123 126 124 87 12 0
131 129 128 125 132 122 127 123 126 124 61 7 0
131 129 128 125 132 122 127 123 126 27 116 62 0
131 129 128 125 132 122 127 123 126 20 111 59 0
131 129 128 125 132 122 127 123 126 19 105 57 0
131 129 128 125 132 122 127 123 126 10 75 51 0
131 129 128 125 132 122 127 123 126 119 30 65 0
131 129 128 125 132 122 127 123 126 23 1 6 0
131 129 128 125 132 122 127 123 126 96 15 55 0
131 129 128 125 132 122 127 123 126 44 4 33 0
131 129 128 125 132 122 127 123 126 87 12 52 0
131 129 128 125 132 122 127 123 124 27 116 89 0
131 129 128 125 132 122 127 123 124 20 111 85 0
131 129 128 125 132 122 127 123 124 19 105 82 0
131 129 128 125 132 122 127 123 124 10 75 66 0
131 129 128 125 132 122 127 123 124 119 30 90 0
131 129 128 125 132 122 127 123 124 23 1 13 0
131 129 128 125 132 122 127 123 124 96 15 81 0
131 129 128 125 132 122 127 123 124 44 4 36 0
131 129 128 125 132 122 127 123 124 61 53 7 0
131 129 128 125 132 122 127 123 27 116 89 62 0
131 129 128 125 132 122 127 123 20 111 85 59 0
131 129 128 125 132 122 127 123 19 105 82 57 0
131 129 128 125 132 122 127 123 10 75 66 51 0
131 129 128 125 132 122 127 123 119 30 90 65 0
131 129 128 125 132 122 127 123 23 1 13 6 0
131 129 128 125 132 122 127 123 96 15 81 55 0
131 129 128 125 132 122 127 123 44 4 36 33 0
131 129 128 125 132 122 127 126 124 27 116 47 0
131 129 128 125 132 122 127 126 124 20 111 43 0
131 129 128 125 132 122 127 126 124 19 105 40 0
131 129 128 125 132 122 127 126 124 10 75 34 0
131 129 128 125 132 122 127 126 124 119 30 49 0
131 129 128 125 132 122 127 126 124 23 1 3 0
131 129 128 125 132 122 127 126 124 96 15 38 0
131 129 128 125 132 122 127 126 124 87 37 12 0
131 129 128 125 132 122 127 126 124 61 32 7 0
131 129 128 125 132 122 127 126 27 116 47 62 0
131 129 128 125 132 122 127 126 20 111 43 59 0
131 129 128 125 132 122 127 126 19 105 40 57 0
131 129 128 125 132 122 127 126 10 75 34 51 0
131 129 128 125 132 122 127 126 119 30 49 65 0
131 129 128 125 132 122 127 126 23 1 3 6 0
131 129 128 125 132 122 127 126 96 15 38 55 0
131 129 128 125 132 122 127 126 87 37 12 52 0
131 129 128 125 132 122 127 124 27 116 47 89 0
131 129 128 125 132 122 127 124 20 111 43 85 0
131 129 128 125 132 122 127 124 19 105 40 82 0
131 129 128 125 132 122 127 124 10 75 34 66 0
131 129 128 125 132 122 127 124 119 30 49 90 0
131 129 128 125 132 122 127 124 23 1 3 13 0
131 129 128 125 132 122 127 124 96 15 38 81 0
131 129 128 125 132 122 127 124 61 32 53 7 0
131 129 128 125 132 122 127 27 116 47 89 62 0
131 129 128 125 132 122 127 20 111 43 85 59 0
131 129 128 125 132 122 127 19 105 40 82 57 0
131 129 128 125 132 122 127 10 75 34 66 51 0
131 129 128 125 132 122 127 119 30 49 90 65 0
131 129 128 125 132 122 127 23 1 3 13 6 0
131 129 128 125 132 122 127 96 15 38 81 55 0
131 129 128 125 132 122 123 126 124 27 116 99 0
131 129 128 125 132 122 123 126 124 20 111 95 0
131 129 128 125 132 122 123 126 124 19 105 92 0
131 129 128 125 132 122 123 126 124 10 75 68 0
131 129 128 125 132 122 123 126 124 119 30 101 0
131 129 128 125 132 122 123 126 124 23 1 14 0
131 129 128 125 132 122 123 126 124 44 39 4 0
131 129 128 125 132 122 123 126 124 87 80 12 0
131 129 128 125 132 122 123 126 124 61 54 7 0
131 129 128 125 132 122 123 126 27 116 99 62 0
131 129 128 125 132 122 123 126 20 111 95 59 0
131 129 128 125 132 122 123 126 19 105 92 57 0
131 129 128 125 132 122 123 126 10 75 68 51 0
131 129 128 125 132 122 123 126 119 30 101 65 0
131 129 128 125 132 122 123 126 23 1 14 6 0
131 129 128 125 132 122 123 126 44 39 4 33 0
131 129 128 125 132 122 123 126 87 80 12 52 0
131 129 128 125 132 122 123 124 27 116 99 89 0
131 129 128 125 132 122 123 124 20 111 95 85 0
131 129 128 125 132 122 123 124 19 105 92 82 0
131 129 128 125 132 122 123 124 10 75 68 66 0
131 129 128 125 132 122 123 124 119 30 101 90 0
131 129 128 125 132 122 123 124 23 1 14 13 0
131 129 128 125 132 122 123 124 44 39 4 36 0
131 129 128 125 132 122 123 124 61 54 53 7 0
131 129 128 125 132 122 123 27 116 99 89 62 0
131 129 128 125 132 122 123 20 111 95 85 59 0
131 129 128 125 132 122 123 19 105 92 82 57 0
131 129 128 125 132 122 123 10 75 68 66 51 0
131 129 128 125 132 122 123 119 30 101 90 65 0
131 129 128 125 132 122 123 23 1 14 13 6 0
131 129 128 125 132 122 123 44 39 4 36 33 0
131 129 128 125 132 122 126 124 27 116 99 47 0
131 129 128 125 132 122 126 124 20 111 95 43 0
131 129 128 125 132 122 126 124 19 105 92 40 0
131 129 128 125 132 122 126 124 10 75 68 34 0
131 129 128 125 132 122 126 124 119 30 101 49 0
131 129 128 125 132 122 126 124 23 1 14 3 0
131 129 128 125 132 122 126 124 87 80 37 12 0
131 129 128 125 132 122 126 124 61 54 32 7 0
131 129 128 125 132 122 126 27 116 99 47 62 0
131 129 128 125 132 122 126 20 111 95 43 59 0
131 129 128 125 132 122 126 19 105 92 40 57 0
131 129 128 125 132 122 126 10 75 68 34 51 0
131 129 128 125 132 122 126 119 30 101 49 65 0
131 129 128 125 132 122 126 23 1 14 3 6 0
131 129 128 125 132 122 126 87 80 37 12 52 0
131 129 128 125 132 122 124 27 116 99 47 89 0
131 129 128 125 132 122 124 20 111 95 43 85 0
131 129 128 125 132 122 124 19 105 92 40 82 0
131 129 128 125 132 122 124 10 75 68 34 66 0
131 129 128 125 132 122 124 119 30 101 49 90 0
131 129 128 125 132 122 124 23 1 14 3 13 0
131 129 128 125 132 122 124 61 54 32 53 7 0
131 129 128 125 132 122 27 116 99 47 89 62 0
131 129 128 125 132 122 20 111 95 43 85 59 0
131 129 128 125 132 122 19 105 92 40 82 57 0
131 129 128 125 132 122 10 75 68 34 66 51 0
131 129 128 125 132 122 119 30 101 49 90 65 0
131 129 128 125 132 122 23 1 14 3 13 6 0
131 129 128 125 132 127 123 126 124 27 116 26 0
131 129 128 125 132 127 123 126 124 20 111 22 0
131 129 128 125 132 127 123 126 124 19 105 18 0
131 129 128 125 132 127 123 126 124 10 75 9 0
131 129 128 125 132 127 123 126 124 119 30 29 0
131 129 128 125 132 127 123 126 124 96 16 15 0
131 129 128 125 132 127 123 126 124 44 2 4 0
131 129 128 125 132 127 123 126 124 87 11 12 0
131 129 128 125 132 127 123 126 124 61 5 7 0
131 129 128 125 132 127 123 126 27 116 26 62 0
131 129 128 125 132 127 123 126 20 111 22 59 0
131 129 128 125 132 127 123 126 19 105 18 57 0
131 129 128 125 132 127 123 126 10 75 9 51 0
131 129 128 125 132 127 123 126 119 30 29 65 0
131 129 128 125 132 127 123 126 96 16 15 55 0
131 129 128 125 132 127 123 126 44 2 4 33 0
131 129 128 125 132 127 123 126 87 11 12 52 0
131 129 128 125 132 127 123 124 27 116 26 89 0
131 129 128 125 132 127 123 124 20 111 22 85 0
131 129 128 125 132 127 123 124 19 105 18 82 0
131 129 128 125 132 127 123 124 10 75 9 66 0
131 129 128 125 132 127 123 124 119 30 29 90 0
131 129 128 125 132 127 123 124 96 16 15 81 0
131 129 128 125 132 127 123 124 44 2 4 36 0
131 129 128 125 132 127 123 124 61 5 53 7 0
131 129 128 125 132 127 123 27 116 26 89 62 0
131 129 128 125 132 127 123 20 111 22 85 59 0
131 129 128 125 132 127 123 19 105 18 82 57 0
131 129 128 125 132 127 123 10 75 9 66 51 0
131 129 128 125 132 127 123 119 30 29 90 65 0
131 129 128 125 132 127 123 96 16 15 81 55 0
131 129 128 125 132 127 123 44 2 4 36 33 0
131 129 128 125 132 127 126 124 27 116 26 47 0
131 129 128 125 132 127 126 124 20 111 22 43 0
131 129 128 125 132 127 126 124 19 105 18 40 0
131 129 128 125 132 127 126 124 10 75 9 34 0
131 129 128 125 132 127 126 124 119 30 29 49 0
131 129 128 125 132 127 126 124 96 16 15 38 0
131 129 128 125 132 127 126 124 87 11 37 12 0
131 129 128 125 132 127 126 124 61 5 32 7 0
131 129 128 125 132 127 126 27 116 26 47 62 0
131 129 128 125 132 127 126 20 111 22 43 59 0
131 129 128 125 132 127 126 19 105 18 40 57 0
131 129 128 125 132 127 126 10 75 9 34 51 0
131 129 128 125 132 127 126 119 30 29 49 65 0
131 129 128 125 132 127 126 96 16 15 38 55 0
131 129 128 125 132 127 126 87 11 37 12 52 0
131 129 128 125 132 127 124 27 116 26 47 89 0
131 129 128 125 132 127 124 20 111 22 43 85 0
131 129 128 125 132 127 124 19 105 18 40 82 0
131 129 128 125 132 127 124 10 75 9 34 66 0
131 129 128 125 132 127 124 119 30 29 49 90 0
131 129 128 125 132 127 124 96 16 15 38 81 0
131 129 128 125 132 127 124 61 5 32 53 7 0
131 129 128 125 132 127 27 116 26 47 89 62 0
131 129 128 125 132 127 20 111 22 43 85 59 0
131 129 128 125 132 127 19 105 18 40 82 57 0
131 129 128 125 132 127 10 75 9 34 66 51 0
131 129 128 125 132 127 119 30 29 49 90 65 0
131 129 128 125 132 127 96 16 15 38 81 55 0
131 129 128 125 132 123 126 124 27 116 26 99 0
131 129 128 125 132 123 126 124 20 111 22 95 0
131 129 128 125 132 123 126 124 19 105 18 92 0
131 129 128 125 132 123 126 124 10 75 9 68 0
131 129 128 125 132 123 126 124 119 30 29 101 0
131 129 128 125 132 123 126 124 44 2 39 4 0
131 129 128 125 132 123 126 124 87 11 80 12 0
131 129 128 125 132 123 126 124 61 5 54 7 0
131 129 128 125 132 123 126 27 116 26 99 62 0
131 129 128 125 132 123 126 20 111 22 95 59 0
131 129 128 125 132 123 126 19 105 18 92 57 0
131 129 128 125 132 123 126 10 75 9 68 51 0
131 129 128 125 132 123 126 119 30 29 101 65 0
131 129 128 125 132 123 126 44 2 39 4 33 0
131 129 128 125 132 123 126 87 11 80 12 52 0
131 129 128 125 132 123 124 27 116 26 99 89 0
131 129 128 125 132 123 124 20 111 22 95 85 0
131 129 128 125 132 123 124 19 105 18 92 82 0
131 129 128 125 132 123 124 10 75 9 68 66 0
131 129 128 125 132 123 124 119 30 29 101 90 0
131 129 128 125 132 123 124 44 2 39 4 36 0
131 129 128 125 132 123 124 61 5 54 53 7 0
131 129 128 125 132 123 27 116 26 99 89 62 0
131 129 128 125 132 123 20 111 22 95 85 59 0
131 129 128 125 132 123 19 105 18 92 82 57 0
131 129 128 125 132 123 10 75 9 68 66 51 0
131 129 128 125 132 123 119 30 29 101 90 65 0
131 129 128 125 132 123 44 2 39 4 36 33 0
131 129 128 125 132 126 124 27 116 26 99 47 0
131 129 128 125 132 126 124 20 111 22 95 43 0
131 129 128 125 132 126 124 19 105 18 92 40 0
131 129 128 125 132 126 124 10 75 9 68 34 0
131 129 128 125 132 126 124 119 30 29 101 49 0
131 129 128 125 132 126 124 87 11 80 37 12 0
131 129 128 125 132 126 124 61 5 54 32 7 0
131 129 128 125 132 126 27 116 26 99 47 62 0
131 129 128 125 132 126 20 111 22 95 43 59 0
131 129 128 125 132 126 19 105 18 92 40 57 0
131 129 128 125 132 126 10 75 9 68 34 51 0
131 129 128 125 132 126 119 30 29 101 49 65 0
131 129 128 125 132 126 87 11 80 37 12 52 0
131 129 128 125 132 124 27 116 26 99 47 89 0
131 129 128 125 132 124 20 111 22 95 43 85 0
131 129 128 125 132 124 19 105 18 92 40 82 0
131 129 128 125 132 124 10 75 9 68 34 66 0
131 129 128 125 132 124 119 30 29 101 49 90 0
131 129 128 125 132 124 61 5 54 32 53 7 0
131 129 128 125 132 27 116 26 99 47 89 62 0
131 129 128 125 132 20 111 22 95 43 85 59 0
131 129 128 125 132 19 105 18 92 40 82 57 0
131 129 128 125 132 10 75 9 68 34 66 51 0
131 129 128 125 132 119 30 29 101 49 90 65 0
131 129 128 125 122 127 123 126 124 27 116 121 0
131 129 128 125 122 127 123 126 124 20 111 114 0
131 129 128 125 122 127 123 126 124 19 105 109 0
131 129 128 125 122 127 123 126 124 10 75 78 0
131 129 128 125 122 127 123 126 124 23 31 1 0
131 129 128 125 122 127 123 126 124 96 100 15 0
131 129 128 125 122 127 123 126 124 44 48 4 0
131 129 128 125 122 127 123 126 124 87 91 12 0
131 129 128 125 122 127 123 126 124 61 64 7 0
131 129 128 125 122 127 123 126 27 116 121 62 0
131 129 128 125 122 127 123 126 20 111 114 59 0
131 129 128 125 122 127 123 126 19 105 109 57 0
131 129 128 125 122 127 123 126 10 75 78 51 0
131 129 128 125 122 127 123 126 23 31 1 6 0
131 129 128 125 122 127 123 126 96 100 15 55 0
131 129 128 125 122 127 123 126 44 48 4 33 0
131 129 128 125 122 127 123 126 87 91 12 52 0
131 129 128 125 122 127 123 124 27 116 121 89 0
131 129 128 125 122 127 123 124 20 111 114 85 0
131 129 128 125 122 127 123 124 19 105 109 82 0
131 129 128 125 122 127 123 124 10 75 78 66 0
131 129 128 125 122 127 123 124 23 31 1 13 0
131 129 128 125 122 127 123 124 96 100 15 81 0
131 129 128 125 122 127 123 124 44 48 4 36 0
131 129 128 125 122 127 123 124 61 64 53 7 0
131 129 128 125 122 127 123 27 116 121 89 62 0
131 129 128 125 122 127 123 20 111 114 85 59 0
131 129 128 125 122 127 123 19 105 109 82 57 0
131 129 128 125 122 127 123 10 75 78 66 51 0
131 129 128 125 122 127 123 23 31 1 13 6 0
131 129 128 125 122 127 123 96 100 15 81 55 0
131 129 128 125 122 127 123 44 48 4 36 33 0
131 129 128 125 122 127 126 124 27 116 121 47 0
131 129 128 125 122 127 126 124 20 111 114 43 0
131 129 128 125 122 127 126 124 19 105 109 40 0
131 129 128 125 122 127 126 124 10 75 78 34 0
131 129 128 125 122 127 126 124 23 31 1 3 0
131 129 128 125 122 127 126 124 96 100 15 38 0
131 129 128 125 122 127 126 124 87 91 37 12 0
131 129 128 125 122 127 126 124 61 64 32 7 0
131 129 128 125 122 127 126 27 116 121 47 62 0
131 129 128 125 122 127 126 20 111 114 43 59 0
131 129 128 125 122 127 126 19 105 109 40 57 0
131 129 128 125 122 127 126 10 75 78 34 51 0
131 129 128 125 122 127 126 23 31 1 3 6 0
131 129 128 125 122 127 126 96 100 15 38 55 0
131 129 128 125 122 127 126 87 91 37 12 52 0
131 129 128 125 122 127 124 27 116 121 47 89 0
131 129 128 125 122 127 124 20 111 114 43 85 0
131 129 128 125 122 127 124 19 105 109 40 82 0
131 129 128 125 122 127 124 10 75 78 34 66 0
131 129 128 125 122 127 124 23 31 1 3 13 0
131 129 128 125 122 127 124 96 100 15 38 81 0
131 129 128 125 122 127 124 61 64 32 53 7 0
131 129 128 125 122 127 27 116 121 47 89 62 0
131 129 128 125 122 127 20 111 114 43 85 59 0
131 129 128 125 122 127 19 105 109 40 82 57 0
131 129 128 125 122 127 10 75 78 34 66 51 0
131 129 128 125 122 127 23 31 1 3 13 6 0
131 129 128 125 122 127 96 100 15 38 81 55 0
131 129 128 125 122 123 126 124 27 116 121 99 0
131 129 128 125 122 123 126 124 20 111 114 95 0
131 129 128 125 122 123 126 124 19 105 109 92 0
131 129 128 125 122 123 126 124 10 75 78 68 0
131 129 128 125 122 123 126 124 23 31 1 14 0
131 129 128 125 122 123 126 124 44 48 39 4 0
131 129 128 125 122 123 126 124 87 91 80 12 0
131 129 128 125 122 123 126 124 61 64 54 7 0
131 129 128 125 122 123 126 27 116 121 99 62 0
131 129 128 125 122 123 126 20 111 114 95 59 0
131 129 128 125 122 123 126 19 105 109 92 57 0
131 129 128 125 122 123 126 10 75 78 68 51 0
131 129 128 125 122 123 126 23 31 1 14 6 0
131 129 128 125 122 123 126 44 48 39 4 33 0
131 129 128 125 122 123 126 87 91 80 12 52 0
131 129 128 125 122 123 124 27 116 121 99 89 0
131 129 128 125 122 123 124 20 111 114 95 85 0
131 129 128 125 122 123 124 19 105 109 92 82 0
131 129 128 125 122 123 124 10 75 78 68 66 0
131 129 128 125 122 123 124 23 31 1 14 13 0
131 129 128 125 122 123 124 44 48 39 4 36 0
131 129 128 125 122 123 124 61 64 54 53 7 0
131 129 128 125 122 123 27 116 121 99 89 62 0
131 129 128 125 122 123 20 111 114 95 85 59 0
131 129 128 125 122 123 19 105 109 92 82 57 0
131 129 128 125 122 123 10 75 78 68 66 51 0
131 129 128 125 122 123 23 31 1 14 13 6 0
131 129 128 125 122 123 44 48 39 4 36 33 0
131 129 128 125 122 126 124 27 116 121 99 47 0
131 129 128 125 122 126 124 20 111 114 95 43 0
131 129 128 125 122 126 124 19 105 109 92 40 0
131 129 128 125 122 126 124 10 75 78 68 34 0
131 129 128 125 122 126 124 23 31 1 14 3 0
131 129 128 125 122 126 124 87 91 80 37 12 0
131 129 128 125 122 126 124 61 64 54 32 7 0
131 129 128 125 122 126 27 116 121 99 47 62 0
131 129 128 125 122 126 20 111 114 95 43 59 0
131 129 128 125 122 126 19 105 109 92 40 57 0
131 129 128 125 122 126 10 75 78 68 34 51 0
131 129 128 125 122 126 23 31 1 14 3 6 0
131 129 128 125 122 126 87 91 80 37 12 52 0
131 129 128 125 122 124 27 116 121 99 47 89 0
131 129 128 125 122 124 20 111 114 95 43 85 0
131 129 128 125 122 124 19 105 109 92 40 82 0
131 129 128 125 122 124 10 75 78 68 34 66 0
131 129 128 125 122 124 23 31 1 14 3 13 0
131 129 128 125 122 124 61 64 54 32 53 7 0
131 129 128 125 122 27 116 121 99 47 89 62 0
131 129 128 125 122 20 111 114 95 43 85 59 0
131 129 128 125 122 19 105 109 92 40 82 57 0
131 129 128 125 122 10 75 78 68 34 66 51 0
131 129 128 125 122 23 31 1 14 3 13 6 0
131 129 128 125 127 123 126 124 27 116 121 26 0
131 129 128 125 127 123 126 124 20 111 114 22 0
131 129 128 125 127 123 126 124 19 105 109 18 0
131 129 128 125 127 123 126 124 10 75 78 9 0
131 129 128 125 127 123 126 124 96 100 16 15 0
131 129 128 125 127 123 126 124 44 48 2 4 0
131 129 128 125 127 123 126 124 87 91 11 12 0
131 129 128 125 127 123 126 124 61 64 5 7 0
131 129 128 125 127 123 126 27 116 121 26 62 0
131 129 128 125 127 123 126 20 111 114 22 59 0
131 129 128 125 127 123 126 19 105 109 18 57 0
131 129 128 125 127 123 126 10 75 78 9 51 0
131 129 128 125 127 123 126 96 100 16 15 55 0
131 129 128 125 127 123 126 44 48 2 4 33 0
131 129 128 125 127 123 126 87 91 11 12 52 0
131 129 128 125 127 123 124 27 116 121 26 89 0
131 129 128 125 127 123 124 20 111 114 22 85 0
131 129 128 125 127 123 124 19 105 109 18 82 0
131 129 128 125 127 123 124 10 75 78 9 66 0
131 129 128 125 127 123 124 96 100 16 15 81 0
131 129 128 125 127 123 124 44 48 2 4 36 0
131 129 128 125 127 123 124 61 64 5 53 7 0
131 129 128 125 127 123 27 116 121 26 89 62 0
131 129 128 125 127 123 20 111 114 22 85 59 0
131 129 128 125 127 123 19 105 109 18 82 57 0
131 129 128 125 127 123 10 75 78 9 66 51 0
131 129 128 125 127 123 96 100 16 15 81 55 0
131 129 128 125 127 123 44 48 2 4 36 33 0
131 129 128 125 127 126 124 27 116 121 26 47 0
131 129 128 125 127 126 124 20 111 114 22 43 0
131 129 128 125 127 126 124 19 105 109 18 40 0
131 129 128 125 127 126 124 10 75 78 9 34 0
131 129 128 125 127 126 124 96 100 16 15 38 0
131 129 128 125 127 126 124 87 91 11 37 12 0
131 129 128 125 127 126 124 61 64 5 32 7 0
131 129 128 125 127 126 27 116 121 26 47 62 0
131 129 128 125 127 126 20 111 114 22 43 59 0
131 129 128 125 127 126 19 105 109 18 40 57 0
131 129 128 125 127 126 10 75 78 9 34 51 0
131 129 128 125 127 126 96 100 16 15 38 55 0
131 129 128 125 127 126 87 91 11 37 12 52 0
131 129 128 125 127 124 27 116 121 26 47 89 0
131 129 128 125 127 124 20 111 114 22 43 85 0
131 129 128 125 127 124 19 105 109 18 40 82 0
131 129 128 125 127 124 10 75 78 9 34 66 0
131 129 128 125 127 124 96 100 16 15 38 81 0
131 129 128 125 127 124 61 64 5 32 53 7 0
131 129 128 125 127 27 116 121 26 47 89 62 0
131 129 128 125 127 20 111 114 22 43 85 59 0
131 129 128 125 127 19 105 109 18 40 82 57 0
131 129 128 125 127 10 75 78 9 34 66 51 0
131 129 128 125 127 96 100 16 15 38 81 55 0
131 129 128 125 123 126 124 27 116 121 26 99 0
131 129 128 125 123 126 124 20 111 114 22 95 0
131 129 128 125 123 126 124 19 105 109 18 92 0
131 129 128 125 123 126 124 10 75 78 9 68 0
131 129 128 125 123 126 124 44 48 2 39 4 0
131 129 128 125 123 126 124 87 91 11 80 12 0
131 129 128 125 123 126 124 61 64 5 54 7 0
131 129 128 125 123 126 27 116 121 26 99 62 0
131 129 128 125 123 126 20 111 114 22 95 59 0
131 129 128 125 123 126 19 105 109 18 92 57 0
131 129 128 125 123 126 10 75 78 9 68 51 0
131 129 128 125 123 126 44 48 2 39 4 33 0
131 129 128 125 123 126 87 91 11 80 12 52 0
131 129 128 125 123 124 27 116 121 26 99 89 0
131 129 128 125 123 124 20 111 114 22 95 85 0
131 129 128 125 123 124 19 105 109 18 92 82 0
131 129 128 125 123 124 10 75 78 9 68 66 0
131 129 128 125 123 124 44 48 2 39 4 36 0
131 129 128 125 123 124 61 64 5 54 53 7 0
131 129 128 125 123 27 116 121 26 99 89 62 0
131 129 128 125 123 20 111 114 22 95 85 59 0
131 129 128 125 123 19 105 109 18 92 82 57 0
131 129 128 125 123 10 75 78 9 68 66 51 0
131 129 128 125 123 44 48 2 39 4 36 33 0
131 129 128 125 126 124 27 116 121 26 99 47 0
131 129 128 125 126 124 20 111 114 22 95 43 0
131 129 128 125 126 124 19 105 109 18 92 40 0
131 129 128 125 126 124 10 75 78 9 68 34 0
131 129 128 125 126 124 87 91 11 80 37 12 0
131 129 128 125 126 124 61 64 5 54 32 7 0
131 129 128 125 126 27 116 121 26 99 47 62 0
131 129 128 125 126 20 111 114 22 95 43 59 0
131 129 128 125 126 19 105 109 18 92 40 57 0
131 129 128 125 126 10 75 78 9 68 34 51 0
131 129 128 125 126 87 91 11 80 37 12 52 0
131 129 128 125 124 27 116 121 26 99 47 89 0
131 129 128 125 124 20 111 114 22 95 43 85 0
131 129 128 125 124 19 105 109 18 92 40 82 0
131 129 128 125 124 10 75 78 9 68 34 66 0
131 129 128 125 124 61 64 5 54 32 53 7 0
131 129 128 125 27 116 121 26 99 47 89 62 0
131 129 128 125 20 111 114 22 95 43 85 59 0
131 129 128 125 19 105 109 18 92 40 82 57 0
131 129 128 125 10 75 78 9 68 34 66 51 0
131 129 128 130 132 122 127 123 126 124 27 76 0
131 129 128 130 132 122 127 123 126 124 20 72 0
131 129 128 130 132 122 127 123 126 124 19 70 0
131 129 128 130 132 122 127 123 126 124 74 24 0
131 129 128 130 132 122 127 123 126 124 79 30 0
131 129 128 130 132 122 127 123 126 124 8 1 0
131 129 128 130 132 122 127 123 126 124 69 15 0
131 129 128 130 132 122 127 123 126 124 35 4 0
131 129 128 130 132 122 127 123 126 124 67 12 0
131 129 128 130 132 122 127 123 126 124 50 7 0
131 129 128 130 132 122 127 123 126 27 76 62 0
131 129 128 130 132 122 127 123 126 20 72 59 0
131 129 128 130 132 122 127 123 126 19 70 57 0
131 129 128 130 132 122 127 123 126 74 24 60 0
131 129 128 130 132 122 127 123 126 79 30 65 0
131 129 128 130 132 122 127 123 126 8 1 6 0
131 129 128 130 132 122 127 123 126 69 15 55 0
131 129 128 130 132 122 127 123 126 35 4 33 0
131 129 128 130 132 122 127 123 126 67 12 52 0
131 129 128 130 132 122 127 123 124 27 76 89 0
131 129 128 130 132 122 127 123 124 20 72 85 0
131 129 128 130 132 122 127 123 124 19 70 82 0
131 129 128 130 132 122 127 123 124 74 24 86 0
131 129 128 130 132 122 127 123 124 79 30 90 0
131 129 128 130 132 122 127 123 124 8 1 13 0
131 129 128 130 132 122 127 123 124 69 15 81 0
131 129 128 130 132 122 127 123 124 35 4 36 0
131 129 128 130 132 122 127 123 124 50 53 7 0
131 129 128 130 132 122 127 123 27 76 89 62 0
131 129 128 130 132 122 127 123 20 72 85 59 0
131 129 128 130 132 122 127 123 19 70 82 57 0
131 129 128 130 132 122 127 123 74 24 86 60 0
131 129 128 130 132 122 127 123 79 30 90 65 0
131 129 128 130 132 122 127 123 8 1 13 6 0
131 129 128 130 132 122 127 123 69 15 81 55 0
131 129 128 130 132 122 127 123 35 4 36 33 0
131 129 128 130 132 122 127 126 124 27 76 47 0
131 129 128 130 132 122 127 126 124 20 72 43 0
131 129 128 130 132 122 127 126 124 19 70 40 0
131 129 128 130 132 122 127 126 124 74 24 45 0
131 129 128 130 132 122 127 126 124 79 30 49 0
131 129 128 130 132 122 127 126 124 8 1 3 0
131 129 128 130 132 122 127 126 124 69 15 38 0
131 129 128 130 132 122 127 126 124 67 37 12 0
131 129 128 130 132 122 127 126 124 50 32 7 0
131 129 128 130 132 122 127 126 27 76 47 62 0
131 129 128 130 132 122 127 126 20 72 43 59 0
131 129 128 130 132 122 127 126 19 70 40 57 0
131 129 128 130 132 122 127 126 74 24 45 60 0
131 129 128 130 132 122 127 126 79 30 49 65 0
131 129 128 130 132 122 127 126 8 1 3 6 0
131 129 128 130 132 122 127 126 69 15 38 55 0
131 129 128 130 132 122 127 126 67 37 12 52 0
131 129 128 130 132 122 127 124 27 76 47 89 0
131 129 128 130 132 122 127 124 20 72 43 85 0
131 129 128 130 132 122 127 124 19 70 40 82 0
131 129 128 130 132 122 127 124 74 24 45 86 0
131 129 128 130 132 122 127 124 79 30 49 90 0
131 129 128 130 132 122 127 124 8 1 3 13 0
131 129 128 130 132 122 127 124 69 15 38 81 0
131 129 128 130 132 122 127 124 50 32 53 7 0
131 129 128 130 132 122 127 27 76 47 89 62 0
131 129 128 130 132 122 127 20 72 43 85 59 0
131 129 128 130 132 122 127 19 70 40 82 57 0
131 129 128 130 132 122 127 74 24 45 86 60 0
131 129 128 130 132 122 127 79 30 49 90 65 0
131 129 128 130 132 122 127 8 1 3 13 6 0
131 129 128 130 132 122 127 69 15 38 81 55 0
131 129 128 130 132 122 123 126 124 27 76 99 0
131 129 128 130 132 122 123 126 124 20 72 95 0
131 129 128 130 132 122 123 126 124 19 70 92 0
131 129 128 130 132 122 123 126 124 74 24 97 0
131 129 128 130 132 122 123 126 124 79 30 101 0
131 129 128 130 132 122 123 126 124 8 1 14 0
131 129 128 130 132 122 123 126 124 35 39 4 0
131 129 128 130 132 122 123 126 124 67 80 12 0
131 129 128 130 132 122 123 126 124 50 54 7 0
131 129 128 130 132 122 123 126 27 76 99 62 0
131 129 128 130 132 122 123 126 20 72 95 59 0
131 129 128 130 132 122 123 126 19 70 92 57 0
131 129 128 130 132 122 123 126 74 24 97 60 0
131 129 128 130 132 122 123 126 79 30 101 65 0
131 129 128 130 132 122 123 126 8 1 14 6 0
131 129 128 130 132 122 123 126 35 39 4 33 0
131 129 128 130 132 122 123 126 67 80 12 52 0
131 129 128 130 132 122 123 124 27 76 99 89 0
131 129 128 130 132 122 123 124 20 72 95 85 0
131 129 128 130 132 122 123 124 19 70 92 82 0
131 129 128 130 132 122 123 124 74 24 97 86 0
131 129 128 130 132 122 123 124 79 30 101 90 0
131 129 128 130 132 122 123 124 8 1 14 13 0
131 129 128 130 132 122 123 124 35 39 4 36 0
131 129 128 130 132 122 123 124 50 54 53 7 0
131 129 128 130 132 122 123 27 76 99 89 62 0
131 129 128 130 132 122 123 20 72 95 85 59 0
131 129 128 130 132 122 123 19 70 92 82 57 0
131 129 128 130 132 122 123 74 24 97 86 60 0
131 129 128 130 132 122 123 79 30 101 90 65 0
131 129 128 130 132 122 123 8 1 14 13 6 0
131 129 128 130 132 122 123 35 39 4 36 33 0
131 129 128 130 132 122 126 124 27 76 99 47 0
131 129 128 130 132 122 126 124 20 72 95 43 0
131 129 128 130 132 122 126 124 19 70 92 40 0
131 129 128 130 132 122 126 124 74 24 97 45 0
131 129 128 130 132 122 126 124 79 30 101 49 0
131 129 128 130 132 122 126 124 8 1 14 3 0
131 129 128 130 132 122 126 124 67 80 37 12 0
131 129 128 130 132 122 126 124 50 54 32 7 0
131 129 128 130 132 122 126 27 76 99 47 62 0
131 129 128 130 132 122 126 20 72 95 43 59 0
131 129 128 130 132 122 126 19 70 92 40 57 0
131 129 128 130 132 122 126 74 24 97 45 60 0
131 129 128 130 132 122 126 79 30 101 49 65 0
131 129 128 130 132 122 126 8 1 14 3 6 0
131 129 128 130 132 122 126 67 80 37 12 52 0
131 129 128 130 132 122 124 27 76 99 47 89 0
131 129 128 130 132 122 124 20 72 95 43 85 0
131 129 128 130 132 122 124 19 70 92 40 82 0
131 129 128 130 132 122 124 74 24 97 45 86 0
131 129 128 130 132 122 124 79 30 101 49 90 0
131 129 128 130 132 122 124 8 1 14 3 13 0
131 129 128 130 132 122 124 50 54 32 53 7 0
131 129 128 130 132 122 27 76 99 47 89 62 0
131 129 128 130 132 122 20 72 95 43 85 59 0
131 129 128 130 132 122 19 70 92 40 82 57 0
131 129 128 130 132 122 74 24 97 45 86 60 0
131 129 128 130 132 122 79 30 101 49 90 65 0
131 129 128 130 132 122 8 1 14 3 13 6 0
131 129 128 130 132 127 123 126 124 27 76 26 0
131 129 128 130 132 127 123 126 124 20 72 22 0
131 129 128 130 132 127 123 126 124 19 70 18 0
131 129 128 130 132 127 123 126 124 74 24 25 0
131 129 128 130 132 127 123 126 124 79 30 29 0
131 129 128 130 132 127 123 126 124 69 16 15 0
131 129 128 130 132 127 123 126 124 35 2 4 0
131 129 128 130 132 127 123 126 124 67 11 12 0
131 129 128 130 132 127 123 126 124 50 5 7 0
131 129 128 130 132 127 123 126 27 76 26 62 0
131 129 128 130 132 127 123 126 20 72 22 59 0
131 129 128 130 132 127 123 126 19 70 18 57 0
131 129 128 130 132 127 123 126 74 24 25 60 0
131 129 128 130 132 127 123 126 79 30 29 65 0
131 129 128 130 132 127 123 126 69 16 15 55 0
131 129 128 130 132 127 123 126 35 2 4 33 0
131 129 128 130 132 127 123 126 67 11 12 52 0
131 129 128 130 132 127 123 124 27 76 26 89 0
131 129 128 130 132 127 123 124 20 72 22 85 0
131 129 128 130 132 127 123 124 19 70 18 82 0
131 129 128 130 132 127 123 124 74 24 25 86 0
131 129 128 130 132 127 123 124 79 30 29 90 0
131 129 128 130 132 127 123 124 69 16 15 81 0
131 129 128 130 132 127 123 124 35 2 4 36 0
131 129 128 130 132 127 123 124 50 5 53 7 0
131 129 128 130 132 127 123 27 76 26 89 62 0
131 129 128 130 132 127 123 20 72 22 85 59 0
131 129 128 130 132 127 123 19 70 18 82 57 0
131 129 128 130 132 127 123 74 24 25 86 60 0
131 129 128 130 132 127 123 79 30 29 90 65 0
131 129 128 130 132 127 123 69 16 15 81 55 0
131 129 128 130 132 127 123 35 2 4 36 33 0
131 129 128 130 132 127 126 124 27 76 26 47 0
131 129 128 130 132 127 126 124 20 72 22 43 0
131 129 128 130 132 127 126 124 19 70 18 40 0
131 129 128 130 132 127 126 124 74 24 25 45 0
131 129 128 130 132 127 126 124 79 30 29 49 0
131 129 128 130 132 127 126 124 69 16 15 38 0
131 129 128 130 132 127 126 124 67 11 37 12 0
131 129 128 130 132 127 126 124 50 5 32 7 0
131 129 128 130 132 127 126 27 76 26 47 62 0
131 129 128 130 132 127 126 20 72 22 43 59 0
131 129 128 130 132 127 126 19 70 18 40 57 0
131 129 128 130 132 127 126 74 24 25 45 60 0
131 129 128 130 132 127 126 79 30 29 49 65 0
131 129 128 130 132 127 126 69 16 15 38 55 0
131 129 128 130 132 127 126 67 11 37 12 52 0
131 129 128 130 132 127 124 27 76 26 47 89 0
131 129 128 130 132 127 124 20 72 22 43 85 0
131 129 128 130 132 127 124 19 70 18 40 82 0
131 129 128 130 132 127 124 74 24 25 45 86 0
131 129 128 130 132 127 124 79 30 29 49 90 0
131 129 128 130 132 127 124 69 16 15 38 81 0
131 129 128 130 132 127 124 50 5 32 53 7 0
131 129 128 130 132 127 27 76 26 47 89 62 0
131 129 128 130 132 127 20 72 22 43 85 59 0
131 129 128 130 132 127 19 70 18 40 82 57 0
131 129 128 130 132 127 74 24 25 45 86 60 0
131 129 128 130 132 127 79 30 29 49 90 65 0
131 129 128 130 132 127 69 16 15 38 81 55 0
131 129 128 130 132 123 126 124 27 76 26 99 0
131 129 128 130 132 123 126 124 20 72 22 95 0
131 129 128 130 132 123 126 124 19 70 18 92 0
131 129 128 130 132 123 126 124 74 24 25 97 0
131 129 128 130 132 123 126 124 79 30 29 101 0
131 129 128 130 132 123 126 124 35 2 39 4 0
131 129 128 130 132 123 126 124 67 11 80 12 0
131 129 128 130 132 123 126 124 50 5 54 7 0
131 129 128 130 132 123 126 27 76 26 99 62 0
131 129 128 130 132 123 126 20 72 22 95 59 0
131 129 128 130 132 123 126 19 70 18 92 57 0
131 129 128 130 132 123 126 74 24 25 97 60 0
131 129 128 130 132 123 126 79 30 29 101 65 0
131 129 128 130 132 123 126 35 2 39 4 33 0
131 129 128 130 132 123 126 67 11 80 12 52 0
131 129 128 130 132 123 124 27 76 26 99 89 0
131 129 128 130 132 123 124 20 72 22 95 85 0
131 129 128 130 132 123 124 19 70 18 92 82 0
131 129 128 130 132 123 124 74 24 25 97 86 0
131 129 128 130 132 123 124 79 30 29 101 90 0
131 129 128 130 132 123 124 35 2 39 4 36 0
131 129 128 130 132 123 124 50 5 54 53 7 0
131 129 128 130 132 123 27 76 26 99 89 62 0
131 129 128 130 132 123 20 72 22 95 85 59 0
131 129 128 130 132 123 19 70 18 92 82 57 0
131 129 128 130 132 123 74 24 25 97 86 60 0
131 129 128 130 132 123 79 30 29 101 90 65 0
131 129 128 130 132 123 35 2 39 4 36 33 0
131 129 128 130 132 126 124 27 76 26 99 47 0
131 129 128 130 132 126 124 20 72 22 95 43 0
131 129 128 130 132 126 124 19 70 18 92 40 0
131 129 128 130 132 126 124 74 24 25 97 45 0
131 129 128 130 132 126 124 79 30 29 101 49 0
131 129 128 130 132 126 124 67 11 80 37 12 0
131 129 128 130 132 126 124 50 5 54 32 7 0
131 129 128 130 132 126 27 76 26 99 47 62 0
131 129 128 130 132 126 20 72 22 95 43 59 0
131 129 128 130 132 126 19 70 18 92 40 57 0
131 129 128 130 132 126 74 24 25 97 45 60 0
131 129 128 130 132 126 79 30 29 101 49 65 0
131 129 128 130 132 126 67 11 80 37 12 52 0
131 129 128 130 132 124 27 76 26 99 47 89 0
131 129 128 130 132 124 20 72 22 95 43 85 0
131 129 128 130 132 124 19 70 18 92 40 82 0
131 129 128 130 132 124 74 24 25 97 45 86 0
131 129 128 130 132 124 79 30 29 101 49 90 0
131 129 128 130 132 124 50 5 54 32 53 7 0
131 129 128 130 132 27 76 26 99 47 89 62 0
131 129 128 130 132 20 72 22 95 43 85 59 0
131 129 128 130 132 19 70 18 92 40 82 57 0
131 129 128 130 132 74 24 25 97 45 86 60 0
131 129 128 130 132 79 30 29 101 49 90 65 0
131 129 128 130 122 127 123 126 124 27 76 121 0
131 129 128 130 122 127 123 126 124 20 72 114 0
131 129 128 130 122 127 123 126 124 19 70 109 0
131 129 128 130 122 127 123 126 124 74 24 118 0
131 129 128 130 122 127 123 126 124 8 31 1 0
131 129 128 130 122 127 123 126 124 69 100 15 0
131 129 128 130 122 127 123 126 124 35 48 4 0
131 129 128 130 122 127 123 126 124 67 91 12 0
131 129 128 130 122 127 123 126 124 50 64 7 0
131 129 128 130 122 127 123 126 27 76 121 62 0
131 129 128 130 122 127 123 126 20 72 114 59 0
131 129 128 130 122 127 123 126 19 70 109 57 0
131 129 128 130 122 127 123 126 74 24 118 60 0
131 129 128 130 122 127 123 126 8 31 1 6 0
131 129 128 130 122 127 123 126 69 100 15 55 0
131 129 128 130 122 127 123 126 35 48 4 33 0
131 129 128 130 122 127 123 126 67 91 12 52 0
131 129 128 130 122 127 123 124 27 76 121 89 0
131 129 128 130 122 127 123 124 20 72 114 85 0
131 129 128 130 122 127 123 124 19 70 109 82 0
131 129 128 130 122 127 123 124 74 24 118 86 0
131 129 128 130 122 127 123 124 8 31 1 13 0
131 129 128 130 122 127 123 124 69 100 15 81 0
131 129 128 130 122 127 123 124 35 48 4 36 0
131 129 128 130 122 127 123 124 50 64 53 7 0
131 129 128 130 122 127 123 27 76 121 89 62 0
131 129 128 130 122 127 123 20 72 114 85 59 0
131 129 128 130 122 127 123 19 70 109 82 57 0
131 129 128 130 122 127 123 74 24 118 86 60 0
131 129 128 130 122 127 123 8 31 1 13 6 0
131 129 128 130 122 127 123 69 100 15 81 55 0
131 129 128 130 122 127 123 35 48 4 36 33 0
131 129 128 130 122 127 126 124 27 76 121 47 0
131 129 128 130 122 127 126 124 20 72 114 43 0
131 129 128 130 122 127 126 124 19 70 109 40 0
131 129 128 130 122 127 126 124 74 24 118 45 0
131 129 128 130 122 127 126 124 8 31 1 3 0
131 129 128 130 122 127 126 124 69 100 15 38 0
131 129 128 130 122 127 126 124 67 91 37 12 0
131 129 128 130 122 127 126 124 50 64 32 7 0
131 129 128 130 122 127 126 27 76 121 47 62 0
131 129 128 130 122 127 126 20 72 114 43 59 0
131 129 128 130 122 127 126 19 70 109 40 57 0
131 129 128 130 122 127 126 74 24 118 45 60 0
131 129 128 130 122 127 126 8 31 1 3 6 0
131 129 128 130 122 127 126 69 100 15 38 55 0
131 129 128 130 122 127 126 67 91 37 12 52 0
131 129 128 130 122 127 124 27 76 121 47 89 0
131 129 128 130 122 127 124 20 72 114 43 85 0
131 129 128 130 122 127 124 19 70 109 40 82 0
131 129 128 130 122 127 124 74 24 118 45 86 0
131 129 128 130 122 127 124 8 31 1 3 13 0
131 129 128 130 122 127 124 69 100 15 38 81 0
131 129 128 130 122 127 124 50 64 32 53 7 0
131 129 128 130 122 127 27 76 121 47 89 62 0
131 129 128 130 122 127 20 72 114 43 85 59 0
131 129 128 130 122 127 19 70 109 40 82 57 0
131 129 128 130 122 127 74 24 118 45 86 60 0
131 129 128 130 122 127 8 31 1 3 13 6 0
131 129 128 130 122 127 69 100 15 38 81 55 0
131 129 128 130 122 123 126 124 27 76 121 99 0
131 129 128 130 122 123 126 124 20 72 114 95 0
131 129 128 130 122 123 126 124 19 70 109 92 0
131 129 128 130 122 123 126 124 74 24 118 97 0
131 129 128 130 122 123 126 124 8 31 1 14 0
131 129 128 130 122 123 126 124 35 48 39 4 0
131 129 128 130 122 123 126 124 67 91 80 12 0
131 129 128 130 122 123 126 124 50 64 54 7 0
131 129 128 130 122 123 126 27 76 121 99 62 0
131 129 128 130 122 123 126 20 72 114 95 59 0
131 129 128 130 122 123 126 19 70 109 92 57 0
131 129 128 130 122 123 126 74 24 118 97 60 0
131 129 128 130 122 123 126 8 31 1 14 6 0
131 129 128 130 122 123 126 35 48 39 4 33 0
131 129 128 130 122 123 126 67 91 80 12 52 0
131 129 128 130 122 123 124 27 76 121 99 89 0
131 129 128 130 122 123 124 20 72 114 95 85 0
131 129 128 130 122 123 124 19 70 109 92 82 0
131 129 128 130 122 123 124 74 24 118 97 86 0
131 129 128 130 122 123 124 8 31 1 14 13 0
131 129 128 130 122 123 124 35 48 39 4 36 0
131 129 128 130 122 123 124 50 64 54 53 7 0
131 129 128 130 122 123 27 76 121 99 89 62 0
131 129 128 130 122 123 20 72 114 95 85 59 0
131 129 128 130 122 123 19 70 109 92 82 57 0
131 129 128 130 122 123 74 24 118 97 86 60 0
131 129 128 130 122 123 8 31 1 14 13 6 0
131 129 128 130 122 123 35 48 39 4 36 33 0
131 129 128 130 122 126 124 27 76 121 99 47 0
131 129 128 130 122 126 124 20 72 114 95 43 0
131 129 128 130 122 126 124 19 70 109 92 40 0
131 129 128 130 122 126 124 74 24 118 97 45 0
131 129 128 130 122 126 124 8 31 1 14 3 0
131 129 128 130 122 126 124 67 91 80 37 12 0
131 129 128 130 122 126 124 50 64 54 32 7 0
131 129 128 130 122 126 27 76 121 99 47 62 0
131 129 128 130 122 126 20 72 114 95 43 59 0
131 129 128 130 122 126 19 70 109 92 40 57 0
131 129 128 130 122 126 74 24 118 97 45 60 0
131 129 128 130 122 126 8 31 1 14 3 6 0
131 129 128 130 122 126 67 91 80 37 12 52 0
131 129 128 130 122 124 27 76 121 99 47 89 0
131 129 128 130 122 124 20 72 114 95 43 85 0
131 129 128 130 122 124 19 70 109 92 40 82 0
131 129 128 130 122 124 74 24 118 97 45 86 0
131 129 128 130 122 124 8 31 1 14 3 13 0
131 129 128 130 122 124 50 64 54 32 53 7 0
131 129 128 130 122 27 76 121 99 47 89 62 0
131 129 128 130 122 20 72 114 95 43 85 59 0
131 129 128 130 122 19 70 109 92 40 82 57 0
131 129 128 130 122 74 24 118 97 45 86 60 0
131 129 128 130 122 8 31 1 14 3 13 6 0
131 129 128 130 127 123 126 124 27 76 121 26 0
131 129 128 130 127 123 126 124 20 72 114 22 0
131 129 128 130 127 123 126 124 19 70 109 18 0
131 129 128 130 127 123 126 124 74 24 118 25 0
131 129 128 130 127 123 126 124 69 100 16 15 0
131 129 128 130 127 123 126 124 35 48 2 4 0
131 129 128 130 127 123 126 124 67 91 11 12 0
131 129 128 130 127 123 126 124 50 64 5 7 0
131 129 128 130 127 123 126 27 76 121 26 62 0
131 129 128 130 127 123 126 20 72 114 22 59 0
131 129 128 130 127 123 126 19 70 109 18 57 0
131 129 128 130 127 123 126 74 24 118 25 60 0
131 129 128 130 127 123 126 69 100 16 15 55 0
131 129 128 130 127 123 126 35 48 2 4 33 0
131 129 128 130 127 123 126 67 91 11 12 52 0
131 129 128 130 127 123 124 27 76 121 26 89 0
131 129 128 130 127 123 124 20 72 114 22 85 0
131 129 128 130 127 123 124 19 70 109 18 82 0
131 129 128 130 127 123 124 74 24 118 25 86 0
131 129 128 130 127 123 124 69 100 16 15 81 0
131 129 128 130 127 123 124 35 48 2 4 36 0
131 129 128 130 127 123 124 50 64 5 53 7 0
131 129 128 130 127 123 27 76 121 26 89 62 0
131 129 128 130 127 123 20 72 114 22 85 59 0
131 129 128 130 127 123 19 70 109 18 82 57 0
131 129 128 130 127 123 74 24 118 25 86 60 0
131 129 128 130 127 123 69 100 16 15 81 55 0
131 129 128 130 127 123 35 48 2 4 36 33 0
131 129 128 130 127 126 124 27 76 121 26 47 0
131 129 128 130 127 126 124 20 72 114 22 43 0
131 129 128 130 127 126 124 19 70 109 18 40 0
131 129 128 130 127 126 124 74 24 118 25 45 0
131 129 128 130 127 126 124 69 100 16 15 38 0
131 129 128 130 127 126 124 67 91 11 37 12 0
131 129 128 130 127 126 124 50 64 5 32 7 0
131 129 128 130 127 126 27 76 121 26 47 62 0
131 129 128 130 127 126 20 72 114 22 43 59 0
131 129 128 130 127 126 19 70 109 18 40 57 0
131 129 128 130 127 126 74 24 118 25 45 60 0
131 129 128 130 127 126 69 100 16 15 38 55 0
131 129 128 130 127 126 67 91 11 37 12 52 0
131 129 128 130 127 124 27 76 121 26 47 89 0
131 129 128 130 127 124 20 72 114 22 43 85 0
131 129 128 130 127 124 19 70 109 18 40 82 0
131 129 128 130 127 124 74 24 118 25 45 86 0
131 129 128 130 127 124 69 100 16 15 38 81 0
131 129 128 130 127 124 50 64 5 32 53 7 0
131 129 128 130 127 27 76 121 26 47 89 62 0
131 129 128 130 127 20 72 114 22 43 85 59 0
131 129 128 130 127 19 70 109 18 40 82 57 0
131 129 128 130 127 74 24 118 25 45 86 60 0
131 129 128 130 127 69 100 16 15 38 81 55 0
131 129 128 130 123 126 124 27 76 121 26 99 0
131 129 128 130 123 126 124 20 72 114 22 95 0
131 129 128 130 123 126 124 19 70 109 18 92 0
131 129 128 130 123 126 124 74 24 118 25 97 0
131 129 128 130 123 126 124 35 48 2 39 4 0
131 129 128 130 123 126 124 67 91 11 80 12 0
131 129 128 130 123 126 124 50 64 5 54 7 0
131 129 128 130 123 126 27 76 121 26 99 62 0
131 129 128 130 123 126 20 72 114 22 95 59 0
131 129 128 130 123 126 19 70 109 18 92 57 0
131 129 128 130 123 126 74 24 118 25 97 60 0
131 129 128 130 123 126 35 48 2 39 4 33 0
131 129 128 130 123 126 67 91 11 80 12 52 0
131 129 128 130 123 124 27 76 121 26 99 89 0
131 129 128 130 123 124 20 72 114 22 95 85 0
131 129 128 130 123 124 19 70 109 18 92 82 0
131 129 128 130 123 124 74 24 118 25 97 86 0
131 129 128 130 123 124 35 48 2 39 4 36 0
131 129 128 130 123 124 50 64 5 54 53 7 0
131 129 128 130 123 27 76 121 26 99 89 62 0
131 129 128 130 123 20 72 114 22 95 85 59 0
131 129 128 130 123 19 70 109 18 92 82 57 0
131 129 128 130 123 74 24 118 25 97 86 60 0
131 129 128 130 123 35 48 2 39 4 36 33 0
131 129 128 130 126 124 27 76 121 26 99 47 0
131 129 128 130 126 124 20 72 114 22 95 43 0
131 129 128 130 126 124 19 70 109 18 92 40 0
131 129 128 130 126 124 74 24 118 25 97 45 0
131 129 128 130 126 124 67 91 11 80 37 12 0
131 129 128 130 126 124 50 64 5 54 32 7 0
131 129 128 130 126 27 76 121 26 99 47 62 0
131 129 128 130 126 20 72 114 22 95 43 59 0
131 129 128 130 126 19 70 109 18 92 40 57 0
131 129 128 130 126 74 24 118 25 97 45 60 0
131 129 128 130 126 67 91 11 80 37 12 52 0
131 129 128 130 124 27 76 121 26 99 47 89 0
131 129 128 130 124 20 72 114 22 95 43 85 0
131 129 128 130 124 19 70 109 18 92 40 82 0
131 129 128 130 124 74 24 118 25 97 45 86 0
131 129 128 130 124 50 64 5 54 32 53 7 0
131 129 128 130 27 76 121 26 99 47 89 62 0
131 129 128 130 20 72 114 22 95 43 85 59 0
131 129 128 130 19 70 109 18 92 40 82 57 0
131 129 128 130 74 24 118 25 97 45 86 60 0
131 129 128 132 122 127 123 126 124 27 76 116 0
131 129 128 132 122 127 123 126 124 20 72 111 0
131 129 128 132 122 127 123 126 124 19 70 105 0
131 129 128 132 122 127 123 126 124 79 119 30 0
131 129 128 132 122 127 123 126 124 8 23 1 0
131 129 128 132 122 127 123 126 124 69 96 15 0
131 129 128 132 122 127 123 126 124 35 44 4 0
131 129 128 132 122 127 123 126 124 67 87 12 0
131 129 128 132 122 127 123 126 124 50 61 7 0
131 129 128 132 122 127 123 126 27 76 116 62 0
131 129 128 132 122 127 123 126 20 72 111 59 0
131 129 128 132 122 127 123 126 19 70 105 57 0
131 129 128 132 122 127 123 126 79 119 30 65 0
131 129 128 132 122 127 123 126 8 23 1 6 0
131 129 128 132 122 127 123 126 69 96 15 55 0
131 129 128 132 122 127 123 126 35 44 4 33 0
131 129 128 132 122 127 123 126 67 87 12 52 0
131 129 128 132 122 127 123 124 27 76 116 89 0
131 129 128 132 122 127 123 124 20 72 111 85 0
131 129 128 132 122 127 123 124 19 70 105 82 0
131 129 128 132 122 127 123 124 79 119 30 90 0
131 129 128 132 122 127 123 124 8 23 1 13 0
131 129 128 132 122 127 123 124 69 96 15 81 0
131 129 128 132 122 127 123 124 35 44 4 36 0
131 129 128 132 122 127 123 124 50 61 53 7 0
131 129 128 132 122 127 123 27 76 116 89 62 0
131 129 128 132 122 127 123 20 72 111 85 59 0
131 129 128 132 122 127 123 19 70 105 82 57 0
131 129 128 132 122 127 123 79 119 30 90 65 0
131 129 128 132 122 127 123 8 23 1 13 6 0
131 129 128 132 122 127 123 69 96 15 81 55 0
131 129 128 132 122 127 123 35 44 4 36 33 0
131 129 128 132 122 127 126 124 27 76 116 47 0
131 129 128 132 122 127 126 124 20 72 111 43 0
131 129 128 132 122 127 126 124 19 70 105 40 0
131 129 128 132 122 127 126 124 79 119 30 49 0
131 129 128 132 122 127 126 124 8 23 1 3 0
131 129 128 132 122 127 126 124 69 96 15 38 0
131 129 128 132 122 127 126 124 67 87 37 12 0
131 129 128 132 122 127 126 124 50 61 32 7 0
131 129 128 132 122 127 126 27 76 116 47 62 0
131 129 128 132 122 127 126 20 72 111 43 59 0
131 129 128 132 122 127 126 19 70 105 40 57 0
131 129 128 132 122 127 126 79 119 30 49 65 0
131 129 128 132 122 127 126 8 23 1 3 6 0
131 129 128 132 122 127 126 69 96 15 38 55 0
131 129 128 132 122 127 126 67 87 37 12 52 0
131 129 128 132 122 127 124 27 76 116 47 89 0
131 129 128 132 122 127 124 20 72 111 43 85 0
131 129 128 132 122 127 124 19 70 105 40 82 0
131 129 128 132 122 127 124 79 119 30 49 90 0
131 129 128 132 122 127 124 8 23 1 3 13 0
131 129 128 132 122 127 124 69 96 15 38 81 0
131 129 128 132 122 127 124 50 61 32 53 7 0
131 129 128 132 122 127 27 76 116 47 89 62 0
131 129 128 132 122 127 20 72 111 43 85 59 0
131 129 128 132 122 127 19 70 105 40 82 57 0
131 129 128 132 122 127 79 119 30 49 90 65 0
131 129 128 132 122 127 8 23 1 3 13 6 0
131 129 128 132 122 127 69 96 15 38 81 55 0
131 129 128 132 122 123 126 124 27 76 116 99 0
131 129 128 132 122 123 126 124 20 72 111 95 0
131 129 128 132 122 123 126 124 19 70 105 92 0
131 129 128 132 122 123 126 124 79 119 30 101 0
131 129 128 132 122 123 126 124 8 23 1 14 0
131 129 128 132 122 123 126 124 35 44 39 4 0
131 129 128 132 122 123 126 124 67 87 80 12 0
131 129 128 132 122 123 126 124 50 61 54 7 0
131 129 128 132 122 123 126 27 76 116 99 62 0
131 129 128 132 122 123 126 20 72 111 95 59 0
131 129 128 132 122 123 126 19 70 105 92 57 0
131 129 128 132 122 123 126 79 119 30 101 65 0
131 129 128 132 122 123 126 8 23 1 14 6 0
131 129 128 132 122 123 126 35 44 39 4 33 0
131 129 128 132 122 123 126 67 87 80 12 52 0
131 129 128 132 122 123 124 27 76 116 99 89 0
131 129 128 132 122 123 124 20 72 111 95 85 0
131 129 128 132 122 123 124 19 70 105 92 82 0
131 129 128 132 122 123 124 79 119 30 101 90 0
131 129 128 132 122 123 124 8 23 1 14 13 0
131 129 128 132 122 123 124 35 44 39 4 36 0
131 129 128 132 122 123 124 50 61 54 53 7 0
131 129 128 132 122 123 27 76 116 99 89 62 0
131 129 128 132 122 123 20 72 111 95 85 59 0
131 129 128 132 122 123 19 70 105 92 82 57 0
131 129 128 132 122 123 79 119 30 101 90 65 0
131 129 128 132 122 123 8 23 1 14 13 6 0
131 129 128 132 122 123 35 44 39 4 36 33 0
131 129 128 132 122 126 124 27 76 116 99 47 0
131 129 128 132 122 126 124 20 72 111 95 43 0
131 129 128 132 122 126 124 19 70 105 92 40 0
131 129 128 132 122 126 124 79 119 30 101 49 0
131 129 128 132 122 126 124 8 23 1 14 3 0
131 129 128 132 122 126 124 67 87 80 37 12 0
131 129 128 132 122 126 124 50 61 54 32 7 0
131 129 128 132 122 126 27 76 116 99 47 62 0
131 129 128 132 122 126 20 72 111 95 43 59 0
131 129 128 132 122 126 19 70 105 92 40 57 0
131 129 128 132 122 126 79 119 30 101 49 65 0
131 129 128 132 122 126 8 23 1 14 3 6 0
131 129 128 132 122 126 67 87 80 37 12 52 0
131 129 128 132 122 124 27 76 116 99 47 89 0
131 129 128 132 122 124 20 72 111 95 43 85 0
131 129 128 132 122 124 19 70 105 92 40 82 0
131 129 128 132 122 124 79 119 30 101 49 90 0
131 129 128 132 122 124 8 23 1 14 3 13 0
131 129 128 132 122 124 50 61 54 32 53 7 0
131 129 128 132 122 27 76 116 99 47 89 62 0
131 129 128 132 122 20 72 111 95 43 85 59 0
131 129 128 132 122 19 70 105 92 40 82 57 0
131 129 128 132 122 79 119 30 101 49 90 65 0
131 129 128 132 122 8 23 1 14 3 13 6 0
131 129 128 132 127 123 126 124 27 76 116 26 0
131 129 128 132 127 123 126 124 20 72 111 22 0
131 129 128 132 127 123 126 124 19 70 105 18 0
131 129 128 132 127 123 126 124 79 119 30 29 0
131 129 128 132 127 123 126 124 69 96 16 15 0
131 129 128 132 127 123 126 124 35 44 2 4 0
131 129 128 132 127 123 126 124 67 87 11 12 0
131 129 128 132 127 123 126 124 50 61 5 7 0
131 129 128 132 127 123 126 27 76 116 26 62 0
131 129 128 132 127 123 126 20 72 111 22 59 0
131 129 128 132 127 123 126 19 70 105 18 57 0
131 129 128 132 127 123 126 79 119 30 29 65 0
131 129 128 132 127 123 126 69 96 16 15 55 0
131 129 128 132 127 123 126 35 44 2 4 33 0
131 129 128 132 127 123 126 67 87 11 12 52 0
131 129 128 132 127 123 124 27 76 116 26 89 0
131 129 128 132 127 123 124 20 72 111 22 85 0
131 129 128 132 127 123 124 19 70 105 18 82 0
131 129 128 132 127 123 124 79 119 30 29 90 0
131 129 128 132 127 123 124 69 96 16 15 81 0
131 129 128 132 127 123 124 35 44 2 4 36 0
131 129 128 132 127 123 124 50 61 5 53 7 0
131 129 128 132 127 123 27 76 116 26 89 62 0
131 129 128 132 127 123 20 72 111 22 85 59 0
131 129 128 132 127 123 19 70 105 18 82 57 0
131 129 128 132 127 123 79 119 30 29 90 65 0
131 129 128 132 127 123 69 96 16 15 81 55 0
131 129 128 132 127 123 35 44 2 4 36 33 0
131 129 128 132 127 126 124 27 76 116 26 47 0
131 129 128 132 127 126 124 20 72 111 22 43 0
131 129 128 132 127 126 124 19 70 105 18 40 0
131 129 128 132 127 126 124 79 119 30 29 49 0
131 129 128 132 127 126 124 69 96 16 15 38 0
131 129 128 132 127 126 124 67 87 11 37 12 0
131 129 128 132 127 126 124 50 61 5 32 7 0
131 129 128 132 127 126 27 76 116 26 47 62 0
131 129 128 132 127 126 20 72 111 22 43 59 0
131 129 128 132 127 126 19 70 105 18 40 57 0
131 129 128 132 127 126 79 119 30 29 49 65 0
131 129 128 132 127 126 69 96 16 15 38 55 0
131 129 128 132 127 126 67 87 11 37 12 52 0
131 129 128 132 127 124 27 76 116 26 47 89 0
131 129 128 132 127 124 20 72 111 22 43 85 0
131 129 128 132 127 124 19 70 105 18 40 82 0
131 129 128 132 127 124 79 119 30 29 49 90 0
131 129 128 132 127 124 69 96 16 15 38 81 0
131 129 128 132 127 124 50 61 5 32 53 7 0
131 129 128 132 127 27 76 116 26 47 89 62 0
131 129 128 132 127 20 72 111 22 43 85 59 0
131 129 128 132 127 19 70 105 18 40 82 57 0
131 129 128 132 127 79 119 30 29 49 90 65 0
131 129 128 132 127 69 96 16 15 38 81 55 0
131 129 128 132 123 126 124 27 76 116 26 99 0
131 129 128 132 123 126 124 20 72 111 22 95 0
131 129 128 132 123 126 124 19 70 105 18 92 0
131 129 128 132 123 126 124 79 119 30 29 101 0
131 129 128 132 123 126 124 35 44 2 39 4 0
131 129 128 132 123 126 124 67 87 11 80 12 0
131 129 128 132 123 126 124 50 61 5 54 7 0
131 129 128 132 123 126 27 76 116 26 99 62 0
131 129 128 132 123 126 20 72 111 22 95 59 0
131 129 128 132 123 126 19 70 105 18 92 57 0
131 129 128 132 123 126 79 119 30 29 101 65 0
131 129 128 132 123 126 35 44 2 39 4 33 0
131 129 128 132 123 126 67 87 11 80 12 52 0
131 129 128 132 123 124 27 76 116 26 99 89 0
131 129 128 132 123 124 20 72 111 22 95 85 0
131 129 128 132 123 124 19 70 105 18 92 82 0
131 129 128 132 123 124 79 119 30 29 101 90 0
131 129 128 132 123 124 35 44 2 39 4 36 0
131 129 128 132 123 124 50 61 5 54 53 7 0
131 129 128 132 123 27 76 116 26 99 89 62 0
131 129 128 132 123 20 72 111 22 95 85 59 0
131 129 128 132 123 19 70 105 18 92 82 57 0
131 129 128 132 123 79 119 30 29 101 90 65 0
131 129 128 132 123 35 44 2 39 4 36 33 0
131 129 128 132 126 124 27 76 116 26 99 47 0
131 129 128 132 126 124 20 72 111 22 95 43 0
131 129 128 132 126 124 19 70 105 18 92 40 0
131 129 128 132 126 124 79 119 30 29 101 49 0
131 129 128 132 126 124 67 87 11 80 37 12 0
131 129 128 132 126 124 50 61 5 54 32 7 0
131 129 128 132 126 27 76 116 26 99 47 62 0
131 129 128 132 126 20 72 111 22 95 43 59 0
131 129 128 132 126 19 70 105 18 92 40 57 0
131 129 128 132 126 79 119 30 29 101 49 65 0
131 129 128 132 126 67 87 11 80 37 12 52 0
131 129 128 132 124 27 76 116 26 99 47 89 0
131 129 128 132 124 20 72 111 22 95 43 85 0
131 129 128 132 124 19 70 105 18 92 40 82 0
131 129 128 132 124 79 119 30 29 101 49 90 0
131 129 128 132 124 50 61 5 54 32 53 7 0
131 129 128 132 27 76 116 26 99 47 89 62 0
131 129 128 132 20 72 111 22 95 43 85 59 0
131 129 128 132 19 70 105 18 92 40 82 57 0
131 129 128 132 79 119 30 29 101 49 90 65 0
131 129 128 122 127 123 126 124 27 76 116 121 0
131 129 128 122 127 123 126 124 20 72 111 114 0
131 129 128 122 127 123 126 124 19 70 105 109 0
131 129 128 122 127 123 126 124 8 23 31 1 0
131 129 128 122 127 123 126 124 69 96 100 15 0
131 129 128 122 127 123 126 124 35 44 48 4 0
131 129 128 122 127 123 126 124 67 87 91 12 0
131 129 128 122 127 123 126 124 50 61 64 7 0
131 129 128 122 127 123 126 27 76 116 121 62 0
131 129 128 122 127 123 126 20 72 111 114 59 0
131 129 128 122 127 123 126 19 70 105 109 57 0
131 129 128 122 127 123 126 8 23 31 1 6 0
131 129 128 122 127 123 126 69 96 100 15 55 0
131 129 128 122 127 123 126 35 44 48 4 33 0
131 129 128 122 127 123 126 67 87 91 12 52 0
131 129 128 122 127 123 124 27 76 116 121 89 0
131 129 128 122 127 123 124 20 72 111 114 85 0
131 129 128 122 127 123 124 19 70 105 109 82 0
131 129 128 122 127 123 124 8 23 31 1 13 0
131 129 128 122 127 123 124 69 96 100 15 81 0
131 129 128 122 127 123 124 35 44 48 4 36 0
131 129 128 122 127 123 124 50 61 64 53 7 0
131 129 128 122 127 123 27 76 116 121 89 62 0
131 129 128 122 127 123 20 72 111 114 85 59 0
131 129 128 122 127 123 19 70 105 109 82 57 0
131 129 128 122 127 123 8 23 31 1 13 6 0
131 129 128 122 127 123 69 96 100 15 81 55 0
131 129 128 122 127 123 35 44 48 4 36 33 0
131 129 128 122 127 126 124 27 76 116 121 47 0
131 129 128 122 127 126 124 20 72 111 114 43 0
131 129 128 122 127 126 124 19 70 105 109 40 0
131 129 128 122 127 126 124 8 23 31 1 3 0
131 129 128 122 127 126 124 69 96 100 15 38 0
131 129 128 122 127 126 124 67 87 91 37 12 0
131 129 128 122 127 126 124 50 61 64 32 7 0
131 129 128 122 127 126 27 76 116 121 47 62 0
131 129 128 122 127 126 20 72 111 114 43 59 0
131 129 128 122 127 126 19 70 105 109 40 57 0
131 129 128 122 127 126 8 23 31 1 3 6 0
131 129 128 122 127 126 69 96 100 15 38 55 0
131 129 128 122 127 126 67 87 91 37 12 52 0
131 129 128 122 127 124 27 76 116 121 47 89 0
131 129 128 122 127 124 20 72 111 114 43 85 0
131 129 128 122 127 124 19 70 105 109 40 82 0
131 129 128 122 127 124 8 23 31 1 3 13 0
131 129 128 122 127 124 69 96 100 15 38 81 0
131 129 128 122 127 124 50 61 64 32 53 7 0
131 129 128 122 127 27 76 116 121 47 89 62 0
131 129 128 122 127 20 72 111 114 43 85 59 0
131 129 128 122 127 19 70 105 109 40 82 57 0
131 129 128 122 127 8 23 31 1 3 13 6 0
131 129 128 122 127 69 96 100 15 38 81 55 0
131 129 128 122 123 126 124 27 76 116 121 99 0
131 129 128 122 123 126 124 20 72 111 114 95 0
131 129 128 122 123 126 124 19 70 105 109 92 0
131 129 128 122 123 126 124 8 23 31 1 14 0
131 129 128 122 123 126 124 35 44 48 39 4 0
131 129 128 122 123 126 124 67 87 91 80 12 0
131 129 128 122 123 126 124 50 61 64 54 7 0
131 129 128 122 123 126 27 76 116 121 99 62 0
131 129 128 122 123 126 20 72 111 114 95 59 0
131 129 128 122 123 126 19 70 105 109 92 57 0
131 129 128 122 123 126 8 23 31 1 14 6 0
131 129 128 122 123 126 35 44 48 39 4 33 0
131 129 128 122 123 126 67 87 91 80 12 52 0
131 129 128 122 123 124 27 76 116 121 99 89 0
131 129 128 122 123 124 20 72 111 114 95 85 0
131 129 128 122 123 124 19 70 105 109 92 82 0
131 129 128 122 123 124 8 23 31 1 14 13 0
131 129 128 122 123 124 35 44 48 39 4 36 0
131 129 128 122 123 124 50 61 64 54 53 7 0
131 129 128 122 123 27 76 116 121 99 89 62 0
131 129 128 122 123 20 72 111 114 95 85 59 0
131 129 128 122 123 19 70 105 109 92 82 57 0
131 129 128 122 123 8 23 31 1 14 13 6 0
131 129 128 122 123 35 44 48 39 4 36 33 0
131 129 128 122 126 124 27 76 116 121 99 47 0
131 129 128 122 126 124 20 72 111 114 95 43 0
131 129 128 122 126 124 19 70 105 109 92 40 0
131 129 128 122 126 124 8 23 31 1 14 3 0
131 129 128 122 126 124 67 87 91 80 37 12 0
131 129 128 122 126 124 50 61 64 54 32 7 0
131 129 128 122 126 27 76 116 121 99 47 62 0
131 129 128 122 126 20 72 111 114 95 43 59 0
131 129 128 122 126 19 70 105 109 92 40 57 0
131 129 128 122 126 8 23 31 1 14 3 6 0
131 129 128 122 126 67 87 91 80 37 12 52 0
131 129 128 122 124 27 76 116 121 99 47 89 0
131 129 128 122 124 20 72 111 114 95 43 85 0
131 129 128 122 124 19 70 105 109 92 40 82 0
131 129 128 122 124 8 23 31 1 14 3 13 0
131 129 128 122 124 50 61 64 54 32 53 7 0
131 129 128 122 27 76 116 121 99 47 89 62 0
131 129 128 122 20 72 111 114 95 43 85 59 0
131 129 128 122 19 70 105 109 92 40 82 57 0
131 129 128 122 8 23 31 1 14 3 13 6 0
131 129 128 127 123 126 124 27 76 116 121 26 0
131 129 128 127 123 126 124 20 72 111 114 22 0
131 129 128 127 123 126 124 19 70 105 109 18 0
131 129 128 127 123 126 124 69 96 100 16 15 0
131 129 128 127 123 126 124 35 44 48 2 4 0
131 129 128 127 123 126 124 67 87 91 11 12 0
131 129 128 127 123 126 124 50 61 64 5 7 0
131 129 128 127 123 126 27 76 116 121 26 62 0
131 129 128 127 123 126 20 72 111 114 22 59 0
131 129 128 127 123 126 19 70 105 109 18 57 0
131 129 128 127 123 126 69 96 100 16 15 55 0
131 129 128 127 123 126 35 44 48 2 4 33 0
131 129 128 127 123 126 67 87 91 11 12 52 0
131 129 128 127 123 124 27 76 116 121 26 89 0
131 129 128 127 123 124 20 72 111 114 22 85 0
131 129 128 127 123 124 19 70 105 109 18 82 0
131 129 128 127 123 124 69 96 100 16 15 81 0
131 129 128 127 123 124 35 44 48 2 4 36 0
131 129 128 127 123 124 50 61 64 5 53 7 0
131 129 128 127 123 27 76 116 121 26 89 62 0
131 129 128 127 123 20 72 111 114 22 85 59 0
131 129 128 127 123 19 70 105 109 18 82 57 0
131 129 128 127 123 69 96 100 16 15 81 55 0
131 129 128 127 123 35 44 48 2 4 36 33 0
131 129 128 127 126 124 27 76 116 121 26 47 0
131 129 128 127 126 124 20 72 111 114 22 43 0
131 129 128 127 126 124 19 70 105 109 18 40 0
131 129 128 127 126 124 69 96 100 16 15 38 0
131 129 128 127 126 124 67 87 91 11 37 12 0
131 129 128 127 126 124 50 61 64 5 32 7 0
131 129 128 127 126 27 76 116 121 26 47 62 0
131 129 128 127 126 20 72 111 114 22 43 59 0
131 129 128 127 126 19 70 105 109 18 40 57 0
131 129 128 127 126 69 96 100 16 15 38 55 0
131 129 128 127 126 67 87 91 11 37 12 52 0
131 129 128 127 124 27 76 116 121 26 47 89 0
131 129 128 127 124 20 72 111 114 22 43 85 0
131 129 128 127 124 19 70 105 109 18 40 82 0
131 129 128 127 124 69 96 100 16 15 38 81 0
131 129 128 127 124 50 61 64 5 32 53 7 0
131 129 128 127 27 76 116 121 26 47 89 62 0
131 129 128 127 20 72 111 114 22 43 85 59 0
131 129 128 127 19 70 105 109 18 40 82 57 0
131 129 128 127 69 96 100 16 15 38 81 55 0
131 129 128 123 126 124 27 76 116 121 26 99 0
131 129 128 123 126 124 20 72 111 114 22 95 0
131 129 128 123 126 124 19 70 105 109 18 92 0
131 129 128 123 126 124 35 44 48 2 39 4 0
131 129 128 123 126 124 67 87 91 11 80 12 0
131 129 128 123 126 124 50 61 64 5 54 7 0
131 129 128 123 126 27 76 116 121 26 99 62 0
131 129 128 123 126 20 72 111 114 22 95 59 0
131 129 128 123 126 19 70 105 109 18 92 57 0
131 129 128 123 126 35 44 48 2 39 4 33 0
131 129 128 123 126 67 87 91 11 80 12 52 0
131 129 128 123 124 27 76 116 121 26 99 89 0
131 129 128 123 124 20 72 111 114 22 95 85 0
131 129 128 123 124 19 70 105 109 18 92 82 0
131 129 128 123 124 35 44 48 2 39 4 36 0
131 129 128 123 124 50 61 64 5 54 53 7 0
131 129 128 123 27 76 116 121 26 99 89 62 0
131 129 128 123 20 72 111 114 22 95 85 59 0
131 129 128 123 19 70 105 109 18 92 82 57 0
131 129 128 123 35 44 48 2 39 4 36 33 0
131 129 128 126 124 27 76 116 121 26 99 47 0
131 129 128 126 124 20 72 111 114 22 95 43 0
131 129 128 126 124 19 70 105 109 18 92 40 0
131 129 128 126 124 67 87 91 11 80 37 12 0
131 129 128 126 124 50 61 64 5 54 32 7 0
131 129 128 126 27 76 116 121 26 99 47 62 0
131 129 128 126 20 72 111 114 22 95 43 59 0
131 129 128 126 19 70 105 109 18 92 40 57 0
131 129 128 126 67 87 91 11 80 37 12 52 0
131 129 128 124 27 76 116 121 26 99 47 89 0
131 129 128 124 20 72 111 114 22 95 43 85 0
131 129 128 124 19 70 105 109 18 92 40 82 0
131 129 128 124 50 61 64 5 54 32 53 7 0
131 129 128 27 76 116 121 26 99 47 89 62 0
131 129 128 20 72 111 114 22 95 43 85 59 0
131 129 128 19 70 105 109 18 92 40 82 57 0
131 129 125 130 132 122 127 123 126 124 27 107 0
131 129 125 130 132 122 127 123 126 124 20 103 0
131 129 125 130 132 122 127 123 126 124 71 10 0
131 129 125 130 132 122 127 123 126 124 104 24 0
131 129 125 130 132 122 127 123 126 124 108 30 0
131 129 125 130 132 122 127 123 126 124 17 1 0
131 129 125 130 132 122 127 123 126 124 93 15 0
131 129 125 130 132 122 127 123 126 124 41 4 0
131 129 125 130 132 122 127 123 126 124 83 12 0
131 129 125 130 132 122 127 123 126 124 56 7 0
131 129 125 130 132 122 127 123 126 27 107 62 0
131 129 125 130 132 122 127 123 126 20 103 59 0
131 129 125 130 132 122 127 123 126 71 10 51 0
131 129 125 130 132 122 127 123 126 104 24 60 0
131 129 125 130 132 122 127 123 126 108 30 65 0
131 129 125 130 132 122 127 123 126 17 1 6 0
131 129 125 130 132 122 127 123 126 93 15 55 0
131 129 125 130 132 122 127 123 126 41 4 33 0
131 129 125 130 132 122 127 123 126 83 12 52 0
131 129 125 130 132 122 127 123 124 27 107 89 0
131 129 125 130 132 122 127 123 124 20 103 85 0
131 129 125 130 132 122 127 123 124 71 10 66 0
131 129 125 130 132 122 127 123 124 104 24 86 0
131 129 125 130 132 122 127 123 124 108 30 90 0
131 129 125 130 132 122 127 123 124 17 1 13 0
131 129 125 130 132 122 127 123 124 93 15 81 0
131 129 125 130 132 122 127 123 124 41 4 36 0
131 129 125 130 132 122 127 123 124 56 53 7 0
131 129 125 130 132 122 127 123 27 107 89 62 0
131 129 125 130 132 122 127 123 20 103 85 59 0
131 129 125 130 132 122 127 123 71 10 66 51 0
131 129 125 130 132 122 127 123 104 24 86 60 0
131 129 125 130 132 122 127 123 108 30 90 65 0
131 129 125 130 132 122 127 123 17 1 13 6 0
131 129 125 130 132 122 127 123 93 15 81 55 0
131 129 125 130 132 122 127 123 41 4 36 33 0
131 129 125 130 132 122 127 126 124 27 107 47 0
131 129 125 130 132 122 127 126 124 20 103 43 0
131 129 125 130 132 122 127 126 124 71 10 34 0
131 129 125 130 132 122 127 126 124 104 24 45 0
131 129 125 130 132 122 127 126 124 108 30 49 0
131 129 125 130 132 122 127 126 124 17 1 3 0
131 129 125 130 132 122 127 126 124 93 15 38 0
131 129 125 130 132 122 127 126 124 83 37 12 0
131 129 125 130 132 122 127 126 124 56 32 7 0
131 129 125 130 132 122 127 126 27 107 47 62 0
131 129 125 130 132 122 127 126 20 103 43 59 0
131 129 125 130 132 122 127 126 71 10 34 51 0
131 129 125 130 132 122 127 126 104 24 45 60 0
131 129 125 130 132 122 127 126 108 30 49 65 0
131 129 125 130 132 122 127 126 17 1 3 6 0
131 129 125 130 132 122 127 126 93 15 38 55 0
131 129 125 130 132 122 127 126 83 37 12 52 0
131 129 125 130 132 122 127 124 27 107 47 89 0
131 129 125 130 132 122 127 124 20 103 43 85 0
131 129 125 130 132 122 127 124 71 10 34 66 0
131 129 125 130 132 122 127 124 104 24 45 86 0
131 129 125 130 132 122 127 124 108 30 49 90 0
131 129 125 130 132 122 127 124 17 1 3 13 0
131 129 125 130 132 122 127 124 93 15 38 81 0
131 129 125 130 132 122 127 124 56 32 53 7 0
131 129 125 130 132 122 127 27 107 47 89 62 0
131 129 125 130 132 122 127 20 103 43 85 59 0
131 129 125 130 132 122 127 71 10 34 66 51 0
131 129 125 130 132 122 127 104 24 45 86 60 0
131 129 125 130 132 122 127 108 30 49 90 65 0
131 129 125 130 132 122 127 17 1 3 13 6 0
131 129 125 130 132 122 127 93 15 38 81 55 0
131 129 125 130 132 122 123 126 124 27 107 99 0
131 129 125 130 132 122 123 126 124 20 103 95 0
131 129 125 130 132 122 123 126 124 71 10 68 0
131 129 125 130 132 122 123 126 124 104 24 97 0
131 129 125 130 132 122 123 126 124 108 30 101 0
131 129 125 130 132 122 123 126 124 17 1 14 0
131 129 125 130 132 122 123 126 124 41 39 4 0
131 129 125 130 132 122 123 126 124 83 80 12 0
131 129 125 130 132 122 123 126 124 56 54 7 0
131 129 125 130 132 122 123 126 27 107 99 62 0
131 129 125 130 132 122 123 126 20 103 95 59 0
131 129 125 130 132 122 123 126 71 10 68 51 0
131 129 125 130 132 122 123 126 104 24 97 60 0
131 129 125 130 132 122 123 126 108 30 101 65 0
131 129 125 130 132 122 123 126 17 1 14 6 0
131 129 125 130 132 122 123 126 41 39 4 33 0
131 129 125 130 132 122 123 126 83 80 12 52 0
131 129 125 130 132 122 123 124 27 107 99 89 0
131 129 125 130 132 122 123 124 20 103 95 85 0
131 129 125 130 132 122 123 124 71 10 68 66 0
131 129 125 130 132 122 123 124 104 24 97 86 0
131 129 125 130 132 122 123 124 108 30 101 90 0
131 129 125 130 132 122 123 124 17 1 14 13 0
131 129 125 130 132 122 123 124 41 39 4 36 0
131 129 125 130 132 122 123 124 56 54 53 7 0
131 129 125 130 132 122 123 27 107 99 89 62 0
131 129 125 130 132 122 123 20 103 95 85 59 0
131 129 125 130 132 122 123 71 10 68 66 51 0
131 129 125 130 132 122 123 104 24 97 86 60 0
131 129 125 130 132 122 123 108 30 101 90 65 0
131 129 125 130 132 122 123 17 1 14 13 6 0
131 129 125 130 132 122 123 41 39 4 36 33 0
131 129 125 130 132 122 126 124 27 107 99 47 0
131 129 125 130 132 122 126 124 20 103 95 43 0
131 129 125 130 132 122 126 124 71 10 68 34 0
131 129 125 130 132 122 126 124 104 24 97 45 0
131 129 125 130 132 122 126 124 108 30 101 49 0
131 129 125 130 132 122 126 124 17 1 14 3 0
131 129 125 130 132 122 126 124 83 80 37 12 0
131 129 125 130 132 122 126 124 56 54 32 7 0
131 129 125 130 132 122 126 27 107 99 47 62 0
131 129 125 130 132 122 126 20 103 95 43 59 0
131 129 125 130 132 122 126 71 10 68 34 51 0
131 129 125 130 132 122 126 104 24 97 45 60 0
131 129 125 130 132 122 126 108 30 101 49 65 0
131 129 125 130 132 122 126 17 1 14 3 6 0
131 129 125 130 132 122 126 83 80 37 12 52 0
131 129 125 130 132 122 124 27 107 99 47 89 0
131 129 125 130 132 122 124 20 103 95 43 85 0
131 129 125 130 132 122 124 71 10 68 34 66 0
131 129 125 130 132 122 124 104 24 97 45 86 0
131 129 125 130 132 122 124 108 30 101 49 90 0
131 129 125 130 132 122 124 17 1 14 3 13 0
131 129 125 130 132 122 124 56 54 32 53 7 0
131 129 125 130 132 122 27 107 99 47 89 62 0
131 129 125 130 132 122 20 103 95 43 85 59 0
131 129 125 130 132 122 71 10 68 34 66 51 0
131 129 125 130 132 122 104 24 97 45 86 60 0
131 129 125 130 132 122 108 30 101 49 90 65 0
131 129 125 130 132 122 17 1 14 3 13 6 0
131 129 125 130 132 127 123 126 124 27 107 26 0
131 129 125 130 132 127 123 126 124 20 103 22 0
131 129 125 130 132 127 123 126 124 71 10 9 0
131 129 125 130 132 127 123 126 124 104 24 25 0
131 129 125 130 132 127 123 126 124 108 30 29 0
131 129 125 130 132 127 123 126 124 93 16 15 0
131 129 125 130 132 127 123 126 124 41 2 4 0
131 129 125 130 132 127 123 126 124 83 11 12 0
131 129 125 130 132 127 123 126 124 56 5 7 0
131 129 125 130 132 127 123 126 27 107 26 62 0
131 129 125 130 132 127 123 126 20 103 22 59 0
131 129 125 130 132 127 123 126 71 10 9 51 0
131 129 125 130 132 127 123 126 104 24 25 60 0
131 129 125 130 132 127 123 126 108 30 29 65 0
131 129 125 130 132 127 123 126 93 16 15 55 0
131 129 125 130 132 127 123 126 41 2 4 33 0
131 129 125 130 132 127 123 126 83 11 12 52 0
131 129 125 130 132 127 123 124 27 107 26 89 0
131 129 125 130 132 127 123 124 20 103 22 85 0
131 129 125 130 132 127 123 124 71 10 9 66 0
131 129 125 130 132 127 123 124 104 24 25 86 0
131 129 125 130 132 127 123 124 108 30 29 90 0
131 129 125 130 132 127 123 124 93 16 15 81 0
131 129 125 130 132 127 123 124 41 2 4 36 0
131 129 125 130 132 127 123 124 56 5 53 7 0
131 129 125 130 132 127 123 27 107 26 89 62 0
131 129 125 130 132 127 123 20 103 22 85 59 0
131 129 125 130 132 127 123 71 10 9 66 51 0
131 129 125 130 132 127 123 104 24 25 86 60 0
131 129 125 130 132 127 123 108 30 29 90 65 0
131 129 125 130 132 127 123 93 16 15 81 55 0
131 129 125 130 132 127 123 41 2 4 36 33 0
131 129 125 130 132 127 126 124 27 107 26 47 0
131 129 125 130 132 127 126 124 20 103 22 43 0
131 129 125 130 132 127 126 124 71 10 9 34 0
131 129 125 130 132 127 126 124 104 24 25 45 0
131 129 125 130 132 127 126 124 108 30 29 49 0
131 129 125 130 132 127 126 124 93 16 15 38 0
131 129 125 130 132 127 126 124 83 11 37 12 0
131 129 125 130 132 127 126 124 56 5 32 7 0
131 129 125 130 132 127 126 27 107 26 47 62 0
131 129 125 130 132 127 126 20 103 22 43 59 0
131 129 125 130 132 127 126 71 10 9 34 51 0
131 129 125 130 132 127 126 104 24 25 45 60 0
131 129 125 130 132 127 126 108 30 29 49 65 0
131 129 125 130 132 127 126 93 16 15 38 55 0
131 129 125 130 132 127 126 83 11 37 12 52 0
131 129 125 130 132 127 124 27 107 26 47 89 0
131 129 125 130 132 127 124 20 103 22 43 85 0
131 129 125 130 132 127 124 71 10 9 34 66 0
131 129 125 130 132 127 124 104 24 25 45 86 0
131 129 125 130 132 127 124 108 30 29 49 90 0
131 129 125 130 132 127 124 93 16 15 38 81 0
131 129 125 130 132 127 124 56 5 32 53 7 0
131 129 125 130 132 127 27 107 26 47 89 62 0
131 129 125 130 132 127 20 103 22 43 85 59 0
131 129 125 130 132 127 71 10 9 34 66 51 0
131 129 125 130 132 127 104 24 25 45 86 60 0
131 129 125 130 132 127 108 30 29 49 90 65 0
131 129 125 130 132 127 93 16 15 38 81 55 0
131 129 125 130 132 123 126 124 27 107 26 99 0
131 129 125 130 132 123 126 124 20 103 22 95 0
131 129 125 130 132 123 126 124 71 10 9 68 0
131 129 125 130 132 123 126 124 104 24 25 97 0
131 129 125 130 132 123 126 124 108 30 29 101 0
131 129 125 130 132 123 126 124 41 2 39 4 0
131 129 125 130 132 123 126 124 83 11 80 12 0
131 129 125 130 132 123 126 124 56 5 54 7 0
131 129 125 130 132 123 126 27 107 26 99 62 0
131 129 125 130 132 123 126 20 103 22 95 59 0
131 129 125 130 132 123 126 71 10 9 68 51 0
131 129 125 130 132 123 126 104 24 25 97 60 0
131 129 125 130 132 123 126 108 30 29 101 65 0
131 129 125 130 132 123 126 41 2 39 4 33 0
131 129 125 130 132 123 126 83 11 80 12 52 0
131 129 125 130 132 123 124 27 107 26 99 89 0
131 129 125 130 132 123 124 20 103 22 95 85 0
131 129 125 130 132 123 124 71 10 9 68 66 0
131 129 125 130 132 123 124 104 24 25 97 86 0
131 129 125 130 132 123 124 108 30 29 101 90 0
131 129 125 130 132 123 124 41 2 39 4 36 0
131 129 125 130 132 123 124 56 5 54 53 7 0
131 129 125 130 132 123 27 107 26 99 89 62 0
131 129 125 130 132 123 20 103 22 95 85 59 0
131 129 125 130 132 123 71 10 9 68 66 51 0
131 129 125 130 132 123 104 24 25 97 86 60 0
131 129 125 130 132 123 108 30 29 101 90 65 0
131 129 125 130 132 123 41 2 39 4 36 33 0
131 129 125 130 132 126 124 27 107 26 99 47 0
131 129 125 130 132 126 124 20 103 22 95 43 0
131 129 125 130 132 126 124 71 10 9 68 34 0
131 129 125 130 132 126 124 104 24 25 97 45 0
131 129 125 130 132 126 124 108 30 29 101 49 0
131 129 125 130 132 126 124 83 11 80 37 12 0
131 129 125 130 132 126 124 56 5 54 32 7 0
131 129 125 130 132 126 27 107 26 99 47 62 0
131 129 125 130 132 126 20 103 22 95 43 59 0
131 129 125 130 132 126 71 10 9 68 34 51 0
131 129 125 130 132 126 104 24 25 97 45 60 0
131 129 125 130 132 126 108 30 29 101 49 65 0
131 129 125 130 132 126 83 11 80 37 12 52 0
131 129 125 130 132 124 27 107 26 99 47 89 0
131 129 125 130 132 124 20 103 22 95 43 85 0
131 129 125 130 132 124 71 10 9 68 34 66 0
131 129 125 130 132 124 104 24 25 97 45 86 0
131 129 125 130 132 124 108 30 29 101 49 90 0
131 129 125 130 132 124 56 5 54 32 53 7 0
131 129 125 130 132 27 107 26 99 47 89 62 0
131 129 125 130 132 20 103 22 95 43 85 59 0
131 129 125 130 132 71 10 9 68 34 66 51 0
131 129 125 130 132 104 24 25 97 45 86 60 0
131 129 125 130 132 108 30 29 101 49 90 65 0
131 129 125 130 122 127 123 126 124 27 107 121 0
131 129 125 130 122 127 123 126 124 20 103 114 0
131 129 125 130 122 127 123 126 124 71 10 78 0
131 129 125 130 122 127 123 126 124 104 24 118 0
131 129 125 130 122 127 123 126 124 17 31 1 0
131 129 125 130 122 127 123 126 124 93 100 15 0
131 129 125 130 122 127 123 126 124 41 48 4 0
131 129 125 130 122 127 123 126 124 83 91 12 0
131 129 125 130 122 127 123 126 124 56 64 7 0
131 129 125 130 122 127 123 126 27 107 121 62 0
131 129 125 130 122 127 123 126 20 103 114 59 0
131 129 125 130 122 127 123 126 71 10 78 51 0
131 129 125 130 122 127 123 126 104 24 118 60 0
131 129 125 130 122 127 123 126 17 31 1 6 0
131 129 125 130 122 127 123 126 93 100 15 55 0
131 129 125 130 122 127 123 126 41 48 4 33 0
131 129 125 130 122 127 123 126 83 91 12 52 0
131 129 125 130 122 127 123 124 27 107 121 89 0
131 129 125 130 122 127 123 124 20 103 114 85 0
131 129 125 130 122 127 123 124 71 10 78 66 0
131 129 125 130 122 127 123 124 104 24 118 86 0
131 129 125 130 122 127 123 124 17 31 1 13 0
131 129 125 130 122 127 123 124 93 100 15 81 0
131 129 125 130 122 127 123 124 41 48 4 36 0
131 129 125 130 122 127 123 124 56 64 53 7 0
131 129 125 130 122 127 123 27 107 121 89 62 0
131 129 125 130 122 127 123 20 103 114 85 59 0
131 129 125 130 122 127 123 71 10 78 66 51 0
131 129 125 130 122 127 123 104 24 118 86 60 0
131 129 125 130 122 127 123 17 31 1 13 6 0
131 129 125 130 122 127 123 93 100 15 81 55 0
131 129 125 130 122 127 123 41 48 4 36 33 0
131 129 125 130 122 127 126 124 27 107 121 47 0
131 129 125 130 122 127 126 124 20 103 114 43 0
131 129 125 130 122 127 126 124 71 10 78 34 0
131 129 125 130 122 127 126 124 104 24 118 45 0
131 129 125 130 122 127 126 124 17 31 1 3 0
131 129 125 130 122 127 126 124 93 100 15 38 0
131 129 125 130 122 127 126 124 83 91 37 12 0
131 129 125 130 122 127 126 124 56 64 32 7 0
131 129 125 130 122 127 126 27 107 121 47 62 0
131 129 125 130 122 127 126 20 103 114 43 59 0
131 129 125 130 122 127 126 71 10 78 34 51 0
131 129 125 130 122 127 126 104 24 118 45 60 0
131 129 125 130 122 127 126 17 31 1 3 6 0
131 129 125 130 122 127 126 93 100 15 38 55 0
131 129 125 130 122 127 126 83 91 37 12 52 0
131 129 125 130 122 127 124 27 107 121 47 89 0
131 129 125 130 122 127 124 20 103 114 43 85 0
131 129 125 130 122 127 124 71 10 78 34 66 0
131 129 125 130 122 127 124 104 24 118 45 86 0
131 129 125 130 122 127 124 17 31 1 3 13 0
131 129 125 130 122 127 124 93 100 15 38 81 0
131 129 125 130 122 127 124 56 64 32 53 7 0
131 129 125 130 122 127 27 107 121 47 89 62 0
131 129 125 130 122 127 20 103 114 43 85 59 0
131 129 125 130 122 127 71 10 78 34 66 51 0
131 129 125 130 122 127 104 24 118 45 86 60 0
131 129 125 130 122 127 17 31 1 3 13 6 0
131 129 125 130 122 127 93 100 15 38 81 55 0
131 129 125 130 122 123 126 124 27 107 121 99 0
131 129 125 130 122 123 126 124 20 103 114 95 0
131 129 125 130 122 123 126 124 71 10 78 68 0
131 129 125 130 122 123 126 124 104 24 118 97 0
131 129 125 130 122 123 126 124 17 31 1 14 0
131 129 125 130 122 123 126 124 41 48 39 4 0
131 129 125 130 122 123 126 124 83 91 80 12 0
131 129 125 130 122 123 126 124 56 64 54 7 0
131 129 125 130 122 123 126 27 107 121 99 62 0
131 129 125 130 122 123 126 20 103 114 95 59 0
131 129 125 130 122 123 126 71 10 78 68 51 0
131 129 125 130 122 123 126 104 24 118 97 60 0
131 129 125 130 122 123 126 17 31 1 14 6 0
131 129 125 130 122 123 126 41 48 39 4 33 0
131 129 125 130 122 123 126 83 91 80 12 52 0
131 129 125 130 122 123 124 27 107 121 99 89 0
131 129 125 130 122 123 124 20 103 114 95 85 0
131 129 125 130 122 123 124 71 10 78 68 66 0
131 129 125 130 122 123 124 104 24 118 97 86 0
131 129 125 130 122 123 124 17 31 1 14 13 0
131 129 125 130 122 123 124 41 48 39 4 36 0
131 129 125 130 122 123 124 56 64 54 53 7 0
131 129 125 130 122 123 27 107 121 99 89 62 0
131 129 125 130 122 123 20 103 114 95 85 59 0
131 129 125 130 122 123 71 10 78 68 66 51 0
131 129 125 130 122 123 104 24 118 97 86 60 0
131 129 125 130 122 123 17 31 1 14 13 6 0
131 129 125 130 122 123 41 48 39 4 36 33 0
131 129 125 130 122 126 124 27 107 121 99 47 0
131 129 125 130 122 126 124 20 103 114 95 43 0
131 129 125 130 122 126 124 71 10 78 68 34 0
131 129 125 130 122 126 124 104 24 118 97 45 0
131 129 125 130 122 126 124 17 31 1 14 3 0
131 129 125 130 122 126 124 83 91 80 37 12 0
131 129 125 130 122 126 124 56 64 54 32 7 0
131 129 125 130 122 126 27 107 121 99 47 62 0
131 129 125 130 122 126 20 103 114 95 43 59 0
131 129 125 130 122 126 71 10 78 68 34 51 0
131 129 125 130 122 126 104 24 118 97 45 60 0
131 129 125 130 122 126 17 31 1 14 3 6 0
131 129 125 130 122 126 83 91 80 37 12 52 0
131 129 125 130 122 124 27 107 121 99 47 89 0
131 129 125 130 122 124 20 103 114 95 43 85 0
131 129 125 130 122 124 71 10 78 68 34 66 0
131 129 125 130 122 124 104 24 118 97 45 86 0
131 129 125 130 122 124 17 31 1 14 3 13 0
131 129 125 130 122 124 56 64 54 32 53 7 0
131 129 125 130 122 27 107 121 99 47 89 62 0
131 129 125 130 122 20 103 114 95 43 85 59 0
131 129 125 130 122 71 10 78 68 34 66 51 0
131 129 125 130 122 104 24 118 97 45 86 60 0
131 129 125 130 122 17 31 1 14 3 13 6 0
131 129 125 130 127 123 126 124 27 107 121 26 0
131 129 125 130 127 123 126 124 20 103 114 22 0
131 129 125 130 127 123 126 124 71 10 78 9 0
131 129 125 130 127 123 126 124 104 24 118 25 0
131 129 125 130 127 123 126 124 93 100 16 15 0
131 129 125 130 127 123 126 124 41 48 2 4 0
131 129 125 130 127 123 126 124 83 91 11 12 0
131 129 125 130 127 123 126 124 56 64 5 7 0
131 129 125 130 127 123 126 27 107 121 26 62 0
131 129 125 130 127 123 126 20 103 114 22 59 0
131 129 125 130 127 123 126 71 10 78 9 51 0
131 129 125 130 127 123 126 104 24 118 25 60 0
131 129 125 130 127 123 126 93 100 16 15 55 0
131 129 125 130 127 123 126 41 48 2 4 33 0
131 129 125 130 127 123 126 83 91 11 12 52 0
131 129 125 130 127 123 124 27 107 121 26 89 0
131 129 125 130 127 123 124 20 103 114 22 85 0
131 129 125 130 127 123 124 71 10 78 9 66 0
131 129 125 130 127 123 124 104 24 118 25 86 0
131 129 125 130 127 123 124 93 100 16 15 81 0
131 129 125 130 127 123 124 41 48 2 4 36 0
131 129 125 130 127 123 124 56 64 5 53 7 0
131 129 125 130 127 123 27 107 121 26 89 62 0
131 129 125 130 127 123 20 103 114 22 85 59 0
131 129 125 130 127 123 71 10 78 9 66 51 0
131 129 125 130 127 123 104 24 118 25 86 60 0
131 129 125 130 127 123 93 100 16 15 81 55 0
131 129 125 130 127 123 41 48 2 4 36 33 0
131 129 125 130 127 126 124 27 107 121 26 47 0
131 129 125 130 127 126 124 20 103 114 22 43 0
131 129 125 130 127 126 124 71 10 78 9 34 0
131 129 125 130 127 126 124 104 24 118 25 45 0
131 129 125 130 127 126 124 93 100 16 15 38 0
131 129 125 130 127 126 124 83 91 11 37 12 0
131 129 125 130 127 126 124 56 64 5 32 7 0
131 129 125 130 127 126 27 107 121 26 47 62 0
131 129 125 130 127 126 20 103 114 22 43 59 0
131 129 125 130 127 126 71 10 78 9 34 51 0
131 129 125 130 127 126 104 24 118 25 45 60 0
131 129 125 130 127 126 93 100 16 15 38 55 0
131 129 125 130 127 126 83 91 11 37 12 52 0
131 129 125 130 127 124 27 107 121 26 47 89 0
131 129 125 130 127 124 20 103 114 22 43 85 0
131 129 125 130 127 124 71 10 78 9 34 66 0
131 129 125 130 127 124 104 24 118 25 45 86 0
131 129 125 130 127 124 93 100 16 15 38 81 0
131 129 125 130 127 124 56 64 5 32 53 7 0
131 129 125 130 127 27 107 121 26 47 89 62 0
131 129 125 130 127 20 103 114 22 43 85 59 0
131 129 125 130 127 71 10 78 9 34 66 51 0
131 129 125 130 127 104 24 118 25 45 86 60 0
131 129 125 130 127 93 100 16 15 38 81 55 0
131 129 125 130 123 126 124 27 107 121 26 99 0
131 129 125 130 123 126 124 20 103 114 22 95 0
131 129 125 130 123 126 124 71 10 78 9 68 0
131 129 125 130 123 126 124 104 24 118 25 97 0
131 129 125 130 123 126 124 41 48 2 39 4 0
131 129 125 130 123 126 124 83 91 11 80 12 0
131 129 125 130 123 126 124 56 64 5 54 7 0
131 129 125 130 123 126 27 107 121 26 99 62 0
131 129 125 130 123 126 20 103 114 22 95 59 0
131 129 125 130 123 126 71 10 78 9 68 51 0
131 129 125 130 123 126 104 24 118 25 97 60 0
131 129 125 130 123 126 41 48 2 39 4 33 0
131 129 125 130 123 126 83 91 11 80 12 52 0
131 129 125 130 123 124 27 107 121 26 99 89 0
131 129 125 130 123 124 20 103 114 22 95 85 0
131 129 125 130 123 124 71 10 78 9 68 66 0
131 129 125 130 123 124 104 24 118 25 97 86 0
131 129 125 130 123 124 41 48 2 39 4 36 0
131 129 125 130 123 124 56 64 5 54 53 7 0
131 129 125 130 123 27 107 121 26 99 89 62 0
131 129 125 130 123 20 103 114 22 95 85 59 0
131 129 125 130 123 71 10 78 9 68 66 51 0
131 129 125 130 123 104 24 118 25 97 86 60 0
131 129 125 130 123 41 48 2 39 4 36 33 0
131 129 125 130 126 124 27 107 121 26 99 47 0
131 129 125 130 126 124 20 103 114 22 95 43 0
131 129 125 130 126 124 71 10 78 9 68 34 0
131 129 125 130 126 124 104 24 118 25 97 45 0
131 129 125 130 126 124 83 91 11 80 37 12 0
131 129 125 130 126 124 56 64 5 54 32 7 0
131 129 125 130 126 27 107 121 26 99 47 62 0
131 129 125 130 126 20 103 114 22 95 43 59 0
131 129 125 130 126 71 10 78 9 68 34 51 0
131 129 125 130 126 104 24 118 25 97 45 60 0
131 129 125 130 126 83 91 11 80 37 12 52 0
131 129 125 130 124 27 107 121 26 99 47 89 0
131 129 125 130 124 20 103 114 22 95 43 85 0
131 129 125 130 124 71 10 78 9 68 34 66 0
131 129 125 130 124 104 24 118 25 97 45 86 0
131 129 125 130 124 56 64 5 54 32 53 7 0
131 129 125 130 27 107 121 26 99 47 89 62 0
131 129 125 130 20 103 114 22 95 43 85 59 0
131 129 125 130 71 10 78 9 68 34 66 51 0
131 129 125 130 104 24 118 25 97 45 86 60 0
131 129 125 132 122 127 123 126 124 27 107 116 0
131 129 125 132 122 127 123 126 124 20 103 111 0
131 129 125 132 122 127 123 126 124 71 10 75 0
131 129 125 132 122 127 123 126 124 108 119 30 0
131 129 125 132 122 127 123 126 124 17 23 1 0
131 129 125 132 122 127 123 126 124 93 96 15 0
131 129 125 132 122 127 123 126 124 41 44 4 0
131 129 125 132 122 127 123 126 124 83 87 12 0
131 129 125 132 122 127 123 126 124 56 61 7 0
131 129 125 132 122 127 123 126 27 107 116 62 0
131 129 125 132 122 127 123 126 20 103 111 59 0
131 129 125 132 122 127 123 126 71 10 75 51 0
131 129 125 132 122 127 123 126 108 119 30 65 0
131 129 125 132 122 127 123 126 17 23 1 6 0
131 129 125 132 122 127 123 126 93 96 15 55 0
131 129 125 132 122 127 123 126 41 44 4 33 0
131 129 125 132 122 127 123 126 83 87 12 52 0
131 129 125 132 122 127 123 124 27 107 116 89 0
131 129 125 132 122 127 123 124 20 103 111 85 0
131 129 125 132 122 127 123 124 71 10 75 66 0
131 129 125 132 122 127 123 124 108 119 30 90 0
131 129 125 132 122 127 123 124 17 23 1 13 0
131 129 125 132 122 127 123 124 93 96 15 81 0
131 129 125 132 122 127 123 124 41 44 4 36 0
131 129 125 132 122 127 123 124 56 61 53 7 0
131 129 125 132 122 127 123 27 107 116 89 62 0
131 129 125 132 122 127 123 20 103 111 85 59 0
131 129 125 132 122 127 123 71 10 75 66 51 0
131 129 125 132 122 127 123 108 119 30 90 65 0
131 129 125 132 122 127 123 17 23 1 13 6 0
131 129 125 132 122 127 123 93 96 15 81 55 0
131 129 125 132 122 127 123 41 44 4 36 33 0
131 129 125 132 122 127 126 124 27 107 116 47 0
131 129 125 132 122 127 126 124 20 103 111 43 0
131 129 125 132 122 127 126 124 71 10 75 34 0
131 129 125 132 122 127 126 124 108 119 30 49 0
131 129 125 132 122 127 126 124 17 23 1 3 0
131 129 125 132 122 127 126 124 93 96 15 38 0
131 129 125 132 122 127 126 124 83 87 37 12 0
131 129 125 132 122 127 126 124 56 61 32 7 0
131 129 125 132 122 127 126 27 107 116 47 62 0
131 129 125 132 122 127 126 20 103 111 43 59 0
131 129 125 132 122 127 126 71 10 75 34 51 0
131 129 125 132 122 127 126 108 119 30 49 65 0
131 129 125 132 122 127 126 17 23 1 3 6 0
131 129 125 132 122 127 126 93 96 15 38 55 0
131 129 125 132 122 127 126 83 87 37 12 52 0
131 129 125 132 122 127 124 27 107 116 47 89 0
131 129 125 132 122 127 124 20 103 111 43 85 0
131 129 125 132 122 127 124 71 10 75 34 66 0
131 129 125 132 122 127 124 108 119 30 49 90 0
131 129 125 132 122 127 124 17 23 1 3 13 0
131 129 125 132 122 127 124 93 96 15 38 81 0
131 129 125 132 122 127 124 56 61 32 53 7 0
131 129 125 132 122 127 27 107 116 47 89 62 0
131 129 125 132 122 127 20 103 111 43 85 59 0
131 129 125 132 122 127 71 10 75 34 66 51 0
131 129 125 132 122 127 108 119 30 49 90 65 0
131 129 125 132 122 127 17 23 1 3 13 6 0
131 129 125 132 122 127 93 96 15 38 81 55 0
131 129 125 132 122 123 126 124 27 107 116 99 0
131 129 125 132 122 123 126 124 20 103 111 95 0
131 129 125 132 122 123 126 124 71 10 75 68 0
131 129 125 132 122 123 126 124 108 119 30 101 0
131 129 125 132 122 123 126 124 17 23 1 14 0
131 129 125 132 122 123 126 124 41 44 39 4 0
131 129 125 132 122 123 126 124 83 87 80 12 0
131 129 125 132 122 123 126 124 56 61 54 7 0
131 129 125 132 122 123 126 27 107 116 99 62 0
131 129 125 132 122 123 126 20 103 111 95 59 0
131 129 125 132 122 123 126 71 10 75 68 51 0
131 129 125 132 122 123 126 108 119 30 101 65 0
131 129 125 132 122 123 126 17 23 1 14 6 0
131 129 125 132 122 123 126 41 44 39 4 33 0
131 129 125 132 122 123 126 83 87 80 12 52 0
131 129 125 132 122 123 124 27 107 116 99 89 0
131 129 125 132 122 123 124 20 103 111 95 85 0
131 129 125 132 122 123 124 71 10 75 68 66 0
131 129 125 132 122 123 124 108 119 30 101 90 0
131 129 125 132 122 123 124 17 23 1 14 13 0
131 129 125 132 122 123 124 41 44 39 4 36 0
131 129 125 132 122 123 124 56 61 54 53 7 0
131 129 125 132 122 123 27 107 116 99 89 62 0
131 129 125 132 122 123 20 103 111 95 85 59 0
131 129 125 132 122 123 71 10 75 68 66 51 0
131 129 125 132 122 123 108 119 30 101 90 65 0
131 129 125 132 122 123 17 23 1 14 13 6 0
131 129 125 132 122 123 41 44 39 4 36 33 0
131 129 125 132 122 126 124 27 107 116 99 47 0
131 129 125 132 122 126 124 20 103 111 95 43 0
131 129 125 132 122 126 124 71 10 75 68 34 0
131 129 125 132 122 126 124 108 119 30 101 49 0
131 129 125 132 122 126 124 17 23 1 14 3 0
131 129 125 132 122 126 124 83 87 80 37 12 0
131 129 125 132 122 126 124 56 61 54 32 7 0
131 129 125 132 122 126 27 107 116 99 47 62 0
131 129 125 132 122 126 20 103 111 95 43 59 0
131 129 125 132 122 126 71 10 75 68 34 51 0
131 129 125 132 122 126 108 119 30 101 49 65 0
131 129 125 132 122 126 17 23 1 14 3 6 0
131 129 125 132 122 126 83 87 80 37 12 52 0
131 129 125 132 122 124 27 107 116 99 47 89 0
131 129 125 132 122 124 20 103 111 95 43 85 0
131 129 125 132 122 124 71 10 75 68 34 66 0
131 129 125 132 122 124 108 119 30 101 49 90 0
131 129 125 132 122 124 17 23 1 14 3 13 0
131 129 125 132 122 124 56 61 54 32 53 7 0
131 129 125 132 122 27 107 116 99 47 89 62 0
131 129 125 132 122 20 103 111 95 43 85 59 0
131 129 125 132 122 71 10 75 68 34 66 51 0
131 129 125 132 122 108 119 30 101 49 90 65 0
131 129 125 132 122 17 23 1 14 3 13 6 0
131 129 125 132 127 123 126 124 27 107 116 26 0
131 129 125 132 127 123 126 124 20 103 111 22 0
131 129 125 132 127 123 126 124 71 10 75 9 0
131 129 125 132 127 123 126 124 108 119 30 29 0
131 129 125 132 127 123 126 124 93 96 16 15 0
131 129 125 132 127 123 126 124 41 44 2 4 0
131 129 125 132 127 123 126 124 83 87 11 12 0
131 129 125 132 127 123 126 124 56 61 5 7 0
131 129 125 132 127 123 126 27 107 116 26 62 0
131 129 125 132 127 123 126 20 103 111 22 59 0
131 129 125 132 127 123 126 71 10 75 9 51 0
131 129 125 132 127 123 126 108 119 30 29 65 0
131 129 125 132 127 123 126 93 96 16 15 55 0
131 129 125 132 127 123 126 41 44 2 4 33 0
131 129 125 132 127 123 126 83 87 11 12 52 0
131 129 125 132 127 123 124 27 107 116 26 89 0
131 129 125 132 127 123 124 20 103 111 22 85 0
131 129 125 132 127 123 124 71 10 75 9 66 0
131 129 125 132 127 123 124 108 119 30 29 90 0
131 129 125 132 127 123 124 93 96 16 15 81 0
131 129 125 132 127 123 124 41 44 2 4 36 0
131 129 125 132 127 123 124 56 61 5 53 7 0
131 129 125 132 127 123 27 107 116 26 89 62 0
131 129 125 132 127 123 20 103 111 22 85 59 0
131 129 125 132 127 123 71 10 75 9 66 51 0
131 129 125 132 127 123 108 119 30 29 90 65 0
131 129 125 132 127 123 93 96 16 15 81 55 0
131 129 125 132 127 123 41 44 2 4 36 33 0
131 129 125 132 127 126 124 27 107 116 26 47 0
131 129 125 132 127 126 124 20 103 111 22 43 0
131 129 125 132 127 126 124 71 10 75 9 34 0
131 129 125 132 127 126 124 108 119 30 29 49 0
131 129 125 132 127 126 124 93 96 16 15 38 0
131 129 125 132 127 126 124 83 87 11 37 12 0
131 129 125 132 127 126 124 56 61 5 32 7 0
131 129 125 132 127 126 27 107 116 26 47 62 0
131 129 125 132 127 126 20 103 111 22 43 59 0
131 129 125 132 127 126 71 10 75 9 34 51 0
131 129 125 132 127 126 108 119 30 29 49 65 0
131 129 125 132 127 126 93 96 16 15 38 55 0
131 129 125 132 127 126 83 87 11 37 12 52 0
131 129 125 132 127 124 27 107 116 26 47 89 0
131 129 125 132 127 124 20 103 111 22 43 85 0
131 129 125 132 127 124 71 10 75 9 34 66 0
131 129 125 132 127 124 108 119 30 29 49 90 0
131 129 125 132 127 124 93 96 16 15 38 81 0
131 129 125 132 127 124 56 61 5 32 53 7 0
131 129 125 132 127 27 107 116 26 47 89 62 0
131 129 125 132 127 20 103 111 22 43 85 59 0
131 129 125 132 127 71 10 75 9 34 66 51 0
131 129 125 132 127 108 119 30 29 49 90 65 0
131 129 125 132 127 93 96 16 15 38 81 55 0
131 129 125 132 123 126 124 27 107 116 26 99 0
131 129 125 132 123 126 124 20 103 111 22 95 0
131 129 125 132 123 126 124 71 10 75 9 68 0
131 129 125 132 123 126 124 108 119 30 29 101 0
131 129 125 132 123 126 124 41 44 2 39 4 0
131 129 125 132 123 126 124 83 87 11 80 12 0
131 129 125 132 123 126 124 56 61 5 54 7 0
131 129 125 132 123 126 27 107 116 26 99 62 0
131 129 125 132 123 126 20 103 111 22 95 59 0
131 129 125 132 123 126 71 10 75 9 68 51 0
131 129 125 132 123 126 108 119 30 29 101 65 0
131 129 125 132 123 126 41 44 2 39 4 33 0
131 129 125 132 123 126 83 87 11 80 12 52 0
131 129 125 132 123 124 27 107 116 26 99 89 0
131 129 125 132 123 124 20 103 111 22 95 85 0
131 129 125 132 123 124 71 10 75 9 68 66 0
131 129 125 132 123 124 108 119 30 29 101 90 0
131 129 125 132 123 124 41 44 2 39 4 36 0
131 129 125 132 123 124 56 61 5 54 53 7 0
131 129 125 132 123 27 107 116 26 99 89 62 0
131 129 125 132 123 20 103 111 22 95 85 59 0
131 129 125 132 123 71 10 75 9 68 66 51 0
131 129 125 132 123 108 119 30 29 101 90 65 0
131 129 125 132 123 41 44 2 39 4 36 33 0
131 129 125 132 126 124 27 107 116 26 99 47 0
131 129 125 132 126 124 20 103 111 22 95 43 0
131 129 125 132 126 124 71 10 75 9 68 34 0
131 129 125 132 126 124 108 119 30 29 101 49 0
131 129 125 132 126 124 83 87 11 80 37 12 0
131 129 125 132 126 124 56 61 5 54 32 7 0
131 129 125 132 126 27 107 116 26 99 47 62 0
131 129 125 132 126 20 103 111 22 95 43 59 0
131 129 125 132 126 71 10 75 9 68 34 51 0
131 129 125 132 126 108 119 30 29 101 49 65 0
131 129 125 132 126 83 87 11 80 37 12 52 0
131 129 125 132 124 27 107 116 26 99 47 89 0
131 129 125 132 124 20 103 111 22 95 43 85 0
131 129 125 132 124 71 10 75 9 68 34 66 0
131 129 125 132 124 108 119 30 29 101 49 90 0
131 129 125 132 124 56 61 5 54 32 53 7 0
131 129 125 132 27 107 116 26 99 47 89 62 0
131 129 125 132 20 103 111 22 95 43 85 59 0
131 129 125 132 71 10 75 9 68 34 66 51 0
131 129 125 132 108 119 30 29 101 49 90 65 0
131 129 125 122 127 123 126 124 27 107 116 121 0
131 129 125 122 127 123 126 124 20 103 111 114 0
131 129 125 122 127 123 126 124 71 10 75 78 0
131 129 125 122 127 123 126 124 17 23 31 1 0
131 129 125 122 127 123 126 124 93 96 100 15 0
131 129 125 122 127 123 126 124 41 44 48 4 0
131 129 125 122 127 123 126 124 83 87 91 12 0
131 129 125 122 127 123 126 124 56 61 64 7 0
131 129 125 122 127 123 126 27 107 116 121 62 0
131 129 125 122 127 123 126 20 103 111 114 59 0
131 129 125 122 127 123 126 71 10 75 78 51 0
131 129 125 122 127 123 126 17 23 31 1 6 0
131 129 125 122 127 123 126 93 96 100 15 55 0
131 129 125 122 127 123 126 41 44 48 4 33 0
131 129 125 122 127 123 126 83 87 91 12 52 0
131 129 125 122 127 123 124 27 107 116 121 89 0
131 129 125 122 127 123 124 20 103 111 114 85 0
131 129 125 122 127 123 124 71 10 75 78 66 0
131 129 125 122 127 123 124 17 23 31 1 13 0
131 129 125 122 127 123 124 93 96 100 15 81 0
131 129 125 122 127 123 124 41 44 48 4 36 0
131 129 125 122 127 123 124 56 61 64 53 7 0
131 129 125 122 127 123 27 107 116 121 89 62 0
131 129 125 122 127 123 20 103 111 114 85 59 0
131 129 125 122 127 123 71 10 75 78 66 51 0
131 129 125 122 127 123 17 23 31 1 13 6 0
131 129 125 122 127 123 93 96 100 15 81 55 0
131 129 125 122 127 123 41 44 48 4 36 33 0
131 129 125 122 127 126 124 27 107 116 121 47 0
131 129 125 122 127 126 124 20 103 111 114 43 0
131 129 125 122 127 126 124 71 10 75 78 34 0
131 129 125 122 127 126 124 17 23 31 1 3 0
131 129 125 122 127 126 124 93 96 100 15 38 0
131 129 125 122 127 126 124 83 87 91 37 12 0
131 129 125 122 127 126 124 56 61 64 32 7 0
131 129 125 122 127 126 27 107 116 121 47 62 0
131 129 125 122 127 126 20 103 111 114 43 59 0
131 129 125 122 127 126 71 10 75 78 34 51 0
131 129 125 122 127 126 17 23 31 1 3 6 0
131 129 125 122 127 126 93 96 100 15 38 55 0
131 129 125 122 127 126 83 87 91 37 12 52 0
131 129 125 122 127 124 27 107 116 121 47 89 0
131 129 125 122 127 124 20 103 111 114 43 85 0
131 129 125 122 127 124 71 10 75 78 34 66 0
131 129 125 122 127 124 17 23 31 1 3 13 0
131 129 125 122 127 124 93 96 100 15 38 81 0
131 129 125 122 127 124 56 61 64 32 53 7 0
131 129 125 122 127 27 107 116 121 47 89 62 0
131 129 125 122 127 20 103 111 114 43 85 59 0
131 129 125 122 127 71 10 75 78 34 66 51 0
131 129 125 122 127 17 23 31 1 3 13 6 0
131 129 125 122 127 93 96 100 15 38 81 55 0
131 129 125 122 123 126 124 27 107 116 121 99 0
131 129 125 122 123 126 124 20 103 111 114 95 0
131 129 125 122 123 126 124 71 10 75 78 68 0
131 129 125 122 123 126 124 17 23 31 1 14 0
131 129 125 122 123 126 124 41 44 48 39 4 0
131 129 125 122 123 126 124 83 87 91 80 12 0
131 129 125 122 123 126 124 56 61 64 54 7 0
131 129 125 122 123 126 27 107 116 121 99 62 0
131 129 125 122 123 126 20 103 111 114 95 59 0
131 129 125 122 123 126 71 10 75 78 68 51 0
131 129 125 122 123 126 17 23 31 1 14 6 0
131 129 125 122 123 126 41 44 48 39 4 33 0
131 129 125 122 123 126 83 87 91 80 12 52 0
131 129 125 122 123 124 27 107 116 121 99 89 0
131 129 125 122 123 124 20 103 111 114 95 85 0
131 129 125 122 123 124 71 10 75 78 68 66 0
131 129 125 122 123 124 17 23 31 1 14 13 0
131 129 125 122 123 124 41 44 48 39 4 36 0
131 129 125 122 123 124 56 61 64 54 53 7 0
131 129 125 122 123 27 107 116 121 99 89 62 0
131 129 125 122 123 20 103 111 114 95 85 59 0
131 129 125 122 123 71 10 75 78 68 66 51 0
131 129 125 122 123 17 23 31 1 14 13 6 0
131 129 125 122 123 41 44 48 39 4 36 33 0
131 129 125 122 126 124 27 107 116 121 99 47 0
131 129 125 122 126 124 20 103 111 114 95 43 0
131 129 125 122 126 124 71 10 75 78 68 34 0
131 129 125 122 126 124 17 23 31 1 14 3 0
131 129 125 122 126 124 83 87 91 80 37 12 0
131 129 125 122 126 124 56 61 64 54 32 7 0
131 129 125 122 126 27 107 116 121 99 47 62 0
131 129 125 122 126 20 103 111 114 95 43 59 0
131 129 125 122 126 71 10 75 78 68 34 51 0
131 129 125 122 126 17 23 31 1 14 3 6 0
131 129 125 122 126 83 87 91 80 37 12 52 0
131 129 125 122 124 27 107 116 121 99 47 89 0
131 129 125 122 124 20 103 111 114 95 43 85 0
131 129 125 122 124 71 10 75 78 68 34 66 0
131 129 125 122 124 17 23 31 1 14 3 13 0
131 129 125 122 124 56 61 64 54 32 53 7 0
131 129 125 122 27 107 116 121 99 47 89 62 0
131 129 125 122 20 103 111 114 95 43 85 59 0
131 129 125 122 71 10 75 78 68 34 66 51 0
131 129 125 122 17 23 31 1 14 3 13 6 0
131 129 125 127 123 126 124 27 107 116 121 26 0
131 129 125 127 123 126 124 20 103 111 114 22 0
131 129 125 127 123 126 124 71 10 75 78 9 0
131 129 125 127 123 126 124 93 96 100 16 15 0
131 129 125 127 123 126 124 41 44 48 2 4 0
131 129 125 127 123 126 124 83 87 91 11 12 0
131 129 125 127 123 126 124 56 61 64 5 7 0
131 129 125 127 123 126 27 107 116 121 26 62 0
131 129 125 127 123 126 20 103 111 114 22 59 0
131 129 125 127 123 126 71 10 75 78 9 51 0
131 129 125 127 123 126 93 96 100 16 15 55 0
131 129 125 127 123 126 41 44 48 2 4 33 0
131 129 125 127 123 126 83 87 91 11 12 52 0
131 129 125 127 123 124 27 107 116 121 26 89 0
131 129 125 127 123 124 20 103 111 114 22 85 0
131 129 125 127 123 124 71 10 75 78 9 66 0
131 129 125 127 123 124 93 96 100 16 15 81 0
131 129 125 127 123 124 41 44 48 2 4 36 0
131 129 125 127 123 124 56 61 64 5 53 7 0
131 129 125 127 123 27 107 116 121 26 89 62 0
131 129 125 127 123 20 103 111 114 22 85 59 0
131 129 125 127 123 71 10 75 78 9 66 51 0
131 129 125 127 123 93 96 100 16 15 81 55 0
131 129 125 127 123 41 44 48 2 4 36 33 0
131 129 125 127 126 124 27 107 116 121 26 47 0
131 129 125 127 126 124 20 103 111 114 22 43 0
131 129 125 127 126 124 71 10 75 78 9 34 0
131 129 125 127 126 124 93 96 100 16 15 38 0
131 129 125 127 126 124 83 87 91 11 37 12 0
131 129 125 127 126 124 56 61 64 5 32 7 0
131 129 125 127 126 27 107 116 121 26 47 62 0
131 129 125 127 126 20 103 111 114 22 43 59 0
131 129 125 127 126 71 10 75 78 9 34 51 0
131 129 125 127 126 93 96 100 16 15 38 55 0
131 129 125 127 126 83 87 91 11 37 12 52 0
131 129 125 127 124 27 107 116 121 26 47 89 0
131 129 125 127 124 20 103 111 114 22 43 85 0
131 129 125 127 124 71 10 75 78 9 34 66 0
131 129 125 127 124 93 96 100 16 15 38 81 0
131 129 125 127 124 56 61 64 5 32 53 7 0
131 129 125 127 27 107 116 121 26 47 89 62 0
131 129 125 127 20 103 111 114 22 43 85 59 0
131 129 125 127 71 10 75 78 9 34 66 51 0
131 129 125 127 93 96 100 16 15 38 81 55 0
131 129 125 123 126 124 27 107 116 121 26 99 0
131 129 125 123 126 124 20 103 111 114 22 95 0
131 129 125 123 126 124 71 10 75 78 9 68 0
131 129 125 123 126 124 41 44 48 2 39 4 0
131 129 125 123 126 124 83 87 91 11 80 12 0
131 129 125 123 126 124 56 61 64 5 54 7 0
131 129 125 123 126 27 107 116 121 26 99 62 0
131 129 125 123 126 20 103 111 114 22 95 59 0
131 129 125 123 126 71 10 75 78 9 68 51 0
131 129 125 123 126 41 44 48 2 39 4 33 0
131 129 125 123 126 83 87 91 11 80 12 52 0
131 129 125 123 124 27 107 116 121 26 99 89 0
131 129 125 123 124 20 103 111 114 22 95 85 0
131 129 125 123 124 71 10 75 78 9 68 66 0
131 129 125 123 124 41 44 48 2 39 4 36 0
131 129 125 123 124 56 61 64 5 54 53 7 0
131 129 125 123 27 107 116 121 26 99 89 62 0
131 129 125 123 20 103 111 114 22 95 85 59 0
131 129 125 123 71 10 75 78 9 68 66 51 0
131 129 125 123 41 44 48 2 39 4 36 33 0
131 129 125 126 124 27 107 116 121 26 99 47 0
131 129 125 126 124 20 103 111 114 22 95 43 0
131 129 125 126 124 71 10 75 78 9 68 34 0
131 129 125 126 124 83 87 91 11 80 37 12 0
131 129 125 126 124 56 61 64 5 54 32 7 0
131 129 125 126 27 107 116 121 26 99 47 62 0
131 129 125 126 20 103 111 114 22 95 43 59 0
131 129 125 126 71 10 75 78 9 68 34 51 0
131 129 125 126 83 87 91 11 80 37 12 52 0
131 129 125 124 27 107 116 121 26 99 47 89 0
131 129 125 124 20 103 111 114 22 95 43 85 0
131 129 125 124 71 10 75 78 9 68 34 66 0
131 129 125 124 56 61 64 5 54 32 53 7 0
131 129 125 27 107 116 121 26 99 47 89 62 0
131 129 125 20 103 111 114 22 95 43 85 59 0
131 129 125 71 10 75 78 9 68 34 66 51 0
131 129 130 132 122 127 123 126 124 27 107 76 0
131 129 130 132 122 127 123 126 124 20 103 72 0
131 129 130 132 122 127 123 126 124 104 74 24 0
131 129 130 132 122 127 123 126 124 108 79 30 0
131 129 130 132 122 127 123 126 124 17 8 1 0
131 129 130 132 122 127 123 126 124 93 69 15 0
131 129 130 132 122 127 123 126 124 41 35 4 0
131 129 130 132 122 127 123 126 124 83 67 12 0
131 129 130 132 122 127 123 126 124 56 50 7 0
131 129 130 132 122 127 123 126 27 107 76 62 0
131 129 130 132 122 127 123 126 20 103 72 59 0
131 129 130 132 122 127 123 126 104 74 24 60 0
131 129 130 132 122 127 123 126 108 79 30 65 0
131 129 130 132 122 127 123 126 17 8 1 6 0
131 129 130 132 122 127 123 126 93 69 15 55 0
131 129 130 132 122 127 123 126 41 35 4 33 0
131 129 130 132 122 127 123 126 83 67 12 52 0
131 129 130 132 122 127 123 124 27 107 76 89 0
131 129 130 132 122 127 123 124 20 103 72 85 0
131 129 130 132 122 127 123 124 104 74 24 86 0
131 129 130 132 122 127 123 124 108 79 30 90 0
131 129 130 132 122 127 123 124 17 8 1 13 0
131 129 130 132 122 127 123 124 93 69 15 81 0
131 129 130 132 122 127 123 124 41 35 4 36 0
131 129 130 132 122 127 123 124 56 50 53 7 0
131 129 130 132 122 127 123 27 107 76 89 62 0
131 129 130 132 122 127 123 20 103 72 85 59 0
131 129 130 132 122 127 123 104 74 24 86 60 0
131 129 130 132 122 127 123 108 79 30 90 65 0
131 129 130 132 122 127 123 17 8 1 13 6 0
131 129 130 132 122 127 123 93 69 15 81 55 0
131 129 130 132 122 127 123 41 35 4 36 33 0
131 129 130 132 122 127 126 124 27 107 76 47 0
131 129 130 132 122 127 126 124 20 103 72 43 0
131 129 130 132 122 127 126 124 104 74 24 45 0
131 129 130 132 122 127 126 124 108 79 30 49 0
131 129 130 132 122 127 126 124 17 8 1 3 0
131 129 130 132 122 127 126 124 93 69 15 38 0
131 129 130 132 122 127 126 124 83 67 37 12 0
131 129 130 132 122 127 126 124 56 50 32 7 0
131 129 130 132 122 127 126 27 107 76 47 62 0
131 129 130 132 122 127 126 20 103 72 43 59 0
131 129 130 132 122 127 126 104 74 24 45 60 0
131 129 130 132 122 127 126 108 79 30 49 65 0
131 129 130 132 122 127 126 17 8 1 3 6 0
131 129 130 132 122 127 126 93 69 15 38 55 0
131 129 130 132 122 127 126 83 67 37 12 52 0
131 129 130 132 122 127 124 27 107 76 47 89 0
131 129 130 132 122 127 124 20 103 72 43 85 0
131 129 130 132 122 127 124 104 74 24 45 86 0
131 129 130 132 122 127 124 108 79 30 49 90 0
131 129 130 132 122 127 124 17 8 1 3 13 0
131 129 130 132 122 127 124 93 69 15 38 81 0
131 129 130 132 122 127 124 56 50 32 53 7 0
131 129 130 132 122 127 27 107 76 47 89 62 0
131 129 130 132 122 127 20 103 72 43 85 59 0
131 129 130 132 122 127 104 74 24 45 86 60 0
131 129 130 132 122 127 108 79 30 49 90 65 0
131 129 130 132 122 127 17 8 1 3 13 6 0
131 129 130 132 122 127 93 69 15 38 81 55 0
131 129 130 132 122 123 126 124 27 107 76 99 0
131 129 130 132 122 123 126 124 20 103 72 95 0
131 129 130 132 122 123 126 124 104 74 24 97 0
131 129 130 132 122 123 126 124 108 79 30 101 0
131 129 130 132 122 123 126 124 17 8 1 14 0
131 129 130 132 122 123 126 124 41 35 39 4 0
131 129 130 132 122 123 126 124 83 67 80 12 0
131 129 130 132 122 123 126 124 56 50 54 7 0
131 129 130 132 122 123 126 27 107 76 99 62 0
131 129 130 132 122 123 126 20 103 72 95 59 0
131 129 130 132 122 123 126 104 74 24 97 60 0
131 129 130 132 122 123 126 108 79 30 101 65 0
131 129 130 132 122 123 126 17 8 1 14 6 0
131 129 130 132 122 123 126 41 35 39 4 33 0
131 129 130 132 122 123 126 83 67 80 12 52 0
131 129 130 132 122 123 124 27 107 76 99 89 0
131 129 130 132 122 123 124 20 103 72 95 85 0
131 129 130 132 122 123 124 104 74 24 97 86 0
131 129 130 132 122 123 124 108 79 30 101 90 0
131 129 130 132 122 123 124 17 8 1 14 13 0
131 129 130 132 122 123 124 41 35 39 4 36 0
131 129 130 132 122 123 124 56 50 54 53 7 0
131 129 130 132 122 123 27 107 76 99 89 62 0
131 129 130 132 122 123 20 103 72 95 85 59 0
131 129 130 132 122 123 104 74 24 97 86 60 0
131 129 130 132 122 123 108 79 30 101 90 65 0
131 129 130 132 122 123 17 8 1 14 13 6 0
131 129 130 132 122 123 41 35 39 4 36 33 0
131 129 130 132 122 126 124 27 107 76 99 47 0
131 129 130 132 122 126 124 20 103 72 95 43 0
131 129 130 132 122 126 124 104 74 24 97 45 0
131 129 130 132 122 126 124 108 79 30 101 49 0
131 129 130 132 122 126 124 17 8 1 14 3 0
131 129 130 132 122 126 124 83 67 80 37 12 0
131 129 130 132 122 126 124 56 50 54 32 7 0
131 129 130 132 122 126 27 107 76 99 47 62 0
131 129 130 132 122 126 20 103 72 95 43 59 0
131 129 130 132 122 126 104 74 24 97 45 60 0
131 129 130 132 122 126 108 79 30 101 49 65 0
131 129 130 132 122 126 17 8 1 14 3 6 0
131 129 130 132 122 126 83 67 80 37 12 52 0
131 129 130 132 122 124 27 107 76 99 47 89 0
131 129 130 132 122 124 20 103 72 95 43 85 0
131 129 130 132 122 124 104 74 24 97 45 86 0
131 129 130 132 122 124 108 79 30 101 49 90 0
131 129 130 132 122 124 17 8 1 14 3 13 0
131 129 130 132 122 124 56 50 54 32 53 7 0
131 129 130 132 122 27 107 76 99 47 89 62 0
131 129 130 132 122 20 103 72 95 43 85 59 0
131 129 130 132 122 104 74 24 97 45 86 60 0
131 129 130 132 122 108 79 30 101 49 90 65 0
131 129 130 132 122 17 8 1 14 3 13 6 0
131 129 130 132 127 123 126 124 27 107 76 26 0
131 129 130 132 127 123 126 124 20 103 72 22 0
131 129 130 132 127 123 126 124 104 74 24 25 0
131 129 130 132 127 123 126 124 108 79 30 29 0
131 129 130 132 127 123 126 124 93 69 16 15 0
131 129 130 132 127 123 126 124 41 35 2 4 0
131 129 130 132 127 123 126 124 83 67 11 12 0
131 129 130 132 127 123 126 124 56 50 5 7 0
131 129 130 132 127 123 126 27 107 76 26 62 0
131 129 130 132 127 123 126 20 103 72 22 59 0
131 129 130 132 127 123 126 104 74 24 25 60 0
131 129 130 132 127 123 126 108 79 30 29 65 0
131 129 130 132 127 123 126 93 69 16 15 55 0
131 129 130 132 127 123 126 41 35 2 4 33 0
131 129 130 132 127 123 126 83 67 11 12 52 0
131 129 130 132 127 123 124 27 107 76 26 89 0
131 129 130 132 127 123 124 20 103 72 22 85 0
131 129 130 132 127 123 124 104 74 24 25 86 0
131 129 130 132 127 123 124 108 79 30 29 90 0
131 129 130 132 127 123 124 93 69 16 15 81 0
131 129 130 132 127 123 124 41 35 2 4 36 0
131 129 130 132 127 123 124 56 50 5 53 7 0
131 129 130 132 127 123 27 107 76 26 89 62 0
131 129 130 132 127 123 20 103 72 22 85 59 0
131 129 130 132 127 123 104 74 24 25 86 60 0
131 129 130 132 127 123 108 79 30 29 90 65 0
131 129 130 132 127 123 93 69 16 15 81 55 0
131 129 130 132 127 123 41 35 2 4 36 33 0
131 129 130 132 127 126 124 27 107 76 26 47 0
131 129 130 132 127 126 124 20 103 72 22 43 0
131 129 130 132 127 126 124 104 74 24 25 45 0
131 129 130 132 127 126 124 108 79 30 29 49 0
131 129 130 132 127 126 124 93 69 16 15 38 0
131 129 130 132 127 126 124 83 67 11 37 12 0
131 129 130 132 127 126 124 56 50 5 32 7 0
131 129 130 132 127 126 27 107 76 26 47 62 0
131 129 130 132 127 126 20 103 72 22 43 59 0
131 129 130 132 127 126 104 74 24 25 45 60 0
131 129 130 132 127 126 108 79 30 29 49 65 0
131 129 130 132 127 126 93 69 16 15 38 55 0
131 129 130 132 127 126 83 67 11 37 12 52 0
131 129 130 132 127 124 27 107 76 26 47 89 0
131 129 130 132 127 124 20 103 72 22 43 85 0
131 129 130 132 127 124 104 74 24 25 45 86 0
131 129 130 132 127 124 108 79 30 29 49 90 0
131 129 130 132 127 124 93 69 16 15 38 81 0
131 129 130 132 127 124 56 50 5 32 53 7 0
131 129 130 132 127 27 107 76 26 47 89 62 0
131 129 130 132 127 20 103 72 22 43 85 59 0
131 129 130 132 127 104 74 24 25 45 86 60 0
131 129 130 132 127 108 79 30 29 49 90 65 0
131 129 130 132 127 93 69 16 15 38 81 55 0
131 129 130 132 123 126 124 27 107 76 26 99 0
131 129 130 132 123 126 124 20 103 72 22 95 0
131 129 130 132 123 126 124 104 74 24 25 97 0
131 129 130 132 123 126 124 108 79 30 29 101 0
131 129 130 132 123 126 124 41 35 2 39 4 0
131 129 130 132 123 126 124 83 67 11 80 12 0
131 129 130 132 123 126 124 56 50 5 54 7 0
131 129 130 132 123 126 27 107 76 26 99 62 0
131 129 130 132 123 126 20 103 72 22 95 59 0
131 129 130 132 123 126 104 74 24 25 97 60 0
131 129 130 132 123 126 108 79 30 29 101 65 0
131 129 130 132 123 126 41 35 2 39 4 33 0
131 129 130 132 123 126 83 67 11 80 12 52 0
131 129 130 132 123 124 27 107 76 26 99 89 0
131 129 130 132 123 124 20 103 72 22 95 85 0
131 129 130 132 123 124 104 74 24 25 97 86 0
131 129 130 132 123 124 108 79 30 29 101 90 0
131 129 130 132 123 124 41 35 2 39 4 36 0
131 129 130 132 123 124 56 50 5 54 53 7 0
131 129 130 132 123 27 107 76 26 99 89 62 0
131 129 130 132 123 20 103 72 22 95 85 59 0
131 129 130 132 123 104 74 24 25 97 86 60 0
131 129 130 132 123 108 79 30 29 101 90 65 0
131 129 130 132 123 41 35 2 39 4 36 33 0
131 129 130 132 126 124 27 107 76 26 99 47 0
131 129 130 132 126 124 20 103 72 22 95 43 0
131 129 130 132 126 124 104 74 24 25 97 45 0
131 129 130 132 126 124 108 79 30 29 101 49 0
131 129 130 132 126 124 83 67 11 80 37 12 0
131 129 130 132 126 124 56 50 5 54 32 7 0
131 129 130 132 126 27 107 76 26 99 47 62 0
131 129 130 132 126 20 103 72 22 95 43 59 0
131 129 130 132 126 104 74 24 25 97 45 60 0
131 129 130 132 126 108 79 30 29 101 49 65 0
131 129 130 132 126 83 67 11 80 37 12 52 0
131 129 130 132 124 27 107 76 26 99 47 89 0
131 129 130 132 124 20 103 72 22 95 43 85 0
131 129 130 132 124 104 74 24 25 97 45 86 0
131 129 130 132 124 108 79 30 29 101 49 90 0
131 129 130 132 124 56 50 5 54 32 53 7 0
131 129 130 132 27 107 76 26 99 47 89 62 0
131 129 130 132 20 103 72 22 95 43 85 59 0
131 129 130 132 104 74 24 25 97 45 86 60 0
131 129 130 132 108 79 30 29 101 49 90 65 0
131 129 130 122 127 123 126 124 27 107 76 121 0
131 129 130 122 127 123 126 124 20 103 72 114 0
131 129 130 122 127 123 126 124 104 74 24 118 0
131 129 130 122 127 123 126 124 17 8 31 1 0
131 129 130 122 127 123 126 124 93 69 100 15 0
131 129 130 122 127 123 126 124 41 35 48 4 0
131 129 130 122 127 123 126 124 83 67 91 12 0
131 129 130 122 127 123 126 124 56 50 64 7 0
131 129 130 122 127 123 126 27 107 76 121 62 0
131 129 130 122 127 123 126 20 103 72 114 59 0
131 129 130 122 127 123 126 104 74 24 118 60 0
131 129 130 122 127 123 126 17 8 31 1 6 0
131 129 130 122 127 123 126 93 69 100 15 55 0
131 129 130 122 127 123 126 41 35 48 4 33 0
131 129 130 122 127 123 126 83 67 91 12 52 0
131 129 130 122 127 123 124 27 107 76 121 89 0
131 129 130 122 127 123 124 20 103 72 114 85 0
131 129 130 122 127 123 124 104 74 24 118 86 0
131 129 130 122 127 123 124 17 8 31 1 13 0
131 129 130 122 127 123 124 93 69 100 15 81 0
131 129 130 122 127 123 124 41 35 48 4 36 0
131 129 130 122 127 123 124 56 50 64 53 7 0
131 129 130 122 127 123 27 107 76 121 89 62 0
131 129 130 122 127 123 20 103 72 114 85 59 0
131 129 130 122 127 123 104 74 24 118 86 60 0
131 129 130 122 127 123 17 8 31 1 13 6 0
131 129 130 122 127 123 93 69 100 15 81 55 0
131 129 130 122 127 123 41 35 48 4 36 33 0
131 129 130 122 127 126 124 27 107 76 121 47 0
131 129 130 122 127 126 124 20 103 72 114 43 0
131 129 130 122 127 126 124 104 74 24 118 45 0
131 129 130 122 127 126 124 17 8 31 1 3 0
131 129 130 122 127 126 124 93 69 100 15 38 0
131 129 130 122 127 126 124 83 67 91 37 12 0
131 129 130 122 127 126 124 56 50 64 32 7 0
131 129 130 122 127 126 27 107 76 121 47 62 0
131 129 130 122 127 126 20 103 72 114 43 59 0
131 129 130 122 127 126 104 74 24 118 45 60 0
131 129 130 122 127 126 17 8 31 1 3 6 0
131 129 130 122 127 126 93 69 100 15 38 55 0
131 129 130 122 127 126 83 67 91 37 12 52 0
131 129 130 122 127 124 27 107 76 121 47 89 0
131 129 130 122 127 124 20 103 72 114 43 85 0
131 129 130 122 127 124 104 74 24 118 45 86 0
131 129 130 122 127 124 17 8 31 1 3 13 0
131 129 130 122 127 124 93 69 100 15 38 81 0
131 129 130 122 127 124 56 50 64 32 53 7 0
131 129 130 122 127 27 107 76 121 47 89 62 0
131 129 130 122 127 20 103 72 114 43 85 59 0
131 129 130 122 127 104 74 24 118 45 86 60 0
131 129 130 122 127 17 8 31 1 3 13 6 0
131 129 130 122 127 93 69 100 15 38 81 55 0
131 129 130 122 123 126 124 27 107 76 121 99 0
131 129 130 122 123 126 124 20 103 72 114 95 0
131 129 130 122 123 126 124 104 74 24 118 97 0
131 129 130 122 123 126 124 17 8 31 1 14 0
131 129 130 122 123 126 124 41 35 48 39 4 0
131 129 130 122 123 126 124 83 67 91 80 12 0
131 129 130 122 123 126 124 56 50 64 54 7 0
131 129 130 122 123 126 27 107 76 121 99 62 0
131 129 130 122 123 126 20 103 72 114 95 59 0
131 129 130 122 123 126 104 74 24 118 97 60 0
131 129 130 122 123 126 17 8 31 1 14 6 0
131 129 130 122 123 126 41 35 48 39 4 33 0
131 129 130 122 123 126 83 67 91 80 12 52 0
131 129 130 122 123 124 27 107 76 121 99 89 0
131 129 130 122 123 124 20 103 72 114 95 85 0
131 129 130 122 123 124 104 74 24 118 97 86 0
131 129 130 122 123 124 17 8 31 1 14 13 0
131 129 130 122 123 124 41 35 48 39 4 36 0
131 129 130 122 123 124 56 50 64 54 53 7 0
131 129 130 122 123 27 107 76 121 99 89 62 0
131 129 130 122 123 20 103 72 114 95 85 59 0
131 129 130 122 123 104 74 24 118 97 86 60 0
131 129 130 122 123 17 8 31 1 14 13 6 0
131 129 130 122 123 41 35 48 39 4 36 33 0
131 129 130 122 126 124 27 107 76 121 99 47 0
131 129 130 122 126 124 20 103 72 114 95 43 0
131 129 130 122 126 124 104 74 24 118 97 45 0
131 129 130 122 126 124 17 8 31 1 14 3 0
131 129 130 122 126 124 83 67 91 80 37 12 0
131 129 130 122 126 124 56 50 64 54 32 7 0
131 129 130 122 126 27 107 76 121 99 47 62 0
131 129 130 122 126 20 103 72 114 95 43 59 0
131 129 130 122 126 104 74 24 118 97 45 60 0
131 129 130 122 126 17 8 31 1 14 3 6 0
131 129 130 122 126 83 67 91 80 37 12 52 0
131 129 130 122 124 27 107 76 121 99 47 89 0
131 129 130 122 124 20 103 72 114 95 43 85 0
131 129 130 122 124 104 74 24 118 97 45 86 0
131 129 130 122 124 17 8 31 1 14 3 13 0
131 129 130 122 124 56 50 64 54 32 53 7 0
131 129 130 122 27 107 76 121 99 47 89 62 0
131 129 130 122 20 103 72 114 95 43 85 59 0
131 129 130 122 104 74 24 118 97 45 86 60 0
131 129 130 122 17 8 31 1 14 3 13 6 0
131 129 130 127 123 126 124 27 107 76 121 26 0
131 129 130 127 123 126 124 20 103 72 114 22 0
131 129 130 127 123 126 124 104 74 24 118 25 0
131 129 130 127 123 126 124 93 69 100 16 15 0
131 129 130 127 123 126 124 41 35 48 2 4 0
131 129 130 127 123 126 124 83 67 91 11 12 0
131 129 130 127 123 126 124 56 50 64 5 7 0
131 129 130 127 123 126 27 107 76 121 26 62 0
131 129 130 127 123 126 20 103 72 114 22 59 0
131 129 130 127 123 126 104 74 24 118 25 60 0
131 129 130 127 123 126 93 69 100 16 15 55 0
131 129 130 127 123 126 41 35 48 2 4 33 0
131 129 130 127 123 126 83 67 91 11 12 52 0
131 129 130 127 123 124 27 107 76 121 26 89 0
131 129 130 127 123 124 20 103 72 114 22 85 0
131 129 130 127 123 124 104 74 24 118 25 86 0
131 129 130 127 123 124 93 69 100 16 15 81 0
131 129 130 127 123 124 41 35 48 2 4 36 0
131 129 130 127 123 124 56 50 64 5 53 7 0
131 129 130 127 123 27 107 76 121 26 89 62 0
131 129 130 127 123 20 103 72 114 22 85 59 0
131 129 130 127 123 104 74 24 118 25 86 60 0
131 129 130 127 123 93 69 100 16 15 81 55 0
131 129 130 127 123 41 35 48 2 4 36 33 0
131 129 130 127 126 124 27 107 76 121 26 47 0
131 129 130 127 126 124 20 103 72 114 22 43 0
131 129 130 127 126 124 104 74 24 118 25 45 0
131 129 130 127 126 124 93 69 100 16 15 38 0
131 129 130 127 126 124 83 67 91 11 37 12 0
131 129 130 127 126 124 56 50 64 5 32 7 0
131 129 130 127 126 27 107 76 121 26 47 62 0
131 129 130 127 126 20 103 72 114 22 43 59 0
131 129 130 127 126 104 74 24 118 25 45 60 0
131 129 130 127 126 93 69 100 16 15 38 55 0
131 129 130 127 126 83 67 91 11 37 12 52 0
131 129 130 127 124 27 107 76 121 26 47 89 0
131 129 130 127 124 20 103 72 114 22 43 85 0
131 129 130 127 124 104 74 24 118 25 45 86 0
131 129 130 127 124 93 69 100 16 15 38 81 0
131 129 130 127 124 56 50 64 5 32 53 7 0
131 129 130 127 27 107 76 121 26 47 89 62 0
131 129 130 127 20 103 72 114 22 43 85 59 0
131 129 130 127 104 74 24 118 25 45 86 60 0
131 129 130 127 93 69 100 16 15 38 81 55 0
131 129 130 123 126 124 27 107 76 121 26 99 0
131 129 130 123 126 124 20 103 72 114 22 95 0
131 129 130 123 126 124 104 74 24 118 25 97 0
131 129 130 123 126 124 41 35 48 2 39 4 0
131 129 130 123 126 124 83 67 91 11 80 12 0
131 129 130 123 126 124 56 50 64 5 54 7 0
131 129 130 123 126 27 107 76 121 26 99 62 0
131 129 130 123 126 20 103 72 114 22 95 59 0
131 129 130 123 126 104 74 24 118 25 97 60 0
131 129 130 123 126 41 35 48 2 39 4 33 0
131 129 130 123 126 83 67 91 11 80 12 52 0
131 129 130 123 124 27 107 76 121 26 99 89 0
131 129 130 123 124 20 103 72 114 22 95 85 0
131 129 130 123 124 104 74 24 118 25 97 86 0
131 129 130 123 124 41 35 48 2 39 4 36 0
131 129 130 123 124 56 50 64 5 54 53 7 0
131 129 130 123 27 107 76 121 26 99 89 62 0
131 129 130 123 20 103 72 114 22 95 85 59 0
131 129 130 123 104 74 24 118 25 97 86 60 0
131 129 130 123 41 35 48 2 39 4 36 33 0
131 129 130 126 124 27 107 76 121 26 99 47 0
131 129 130 126 124 20 103 72 114 22 95 43 0
131 129 130 126 124 104 74 24 118 25 97 45 0
131 129 130 126 124 83 67 91 11 80 37 12 0
131 129 130 126 124 56 50 64 5 54 32 7 0
131 129 130 126 27 107 76 121 26 99 47 62 0
131 129 130 126 20 103 72 114 22 95 43 59 0
131 129 130 126 104 74 24 118 25 97 45 60 0
131 129 130 126 83 67 91 11 80 37 12 52 0
131 129 130 124 27 107 76 121 26 99 47 89 0
131 129 130 124 20 103 72 114 22 95 43 85 0
131 129 130 124 104 74 24 118 25 97 45 86 0
131 129 130 124 56 50 64 5 54 32 53 7 0
131 129 130 27 107 76 121 26 99 47 89 62 0
131 129 130 20 103 72 114 22 95 43 85 59 0
131 129 130 104 74 24 118 25 97 45 86 60 0
131 129 132 122 127 123 126 124 27 107 76 116 0
131 129 132 122 127 123 126 124 20 103 72 111 0
131 129 132 122 127 123 126 124 108 79 119 30 0
131 129 132 122 127 123 126 124 17 8 23 1 0
131 129 132 122 127 123 126 124 93 69 96 15 0
131 129 132 122 127 123 126 124 41 35 44 4 0
131 129 132 122 127 123 126 124 83 67 87 12 0
131 129 132 122 127 123 126 124 56 50 61 7 0
131 129 132 122 127 123 126 27 107 76 116 62 0
131 129 132 122 127 123 126 20 103 72 111 59 0
131 129 132 122 127 123 126 108 79 119 30 65 0
131 129 132 122 127 123 126 17 8 23 1 6 0
131 129 132 122 127 123 126 93 69 96 15 55 0
131 129 132 122 127 123 126 41 35 44 4 33 0
131 129 132 122 127 123 126 83 67 87 12 52 0
131 129 132 122 127 123 124 27 107 76 116 89 0
131 129 132 122 127 123 124 20 103 72 111 85 0
131 129 132 122 127 123 124 108 79 119 30 90 0
131 129 132 122 127 123 124 17 8 23 1 13 0
131 129 132 122 127 123 124 93 69 96 15 81 0
131 129 132 122 127 123 124 41 35 44 4 36 0
131 129 132 122 127 123 124 56 50 61 53 7 0
131 129 132 122 127 123 27 107 76 116 89 62 0
131 129 132 122 127 123 20 103 72 111 85 59 0
131 129 132 122 127 123 108 79 119 30 90 65 0
131 129 132 122 127 123 17 8 23 1 13 6 0
131 129 132 122 127 123 93 69 96 15 81 55 0
131 129 132 122 127 123 41 35 44 4 36 33 0
131 129 132 122 127 126 124 27 107 76 116 47 0
131 129 132 122 127 126 124 20 103 72 111 43 0
131 129 132 122 127 126 124 108 79 119 30 49 0
131 129 132 122 127 126 124 17 8 23 1 3 0
131 129 132 122 127 126 124 93 69 96 15 38 0
131 129 132 122 127 126 124 83 67 87 37 12 0
131 129 132 122 127 126 124 56 50 61 32 7 0
131 129 132 122 127 126 27 107 76 116 47 62 0
131 129 132 122 127 126 20 103 72 111 43 59 0
131 129 132 122 127 126 108 79 119 30 49 65 0
131 129 132 122 127 126 17 8 23 1 3 6 0
131 129 132 122 127 126 93 69 96 15 38 55 0
131 129 132 122 127 126 83 67 87 37 12 52 0
131 129 132 122 127 124 27 107 76 116 47 89 0
131 129 132 122 127 124 20 103 72 111 43 85 0
131 129 132 122 127 124 108 79 119 30 49 90 0
131 129 132 122 127 124 17 8 23 1 3 13 0
131 129 132 122 127 124 93 69 96 15 38 81 0
131 129 132 122 127 124 56 50 61 32 53 7 0
131 129 132 122 127 27 107 76 116 47 89 62 0
131 129 132 122 127 20 103 72 111 43 85 59 0
131 129 132 122 127 108 79 119 30 49 90 65 0
131 129 132 122 127 17 8 23 1 3 13 6 0
131 129 132 122 127 93 69 96 15 38 81 55 0
131 129 132 122 123 126 124 27 107 76 116 99 0
131 129 132 122 123 126 124 20 103 72 111 95 0
131 129 132 122 123 126 124 108 79 119 30 101 0
131 129 132 122 123 126 124 17 8 23 1 14 0
131 129 132 122 123 126 124 41 35 44 39 4 0
131 129 132 122 123 126 124 83 67 87 80 12 0
131 129 132 122 123 126 124 56 50 61 54 7 0
131 129 132 122 123 126 27 107 76 116 99 62 0
131 129 132 122 123 126 20 103 72 111 95 59 0
131 129 132 122 123 126 108 79 119 30 101 65 0
131 129 132 122 123 126 17 8 23 1 14 6 0
131 129 132 122 123 126 41 35 44 39 4 33 0
131 129 132 122 123 126 83 67 87 80 12 52 0
131 129 132 122 123 124 27 107 76 116 99 89 0
131 129 132 122 123 124 20 103 72 111 95 85 0
131 129 132 122 123 124 108 79 119 30 101 90 0
131 129 132 122 123 124 17 8 23 1 14 13 0
131 129 132 122 123 124 41 35 44 39 4 36 0
131 129 132 122 123 124 56 50 61 54 53 7 0
131 129 132 122 123 27 107 76 116 99 89 62 0
131 129 132 122 123 20 103 72 111 95 85 59 0
131 129 132 122 123 108 79 119 30 101 90 65 0
131 129 132 122 123 17 8 23 1 14 13 6 0
131 129 132 122 123 41 35 44 39 4 36 33 0
131 129 132 122 126 124 27 107 76 116 99 47 0
131 129 132 122 126 124 20 103 72 111 95 43 0
131 129 132 122 126 124 108 79 119 30 101 49 0
131 129 132 122 126 124 17 8 23 1 14 3 0
131 129 132 122 126 124 83 67 87 80 37 12 0
131 129 132 122 126 124 56 50 61 54 32 7 0
131 129 132 122 126 27 107 76 116 99 47 62 0
131 129 132 122 126 20 103 72 111 95 43 59 0
131 129 132 122 126 108 79 119 30 101 49 65 0
131 129 132 122 126 17 8 23 1 14 3 6 0
131 129 132 122 126 83 67 87 80 37 12 52 0
131 129 132 122 124 27 107 76 116 99 47 89 0
131 129 132 122 124 20 103 72 111 95 43 85 0
131 129 132 122 124 108 79 119 30 101 49 90 0
131 129 132 122 124 17 8 23 1 14 3 13 0
131 129 132 122 124 56 50 61 54 32 53 7 0
131 129 132 122 27 107 76 116 99 47 89 62 0
131 129 132 122 20 103 72 111 95 43 85 59 0
131 129 132 122 108 79 119 30 101 49 90 65 0
131 129 132 122 17 8 23 1 14 3 13 6 0
131 129 132 127 123 126 124 27 107 76 116 26 0
131 129 132 127 123 126 124 20 103 72 111 22 0
131 129 132 127 123 126 124 108 79 119 30 29 0
131 129 132 127 123 126 124 93 69 96 16 15 0
131 129 132 127 123 126 124 41 35 44 2 4 0
131 129 132 127 123 126 124 83 67 87 11 12 0
131 129 132 127 123 126 124 56 50 61 5 7 0
131 129 132 127 123 126 27 107 76 116 26 62 0
131 129 132 127 123 126 20 103 72 111 22 59 0
131 129 132 127 123 126 108 79 119 30 29 65 0
131 129 132 127 123 126 93 69 96 16 15 55 0
131 129 132 127 123 126 41 35 44 2 4 33 0
131 129 132 127 123 126 83 67 87 11 12 52 0
131 129 132 127 123 124 27 107 76 116 26 89 0
131 129 132 127 123 124 20 103 72 111 22 85 0
131 129 132 127 123 124 108 79 119 30 29 90 0
131 129 132 127 123 124 93 69 96 16 15 81 0
131 129 132 127 123 124 41 35 44 2 4 36 0
131 129 132 127 123 124 56 50 61 5 53 7 0
131 129 132 127 123 27 107 76 116 26 89 62 0
131 129 132 127 123 20 103 72 111 22 85 59 0
131 129 132 127 123 108 79 119 30 29 90 65 0
131 129 132 127 123 93 69 96 16 15 81 55 0
131 129 132 127 123 41 35 44 2 4 36 33 0
131 129 132 127 126 124 27 107 76 116 26 47 0
131 129 132 127 126 124 20 103 72 111 22 43 0
131 129 132 127 126 124 108 79 119 30 29 49 0
131 129 132 127 126 124 93 69 96 16 15 38 0
131 129 132 127 126 124 83 67 87 11 37 12 0
131 129 132 127 126 124 56 50 61 5 32 7 0
131 129 132 127 126 27 107 76 116 26 47 62 0
131 129 132 127 126 20 103 72 111 22 43 59 0
131 129 132 127 126 108 79 119 30 29 49 65 0
131 129 132 127 126 93 69 96 16 15 38 55 0
131 129 132 127 126 83 67 87 11 37 12 52 0
131 129 132 127 124 27 107 76 116 26 47 89 0
131 129 132 127 124 20 103 72 111 22 43 85 0
131 129 132 127 124 108 79 119 30 29 49 90 0
131 129 132 127 124 93 69 96 16 15 38 81 0
131 129 132 127 124 56 50 61 5 32 53 7 0
131 129 132 127 27 107 76 116 26 47 89 62 0
131 129 132 127 20 103 72 111 22 43 85 59 0
131 129 132 127 108 79 119 30 29 49 90 65 0
131 129 132 127 93 69 96 16 15 38 81 55 0
131 129 132 123 126 124 27 107 76 116 26 99 0
131 129 132 123 126 124 20 103 72 111 22 95 0
131 129 132 123 126 124 108 79 119 30 29 101 0
131 129 132 123 126 124 41 35 44 2 39 4 0
131 129 132 123 126 124 83 67 87 11 80 12 0
131 129 132 123 126 124 56 50 61 5 54 7 0
131 129 132 123 126 27 107 76 116 26 99 62 0
131 129 132 123 126 20 103 72 111 22 95 59 0
131 129 132 123 126 108 79 119 30 29 101 65 0
131 129 132 123 126 41 35 44 2 39 4 33 0
131 129 132 123 126 83 67 87 11 80 12 52 0
131 129 132 123 124 27 107 76 116 26 99 89 0
131 129 132 123 124 20 103 72 111 22 95 85 0
131 129 132 123 124 108 79 119 30 29 101 90 0
131 129 132 123 124 41 35 44 2 39 4 36 0
131 129 132 123 124 56 50 61 5 54 53 7 0
131 129 132 123 27 107 76 116 26 99 89 62 0
131 129 132 123 20 103 72 111 22 95 85 59 0
131 129 132 123 108 79 119 30 29 101 90 65 0
131 129 132 123 41 35 44 2 39 4 36 33 0
131 129 132 126 124 27 107 76 116 26 99 47 0
131 129 132 126 124 20 103 72 111 22 95 43 0
131 129 132 126 124 108 79 119 30 29 101 49 0
131 129 132 126 124 83 67 87 11 80 37 12 0
131 129 132 126 124 56 50 61 5 54 32 7 0
131 129 132 126 27 107 76 116 26 99 47 62 0
131 129 132 126 20 103 72 111 22 95 43 59 0
131 129 132 126 108 79 119 30 29 101 49 65 0
131 129 132 126 83 67 87 11 80 37 12 52 0
131 129 132 124 27 107 76 116 26 99 47 89 0
131 129 132 124 20 103 72 111 22 95 43 85 0
131 129 132 124 108 79 119 30 29 101 49 90 0
131 129 132 124 56 50 61 5 54 32 53 7 0
131 129 132 27 107 76 116 26 99 47 89 62 0
131 129 132 20 103 72 111 22 95 43 85 59 0
131 129 132 108 79 119 30 29 101 49 90 65 0
131 129 122 127 123 126 124 27 107 76 116 121 0
131 129 122 127 123 126 124 20 103 72 111 114 0
131 129 122 127 123 126 124 17 8 23 31 1 0
131 129 122 127 123 126 124 93 69 96 100 15 0
131 129 122 127 123 126 124 41 35 44 48 4 0
131 129 122 127 123 126 124 83 67 87 91 12 0
131 129 122 127 123 126 124 56 50 61 64 7 0
131 129 122 127 123 126 27 107 76 116 121 62 0
131 129 122 127 123 126 20 103 72 111 114 59 0
131 129 122 127 123 126 17 8 23 31 1 6 0
131 129 122 127 123 126 93 69 96 100 15 55 0
131 129 122 127 123 126 41 35 44 48 4 33 0
131 129 122 127 123 126 83 67 87 91 12 52 0
131 129 122 127 123 124 27 107 76 116 121 89 0
131 129 122 127 123 124 20 103 72 111 114 85 0
131 129 122 127 123 124 17 8 23 31 1 13 0
131 129 122 127 123 124 93 69 96 100 15 81 0
131 129 122 127 123 124 41 35 44 48 4 36 0
131 129 122 127 123 124 56 50 61 64 53 7 0
131 129 122 127 123 27 107 76 116 121 89 62 0
131 129 122 127 123 20 103 72 111 114 85 59 0
131 129 122 127 123 17 8 23 31 1 13 6 0
131 129 122 127 123 93 69 96 100 15 81 55 0
131 129 122 127 123 41 35 44 48 4 36 33 0
131 129 122 127 126 124 27 107 76 116 121 47 0
131 129 122 127 126 124 20 103 72 111 114 43 0
131 129 122 127 126 124 17 8 23 31 1 3 0
131 129 122 127 126 124 93 69 96 100 15 38 0
131 129 122 127 126 124 83 67 87 91 37 12 0
131 129 122 127 126 124 56 50 61 64 32 7 0
131 129 122 127 126 27 107 76 116 121 47 62 0
131 129 122 127 126 20 103 72 111 114 43 59 0
131 129 122 127 126 17 8 23 31 1 3 6 0
131 129 122 127 126 93 69 96 100 15 38 55 0
131 129 122 127 126 83 67 87 91 37 12 52 0
131 129 122 127 124 27 107 76 116 121 47 89 0
131 129 122 127 124 20 103 72 111 114 43 85 0
131 129 122 127 124 17 8 23 31 1 3 13 0
131 129 122 127 124 93 69 96 100 15 38 81 0
131 129 122 127 124 56 50 61 64 32 53 7 0
131 129 122 127 27 107 76 116 121 47 89 62 0
131 129 122 127 20 103 72 111 114 43 85 59 0
131 129 122 127 17 8 23 31 1 3 13 6 0
131 129 122 127 93 69 96 100 15 38 81 55 0
131 129 122 123 126 124 27 107 76 116 121 99 0
131 129 122 123 126 124 20 103 72 111 114 95 0
131 129 122 123 126 124 17 8 23 31 1 14 0
131 129 122 123 126 124 41 35 44 48 39 4 0
131 129 122 123 126 124 83 67 87 91 80 12 0
131 129 122 123 126 124 56 50 61 64 54 7 0
131 129 122 123 126 27 107 76 116 121 99 62 0
131 129 122 123 126 20 103 72 111 114 95 59 0
131 129 122 123 126 17 8 23 31 1 14 6 0
131 129 122 123 126 41 35 44 48 39 4 33 0
131 129 122 123 126 83 67 87 91 80 12 52 0
131 129 122 123 124 27 107 76 116 121 99 89 0
131 129 122 123 124 20 103 72 111 114 95 85 0
131 129 122 123 124 17 8 23 31 1 14 13 0
131 129 122 123 124 41 35 44 48 39 4 36 0
131 129 122 123 124 56 50 61 64 54 53 7 0
131 129 122 123 27 107 76 116 121 99 89 62 0
131 129 122 123 20 103 72 111 114 95 85 59 0
131 129 122 123 17 8 23 31 1 14 13 6 0
131 129 122 123 41 35 44 48 39 4 36 33 0
131 129 122 126 124 27 107 76 116 121 99 47 0
131 129 122 126 124 20 103 72 111 114 95 43 0
131 129 122 126 124 17 8 23 31 1 14 3 0
131 129 122 126 124 83 67 87 91 80 37 12 0
131 129 122 126 124 56 50 61 64 54 32 7 0
131 129 122 126 27 107 76 116 121 99 47 62 0
131 129 122 126 20 103 72 111 114 95 43 59 0
131 129 122 126 17 8 23 31 1 14 3 6 0
131 129 122 126 83 67 87 91 80 37 12 52 0
131 129 122 124 27 107 76 116 121 99 47 89 0
131 129 122 124 20 103 72 111 114 95 43 85 0
131 129 122 124 17 8 23 31 1 14 3 13 0
131 129 122 124 56 50 61 64 54 32 53 7 0
131 129 122 27 107 76 116 121 99 47 89 62 0
131 129 122 20 103 72 111 114 95 43 85 59 0
131 129 122 17 8 23 31 1 14 3 13 6 0
131 129 127 123 126 124 27 107 76 116 121 26 0
131 129 127 123 126 124 20 103 72 111 114 22 0
131 129 127 123 126 124 93 69 96 100 16 15 0
131 129 127 123 126 124 41 35 44 48 2 4 0
131 129 127 123 126 124 83 67 87 91 11 12 0
131 129 127 123 126 124 56 50 61 64 5 7 0
131 129 127 123 126 27 107 76 116 121 26 62 0
131 129 127 123 126 20 103 72 111 114 22 59 0
131 129 127 123 126 93 69 96 100 16 15 55 0
131 129 127 123 126 41 35 44 48 2 4 33 0
131 129 127 123 126 83 67 87 91 11 12 52 0
131 129 127 123 124 27 107 76 116 121 26 89 0
131 129 127 123 124 20 103 72 111 114 22 85 0
131 129 127 123 124 93 69 96 100 16 15 81 0
131 129 127 123 124 41 35 44 48 2 4 36 0
131 129 127 123 124 56 50 61 64 5 53 7 0
131 129 127 123 27 107 76 116 121 26 89 62 0
131 129 127 123 20 103 72 111 114 22 85 59 0
131 129 127 123 93 69 96 100 16 15 81 55 0
131 129 127 123 41 35 44 48 2 4 36 33 0
131 129 127 126 124 27 107 76 116 121 26 47 0
131 129 127 126 124 20 103 72 111 114 22 43 0
131 129 127 126 124 93 69 96 100 16 15 38 0
131 129 127 126 124 83 67 87 91 11 37 12 0
131 129 127 126 124 56 50 61 64 5 32 7 0
131 129 127 126 27 107 76 116 121 26 47 62 0
131 129 127 126 20 103 72 111 114 22 43 59 0
131 129 127 126 93 69 96 100 16 15 38 55 0
131 129 127 126 83 67 87 91 11 37 12 52 0
131 129 127 124 27 107 76 116 121 26 47 89 0
131 129 127 124 20 103 72 111 114 22 43 85 0
131 129 127 124 93 69 96 100 16 15 38 81 0
131 129 127 124 56 50 61 64 5 32 53 7 0
131 129 127 27 107 76 116 121 26 47 89 62 0
131 129 127 20 103 72 111 114 22 43 85 59 0
131 129 127 93 69 96 100 16 15 38 81 55 0
131 129 123 126 124 27 107 76 116 121 26 99 0
131 129 123 126 124 20 103 72 111 114 22 95 0
131 129 123 126 124 41 35 44 48 2 39 4 0
131 129 123 126 124 83 67 87 91 11 80 12 0
131 129 123 126 124 56 50 61 64 5 54 7 0
131 129 123 126 27 107 76 116 121 26 99 62 0
131 129 123 126 20 103 72 111 114 22 95 59 0
131 129 123 126 41 35 44 48 2 39 4 33 0
131 129 123 126 83 67 87 91 11 80 12 52 0
131 129 123 124 27 107 76 116 121 26 99 89 0
131 129 123 124 20 103 72 111 114 22 95 85 0
131 129 123 124 41 35 44 48 2 39 4 36 0
131 129 123 124 56 50 61 64 5 54 53 7 0
131 129 123 27 107 76 116 121 26 99 89 62 0
131 129 123 20 103 72 111 114 22 95 85 59 0
131 129 123 41 35 44 48 2 39 4 36 33 0
131 129 126 124 27 107 76 116 121 26 99 47 0
131 129 126 124 20 103 72 111 114 22 95 43 0
131 129 126 124 83 67 87 91 11 80 37 12 0
131 129 126 124 56 50 61 64 5 54 32 7 0
131 129 126 27 107 76 116 121 26 99 47 62 0
131 129 126 20 103 72 111 114 22 95 43 59 0
131 129 126 83 67 87 91 11 80 37 12 52 0
131 129 124 27 107 76 116 121 26 99 47 89 0
131 129 124 20 103 72 111 114 22 95 43 85 0
131 129 124 56 50 61 64 5 54 32 53 7 0
131 129 27 107 76 116 121 26 99 47 89 62 0
131 129 20 103 72 111 114 22 95 43 85 59 0
131 128 125 130 132 122 127 123 126 124 27 112 0
131 128 125 130 132 122 127 123 126 124 102 19 0
131 128 125 130 132 122 127 123 126 124 73 10 0
131 128 125 130 132 122 127 123 126 124 110 24 0
131 128 125 130 132 122 127 123 126 124 115 30 0
131 128 125 130 132 122 127 123 126 124 21 1 0
131 128 125 130 132 122 127 123 126 124 94 15 0
131 128 125 130 132 122 127 123 126 124 42 4 0
131 128 125 130 132 122 127 123 126 124 84 12 0
131 128 125 130 132 122 127 123 126 124 58 7 0
131 128 125 130 132 122 127 123 126 27 112 62 0
131 128 125 130 132 122 127 123 126 102 19 57 0
131 128 125 130 132 122 127 123 126 73 10 51 0
131 128 125 130 132 122 127 123 126 110 24 60 0
131 128 125 130 132 122 127 123 126 115 30 65 0
131 128 125 130 132 122 127 123 126 21 1 6 0
131 128 125 130 132 122 127 123 126 94 15 55 0
131 128 125 130 132 122 127 123 126 42 4 33 0
131 128 125 130 132 122 127 123 126 84 12 52 0
131 128 125 130 132 122 127 123 124 27 112 89 0
131 128 125 130 132 122 127 123 124 102 19 82 0
131 128 125 130 132 122 127 123 124 73 10 66 0
131 128 125 130 132 122 127 123 124 110 24 86 0
131 128 125 130 132 122 127 123 124 115 30 90 0
131 128 125 130 132 122 127 123 124 21 1 13 0
131 128 125 130 132 122 127 123 124 94 15 81 0
131 128 125 130 132 122 127 123 124 42 4 36 0
131 128 125 130 132 122 127 123 124 58 53 7 0
131 128 125 130 132 122 127 123 27 112 89 62 0
131 128 125 130 132 122 127 123 102 19 82 57 0
131 128 125 130 132 122 127 123 73 10 66 51 0
131 128 125 130 132 122 127 123 110 24 86 60 0
131 128 125 130 132 122 127 123 115 30 90 65 0
131 128 125 130 132 122 127 123 21 1 13 6 0
131 128 125 130 132 122 127 123 94 15 81 55 0
131 128 125 130 132 122 127 123 42 4 36 33 0
131 128 125 130 132 122 127 126 124 27 112 47 0
131 128 125 130 132 122 127 126 124 102 19 40 0
131 128 125 130 132 122 127 126 124 73 10 34 0
131 128 125 130 132 122 127 126 124 110 24 45 0
131 128 125 130 132 122 127 126 124 115 30 49 0
131 128 125 130 132 122 127 126 124 21 1 3 0
131 128 125 130 132 122 127 126 124 94 15 38 0
131 128 125 130 132 122 127 126 124 84 37 12 0
131 128 125 130 132 122 127 126 124 58 32 7 0
131 128 125 130 132 122 127 126 27 112 47 62 0
131 128 125 130 132 122 127 126 102 19 40 57 0
131 128 125 130 132 122 127 126 73 10 34 51 0
131 128 125 130 132 122 127 126 110 24 45 60 0
131 128 125 130 132 122 127 126 115 30 49 65 0
131 128 125 130 132 122 127 126 21 1 3 6 0
131 128 125 130 132 122 127 126 94 15 38 55 0
131 128 125 130 132 122 127 126 84 37 12 52 0
131 128 125 130 132 122 127 124 27 112 47 89 0
131 128 125 130 132 122 127 124 102 19 40 82 0
131 128 125 130 132 122 127 124 73 10 34 66 0
131 128 125 130 132 122 127 124 110 24 45 86 0
131 128 125 130 132 122 127 124 115 30 49 90 0
131 128 125 130 132 122 127 124 21 1 3 13 0
131 128 125 130 132 122 127 124 94 15 38 81 0
131 128 125 130 132 122 127 124 58 32 53 7 0
131 128 125 130 132 122 127 27 112 47 89 62 0
131 128 125 130 132 122 127 102 19 40 82 57 0
131 128 125 130 132 122 127 73 10 34 66 51 0
131 128 125 130 132 122 127 110 24 45 86 60 0
131 128 125 130 132 122 127 115 30 49 90 65 0
131 128 125 130 132 122 127 21 1 3 13 6 0
131 128 125 130 132 122 127 94 15 38 81 55 0
131 128 125 130 132 122 123 126 124 27 112 99 0
131 128 125 130 132 122 123 126 124 102 19 92 0
131 128 125 130 132 122 123 126 124 73 10 68 0
131 128 125 130 132 122 123 126 124 110 24 97 0
131 128 125 130 132 122 123 126 124 115 30 101 0
131 128 125 130 132 122 123 126 124 21 1 14 0
131 128 125 130 132 122 123 126 124 42 39 4 0
131 128 125 130 132 122 123 126 124 84 80 12 0
131 128 125 130 132 122 123 126 124 58 54 7 0
131 128 125 130 132 122 123 126 27 112 99 62 0
131 128 125 130 132 122 123 126 102 19 92 57 0
131 128 125 130 132 122 123 126 73 10 68 51 0
131 128 125 130 132 122 123 126 110 24 97 60 0
131 128 125 130 132 122 123 126 115 30 101 65 0
131 128 125 130 132 122 123 126 21 1 14 6 0
131 128 125 130 132 122 123 126 42 39 4 33 0
131 128 125 130 132 122 123 126 84 80 12 52 0
131 128 125 130 132 122 123 124 27 112 99 89 0
131 128 125 130 132 122 123 124 102 19 92 82 0
131 128 125 130 132 122 123 124 73 10 68 66 0
131 128 125 130 132 122 123 124 110 24 97 86 0
131 128 125 130 132 122 123 124 115 30 101 90 0
131 128 125 130 132 122 123 124 21 1 14 13 0
131 128 125 130 132 122 123 124 42 39 4 36 0
131 128 125 130 132 122 123 124 58 54 53 7 0
131 128 125 130 132 122 123 27 112 99 89 62 0
131 128 125 130 132 122 123 102 19 92 82 57 0
131 128 125 130 132 122 123 73 10 68 66 51 0
131 128 125 130 132 122 123 110 24 97 86 60 0
131 128 125 130 132 122 123 115 30 101 90 65 0
131 128 125 130 132 122 123 21 1 14 13 6 0
131 128 125 130 132 122 123 42 39 4 36 33 0
131 128 125 130 132 122 126 124 27 112 99 47 0
131 128 125 130 132 122 126 124 102 19 92 40 0
131 128 125 130 132 122 126 124 73 10 68 34 0
131 128 125 130 132 122 126 124 110 24 97 45 0
131 128 125 130 132 122 126 124 115 30 101 49 0
131 128 125 130 132 122 126 124 21 1 14 3 0
131 128 125 130 132 122 126 124 84 80 37 12 0
131 128 125 130 132 122 126 124 58 54 32 7 0
131 128 125 130 132 122 126 27 112 99 47 62 0
131 128 125 130 132 122 126 102 19 92 40 57 0
131 128 125 130 132 122 126 73 10 68 34 51 0
131 128 125 130 132 122 126 110 24 97 45 60 0
131 128 125 130 132 122 126 115 30 101 49 65 0
131 128 125 130 132 122 126 21 1 14 3 6 0
131 128 125 130 132 122 126 84 80 37 12 52 0
131 128 125 130 132 122 124 27 112 99 47 89 0
131 128 125 130 132 122 124 102 19 92 40 82 0
131 128 125 130 132 122 124 73 10 68 34 66 0
131 128 125 130 132 122 124 110 24 97 45 86 0
131 128 125 130 132 122 124 115 30 101 49 90 0
131 128 125 130 132 122 124 21 1 14 3 13 0
131 128 125 130 132 122 124 58 54 32 53 7 0
131 128 125 130 132 122 27 112 99 47 89 62 0
131 128 125 130 132 122 102 19 92 40 82 57 0
131 128 125 130 132 122 73 10 68 34 66 51 0
131 128 125 130 132 122 110 24 97 45 86 60 0
131 128 125 130 132 122 115 30 101 49 90 65 0
131 128 125 130 132 122 21 1 14 3 13 6 0
131 128 125 130 132 127 123 126 124 27 112 26 0
131 128 125 130 132 127 123 126 124 102 19 18 0
131 128 125 130 132 127 123 126 124 73 10 9 0
131 128 125 130 132 127 123 126 124 110 24 25 0
131 128 125 130 132 127 123 126 124 115 30 29 0
131 128 125 130 132 127 123 126 124 94 16 15 0
131 128 125 130 132 127 123 126 124 42 2 4 0
131 128 125 130 132 127 123 126 124 84 11 12 0
131 128 125 130 132 127 123 126 124 58 5 7 0
131 128 125 130 132 127 123 126 27 112 26 62 0
131 128 125 130 132 127 123 126 102 19 18 57 0
131 128 125 130 132 127 123 126 73 10 9 51 0
131 128 125 130 132 127 123 126 110 24 25 60 0
131 128 125 130 132 127 123 126 115 30 29 65 0
131 128 125 130 132 127 123 126 94 16 15 55 0
131 128 125 130 132 127 123 126 42 2 4 33 0
131 128 125 130 132 127 123 126 84 11 12 52 0
131 128 125 130 132 127 123 124 27 112 26 89 0
131 128 125 130 132 127 123 124 102 19 18 82 0
131 128 125 130 132 127 123 124 73 10 9 66 0
131 128 125 130 132 127 123 124 110 24 25 86 0
131 128 125 130 132 127 123 124 115 30 29 90 0
131 128 125 130 132 127 123 124 94 16 15 81 0
131 128 125 130 132 127 123 124 42 2 4 36 0
131 128 125 130 132 127 123 124 58 5 53 7 0
131 128 125 130 132 127 123 27 112 26 89 62 0
131 128 125 130 132 127 123 102 19 18 82 57 0
131 128 125 130 132 127 123 73 10 9 66 51 0
131 128 125 130 132 127 123 110 24 25 86 60 0
131 128 125 130 132 127 123 115 30 29 90 65 0
131 128 125 130 132 127 123 94 16 15 81 55 0
131 128 125 130 132 127 123 42 2 4 36 33 0
131 128 125 130 132 127 126 124 27 112 26 47 0
131 128 125 130 132 127 126 124 102 19 18 40 0
131 128 125 130 132 127 126 124 73 10 9 34 0
131 128 125 130 132 127 126 124 110 24 25 45 0
131 128 125 130 132 127 126 124 115 30 29 49 0
131 128 125 130 132 127 126 124 94 16 15 38 0
131 128 125 130 132 127 126 124 84 11 37 12 0
131 128 125 130 132 127 126 124 58 5 32 7 0
131 128 125 130 132 127 126 27 112 26 47 62 0
131 128 125 130 132 127 126 102 19 18 40 57 0
131 128 125 130 132 127 126 73 10 9 34 51 0
131 128 125 130 132 127 126 110 24 25 45 60 0
131 128 125 130 132 127 126 115 30 29 49 65 0
131 128 125 130 132 127 126 94 16 15 38 55 0
131 128 125 130 132 127 126 84 11 37 12 52 0
131 128 125 130 132 127 124 27 112 26 47 89 0
131 128 125 130 132 127 124 102 19 18 40 82 0
131 128 125 130 132 127 124 73 10 9 34 66 0
131 128 125 130 132 127 124 110 24 25 45 86 0
131 128 125 130 132 127 124 115 30 29 49 90 0
131 128 125 130 132 127 124 94 16 15 38 81 0
131 128 125 130 132 127 124 58 5 32 53 7 0
131 128 125 130 132 127 27 112 26 47 89 62 0
131 128 125 130 132 127 102 19 18 40 82 57 0
131 128 125 130 132 127 73 10 9 34 66 51 0
131 128 125 130 132 127 110 24 25 45 86 60 0
131 128 125 130 132 127 115 30 29 49 90 65 0
131 128 125 130 132 127 94 16 15 38 81 55 0
131 128 125 130 132 123 126 124 27 112 26 99 0
131 128 125 130 132 123 126 124 102 19 18 92 0
131 128 125 130 132 123 126 124 73 10 9 68 0
131 128 125 130 132 123 126 124 110 24 25 97 0
131 128 125 130 132 123 126 124 115 30 29 101 0
131 128 125 130 132 123 126 124 42 2 39 4 0
131 128 125 130 132 123 126 124 84 11 80 12 0
131 128 125 130 132 123 126 124 58 5 54 7 0
131 128 125 130 132 123 126 27 112 26 99 62 0
131 128 125 130 132 123 126 102 19 18 92 57 0
131 128 125 130 132 123 126 73 10 9 68 51 0
131 128 125 130 132 123 126 110 24 25 97 60 0
131 128 125 130 132 123 126 115 30 29 101 65 0
131 128 125 130 132 123 126 42 2 39 4 33 0
131 128 125 130 132 123 126 84 11 80 12 52 0
131 128 125 130 132 123 124 27 112 26 99 89 0
131 128 125 130 132 123 124 102 19 18 92 82 0
131 128 125 130 132 123 124 73 10 9 68 66 0
131 128 125 130 132 123 124 110 24 25 97 86 0
131 128 125 130 132 123 124 115 30 29 101 90 0
131 128 125 130 132 123 124 42 2 39 4 36 0
131 128 125 130 132 123 124 58 5 54 53 7 0
131 128 125 130 132 123 27 112 26 99 89 62 0
131 128 125 130 132 123 102 19 18 92 82 57 0
131 128 125 130 132 123 73 10 9 68 66 51 0
131 128 125 130 132 123 110 24 25 97 86 60 0
131 128 125 130 132 123 115 30 29 101 90 65 0
131 128 125 130 132 123 42 2 39 4 36 33 0
131 128 125 130 132 126 124 27 112 26 99 47 0
131 128 125 130 132 126 124 102 19 18 92 40 0
131 128 125 130 132 126 124 73 10 9 68 34 0
131 128 125 130 132 126 124 110 24 25 97 45 0
131 128 125 130 132 126 124 115 30 29 101 49 0
131 128 125 130 132 126 124 84 11 80 37 12 0
131 128 125 130 132 126 124 58 5 54 32 7 0
131 128 125 130 132 126 27 112 26 99 47 62 0
131 128 125 130 132 126 102 19 18 92 40 57 0
131 128 125 130 132 126 73 10 9 68 34 51 0
131 128 125 130 132 126 110 24 25 97 45 60 0
131 128 125 130 132 126 115 30 29 101 49 65 0
131 128 125 130 132 126 84 11 80 37 12 52 0
131 128 125 130 132 124 27 112 26 99 47 89 0
131 128 125 130 132 124 102 19 18 92 40 82 0
131 128 125 130 132 124 73 10 9 68 34 66 0
131 128 125 130 132 124 110 24 25 97 45 86 0
131 128 125 130 132 124 115 30 29 101 49 90 0
131 128 125 130 132 124 58 5 54 32 53 7 0
131 128 125 130 132 27 112 26 99 47 89 62 0
131 128 125 130 132 102 19 18 92 40 82 57 0
131 128 125 130 132 73 10 9 68 34 66 51 0
131 128 125 130 132 110 24 25 97 45 86 60 0
131 128 125 130 132 115 30 29 101 49 90 65 0
131 128 125 130 122 127 123 126 124 27 112 121 0
131 128 125 130 122 127 123 126 124 102 19 109 0
131 128 125 130 122 127 123 126 124 73 10 78 0
131 128 125 130 122 127 123 126 124 110 24 118 0
131 128 125 130 122 127 123 126 124 21 31 1 0
131 128 125 130 122 127 123 126 124 94 100 15 0
131 128 125 130 122 127 123 126 124 42 48 4 0
131 128 125 130 122 127 123 126 124 84 91 12 0
131 128 125 130 122 127 123 126 124 58 64 7 0
131 128 125 130 122 127 123 126 27 112 121 62 0
131 128 125 130 122 127 123 126 102 19 109 57 0
131 128 125 130 122 127 123 126 73 10 78 51 0
131 128 125 130 122 127 123 126 110 24 118 60 0
131 128 125 130 122 127 123 126 21 31 1 6 0
131 128 125 130 122 127 123 126 94 100 15 55 0
131 128 125 130 122 127 123 126 42 48 4 33 0
131 128 125 130 122 127 123 126 84 91 12 52 0
131 128 125 130 122 127 123 124 27 112 121 89 0
131 128 125 130 122 127 123 124 102 19 109 82 0
131 128 125 130 122 127 123 124 73 10 78 66 0
131 128 125 130 122 127 123 124 110 24 118 86 0
131 128 125 130 122 127 123 124 21 31 1 13 0
131 128 125 130 122 127 123 124 94 100 15 81 0
131 128 125 130 122 127 123 124 42 48 4 36 0
131 128 125 130 122 127 123 124 58 64 53 7 0
131 128 125 130 122 127 123 27 112 121 89 62 0
131 128 125 130 122 127 123 102 19 109 82 57 0
131 128 125 130 122 127 123 73 10 78 66 51 0
131 128 125 130 122 127 123 110 24 118 86 60 0
131 128 125 130 122 127 123 21 31 1 13 6 0
131 128 125 130 122 127 123 94 100 15 81 55 0
131 128 125 130 122 127 123 42 48 4 36 33 0
131 128 125 130 122 127 126 124 27 112 121 47 0
131 128 125 130 122 127 126 124 102 19 109 40 0
131 128 125 130 122 127 126 124 73 10 78 34 0
131 128 125 130 122 127 126 124 110 24 118 45 0
131 128 125 130 122 127 126 124 21 31 1 3 0
131 128 125 130 122 127 126 124 94 100 15 38 0
131 128 125 130 122 127 126 124 84 91 37 12 0
131 128 125 130 122 127 126 124 58 64 32 7 0
131 128 125 130 122 127 126 27 112 121 47 62 0
131 128 125 130 122 127 126 102 19 109 40 57 0
131 128 125 130 122 127 126 73 10 78 34 51 0
131 128 125 130 122 127 126 110 24 118 45 60 0
131 128 125 130 122 127 126 21 31 1 3 6 0
131 128 125 130 122 127 126 94 100 15 38 55 0
131 128 125 130 122 127 126 84 91 37 12 52 0
131 128 125 130 122 127 124 27 112 121 47 89 0
131 128 125 130 122 127 124 102 19 109 40 82 0
131 128 125 130 122 127 124 73 10 78 34 66 0
131 128 125 130 122 127 124 110 24 118 45 86 0
131 128 125 130 122 127 124 21 31 1 3 13 0
131 128 125 130 122 127 124 94 100 15 38 81 0
131 128 125 130 122 127 124 58 64 32 53 7 0
131 128 125 130 122 127 27 112 121 47 89 62 0
131 128 125 130 122 127 102 19 109 40 82 57 0
131 128 125 130 122 127 73 10 78 34 66 51 0
131 128 125 130 122 127 110 24 118 45 86 60 0
131 128 125 130 122 127 21 31 1 3 13 6 0
131 128 125 130 122 127 94 100 15 38 81 55 0
131 128 125 130 122 123 126 124 27 112 121 99 0
131 128 125 130 122 123 126 124 102 19 109 92 0
131 128 125 130 122 123 126 124 73 10 78 68 0
131 128 125 130 122 123 126 124 110 24 118 97 0
131 128 125 130 122 123 126 124 21 31 1 14 0
131 128 125 130 122 123 126 124 42 48 39 4 0
131 128 125 130 122 123 126 124 84 91 80 12 0
131 128 125 130 122 123 126 124 58 64 54 7 0
131 128 125 130 122 123 126 27 112 121 99 62 0
131 128 125 130 122 123 126 102 19 109 92 57 0
131 128 125 130 122 123 126 73 10 78 68 51 0
131 128 125 130 122 123 126 110 24 118 97 60 0
131 128 125 130 122 123 126 21 31 1 14 6 0
131 128 125 130 122 123 126 42 48 39 4 33 0
131 128 125 130 122 123 126 84 91 80 12 52 0
131 128 125 130 122 123 124 27 112 121 99 89 0
131 128 125 130 122 123 124 102 19 109 92 82 0
131 128 125 130 122 123 124 73 10 78 68 66 0
131 128 125 130 122 123 124 110 24 118 97 86 0
131 128 125 130 122 123 124 21 31 1 14 13 0
131 128 125 130 122 123 124 42 48 39 4 36 0
131 128 125 130 122 123 124 58 64 54 53 7 0
131 128 125 130 122 123 27 112 121 99 89 62 0
131 128 125 130 122 123 102 19 109 92 82 57 0
131 128 125 130 122 123 73 10 78 68 66 51 0
131 128 125 130 122 123 110 24 118 97 86 60 0
131 128 125 130 122 123 21 31 1 14 13 6 0
131 128 125 130 122 123 42 48 39 4 36 33 0
131 128 125 130 122 126 124 27 112 121 99 47 0
131 128 125 130 122 126 124 102 19 109 92 40 0
131 128 125 130 122 126 124 73 10 78 68 34 0
131 128 125 130 122 126 124 110 24 118 97 45 0
131 128 125 130 122 126 124 21 31 1 14 3 0
131 128 125 130 122 126 124 84 91 80 37 12 0
131 128 125 130 122 126 124 58 64 54 32 7 0
131 128 125 130 122 126 27 112 121 99 47 62 0
131 128 125 130 122 126 102 19 109 92 40 57 0
131 128 125 130 122 126 73 10 78 68 34 51 0
131 128 125 130 122 126 110 24 118 97 45 60 0
131 128 125 130 122 126 21 31 1 14 3 6 0
131 128 125 130 122 126 84 91 80 37 12 52 0
131 128 125 130 122 124 27 112 121 99 47 89 0
131 128 125 130 122 124 102 19 109 92 40 82 0
131 128 125 130 122 124 73 10 78 68 34 66 0
131 128 125 130 122 124 110 24 118 97 45 86 0
131 128 125 130 122 124 21 31 1 14 3 13 0
131 128 125 130 122 124 58 64 54 32 53 7 0
131 128 125 130 122 27 112 121 99 47 89 62 0
131 128 125 130 122 102 19 109 92 40 82 57 0
131 128 125 130 122 73 10 78 68 34 66 51 0
131 128 125 130 122 110 24 118 97 45 86 60 0
131 128 125 130 122 21 31 1 14 3 13 6 0
131 128 125 130 127 123 126 124 27 112 121 26 0
131 128 125 130 127 123 126 124 102 19 109 18 0
131 128 125 130 127 123 126 124 73 10 78 9 0
131 128 125 130 127 123 126 124 110 24 118 25 0
131 128 125 130 127 123 126 124 94 100 16 15 0
131 128 125 130 127 123 126 124 42 48 2 4 0
131 128 125 130 127 123 126 124 84 91 11 12 0
131 128 125 130 127 123 126 124 58 64 5 7 0
131 128 125 130 127 123 126 27 112 121 26 62 0
131 128 125 130 127 123 126 102 19 109 18 57 0
131 128 125 130 127 123 126 73 10 78 9 51 0
131 128 125 130 127 123 126 110 24 118 25 60 0
131 128 125 130 127 123 126 94 100 16 15 55 0
131 128 125 130 127 123 126 42 48 2 4 33 0
131 128 125 130 127 123 126 84 91 11 12 52 0
131 128 125 130 127 123 124 27 112 121 26 89 0
131 128 125 130 127 123 124 102 19 109 18 82 0
131 128 125 130 127 123 124 73 10 78 9 66 0
131 128 125 130 127 123 124 110 24 118 25 86 0
131 128 125 130 127 123 124 94 100 16 15 81 0
131 128 125 130 127 123 124 42 48 2 4 36 0
131 128 125 130 127 123 124 58 64 5 53 7 0
131 128 125 130 127 123 27 112 121 26 89 62 0
131 128 125 130 127 123 102 19 109 18 82 57 0
131 128 125 130 127 123 73 10 78 9 66 51 0
131 128 125 130 127 123 110 24 118 25 86 60 0
131 128 125 130 127 123 94 100 16 15 81 55 0
131 128 125 130 127 123 42 48 2 4 36 33 0
131 128 125 130 127 126 124 27 112 121 26 47 0
131 128 125 130 127 126 124 102 19 109 18 40 0
131 128 125 130 127 126 124 73 10 78 9 34 0
131 128 125 130 127 126 124 110 24 118 25 45 0
131 128 125 130 127 126 124 94 100 16 15 38 0
131 128 125 130 127 126 124 84 91 11 37 12 0
131 128 125 130 127 126 124 58 64 5 32 7 0
131 128 125 130 127 126 27 112 121 26 47 62 0
131 128 125 130 127 126 102 19 109 18 40 57 0
131 128 125 130 127 126 73 10 78 9 34 51 0
131 128 125 130 127 126 110 24 118 25 45 60 0
131 128 125 130 127 126 94 100 16 15 38 55 0
131 128 125 130 127 126 84 91 11 37 12 52 0
131 128 125 130 127 124 27 112 121 26 47 89 0
131 128 125 130 127 124 102 19 109 18 40 82 0
131 128 125 130 127 124 73 10 78 9 34 66 0
131 128 125 130 127 124 110 24 118 25 45 86 0
131 128 125 130 127 124 94 100 16 15 38 81 0
131 128 125 130 127 124 58 64 5 32 53 7 0
131 128 125 130 127 27 112 121 26 47 89 62 0
131 128 125 130 127 102 19 109 18 40 82 57 0
131 128 125 130 127 73 10 78 9 34 66 51 0
131 128 125 130 127 110 24 118 25 45 86 60 0
131 128 125 130 127 94 100 16 15 38 81 55 0
131 128 125 130 123 126 124 27 112 121 26 99 0
131 128 125 130 123 126 124 102 19 109 18 92 0
131 128 125 130 123 126 124 73 10 78 9 68 0
131 128 125 130 123 126 124 110 24 118 25 97 0
131 128 125 130 123 126 124 42 48 2 39 4 0
131 128 125 130 123 126 124 84 91 11 80 12 0
131 128 125 130 123 126 124 58 64 5 54 7 0
131 128 125 130 123 126 27 112 121 26 99 62 0
131 128 125 130 123 126 102 19 109 18 92 57 0
131 128 125 130 123 126 73 10 78 9 68 51 0
131 128 125 130 123 126 110 24 118 25 97 60 0
131 128 125 130 123 126 42 48 2 39 4 33 0
131 128 125 130 123 126 84 91 11 80 12 52 0
131 128 125 130 123 124 27 112 121 26 99 89 0
131 128 125 130 123 124 102 19 109 18 92 82 0
131 128 125 130 123 124 73 10 78 9 68 66 0
131 128 125 130 123 124 110 24 118 25 97 86 0
131 128 125 130 123 124 42 48 2 39 4 36 0
131 128 125 130 123 124 58 64 5 54 53 7 0
131 128 125 130 123 27 112 121 26 99 89 62 0
131 128 125 130 123 102 19 109 18 92 82 57 0
131 128 125 130 123 73 10 78 9 68 66 51 0
131 128 125 130 123 110 24 118 25 97 86 60 0
131 128 125 130 123 42 48 2 39 4 36 33 0
131 128 125 130 126 124 27 112 121 26 99 47 0
131 128 125 130 126 124 102 19 109 18 92 40 0
131 128 125 130 126 124 73 10 78 9 68 34 0
131 128 125 130 126 124 110 24 118 25 97 45 0
131 128 125 130 126 124 84 91 11 80 37 12 0
131 128 125 130 126 124 58 64 5 54 32 7 0
131 128 125 130 126 27 112 121 26 99 47 62 0
131 128 125 130 126 102 19 109 18 92 40 57 0
131 128 125 130 126 73 10 78 9 68 34 51 0
131 128 125 130 126 110 24 118 25 97 45 60 0
131 128 125 130 126 84 91 11 80 37 12 52 0
131 128 125 130 124 27 112 121 26 99 47 89 0
131 128 125 130 124 102 19 109 18 92 40 82 0
131 128 125 130 124 73 10 78 9 68 34 66 0
131 128 125 130 124 110 24 118 25 97 45 86 0
131 128 125 130 124 58 64 5 54 32 53 7 0
131 128 125 130 27 112 121 26 99 47 89 62 0
131 128 125 130 102 19 109 18 92 40 82 57 0
131 128 125 130 73 10 78 9 68 34 66 51 0
131 128 125 130 110 24 118 25 97 45 86 60 0
131 128 125 132 122 127 123 126 124 27 112 116 0
131 128 125 132 122 127 123 126 124 102 19 105 0
131 128 125 132 122 127 123 126 124 73 10 75 0
131 128 125 132 122 127 123 126 124 115 119 30 0
131 128 125 132 122 127 123 126 124 21 23 1 0
131 128 125 132 122 127 123 126 124 94 96 15 0
131 128 125 132 122 127 123 126 124 42 44 4 0
131 128 125 132 122 127 123 126 124 84 87 12 0
131 128 125 132 122 127 123 126 124 58 61 7 0
131 128 125 132 122 127 123 126 27 112 116 62 0
131 128 125 132 122 127 123 126 102 19 105 57 0
131 128 125 132 122 127 123 126 73 10 75 51 0
131 128 125 132 122 127 123 126 115 119 30 65 0
131 128 125 132 122 127 123 126 21 23 1 6 0
131 128 125 132 122 127 123 126 94 96 15 55 0
131 128 125 132 122 127 123 126 42 44 4 33 0
131 128 125 132 122 127 123 126 84 87 12 52 0
131 128 125 132 122 127 123 124 27 112 116 89 0
131 128 125 132 122 127 123 124 102 19 105 82 0
131 128 125 132 122 127 123 124 73 10 75 66 0
131 128 125 132 122 127 123 124 115 119 30 90 0
131 128 125 132 122 127 123 124 21 23 1 13 0
131 128 125 132 122 127 123 124 94 96 15 81 0
131 128 125 132 122 127 123 124 42 44 4 36 0
131 128 125 132 122 127 123 124 58 61 53 7 0
131 128 125 132 122 127 123 27 112 116 89 62 0
131 128 125 132 122 127 123 102 19 105 82 57 0
131 128 125 132 122 127 123 73 10 75 66 51 0
131 128 125 132 122 127 123 115 119 30 90 65 0
131 128 125 132 122 127 123 21 23 1 13 6 0
131 128 125 132 122 127 123 94 96 15 81 55 0
131 128 125 132 122 127 123 42 44 4 36 33 0
131 128 125 132 122 127 126 124 27 112 116 47 0
131 128 125 132 122 127 126 124 102 19 105 40 0
131 128 125 132 122 127 126 124 73 10 75 34 0
131 128 125 132 122 127 126 124 115 119 30 49 0
131 128 125 132 122 127 126 124 21 23 1 3 0
131 128 125 132 122 127 126 124 94 96 15 38 0
131 128 125 132 122 127 126 124 84 87 37 12 0
131 128 125 132 122 127 126 124 58 61 32 7 0
131 128 125 132 122 127 126 27 112 116 47 62 0
131 128 125 132 122 127 126 102 19 105 40 57 0
131 128 125 132 122 127 126 73 10 75 34 51 0
131 128 125 132 122 127 126 115 119 30 49 65 0
131 128 125 132 122 127 126 21 23 1 3 6 0
131 128 125 132 122 127 126 94 96 15 38 55 0
131 128 125 132 122 127 126 84 87 37 12 52 0
131 128 125 132 122 127 124 27 112 116 47 89 0
131 128 125 132 122 127 124 102 19 105 40 82 0
131 128 125 132 122 127 124 73 10 75 34 66 0
131 128 125 132 122 127 124 115 119 30 49 90 0
131 128 125 132 122 127 124 21 23 1 3 13 0
131 128 125 132 122 127 124 94 96 15 38 81 0
131 128 125 132 122 127 124 58 61 32 53 7 0
131 128 125 132 122 127 27 112 116 47 89 62 0
131 128 125 132 122 127 102 19 105 40 82 57 0
131 128 125 132 122 127 73 10 75 34 66 51 0
131 128 125 132 122 127 115 119 30 49 90 65 0
131 128 125 132 122 127 21 23 1 3 13 6 0
131 128 125 132 122 127 94 96 15 38 81 55 0
131 128 125 132 122 123 126 124 27 112 116 99 0
131 128 125 132 122 123 126 124 102 19 105 92 0
131 128 125 132 122 123 126 124 73 10 75 68 0
131 128 125 132 122 123 126 124 115 119 30 101 0
131 128 125 132 122 123 126 124 21 23 1 14 0
131 128 125 132 122 123 126 124 42 44 39 4 0
131 128 125 132 122 123 126 124 84 87 80 12 0
131 128 125 132 122 123 126 124 58 61 54 7 0
131 128 125 132 122 123 126 27 112 116 99 62 0
131 128 125 132 122 123 126 102 19 105 92 57 0
131 128 125 132 122 123 126 73 10 75 68 51 0
131 128 125 132 122 123 126 115 119 30 101 65 0
131 128 125 132 122 123 126 21 23 1 14 6 0
131 128 125 132 122 123 126 42 44 39 4 33 0
131 128 125 132 122 123 126 84 87 80 12 52 0
131 128 125 132 122 123 124 27 112 116 99 89 0
131 128 125 132 122 123 124 102 19 105 92 82 0
131 128 125 132 122 123 124 73 10 75 68 66 0
131 128 125 132 122 123 124 115 119 30 101 90 0
131 128 125 132 122 123 124 21 23 1 14 13 0
131 128 125 132 122 123 124 42 44 39 4 36 0
131 128 125 132 122 123 124 58 61 54 53 7 0
131 128 125 132 122 123 27 112 116 99 89 62 0
131 128 125 132 122 123 102 19 105 92 82 57 0
131 128 125 132 122 123 73 10 75 68 66 51 0
131 128 125 132 122 123 115 119 30 101 90 65 0
131 128 125 132 122 123 21 23 1 14 13 6 0
131 128 125 132 122 123 42 44 39 4 36 33 0
131 128 125 132 122 126 124 27 112 116 99 47 0
131 128 125 132 122 126 124 102 19 105 92 40 0
131 128 125 132 122 126 124 73 10 75 68 34 0
131 128 125 132 122 126 124 115 119 30 101 49 0
131 128 125 132 122 126 124 21 23 1 14 3 0
131 128 125 132 122 126 124 84 87 80 37 12 0
131 128 125 132 122 126 124 58 61 54 32 7 0
131 128 125 132 122 126 27 112 116 99 47 62 0
131 128 125 132 122 126 102 19 105 92 40 57 0
131 128 125 132 122 126 73 10 75 68 34 51 0
131 128 125 132 122 126 115 119 30 101 49 65 0
131 128 125 132 122 126 21 23 1 14 3 6 0
131 128 125 132 122 126 84 87 80 37 12 52 0
131 128 125 132 122 124 27 112 116 99 47 89 0
131 128 125 132 122 124 102 19 105 92 40 82 0
131 128 125 132 122 124 73 10 75 68 34 66 0
131 128 125 132 122 124 115 119 30 101 49 90 0
131 128 125 132 122 124 21 23 1 14 3 13 0
131 128 125 132 122 124 58 61 54 32 53 7 0
131 128 125 132 122 27 112 116 99 47 89 62 0
131 128 125 132 122 102 19 105 92 40 82 57 0
131 128 125 132 122 73 10 75 68 34 66 51 0
131 128 125 132 122 115 119 30 101 49 90 65 0
131 128 125 132 122 21 23 1 14 3 13 6 0
131 128 125 132 127 123 126 124 27 112 116 26 0
131 128 125 132 127 123 126 124 102 19 105 18 0
131 128 125 132 127 123 126 124 73 10 75 9 0
131 128 125 132 127 123 126 124 115 119 30 29 0
131 128 125 132 127 123 126 124 94 96 16 15 0
131 128 125 132 127 123 126 124 42 44 2 4 0
131 128 125 132 127 123 126 124 84 87 11 12 0
131 128 125 132 127 123 126 124 58 61 5 7 0
131 128 125 132 127 123 126 27 112 116 26 62 0
131 128 125 132 127 123 126 102 19 105 18 57 0
131 128 125 132 127 123 126 73 10 75 9 51 0
131 128 125 132 127 123 126 115 119 30 29 65 0
131 128 125 132 127 123 126 94 96 16 15 55 0
131 128 125 132 127 123 126 42 44 2 4 33 0
131 128 125 132 127 123 126 84 87 11 12 52 0
131 128 125 132 127 123 124 27 112 116 26 89 0
131 128 125 132 127 123 124 102 19 105 18 82 0
131 128 125 132 127 123 124 73 10 75 9 66 0
131 128 125 132 127 123 124 115 119 30 29 90 0
131 128 125 132 127 123 124 94 96 16 15 81 0
131 128 125 132 127 123 124 42 44 2 4 36 0
131 128 125 132 127 123 124 58 61 5 53 7 0
131 128 125 132 127 123 27 112 116 26 89 62 0
131 128 125 132 127 123 102 19 105 18 82 57 0
131 128 125 132 127 123 73 10 75 9 66 51 0
131 128 125 132 127 123 115 119 30 29 90 65 0
131 128 125 132 127 123 94 96 16 15 81 55 0
131 128 125 132 127 123 42 44 2 4 36 33 0
131 128 125 132 127 126 124 27 112 116 26 47 0
131 128 125 132 127 126 124 102 19 105 18 40 0
131 128 125 132 127 126 124 73 10 75 9 34 0
131 128 125 132 127 126 124 115 119 30 29 49 0
131 128 125 132 127 126 124 94 96 16 15 38 0
131 128 125 132 127 126 124 84 87 11 37 12 0
131 128 125 132 127 126 124 58 61 5 32 7 0
131 128 125 132 127 126 27 112 116 26 47 62 0
131 128 125 132 127 126 102 19 105 18 40 57 0
131 128 125 132 127 126 73 10 75 9 34 51 0
131 128 125 132 127 126 115 119 30 29 49 65 0
131 128 125 132 127 126 94 96 16 15 38 55 0
131 128 125 132 127 126 84 87 11 37 12 52 0
131 128 125 132 127 124 27 112 116 26 47 89 0
131 128 125 132 127 124 102 19 105 18 40 82 0
131 128 125 132 127 124 73 10 75 9 34 66 0
131 128 125 132 127 124 115 119 30 29 49 90 0
131 128 125 132 127 124 94 96 16 15 38 81 0
131 128 125 132 127 124 58 61 5 32 53 7 0
131 128 125 132 127 27 112 116 26 47 89 62 0
131 128 125 132 127 102 19 105 18 40 82 57 0
131 128 125 132 127 73 10 75 9 34 66 51 0
131 128 125 132 127 115 119 30 29 49 90 65 0
131 128 125 132 127 94 96 16 15 38 81 55 0
131 128 125 132 123 126 124 27 112 116 26 99 0
131 128 125 132 123 126 124 102 19 105 18 92 0
131 128 125 132 123 126 124 73 10 75 9 68 0
131 128 125 132 123 126 124 115 119 30 29 101 0
131 128 125 132 123 126 124 42 44 2 39 4 0
131 128 125 132 123 126 124 84 87 11 80 12 0
131 128 125 132 123 126 124 58 61 5 54 7 0
131 128 125 132 123 126 27 112 116 26 99 62 0
131 128 125 132 123 126 102 19 105 18 92 57 0
131 128 125 132 123 126 73 10 75 9 68 51 0
131 128 125 132 123 126 115 119 30 29 101 65 0
131 128 125 132 123 126 42 44 2 39 4 33 0
131 128 125 132 123 126 84 87 11 80 12 52 0
131 128 125 132 123 124 27 112 116 26 99 89 0
131 128 125 132 123 124 102 19 105 18 92 82 0
131 128 125 132 123 124 73 10 75 9 68 66 0
131 128 125 132 123 124 115 119 30 29 101 90 0
131 128 125 132 123 124 42 44 2 39 4 36 0
131 128 125 132 123 124 58 61 5 54 53 7 0
131 128 125 132 123 27 112 116 26 99 89 62 0
131 128 125 132 123 102 19 105 18 92 82 57 0
131 128 125 132 123 73 10 75 9 68 66 51 0
131 128 125 132 123 115 119 30 29 101 90 65 0
131 128 125 132 123 42 44 2 39 4 36 33 0
131 128 125 132 126 124 27 112 116 26 99 47 0
131 128 125 132 126 124 102 19 105 18 92 40 0
131 128 125 132 126 124 73 10 75 9 68 34 0
131 128 125 132 126 124 115 119 30 29 101 49 0
131 128 125 132 126 124 84 87 11 80 37 12 0
131 128 125 132 126 124 58 61 5 54 32 7 0
131 128 125 132 126 27 112 116 26 99 47 62 0
131 128 125 132 126 102 19 105 18 92 40 57 0
131 128 125 132 126 73 10 75 9 68 34 51 0
131 128 125 132 126 115 119 30 29 101 49 65 0
131 128 125 132 126 84 87 11 80 37 12 52 0
131 128 125 132 124 27 112 116 26 99 47 89 0
131 128 125 132 124 102 19 105 18 92 40 82 0
131 128 125 132 124 73 10 75 9 68 34 66 0
131 128 125 132 124 115 119 30 29 101 49 90 0
131 128 125 132 124 58 61 5 54 32 53 7 0
131 128 125 132 27 112 116 26 99 47 89 62 0
131 128 125 132 102 19 105 18 92 40 82 57 0
131 128 125 132 73 10 75 9 68 34 66 51 0
131 128 125 132 115 119 30 29 101 49 90 65 0
131 128 125 122 127 123 126 124 27 112 116 121 0
131 128 125 122 127 123 126 124 102 19 105 109 0
131 128 125 122 127 123 126 124 73 10 75 78 0
131 128 125 122 127 123 126 124 21 23 31 1 0
131 128 125 122 127 123 126 124 94 96 100 15 0
131 128 125 122 127 123 126 124 42 44 48 4 0
131 128 125 122 127 123 126 124 84 87 91 12 0
131 128 125 122 127 123 126 124 58 61 64 7 0
131 128 125 122 127 123 126 27 112 116 121 62 0
131 128 125 122 127 123 126 102 19 105 109 57 0
131 128 125 122 127 123 126 73 10 75 78 51 0
131 128 125 122 127 123 126 21 23 31 1 6 0
131 128 125 122 127 123 126 94 96 100 15 55 0
131 128 125 122 127 123 126 42 44 48 4 33 0
131 128 125 122 127 123 126 84 87 91 12 52 0
131 128 125 122 127 123 124 27 112 116 121 89 0
131 128 125 122 127 123 124 102 19 105 109 82 0
131 128 125 122 127 123 124 73 10 75 78 66 0
131 128 125 122 127 123 124 21 23 31 1 13 0
131 128 125 122 127 123 124 94 96 100 15 81 0
131 128 125 122 127 123 124 42 44 48 4 36 0
131 128 125 122 127 123 124 58 61 64 53 7 0
131 128 125 122 127 123 27 112 116 121 89 62 0
131 128 125 122 127 123 102 19 105 109 82 57 0
131 128 125 122 127 123 73 10 75 78 66 51 0
131 128 125 122 127 123 21 23 31 1 13 6 0
131 128 125 122 127 123 94 96 100 15 81 55 0
131 128 125 122 127 123 42 44 48 4 36 33 0
131 128 125 122 127 126 124 27 112 116 121 47 0
131 128 125 122 127 126 124 102 19 105 109 40 0
131 128 125 122 127 126 124 73 10 75 78 34 0
131 128 125 122 127 126 124 21 23 31 1 3 0
131 128 125 122 127 126 124 94 96 100 15 38 0
131 128 125 122 127 126 124 84 87 91 37 12 0
131 128 125 122 127 126 124 58 61 64 32 7 0
131 128 125 122 127 126 27 112 116 121 47 62 0
131 128 125 122 127 126 102 19 105 109 40 57 0
131 128 125 122 127 126 73 10 75 78 34 51 0
131 128 125 122 127 126 21 23 31 1 3 6 0
131 128 125 122 127 126 94 96 100 15 38 55 0
131 128 125 122 127 126 84 87 91 37 12 52 0
131 128 125 122 127 124 27 112 116 121 47 89 0
131 128 125 122 127 124 102 19 105 109 40 82 0
131 128 125 122 127 124 73 10 75 78 34 66 0
131 128 125 122 127 124 21 23 31 1 3 13 0
131 128 125 122 127 124 94 96 100 15 38 81 0
131 128 125 122 127 124 58 61 64 32 53 7 0
131 128 125 122 127 27 112 116 121 47 89 62 0
131 128 125 122 127 102 19 105 109 40 82 57 0
131 128 125 122 127 73 10 75 78 34 66 51 0
131 128 125 122 127 21 23 31 1 3 13 6 0
131 128 125 122 127 94 96 100 15 38 81 55 0
131 128 125 122 123 126 124 27 112 116 121 99 0
131 128 125 122 123 126 124 102 19 105 109 92 0
131 128 125 122 123 126 124 73 10 75 78 68 0
131 128 125 122 123 126 124 21 23 31 1 14 0
131 128 125 122 123 126 124 42 44 48 39 4 0
131 128 125 122 123 126 124 84 87 91 80 12 0
131 128 125 122 123 126 124 58 61 64 54 7 0
131 128 125 122 123 126 27 112 116 121 99 62 0
131 128 125 122 123 126 102 19 105 109 92 57 0
131 128 125 122 123 126 73 10 75 78 68 51 0
131 128 125 122 123 126 21 23 31 1 14 6 0
131 128 125 122 123 126 42 44 48 39 4 33 0
131 128 125 122 123 126 84 87 91 80 12 52 0
131 128 125 122 123 124 27 112 116 121 99 89 0
131 128 125 122 123 124 102 19 105 109 92 82 0
131 128 125 122 123 124 73 10 75 78 68 66 0
131 128 125 122 123 124 21 23 31 1 14 13 0
131 128 125 122 123 124 42 44 48 39 4 36 0
131 128 125 122 123 124 58 61 64 54 53 7 0
131 128 125 122 123 27 112 116 121 99 89 62 0
131 128 125 122 123 102 19 105 109 92 82 57 0
131 128 125 122 123 73 10 75 78 68 66 51 0
131 128 125 122 123 21 23 31 1 14 13 6 0
131 128 125 122 123 42 44 48 39 4 36 33 0
131 128 125 122 126 124 27 112 116 121 99 47 0
131 128 125 122 126 124 102 19 105 109 92 40 0
131 128 125 122 126 124 73 10 75 78 68 34 0
131 128 125 122 126 124 21 23 31 1 14 3 0
131 128 125 122 126 124 84 87 91 80 37 12 0
131 128 125 122 126 124 58 61 64 54 32 7 0
131 128 125 122 126 27 112 116 121 99 47 62 0
131 128 125 122 126 102 19 105 109 92 40 57 0
131 128 125 122 126 73 10 75 78 68 34 51 0
131 128 125 122 126 21 23 31 1 14 3 6 0
131 128 125 122 126 84 87 91 80 37 12 52 0
131 128 125 122 124 27 112 116 121 99 47 89 0
131 128 125 122 124 102 19 105 109 92 40 82 0
131 128 125 122 124 73 10 75 78 68 34 66 0
131 128 125 122 124 21 23 31 1 14 3 13 0
131 128 125 122 124 58 61 64 54 32 53 7 0
131 128 125 122 27 112 116 121 99 47 89 62 0
131 128 125 122 102 19 105 109 92 40 82 57 0
131 128 125 122 73 10 75 78 68 34 66 51 0
131 128 125 122 21 23 31 1 14 3 13 6 0
131 128 125 127 123 126 124 27 112 116 121 26 0
131 128 125 127 123 126 124 102 19 105 109 18 0
131 128 125 127 123 126 124 73 10 75 78 9 0
131 128 125 127 123 126 124 94 96 100 16 15 0
131 128 125 127 123 126 124 42 44 48 2 4 0
131 128 125 127 123 126 124 84 87 91 11 12 0
131 128 125 127 123 126 124 58 61 64 5 7 0
131 128 125 127 123 126 27 112 116 121 26 62 0
131 128 125 127 123 126 102 19 105 109 18 57 0
131 128 125 127 123 126 73 10 75 78 9 51 0
131 128 125 127 123 126 94 96 100 16 15 55 0
131 128 125 127 123 126 42 44 48 2 4 33 0
131 128 125 127 123 126 84 87 91 11 12 52 0
131 128 125 127 123 124 27 112 116 121 26 89 0
131 128 125 127 123 124 102 19 105 109 18 82 0
131 128 125 127 123 124 73 10 75 78 9 66 0
131 128 125 127 123 124 94 96 100 16 15 81 0
131 128 125 127 123 124 42 44 48 2 4 36 0
131 128 125 127 123 124 58 61 64 5 53 7 0
131 128 125 127 123 27 112 116 121 26 89 62 0
131 128 125 127 123 102 19 105 109 18 82 57 0
131 128 125 127 123 73 10 75 78 9 66 51 0
131 128 125 127 123 94 96 100 16 15 81 55 0
131 128 125 127 123 42 44 48 2 4 36 33 0
131 128 125 127 126 124 27 112 116 121 26 47 0
131 128 125 127 126 124 102 19 105 109 18 40 0
131 128 125 127 126 124 73 10 75 78 9 34 0
131 128 125 127 126 124 94 96 100 16 15 38 0
131 128 125 127 126 124 84 87 91 11 37 12 0
131 128 125 127 126 124 58 61 64 5 32 7 0
131 128 125 127 126 27 112 116 121 26 47 62 0
131 128 125 127 126 102 19 105 109 18 40 57 0
131 128 125 127 126 73 10 75 78 9 34 51 0
131 128 125 127 126 94 96 100 16 15 38 55 0
131 128 125 127 126 84 87 91 11 37 12 52 0
131 128 125 127 124 27 112 116 121 26 47 89 0
131 128 125 127 124 102 19 105 109 18 40 82 0
131 128 125 127 124 73 10 75 78 9 34 66 0
131 128 125 127 124 94 96 100 16 15 38 81 0
131 128 125 127 124 58 61 64 5 32 53 7 0
131 128 125 127 27 112 116 121 26 47 89 62 0
131 128 125 127 102 19 105 109 18 40 82 57 0
131 128 125 127 73 10 75 78 9 34 66 51 0
131 128 125 127 94 96 100 16 15 38 81 55 0
131 128 125 123 126 124 27 112 116 121 26 99 0
131 128 125 123 126 124 102 19 105 109 18 92 0
131 128 125 123 126 124 73 10 75 78 9 68 0
131 128 125 123 126 124 42 44 48 2 39 4 0
131 128 125 123 126 124 84 87 91 11 80 12 0
131 128 125 123 126 124 58 61 64 5 54 7 0
131 128 125 123 126 27 112 116 121 26 99 62 0
131 128 125 123 126 102 19 105 109 18 92 57 0
131 128 125 123 126 73 10 75 78 9 68 51 0
131 128 125 123 126 42 44 48 2 39 4 33 0
131 128 125 123 126 84 87 91 11 80 12 52 0
131 128 125 123 124 27 112 116 121 26 99 89 0
131 128 125 123 124 102 19 105 109 18 92 82 0
131 128 125 123 124 73 10 75 78 9 68 66 0
131 128 125 123 124 42 44 48 2 39 4 36 0
131 128 125 123 124 58 61 64 5 54 53 7 0
131 128 125 123 27 112 116 121 26 99 89 62 0
131 128 125 123 102 19 105 109 18 92 82 57 0
131 128 125 123 73 10 75 78 9 68 66 51 0
131 128 125 123 42 44 48 2 39 4 36 33 0
131 128 125 126 124 27 112 116 121 26 99 47 0
131 128 125 126 124 102 19 105 109 18 92 40 0
131 128 125 126 124 73 10 75 78 9 68 34 0
131 128 125 126 124 84 87 91 11 80 37 12 0
131 128 125 126 124 58 61 64 5 54 32 7 0
131 128 125 126 27 112 116 121 26 99 47 62 0
131 128 125 126 102 19 105 109 18 92 40 57 0
131 128 125 126 73 10 75 78 9 68 34 51 0
131 128 125 126 84 87 91 11 80 37 12 52 0
131 128 125 124 27 112 116 121 26 99 47 89 0
131 128 125 124 102 19 105 109 18 92 40 82 0
131 128 125 124 73 10 75 78 9 68 34 66 0
131 128 125 124 58 61 64 5 54 32 53 7 0
131 128 125 27 112 116 121 26 99 47 89 62 0
131 128 125 102 19 105 109 18 92 40 82 57 0
131 128 125 73 10 75 78 9 68 34 66 51 0
131 128 130 132 122 127 123 126 124 27 112 76 0
131 128 130 132 122 127 123 126 124 102 19 70 0
131 128 130 132 122 127 123 126 124 110 74 24 0
131 128 130 132 122 127 123 126 124 115 79 30 0
131 128 130 132 122 127 123 126 124 21 8 1 0
131 128 130 132 122 127 123 126 124 94 69 15 0
131 128 130 132 122 127 123 126 124 42 35 4 0
131 128 130 132 122 127 123 126 124 84 67 12 0
131 128 130 132 122 127 123 126 124 58 50 7 0
131 128 130 132 122 127 123 126 27 112 76 62 0
131 128 130 132 122 127 123 126 102 19 70 57 0
131 128 130 132 122 127 123 126 110 74 24 60 0
131 128 130 132 122 127 123 126 115 79 30 65 0
131 128 130 132 122 127 123 126 21 8 1 6 0
131 128 130 132 122 127 123 126 94 69 15 55 0
131 128 130 132 122 127 123 126 42 35 4 33 0
131 128 130 132 122 127 123 126 84 67 12 52 0
131 128 130 132 122 127 123 124 27 112 76 89 0
131 128 130 132 122 127 123 124 102 19 70 82 0
131 128 130 132 122 127 123 124 110 74 24 86 0
131 128 130 132 122 127 123 124 115 79 30 90 0
131 128 130 132 122 127 123 124 21 8 1 13 0
131 128 130 132 122 127 123 124 94 69 15 81 0
131 128 130 132 122 127 123 124 42 35 4 36 0
131 128 130 132 122 127 123 124 58 50 53 7 0
131 128 130 132 122 127 123 27 112 76 89 62 0
131 128 130 132 122 127 123 102 19 70 82 57 0
131 128 130 132 122 127 123 110 74 24 86 60 0
131 128 130 132 122 127 123 115 79 30 90 65 0
131 128 130 132 122 127 123 21 8 1 13 6 0
131 128 130 132 122 127 123 94 69 15 81 55 0
131 128 130 132 122 127 123 42 35 4 36 33 0
131 128 130 132 122 127 126 124 27 112 76 47 0
131 128 130 132 122 127 126 124 102 19 70 40 0
131 128 130 132 122 127 126 124 110 74 24 45 0
131 128 130 132 122 127 126 124 115 79 30 49 0
131 128 130 132 122 127 126 124 21 8 1 3 0
131 128 130 132 122 127 126 124 94 69 15 38 0
131 128 130 132 122 127 126 124 84 67 37 12 0
131 128 130 132 122 127 126 124 58 50 32 7 0
131 128 130 132 122 127 126 27 112 76 47 62 0
131 128 130 132 122 127 126 102 19 70 40 57 0
131 128 130 132 122 127 126 110 74 24 45 60 0
131 128 130 132 122 127 126 115 79 30 49 65 0
131 128 130 132 122 127 126 21 8 1 3 6 0
131 128 130 132 122 127 126 94 69 15 38 55 0
131 128 130 132 122 127 126 84 67 37 12 52 0
131 128 130 132 122 127 124 27 112 76 47 89 0
131 128 130 132 122 127 124 102 19 70 40 82 0
131 128 130 132 122 127 124 110 74 24 45 86 0
131 128 130 132 122 127 124 115 79 30 49 90 0
131 128 130 132 122 127 124 21 8 1 3 13 0
131 128 130 132 122 127 124 94 69 15 38 81 0
131 128 130 132 122 127 124 58 50 32 53 7 0
131 128 130 132 122 127 27 112 76 47 89 62 0
131 128 130 132 122 127 102 19 70 40 82 57 0
131 128 130 132 122 127 110 74 24 45 86 60 0
131 128 130 132 122 127 115 79 30 49 90 65 0
131 128 130 132 122 127 21 8 1 3 13 6 0
131 128 130 132 122 127 94 69 15 38 81 55 0
131 128 130 132 122 123 126 124 27 112 76 99 0
131 128 130 132 122 123 126 124 102 19 70 92 0
131 128 130 132 122 123 126 124 110 74 24 97 0
131 128 130 132 122 123 126 124 115 79 30 101 0
131 128 130 132 122 123 126 124 21 8 1 14 0
131 128 130 132 122 123 126 124 42 35 39 4 0
131 128 130 132 122 123 126 124 84 67 80 12 0
131 128 130 132 122 123 126 124 58 50 54 7 0
131 128 130 132 122 123 126 27 112 76 99 62 0
131 128 130 132 122 123 126 102 19 70 92 57 0
131 128 130 132 122 123 126 110 74 24 97 60 0
131 128 130 132 122 123 126 115 79 30 101 65 0
131 128 130 132 122 123 126 21 8 1 14 6 0
131 128 130 132 122 123 126 42 35 39 4 33 0
131 128 130 132 122 123 126 84 67 80 12 52 0
131 128 130 132 122 123 124 27 112 76 99 89 0
131 128 130 132 122 123 124 102 19 70 92 82 0
131 128 130 132 122 123 124 110 74 24 97 86 0
131 128 130 132 122 123 124 115 79 30 101 90 0
131 128 130 132 122 123 124 21 8 1 14 13 0
131 128 130 132 122 123 124 42 35 39 4 36 0
131 128 130 132 122 123 124 58 50 54 53 7 0
131 128 130 132 122 123 27 112 76 99 89 62 0
131 128 130 132 122 123 102 19 70 92 82 57 0
131 128 130 132 122 123 110 74 24 97 86 60 0
131 128 130 132 122 123 115 79 30 101 90 65 0
131 128 130 132 122 123 21 8 1 14 13 6 0
131 128 130 132 122 123 42 35 39 4 36 33 0
131 128 130 132 122 126 124 27 112 76 99 47 0
131 128 130 132 122 126 124 102 19 70 92 40 0
131 128 130 132 122 126 124 110 74 24 97 45 0
131 128 130 132 122 126 124 115 79 30 101 49 0
131 128 130 132 122 126 124 21 8 1 14 3 0
131 128 130 132 122 126 124 84 67 80 37 12 0
131 128 130 132 122 126 124 58 50 54 32 7 0
131 128 130 132 122 126 27 112 76 99 47 62 0
131 128 130 132 122 126 102 19 70 92 40 57 0
131 128 130 132 122 126 110 74 24 97 45 60 0
131 128 130 132 122 126 115 79 30 101 49 65 0
131 128 130 132 122 126 21 8 1 14 3 6 0
131 128 130 132 122 126 84 67 80 37 12 52 0
131 128 130 132 122 124 27 112 76 99 47 89 0
131 128 130 132 122 124 102 19 70 92 40 82 0
131 128 130 132 122 124 110 74 24 97 45 86 0
131 128 130 132 122 124 115 79 30 101 49 90 0
131 128 130 132 122 124 21 8 1 14 3 13 0
131 128 130 132 122 124 58 50 54 32 53 7 0
131 128 130 132 122 27 112 76 99 47 89 62 0
131 128 130 132 122 102 19 70 92 40 82 57 0
131 128 130 132 122 110 74 24 97 45 86 60 0
131 128 130 132 122 115 79 30 101 49 90 65 0
131 128 130 132 122 21 8 1 14 3 13 6 0
131 128 130 132 127 123 126 124 27 112 76 26 0
131 128 130 132 127 123 126 124 102 19 70 18 0
131 128 130 132 127 123 126 124 110 74 24 25 0
131 128 130 132 127 123 126 124 115 79 30 29 0
131 128 130 132 127 123 126 124 94 69 16 15 0
131 128 130 132 127 123 126 124 42 35 2 4 0
131 128 130 132 127 123 126 124 84 67 11 12 0
131 128 130 132 127 123 126 124 58 50 5 7 0
131 128 130 132 127 123 126 27 112 76 26 62 0
131 128 130 132 127 123 126 102 19 70 18 57 0
131 128 130 132 127 123 126 110 74 24 25 60 0
131 128 130 132 127 123 126 115 79 30 29 65 0
131 128 130 132 127 123 126 94 69 16 15 55 0
131 128 130 132 127 123 126 42 35 2 4 33 0
131 128 130 132 127 123 126 84 67 11 12 52 0
131 128 130 132 127 123 124 27 112 76 26 89 0
131 128 130 132 127 123 124 102 19 70 18 82 0
131 128 130 132 127 123 124 110 74 24 25 86 0
131 128 130 132 127 123 124 115 79 30 29 90 0
131 128 130 132 127 123 124 94 69 16 15 81 0
131 128 130 132 127 123 124 42 35 2 4 36 0
131 128 130 132 127 123 124 58 50 5 53 7 0
131 128 130 132 127 123 27 112 76 26 89 62 0
131 128 130 132 127 123 102 19 70 18 82 57 0
131 128 130 132 127 123 110 74 24 25 86 60 0
131 128 130 132 127 123 115 79 30 29 90 65 0
131 128 130 132 127 123 94 69 16 15 81 55 0
131 128 130 132 127 123 42 35 2 4 36 33 0
131 128 130 132 127 126 124 27 112 76 26 47 0
131 128 130 132 127 126 124 102 19 70 18 40 0
131 128 130 132 127 126 124 110 74 24 25 45 0
131 128 130 132 127 126 124 115 79 30 29 49 0
131 128 130 132 127 126 124 94 69 16 15 38 0
131 128 130 132 127 126 124 84 67 11 37 12 0
131 128 130 132 127 126 124 58 50 5 32 7 0
131 128 130 132 127 126 27 112 76 26 47 62 0
131 128 130 132 127 126 102 19 70 18 40 57 0
131 128 130 132 127 126 110 74 24 25 45 60 0
131 128 130 132 127 126 115 79 30 29 49 65 0
131 128 130 132 127 126 94 69 16 15 38 55 0
131 128 130 132 127 126 84 67 11 37 12 52 0
131 128 130 132 127 124 27 112 76 26 47 89 0
131 128 130 132 127 124 102 19 70 18 40 82 0
131 128 130 132 127 124 110 74 24 25 45 86 0
131 128 130 132 127 124 115 79 30 29 49 90 0
131 128 130 132 127 124 94 69 16 15 38 81 0
131 128 130 132 127 124 58 50 5 32 53 7 0
131 128 130 132 127 27 112 76 26 47 89 62 0
131 128 130 132 127 102 19 70 18 40 82 57 0
131 128 130 132 127 110 74 24 25 45 86 60 0
131 128 130 132 127 115 79 30 29 49 90 65 0
131 128 130 132 127 94 69 16 15 38 81 55 0
131 128 130 132 123 126 124 27 112 76 26 99 0
131 128 130 132 123 126 124 102 19 70 18 92 0
131 128 130 132 123 126 124 110 74 24 25 97 0
131 128 130 132 123 126 124 115 79 30 29 101 0
131 128 130 132 123 126 124 42 35 2 39 4 0
131 128 130 132 123 126 124 84 67 11 80 12 0
131 128 130 132 123 126 124 58 50 5 54 7 0
131 128 130 132 123 126 27 112 76 26 99 62 0
131 128 130 132 123 126 102 19 70 18 92 57 0
131 128 130 132 123 126 110 74 24 25 97 60 0
131 128 130 132 123 126 115 79 30 29 101 65 0
131 128 130 132 123 126 42 35 2 39 4 33 0
131 128 130 132 123 126 84 67 11 80 12 52 0
131 128 130 132 123 124 27 112 76 26 99 89 0
131 128 130 132 123 124 102 19 70 18 92 82 0
131 128 130 132 123 124 110 74 24 25 97 86 0
131 128 130 132 123 124 115 79 30 29 101 90 0
131 128 130 132 123 124 42 35 2 39 4 36 0
131 128 130 132 123 124 58 50 5 54 53 7 0
131 128 130 132 123 27 112 76 26 99 89 62 0
131 128 130 132 123 102 19 70 18 92 82 57 0
131 128 130 132 123 110 74 24 25 97 86 60 0
131 128 130 132 123 115 79 30 29 101 90 65 0
131 128 130 132 123 42 35 2 39 4 36 33 0
131 128 130 132 126 124 27 112 76 26 99 47 0
131 128 130 132 126 124 102 19 70 18 92 40 0
131 128 130 132 126 124 110 74 24 25 97 45 0
131 128 130 132 126 124 115 79 30 29 101 49 0
131 128 130 132 126 124 84 67 11 80 37 12 0
131 128 130 132 126 124 58 50 5 54 32 7 0
131 128 130 132 126 27 112 76 26 99 47 62 0
131 128 130 132 126 102 19 70 18 92 40 57 0
131 128 130 132 126 110 74 24 25 97 45 60 0
131 128 130 132 126 115 79 30 29 101 49 65 0
131 128 130 132 126 84 67 11 80 37 12 52 0
131 128 130 132 124 27 112 76 26 99 47 89 0
131 128 130 132 124 102 19 70 18 92 40 82 0
131 128 130 132 124 110 74 24 25 97 45 86 0
131 128 130 132 124 115 79 30 29 101 49 90 0
131 128 130 132 124 58 50 5 54 32 53 7 0
131 128 130 132 27 112 76 26 99 47 89 62 0
131 128 130 132 102 19 70 18 92 40 82 57 0
131 128 130 132 110 74 24 25 97 45 86 60 0
131 128 130 132 115 79 30 29 101 49 90 65 0
131 128 130 122 127 123 126 124 27 112 76 121 0
131 128 130 122 127 123 126 124 102 19 70 109 0
131 128 130 122 127 123 126 124 110 74 24 118 0
131 128 130 122 127 123 126 124 21 8 31 1 0
131 128 130 122 127 123 126 124 94 69 100 15 0
131 128 130 122 127 123 126 124 42 35 48 4 0
131 128 130 122 127 123 126 124 84 67 91 12 0
131 128 130 122 127 123 126 124 58 50 64 7 0
131 128 130 122 127 123 126 27 112 76 121 62 0
131 128 130 122 127 123 126 102 19 70 109 57 0
131 128 130 122 127 123 126 110 74 24 118 60 0
131 128 130 122 127 123 126 21 8 31 1 6 0
131 128 130 122 127 123 126 94 69 100 15 55 0
131 128 130 122 127 123 126 42 35 48 4 33 0
131 128 130 122 127 123 126 84 67 91 12 52 0
131 128 130 122 127 123 124 27 112 76 121 89 0
131 128 130 122 127 123 124 102 19 70 109 82 0
131 128 130 122 127 123 124 110 74 24 118 86 0
131 128 130 122 127 123 124 21 8 31 1 13 0
131 128 130 122 127 123 124 94 69 100 15 81 0
131 128 130 122 127 123 124 42 35 48 4 36 0
131 128 130 122 127 123 124 58 50 64 53 7 0
131 128 130 122 127 123 27 112 76 121 89 62 0
131 128 130 122 127 123 102 19 70 109 82 57 0
131 128 130 122 127 123 110 74 24 118 86 60 0
131 128 130 122 127 123 21 8 31 1 13 6 0
131 128 130 122 127 123 94 69 100 15 81 55 0
131 128 130 122 127 123 42 35 48 4 36 33 0
131 128 130 122 127 126 124 27 112 76 121 47 0
131 128 130 122 127 126 124 102 19 70 109 40 0
131 128 130 122 127 126 124 110 74 24 118 45 0
131 128 130 122 127 126 124 21 8 31 1 3 0
131 128 130 122 127 126 124 94 69 100 15 38 0
131 128 130 122 127 126 124 84 67 91 37 12 0
131 128 130 122 127 126 124 58 50 64 32 7 0
131 128 130 122 127 126 27 112 76 121 47 62 0
131 128 130 122 127 126 102 19 70 109 40 57 0
131 128 130 122 127 126 110 74 24 118 45 60 0
131 128 130 122 127 126 21 8 31 1 3 6 0
131 128 130 122 127 126 94 69 100 15 38 55 0
131 128 130 122 127 126 84 67 91 37 12 52 0
131 128 130 122 127 124 27 112 76 121 47 89 0
131 128 130 122 127 124 102 19 70 109 40 82 0
131 128 130 122 127 124 110 74 24 118 45 86 0
131 128 130 122 127 124 21 8 31 1 3 13 0
131 128 130 122 127 124 94 69 100 15 38 81 0
131 128 130 122 127 124 58 50 64 32 53 7 0
131 128 130 122 127 27 112 76 121 47 89 62 0
131 128 130 122 127 102 19 70 109 40 82 57 0
131 128 130 122 127 110 74 24 118 45 86 60 0
131 128 130 122 127 21 8 31 1 3 13 6 0
131 128 130 122 127 94 69 100 15 38 81 55 0
131 128 130 122 123 126 124 27 112 76 121 99 0
131 128 130 122 123 126 124 102 19 70 109 92 0
131 128 130 122 123 126 124 110 74 24 118 97 0
131 128 130 122 123 126 124 21 8 31 1 14 0
131 128 130 122 123 126 124 42 35 48 39 4 0
131 128 130 122 123 126 124 84 67 91 80 12 0
131 128 130 122 123 126 124 58 50 64 54 7 0
131 128 130 122 123 126 27 112 76 121 99 62 0
131 128 130 122 123 126 102 19 70 109 92 57 0
131 128 130 122 123 126 110 74 24 118 97 60 0
131 128 130 122 123 126 21 8 31 1 14 6 0
131 128 130 122 123 126 42 35 48 39 4 33 0
131 128 130 122 123 126 84 67 91 80 12 52 0
131 128 130 122 123 124 27 112 76 121 99 89 0
131 128 130 122 123 124 102 19 70 109 92 82 0
131 128 130 122 123 124 110 74 24 118 97 86 0
131 128 130 122 123 124 21 8 31 1 14 13 0
131 128 130 122 123 124 42 35 48 39 4 36 0
131 128 130 122 123 124 58 50 64 54 53 7 0
131 128 130 122 123 27 112 76 121 99 89 62 0
131 128 130 122 123 102 19 70 109 92 82 57 0
131 128 130 122 123 110 74 24 118 97 86 60 0
131 128 130 122 123 21 8 31 1 14 13 6 0
131 128 130 122 123 42 35 48 39 4 36 33 0
131 128 130 122 126 124 27 112 76 121 99 47 0
131 128 130 122 126 124 102 19 70 109 92 40 0
131 128 130 122 126 124 110 74 24 118 97 45 0
131 128 130 122 126 124 21 8 31 1 14 3 0
131 128 130 122 126 124 84 67 91 80 37 12 0
131 128 130 122 126 124 58 50 64 54 32 7 0
131 128 130 122 126 27 112 76 121 99 47 62 0
131 128 130 122 126 102 19 70 109 92 40 57 0
131 128 130 122 126 110 74 24 118 97 45 60 0
131 128 130 122 126 21 8 31 1 14 3 6 0
131 128 130 122 126 84 67 91 80 37 12 52 0
131 128 130 122 124 27 112 76 121 99 47 89 0
131 128 130 122 124 102 19 70 109 92 40 82 0
131 128 130 122 124 110 74 24 118 97 45 86 0
131 128 130 122 124 21 8 31 1 14 3 13 0
131 128 130 122 124 58 50 64 54 32 53 7 0
131 128 130 122 27 112 76 121 99 47 89 62 0
131 128 130 122 102 19 70 109 92 40 82 57 0
131 128 130 122 110 74 24 118 97 45 86 60 0
131 128 130 122 21 8 31 1 14 3 13 6 0
131 128 130 127 123 126 124 27 112 76 121 26 0
131 128 130 127 123 126 124 102 19 70 109 18 0
131 128 130 127 123 126 124 110 74 24 118 25 0
131 128 130 127 123 126 124 94 69 100 16 15 0
131 128 130 127 123 126 124 42 35 48 2 4 0
131 128 130 127 123 126 124 84 67 91 11 12 0
131 128 130 127 123 126 124 58 50 64 5 7 0
131 128 130 127 123 126 27 112 76 121 26 62 0
131 128 130 127 123 126 102 19 70 109 18 57 0
131 128 130 127 123 126 110 74 24 118 25 60 0
131 128 130 127 123 126 94 69 100 16 15 55 0
131 128 130 127 123 126 42 35 48 2 4 33 0
131 128 130 127 123 126 84 67 91 11 12 52 0
131 128 130 127 123 124 27 112 76 121 26 89 0
131 128 130 127 123 124 102 19 70 109 18 82 0
131 128 130 127 123 124 110 74 24 118 25 86 0
131 128 130 127 123 124 94 69 100 16 15 81 0
131 128 130 127 123 124 42 35 48 2 4 36 0
131 128 130 127 123 124 58 50 64 5 53 7 0
131 128 130 127 123 27 112 76 121 26 89 62 0
131 128 130 127 123 102 19 70 109 18 82 57 0
131 128 130 127 123 110 74 24 118 25 86 60 0
131 128 130 127 123 94 69 100 16 15 81 55 0
131 128 130 127 123 42 35 48 2 4 36 33 0
131 128 130 127 126 124 27 112 76 121 26 47 0
131 128 130 127 126 124 102 19 70 109 18 40 0
131 128 130 127 126 124 110 74 24 118 25 45 0
131 128 130 127 126 124 94 69 100 16 15 38 0
131 128 130 127 126 124 84 67 91 11 37 12 0
131 128 130 127 126 124 58 50 64 5 32 7 0
131 128 130 127 126 27 112 76 121 26 47 62 0
131 128 130 127 126 102 19 70 109 18 40 57 0
131 128 130 127 126 110 74 24 118 25 45 60 0
131 128 130 127 126 94 69 100 16 15 38 55 0
131 128 130 127 126 84 67 91 11 37 12 52 0
131 128 130 127 124 27 112 76 121 26 47 89 0
131 128 130 127 124 102 19 70 109 18 40 82 0
131 128 130 127 124 110 74 24 118 25 45 86 0
131 128 130 127 124 94 69 100 16 15 38 81 0
131 128 130 127 124 58 50 64 5 32 53 7 0
131 128 130 127 27 112 76 121 26 47 89 62 0
131 128 130 127 102 19 70 109 18 40 82 57 0
131 128 130 127 110 74 24 118 25 45 86 60 0
131 128 130 127 94 69 100 16 15 38 81 55 0
131 128 130 123 126 124 27 112 76 121 26 99 0
131 128 130 123 126 124 102 19 70 109 18 92 0
131 128 130 123 126 124 110 74 24 118 25 97 0
131 128 130 123 126 124 42 35 48 2 39 4 0
131 128 130 123 126 124 84 67 91 11 80 12 0
131 128 130 123 126 124 58 50 64 5 54 7 0
131 128 130 123 126 27 112 76 121 26 99 62 0
131 128 130 123 126 102 19 70 109 18 92 57 0
131 128 130 123 126 110 74 24 118 25 97 60 0
131 128 130 123 126 42 35 48 2 39 4 33 0
131 128 130 123 126 84 67 91 11 80 12 52 0
131 128 130 123 124 27 112 76 121 26 99 89 0
131 128 130 123 124 102 19 70 109 18 92 82 0
131 128 130 123 124 110 74 24 118 25 97 86 0
131 128 130 123 124 42 35 48 2 39 4 36 0
131 128 130 123 124 58 50 64 5 54 53 7 0
131 128 130 123 27 112 76 121 26 99 89 62 0
131 128 130 123 102 19 70 109 18 92 82 57 0
131 128 130 123 110 74 24 118 25 97 86 60 0
131 128 130 123 42 35 48 2 39 4 36 33 0
131 128 130 126 124 27 112 76 121 26 99 47 0
131 128 130 126 124 102 19 70 109 18 92 40 0
131 128 130 126 124 110 74 24 118 25 97 45 0
131 128 130 126 124 84 67 91 11 80 37 12 0
131 128 130 126 124 58 50 64 5 54 32 7 0
131 128 130 126 27 112 76 121 26 99 47 62 0
131 128 130 126 102 19 70 109 18 92 40 57 0
131 128 130 126 110 74 24 118 25 97 45 60 0
131 128 130 126 84 67 91 11 80 37 12 52 0
131 128 130 124 27 112 76 121 26 99 47 89 0
131 128 130 124 102 19 70 109 18 92 40 82 0
131 128 130 124 110 74 24 118 25 97 45 86 0
131 128 130 124 58 50 64 5 54 32 53 7 0
131 128 130 27 112 76 121 26 99 47 89 62 0
131 128 130 102 19 70 109 18 92 40 82 57 0
131 128 130 110 74 24 118 25 97 45 86 60 0
131 128 132 122 127 123 126 124 27 112 76 116 0
131 128 132 122 127 123 126 124 102 19 70 105 0
131 128 132 122 127 123 126 124 115 79 119 30 0
131 128 132 122 127 123 126 124 21 8 23 1 0
131 128 132 122 127 123 126 124 94 69 96 15 0
131 128 132 122 127 123 126 124 42 35 44 4 0
131 128 132 122 127 123 126 124 84 67 87 12 0
131 128 132 122 127 123 126 124 58 50 61 7 0
131 128 132 122 127 123 126 27 112 76 116 62 0
131 128 132 122 127 123 126 102 19 70 105 57 0
131 128 132 122 127 123 126 115 79 119 30 65 0
131 128 132 122 127 123 126 21 8 23 1 6 0
131 128 132 122 127 123 126 94 69 96 15 55 0
131 128 132 122 127 123 126 42 35 44 4 33 0
131 128 132 122 127 123 126 84 67 87 12 52 0
131 128 132 122 127 123 124 27 112 76 116 89 0
131 128 132 122 127 123 124 102 19 70 105 82 0
131 128 132 122 127 123 124 115 79 119 30 90 0
131 128 132 122 127 123 124 21 8 23 1 13 0
131 128 132 122 127 123 124 94 69 96 15 81 0
131 128 132 122 127 123 124 42 35 44 4 36 0
131 128 132 122 127 123 124 58 50 61 53 7 0
131 128 132 122 127 123 27 112 76 116 89 62 0
131 128 132 122 127 123 102 19 70 105 82 57 0
131 128 132 122 127 123 115 79 119 30 90 65 0
131 128 132 122 127 123 21 8 23 1 13 6 0
131 128 132 122 127 123 94 69 96 15 81 55 0
131 128 132 122 127 123 42 35 44 4 36 33 0
131 128 132 122 127 126 124 27 112 76 116 47 0
131 128 132 122 127 126 124 102 19 70 105 40 0
131 128 132 122 127 126 124 115 79 119 30 49 0
131 128 132 122 127 126 124 21 8 23 1 3 0
131 128 132 122 127 126 124 94 69 96 15 38 0
131 128 132 122 127 126 124 84 67 87 37 12 0
131 128 132 122 127 126 124 58 50 61 32 7 0
131 128 132 122 127 126 27 112 76 116 47 62 0
131 128 132 122 127 126 102 19 70 105 40 57 0
131 128 132 122 127 126 115 79 119 30 49 65 0
131 128 132 122 127 126 21 8 23 1 3 6 0
131 128 132 122 127 126 94 69 96 15 38 55 0
131 128 132 122 127 126 84 67 87 37 12 52 0
131 128 132 122 127 124 27 112 76 116 47 89 0
131 128 132 122 127 124 102 19 70 105 40 82 0
131 128 132 122 127 124 115 79 119 30 49 90 0
131 128 132 122 127 124 21 8 23 1 3 13 0
131 128 132 122 127 124 94 69 96 15 38 81 0
131 128 132 122 127 124 58 50 61 32 53 7 0
131 128 132 122 127 27 112 76 116 47 89 62 0
131 128 132 122 127 102 19 70 105 40 82 57 0
131 128 132 122 127 115 79 119 30 49 90 65 0
131 128 132 122 127 21 8 23 1 3 13 6 0
131 128 132 122 127 94 69 96 15 38 81 55 0
131 128 132 122 123 126 124 27 112 76 116 99 0
131 128 132 122 123 126 124 102 19 70 105 92 0
131 128 132 122 123 126 124 115 79 119 30 101 0
131 128 132 122 123 126 124 21 8 23 1 14 0
131 128 132 122 123 126 124 42 35 44 39 4 0
131 128 132 122 123 126 124 84 67 87 80 12 0
131 128 132 122 123 126 124 58 50 61 54 7 0
131 128 132 122 123 126 27 112 76 116 99 62 0
131 128 132 122 123 126 102 19 70 105 92 57 0
131 128 132 122 123 126 115 79 119 30 101 65 0
131 128 132 122 123 126 21 8 23 1 14 6 0
131 128 132 122 123 126 42 35 44 39 4 33 0
131 128 132 122 123 126 84 67 87 80 12 52 0
131 128 132 122 123 124 27 112 76 116 99 89 0
131 128 132 122 123 124 102 19 70 105 92 82 0
131 128 132 122 123 124 115 79 119 30 101 90 0
131 128 132 122 123 124 21 8 23 1 14 13 0
131 128 132 122 123 124 42 35 44 39 4 36 0
131 128 132 122 123 124 58 50 61 54 53 7 0
131 128 132 122 123 27 112 76 116 99 89 62 0
131 128 132 122 123 102 19 70 105 92 82 57 0
131 128 132 122 123 115 79 119 30 101 90 65 0
131 128 132 122 123 21 8 23 1 14 13 6 0
131 128 132 122 123 42 35 44 39 4 36 33 0
131 128 132 122 126 124 27 112 76 116 99 47 0
131 128 132 122 126 124 102 19 70 105 92 40 0
131 128 132 122 126 124 115 79 119 30 101 49 0
131 128 132 122 126 124 21 8 23 1 14 3 0
131 128 132 122 126 124 84 67 87 80 37 12 0
131 128 132 122 126 124 58 50 61 54 32 7 0
131 128 132 122 126 27 112 76 116 99 47 62 0
131 128 132 122 126 102 19 70 105 92 40 57 0
131 128 132 122 126 115 79 119 30 101 49 65 0
131 128 132 122 126 21 8 23 1 14 3 6 0
131 128 132 122 126 84 67 87 80 37 12 52 0
131 128 132 122 124 27 112 76 116 99 47 89 0
131 128 132 122 124 102 19 70 105 92 40 82 0
131 128 132 122 124 115 79 119 30 101 49 90 0
131 128 132 122 124 21 8 23 1 14 3 13 0
131 128 132 122 124 58 50 61 54 32 53 7 0
131 128 132 122 27 112 76 116 99 47 89 62 0
131 128 132 122 102 19 70 105 92 40 82 57 0
131 128 132 122 115 79 119 30 101 49 90 65 0
131 128 132 122 21 8 23 1 14 3 13 6 0
131 128 132 127 123 126 124 27 112 76 116 26 0
131 128 132 127 123 126 124 102 19 70 105 18 0
131 128 132 127 123 126 124 115 79 119 30 29 0
131 128 132 127 123 126 124 94 69 96 16 15 0
131 128 132 127 123 126 124 42 35 44 2 4 0
131 128 132 127 123 126 124 84 67 87 11 12 0
131 128 132 127 123 126 124 58 50 61 5 7 0
131 128 132 127 123 126 27 112 76 116 26 62 0
131 128 132 127 123 126 102 19 70 105 18 57 0
131 128 132 127 123 126 115 79 119 30 29 65 0
131 128 132 127 123 126 94 69 96 16 15 55 0
131 128 132 127 123 126 42 35 44 2 4 33 0
131 128 132 127 123 126 84 67 87 11 12 52 0
131 128 132 127 123 124 27 112 76 116 26 89 0
131 128 132 127 123 124 102 19 70 105 18 82 0
131 128 132 127 123 124 115 79 119 30 29 90 0
131 128 132 127 123 124 94 69 96 16 15 81 0
131 128 132 127 123 124 42 35 44 2 4 36 0
131 128 132 127 123 124 58 50 61 5 53 7 0
131 128 132 127 123 27 112 76 116 26 89 62 0
131 128 132 127 123 102 19 70 105 18 82 57 0
131 128 132 127 123 115 79 119 30 29 90 65 0
131 128 132 127 123 94 69 96 16 15 81 55 0
131 128 132 127 123 42 35 44 2 4 36 33 0
131 128 132 127 126 124 27 112 76 116 26 47 0
131 128 132 127 126 124 102 19 70 105 18 40 0
131 128 132 127 126 124 115 79 119 30 29 49 0
131 128 132 127 126 124 94 69 96 16 15 38 0
131 128 132 127 126 124 84 67 87 11 37 12 0
131 128 132 127 126 124 58 50 61 5 32 7 0
131 128 132 127 126 27 112 76 116 26 47 62 0
131 128 132 127 126 102 19 70 105 18 40 57 0
131 128 132 127 126 115 79 119 30 29 49 65 0
131 128 132 127 126 94 69 96 16 15 38 55 0
131 128 132 127 126 84 67 87 11 37 12 52 0
131 128 132 127 124 27 112 76 116 26 47 89 0
131 128 132 127 124 102 19 70 105 18 40 82 0
131 128 132 127 124 115 79 119 30 29 49 90 0
131 128 132 127 124 94 69 96 16 15 38 81 0
131 128 132 127 124 58 50 61 5 32 53 7 0
131 128 132 127 27 112 76 116 26 47 89 62 0
131 128 132 127 102 19 70 105 18 40 82 57 0
131 128 132 127 115 79 119 30 29 49 90 65 0
131 128 132 127 94 69 96 16 15 38 81 55 0
131 128 132 123 126 124 27 112 76 116 26 99 0
131 128 132 123 126 124 102 19 70 105 18 92 0
131 128 132 123 126 124 115 79 119 30 29 101 0
131 128 132 123 126 124 42 35 44 2 39 4 0
131 128 132 123 126 124 84 67 87 11 80 12 0
131 128 132 123 126 124 58 50 61 5 54 7 0
131 128 132 123 126 27 112 76 116 26 99 62 0
131 128 132 123 126 102 19 70 105 18 92 57 0
131 128 132 123 126 115 79 119 30 29 101 65 0
131 128 132 123 126 42 35 44 2 39 4 33 0
131 128 132 123 126 84 67 87 11 80 12 52 0
131 128 132 123 124 27 112 76 116 26 99 89 0
131 128 132 123 124 102 19 70 105 18 92 82 0
131 128 132 123 124 115 79 119 30 29 101 90 0
131 128 132 123 124 42 35 44 2 39 4 36 0
131 128 132 123 124 58 50 61 5 54 53 7 0
131 128 132 123 27 112 76 116 26 99 89 62 0
131 128 132 123 102 19 70 105 18 92 82 57 0
131 128 132 123 115 79 119 30 29 101 90 65 0
131 128 132 123 42 35 44 2 39 4 36 33 0
131 128 132 126 124 27 112 76 116 26 99 47 0
131 128 132 126 124 102 19 70 105 18 92 40 0
131 128 132 126 124 115 79 119 30 29 101 49 0
131 128 132 126 124 84 67 87 11 80 37 12 0
131 128 132 126 124 58 50 61 5 54 32 7 0
131 128 132 126 27 112 76 116 26 99 47 62 0
131 128 132 126 102 19 70 105 18 92 40 57 0
131 128 132 126 115 79 119 30 29 101 49 65 0
131 128 132 126 84 67 87 11 80 37 12 52 0
131 128 132 124 27 112 76 116 26 99 47 89 0
131 128 132 124 102 19 70 105 18 92 40 82 0
131 128 132 124 115 79 119 30 29 101 49 90 0
131 128 132 124 58 50 61 5 54 32 53 7 0
131 128 132 27 112 76 116 26 99 47 89 62 0
131 128 132 102 19 70 105 18 92 40 82 57 0
131 128 132 115 79 119 30 29 101 49 90 65 0
131 128 122 127 123 126 124 27 112 76 116 121 0
131 128 122 127 123 126 124 102 19 70 105 109 0
131 128 122 127 123 126 124 21 8 23 31 1 0
131 128 122 127 123 126 124 94 69 96 100 15 0
131 128 122 127 123 126 124 42 35 44 48 4 0
131 128 122 127 123 126 124 84 67 87 91 12 0
131 128 122 127 123 126 124 58 50 61 64 7 0
131 128 122 127 123 126 27 112 76 116 121 62 0
131 128 122 127 123 126 102 19 70 105 109 57 0
131 128 122 127 123 126 21 8 23 31 1 6 0
131 128 122 127 123 126 94 69 96 100 15 55 0
131 128 122 127 123 126 42 35 44 48 4 33 0
131 128 122 127 123 126 84 67 87 91 12 52 0
131 128 122 127 123 124 27 112 76 116 121 89 0
131 128 122 127 123 124 102 19 70 105 109 82 0
131 128 122 127 123 124 21 8 23 31 1 13 0
131 128 122 127 123 124 94 69 96 100 15 81 0
131 128 122 127 123 124 42 35 44 48 4 36 0
131 128 122 127 123 124 58 50 61 64 53 7 0
131 128 122 127 123 27 112 76 116 121 89 62 0
131 128 122 127 123 102 19 70 105 109 82 57 0
131 128 122 127 123 21 8 23 31 1 13 6 0
131 128 122 127 123 94 69 96 100 15 81 55 0
131 128 122 127 123 42 35 44 48 4 36 33 0
131 128 122 127 126 124 27 112 76 116 121 47 0
131 128 122 127 126 124 102 19 70 105 109 40 0
131 128 122 127 126 124 21 8 23 31 1 3 0
131 128 122 127 126 124 94 69 96 100 15 38 0
131 128 122 127 126 124 84 67 87 91 37 12 0
131 128 122 127 126 124 58 50 61 64 32 7 0
131 128 122 127 126 27 112 76 116 121 47 62 0
131 128 122 127 126 102 19 70 105 109 40 57 0
131 128 122 127 126 21 8 23 31 1 3 6 0
131 128 122 127 126 94 69 96 100 15 38 55 0
131 128 122 127 126 84 67 87 91 37 12 52 0
131 128 122 127 124 27 112 76 116 121 47 89 0
131 128 122 127 124 102 19 70 105 109 40 82 0
131 128 122 127 124 21 8 23 31 1 3 13 0
131 128 122 127 124 94 69 96 100 15 38 81 0
131 128 122 127 124 58 50 61 64 32 53 7 0
131 128 122 127 27 112 76 116 121 47 89 62 0
131 128 122 127 102 19 70 105 109 40 82 57 0
131 128 122 127 21 8 23 31 1 3 13 6 0
131 128 122 127 94 69 96 100 15 38 81 55 0
131 128 122 123 126 124 27 112 76 116 121 99 0
131 128 122 123 126 124 102 19 70 105 109 92 0
131 128 122 123 126 124 21 8 23 31 1 14 0
131 128 122 123 126 124 42 35 44 48 39 4 0
131 128 122 123 126 124 84 67 87 91 80 12 0
131 128 122 123 126 124 58 50 61 64 54 7 0
131 128 122 123 126 27 112 76 116 121 99 62 0
131 128 122 123 126 102 19 70 105 109 92 57 0
131 128 122 123 126 21 8 23 31 1 14 6 0
131 128 122 123 126 42 35 44 48 39 4 33 0
131 128 122 123 126 84 67 87 91 80 12 52 0
131 128 122 123 124 27 112 76 116 121 99 89 0
131 128 122 123 124 102 19 70 105 109 92 82 0
131 128 122 123 124 21 8 23 31 1 14 13 0
131 128 122 123 124 42 35 44 48 39 4 36 0
131 128 122 123 124 58 50 61 64 54 53 7 0
131 128 122 123 27 112 76 116 121 99 89 62 0
131 128 122 123 102 19 70 105 109 92 82 57 0
131 128 122 123 21 8 23 31 1 14 13 6 0
131 128 122 123 42 35 44 48 39 4 36 33 0
131 128 122 126 124 27 112 76 116 121 99 47 0
131 128 122 126 124 102 19 70 105 109 92 40 0
131 128 122 126 124 21 8 23 31 1 14 3 0
131 128 122 126 124 84 67 87 91 80 37 12 0
131 128 122 126 124 58 50 61 64 54 32 7 0
131 128 122 126 27 112 76 116 121 99 47 62 0
131 128 122 126 102 19 70 105 109 92 40 57 0
131 128 122 126 21 8 23 31 1 14 3 6 0
131 128 122 126 84 67 87 91 80 37 12 52 0
131 128 122 124 27 112 76 116 121 99 47 89 0
131 128 122 124 102 19 70 105 109 92 40 82 0
131 128 122 124 21 8 23 31 1 14 3 13 0
131 128 122 124 58 50 61 64 54 32 53 7 0
131 128 122 27 112 76 116 121 99 47 89 62 0
131 128 122 102 19 70 105 109 92 40 82 57 0
131 128 122 21 8 23 31 1 14 3 13 6 0
131 128 127 123 126 124 27 112 76 116 121 26 0
131 128 127 123 126 124 102 19 70 105 109 18 0
131 128 127 123 126 124 94 69 96 100 16 15 0
131 128 127 123 126 124 42 35 44 48 2 4 0
131 128 127 123 126 124 84 67 87 91 11 12 0
131 128 127 123 126 124 58 50 61 64 5 7 0
131 128 127 123 126 27 112 76 116 121 26 62 0
131 128 127 123 126 102 19 70 105 109 18 57 0
131 128 127 123 126 94 69 96 100 16 15 55 0
131 128 127 123 126 42 35 44 48 2 4 33 0
131 128 127 123 126 84 67 87 91 11 12 52 0
131 128 127 123 124 27 112 76 116 121 26 89 0
131 128 127 123 124 102 19 70 105 109 18 82 0
131 128 127 123 124 94 69 96 100 16 15 81 0
131 128 127 123 124 42 35 44 48 2 4 36 0
131 128 127 123 124 58 50 61 64 5 53 7 0
131 128 127 123 27 112 76 116 121 26 89 62 0
131 128 127 123 102 19 70 105 109 18 82 57 0
131 128 127 123 94 69 96 100 16 15 81 55 0
131 128 127 123 42 35 44 48 2 4 36 33 0
131 128 127 126 124 27 112 76 116 121 26 47 0
131 128 127 126 124 102 19 70 105 109 18 40 0
131 128 127 126 124 94 69 96 100 16 15 38 0
131 128 127 126 124 84 67 87 91 11 37 12 0
131 128 127 126 124 58 50 61 64 5 32 7 0
131 128 127 126 27 112 76 116 121 26 47 62 0
131 128 127 126 102 19 70 105 109 18 40 57 0
131 128 127 126 94 69 96 100 16 15 38 55 0
131 128 127 126 84 67 87 91 11 37 12 52 0
131 128 127 124 27 112 76 116 121 26 47 89 0
131 128 127 124 102 19 70 105 109 18 40 82 0
131 128 127 124 94 69 96 100 16 15 38 81 0
131 128 127 124 58 50 61 64 5 32 53 7 0
131 128 127 27 112 76 116 121 26 47 89 62 0
131 128 127 102 19 70 105 109 18 40 82 57 0
131 128 127 94 69 96 100 16 15 38 81 55 0
131 128 123 126 124 27 112 76 116 121 26 99 0
131 128 123 126 124 102 19 70 105 109 18 92 0
131 128 123 126 124 42 35 44 48 2 39 4 0
131 128 123 126 124 84 67 87 91 11 80 12 0
131 128 123 126 124 58 50 61 64 5 54 7 0
131 128 123 126 27 112 76 116 121 26 99 62 0
131 128 123 126 102 19 70 105 109 18 92 57 0
131 128 123 126 42 35 44 48 2 39 4 33 0
131 128 123 126 84 67 87 91 11 80 12 52 0
131 128 123 124 27 112 76 116 121 26 99 89 0
131 128 123 124 102 19 70 105 109 18 92 82 0
131 128 123 124 42 35 44 48 2 39 4 36 0
131 128 123 124 58 50 61 64 5 54 53 7 0
131 128 123 27 112 76 116 121 26 99 89 62 0
131 128 123 102 19 70 105 109 18 92 82 57 0
131 128 123 42 35 44 48 2 39 4 36 33 0
131 128 126 124 27 112 76 116 121 26 99 47 0
131 128 126 124 102 19 70 105 109 18 92 40 0
131 128 126 124 84 67 87 91 11 80 37 12 0
131 128 126 124 58 50 61 64 5 54 32 7 0
131 128 126 27 112 76 116 121 26 99 47 62 0
131 128 126 102 19 70 105 109 18 92 40 57 0
131 128 126 84 67 87 91 11 80 37 12 52 0
131 128 124 27 112 76 116 121 26 99 47 89 0
131 128 124 102 19 70 105 109 18 92 40 82 0
131 128 124 58 50 61 64 5 54 32 53 7 0
131 128 27 112 76 116 121 26 99 47 89 62 0
131 128 102 19 70 105 109 18 92 40 82 57 0
131 125 130 132 122 127 123 126 124 27 112 107 0
131 125 130 132 122 127 123 126 124 73 71 10 0
131 125 130 132 122 127 123 126 124 110 104 24 0
131 125 130 132 122 127 123 126 124 115 108 30 0
131 125 130 132 122 127 123 126 124 21 17 1 0
131 125 130 132 122 127 123 126 124 94 93 15 0
131 125 130 132 122 127 123 126 124 42 41 4 0
131 125 130 132 122 127 123 126 124 84 83 12 0
131 125 130 132 122 127 123 126 124 58 56 7 0
131 125 130 132 122 127 123 126 27 112 107 62 0
131 125 130 132 122 127 123 126 73 71 10 51 0
131 125 130 132 122 127 123 126 110 104 24 60 0
131 125 130 132 122 127 123 126 115 108 30 65 0
131 125 130 132 122 127 123 126 21 17 1 6 0
131 125 130 132 122 127 123 126 94 93 15 55 0
131 125 130 132 122 127 123 126 42 41 4 33 0
131 125 130 132 122 127 123 126 84 83 12 52 0
131 125 130 132 122 127 123 124 27 112 107 89 0
131 125 130 132 122 127 123 124 73 71 10 66 0
131 125 130 132 122 127 123 124 110 104 24 86 0
131 125 130 132 122 127 123 124 115 108 30 90 0
131 125 130 132 122 127 123 124 21 17 1 13 0
131 125 130 132 122 127 123 124 94 93 15 81 0
131 125 130 132 122 127 123 124 42 41 4 36 0
131 125 130 132 122 127 123 124 58 56 53 7 0
131 125 130 132 122 127 123 27 112 107 89 62 0
131 125 130 132 122 127 123 73 71 10 66 51 0
131 125 130 132 122 127 123 110 104 24 86 60 0
131 125 130 132 122 127 123 115 108 30 90 65 0
131 125 130 132 122 127 123 21 17 1 13 6 0
131 125 130 132 122 127 123 94 93 15 81 55 0
131 125 130 132 122 127 123 42 41 4 36 33 0
131 125 130 132 122 127 126 124 27 112 107 47 0
131 125 130 132 122 127 126 124 73 71 10 34 0
131 125 130 132 122 127 126 124 110 104 24 45 0
131 125 130 132 122 127 126 124 115 108 30 49 0
131 125 130 132 122 127 126 124 21 17 1 3 0
131 125 130 132 122 127 126 124 94 93 15 38 0
131 125 130 132 122 127 126 124 84 83 37 12 0
131 125 130 132 122 127 126 124 58 56 32 7 0
131 125 130 132 122 127 126 27 112 107 47 62 0
131 125 130 132 122 127 126 73 71 10 34 51 0
131 125 130 132 122 127 126 110 104 24 45 60 0
131 125 130 132 122 127 126 115 108 30 49 65 0
131 125 130 132 122 127 126 21 17 1 3 6 0
131 125 130 132 122 127 126 94 93 15 38 55 0
131 125 130 132 122 127 126 84 83 37 12 52 0
131 125 130 132 122 127 124 27 112 107 47 89 0
131 125 130 132 122 127 124 73 71 10 34 66 0
131 125 130 132 122 127 124 110 104 24 45 86 0
131 125 130 132 122 127 124 115 108 30 49 90 0
131 125 130 132 122 127 124 21 17 1 3 13 0
131 125 130 132 122 127 124 94 93 15 38 81 0
131 125 130 132 122 127 124 58 56 32 53 7 0
131 125 130 132 122 127 27 112 107 47 89 62 0
131 125 130 132 122 127 73 71 10 34 66 51 0
131 125 130 132 122 127 110 104 24 45 86 60 0
131 125 130 132 122 127 115 108 30 49 90 65 0
131 125 130 132 122 127 21 17 1 3 13 6 0
131 125 130 132 122 127 94 93 15 38 81 55 0
131 125 130 132 122 123 126 124 27 112 107 99 0
131 125 130 132 122 123 126 124 73 71 10 68 0
131 125 130 132 122 123 126 124 110 104 24 97 0
131 125 130 132 122 123 126 124 115 108 30 101 0
131 125 130 132 122 123 126 124 21 17 1 14 0
131 125 130 132 122 123 126 124 42 41 39 4 0
131 125 130 132 122 123 126 124 84 83 80 12 0
131 125 130 132 122 123 126 124 58 56 54 7 0
131 125 130 132 122 123 126 27 112 107 99 62 0
131 125 130 132 122 123 126 73 71 10 68 51 0
131 125 130 132 122 123 126 110 104 24 97 60 0
131 125 130 132 122 123 126 115 108 30 101 65 0
131 125 130 132 122 123 126 21 17 1 14 6 0
131 125 130 132 122 123 126 42 41 39 4 33 0
131 125 130 132 122 123 126 84 83 80 12 52 0
131 125 130 132 122 123 124 27 112 107 99 89 0
131 125 130 132 122 123 124 73 71 10 68 66 0
131 125 130 132 122 123 124 110 104 24 97 86 0
131 125 130 132 122 123 124 115 108 30 101 90 0
131 125 130 132 122 123 124 21 17 1 14 13 0
131 125 130 132 122 123 124 42 41 39 4 36 0
131 125 130 132 122 123 124 58 56 54 53 7 0
131 125 130 132 122 123 27 112 107 99 89 62 0
131 125 130 132 122 123 73 71 10 68 66 51 0
131 125 130 132 122 123 110 104 24 97 86 60 0
131 125 130 132 122 123 115 108 30 101 90 65 0
131 125 130 132 122 123 21 17 1 14 13 6 0
131 125 130 132 122 123 42 41 39 4 36 33 0
131 125 130 132 122 126 124 27 112 107 99 47 0
131 125 130 132 122 126 124 73 71 10 68 34 0
131 125 130 132 122 126 124 110 104 24 97 45 0
131 125 130 132 122 126 124 115 108 30 101 49 0
131 125 130 132 122 126 124 21 17 1 14 3 0
131 125 130 132 122 126 124 84 83 80 37 12 0
131 125 130 132 122 126 124 58 56 54 32 7 0
131 125 130 132 122 126 27 112 107 99 47 62 0
131 125 130 132 122 126 73 71 10 68 34 51 0
131 125 130 132 122 126 110 104 24 97 45 60 0
131 125 130 132 122 126 115 108 30 101 49 65 0
131 125 130 132 122 126 21 17 1 14 3 6 0
131 125 130 132 122 126 84 83 80 37 12 52 0
131 125 130 132 122 124 27 112 107 99 47 89 0
131 125 130 132 122 124 73 71 10 68 34 66 0
131 125 130 132 122 124 110 104 24 97 45 86 0
131 125 130 132 122 124 115 108 30 101 49 90 0
131 125 130 132 122 124 21 17 1 14 3 13 0
131 125 130 132 122 124 58 56 54 32 53 7 0
131 125 130 132 122 27 112 107 99 47 89 62 0
131 125 130 132 122 73 71 10 68 34 66 51 0
131 125 130 132 122 110 104 24 97 45 86 60 0
131 125 130 132 122 115 108 30 101 49 90 65 0
131 125 130 132 122 21 17 1 14 3 13 6 0
131 125 130 132 127 123 126 124 27 112 107 26 0
131 125 130 132 127 123 126 124 73 71 10 9 0
131 125 130 132 127 123 126 124 110 104 24 25 0
131 125 130 132 127 123 126 124 115 108 30 29 0
131 125 130 132 127 123 126 124 94 93 16 15 0
131 125 130 132 127 123 126 124 42 41 2 4 0
131 125 130 132 127 123 126 124 84 83 11 12 0
131 125 130 132 127 123 126 124 58 56 5 7 0
131 125 130 132 127 123 126 27 112 107 26 62 0
131 125 130 132 127 123 126 73 71 10 9 51 0
131 125 130 132 127 123 126 110 104 24 25 60 0
131 125 130 132 127 123 126 115 108 30 29 65 0
131 125 130 132 127 123 126 94 93 16 15 55 0
131 125 130 132 127 123 126 42 41 2 4 33 0
131 125 130 132 127 123 126 84 83 11 12 52 0
131 125 130 132 127 123 124 27 112 107 26 89 0
131 125 130 132 127 123 124 73 71 10 9 66 0
131 125 130 132 127 123 124 110 104 24 25 86 0
131 125 130 132 127 123 124 115 108 30 29 90 0
131 125 130 132 127 123 124 94 93 16 15 81 0
131 125 130 132 127 123 124 42 41 2 4 36 0
131 125 130 132 127 123 124 58 56 5 53 7 0
131 125 130 132 127 123 27 112 107 26 89 62 0
131 125 130 132 127 123 73 71 10 9 66 51 0
131 125 130 132 127 123 110 104 24 25 86 60 0
131 125 130 132 127 123 115 108 30 29 90 65 0
131 125 130 132 127 123 94 93 16 15 81 55 0
131 125 130 132 127 123 42 41 2 4 36 33 0
131 125 130 132 127 126 124 27 112 107 26 47 0
131 125 130 132 127 126 124 73 71 10 9 34 0
131 125 130 132 127 126 124 110 104 24 25 45 0
131 125 130 132 127 126 124 115 108 30 29 49 0
131 125 130 132 127 126 124 94 93 16 15 38 0
131 125 130 132 127 126 124 84 83 11 37 12 0
131 125 130 132 127 126 124 58 56 5 32 7 0
131 125 130 132 127 126 27 112 107 26 47 62 0
131 125 130 132 127 126 73 71 10 9 34 51 0
131 125 130 132 127 126 110 104 24 25 45 60 0
131 125 130 132 127 126 115 108 30 29 49 65 0
131 125 130 132 127 126 94 93 16 15 38 55 0
131 125 130 132 127 126 84 83 11 37 12 52 0
131 125 130 132 127 124 27 112 107 26 47 89 0
131 125 130 132 127 124 73 71 10 9 34 66 0
131 125 130 132 127 124 110 104 24 25 45 86 0
131 125 130 132 127 124 115 108 30 29 49 90 0
131 125 130 132 127 124 94 93 16 15 38 81 0
131 125 130 132 127 124 58 56 5 32 53 7 0
131 125 130 132 127 27 112 107 26 47 89 62 0
131 125 130 132 127 73 71 10 9 34 66 51 0
131 125 130 132 127 110 104 24 25 45 86 60 0
131 125 130 132 127 115 108 30 29 49 90 65 0
131 125 130 132 127 94 93 16 15 38 81 55 0
131 125 130 132 123 126 124 27 112 107 26 99 0
131 125 130 132 123 126 124 73 71 10 9 68 0
131 125 130 132 123 126 124 110 104 24 25 97 0
131 125 130 132 123 126 124 115 108 30 29 101 0
131 125 130 132 123 126 124 42 41 2 39 4 0
131 125 130 132 123 126 124 84 83 11 80 12 0
131 125 130 132 123 126 124 58 56 5 54 7 0
131 125 130 132 123 126 27 112 107 26 99 62 0
131 125 130 132 123 126 73 71 10 9 68 51 0
131 125 130 132 123 126 110 104 24 25 97 60 0
131 125 130 132 123 126 115 108 30 29 101 65 0
131 125 130 132 123 126 42 41 2 39 4 33 0
131 125 130 132 123 126 84 83 11 80 12 52 0
131 125 130 132 123 124 27 112 107 26 99 89 0
131 125 130 132 123 124 73 71 10 9 68 66 0
131 125 130 132 123 124 110 104 24 25 97 86 0
131 125 130 132 123 124 115 108 30 29 101 90 0
131 125 130 132 123 124 42 41 2 39 4 36 0
131 125 130 132 123 124 58 56 5 54 53 7 0
131 125 130 132 123 27 112 107 26 99 89 62 0
131 125 130 132 123 73 71 10 9 68 66 51 0
131 125 130 132 123 110 104 24 25 97 86 60 0
131 125 130 132 123 115 108 30 29 101 90 65 0
131 125 130 132 123 42 41 2 39 4 36 33 0
131 125 130 132 126 124 27 112 107 26 99 47 0
131 125 130 132 126 124 73 71 10 9 68 34 0
131 125 130 132 126 124 110 104 24 25 97 45 0
131 125 130 132 126 124 115 108 30 29 101 49 0
131 125 130 132 126 124 84 83 11 80 37 12 0
131 125 130 132 126 124 58 56 5 54 32 7 0
131 125 130 132 126 27 112 107 26 99 47 62 0
131 125 130 132 126 73 71 10 9 68 34 51 0
131 125 130 132 126 110 104 24 25 97 45 60 0
131 125 130 132 126 115 108 30 29 101 49 65 0
131 125 130 132 126 84 83 11 80 37 12 52 0
131 125 130 132 124 27 112 107 26 99 47 89 0
131 125 130 132 124 73 71 10 9 68 34 66 0
131 125 130 132 124 110 104 24 25 97 45 86 0
131 125 130 132 124 115 108 30 29 101 49 90 0
131 125 130 132 124 58 56 5 54 32 53 7 0
131 125 130 132 27 112 107 26 99 47 89 62 0
131 125 130 132 73 71 10 9 68 34 66 51 0
131 125 130 132 110 104 24 25 97 45 86 60 0
131 125 130 132 115 108 30 29 101 49 90 65 0
131 125 130 122 127 123 126 124 27 112 107 121 0
131 125 130 122 127 123 126 124 73 71 10 78 0
131 125 130 122 127 123 126 124 110 104 24 118 0
131 125 130 122 127 123 126 124 21 17 31 1 0
131 125 130 122 127 123 126 124 94 93 100 15 0
131 125 130 122 127 123 126 124 42 41 48 4 0
131 125 130 122 127 123 126 124 84 83 91 12 0
131 125 130 122 127 123 126 124 58 56 64 7 0
131 125 130 122 127 123 126 27 112 107 121 62 0
131 125 130 122 127 123 126 73 71 10 78 51 0
131 125 130 122 127 123 126 110 104 24 118 60 0
131 125 130 122 127 123 126 21 17 31 1 6 0
131 125 130 122 127 123 126 94 93 100 15 55 0
131 125 130 122 127 123 126 42 41 48 4 33 0
131 125 130 122 127 123 126 84 83 91 12 52 0
131 125 130 122 127 123 124 27 112 107 121 89 0
131 125 130 122 127 123 124 73 71 10 78 66 0
131 125 130 122 127 123 124 110 104 24 118 86 0
131 125 130 122 127 123 124 21 17 31 1 13 0
131 125 130 122 127 123 124 94 93 100 15 81 0
131 125 130 122 127 123 124 42 41 48 4 36 0
131 125 130 122 127 123 124 58 56 64 53 7 0
131 125 130 122 127 123 27 112 107 121 89 62 0
131 125 130 122 127 123 73 71 10 78 66 51 0
131 125 130 122 127 123 110 104 24 118 86 60 0
131 125 130 122 127 123 21 17 31 1 13 6 0
131 125 130 122 127 123 94 93 100 15 81 55 0
131 125 130 122 127 123 42 41 48 4 36 33 0
131 125 130 122 127 126 124 27 112 107 121 47 0
131 125 130 122 127 126 124 73 71 10 78 34 0
131 125 130 122 127 126 124 110 104 24 118 45 0
131 125 130 122 127 126 124 21 17 31 1 3 0
131 125 130 122 127 126 124 94 93 100 15 38 0
131 125 130 122 127 126 124 84 83 91 37 12 0
131 125 130 122 127 126 124 58 56 64 32 7 0
131 125 130 122 127 126 27 112 107 121 47 62 0
131 125 130 122 127 126 73 71 10 78 34 51 0
131 125 130 122 127 126 110 104 24 118 45 60 0
131 125 130 122 127 126 21 17 31 1 3 6 0
131 125 130 122 127 126 94 93 100 15 38 55 0
131 125 130 122 127 126 84 83 91 37 12 52 0
131 125 130 122 127 124 27 112 107 121 47 89 0
131 125 130 122 127 124 73 71 10 78 34 66 0
131 125 130 122 127 124 110 104 24 118 45 86 0
131 125 130 122 127 124 21 17 31 1 3 13 0
131 125 130 122 127 124 94 93 100 15 38 81 0
131 125 130 122 127 124 58 56 64 32 53 7 0
131 125 130 122 127 27 112 107 121 47 89 62 0
131 125 130 122 127 73 71 10 78 34 66 51 0
131 125 130 122 127 110 104 24 118 45 86 60 0
131 125 130 122 127 21 17 31 1 3 13 6 0
131 125 130 122 127 94 93 100 15 38 81 55 0
131 125 130 122 123 126 124 27 112 107 121 99 0
131 125 130 122 123 126 124 73 71 10 78 68 0
131 125 130 122 123 126 124 110 104 24 118 97 0
131 125 130 122 123 126 124 21 17 31 1 14 0
131 125 130 122 123 126 124 42 41 48 39 4 0
131 125 130 122 123 126 124 84 83 91 80 12 0
131 125 130 122 123 126 124 58 56 64 54 7 0
131 125 130 122 123 126 27 112 107 121 99 62 0
131 125 130 122 123 126 73 71 10 78 68 51 0
131 125 130 122 123 126 110 104 24 118 97 60 0
131 125 130 122 123 126 21 17 31 1 14 6 0
131 125 130 122 123 126 42 41 48 39 4 33 0
131 125 130 122 123 126 84 83 91 80 12 52 0
131 125 130 122 123 124 27 112 107 121 99 89 0
131 125 130 122 123 124 73 71 10 78 68 66 0
131 125 130 122 123 124 110 104 24 118 97 86 0
131 125 130 122 123 124 21 17 31 1 14 13 0
131 125 130 122 123 124 42 41 48 39 4 36 0
131 125 130 122 123 124 58 56 64 54 53 7 0
131 125 130 122 123 27 112 107 121 99 89 62 0
131 125 130 122 123 73 71 10 78 68 66 51 0
131 125 130 122 123 110 104 24 118 97 86 60 0
131 125 130 122 123 21 17 31 1 14 13 6 0
131 125 130 122 123 42 41 48 39 4 36 33 0
131 125 130 122 126 124 27 112 107 121 99 47 0
131 125 130 122 126 124 73 71 10 78 68 34 0
131 125 130 122 126 124 110 104 24 118 97 45 0
131 125 130 122 126 124 21 17 31 1 14 3 0
131 125 130 122 126 124 84 83 91 80 37 12 0
131 125 130 122 126 124 58 56 64 54 32 7 0
131 125 130 122 126 27 112 107 121 99 47 62 0
131 125 130 122 126 73 71 10 78 68 34 51 0
131 125 130 122 126 110 104 24 118 97 45 60 0
131 125 130 122 126 21 17 31 1 14 3 6 0
131 125 130 122 126 84 83 91 80 37 12 52 0
131 125 130 122 124 27 112 107 121 99 47 89 0
131 125 130 122 124 73 71 10 78 68 34 66 0
131 125 130 122 124 110 104 24 118 97 45 86 0
131 125 130 122 124 21 17 31 1 14 3 13 0
131 125 130 122 124 58 56 64 54 32 53 7 0
131 125 130 122 27 112 107 121 99 47 89 62 0
131 125 130 122 73 71 10 78 68 34 66 51 0
131 125 130 122 110 104 24 118 97 45 86 60 0
131 125 130 122 21 17 31 1 14 3 13 6 0
131 125 130 127 123 126 124 27 112 107 121 26 0
131 125 130 127 123 126 124 73 71 10 78 9 0
131 125 130 127 123 126 124 110 104 24 118 25 0
131 125 130 127 123 126 124 94 93 100 16 15 0
131 125 130 127 123 126 124 42 41 48 2 4 0
131 125 130 127 123 126 124 84 83 91 11 12 0
131 125 130 127 123 126 124 58 56 64 5 7 0
131 125 130 127 123 126 27 112 107 121 26 62 0
131 125 130 127 123 126 73 71 10 78 9 51 0
131 125 130 127 123 126 110 104 24 118 25 60 0
131 125 130 127 123 126 94 93 100 16 15 55 0
131 125 130 127 123 126 42 41 48 2 4 33 0
131 125 130 127 123 126 84 83 91 11 12 52 0
131 125 130 127 123 124 27 112 107 121 26 89 0
131 125 130 127 123 124 73 71 10 78 9 66 0
131 125 130 127 123 124 110 104 24 118 25 86 0
131 125 130 127 123 124 94 93 100 16 15 81 0
131 125 130 127 123 124 42 41 48 2 4 36 0
131 125 130 127 123 124 58 56 64 5 53 7 0
131 125 130 127 123 27 112 107 121 26 89 62 0
131 125 130 127 123 73 71 10 78 9 66 51 0
131 125 130 127 123 110 104 24 118 25 86 60 0
131 125 130 127 123 94 93 100 16 15 81 55 0
131 125 130 127 123 42 41 48 2 4 36 33 0
131 125 130 127 126 124 27 112 107 121 26 47 0
131 125 130 127 126 124 73 71 10 78 9 34 0
131 125 130 127 126 124 110 104 24 118 25 45 0
131 125 130 127 126 124 94 93 100 16 15 38 0
131 125 130 127 126 124 84 83 91 11 37 12 0
131 125 130 127 126 124 58 56 64 5 32 7 0
131 125 130 127 126 27 112 107 121 26 47 62 0
131 125 130 127 126 73 71 10 78 9 34 51 0
131 125 130 127 126 110 104 24 118 25 45 60 0
131 125 130 127 126 94 93 100 16 15 38 55 0
131 125 130 127 126 84 83 91 11 37 12 52 0
131 125 130 127 124 27 112 107 121 26 47 89 0
131 125 130 127 124 73 71 10 78 9 34 66 0
131 125 130 127 124 110 104 24 118 25 45 86 0
131 125 130 127 124 94 93 100 16 15 38 81 0
131 125 130 127 124 58 56 64 5 32 53 7 0
131 125 130 127 27 112 107 121 26 47 89 62 0
131 125 130 127 73 71 10 78 9 34 66 51 0
131 125 130 127 110 104 24 118 25 45 86 60 0
131 125 130 127 94 93 100 16 15 38 81 55 0
131 125 130 123 126 124 27 112 107 121 26 99 0
131 125 130 123 126 124 73 71 10 78 9 68 0
131 125 130 123 126 124 110 104 24 118 25 97 0
131 125 130 123 126 124 42 41 48 2 39 4 0
131 125 130 123 126 124 84 83 91 11 80 12 0
131 125 130 123 126 124 58 56 64 5 54 7 0
131 125 130 123 126 27 112 107 121 26 99 62 0
131 125 130 123 126 73 71 10 78 9 68 51 0
131 125 130 123 126 110 104 24 118 25 97 60 0
131 125 130 123 126 42 41 48 2 39 4 33 0
131 125 130 123 126 84 83 91 11 80 12 52 0
131 125 130 123 124 27 112 107 121 26 99 89 0
131 125 130 123 124 73 71 10 78 9 68 66 0
131 125 130 123 124 110 104 24 118 25 97 86 0
131 125 130 123 124 42 41 48 2 39 4 36 0
131 125 130 123 124 58 56 64 5 54 53 7 0
131 125 130 123 27 112 107 121 26 99 89 62 0
131 125 130 123 73 71 10 78 9 68 66 51 0
131 125 130 123 110 104 24 118 25 97 86 60 0
131 125 130 123 42 41 48 2 39 4 36 33 0
131 125 130 126 124 27 112 107 121 26 99 47 0
131 125 130 126 124 73 71 10 78 9 68 34 0
131 125 130 126 124 110 104 24 118 25 97 45 0
131 125 130 126 124 84 83 91 11 80 37 12 0
131 125 130 126 124 58 56 64 5 54 32 7 0
131 125 130 126 27 112 107 121 26 99 47 62 0
131 125 130 126 73 71 10 78 9 68 34 51 0
131 125 130 126 110 104 24 118 25 97 45 60 0
131 125 130 126 84 83 91 11 80 37 12 52 0
131 125 130 124 27 112 107 121 26 99 47 89 0
131 125 130 124 73 71 10 78 9 68 34 66 0
131 125 130 124 110 104 24 118 25 97 45 86 0
131 125 130 124 58 56 64 5 54 32 53 7 0
131 125 130 27 112 107 121 26 99 47 89 62 0
131 125 130 73 71 10 78 9 68 34 66 51 0
131 125 130 110 104 24 118 25 97 45 86 60 0
131 125 132 122 127 123 126 124 27 112 107 116 0
131 125 132 122 127 123 126 124 73 71 10 75 0
131 125 132 122 127 123 126 124 115 108 119 30 0
131 125 132 122 127 123 126 124 21 17 23 1 0
131 125 132 122 127 123 126 124 94 93 96 15 0
131 125 132 122 127 123 126 124 42 41 44 4 0
131 125 132 122 127 123 126 124 84 83 87 12 0
131 125 132 122 127 123 126 124 58 56 61 7 0
131 125 132 122 127 123 126 27 112 107 116 62 0
131 125 132 122 127 123 126 73 71 10 75 51 0
131 125 132 122 127 123 126 115 108 119 30 65 0
131 125 132 122 127 123 126 21 17 23 1 6 0
131 125 132 122 127 123 126 94 93 96 15 55 0
131 125 132 122 127 123 126 42 41 44 4 33 0
131 125 132 122 127 123 126 84 83 87 12 52 0
131 125 132 122 127 123 124 27 112 107 116 89 0
131 125 132 122 127 123 124 73 71 10 75 66 0
131 125 132 122 127 123 124 115 108 119 30 90 0
131 125 132 122 127 123 124 21 17 23 1 13 0
131 125 132 122 127 123 124 94 93 96 15 81 0
131 125 132 122 127 123 124 42 41 44 4 36 0
131 125 132 122 127 123 124 58 56 61 53 7 0
131 125 132 122 127 123 27 112 107 116 89 62 0
131 125 132 122 127 123 73 71 10 75 66 51 0
131 125 132 122 127 123 115 108 119 30 90 65 0
131 125 132 122 127 123 21 17 23 1 13 6 0
131 125 132 122 127 123 94 93 96 15 81 55 0
131 125 132 122 127 123 42 41 44 4 36 33 0
131 125 132 122 127 126 124 27 112 107 116 47 0
131 125 132 122 127 126 124 73 71 10 75 34 0
131 125 132 122 127 126 124 115 108 119 30 49 0
131 125 132 122 127 126 124 21 17 23 1 3 0
131 125 132 122 127 126 124 94 93 96 15 38 0
131 125 132 122 127 126 124 84 83 87 37 12 0
131 125 132 122 127 126 124 58 56 61 32 7 0
131 125 132 122 127 126 27 112 107 116 47 62 0
131 125 132 122 127 126 73 71 10 75 34 51 0
131 125 132 122 127 126 115 108 119 30 49 65 0
131 125 132 122 127 126 21 17 23 1 3 6 0
131 125 132 122 127 126 94 93 96 15 38 55 0
131 125 132 122 127 126 84 83 87 37 12 52 0
131 125 132 122 127 124 27 112 107 116 47 89 0
131 125 132 122 127 124 73 71 10 75 34 66 0
131 125 132 122 127 124 115 108 119 30 49 90 0
131 125 132 122 127 124 21 17 23 1 3 13 0
131 125 132 122 127 124 94 93 96 15 38 81 0
131 125 132 122 127 124 58 56 61 32 53 7 0
131 125 132 122 127 27 112 107 116 47 89 62 0
131 125 132 122 127 73 71 10 75 34 66 51 0
131 125 132 122 127 115 108 119 30 49 90 65 0
131 125 132 122 127 21 17 23 1 3 13 6 0
131 125 132 122 127 94 93 96 15 38 81 55 0
131 125 132 122 123 126 124 27 112 107 116 99 0
131 125 132 122 123 126 124 73 71 10 75 68 0
131 125 132 122 123 126 124 115 108 119 30 101 0
131 125 132 122 123 126 124 21 17 23 1 14 0
131 125 132 122 123 126 124 42 41 44 39 4 0
131 125 132 122 123 126 124 84 83 87 80 12 0
131 125 132 122 123 126 124 58 56 61 54 7 0
131 125 132 122 123 126 27 112 107 116 99 62 0
131 125 132 122 123 126 73 71 10 75 68 51 0
131 125 132 122 123 126 115 108 119 30 101 65 0
131 125 132 122 123 126 21 17 23 1 14 6 0
131 125 132 122 123 126 42 41 44 39 4 33 0
131 125 132 122 123 126 84 83 87 80 12 52 0
131 125 132 122 123 124 27 112 107 116 99 89 0
131 125 132 122 123 124 73 71 10 75 68 66 0
131 125 132 122 123 124 115 108 119 30 101 90 0
131 125 132 122 123 124 21 17 23 1 14 13 0
131 125 132 122 123 124 42 41 44 39 4 36 0
131 125 132 122 123 124 58 56 61 54 53 7 0
131 125 132 122 123 27 112 107 116 99 89 62 0
131 125 132 122 123 73 71 10 75 68 66 51 0
131 125 132 122 123 115 108 119 30 101 90 65 0
131 125 132 122 123 21 17 23 1 14 13 6 0
131 125 132 122 123 42 41 44 39 4 36 33 0
131 125 132 122 126 124 27 112 107 116 99 47 0
131 125 132 122 126 124 73 71 10 75 68 34 0
131 125 132 122 126 124 115 108 119 30 101 49 0
131 125 132 122 126 124 21 17 23 1 14 3 0
131 125 132 122 126 124 84 83 87 80 37 12 0
131 125 132 122 126 124 58 56 61 54 32 7 0
131 125 132 122 126 27 112 107 116 99 47 62 0
131 125 132 122 126 73 71 10 75 68 34 51 0
131 125 132 122 126 115 108 119 30 101 49 65 0
131 125 132 122 126 21 17 23 1 14 3 6 0
131 125 132 122 126 84 83 87 80 37 12 52 0
131 125 132 122 124 27 112 107 116 99 47 89 0
131 125 132 122 124 73 71 10 75 68 34 66 0
131 125 132 122 124 115 108 119 30 101 49 90 0
131 125 132 122 124 21 17 23 1 14 3 13 0
131 125 132 122 124 58 56 61 54 32 53 7 0
131 125 132 122 27 112 107 116 99 47 89 62 0
131 125 132 122 73 71 10 75 68 34 66 51 0
131 125 132 122 115 108 119 30 101 49 90 65 0
131 125 132 122 21 17 23 1 14 3 13 6 0
131 125 132 127 123 126 124 27 112 107 116 26 0
131 125 132 127 123 126 124 73 71 10 75 9 0
131 125 132 127 123 126 124 115 108 119 30 29 0
131 125 132 127 123 126 124 94 93 96 16 15 0
131 125 132 127 123 126 124 42 41 44 2 4 0
131 125 132 127 123 126 124 84 83 87 11 12 0
131 125 132 127 123 126 124 58 56 61 5 7 0
131 125 132 127 123 126 27 112 107 116 26 62 0
131 125 132 127 123 126 73 71 10 75 9 51 0
131 125 132 127 123 126 115 108 119 30 29 65 0
131 125 132 127 123 126 94 93 96 16 15 55 0
131 125 132 127 123 126 42 41 44 2 4 33 0
131 125 132 127 123 126 84 83 87 11 12 52 0
131 125 132 127 123 124 27 112 107 116 26 89 0
131 125 132 127 123 124 73 71 10 75 9 66 0
131 125 132 127 123 124 115 108 119 30 29 90 0
131 125 132 127 123 124 94 93 96 16 15 81 0
131 125 132 127 123 124 42 41 44 2 4 36 0
131 125 132 127 123 124 58 56 61 5 53 7 0
131 125 132 127 123 27 112 107 116 26 89 62 0
131 125 132 127 123 73 71 10 75 9 66 51 0
131 125 132 127 123 115 108 119 30 29 90 65 0
131 125 132 127 123 94 93 96 16 15 81 55 0
131 125 132 127 123 42 41 44 2 4 36 33 0
131 125 132 127 126 124 27 112 107 116 26 47 0
131 125 132 127 126 124 73 71 10 75 9 34 0
131 125 132 127 126 124 115 108 119 30 29 49 0
131 125 132 127 126 124 94 93 96 16 15 38 0
131 125 132 127 126 124 84 83 87 11 37 12 0
131 125 132 127 126 124 58 56 61 5 32 7 0
131 125 132 127 126 27 112 107 116 26 47 62 0
131 125 132 127 126 73 71 10 75 9 34 51 0
131 125 132 127 126 115 108 119 30 29 49 65 0
131 125 132 127 126 94 93 96 16 15 38 55 0
131 125 132 127 126 84 83 87 11 37 12 52 0
131 125 132 127 124 27 112 107 116 26 47 89 0
131 125 132 127 124 73 71 10 75 9 34 66 0
131 125 132 127 124 115 108 119 30 29 49 90 0
131 125 132 127 124 94 93 96 16 15 38 81 0
131 125 132 127 124 58 56 61 5 32 53 7 0
131 125 132 127 27 112 107 116 26 47 89 62 0
131 125 132 127 73 71 10 75 9 34 66 51 0
131 125 132 127 115 108 119 30 29 49 90 65 0
131 125 132 127 94 93 96 16 15 38 81 55 0
131 125 132 123 126 124 27 112 107 116 26 99 0
131 125 132 123 126 124 73 71 10 75 9 68 0
131 125 132 123 126 124 115 108 119 30 29 101 0
131 125 132 123 126 124 42 41 44 2 39 4 0
131 125 132 123 126 124 84 83 87 11 80 12 0
131 125 132 123 126 124 58 56 61 5 54 7 0
131 125 132 123 126 27 112 107 116 26 99 62 0
131 125 132 123 126 73 71 10 75 9 68 51 0
131 125 132 123 126 115 108 119 30 29 101 65 0
131 125 132 123 126 42 41 44 2 39 4 33 0
131 125 132 123 126 84 83 87 11 80 12 52 0
131 125 132 123 124 27 112 107 116 26 99 89 0
131 125 132 123 124 73 71 10 75 9 68 66 0
131 125 132 123 124 115 108 119 30 29 101 90 0
131 125 132 123 124 42 41 44 2 39 4 36 0
131 125 132 123 124 58 56 61 5 54 53 7 0
131 125 132 123 27 112 107 116 26 99 89 62 0
131 125 132 123 73 71 10 75 9 68 66 51 0
131 125 132 123 115 108 119 30 29 101 90 65 0
131 125 132 123 42 41 44 2 39 4 36 33 0
131 125 132 126 124 27 112 107 116 26 99 47 0
131 125 132 126 124 73 71 10 75 9 68 34 0
131 125 132 126 124 115 108 119 30 29 101 49 0
131 125 132 126 124 84 83 87 11 80 37 12 0
131 125 132 126 124 58 56 61 5 54 32 7 0
131 125 132 126 27 112 107 116 26 99 47 62 0
131 125 132 126 73 71 10 75 9 68 34 51 0
131 125 132 126 115 108 119 30 29 101 49 65 0
131 125 132 126 84 83 87 11 80 37 12 52 0
131 125 132 124 27 112 107 116 26 99 47 89 0
131 125 132 124 73 71 10 75 9 68 34 66 0
131 125 132 124 115 108 119 30 29 101 49 90 0
131 125 132 124 58 56 61 5 54 32 53 7 0
131 125 132 27 112 107 116 26 99 47 89 62 0
131 125 132 73 71 10 75 9 68 34 66 51 0
131 125 132 115 108 119 30 29 101 49 90 65 0
131 125 122 127 123 126 124 27 112 107 116 121 0
131 125 122 127 123 126 124 73 71 10 75 78 0
131 125 122 127 123 126 124 21 17 23 31 1 0
131 125 122 127 123 126 124 94 93 96 100 15 0
131 125 122 127 123 126 124 42 41 44 48 4 0
131 125 122 127 123 126 124 84 83 87 91 12 0
131 125 122 127 123 126 124 58 56 61 64 7 0
131 125 122 127 123 126 27 112 107 116 121 62 0
131 125 122 127 123 126 73 71 10 75 78 51 0
131 125 122 127 123 126 21 17 23 31 1 6 0
131 125 122 127 123 126 94 93 96 100 15 55 0
131 125 122 127 123 126 42 41 44 48 4 33 0
131 125 122 127 123 126 84 83 87 91 12 52 0
131 125 122 127 123 124 27 112 107 116 121 89 0
131 125 122 127 123 124 73 71 10 75 78 66 0
131 125 122 127 123 124 21 17 23 31 1 13 0
131 125 122 127 123 124 94 93 96 100 15 81 0
131 125 122 127 123 124 42 41 44 48 4 36 0
131 125 122 127 123 124 58 56 61 64 53 7 0
131 125 122 127 123 27 112 107 116 121 89 62 0
131 125 122 127 123 73 71 10 75 78 66 51 0
131 125 122 127 123 21 17 23 31 1 13 6 0
131 125 122 127 123 94 93 96 100 15 81 55 0
131 125 122 127 123 42 41 44 48 4 36 33 0
131 125 122 127 126 124 27 112 107 116 121 47 0
131 125 122 127 126 124 73 71 10 75 78 34 0
131 125 122 127 126 124 21 17 23 31 1 3 0
131 125 122 127 126 124 94 93 96 100 15 38 0
131 125 122 127 126 124 84 83 87 91 37 12 0
131 125 122 127 126 124 58 56 61 64 32 7 0
131 125 122 127 126 27 112 107 116 121 47 62 0
131 125 122 127 126 73 71 10 75 78 34 51 0
131 125 122 127 126 21 17 23 31 1 3 6 0
131 125 122 127 126 94 93 96 100 15 38 55 0
131 125 122 127 126 84 83 87 91 37 12 52 0
131 125 122 127 124 27 112 107 116 121 47 89 0
131 125 122 127 124 73 71 10 75 78 34 66 0
131 125 122 127 124 21 17 23 31 1 3 13 0
131 125 122 127 124 94 93 96 100 15 38 81 0
131 125 122 127 124 58 56 61 64 32 53 7 0
131 125 122 127 27 112 107 116 121 47 89 62 0
131 125 122 127 73 71 10 75 78 34 66 51 0
131 125 122 127 21 17 23 31 1 3 13 6 0
131 125 122 127 94 93 96 100 15 38 81 55 0
131 125 122 123 126 124 27 112 107 116 121 99 0
131 125 122 123 126 124 73 71 10 75 78 68 0
131 125 122 123 126 124 21 17 23 31 1 14 0
131 125 122 123 126 124 42 41 44 48 39 4 0
131 125 122 123 126 124 84 83 87 91 80 12 0
131 125 122 123 126 124 58 56 61 64 54 7 0
131 125 122 123 126 27 112 107 116 121 99 62 0
131 125 122 123 126 73 71 10 75 78 68 51 0
131 125 122 123 126 21 17 23 31 1 14 6 0
131 125 122 123 126 42 41 44 48 39 4 33 0
131 125 122 123 126 84 83 87 91 80 12 52 0
131 125 122 123 124 27 112 107 116 121 99 89 0
131 125 122 123 124 73 71 10 75 78 68 66 0
131 125 122 123 124 21 17 23 31 1 14 13 0
131 125 122 123 124 42 41 44 48 39 4 36 0
131 125 122 123 124 58 56 61 64 54 53 7 0
131 125 122 123 27 112 107 116 121 99 89 62 0
131 125 122 123 73 71 10 75 78 68 66 51 0
131 125 122 123 21 17 23 31 1 14 13 6 0
131 125 122 123 42 41 44 48 39 4 36 33 0
131 125 122 126 124 27 112 107 116 121 99 47 0
131 125 122 126 124 73 71 10 75 78 68 34 0
131 125 122 126 124 21 17 23 31 1 14 3 0
131 125 122 126 124 84 83 87 91 80 37 12 0
131 125 122 126 124 58 56 61 64 54 32 7 0
131 125 122 126 27 112 107 116 121 99 47 62 0
131 125 122 126 73 71 10 75 78 68 34 51 0
131 125 122 126 21 17 23 31 1 14 3 6 0
131 125 122 126 84 83 87 91 80 37 12 52 0
131 125 122 124 27 112 107 116 121 99 47 89 0
131 125 122 124 73 71 10 75 78 68 34 66 0
131 125 122 124 21 17 23 31 1 14 3 13 0
131 125 122 124 58 56 61 64 54 32 53 7 0
131 125 122 27 112 107 116 121 99 47 89 62 0
131 125 122 73 71 10 75 78 68 34 66 51 0
131 125 122 21 17 23 31 1 14 3 13 6 0
131 125 127 123 126 124 27 112 107 116 121 26 0
131 125 127 123 126 124 73 71 10 75 78 9 0
131 125 127 123 126 124 94 93 96 100 16 15 0
131 125 127 123 126 124 42 41 44 48 2 4 0
131 125 127 123 126 124 84 83 87 91 11 12 0
131 125 127 123 126 124 58 56 61 64 5 7 0
131 125 127 123 126 27 112 107 116 121 26 62 0
131 125 127 123 126 73 71 10 75 78 9 51 0
131 125 127 123 126 94 93 96 100 16 15 55 0
131 125 127 123 126 42 41 44 48 2 4 33 0
131 125 127 123 126 84 83 87 91 11 12 52 0
131 125 127 123 124 27 112 107 116 121 26 89 0
131 125 127 123 124 73 71 10 75 78 9 66 0
131 125 127 123 124 94 93 96 100 16 15 81 0
131 125 127 123 124 42 41 44 48 2 4 36 0
131 125 127 123 124 58 56 61 64 5 53 7 0
131 125 127 123 27 112 107 116 121 26 89 62 0
131 125 127 123 73 71 10 75 78 9 66 51 0
131 125 127 123 94 93 96 100 16 15 81 55 0
131 125 127 123 42 41 44 48 2 4 36 33 0
131 125 127 126 124 27 112 107 116 121 26 47 0
131 125 127 126 124 73 71 10 75 78 9 34 0
131 125 127 126 124 94 93 96 100 16 15 38 0
131 125 127 126 124 84 83 87 91 11 37 12 0
131 125 127 126 124 58 56 61 64 5 32 7 0
131 125 127 126 27 112 107 116 121 26 47 62 0
131 125 127 126 73 71 10 75 78 9 34 51 0
131 125 127 126 94 93 96 100 16 15 38 55 0
131 125 127 126 84 83 87 91 11 37 12 52 0
131 125 127 124 27 112 107 116 121 26 47 89 0
131 125 127 124 73 71 10 75 78 9 34 66 0
131 125 127 124 94 93 96 100 16 15 38 81 0
131 125 127 124 58 56 61 64 5 32 53 7 0
131 125 127 27 112 107 116 121 26 47 89 62 0
131 125 127 73 71 10 75 78 9 34 66 51 0
131 125 127 94 93 96 100 16 15 38 81 55 0
131 125 123 126 124 27 112 107 116 121 26 99 0
131 125 123 126 124 73 71 10 75 78 9 68 0
131 125 123 126 124 42 41 44 48 2 39 4 0
131 125 123 126 124 84 83 87 91 11 80 12 0
131 125 123 126 124 58 56 61 64 5 54 7 0
131 125 123 126 27 112 107 116 121 26 99 62 0
131 125 123 126 73 71 10 75 78 9 68 51 0
131 125 123 126 42 41 44 48 2 39 4 33 0
131 125 123 126 84 83 87 91 11 80 12 52 0
131 125 123 124 27 112 107 116 121 26 99 89 0
131 125 123 124 73 71 10 75 78 9 68 66 0
131 125 123 124 42 41 44 48 2 39 4 36 0
131 125 123 124 58 56 61 64 5 54 53 7 0
131 125 123 27 112 107 116 121 26 99 89 62 0
131 125 123 73 71 10 75 78 9 68 66 51 0
131 125 123 42 41 44 48 2 39 4 36 33 0
131 125 126 124 27 112 107 116 121 26 99 47 0
131 125 126 124 73 71 10 75 78 9 68 34 0
131 125 126 124 84 83 87 91 11 80 37 12 0
131 125 126 124 58 56 61 64 5 54 32 7 0
131 125 126 27 112 107 116 121 26 99 47 62 0
131 125 126 73 71 10 75 78 9 68 34 51 0
131 125 126 84 83 87 91 11 80 37 12 52 0
131 125 124 27 112 107 116 121 26 99 47 89 0
131 125 124 73 71 10 75 78 9 68 34 66 0
131 125 124 58 56 61 64 5 54 32 53 7 0
131 125 27 112 107 116 121 26 99 47 89 62 0
131 125 73 71 10 75 78 9 68 34 66 51 0
131 130 132 122 127 123 126 124 27 112 107 76 0
131 130 132 122 127 123 126 124 110 104 74 24 0
131 130 132 122 127 123 126 124 115 108 79 30 0
131 130 132 122 127 123 126 124 21 17 8 1 0
131 130 132 122 127 123 126 124 94 93 69 15 0
131 130 132 122 127 123 126 124 42 41 35 4 0
131 130 132 122 127 123 126 124 84 83 67 12 0
131 130 132 122 127 123 126 124 58 56 50 7 0
131 130 132 122 127 123 126 27 112 107 76 62 0
131 130 132 122 127 123 126 110 104 74 24 60 0
131 130 132 122 127 123 126 115 108 79 30 65 0
131 130 132 122 127 123 126 21 17 8 1 6 0
131 130 132 122 127 123 126 94 93 69 15 55 0
131 130 132 122 127 123 126 42 41 35 4 33 0
131 130 132 122 127 123 126 84 83 67 12 52 0
131 130 132 122 127 123 124 27 112 107 76 89 0
131 130 132 122 127 123 124 110 104 74 24 86 0
131 130 132 122 127 123 124 115 108 79 30 90 0
131 130 132 122 127 123 124 21 17 8 1 13 0
131 130 132 122 127 123 124 94 93 69 15 81 0
131 130 132 122 127 123 124 42 41 35 4 36 0
131 130 132 122 127 123 124 58 56 50 53 7 0
131 130 132 122 127 123 27 112 107 76 89 62 0
131 130 132 122 127 123 110 104 74 24 86 60 0
131 130 132 122 127 123 115 108 79 30 90 65 0
131 130 132 122 127 123 21 17 8 1 13 6 0
131 130 132 122 127 123 94 93 69 15 81 55 0
131 130 132 122 127 123 42 41 35 4 36 33 0
131 130 132 122 127 126 124 27 112 107 76 47 0
131 130 132 122 127 126 124 110 104 74 24 45 0
131 130 132 122 127 126 124 115 108 79 30 49 0
131 130 132 122 127 126 124 21 17 8 1 3 0
131 130 132 122 127 126 124 94 93 69 15 38 0
131 130 132 122 127 126 124 84 83 67 37 12 0
131 130 132 122 127 126 124 58 56 50 32 7 0
131 130 132 122 127 126 27 112 107 76 47 62 0
131 130 132 122 127 126 110 104 74 24 45 60 0
131 130 132 122 127 126 115 108 79 30 49 65 0
131 130 132 122 127 126 21 17 8 1 3 6 0
131 130 132 122 127 126 94 93 69 15 38 55 0
131 130 132 122 127 126 84 83 67 37 12 52 0
131 130 132 122 127 124 27 112 107 76 47 89 0
131 130 132 122 127 124 110 104 74 24 45 86 0
131 130 132 122 127 124 115 108 79 30 49 90 0
131 130 132 122 127 124 21 17 8 1 3 13 0
131 130 132 122 127 124 94 93 69 15 38 81 0
131 130 132 122 127 124 58 56 50 32 53 7 0
131 130 132 122 127 27 112 107 76 47 89 62 0
131 130 132 122 127 110 104 74 24 45 86 60 0
131 130 132 122 127 115 108 79 30 49 90 65 0
131 130 132 122 127 21 17 8 1 3 13 6 0
131 130 132 122 127 94 93 69 15 38 81 55 0
131 130 132 122 123 126 124 27 112 107 76 99 0
131 130 132 122 123 126 124 110 104 74 24 97 0
131 130 132 122 123 126 124 115 108 79 30 101 0
131 130 132 122 123 126 124 21 17 8 1 14 0
131 130 132 122 123 126 124 42 41 35 39 4 0
131 130 132 122 123 126 124 84 83 67 80 12 0
131 130 132 122 123 126 124 58 56 50 54 7 0
131 130 132 122 123 126 27 112 107 76 99 62 0
131 130 132 122 123 126 110 104 74 24 97 60 0
131 130 132 122 123 126 115 108 79 30 101 65 0
131 130 132 122 123 126 21 17 8 1 14 6 0
131 130 132 122 123 126 42 41 35 39 4 33 0
131 130 132 122 123 126 84 83 67 80 12 52 0
131 130 132 122 123 124 27 112 107 76 99 89 0
131 130 132 122 123 124 110 104 74 24 97 86 0
131 130 132 122 123 124 115 108 79 30 101 90 0
131 130 132 122 123 124 21 17 8 1 14 13 0
131 130 132 122 123 124 42 41 35 39 4 36 0
131 130 132 122 123 124 58 56 50 54 53 7 0
131 130 132 122 123 27 112 107 76 99 89 62 0
131 130 132 122 123 110 104 74 24 97 86 60 0
131 130 132 122 123 115 108 79 30 101 90 65 0
131 130 132 122 123 21 17 8 1 14 13 6 0
131 130 132 122 123 42 41 35 39 4 36 33 0
131 130 132 122 126 124 27 112 107 76 99 47 0
131 130 132 122 126 124 110 104 74 24 97 45 0
131 130 132 122 126 124 115 108 79 30 101 49 0
131 130 132 122 126 124 21 17 8 1 14 3 0
131 130 132 122 126 124 84 83 67 80 37 12 0
131 130 132 122 126 124 58 56 50 54 32 7 0
131 130 132 122 126 27 112 107 76 99 47 62 0
131 130 132 122 126 110 104 74 24 97 45 60 0
131 130 132 122 126 115 108 79 30 101 49 65 0
131 130 132 122 126 21 17 8 1 14 3 6 0
131 130 132 122 126 84 83 67 80 37 12 52 0
131 130 132 122 124 27 112 107 76 99 47 89 0
131 130 132 122 124 110 104 74 24 97 45 86 0
131 130 132 122 124 115 108 79 30 101 49 90 0
131 130 132 122 124 21 17 8 1 14 3 13 0
131 130 132 122 124 58 56 50 54 32 53 7 0
131 130 132 122 27 112 107 76 99 47 89 62 0
131 130 132 122 110 104 74 24 97 45 86 60 0
131 130 132 122 115 108 79 30 101 49 90 65 0
131 130 132 122 21 17 8 1 14 3 13 6 0
131 130 132 127 123 126 124 27 112 107 76 26 0
131 130 132 127 123 126 124 110 104 74 24 25 0
131 130 132 127 123 126 124 115 108 79 30 29 0
131 130 132 127 123 126 124 94 93 69 16 15 0
131 130 132 127 123 126 124 42 41 35 2 4 0
131 130 132 127 123 126 124 84 83 67 11 12 0
131 130 132 127 123 126 124 58 56 50 5 7 0
131 130 132 127 123 126 27 112 107 76 26 62 0
131 130 132 127 123 126 110 104 74 24 25 60 0
131 130 132 127 123 126 115 108 79 30 29 65 0
131 130 132 127 123 126 94 93 69 16 15 55 0
131 130 132 127 123 126 42 41 35 2 4 33 0
131 130 132 127 123 126 84 83 67 11 12 52 0
131 130 132 127 123 124 27 112 107 76 26 89 0
131 130 132 127 123 124 110 104 74 24 25 86 0
131 130 132 127 123 124 115 108 79 30 29 90 0
131 130 132 127 123 124 94 93 69 16 15 81 0
131 130 132 127 123 124 42 41 35 2 4 36 0
131 130 132 127 123 124 58 56 50 5 53 7 0
131 130 132 127 123 27 112 107 76 26 89 62 0
131 130 132 127 123 110 104 74 24 25 86 60 0
131 130 132 127 123 115 108 79 30 29 90 65 0
131 130 132 127 123 94 93 69 16 15 81 55 0
131 130 132 127 123 42 41 35 2 4 36 33 0
131 130 132 127 126 124 27 112 107 76 26 47 0
131 130 132 127 126 124 110 104 74 24 25 45 0
131 130 132 127 126 124 115 108 79 30 29 49 0
131 130 132 127 126 124 94 93 69 16 15 38 0
131 130 132 127 126 124 84 83 67 11 37 12 0
131 130 132 127 126 124 58 56 50 5 32 7 0
131 130 132 127 126 27 112 107 76 26 47 62 0
131 130 132 127 126 110 104 74 24 25 45 60 0
131 130 132 127 126 115 108 79 30 29 49 65 0
131 130 132 127 126 94 93 69 16 15 38 55 0
131 130 132 127 126 84 83 67 11 37 12 52 0
131 130 132 127 124 27 112 107 76 26 47 89 0
131 130 132 127 124 110 104 74 24 25 45 86 0
131 130 132 127 124 115 108 79 30 29 49 90 0
131 130 132 127 124 94 93 69 16 15 38 81 0
131 130 132 127 124 58 56 50 5 32 53 7 0
131 130 132 127 27 112 107 76 26 47 89 62 0
131 130 132 127 110 104 74 24 25 45 86 60 0
131 130 132 127 115 108 79 30 29 49 90 65 0
131 130 132 127 94 93 69 16 15 38 81 55 0
131 130 132 123 126 124 27 112 107 76 26 99 0
131 130 132 123 126 124 110 104 74 24 25 97 0
131 130 132 123 126 124 115 108 79 30 29 101 0
131 130 132 123 126 124 42 41 35 2 39 4 0
131 130 132 123 126 124 84 83 67 11 80 12 0
131 130 132 123 126 124 58 56 50 5 54 7 0
131 130 132 123 126 27 112 107 76 26 99 62 0
131 130 132 123 126 110 104 74 24 25 97 60 0
131 130 132 123 126 115 108 79 30 29 101 65 0
131 130 132 123 126 42 41 35 2 39 4 33 0
131 130 132 123 126 84 83 67 11 80 12 52 0
131 130 132 123 124 27 112 107 76 26 99 89 0
131 130 132 123 124 110 104 74 24 25 97 86 0
131 130 132 123 124 115 108 79 30 29 101 90 0
131 130 132 123 124 42 41 35 2 39 4 36 0
131 130 132 123 124 58 56 50 5 54 53 7 0
131 130 132 123 27 112 107 76 26 99 89 62 0
131 130 132 123 110 104 74 24 25 97 86 60 0
131 130 132 123 115 108 79 30 29 101 90 65 0
131 130 132 123 42 41 35 2 39 4 36 33 0
131 130 132 126 124 27 112 107 76 26 99 47 0
131 130 132 126 124 110 104 74 24 25 97 45 0
131 130 132 126 124 115 108 79 30 29 101 49 0
131 130 132 126 124 84 83 67 11 80 37 12 0
131 130 132 126 124 58 56 50 5 54 32 7 0
131 130 132 126 27 112 107 76 26 99 47 62 0
131 130 132 126 110 104 74 24 25 97 45 60 0
131 130 132 126 115 108 79 30 29 101 49 65 0
131 130 132 126 84 83 67 11 80 37 12 52 0
131 130 132 124 27 112 107 76 26 99 47 89 0
131 130 132 124 110 104 74 24 25 97 45 86 0
131 130 132 124 115 108 79 30 29 101 49 90 0
131 130 132 124 58 56 50 5 54 32 53 7 0
131 130 132 27 112 107 76 26 99 47 89 62 0
131 130 132 110 104 74 24 25 97 45 86 60 0
131 130 132 115 108 79 30 29 101 49 90 65 0
131 130 122 127 123 126 124 27 112 107 76 121 0
131 130 122 127 123 126 124 110 104 74 24 118 0
131 130 122 127 123 126 124 21 17 8 31 1 0
131 130 122 127 123 126 124 94 93 69 100 15 0
131 130 122 127 123 126 124 42 41 35 48 4 0
131 130 122 127 123 126 124 84 83 67 91 12 0
131 130 122 127 123 126 124 58 56 50 64 7 0
131 130 122 127 123 126 27 112 107 76 121 62 0
131 130 122 127 123 126 110 104 74 24 118 60 0
131 130 122 127 123 126 21 17 8 31 1 6 0
131 130 122 127 123 126 94 93 69 100 15 55 0
131 130 122 127 123 126 42 41 35 48 4 33 0
131 130 122 127 123 126 84 83 67 91 12 52 0
131 130 122 127 123 124 27 112 107 76 121 89 0
131 130 122 127 123 124 110 104 74 24 118 86 0
131 130 122 127 123 124 21 17 8 31 1 13 0
131 130 122 127 123 124 94 93 69 100 15 81 0
131 130 122 127 123 124 42 41 35 48 4 36 0
131 130 122 127 123 124 58 56 50 64 53 7 0
131 130 122 127 123 27 112 107 76 121 89 62 0
131 130 122 127 123 110 104 74 24 118 86 60 0
131 130 122 127 123 21 17 8 31 1 13 6 0
131 130 122 127 123 94 93 69 100 15 81 55 0
131 130 122 127 123 42 41 35 48 4 36 33 0
131 130 122 127 126 124 27 112 107 76 121 47 0
131 130 122 127 126 124 110 104 74 24 118 45 0
131 130 122 127 126 124 21 17 8 31 1 3 0
131 130 122 127 126 124 94 93 69 100 15 38 0
131 130 122 127 126 124 84 83 67 91 37 12 0
131 130 122 127 126 124 58 56 50 64 32 7 0
131 130 122 127 126 27 112 107 76 121 47 62 0
131 130 122 127 126 110 104 74 24 118 45 60 0
131 130 122 127 126 21 17 8 31 1 3 6 0
131 130 122 127 126 94 93 69 100 15 38 55 0
131 130 122 127 126 84 83 67 91 37 12 52 0
131 130 122 127 124 27 112 107 76 121 47 89 0
131 130 122 127 124 110 104 74 24 118 45 86 0
131 130 122 127 124 21 17 8 31 1 3 13 0
131 130 122 127 124 94 93 69 100 15 38 81 0
131 130 122 127 124 58 56 50 64 32 53 7 0
131 130 122 127 27 112 107 76 121 47 89 62 0
131 130 122 127 110 104 74 24 118 45 86 60 0
131 130 122 127 21 17 8 31 1 3 13 6 0
131 130 122 127 94 93 69 100 15 38 81 55 0
131 130 122 123 126 124 27 112 107 76 121 99 0
131 130 122 123 126 124 110 104 74 24 118 97 0
131 130 122 123 126 124 21 17 8 31 1 14 0
131 130 122 123 126 124 42 41 35 48 39 4 0
131 130 122 123 126 124 84 83 67 91 80 12 0
131 130 122 123 126 124 58 56 50 64 54 7 0
131 130 122 123 126 27 112 107 76 121 99 62 0
131 130 122 123 126 110 104 74 24 118 97 60 0
131 130 122 123 126 21 17 8 31 1 14 6 0
131 130 122 123 126 42 41 35 48 39 4 33 0
131 130 122 123 126 84 83 67 91 80 12 52 0
131 130 122 123 124 27 112 107 76 121 99 89 0
131 130 122 123 124 110 104 74 24 118 97 86 0
131 130 122 123 124 21 17 8 31 1 14 13 0
131 130 122 123 124 42 41 35 48 39 4 36 0
131 130 122 123 124 58 56 50 64 54 53 7 0
131 130 122 123 27 112 107 76 121 99 89 62 0
131 130 122 123 110 104 74 24 118 97 86 60 0
131 130 122 123 21 17 8 31 1 14 13 6 0
131 130 122 123 42 41 35 48 39 4 36 33 0
131 130 122 126 124 27 112 107 76 121 99 47 0
131 130 122 126 124 110 104 74 24 118 97 45 0
131 130 122 126 124 21 17 8 31 1 14 3 0
131 130 122 126 124 84 83 67 91 80 37 12 0
131 130 122 126 124 58 56 50 64 54 32 7 0
131 130 122 126 27 112 107 76 121 99 47 62 0
131 130 122 126 110 104 74 24 118 97 45 60 0
131 130 122 126 21 17 8 31 1 14 3 6 0
131 130 122 126 84 83 67 91 80 37 12 52 0
131 130 122 124 27 112 107 76 121 99 47 89 0
131 130 122 124 110 104 74 24 118 97 45 86 0
131 130 122 124 21 17 8 31 1 14 3 13 0
131 130 122 124 58 56 50 64 54 32 53 7 0
131 130 122 27 112 107 76 121 99 47 89 62 0
131 130 122 110 104 74 24 118 97 45 86 60 0
131 130 122 21 17 8 31 1 14 3 13 6 0
131 130 127 123 126 124 27 112 107 76 121 26 0
131 130 127 123 126 124 110 104 74 24 118 25 0
131 130 127 123 126 124 94 93 69 100 16 15 0
131 130 127 123 126 124 42 41 35 48 2 4 0
131 130 127 123 126 124 84 83 67 91 11 12 0
131 130 127 123 126 124 58 56 50 64 5 7 0
131 130 127 123 126 27 112 107 76 121 26 62 0
131 130 127 123 126 110 104 74 24 118 25 60 0
131 130 127 123 126 94 93 69 100 16 15 55 0
131 130 127 123 126 42 41 35 48 2 4 33 0
131 130 127 123 126 84 83 67 91 11 12 52 0
131 130 127 123 124 27 112 107 76 121 26 89 0
131 130 127 123 124 110 104 74 24 118 25 86 0
131 130 127 123 124 94 93 69 100 16 15 81 0
131 130 127 123 124 42 41 35 48 2 4 36 0
131 130 127 123 124 58 56 50 64 5 53 7 0
131 130 127 123 27 112 107 76 121 26 89 62 0
131 130 127 123 110 104 74 24 118 25 86 60 0
131 130 127 123 94 93 69 100 16 15 81 55 0
131 130 127 123 42 41 35 48 2 4 36 33 0
131 130 127 126 124 27 112 107 76 121 26 47 0
131 130 127 126 124 110 104 74 24 118 25 45 0
131 130 127 126 124 94 93 69 100 16 15 38 0
131 130 127 126 124 84 83 67 91 11 37 12 0
131 130 127 126 124 58 56 50 64 5 32 7 0
131 130 127 126 27 112 107 76 121 26 47 62 0
131 130 127 126 110 104 74 24 118 25 45 60 0
131 130 127 126 94 93 69 100 16 15 38 55 0
131 130 127 126 84 83 67 91 11 37 12 52 0
131 130 127 124 27 112 107 76 121 26 47 89 0
131 130 127 124 110 104 74 24 118 25 45 86 0
131 130 127 124 94 93 69 100 16 15 38 81 0
131 130 127 124 58 56 50 64 5 32 53 7 0
131 130 127 27 112 107 76 121 26 47 89 62 0
131 130 127 110 104 74 24 118 25 45 86 60 0
131 130 127 94 93 69 100 16 15 38 81 55 0
131 130 123 126 124 27 112 107 76 121 26 99 0
131 130 123 126 124 110 104 74 24 118 25 97 0
131 130 123 126 124 42 41 35 48 2 39 4 0
131 130 123 126 124 84 83 67 91 11 80 12 0
131 130 123 126 124 58 56 50 64 5 54 7 0
131 130 123 126 27 112 107 76 121 26 99 62 0
131 130 123 126 110 104 74 24 118 25 97 60 0
131 130 123 126 42 41 35 48 2 39 4 33 0
131 130 123 126 84 83 67 91 11 80 12 52 0
131 130 123 124 27 112 107 76 121 26 99 89 0
131 130 123 124 110 104 74 24 118 25 97 86 0
131 130 123 124 42 41 35 48 2 39 4 36 0
131 130 123 124 58 56 50 64 5 54 53 7 0
131 130 123 27 112 107 76 121 26 99 89 62 0
131 130 123 110 104 74 24 118 25 97 86 60 0
131 130 123 42 41 35 48 2 39 4 36 33 0
131 130 126 124 27 112 107 76 121 26 99 47 0
131 130 126 124 110 104 74 24 118 25 97 45 0
131 130 126 124 84 83 67 91 11 80 37 12 0
131 130 126 124 58 56 50 64 5 54 32 7 0
131 130 126 27 112 107 76 121 26 99 47 62 0
131 130 126 110 104 74 24 118 25 97 45 60 0
131 130 126 84 83 67 91 11 80 37 12 52 0
131 130 124 27 112 107 76 121 26 99 47 89 0
131 130 124 110 104 74 24 118 25 97 45 86 0
131 130 124 58 56 50 64 5 54 32 53 7 0
131 130 27 112 107 76 121 26 99 47 89 62 0
131 130 110 104 74 24 118 25 97 45 86 60 0
131 132 122 127 123 126 124 27 112 107 76 116 0
131 132 122 127 123 126 124 115 108 79 119 30 0
131 132 122 127 123 126 124 21 17 8 23 1 0
131 132 122 127 123 126 124 94 93 69 96 15 0
131 132 122 127 123 126 124 42 41 35 44 4 0
131 132 122 127 123 126 124 84 83 67 87 12 0
131 132 122 127 123 126 124 58 56 50 61 7 0
131 132 122 127 123 126 27 112 107 76 116 62 0
131 132 122 127 123 126 115 108 79 119 30 65 0
131 132 122 127 123 126 21 17 8 23 1 6 0
131 132 122 127 123 126 94 93 69 96 15 55 0
131 132 122 127 123 126 42 41 35 44 4 33 0
131 132 122 127 123 126 84 83 67 87 12 52 0
131 132 122 127 123 124 27 112 107 76 116 89 0
131 132 122 127 123 124 115 108 79 119 30 90 0
131 132 122 127 123 124 21 17 8 23 1 13 0
131 132 122 127 123 124 94 93 69 96 15 81 0
131 132 122 127 123 124 42 41 35 44 4 36 0
131 132 122 127 123 124 58 56 50 61 53 7 0
131 132 122 127 123 27 112 107 76 116 89 62 0
131 132 122 127 123 115 108 79 119 30 90 65 0
131 132 122 127 123 21 17 8 23 1 13 6 0
131 132 122 127 123 94 93 69 96 15 81 55 0
131 132 122 127 123 42 41 35 44 4 36 33 0
131 132 122 127 126 124 27 112 107 76 116 47 0
131 132 122 127 126 124 115 108 79 119 30 49 0
131 132 122 127 126 124 21 17 8 23 1 3 0
131 132 122 127 126 124 94 93 69 96 15 38 0
131 132 122 127 126 124 84 83 67 87 37 12 0
131 132 122 127 126 124 58 56 50 61 32 7 0
131 132 122 127 126 27 112 107 76 116 47 62 0
131 132 122 127 126 115 108 79 119 30 49 65 0
131 132 122 127 126 21 17 8 23 1 3 6 0
131 132 122 127 126 94 93 69 96 15 38 55 0
131 132 122 127 126 84 83 67 87 37 12 52 0
131 132 122 127 124 27 112 107 76 116 47 89 0
131 132 122 127 124 115 108 79 119 30 49 90 0
131 132 122 127 124 21 17 8 23 1 3 13 0
131 132 122 127 124 94 93 69 96 15 38 81 0
131 132 122 127 124 58 56 50 61 32 53 7 0
131 132 122 127 27 112 107 76 116 47 89 62 0
131 132 122 127 115 108 79 119 30 49 90 65 0
131 132 122 127 21 17 8 23 1 3 13 6 0
131 132 122 127 94 93 69 96 15 38 81 55 0
131 132 122 123 126 124 27 112 107 76 116 99 0
131 132 122 123 126 124 115 108 79 119 30 101 0
131 132 122 123 126 124 21 17 8 23 1 14 0
131 132 122 123 126 124 42 41 35 44 39 4 0
131 132 122 123 126 124 84 83 67 87 80 12 0
131 132 122 123 126 124 58 56 50 61 54 7 0
131 132 122 123 126 27 112 107 76 116 99 62 0
131 132 122 123 126 115 108 79 119 30 101 65 0
131 132 122 123 126 21 17 8 23 1 14 6 0
131 132 122 123 126 42 41 35 44 39 4 33 0
131 132 122 123 126 84 83 67 87 80 12 52 0
131 132 122 123 124 27 112 107 76 116 99 89 0
131 132 122 123 124 115 108 79 119 30 101 90 0
131 132 122 123 124 21 17 8 23 1 14 13 0
131 132 122 123 124 42 41 35 44 39 4 36 0
131 132 122 123 124 58 56 50 61 54 53 7 0
131 132 122 123 27 112 107 76 116 99 89 62 0
131 132 122 123 115 108 79 119 30 101 90 65 0
131 132 122 123 21 17 8 23 1 14 13 6 0
131 132 122 123 42 41 35 44 39 4 36 33 0
131 132 122 126 124 27 112 107 76 116 99 47 0
131 132 122 126 124 115 108 79 119 30 101 49 0
131 132 122 126 124 21 17 8 23 1 14 3 0
131 132 122 126 124 84 83 67 87 80 37 12 0
131 132 122 126 124 58 56 50 61 54 32 7 0
131 132 122 126 27 112 107 76 116 99 47 62 0
131 132 122 126 115 108 79 119 30 101 49 65 0
131 132 122 126 21 17 8 23 1 14 3 6 0
131 132 122 126 84 83 67 87 80 37 12 52 0
131 132 122 124 27 112 107 76 116 99 47 89 0
131 132 122 124 115 108 79 119 30 101 49 90 0
131 132 122 124 21 17 8 23 1 14 3 13 0
131 132 122 124 58 56 50 61 54 32 53 7 0
131 132 122 27 112 107 76 116 99 47 89 62 0
131 132 122 115 108 79 119 30 101 49 90 65 0
131 132 122 21 17 8 23 1 14 3 13 6 0
131 132 127 123 126 124 27 112 107 76 116 26 0
131 132 127 123 126 124 115 108 79 119 30 29 0
131 132 127 123 126 124 94 93 69 96 16 15 0
131 132 127 123 126 124 42 41 35 44 2 4 0
131 132 127 123 126 124 84 83 67 87 11 12 0
131 132 127 123 126 124 58 56 50 61 5 7 0
131 132 127 123 126 27 112 107 76 116 26 62 0
131 132 127 123 126 115 108 79 119 30 29 65 0
131 132 127 123 126 94 93 69 96 16 15 55 0
131 132 127 123 126 42 41 35 44 2 4 33 0
131 132 127 123 126 84 83 67 87 11 12 52 0
131 132 127 123 124 27 112 107 76 116 26 89 0
131 132 127 123 124 115 108 79 119 30 29 90 0
131 132 127 123 124 94 93 69 96 16 15 81 0
131 132 127 123 124 42 41 35 44 2 4 36 0
131 132 127 123 124 58 56 50 61 5 53 7 0
131 132 127 123 27 112 107 76 116 26 89 62 0
131 132 127 123 115 108 79 119 30 29 90 65 0
131 132 127 123 94 93 69 96 16 15 81 55 0
131 132 127 123 42 41 35 44 2 4 36 33 0
131 132 127 126 124 27 112 107 76 116 26 47 0
131 132 127 126 124 115 108 79 119 30 29 49 0
131 132 127 126 124 94 93 69 96 16 15 38 0
131 132 127 126 124 84 83 67 87 11 37 12 0
131 132 127 126 124 58 56 50 61 5 32 7 0
131 132 127 126 27 112 107 76 116 26 47 62 0
131 132 127 126 115 108 79 119 30 29 49 65 0
131 132 127 126 94 93 69 96 16 15 38 55 0
131 132 127 126 84 83 67 87 11 37 12 52 0
131 132 127 124 27 112 107 76 116 26 47 89 0
131 132 127 124 115 108 79 119 30 29 49 90 0
131 132 127 124 94 93 69 96 16 15 38 81 0
131 132 127 124 58 56 50 61 5 32 53 7 0
131 132 127 27 112 107 76 116 26 47 89 62 0
131 132 127 115 108 79 119 30 29 49 90 65 0
131 132 127 94 93 69 96 16 15 38 81 55 0
131 132 123 126 124 27 112 107 76 116 26 99 0
131 132 123 126 124 115 108 79 119 30 29 101 0
131 132 123 126 124 42 41 35 44 2 39 4 0
131 132 123 126 124 84 83 67 87 11 80 12 0
131 132 123 126 124 58 56 50 61 5 54 7 0
131 132 123 126 27 112 107 76 116 26 99 62 0
131 132 123 126 115 108 79 119 30 29 101 65 0
131 132 123 126 42 41 35 44 2 39 4 33 0
131 132 123 126 84 83 67 87 11 80 12 52 0
131 132 123 124 27 112 107 76 116 26 99 89 0
131 132 123 124 115 108 79 119 30 29 101 90 0
131 132 123 124 42 41 35 44 2 39 4 36 0
131 132 123 124 58 56 50 61 5 54 53 7 0
131 132 123 27 112 107 76 116 26 99 89 62 0
131 132 123 115 108 79 119 30 29 101 90 65 0
131 132 123 42 41 35 44 2 39 4 36 33 0
131 132 126 124 27 112 107 76 116 26 99 47 0
131 132 126 124 115 108 79 119 30 29 101 49 0
131 132 126 124 84 83 67 87 11 80 37 12 0
131 132 126 124 58 56 50 61 5 54 32 7 0
131 132 126 27 112 107 76 116 26 99 47 62 0
131 132 126 115 108 79 119 30 29 101 49 65 0
131 132 126 84 83 67 87 11 80 37 12 52 0
131 132 124 27 112 107 76 116 26 99 47 89 0
131 132 124 115 108 79 119 30 29 101 49 90 0
131 132 124 58 56 50 61 5 54 32 53 7 0
131 132 27 112 107 76 116 26 99 47 89 62 0
131 132 115 108 79 119 30 29 101 49 90 65 0
131 122 127 123 126 124 27 112 107 76 116 121 0
131 122 127 123 126 124 21 17 8 23 31 1 0
131 122 127 123 126 124 94 93 69 96 100 15 0
131 122 127 123 126 124 42 41 35 44 48 4 0
131 122 127 123 126 124 84 83 67 87 91 12 0
131 122 127 123 126 124 58 56 50 61 64 7 0
131 122 127 123 126 27 112 107 76 116 121 62 0
131 122 127 123 126 21 17 8 23 31 1 6 0
131 122 127 123 126 94 93 69 96 100 15 55 0
131 122 127 123 126 42 41 35 44 48 4 33 0
131 122 127 123 126 84 83 67 87 91 12 52 0
131 122 127 123 124 27 112 107 76 116 121 89 0
131 122 127 123 124 21 17 8 23 31 1 13 0
131 122 127 123 124 94 93 69 96 100 15 81 0
131 122 127 123 124 42 41 35 44 48 4 36 0
131 122 127 123 124 58 56 50 61 64 53 7 0
131 122 127 123 27 112 107 76 116 121 89 62 0
131 122 127 123 21 17 8 23 31 1 13 6 0
131 122 127 123 94 93 69 96 100 15 81 55 0
131 122 127 123 42 41 35 44 48 4 36 33 0
131 122 127 126 124 27 112 107 76 116 121 47 0
131 122 127 126 124 21 17 8 23 31 1 3 0
131 122 127 126 124 94 93 69 96 100 15 38 0
131 122 127 126 124 84 83 67 87 91 37 12 0
131 122 127 126 124 58 56 50 61 64 32 7 0
131 122 127 126 27 112 107 76 116 121 47 62 0
131 122 127 126 21 17 8 23 31 1 3 6 0
131 122 127 126 94 93 69 96 100 15 38 55 0
131 122 127 126 84 83 67 87 91 37 12 52 0
131 122 127 124 27 112 107 76 116 121 47 89 0
131 122 127 124 21 17 8 23 31 1 3 13 0
131 122 127 124 94 93 69 96 100 15 38 81 0
131 122 127 124 58 56 50 61 64 32 53 7 0
131 122 127 27 112 107 76 116 121 47 89 62 0
131 122 127 21 17 8 23 31 1 3 13 6 0
131 122 127 94 93 69 96 100 15 38 81 55 0
131 122 123 126 124 27 112 107 76 116 121 99 0
131 122 123 126 124 21 17 8 23 31 1 14 0
131 122 123 126 124 42 41 35 44 48 39 4 0
131 122 123 126 124 84 83 67 87 91 80 12 0
131 122 123 126 124 58 56 50 61 64 54 7 0
131 122 123 126 27 112 107 76 116 121 99 62 0
131 122 123 126 21 17 8 23 31 1 14 6 0
131 122 123 126 42 41 35 44 48 39 4 33 0
131 122 123 126 84 83 67 87 91 80 12 52 0
131 122 123 124 27 112 107 76 116 121 99 89 0
131 122 123 124 21 17 8 23 31 1 14 13 0
131 122 123 124 42 41 35 44 48 39 4 36 0
131 122 123 124 58 56 50 61 64 54 53 7 0
131 122 123 27 112 107 76 116 121 99 89 62 0
131 122 123 21 17 8 23 31 1 14 13 6 0
131 122 123 42 41 35 44 48 39 4 36 33 0
131 122 126 124 27 112 107 76 116 121 99 47 0
131 122 126 124 21 17 8 23 31 1 14 3 0
131 122 126 124 84 83 67 87 91 80 37 12 0
131 122 126 124 58 56 50 61 64 54 32 7 0
131 122 126 27 112 107 76 116 121 99 47 62 0
131 122 126 21 17 8 23 31 1 14 3 6 0
131 122 126 84 83 67 87 91 80 37 12 52 0
131 122 124 27 112 107 76 116 121 99 47 89 0
131 122 124 21 17 8 23 31 1 14 3 13 0
131 122 124 58 56 50 61 64 54 32 53 7 0
131 122 27 112 107 76 116 121 99 47 89 62 0
131 122 21 17 8 23 31 1 14 3 13 6 0
131 127 123 126 124 27 112 107 76 116 121 26 0
131 127 123 126 124 94 93 69 96 100 16 15 0
131 127 123 126 124 42 41 35 44 48 2 4 0
131 127 123 126 124 84 83 67 87 91 11 12 0
131 127 123 126 124 58 56 50 61 64 5 7 0
131 127 123 126 27 112 107 76 116 121 26 62 0
131 127 123 126 94 93 69 96 100 16 15 55 0
131 127 123 126 42 41 35 44 48 2 4 33 0
131 127 123 126 84 83 67 87 91 11 12 52 0
131 127 123 124 27 112 107 76 116 121 26 89 0
131 127 123 124 94 93 69 96 100 16 15 81 0
131 127 123 124 42 41 35 44 48 2 4 36 0
131 127 123 124 58 56 50 61 64 5 53 7 0
131 127 123 27 112 107 76 116 121 26 89 62 0
131 127 123 94 93 69 96 100 16 15 81 55 0
131 127 123 42 41 35 44 48 2 4 36 33 0
131 127 126 124 27 112 107 76 116 121 26 47 0
131 127 126 124 94 93 69 96 100 16 15 38 0
131 127 126 124 84 83 67 87 91 11 37 12 0
131 127 126 124 58 56 50 61 64 5 32 7 0
131 127 126 27 112 107 76 116 121 26 47 62 0
131 127 126 94 93 69 96 100 16 15 38 55 0
131 127 126 84 83 67 87 91 11 37 12 52 0
131 127 124 27 112 107 76 116 121 26 47 89 0
131 127 124 94 93 69 96 100 16 15 38 81 0
131 127 124 58 56 50 61 64 5 32 53 7 0
131 127 27 112 107 76 116 121 26 47 89 62 0
131 127 94 93 69 96 100 16 15 38 81 55 0
131 123 126 124 27 112 107 76 116 121 26 99 0
131 123 126 124 42 41 35 44 48 2 39 4 0
131 123 126 124 84 83 67 87 91 11 80 12 0
131 123 126 124 58 56 50 61 64 5 54 7 0
131 123 126 27 112 107 76 116 121 26 99 62 0
131 123 126 42 41 35 44 48 2 39 4 33 0
131 123 126 84 83 67 87 91 11 80 12 52 0
131 123 124 27 112 107 76 116 121 26 99 89 0
131 123 124 42 41 35 44 48 2 39 4 36 0
131 123 124 58 56 50 61 64 5 54 53 7 0
131 123 27 112 107 76 116 121 26 99 89 62 0
131 123 42 41 35 44 48 2 39 4 36 33 0
131 126 124 27 112 107 76 116 121 26 99 47 0
131 126 124 84 83 67 87 91 11 80 37 12 0
131 126 124 58 56 50 61 64 5 54 32 7 0
131 126 27 112 107 76 116 121 26 99 47 62 0
131 126 84 83 67 87 91 11 80 37 12 52 0
131 124 27 112 107 76 116 121 26 99 47 89 0
131 124 58 56 50 61 64 5 54 32 53 7 0
131 27 112 107 76 116 121 26 99 47 89 62 0
129 128 125 130 132 122 127 123 126 124 113 20 0
129 128 125 130 132 122 127 123 126 124 106 19 0
129 128 125 130 132 122 127 123 126 124 77 10 0
129 128 125 130 132 122 127 123 126 124 117 24 0
129 128 125 130 132 122 127 123 126 124 120 30 0
129 128 125 130 132 122 127 123 126 124 28 1 0
129 128 125 130 132 122 127 123 126 124 98 15 0
129 128 125 130 132 122 127 123 126 124 46 4 0
129 128 125 130 132 122 127 123 126 124 88 12 0
129 128 125 130 132 122 127 123 126 124 63 7 0
129 128 125 130 132 122 127 123 126 113 20 59 0
129 128 125 130 132 122 127 123 126 106 19 57 0
129 128 125 130 132 122 127 123 126 77 10 51 0
129 128 125 130 132 122 127 123 126 117 24 60 0
129 128 125 130 132 122 127 123 126 120 30 65 0
129 128 125 130 132 122 127 123 126 28 1 6 0
129 128 125 130 132 122 127 123 126 98 15 55 0
129 128 125 130 132 122 127 123 126 46 4 33 0
129 128 125 130 132 122 127 123 126 88 12 52 0
129 128 125 130 132 122 127 123 124 113 20 85 0
129 128 125 130 132 122 127 123 124 106 19 82 0
129 128 125 130 132 122 127 123 124 77 10 66 0
129 128 125 130 132 122 127 123 124 117 24 86 0
129 128 125 130 132 122 127 123 124 120 30 90 0
129 128 125 130 132 122 127 123 124 28 1 13 0
129 128 125 130 132 122 127 123 124 98 15 81 0
129 128 125 130 132 122 127 123 124 46 4 36 0
129 128 125 130 132 122 127 123 124 63 53 7 0
129 128 125 130 132 122 127 123 113 20 85 59 0
129 128 125 130 132 122 127 123 106 19 82 57 0
129 128 125 130 132 122 127 123 77 10 66 51 0
129 128 125 130 132 122 127 123 117 24 86 60 0
129 128 125 130 132 122 127 123 120 30 90 65 0
129 128 125 130 132 122 127 123 28 1 13 6 0
129 128 125 130 132 122 127 123 98 15 81 55 0
129 128 125 130 132 122 127 123 46 4 36 33 0
129 128 125 130 132 122 127 126 124 113 20 43 0
129 128 125 130 132 122 127 126 124 106 19 40 0
129 128 125 130 132 122 127 126 124 77 10 34 0
129 128 125 130 132 122 127 126 124 117 24 45 0
129 128 125 130 132 122 127 126 124 120 30 49 0
129 128 125 130 132 122 127 126 124 28 1 3 0
129 128 125 130 132 122 127 126 124 98 15 38 0
129 128 125 130 132 122 127 126 124 88 37 12 0
129 128 125 130 132 122 127 126 124 63 32 7 0
129 128 125 130 132 122 127 126 113 20 43 59 0
129 128 125 130 132 122 127 126 106 19 40 57 0
129 128 125 130 132 122 127 126 77 10 34 51 0
129 128 125 130 132 122 127 126 117 24 45 60 0
129 128 125 130 132 122 127 126 120 30 49 65 0
129 128 125 130 132 122 127 126 28 1 3 6 0
129 128 125 130 132 122 127 126 98 15 38 55 0
129 128 125 130 132 122 127 126 88 37 12 52 0
129 128 125 130 132 122 127 124 113 20 43 85 0
129 128 125 130 132 122 127 124 106 19 40 82 0
129 128 125 130 132 122 127 124 77 10 34 66 0
129 128 125 130 132 122 127 124 117 24 45 86 0
129 128 125 130 132 122 127 124 120 30 49 90 0
129 128 125 130 132 122 127 124 28 1 3 13 0
129 128 125 130 132 122 127 124 98 15 38 81 0
129 128 125 130 132 122 127 124 63 32 53 7 0
129 128 125 130 132 122 127 113 20 43 85 59 0
129 128 125 130 132 122 127 106 19 40 82 57 0
129 128 125 130 132 122 127 77 10 34 66 51 0
129 128 125 130 132 122 127 117 24 45 86 60 0
129 128 125 130 132 122 127 120 30 49 90 65 0
129 128 125 130 132 122 127 28 1 3 13 6 0
129 128 125 130 132 122 127 98 15 38 81 55 0
129 128 125 130 132 122 123 126 124 113 20 95 0
129 128 125 130 132 122 123 126 124 106 19 92 0
129 128 125 130 132 122 123 126 124 77 10 68 0
129 128 125 130 132 122 123 126 124 117 24 97 0
129 128 125 130 132 122 123 126 124 120 30 101 0
129 128 125 130 132 122 123 126 124 28 1 14 0
129 128 125 130 132 122 123 126 124 46 39 4 0
129 128 125 130 132 122 123 126 124 88 80 12 0
129 128 125 130 132 122 123 126 124 63 54 7 0
129 128 125 130 132 122 123 126 113 20 95 59 0
129 128 125 130 132 122 123 126 106 19 92 57 0
129 128 125 130 132 122 123 126 77 10 68 51 0
129 128 125 130 132 122 123 126 117 24 97 60 0
129 128 125 130 132 122 123 126 120 30 101 65 0
129 128 125 130 132 122 123 126 28 1 14 6 0
129 128 125 130 132 122 123 126 46 39 4 33 0
129 128 125 130 132 122 123 126 88 80 12 52 0
129 128 125 130 132 122 123 124 113 20 95 85 0
129 128 125 130 132 122 123 124 106 19 92 82 0
129 128 125 130 132 122 123 124 77 10 68 66 0
129 128 125 130 132 122 123 124 117 24 97 86 0
129 128 125 130 132 122 123 124 120 30 101 90 0
129 128 125 130 132 122 123 124 28 1 14 13 0
129 128 125 130 132 122 123 124 46 39 4 36 0
129 128 125 130 132 122 123 124 63 54 53 7 0
129 128 125 130 132 122 123 113 20 95 85 59 0
129 128 125 130 132 122 123 106 19 92 82 57 0
129 128 125 130 132 122 123 77 10 68 66 51 0
129 128 125 130 132 122 123 117 24 97 86 60 0
129 128 125 130 132 122 123 120 30 101 90 65 0
129 128 125 130 132 122 123 28 1 14 13 6 0
129 128 125 130 132 122 123 46 39 4 36 33 0
129 128 125 130 132 122 126 124 113 20 95 43 0
129 128 125 130 132 122 126 124 106 19 92 40 0
129 128 125 130 132 122 126 124 77 10 68 34 0
129 128 125 130 132 122 126 124 117 24 97 45 0
129 128 125 130 132 122 126 124 120 30 101 49 0
129 128 125 130 132 122 126 124 28 1 14 3 0
129 128 125 130 132 122 126 124 88 80 37 12 0
129 128 125 130 132 122 126 124 63 54 32 7 0
129 128 125 130 132 122 126 113 20 95 43 59 0
129 128 125 130 132 122 126 106 19 92 40 57 0
129 128 125 130 132 122 126 77 10 68 34 51 0
129 128 125 130 132 122 126 117 24 97 45 60 0
129 128 125 130 132 122 126 120 30 101 49 65 0
129 128 125 130 132 122 126 28 1 14 3 6 0
129 128 125 130 132 122 126 88 80 37 12 52 0
129 128 125 130 132 122 124 113 20 95 43 85 0
129 128 125 130 132 122 124 106 19 92 40 82 0
129 128 125 130 132 122 124 77 10 68 34 66 0
129 128 125 130 132 122 124 117 24 97 45 86 0
129 128 125 130 132 122 124 120 30 101 49 90 0
129 128 125 130 132 122 124 28 1 14 3 13 0
129 128 125 130 132 122 124 63 54 32 53 7 0
129 128 125 130 132 122 113 20 95 43 85 59 0
129 128 125 130 132 122 106 19 92 40 82 57 0
129 128 125 130 132 122 77 10 68 34 66 51 0
129 128 125 130 132 122 117 24 97 45 86 60 0
129 128 125 130 132 122 120 30 101 49 90 65 0
129 128 125 130 132 122 28 1 14 3 13 6 0
129 128 125 130 132 127 123 126 124 113 20 22 0
129 128 125 130 132 127 123 126 124 106 19 18 0
129 128 125 130 132 127 123 126 124 77 10 9 0
129 128 125 130 132 127 123 126 124 117 24 25 0
129 128 125 130 132 127 123 126 124 120 30 29 0
129 128 125 130 132 127 123 126 124 98 16 15 0
129 128 125 130 132 127 123 126 124 46 2 4 0
129 128 125 130 132 127 123 126 124 88 11 12 0
129 128 125 130 132 127 123 126 124 63 5 7 0
129 128 125 130 132 127 123 126 113 20 22 59 0
129 128 125 130 132 127 123 126 106 19 18 57 0
129 128 125 130 132 127 123 126 77 10 9 51 0
129 128 125 130 132 127 123 126 117 24 25 60 0
129 128 125 130 132 127 123 126 120 30 29 65 0
129 128 125 130 132 127 123 126 98 16 15 55 0
129 128 125 130 132 127 123 126 46 2 4 33 0
129 128 125 130 132 127 123 126 88 11 12 52 0
129 128 125 130 132 127 123 124 113 20 22 85 0
129 128 125 130 132 127 123 124 106 19 18 82 0
129 128 125 130 132 127 123 124 77 10 9 66 0
129 128 125 130 132 127 123 124 117 24 25 86 0
129 128 125 130 132 127 123 124 120 30 29 90 0
129 128 125 130 132 127 123 124 98 16 15 81 0
129 128 125 130 132 127 123 124 46 2 4 36 0
129 128 125 130 132 127 123 124 63 5 53 7 0
129 128 125 130 132 127 123 113 20 22 85 59 0
129 128 125 130 132 127 123 106 19 18 82 57 0
129 128 125 130 132 127 123 77 10 9 66 51 0
129 128 125 130 132 127 123 117 24 25 86 60 0
129 128 125 130 132 127 123 120 30 29 90 65 0
129 128 125 130 132 127 123 98 16 15 81 55 0
129 128 125 130 132 127 123 46 2 4 36 33 0
129 128 125 130 132 127 126 124 113 20 22 43 0
129 128 125 130 132 127 126 124 106 19 18 40 0
129 128 125 130 132 127 126 124 77 10 9 34 0
129 128 125 130 132 127 126 124 117 24 25 45 0
129 128 125 130 132 127 126 124 120 30 29 49 0
129 128 125 130 132 127 126 124 98 16 15 38 0
129 128 125 130 132 127 126 124 88 11 37 12 0
129 128 125 130 132 127 126 124 63 5 32 7 0
129 128 125 130 132 127 126 113 20 22 43 59 0
129 128 125 130 132 127 126 106 19 18 40 57 0
129 128 125 130 132 127 126 77 10 9 34 51 0
129 128 125 130 132 127 126 117 24 25 45 60 0
129 128 125 130 132 127 126 120 30 29 49 65 0
129 128 125 130 132 127 126 98 16 15 38 55 0
129 128 125 130 132 127 126 88 11 37 12 52 0
129 128 125 130 132 127 124 113 20 22 43 85 0
129 128 125 130 132 127 124 106 19 18 40 82 0
129 128 125 130 132 127 124 77 10 9 34 66 0
129 128 125 130 132 127 124 117 24 25 45 86 0
129 128 125 130 132 127 124 120 30 29 49 90 0
129 128 125 130 132 127 124 98 16 15 38 81 0
129 128 125 130 132 127 124 63 5 32 53 7 0
129 128 125 130 132 127 113 20 22 43 85 59 0
129 128 125 130 132 127 106 19 18 40 82 57 0
129 128 125 130 132 127 77 10 9 34 66 51 0
129 128 125 130 132 127 117 24 25 45 86 60 0
129 128 125 130 132 127 120 30 29 49 90 65 0
129 128 125 130 132 127 98 16 15 38 81 55 0
129 128 125 130 132 123 126 124 113 20 22 95 0
129 128 125 130 132 123 126 124 106 19 18 92 0
129 128 125 130 132 123 126 124 77 10 9 68 0
129 128 125 130 132 123 126 124 117 24 25 97 0
129 128 125 130 132 123 126 124 120 30 29 101 0
129 128 125 130 132 123 126 124 46 2 39 4 0
129 128 125 130 132 123 126 124 88 11 80 12 0
129 128 125 130 132 123 126 124 63 5 54 7 0
129 128 125 130 132 123 126 113 20 22 95 59 0
129 128 125 130 132 123 126 106 19 18 92 57 0
129 128 125 130 132 123 126 77 10 9 68 51 0
129 128 125 130 132 123 126 117 24 25 97 60 0
129 128 125 130 132 123 126 120 30 29 101 65 0
129 128 125 130 132 123 126 46 2 39 4 33 0
129 128 125 130 132 123 126 88 11 80 12 52 0
129 128 125 130 132 123 124 113 20 22 95 85 0
129 128 125 130 132 123 124 106 19 18 92 82 0
129 128 125 130 132 123 124 77 10 9 68 66 0
129 128 125 130 132 123 124 117 24 25 97 86 0
129 128 125 130 132 123 124 120 30 29 101 90 0
129 128 125 130 132 123 124 46 2 39 4 36 0
129 128 125 130 132 123 124 63 5 54 53 7 0
129 128 125 130 132 123 113 20 22 95 85 59 0
129 128 125 130 132 123 106 19 18 92 82 57 0
129 128 125 130 132 123 77 10 9 68 66 51 0
129 128 125 130 132 123 117 24 25 97 86 60 0
129 128 125 130 132 123 120 30 29 101 90 65 0
129 128 125 130 132 123 46 2 39 4 36 33 0
129 128 125 130 132 126 124 113 20 22 95 43 0
129 128 125 130 132 126 124 106 19 18 92 40 0
129 128 125 130 132 126 124 77 10 9 68 34 0
129 128 125 130 132 126 124 117 24 25 97 45 0
129 128 125 130 132 126 124 120 30 29 101 49 0
129 128 125 130 132 126 124 88 11 80 37 12 0
129 128 125 130 132 126 124 63 5 54 32 7 0
129 128 125 130 132 126 113 20 22 95 43 59 0
129 128 125 130 132 126 106 19 18 92 40 57 0
129 128 125 130 132 126 77 10 9 68 34 51 0
129 128 125 130 132 126 117 24 25 97 45 60 0
129 128 125 130 132 126 120 30 29 101 49 65 0
129 128 125 130 132 126 88 11 80 37 12 52 0
129 128 125 130 132 124 113 20 22 95 43 85 0
129 128 125 130 132 124 106 19 18 92 40 82 0
129 128 125 130 132 124 77 10 9 68 34 66 0
129 128 125 130 132 124 117 24 25 97 45 86 0
129 128 125 130 132 124 120 30 29 101 49 90 0
129 128 125 130 132 124 63 5 54 32 53 7 0
129 128 125 130 132 113 20 22 95 43 85 59 0
129 128 125 130 132 106 19 18 92 40 82 57 0
129 128 125 130 132 77 10 9 68 34 66 51 0
129 128 125 130 132 117 24 25 97 45 86 60 0
129 128 125 130 132 120 30 29 101 49 90 65 0
129 128 125 130 122 127 123 126 124 113 20 114 0
129 128 125 130 122 127 123 126 124 106 19 109 0
129 128 125 130 122 127 123 126 124 77 10 78 0
129 128 125 130 122 127 123 126 124 117 24 118 0
129 128 125 130 122 127 123 126 124 28 31 1 0
129 128 125 130 122 127 123 126 124 98 100 15 0
129 128 125 130 122 127 123 126 124 46 48 4 0
129 128 125 130 122 127 123 126 124 88 91 12 0
129 128 125 130 122 127 123 126 124 63 64 7 0
129 128 125 130 122 127 123 126 113 20 114 59 0
129 128 125 130 122 127 123 126 106 19 109 57 0
129 128 125 130 122 127 123 126 77 10 78 51 0
129 128 125 130 122 127 123 126 117 24 118 60 0
129 128 125 130 122 127 123 126 28 31 1 6 0
129 128 125 130 122 127 123 126 98 100 15 55 0
129 128 125 130 122 127 123 126 46 48 4 33 0
129 128 125 130 122 127 123 126 88 91 12 52 0
129 128 125 130 122 127 123 124 113 20 114 85 0
129 128 125 130 122 127 123 124 106 19 109 82 0
129 128 125 130 122 127 123 124 77 10 78 66 0
129 128 125 130 122 127 123 124 117 24 118 86 0
129 128 125 130 122 127 123 124 28 31 1 13 0
129 128 125 130 122 127 123 124 98 100 15 81 0
129 128 125 130 122 127 123 124 46 48 4 36 0
129 128 125 130 122 127 123 124 63 64 53 7 0
129 128 125 130 122 127 123 113 20 114 85 59 0
129 128 125 130 122 127 123 106 19 109 82 57 0
129 128 125 130 122 127 123 77 10 78 66 51 0
129 128 125 130 122 127 123 117 24 118 86 60 0
129 128 125 130 122 127 123 28 31 1 13 6 0
129 128 125 130 122 127 123 98 100 15 81 55 0
129 128 125 130 122 127 123 46 48 4 36 33 0
129 128 125 130 122 127 126 124 113 20 114 43 0
129 128 125 130 122 127 126 124 106 19 109 40 0
129 128 125 130 122 127 126 124 77 10 78 34 0
129 128 125 130 122 127 126 124 117 24 118 45 0
129 128 125 130 122 127 126 124 28 31 1 3 0
129 128 125 130 122 127 126 124 98 100 15 38 0
129 128 125 130 122 127 126 124 88 91 37 12 0
129 128 125 130 122 127 126 124 63 64 32 7 0
129 128 125 130 122 127 126 113 20 114 43 59 0
129 128 125 130 122 127 126 106 19 109 40 57 0
129 128 125 130 122 127 126 77 10 78 34 51 0
129 128 125 130 122 127 126 117 24 118 45 60 0
129 128 125 130 122 127 126 28 31 1 3 6 0
129 128 125 130 122 127 126 98 100 15 38 55 0
129 128 125 130 122 127 126 88 91 37 12 52 0
129 128 125 130 122 127 124 113 20 114 43 85 0
129 128 125 130 122 127 124 106 19 109 40 82 0
129 128 125 130 122 127 124 77 10 78 34 66 0
129 128 125 130 122 127 124 117 24 118 45 86 0
129 128 125 130 122 127 124 28 31 1 3 13 0
129 128 125 130 122 127 124 98 100 15 38 81 0
129 128 125 130 122 127 124 63 64 32 53 7 0
129 128 125 130 122 127 113 20 114 43 85 59 0
129 128 125 130 122 127 106 19 109 40 82 57 0
129 128 125 130 122 127 77 10 78 34 66 51 0
129 128 125 130 122 127 117 24 118 45 86 60 0
129 128 125 130 122 127 28 31 1 3 13 6 0
129 128 125 130 122 127 98 100 15 38 81 55 0
129 128 125 130 122 123 126 124 113 20 114 95 0
129 128 125 130 122 123 126 124 106 19 109 92 0
129 128 125 130 122 123 126 124 77 10 78 68 0
129 128 125 130 122 123 126 124 117 24 118 97 0
129 128 125 130 122 123 126 124 28 31 1 14 0
129 128 125 130 122 123 126 124 46 48 39 4 0
129 128 125 130 122 123 126 124 88 91 80 12 0
129 128 125 130 122 123 126 124 63 64 54 7 0
129 128 125 130 122 123 126 113 20 114 95 59 0
129 128 125 130 122 123 126 106 19 109 92 57 0
129 128 125 130 122 123 126 77 10 78 68 51 0
129 128 125 130 122 123 126 117 24 118 97 60 0
129 128 125 130 122 123 126 28 31 1 14 6 0
129 128 125 130 122 123 126 46 48 39 4 33 0
129 128 125 130 122 123 126 88 91 80 12 52 0
129 128 125 130 122 123 124 113 20 114 95 85 0
129 128 125 130 122 123 124 106 19 109 92 82 0
129 128 125 130 122 123 124 77 10 78 68 66 0
129 128 125 130 122 123 124 117 24 118 97 86 0
129 128 125 130 122 123 124 28 31 1 14 13 0
129 128 125 130 122 123 124 46 48 39 4 36 0
129 128 125 130 122 123 124 63 64 54 53 7 0
129 128 125 130 122 123 113 20 114 95 85 59 0
129 128 125 130 122 123 106 19 109 92 82 57 0
129 128 125 130 122 123 77 10 78 68 66 51 0
129 128 125 130 122 123 117 24 118 97 86 60 0
129 128 125 130 122 123 28 31 1 14 13 6 0
129 128 125 130 122 123 46 48 39 4 36 33 0
129 128 125 130 122 126 124 113 20 114 95 43 0
129 128 125 130 122 126 124 106 19 109 92 40 0
129 128 125 130 122 126 124 77 10 78 68 34 0
129 128 125 130 122 126 124 117 24 118 97 45 0
129 128 125 130 122 126 124 28 31 1 14 3 0
129 128 125 130 122 126 124 88 91 80 37 12 0
129 128 125 130 122 126 124 63 64 54 32 7 0
129 128 125 130 122 126 113 20 114 95 43 59 0
129 128 125 130 122 126 106 19 109 92 40 57 0
129 128 125 130 122 126 77 10 78 68 34 51 0
129 128 125 130 122 126 117 24 118 97 45 60 0
129 128 125 130 122 126 28 31 1 14 3 6 0
129 128 125 130 122 126 88 91 80 37 12 52 0
129 128 125 130 122 124 113 20 114 95 43 85 0
129 128 125 130 122 124 106 19 109 92 40 82 0
129 128 125 130 122 124 77 10 78 68 34 66 0
129 128 125 130 122 124 117 24 118 97 45 86 0
129 128 125 130 122 124 28 31 1 14 3 13 0
129 128 125 130 122 124 63 64 54 32 53 7 0
129 128 125 130 122 113 20 114 95 43 85 59 0
129 128 125 130 122 106 19 109 92 40 82 57 0
129 128 125 130 122 77 10 78 68 34 66 51 0
129 128 125 130 122 117 24 118 97 45 86 60 0
129 128 125 130 122 28 31 1 14 3 13 6 0
129 128 125 130 127 123 126 124 113 20 114 22 0
129 128 125 130 127 123 126 124 106 19 109 18 0
129 128 125 130 127 123 126 124 77 10 78 9 0
129 128 125 130 127 123 126 124 117 24 118 25 0
129 128 125 130 127 123 126 124 98 100 16 15 0
129 128 125 130 127 123 126 124 46 48 2 4 0
129 128 125 130 127 123 126 124 88 91 11 12 0
129 128 125 130 127 123 126 124 63 64 5 7 0
129 128 125 130 127 123 126 113 20 114 22 59 0
129 128 125 130 127 123 126 106 19 109 18 57 0
129 128 125 130 127 123 126 77 10 78 9 51 0
129 128 125 130 127 123 126 117 24 118 25 60 0
129 128 125 130 127 123 126 98 100 16 15 55 0
129 128 125 130 127 123 126 46 48 2 4 33 0
129 128 125 130 127 123 126 88 91 11 12 52 0
129 128 125 130 127 123 124 113 20 114 22 85 0
129 128 125 130 127 123 124 106 19 109 18 82 0
129 128 125 130 127 123 124 77 10 78 9 66 0
129 128 125 130 127 123 124 117 24 118 25 86 0
129 128 125 130 127 123 124 98 100 16 15 81 0
129 128 125 130 127 123 124 46 48 2 4 36 0
129 128 125 130 127 123 124 63 64 5 53 7 0
129 128 125 130 127 123 113 20 114 22 85 59 0
129 128 125 130 127 123 106 19 109 18 82 57 0
129 128 125 130 127 123 77 10 78 9 66 51 0
129 128 125 130 127 123 117 24 118 25 86 60 0
129 128 125 130 127 123 98 100 16 15 81 55 0
129 128 125 130 127 123 46 48 2 4 36 33 0
129 128 125 130 127 126 124 113 20 114 22 43 0
129 128 125 130 127 126 124 106 19 109 18 40 0
129 128 125 130 127 126 124 77 10 78 9 34 0
129 128 125 130 127 126 124 117 24 118 25 45 0
129 128 125 130 127 126 124 98 100 16 15 38 0
129 128 125 130 127 126 124 88 91 11 37 12 0
129 128 125 130 127 126 124 63 64 5 32 7 0
129 128 125 130 127 126 113 20 114 22 43 59 0
129 128 125 130 127 126 106 19 109 18 40 57 0
129 128 125 130 127 126 77 10 78 9 34 51 0
129 128 125 130 127 126 117 24 118 25 45 60 0
129 128 125 130 127 126 98 100 16 15 38 55 0
129 128 125 130 127 126 88 91 11 37 12 52 0
129 128 125 130 127 124 113 20 114 22 43 85 0
129 128 125 130 127 124 106 19 109 18 40 82 0
129 128 125 130 127 124 77 10 78 9 34 66 0
129 128 125 130 127 124 117 24 118 25 45 86 0
129 128 125 130 127 124 98 100 16 15 38 81 0
129 128 125 130 127 124 63 64 5 32 53 7 0
129 128 125 130 127 113 20 114 22 43 85 59 0
129 128 125 130 127 106 19 109 18 40 82 57 0
129 128 125 130 127 77 10 78 9 34 66 51 0
129 128 125 130 127 117 24 118 25 45 86 60 0
129 128 125 130 127 98 100 16 15 38 81 55 0
129 128 125 130 123 126 124 113 20 114 22 95 0
129 128 125 130 123 126 124 106 19 109 18 92 0
129 128 125 130 123 126 124 77 10 78 9 68 0
129 128 125 130 123 126 124 117 24 118 25 97 0
129 128 125 130 123 126 124 46 48 2 39 4 0
129 128 125 130 123 126 124 88 91 11 80 12 0
129 128 125 130 123 126 124 63 64 5 54 7 0
129 128 125 130 123 126 113 20 114 22 95 59 0
129 128 125 130 123 126 106 19 109 18 92 57 0
129 128 125 130 123 126 77 10 78 9 68 51 0
129 128 125 130 123 126 117 24 118 25 97 60 0
129 128 125 130 123 126 46 48 2 39 4 33 0
129 128 125 130 123 126 88 91 11 80 12 52 0
129 128 125 130 123 124 113 20 114 22 95 85 0
129 128 125 130 123 124 106 19 109 18 92 82 0
129 128 125 130 123 124 77 10 78 9 68 66 0
129 128 125 130 123 124 117 24 118 25 97 86 0
129 128 125 130 123 124 46 48 2 39 4 36 0
129 128 125 130 123 124 63 64 5 54 53 7 0
129 128 125 130 123 113 20 114 22 95 85 59 0
129 128 125 130 123 106 19 109 18 92 82 57 0
129 128 125 130 123 77 10 78 9 68 66 51 0
129 128 125 130 123 117 24 118 25 97 86 60 0
129 128 125 130 123 46 48 2 39 4 36 33 0
129 128 125 130 126 124 113 20 114 22 95 43 0
129 128 125 130 126 124 106 19 109 18 92 40 0
129 128 125 130 126 124 77 10 78 9 68 34 0
129 128 125 130 126 124 117 24 118 25 97 45 0
129 128 125 130 126 124 88 91 11 80 37 12 0
129 128 125 130 126 124 63 64 5 54 32 7 0
129 128 125 130 126 113 20 114 22 95 43 59 0
129 128 125 130 126 106 19 109 18 92 40 57 0
129 128 125 130 126 77 10 78 9 68 34 51 0
129 128 125 130 126 117 24 118 25 97 45 60 0
129 128 125 130 126 88 91 11 80 37 12 52 0
129 128 125 130 124 113 20 114 22 95 43 85 0
129 128 125 130 124 106 19 109 18 92 40 82 0
129 128 125 130 124 77 10 78 9 68 34 66 0
129 128 125 130 124 117 24 118 25 97 45 86 0
129 128 125 130 124 63 64 5 54 32 53 7 0
129 128 125 130 113 20 114 22 95 43 85 59 0
129 128 125 130 106 19 109 18 92 40 82 57 0
129 128 125 130 77 10 78 9 68 34 66 51 0
129 128 125 130 117 24 118 25 97 45 86 60 0
129 128 125 132 122 127 123 126 124 113 20 111 0
129 128 125 132 122 127 123 126 124 106 19 105 0
129 128 125 132 122 127 123 126 124 77 10 75 0
129 128 125 132 122 127 123 126 124 120 119 30 0
129 128 125 132 122 127 123 126 124 28 23 1 0
129 128 125 132 122 127 123 126 124 98 96 15 0
129 128 125 132 122 127 123 126 124 46 44 4 0
129 128 125 132 122 127 123 126 124 88 87 12 0
129 128 125 132 122 127 123 126 124 63 61 7 0
129 128 125 132 122 127 123 126 113 20 111 59 0
129 128 125 132 122 127 123 126 106 19 105 57 0
129 128 125 132 122 127 123 126 77 10 75 51 0
129 128 125 132 122 127 123 126 120 119 30 65 0
129 128 125 132 122 127 123 126 28 23 1 6 0
129 128 125 132 122 127 123 126 98 96 15 55 0
129 128 125 132 122 127 123 126 46 44 4 33 0
129 128 125 132 122 127 123 126 88 87 12 52 0
129 128 125 132 122 127 123 124 113 20 111 85 0
129 128 125 132 122 127 123 124 106 19 105 82 0
129 128 125 132 122 127 123 124 77 10 75 66 0
129 128 125 132 122 127 123 124 120 119 30 90 0
129 128 125 132 122 127 123 124 28 23 1 13 0
129 128 125 132 122 127 123 124 98 96 15 81 0
129 128 125 132 122 127 123 124 46 44 4 36 0
129 128 125 132 122 127 123 124 63 61 53 7 0
129 128 125 132 122 127 123 113 20 111 85 59 0
129 128 125 132 122 127 123 106 19 105 82 57 0
129 128 125 132 122 127 123 77 10 75 66 51 0
129 128 125 132 122 127 123 120 119 30 90 65 0
129 128 125 132 122 127 123 28 23 1 13 6 0
129 128 125 132 122 127 123 98 96 15 81 55 0
129 128 125 132 122 127 123 46 44 4 36 33 0
129 128 125 132 122 127 126 124 113 20 111 43 0
129 128 125 132 122 127 126 124 106 19 105 40 0
129 128 125 132 122 127 126 124 77 10 75 34 0
129 128 125 132 122 127 126 124 120 119 30 49 0
129 128 125 132 122 127 126 124 28 23 1 3 0
129 128 125 132 122 127 126 124 98 96 15 38 0
129 128 125 132 122 127 126 124 88 87 37 12 0
129 128 125 132 122 127 126 124 63 61 32 7 0
129 128 125 132 122 127 126 113 20 111 43 59 0
129 128 125 132 122 127 126 106 19 105 40 57 0
129 128 125 132 122 127 126 77 10 75 34 51 0
129 128 125 132 122 127 126 120 119 30 49 65 0
129 128 125 132 122 127 126 28 23 1 3 6 0
129 128 125 132 122 127 126 98 96 15 38 55 0
129 128 125 132 122 127 126 88 87 37 12 52 0
129 128 125 132 122 127 124 113 20 111 43 85 0
129 128 125 132 122 127 124 106 19 105 40 82 0
129 128 125 132 122 127 124 77 10 75 34 66 0
129 128 125 132 122 127 124 120 119 30 49 90 0
129 128 125 132 122 127 124 28 23 1 3 13 0
129 128 125 132 122 127 124 98 96 15 38 81 0
129 128 125 132 122 127 124 63 61 32 53 7 0
129 128 125 132 122 127 113 20 111 43 85 59 0
129 128 125 132 122 127 106 19 105 40 82 57 0
129 128 125 132 122 127 77 10 75 34 66 51 0
129 128 125 132 122 127 120 119 30 49 90 65 0
129 128 125 132 122 127 28 23 1 3 13 6 0
129 128 125 132 122 127 98 96 15 38 81 55 0
129 128 125 132 122 123 126 124 113 20 111 95 0
129 128 125 132 122 123 126 124 106 19 105 92 0
129 128 125 132 122 123 126 124 77 10 75 68 0
129 128 125 132 122 123 126 124 120 119 30 101 0
129 128 125 132 122 123 126 124 28 23 1 14 0
129 128 125 132 122 123 126 124 46 44 39 4 0
129 128 125 132 122 123 126 124 88 87 80 12 0
129 128 125 132 122 123 126 124 63 61 54 7 0
129 128 125 132 122 123 126 113 20 111 95 59 0
129 128 125 132 122 123 126 106 19 105 92 57 0
129 128 125 132 122 123 126 77 10 75 68 51 0
129 128 125 132 122 123 126 120 119 30 101 65 0
129 128 125 132 122 123 126 28 23 1 14 6 0
129 128 125 132 122 123 126 46 44 39 4 33 0
129 128 125 132 122 123 126 88 87 80 12 52 0
129 128 125 132 122 123 124 113 20 111 95 85 0
129 128 125 132 122 123 124 106 19 105 92 82 0
129 128 125 132 122 123 124 77 10 75 68 66 0
129 128 125 132 122 123 124 120 119 30 101 90 0
129 128 125 132 122 123 124 28 23 1 14 13 0
129 128 125 132 122 123 124 46 44 39 4 36 0
129 128 125 132 122 123 124 63 61 54 53 7 0
129 128 125 132 122 123 113 20 111 95 85 59 0
129 128 125 132 122 123 106 19 105 92 82 57 0
129 128 125 132 122 123 77 10 75 68 66 51 0
129 128 125 132 122 123 120 119 30 101 90 65 0
129 128 125 132 122 123 28 23 1 14 13 6 0
129 128 125 132 122 123 46 44 39 4 36 33 0
129 128 125 132 122 126 124 113 20 111 95 43 0
129 128 125 132 122 126 124 106 19 105 92 40 0
129 128 125 132 122 126 124 77 10 75 68 34 0
129 128 125 132 122 126 124 120 119 30 101 49 0
129 128 125 132 122 126 124 28 23 1 14 3 0
129 128 125 132 122 126 124 88 87 80 37 12 0
129 128 125 132 122 126 124 63 61 54 32 7 0
129 128 125 132 122 126 113 20 111 95 43 59 0
129 128 125 132 122 126 106 19 105 92 40 57 0
129 128 125 132 122 126 77 10 75 68 34 51 0
129 128 125 132 122 126 120 119 30 101 49 65 0
129 128 125 132 122 126 28 23 1 14 3 6 0
129 128 125 132 122 126 88 87 80 37 12 52 0
129 128 125 132 122 124 113 20 111 95 43 85 0
129 128 125 132 122 124 106 19 105 92 40 82 0
129 128 125 132 122 124 77 10 75 68 34 66 0
129 128 125 132 122 124 120 119 30 101 49 90 0
129 128 125 132 122 124 28 23 1 14 3 13 0
129 128 125 132 122 124 63 61 54 32 53 7 0
129 128 125 132 122 113 20 111 95 43 85 59 0
129 128 125 132 122 106 19 105 92 40 82 57 0
129 128 125 132 122 77 10 75 68 34 66 51 0
129 128 125 132 122 120 119 30 101 49 90 65 0
129 128 125 132 122 28 23 1 14 3 13 6 0
129 128 125 132 127 123 126 124 113 20 111 22 0
129 128 125 132 127 123 126 124 106 19 105 18 0
129 128 125 132 127 123 126 124 77 10 75 9 0
129 128 125 132 127 123 126 124 120 119 30 29 0
129 128 125 132 127 123 126 124 98 96 16 15 0
129 128 125 132 127 123 126 124 46 44 2 4 0
129 128 125 132 127 123 126 124 88 87 11 12 0
129 128 125 132 127 123 126 124 63 61 5 7 0
129 128 125 132 127 123 126 113 20 111 22 59 0
129 128 125 132 127 123 126 106 19 105 18 57 0
129 128 125 132 127 123 126 77 10 75 9 51 0
129 128 125 132 127 123 126 120 119 30 29 65 0
129 128 125 132 127 123 126 98 96 16 15 55 0
129 128 125 132 127 123 126 46 44 2 4 33 0
129 128 125 132 127 123 126 88 87 11 12 52 0
129 128 125 132 127 123 124 113 20 111 22 85 0
129 128 125 132 127 123 124 106 19 105 18 82 0
129 128 125 132 127 123 124 77 10 75 9 66 0
129 128 125 132 127 123 124 120 119 30 29 90 0
129 128 125 132 127 123 124 98 96 16 15 81 0
129 128 125 132 127 123 124 46 44 2 4 36 0
129 128 125 132 127 123 124 63 61 5 53 7 0
129 128 125 132 127 123 113 20 111 22 85 59 0
129 128 125 132 127 123 106 19 105 18 82 57 0
129 128 125 132 127 123 77 10 75 9 66 51 0
129 128 125 132 127 123 120 119 30 29 90 65 0
129 128 125 132 127 123 98 96 16 15 81 55 0
129 128 125 132 127 123 46 44 2 4 36 33 0
129 128 125 132 127 126 124 113 20 111 22 43 0
129 128 125 132 127 126 124 106 19 105 18 40 0
129 128 125 132 127 126 124 77 10 75 9 34 0
129 128 125 132 127 126 124 120 119 30 29 49 0
129 128 125 132 127 126 124 98 96 16 15 38 0
129 128 125 132 127 126 124 88 87 11 37 12 0
129 128 125 132 127 126 124 63 61 5 32 7 0
129 128 125 132 127 126 113 20 111 22 43 59 0
129 128 125 132 127 126 106 19 105 18 40 57 0
129 128 125 132 127 126 77 10 75 9 34 51 0
129 128 125 132 127 126 120 119 30 29 49 65 0
129 128 125 132 127 126 98 96 16 15 38 55 0
129 128 125 132 127 126 88 87 11 37 12 52 0
129 128 125 132 127 124 113 20 111 22 43 85 0
129 128 125 132 127 124 106 19 105 18 40 82 0
129 128 125 132 127 124 77 10 75 9 34 66 0
129 128 125 132 127 124 120 119 30 29 49 90 0
129 128 125 132 127 124 98 96 16 15 38 81 0
129 128 125 132 127 124 63 61 5 32 53 7 0
129 128 125 132 127 113 20 111 22 43 85 59 0
129 128 125 132 127 106 19 105 18 40 82 57 0
129 128 125 132 127 77 10 75 9 34 66 51 0
129 128 125 132 127 120 119 30 29 49 90 65 0
129 128 125 132 127 98 96 16 15 38 81 55 0
129 128 125 132 123 126 124 113 20 111 22 95 0
129 128 125 132 123 126 124 106 19 105 18 92 0
129 128 125 132 123 126 124 77 10 75 9 68 0
129 128 125 132 123 126 124 120 119 30 29 101 0
129 128 125 132 123 126 124 46 44 2 39 4 0
129 128 125 132 123 126 124 88 87 11 80 12 0
129 128 125 132 123 126 124 63 61 5 54 7 0
129 128 125 132 123 126 113 20 111 22 95 59 0
129 128 125 132 123 126 106 19 105 18 92 57 0
129 128 125 132 123 126 77 10 75 9 68 51 0
129 128 125 132 123 126 120 119 30 29 101 65 0
129 128 125 132 123 126 46 44 2 39 4 33 0
129 128 125 132 123 126 88 87 11 80 12 52 0
129 128 125 132 123 124 113 20 111 22 95 85 0
129 128 125 132 123 124 106 19 105 18 92 82 0
129 128 125 132 123 124 77 10 75 9 68 66 0
129 128 125 132 123 124 120 119 30 29 101 90 0
129 128 125 132 123 124 46 44 2 39 4 36 0
129 128 125 132 123 124 63 61 5 54 53 7 0
129 128 125 132 123 113 20 111 22 95 85 59 0
129 128 125 132 123 106 19 105 18 92 82 57 0
129 128 125 132 123 77 10 75 9 68 66 51 0
129 128 125 132 123 120 119 30 29 101 90 65 0
129 128 125 132 123 46 44 2 39 4 36 33 0
129 128 125 132 126 124 113 20 111 22 95 43 0
129 128 125 132 126 124 106 19 105 18 92 40 0
129 128 125 132 126 124 77 10 75 9 68 34 0
129 128 125 132 126 124 120 119 30 29 101 49 0
129 128 125 132 126 124 88 87 11 80 37 12 0
129 128 125 132 126 124 63 61 5 54 32 7 0
129 128 125 132 126 113 20 111 22 95 43 59 0
129 128 125 132 126 106 19 105 18 92 40 57 0
129 128 125 132 126 77 10 75 9 68 34 51 0
129 128 125 132 126 120 119 30 29 101 49 65 0
129 128 125 132 126 88 87 11 80 37 12 52 0
129 128 125 132 124 113 20 111 22 95 43 85 0
129 128 125 132 124 106 19 105 18 92 40 82 0
129 128 125 132 124 77 10 75 9 68 34 66 0
129 128 125 132 124 120 119 30 29 101 49 90 0
129 128 125 132 124 63 61 5 54 32 53 7 0
129 128 125 132 113 20 111 22 95 43 85 59 0
129 128 125 132 106 19 105 18 92 40 82 57 0
129 128 125 132 77 10 75 9 68 34 66 51 0
129 128 125 132 120 119 30 29 101 49 90 65 0
129 128 125 122 127 123 126 124 113 20 111 114 0
129 128 125 122 127 123 126 124 106 19 105 109 0
129 128 125 122 127 123 126 124 77 10 75 78 0
129 128 125 122 127 123 126 124 28 23 31 1 0
129 128 125 122 127 123 126 124 98 96 100 15 0
129 128 125 122 127 123 126 124 46 44 48 4 0
129 128 125 122 127 123 126 124 88 87 91 12 0
129 128 125 122 127 123 126 124 63 61 64 7 0
129 128 125 122 127 123 126 113 20 111 114 59 0
129 128 125 122 127 123 126 106 19 105 109 57 0
129 128 125 122 127 123 126 77 10 75 78 51 0
129 128 125 122 127 123 126 28 23 31 1 6 0
129 128 125 122 127 123 126 98 96 100 15 55 0
129 128 125 122 127 123 126 46 44 48 4 33 0
129 128 125 122 127 123 126 88 87 91 12 52 0
129 128 125 122 127 123 124 113 20 111 114 85 0
129 128 125 122 127 123 124 106 19 105 109 82 0
129 128 125 122 127 123 124 77 10 75 78 66 0
129 128 125 122 127 123 124 28 23 31 1 13 0
129 128 125 122 127 123 124 98 96 100 15 81 0
129 128 125 122 127 123 124 46 44 48 4 36 0
129 128 125 122 127 123 124 63 61 64 53 7 0
129 128 125 122 127 123 113 20 111 114 85 59 0
129 128 125 122 127 123 106 19 105 109 82 57 0
129 128 125 122 127 123 77 10 75 78 66 51 0
129 128 125 122 127 123 28 23 31 1 13 6 0
129 128 125 122 127 123 98 96 100 15 81 55 0
129 128 125 122 127 123 46 44 48 4 36 33 0
129 128 125 122 127 126 124 113 20 111 114 43 0
129 128 125 122 127 126 124 106 19 105 109 40 0
129 128 125 122 127 126 124 77 10 75 78 34 0
129 128 125 122 127 126 124 28 23 31 1 3 0
129 128 125 122 127 126 124 98 96 100 15 38 0
129 128 125 122 127 126 124 88 87 91 37 12 0
129 128 125 122 127 126 124 63 61 64 32 7 0
129 128 125 122 127 126 113 20 111 114 43 59 0
129 128 125 122 127 126 106 19 105 109 40 57 0
129 128 125 122 127 126 77 10 75 78 34 51 0
129 128 125 122 127 126 28 23 31 1 3 6 0
129 128 125 122 127 126 98 96 100 15 38 55 0
129 128 125 122 127 126 88 87 91 37 12 52 0
129 128 125 122 127 124 113 20 111 114 43 85 0
129 128 125 122 127 124 106 19 105 109 40 82 0
129 128 125 122 127 124 77 10 75 78 34 66 0
129 128 125 122 127 124 28 23 31 1 3 13 0
129 128 125 122 127 124 98 96 100 15 38 81 0
129 128 125 122 127 124 63 61 64 32 53 7 0
129 128 125 122 127 113 20 111 114 43 85 59 0
129 128 125 122 127 106 19 105 109 40 82 57 0
129 128 125 122 127 77 10 75 78 34 66 51 0
129 128 125 122 127 28 23 31 1 3 13 6 0
129 128 125 122 127 98 96 100 15 38 81 55 0
129 128 125 122 123 126 124 113 20 111 114 95 0
129 128 125 122 123 126 124 106 19 105 109 92 0
129 128 125 122 123 126 124 77 10 75 78 68 0
129 128 125 122 123 126 124 28 23 31 1 14 0
129 128 125 122 123 126 124 46 44 48 39 4 0
129 128 125 122 123 126 124 88 87 91 80 12 0
129 128 125 122 123 126 124 63 61 64 54 7 0
129 128 125 122 123 126 113 20 111 114 95 59 0
129 128 125 122 123 126 106 19 105 109 92 57 0
129 128 125 122 123 126 77 10 75 78 68 51 0
129 128 125 122 123 126 28 23 31 1 14 6 0
129 128 125 122 123 126 46 44 48 39 4 33 0
129 128 125 122 123 126 88 87 91 80 12 52 0
129 128 125 122 123 124 113 20 111 114 95 85 0
129 128 125 122 123 124 106 19 105 109 92 82 0
129 128 125 122 123 124 77 10 75 78 68 66 0
129 128 125 122 123 124 28 23 31 1 14 13 0
129 128 125 122 123 124 46 44 48 39 4 36 0
129 128 125 122 123 124 63 61 64 54 53 7 0
129 128 125 122 123 113 20 111 114 95 85 59 0
129 128 125 122 123 106 19 105 109 92 82 57 0
129 128 125 122 123 77 10 75 78 68 66 51 0
129 128 125 122 123 28 23 31 1 14 13 6 0
129 128 125 122 123 46 44 48 39 4 36 33 0
129 128 125 122 126 124 113 20 111 114 95 43 0
129 128 125 122 126 124 106 19 105 109 92 40 0
129 128 125 122 126 124 77 10 75 78 68 34 0
129 128 125 122 126 124 28 23 31 1 14 3 0
129 128 125 122 126 124 88 87 91 80 37 12 0
129 128 125 122 126 124 63 61 64 54 32 7 0
129 128 125 122 126 113 20 111 114 95 43 59 0
129 128 125 122 126 106 19 105 109 92 40 57 0
129 128 125 122 126 77 10 75 78 68 34 51 0
129 128 125 122 126 28 23 31 1 14 3 6 0
129 128 125 122 126 88 87 91 80 37 12 52 0
129 128 125 122 124 113 20 111 114 95 43 85 0
129 128 125 122 124 106 19 105 109 92 40 82 0
129 128 125 122 124 77 10 75 78 68 34 66 0
129 128 125 122 124 28 23 31 1 14 3 13 0
129 128 125 122 124 63 61 64 54 32 53 7 0
129 128 125 122 113 20 111 114 95 43 85 59 0
129 128 125 122 106 19 105 109 92 40 82 57 0
129 128 125 122 77 10 75 78 68 34 66 51 0
129 128 125 122 28 23 31 1 14 3 13 6 0
129 128 125 127 123 126 124 113 20 111 114 22 0
129 128 125 127 123 126 124 106 19 105 109 18 0
129 128 125 127 123 126 124 77 10 75 78 9 0
129 128 125 127 123 126 124 98 96 100 16 15 0
129 128 125 127 123 126 124 46 44 48 2 4 0
129 128 125 127 123 126 124 88 87 91 11 12 0
129 128 125 127 123 126 124 63 61 64 5 7 0
129 128 125 127 123 126 113 20 111 114 22 59 0
129 128 125 127 123 126 106 19 105 109 18 57 0
129 128 125 127 123 126 77 10 75 78 9 51 0
129 128 125 127 123 126 98 96 100 16 15 55 0
129 128 125 127 123 126 46 44 48 2 4 33 0
129 128 125 127 123 126 88 87 91 11 12 52 0
129 128 125 127 123 124 113 20 111 114 22 85 0
129 128 125 127 123 124 106 19 105 109 18 82 0
129 128 125 127 123 124 77 10 75 78 9 66 0
129 128 125 127 123 124 98 96 100 16 15 81 0
129 128 125 127 123 124 46 44 48 2 4 36 0
129 128 125 127 123 124 63 61 64 5 53 7 0
129 128 125 127 123 113 20 111 114 22 85 59 0
129 128 125 127 123 106 19 105 109 18 82 57 0
129 128 125 127 123 77 10 75 78 9 66 51 0
129 128 125 127 123 98 96 100 16 15 81 55 0
129 128 125 127 123 46 44 48 2 4 36 33 0
129 128 125 127 126 124 113 20 111 114 22 43 0
129 128 125 127 126 124 106 19 105 109 18 40 0
129 128 125 127 126 124 77 10 75 78 9 34 0
129 128 125 127 126 124 98 96 100 16 15 38 0
129 128 125 127 126 124 88 87 91 11 37 12 0
129 128 125 127 126 124 63 61 64 5 32 7 0
129 128 125 127 126 113 20 111 114 22 43 59 0
129 128 125 127 126 106 19 105 109 18 40 57 0
129 128 125 127 126 77 10 75 78 9 34 51 0
129 128 125 127 126 98 96 100 16 15 38 55 0
129 128 125 127 126 88 87 91 11 37 12 52 0
129 128 125 127 124 113 20 111 114 22 43 85 0
129 128 125 127 124 106 19 105 109 18 40 82 0
129 128 125 127 124 77 10 75 78 9 34 66 0
129 128 125 127 124 98 96 100 16 15 38 81 0
129 128 125 127 124 63 61 64 5 32 53 7 0
129 128 125 127 113 20 111 114 22 43 85 59 0
129 128 125 127 106 19 105 109 18 40 82 57 0
129 128 125 127 77 10 75 78 9 34 66 51 0
129 128 125 127 98 96 100 16 15 38 81 55 0
129 128 125 123 126 124 113 20 111 114 22 95 0
129 128 125 123 126 124 106 19 105 109 18 92 0
129 128 125 123 126 124 77 10 75 78 9 68 0
129 128 125 123 126 124 46 44 48 2 39 4 0
129 128 125 123 126 124 88 87 91 11 80 12 0
129 128 125 123 126 124 63 61 64 5 54 7 0
129 128 125 123 126 113 20 111 114 22 95 59 0
129 128 125 123 126 106 19 105 109 18 92 57 0
129 128 125 123 126 77 10 75 78 9 68 51 0
129 128 125 123 126 46 44 48 2 39 4 33 0
129 128 125 123 126 88 87 91 11 80 12 52 0
129 128 125 123 124 113 20 111 114 22 95 85 0
129 128 125 123 124 106 19 105 109 18 92 82 0
129 128 125 123 124 77 10 75 78 9 68 66 0
129 128 125 123 124 46 44 48 2 39 4 36 0
129 128 125 123 124 63 61 64 5 54 53 7 0
129 128 125 123 113 20 111 114 22 95 85 59 0
129 128 125 123 106 19 105 109 18 92 82 57 0
129 128 125 123 77 10 75 78 9 68 66 51 0
129 128 125 123 46 44 48 2 39 4 36 33 0
129 128 125 126 124 113 20 111 114 22 95 43 0
129 128 125 126 124 106 19 105 109 18 92 40 0
129 128 125 126 124 77 10 75 78 9 68 34 0
129 128 125 126 124 88 87 91 11 80 37 12 0
129 128 125 126 124 63 61 64 5 54 32 7 0
129 128 125 126 113 20 111 114 22 95 43 59 0
129 128 125 126 106 19 105 109 18 92 40 57 0
129 128 125 126 77 10 75 78 9 68 34 51 0
129 128 125 126 88 87 91 11 80 37 12 52 0
129 128 125 124 113 20 111 114 22 95 43 85 0
129 128 125 124 106 19 105 109 18 92 40 82 0
129 128 125 124 77 10 75 78 9 68 34 66 0
129 128 125 124 63 61 64 5 54 32 53 7 0
129 128 125 113 20 111 114 22 95 43 85 59 0
129 128 125 106 19 105 109 18 92 40 82 57 0
129 128 125 77 10 75 78 9 68 34 66 51 0
129 128 130 132 122 127 123 126 124 113 20 72 0
129 128 130 132 122 127 123 126 124 106 19 70 0
129 128 130 132 122 127 123 126 124 117 74 24 0
129 128 130 132 122 127 123 126 124 120 79 30 0
129 128 130 132 122 127 123 126 124 28 8 1 0
129 128 130 132 122 127 123 126 124 98 69 15 0
129 128 130 132 122 127 123 126 124 46 35 4 0
129 128 130 132 122 127 123 126 124 88 67 12 0
129 128 130 132 122 127 123 126 124 63 50 7 0
129 128 130 132 122 127 123 126 113 20 72 59 0
129 128 130 132 122 127 123 126 106 19 70 57 0
129 128 130 132 122 127 123 126 117 74 24 60 0
129 128 130 132 122 127 123 126 120 79 30 65 0
129 128 130 132 122 127 123 126 28 8 1 6 0
129 128 130 132 122 127 123 126 98 69 15 55 0
129 128 130 132 122 127 123 126 46 35 4 33 0
129 128 130 132 122 127 123 126 88 67 12 52 0
129 128 130 132 122 127 123 124 113 20 72 85 0
129 128 130 132 122 127 123 124 106 19 70 82 0
129 128 130 132 122 127 123 124 117 74 24 86 0
129 128 130 132 122 127 123 124 120 79 30 90 0
129 128 130 132 122 127 123 124 28 8 1 13 0
129 128 130 132 122 127 123 124 98 69 15 81 0
129 128 130 132 122 127 123 124 46 35 4 36 0
129 128 130 132 122 127 123 124 63 50 53 7 0
129 128 130 132 122 127 123 113 20 72 85 59 0
129 128 130 132 122 127 123 106 19 70 82 57 0
129 128 130 132 122 127 123 117 74 24 86 60 0
129 128 130 132 122 127 123 120 79 30 90 65 0
129 128 130 132 122 127 123 28 8 1 13 6 0
129 128 130 132 122 127 123 98 69 15 81 55 0
129 128 130 132 122 127 123 46 35 4 36 33 0
129 128 130 132 122 127 126 124 113 20 72 43 0
129 128 130 132 122 127 126 124 106 19 70 40 0
129 128 130 132 122 127 126 124 117 74 24 45 0
129 128 130 132 122 127 126 124 120 79 30 49 0
129 128 130 132 122 127 126 124 28 8 1 3 0
129 128 130 132 122 127 126 124 98 69 15 38 0
129 128 130 132 122 127 126 124 88 67 37 12 0
129 128 130 132 122 127 126 124 63 50 32 7 0
129 128 130 132 122 127 126 113 20 72 43 59 0
129 128 130 132 122 127 126 106 19 70 40 57 0
129 128 130 132 122 127 126 117 74 24 45 60 0
129 128 130 132 122 127 126 120 79 30 49 65 0
129 128 130 132 122 127 126 28 8 1 3 6 0
129 128 130 132 122 127 126 98 69 15 38 55 0
129 128 130 132 122 127 126 88 67 37 12 52 0
129 128 130 132 122 127 124 113 20 72 43 85 0
129 128 130 132 122 127 124 106 19 70 40 82 0
129 128 130 132 122 127 124 117 74 24 45 86 0
129 128 130 132 122 127 124 120 79 30 49 90 0
129 128 130 132 122 127 124 28 8 1 3 13 0
129 128 130 132 122 127 124 98 69 15 38 81 0
129 128 130 132 122 127 124 63 50 32 53 7 0
129 128 130 132 122 127 113 20 72 43 85 59 0
129 128 130 132 122 127 106 19 70 40 82 57 0
129 128 130 132 122 127 117 74 24 45 86 60 0
129 128 130 132 122 127 120 79 30 49 90 65 0
129 128 130 132 122 127 28 8 1 3 13 6 0
129 128 130 132 122 127 98 69 15 38 81 55 0
129 128 130 132 122 123 126 124 113 20 72 95 0
129 128 130 132 122 123 126 124 106 19 70 92 0
129 128 130 132 122 123 126 124 117 74 24 97 0
129 128 130 132 122 123 126 124 120 79 30 101 0
129 128 130 132 122 123 126 124 28 8 1 14 0
129 128 130 132 122 123 126 124 46 35 39 4 0
129 128 130 132 122 123 126 124 88 67 80 12 0
129 128 130 132 122 123 126 124 63 50 54 7 0
129 128 130 132 122 123 126 113 20 72 95 59 0
129 128 130 132 122 123 126 106 19 70 92 57 0
129 128 130 132 122 123 126 117 74 24 97 60 0
129 128 130 132 122 123 126 120 79 30 101 65 0
129 128 130 132 122 123 126 28 8 1 14 6 0
129 128 130 132 122 123 126 46 35 39 4 33 0
129 128 130 132 122 123 126 88 67 80 12 52 0
129 128 130 132 122 123 124 113 20 72 95 85 0
129 128 130 132 122 123 124 106 19 70 92 82 0
129 128 130 132 122 123 124 117 74 24 97 86 0
129 128 130 132 122 123 124 120 79 30 101 90 0
129 128 130 132 122 123 124 28 8 1 14 13 0
129 128 130 132 122 123 124 46 35 39 4 36 0
129 128 130 132 122 123 124 63 50 54 53 7 0
129 128 130 132 122 123 113 20 72 95 85 59 0
129 128 130 132 122 123 106 19 70 92 82 57 0
129 128 130 132 122 123 117 74 24 97 86 60 0
129 128 130 132 122 123 120 79 30 101 90 65 0
129 128 130 132 122 123 28 8 1 14 13 6 0
129 128 130 132 122 123 46 35 39 4 36 33 0
129 128 130 132 122 126 124 113 20 72 95 43 0
129 128 130 132 122 126 124 106 19 70 92 40 0
129 128 130 132 122 126 124 117 74 24 97 45 0
129 128 130 132 122 126 124 120 79 30 101 49 0
129 128 130 132 122 126 124 28 8 1 14 3 0
129 128 130 132 122 126 124 88 67 80 37 12 0
129 128 130 132 122 126 124 63 50 54 32 7 0
129 128 130 132 122 126 113 20 72 95 43 59 0
129 128 130 132 122 126 106 19 70 92 40 57 0
129 128 130 132 122 126 117 74 24 97 45 60 0
129 128 130 132 122 126 120 79 30 101 49 65 0
129 128 130 132 122 126 28 8 1 14 3 6 0
129 128 130 132 122 126 88 67 80 37 12 52 0
129 128 130 132 122 124 113 20 72 95 43 85 0
129 128 130 132 122 124 106 19 70 92 40 82 0
129 128 130 132 122 124 117 74 24 97 45 86 0
129 128 130 132 122 124 120 79 30 101 49 90 0
129 128 130 132 122 124 28 8 1 14 3 13 0
129 128 130 132 122 124 63 50 54 32 53 7 0
129 128 130 132 122 113 20 72 95 43 85 59 0
129 128 130 132 122 106 19 70 92 40 82 57 0
129 128 130 132 122 117 74 24 97 45 86 60 0
129 128 130 132 122 120 79 30 101 49 90 65 0
129 128 130 132 122 28 8 1 14 3 13 6 0
129 128 130 132 127 123 126 124 113 20 72 22 0
129 128 130 132 127 123 126 124 106 19 70 18 0
129 128 130 132 127 123 126 124 117 74 24 25 0
129 128 130 132 127 123 126 124 120 79 30 29 0
129 128 130 132 127 123 126 124 98 69 16 15 0
129 128 130 132 127 123 126 124 46 35 2 4 0
129 128 130 132 127 123 126 124 88 67 11 12 0
129 128 130 132 127 123 126 124 63 50 5 7 0
129 128 130 132 127 123 126 113 20 72 22 59 0
129 128 130 132 127 123 126 106 19 70 18 57 0
129 128 130 132 127 123 126 117 74 24 25 60 0
129 128 130 132 127 123 126 120 79 30 29 65 0
129 128 130 132 127 123 126 98 69 16 15 55 0
129 128 130 132 127 123 126 46 35 2 4 33 0
129 128 130 132 127 123 126 88 67 11 12 52 0
129 128 130 132 127 123 124 113 20 72 22 85 0
129 128 130 132 127 123 124 106 19 70 18 82 0
129 128 130 132 127 123 124 117 74 24 25 86 0
129 128 130 132 127 123 124 120 79 30 29 90 0
129 128 130 132 127 123 124 98 69 16 15 81 0
129 128 130 132 127 123 124 46 35 2 4 36 0
129 128 130 132 127 123 124 63 50 5 53 7 0
129 128 130 132 127 123 113 20 72 22 85 59 0
129 128 130 132 127 123 106 19 70 18 82 57 0
129 128 130 132 127 123 117 74 24 25 86 60 0
129 128 130 132 127 123 120 79 30 29 90 65 0
129 128 130 132 127 123 98 69 16 15 81 55 0
129 128 130 132 127 123 46 35 2 4 36 33 0
129 128 130 132 127 126 124 113 20 72 22 43 0
129 128 130 132 127 126 124 106 19 70 18 40 0
129 128 130 132 127 126 124 117 74 24 25 45 0
129 128 130 132 127 126 124 120 79 30 29 49 0
129 128 130 132 127 126 124 98 69 16 15 38 0
129 128 130 132 127 126 124 88 67 11 37 12 0
129 128 130 132 127 126 124 63 50 5 32 7 0
129 128 130 132 127 126 113 20 72 22 43 59 0
129 128 130 132 127 126 106 19 70 18 40 57 0
129 128 130 132 127 126 117 74 24 25 45 60 0
129 128 130 132 127 126 120 79 30 29 49 65 0
129 128 130 132 127 126 98 69 16 15 38 55 0
129 128 130 132 127 126 88 67 11 37 12 52 0
129 128 130 132 127 124 113 20 72 22 43 85 0
129 128 130 132 127 124 106 19 70 18 40 82 0
129 128 130 132 127 124 117 74 24 25 45 86 0
129 128 130 132 127 124 120 79 30 29 49 90 0
129 128 130 132 127 124 98 69 16 15 38 81 0
129 128 130 132 127 124 63 50 5 32 53 7 0
129 128 130 132 127 113 20 72 22 43 85 59 0
129 128 130 132 127 106 19 70 18 40 82 57 0
129 128 130 132 127 117 74 24 25 45 86 60 0
129 128 130 132 127 120 79 30 29 49 90 65 0
129 128 130 132 127 98 69 16 15 38 81 55 0
129 128 130 132 123 126 124 113 20 72 22 95 0
129 128 130 132 123 126 124 106 19 70 18 92 0
129 128 130 132 123 126 124 117 74 24 25 97 0
129 128 130 132 123 126 124 120 79 30 29 101 0
129 128 130 132 123 126 124 46 35 2 39 4 0
129 128 130 132 123 126 124 88 67 11 80 12 0
129 128 130 132 123 126 124 63 50 5 54 7 0
129 128 130 132 123 126 113 20 72 22 95 59 0
129 128 130 132 123 126 106 19 70 18 92 57 0
129 128 130 132 123 126 117 74 24 25 97 60 0
129 128 130 132 123 126 120 79 30 29 101 65 0
129 128 130 132 123 126 46 35 2 39 4 33 0
129 128 130 132 123 126 88 67 11 80 12 52 0
129 128 130 132 123 124 113 20 72 22 95 85 0
129 128 130 132 123 124 106 19 70 18 92 82 0
129 128 130 132 123 124 117 74 24 25 97 86 0
129 128 130 132 123 124 120 79 30 29 101 90 0
129 128 130 132 123 124 46 35 2 39 4 36 0
129 128 130 132 123 124 63 50 5 54 53 7 0
129 128 130 132 123 113 20 72 22 95 85 59 0
129 128 130 132 123 106 19 70 18 92 82 57 0
129 128 130 132 123 117 74 24 25 97 86 60 0
129 128 130 132 123 120 79 30 29 101 90 65 0
129 128 130 132 123 46 35 2 39 4 36 33 0
129 128 130 132 126 124 113 20 72 22 95 43 0
129 128 130 132 126 124 106 19 70 18 92 40 0
129 128 130 132 126 124 117 74 24 25 97 45 0
129 128 130 132 126 124 120 79 30 29 101 49 0
129 128 130 132 126 124 88 67 11 80 37 12 0
129 128 130 132 126 124 63 50 5 54 32 7 0
129 128 130 132 126 113 20 72 22 95 43 59 0
129 128 130 132 126 106 19 70 18 92 40 57 0
129 128 130 132 126 117 74 24 25 97 45 60 0
129 128 130 132 126 120 79 30 29 101 49 65 0
129 128 130 132 126 88 67 11 80 37 12 52 0
129 128 130 132 124 113 20 72 22 95 43 85 0
129 128 130 132 124 106 19 70 18 92 40 82 0
129 128 130 132 124 117 74 24 25 97 45 86 0
129 128 130 132 124 120 79 30 29 101 49 90 0
129 128 130 132 124 63 50 5 54 32 53 7 0
129 128 130 132 113 20 72 22 95 43 85 59 0
129 128 130 132 106 19 70 18 92 40 82 57 0
129 128 130 132 117 74 24 25 97 45 86 60 0
129 128 130 132 120 79 30 29 101 49 90 65 0
129 128 130 122 127 123 126 124 113 20 72 114 0
129 128 130 122 127 123 126 124 106 19 70 109 0
129 128 130 122 127 123 126 124 117 74 24 118 0
129 128 130 122 127 123 126 124 28 8 31 1 0
129 128 130 122 127 123 126 124 98 69 100 15 0
129 128 130 122 127 123 126 124 46 35 48 4 0
129 128 130 122 127 123 126 124 88 67 91 12 0
129 128 130 122 127 123 126 124 63 50 64 7 0
129 128 130 122 127 123 126 113 20 72 114 59 0
129 128 130 122 127 123 126 106 19 70 109 57 0
129 128 130 122 127 123 126 117 74 24 118 60 0
129 128 130 122 127 123 126 28 8 31 1 6 0
129 128 130 122 127 123 126 98 69 100 15 55 0
129 128 130 122 127 123 126 46 35 48 4 33 0
129 128 130 122 127 123 126 88 67 91 12 52 0
129 128 130 122 127 123 124 113 20 72 114 85 0
129 128 130 122 127 123 124 106 19 70 109 82 0
129 128 130 122 127 123 124 117 74 24 118 86 0
129 128 130 122 127 123 124 28 8 31 1 13 0
129 128 130 122 127 123 124 98 69 100 15 81 0
129 128 130 122 127 123 124 46 35 48 4 36 0
129 128 130 122 127 123 124 63 50 64 53 7 0
129 128 130 122 127 123 113 20 72 114 85 59 0
129 128 130 122 127 123 106 19 70 109 82 57 0
129 128 130 122 127 123 117 74 24 118 86 60 0
129 128 130 122 127 123 28 8 31 1 13 6 0
129 128 130 122 127 123 98 69 100 15 81 55 0
129 128 130 122 127 123 46 35 48 4 36 33 0
129 128 130 122 127 126 124 113 20 72 114 43 0
129 128 130 122 127 126 124 106 19 70 109 40 0
129 128 130 122 127 126 124 117 74 24 118 45 0
129 128 130 122 127 126 124 28 8 31 1 3 0
129 128 130 122 127 126 124 98 69 100 15 38 0
129 128 130 122 127 126 124 88 67 91 37 12 0
129 128 130 122 127 126 124 63 50 64 32 7 0
129 128 130 122 127 126 113 20 72 114 43 59 0
129 128 130 122 127 126 106 19 70 109 40 57 0
129 128 130 122 127 126 117 74 24 118 45 60 0
129 128 130 122 127 126 28 8 31 1 3 6 0
129 128 130 122 127 126 98 69 100 15 38 55 0
129 128 130 122 127 126 88 67 91 37 12 52 0
129 128 130 122 127 124 113 20 72 114 43 85 0
129 128 130 122 127 124 106 19 70 109 40 82 0
129 128 130 122 127 124 117 74 24 118 45 86 0
129 128 130 122 127 124 28 8 31 1 3 13 0
129 128 130 122 127 124 98 69 100 15 38 81 0
129 128 130 122 127 124 63 50 64 32 53 7 0
129 128 130 122 127 113 20 72 114 43 85 59 0
129 128 130 122 127 106 19 70 109 40 82 57 0
129 128 130 122 127 117 74 24 118 45 86 60 0
129 128 130 122 127 28 8 31 1 3 13 6 0
129 128 130 122 127 98 69 100 15 38 81 55 0
129 128 130 122 123 126 124 113 20 72 114 95 0
129 128 130 122 123 126 124 106 19 70 109 92 0
129 128 130 122 123 126 124 117 74 24 118 97 0
129 128 130 122 123 126 124 28 8 31 1 14 0
129 128 130 122 123 126 124 46 35 48 39 4 0
129 128 130 122 123 126 124 88 67 91 80 12 0
129 128 130 122 123 126 124 63 50 64 54 7 0
129 128 130 122 123 126 113 20 72 114 95 59 0
129 128 130 122 123 126 106 19 70 109 92 57 0
129 128 130 122 123 126 117 74 24 118 97 60 0
129 128 130 122 123 126 28 8 31 1 14 6 0
129 128 130 122 123 126 46 35 48 39 4 33 0
129 128 130 122 123 126 88 67 91 80 12 52 0
129 128 130 122 123 124 113 20 72 114 95 85 0
129 128 130 122 123 124 106 19 70 109 92 82 0
129 128 130 122 123 124 117 74 24 118 97 86 0
129 128 130 122 123 124 28 8 31 1 14 13 0
129 128 130 122 123 124 46 35 48 39 4 36 0
129 128 130 122 123 124 63 50 64 54 53 7 0
129 128 130 122 123 113 20 72 114 95 85 59 0
129 128 130 122 123 106 19 70 109 92 82 57 0
129 128 130 122 123 117 74 24 118 97 86 60 0
129 128 130 122 123 28 8 31 1 14 13 6 0
129 128 130 122 123 46 35 48 39 4 36 33 0
129 128 130 122 126 124 113 20 72 114 95 43 0
129 128 130 122 126 124 106 19 70 109 92 40 0
129 128 130 122 126 124 117 74 24 118 97 45 0
129 128 130 122 126 124 28 8 31 1 14 3 0
129 128 130 122 126 124 88 67 91 80 37 12 0
129 128 130 122 126 124 63 50 64 54 32 7 0
129 128 130 122 126 113 20 72 114 95 43 59 0
129 128 130 122 126 106 19 70 109 92 40 57 0
129 128 130 122 126 117 74 24 118 97 45 60 0
129 128 130 122 126 28 8 31 1 14 3 6 0
129 128 130 122 126 88 67 91 80 37 12 52 0
129 128 130 122 124 113 20 72 114 95 43 85 0
129 128 130 122 124 106 19 70 109 92 40 82 0
129 128 130 122 124 117 74 24 118 97 45 86 0
129 128 130 122 124 28 8 31 1 14 3 13 0
129 128 130 122 124 63 50 64 54 32 53 7 0
129 128 130 122 113 20 72 114 95 43 85 59 0
129 128 130 122 106 19 70 109 92 40 82 57 0
129 128 130 122 117 74 24 118 97 45 86 60 0
129 128 130 122 28 8 31 1 14 3 13 6 0
129 128 130 127 123 126 124 113 20 72 114 22 0
129 128 130 127 123 126 124 106 19 70 109 18 0
129 128 130 127 123 126 124 117 74 24 118 25 0
129 128 130 127 123 126 124 98 69 100 16 15 0
129 128 130 127 123 126 124 46 35 48 2 4 0
129 128 130 127 123 126 124 88 67 91 11 12 0
129 128 130 127 123 126 124 63 50 64 5 7 0
129 128 130 127 123 126 113 20 72 114 22 59 0
129 128 130 127 123 126 106 19 70 109 18 57 0
129 128 130 127 123 126 117 74 24 118 25 60 0
129 128 130 127 123 126 98 69 100 16 15 55 0
129 128 130 127 123 126 46 35 48 2 4 33 0
129 128 130 127 123 126 88 67 91 11 12 52 0
129 128 130 127 123 124 113 20 72 114 22 85 0
129 128 130 127 123 124 106 19 70 109 18 82 0
129 128 130 127 123 124 117 74 24 118 25 86 0
129 128 130 127 123 124 98 69 100 16 15 81 0
129 128 130 127 123 124 46 35 48 2 4 36 0
129 128 130 127 123 124 63 50 64 5 53 7 0
129 128 130 127 123 113 20 72 114 22 85 59 0
129 128 130 127 123 106 19 70 109 18 82 57 0
129 128 130 127 123 117 74 24 118 25 86 60 0
129 128 130 127 123 98 69 100 16 15 81 55 0
129 128 130 127 123 46 35 48 2 4 36 33 0
129 128 130 127 126 124 113 20 72 114 22 43 0
129 128 130 127 126 124 106 19 70 109 18 40 0
129 128 130 127 126 124 117 74 24 118 25 45 0
129 128 130 127 126 124 98 69 100 16 15 38 0
129 128 130 127 126 124 88 67 91 11 37 12 0
129 128 130 127 126 124 63 50 64 5 32 7 0
129 128 130 127 126 113 20 72 114 22 43 59 0
129 128 130 127 126 106 19 70 109 18 40 57 0
129 128 130 127 126 117 74 24 118 25 45 60 0
129 128 130 127 126 98 69 100 16 15 38 55 0
129 128 130 127 126 88 67 91 11 37 12 52 0
129 128 130 127 124 113 20 72 114 22 43 85 0
129 128 130 127 124 106 19 70 109 18 40 82 0
129 128 130 127 124 117 74 24 118 25 45 86 0
129 128 130 127 124 98 69 100 16 15 38 81 0
129 128 130 127 124 63 50 64 5 32 53 7 0
129 128 130 127 113 20 72 114 22 43 85 59 0
129 128 130 127 106 19 70 109 18 40 82 57 0
129 128 130 127 117 74 24 118 25 45 86 60 0
129 128 130 127 98 69 100 16 15 38 81 55 0
129 128 130 123 126 124 113 20 72 114 22 95 0
129 128 130 123 126 124 106 19 70 109 18 92 0
129 128 130 123 126 124 117 74 24 118 25 97 0
129 128 130 123 126 124 46 35 48 2 39 4 0
129 128 130 123 126 124 88 67 91 11 80 12 0
129 128 130 123 126 124 63 50 64 5 54 7 0
129 128 130 123 126 113 20 72 114 22 95 59 0
129 128 130 123 126 106 19 70 109 18 92 57 0
129 128 130 123 126 117 74 24 118 25 97 60 0
129 128 130 123 126 46 35 48 2 39 4 33 0
129 128 130 123 126 88 67 91 11 80 12 52 0
129 128 130 123 124 113 20 72 114 22 95 85 0
129 128 130 123 124 106 19 70 109 18 92 82 0
129 128 130 123 124 117 74 24 118 25 97 86 0
129 128 130 123 124 46 35 48 2 39 4 36 0
129 128 130 123 124 63 50 64 5 54 53 7 0
129 128 130 123 113 20 72 114 22 95 85 59 0
129 128 130 123 106 19 70 109 18 92 82 57 0
129 128 130 123 117 74 24 118 25 97 86 60 0
129 128 130 123 46 35 48 2 39 4 36 33 0
129 128 130 126 124 113 20 72 114 22 95 43 0
129 128 130 126 124 106 19 70 109 18 92 40 0
129 128 130 126 124 117 74 24 118 25 97 45 0
129 128 130 126 124 88 67 91 11 80 37 12 0
129 128 130 126 124 63 50 64 5 54 32 7 0
129 128 130 126 113 20 72 114 22 95 43 59 0
129 128 130 126 106 19 70 109 18 92 40 57 0
129 128 130 126 117 74 24 118 25 97 45 60 0
129 128 130 126 88 67 91 11 80 37 12 52 0
129 128 130 124 113 20 72 114 22 95 43 85 0
129 128 130 124 106 19 70 109 18 92 40 82 0
129 128 130 124 117 74 24 118 25 97 45 86 0
129 128 130 124 63 50 64 5 54 32 53 7 0
129 128 130 113 20 72 114 22 95 43 85 59 0
129 128 130 106 19 70 109 18 92 40 82 57 0
129 128 130 117 74 24 118 25 97 45 86 60 0
129 128 132 122 127 123 126 124 113 20 72 111 0
129 128 132 122 127 123 126 124 106 19 70 105 0
129 128 132 122 127 123 126 124 120 79 119 30 0
129 128 132 122 127 123 126 124 28 8 23 1 0
129 128 132 122 127 123 126 124 98 69 96 15 0
129 128 132 122 127 123 126 124 46 35 44 4 0
129 128 132 122 127 123 126 124 88 67 87 12 0
129 128 132 122 127 123 126 124 63 50 61 7 0
129 128 132 122 127 123 126 113 20 72 111 59 0
129 128 132 122 127 123 126 106 19 70 105 57 0
129 128 132 122 127 123 126 120 79 119 30 65 0
129 128 132 122 127 123 126 28 8 23 1 6 0
129 128 132 122 127 123 126 98 69 96 15 55 0
129 128 132 122 127 123 126 46 35 44 4 33 0
129 128 132 122 127 123 126 88 67 87 12 52 0
129 128 132 122 127 123 124 113 20 72 111 85 0
129 128 132 122 127 123 124 106 19 70 105 82 0
129 128 132 122 127 123 124 120 79 119 30 90 0
129 128 132 122 127 123 124 28 8 23 1 13 0
129 128 132 122 127 123 124 98 69 96 15 81 0
129 128 132 122 127 123 124 46 35 44 4 36 0
129 128 132 122 127 123 124 63 50 61 53 7 0
129 128 132 122 127 123 113 20 72 111 85 59 0
129 128 132 122 127 123 106 19 70 105 82 57 0
129 128 132 122 127 123 120 79 119 30 90 65 0
129 128 132 122 127 123 28 8 23 1 13 6 0
129 128 132 122 127 123 98 69 96 15 81 55 0
129 128 132 122 127 123 46 35 44 4 36 33 0
129 128 132 122 127 126 124 113 20 72 111 43 0
129 128 132 122 127 126 124 106 19 70 105 40 0
129 128 132 122 127 126 124 120 79 119 30 49 0
129 128 132 122 127 126 124 28 8 23 1 3 0
129 128 132 122 127 126 124 98 69 96 15 38 0
129 128 132 122 127 126 124 88 67 87 37 12 0
129 128 132 122 127 126 124 63 50 61 32 7 0
129 128 132 122 127 126 113 20 72 111 43 59 0
129 128 132 122 127 126 106 19 70 105 40 57 0
129 128 132 122 127 126 120 79 119 30 49 65 0
129 128 132 122 127 126 28 8 23 1 3 6 0
129 128 132 122 127 126 98 69 96 15 38 55 0
129 128 132 122 127 126 88 67 87 37 12 52 0
129 128 132 122 127 124 113 20 72 111 43 85 0
129 128 132 122 127 124 106 19 70 105 40 82 0
129 128 132 122 127 124 120 79 119 30 49 90 0
129 128 132 122 127 124 28 8 23 1 3 13 0
129 128 132 122 127 124 98 69 96 15 38 81 0
129 128 132 122 127 124 63 50 61 32 53 7 0
129 128 132 122 127 113 20 72 111 43 85 59 0
129 128 132 122 127 106 19 70 105 40 82 57 0
129 128 132 122 127 120 79 119 30 49 90 65 0
129 128 132 122 127 28 8 23 1 3 13 6 0
129 128 132 122 127 98 69 96 15 38 81 55 0
129 128 132 122 123 126 124 113 20 72 111 95 0
129 128 132 122 123 126 124 106 19 70 105 92 0
129 128 132 122 123 126 124 120 79 119 30 101 0
129 128 132 122 123 126 124 28 8 23 1 14 0
129 128 132 122 123 126 124 46 35 44 39 4 0
129 128 132 122 123 126 124 88 67 87 80 12 0
129 128 132 122 123 126 124 63 50 61 54 7 0
129 128 132 122 123 126 113 20 72 111 95 59 0
129 128 132 122 123 126 106 19 70 105 92 57 0
129 128 132 122 123 126 120 79 119 30 101 65 0
129 128 132 122 123 126 28 8 23 1 14 6 0
129 128 132 122 123 126 46 35 44 39 4 33 0
129 128 132 122 123 126 88 67 87 80 12 52 0
129 128 132 122 123 124 113 20 72 111 95 85 0
129 128 132 122 123 124 106 19 70 105 92 82 0
129 128 132 122 123 124 120 79 119 30 101 90 0
129 128 132 122 123 124 28 8 23 1 14 13 0
129 128 132 122 123 124 46 35 44 39 4 36 0
129 128 132 122 123 124 63 50 61 54 53 7 0
129 128 132 122 123 113 20 72 111 95 85 59 0
129 128 132 122 123 106 19 70 105 92 82 57 0
129 128 132 122 123 120 79 119 30 101 90 65 0
129 128 132 122 123 28 8 23 1 14 13 6 0
129 128 132 122 123 46 35 44 39 4 36 33 0
129 128 132 122 126 124 113 20 72 111 95 43 0
129 128 132 122 126 124 106 19 70 105 92 40 0
129 128 132 122 126 124 120 79 119 30 101 49 0
129 128 132 122 126 124 28 8 23 1 14 3 0
129 128 132 122 126 124 88 67 87 80 37 12 0
129 128 132 122 126 124 63 50 61 54 32 7 0
129 128 132 122 126 113 20 72 111 95 43 59 0
129 128 132 122 126 106 19 70 105 92 40 57 0
129 128 132 122 126 120 79 119 30 101 49 65 0
129 128 132 122 126 28 8 23 1 14 3 6 0
129 128 132 122 126 88 67 87 80 37 12 52 0
129 128 132 122 124 113 20 72 111 95 43 85 0
129 128 132 122 124 106 19 70 105 92 40 82 0
129 128 132 122 124 120 79 119 30 101 49 90 0
129 128 132 122 124 28 8 23 1 14 3 13 0
129 128 132 122 124 63 50 61 54 32 53 7 0
129 128 132 122 113 20 72 111 95 43 85 59 0
129 128 132 122 106 19 70 105 92 40 82 57 0
129 128 132 122 120 79 119 30 101 49 90 65 0
129 128 132 122 28 8 23 1 14 3 13 6 0
129 128 132 127 123 126 124 113 20 72 111 22 0
129 128 132 127 123 126 124 106 19 70 105 18 0
129 128 132 127 123 126 124 120 79 119 30 29 0
129 128 132 127 123 126 124 98 69 96 16 15 0
129 128 132 127 123 126 124 46 35 44 2 4 0
129 128 132 127 123 126 124 88 67 87 11 12 0
129 128 132 127 123 126 124 63 50 61 5 7 0
129 128 132 127 123 126 113 20 72 111 22 59 0
129 128 132 127 123 126 106 19 70 105 18 57 0
129 128 132 127 123 126 120 79 119 30 29 65 0
129 128 132 127 123 126 98 69 96 16 15 55 0
129 128 132 127 123 126 46 35 44 2 4 33 0
129 128 132 127 123 126 88 67 87 11 12 52 0
129 128 132 127 123 124 113 20 72 111 22 85 0
129 128 132 127 123 124 106 19 70 105 18 82 0
129 128 132 127 123 124 120 79 119 30 29 90 0
129 128 132 127 123 124 98 69 96 16 15 81 0
129 128 132 127 123 124 46 35 44 2 4 36 0
129 128 132 127 123 124 63 50 61 5 53 7 0
129 128 132 127 123 113 20 72 111 22 85 59 0
129 128 132 127 123 106 19 70 105 18 82 57 0
129 128 132 127 123 120 79 119 30 29 90 65 0
129 128 132 127 123 98 69 96 16 15 81 55 0
129 128 132 127 123 46 35 44 2 4 36 33 0
129 128 132 127 126 124 113 20 72 111 22 43 0
129 128 132 127 126 124 106 19 70 105 18 40 0
129 128 132 127 126 124 120 79 119 30 29 49 0
129 128 132 127 126 124 98 69 96 16 15 38 0
129 128 132 127 126 124 88 67 87 11 37 12 0
129 128 132 127 126 124 63 50 61 5 32 7 0
129 128 132 127 126 113 20 72 111 22 43 59 0
129 128 132 127 126 106 19 70 105 18 40 57 0
129 128 132 127 126 120 79 119 30 29 49 65 0
129 128 132 127 126 98 69 96 16 15 38 55 0
129 128 132 127 126 88 67 87 11 37 12 52 0
129 128 132 127 124 113 20 72 111 22 43 85 0
129 128 132 127 124 106 19 70 105 18 40 82 0
129 128 132 127 124 120 79 119 30 29 49 90 0
129 128 132 127 124 98 69 96 16 15 38 81 0
129 128 132 127 124 63 50 61 5 32 53 7 0
129 128 132 127 113 20 72 111 22 43 85 59 0
129 128 132 127 106 19 70 105 18 40 82 57 0
129 128 132 127 120 79 119 30 29 49 90 65 0
129 128 132 127 98 69 96 16 15 38 81 55 0
129 128 132 123 126 124 113 20 72 111 22 95 0
129 128 132 123 126 124 106 19 70 105 18 92 0
129 128 132 123 126 124 120 79 119 30 29 101 0
129 128 132 123 126 124 46 35 44 2 39 4 0
129 128 132 123 126 124 88 67 87 11 80 12 0
129 128 132 123 126 124 63 50 61 5 54 7 0
129 128 132 123 126 113 20 72 111 22 95 59 0
129 128 132 123 126 106 19 70 105 18 92 57 0
129 128 132 123 126 120 79 119 30 29 101 65 0
129 128 132 123 126 46 35 44 2 39 4 33 0
129 128 132 123 126 88 67 87 11 80 12 52 0
129 128 132 123 124 113 20 72 111 22 95 85 0
129 128 132 123 124 106 19 70 105 18 92 82 0
129 128 132 123 124 120 79 119 30 29 101 90 0
129 128 132 123 124 46 35 44 2 39 4 36 0
129 128 132 123 124 63 50 61 5 54 53 7 0
129 128 132 123 113 20 72 111 22 95 85 59 0
129 128 132 123 106 19 70 105 18 92 82 57 0
129 128 132 123 120 79 119 30 29 101 90 65 0
129 128 132 123 46 35 44 2 39 4 36 33 0
129 128 132 126 124 113 20 72 111 22 95 43 0
129 128 132 126 124 106 19 70 105 18 92 40 0
129 128 132 126 124 120 79 119 30 29 101 49 0
129 128 132 126 124 88 67 87 11 80 37 12 0
129 128 132 126 124 63 50 61 5 54 32 7 0
129 128 132 126 113 20 72 111 22 95 43 59 0
129 128 132 126 106 19 70 105 18 92 40 57 0
129 128 132 126 120 79 119 30 29 101 49 65 0
129 128 132 126 88 67 87 11 80 37 12 52 0
129 128 132 124 113 20 72 111 22 95 43 85 0
129 128 132 124 106 19 70 105 18 92 40 82 0
129 128 132 124 120 79 119 30 29 101 49 90 0
129 128 132 124 63 50 61 5 54 32 53 7 0
129 128 132 113 20 72 111 22 95 43 85 59 0
129 128 132 106 19 70 105 18 92 40 82 57 0
129 128 132 120 79 119 30 29 101 49 90 65 0
129 128 122 127 123 126 124 113 20 72 111 114 0
129 128 122 127 123 126 124 106 19 70 105 109 0
129 128 122 127 123 126 124 28 8 23 31 1 0
129 128 122 127 123 126 124 98 69 96 100 15 0
129 128 122 127 123 126 124 46 35 44 48 4 0
129 128 122 127 123 126 124 88 67 87 91 12 0
129 128 122 127 123 126 124 63 50 61 64 7 0
129 128 122 127 123 126 113 20 72 111 114 59 0
129 128 122 127 123 126 106 19 70 105 109 57 0
129 128 122 127 123 126 28 8 23 31 1 6 0
129 128 122 127 123 126 98 69 96 100 15 55 0
129 128 122 127 123 126 46 35 44 48 4 33 0
129 128 122 127 123 126 88 67 87 91 12 52 0
129 128 122 127 123 124 113 20 72 111 114 85 0
129 128 122 127 123 124 106 19 70 105 109 82 0
129 128 122 127 123 124 28 8 23 31 1 13 0
129 128 122 127 123 124 98 69 96 100 15 81 0
129 128 122 127 123 124 46 35 44 48 4 36 0
129 128 122 127 123 124 63 50 61 64 53 7 0
129 128 122 127 123 113 20 72 111 114 85 59 0
129 128 122 127 123 106 19 70 105 109 82 57 0
129 128 122 127 123 28 8 23 31 1 13 6 0
129 128 122 127 123 98 69 96 100 15 81 55 0
129 128 122 127 123 46 35 44 48 4 36 33 0
129 128 122 127 126 124 113 20 72 111 114 43 0
129 128 122 127 126 124 106 19 70 105 109 40 0
129 128 122 127 126 124 28 8 23 31 1 3 0
129 128 122 127 126 124 98 69 96 100 15 38 0
129 128 122 127 126 124 88 67 87 91 37 12 0
129 128 122 127 126 124 63 50 61 64 32 7 0
129 128 122 127 126 113 20 72 111 114 43 59 0
129 128 122 127 126 106 19 70 105 109 40 57 0
129 128 122 127 126 28 8 23 31 1 3 6 0
129 128 122 127 126 98 69 96 100 15 38 55 0
129 128 122 127 126 88 67 87 91 37 12 52 0
129 128 122 127 124 113 20 72 111 114 43 85 0
129 128 122 127 124 106 19 70 105 109 40 82 0
129 128 122 127 124 28 8 23 31 1 3 13 0
129 128 122 127 124 98 69 96 100 15 38 81 0
129 128 122 127 124 63 50 61 64 32 53 7 0
129 128 122 127 113 20 72 111 114 43 85 59 0
129 128 122 127 106 19 70 105 109 40 82 57 0
129 128 122 127 28 8 23 31 1 3 13 6 0
129 128 122 127 98 69 96 100 15 38 81 55 0
129 128 122 123 126 124 113 20 72 111 114 95 0
129 128 122 123 126 124 106 19 70 105 109 92 0
129 128 122 123 126 124 28 8 23 31 1 14 0
129 128 122 123 126 124 46 35 44 48 39 4 0
129 128 122 123 126 124 88 67 87 91 80 12 0
129 128 122 123 126 124 63 50 61 64 54 7 0
129 128 122 123 126 113 20 72 111 114 95 59 0
129 128 122 123 126 106 19 70 105 109 92 57 0
129 128 122 123 126 28 8 23 31 1 14 6 0
129 128 122 123 126 46 35 44 48 39 4 33 0
129 128 122 123 126 88 67 87 91 80 12 52 0
129 128 122 123 124 113 20 72 111 114 95 85 0
129 128 122 123 124 106 19 70 105 109 92 82 0
129 128 122 123 124 28 8 23 31 1 14 13 0
129 128 122 123 124 46 35 44 48 39 4 36 0
129 128 122 123 124 63 50 61 64 54 53 7 0
129 128 122 123 113 20 72 111 114 95 85 59 0
129 128 122 123 106 19 70 105 109 92 82 57 0
129 128 122 123 28 8 23 31 1 14 13 6 0
129 128 122 123 46 35 44 48 39 4 36 33 0
129 128 122 126 124 113 20 72 111 114 95 43 0
129 128 122 126 124 106 19 70 105 109 92 40 0
129 128 122 126 124 28 8 23 31 1 14 3 0
129 128 122 126 124 88 67 87 91 80 37 12 0
129 128 122 126 124 63 50 61 64 54 32 7 0
129 128 122 126 113 20 72 111 114 95 43 59 0
129 128 122 126 106 19 70 105 109 92 40 57 0
129 128 122 126 28 8 23 31 1 14 3 6 0
129 128 122 126 88 67 87 91 80 37 12 52 0
129 128 122 124 113 20 72 111 114 95 43 85 0
129 128 122 124 106 19 70 105 109 92 40 82 0
129 128 122 124 28 8 23 31 1 14 3 13 0
129 128 122 124 63 50 61 64 54 32 53 7 0
129 128 122 113 20 72 111 114 95 43 85 59 0
129 128 122 106 19 70 105 109 92 40 82 57 0
129 128 122 28 8 23 31 1 14 3 13 6 0
129 128 127 123 126 124 113 20 72 111 114 22 0
129 128 127 123 126 124 106 19 70 105 109 18 0
129 128 127 123 126 124 98 69 96 100 16 15 0
129 128 127 123 126 124 46 35 44 48 2 4 0
129 128 127 123 126 124 88 67 87 91 11 12 0
129 128 127 123 126 124 63 50 61 64 5 7 0
129 128 127 123 126 113 20 72 111 114 22 59 0
129 128 127 123 126 106 19 70 105 109 18 57 0
129 128 127 123 126 98 69 96 100 16 15 55 0
129 128 127 123 126 46 35 44 48 2 4 33 0
129 128 127 123 126 88 67 87 91 11 12 52 0
129 128 127 123 124 113 20 72 111 114 22 85 0
129 128 127 123 124 106 19 70 105 109 18 82 0
129 128 127 123 124 98 69 96 100 16 15 81 0
129 128 127 123 124 46 35 44 48 2 4 36 0
129 128 127 123 124 63 50 61 64 5 53 7 0
129 128 127 123 113 20 72 111 114 22 85 59 0
129 128 127 123 106 19 70 105 109 18 82 57 0
129 128 127 123 98 69 96 100 16 15 81 55 0
129 128 127 123 46 35 44 48 2 4 36 33 0
129 128 127 126 124 113 20 72 111 114 22 43 0
129 128 127 126 124 106 19 70 105 109 18 40 0
129 128 127 126 124 98 69 96 100 16 15 38 0
129 128 127 126 124 88 67 87 91 11 37 12 0
129 128 127 126 124 63 50 61 64 5 32 7 0
129 128 127 126 113 20 72 111 114 22 43 59 0
129 128 127 126 106 19 70 105 109 18 40 57 0
129 128 127 126 98 69 96 100 16 15 38 55 0
129 128 127 126 88 67 87 91 11 37 12 52 0
129 128 127 124 113 20 72 111 114 22 43 85 0
129 128 127 124 106 19 70 105 109 18 40 82 0
129 128 127 124 98 69 96 100 16 15 38 81 0
129 128 127 124 63 50 61 64 5 32 53 7 0
129 128 127 113 20 72 111 114 22 43 85 59 0
129 128 127 106 19 70 105 109 18 40 82 57 0
129 128 127 98 69 96 100 16 15 38 81 55 0
129 128 123 126 124 113 20 72 111 114 22 95 0
129 128 123 126 124 106 19 70 105 109 18 92 0
129 128 123 126 124 46 35 44 48 2 39 4 0
129 128 123 126 124 88 67 87 91 11 80 12 0
129 128 123 126 124 63 50 61 64 5 54 7 0
129 128 123 126 113 20 72 111 114 22 95 59 0
129 128 123 126 106 19 70 105 109 18 92 57 0
129 128 123 126 46 35 44 48 2 39 4 33 0
129 128 123 126 88 67 87 91 11 80 12 52 0
129 128 123 124 113 20 72 111 114 22 95 85 0
129 128 123 124 106 19 70 105 109 18 92 82 0
129 128 123 124 46 35 44 48 2 39 4 36 0
129 128 123 124 63 50 61 64 5 54 53 7 0
129 128 123 113 20 72 111 114 22 95 85 59 0
129 128 123 106 19 70 105 109 18 92 82 57 0
129 128 123 46 35 44 48 2 39 4 36 33 0
129 128 126 124 113 20 72 111 114 22 95 43 0
129 128 126 124 106 19 70 105 109 18 92 40 0
129 128 126 124 88 67 87 91 11 80 37 12 0
129 128 126 124 63 50 61 64 5 54 32 7 0
129 128 126 113 20 72 111 114 22 95 43 59 0
129 128 126 106 19 70 105 109 18 92 40 57 0
129 128 126 88 67 87 91 11 80 37 12 52 0
129 128 124 113 20 72 111 114 22 95 43 85 0
129 128 124 106 19 70 105 109 18 92 40 82 0
129 128 124 63 50 61 64 5 54 32 53 7 0
129 128 113 20 72 111 114 22 95 43 85 59 0
129 128 106 19 70 105 109 18 92 40 82 57 0
129 125 130 132 122 127 123 126 124 113 20 103 0
129 125 130 132 122 127 123 126 124 77 71 10 0
129 125 130 132 122 127 123 126 124 117 104 24 0
129 125 130 132 122 127 123 126 124 120 108 30 0
129 125 130 132 122 127 123 126 124 28 17 1 0
129 125 130 132 122 127 123 126 124 98 93 15 0
129 125 130 132 122 127 123 126 124 46 41 4 0
129 125 130 132 122 127 123 126 124 88 83 12 0
129 125 130 132 122 127 123 126 124 63 56 7 0
129 125 130 132 122 127 123 126 113 20 103 59 0
129 125 130 132 122 127 123 126 77 71 10 51 0
129 125 130 132 122 127 123 126 117 104 24 60 0
129 125 130 132 122 127 123 126 120 108 30 65 0
129 125 130 132 122 127 123 126 28 17 1 6 0
129 125 130 132 122 127 123 126 98 93 15 55 0
129 125 130 132 122 127 123 126 46 41 4 33 0
129 125 130 132 122 127 123 126 88 83 12 52 0
129 125 130 132 122 127 123 124 113 20 103 85 0
129 125 130 132 122 127 123 124 77 71 10 66 0
129 125 130 132 122 127 123 124 117 104 24 86 0
129 125 130 132 122 127 123 124 120 108 30 90 0
129 125 130 132 122 127 123 124 28 17 1 13 0
129 125 130 132 122 127 123 124 98 93 15 81 0
129 125 130 132 122 127 123 124 46 41 4 36 0
129 125 130 132 122 127 123 124 63 56 53 7 0
129 125 130 132 122 127 123 113 20 103 85 59 0
129 125 130 132 122 127 123 77 71 10 66 51 0
129 125 130 132 122 127 123 117 104 24 86 60 0
129 125 130 132 122 127 123 120 108 30 90 65 0
129 125 130 132 122 127 123 28 17 1 13 6 0
129 125 130 132 122 127 123 98 93 15 81 55 0
129 125 130 132 122 127 123 46 41 4 36 33 0
129 125 130 132 122 127 126 124 113 20 103 43 0
129 125 130 132 122 127 126 124 77 71 10 34 0
129 125 130 132 122 127 126 124 117 104 24 45 0
129 125 130 132 122 127 126 124 120 108 30 49 0
129 125 130 132 122 127 126 124 28 17 1 3 0
129 125 130 132 122 127 126 124 98 93 15 38 0
129 125 130 132 122 127 126 124 88 83 37 12 0
129 125 130 132 122 127 126 124 63 56 32 7 0
129 125 130 132 122 127 126 113 20 103 43 59 0
129 125 130 132 122 127 126 77 71 10 34 51 0
129 125 130 132 122 127 126 117 104 24 45 60 0
129 125 130 132 122 127 126 120 108 30 49 65 0
129 125 130 132 122 127 126 28 17 1 3 6 0
129 125 130 132 122 127 126 98 93 15 38 55 0
129 125 130 132 122 127 126 88 83 37 12 52 0
129 125 130 132 122 127 124 113 20 103 43 85 0
129 125 130 132 122 127 124 77 71 10 34 66 0
129 125 130 132 122 127 124 117 104 24 45 86 0
129 125 130 132 122 127 124 120 108 30 49 90 0
129 125 130 132 122 127 124 28 17 1 3 13 0
129 125 130 132 122 127 124 98 93 15 38 81 0
129 125 130 132 122 127 124 63 56 32 53 7 0
129 125 130 132 122 127 113 20 103 43 85 59 0
129 125 130 132 122 127 77 71 10 34 66 51 0
129 125 130 132 122 127 117 104 24 45 86 60 0
129 125 130 132 122 127 120 108 30 49 90 65 0
129 125 130 132 122 127 28 17 1 3 13 6 0
129 125 130 132 122 127 98 93 15 38 81 55 0
129 125 130 132 122 123 126 124 113 20 103 95 0
129 125 130 132 122 123 126 124 77 71 10 68 0
129 125 130 132 122 123 126 124 117 104 24 97 0
129 125 130 132 122 123 126 124 120 108 30 101 0
129 125 130 132 122 123 126 124 28 17 1 14 0
129 125 130 132 122 123 126 124 46 41 39 4 0
129 125 130 132 122 123 126 124 88 83 80 12 0
129 125 130 132 122 123 126 124 63 56 54 7 0
129 125 130 132 122 123 126 113 20 103 95 59 0
129 125 130 132 122 123 126 77 71 10 68 51 0
129 125 130 132 122 123 126 117 104 24 97 60 0
129 125 130 132 122 123 126 120 108 30 101 65 0
129 125 130 132 122 123 126 28 17 1 14 6 0
129 125 130 132 122 123 126 46 41 39 4 33 0
129 125 130 132 122 123 126 88 83 80 12 52 0
129 125 130 132 122 123 124 113 20 103 95 85 0
129 125 130 132 122 123 124 77 71 10 68 66 0
129 125 130 132 122 123 124 117 104 24 97 86 0
129 125 130 132 122 123 124 120 108 30 101 90 0
129 125 130 132 122 123 124 28 17 1 14 13 0
129 125 130 132 122 123 124 46 41 39 4 36 0
129 125 130 132 122 123 124 63 56 54 53 7 0
129 125 130 132 122 123 113 20 103 95 85 59 0
129 125 130 132 122 123 77 71 10 68 66 51 0
129 125 130 132 122 123 117 104 24 97 86 60 0
129 125 130 132 122 123 120 108 30 101 90 65 0
129 125 130 132 122 123 28 17 1 14 13 6 0
129 125 130 132 122 123 46 41 39 4 36 33 0
129 125 130 132 122 126 124 113 20 103 95 43 0
129 125 130 132 122 126 124 77 71 10 68 34 0
129 125 130 132 122 126 124 117 104 24 97 45 0
129 125 130 132 122 126 124 120 108 30 101 49 0
129 125 130 132 122 126 124 28 17 1 14 3 0
129 125 130 132 122 126 124 88 83 80 37 12 0
129 125 130 132 122 126 124 63 56 54 32 7 0
129 125 130 132 122 126 113 20 103 95 43 59 0
129 125 130 132 122 126 77 71 10 68 34 51 0
129 125 130 132 122 126 117 104 24 97 45 60 0
129 125 130 132 122 126 120 108 30 101 49 65 0
129 125 130 132 122 126 28 17 1 14 3 6 0
129 125 130 132 122 126 88 83 80 37 12 52 0
129 125 130 132 122 124 113 20 103 95 43 85 0
129 125 130 132 122 124 77 71 10 68 34 66 0
129 125 130 132 122 124 117 104 24 97 45 86 0
129 125 130 132 122 124 120 108 30 101 49 90 0
129 125 130 132 122 124 28 17 1 14 3 13 0
129 125 130 132 122 124 63 56 54 32 53 7 0
129 125 130 132 122 113 20 103 95 43 85 59 0
129 125 130 132 122 77 71 10 68 34 66 51 0
129 125 130 132 122 117 104 24 97 45 86 60 0
129 125 130 132 122 120 108 30 101 49 90 65 0
129 125 130 132 122 28 17 1 14 3 13 6 0
129 125 130 132 127 123 126 124 113 20 103 22 0
129 125 130 132 127 123 126 124 77 71 10 9 0
129 125 130 132 127 123 126 124 117 104 24 25 0
129 125 130 132 127 123 126 124 120 108 30 29 0
129 125 130 132 127 123 126 124 98 93 16 15 0
129 125 130 132 127 123 126 124 46 41 2 4 0
129 125 130 132 127 123 126 124 88 83 11 12 0
129 125 130 132 127 123 126 124 63 56 5 7 0
129 125 130 132 127 123 126 113 20 103 22 59 0
129 125 130 132 127 123 126 77 71 10 9 51 0
129 125 130 132 127 123 126 117 104 24 25 60 0
129 125 130 132 127 123 126 120 108 30 29 65 0
129 125 130 132 127 123 126 98 93 16 15 55 0
129 125 130 132 127 123 126 46 41 2 4 33 0
129 125 130 132 127 123 126 88 83 11 12 52 0
129 125 130 132 127 123 124 113 20 103 22 85 0
129 125 130 132 127 123 124 77 71 10 9 66 0
129 125 130 132 127 123 124 117 104 24 25 86 0
129 125 130 132 127 123 124 120 108 30 29 90 0
129 125 130 132 127 123 124 98 93 16 15 81 0
129 125 130 132 127 123 124 46 41 2 4 36 0
129 125 130 132 127 123 124 63 56 5 53 7 0
129 125 130 132 127 123 113 20 103 22 85 59 0
129 125 130 132 127 123 77 71 10 9 66 51 0
129 125 130 132 127 123 117 104 24 25 86 60 0
129 125 130 132 127 123 120 108 30 29 90 65 0
129 125 130 132 127 123 98 93 16 15 81 55 0
129 125 130 132 127 123 46 41 2 4 36 33 0
129 125 130 132 127 126 124 113 20 103 22 43 0
129 125 130 132 127 126 124 77 71 10 9 34 0
129 125 130 132 127 126 124 117 104 24 25 45 0
129 125 130 132 127 126 124 120 108 30 29 49 0
129 125 130 132 127 126 124 98 93 16 15 38 0
129 125 130 132 127 126 124 88 83 11 37 12 0
129 125 130 132 127 126 124 63 56 5 32 7 0
129 125 130 132 127 126 113 20 103 22 43 59 0
129 125 130 132 127 126 77 71 10 9 34 51 0
129 125 130 132 127 126 117 104 24 25 45 60 0
129 125 130 132 127 126 120 108 30 29 49 65 0
129 125 130 132 127 126 98 93 16 15 38 55 0
129 125 130 132 127 126 88 83 11 37 12 52 0
129 125 130 132 127 124 113 20 103 22 43 85 0
129 125 130 132 127 124 77 71 10 9 34 66 0
129 125 130 132 127 124 117 104 24 25 45 86 0
129 125 130 132 127 124 120 108 30 29 49 90 0
129 125 130 132 127 124 98 93 16 15 38 81 0
129 125 130 132 127 124 63 56 5 32 53 7 0
129 125 130 132 127 113 20 103 22 43 85 59 0
129 125 130 132 127 77 71 10 9 34 66 51 0
129 125 130 132 127 117 104 24 25 45 86 60 0
129 125 130 132 127 120 108 30 29 49 90 65 0
129 125 130 132 127 98 93 16 15 38 81 55 0
129 125 130 132 123 126 124 113 20 103 22 95 0
129 125 130 132 123 126 124 77 71 10 9 68 0
129 125 130 132 123 126 124 117 104 24 25 97 0
129 125 130 132 123 126 124 120 108 30 29 101 0
129 125 130 132 123 126 124 46 41 2 39 4 0
129 125 130 132 123 126 124 88 83 11 80 12 0
129 125 130 132 123 126 124 63 56 5 54 7 0
129 125 130 132 123 126 113 20 103 22 95 59 0
129 125 130 132 123 126 77 71 10 9 68 51 0
129 125 130 132 123 126 117 104 24 25 97 60 0
129 125 130 132 123 126 120 108 30 29 101 65 0
129 125 130 132 123 126 46 41 2 39 4 33 0
129 125 130 132 123 126 88 83 11 80 12 52 0
129 125 130 132 123 124 113 20 103 22 95 85 0
129 125 130 132 123 124 77 71 10 9 68 66 0
129 125 130 132 123 124 117 104 24 25 97 86 0
129 125 130 132 123 124 120 108 30 29 101 90 0
129 125 130 132 123 124 46 41 2 39 4 36 0
129 125 130 132 123 124 63 56 5 54 53 7 0
129 125 130 132 123 113 20 103 22 95 85 59 0
129 125 130 132 123 77 71 10 9 68 66 51 0
129 125 130 132 123 117 104 24 25 97 86 60 0
129 125 130 132 123 120 108 30 29 101 90 65 0
129 125 130 132 123 46 41 2 39 4 36 33 0
129 125 130 132 126 124 113 20 103 22 95 43 0
129 125 130 132 126 124 77 71 10 9 68 34 0
129 125 130 132 126 124 117 104 24 25 97 45 0
129 125 130 132 126 124 120 108 30 29 101 49 0
129 125 130 132 126 124 88 83 11 80 37 12 0
129 125 130 132 126 124 63 56 5 54 32 7 0
129 125 130 132 126 113 20 103 22 95 43 59 0
129 125 130 132 126 77 71 10 9 68 34 51 0
129 125 130 132 126 117 104 24 25 97 45 60 0
129 125 130 132 126 120 108 30 29 101 49 65 0
129 125 130 132 126 88 83 11 80 37 12 52 0
129 125 130 132 124 113 20 103 22 95 43 85 0
129 125 130 132 124 77 71 10 9 68 34 66 0
129 125 130 132 124 117 104 24 25 97 45 86 0
129 125 130 132 124 120 108 30 29 101 49 90 0
129 125 130 132 124 63 56 5 54 32 53 7 0
129 125 130 132 113 20 103 22 95 43 85 59 0
129 125 130 132 77 71 10 9 68 34 66 51 0
129 125 130 132 117 104 24 25 97 45 86 60 0
129 125 130 132 120 108 30 29 101 49 90 65 0
129 125 130 122 127 123 126 124 113 20 103 114 0
129 125 130 122 127 123 126 124 77 71 10 78 0
129 125 130 122 127 123 126 124 117 104 24 118 0
129 125 130 122 127 123 126 124 28 17 31 1 0
129 125 130 122 127 123 126 124 98 93 100 15 0
129 125 130 122 127 123 126 124 46 41 48 4 0
129 125 130 122 127 123 126 124 88 83 91 12 0
129 125 130 122 127 123 126 124 63 56 64 7 0
129 125 130 122 127 123 126 113 20 103 114 59 0
129 125 130 122 127 123 126 77 71 10 78 51 0
129 125 130 122 127 123 126 117 104 24 118 60 0
129 125 130 122 127 123 126 28 17 31 1 6 0
129 125 130 122 127 123 126 98 93 100 15 55 0
129 125 130 122 127 123 126 46 41 48 4 33 0
129 125 130 122 127 123 126 88 83 91 12 52 0
129 125 130 122 127 123 124 113 20 103 114 85 0
129 125 130 122 127 123 124 77 71 10 78 66 0
129 125 130 122 127 123 124 117 104 24 118 86 0
129 125 130 122 127 123 124 28 17 31 1 13 0
129 125 130 122 127 123 124 98 93 100 15 81 0
129 125 130 122 127 123 124 46 41 48 4 36 0
129 125 130 122 127 123 124 63 56 64 53 7 0
129 125 130 122 127 123 113 20 103 114 85 59 0
129 125 130 122 127 123 77 71 10 78 66 51 0
129 125 130 122 127 123 117 104 24 118 86 60 0
129 125 130 122 127 123 28 17 31 1 13 6 0
129 125 130 122 127 123 98 93 100 15 81 55 0
129 125 130 122 127 123 46 41 48 4 36 33 0
129 125 130 122 127 126 124 113 20 103 114 43 0
129 125 130 122 127 126 124 77 71 10 78 34 0
129 125 130 122 127 126 124 117 104 24 118 45 0
129 125 130 122 127 126 124 28 17 31 1 3 0
129 125 130 122 127 126 124 98 93 100 15 38 0
129 125 130 122 127 126 124 88 83 91 37 12 0
129 125 130 122 127 126 124 63 56 64 32 7 0
129 125 130 122 127 126 113 20 103 114 43 59 0
129 125 130 122 127 126 77 71 10 78 34 51 0
129 125 130 122 127 126 117 104 24 118 45 60 0
129 125 130 122 127 126 28 17 31 1 3 6 0
129 125 130 122 127 126 98 93 100 15 38 55 0
129 125 130 122 127 126 88 83 91 37 12 52 0
129 125 130 122 127 124 113 20 103 114 43 85 0
129 125 130 122 127 124 77 71 10 78 34 66 0
129 125 130 122 127 124 117 104 24 118 45 86 0
129 125 130 122 127 124 28 17 31 1 3 13 0
129 125 130 122 127 124 98 93 100 15 38 81 0
129 125 130 122 127 124 63 56 64 32 53 7 0
129 125 130 122 127 113 20 103 114 43 85 59 0
129 125 130 122 127 77 71 10 78 34 66 51 0
129 125 130 122 127 117 104 24 118 45 86 60 0
129 125 130 122 127 28 17 31 1 3 13 6 0
129 125 130 122 127 98 93 100 15 38 81 55 0
129 125 130 122 123 126 124 113 20 103 114 95 0
129 125 130 122 123 126 124 77 71 10 78 68 0
129 125 130 122 123 126 124 117 104 24 118 97 0
129 125 130 122 123 126 124 28 17 31 1 14 0
129 125 130 122 123 126 124 46 41 48 39 4 0
129 125 130 122 123 126 124 88 83 91 80 12 0
129 125 130 122 123 126 124 63 56 64 54 7 0
129 125 130 122 123 126 113 20 103 114 95 59 0
129 125 130 122 123 126 77 71 10 78 68 51 0
129 125 130 122 123 126 117 104 24 118 97 60 0
129 125 130 122 123 126 28 17 31 1 14 6 0
129 125 130 122 123 126 46 41 48 39 4 33 0
129 125 130 122 123 126 88 83 91 80 12 52 0
129 125 130 122 123 124 113 20 103 114 95 85 0
129 125 130 122 123 124 77 71 10 78 68 66 0
129 125 130 122 123 124 117 104 24 118 97 86 0
129 125 130 122 123 124 28 17 31 1 14 13 0
129 125 130 122 123 124 46 41 48 39 4 36 0
129 125 130 122 123 124 63 56 64 54 53 7 0
129 125 130 122 123 113 20 103 114 95 85 59 0
129 125 130 122 123 77 71 10 78 68 66 51 0
129 125 130 122 123 117 104 24 118 97 86 60 0
129 125 130 122 123 28 17 31 1 14 13 6 0
129 125 130 122 123 46 41 48 39 4 36 33 0
129 125 130 122 126 124 113 20 103 114 95 43 0
129 125 130 122 126 124 77 71 10 78 68 34 0
129 125 130 122 126 124 117 104 24 118 97 45 0
129 125 130 122 126 124 28 17 31 1 14 3 0
129 125 130 122 126 124 88 83 91 80 37 12 0
129 125 130 122 126 124 63 56 64 54 32 7 0
129 125 130 122 126 113 20 103 114 95 43 59 0
129 125 130 122 126 77 71 10 78 68 34 51 0
129 125 130 122 126 117 104 24 118 97 45 60 0
129 125 130 122 126 28 17 31 1 14 3 6 0
129 125 130 122 126 88 83 91 80 37 12 52 0
129 125 130 122 124 113 20 103 114 95 43 85 0
129 125 130 122 124 77 71 10 78 68 34 66 0
129 125 130 122 124 117 104 24 118 97 45 86 0
129 125 130 122 124 28 17 31 1 14 3 13 0
129 125 130 122 124 63 56 64 54 32 53 7 0
129 125 130 122 113 20 103 114 95 43 85 59 0
129 125 130 122 77 71 10 78 68 34 66 51 0
129 125 130 122 117 104 24 118 97 45 86 60 0
129 125 130 122 28 17 31 1 14 3 13 6 0
129 125 130 127 123 126 124 113 20 103 114 22 0
129 125 130 127 123 126 124 77 71 10 78 9 0
129 125 130 127 123 126 124 117 104 24 118 25 0
129 125 130 127 123 126 124 98 93 100 16 15 0
129 125 130 127 123 126 124 46 41 48 2 4 0
129 125 130 127 123 126 124 88 83 91 11 12 0
129 125 130 127 123 126 124 63 56 64 5 7 0
129 125 130 127 123 126 113 20 103 114 22 59 0
129 125 130 127 123 126 77 71 10 78 9 51 0
129 125 130 127 123 126 117 104 24 118 25 60 0
129 125 130 127 123 126 98 93 100 16 15 55 0
129 125 130 127 123 126 46 41 48 2 4 33 0
129 125 130 127 123 126 88 83 91 11 12 52 0
129 125 130 127 123 124 113 20 103 114 22 85 0
129 125 130 127 123 124 77 71 10 78 9 66 0
129 125 130 127 123 124 117 104 24 118 25 86 0
129 125 130 127 123 124 98 93 100 16 15 81 0
129 125 130 127 123 124 46 41 48 2 4 36 0
129 125 130 127 123 124 63 56 64 5 53 7 0
129 125 130 127 123 113 20 103 114 22 85 59 0
129 125 130 127 123 77 71 10 78 9 66 51 0
129 125 130 127 123 117 104 24 118 25 86 60 0
129 125 130 127 123 98 93 100 16 15 81 55 0
129 125 130 127 123 46 41 48 2 4 36 33 0
129 125 130 127 126 124 113 20 103 114 22 43 0
129 125 130 127 126 124 77 71 10 78 9 34 0
129 125 130 127 126 124 117 104 24 118 25 45 0
129 125 130 127 126 124 98 93 100 16 15 38 0
129 125 130 127 126 124 88 83 91 11 37 12 0
129 125 130 127 126 124 63 56 64 5 32 7 0
129 125 130 127 126 113 20 103 114 22 43 59 0
129 125 130 127 126 77 71 10 78 9 34 51 0
129 125 130 127 126 117 104 24 118 25 45 60 0
129 125 130 127 126 98 93 100 16 15 38 55 0
129 125 130 127 126 88 83 91 11 37 12 52 0
129 125 130 127 124 113 20 103 114 22 43 85 0
129 125 130 127 124 77 71 10 78 9 34 66 0
129 125 130 127 124 117 104 24 118 25 45 86 0
129 125 130 127 124 98 93 100 16 15 38 81 0
129 125 130 127 124 63 56 64 5 32 53 7 0
129 125 130 127 113 20 103 114 22 43 85 59 0
129 125 130 127 77 71 10 78 9 34 66 51 0
129 125 130 127 117 104 24 118 25 45 86 60 0
129 125 130 127 98 93 100 16 15 38 81 55 0
129 125 130 123 126 124 113 20 103 114 22 95 0
129 125 130 123 126 124 77 71 10 78 9 68 0
129 125 130 123 126 124 117 104 24 118 25 97 0
129 125 130 123 126 124 46 41 48 2 39 4 0
129 125 130 123 126 124 88 83 91 11 80 12 0
129 125 130 123 126 124 63 56 64 5 54 7 0
129 125 130 123 126 113 20 103 114 22 95 59 0
129 125 130 123 126 77 71 10 78 9 68 51 0
129 125 130 123 126 117 104 24 118 25 97 60 0
129 125 130 123 126 46 41 48 2 39 4 33 0
129 125 130 123 126 88 83 91 11 80 12 52 0
129 125 130 123 124 113 20 103 114 22 95 85 0
129 125 130 123 124 77 71 10 78 9 68 66 0
129 125 130 123 124 117 104 24 118 25 97 86 0
129 125 130 123 124 46 41 48 2 39 4 36 0
129 125 130 123 124 63 56 64 5 54 53 7 0
129 125 130 123 113 20 103 114 22 95 85 59 0
129 125 130 123 77 71 10 78 9 68 66 51 0
129 125 130 123 117 104 24 118 25 97 86 60 0
129 125 130 123 46 41 48 2 39 4 36 33 0
129 125 130 126 124 113 20 103 114 22 95 43 0
129 125 130 126 124 77 71 10 78 9 68 34 0
129 125 130 126 124 117 104 24 118 25 97 45 0
129 125 130 126 124 88 83 91 11 80 37 12 0
129 125 130 126 124 63 56 64 5 54 32 7 0
129 125 130 126 113 20 103 114 22 95 43 59 0
129 125 130 126 77 71 10 78 9 68 34 51 0
129 125 130 126 117 104 24 118 25 97 45 60 0
129 125 130 126 88 83 91 11 80 37 12 52 0
129 125 130 124 113 20 103 114 22 95 43 85 0
129 125 130 124 77 71 10 78 9 68 34 66 0
129 125 130 124 117 104 24 118 25 97 45 86 0
129 125 130 124 63 56 64 5 54 32 53 7 0
129 125 130 113 20 103 114 22 95 43 85 59 0
129 125 130 77 71 10 78 9 68 34 66 51 0
129 125 130 117 104 24 118 25 97 45 86 60 0
129 125 132 122 127 123 126 124 113 20 103 111 0
129 125 132 122 127 123 126 124 77 71 10 75 0
129 125 132 122 127 123 126 124 120 108 119 30 0
129 125 132 122 127 123 126 124 28 17 23 1 0
129 125 132 122 127 123 126 124 98 93 96 15 0
129 125 132 122 127 123 126 124 46 41 44 4 0
129 125 132 122 127 123 126 124 88 83 87 12 0
129 125 132 122 127 123 126 124 63 56 61 7 0
129 125 132 122 127 123 126 113 20 103 111 59 0
129 125 132 122 127 123 126 77 71 10 75 51 0
129 125 132 122 127 123 126 120 108 119 30 65 0
129 125 132 122 127 123 126 28 17 23 1 6 0
129 125 132 122 127 123 126 98 93 96 15 55 0
129 125 132 122 127 123 126 46 41 44 4 33 0
129 125 132 122 127 123 126 88 83 87 12 52 0
129 125 132 122 127 123 124 113 20 103 111 85 0
129 125 132 122 127 123 124 77 71 10 75 66 0
129 125 132 122 127 123 124 120 108 119 30 90 0
129 125 132 122 127 123 124 28 17 23 1 13 0
129 125 132 122 127 123 124 98 93 96 15 81 0
129 125 132 122 127 123 124 46 41 44 4 36 0
129 125 132 122 127 123 124 63 56 61 53 7 0
129 125 132 122 127 123 113 20 103 111 85 59 0
129 125 132 122 127 123 77 71 10 75 66 51 0
129 125 132 122 127 123 120 108 119 30 90 65 0
129 125 132 122 127 123 28 17 23 1 13 6 0
129 125 132 122 127 123 98 93 96 15 81 55 0
129 125 132 122 127 123 46 41 44 4 36 33 0
129 125 132 122 127 126 124 113 20 103 111 43 0
129 125 132 122 127 126 124 77 71 10 75 34 0
129 125 132 122 127 126 124 120 108 119 30 49 0
129 125 132 122 127 126 124 28 17 23 1 3 0
129 125 132 122 127 126 124 98 93 96 15 38 0
129 125 132 122 127 126 124 88 83 87 37 12 0
129 125 132 122 127 126 124 63 56 61 32 7 0
129 125 132 122 127 126 113 20 103 111 43 59 0
129 125 132 122 127 126 77 71 10 75 34 51 0
129 125 132 122 127 126 120 108 119 30 49 65 0
129 125 132 122 127 126 28 17 23 1 3 6 0
129 125 132 122 127 126 98 93 96 15 38 55 0
129 125 132 122 127 126 88 83 87 37 12 52 0
129 125 132 122 127 124 113 20 103 111 43 85 0
129 125 132 122 127 124 77 71 10 75 34 66 0
129 125 132 122 127 124 120 108 119 30 49 90 0
129 125 132 122 127 124 28 17 23 1 3 13 0
129 125 132 122 127 124 98 93 96 15 38 81 0
129 125 132 122 127 124 63 56 61 32 53 7 0
129 125 132 122 127 113 20 103 111 43 85 59 0
129 125 132 122 127 77 71 10 75 34 66 51 0
129 125 132 122 127 120 108 119 30 49 90 65 0
129 125 132 122 127 28 17 23 1 3 13 6 0
129 125 132 122 127 98 93 96 15 38 81 55 0
129 125 132 122 123 126 124 113 20 103 111 95 0
129 125 132 122 123 126 124 77 71 10 75 68 0
129 125 132 122 123 126 124 120 108 119 30 101 0
129 125 132 122 123 126 124 28 17 23 1 14 0
129 125 132 122 123 126 124 46 41 44 39 4 0
129 125 132 122 123 126 124 88 83 87 80 12 0
129 125 132 122 123 126 124 63 56 61 54 7 0
129 125 132 122 123 126 113 20 103 111 95 59 0
129 125 132 122 123 126 77 71 10 75 68 51 0
129 125 132 122 123 126 120 108 119 30 101 65 0
129 125 132 122 123 126 28 17 23 1 14 6 0
129 125 132 122 123 126 46 41 44 39 4 33 0
129 125 132 122 123 126 88 83 87 80 12 52 0
129 125 132 122 123 124 113 20 103 111 95 85 0
129 125 132 122 123 124 77 71 10 75 68 66 0
129 125 132 122 123 124 120 108 119 30 101 90 0
129 125 132 122 123 124 28 17 23 1 14 13 0
129 125 132 122 123 124 46 41 44 39 4 36 0
129 125 132 122 123 124 63 56 61 54 53 7 0
129 125 132 122 123 113 20 103 111 95 85 59 0
129 125 132 122 123 77 71 10 75 68 66 51 0
129 125 132 122 123 120 108 119 30 101 90 65 0
129 125 132 122 123 28 17 23 1 14 13 6 0
129 125 132 122 123 46 41 44 39 4 36 33 0
129 125 132 122 126 124 113 20 103 111 95 43 0
129 125 132 122 126 124 77 71 10 75 68 34 0
129 125 132 122 126 124 120 108 119 30 101 49 0
129 125 132 122 126 124 28 17 23 1 14 3 0
129 125 132 122 126 124 88 83 87 80 37 12 0
129 125 132 122 126 124 63 56 61 54 32 7 0
129 125 132 122 126 113 20 103 111 95 43 59 0
129 125 132 122 126 77 71 10 75 68 34 51 0
129 125 132 122 126 120 108 119 30 101 49 65 0
129 125 132 122 126 28 17 23 1 14 3 6 0
129 125 132 122 126 88 83 87 80 37 12 52 0
129 125 132 122 124 113 20 103 111 95 43 85 0
129 125 132 122 124 77 71 10 75 68 34 66 0
129 125 132 122 124 120 108 119 30 101 49 90 0
129 125 132 122 124 28 17 23 1 14 3 13 0
129 125 132 122 124 63 56 61 54 32 53 7 0
129 125 132 122 113 20 103 111 95 43 85 59 0
129 125 132 122 77 71 10 75 68 34 66 51 0
129 125 132 122 120 108 119 30 101 49 90 65 0
129 125 132 122 28 17 23 1 14 3 13 6 0
129 125 132 127 123 126 124 113 20 103 111 22 0
129 125 132 127 123 126 124 77 71 10 75 9 0
129 125 132 127 123 126 124 120 108 119 30 29 0
129 125 132 127 123 126 124 98 93 96 16 15 0
129 125 132 127 123 126 124 46 41 44 2 4 0
129 125 132 127 123 126 124 88 83 87 11 12 0
129 125 132 127 123 126 124 63 56 61 5 7 0
129 125 132 127 123 126 113 20 103 111 22 59 0
129 125 132 127 123 126 77 71 10 75 9 51 0
129 125 132 127 123 126 120 108 119 30 29 65 0
129 125 132 127 123 126 98 93 96 16 15 55 0
129 125 132 127 123 126 46 41 44 2 4 33 0
129 125 132 127 123 126 88 83 87 11 12 52 0
129 125 132 127 123 124 113 20 103 111 22 85 0
129 125 132 127 123 124 77 71 10 75 9 66 0
129 125 132 127 123 124 120 108 119 30 29 90 0
129 125 132 127 123 124 98 93 96 16 15 81 0
129 125 132 127 123 124 46 41 44 2 4 36 0
129 125 132 127 123 124 63 56 61 5 53 7 0
129 125 132 127 123 113 20 103 111 22 85 59 0
129 125 132 127 123 77 71 10 75 9 66 51 0
129 125 132 127 123 120 108 119 30 29 90 65 0
129 125 132 127 123 98 93 96 16 15 81 55 0
129 125 132 127 123 46 41 44 2 4 36 33 0
129 125 132 127 126 124 113 20 103 111 22 43 0
129 125 132 127 126 124 77 71 10 75 9 34 0
129 125 132 127 126 124 120 108 119 30 29 49 0
129 125 132 127 126 124 98 93 96 16 15 38 0
129 125 132 127 126 124 88 83 87 11 37 12 0
129 125 132 127 126 124 63 56 61 5 32 7 0
129 125 132 127 126 113 20 103 111 22 43 59 0
129 125 132 127 126 77 71 10 75 9 34 51 0
129 125 132 127 126 120 108 119 30 29 49 65 0
129 125 132 127 126 98 93 96 16 15 38 55 0
129 125 132 127 126 88 83 87 11 37 12 52 0
129 125 132 127 124 113 20 103 111 22 43 85 0
129 125 132 127 124 77 71 10 75 9 34 66 0
129 125 132 127 124 120 108 119 30 29 49 90 0
129 125 132 127 124 98 93 96 16 15 38 81 0
129 125 132 127 124 63 56 61 5 32 53 7 0
129 125 132 127 113 20 103 111 22 43 85 59 0
129 125 132 127 77 71 10 75 9 34 66 51 0
129 125 132 127 120 108 119 30 29 49 90 65 0
129 125 132 127 98 93 96 16 15 38 81 55 0
129 125 132 123 126 124 113 20 103 111 22 95 0
129 125 132 123 126 124 77 71 10 75 9 68 0
129 125 132 123 126 124 120 108 119 30 29 101 0
129 125 132 123 126 124 46 41 44 2 39 4 0
129 125 132 123 126 124 88 83 87 11 80 12 0
129 125 132 123 126 124 63 56 61 5 54 7 0
129 125 132 123 126 113 20 103 111 22 95 59 0
129 125 132 123 126 77 71 10 75 9 68 51 0
129 125 132 123 126 120 108 119 30 29 101 65 0
129 125 132 123 126 46 41 44 2 39 4 33 0
129 125 132 123 126 88 83 87 11 80 12 52 0
129 125 132 123 124 113 20 103 111 22 95 85 0
129 125 132 123 124 77 71 10 75 9 68 66 0
129 125 132 123 124 120 108 119 30 29 101 90 0
129 125 132 123 124 46 41 44 2 39 4 36 0
129 125 132 123 124 63 56 61 5 54 53 7 0
129 125 132 123 113 20 103 111 22 95 85 59 0
129 125 132 123 77 71 10 75 9 68 66 51 0
129 125 132 123 120 108 119 30 29 101 90 65 0
129 125 132 123 46 41 44 2 39 4 36 33 0
129 125 132 126 124 113 20 103 111 22 95 43 0
129 125 132 126 124 77 71 10 75 9 68 34 0
129 125 132 126 124 120 108 119 30 29 101 49 0
129 125 132 126 124 88 83 87 11 80 37 12 0
129 125 132 126 124 63 56 61 5 54 32 7 0
129 125 132 126 113 20 103 111 22 95 43 59 0
129 125 132 126 77 71 10 75 9 68 34 51 0
129 125 132 126 120 108 119 30 29 101 49 65 0
129 125 132 126 88 83 87 11 80 37 12 52 0
129 125 132 124 113 20 103 111 22 95 43 85 0
129 125 132 124 77 71 10 75 9 68 34 66 0
129 125 132 124 120 108 119 30 29 101 49 90 0
129 125 132 124 63 56 61 5 54 32 53 7 0
129 125 132 113 20 103 111 22 95 43 85 59 0
129 125 132 77 71 10 75 9 68 34 66 51 0
129 125 132 120 108 119 30 29 101 49 90 65 0
129 125 122 127 123 126 124 113 20 103 111 114 0
129 125 122 127 123 126 124 77 71 10 75 78 0
129 125 122 127 123 126 124 28 17 23 31 1 0
129 125 122 127 123 126 124 98 93 96 100 15 0
129 125 122 127 123 126 124 46 41 44 48 4 0
129 125 122 127 123 126 124 88 83 87 91 12 0
129 125 122 127 123 126 124 63 56 61 64 7 0
129 125 122 127 123 126 113 20 103 111 114 59 0
129 125 122 127 123 126 77 71 10 75 78 51 0
129 125 122 127 123 126 28 17 23 31 1 6 0
129 125 122 127 123 126 98 93 96 100 15 55 0
129 125 122 127 123 126 46 41 44 48 4 33 0
129 125 122 127 123 126 88 83 87 91 12 52 0
129 125 122 127 123 124 113 20 103 111 114 85 0
129 125 122 127 123 124 77 71 10 75 78 66 0
129 125 122 127 123 124 28 17 23 31 1 13 0
129 125 122 127 123 124 98 93 96 100 15 81 0
129 125 122 127 123 124 46 41 44 48 4 36 0
129 125 122 127 123 124 63 56 61 64 53 7 0
129 125 122 127 123 113 20 103 111 114 85 59 0
129 125 122 127 123 77 71 10 75 78 66 51 0
129 125 122 127 123 28 17 23 31 1 13 6 0
129 125 122 127 123 98 93 96 100 15 81 55 0
129 125 122 127 123 46 41 44 48 4 36 33 0
129 125 122 127 126 124 113 20 103 111 114 43 0
129 125 122 127 126 124 77 71 10 75 78 34 0
129 125 122 127 126 124 28 17 23 31 1 3 0
129 125 122 127 126 124 98 93 96 100 15 38 0
129 125 122 127 126 124 88 83 87 91 37 12 0
129 125 122 127 126 124 63 56 61 64 32 7 0
129 125 122 127 126 113 20 103 111 114 43 59 0
129 125 122 127 126 77 71 10 75 78 34 51 0
129 125 122 127 126 28 17 23 31 1 3 6 0
129 125 122 127 126 98 93 96 100 15 38 55 0
129 125 122 127 126 88 83 87 91 37 12 52 0
129 125 122 127 124 113 20 103 111 114 43 85 0
129 125 122 127 124 77 71 10 75 78 34 66 0
129 125 122 127 124 28 17 23 31 1 3 13 0
129 125 122 127 124 98 93 96 100 15 38 81 0
129 125 122 127 124 63 56 61 64 32 53 7 0
129 125 122 127 113 20 103 111 114 43 85 59 0
129 125 122 127 77 71 10 75 78 34 66 51 0
129 125 122 127 28 17 23 31 1 3 13 6 0
129 125 122 127 98 93 96 100 15 38 81 55 0
129 125 122 123 126 124 113 20 103 111 114 95 0
129 125 122 123 126 124 77 71 10 75 78 68 0
129 125 122 123 126 124 28 17 23 31 1 14 0
129 125 122 123 126 124 46 41 44 48 39 4 0
129 125 122 123 126 124 88 83 87 91 80 12 0
129 125 122 123 126 124 63 56 61 64 54 7 0
129 125 122 123 126 113 20 103 111 114 95 59 0
129 125 122 123 126 77 71 10 75 78 68 51 0
129 125 122 123 126 28 17 23 31 1 14 6 0
129 125 122 123 126 46 41 44 48 39 4 33 0
129 125 122 123 126 88 83 87 91 80 12 52 0
129 125 122 123 124 113 20 103 111 114 95 85 0
129 125 122 123 124 77 71 10 75 78 68 66 0
129 125 122 123 124 28 17 23 31 1 14 13 0
129 125 122 123 124 46 41 44 48 39 4 36 0
129 125 122 123 124 63 56 61 64 54 53 7 0
129 125 122 123 113 20 103 111 114 95 85 59 0
129 125 122 123 77 71 10 75 78 68 66 51 0
129 125 122 123 28 17 23 31 1 14 13 6 0
129 125 122 123 46 41 44 48 39 4 36 33 0
129 125 122 126 124 113 20 103 111 114 95 43 0
129 125 122 126 124 77 71 10 75 78 68 34 0
129 125 122 126 124 28 17 23 31 1 14 3 0
129 125 122 126 124 88 83 87 91 80 37 12 0
129 125 122 126 124 63 56 61 64 54 32 7 0
129 125 122 126 113 20 103 111 114 95 43 59 0
129 125 122 126 77 71 10 75 78 68 34 51 0
129 125 122 126 28 17 23 31 1 14 3 6 0
129 125 122 126 88 83 87 91 80 37 12 52 0
129 125 122 124 113 20 103 111 114 95 43 85 0
129 125 122 124 77 71 10 75 78 68 34 66 0
129 125 122 124 28 17 23 31 1 14 3 13 0
129 125 122 124 63 56 61 64 54 32 53 7 0
129 125 122 113 20 103 111 114 95 43 85 59 0
129 125 122 77 71 10 75 78 68 34 66 51 0
129 125 122 28 17 23 31 1 14 3 13 6 0
129 125 127 123 126 124 113 20 103 111 114 22 0
129 125 127 123 126 124 77 71 10 75 78 9 0
129 125 127 123 126 124 98 93 96 100 16 15 0
129 125 127 123 126 124 46 41 44 48 2 4 0
129 125 127 123 126 124 88 83 87 91 11 12 0
129 125 127 123 126 124 63 56 61 64 5 7 0
129 125 127 123 126 113 20 103 111 114 22 59 0
129 125 127 123 126 77 71 10 75 78 9 51 0
129 125 127 123 126 98 93 96 100 16 15 55 0
129 125 127 123 126 46 41 44 48 2 4 33 0
129 125 127 123 126 88 83 87 91 11 12 52 0
129 125 127 123 124 113 20 103 111 114 22 85 0
129 125 127 123 124 77 71 10 75 78 9 66 0
129 125 127 123 124 98 93 96 100 16 15 81 0
129 125 127 123 124 46 41 44 48 2 4 36 0
129 125 127 123 124 63 56 61 64 5 53 7 0
129 125 127 123 113 20 103 111 114 22 85 59 0
129 125 127 123 77 71 10 75 78 9 66 51 0
129 125 127 123 98 93 96 100 16 15 81 55 0
129 125 127 123 46 41 44 48 2 4 36 33 0
129 125 127 126 124 113 20 103 111 114 22 43 0
129 125 127 126 124 77 71 10 75 78 9 34 0
129 125 127 126 124 98 93 96 100 16 15 38 0
129 125 127 126 124 88 83 87 91 11 37 12 0
129 125 127 126 124 63 56 61 64 5 32 7 0
129 125 127 126 113 20 103 111 114 22 43 59 0
129 125 127 126 77 71 10 75 78 9 34 51 0
129 125 127 126 98 93 96 100 16 15 38 55 0
129 125 127 126 88 83 87 91 11 37 12 52 0
129 125 127 124 113 20 103 111 114 22 43 85 0
129 125 127 124 77 71 10 75 78 9 34 66 0
129 125 127 124 98 93 96 100 16 15 38 81 0
129 125 127 124 63 56 61 64 5 32 53 7 0
129 125 127 113 20 103 111 114 22 43 85 59 0
129 125 127 77 71 10 75 78 9 34 66 51 0
129 125 127 98 93 96 100 16 15 38 81 55 0
129 125 123 126 124 113 20 103 111 114 22 95 0
129 125 123 126 124 77 71 10 75 78 9 68 0
129 125 123 126 124 46 41 44 48 2 39 4 0
129 125 123 126 124 88 83 87 91 11 80 12 0
129 125 123 126 124 63 56 61 64 5 54 7 0
129 125 123 126 113 20 103 111 114 22 95 59 0
129 125 123 126 77 71 10 75 78 9 68 51 0
129 125 123 126 46 41 44 48 2 39 4 33 0
129 125 123 126 88 83 87 91 11 80 12 52 0
129 125 123 124 113 20 103 111 114 22 95 85 0
129 125 123 124 77 71 10 75 78 9 68 66 0
129 125 123 124 46 41 44 48 2 39 4 36 0
129 125 123 124 63 56 61 64 5 54 53 7 0
129 125 123 113 20 103 111 114 22 95 85 59 0
129 125 123 77 71 10 75 78 9 68 66 51 0
129 125 123 46 41 44 48 2 39 4 36 33 0
129 125 126 124 113 20 103 111 114 22 95 43 0
129 125 126 124 77 71 10 75 78 9 68 34 0
129 125 126 124 88 83 87 91 11 80 37 12 0
129 125 126 124 63 56 61 64 5 54 32 7 0
129 125 126 113 20 103 111 114 22 95 43 59 0
129 125 126 77 71 10 75 78 9 68 34 51 0
129 125 126 88 83 87 91 11 80 37 12 52 0
129 125 124 113 20 103 111 114 22 95 43 85 0
129 125 124 77 71 10 75 78 9 68 34 66 0
129 125 124 63 56 61 64 5 54 32 53 7 0
129 125 113 20 103 111 114 22 95 43 85 59 0
129 125 77 71 10 75 78 9 68 34 66 51 0
129 130 132 122 127 123 126 124 113 20 103 72 0
129 130 132 122 127 123 126 124 117 104 74 24 0
129 130 132 122 127 123 126 124 120 108 79 30 0
129 130 132 122 127 123 126 124 28 17 8 1 0
129 130 132 122 127 123 126 124 98 93 69 15 0
129 130 132 122 127 123 126 124 46 41 35 4 0
129 130 132 122 127 123 126 124 88 83 67 12 0
129 130 132 122 127 123 126 124 63 56 50 7 0
129 130 132 122 127 123 126 113 20 103 72 59 0
129 130 132 122 127 123 126 117 104 74 24 60 0
129 130 132 122 127 123 126 120 108 79 30 65 0
129 130 132 122 127 123 126 28 17 8 1 6 0
129 130 132 122 127 123 126 98 93 69 15 55 0
129 130 132 122 127 123 126 46 41 35 4 33 0
129 130 132 122 127 123 126 88 83 67 12 52 0
129 130 132 122 127 123 124 113 20 103 72 85 0
129 130 132 122 127 123 124 117 104 74 24 86 0
129 130 132 122 127 123 124 120 108 79 30 90 0
129 130 132 122 127 123 124 28 17 8 1 13 0
129 130 132 122 127 123 124 98 93 69 15 81 0
129 130 132 122 127 123 124 46 41 35 4 36 0
129 130 132 122 127 123 124 63 56 50 53 7 0
129 130 132 122 127 123 113 20 103 72 85 59 0
129 130 132 122 127 123 117 104 74 24 86 60 0
129 130 132 122 127 123 120 108 79 30 90 65 0
129 130 132 122 127 123 28 17 8 1 13 6 0
129 130 132 122 127 123 98 93 69 15 81 55 0
129 130 132 122 127 123 46 41 35 4 36 33 0
129 130 132 122 127 126 124 113 20 103 72 43 0
129 130 132 122 127 126 124 117 104 74 24 45 0
129 130 132 122 127 126 124 120 108 79 30 49 0
129 130 132 122 127 126 124 28 17 8 1 3 0
129 130 132 122 127 126 124 98 93 69 15 38 0
129 130 132 122 127 126 124 88 83 67 37 12 0
129 130 132 122 127 126 124 63 56 50 32 7 0
129 130 132 122 127 126 113 20 103 72 43 59 0
129 130 132 122 127 126 117 104 74 24 45 60 0
129 130 132 122 127 126 120 108 79 30 49 65 0
129 130 132 122 127 126 28 17 8 1 3 6 0
129 130 132 122 127 126 98 93 69 15 38 55 0
129 130 132 122 127 126 88 83 67 37 12 52 0
129 130 132 122 127 124 113 20 103 72 43 85 0
129 130 132 122 127 124 117 104 74 24 45 86 0
129 130 132 122 127 124 120 108 79 30 49 90 0
129 130 132 122 127 124 28 17 8 1 3 13 0
129 130 132 122 127 124 98 93 69 15 38 81 0
129 130 132 122 127 124 63 56 50 32 53 7 0
129 130 132 122 127 113 20 103 72 43 85 59 0
129 130 132 122 127 117 104 74 24 45 86 60 0
129 130 132 122 127 120 108 79 30 49 90 65 0
129 130 132 122 127 28 17 8 1 3 13 6 0
129 130 132 122 127 98 93 69 15 38 81 55 0
129 130 132 122 123 126 124 113 20 103 72 95 0
129 130 132 122 123 126 124 117 104 74 24 97 0
129 130 132 122 123 126 124 120 108 79 30 101 0
129 130 132 122 123 126 124 28 17 8 1 14 0
129 130 132 122 123 126 124 46 41 35 39 4 0
129 130 132 122 123 126 124 88 83 67 80 12 0
129 130 132 122 123 126 124 63 56 50 54 7 0
129 130 132 122 123 126 113 20 103 72 95 59 0
129 130 132 122 123 126 117 104 74 24 97 60 0
129 130 132 122 123 126 120 108 79 30 101 65 0
129 130 132 122 123 126 28 17 8 1 14 6 0
129 130 132 122 123 126 46 41 35 39 4 33 0
129 130 132 122 123 126 88 83 67 80 12 52 0
129 130 132 122 123 124 113 20 103 72 95 85 0
129 130 132 122 123 124 117 104 74 24 97 86 0
129 130 132 122 123 124 120 108 79 30 101 90 0
129 130 132 122 123 124 28 17 8 1 14 13 0
129 130 132 122 123 124 46 41 35 39 4 36 0
129 130 132 122 123 124 63 56 50 54 53 7 0
129 130 132 122 123 113 20 103 72 95 85 59 0
129 130 132 122 123 117 104 74 24 97 86 60 0
129 130 132 122 123 120 108 79 30 101 90 65 0
129 130 132 122 123 28 17 8 1 14 13 6 0
129 130 132 122 123 46 41 35 39 4 36 33 0
129 130 132 122 126 124 113 20 103 72 95 43 0
129 130 132 122 126 124 117 104 74 24 97 45 0
129 130 132 122 126 124 120 108 79 30 101 49 0
129 130 132 122 126 124 28 17 8 1 14 3 0
129 130 132 122 126 124 88 83 67 80 37 12 0
129 130 132 122 126 124 63 56 50 54 32 7 0
129 130 132 122 126 113 20 103 72 95 43 59 0
129 130 132 122 126 117 104 74 24 97 45 60 0
129 130 132 122 126 120 108 79 30 101 49 65 0
129 130 132 122 126 28 17 8 1 14 3 6 0
129 130 132 122 126 88 83 67 80 37 12 52 0
129 130 132 122 124 113 20 103 72 95 43 85 0
129 130 132 122 124 117 104 74 24 97 45 86 0
129 130 132 122 124 120 108 79 30 101 49 90 0
129 130 132 122 124 28 17 8 1 14 3 13 0
129 130 132 122 124 63 56 50 54 32 53 7 0
129 130 132 122 113 20 103 72 95 43 85 59 0
129 130 132 122 117 104 74 24 97 45 86 60 0
129 130 132 122 120 108 79 30 101 49 90 65 0
129 130 132 122 28 17 8 1 14 3 13 6 0
129 130 132 127 123 126 124 113 20 103 72 22 0
129 130 132 127 123 126 124 117 104 74 24 25 0
129 130 132 127 123 126 124 120 108 79 30 29 0
129 130 132 127 123 126 124 98 93 69 16 15 0
129 130 132 127 123 126 124 46 41 35 2 4 0
129 130 132 127 123 126 124 88 83 67 11 12 0
129 130 132 127 123 126 124 63 56 50 5 7 0
129 130 132 127 123 126 113 20 103 72 22 59 0
129 130 132 127 123 126 117 104 74 24 25 60 0
129 130 132 127 123 126 120 108 79 30 29 65 0
129 130 132 127 123 126 98 93 69 16 15 55 0
129 130 132 127 123 126 46 41 35 2 4 33 0
129 130 132 127 123 126 88 83 67 11 12 52 0
129 130 132 127 123 124 113 20 103 72 22 85 0
129 130 132 127 123 124 117 104 74 24 25 86 0
129 130 132 127 123 124 120 108 79 30 29 90 0
129 130 132 127 123 124 98 93 69 16 15 81 0
129 130 132 127 123 124 46 41 35 2 4 36 0
129 130 132 127 123 124 63 56 50 5 53 7 0
129 130 132 127 123 113 20 103 72 22 85 59 0
129 130 132 127 123 117 104 74 24 25 86 60 0
129 130 132 127 123 120 108 79 30 29 90 65 0
129 130 132 127 123 98 93 69 16 15 81 55 0
129 130 132 127 123 46 41 35 2 4 36 33 0
129 130 132 127 126 124 113 20 103 72 22 43 0
129 130 132 127 126 124 117 104 74 24 25 45 0
129 130 132 127 126 124 120 108 79 30 29 49 0
129 130 132 127 126 124 98 93 69 16 15 38 0
129 130 132 127 126 124 88 83 67 11 37 12 0
129 130 132 127 126 124 63 56 50 5 32 7 0
129 130 132 127 126 113 20 103 72 22 43 59 0
129 130 132 127 126 117 104 74 24 25 45 60 0
129 130 132 127 126 120 108 79 30 29 49 65 0
129 130 132 127 126 98 93 69 16 15 38 55 0
129 130 132 127 126 88 83 67 11 37 12 52 0
129 130 132 127 124 113 20 103 72 22 43 85 0
129 130 132 127 124 117 104 74 24 25 45 86 0
129 130 132 127 124 120 108 79 30 29 49 90 0
129 130 132 127 124 98 93 69 16 15 38 81 0
129 130 132 127 124 63 56 50 5 32 53 7 0
129 130 132 127 113 20 103 72 22 43 85 59 0
129 130 132 127 117 104 74 24 25 45 86 60 0
129 130 132 127 120 108 79 30 29 49 90 65 0
129 130 132 127 98 93 69 16 15 38 81 55 0
129 130 132 123 126 124 113 20 103 72 22 95 0
129 130 132 123 126 124 117 104 74 24 25 97 0
129 130 132 123 126 124 120 108 79 30 29 101 0
129 130 132 123 126 124 46 41 35 2 39 4 0
129 130 132 123 126 124 88 83 67 11 80 12 0
129 130 132 123 126 124 63 56 50 5 54 7 0
129 130 132 123 126 113 20 103 72 22 95 59 0
129 130 132 123 126 117 104 74 24 25 97 60 0
129 130 132 123 126 120 108 79 30 29 101 65 0
129 130 132 123 126 46 41 35 2 39 4 33 0
129 130 132 123 126 88 83 67 11 80 12 52 0
129 130 132 123 124 113 20 103 72 22 95 85 0
129 130 132 123 124 117 104 74 24 25 97 86 0
129 130 132 123 124 120 108 79 30 29 101 90 0
129 130 132 123 124 46 41 35 2 39 4 36 0
129 130 132 123 124 63 56 50 5 54 53 7 0
129 130 132 123 113 20 103 72 22 95 85 59 0
129 130 132 123 117 104 74 24 25 97 86 60 0
129 130 132 123 120 108 79 30 29 101 90 65 0
129 130 132 123 46 41 35 2 39 4 36 33 0
129 130 132 126 124 113 20 103 72 22 95 43 0
129 130 132 126 124 117 104 74 24 25 97 45 0
129 130 132 126 124 120 108 79 30 29 101 49 0
129 130 132 126 124 88 83 67 11 80 37 12 0
129 130 132 126 124 63 56 50 5 54 32 7 0
129 130 132 126 113 20 103 72 22 95 43 59 0
129 130 132 126 117 104 74 24 25 97 45 60 0
129 130 132 126 120 108 79 30 29 101 49 65 0
129 130 132 126 88 83 67 11 80 37 12 52 0
129 130 132 124 113 20 103 72 22 95 43 85 0
129 130 132 124 117 104 74 24 25 97 45 86 0
129 130 132 124 120 108 79 30 29 101 49 90 0
129 130 132 124 63 56 50 5 54 32 53 7 0
129 130 132 113 20 103 72 22 95 43 85 59 0
129 130 132 117 104 74 24 25 97 45 86 60 0
129 130 132 120 108 79 30 29 101 49 90 65 0
129 130 122 127 123 126 124 113 20 103 72 114 0
129 130 122 127 123 126 124 117 104 74 24 118 0
129 130 122 127 123 126 124 28 17 8 31 1 0
129 130 122 127 123 126 124 98 93 69 100 15 0
129 130 122 127 123 126 124 46 41 35 48 4 0
129 130 122 127 123 126 124 88 83 67 91 12 0
129 130 122 127 123 126 124 63 56 50 64 7 0
129 130 122 127 123 126 113 20 103 72 114 59 0
129 130 122 127 123 126 117 104 74 24 118 60 0
129 130 122 127 123 126 28 17 8 31 1 6 0
129 130 122 127 123 126 98 93 69 100 15 55 0
129 130 122 127 123 126 46 41 35 48 4 33 0
129 130 122 127 123 126 88 83 67 91 12 52 0
129 130 122 127 123 124 113 20 103 72 114 85 0
129 130 122 127 123 124 117 104 74 24 118 86 0
129 130 122 127 123 124 28 17 8 31 1 13 0
129 130 122 127 123 124 98 93 69 100 15 81 0
129 130 122 127 123 124 46 41 35 48 4 36 0
129 130 122 127 123 124 63 56 50 64 53 7 0
129 130 122 127 123 113 20 103 72 114 85 59 0
129 130 122 127 123 117 104 74 24 118 86 60 0
129 130 122 127 123 28 17 8 31 1 13 6 0
129 130 122 127 123 98 93 69 100 15 81 55 0
129 130 122 127 123 46 41 35 48 4 36 33 0
129 130 122 127 126 124 113 20 103 72 114 43 0
129 130 122 127 126 124 117 104 74 24 118 45 0
129 130 122 127 126 124 28 17 8 31 1 3 0
129 130 122 127 126 124 98 93 69 100 15 38 0
129 130 122 127 126 124 88 83 67 91 37 12 0
129 130 122 127 126 124 63 56 50 64 32 7 0
129 130 122 127 126 113 20 103 72 114 43 59 0
129 130 122 127 126 117 104 74 24 118 45 60 0
129 130 122 127 126 28 17 8 31 1 3 6 0
129 130 122 127 126 98 93 69 100 15 38 55 0
129 130 122 127 126 88 83 67 91 37 12 52 0
129 130 122 127 124 113 20 103 72 114 43 85 0
129 130 122 127 124 117 104 74 24 118 45 86 0
129 130 122 127 124 28 17 8 31 1 3 13 0
129 130 122 127 124 98 93 69 100 15 38 81 0
129 130 122 127 124 63 56 50 64 32 53 7 0
129 130 122 127 113 20 103 72 114 43 85 59 0
129 130 122 127 117 104 74 24 118 45 86 60 0
129 130 122 127 28 17 8 31 1 3 13 6 0
129 130 122 127 98 93 69 100 15 38 81 55 0
129 130 122 123 126 124 113 20 103 72 114 95 0
129 130 122 123 126 124 117 104 74 24 118 97 0
129 130 122 123 126 124 28 17 8 31 1 14 0
129 130 122 123 126 124 46 41 35 48 39 4 0
129 130 122 123 126 124 88 83 67 91 80 12 0
129 130 122 123 126 124 63 56 50 64 54 7 0
129 130 122 123 126 113 20 103 72 114 95 59 0
129 130 122 123 126 117 104 74 24 118 97 60 0
129 130 122 123 126 28 17 8 31 1 14 6 0
129 130 122 123 126 46 41 35 48 39 4 33 0
129 130 122 123 126 88 83 67 91 80 12 52 0
129 130 122 123 124 113 20 103 72 114 95 85 0
129 130 122 123 124 117 104 74 24 118 97 86 0
129 130 122 123 124 28 17 8 31 1 14 13 0
129 130 122 123 124 46 41 35 48 39 4 36 0
129 130 122 123 124 63 56 50 64 54 53 7 0
129 130 122 123 113 20 103 72 114 95 85 59 0
129 130 122 123 117 104 74 24 118 97 86 60 0
129 130 122 123 28 17 8 31 1 14 13 6 0
129 130 122 123 46 41 35 48 39 4 36 33 0
129 130 122 126 124 113 20 103 72 114 95 43 0
129 130 122 126 124 117 104 74 24 118 97 45 0
129 130 122 126 124 28 17 8 31 1 14 3 0
129 130 122 126 124 88 83 67 91 80 37 12 0
129 130 122 126 124 63 56 50 64 54 32 7 0
129 130 122 126 113 20 103 72 114 95 43 59 0
129 130 122 126 117 104 74 24 118 97 45 60 0
129 130 122 126 28 17 8 31 1 14 3 6 0
129 130 122 126 88 83 67 91 80 37 12 52 0
129 130 122 124 113 20 103 72 114 95 43 85 0
129 130 122 124 117 104 74 24 118 97 45 86 0
129 130 122 124 28 17 8 31 1 14 3 13 0
129 130 122 124 63 56 50 64 54 32 53 7 0
129 130 122 113 20 103 72 114 95 43 85 59 0
129 130 122 117 104 74 24 118 97 45 86 60 0
129 130 122 28 17 8 31 1 14 3 13 6 0
129 130 127 123 126 124 113 20 103 72 114 22 0
129 130 127 123 126 124 117 104 74 24 118 25 0
129 130 127 123 126 124 98 93 69 100 16 15 0
129 130 127 123 126 124 46 41 35 48 2 4 0
129 130 127 123 126 124 88 83 67 91 11 12 0
129 130 127 123 126 124 63 56 50 64 5 7 0
129 130 127 123 126 113 20 103 72 114 22 59 0
129 130 127 123 126 117 104 74 24 118 25 60 0
129 130 127 123 126 98 93 69 100 16 15 55 0
129 130 127 123 126 46 41 35 48 2 4 33 0
129 130 127 123 126 88 83 67 91 11 12 52 0
129 130 127 123 124 113 20 103 72 114 22 85 0
129 130 127 123 124 117 104 74 24 118 25 86 0
129 130 127 123 124 98 93 69 100 16 15 81 0
129 130 127 123 124 46 41 35 48 2 4 36 0
129 130 127 123 124 63 56 50 64 5 53 7 0
129 130 127 123 113 20 103 72 114 22 85 59 0
129 130 127 123 117 104 74 24 118 25 86 60 0
129 130 127 123 98 93 69 100 16 15 81 55 0
129 130 127 123 46 41 35 48 2 4 36 33 0
129 130 127 126 124 113 20 103 72 114 22 43 0
129 130 127 126 124 117 104 74 24 118 25 45 0
129 130 127 126 124 98 93 69 100 16 15 38 0
129 130 127 126 124 88 83 67 91 11 37 12 0
129 130 127 126 124 63 56 50 64 5 32 7 0
129 130 127 126 113 20 103 72 114 22 43 59 0
129 130 127 126 117 104 74 24 118 25 45 60 0
129 130 127 126 98 93 69 100 16 15 38 55 0
129 130 127 126 88 83 67 91 11 37 12 52 0
129 130 127 124 113 20 103 72 114 22 43 85 0
129 130 127 124 117 104 74 24 118 25 45 86 0
129 130 127 124 98 93 69 100 16 15 38 81 0
129 130 127 124 63 56 50 64 5 32 53 7 0
129 130 127 113 20 103 72 114 22 43 85 59 0
129 130 127 117 104 74 24 118 25 45 86 60 0
129 130 127 98 93 69 100 16 15 38 81 55 0
129 130 123 126 124 113 20 103 72 114 22 95 0
129 130 123 126 124 117 104 74 24 118 25 97 0
129 130 123 126 124 46 41 35 48 2 39 4 0
129 130 123 126 124 88 83 67 91 11 80 12 0
129 130 123 126 124 63 56 50 64 5 54 7 0
129 130 123 126 113 20 103 72 114 22 95 59 0
129 130 123 126 117 104 74 24 118 25 97 60 0
129 130 123 126 46 41 35 48 2 39 4 33 0
129 130 123 126 88 83 67 91 11 80 12 52 0
129 130 123 124 113 20 103 72 114 22 95 85 0
129 130 123 124 117 104 74 24 118 25 97 86 0
129 130 123 124 46 41 35 48 2 39 4 36 0
129 130 123 124 63 56 50 64 5 54 53 7 0
129 130 123 113 20 103 72 114 22 95 85 59 0
129 130 123 117 104 74 24 118 25 97 86 60 0
129 130 123 46 41 35 48 2 39 4 36 33 0
129 130 126 124 113 20 103 72 114 22 95 43 0
129 130 126 124 117 104 74 24 118 25 97 45 0
129 130 126 124 88 83 67 91 11 80 37 12 0
129 130 126 124 63 56 50 64 5 54 32 7 0
129 130 126 113 20 103 72 114 22 95 43 59 0
129 130 126 117 104 74 24 118 25 97 45 60 0
129 130 126 88 83 67 91 11 80 37 12 52 0
129 130 124 113 20 103 72 114 22 95 43 85 0
129 130 124 117 104 74 24 118 25 97 45 86 0
129 130 124 63 56 50 64 5 54 32 53 7 0
129 130 113 20 103 72 114 22 95 43 85 59 0
129 130 117 104 74 24 118 25 97 45 86 60 0
129 132 122 127 123 126 124 113 20 103 72 111 0
129 132 122 127 123 126 124 120 108 79 119 30 0
129 132 122 127 123 126 124 28 17 8 23 1 0
129 132 122 127 123 126 124 98 93 69 96 15 0
129 132 122 127 123 126 124 46 41 35 44 4 0
129 132 122 127 123 126 124 88 83 67 87 12 0
129 132 122 127 123 126 124 63 56 50 61 7 0
129 132 122 127 123 126 113 20 103 72 111 59 0
129 132 122 127 123 126 120 108 79 119 30 65 0
129 132 122 127 123 126 28 17 8 23 1 6 0
129 132 122 127 123 126 98 93 69 96 15 55 0
129 132 122 127 123 126 46 41 35 44 4 33 0
129 132 122 127 123 126 88 83 67 87 12 52 0
129 132 122 127 123 124 113 20 103 72 111 85 0
129 132 122 127 123 124 120 108 79 119 30 90 0
129 132 122 127 123 124 28 17 8 23 1 13 0
129 132 122 127 123 124 98 93 69 96 15 81 0
129 132 122 127 123 124 46 41 35 44 4 36 0
129 132 122 127 123 124 63 56 50 61 53 7 0
129 132 122 127 123 113 20 103 72 111 85 59 0
129 132 122 127 123 120 108 79 119 30 90 65 0
129 132 122 127 123 28 17 8 23 1 13 6 0
129 132 122 127 123 98 93 69 96 15 81 55 0
129 132 122 127 123 46 41 35 44 4 36 33 0
129 132 122 127 126 124 113 20 103 72 111 43 0
129 132 122 127 126 124 120 108 79 119 30 49 0
129 132 122 127 126 124 28 17 8 23 1 3 0
129 132 122 127 126 124 98 93 69 96 15 38 0
129 132 122 127 126 124 88 83 67 87 37 12 0
129 132 122 127 126 124 63 56 50 61 32 7 0
129 132 122 127 126 113 20 103 72 111 43 59 0
129 132 122 127 126 120 108 79 119 30 49 65 0
129 132 122 127 126 28 17 8 23 1 3 6 0
129 132 122 127 126 98 93 69 96 15 38 55 0
129 132 122 127 126 88 83 67 87 37 12 52 0
129 132 122 127 124 113 20 103 72 111 43 85 0
129 132 122 127 124 120 108 79 119 30 49 90 0
129 132 122 127 124 28 17 8 23 1 3 13 0
129 132 122 127 124 98 93 69 96 15 38 81 0
129 132 122 127 124 63 56 50 61 32 53 7 0
129 132 122 127 113 20 103 72 111 43 85 59 0
129 132 122 127 120 108 79 119 30 49 90 65 0
129 132 122 127 28 17 8 23 1 3 13 6 0
129 132 122 127 98 93 69 96 15 38 81 55 0
129 132 122 123 126 124 113 20 103 72 111 95 0
129 132 122 123 126 124 120 108 79 119 30 101 0
129 132 122 123 126 124 28 17 8 23 1 14 0
129 132 122 123 126 124 46 41 35 44 39 4 0
129 132 122 123 126 124 88 83 67 87 80 12 0
129 132 122 123 126 124 63 56 50 61 54 7 0
129 132 122 123 126 113 20 103 72 111 95 59 0
129 132 122 123 126 120 108 79 119 30 101 65 0
129 132 122 123 126 28 17 8 23 1 14 6 0
129 132 122 123 126 46 41 35 44 39 4 33 0
129 132 122 123 126 88 83 67 87 80 12 52 0
129 132 122 123 124 113 20 103 72 111 95 85 0
129 132 122 123 124 120 108 79 119 30 101 90 0
129 132 122 123 124 28 17 8 23 1 14 13 0
129 132 122 123 124 46 41 35 44 39 4 36 0
129 132 122 123 124 63 56 50 61 54 53 7 0
129 132 122 123 113 20 103 72 111 95 85 59 0
129 132 122 123 120 108 79 119 30 101 90 65 0
129 132 122 123 28 17 8 23 1 14 13 6 0
129 132 122 123 46 41 35 44 39 4 36 33 0
129 132 122 126 124 113 20 103 72 111 95 43 0
129 132 122 126 124 120 108 79 119 30 101 49 0
129 132 122 126 124 28 17 8 23 1 14 3 0
129 132 122 126 124 88 83 67 87 80 37 12 0
129 132 122 126 124 63 56 50 61 54 32 7 0
129 132 122 126 113 20 103 72 111 95 43 59 0
129 132 122 126 120 108 79 119 30 101 49 65 0
129 132 122 126 28 17 8 23 1 14 3 6 0
129 132 122 126 88 83 67 87 80 37 12 52 0
129 132 122 124 113 20 103 72 111 95 43 85 0
129 132 122 124 120 108 79 119 30 101 49 90 0
129 132 122 124 28 17 8 23 1 14 3 13 0
129 132 122 124 63 56 50 61 54 32 53 7 0
129 132 122 113 20 103 72 111 95 43 85 59 0
129 132 122 120 108 79 119 30 101 49 90 65 0
129 132 122 28 17 8 23 1 14 3 13 6 0
129 132 127 123 126 124 113 20 103 72 111 22 0
129 132 127 123 126 124 120 108 79 119 30 29 0
129 132 127 123 126 124 98 93 69 96 16 15 0
129 132 127 123 126 124 46 41 35 44 2 4 0
129 132 127 123 126 124 88 83 67 87 11 12 0
129 132 127 123 126 124 63 56 50 61 5 7 0
129 132 127 123 126 113 20 103 72 111 22 59 0
129 132 127 123 126 120 108 79 119 30 29 65 0
129 132 127 123 126 98 93 69 96 16 15 55 0
129 132 127 123 126 46 41 35 44 2 4 33 0
129 132 127 123 126 88 83 67 87 11 12 52 0
129 132 127 123 124 113 20 103 72 111 22 85 0
129 132 127 123 124 120 108 79 119 30 29 90 0
129 132 127 123 124 98 93 69 96 16 15 81 0
129 132 127 123 124 46 41 35 44 2 4 36 0
129 132 127 123 124 63 56 50 61 5 53 7 0
129 132 127 123 113 20 103 72 111 22 85 59 0
129 132 127 123 120 108 79 119 30 29 90 65 0
129 132 127 123 98 93 69 96 16 15 81 55 0
129 132 127 123 46 41 35 44 2 4 36 33 0
129 132 127 126 124 113 20 103 72 111 22 43 0
129 132 127 126 124 120 108 79 119 30 29 49 0
129 132 127 126 124 98 93 69 96 16 15 38 0
129 132 127 126 124 88 83 67 87 11 37 12 0
129 132 127 126 124 63 56 50 61 5 32 7 0
129 132 127 126 113 20 103 72 111 22 43 59 0
129 132 127 126 120 108 79 119 30 29 49 65 0
129 132 127 126 98 93 69 96 16 15 38 55 0
129 132 127 126 88 83 67 87 11 37 12 52 0
129 132 127 124 113 20 103 72 111 22 43 85 0
129 132 127 124 120 108 79 119 30 29 49 90 0
129 132 127 124 98 93 69 96 16 15 38 81 0
129 132 127 124 63 56 50 61 5 32 53 7 0
129 132 127 113 20 103 72 111 22 43 85 59 0
129 132 127 120 108 79 119 30 29 49 90 65 0
129 132 127 98 93 69 96 16 15 38 81 55 0
129 132 123 126 124 113 20 103 72 111 22 95 0
129 132 123 126 124 120 108 79 119 30 29 101 0
129 132 123 126 124 46 41 35 44 2 39 4 0
129 132 123 126 124 88 83 67 87 11 80 12 0
129 132 123 126 124 63 56 50 61 5 54 7 0
129 132 123 126 113 20 103 72 111 22 95 59 0
129 132 123 126 120 108 79 119 30 29 101 65 0
129 132 123 126 46 41 35 44 2 39 4 33 0
129 132 123 126 88 83 67 87 11 80 12 52 0
129 132 123 124 113 20 103 72 111 22 95 85 0
129 132 123 124 120 108 79 119 30 29 101 90 0
129 132 123 124 46 41 35 44 2 39 4 36 0
129 132 123 124 63 56 50 61 5 54 53 7 0
129 132 123 113 20 103 72 111 22 95 85 59 0
129 132 123 120 108 79 119 30 29 101 90 65 0
129 132 123 46 41 35 44 2 39 4 36 33 0
129 132 126 124 113 20 103 72 111 22 95 43 0
129 132 126 124 120 108 79 119 30 29 101 49 0
129 132 126 124 88 83 67 87 11 80 37 12 0
129 132 126 124 63 56 50 61 5 54 32 7 0
129 132 126 113 20 103 72 111 22 95 43 59 0
129 132 126 120 108 79 119 30 29 101 49 65 0
129 132 126 88 83 67 87 11 80 37 12 52 0
129 132 124 113 20 103 72 111 22 95 43 85 0
129 132 124 120 108 79 119 30 29 101 49 90 0
129 132 124 63 56 50 61 5 54 32 53 7 0
129 132 113 20 103 72 111 22 95 43 85 59 0
129 132 120 108 79 119 30 29 101 49 90 65 0
129 122 127 123 126 124 113 20 103 72 111 114 0
129 122 127 123 126 124 28 17 8 23 31 1 0
129 122 127 123 126 124 98 93 69 96 100 15 0
129 122 127 123 126 124 46 41 35 44 48 4 0
129 122 127 123 126 124 88 83 67 87 91 12 0
129 122 127 123 126 124 63 56 50 61 64 7 0
129 122 127 123 126 113 20 103 72 111 114 59 0
129 122 127 123 126 28 17 8 23 31 1 6 0
129 122 127 123 126 98 93 69 96 100 15 55 0
129 122 127 123 126 46 41 35 44 48 4 33 0
129 122 127 123 126 88 83 67 87 91 12 52 0
129 122 127 123 124 113 20 103 72 111 114 85 0
129 122 127 123 124 28 17 8 23 31 1 13 0
129 122 127 123 124 98 93 69 96 100 15 81 0
129 122 127 123 124 46 41 35 44 48 4 36 0
129 122 127 123 124 63 56 50 61 64 53 7 0
129 122 127 123 113 20 103 72 111 114 85 59 0
129 122 127 123 28 17 8 23 31 1 13 6 0
129 122 127 123 98 93 69 96 100 15 81 55 0
129 122 127 123 46 41 35 44 48 4 36 33 0
129 122 127 126 124 113 20 103 72 111 114 43 0
129 122 127 126 124 28 17 8 23 31 1 3 0
129 122 127 126 124 98 93 69 96 100 15 38 0
129 122 127 126 124 88 83 67 87 91 37 12 0
129 122 127 126 124 63 56 50 61 64 32 7 0
129 122 127 126 113 20 103 72 111 114 43 59 0
129 122 127 126 28 17 8 23 31 1 3 6 0
129 122 127 126 98 93 69 96 100 15 38 55 0
129 122 127 126 88 83 67 87 91 37 12 52 0
129 122 127 124 113 20 103 72 111 114 43 85 0
129 122 127 124 28 17 8 23 31 1 3 13 0
129 122 127 124 98 93 69 96 100 15 38 81 0
129 122 127 124 63 56 50 61 64 32 53 7 0
129 122 127 113 20 103 72 111 114 43 85 59 0
129 122 127 28 17 8 23 31 1 3 13 6 0
129 122 127 98 93 69 96 100 15 38 81 55 0
129 122 123 126 124 113 20 103 72 111 114 95 0
129 122 123 126 124 28 17 8 23 31 1 14 0
129 122 123 126 124 46 41 35 44 48 39 4 0
129 122 123 126 124 88 83 67 87 91 80 12 0
129 122 123 126 124 63 56 50 61 64 54 7 0
129 122 123 126 113 20 103 72 111 114 95 59 0
129 122 123 126 28 17 8 23 31 1 14 6 0
129 122 123 126 46 41 35 44 48 39 4 33 0
129 122 123 126 88 83 67 87 91 80 12 52 0
129 122 123 124 113 20 103 72 111 114 95 85 0
129 122 123 124 28 17 8 23 31 1 14 13 0
129 122 123 124 46 41 35 44 48 39 4 36 0
129 122 123 124 63 56 50 61 64 54 53 7 0
129 122 123 113 20 103 72 111 114 95 85 59 0
129 122 123 28 17 8 23 31 1 14 13 6 0
129 122 123 46 41 35 44 48 39 4 36 33 0
129 122 126 124 113 20 103 72 111 114 95 43 0
129 122 126 124 28 17 8 23 31 1 14 3 0
129 122 126 124 88 83 67 87 91 80 37 12 0
129 122 126 124 63 56 50 61 64 54 32 7 0
129 122 126 113 20 103 72 111 114 95 43 59 0
129 122 126 28 17 8 23 31 1 14 3 6 0
129 122 126 88 83 67 87 91 80 37 12 52 0
129 122 124 113 20 103 72 111 114 95 43 85 0
129 122 124 28 17 8 23 31 1 14 3 13 0
129 122 124 63 56 50 61 64 54 32 53 7 0
129 122 113 20 103 72 111 114 95 43 85 59 0
129 122 28 17 8 23 31 1 14 3 13 6 0
129 127 123 126 124 113 20 103 72 111 114 22 0
129 127 123 126 124 98 93 69 96 100 16 15 0
129 127 123 126 124 46 41 35 44 48 2 4 0
129 127 123 126 124 88 83 67 87 91 11 12 0
129 127 123 126 124 63 56 50 61 64 5 7 0
129 127 123 126 113 20 103 72 111 114 22 59 0
129 127 123 126 98 93 69 96 100 16 15 55 0
129 127 123 126 46 41 35 44 48 2 4 33 0
129 127 123 126 88 83 67 87 91 11 12 52 0
129 127 123 124 113 20 103 72 111 114 22 85 0
129 127 123 124 98 93 69 96 100 16 15 81 0
129 127 123 124 46 41 35 44 48 2 4 36 0
129 127 123 124 63 56 50 61 64 5 53 7 0
129 127 123 113 20 103 72 111 114 22 85 59 0
129 127 123 98 93 69 96 100 16 15 81 55 0
129 127 123 46 41 35 44 48 2 4 36 33 0
129 127 126 124 113 20 103 72 111 114 22 43 0
129 127 126 124 98 93 69 96 100 16 15 38 0
129 127 126 124 88 83 67 87 91 11 37 12 0
129 127 126 124 63 56 50 61 64 5 32 7 0
129 127 126 113 20 103 72 111 114 22 43 59 0
129 127 126 98 93 69 96 100 16 15 38 55 0
129 127 126 88 83 67 87 91 11 37 12 52 0
129 127 124 113 20 103 72 111 114 22 43 85 0
129 127 124 98 93 69 96 100 16 15 38 81 0
129 127 124 63 56 50 61 64 5 32 53 7 0
129 127 113 20 103 72 111 114 22 43 85 59 0
129 127 98 93 69 96 100 16 15 38 81 55 0
129 123 126 124 113 20 103 72 111 114 22 95 0
129 123 126 124 46 41 35 44 48 2 39 4 0
129 123 126 124 88 83 67 87 91 11 80 12 0
129 123 126 124 63 56 50 61 64 5 54 7 0
129 123 126 113 20 103 72 111 114 22 95 59 0
129 123 126 46 41 35 44 48 2 39 4 33 0
129 123 126 88 83 67 87 91 11 80 12 52 0
129 123 124 113 20 103 72 111 114 22 95 85 0
129 123 124 46 41 35 44 48 2 39 4 36 0
129 123 124 63 56 50 61 64 5 54 53 7 0
129 123 113 20 103 72 111 114 22 95 85 59 0
129 123 46 41 35 44 48 2 39 4 36 33 0
129 126 124 113 20 103 72 111 114 22 95 43 0
129 126 124 88 83 67 87 91 11 80 37 12 0
129 126 124 63 56 50 61 64 5 54 32 7 0
129 126 113 20 103 72 111 114 22 95 43 59 0
129 126 88 83 67 87 91 11 80 37 12 52 0
129 124 113 20 103 72 111 114 22 95 43 85 0
129 124 63 56 50 61 64 5 54 32 53 7 0
129 113 20 103 72 111 114 22 95 43 85 59 0
128 125 130 132 122 127 123 126 124 106 102 19 0
128 125 130 132 122 127 123 126 124 77 73 10 0
128 125 130 132 122 127 123 126 124 117 110 24 0
128 125 130 132 122 127 123 126 124 120 115 30 0
128 125 130 132 122 127 123 126 124 28 21 1 0
128 125 130 132 122 127 123 126 124 98 94 15 0
128 125 130 132 122 127 123 126 124 46 42 4 0
128 125 130 132 122 127 123 126 124 88 84 12 0
128 125 130 132 122 127 123 126 124 63 58 7 0
128 125 130 132 122 127 123 126 106 102 19 57 0
128 125 130 132 122 127 123 126 77 73 10 51 0
128 125 130 132 122 127 123 126 117 110 24 60 0
128 125 130 132 122 127 123 126 120 115 30 65 0
128 125 130 132 122 127 123 126 28 21 1 6 0
128 125 130 132 122 127 123 126 98 94 15 55 0
128 125 130 132 122 127 123 126 46 42 4 33 0
128 125 130 132 122 127 123 126 88 84 12 52 0
128 125 130 132 122 127 123 124 106 102 19 82 0
128 125 130 132 122 127 123 124 77 73 10 66 0
128 125 130 132 122 127 123 124 117 110 24 86 0
128 125 130 132 122 127 123 124 120 115 30 90 0
128 125 130 132 122 127 123 124 28 21 1 13 0
128 125 130 132 122 127 123 124 98 94 15 81 0
128 125 130 132 122 127 123 124 46 42 4 36 0
128 125 130 132 122 127 123 124 63 58 53 7 0
128 125 130 132 122 127 123 106 102 19 82 57 0
128 125 130 132 122 127 123 77 73 10 66 51 0
128 125 130 132 122 127 123 117 110 24 86 60 0
128 125 130 132 122 127 123 120 115 30 90 65 0
128 125 130 132 122 127 123 28 21 1 13 6 0
128 125 130 132 122 127 123 98 94 15 81 55 0
128 125 130 132 122 127 123 46 42 4 36 33 0
128 125 130 132 122 127 126 124 106 102 19 40 0
128 125 130 132 122 127 126 124 77 73 10 34 0
128 125 130 132 122 127 126 124 117 110 24 45 0
128 125 130 132 122 127 126 124 120 115 30 49 0
128 125 130 132 122 127 126 124 28 21 1 3 0
128 125 130 132 122 127 126 124 98 94 15 38 0
128 125 130 132 122 127 126 124 88 84 37 12 0
128 125 130 132 122 127 126 124 63 58 32 7 0
128 125 130 132 122 127 126 106 102 19 40 57 0
128 125 130 132 122 127 126 77 73 10 34 51 0
128 125 130 132 122 127 126 117 110 24 45 60 0
128 125 130 132 122 127 126 120 115 30 49 65 0
128 125 130 132 122 127 126 28 21 1 3 6 0
128 125 130 132 122 127 126 98 94 15 38 55 0
128 125 130 132 122 127 126 88 84 37 12 52 0
128 125 130 132 122 127 124 106 102 19 40 82 0
128 125 130 132 122 127 124 77 73 10 34 66 0
128 125 130 132 122 127 124 117 110 24 45 86 0
128 125 130 132 122 127 124 120 115 30 49 90 0
128 125 130 132 122 127 124 28 21 1 3 13 0
128 125 130 132 122 127 124 98 94 15 38 81 0
128 125 130 132 122 127 124 63 58 32 53 7 0
128 125 130 132 122 127 106 102 19 40 82 57 0
128 125 130 132 122 127 77 73 10 34 66 51 0
128 125 130 132 122 127 117 110 24 45 86 60 0
128 125 130 132 122 127 120 115 30 49 90 65 0
128 125 130 132 122 127 28 21 1 3 13 6 0
128 125 130 132 122 127 98 94 15 38 81 55 0
128 125 130 132 122 123 126 124 106 102 19 92 0
128 125 130 132 122 123 126 124 77 73 10 68 0
128 125 130 132 122 123 126 124 117 110 24 97 0
128 125 130 132 122 123 126 124 120 115 30 101 0
128 125 130 132 122 123 126 124 28 21 1 14 0
128 125 130 132 122 123 126 124 46 42 39 4 0
128 125 130 132 122 123 126 124 88 84 80 12 0
128 125 130 132 122 123 126 124 63 58 54 7 0
128 125 130 132 122 123 126 106 102 19 92 57 0
128 125 130 132 122 123 126 77 73 10 68 51 0
128 125 130 132 122 123 126 117 110 24 97 60 0
128 125 130 132 122 123 126 120 115 30 101 65 0
128 125 130 132 122 123 126 28 21 1 14 6 0
128 125 130 132 122 123 126 46 42 39 4 33 0
128 125 130 132 122 123 126 88 84 80 12 52 0
128 125 130 132 122 123 124 106 102 19 92 82 0
128 125 130 132 122 123 124 77 73 10 68 66 0
128 125 130 132 122 123 124 117 110 24 97 86 0
128 125 130 132 122 123 124 120 115 30 101 90 0
128 125 130 132 122 123 124 28 21 1 14 13 0
128 125 130 132 122 123 124 46 42 39 4 36 0
128 125 130 132 122 123 124 63 58 54 53 7 0
128 125 130 132 122 123 106 102 19 92 82 57 0
128 125 130 132 122 123 77 73 10 68 66 51 0
128 125 130 132 122 123 117 110 24 97 86 60 0
128 125 130 132 122 123 120 115 30 101 90 65 0
128 125 130 132 122 123 28 21 1 14 13 6 0
128 125 130 132 122 123 46 42 39 4 36 33 0
128 125 130 132 122 126 124 106 102 19 92 40 0
128 125 130 132 122 126 124 77 73 10 68 34 0
128 125 130 132 122 126 124 117 110 24 97 45 0
128 125 130 132 122 126 124 120 115 30 101 49 0
128 125 130 132 122 126 124 28 21 1 14 3 0
128 125 130 132 122 126 124 88 84 80 37 12 0
128 125 130 132 122 126 124 63 58 54 32 7 0
128 125 130 132 122 126 106 102 19 92 40 57 0
128 125 130 132 122 126 77 73 10 68 34 51 0
128 125 130 132 122 126 117 110 24 97 45 60 0
128 125 130 132 122 126 120 115 30 101 49 65 0
128 125 130 132 122 126 28 21 1 14 3 6 0
128 125 130 132 122 126 88 84 80 37 12 52 0
128 125 130 132 122 124 106 102 19 92 40 82 0
128 125 130 132 122 124 77 73 10 68 34 66 0
128 125 130 132 122 124 117 110 24 97 45 86 0
128 125 130 132 122 124 120 115 30 101 49 90 0
128 125 130 132 122 124 28 21 1 14 3 13 0
128 125 130 132 122 124 63 58 54 32 53 7 0
128 125 130 132 122 106 102 19 92 40 82 57 0
128 125 130 132 122 77 73 10 68 34 66 51 0
128 125 130 132 122 117 110 24 97 45 86 60 0
128 125 130 132 122 120 115 30 101 49 90 65 0
128 125 130 132 122 28 21 1 14 3 13 6 0
128 125 130 132 127 123 126 124 106 102 19 18 0
128 125 130 132 127 123 126 124 77 73 10 9 0
128 125 130 132 127 123 126 124 117 110 24 25 0
128 125 130 132 127 123 126 124 120 115 30 29 0
128 125 130 132 127 123 126 124 98 94 16 15 0
128 125 130 132 127 123 126 124 46 42 2 4 0
128 125 130 132 127 123 126 124 88 84 11 12 0
128 125 130 132 127 123 126 124 63 58 5 7 0
128 125 130 132 127 123 126 106 102 19 18 57 0
128 125 130 132 127 123 126 77 73 10 9 51 0
128 125 130 132 127 123 126 117 110 24 25 60 0
128 125 130 132 127 123 126 120 115 30 29 65 0
128 125 130 132 127 123 126 98 94 16 15 55 0
128 125 130 132 127 123 126 46 42 2 4 33 0
128 125 130 132 127 123 126 88 84 11 12 52 0
128 125 130 132 127 123 124 106 102 19 18 82 0
128 125 130 132 127 123 124 77 73 10 9 66 0
128 125 130 132 127 123 124 117 110 24 25 86 0
128 125 130 132 127 123 124 120 115 30 29 90 0
128 125 130 132 127 123 124 98 94 16 15 81 0
128 125 130 132 127 123 124 46 42 2 4 36 0
128 125 130 132 127 123 124 63 58 5 53 7 0
128 125 130 132 127 123 106 102 19 18 82 57 0
128 125 130 132 127 123 77 73 10 9 66 51 0
128 125 130 132 127 123 117 110 24 25 86 60 0
128 125 130 132 127 123 120 115 30 29 90 65 0
128 125 130 132 127 123 98 94 16 15 81 55 0
128 125 130 132 127 123 46 42 2 4 36 33 0
128 125 130 132 127 126 124 106 102 19 18 40 0
128 125 130 132 127 126 124 77 73 10 9 34 0
128 125 130 132 127 126 124 117 110 24 25 45 0
128 125 130 132 127 126 124 120 115 30 29 49 0
128 125 130 132 127 126 124 98 94 16 15 38 0
128 125 130 132 127 126 124 88 84 11 37 12 0
128 125 130 132 127 126 124 63 58 5 32 7 0
128 125 130 132 127 126 106 102 19 18 40 57 0
128 125 130 132 127 126 77 73 10 9 34 51 0
128 125 130 132 127 126 117 110 24 25 45 60 0
128 125 130 132 127 126 120 115 30 29 49 65 0
128 125 130 132 127 126 98 94 16 15 38 55 0
128 125 130 132 127 126 88 84 11 37 12 52 0
128 125 130 132 127 124 106 102 19 18 40 82 0
128 125 130 132 127 124 77 73 10 9 34 66 0
128 125 130 132 127 124 117 110 24 25 45 86 0
128 125 130 132 127 124 120 115 30 29 49 90 0
128 125 130 132 127 124 98 94 16 15 38 81 0
128 125 130 132 127 124 63 58 5 32 53 7 0
128 125 130 132 127 106 102 19 18 40 82 57 0
128 125 130 132 127 77 73 10 9 34 66 51 0
128 125 130 132 127 117 110 24 25 45 86 60 0
128 125 130 132 127 120 115 30 29 49 90 65 0
128 125 130 132 127 98 94 16 15 38 81 55 0
128 125 130 132 123 126 124 106 102 19 18 92 0
128 125 130 132 123 126 124 77 73 10 9 68 0
128 125 130 132 123 126 124 117 110 24 25 97 0
128 125 130 132 123 126 124 120 115 30 29 101 0
128 125 130 132 123 126 124 46 42 2 39 4 0
128 125 130 132 123 126 124 88 84 11 80 12 0
128 125 130 132 123 126 124 63 58 5 54 7 0
128 125 130 132 123 126 106 102 19 18 92 57 0
128 125 130 132 123 126 77 73 10 9 68 51 0
128 125 130 132 123 126 117 110 24 25 97 60 0
128 125 130 132 123 126 120 115 30 29 101 65 0
128 125 130 132 123 126 46 42 2 39 4 33 0
128 125 130 132 123 126 88 84 11 80 12 52 0
128 125 130 132 123 124 106 102 19 18 92 82 0
128 125 130 132 123 124 77 73 10 9 68 66 0
128 125 130 132 123 124 117 110 24 25 97 86 0
128 125 130 132 123 124 120 115 30 29 101 90 0
128 125 130 132 123 124 46 42 2 39 4 36 0
128 125 130 132 123 124 63 58 5 54 53 7 0
128 125 130 132 123 106 102 19 18 92 82 57 0
128 125 130 132 123 77 73 10 9 68 66 51 0
128 125 130 132 123 117 110 24 25 97 86 60 0
128 125 130 132 123 120 115 30 29 101 90 65 0
128 125 130 132 123 46 42 2 39 4 36 33 0
128 125 130 132 126 124 106 102 19 18 92 40 0
128 125 130 132 126 124 77 73 10 9 68 34 0
128 125 130 132 126 124 117 110 24 25 97 45 0
128 125 130 132 126 124 120 115 30 29 101 49 0
128 125 130 132 126 124 88 84 11 80 37 12 0
128 125 130 132 126 124 63 58 5 54 32 7 0
128 125 130 132 126 106 102 19 18 92 40 57 0
128 125 130 132 126 77 73 10 9 68 34 51 0
128 125 130 132 126 117 110 24 25 97 45 60 0
128 125 130 132 126 120 115 30 29 101 49 65 0
128 125 130 132 126 88 84 11 80 37 12 52 0
128 125 130 132 124 106 102 19 18 92 40 82 0
128 125 130 132 124 77 73 10 9 68 34 66 0
128 125 130 132 124 117 110 24 25 97 45 86 0
128 125 130 132 124 120 115 30 29 101 49 90 0
128 125 130 132 124 63 58 5 54 32 53 7 0
128 125 130 132 106 102 19 18 92 40 82 57 0
128 125 130 132 77 73 10 9 68 34 66 51 0
128 125 130 132 117 110 24 25 97 45 86 60 0
128 125 130 132 120 115 30 29 101 49 90 65 0
128 125 130 122 127 123 126 124 106 102 19 109 0
128 125 130 122 127 123 126 124 77 73 10 78 0
128 125 130 122 127 123 126 124 117 110 24 118 0
128 125 130 122 127 123 126 124 28 21 31 1 0
128 125 130 122 127 123 126 124 98 94 100 15 0
128 125 130 122 127 123 126 124 46 42 48 4 0
128 125 130 122 127 123 126 124 88 84 91 12 0
128 125 130 122 127 123 126 124 63 58 64 7 0
128 125 130 122 127 123 126 106 102 19 109 57 0
128 125 130 122 127 123 126 77 73 10 78 51 0
128 125 130 122 127 123 126 117 110 24 118 60 0
128 125 130 122 127 123 126 28 21 31 1 6 0
128 125 130 122 127 123 126 98 94 100 15 55 0
128 125 130 122 127 123 126 46 42 48 4 33 0
128 125 130 122 127 123 126 88 84 91 12 52 0
128 125 130 122 127 123 124 106 102 19 109 82 0
128 125 130 122 127 123 124 77 73 10 78 66 0
128 125 130 122 127 123 124 117 110 24 118 86 0
128 125 130 122 127 123 124 28 21 31 1 13 0
128 125 130 122 127 123 124 98 94 100 15 81 0
128 125 130 122 127 123 124 46 42 48 4 36 0
128 125 130 122 127 123 124 63 58 64 53 7 0
128 125 130 122 127 123 106 102 19 109 82 57 0
128 125 130 122 127 123 77 73 10 78 66 51 0
128 125 130 122 127 123 117 110 24 118 86 60 0
128 125 130 122 127 123 28 21 31 1 13 6 0
128 125 130 122 127 123 98 94 100 15 81 55 0
128 125 130 122 127 123 46 42 48 4 36 33 0
128 125 130 122 127 126 124 106 102 19 109 40 0
128 125 130 122 127 126 124 77 73 10 78 34 0
128 125 130 122 127 126 124 117 110 24 118 45 0
128 125 130 122 127 126 124 28 21 31 1 3 0
128 125 130 122 127 126 124 98 94 100 15 38 0
128 125 130 122 127 126 124 88 84 91 37 12 0
128 125 130 122 127 126 124 63 58 64 32 7 0
128 125 130 122 127 126 106 102 19 109 40 57 0
128 125 130 122 127 126 77 73 10 78 34 51 0
128 125 130 122 127 126 117 110 24 118 45 60 0
128 125 130 122 127 126 28 21 31 1 3 6 0
128 125 130 122 127 126 98 94 100 15 38 55 0
128 125 130 122 127 126 88 84 91 37 12 52 0
128 125 130 122 127 124 106 102 19 109 40 82 0
128 125 130 122 127 124 77 73 10 78 34 66 0
128 125 130 122 127 124 117 110 24 118 45 86 0
128 125 130 122 127 124 28 21 31 1 3 13 0
128 125 130 122 127 124 98 94 100 15 38 81 0
128 125 130 122 127 124 63 58 64 32 53 7 0
128 125 130 122 127 106 102 19 109 40 82 57 0
128 125 130 122 127 77 73 10 78 34 66 51 0
128 125 130 122 127 117 110 24 118 45 86 60 0
128 125 130 122 127 28 21 31 1 3 13 6 0
128 125 130 122 127 98 94 100 15 38 81 55 0
128 125 130 122 123 126 124 106 102 19 109 92 0
128 125 130 122 123 126 124 77 73 10 78 68 0
128 125 130 122 123 126 124 117 110 24 118 97 0
128 125 130 122 123 126 124 28 21 31 1 14 0
128 125 130 122 123 126 124 46 42 48 39 4 0
128 125 130 122 123 126 124 88 84 91 80 12 0
128 125 130 122 123 126 124 63 58 64 54 7 0
128 125 130 122 123 126 106 102 19 109 92 57 0
128 125 130 122 123 126 77 73 10 78 68 51 0
128 125 130 122 123 126 117 110 24 118 97 60 0
128 125 130 122 123 126 28 21 31 1 14 6 0
128 125 130 122 123 126 46 42 48 39 4 33 0
128 125 130 122 123 126 88 84 91 80 12 52 0
128 125 130 122 123 124 106 102 19 109 92 82 0
128 125 130 122 123 124 77 73 10 78 68 66 0
128 125 130 122 123 124 117 110 24 118 97 86 0
128 125 130 122 123 124 28 21 31 1 14 13 0
128 125 130 122 123 124 46 42 48 39 4 36 0
128 125 130 122 123 124 63 58 64 54 53 7 0
128 125 130 122 123 106 102 19 109 92 82 57 0
128 125 130 122 123 77 73 10 78 68 66 51 0
128 125 130 122 123 117 110 24 118 97 86 60 0
128 125 130 122 123 28 21 31 1 14 13 6 0
128 125 130 122 123 46 42 48 39 4 36 33 0
128 125 130 122 126 124 106 102 19 109 92 40 0
128 125 130 122 126 124 77 73 10 78 68 34 0
128 125 130 122 126 124 117 110 24 118 97 45 0
128 125 130 122 126 124 28 21 31 1 14 3 0
128 125 130 122 126 124 88 84 91 80 37 12 0
128 125 130 122 126 124 63 58 64 54 32 7 0
128 125 130 122 126 106 102 19 109 92 40 57 0
128 125 130 122 126 77 73 10 78 68 34 51 0
128 125 130 122 126 117 110 24 118 97 45 60 0
128 125 130 122 126 28 21 31 1 14 3 6 0
128 125 130 122 126 88 84 91 80 37 12 52 0
128 125 130 122 124 106 102 19 109 92 40 82 0
128 125 130 122 124 77 73 10 78 68 34 66 0
128 125 130 122 124 117 110 24 118 97 45 86 0
128 125 130 122 124 28 21 31 1 14 3 13 0
128 125 130 122 124 63 58 64 54 32 53 7 0
128 125 130 122 106 102 19 109 92 40 82 57 0
128 125 130 122 77 73 10 78 68 34 66 51 0
128 125 130 122 117 110 24 118 97 45 86 60 0
128 125 130 122 28 21 31 1 14 3 13 6 0
128 125 130 127 123 126 124 106 102 19 109 18 0
128 125 130 127 123 126 124 77 73 10 78 9 0
128 125 130 127 123 126 124 117 110 24 118 25 0
128 125 130 127 123 126 124 98 94 100 16 15 0
128 125 130 127 123 126 124 46 42 48 2 4 0
128 125 130 127 123 126 124 88 84 91 11 12 0
128 125 130 127 123 126 124 63 58 64 5 7 0
128 125 130 127 123 126 106 102 19 109 18 57 0
128 125 130 127 123 126 77 73 10 78 9 51 0
128 125 130 127 123 126 117 110 24 118 25 60 0
128 125 130 127 123 126 98 94 100 16 15 55 0
128 125 130 127 123 126 46 42 48 2 4 33 0
128 125 130 127 123 126 88 84 91 11 12 52 0
128 125 130 127 123 124 106 102 19 109 18 82 0
128 125 130 127 123 124 77 73 10 78 9 66 0
128 125 130 127 123 124 117 110 24 118 25 86 0
128 125 130 127 123 124 98 94 100 16 15 81 0
128 125 130 127 123 124 46 42 48 2 4 36 0
128 125 130 127 123 124 63 58 64 5 53 7 0
128 125 130 127 123 106 102 19 109 18 82 57 0
128 125 130 127 123 77 73 10 78 9 66 51 0
128 125 130 127 123 117 110 24 118 25 86 60 0
128 125 130 127 123 98 94 100 16 15 81 55 0
128 125 130 127 123 46 42 48 2 4 36 33 0
128 125 130 127 126 124 106 102 19 109 18 40 0
128 125 130 127 126 124 77 73 10 78 9 34 0
128 125 130 127 126 124 117 110 24 118 25 45 0
128 125 130 127 126 124 98 94 100 16 15 38 0
128 125 130 127 126 124 88 84 91 11 37 12 0
128 125 130 127 126 124 63 58 64 5 32 7 0
128 125 130 127 126 106 102 19 109 18 40 57 0
128 125 130 127 126 77 73 10 78 9 34 51 0
128 125 130 127 126 117 110 24 118 25 45 60 0
128 125 130 127 126 98 94 100 16 15 38 55 0
128 125 130 127 126 88 84 91 11 37 12 52 0
128 125 130 127 124 106 102 19 109 18 40 82 0
128 125 130 127 124 77 73 10 78 9 34 66 0
128 125 130 127 124 117 110 24 118 25 45 86 0
128 125 130 127 124 98 94 100 16 15 38 81 0
128 125 130 127 124 63 58 64 5 32 53 7 0
128 125 130 127 106 102 19 109 18 40 82 57 0
128 125 130 127 77 73 10 78 9 34 66 51 0
128 125 130 127 117 110 24 118 25 45 86 60 0
128 125 130 127 98 94 100 16 15 38 81 55 0
128 125 130 123 126 124 106 102 19 109 18 92 0
128 125 130 123 126 124 77 73 10 78 9 68 0
128 125 130 123 126 124 117 110 24 118 25 97 0
128 125 130 123 126 124 46 42 48 2 39 4 0
128 125 130 123 126 124 88 84 91 11 80 12 0
128 125 130 123 126 124 63 58 64 5 54 7 0
128 125 130 123 126 106 102 19 109 18 92 57 0
128 125 130 123 126 77 73 10 78 9 68 51 0
128 125 130 123 126 117 110 24 118 25 97 60 0
128 125 130 123 126 46 42 48 2 39 4 33 0
128 125 130 123 126 88 84 91 11 80 12 52 0
128 125 130 123 124 106 102 19 109 18 92 82 0
128 125 130 123 124 77 73 10 78 9 68 66 0
128 125 130 123 124 117 110 24 118 25 97 86 0
128 125 130 123 124 46 42 48 2 39 4 36 0
128 125 130 123 124 63 58 64 5 54 53 7 0
128 125 130 123 106 102 19 109 18 92 82 57 0
128 125 130 123 77 73 10 78 9 68 66 51 0
128 125 130 123 117 110 24 118 25 97 86 60 0
128 125 130 123 46 42 48 2 39 4 36 33 0
128 125 130 126 124 106 102 19 109 18 92 40 0
128 125 130 126 124 77 73 10 78 9 68 34 0
128 125 130 126 124 117 110 24 118 25 97 45 0
128 125 130 126 124 88 84 91 11 80 37 12 0
128 125 130 126 124 63 58 64 5 54 32 7 0
128 125 130 126 106 102 19 109 18 92 40 57 0
128 125 130 126 77 73 10 78 9 68 34 51 0
128 125 130 126 117 110 24 118 25 97 45 60 0
128 125 130 126 88 84 91 11 80 37 12 52 0
128 125 130 124 106 102 19 109 18 92 40 82 0
128 125 130 124 77 73 10 78 9 68 34 66 0
128 125 130 124 117 110 24 118 25 97 45 86 0
128 125 130 124 63 58 64 5 54 32 53 7 0
128 125 130 106 102 19 109 18 92 40 82 57 0
128 125 130 77 73 10 78 9 68 34 66 51 0
128 125 130 117 110 24 118 25 97 45 86 60 0
128 125 132 122 127 123 126 124 106 102 19 105 0
128 125 132 122 127 123 126 124 77 73 10 75 0
128 125 132 122 127 123 126 124 120 115 119 30 0
128 125 132 122 127 123 126 124 28 21 23 1 0
128 125 132 122 127 123 126 124 98 94 96 15 0
128 125 132 122 127 123 126 124 46 42 44 4 0
128 125 132 122 127 123 126 124 88 84 87 12 0
128 125 132 122 127 123 126 124 63 58 61 7 0
128 125 132 122 127 123 126 106 102 19 105 57 0
128 125 132 122 127 123 126 77 73 10 75 51 0
128 125 132 122 127 123 126 120 115 119 30 65 0
128 125 132 122 127 123 126 28 21 23 1 6 0
128 125 132 122 127 123 126 98 94 96 15 55 0
128 125 132 122 127 123 126 46 42 44 4 33 0
128 125 132 122 127 123 126 88 84 87 12 52 0
128 125 132 122 127 123 124 106 102 19 105 82 0
128 125 132 122 127 123 124 77 73 10 75 66 0
128 125 132 122 127 123 124 120 115 119 30 90 0
128 125 132 122 127 123 124 28 21 23 1 13 0
128 125 132 122 127 123 124 98 94 96 15 81 0
128 125 132 122 127 123 124 46 42 44 4 36 0
128 125 132 122 127 123 124 63 58 61 53 7 0
128 125 132 122 127 123 106 102 19 105 82 57 0
128 125 132 122 127 123 77 73 10 75 66 51 0
128 125 132 122 127 123 120 115 119 30 90 65 0
128 125 132 122 127 123 28 21 23 1 13 6 0
128 125 132 122 127 123 98 94 96 15 81 55 0
128 125 132 122 127 123 46 42 44 4 36 33 0
128 125 132 122 127 126 124 106 102 19 105 40 0
128 125 132 122 127 126 124 77 73 10 75 34 0
128 125 132 122 127 126 124 120 115 119 30 49 0
128 125 132 122 127 126 124 28 21 23 1 3 0
128 125 132 122 127 126 124 98 94 96 15 38 0
128 125 132 122 127 126 124 88 84 87 37 12 0
128 125 132 122 127 126 124 63 58 61 32 7 0
128 125 132 122 127 126 106 102 19 105 40 57 0
128 125 132 122 127 126 77 73 10 75 34 51 0
128 125 132 122 127 126 120 115 119 30 49 65 0
128 125 132 122 127 126 28 21 23 1 3 6 0
128 125 132 122 127 126 98 94 96 15 38 55 0
128 125 132 122 127 126 88 84 87 37 12 52 0
128 125 132 122 127 124 106 102 19 105 40 82 0
128 125 132 122 127 124 77 73 10 75 34 66 0
128 125 132 122 127 124 120 115 119 30 49 90 0
128 125 132 122 127 124 28 21 23 1 3 13 0
128 125 132 122 127 124 98 94 96 15 38 81 0
128 125 132 122 127 124 63 58 61 32 53 7 0
128 125 132 122 127 106 102 19 105 40 82 57 0
128 125 132 122 127 77 73 10 75 34 66 51 0
128 125 132 122 127 120 115 119 30 49 90 65 0
128 125 132 122 127 28 21 23 1 3 13 6 0
128 125 132 122 127 98 94 96 15 38 81 55 0
128 125 132 122 123 126 124 106 102 19 105 92 0
128 125 132 122 123 126 124 77 73 10 75 68 0
128 125 132 122 123 126 124 120 115 119 30 101 0
128 125 132 122 123 126 124 28 21 23 1 14 0
128 125 132 122 123 126 124 46 42 44 39 4 0
128 125 132 122 123 126 124 88 84 87 80 12 0
128 125 132 122 123 126 124 63 58 61 54 7 0
128 125 132 122 123 126 106 102 19 105 92 57 0
128 125 132 122 123 126 77 73 10 75 68 51 0
128 125 132 122 123 126 120 115 119 30 101 65 0
128 125 132 122 123 126 28 21 23 1 14 6 0
128 125 132 122 123 126 46 42 44 39 4 33 0
128 125 132 122 123 126 88 84 87 80 12 52 0
128 125 132 122 123 124 106 102 19 105 92 82 0
128 125 132 122 123 124 77 73 10 75 68 66 0
128 125 132 122 123 124 120 115 119 30 101 90 0
128 125 132 122 123 124 28 21 23 1 14 13 0
128 125 132 122 123 124 46 42 44 39 4 36 0
128 125 132 122 123 124 63 58 61 54 53 7 0
128 125 132 122 123 106 102 19 105 92 82 57 0
128 125 132 122 123 77 73 10 75 68 66 51 0
128 125 132 122 123 120 115 119 30 101 90 65 0
128 125 132 122 123 28 21 23 1 14 13 6 0
128 125 132 122 123 46 42 44 39 4 36 33 0
128 125 132 122 126 124 106 102 19 105 92 40 0
128 125 132 122 126 124 77 73 10 75 68 34 0
128 125 132 122 126 124 120 115 119 30 101 49 0
128 125 132 122 126 124 28 21 23 1 14 3 0
128 125 132 122 126 124 88 84 87 80 37 12 0
128 125 132 122 126 124 63 58 61 54 32 7 0
128 125 132 122 126 106 102 19 105 92 40 57 0
128 125 132 122 126 77 73 10 75 68 34 51 0
128 125 132 122 126 120 115 119 30 101 49 65 0
128 125 132 122 126 28 21 23 1 14 3 6 0
128 125 132 122 126 88 84 87 80 37 12 52 0
128 125 132 122 124 106 102 19 105 92 40 82 0
128 125 132 122 124 77 73 10 75 68 34 66 0
128 125 132 122 124 120 115 119 30 101 49 90 0
128 125 132 122 124 28 21 23 1 14 3 13 0
128 125 132 122 124 63 58 61 54 32 53 7 0
128 125 132 122 106 102 19 105 92 40 82 57 0
128 125 132 122 77 73 10 75 68 34 66 51 0
128 125 132 122 120 115 119 30 101 49 90 65 0
128 125 132 122 28 21 23 1 14 3 13 6 0
128 125 132 127 123 126 124 106 102 19 105 18 0
128 125 132 127 123 126 124 77 73 10 75 9 0
128 125 132 127 123 126 124 120 115 119 30 29 0
128 125 132 127 123 126 124 98 94 96 16 15 0
128 125 132 127 123 126 124 46 42 44 2 4 0
128 125 132 127 123 126 124 88 84 87 11 12 0
128 125 132 127 123 126 124 63 58 61 5 7 0
128 125 132 127 123 126 106 102 19 105 18 57 0
128 125 132 127 123 126 77 73 10 75 9 51 0
128 125 132 127 123 126 120 115 119 30 29 65 0
128 125 132 127 123 126 98 94 96 16 15 55 0
128 125 132 127 123 126 46 42 44 2 4 33 0
128 125 132 127 123 126 88 84 87 11 12 52 0
128 125 132 127 123 124 106 102 19 105 18 82 0
128 125 132 127 123 124 77 73 10 75 9 66 0
128 125 132 127 123 124 120 115 119 30 29 90 0
128 125 132 127 123 124 98 94 96 16 15 81 0
128 125 132 127 123 124 46 42 44 2 4 36 0
128 125 132 127 123 124 63 58 61 5 53 7 0
128 125 132 127 123 106 102 19 105 18 82 57 0
128 125 132 127 123 77 73 10 75 9 66 51 0
128 125 132 127 123 120 115 119 30 29 90 65 0
128 125 132 127 123 98 94 96 16 15 81 55 0
128 125 132 127 123 46 42 44 2 4 36 33 0
128 125 132 127 126 124 106 102 19 105 18 40 0
128 125 132 127 126 124 77 73 10 75 9 34 0
128 125 132 127 126 124 120 115 119 30 29 49 0
128 125 132 127 126 124 98 94 96 16 15 38 0
128 125 132 127 126 124 88 84 87 11 37 12 0
128 125 132 127 126 124 63 58 61 5 32 7 0
128 125 132 127 126 106 102 19 105 18 40 57 0
128 125 132 127 126 77 73 10 75 9 34 51 0
128 125 132 127 126 120 115 119 30 29 49 65 0
128 125 132 127 126 98 94 96 16 15 38 55 0
128 125 132 127 126 88 84 87 11 37 12 52 0
128 125 132 127 124 106 102 19 105 18 40 82 0
128 125 132 127 124 77 73 10 75 9 34 66 0
128 125 132 127 124 120 115 119 30 29 49 90 0
128 125 132 127 124 98 94 96 16 15 38 81 0
128 125 132 127 124 63 58 61 5 32 53 7 0
128 125 132 127 106 102 19 105 18 40 82 57 0
128 125 132 127 77 73 10 75 9 34 66 51 0
128 125 132 127 120 115 119 30 29 49 90 65 0
128 125 132 127 98 94 96 16 15 38 81 55 0
128 125 132 123 126 124 106 102 19 105 18 92 0
128 125 132 123 126 124 77 73 10 75 9 68 0
128 125 132 123 126 124 120 115 119 30 29 101 0
128 125 132 123 126 124 46 42 44 2 39 4 0
128 125 132 123 126 124 88 84 87 11 80 12 0
128 125 132 123 126 124 63 58 61 5 54 7 0
128 125 132 123 126 106 102 19 105 18 92 57 0
128 125 132 123 126 77 73 10 75 9 68 51 0
128 125 132 123 126 120 115 119 30 29 101 65 0
128 125 132 123 126 46 42 44 2 39 4 33 0
128 125 132 123 126 88 84 87 11 80 12 52 0
128 125 132 123 124 106 102 19 105 18 92 82 0
128 125 132 123 124 77 73 10 75 9 68 66 0
128 125 132 123 124 120 115 119 30 29 101 90 0
128 125 132 123 124 46 42 44 2 39 4 36 0
128 125 132 123 124 63 58 61 5 54 53 7 0
128 125 132 123 106 102 19 105 18 92 82 57 0
128 125 132 123 77 73 10 75 9 68 66 51 0
128 125 132 123 120 115 119 30 29 101 90 65 0
128 125 132 123 46 42 44 2 39 4 36 33 0
128 125 132 126 124 106 102 19 105 18 92 40 0
128 125 132 126 124 77 73 10 75 9 68 34 0
128 125 132 126 124 120 115 119 30 29 101 49 0
128 125 132 126 124 88 84 87 11 80 37 12 0
128 125 132 126 124 63 58 61 5 54 32 7 0
128 125 132 126 106 102 19 105 18 92 40 57 0
128 125 132 126 77 73 10 75 9 68 34 51 0
128 125 132 126 120 115 119 30 29 101 49 65 0
128 125 132 126 88 84 87 11 80 37 12 52 0
128 125 132 124 106 102 19 105 18 92 40 82 0
128 125 132 124 77 73 10 75 9 68 34 66 0
128 125 132 124 120 115 119 30 29 101 49 90 0
128 125 132 124 63 58 61 5 54 32 53 7 0
128 125 132 106 102 19 105 18 92 40 82 57 0
128 125 132 77 73 10 75 9 68 34 66 51 0
128 125 132 120 115 119 30 29 101 49 90 65 0
128 125 122 127 123 126 124 106 102 19 105 109 0
128 125 122 127 123 126 124 77 73 10 75 78 0
128 125 122 127 123 126 124 28 21 23 31 1 0
128 125 122 127 123 126 124 98 94 96 100 15 0
128 125 122 127 123 126 124 46 42 44 48 4 0
128 125 122 127 123 126 124 88 84 87 91 12 0
128 125 122 127 123 126 124 63 58 61 64 7 0
128 125 122 127 123 126 106 102 19 105 109 57 0
128 125 122 127 123 126 77 73 10 75 78 51 0
128 125 122 127 123 126 28 21 23 31 1 6 0
128 125 122 127 123 126 98 94 96 100 15 55 0
128 125 122 127 123 126 46 42 44 48 4 33 0
128 125 122 127 123 126 88 84 87 91 12 52 0
128 125 122 127 123 124 106 102 19 105 109 82 0
128 125 122 127 123 124 77 73 10 75 78 66 0
128 125 122 127 123 124 28 21 23 31 1 13 0
128 125 122 127 123 124 98 94 96 100 15 81 0
128 125 122 127 123 124 46 42 44 48 4 36 0
128 125 122 127 123 124 63 58 61 64 53 7 0
128 125 122 127 123 106 102 19 105 109 82 57 0
128 125 122 127 123 77 73 10 75 78 66 51 0
128 125 122 127 123 28 21 23 31 1 13 6 0
128 125 122 127 123 98 94 96 100 15 81 55 0
128 125 122 127 123 46 42 44 48 4 36 33 0
128 125 122 127 126 124 106 102 19 105 109 40 0
128 125 122 127 126 124 77 73 10 75 78 34 0
128 125 122 127 126 124 28 21 23 31 1 3 0
128 125 122 127 126 124 98 94 96 100 15 38 0
128 125 122 127 126 124 88 84 87 91 37 12 0
128 125 122 127 126 124 63 58 61 64 32 7 0
128 125 122 127 126 106 102 19 105 109 40 57 0
128 125 122 127 126 77 73 10 75 78 34 51 0
128 125 122 127 126 28 21 23 31 1 3 6 0
128 125 122 127 126 98 94 96 100 15 38 55 0
128 125 122 127 126 88 84 87 91 37 12 52 0
128 125 122 127 124 106 102 19 105 109 40 82 0
128 125 122 127 124 77 73 10 75 78 34 66 0
128 125 122 127 124 28 21 23 31 1 3 13 0
128 125 122 127 124 98 94 96 100 15 38 81 0
128 125 122 127 124 63 58 61 64 32 53 7 0
128 125 122 127 106 102 19 105 109 40 82 57 0
128 125 122 127 77 73 10 75 78 34 66 51 0
128 125 122 127 28 21 23 31 1 3 13 6 0
128 125 122 127 98 94 96 100 15 38 81 55 0
128 125 122 123 126 124 106 102 19 105 109 92 0
128 125 122 123 126 124 77 73 10 75 78 68 0
128 125 122 123 126 124 28 21 23 31 1 14 0
128 125 122 123 126 124 46 42 44 48 39 4 0
128 125 122 123 126 124 88 84 87 91 80 12 0
128 125 122 123 126 124 63 58 61 64 54 7 0
128 125 122 123 126 106 102 19 105 109 92 57 0
128 125 122 123 126 77 73 10 75 78 68 51 0
128 125 122 123 126 28 21 23 31 1 14 6 0
128 125 122 123 126 46 42 44 48 39 4 33 0
128 125 122 123 126 88 84 87 91 80 12 52 0
128 125 122 123 124 106 102 19 105 109 92 82 0
128 125 122 123 124 77 73 10 75 78 68 66 0
128 125 122 123 124 28 21 23 31 1 14 13 0
128 125 122 123 124 46 42 44 48 39 4 36 0
128 125 122 123 124 63 58 61 64 54 53 7 0
128 125 122 123 106 102 19 105 109 92 82 57 0
128 125 122 123 77 73 10 75 78 68 66 51 0
128 125 122 123 28 21 23 31 1 14 13 6 0
128 125 122 123 46 42 44 48 39 4 36 33 0
128 125 122 126 124 106 102 19 105 109 92 40 0
128 125 122 126 124 77 73 10 75 78 68 34 0
128 125 122 126 124 28 21 23 31 1 14 3 0
128 125 122 126 124 88 84 87 91 80 37 12 0
128 125 122 126 124 63 58 61 64 54 32 7 0
128 125 122 126 106 102 19 105 109 92 40 57 0
128 125 122 126 77 73 10 75 78 68 34 51 0
128 125 122 126 28 21 23 31 1 14 3 6 0
128 125 122 126 88 84 87 91 80 37 12 52 0
128 125 122 124 106 102 19 105 109 92 40 82 0
128 125 122 124 77 73 10 75 78 68 34 66 0
128 125 122 124 28 21 23 31 1 14 3 13 0
128 125 122 124 63 58 61 64 54 32 53 7 0
128 125 122 106 102 19 105 109 92 40 82 57 0
128 125 122 77 73 10 75 78 68 34 66 51 0
128 125 122 28 21 23 31 1 14 3 13 6 0
128 125 127 123 126 124 106 102 19 105 109 18 0
128 125 127 123 126 124 77 73 10 75 78 9 0
128 125 127 123 126 124 98 94 96 100 16 15 0
128 125 127 123 126 124 46 42 44 48 2 4 0
128 125 127 123 126 124 88 84 87 91 11 12 0
128 125 127 123 126 124 63 58 61 64 5 7 0
128 125 127 123 126 106 102 19 105 109 18 57 0
128 125 127 123 126 77 73 10 75 78 9 51 0
128 125 127 123 126 98 94 96 100 16 15 55 0
128 125 127 123 126 46 42 44 48 2 4 33 0
128 125 127 123 126 88 84 87 91 11 12 52 0
128 125 127 123 124 106 102 19 105 109 18 82 0
128 125 127 123 124 77 73 10 75 78 9 66 0
128 125 127 123 124 98 94 96 100 16 15 81 0
128 125 127 123 124 46 42 44 48 2 4 36 0
128 125 127 123 124 63 58 61 64 5 53 7 0
128 125 127 123 106 102 19 105 109 18 82 57 0
128 125 127 123 77 73 10 75 78 9 66 51 0
128 125 127 123 98 94 96 100 16 15 81 55 0
128 125 127 123 46 42 44 48 2 4 36 33 0
128 125 127 126 124 106 102 19 105 109 18 40 0
128 125 127 126 124 77 73 10 75 78 9 34 0
128 125 127 126 124 98 94 96 100 16 15 38 0
128 125 127 126 124 88 84 87 91 11 37 12 0
128 125 127 126 124 63 58 61 64 5 32 7 0
128 125 127 126 106 102 19 105 109 18 40 57 0
128 125 127 126 77 73 10 75 78 9 34 51 0
128 125 127 126 98 94 96 100 16 15 38 55 0
128 125 127 126 88 84 87 91 11 37 12 52 0
128 125 127 124 106 102 19 105 109 18 40 82 0
128 125 127 124 77 73 10 75 78 9 34 66 0
128 125 127 124 98 94 96 100 16 15 38 81 0
128 125 127 124 63 58 61 64 5 32 53 7 0
128 125 127 106 102 19 105 109 18 40 82 57 0
128 125 127 77 73 10 75 78 9 34 66 51 0
128 125 127 98 94 96 100 16 15 38 81 55 0
128 125 123 126 124 106 102 19 105 109 18 92 0
128 125 123 126 124 77 73 10 75 78 9 68 0
128 125 123 126 124 46 42 44 48 2 39 4 0
128 125 123 126 124 88 84 87 91 11 80 12 0
128 125 123 126 124 63 58 61 64 5 54 7 0
128 125 123 126 106 102 19 105 109 18 92 57 0
128 125 123 126 77 73 10 75 78 9 68 51 0
128 125 123 126 46 42 44 48 2 39 4 33 0
128 125 123 126 88 84 87 91 11 80 12 52 0
128 125 123 124 106 102 19 105 109 18 92 82 0
128 125 123 124 77 73 10 75 78 9 68 66 0
128 125 123 124 46 42 44 48 2 39 4 36 0
128 125 123 124 63 58 61 64 5 54 53 7 0
128 125 123 106 102 19 105 109 18 92 82 57 0
128 125 123 77 73 10 75 78 9 68 66 51 0
128 125 123 46 42 44 48 2 39 4 36 33 0
128 125 126 124 106 102 19 105 109 18 92 40 0
128 125 126 124 77 73 10 75 78 9 68 34 0
128 125 126 124 88 84 87 91 11 80 37 12 0
128 125 126 124 63 58 61 64 5 54 32 7 0
128 125 126 106 102 19 105 109 18 92 40 57 0
128 125 126 77 73 10 75 78 9 68 34 51 0
128 125 126 88 84 87 91 11 80 37 12 52 0
128 125 124 106 102 19 105 109 18 92 40 82 0
128 125 124 77 73 10 75 78 9 68 34 66 0
128 125 124 63 58 61 64 5 54 32 53 7 0
128 125 106 102 19 105 109 18 92 40 82 57 0
128 125 77 73 10 75 78 9 68 34 66 51 0
128 130 132 122 127 123 126 124 106 102 19 70 0
128 130 132 122 127 123 126 124 117 110 74 24 0
128 130 132 122 127 123 126 124 120 115 79 30 0
128 130 132 122 127 123 126 124 28 21 8 1 0
128 130 132 122 127 123 126 124 98 94 69 15 0
128 130 132 122 127 123 126 124 46 42 35 4 0
128 130 132 122 127 123 126 124 88 84 67 12 0
128 130 132 122 127 123 126 124 63 58 50 7 0
128 130 132 122 127 123 126 106 102 19 70 57 0
128 130 132 122 127 123 126 117 110 74 24 60 0
128 130 132 122 127 123 126 120 115 79 30 65 0
128 130 132 122 127 123 126 28 21 8 1 6 0
128 130 132 122 127 123 126 98 94 69 15 55 0
128 130 132 122 127 123 126 46 42 35 4 33 0
128 130 132 122 127 123 126 88 84 67 12 52 0
128 130 132 122 127 123 124 106 102 19 70 82 0
128 130 132 122 127 123 124 117 110 74 24 86 0
128 130 132 122 127 123 124 120 115 79 30 90 0
128 130 132 122 127 123 124 28 21 8 1 13 0
128 130 132 122 127 123 124 98 94 69 15 81 0
128 130 132 122 127 123 124 46 42 35 4 36 0
128 130 132 122 127 123 124 63 58 50 53 7 0
128 130 132 122 127 123 106 102 19 70 82 57 0
128 130 132 122 127 123 117 110 74 24 86 60 0
128 130 132 122 127 123 120 115 79 30 90 65 0
128 130 132 122 127 123 28 21 8 1 13 6 0
128 130 132 122 127 123 98 94 69 15 81 55 0
128 130 132 122 127 123 46 42 35 4 36 33 0
128 130 132 122 127 126 124 106 102 19 70 40 0
128 130 132 122 127 126 124 117 110 74 24 45 0
128 130 132 122 127 126 124 120 115 79 30 49 0
128 130 132 122 127 126 124 28 21 8 1 3 0
128 130 132 122 127 126 124 98 94 69 15 38 0
128 130 132 122 127 126 124 88 84 67 37 12 0
128 130 132 122 127 126 124 63 58 50 32 7 0
128 130 132 122 127 126 106 102 19 70 40 57 0
128 130 132 122 127 126 117 110 74 24 45 60 0
128 130 132 122 127 126 120 115 79 30 49 65 0
128 130 132 122 127 126 28 21 8 1 3 6 0
128 130 132 122 127 126 98 94 69 15 38 55 0
128 130 132 122 127 126 88 84 67 37 12 52 0
128 130 132 122 127 124 106 102 19 70 40 82 0
128 130 132 122 127 124 117 110 74 24 45 86 0
128 130 132 122 127 124 120 115 79 30 49 90 0
128 130 132 122 127 124 28 21 8 1 3 13 0
128 130 132 122 127 124 98 94 69 15 38 81 0
128 130 132 122 127 124 63 58 50 32 53 7 0
128 130 132 122 127 106 102 19 70 40 82 57 0
128 130 132 122 127 117 110 74 24 45 86 60 0
128 130 132 122 127 120 115 79 30 49 90 65 0
128 130 132 122 127 28 21 8 1 3 13 6 0
128 130 132 122 127 98 94 69 15 38 81 55 0
128 130 132 122 123 126 124 106 102 19 70 92 0
128 130 132 122 123 126 124 117 110 74 24 97 0
128 130 132 122 123 126 124 120 115 79 30 101 0
128 130 132 122 123 126 124 28 21 8 1 14 0
128 130 132 122 123 126 124 46 42 35 39 4 0
128 130 132 122 123 126 124 88 84 67 80 12 0
128 130 132 122 123 126 124 63 58 50 54 7 0
128 130 132 122 123 126 106 102 19 70 92 57 0
128 130 132 122 123 126 117 110 74 24 97 60 0
128 130 132 122 123 126 120 115 79 30 101 65 0
128 130 132 122 123 126 28 21 8 1 14 6 0
128 130 132 122 123 126 46 42 35 39 4 33 0
128 130 132 122 123 126 88 84 67 80 12 52 0
128 130 132 122 123 124 106 102 19 70 92 82 0
128 130 132 122 123 124 117 110 74 24 97 86 0
128 130 132 122 123 124 120 115 79 30 101 90 0
128 130 132 122 123 124 28 21 8 1 14 13 0
128 130 132 122 123 124 46 42 35 39 4 36 0
128 130 132 122 123 124 63 58 50 54 53 7 0
128 130 132 122 123 106 102 19 70 92 82 57 0
128 130 132 122 123 117 110 74 24 97 86 60 0
128 130 132 122 123 120 115 79 30 101 90 65 0
128 130 132 122 123 28 21 8 1 14 13 6 0
128 130 132 122 123 46 42 35 39 4 36 33 0
128 130 132 122 126 124 106 102 19 70 92 40 0
128 130 132 122 126 124 117 110 74 24 97 45 0
128 130 132 122 126 124 120 115 79 30 101 49 0
128 130 132 122 126 124 28 21 8 1 14 3 0
128 130 132 122 126 124 88 84 67 80 37 12 0
128 130 132 122 126 124 63 58 50 54 32 7 0
128 130 132 122 126 106 102 19 70 92 40 57 0
128 130 132 122 126 117 110 74 24 97 45 60 0
128 130 132 122 126 120 115 79 30 101 49 65 0
128 130 132 122 126 28 21 8 1 14 3 6 0
128 130 132 122 126 88 84 67 80 37 12 52 0
128 130 132 122 124 106 102 19 70 92 40 82 0
128 130 132 122 124 117 110 74 24 97 45 86 0
128 130 132 122 124 120 115 79 30 101 49 90 0
128 130 132 122 124 28 21 8 1 14 3 13 0
128 130 132 122 124 63 58 50 54 32 53 7 0
128 130 132 122 106 102 19 70 92 40 82 57 0
128 130 132 122 117 110 74 24 97 45 86 60 0
128 130 132 122 120 115 79 30 101 49 90 65 0
128 130 132 122 28 21 8 1 14 3 13 6 0
128 130 132 127 123 126 124 106 102 19 70 18 0
128 130 132 127 123 126 124 117 110 74 24 25 0
128 130 132 127 123 126 124 120 115 79 30 29 0
128 130 132 127 123 126 124 98 94 69 16 15 0
128 130 132 127 123 126 124 46 42 35 2 4 0
128 130 132 127 123 126 124 88 84 67 11 12 0
128 130 132 127 123 126 124 63 58 50 5 7 0
128 130 132 127 123 126 106 102 19 70 18 57 0
128 130 132 127 123 126 117 110 74 24 25 60 0
128 130 132 127 123 126 120 115 79 30 29 65 0
128 130 132 127 123 126 98 94 69 16 15 55 0
128 130 132 127 123 126 46 42 35 2 4 33 0
128 130 132 127 123 126 88 84 67 11 12 52 0
128 130 132 127 123 124 106 102 19 70 18 82 0
128 130 132 127 123 124 117 110 74 24 25 86 0
128 130 132 127 123 124 120 115 79 30 29 90 0
128 130 132 127 123 124 98 94 69 16 15 81 0
128 130 132 127 123 124 46 42 35 2 4 36 0
128 130 132 127 123 124 63 58 50 5 53 7 0
128 130 132 127 123 106 102 19 70 18 82 57 0
128 130 132 127 123 117 110 74 24 25 86 60 0
128 130 132 127 123 120 115 79 30 29 90 65 0
128 130 132 127 123 98 94 69 16 15 81 55 0
128 130 132 127 123 46 42 35 2 4 36 33 0
128 130 132 127 126 124 106 102 19 70 18 40 0
128 130 132 127 126 124 117 110 74 24 25 45 0
128 130 132 127 126 124 120 115 79 30 29 49 0
128 130 132 127 126 124 98 94 69 16 15 38 0
128 130 132 127 126 124 88 84 67 11 37 12 0
128 130 132 127 126 124 63 58 50 5 32 7 0
128 130 132 127 126 106 102 19 70 18 40 57 0
128 130 132 127 126 117 110 74 24 25 45 60 0
128 130 132 127 126 120 115 79 30 29 49 65 0
128 130 132 127 126 98 94 69 16 15 38 55 0
128 130 132 127 126 88 84 67 11 37 12 52 0
128 130 132 127 124 106 102 19 70 18 40 82 0
128 130 132 127 124 117 110 74 24 25 45 86 0
128 130 132 127 124 120 115 79 30 29 49 90 0
128 130 132 127 124 98 94 69 16 15 38 81 0
128 130 132 127 124 63 58 50 5 32 53 7 0
128 130 132 127 106 102 19 70 18 40 82 57 0
128 130 132 127 117 110 74 24 25 45 86 60 0
128 130 132 127 120 115 79 30 29 49 90 65 0
128 130 132 127 98 94 69 16 15 38 81 55 0
128 130 132 123 126 124 106 102 19 70 18 92 0
128 130 132 123 126 124 117 110 74 24 25 97 0
128 130 132 123 126 124 120 115 79 30 29 101 0
128 130 132 123 126 124 46 42 35 2 39 4 0
128 130 132 123 126 124 88 84 67 11 80 12 0
128 130 132 123 126 124 63 58 50 5 54 7 0
128 130 132 123 126 106 102 19 70 18 92 57 0
128 130 132 123 126 117 110 74 24 25 97 60 0
128 130 132 123 126 120 115 79 30 29 101 65 0
128 130 132 123 126 46 42 35 2 39 4 33 0
128 130 132 123 126 88 84 67 11 80 12 52 0
128 130 132 123 124 106 102 19 70 18 92 82 0
128 130 132 123 124 117 110 74 24 25 97 86 0
128 130 132 123 124 120 115 79 30 29 101 90 0
128 130 132 123 124 46 42 35 2 39 4 36 0
128 130 132 123 124 63 58 50 5 54 53 7 0
128 130 132 123 106 102 19 70 18 92 82 57 0
128 130 132 123 117 110 74 24 25 97 86 60 0
128 130 132 123 120 115 79 30 29 101 90 65 0
128 130 132 123 46 42 35 2 39 4 36 33 0
128 130 132 126 124 106 102 19 70 18 92 40 0
128 130 132 126 124 117 110 74 24 25 97 45 0
128 130 132 126 124 120 115 79 30 29 101 49 0
128 130 132 126 124 88 84 67 11 80 37 12 0
128 130 132 126 124 63 58 50 5 54 32 7 0
128 130 132 126 106 102 19 70 18 92 40 57 0
128 130 132 126 117 110 74 24 25 97 45 60 0
128 130 132 126 120 115 79 30 29 101 49 65 0
128 130 132 126 88 84 67 11 80 37 12 52 0
128 130 132 124 106 102 19 70 18 92 40 82 0
128 130 132 124 117 110 74 24 25 97 45 86 0
128 130 132 124 120 115 79 30 29 101 49 90 0
128 130 132 124 63 58 50 5 54 32 53 7 0
128 130 132 106 102 19 70 18 92 40 82 57 0
128 130 132 117 110 74 24 25 97 45 86 60 0
128 130 132 120 115 79 30 29 101 49 90 65 0
128 130 122 127 123 126 124 106 102 19 70 109 0
128 130 122 127 123 126 124 117 110 74 24 118 0
128 130 122 127 123 126 124 28 21 8 31 1 0
128 130 122 127 123 126 124 98 94 69 100 15 0
128 130 122 127 123 126 124 46 42 35 48 4 0
128 130 122 127 123 126 124 88 84 67 91 12 0
128 130 122 127 123 126 124 63 58 50 64 7 0
128 130 122 127 123 126 106 102 19 70 109 57 0
128 130 122 127 123 126 117 110 74 24 118 60 0
128 130 122 127 123 126 28 21 8 31 1 6 0
128 130 122 127 123 126 98 94 69 100 15 55 0
128 130 122 127 123 126 46 42 35 48 4 33 0
128 130 122 127 123 126 88 84 67 91 12 52 0
128 130 122 127 123 124 106 102 19 70 109 82 0
128 130 122 127 123 124 117 110 74 24 118 86 0
128 130 122 127 123 124 28 21 8 31 1 13 0
128 130 122 127 123 124 98 94 69 100 15 81 0
128 130 122 127 123 124 46 42 35 48 4 36 0
128 130 122 127 123 124 63 58 50 64 53 7 0
128 130 122 127 123 106 102 19 70 109 82 57 0
128 130 122 127 123 117 110 74 24 118 86 60 0
128 130 122 127 123 28 21 8 31 1 13 6 0
128 130 122 127 123 98 94 69 100 15 81 55 0
128 130 122 127 123 46 42 35 48 4 36 33 0
128 130 122 127 126 124 106 102 19 70 109 40 0
128 130 122 127 126 124 117 110 74 24 118 45 0
128 130 122 127 126 124 28 21 8 31 1 3 0
128 130 122 127 126 124 98 94 69 100 15 38 0
128 130 122 127 126 124 88 84 67 91 37 12 0
128 130 122 127 126 124 63 58 50 64 32 7 0
128 130 122 127 126 106 102 19 70 109 40 57 0
128 130 122 127 126 117 110 74 24 118 45 60 0
128 130 122 127 126 28 21 8 31 1 3 6 0
128 130 122 127 126 98 94 69 100 15 38 55 0
128 130 122 127 126 88 84 67 91 37 12 52 0
128 130 122 127 124 106 102 19 70 109 40 82 0
128 130 122 127 124 117 110 74 24 118 45 86 0
128 130 122 127 124 28 21 8 31 1 3 13 0
128 130 122 127 124 98 94 69 100 15 38 81 0
128 130 122 127 124 63 58 50 64 32 53 7 0
128 130 122 127 106 102 19 70 109 40 82 57 0
128 130 122 127 117 110 74 24 118 45 86 60 0
128 130 122 127 28 21 8 31 1 3 13 6 0
128 130 122 127 98 94 69 100 15 38 81 55 0
128 130 122 123 126 124 106 102 19 70 109 92 0
128 130 122 123 126 124 117 110 74 24 118 97 0
128 130 122 123 126 124 28 21 8 31 1 14 0
128 130 122 123 126 124 46 42 35 48 39 4 0
128 130 122 123 126 124 88 84 67 91 80 12 0
128 130 122 123 126 124 63 58 50 64 54 7 0
128 130 122 123 126 106 102 19 70 109 92 57 0
128 130 122 123 126 117 110 74 24 118 97 60 0
128 130 122 123 126 28 21 8 31 1 14 6 0
128 130 122 123 126 46 42 35 48 39 4 33 0
128 130 122 123 126 88 84 67 91 80 12 52 0
128 130 122 123 124 106 102 19 70 109 92 82 0
128 130 122 123 124 117 110 74 24 118 97 86 0
128 130 122 123 124 28 21 8 31 1 14 13 0
128 130 122 123 124 46 42 35 48 39 4 36 0
128 130 122 123 124 63 58 50 64 54 53 7 0
128 130 122 123 106 102 19 70 109 92 82 57 0
128 130 122 123 117 110 74 24 118 97 86 60 0
128 130 122 123 28 21 8 31 1 14 13 6 0
128 130 122 123 46 42 35 48 39 4 36 33 0
128 130 122 126 124 106 102 19 70 109 92 40 0
128 130 122 126 124 117 110 74 24 118 97 45 0
128 130 122 126 124 28 21 8 31 1 14 3 0
128 130 122 126 124 88 84 67 91 80 37 12 0
128 130 122 126 124 63 58 50 64 54 32 7 0
128 130 122 126 106 102 19 70 109 92 40 57 0
128 130 122 126 117 110 74 24 118 97 45 60 0
128 130 122 126 28 21 8 31 1 14 3 6 0
128 130 122 126 88 84 67 91 80 37 12 52 0
128 130 122 124 106 102 19 70 109 92 40 82 0
128 130 122 124 117 110 74 24 118 97 45 86 0
128 130 122 124 28 21 8 31 1 14 3 13 0
128 130 122 124 63 58 50 64 54 32 53 7 0
128 130 122 106 102 19 70 109 92 40 82 57 0
128 130 122 117 110 74 24 118 97 45 86 60 0
128 130 122 28 21 8 31 1 14 3 13 6 0
128 130 127 123 126 124 106 102 19 70 109 18 0
128 130 127 123 126 124 117 110 74 24 118 25 0
128 130 127 123 126 124 98 94 69 100 16 15 0
128 130 127 123 126 124 46 42 35 48 2 4 0
128 130 127 123 126 124 88 84 67 91 11 12 0
128 130 127 123 126 124 63 58 50 64 5 7 0
128 130 127 123 126 106 102 19 70 109 18 57 0
128 130 127 123 126 117 110 74 24 118 25 60 0
128 130 127 123 126 98 94 69 100 16 15 55 0
128 130 127 123 126 46 42 35 48 2 4 33 0
128 130 127 123 126 88 84 67 91 11 12 52 0
128 130 127 123 124 106 102 19 70 109 18 82 0
128 130 127 123 124 117 110 74 24 118 25 86 0
128 130 127 123 124 98 94 69 100 16 15 81 0
128 130 127 123 124 46 42 35 48 2 4 36 0
128 130 127 123 124 63 58 50 64 5 53 7 0
128 130 127 123 106 102 19 70 109 18 82 57 0
128 130 127 123 117 110 74 24 118 25 86 60 0
128 130 127 123 98 94 69 100 16 15 81 55 0
128 130 127 123 46 42 35 48 2 4 36 33 0
128 130 127 126 124 106 102 19 70 109 18 40 0
128 130 127 126 124 117 110 74 24 118 25 45 0
128 130 127 126 124 98 94 69 100 16 15 38 0
128 130 127 126 124 88 84 67 91 11 37 12 0
128 130 127 126 124 63 58 50 64 5 32 7 0
128 130 127 126 106 102 19 70 109 18 40 57 0
128 130 127 126 117 110 74 24 118 25 45 60 0
128 130 127 126 98 94 69 100 16 15 38 55 0
128 130 127 126 88 84 67 91 11 37 12 52 0
128 130 127 124 106 102 19 70 109 18 40 82 0
128 130 127 124 117 110 74 24 118 25 45 86 0
128 130 127 124 98 94 69 100 16 15 38 81 0
128 130 127 124 63 58 50 64 5 32 53 7 0
128 130 127 106 102 19 70 109 18 40 82 57 0
128 130 127 117 110 74 24 118 25 45 86 60 0
128 130 127 98 94 69 100 16 15 38 81 55 0
128 130 123 126 124 106 102 19 70 109 18 92 0
128 130 123 126 124 117 110 74 24 118 25 97 0
128 130 123 126 124 46 42 35 48 2 39 4 0
128 130 123 126 124 88 84 67 91 11 80 12 0
128 130 123 126 124 63 58 50 64 5 54 7 0
128 130 123 126 106 102 19 70 109 18 92 57 0
128 130 123 126 117 110 74 24 118 25 97 60 0
128 130 123 126 46 42 35 48 2 39 4 33 0
128 130 123 126 88 84 67 91 11 80 12 52 0
128 130 123 124 106 102 19 70 109 18 92 82 0
128 130 123 124 117 110 74 24 118 25 97 86 0
128 130 123 124 46 42 35 48 2 39 4 36 0
128 130 123 124 63 58 50 64 5 54 53 7 0
128 130 123 106 102 19 70 109 18 92 82 57 0
128 130 123 117 110 74 24 118 25 97 86 60 0
128 130 123 46 42 35 48 2 39 4 36 33 0
128 130 126 124 106 102 19 70 109 18 92 40 0
128 130 126 124 117 110 74 24 118 25 97 45 0
128 130 126 124 88 84 67 91 11 80 37 12 0
128 130 126 124 63 58 50 64 5 54 32 7 0
128 130 126 106 102 19 70 109 18 92 40 57 0
128 130 126 117 110 74 24 118 25 97 45 60 0
128 130 126 88 84 67 91 11 80 37 12 52 0
128 130 124 106 102 19 70 109 18 92 40 82 0
128 130 124 117 110 74 24 118 25 97 45 86 0
128 130 124 63 58 50 64 5 54 32 53 7 0
128 130 106 102 19 70 109 18 92 40 82 57 0
128 130 117 110 74 24 118 25 97 45 86 60 0
128 132 122 127 123 126 124 106 102 19 70 105 0
128 132 122 127 123 126 124 120 115 79 119 30 0
128 132 122 127 123 126 124 28 21 8 23 1 0
128 132 122 127 123 126 124 98 94 69 96 15 0
128 132 122 127 123 126 124 46 42 35 44 4 0
128 132 122 127 123 126 124 88 84 67 87 12 0
128 132 122 127 123 126 124 63 58 50 61 7 0
128 132 122 127 123 126 106 102 19 70 105 57 0
128 132 122 127 123 126 120 115 79 119 30 65 0
128 132 122 127 123 126 28 21 8 23 1 6 0
128 132 122 127 123 126 98 94 69 96 15 55 0
128 132 122 127 123 126 46 42 35 44 4 33 0
128 132 122 127 123 126 88 84 67 87 12 52 0
128 132 122 127 123 124 106 102 19 70 105 82 0
128 132 122 127 123 124 120 115 79 119 30 90 0
128 132 122 127 123 124 28 21 8 23 1 13 0
128 132 122 127 123 124 98 94 69 96 15 81 0
128 132 122 127 123 124 46 42 35 44 4 36 0
128 132 122 127 123 124 63 58 50 61 53 7 0
128 132 122 127 123 106 102 19 70 105 82 57 0
128 132 122 127 123 120 115 79 119 30 90 65 0
128 132 122 127 123 28 21 8 23 1 13 6 0
128 132 122 127 123 98 94 69 96 15 81 55 0
128 132 122 127 123 46 42 35 44 4 36 33 0
128 132 122 127 126 124 106 102 19 70 105 40 0
128 132 122 127 126 124 120 115 79 119 30 49 0
128 132 122 127 126 124 28 21 8 23 1 3 0
128 132 122 127 126 124 98 94 69 96 15 38 0
128 132 122 127 126 124 88 84 67 87 37 12 0
128 132 122 127 126 124 63 58 50 61 32 7 0
128 132 122 127 126 106 102 19 70 105 40 57 0
128 132 122 127 126 120 115 79 119 30 49 65 0
128 132 122 127 126 28 21 8 23 1 3 6 0
128 132 122 127 126 98 94 69 96 15 38 55 0
128 132 122 127 126 88 84 67 87 37 12 52 0
128 132 122 127 124 106 102 19 70 105 40 82 0
128 132 122 127 124 120 115 79 119 30 49 90 0
128 132 122 127 124 28 21 8 23 1 3 13 0
128 132 122 127 124 98 94 69 96 15 38 81 0
128 132 122 127 124 63 58 50 61 32 53 7 0
128 132 122 127 106 102 19 70 105 40 82 57 0
128 132 122 127 120 115 79 119 30 49 90 65 0
128 132 122 127 28 21 8 23 1 3 13 6 0
128 132 122 127 98 94 69 96 15 38 81 55 0
128 132 122 123 126 124 106 102 19 70 105 92 0
128 132 122 123 126 124 120 115 79 119 30 101 0
128 132 122 123 126 124 28 21 8 23 1 14 0
128 132 122 123 126 124 46 42 35 44 39 4 0
128 132 122 123 126 124 88 84 67 87 80 12 0
128 132 122 123 126 124 63 58 50 61 54 7 0
128 132 122 123 126 106 102 19 70 105 92 57 0
128 132 122 123 126 120 115 79 119 30 101 65 0
128 132 122 123 126 28 21 8 23 1 14 6 0
128 132 122 123 126 46 42 35 44 39 4 33 0
128 132 122 123 126 88 84 67 87 80 12 52 0
128 132 122 123 124 106 102 19 70 105 92 82 0
128 132 122 123 124 120 115 79 119 30 101 90 0
128 132 122 123 124 28 21 8 23 1 14 13 0
128 132 122 123 124 46 42 35 44 39 4 36 0
128 132 122 123 124 63 58 50 61 54 53 7 0
128 132 122 123 106 102 19 70 105 92 82 57 0
128 132 122 123 120 115 79 119 30 101 90 65 0
128 132 122 123 28 21 8 23 1 14 13 6 0
128 132 122 123 46 42 35 44 39 4 36 33 0
128 132 122 126 124 106 102 19 70 105 92 40 0
128 132 122 126 124 120 115 79 119 30 101 49 0
128 132 122 126 124 28 21 8 23 1 14 3 0
128 132 122 126 124 88 84 67 87 80 37 12 0
128 132 122 126 124 63 58 50 61 54 32 7 0
128 132 122 126 106 102 19 70 105 92 40 57 0
128 132 122 126 120 115 79 119 30 101 49 65 0
128 132 122 126 28 21 8 23 1 14 3 6 0
128 132 122 126 88 84 67 87 80 37 12 52 0
128 132 122 124 106 102 19 70 105 92 40 82 0
128 132 122 124 120 115 79 119 30 101 49 90 0
128 132 122 124 28 21 8 23 1 14 3 13 0
128 132 122 124 63 58 50 61 54 32 53 7 0
128 132 122 106 102 19 70 105 92 40 82 57 0
128 132 122 120 115 79 119 30 101 49 90 65 0
128 132 122 28 21 8 23 1 14 3 13 6 0
128 132 127 123 126 124 106 102 19 70 105 18 0
128 132 127 123 126 124 120 115 79 119 30 29 0
128 132 127 123 126 124 98 94 69 96 16 15 0
128 132 127 123 126 124 46 42 35 44 2 4 0
128 132 127 123 126 124 88 84 67 87 11 12 0
128 132 127 123 126 124 63 58 50 61 5 7 0
128 132 127 123 126 106 102 19 70 105 18 57 0
128 132 127 123 126 120 115 79 119 30 29 65 0
128 132 127 123 126 98 94 69 96 16 15 55 0
128 132 127 123 126 46 42 35 44 2 4 33 0
128 132 127 123 126 88 84 67 87 11 12 52 0
128 132 127 123 124 106 102 19 70 105 18 82 0
128 132 127 123 124 120 115 79 119 30 29 90 0
128 132 127 123 124 98 94 69 96 16 15 81 0
128 132 127 123 124 46 42 35 44 2 4 36 0
128 132 127 123 124 63 58 50 61 5 53 7 0
128 132 127 123 106 102 19 70 105 18 82 57 0
128 132 127 123 120 115 79 119 30 29 90 65 0
128 132 127 123 98 94 69 96 16 15 81 55 0
128 132 127 123 46 42 35 44 2 4 36 33 0
128 132 127 126 124 106 102 19 70 105 18 40 0
128 132 127 126 124 120 115 79 119 30 29 49 0
128 132 127 126 124 98 94 69 96 16 15 38 0
128 132 127 126 124 88 84 67 87 11 37 12 0
128 132 127 126 124 63 58 50 61 5 32 7 0
128 132 127 126 106 102 19 70 105 18 40 57 0
128 132 127 126 120 115 79 119 30 29 49 65 0
128 132 127 126 98 94 69 96 16 15 38 55 0
128 132 127 126 88 84 67 87 11 37 12 52 0
128 132 127 124 106 102 19 70 105 18 40 82 0
128 132 127 124 120 115 79 119 30 29 49 90 0
128 132 127 124 98 94 69 96 16 15 38 81 0
128 132 127 124 63 58 50 61 5 32 53 7 0
128 132 127 106 102 19 70 105 18 40 82 57 0
128 132 127 120 115 79 119 30 29 49 90 65 0
128 132 127 98 94 69 96 16 15 38 81 55 0
128 132 123 126 124 106 102 19 70 105 18 92 0
128 132 123 126 124 120 115 79 119 30 29 101 0
128 132 123 126 124 46 42 35 44 2 39 4 0
128 132 123 126 124 88 84 67 87 11 80 12 0
128 132 123 126 124 63 58 50 61 5 54 7 0
128 132 123 126 106 102 19 70 105 18 92 57 0
128 132 123 126 120 115 79 119 30 29 101 65 0
128 132 123 126 46 42 35 44 2 39 4 33 0
128 132 123 126 88 84 67 87 11 80 12 52 0
128 132 123 124 106 102 19 70 105 18 92 82 0
128 132 123 124 120 115 79 119 30 29 101 90 0
128 132 123 124 46 42 35 44 2 39 4 36 0
128 132 123 124 63 58 50 61 5 54 53 7 0
128 132 123 106 102 19 70 105 18 92 82 57 0
128 132 123 120 115 79 119 30 29 101 90 65 0
128 132 123 46 42 35 44 2 39 4 36 33 0
128 132 126 124 106 102 19 70 105 18 92 40 0
128 132 126 124 120 115 79 119 30 29 101 49 0
128 132 126 124 88 84 67 87 11 80 37 12 0
128 132 126 124 63 58 50 61 5 54 32 7 0
128 132 126 106 102 19 70 105 18 92 40 57 0
128 132 126 120 115 79 119 30 29 101 49 65 0
128 132 126 88 84 67 87 11 80 37 12 52 0
128 132 124 106 102 19 70 105 18 92 40 82 0
128 132 124 120 115 79 119 30 29 101 49 90 0
128 132 124 63 58 50 61 5 54 32 53 7 0
128 132 106 102 19 70 105 18 92 40 82 57 0
128 132 120 115 79 119 30 29 101 49 90 65 0
128 122 127 123 126 124 106 102 19 70 105 109 0
128 122 127 123 126 124 28 21 8 23 31 1 0
128 122 127 123 126 124 98 94 69 96 100 15 0
128 122 127 123 126 124 46 42 35 44 48 4 0
128 122 127 123 126 124 88 84 67 87 91 12 0
128 122 127 123 126 124 63 58 50 61 64 7 0
128 122 127 123 126 106 102 19 70 105 109 57 0
128 122 127 123 126 28 21 8 23 31 1 6 0
128 122 127 123 126 98 94 69 96 100 15 55 0
128 122 127 123 126 46 42 35 44 48 4 33 0
128 122 127 123 126 88 84 67 87 91 12 52 0
128 122 127 123 124 106 102 19 70 105 109 82 0
128 122 127 123 124 28 21 8 23 31 1 13 0
128 122 127 123 124 98 94 69 96 100 15 81 0
128 122 127 123 124 46 42 35 44 48 4 36 0
128 122 127 123 124 63 58 50 61 64 53 7 0
128 122 127 123 106 102 19 70 105 109 82 57 0
128 122 127 123 28 21 8 23 31 1 13 6 0
128 122 127 123 98 94 69 96 100 15 81 55 0
128 122 127 123 46 42 35 44 48 4 36 33 0
128 122 127 126 124 106 102 19 70 105 109 40 0
128 122 127 126 124 28 21 8 23 31 1 3 0
128 122 127 126 124 98 94 69 96 100 15 38 0
128 122 127 126 124 88 84 67 87 91 37 12 0
128 122 127 126 124 63 58 50 61 64 32 7 0
128 122 127 126 106 102 19 70 105 109 40 57 0
128 122 127 126 28 21 8 23 31 1 3 6 0
128 122 127 126 98 94 69 96 100 15 38 55 0
128 122 127 126 88 84 67 87 91 37 12 52 0
128 122 127 124 106 102 19 70 105 109 40 82 0
128 122 127 124 28 21 8 23 31 1 3 13 0
128 122 127 124 98 94 69 96 100 15 38 81 0
128 122 127 124 63 58 50 61 64 32 53 7 0
128 122 127 106 102 19 70 105 109 40 82 57 0
128 122 127 28 21 8 23 31 1 3 13 6 0
128 122 127 98 94 69 96 100 15 38 81 55 0
128 122 123 126 124 106 102 19 70 105 109 92 0
128 122 123 126 124 28 21 8 23 31 1 14 0
128 122 123 126 124 46 42 35 44 48 39 4 0
128 122 123 126 124 88 84 67 87 91 80 12 0
128 122 123 126 124 63 58 50 61 64 54 7 0
128 122 123 126 106 102 19 70 105 109 92 57 0
128 122 123 126 28 21 8 23 31 1 14 6 0
128 122 123 126 46 42 35 44 48 39 4 33 0
128 122 123 126 88 84 67 87 91 80 12 52 0
128 122 123 124 106 102 19 70 105 109 92 82 0
128 122 123 124 28 21 8 23 31 1 14 13 0
128 122 123 124 46 42 35 44 48 39 4 36 0
128 122 123 124 63 58 50 61 64 54 53 7 0
128 122 123 106 102 19 70 105 109 92 82 57 0
128 122 123 28 21 8 23 31 1 14 13 6 0
128 122 123 46 42 35 44 48 39 4 36 33 0
128 122 126 124 106 102 19 70 105 109 92 40 0
128 122 126 124 28 21 8 23 31 1 14 3 0
128 122 126 124 88 84 67 87 91 80 37 12 0
128 122 126 124 63 58 50 61 64 54 32 7 0
128 122 126 106 102 19 70 105 109 92 40 57 0
128 122 126 28 21 8 23 31 1 14 3 6 0
128 122 126 88 84 67 87 91 80 37 12 52 0
128 122 124 106 102 19 70 105 109 92 40 82 0
128 122 124 28 21 8 23 31 1 14 3 13 0
128 122 124 63 58 50 61 64 54 32 53 7 0
128 122 106 102 19 70 105 109 92 40 82 57 0
128 122 28 21 8 23 31 1 14 3 13 6 0
128 127 123 126 124 106 102 19 70 105 109 18 0
128 127 123 126 124 98 94 69 96 100 16 15 0
128 127 123 126 124 46 42 35 44 48 2 4 0
128 127 123 126 124 88 84 67 87 91 11 12 0
128 127 123 126 124 63 58 50 61 64 5 7 0
128 127 123 126 106 102 19 70 105 109 18 57 0
128 127 123 126 98 94 69 96 100 16 15 55 0
128 127 123 126 46 42 35 44 48 2 4 33 0
128 127 123 126 88 84 67 87 91 11 12 52 0
128 127 123 124 106 102 19 70 105 109 18 82 0
128 127 123 124 98 94 69 96 100 16 15 81 0
128 127 123 124 46 42 35 44 48 2 4 36 0
128 127 123 124 63 58 50 61 64 5 53 7 0
128 127 123 106 102 19 70 105 109 18 82 57 0
128 127 123 98 94 69 96 100 16 15 81 55 0
128 127 123 46 42 35 44 48 2 4 36 33 0
128 127 126 124 106 102 19 70 105 109 18 40 0
128 127 126 124 98 94 69 96 100 16 15 38 0
128 127 126 124 88 84 67 87 91 11 37 12 0
128 127 126 124 63 58 50 61 64 5 32 7 0
128 127 126 106 102 19 70 105 109 18 40 57 0
128 127 126 98 94 69 96 100 16 15 38 55 0
128 127 126 88 84 67 87 91 11 37 12 52 0
128 127 124 106 102 19 70 105 109 18 40 82 0
128 127 124 98 94 69 96 100 16 15 38 81 0
128 127 124 63 58 50 61 64 5 32 53 7 0
128 127 106 102 19 70 105 109 18 40 82 57 0
128 127 98 94 69 96 100 16 15 38 81 55 0
128 123 126 124 106 102 19 70 105 109 18 92 0
128 123 126 124 46 42 35 44 48 2 39 4 0
128 123 126 124 88 84 67 87 91 11 80 12 0
128 123 126 124 63 58 50 61 64 5 54 7 0
128 123 126 106 102 19 70 105 109 18 92 57 0
128 123 126 46 42 35 44 48 2 39 4 33 0
128 123 126 88 84 67 87 91 11 80 12 52 0
128 123 124 106 102 19 70 105 109 18 92 82 0
128 123 124 46 42 35 44 48 2 39 4 36 0
128 123 124 63 58 50 61 64 5 54 53 7 0
128 123 106 102 19 70 105 109 18 92 82 57 0
128 123 46 42 35 44 48 2 39 4 36 33 0
128 126 124 106 102 19 70 105 109 18 92 40 0
128 126 124 88 84 67 87 91 11 80 37 12 0
128 126 124 63 58 50 61 64 5 54 32 7 0
128 126 106 102 19 70 105 109 18 92 40 57 0
128 126 88 84 67 87 91 11 80 37 12 52 0
128 124 106 102 19 70 105 109 18 92 40 82 0
128 124 63 58 50 61 64 5 54 32 53 7 0
128 106 102 19 70 105 109 18 92 40 82 57 0
125 130 132 122 127 123 126 124 77 73 71 10 0
125 130 132 122 127 123 126 124 117 110 104 24 0
125 130 132 122 127 123 126 124 120 115 108 30 0
125 130 132 122 127 123 126 124 28 21 17 1 0
125 130 132 122 127 123 126 124 98 94 93 15 0
125 130 132 122 127 123 126 124 46 42 41 4 0
125 130 132 122 127 123 126 124 88 84 83 12 0
125 130 132 122 127 123 126 124 63 58 56 7 0
125 130 132 122 127 123 126 77 73 71 10 51 0
125 130 132 122 127 123 126 117 110 104 24 60 0
125 130 132 122 127 123 126 120 115 108 30 65 0
125 130 132 122 127 123 126 28 21 17 1 6 0
125 130 132 122 127 123 126 98 94 93 15 55 0
125 130 132 122 127 123 126 46 42 41 4 33 0
125 130 132 122 127 123 126 88 84 83 12 52 0
125 130 132 122 127 123 124 77 73 71 10 66 0
125 130 132 122 127 123 124 117 110 104 24 86 0
125 130 132 122 127 123 124 120 115 108 30 90 0
125 130 132 122 127 123 124 28 21 17 1 13 0
125 130 132 122 127 123 124 98 94 93 15 81 0
125 130 132 122 127 123 124 46 42 41 4 36 0
125 130 132 122 127 123 124 63 58 56 53 7 0
125 130 132 122 127 123 77 73 71 10 66 51 0
125 130 132 122 127 123 117 110 104 24 86 60 0
125 130 132 122 127 123 120 115 108 30 90 65 0
125 130 132 122 127 123 28 21 17 1 13 6 0
125 130 132 122 127 123 98 94 93 15 81 55 0
125 130 132 122 127 123 46 42 41 4 36 33 0
125 130 132 122 127 126 124 77 73 71 10 34 0
125 130 132 122 127 126 124 117 110 104 24 45 0
125 130 132 122 127 126 124 120 115 108 30 49 0
125 130 132 122 127 126 124 28 21 17 1 3 0
125 130 132 122 127 126 124 98 94 93 15 38 0
125 130 132 122 127 126 124 88 84 83 37 12 0
125 130 132 122 127 126 124 63 58 56 32 7 0
125 130 132 122 127 126 77 73 71 10 34 51 0
125 130 132 122 127 126 117 110 104 24 45 60 0
125 130 132 122 127 126 120 115 108 30 49 65 0
125 130 132 122 127 126 28 21 17 1 3 6 0
125 130 132 122 127 126 98 94 93 15 38 55 0
125 130 132 122 127 126 88 84 83 37 12 52 0
125 130 132 122 127 124 77 73 71 10 34 66 0
125 130 132 122 127 124 117 110 104 24 45 86 0
125 130 132 122 127 124 120 115 108 30 49 90 0
125 130 132 122 127 124 28 21 17 1 3 13 0
125 130 132 122 127 124 98 94 93 15 38 81 0
125 130 132 122 127 124 63 58 56 32 53 7 0
125 130 132 122 127 77 73 71 10 34 66 51 0
125 130 132 122 127 117 110 104 24 45 86 60 0
125 130 132 122 127 120 115 108 30 49 90 65 0
125 130 132 122 127 28 21 17 1 3 13 6 0
125 130 132 122 127 98 94 93 15 38 81 55 0
125 130 132 122 123 126 124 77 73 71 10 68 0
125 130 132 122 123 126 124 117 110 104 24 97 0
125 130 132 122 123 126 124 120 115 108 30 101 0
125 130 132 122 123 126 124 28 21 17 1 14 0
125 130 132 122 123 126 124 46 42 41 39 4 0
125 130 132 122 123 126 124 88 84 83 80 12 0
125 130 132 122 123 126 124 63 58 56 54 7 0
125 130 132 122 123 126 77 73 71 10 68 51 0
125 130 132 122 123 126 117 110 104 24 97 60 0
125 130 132 122 123 126 120 115 108 30 101 65 0
125 130 132 122 123 126 28 21 17 1 14 6 0
125 130 132 122 123 126 46 42 41 39 4 33 0
125 130 132 122 123 126 88 84 83 80 12 52 0
125 130 132 122 123 124 77 73 71 10 68 66 0
125 130 132 122 123 124 117 110 104 24 97 86 0
125 130 132 122 123 124 120 115 108 30 101 90 0
125 130 132 122 123 124 28 21 17 1 14 13 0
125 130 132 122 123 124 46 42 41 39 4 36 0
125 130 132 122 123 124 63 58 56 54 53 7 0
125 130 132 122 123 77 73 71 10 68 66 51 0
125 130 132 122 123 117 110 104 24 97 86 60 0
125 130 132 122 123 120 115 108 30 101 90 65 0
125 130 132 122 123 28 21 17 1 14 13 6 0
125 130 132 122 123 46 42 41 39 4 36 33 0
125 130 132 122 126 124 77 73 71 10 68 34 0
125 130 132 122 126 124 117 110 104 24 97 45 0
125 130 132 122 126 124 120 115 108 30 101 49 0
125 130 132 122 126 124 28 21 17 1 14 3 0
125 130 132 122 126 124 88 84 83 80 37 12 0
125 130 132 122 126 124 63 58 56 54 32 7 0
125 130 132 122 126 77 73 71 10 68 34 51 0
125 130 132 122 126 117 110 104 24 97 45 60 0
125 130 132 122 126 120 115 108 30 101 49 65 0
125 130 132 122 126 28 21 17 1 14 3 6 0
125 130 132 122 126 88 84 83 80 37 12 52 0
125 130 132 122 124 77 73 71 10 68 34 66 0
125 130 132 122 124 117 110 104 24 97 45 86 0
125 130 132 122 124 120 115 108 30 101 49 90 0
125 130 132 122 124 28 21 17 1 14 3 13 0
125 130 132 122 124 63 58 56 54 32 53 7 0
125 130 132 122 77 73 71 10 68 34 66 51 0
125 130 132 122 117 110 104 24 97 45 86 60 0
125 130 132 122 120 115 108 30 101 49 90 65 0
125 130 132 122 28 21 17 1 14 3 13 6 0
125 130 132 127 123 126 124 77 73 71 10 9 0
125 130 132 127 123 126 124 117 110 104 24 25 0
125 130 132 127 123 126 124 120 115 108 30 29 0
125 130 132 127 123 126 124 98 94 93 16 15 0
125 130 132 127 123 126 124 46 42 41 2 4 0
125 130 132 127 123 126 124 88 84 83 11 12 0
125 130 132 127 123 126 124 63 58 56 5 7 0
125 130 132 127 123 126 77 73 71 10 9 51 0
125 130 132 127 123 126 117 110 104 24 25 60 0
125 130 132 127 123 126 120 115 108 30 29 65 0
125 130 132 127 123 126 98 94 93 16 15 55 0
125 130 132 127 123 126 46 42 41 2 4 33 0
125 130 132 127 123 126 88 84 83 11 12 52 0
125 130 132 127 123 124 77 73 71 10 9 66 0
125 130 132 127 123 124 117 110 104 24 25 86 0
125 130 132 127 123 124 120 115 108 30 29 90 0
125 130 132 127 123 124 98 94 93 16 15 81 0
125 130 132 127 123 124 46 42 41 2 4 36 0
125 130 132 127 123 124 63 58 56 5 53 7 0
125 130 132 127 123 77 73 71 10 9 66 51 0
125 130 132 127 123 117 110 104 24 25 86 60 0
125 130 132 127 123 120 115 108 30 29 90 65 0
125 130 132 127 123 98 94 93 16 15 81 55 0
125 130 132 127 123 46 42 41 2 4 36 33 0
125 130 132 127 126 124 77 73 71 10 9 34 0
125 130 132 127 126 124 117 110 104 24 25 45 0
125 130 132 127 126 124 120 115 108 30 29 49 0
125 130 132 127 126 124 98 94 93 16 15 38 0
125 130 132 127 126 124 88 84 83 11 37 12 0
125 130 132 127 126 124 63 58 56 5 32 7 0
125 130 132 127 126 77 73 71 10 9 34 51 0
125 130 132 127 126 117 110 104 24 25 45 60 0
125 130 132 127 126 120 115 108 30 29 49 65 0
125 130 132 127 126 98 94 93 16 15 38 55 0
125 130 132 127 126 88 84 83 11 37 12 52 0
125 130 132 127 124 77 73 71 10 9 34 66 0
125 130 132 127 124 117 110 104 24 25 45 86 0
125 130 132 127 124 120 115 108 30 29 49 90 0
125 130 132 127 124 98 94 93 16 15 38 81 0
125 130 132 127 124 63 58 56 5 32 53 7 0
125 130 132 127 77 73 71 10 9 34 66 51 0
125 130 132 127 117 110 104 24 25 45 86 60 0
125 130 132 127 120 115 108 30 29 49 90 65 0
125 130 132 127 98 94 93 16 15 38 81 55 0
125 130 132 123 126 124 77 73 71 10 9 68 0
125 130 132 123 126 124 117 110 104 24 25 97 0
125 130 132 123 126 124 120 115 108 30 29 101 0
125 130 132 123 126 124 46 42 41 2 39 4 0
125 130 132 123 126 124 88 84 83 11 80 12 0
125 130 132 123 126 124 63 58 56 5 54 7 0
125 130 132 123 126 77 73 71 10 9 68 51 0
125 130 132 123 126 117 110 104 24 25 97 60 0
125 130 132 123 126 120 115 108 30 29 101 65 0
125 130 132 123 126 46 42 41 2 39 4 33 0
125 130 132 123 126 88 84 83 11 80 12 52 0
125 130 132 123 124 77 73 71 10 9 68 66 0
125 130 132 123 124 117 110 104 24 25 97 86 0
125 130 132 123 124 120 115 108 30 29 101 90 0
125 130 132 123 124 46 42 41 2 39 4 36 0
125 130 132 123 124 63 58 56 5 54 53 7 0
125 130 132 123 77 73 71 10 9 68 66 51 0
125 130 132 123 117 110 104 24 25 97 86 60 0
125 130 132 123 120 115 108 30 29 101 90 65 0
125 130 132 123 46 42 41 2 39 4 36 33 0
125 130 132 126 124 77 73 71 10 9 68 34 0
125 130 132 126 124 117 110 104 24 25 97 45 0
125 130 132 126 124 120 115 108 30 29 101 49 0
125 130 132 126 124 88 84 83 11 80 37 12 0
125 130 132 126 124 63 58 56 5 54 32 7 0
125 130 132 126 77 73 71 10 9 68 34 51 0
125 130 132 126 117 110 104 24 25 97 45 60 0
125 130 132 126 120 115 108 30 29 101 49 65 0
125 130 132 126 88 84 83 11 80 37 12 52 0
125 130 132 124 77 73 71 10 9 68 34 66 0
125 130 132 124 117 110 104 24 25 97 45 86 0
125 130 132 124 120 115 108 30 29 101 49 90 0
125 130 132 124 63 58 56 5 54 32 53 7 0
125 130 132 77 73 71 10 9 68 34 66 51 0
125 130 132 117 110 104 24 25 97 45 86 60 0
125 130 132 120 115 108 30 29 101 49 90 65 0
125 130 122 127 123 126 124 77 73 71 10 78 0
125 130 122 127 123 126 124 117 110 104 24 118 0
125 130 122 127 123 126 124 28 21 17 31 1 0
125 130 122 127 123 126 124 98 94 93 100 15 0
125 130 122 127 123 126 124 46 42 41 48 4 0
125 130 122 127 123 126 124 88 84 83 91 12 0
125 130 122 127 123 126 124 63 58 56 64 7 0
125 130 122 127 123 126 77 73 71 10 78 51 0
125 130 122 127 123 126 117 110 104 24 118 60 0
125 130 122 127 123 126 28 21 17 31 1 6 0
125 130 122 127 123 126 98 94 93 100 15 55 0
125 130 122 127 123 126 46 42 41 48 4 33 0
125 130 122 127 123 126 88 84 83 91 12 52 0
125 130 122 127 123 124 77 73 71 10 78 66 0
125 130 122 127 123 124 117 110 104 24 118 86 0
125 130 122 127 123 124 28 21 17 31 1 13 0
125 130 122 127 123 124 98 94 93 100 15 81 0
125 130 122 127 123 124 46 42 41 48 4 36 0
125 130 122 127 123 124 63 58 56 64 53 7 0
125 130 122 127 123 77 73 71 10 78 66 51 0
125 130 122 127 123 117 110 104 24 118 86 60 0
125 130 122 127 123 28 21 17 31 1 13 6 0
125 130 122 127 123 98 94 93 100 15 81 55 0
125 130 122 127 123 46 42 41 48 4 36 33 0
125 130 122 127 126 124 77 73 71 10 78 34 0
125 130 122 127 126 124 117 110 104 24 118 45 0
125 130 122 127 126 124 28 21 17 31 1 3 0
125 130 122 127 126 124 98 94 93 100 15 38 0
125 130 122 127 126 124 88 84 83 91 37 12 0
125 130 122 127 126 124 63 58 56 64 32 7 0
125 130 122 127 126 77 73 71 10 78 34 51 0
125 130 122 127 126 117 110 104 24 118 45 60 0
125 130 122 127 126 28 21 17 31 1 3 6 0
125 130 122 127 126 98 94 93 100 15 38 55 0
125 130 122 127 126 88 84 83 91 37 12 52 0
125 130 122 127 124 77 73 71 10 78 34 66 0
125 130 122 127 124 117 110 104 24 118 45 86 0
125 130 122 127 124 28 21 17 31 1 3 13 0
125 130 122 127 124 98 94 93 100 15 38 81 0
125 130 122 127 124 63 58 56 64 32 53 7 0
125 130 122 127 77 73 71 10 78 34 66 51 0
125 130 122 127 117 110 104 24 118 45 86 60 0
125 130 122 127 28 21 17 31 1 3 13 6 0
125 130 122 127 98 94 93 100 15 38 81 55 0
125 130 122 123 126 124 77 73 71 10 78 68 0
125 130 122 123 126 124 117 110 104 24 118 97 0
125 130 122 123 126 124 28 21 17 31 1 14 0
125 130 122 123 126 124 46 42 41 48 39 4 0
125 130 122 123 126 124 88 84 83 91 80 12 0
125 130 122 123 126 124 63 58 56 64 54 7 0
125 130 122 123 126 77 73 71 10 78 68 51 0
125 130 122 123 126 117 110 104 24 118 97 60 0
125 130 122 123 126 28 21 17 31 1 14 6 0
125 130 122 123 126 46 42 41 48 39 4 33 0
125 130 122 123 126 88 84 83 91 80 12 52 0
125 130 122 123 124 77 73 71 10 78 68 66 0
125 130 122 123 124 117 110 104 24 118 97 86 0
125 130 122 123 124 28 21 17 31 1 14 13 0
125 130 122 123 124 46 42 41 48 39 4 36 0
125 130 122 123 124 63 58 56 64 54 53 7 0
125 130 122 123 77 73 71 10 78 68 66 51 0
125 130 122 123 117 110 104 24 118 97 86 60 0
125 130 122 123 28 21 17 31 1 14 13 6 0
125 130 122 123 46 42 41 48 39 4 36 33 0
125 130 122 126 124 77 73 71 10 78 68 34 0
125 130 122 126 124 117 110 104 24 118 97 45 0
125 130 122 126 124 28 21 17 31 1 14 3 0
125 130 122 126 124 88 84 83 91 80 37 12 0
125 130 122 126 124 63 58 56 64 54 32 7 0
125 130 122 126 77 73 71 10 78 68 34 51 0
125 130 122 126 117 110 104 24 118 97 45 60 0
125 130 122 126 28 21 17 31 1 14 3 6 0
125 130 122 126 88 84 83 91 80 37 12 52 0
125 130 122 124 77 73 71 10 78 68 34 66 0
125 130 122 124 117 110 104 24 118 97 45 86 0
125 130 122 124 28 21 17 31 1 14 3 13 0
125 130 122 124 63 58 56 64 54 32 53 7 0
125 130 122 77 73 71 10 78 68 34 66 51 0
125 130 122 117 110 104 24 118 97 45 86 60 0
125 130 122 28 21 17 31 1 14 3 13 6 0
125 130 127 123 126 124 77 73 71 10 78 9 0
125 130 127 123 126 124 117 110 104 24 118 25 0
125 130 127 123 126 124 98 94 93 100 16 15 0
125 130 127 123 126 124 46 42 41 48 2 4 0
125 130 127 123 126 124 88 84 83 91 11 12 0
125 130 127 123 126 124 63 58 56 64 5 7 0
125 130 127 123 126 77 73 71 10 78 9 51 0
125 130 127 123 126 117 110 104 24 118 25 60 0
125 130 127 123 126 98 94 93 100 16 15 55 0
125 130 127 123 126 46 42 41 48 2 4 33 0
125 130 127 123 126 88 84 83 91 11 12 52 0
125 130 127 123 124 77 73 71 10 78 9 66 0
125 130 127 123 124 117 110 104 24 118 25 86 0
125 130 127 123 124 98 94 93 100 16 15 81 0
125 130 127 123 124 46 42 41 48 2 4 36 0
125 130 127 123 124 63 58 56 64 5 53 7 0
125 130 127 123 77 73 71 10 78 9 66 51 0
125 130 127 123 117 110 104 24 118 25 86 60 0
125 130 127 123 98 94 93 100 16 15 81 55 0
125 130 127 123 46 42 41 48 2 4 36 33 0
125 130 127 126 124 77 73 71 10 78 9 34 0
125 130 127 126 124 117 110 104 24 118 25 45 0
125 130 127 126 124 98 94 93 100 16 15 38 0
125 130 127 126 124 88 84 83 91 11 37 12 0
125 130 127 126 124 63 58 56 64 5 32 7 0
125 130 127 126 77 73 71 10 78 9 34 51 0
125 130 127 126 117 110 104 24 118 25 45 60 0
125 130 127 126 98 94 93 100 16 15 38 55 0
125 130 127 126 88 84 83 91 11 37 12 52 0
125 130 127 124 77 73 71 10 78 9 34 66 0
125 130 127 124 117 110 104 24 118 25 45 86 0
125 130 127 124 98 94 93 100 16 15 38 81 0
125 130 127 124 63 58 56 64 5 32 53 7 0
125 130 127 77 73 71 10 78 9 34 66 51 0
125 130 127 117 110 104 24 118 25 45 86 60 0
125 130 127 98 94 93 100 16 15 38 81 55 0
125 130 123 126 124 77 73 71 10 78 9 68 0
125 130 123 126 124 117 110 104 24 118 25 97 0
125 130 123 126 124 46 42 41 48 2 39 4 0
125 130 123 126 124 88 84 83 91 11 80 12 0
125 130 123 126 124 63 58 56 64 5 54 7 0
125 130 123 126 77 73 71 10 78 9 68 51 0
125 130 123 126 117 110 104 24 118 25 97 60 0
125 130 123 126 46 42 41 48 2 39 4 33 0
125 130 123 126 88 84 83 91 11 80 12 52 0
125 130 123 124 77 73 71 10 78 9 68 66 0
125 130 123 124 117 110 104 24 118 25 97 86 0
125 130 123 124 46 42 41 48 2 39 4 36 0
125 130 123 124 63 58 56 64 5 54 53 7 0
125 130 123 77 73 71 10 78 9 68 66 51 0
125 130 123 117 110 104 24 118 25 97 86 60 0
125 130 123 46 42 41 48 2 39 4 36 33 0
125 130 126 124 77 73 71 10 78 9 68 34 0
125 130 126 124 117 110 104 24 118 25 97 45 0
125 130 126 124 88 84 83 91 11 80 37 12 0
125 130 126 124 63 58 56 64 5 54 32 7 0
125 130 126 77 73 71 10 78 9 68 34 51 0
125 130 126 117 110 104 24 118 25 97 45 60 0
125 130 126 88 84 83 91 11 80 37 12 52 0
125 130 124 77 73 71 10 78 9 68 34 66 0
125 130 124 117 110 104 24 118 25 97 45 86 0
125 130 124 63 58 56 64 5 54 32 53 7 0
125 130 77 73 71 10 78 9 68 34 66 51 0
125 130 117 110 104 24 118 25 97 45 86 60 0
125 132 122 127 123 126 124 77 73 71 10 75 0
125 132 122 127 123 126 124 120 115 108 119 30 0
125 132 122 127 123 126 124 28 21 17 23 1 0
125 132 122 127 123 126 124 98 94 93 96 15 0
125 132 122 127 123 126 124 46 42 41 44 4 0
125 132 122 127 123 126 124 88 84 83 87 12 0
125 132 122 127 123 126 124 63 58 56 61 7 0
125 132 122 127 123 126 77 73 71 10 75 51 0
125 132 122 127 123 126 120 115 108 119 30 65 0
125 132 122 127 123 126 28 21 17 23 1 6 0
125 132 122 127 123 126 98 94 93 96 15 55 0
125 132 122 127 123 126 46 42 41 44 4 33 0
125 132 122 127 123 126 88 84 83 87 12 52 0
125 132 122 127 123 124 77 73 71 10 75 66 0
125 132 122 127 123 124 120 115 108 119 30 90 0
125 132 122 127 123 124 28 21 17 23 1 13 0
125 132 122 127 123 124 98 94 93 96 15 81 0
125 132 122 127 123 124 46 42 41 44 4 36 0
125 132 122 127 123 124 63 58 56 61 53 7 0
125 132 122 127 123 77 73 71 10 75 66 51 0
125 132 122 127 123 120 115 108 119 30 90 65 0
125 132 122 127 123 28 21 17 23 1 13 6 0
125 132 122 127 123 98 94 93 96 15 81 55 0
125 132 122 127 123 46 42 41 44 4 36 33 0
125 132 122 127 126 124 77 73 71 10 75 34 0
125 132 122 127 126 124 120 115 108 119 30 49 0
125 132 122 127 126 124 28 21 17 23 1 3 0
125 132 122 127 126 124 98 94 93 96 15 38 0
125 132 122 127 126 124 88 84 83 87 37 12 0
125 132 122 127 126 124 63 58 56 61 32 7 0
125 132 122 127 126 77 73 71 10 75 34 51 0
125 132 122 127 126 120 115 108 119 30 49 65 0
125 132 122 127 126 28 21 17 23 1 3 6 0
125 132 122 127 126 98 94 93 96 15 38 55 0
125 132 122 127 126 88 84 83 87 37 12 52 0
125 132 122 127 124 77 73 71 10 75 34 66 0
125 132 122 127 124 120 115 108 119 30 49 90 0
125 132 122 127 124 28 21 17 23 1 3 13 0
125 132 122 127 124 98 94 93 96 15 38 81 0
125 132 122 127 124 63 58 56 61 32 53 7 0
125 132 122 127 77 73 71 10 75 34 66 51 0
125 132 122 127 120 115 108 119 30 49 90 65 0
125 132 122 127 28 21 17 23 1 3 13 6 0
125 132 122 127 98 94 93 96 15 38 81 55 0
125 132 122 123 126 124 77 73 71 10 75 68 0
125 132 122 123 126 124 120 115 108 119 30 101 0
125 132 122 123 126 124 28 21 17 23 1 14 0
125 132 122 123 126 124 46 42 41 44 39 4 0
125 132 122 123 126 124 88 84 83 87 80 12 0
125 132 122 123 126 124 63 58 56 61 54 7 0
125 132 122 123 126 77 73 71 10 75 68 51 0
125 132 122 123 126 120 115 108 119 30 101 65 0
125 132 122 123 126 28 21 17 23 1 14 6 0
125 132 122 123 126 46 42 41 44 39 4 33 0
125 132 122 123 126 88 84 83 87 80 12 52 0
125 132 122 123 124 77 73 71 10 75 68 66 0
125 132 122 123 124 120 115 108 119 30 101 90 0
125 132 122 123 124 28 21 17 23 1 14 13 0
125 132 122 123 124 46 42 41 44 39 4 36 0
125 132 122 123 124 63 58 56 61 54 53 7 0
125 132 122 123 77 73 71 10 75 68 66 51 0
125 132 122 123 120 115 108 119 30 101 90 65 0
125 132 122 123 28 21 17 23 1 14 13 6 0
125 132 122 123 46 42 41 44 39 4 36 33 0
125 132 122 126 124 77 73 71 10 75 68 34 0
125 132 122 126 124 120 115 108 119 30 101 49 0
125 132 122 126 124 28 21 17 23 1 14 3 0
125 132 122 126 124 88 84 83 87 80 37 12 0
125 132 122 126 124 63 58 56 61 54 32 7 0
125 132 122 126 77 73 71 10 75 68 34 51 0
125 132 122 126 120 115 108 119 30 101 49 65 0
125 132 122 126 28 21 17 23 1 14 3 6 0
125 132 122 126 88 84 83 87 80 37 12 52 0
125 132 122 124 77 73 71 10 75 68 34 66 0
125 132 122 124 120 115 108 119 30 101 49 90 0
125 132 122 124 28 21 17 23 1 14 3 13 0
125 132 122 124 63 58 56 61 54 32 53 7 0
125 132 122 77 73 71 10 75 68 34 66 51 0
125 132 122 120 115 108 119 30 101 49 90 65 0
125 132 122 28 21 17 23 1 14 3 13 6 0
125 132 127 123 126 124 77 73 71 10 75 9 0
125 132 127 123 126 124 120 115 108 119 30 29 0
125 132 127 123 126 124 98 94 93 96 16 15 0
125 132 127 123 126 124 46 42 41 44 2 4 0
125 132 127 123 126 124 88 84 83 87 11 12 0
125 132 127 123 126 124 63 58 56 61 5 7 0
125 132 127 123 126 77 73 71 10 75 9 51 0
125 132 127 123 126 120 115 108 119 30 29 65 0
125 132 127 123 126 98 94 93 96 16 15 55 0
125 132 127 123 126 46 42 41 44 2 4 33 0
125 132 127 123 126 88 84 83 87 11 12 52 0
125 132 127 123 124 77 73 71 10 75 9 66 0
125 132 127 123 124 120 115 108 119 30 29 90 0
125 132 127 123 124 98 94 93 96 16 15 81 0
125 132 127 123 124 46 42 41 44 2 4 36 0
125 132 127 123 124 63 58 56 61 5 53 7 0
125 132 127 123 77 73 71 10 75 9 66 51 0
125 132 127 123 120 115 108 119 30 29 90 65 0
125 132 127 123 98 94 93 96 16 15 81 55 0
125 132 127 123 46 42 41 44 2 4 36 33 0
125 132 127 126 124 77 73 71 10 75 9 34 0
125 132 127 126 124 120 115 108 119 30 29 49 0
125 132 127 126 124 98 94 93 96 16 15 38 0
125 132 127 126 124 88 84 83 87 11 37 12 0
125 132 127 126 124 63 58 56 61 5 32 7 0
125 132 127 126 77 73 71 10 75 9 34 51 0
125 132 127 126 120 115 108 119 30 29 49 65 0
125 132 127 126 98 94 93 96 16 15 38 55 0
125 132 127 126 88 84 83 87 11 37 12 52 0
125 132 127 124 77 73 71 10 75 9 34 66 0
125 132 127 124 120 115 108 119 30 29 49 90 0
125 132 127 124 98 94 93 96 16 15 38 81 0
125 132 127 124 63 58 56 61 5 32 53 7 0
125 132 127 77 73 71 10 75 9 34 66 51 0
125 132 127 120 115 108 119 30 29 49 90 65 0
125 132 127 98 94 93 96 16 15 38 81 55 0
125 132 123 126 124 77 73 71 10 75 9 68 0
125 132 123 126 124 120 115 108 119 30 29 101 0
125 132 123 126 124 46 42 41 44 2 39 4 0
125 132 123 126 124 88 84 83 87 11 80 12 0
125 132 123 126 124 63 58 56 61 5 54 7 0
125 132 123 126 77 73 71 10 75 9 68 51 0
125 132 123 126 120 115 108 119 30 29 101 65 0
125 132 123 126 46 42 41 44 2 39 4 33 0
125 132 123 126 88 84 83 87 11 80 12 52 0
125 132 123 124 77 73 71 10 75 9 68 66 0
125 132 123 124 120 115 108 119 30 29 101 90 0
125 132 123 124 46 42 41 44 2 39 4 36 0
125 132 123 124 63 58 56 61 5 54 53 7 0
125 132 123 77 73 71 10 75 9 68 66 51 0
125 132 123 120 115 108 119 30 29 101 90 65 0
125 132 123 46 42 41 44 2 39 4 36 33 0
125 132 126 124 77 73 71 10 75 9 68 34 0
125 132 126 124 120 115 108 119 30 29 101 49 0
125 132 126 124 88 84 83 87 11 80 37 12 0
125 132 126 124 63 58 56 61 5 54 32 7 0
125 132 126 77 73 71 10 75 9 68 34 51 0
125 132 126 120 115 108 119 30 29 101 49 65 0
125 132 126 88 84 83 87 11 80 37 12 52 0
125 132 124 77 73 71 10 75 9 68 34 66 0
125 132 124 120 115 108 119 30 29 101 49 90 0
125 132 124 63 58 56 61 5 54 32 53 7 0
125 132 77 73 71 10 75 9 68 34 66 51 0
125 132 120 115 108 119 30 29 101 49 90 65 0
125 122 127 123 126 124 77 73 71 10 75 78 0
125 122 127 123 126 124 28 21 17 23 31 1 0
125 122 127 123 126 124 98 94 93 96 100 15 0
125 122 127 123 126 124 46 42 41 44 48 4 0
125 122 127 123 126 124 88 84 83 87 91 12 0
125 122 127 123 126 124 63 58 56 61 64 7 0
125 122 127 123 126 77 73 71 10 75 78 51 0
125 122 127 123 126 28 21 17 23 31 1 6 0
125 122 127 123 126 98 94 93 96 100 15 55 0
125 122 127 123 126 46 42 41 44 48 4 33 0
125 122 127 123 126 88 84 83 87 91 12 52 0
125 122 127 123 124 77 73 71 10 75 78 66 0
125 122 127 123 124 28 21 17 23 31 1 13 0
125 122 127 123 124 98 94 93 96 100 15 81 0
125 122 127 123 124 46 42 41 44 48 4 36 0
125 122 127 123 124 63 58 56 61 64 53 7 0
125 122 127 123 77 73 71 10 75 78 66 51 0
125 122 127 123 28 21 17 23 31 1 13 6 0
125 122 127 123 98 94 93 96 100 15 81 55 0
125 122 127 123 46 42 41 44 48 4 36 33 0
125 122 127 126 124 77 73 71 10 75 78 34 0
125 122 127 126 124 28 21 17 23 31 1 3 0
125 122 127 126 124 98 94 93 96 100 15 38 0
125 122 127 126 124 88 84 83 87 91 37 12 0
125 122 127 126 124 63 58 56 61 64 32 7 0
125 122 127 126 77 73 71 10 75 78 34 51 0
125 122 127 126 28 21 17 23 31 1 3 6 0
125 122 127 126 98 94 93 96 100 15 38 55 0
125 122 127 126 88 84 83 87 91 37 12 52 0
125 122 127 124 77 73 71 10 75 78 34 66 0
125 122 127 124 28 21 17 23 31 1 3 13 0
125 122 127 124 98 94 93 96 100 15 38 81 0
125 122 127 124 63 58 56 61 64 32 53 7 0
125 122 127 77 73 71 10 75 78 34 66 51 0
125 122 127 28 21 17 23 31 1 3 13 6 0
125 122 127 98 94 93 96 100 15 38 81 55 0
125 122 123 126 124 77 73 71 10 75 78 68 0
125 122 123 126 124 28 21 17 23 31 1 14 0
125 122 123 126 124 46 42 41 44 48 39 4 0
125 122 123 126 124 88 84 83 87 91 80 12 0
125 122 123 126 124 63 58 56 61 64 54 7 0
125 122 123 126 77 73 71 10 75 78 68 51 0
125 122 123 126 28 21 17 23 31 1 14 6 0
125 122 123 126 46 42 41 44 48 39 4 33 0
125 122 123 126 88 84 83 87 91 80 12 52 0
125 122 123 124 77 73 71 10 75 78 68 66 0
125 122 123 124 28 21 17 23 31 1 14 13 0
125 122 123 124 46 42 41 44 48 39 4 36 0
125 122 123 124 63 58 56 61 64 54 53 7 0
125 122 123 77 73 71 10 75 78 68 66 51 0
125 122 123 28 21 17 23 31 1 14 13 6 0
125 122 123 46 42 41 44 48 39 4 36 33 0
125 122 126 124 77 73 71 10 75 78 68 34 0
125 122 126 124 28 21 17 23 31 1 14 3 0
125 122 126 124 88 84 83 87 91 80 37 12 0
125 122 126 124 63 58 56 61 64 54 32 7 0
125 122 126 77 73 71 10 75 78 68 34 51 0
125 122 126 28 21 17 23 31 1 14 3 6 0
125 122 126 88 84 83 87 91 80 37 12 52 0
125 122 124 77 73 71 10 75 78 68 34 66 0
125 122 124 28 21 17 23 31 1 14 3 13 0
125 122 124 63 58 56 61 64 54 32 53 7 0
125 122 77 73 71 10 75 78 68 34 66 51 0
125 122 28 21 17 23 31 1 14 3 13 6 0
125 127 123 126 124 77 73 71 10 75 78 9 0
125 127 123 126 124 98 94 93 96 100 16 15 0
125 127 123 126 124 46 42 41 44 48 2 4 0
125 127 123 126 124 88 84 83 87 91 11 12 0
125 127 123 126 124 63 58 56 61 64 5 7 0
125 127 123 126 77 73 71 10 75 78 9 51 0
125 127 123 126 98 94 93 96 100 16 15 55 0
125 127 123 126 46 42 41 44 48 2 4 33 0
125 127 123 126 88 84 83 87 91 11 12 52 0
125 127 123 124 77 73 71 10 75 78 9 66 0
125 127 123 124 98 94 93 96 100 16 15 81 0
125 127 123 124 46 42 41 44 48 2 4 36 0
125 127 123 124 63 58 56 61 64 5 53 7 0
125 127 123 77 73 71 10 75 78 9 66 51 0
125 127 123 98 94 93 96 100 16 15 81 55 0
125 127 123 46 42 41 44 48 2 4 36 33 0
125 127 126 124 77 73 71 10 75 78 9 34 0
125 127 126 124 98 94 93 96 100 16 15 38 0
125 127 126 124 88 84 83 87 91 11 37 12 0
125 127 126 124 63 58 56 61 64 5 32 7 0
125 127 126 77 73 71 10 75 78 9 34 51 0
125 127 126 98 94 93 96 100 16 15 38 55 0
125 127 126 88 84 83 87 91 11 37 12 52 0
125 127 124 77 73 71 10 75 78 9 34 66 0
125 127 124 98 94 93 96 100 16 15 38 81 0
125 127 124 63 58 56 61 64 5 32 53 7 0
125 127 77 73 71 10 75 78 9 34 66 51 0
125 127 98 94 93 96 100 16 15 38 81 55 0
125 123 126 124 77 73 71 10 75 78 9 68 0
125 123 126 124 46 42 41 44 48 2 39 4 0
125 123 126 124 88 84 83 87 91 11 80 12 0
125 123 126 124 63 58 56 61 64 5 54 7 0
125 123 126 77 73 71 10 75 78 9 68 51 0
125 123 126 46 42 41 44 48 2 39 4 33 0
125 123 126 88 84 83 87 91 11 80 12 52 0
125 123 124 77 73 71 10 75 78 9 68 66 0
125 123 124 46 42 41 44 48 2 39 4 36 0
125 123 124 63 58 56 61 64 5 54 53 7 0
125 123 77 73 71 10 75 78 9 68 66 51 0
125 123 46 42 41 44 48 2 39 4 36 33 0
125 126 124 77 73 71 10 75 78 9 68 34 0
125 126 124 88 84 83 87 91 11 80 37 12 0
125 126 124 63 58 56 61 64 5 54 32 7 0
125 126 77 73 71 10 75 78 9 68 34 51 0
125 126 88 84 83 87 91 11 80 37 12 52 0
125 124 77 73 71 10 75 78 9 68 34 66 0
125 124 63 58 56 61 64 5 54 32 53 7 0
125 77 73 71 10 75 78 9 68 34 66 51 0
130 132 122 127 123 126 124 117 110 104 74 24 0
130 132 122 127 123 126 124 120 115 108 79 30 0
130 132 122 127 123 126 124 28 21 17 8 1 0
130 132 122 127 123 126 124 98 94 93 69 15 0
130 132 122 127 123 126 124 46 42 41 35 4 0
130 132 122 127 123 126 124 88 84 83 67 12 0
130 132 122 127 123 126 124 63 58 56 50 7 0
130 132 122 127 123 126 117 110 104 74 24 60 0
130 132 122 127 123 126 120 115 108 79 30 65 0
130 132 122 127 123 126 28 21 17 8 1 6 0
130 132 122 127 123 126 98 94 93 69 15 55 0
130 132 122 127 123 126 46 42 41 35 4 33 0
130 132 122 127 123 126 88 84 83 67 12 52 0
130 132 122 127 123 124 117 110 104 74 24 86 0
130 132 122 127 123 124 120 115 108 79 30 90 0
130 132 122 127 123 124 28 21 17 8 1 13 0
130 132 122 127 123 124 98 94 93 69 15 81 0
130 132 122 127 123 124 46 42 41 35 4 36 0
130 132 122 127 123 124 63 58 56 50 53 7 0
130 132 122 127 123 117 110 104 74 24 86 60 0
130 132 122 127 123 120 115 108 79 30 90 65 0
130 132 122 127 123 28 21 17 8 1 13 6 0
130 132 122 127 123 98 94 93 69 15 81 55 0
130 132 122 127 123 46 42 41 35 4 36 33 0
130 132 122 127 126 124 117 110 104 74 24 45 0
130 132 122 127 126 124 120 115 108 79 30 49 0
130 132 122 127 126 124 28 21 17 8 1 3 0
130 132 122 127 126 124 98 94 93 69 15 38 0
130 132 122 127 126 124 88 84 83 67 37 12 0
130 132 122 127 126 124 63 58 56 50 32 7 0
130 132 122 127 126 117 110 104 74 24 45 60 0
130 132 122 127 126 120 115 108 79 30 49 65 0
130 132 122 127 126 28 21 17 8 1 3 6 0
130 132 122 127 126 98 94 93 69 15 38 55 0
130 132 122 127 126 88 84 83 67 37 12 52 0
130 132 122 127 124 117 110 104 74 24 45 86 0
130 132 122 127 124 120 115 108 79 30 49 90 0
130 132 122 127 124 28 21 17 8 1 3 13 0
130 132 122 127 124 98 94 93 69 15 38 81 0
130 132 122 127 124 63 58 56 50 32 53 7 0
130 132 122 127 117 110 104 74 24 45 86 60 0
130 132 122 127 120 115 108 79 30 49 90 65 0
130 132 122 127 28 21 17 8 1 3 13 6 0
130 132 122 127 98 94 93 69 15 38 81 55 0
130 132 122 123 126 124 117 110 104 74 24 97 0
130 132 122 123 126 124 120 115 108 79 30 101 0
130 132 122 123 126 124 28 21 17 8 1 14 0
130 132 122 123 126 124 46 42 41 35 39 4 0
130 132 122 123 126 124 88 84 83 67 80 12 0
130 132 122 123 126 124 63 58 56 50 54 7 0
130 132 122 123 126 117 110 104 74 24 97 60 0
130 132 122 123 126 120 115 108 79 30 101 65 0
130 132 122 123 126 28 21 17 8 1 14 6 0
130 132 122 123 126 46 42 41 35 39 4 33 0
130 132 122 123 126 88 84 83 67 80 12 52 0
130 132 122 123 124 117 110 104 74 24 97 86 0
130 132 122 123 124 120 115 108 79 30 101 90 0
130 132 122 123 124 28 21 17 8 1 14 13 0
130 132 122 123 124 46 42 41 35 39 4 36 0
130 132 122 123 124 63 58 56 50 54 53 7 0
130 132 122 123 117 110 104 74 24 97 86 60 0
130 132 122 123 120 115 108 79 30 101 90 65 0
130 132 122 123 28 21 17 8 1 14 13 6 0
130 132 122 123 46 42 41 35 39 4 36 33 0
130 132 122 126 124 117 110 104 74 24 97 45 0
130 132 122 126 124 120 115 108 79 30 101 49 0
130 132 122 126 124 28 21 17 8 1 14 3 0
130 132 122 126 124 88 84 83 67 80 37 12 0
130 132 122 126 124 63 58 56 50 54 32 7 0
130 132 122 126 117 110 104 74 24 97 45 60 0
130 132 122 126 120 115 108 79 30 101 49 65 0
130 132 122 126 28 21 17 8 1 14 3 6 0
130 132 122 126 88 84 83 67 80 37 12 52 0
130 132 122 124 117 110 104 74 24 97 45 86 0
130 132 122 124 120 115 108 79 30 101 49 90 0
130 132 122 124 28 21 17 8 1 14 3 13 0
130 132 122 124 63 58 56 50 54 32 53 7 0
130 132 122 117 110 104 74 24 97 45 86 60 0
130 132 122 120 115 108 79 30 101 49 90 65 0
130 132 122 28 21 17 8 1 14 3 13 6 0
130 132 127 123 126 124 117 110 104 74 24 25 0
130 132 127 123 126 124 120 115 108 79 30 29 0
130 132 127 123 126 124 98 94 93 69 16 15 0
130 132 127 123 126 124 46 42 41 35 2 4 0
130 132 127 123 126 124 88 84 83 67 11 12 0
130 132 127 123 126 124 63 58 56 50 5 7 0
130 132 127 123 126 117 110 104 74 24 25 60 0
130 132 127 123 126 120 115 108 79 30 29 65 0
130 132 127 123 126 98 94 93 69 16 15 55 0
130 132 127 123 126 46 42 41 35 2 4 33 0
130 132 127 123 126 88 84 83 67 11 12 52 0
130 132 127 123 124 117 110 104 74 24 25 86 0
130 132 127 123 124 120 115 108 79 30 29 90 0
130 132 127 123 124 98 94 93 69 16 15 81 0
130 132 127 123 124 46 42 41 35 2 4 36 0
130 132 127 123 124 63 58 56 50 5 53 7 0
130 132 127 123 117 110 104 74 24 25 86 60 0
130 132 127 123 120 115 108 79 30 29 90 65 0
130 132 127 123 98 94 93 69 16 15 81 55 0
130 132 127 123 46 42 41 35 2 4 36 33 0
130 132 127 126 124 117 110 104 74 24 25 45 0
130 132 127 126 124 120 115 108 79 30 29 49 0
130 132 127 126 124 98 94 93 69 16 15 38 0
130 132 127 126 124 88 84 83 67 11 37 12 0
130 132 127 126 124 63 58 56 50 5 32 7 0
130 132 127 126 117 110 104 74 24 25 45 60 0
130 132 127 126 120 115 108 79 30 29 49 65 0
130 132 127 126 98 94 93 69 16 15 38 55 0
130 132 127 126 88 84 83 67 11 37 12 52 0
130 132 127 124 117 110 104 74 24 25 45 86 0
130 132 127 124 120 115 108 79 30 29 49 90 0
130 132 127 124 98 94 93 69 16 15 38 81 0
130 132 127 124 63 58 56 50 5 32 53 7 0
130 132 127 117 110 104 74 24 25 45 86 60 0
130 132 127 120 115 108 79 30 29 49 90 65 0
130 132 127 98 94 93 69 16 15 38 81 55 0
130 132 123 126 124 117 110 104 74 24 25 97 0
130 132 123 126 124 120 115 108 79 30 29 101 0
130 132 123 126 124 46 42 41 35 2 39 4 0
130 132 123 126 124 88 84 83 67 11 80 12 0
130 132 123 126 124 63 58 56 50 5 54 7 0
130 132 123 126 117 110 104 74 24 25 97 60 0
130 132 123 126 120 115 108 79 30 29 101 65 0
130 132 123 126 46 42 41 35 2 39 4 33 0
130 132 123 126 88 84 83 67 11 80 12 52 0
130 132 123 124 117 110 104 74 24 25 97 86 0
130 132 123 124 120 115 108 79 30 29 101 90 0
130 132 123 124 46 42 41 35 2 39 4 36 0
130 132 123 124 63 58 56 50 5 54 53 7 0
130 132 123 117 110 104 74 24 25 97 86 60 0
130 132 123 120 115 108 79 30 29 101 90 65 0
130 132 123 46 42 41 35 2 39 4 36 33 0
130 132 126 124 117 110 104 74 24 25 97 45 0
130 132 126 124 120 115 108 79 30 29 101 49 0
130 132 126 124 88 84 83 67 11 80 37 12 0
130 132 126 124 63 58 56 50 5 54 32 7 0
130 132 126 117 110 104 74 24 25 97 45 60 0
130 132 126 120 115 108 79 30 29 101 49 65 0
130 132 126 88 84 83 67 11 80 37 12 52 0
130 132 124 117 110 104 74 24 25 97 45 86 0
130 132 124 120 115 108 79 30 29 101 49 90 0
130 132 124 63 58 56 50 5 54 32 53 7 0
130 132 117 110 104 74 24 25 97 45 86 60 0
130 132 120 115 108 79 30 29 101 49 90 65 0
130 122 127 123 126 124 117 110 104 74 24 118 0
130 122 127 123 126 124 28 21 17 8 31 1 0
130 122 127 123 126 124 98 94 93 69 100 15 0
130 122 127 123 126 124 46 42 41 35 48 4 0
130 122 127 123 126 124 88 84 83 67 91 12 0
130 122 127 123 126 124 63 58 56 50 64 7 0
130 122 127 123 126 117 110 104 74 24 118 60 0
130 122 127 123 126 28 21 17 8 31 1 6 0
130 122 127 123 126 98 94 93 69 100 15 55 0
130 122 127 123 126 46 42 41 35 48 4 33 0
130 122 127 123 126 88 84 83 67 91 12 52 0
130 122 127 123 124 117 110 104 74 24 118 86 0
130 122 127 123 124 28 21 17 8 31 1 13 0
130 122 127 123 124 98 94 93 69 100 15 81 0
130 122 127 123 124 46 42 41 35 48 4 36 0
130 122 127 123 124 63 58 56 50 64 53 7 0
130 122 127 123 117 110 104 74 24 118 86 60 0
130 122 127 123 28 21 17 8 31 1 13 6 0
130 122 127 123 98 94 93 69 100 15 81 55 0
130 122 127 123 46 42 41 35 48 4 36 33 0
130 122 127 126 124 117 110 104 74 24 118 45 0
130 122 127 126 124 28 21 17 8 31 1 3 0
130 122 127 126 124 98 94 93 69 100 15 38 0
130 122 127 126 124 88 84 83 67 91 37 12 0
130 122 127 126 124 63 58 56 50 64 32 7 0
130 122 127 126 117 110 104 74 24 118 45 60 0
130 122 127 126 28 21 17 8 31 1 3 6 0
130 122 127 126 98 94 93 69 100 15 38 55 0
130 122 127 126 88 84 83 67 91 37 12 52 0
130 122 127 124 117 110 104 74 24 118 45 86 0
130 122 127 124 28 21 17 8 31 1 3 13 0
130 122 127 124 98 94 93 69 100 15 38 81 0
130 122 127 124 63 58 56 50 64 32 53 7 0
130 122 127 117 110 104 74 24 118 45 86 60 0
130 122 127 28 21 17 8 31 1 3 13 6 0
130 122 127 98 94 93 69 100 15 38 81 55 0
130 122 123 126 124 117 110 104 74 24 118 97 0
130 122 123 126 124 28 21 17 8 31 1 14 0
130 122 123 126 124 46 42 41 35 48 39 4 0
130 122 123 126 124 88 84 83 67 91 80 12 0
130 122 123 126 124 63 58 56 50 64 54 7 0
130 122 123 126 117 110 104 74 24 118 97 60 0
130 122 123 126 28 21 17 8 31 1 14 6 0
130 122 123 126 46 42 41 35 48 39 4 33 0
130 122 123 126 88 84 83 67 91 80 12 52 0
130 122 123 124 117 110 104 74 24 118 97 86 0
130 122 123 124 28 21 17 8 31 1 14 13 0
130 122 123 124 46 42 41 35 48 39 4 36 0
130 122 123 124 63 58 56 50 64 54 53 7 0
130 122 123 117 110 104 74 24 118 97 86 60 0
130 122 123 28 21 17 8 31 1 14 13 6 0
130 122 123 46 42 41 35 48 39 4 36 33 0
130 122 126 124 117 110 104 74 24 118 97 45 0
130 122 126 124 28 21 17 8 31 1 14 3 0
130 122 126 124 88 84 83 67 91 80 37 12 0
130 122 126 124 63 58 56 50 64 54 32 7 0
130 122 126 117 110 104 74 24 118 97 45 60 0
130 122 126 28 21 17 8 31 1 14 3 6 0
130 122 126 88 84 83 67 91 80 37 12 52 0
130 122 124 117 110 104 74 24 118 97 45 86 0
130 122 124 28 21 17 8 31 1 14 3 13 0
130 122 124 63 58 56 50 64 54 32 53 7 0
130 122 117 110 104 74 24 118 97 45 86 60 0
130 122 28 21 17 8 31 1 14 3 13 6 0
130 127 123 126 124 117 110 104 74 24 118 25 0
130 127 123 126 124 98 94 93 69 100 16 15 0
130 127 123 126 124 46 42 41 35 48 2 4 0
130 127 123 126 124 88 84 83 67 91 11 12 0
130 127 123 126 124 63 58 56 50 64 5 7 0
130 127 123 126 117 110 104 74 24 118 25 60 0
130 127 123 126 98 94 93 69 100 16 15 55 0
130 127 123 126 46 42 41 35 48 2 4 33 0
130 127 123 126 88 84 83 67 91 11 12 52 0
130 127 123 124 117 110 104 74 24 118 25 86 0
130 127 123 124 98 94 93 69 100 16 15 81 0
130 127 123 124 46 42 41 35 48 2 4 36 0
130 127 123 124 63 58 56 50 64 5 53 7 0
130 127 123 117 110 104 74 24 118 25 86 60 0
130 127 123 98 94 93 69 100 16 15 81 55 0
130 127 123 46 42 41 35 48 2 4 36 33 0
130 127 126 124 117 110 104 74 24 118 25 45 0
130 127 126 124 98 94 93 69 100 16 15 38 0
130 127 126 124 88 84 83 67 91 11 37 12 0
130 127 126 124 63 58 56 50 64 5 32 7 0
130 127 126 117 110 104 74 24 118 25 45 60 0
130 127 126 98 94 93 69 100 16 15 38 55 0
130 127 126 88 84 83 67 91 11 37 12 52 0
130 127 124 117 110 104 74 24 118 25 45 86 0
130 127 124 98 94 93 69 100 16 15 38 81 0
130 127 124 63 58 56 50 64 5 32 53 7 0
130 127 117 110 104 74 24 118 25 45 86 60 0
130 127 98 94 93 69 100 16 15 38 81 55 0
130 123 126 124 117 110 104 74 24 118 25 97 0
130 123 126 124 46 42 41 35 48 2 39 4 0
130 123 126 124 88 84 83 67 91 11 80 12 0
130 123 126 124 63 58 56 50 64 5 54 7 0
130 123 126 117 110 104 74 24 118 25 97 60 0
130 123 126 46 42 41 35 48 2 39 4 33 0
130 123 126 88 84 83 67 91 11 80 12 52 0
130 123 124 117 110 104 74 24 118 25 97 86 0
130 123 124 46 42 41 35 48 2 39 4 36 0
130 123 124 63 58 56 50 64 5 54 53 7 0
130 123 117 110 104 74 24 118 25 97 86 60 0
130 123 46 42 41 35 48 2 39 4 36 33 0
130 126 124 117 110 104 74 24 118 25 97 45 0
130 126 124 88 84 83 67 91 11 80 37 12 0
130 126 124 63 58 56 50 64 5 54 32 7 0
130 126 117 110 104 74 24 118 25 97 45 60 0
130 126 88 84 83 67 91 11 80 37 12 52 0
130 124 117 110 104 74 24 118 25 97 45 86 0
130 124 63 58 56 50 64 5 54 32 53 7 0
130 117 110 104 74 24 118 25 97 45 86 60 0
132 122 127 123 126 124 120 115 108 79 119 30 0
132 122 127 123 126 124 28 21 17 8 23 1 0
132 122 127 123 126 124 98 94 93 69 96 15 0
132 122 127 123 126 124 46 42 41 35 44 4 0
132 122 127 123 126 124 88 84 83 67 87 12 0
132 122 127 123 126 124 63 58 56 50 61 7 0
132 122 127 123 126 120 115 108 79 119 30 65 0
132 122 127 123 126 28 21 17 8 23 1 6 0
132 122 127 123 126 98 94 93 69 96 15 55 0
132 122 127 123 126 46 42 41 35 44 4 33 0
132 122 127 123 126 88 84 83 67 87 12 52 0
132 122 127 123 124 120 115 108 79 119 30 90 0
132 122 127 123 124 28 21 17 8 23 1 13 0
132 122 127 123 124 98 94 93 69 96 15 81 0
132 122 127 123 124 46 42 41 35 44 4 36 0
132 122 127 123 124 63 58 56 50 61 53 7 0
132 122 127 123 120 115 108 79 119 30 90 65 0
132 122 127 123 28 21 17 8 23 1 13 6 0
132 122 127 123 98 94 93 69 96 15 81 55 0
132 122 127 123 46 42 41 35 44 4 36 33 0
132 122 127 126 124 120 115 108 79 119 30 49 0
132 122 127 126 124 28 21 17 8 23 1 3 0
132 122 127 126 124 98 94 93 69 96 15 38 0
132 122 127 126 124 88 84 83 67 87 37 12 0
132 122 127 126 124 63 58 56 50 61 32 7 0
132 122 127 126 120 115 108 79 119 30 49 65 0
132 122 127 126 28 21 17 8 23 1 3 6 0
132 122 127 126 98 94 93 69 96 15 38 55 0
132 122 127 126 88 84 83 67 87 37 12 52 0
132 122 127 124 120 115 108 79 119 30 49 90 0
132 122 127 124 28 21 17 8 23 1 3 13 0
132 122 127 124 98 94 93 69 96 15 38 81 0
132 122 127 124 63 58 56 50 61 32 53 7 0
132 122 127 120 115 108 79 119 30 49 90 65 0
132 122 127 28 21 17 8 23 1 3 13 6 0
132 122 127 98 94 93 69 96 15 38 81 55 0
132 122 123 126 124 120 115 108 79 119 30 101 0
132 122 123 126 124 28 21 17 8 23 1 14 0
132 122 123 126 124 46 42 41 35 44 39 4 0
132 122 123 126 124 88 84 83 67 87 80 12 0
132 122 123 126 124 63 58 56 50 61 54 7 0
132 122 123 126 120 115 108 79 119 30 101 65 0
132 122 123 126 28 21 17 8 23 1 14 6 0
132 122 123 126 46 42 41 35 44 39 4 33 0
132 122 123 126 88 84 83 67 87 80 12 52 0
132 122 123 124 120 115 108 79 119 30 101 90 0
132 122 123 124 28 21 17 8 23 1 14 13 0
132 122 123 124 46 42 41 35 44 39 4 36 0
132 122 123 124 63 58 56 50 61 54 53 7 0
132 122 123 120 115 108 79 119 30 101 90 65 0
132 122 123 28 21 17 8 23 1 14 13 6 0
132 122 123 46 42 41 35 44 39 4 36 33 0
132 122 126 124 120 115 108 79 119 30 101 49 0
132 122 126 124 28 21 17 8 23 1 14 3 0
132 122 126 124 88 84 83 67 87 80 37 12 0
132 122 126 124 63 58 56 50 61 54 32 7 0
132 122 126 120 115 108 79 119 30 101 49 65 0
132 122 126 28 21 17 8 23 1 14 3 6 0
132 122 126 88 84 83 67 87 80 37 12 52 0
132 122 124 120 115 108 79 119 30 101 49 90 0
132 122 124 28 21 17 8 23 1 14 3 13 0
132 122 124 63 58 56 50 61 54 32 53 7 0
132 122 120 115 108 79 119 30 101 49 90 65 0
132 122 28 21 17 8 23 1 14 3 13 6 0
132 127 123 126 124 120 115 108 79 119 30 29 0
132 127 123 126 124 98 94 93 69 96 16 15 0
132 127 123 126 124 46 42 41 35 44 2 4 0
132 127 123 126 124 88 84 83 67 87 11 12 0
132 127 123 126 124 63 58 56 50 61 5 7 0
132 127 123 126 120 115 108 79 119 30 29 65 0
132 127 123 126 98 94 93 69 96 16 15 55 0
132 127 123 126 46 42 41 35 44 2 4 33 0
132 127 123 126 88 84 83 67 87 11 12 52 0
132 127 123 124 120 115 108 79 119 30 29 90 0
132 127 123 124 98 94 93 69 96 16 15 81 0
132 127 123 124 46 42 41 35 44 2 4 36 0
132 127 123 124 63 58 56 50 61 5 53 7 0
132 127 123 120 115 108 79 119 30 29 90 65 0
132 127 123 98 94 93 69 96 16 15 81 55 0
132 127 123 46 42 41 35 44 2 4 36 33 0
132 127 126 124 120 115 108 79 119 30 29 49 0
132 127 126 124 98 94 93 69 96 16 15 38 0
132 127 126 124 88 84 83 67 87 11 37 12 0
132 127 126 124 63 58 56 50 61 5 32 7 0
132 127 126 120 115 108 79 119 30 29 49 65 0
132 127 126 98 94 93 69 96 16 15 38 55 0
132 127 126 88 84 83 67 87 11 37 12 52 0
132 127 124 120 115 108 79 119 30 29 49 90 0
132 127 124 98 94 93 69 96 16 15 38 81 0
132 127 124 63 58 56 50 61 5 32 53 7 0
132 127 120 115 108 79 119 30 29 49 90 65 0
132 127 98 94 93 69 96 16 15 38 81 55 0
132 123 126 124 120 115 108 79 119 30 29 101 0
132 123 126 124 46 42 41 35 44 2 39 4 0
132 123 126 124 88 84 83 67 87 11 80 12 0
132 123 126 124 63 58 56 50 61 5 54 7 0
132 123 126 120 115 108 79 119 30 29 101 65 0
132 123 126 46 42 41 35 44 2 39 4 33 0
132 123 126 88 84 83 67 87 11 80 12 52 0
132 123 124 120 115 108 79 119 30 29 101 90 0
132 123 124 46 42 41 35 44 2 39 4 36 0
132 123 124 63 58 56 50 61 5 54 53 7 0
132 123 120 115 108 79 119 30 29 101 90 65 0
132 123 46 42 41 35 44 2 39 4 36 33 0
132 126 124 120 115 108 79 119 30 29 101 49 0
132 126 124 88 84 83 67 87 11 80 37 12 0
132 126 124 63 58 56 50 61 5 54 32 7 0
132 126 120 115 108 79 119 30 29 101 49 65 0
132 126 88 84 83 67 87 11 80 37 12 52 0
132 124 120 115 108 79 119 30 29 101 49 90 0
132 124 63 58 56 50 61 5 54 32 53 7 0
132 120 115 108 79 119 30 29 101 49 90 65 0
122 127 123 126 124 28 21 17 8 23 31 1 0
122 127 123 126 124 98 94 93 69 96 100 15 0
122 127 123 126 124 46 42 41 35 44 48 4 0
122 127 123 126 124 88 84 83 67 87 91 12 0
122 127 123 126 124 63 58 56 50 61 64 7 0
122 127 123 126 28 21 17 8 23 31 1 6 0
122 127 123 126 98 94 93 69 96 100 15 55 0
122 127 123 126 46 42 41 35 44 48 4 33 0
122 127 123 126 88 84 83 67 87 91 12 52 0
122 127 123 124 28 21 17 8 23 31 1 13 0
122 127 123 124 98 94 93 69 96 100 15 81 0
122 127 123 124 46 42 41 35 44 48 4 36 0
122 127 123 124 63 58 56 50 61 64 53 7 0
122 127 123 28 21 17 8 23 31 1 13 6 0
122 127 123 98 94 93 69 96 100 15 81 55 0
122 127 123 46 42 41 35 44 48 4 36 33 0
122 127 126 124 28 21 17 8 23 31 1 3 0
122 127 126 124 98 94 93 69 96 100 15 38 0
122 127 126 124 88 84 83 67 87 91 37 12 0
122 127 126 124 63 58 56 50 61 64 32 7 0
122 127 126 28 21 17 8 23 31 1 3 6 0
122 127 126 98 94 93 69 96 100 15 38 55 0
122 127 126 88 84 83 67 87 91 37 12 52 0
122 127 124 28 21 17 8 23 31 1 3 13 0
122 127 124 98 94 93 69 96 100 15 38 81 0
122 127 124 63 58 56 50 61 64 32 53 7 0
122 127 28 21 17 8 23 31 1 3 13 6 0
122 127 98 94 93 69 96 100 15 38 81 55 0
122 123 126 124 28 21 17 8 23 31 1 14 0
122 123 126 124 46 42 41 35 44 48 39 4 0
122 123 126 124 88 84 83 67 87 91 80 12 0
122 123 126 124 63 58 56 50 61 64 54 7 0
122 123 126 28 21 17 8 23 31 1 14 6 0
122 123 126 46 42 41 35 44 48 39 4 33 0
122 123 126 88 84 83 67 87 91 80 12 52 0
122 123 124 28 21 17 8 23 31 1 14 13 0
122 123 124 46 42 41 35 44 48 39 4 36 0
122 123 124 63 58 56 50 61 64 54 53 7 0
122 123 28 21 17 8 23 31 1 14 13 6 0
122 123 46 42 41 35 44 48 39 4 36 33 0
122 126 124 28 21 17 8 23 31 1 14 3 0
122 126 124 88 84 83 67 87 91 80 37 12 0
122 126 124 63 58 56 50 61 64 54 32 7 0
122 126 28 21 17 8 23 31 1 14 3 6 0
122 126 88 84 83 67 87 91 80 37 12 52 0
122 124 28 21 17 8 23 31 1 14 3 13 0
122 124 63 58 56 50 61 64 54 32 53 7 0
122 28 21 17 8 23 31 1 14 3 13 6 0
127 123 126 124 98 94 93 69 96 100 16 15 0
127 123 126 124 46 42 41 35 44 48 2 4 0
127 123 126 124 88 84 83 67 87 91 11 12 0
127 123 126 124 63 58 56 50 61 64 5 7 0
127 123 126 98 94 93 69 96 100 16 15 55 0
127 123 126 46 42 41 35 44 48 2 4 33 0
127 123 126 88 84 83 67 87 91 11 12 52 0
127 123 124 98 94 93 69 96 100 16 15 81 0
127 123 124 46 42 41 35 44 48 2 4 36 0
127 123 124 63 58 56 50 61 64 5 53 7 0
127 123 98 94 93 69 96 100 16 15 81 55 0
127 123 46 42 41 35 44 48 2 4 36 33 0
127 126 124 98 94 93 69 96 100 16 15 38 0
127 126 124 88 84 83 67 87 91 11 37 12 0
127 126 124 63 58 56 50 61 64 5 32 7 0
127 126 98 94 93 69 96 100 16 15 38 55 0
127 126 88 84 83 67 87 91 11 37 12 52 0
127 124 98 94 93 69 96 100 16 15 38 81 0
127 124 63 58 56 50 61 64 5 32 53 7 0
127 98 94 93 69 96 100 16 15 38 81 55 0
123 126 124 46 42 41 35 44 48 2 39 4 0
123 126 124 88 84 83 67 87 91 11 80 12 0
123 126 124 63 58 56 50 61 64 5 54 7 0
123 126 46 42 41 35 44 48 2 39 4 33 0
123 126 88 84 83 67 87 91 11 80 12 52 0
123 124 46 42 41 35 44 48 2 39 4 36 0
123 124 63 58 56 50 61 64 5 54 53 7 0
123 46 42 41 35 44 48 2 39 4 36 33 0
126 124 88 84 83 67 87 91 11 80 37 12 0
126 124 63 58 56 50 61 64 5 54 32 7 0
126 88 84 83 67 87 91 11 80 37 12 52 0
124 63 58 56 50 61 64 5 54 32 53 7 0
