c E(3,3) E(2,2) E(2,3) E(3,2) E(0,0) E(3,0) E(0,3) E(3,1) E(1,3) E(1,1) E(2,0) E(0,2) E(1,2) E(2,1) E(0,1) E(1,0) D(3) D(2) D(0) D(1)
c 1 2 3 4 5 6 7 8 9 10 11 12 13 14 15 16 17 18 19 20
p cnf 20 81
-5 0
-10 0
-2 0
-1 0
5 -5 0
15 -16 0
12 -11 0
7 -6 0
16 -15 0
10 -10 0
13 -14 0
9 -8 0
11 -12 0
14 -13 0
2 -2 0
3 -4 0
6 -7 0
8 -9 0
4 -3 0
1 -1 0
19 20 18 17 0
19 20 18 7 0
19 20 18 9 0
19 20 18 3 0
19 20 17 12 0
19 20 17 13 0
19 20 17 4 0
19 20 12 7 0
19 20 13 9 0
19 18 17 15 0
19 18 17 14 0
19 18 17 8 0
19 18 15 7 0
19 18 14 3 0
19 17 15 12 0
19 17 8 4 0
19 15 12 7 0
20 18 17 16 0
20 18 17 11 0
20 18 17 6 0
20 18 16 9 0
20 18 11 3 0
20 17 16 13 0
20 17 6 4 0
20 16 13 9 0
18 17 11 14 0
18 17 6 8 0
18 11 14 3 0
17 6 8 4 0
19 20 18 17 5 0
19 20 18 17 10 0
19 20 18 17 2 0
19 20 18 17 1 0
19 20 18 5 7 0
19 20 18 10 9 0
19 20 18 2 3 0
19 20 17 5 12 0
19 20 17 10 13 0
19 20 17 4 1 0
19 20 5 12 7 0
19 20 10 13 9 0
19 18 17 5 15 0
19 18 17 14 2 0
19 18 17 8 1 0
19 18 5 15 7 0
19 18 14 2 3 0
19 17 5 15 12 0
19 17 8 4 1 0
19 5 15 12 7 0
20 18 17 16 10 0
20 18 17 11 2 0
20 18 17 6 1 0
20 18 16 10 9 0
20 18 11 2 3 0
20 17 16 10 13 0
20 17 6 4 1 0
20 16 10 13 9 0
18 17 11 14 2 0
18 17 6 8 1 0
18 11 14 2 3 0
17 6 8 4 1 0
