c E(0,0) E(0,4) E(4,4) E(4,0) E(3,3) E(3,0) E(0,3) E(1,1) E(0,1) E(1,0) E(2,2) E(0,2) E(2,0) E(3,4) E(4,3) E(1,4) E(4,1) E(4,2) E(2,4) E(1,3) E(3,1) E(2,3) E(3,2) E(2,1) E(1,2) D(0) D(4) D(3) D(1) D(2)
c 1 2 3 4 5 6 7 8 9 10 11 12 13 14 15 16 17 18 19 20 21 22 23 24 25 26 27 28 29 30
p cnf 30 186
-1 0
-8 0
-11 0
-5 0
-3 0
1 -1 0
9 -10 0
12 -13 0
7 -6 0
2 -4 0
10 -9 0
8 -8 0
25 -24 0
20 -21 0
16 -17 0
13 -12 0
24 -25 0
11 -11 0
22 -23 0
19 -18 0
6 -7 0
21 -20 0
23 -22 0
5 -5 0
14 -15 0
4 -2 0
17 -16 0
18 -19 0
15 -14 0
3 -3 0
26 29 30 28 27 0
26 29 30 28 2 0
26 29 30 28 16 0
26 29 30 28 19 0
26 29 30 28 14 0
26 29 30 27 7 0
26 29 30 27 20 0
26 29 30 27 22 0
26 29 30 27 15 0
26 29 30 7 2 0
26 29 30 20 16 0
26 29 30 22 19 0
26 29 28 27 12 0
26 29 28 27 25 0
26 29 28 27 23 0
26 29 28 27 18 0
26 29 28 12 2 0
26 29 28 25 16 0
26 29 28 23 14 0
26 29 27 12 7 0
26 29 27 25 20 0
26 29 27 18 15 0
26 29 12 7 2 0
26 29 25 20 16 0
26 30 28 27 9 0
26 30 28 27 24 0
26 30 28 27 21 0
26 30 28 27 17 0
26 30 28 9 2 0
26 30 28 24 19 0
26 30 28 21 14 0
26 30 27 9 7 0
26 30 27 24 22 0
26 30 27 17 15 0
26 30 9 7 2 0
26 30 24 22 19 0
26 28 27 9 12 0
26 28 27 21 23 0
26 28 27 17 18 0
26 28 9 12 2 0
26 28 21 23 14 0
26 27 9 12 7 0
26 27 17 18 15 0
26 9 12 7 2 0
29 30 28 27 10 0
29 30 28 27 13 0
29 30 28 27 6 0
29 30 28 27 4 0
29 30 28 10 16 0
29 30 28 13 19 0
29 30 28 6 14 0
29 30 27 10 20 0
29 30 27 13 22 0
29 30 27 4 15 0
29 30 10 20 16 0
29 30 13 22 19 0
29 28 27 10 25 0
29 28 27 6 23 0
29 28 27 4 18 0
29 28 10 25 16 0
29 28 6 23 14 0
29 27 10 25 20 0
29 27 4 18 15 0
29 10 25 20 16 0
30 28 27 13 24 0
30 28 27 6 21 0
30 28 27 4 17 0
30 28 13 24 19 0
30 28 6 21 14 0
30 27 13 24 22 0
30 27 4 17 15 0
30 13 24 22 19 0
28 27 6 21 23 0
28 27 4 17 18 0
28 6 21 23 14 0
27 4 17 18 15 0
26 29 30 28 27 1 0
26 29 30 28 27 8 0
26 29 30 28 27 11 0
26 29 30 28 27 5 0
26 29 30 28 27 3 0
26 29 30 28 1 2 0
26 29 30 28 8 16 0
26 29 30 28 11 19 0
26 29 30 28 5 14 0
26 29 30 27 1 7 0
26 29 30 27 8 20 0
26 29 30 27 11 22 0
26 29 30 27 15 3 0
26 29 30 1 7 2 0
26 29 30 8 20 16 0
26 29 30 11 22 19 0
26 29 28 27 1 12 0
26 29 28 27 8 25 0
26 29 28 27 23 5 0
26 29 28 27 18 3 0
26 29 28 1 12 2 0
26 29 28 8 25 16 0
26 29 28 23 5 14 0
26 29 27 1 12 7 0
26 29 27 8 25 20 0
26 29 27 18 15 3 0
26 29 1 12 7 2 0
26 29 8 25 20 16 0
26 30 28 27 1 9 0
26 30 28 27 24 11 0
26 30 28 27 21 5 0
26 30 28 27 17 3 0
26 30 28 1 9 2 0
26 30 28 24 11 19 0
26 30 28 21 5 14 0
26 30 27 1 9 7 0
26 30 27 24 11 22 0
26 30 27 17 15 3 0
26 30 1 9 7 2 0
26 30 24 11 22 19 0
26 28 27 1 9 12 0
26 28 27 21 23 5 0
26 28 27 17 18 3 0
26 28 1 9 12 2 0
26 28 21 23 5 14 0
26 27 1 9 12 7 0
26 27 17 18 15 3 0
26 1 9 12 7 2 0
29 30 28 27 10 8 0
29 30 28 27 13 11 0
29 30 28 27 6 5 0
29 30 28 27 4 3 0
29 30 28 10 8 16 0
29 30 28 13 11 19 0
29 30 28 6 5 14 0
29 30 27 10 8 20 0
29 30 27 13 11 22 0
29 30 27 4 15 3 0
29 30 10 8 20 16 0
29 30 13 11 22 19 0
29 28 27 10 8 25 0
29 28 27 6 23 5 0
29 28 27 4 18 3 0
29 28 10 8 25 16 0
29 28 6 23 5 14 0
29 27 10 8 25 20 0
29 27 4 18 15 3 0
29 10 8 25 20 16 0
30 28 27 13 24 11 0
30 28 27 6 21 5 0
30 28 27 4 17 3 0
30 28 13 24 11 19 0
30 28 6 21 5 14 0
30 27 13 24 11 22 0
30 27 4 17 15 3 0
30 13 24 11 22 19 0
28 27 6 21 23 5 0
28 27 4 17 18 3 0
28 6 21 23 5 14 0
27 4 17 18 15 3 0
