c E(5,5) E(0,0) E(5,0) E(0,5) E(4,5) E(5,4) E(4,4) E(5,1) E(1,5) E(1,1) E(5,3) E(3,3) E(3,5) E(2,2) E(5,2) E(2,5) E(4,0) E(0,4) E(0,1) E(1,0) E(3,0) E(0,3) E(0,2) E(2,0) E(4,1) E(1,4) E(3,4) E(4,3) E(2,4) E(4,2) E(1,3) E(3,1) E(2,1) E(1,2) E(3,2) E(2,3) D(5) D(0) D(4) D(1) D(3) D(2)
c 1 2 3 4 5 6 7 8 9 10 11 12 13 14 15 16 17 18 19 20 21 22 23 24 25 26 27 28 29 30 31 32 33 34 35 36 37 38 39 40 41 42
p cnf 42 421
-2 0
-10 0
-14 0
-12 0
-7 0
-1 0
2 -2 0
19 -20 0
23 -24 0
22 -21 0
18 -17 0
4 -3 0
20 -19 0
10 -10 0
34 -33 0
31 -32 0
26 -25 0
9 -8 0
24 -23 0
33 -34 0
14 -14 0
36 -35 0
29 -30 0
16 -15 0
21 -22 0
32 -31 0
35 -36 0
12 -12 0
27 -28 0
13 -11 0
17 -18 0
25 -26 0
30 -29 0
28 -27 0
7 -7 0
5 -6 0
3 -4 0
8 -9 0
15 -16 0
11 -13 0
6 -5 0
1 -1 0
38 40 42 41 39 37 0
38 40 42 41 39 4 0
38 40 42 41 39 9 0
38 40 42 41 39 16 0
38 40 42 41 39 13 0
38 40 42 41 39 5 0
38 40 42 41 37 18 0
38 40 42 41 37 26 0
38 40 42 41 37 29 0
38 40 42 41 37 27 0
38 40 42 41 37 6 0
38 40 42 41 18 4 0
38 40 42 41 26 9 0
38 40 42 41 29 16 0
38 40 42 41 27 13 0
38 40 42 39 37 22 0
38 40 42 39 37 31 0
38 40 42 39 37 36 0
38 40 42 39 37 28 0
38 40 42 39 37 11 0
38 40 42 39 22 4 0
38 40 42 39 31 9 0
38 40 42 39 36 16 0
38 40 42 39 28 5 0
38 40 42 37 22 18 0
38 40 42 37 31 26 0
38 40 42 37 36 29 0
38 40 42 37 11 6 0
38 40 42 22 18 4 0
38 40 42 31 26 9 0
38 40 42 36 29 16 0
38 40 41 39 37 23 0
38 40 41 39 37 34 0
38 40 41 39 37 35 0
38 40 41 39 37 30 0
38 40 41 39 37 15 0
38 40 41 39 23 4 0
38 40 41 39 34 9 0
38 40 41 39 35 13 0
38 40 41 39 30 5 0
38 40 41 37 23 18 0
38 40 41 37 34 26 0
38 40 41 37 35 27 0
38 40 41 37 15 6 0
38 40 41 23 18 4 0
38 40 41 34 26 9 0
38 40 41 35 27 13 0
38 40 39 37 23 22 0
38 40 39 37 34 31 0
38 40 39 37 30 28 0
38 40 39 37 15 11 0
38 40 39 23 22 4 0
38 40 39 34 31 9 0
38 40 39 30 28 5 0
38 40 37 23 22 18 0
38 40 37 34 31 26 0
38 40 37 15 11 6 0
38 40 23 22 18 4 0
38 40 34 31 26 9 0
38 42 41 39 37 19 0
38 42 41 39 37 33 0
38 42 41 39 37 32 0
38 42 41 39 37 25 0
38 42 41 39 37 8 0
38 42 41 39 19 4 0
38 42 41 39 33 16 0
38 42 41 39 32 13 0
38 42 41 39 25 5 0
38 42 41 37 19 18 0
38 42 41 37 33 29 0
38 42 41 37 32 27 0
38 42 41 37 8 6 0
38 42 41 19 18 4 0
38 42 41 33 29 16 0
38 42 41 32 27 13 0
38 42 39 37 19 22 0
38 42 39 37 33 36 0
38 42 39 37 25 28 0
38 42 39 37 8 11 0
38 42 39 19 22 4 0
38 42 39 33 36 16 0
38 42 39 25 28 5 0
38 42 37 19 22 18 0
38 42 37 33 36 29 0
38 42 37 8 11 6 0
38 42 19 22 18 4 0
38 42 33 36 29 16 0
38 41 39 37 19 23 0
38 41 39 37 32 35 0
38 41 39 37 25 30 0
38 41 39 37 8 15 0
38 41 39 19 23 4 0
38 41 39 32 35 13 0
38 41 39 25 30 5 0
38 41 37 19 23 18 0
38 41 37 32 35 27 0
38 41 37 8 15 6 0
38 41 19 23 18 4 0
38 41 32 35 27 13 0
38 39 37 19 23 22 0
38 39 37 25 30 28 0
38 39 37 8 15 11 0
38 39 19 23 22 4 0
38 39 25 30 28 5 0
38 37 19 23 22 18 0
38 37 8 15 11 6 0
38 19 23 22 18 4 0
40 42 41 39 37 20 0
40 42 41 39 37 24 0
40 42 41 39 37 21 0
40 42 41 39 37 17 0
40 42 41 39 37 3 0
40 42 41 39 20 9 0
40 42 41 39 24 16 0
40 42 41 39 21 13 0
40 42 41 39 17 5 0
40 42 41 37 20 26 0
40 42 41 37 24 29 0
40 42 41 37 21 27 0
40 42 41 37 3 6 0
40 42 41 20 26 9 0
40 42 41 24 29 16 0
40 42 41 21 27 13 0
40 42 39 37 20 31 0
40 42 39 37 24 36 0
40 42 39 37 17 28 0
40 42 39 37 3 11 0
40 42 39 20 31 9 0
40 42 39 24 36 16 0
40 42 39 17 28 5 0
40 42 37 20 31 26 0
40 42 37 24 36 29 0
40 42 37 3 11 6 0
40 42 20 31 26 9 0
40 42 24 36 29 16 0
40 41 39 37 20 34 0
40 41 39 37 21 35 0
40 41 39 37 17 30 0
40 41 39 37 3 15 0
40 41 39 20 34 9 0
40 41 39 21 35 13 0
40 41 39 17 30 5 0
40 41 37 20 34 26 0
40 41 37 21 35 27 0
40 41 37 3 15 6 0
40 41 20 34 26 9 0
40 41 21 35 27 13 0
40 39 37 20 34 31 0
40 39 37 17 30 28 0
40 39 37 3 15 11 0
40 39 20 34 31 9 0
40 39 17 30 28 5 0
40 37 20 34 31 26 0
40 37 3 15 11 6 0
40 20 34 31 26 9 0
42 41 39 37 24 33 0
42 41 39 37 21 32 0
42 41 39 37 17 25 0
42 41 39 37 3 8 0
42 41 39 24 33 16 0
42 41 39 21 32 13 0
42 41 39 17 25 5 0
42 41 37 24 33 29 0
42 41 37 21 32 27 0
42 41 37 3 8 6 0
42 41 24 33 29 16 0
42 41 21 32 27 13 0
42 39 37 24 33 36 0
42 39 37 17 25 28 0
42 39 37 3 8 11 0
42 39 24 33 36 16 0
42 39 17 25 28 5 0
42 37 24 33 36 29 0
42 37 3 8 11 6 0
42 24 33 36 29 16 0
41 39 37 21 32 35 0
41 39 37 17 25 30 0
41 39 37 3 8 15 0
41 39 21 32 35 13 0
41 39 17 25 30 5 0
41 37 21 32 35 27 0
41 37 3 8 15 6 0
41 21 32 35 27 13 0
39 37 17 25 30 28 0
39 37 3 8 15 11 0
39 17 25 30 28 5 0
37 3 8 15 11 6 0
38 40 42 41 39 37 2 0
38 40 42 41 39 37 10 0
38 40 42 41 39 37 14 0
38 40 42 41 39 37 12 0
38 40 42 41 39 37 7 0
38 40 42 41 39 37 1 0
38 40 42 41 39 2 4 0
38 40 42 41 39 10 9 0
38 40 42 41 39 14 16 0
38 40 42 41 39 12 13 0
38 40 42 41 39 7 5 0
38 40 42 41 37 2 18 0
38 40 42 41 37 10 26 0
38 40 42 41 37 14 29 0
38 40 42 41 37 12 27 0
38 40 42 41 37 6 1 0
38 40 42 41 2 18 4 0
38 40 42 41 10 26 9 0
38 40 42 41 14 29 16 0
38 40 42 41 12 27 13 0
38 40 42 39 37 2 22 0
38 40 42 39 37 10 31 0
38 40 42 39 37 14 36 0
38 40 42 39 37 28 7 0
38 40 42 39 37 11 1 0
38 40 42 39 2 22 4 0
38 40 42 39 10 31 9 0
38 40 42 39 14 36 16 0
38 40 42 39 28 7 5 0
38 40 42 37 2 22 18 0
38 40 42 37 10 31 26 0
38 40 42 37 14 36 29 0
38 40 42 37 11 6 1 0
38 40 42 2 22 18 4 0
38 40 42 10 31 26 9 0
38 40 42 14 36 29 16 0
38 40 41 39 37 2 23 0
38 40 41 39 37 10 34 0
38 40 41 39 37 35 12 0
38 40 41 39 37 30 7 0
38 40 41 39 37 15 1 0
38 40 41 39 2 23 4 0
38 40 41 39 10 34 9 0
38 40 41 39 35 12 13 0
38 40 41 39 30 7 5 0
38 40 41 37 2 23 18 0
38 40 41 37 10 34 26 0
38 40 41 37 35 12 27 0
38 40 41 37 15 6 1 0
38 40 41 2 23 18 4 0
38 40 41 10 34 26 9 0
38 40 41 35 12 27 13 0
38 40 39 37 2 23 22 0
38 40 39 37 10 34 31 0
38 40 39 37 30 28 7 0
38 40 39 37 15 11 1 0
38 40 39 2 23 22 4 0
38 40 39 10 34 31 9 0
38 40 39 30 28 7 5 0
38 40 37 2 23 22 18 0
38 40 37 10 34 31 26 0
38 40 37 15 11 6 1 0
38 40 2 23 22 18 4 0
38 40 10 34 31 26 9 0
38 42 41 39 37 2 19 0
38 42 41 39 37 33 14 0
38 42 41 39 37 32 12 0
38 42 41 39 37 25 7 0
38 42 41 39 37 8 1 0
38 42 41 39 2 19 4 0
38 42 41 39 33 14 16 0
38 42 41 39 32 12 13 0
38 42 41 39 25 7 5 0
38 42 41 37 2 19 18 0
38 42 41 37 33 14 29 0
38 42 41 37 32 12 27 0
38 42 41 37 8 6 1 0
38 42 41 2 19 18 4 0
38 42 41 33 14 29 16 0
38 42 41 32 12 27 13 0
38 42 39 37 2 19 22 0
38 42 39 37 33 14 36 0
38 42 39 37 25 28 7 0
38 42 39 37 8 11 1 0
38 42 39 2 19 22 4 0
38 42 39 33 14 36 16 0
38 42 39 25 28 7 5 0
38 42 37 2 19 22 18 0
38 42 37 33 14 36 29 0
38 42 37 8 11 6 1 0
38 42 2 19 22 18 4 0
38 42 33 14 36 29 16 0
38 41 39 37 2 19 23 0
38 41 39 37 32 35 12 0
38 41 39 37 25 30 7 0
38 41 39 37 8 15 1 0
38 41 39 2 19 23 4 0
38 41 39 32 35 12 13 0
38 41 39 25 30 7 5 0
38 41 37 2 19 23 18 0
38 41 37 32 35 12 27 0
38 41 37 8 15 6 1 0
38 41 2 19 23 18 4 0
38 41 32 35 12 27 13 0
38 39 37 2 19 23 22 0
38 39 37 25 30 28 7 0
38 39 37 8 15 11 1 0
38 39 2 19 23 22 4 0
38 39 25 30 28 7 5 0
38 37 2 19 23 22 18 0
38 37 8 15 11 6 1 0
38 2 19 23 22 18 4 0
40 42 41 39 37 20 10 0
40 42 41 39 37 24 14 0
40 42 41 39 37 21 12 0
40 42 41 39 37 17 7 0
40 42 41 39 37 3 1 0
40 42 41 39 20 10 9 0
40 42 41 39 24 14 16 0
40 42 41 39 21 12 13 0
40 42 41 39 17 7 5 0
40 42 41 37 20 10 26 0
40 42 41 37 24 14 29 0
40 42 41 37 21 12 27 0
40 42 41 37 3 6 1 0
40 42 41 20 10 26 9 0
40 42 41 24 14 29 16 0
40 42 41 21 12 27 13 0
40 42 39 37 20 10 31 0
40 42 39 37 24 14 36 0
40 42 39 37 17 28 7 0
40 42 39 37 3 11 1 0
40 42 39 20 10 31 9 0
40 42 39 24 14 36 16 0
40 42 39 17 28 7 5 0
40 42 37 20 10 31 26 0
40 42 37 24 14 36 29 0
40 42 37 3 11 6 1 0
40 42 20 10 31 26 9 0
40 42 24 14 36 29 16 0
40 41 39 37 20 10 34 0
40 41 39 37 21 35 12 0
40 41 39 37 17 30 7 0
40 41 39 37 3 15 1 0
40 41 39 20 10 34 9 0
40 41 39 21 35 12 13 0
40 41 39 17 30 7 5 0
40 41 37 20 10 34 26 0
40 41 37 21 35 12 27 0
40 41 37 3 15 6 1 0
40 41 20 10 34 26 9 0
40 41 21 35 12 27 13 0
40 39 37 20 10 34 31 0
40 39 37 17 30 28 7 0
40 39 37 3 15 11 1 0
40 39 20 10 34 31 9 0
40 39 17 30 28 7 5 0
40 37 20 10 34 31 26 0
40 37 3 15 11 6 1 0
40 20 10 34 31 26 9 0
42 41 39 37 24 33 14 0
42 41 39 37 21 32 12 0
42 41 39 37 17 25 7 0
42 41 39 37 3 8 1 0
42 41 39 24 33 14 16 0
42 41 39 21 32 12 13 0
42 41 39 17 25 7 5 0
42 41 37 24 33 14 29 0
42 41 37 21 32 12 27 0
42 41 37 3 8 6 1 0
42 41 24 33 14 29 16 0
42 41 21 32 12 27 13 0
42 39 37 24 33 14 36 0
42 39 37 17 25 28 7 0
42 39 37 3 8 11 1 0
42 39 24 33 14 36 16 0
42 39 17 25 28 7 5 0
42 37 24 33 14 36 29 0
42 37 3 8 11 6 1 0
42 24 33 14 36 29 16 0
41 39 37 21 32 35 12 0
41 39 37 17 25 30 7 0
41 39 37 3 8 15 1 0
41 39 21 32 35 12 13 0
41 39 17 25 30 7 5 0
41 37 21 32 35 12 27 0
41 37 3 8 15 6 1 0
41 21 32 35 12 27 13 0
39 37 17 25 30 28 7 0
39 37 3 8 15 11 1 0
39 17 25 30 28 7 5 0
37 3 8 15 11 6 1 0
