c E(0,0) E(0,5) E(5,5) E(5,0) E(2,2) E(2,0) E(0,2) E(0,4) E(4,4) E(4,0) E(6,6) E(0,6) E(6,0) E(1,0) E(0,1) E(1,1) E(0,3) E(3,0) E(3,3) E(2,5) E(5,2) E(5,4) E(4,5) E(5,6) E(6,5) E(5,1) E(1,5) E(5,3) E(3,5) E(4,2) E(2,4) E(2,6) E(6,2) E(1,2) E(2,1) E(3,2) E(2,3) E(4,6) E(6,4) E(1,4) E(4,1) E(4,3) E(3,4) E(1,6) E(6,1) E(3,6) E(6,3) E(1,3) E(3,1) D(0) D(5) D(2) D(4) D(6) D(1) D(3)
c 1 2 3 4 5 6 7 8 9 10 11 12 13 14 15 16 17 18 19 20 21 22 23 24 25 26 27 28 29 30 31 32 33 34 35 36 37 38 39 40 41 42 43 44 45 46 47 48 49 50 51 52 53 54 55 56
p cnf 56 946
-1 0
-16 0
-5 0
-19 0
-9 0
-3 0
-11 0
1 -1 0
15 -14 0
7 -6 0
17 -18 0
8 -10 0
2 -4 0
12 -13 0
14 -15 0
16 -16 0
34 -35 0
48 -49 0
40 -41 0
27 -26 0
44 -45 0
6 -7 0
35 -34 0
5 -5 0
37 -36 0
31 -30 0
20 -21 0
32 -33 0
18 -17 0
49 -48 0
36 -37 0
19 -19 0
43 -42 0
29 -28 0
46 -47 0
10 -8 0
41 -40 0
30 -31 0
42 -43 0
9 -9 0
23 -22 0
38 -39 0
4 -2 0
26 -27 0
21 -20 0
28 -29 0
22 -23 0
3 -3 0
24 -25 0
13 -12 0
45 -44 0
33 -32 0
47 -46 0
39 -38 0
25 -24 0
11 -11 0
50 55 52 56 53 51 54 0
50 55 52 56 53 51 12 0
50 55 52 56 53 51 44 0
50 55 52 56 53 51 32 0
50 55 52 56 53 51 46 0
50 55 52 56 53 51 38 0
50 55 52 56 53 51 24 0
50 55 52 56 53 54 2 0
50 55 52 56 53 54 27 0
50 55 52 56 53 54 20 0
50 55 52 56 53 54 29 0
50 55 52 56 53 54 23 0
50 55 52 56 53 54 25 0
50 55 52 56 53 2 12 0
50 55 52 56 53 27 44 0
50 55 52 56 53 20 32 0
50 55 52 56 53 29 46 0
50 55 52 56 53 23 38 0
50 55 52 56 51 54 8 0
50 55 52 56 51 54 40 0
50 55 52 56 51 54 31 0
50 55 52 56 51 54 43 0
50 55 52 56 51 54 22 0
50 55 52 56 51 54 39 0
50 55 52 56 51 8 12 0
50 55 52 56 51 40 44 0
50 55 52 56 51 31 32 0
50 55 52 56 51 43 46 0
50 55 52 56 51 22 24 0
50 55 52 56 54 8 2 0
50 55 52 56 54 40 27 0
50 55 52 56 54 31 20 0
50 55 52 56 54 43 29 0
50 55 52 56 54 39 25 0
50 55 52 56 8 2 12 0
50 55 52 56 40 27 44 0
50 55 52 56 31 20 32 0
50 55 52 56 43 29 46 0
50 55 52 53 51 54 17 0
50 55 52 53 51 54 48 0
50 55 52 53 51 54 37 0
50 55 52 53 51 54 42 0
50 55 52 53 51 54 28 0
50 55 52 53 51 54 47 0
50 55 52 53 51 17 12 0
50 55 52 53 51 48 44 0
50 55 52 53 51 37 32 0
50 55 52 53 51 42 38 0
50 55 52 53 51 28 24 0
50 55 52 53 54 17 2 0
50 55 52 53 54 48 27 0
50 55 52 53 54 37 20 0
50 55 52 53 54 42 23 0
50 55 52 53 54 47 25 0
50 55 52 53 17 2 12 0
50 55 52 53 48 27 44 0
50 55 52 53 37 20 32 0
50 55 52 53 42 23 38 0
50 55 52 51 54 17 8 0
50 55 52 51 54 48 40 0
50 55 52 51 54 37 31 0
50 55 52 51 54 28 22 0
50 55 52 51 54 47 39 0
50 55 52 51 17 8 12 0
50 55 52 51 48 40 44 0
50 55 52 51 37 31 32 0
50 55 52 51 28 22 24 0
50 55 52 54 17 8 2 0
50 55 52 54 48 40 27 0
50 55 52 54 37 31 20 0
50 55 52 54 47 39 25 0
50 55 52 17 8 2 12 0
50 55 52 48 40 27 44 0
50 55 52 37 31 20 32 0
50 55 56 53 51 54 7 0
50 55 56 53 51 54 34 0
50 55 56 53 51 54 36 0
50 55 56 53 51 54 30 0
50 55 56 53 51 54 21 0
50 55 56 53 51 54 33 0
50 55 56 53 51 7 12 0
50 55 56 53 51 34 44 0
50 55 56 53 51 36 46 0
50 55 56 53 51 30 38 0
50 55 56 53 51 21 24 0
50 55 56 53 54 7 2 0
50 55 56 53 54 34 27 0
50 55 56 53 54 36 29 0
50 55 56 53 54 30 23 0
50 55 56 53 54 33 25 0
50 55 56 53 7 2 12 0
50 55 56 53 34 27 44 0
50 55 56 53 36 29 46 0
50 55 56 53 30 23 38 0
50 55 56 51 54 7 8 0
50 55 56 51 54 34 40 0
50 55 56 51 54 36 43 0
50 55 56 51 54 21 22 0
50 55 56 51 54 33 39 0
50 55 56 51 7 8 12 0
50 55 56 51 34 40 44 0
50 55 56 51 36 43 46 0
50 55 56 51 21 22 24 0
50 55 56 54 7 8 2 0
50 55 56 54 34 40 27 0
50 55 56 54 36 43 29 0
50 55 56 54 33 39 25 0
50 55 56 7 8 2 12 0
50 55 56 34 40 27 44 0
50 55 56 36 43 29 46 0
50 55 53 51 54 7 17 0
50 55 53 51 54 34 48 0
50 55 53 51 54 30 42 0
50 55 53 51 54 21 28 0
50 55 53 51 54 33 47 0
50 55 53 51 7 17 12 0
50 55 53 51 34 48 44 0
50 55 53 51 30 42 38 0
50 55 53 51 21 28 24 0
50 55 53 54 7 17 2 0
50 55 53 54 34 48 27 0
50 55 53 54 30 42 23 0
50 55 53 54 33 47 25 0
50 55 53 7 17 2 12 0
50 55 53 34 48 27 44 0
50 55 53 30 42 23 38 0
50 55 51 54 7 17 8 0
50 55 51 54 34 48 40 0
50 55 51 54 21 28 22 0
50 55 51 54 33 47 39 0
50 55 51 7 17 8 12 0
50 55 51 34 48 40 44 0
50 55 51 21 28 22 24 0
50 55 54 7 17 8 2 0
50 55 54 34 48 40 27 0
50 55 54 33 47 39 25 0
50 55 7 17 8 2 12 0
50 55 34 48 40 27 44 0
50 52 56 53 51 54 15 0
50 52 56 53 51 54 35 0
50 52 56 53 51 54 49 0
50 52 56 53 51 54 41 0
50 52 56 53 51 54 26 0
50 52 56 53 51 54 45 0
50 52 56 53 51 15 12 0
50 52 56 53 51 35 32 0
50 52 56 53 51 49 46 0
50 52 56 53 51 41 38 0
50 52 56 53 51 26 24 0
50 52 56 53 54 15 2 0
50 52 56 53 54 35 20 0
50 52 56 53 54 49 29 0
50 52 56 53 54 41 23 0
50 52 56 53 54 45 25 0
50 52 56 53 15 2 12 0
50 52 56 53 35 20 32 0
50 52 56 53 49 29 46 0
50 52 56 53 41 23 38 0
50 52 56 51 54 15 8 0
50 52 56 51 54 35 31 0
50 52 56 51 54 49 43 0
50 52 56 51 54 26 22 0
50 52 56 51 54 45 39 0
50 52 56 51 15 8 12 0
50 52 56 51 35 31 32 0
50 52 56 51 49 43 46 0
50 52 56 51 26 22 24 0
50 52 56 54 15 8 2 0
50 52 56 54 35 31 20 0
50 52 56 54 49 43 29 0
50 52 56 54 45 39 25 0
50 52 56 15 8 2 12 0
50 52 56 35 31 20 32 0
50 52 56 49 43 29 46 0
50 52 53 51 54 15 17 0
50 52 53 51 54 35 37 0
50 52 53 51 54 41 42 0
50 52 53 51 54 26 28 0
50 52 53 51 54 45 47 0
50 52 53 51 15 17 12 0
50 52 53 51 35 37 32 0
50 52 53 51 41 42 38 0
50 52 53 51 26 28 24 0
50 52 53 54 15 17 2 0
50 52 53 54 35 37 20 0
50 52 53 54 41 42 23 0
50 52 53 54 45 47 25 0
50 52 53 15 17 2 12 0
50 52 53 35 37 20 32 0
50 52 53 41 42 23 38 0
50 52 51 54 15 17 8 0
50 52 51 54 35 37 31 0
50 52 51 54 26 28 22 0
50 52 51 54 45 47 39 0
50 52 51 15 17 8 12 0
50 52 51 35 37 31 32 0
50 52 51 26 28 22 24 0
50 52 54 15 17 8 2 0
50 52 54 35 37 31 20 0
50 52 54 45 47 39 25 0
50 52 15 17 8 2 12 0
50 52 35 37 31 20 32 0
50 56 53 51 54 15 7 0
50 56 53 51 54 49 36 0
50 56 53 51 54 41 30 0
50 56 53 51 54 26 21 0
50 56 53 51 54 45 33 0
50 56 53 51 15 7 12 0
50 56 53 51 49 36 46 0
50 56 53 51 41 30 38 0
50 56 53 51 26 21 24 0
50 56 53 54 15 7 2 0
50 56 53 54 49 36 29 0
50 56 53 54 41 30 23 0
50 56 53 54 45 33 25 0
50 56 53 15 7 2 12 0
50 56 53 49 36 29 46 0
50 56 53 41 30 23 38 0
50 56 51 54 15 7 8 0
50 56 51 54 49 36 43 0
50 56 51 54 26 21 22 0
50 56 51 54 45 33 39 0
50 56 51 15 7 8 12 0
50 56 51 49 36 43 46 0
50 56 51 26 21 22 24 0
50 56 54 15 7 8 2 0
50 56 54 49 36 43 29 0
50 56 54 45 33 39 25 0
50 56 15 7 8 2 12 0
50 56 49 36 43 29 46 0
50 53 51 54 15 7 17 0
50 53 51 54 41 30 42 0
50 53 51 54 26 21 28 0
50 53 51 54 45 33 47 0
50 53 51 15 7 17 12 0
50 53 51 41 30 42 38 0
50 53 51 26 21 28 24 0
50 53 54 15 7 17 2 0
50 53 54 41 30 42 23 0
50 53 54 45 33 47 25 0
50 53 15 7 17 2 12 0
50 53 41 30 42 23 38 0
50 51 54 15 7 17 8 0
50 51 54 26 21 28 22 0
50 51 54 45 33 47 39 0
50 51 15 7 17 8 12 0
50 51 26 21 28 22 24 0
50 54 15 7 17 8 2 0
50 54 45 33 47 39 25 0
50 15 7 17 8 2 12 0
55 52 56 53 51 54 14 0
55 52 56 53 51 54 6 0
55 52 56 53 51 54 18 0
55 52 56 53 51 54 10 0
55 52 56 53 51 54 4 0
55 52 56 53 51 54 13 0
55 52 56 53 51 14 44 0
55 52 56 53 51 6 32 0
55 52 56 53 51 18 46 0
55 52 56 53 51 10 38 0
55 52 56 53 51 4 24 0
55 52 56 53 54 14 27 0
55 52 56 53 54 6 20 0
55 52 56 53 54 18 29 0
55 52 56 53 54 10 23 0
55 52 56 53 54 13 25 0
55 52 56 53 14 27 44 0
55 52 56 53 6 20 32 0
55 52 56 53 18 29 46 0
55 52 56 53 10 23 38 0
55 52 56 51 54 14 40 0
55 52 56 51 54 6 31 0
55 52 56 51 54 18 43 0
55 52 56 51 54 4 22 0
55 52 56 51 54 13 39 0
55 52 56 51 14 40 44 0
55 52 56 51 6 31 32 0
55 52 56 51 18 43 46 0
55 52 56 51 4 22 24 0
55 52 56 54 14 40 27 0
55 52 56 54 6 31 20 0
55 52 56 54 18 43 29 0
55 52 56 54 13 39 25 0
55 52 56 14 40 27 44 0
55 52 56 6 31 20 32 0
55 52 56 18 43 29 46 0
55 52 53 51 54 14 48 0
55 52 53 51 54 6 37 0
55 52 53 51 54 10 42 0
55 52 53 51 54 4 28 0
55 52 53 51 54 13 47 0
55 52 53 51 14 48 44 0
55 52 53 51 6 37 32 0
55 52 53 51 10 42 38 0
55 52 53 51 4 28 24 0
55 52 53 54 14 48 27 0
55 52 53 54 6 37 20 0
55 52 53 54 10 42 23 0
55 52 53 54 13 47 25 0
55 52 53 14 48 27 44 0
55 52 53 6 37 20 32 0
55 52 53 10 42 23 38 0
55 52 51 54 14 48 40 0
55 52 51 54 6 37 31 0
55 52 51 54 4 28 22 0
55 52 51 54 13 47 39 0
55 52 51 14 48 40 44 0
55 52 51 6 37 31 32 0
55 52 51 4 28 22 24 0
55 52 54 14 48 40 27 0
55 52 54 6 37 31 20 0
55 52 54 13 47 39 25 0
55 52 14 48 40 27 44 0
55 52 6 37 31 20 32 0
55 56 53 51 54 14 34 0
55 56 53 51 54 18 36 0
55 56 53 51 54 10 30 0
55 56 53 51 54 4 21 0
55 56 53 51 54 13 33 0
55 56 53 51 14 34 44 0
55 56 53 51 18 36 46 0
55 56 53 51 10 30 38 0
55 56 53 51 4 21 24 0
55 56 53 54 14 34 27 0
55 56 53 54 18 36 29 0
55 56 53 54 10 30 23 0
55 56 53 54 13 33 25 0
55 56 53 14 34 27 44 0
55 56 53 18 36 29 46 0
55 56 53 10 30 23 38 0
55 56 51 54 14 34 40 0
55 56 51 54 18 36 43 0
55 56 51 54 4 21 22 0
55 56 51 54 13 33 39 0
55 56 51 14 34 40 44 0
55 56 51 18 36 43 46 0
55 56 51 4 21 22 24 0
55 56 54 14 34 40 27 0
55 56 54 18 36 43 29 0
55 56 54 13 33 39 25 0
55 56 14 34 40 27 44 0
55 56 18 36 43 29 46 0
55 53 51 54 14 34 48 0
55 53 51 54 10 30 42 0
55 53 51 54 4 21 28 0
55 53 51 54 13 33 47 0
55 53 51 14 34 48 44 0
55 53 51 10 30 42 38 0
55 53 51 4 21 28 24 0
55 53 54 14 34 48 27 0
55 53 54 10 30 42 23 0
55 53 54 13 33 47 25 0
55 53 14 34 48 27 44 0
55 53 10 30 42 23 38 0
55 51 54 14 34 48 40 0
55 51 54 4 21 28 22 0
55 51 54 13 33 47 39 0
55 51 14 34 48 40 44 0
55 51 4 21 28 22 24 0
55 54 14 34 48 40 27 0
55 54 13 33 47 39 25 0
55 14 34 48 40 27 44 0
52 56 53 51 54 6 35 0
52 56 53 51 54 18 49 0
52 56 53 51 54 10 41 0
52 56 53 51 54 4 26 0
52 56 53 51 54 13 45 0
52 56 53 51 6 35 32 0
52 56 53 51 18 49 46 0
52 56 53 51 10 41 38 0
52 56 53 51 4 26 24 0
52 56 53 54 6 35 20 0
52 56 53 54 18 49 29 0
52 56 53 54 10 41 23 0
52 56 53 54 13 45 25 0
52 56 53 6 35 20 32 0
52 56 53 18 49 29 46 0
52 56 53 10 41 23 38 0
52 56 51 54 6 35 31 0
52 56 51 54 18 49 43 0
52 56 51 54 4 26 22 0
52 56 51 54 13 45 39 0
52 56 51 6 35 31 32 0
52 56 51 18 49 43 46 0
52 56 51 4 26 22 24 0
52 56 54 6 35 31 20 0
52 56 54 18 49 43 29 0
52 56 54 13 45 39 25 0
52 56 6 35 31 20 32 0
52 56 18 49 43 29 46 0
52 53 51 54 6 35 37 0
52 53 51 54 10 41 42 0
52 53 51 54 4 26 28 0
52 53 51 54 13 45 47 0
52 53 51 6 35 37 32 0
52 53 51 10 41 42 38 0
52 53 51 4 26 28 24 0
52 53 54 6 35 37 20 0
52 53 54 10 41 42 23 0
52 53 54 13 45 47 25 0
52 53 6 35 37 20 32 0
52 53 10 41 42 23 38 0
52 51 54 6 35 37 31 0
52 51 54 4 26 28 22 0
52 51 54 13 45 47 39 0
52 51 6 35 37 31 32 0
52 51 4 26 28 22 24 0
52 54 6 35 37 31 20 0
52 54 13 45 47 39 25 0
52 6 35 37 31 20 32 0
56 53 51 54 18 49 36 0
56 53 51 54 10 41 30 0
56 53 51 54 4 26 21 0
56 53 51 54 13 45 33 0
56 53 51 18 49 36 46 0
56 53 51 10 41 30 38 0
56 53 51 4 26 21 24 0
56 53 54 18 49 36 29 0
56 53 54 10 41 30 23 0
56 53 54 13 45 33 25 0
56 53 18 49 36 29 46 0
56 53 10 41 30 23 38 0
56 51 54 18 49 36 43 0
56 51 54 4 26 21 22 0
56 51 54 13 45 33 39 0
56 51 18 49 36 43 46 0
56 51 4 26 21 22 24 0
56 54 18 49 36 43 29 0
56 54 13 45 33 39 25 0
56 18 49 36 43 29 46 0
53 51 54 10 41 30 42 0
53 51 54 4 26 21 28 0
53 51 54 13 45 33 47 0
53 51 10 41 30 42 38 0
53 51 4 26 21 28 24 0
53 54 10 41 30 42 23 0
53 54 13 45 33 47 25 0
53 10 41 30 42 23 38 0
51 54 4 26 21 28 22 0
51 54 13 45 33 47 39 0
51 4 26 21 28 22 24 0
54 13 45 33 47 39 25 0
50 55 52 56 53 51 54 1 0
50 55 52 56 53 51 54 16 0
50 55 52 56 53 51 54 5 0
50 55 52 56 53 51 54 19 0
50 55 52 56 53 51 54 9 0
50 55 52 56 53 51 54 3 0
50 55 52 56 53 51 54 11 0
50 55 52 56 53 51 1 12 0
50 55 52 56 53 51 16 44 0
50 55 52 56 53 51 5 32 0
50 55 52 56 53 51 19 46 0
50 55 52 56 53 51 9 38 0
50 55 52 56 53 51 3 24 0
50 55 52 56 53 54 1 2 0
50 55 52 56 53 54 16 27 0
50 55 52 56 53 54 5 20 0
50 55 52 56 53 54 19 29 0
50 55 52 56 53 54 9 23 0
50 55 52 56 53 54 25 11 0
50 55 52 56 53 1 2 12 0
50 55 52 56 53 16 27 44 0
50 55 52 56 53 5 20 32 0
50 55 52 56 53 19 29 46 0
50 55 52 56 53 9 23 38 0
50 55 52 56 51 54 1 8 0
50 55 52 56 51 54 16 40 0
50 55 52 56 51 54 5 31 0
50 55 52 56 51 54 19 43 0
50 55 52 56 51 54 22 3 0
50 55 52 56 51 54 39 11 0
50 55 52 56 51 1 8 12 0
50 55 52 56 51 16 40 44 0
50 55 52 56 51 5 31 32 0
50 55 52 56 51 19 43 46 0
50 55 52 56 51 22 3 24 0
50 55 52 56 54 1 8 2 0
50 55 52 56 54 16 40 27 0
50 55 52 56 54 5 31 20 0
50 55 52 56 54 19 43 29 0
50 55 52 56 54 39 25 11 0
50 55 52 56 1 8 2 12 0
50 55 52 56 16 40 27 44 0
50 55 52 56 5 31 20 32 0
50 55 52 56 19 43 29 46 0
50 55 52 53 51 54 1 17 0
50 55 52 53 51 54 16 48 0
50 55 52 53 51 54 5 37 0
50 55 52 53 51 54 42 9 0
50 55 52 53 51 54 28 3 0
50 55 52 53 51 54 47 11 0
50 55 52 53 51 1 17 12 0
50 55 52 53 51 16 48 44 0
50 55 52 53 51 5 37 32 0
50 55 52 53 51 42 9 38 0
50 55 52 53 51 28 3 24 0
50 55 52 53 54 1 17 2 0
50 55 52 53 54 16 48 27 0
50 55 52 53 54 5 37 20 0
50 55 52 53 54 42 9 23 0
50 55 52 53 54 47 25 11 0
50 55 52 53 1 17 2 12 0
50 55 52 53 16 48 27 44 0
50 55 52 53 5 37 20 32 0
50 55 52 53 42 9 23 38 0
50 55 52 51 54 1 17 8 0
50 55 52 51 54 16 48 40 0
50 55 52 51 54 5 37 31 0
50 55 52 51 54 28 22 3 0
50 55 52 51 54 47 39 11 0
50 55 52 51 1 17 8 12 0
50 55 52 51 16 48 40 44 0
50 55 52 51 5 37 31 32 0
50 55 52 51 28 22 3 24 0
50 55 52 54 1 17 8 2 0
50 55 52 54 16 48 40 27 0
50 55 52 54 5 37 31 20 0
50 55 52 54 47 39 25 11 0
50 55 52 1 17 8 2 12 0
50 55 52 16 48 40 27 44 0
50 55 52 5 37 31 20 32 0
50 55 56 53 51 54 1 7 0
50 55 56 53 51 54 16 34 0
50 55 56 53 51 54 36 19 0
50 55 56 53 51 54 30 9 0
50 55 56 53 51 54 21 3 0
50 55 56 53 51 54 33 11 0
50 55 56 53 51 1 7 12 0
50 55 56 53 51 16 34 44 0
50 55 56 53 51 36 19 46 0
50 55 56 53 51 30 9 38 0
50 55 56 53 51 21 3 24 0
50 55 56 53 54 1 7 2 0
50 55 56 53 54 16 34 27 0
50 55 56 53 54 36 19 29 0
50 55 56 53 54 30 9 23 0
50 55 56 53 54 33 25 11 0
50 55 56 53 1 7 2 12 0
50 55 56 53 16 34 27 44 0
50 55 56 53 36 19 29 46 0
50 55 56 53 30 9 23 38 0
50 55 56 51 54 1 7 8 0
50 55 56 51 54 16 34 40 0
50 55 56 51 54 36 19 43 0
50 55 56 51 54 21 22 3 0
50 55 56 51 54 33 39 11 0
50 55 56 51 1 7 8 12 0
50 55 56 51 16 34 40 44 0
50 55 56 51 36 19 43 46 0
50 55 56 51 21 22 3 24 0
50 55 56 54 1 7 8 2 0
50 55 56 54 16 34 40 27 0
50 55 56 54 36 19 43 29 0
50 55 56 54 33 39 25 11 0
50 55 56 1 7 8 2 12 0
50 55 56 16 34 40 27 44 0
50 55 56 36 19 43 29 46 0
50 55 53 51 54 1 7 17 0
50 55 53 51 54 16 34 48 0
50 55 53 51 54 30 42 9 0
50 55 53 51 54 21 28 3 0
50 55 53 51 54 33 47 11 0
50 55 53 51 1 7 17 12 0
50 55 53 51 16 34 48 44 0
50 55 53 51 30 42 9 38 0
50 55 53 51 21 28 3 24 0
50 55 53 54 1 7 17 2 0
50 55 53 54 16 34 48 27 0
50 55 53 54 30 42 9 23 0
50 55 53 54 33 47 25 11 0
50 55 53 1 7 17 2 12 0
50 55 53 16 34 48 27 44 0
50 55 53 30 42 9 23 38 0
50 55 51 54 1 7 17 8 0
50 55 51 54 16 34 48 40 0
50 55 51 54 21 28 22 3 0
50 55 51 54 33 47 39 11 0
50 55 51 1 7 17 8 12 0
50 55 51 16 34 48 40 44 0
50 55 51 21 28 22 3 24 0
50 55 54 1 7 17 8 2 0
50 55 54 16 34 48 40 27 0
50 55 54 33 47 39 25 11 0
50 55 1 7 17 8 2 12 0
50 55 16 34 48 40 27 44 0
50 52 56 53 51 54 1 15 0
50 52 56 53 51 54 35 5 0
50 52 56 53 51 54 49 19 0
50 52 56 53 51 54 41 9 0
50 52 56 53 51 54 26 3 0
50 52 56 53 51 54 45 11 0
50 52 56 53 51 1 15 12 0
50 52 56 53 51 35 5 32 0
50 52 56 53 51 49 19 46 0
50 52 56 53 51 41 9 38 0
50 52 56 53 51 26 3 24 0
50 52 56 53 54 1 15 2 0
50 52 56 53 54 35 5 20 0
50 52 56 53 54 49 19 29 0
50 52 56 53 54 41 9 23 0
50 52 56 53 54 45 25 11 0
50 52 56 53 1 15 2 12 0
50 52 56 53 35 5 20 32 0
50 52 56 53 49 19 29 46 0
50 52 56 53 41 9 23 38 0
50 52 56 51 54 1 15 8 0
50 52 56 51 54 35 5 31 0
50 52 56 51 54 49 19 43 0
50 52 56 51 54 26 22 3 0
50 52 56 51 54 45 39 11 0
50 52 56 51 1 15 8 12 0
50 52 56 51 35 5 31 32 0
50 52 56 51 49 19 43 46 0
50 52 56 51 26 22 3 24 0
50 52 56 54 1 15 8 2 0
50 52 56 54 35 5 31 20 0
50 52 56 54 49 19 43 29 0
50 52 56 54 45 39 25 11 0
50 52 56 1 15 8 2 12 0
50 52 56 35 5 31 20 32 0
50 52 56 49 19 43 29 46 0
50 52 53 51 54 1 15 17 0
50 52 53 51 54 35 5 37 0
50 52 53 51 54 41 42 9 0
50 52 53 51 54 26 28 3 0
50 52 53 51 54 45 47 11 0
50 52 53 51 1 15 17 12 0
50 52 53 51 35 5 37 32 0
50 52 53 51 41 42 9 38 0
50 52 53 51 26 28 3 24 0
50 52 53 54 1 15 17 2 0
50 52 53 54 35 5 37 20 0
50 52 53 54 41 42 9 23 0
50 52 53 54 45 47 25 11 0
50 52 53 1 15 17 2 12 0
50 52 53 35 5 37 20 32 0
50 52 53 41 42 9 23 38 0
50 52 51 54 1 15 17 8 0
50 52 51 54 35 5 37 31 0
50 52 51 54 26 28 22 3 0
50 52 51 54 45 47 39 11 0
50 52 51 1 15 17 8 12 0
50 52 51 35 5 37 31 32 0
50 52 51 26 28 22 3 24 0
50 52 54 1 15 17 8 2 0
50 52 54 35 5 37 31 20 0
50 52 54 45 47 39 25 11 0
50 52 1 15 17 8 2 12 0
50 52 35 5 37 31 20 32 0
50 56 53 51 54 1 15 7 0
50 56 53 51 54 49 36 19 0
50 56 53 51 54 41 30 9 0
50 56 53 51 54 26 21 3 0
50 56 53 51 54 45 33 11 0
50 56 53 51 1 15 7 12 0
50 56 53 51 49 36 19 46 0
50 56 53 51 41 30 9 38 0
50 56 53 51 26 21 3 24 0
50 56 53 54 1 15 7 2 0
50 56 53 54 49 36 19 29 0
50 56 53 54 41 30 9 23 0
50 56 53 54 45 33 25 11 0
50 56 53 1 15 7 2 12 0
50 56 53 49 36 19 29 46 0
50 56 53 41 30 9 23 38 0
50 56 51 54 1 15 7 8 0
50 56 51 54 49 36 19 43 0
50 56 51 54 26 21 22 3 0
50 56 51 54 45 33 39 11 0
50 56 51 1 15 7 8 12 0
50 56 51 49 36 19 43 46 0
50 56 51 26 21 22 3 24 0
50 56 54 1 15 7 8 2 0
50 56 54 49 36 19 43 29 0
50 56 54 45 33 39 25 11 0
50 56 1 15 7 8 2 12 0
50 56 49 36 19 43 29 46 0
50 53 51 54 1 15 7 17 0
50 53 51 54 41 30 42 9 0
50 53 51 54 26 21 28 3 0
50 53 51 54 45 33 47 11 0
50 53 51 1 15 7 17 12 0
50 53 51 41 30 42 9 38 0
50 53 51 26 21 28 3 24 0
50 53 54 1 15 7 17 2 0
50 53 54 41 30 42 9 23 0
50 53 54 45 33 47 25 11 0
50 53 1 15 7 17 2 12 0
50 53 41 30 42 9 23 38 0
50 51 54 1 15 7 17 8 0
50 51 54 26 21 28 22 3 0
50 51 54 45 33 47 39 11 0
50 51 1 15 7 17 8 12 0
50 51 26 21 28 22 3 24 0
50 54 1 15 7 17 8 2 0
50 54 45 33 47 39 25 11 0
50 1 15 7 17 8 2 12 0
55 52 56 53 51 54 14 16 0
55 52 56 53 51 54 6 5 0
55 52 56 53 51 54 18 19 0
55 52 56 53 51 54 10 9 0
55 52 56 53 51 54 4 3 0
55 52 56 53 51 54 13 11 0
55 52 56 53 51 14 16 44 0
55 52 56 53 51 6 5 32 0
55 52 56 53 51 18 19 46 0
55 52 56 53 51 10 9 38 0
55 52 56 53 51 4 3 24 0
55 52 56 53 54 14 16 27 0
55 52 56 53 54 6 5 20 0
55 52 56 53 54 18 19 29 0
55 52 56 53 54 10 9 23 0
55 52 56 53 54 13 25 11 0
55 52 56 53 14 16 27 44 0
55 52 56 53 6 5 20 32 0
55 52 56 53 18 19 29 46 0
55 52 56 53 10 9 23 38 0
55 52 56 51 54 14 16 40 0
55 52 56 51 54 6 5 31 0
55 52 56 51 54 18 19 43 0
55 52 56 51 54 4 22 3 0
55 52 56 51 54 13 39 11 0
55 52 56 51 14 16 40 44 0
55 52 56 51 6 5 31 32 0
55 52 56 51 18 19 43 46 0
55 52 56 51 4 22 3 24 0
55 52 56 54 14 16 40 27 0
55 52 56 54 6 5 31 20 0
55 52 56 54 18 19 43 29 0
55 52 56 54 13 39 25 11 0
55 52 56 14 16 40 27 44 0
55 52 56 6 5 31 20 32 0
55 52 56 18 19 43 29 46 0
55 52 53 51 54 14 16 48 0
55 52 53 51 54 6 5 37 0
55 52 53 51 54 10 42 9 0
55 52 53 51 54 4 28 3 0
55 52 53 51 54 13 47 11 0
55 52 53 51 14 16 48 44 0
55 52 53 51 6 5 37 32 0
55 52 53 51 10 42 9 38 0
55 52 53 51 4 28 3 24 0
55 52 53 54 14 16 48 27 0
55 52 53 54 6 5 37 20 0
55 52 53 54 10 42 9 23 0
55 52 53 54 13 47 25 11 0
55 52 53 14 16 48 27 44 0
55 52 53 6 5 37 20 32 0
55 52 53 10 42 9 23 38 0
55 52 51 54 14 16 48 40 0
55 52 51 54 6 5 37 31 0
55 52 51 54 4 28 22 3 0
55 52 51 54 13 47 39 11 0
55 52 51 14 16 48 40 44 0
55 52 51 6 5 37 31 32 0
55 52 51 4 28 22 3 24 0
55 52 54 14 16 48 40 27 0
55 52 54 6 5 37 31 20 0
55 52 54 13 47 39 25 11 0
55 52 14 16 48 40 27 44 0
55 52 6 5 37 31 20 32 0
55 56 53 51 54 14 16 34 0
55 56 53 51 54 18 36 19 0
55 56 53 51 54 10 30 9 0
55 56 53 51 54 4 21 3 0
55 56 53 51 54 13 33 11 0
55 56 53 51 14 16 34 44 0
55 56 53 51 18 36 19 46 0
55 56 53 51 10 30 9 38 0
55 56 53 51 4 21 3 24 0
55 56 53 54 14 16 34 27 0
55 56 53 54 18 36 19 29 0
55 56 53 54 10 30 9 23 0
55 56 53 54 13 33 25 11 0
55 56 53 14 16 34 27 44 0
55 56 53 18 36 19 29 46 0
55 56 53 10 30 9 23 38 0
55 56 51 54 14 16 34 40 0
55 56 51 54 18 36 19 43 0
55 56 51 54 4 21 22 3 0
55 56 51 54 13 33 39 11 0
55 56 51 14 16 34 40 44 0
55 56 51 18 36 19 43 46 0
55 56 51 4 21 22 3 24 0
55 56 54 14 16 34 40 27 0
55 56 54 18 36 19 43 29 0
55 56 54 13 33 39 25 11 0
55 56 14 16 34 40 27 44 0
55 56 18 36 19 43 29 46 0
55 53 51 54 14 16 34 48 0
55 53 51 54 10 30 42 9 0
55 53 51 54 4 21 28 3 0
55 53 51 54 13 33 47 11 0
55 53 51 14 16 34 48 44 0
55 53 51 10 30 42 9 38 0
55 53 51 4 21 28 3 24 0
55 53 54 14 16 34 48 27 0
55 53 54 10 30 42 9 23 0
55 53 54 13 33 47 25 11 0
55 53 14 16 34 48 27 44 0
55 53 10 30 42 9 23 38 0
55 51 54 14 16 34 48 40 0
55 51 54 4 21 28 22 3 0
55 51 54 13 33 47 39 11 0
55 51 14 16 34 48 40 44 0
55 51 4 21 28 22 3 24 0
55 54 14 16 34 48 40 27 0
55 54 13 33 47 39 25 11 0
55 14 16 34 48 40 27 44 0
52 56 53 51 54 6 35 5 0
52 56 53 51 54 18 49 19 0
52 56 53 51 54 10 41 9 0
52 56 53 51 54 4 26 3 0
52 56 53 51 54 13 45 11 0
52 56 53 51 6 35 5 32 0
52 56 53 51 18 49 19 46 0
52 56 53 51 10 41 9 38 0
52 56 53 51 4 26 3 24 0
52 56 53 54 6 35 5 20 0
52 56 53 54 18 49 19 29 0
52 56 53 54 10 41 9 23 0
52 56 53 54 13 45 25 11 0
52 56 53 6 35 5 20 32 0
52 56 53 18 49 19 29 46 0
52 56 53 10 41 9 23 38 0
52 56 51 54 6 35 5 31 0
52 56 51 54 18 49 19 43 0
52 56 51 54 4 26 22 3 0
52 56 51 54 13 45 39 11 0
52 56 51 6 35 5 31 32 0
52 56 51 18 49 19 43 46 0
52 56 51 4 26 22 3 24 0
52 56 54 6 35 5 31 20 0
52 56 54 18 49 19 43 29 0
52 56 54 13 45 39 25 11 0
52 56 6 35 5 31 20 32 0
52 56 18 49 19 43 29 46 0
52 53 51 54 6 35 5 37 0
52 53 51 54 10 41 42 9 0
52 53 51 54 4 26 28 3 0
52 53 51 54 13 45 47 11 0
52 53 51 6 35 5 37 32 0
52 53 51 10 41 42 9 38 0
52 53 51 4 26 28 3 24 0
52 53 54 6 35 5 37 20 0
52 53 54 10 41 42 9 23 0
52 53 54 13 45 47 25 11 0
52 53 6 35 5 37 20 32 0
52 53 10 41 42 9 23 38 0
52 51 54 6 35 5 37 31 0
52 51 54 4 26 28 22 3 0
52 51 54 13 45 47 39 11 0
52 51 6 35 5 37 31 32 0
52 51 4 26 28 22 3 24 0
52 54 6 35 5 37 31 20 0
52 54 13 45 47 39 25 11 0
52 6 35 5 37 31 20 32 0
56 53 51 54 18 49 36 19 0
56 53 51 54 10 41 30 9 0
56 53 51 54 4 26 21 3 0
56 53 51 54 13 45 33 11 0
56 53 51 18 49 36 19 46 0
56 53 51 10 41 30 9 38 0
56 53 51 4 26 21 3 24 0
56 53 54 18 49 36 19 29 0
56 53 54 10 41 30 9 23 0
56 53 54 13 45 33 25 11 0
56 53 18 49 36 19 29 46 0
56 53 10 41 30 9 23 38 0
56 51 54 18 49 36 19 43 0
56 51 54 4 26 21 22 3 0
56 51 54 13 45 33 39 11 0
56 51 18 49 36 19 43 46 0
56 51 4 26 21 22 3 24 0
56 54 18 49 36 19 43 29 0
56 54 13 45 33 39 25 11 0
56 18 49 36 19 43 29 46 0
53 51 54 10 41 30 42 9 0
53 51 54 4 26 21 28 3 0
53 51 54 13 45 33 47 11 0
53 51 10 41 30 42 9 38 0
53 51 4 26 21 28 3 24 0
53 54 10 41 30 42 9 23 0
53 54 13 45 33 47 25 11 0
53 10 41 30 42 9 23 38 0
51 54 4 26 21 28 22 3 0
51 54 13 45 33 47 39 11 0
51 4 26 21 28 22 3 24 0
54 13 45 33 47 39 25 11 0
