c E(7,7) E(4,4) E(4,7) E(7,4) E(6,7) E(6,6) E(7,6) E(1,1) E(7,1) E(1,7) E(5,5) E(5,7) E(7,5) E(7,3) E(3,3) E(3,7) E(2,7) E(7,2) E(2,2) E(0,0) E(7,0) E(0,7) E(4,6) E(6,4) E(4,1) E(1,4) E(4,5) E(5,4) E(3,4) E(4,3) E(2,4) E(4,2) E(0,4) E(4,0) E(1,6) E(6,1) E(6,5) E(5,6) E(3,6) E(6,3) E(6,2) E(2,6) E(0,6) E(6,0) E(5,1) E(1,5) E(3,1) E(1,3) E(2,1) E(1,2) E(1,0) E(0,1) E(3,5) E(5,3) E(5,2) E(2,5) E(5,0) E(0,5) E(2,3) E(3,2) E(0,3) E(3,0) E(0,2) E(2,0) D(7) D(4) D(6) D(1) D(5) D(3) D(2) D(0)
c 1 2 3 4 5 6 7 8 9 10 11 12 13 14 15 16 17 18 19 20 21 22 23 24 25 26 27 28 29 30 31 32 33 34 35 36 37 38 39 40 41 42 43 44 45 46 47 48 49 50 51 52 53 54 55 56 57 58 59 60 61 62 63 64 65 66 67 68 69 70 71 72
p cnf 72 2113
-20 0
-8 0
-19 0
-15 0
-2 0
-11 0
-6 0
-1 0
20 -20 0
52 -51 0
63 -64 0
61 -62 0
33 -34 0
58 -57 0
43 -44 0
22 -21 0
51 -52 0
8 -8 0
50 -49 0
48 -47 0
26 -25 0
46 -45 0
35 -36 0
10 -9 0
64 -63 0
49 -50 0
19 -19 0
59 -60 0
31 -32 0
56 -55 0
42 -41 0
17 -18 0
62 -61 0
47 -48 0
60 -59 0
15 -15 0
29 -30 0
53 -54 0
39 -40 0
16 -14 0
34 -33 0
25 -26 0
32 -31 0
30 -29 0
2 -2 0
27 -28 0
23 -24 0
3 -4 0
57 -58 0
45 -46 0
55 -56 0
54 -53 0
28 -27 0
11 -11 0
38 -37 0
12 -13 0
44 -43 0
36 -35 0
41 -42 0
40 -39 0
24 -23 0
37 -38 0
6 -6 0
5 -7 0
21 -22 0
9 -10 0
18 -17 0
14 -16 0
4 -3 0
13 -12 0
7 -5 0
1 -1 0
72 68 71 70 66 69 67 65 0
72 68 71 70 66 69 67 22 0
72 68 71 70 66 69 67 10 0
72 68 71 70 66 69 67 17 0
72 68 71 70 66 69 67 16 0
72 68 71 70 66 69 67 3 0
72 68 71 70 66 69 67 12 0
72 68 71 70 66 69 67 5 0
72 68 71 70 66 69 65 43 0
72 68 71 70 66 69 65 35 0
72 68 71 70 66 69 65 42 0
72 68 71 70 66 69 65 39 0
72 68 71 70 66 69 65 23 0
72 68 71 70 66 69 65 38 0
72 68 71 70 66 69 65 7 0
72 68 71 70 66 69 43 22 0
72 68 71 70 66 69 35 10 0
72 68 71 70 66 69 42 17 0
72 68 71 70 66 69 39 16 0
72 68 71 70 66 69 23 3 0
72 68 71 70 66 69 38 12 0
72 68 71 70 66 67 65 58 0
72 68 71 70 66 67 65 46 0
72 68 71 70 66 67 65 56 0
72 68 71 70 66 67 65 53 0
72 68 71 70 66 67 65 27 0
72 68 71 70 66 67 65 37 0
72 68 71 70 66 67 65 13 0
72 68 71 70 66 67 58 22 0
72 68 71 70 66 67 46 10 0
72 68 71 70 66 67 56 17 0
72 68 71 70 66 67 53 16 0
72 68 71 70 66 67 27 3 0
72 68 71 70 66 67 37 5 0
72 68 71 70 66 65 58 43 0
72 68 71 70 66 65 46 35 0
72 68 71 70 66 65 56 42 0
72 68 71 70 66 65 53 39 0
72 68 71 70 66 65 27 23 0
72 68 71 70 66 65 13 7 0
72 68 71 70 66 58 43 22 0
72 68 71 70 66 46 35 10 0
72 68 71 70 66 56 42 17 0
72 68 71 70 66 53 39 16 0
72 68 71 70 66 27 23 3 0
72 68 71 70 69 67 65 33 0
72 68 71 70 69 67 65 26 0
72 68 71 70 69 67 65 31 0
72 68 71 70 69 67 65 29 0
72 68 71 70 69 67 65 28 0
72 68 71 70 69 67 65 24 0
72 68 71 70 69 67 65 4 0
72 68 71 70 69 67 33 22 0
72 68 71 70 69 67 26 10 0
72 68 71 70 69 67 31 17 0
72 68 71 70 69 67 29 16 0
72 68 71 70 69 67 28 12 0
72 68 71 70 69 67 24 5 0
72 68 71 70 69 65 33 43 0
72 68 71 70 69 65 26 35 0
72 68 71 70 69 65 31 42 0
72 68 71 70 69 65 29 39 0
72 68 71 70 69 65 28 38 0
72 68 71 70 69 65 4 7 0
72 68 71 70 69 33 43 22 0
72 68 71 70 69 26 35 10 0
72 68 71 70 69 31 42 17 0
72 68 71 70 69 29 39 16 0
72 68 71 70 69 28 38 12 0
72 68 71 70 67 65 33 58 0
72 68 71 70 67 65 26 46 0
72 68 71 70 67 65 31 56 0
72 68 71 70 67 65 29 53 0
72 68 71 70 67 65 24 37 0
72 68 71 70 67 65 4 13 0
72 68 71 70 67 33 58 22 0
72 68 71 70 67 26 46 10 0
72 68 71 70 67 31 56 17 0
72 68 71 70 67 29 53 16 0
72 68 71 70 67 24 37 5 0
72 68 71 70 65 33 58 43 0
72 68 71 70 65 26 46 35 0
72 68 71 70 65 31 56 42 0
72 68 71 70 65 29 53 39 0
72 68 71 70 65 4 13 7 0
72 68 71 70 33 58 43 22 0
72 68 71 70 26 46 35 10 0
72 68 71 70 31 56 42 17 0
72 68 71 70 29 53 39 16 0
72 68 71 66 69 67 65 61 0
72 68 71 66 69 67 65 48 0
72 68 71 66 69 67 65 59 0
72 68 71 66 69 67 65 30 0
72 68 71 66 69 67 65 54 0
72 68 71 66 69 67 65 40 0
72 68 71 66 69 67 65 14 0
72 68 71 66 69 67 61 22 0
72 68 71 66 69 67 48 10 0
72 68 71 66 69 67 59 17 0
72 68 71 66 69 67 30 3 0
72 68 71 66 69 67 54 12 0
72 68 71 66 69 67 40 5 0
72 68 71 66 69 65 61 43 0
72 68 71 66 69 65 48 35 0
72 68 71 66 69 65 59 42 0
72 68 71 66 69 65 30 23 0
72 68 71 66 69 65 54 38 0
72 68 71 66 69 65 14 7 0
72 68 71 66 69 61 43 22 0
72 68 71 66 69 48 35 10 0
72 68 71 66 69 59 42 17 0
72 68 71 66 69 30 23 3 0
72 68 71 66 69 54 38 12 0
72 68 71 66 67 65 61 58 0
72 68 71 66 67 65 48 46 0
72 68 71 66 67 65 59 56 0
72 68 71 66 67 65 30 27 0
72 68 71 66 67 65 40 37 0
72 68 71 66 67 65 14 13 0
72 68 71 66 67 61 58 22 0
72 68 71 66 67 48 46 10 0
72 68 71 66 67 59 56 17 0
72 68 71 66 67 30 27 3 0
72 68 71 66 67 40 37 5 0
72 68 71 66 65 61 58 43 0
72 68 71 66 65 48 46 35 0
72 68 71 66 65 59 56 42 0
72 68 71 66 65 30 27 23 0
72 68 71 66 65 14 13 7 0
72 68 71 66 61 58 43 22 0
72 68 71 66 48 46 35 10 0
72 68 71 66 59 56 42 17 0
72 68 71 66 30 27 23 3 0
72 68 71 69 67 65 61 33 0
72 68 71 69 67 65 48 26 0
72 68 71 69 67 65 59 31 0
72 68 71 69 67 65 54 28 0
72 68 71 69 67 65 40 24 0
72 68 71 69 67 65 14 4 0
72 68 71 69 67 61 33 22 0
72 68 71 69 67 48 26 10 0
72 68 71 69 67 59 31 17 0
72 68 71 69 67 54 28 12 0
72 68 71 69 67 40 24 5 0
72 68 71 69 65 61 33 43 0
72 68 71 69 65 48 26 35 0
72 68 71 69 65 59 31 42 0
72 68 71 69 65 54 28 38 0
72 68 71 69 65 14 4 7 0
72 68 71 69 61 33 43 22 0
72 68 71 69 48 26 35 10 0
72 68 71 69 59 31 42 17 0
72 68 71 69 54 28 38 12 0
72 68 71 67 65 61 33 58 0
72 68 71 67 65 48 26 46 0
72 68 71 67 65 59 31 56 0
72 68 71 67 65 40 24 37 0
72 68 71 67 65 14 4 13 0
72 68 71 67 61 33 58 22 0
72 68 71 67 48 26 46 10 0
72 68 71 67 59 31 56 17 0
72 68 71 67 40 24 37 5 0
72 68 71 65 61 33 58 43 0
72 68 71 65 48 26 46 35 0
72 68 71 65 59 31 56 42 0
72 68 71 65 14 4 13 7 0
72 68 71 61 33 58 43 22 0
72 68 71 48 26 46 35 10 0
72 68 71 59 31 56 42 17 0
72 68 70 66 69 67 65 63 0
72 68 70 66 69 67 65 50 0
72 68 70 66 69 67 65 60 0
72 68 70 66 69 67 65 32 0
72 68 70 66 69 67 65 55 0
72 68 70 66 69 67 65 41 0
72 68 70 66 69 67 65 18 0
72 68 70 66 69 67 63 22 0
72 68 70 66 69 67 50 10 0
72 68 70 66 69 67 60 16 0
72 68 70 66 69 67 32 3 0
72 68 70 66 69 67 55 12 0
72 68 70 66 69 67 41 5 0
72 68 70 66 69 65 63 43 0
72 68 70 66 69 65 50 35 0
72 68 70 66 69 65 60 39 0
72 68 70 66 69 65 32 23 0
72 68 70 66 69 65 55 38 0
72 68 70 66 69 65 18 7 0
72 68 70 66 69 63 43 22 0
72 68 70 66 69 50 35 10 0
72 68 70 66 69 60 39 16 0
72 68 70 66 69 32 23 3 0
72 68 70 66 69 55 38 12 0
72 68 70 66 67 65 63 58 0
72 68 70 66 67 65 50 46 0
72 68 70 66 67 65 60 53 0
72 68 70 66 67 65 32 27 0
72 68 70 66 67 65 41 37 0
72 68 70 66 67 65 18 13 0
72 68 70 66 67 63 58 22 0
72 68 70 66 67 50 46 10 0
72 68 70 66 67 60 53 16 0
72 68 70 66 67 32 27 3 0
72 68 70 66 67 41 37 5 0
72 68 70 66 65 63 58 43 0
72 68 70 66 65 50 46 35 0
72 68 70 66 65 60 53 39 0
72 68 70 66 65 32 27 23 0
72 68 70 66 65 18 13 7 0
72 68 70 66 63 58 43 22 0
72 68 70 66 50 46 35 10 0
72 68 70 66 60 53 39 16 0
72 68 70 66 32 27 23 3 0
72 68 70 69 67 65 63 33 0
72 68 70 69 67 65 50 26 0
72 68 70 69 67 65 60 29 0
72 68 70 69 67 65 55 28 0
72 68 70 69 67 65 41 24 0
72 68 70 69 67 65 18 4 0
72 68 70 69 67 63 33 22 0
72 68 70 69 67 50 26 10 0
72 68 70 69 67 60 29 16 0
72 68 70 69 67 55 28 12 0
72 68 70 69 67 41 24 5 0
72 68 70 69 65 63 33 43 0
72 68 70 69 65 50 26 35 0
72 68 70 69 65 60 29 39 0
72 68 70 69 65 55 28 38 0
72 68 70 69 65 18 4 7 0
72 68 70 69 63 33 43 22 0
72 68 70 69 50 26 35 10 0
72 68 70 69 60 29 39 16 0
72 68 70 69 55 28 38 12 0
72 68 70 67 65 63 33 58 0
72 68 70 67 65 50 26 46 0
72 68 70 67 65 60 29 53 0
72 68 70 67 65 41 24 37 0
72 68 70 67 65 18 4 13 0
72 68 70 67 63 33 58 22 0
72 68 70 67 50 26 46 10 0
72 68 70 67 60 29 53 16 0
72 68 70 67 41 24 37 5 0
72 68 70 65 63 33 58 43 0
72 68 70 65 50 26 46 35 0
72 68 70 65 60 29 53 39 0
72 68 70 65 18 4 13 7 0
72 68 70 63 33 58 43 22 0
72 68 70 50 26 46 35 10 0
72 68 70 60 29 53 39 16 0
72 68 66 69 67 65 63 61 0
72 68 66 69 67 65 50 48 0
72 68 66 69 67 65 32 30 0
72 68 66 69 67 65 55 54 0
72 68 66 69 67 65 41 40 0
72 68 66 69 67 65 18 14 0
72 68 66 69 67 63 61 22 0
72 68 66 69 67 50 48 10 0
72 68 66 69 67 32 30 3 0
72 68 66 69 67 55 54 12 0
72 68 66 69 67 41 40 5 0
72 68 66 69 65 63 61 43 0
72 68 66 69 65 50 48 35 0
72 68 66 69 65 32 30 23 0
72 68 66 69 65 55 54 38 0
72 68 66 69 65 18 14 7 0
72 68 66 69 63 61 43 22 0
72 68 66 69 50 48 35 10 0
72 68 66 69 32 30 23 3 0
72 68 66 69 55 54 38 12 0
72 68 66 67 65 63 61 58 0
72 68 66 67 65 50 48 46 0
72 68 66 67 65 32 30 27 0
72 68 66 67 65 41 40 37 0
72 68 66 67 65 18 14 13 0
72 68 66 67 63 61 58 22 0
72 68 66 67 50 48 46 10 0
72 68 66 67 32 30 27 3 0
72 68 66 67 41 40 37 5 0
72 68 66 65 63 61 58 43 0
72 68 66 65 50 48 46 35 0
72 68 66 65 32 30 27 23 0
72 68 66 65 18 14 13 7 0
72 68 66 63 61 58 43 22 0
72 68 66 50 48 46 35 10 0
72 68 66 32 30 27 23 3 0
72 68 69 67 65 63 61 33 0
72 68 69 67 65 50 48 26 0
72 68 69 67 65 55 54 28 0
72 68 69 67 65 41 40 24 0
72 68 69 67 65 18 14 4 0
72 68 69 67 63 61 33 22 0
72 68 69 67 50 48 26 10 0
72 68 69 67 55 54 28 12 0
72 68 69 67 41 40 24 5 0
72 68 69 65 63 61 33 43 0
72 68 69 65 50 48 26 35 0
72 68 69 65 55 54 28 38 0
72 68 69 65 18 14 4 7 0
72 68 69 63 61 33 43 22 0
72 68 69 50 48 26 35 10 0
72 68 69 55 54 28 38 12 0
72 68 67 65 63 61 33 58 0
72 68 67 65 50 48 26 46 0
72 68 67 65 41 40 24 37 0
72 68 67 65 18 14 4 13 0
72 68 67 63 61 33 58 22 0
72 68 67 50 48 26 46 10 0
72 68 67 41 40 24 37 5 0
72 68 65 63 61 33 58 43 0
72 68 65 50 48 26 46 35 0
72 68 65 18 14 4 13 7 0
72 68 63 61 33 58 43 22 0
72 68 50 48 26 46 35 10 0
72 71 70 66 69 67 65 52 0
72 71 70 66 69 67 65 49 0
72 71 70 66 69 67 65 47 0
72 71 70 66 69 67 65 25 0
72 71 70 66 69 67 65 45 0
72 71 70 66 69 67 65 36 0
72 71 70 66 69 67 65 9 0
72 71 70 66 69 67 52 22 0
72 71 70 66 69 67 49 17 0
72 71 70 66 69 67 47 16 0
72 71 70 66 69 67 25 3 0
72 71 70 66 69 67 45 12 0
72 71 70 66 69 67 36 5 0
72 71 70 66 69 65 52 43 0
72 71 70 66 69 65 49 42 0
72 71 70 66 69 65 47 39 0
72 71 70 66 69 65 25 23 0
72 71 70 66 69 65 45 38 0
72 71 70 66 69 65 9 7 0
72 71 70 66 69 52 43 22 0
72 71 70 66 69 49 42 17 0
72 71 70 66 69 47 39 16 0
72 71 70 66 69 25 23 3 0
72 71 70 66 69 45 38 12 0
72 71 70 66 67 65 52 58 0
72 71 70 66 67 65 49 56 0
72 71 70 66 67 65 47 53 0
72 71 70 66 67 65 25 27 0
72 71 70 66 67 65 36 37 0
72 71 70 66 67 65 9 13 0
72 71 70 66 67 52 58 22 0
72 71 70 66 67 49 56 17 0
72 71 70 66 67 47 53 16 0
72 71 70 66 67 25 27 3 0
72 71 70 66 67 36 37 5 0
72 71 70 66 65 52 58 43 0
72 71 70 66 65 49 56 42 0
72 71 70 66 65 47 53 39 0
72 71 70 66 65 25 27 23 0
72 71 70 66 65 9 13 7 0
72 71 70 66 52 58 43 22 0
72 71 70 66 49 56 42 17 0
72 71 70 66 47 53 39 16 0
72 71 70 66 25 27 23 3 0
72 71 70 69 67 65 52 33 0
72 71 70 69 67 65 49 31 0
72 71 70 69 67 65 47 29 0
72 71 70 69 67 65 45 28 0
72 71 70 69 67 65 36 24 0
72 71 70 69 67 65 9 4 0
72 71 70 69 67 52 33 22 0
72 71 70 69 67 49 31 17 0
72 71 70 69 67 47 29 16 0
72 71 70 69 67 45 28 12 0
72 71 70 69 67 36 24 5 0
72 71 70 69 65 52 33 43 0
72 71 70 69 65 49 31 42 0
72 71 70 69 65 47 29 39 0
72 71 70 69 65 45 28 38 0
72 71 70 69 65 9 4 7 0
72 71 70 69 52 33 43 22 0
72 71 70 69 49 31 42 17 0
72 71 70 69 47 29 39 16 0
72 71 70 69 45 28 38 12 0
72 71 70 67 65 52 33 58 0
72 71 70 67 65 49 31 56 0
72 71 70 67 65 47 29 53 0
72 71 70 67 65 36 24 37 0
72 71 70 67 65 9 4 13 0
72 71 70 67 52 33 58 22 0
72 71 70 67 49 31 56 17 0
72 71 70 67 47 29 53 16 0
72 71 70 67 36 24 37 5 0
72 71 70 65 52 33 58 43 0
72 71 70 65 49 31 56 42 0
72 71 70 65 47 29 53 39 0
72 71 70 65 9 4 13 7 0
72 71 70 52 33 58 43 22 0
72 71 70 49 31 56 42 17 0
72 71 70 47 29 53 39 16 0
72 71 66 69 67 65 52 61 0
72 71 66 69 67 65 49 59 0
72 71 66 69 67 65 25 30 0
72 71 66 69 67 65 45 54 0
72 71 66 69 67 65 36 40 0
72 71 66 69 67 65 9 14 0
72 71 66 69 67 52 61 22 0
72 71 66 69 67 49 59 17 0
72 71 66 69 67 25 30 3 0
72 71 66 69 67 45 54 12 0
72 71 66 69 67 36 40 5 0
72 71 66 69 65 52 61 43 0
72 71 66 69 65 49 59 42 0
72 71 66 69 65 25 30 23 0
72 71 66 69 65 45 54 38 0
72 71 66 69 65 9 14 7 0
72 71 66 69 52 61 43 22 0
72 71 66 69 49 59 42 17 0
72 71 66 69 25 30 23 3 0
72 71 66 69 45 54 38 12 0
72 71 66 67 65 52 61 58 0
72 71 66 67 65 49 59 56 0
72 71 66 67 65 25 30 27 0
72 71 66 67 65 36 40 37 0
72 71 66 67 65 9 14 13 0
72 71 66 67 52 61 58 22 0
72 71 66 67 49 59 56 17 0
72 71 66 67 25 30 27 3 0
72 71 66 67 36 40 37 5 0
72 71 66 65 52 61 58 43 0
72 71 66 65 49 59 56 42 0
72 71 66 65 25 30 27 23 0
72 71 66 65 9 14 13 7 0
72 71 66 52 61 58 43 22 0
72 71 66 49 59 56 42 17 0
72 71 66 25 30 27 23 3 0
72 71 69 67 65 52 61 33 0
72 71 69 67 65 49 59 31 0
72 71 69 67 65 45 54 28 0
72 71 69 67 65 36 40 24 0
72 71 69 67 65 9 14 4 0
72 71 69 67 52 61 33 22 0
72 71 69 67 49 59 31 17 0
72 71 69 67 45 54 28 12 0
72 71 69 67 36 40 24 5 0
72 71 69 65 52 61 33 43 0
72 71 69 65 49 59 31 42 0
72 71 69 65 45 54 28 38 0
72 71 69 65 9 14 4 7 0
72 71 69 52 61 33 43 22 0
72 71 69 49 59 31 42 17 0
72 71 69 45 54 28 38 12 0
72 71 67 65 52 61 33 58 0
72 71 67 65 49 59 31 56 0
72 71 67 65 36 40 24 37 0
72 71 67 65 9 14 4 13 0
72 71 67 52 61 33 58 22 0
72 71 67 49 59 31 56 17 0
72 71 67 36 40 24 37 5 0
72 71 65 52 61 33 58 43 0
72 71 65 49 59 31 56 42 0
72 71 65 9 14 4 13 7 0
72 71 52 61 33 58 43 22 0
72 71 49 59 31 56 42 17 0
72 70 66 69 67 65 52 63 0
72 70 66 69 67 65 47 60 0
72 70 66 69 67 65 25 32 0
72 70 66 69 67 65 45 55 0
72 70 66 69 67 65 36 41 0
72 70 66 69 67 65 9 18 0
72 70 66 69 67 52 63 22 0
72 70 66 69 67 47 60 16 0
72 70 66 69 67 25 32 3 0
72 70 66 69 67 45 55 12 0
72 70 66 69 67 36 41 5 0
72 70 66 69 65 52 63 43 0
72 70 66 69 65 47 60 39 0
72 70 66 69 65 25 32 23 0
72 70 66 69 65 45 55 38 0
72 70 66 69 65 9 18 7 0
72 70 66 69 52 63 43 22 0
72 70 66 69 47 60 39 16 0
72 70 66 69 25 32 23 3 0
72 70 66 69 45 55 38 12 0
72 70 66 67 65 52 63 58 0
72 70 66 67 65 47 60 53 0
72 70 66 67 65 25 32 27 0
72 70 66 67 65 36 41 37 0
72 70 66 67 65 9 18 13 0
72 70 66 67 52 63 58 22 0
72 70 66 67 47 60 53 16 0
72 70 66 67 25 32 27 3 0
72 70 66 67 36 41 37 5 0
72 70 66 65 52 63 58 43 0
72 70 66 65 47 60 53 39 0
72 70 66 65 25 32 27 23 0
72 70 66 65 9 18 13 7 0
72 70 66 52 63 58 43 22 0
72 70 66 47 60 53 39 16 0
72 70 66 25 32 27 23 3 0
72 70 69 67 65 52 63 33 0
72 70 69 67 65 47 60 29 0
72 70 69 67 65 45 55 28 0
72 70 69 67 65 36 41 24 0
72 70 69 67 65 9 18 4 0
72 70 69 67 52 63 33 22 0
72 70 69 67 47 60 29 16 0
72 70 69 67 45 55 28 12 0
72 70 69 67 36 41 24 5 0
72 70 69 65 52 63 33 43 0
72 70 69 65 47 60 29 39 0
72 70 69 65 45 55 28 38 0
72 70 69 65 9 18 4 7 0
72 70 69 52 63 33 43 22 0
72 70 69 47 60 29 39 16 0
72 70 69 45 55 28 38 12 0
72 70 67 65 52 63 33 58 0
72 70 67 65 47 60 29 53 0
72 70 67 65 36 41 24 37 0
72 70 67 65 9 18 4 13 0
72 70 67 52 63 33 58 22 0
72 70 67 47 60 29 53 16 0
72 70 67 36 41 24 37 5 0
72 70 65 52 63 33 58 43 0
72 70 65 47 60 29 53 39 0
72 70 65 9 18 4 13 7 0
72 70 52 63 33 58 43 22 0
72 70 47 60 29 53 39 16 0
72 66 69 67 65 52 63 61 0
72 66 69 67 65 25 32 30 0
72 66 69 67 65 45 55 54 0
72 66 69 67 65 36 41 40 0
72 66 69 67 65 9 18 14 0
72 66 69 67 52 63 61 22 0
72 66 69 67 25 32 30 3 0
72 66 69 67 45 55 54 12 0
72 66 69 67 36 41 40 5 0
72 66 69 65 52 63 61 43 0
72 66 69 65 25 32 30 23 0
72 66 69 65 45 55 54 38 0
72 66 69 65 9 18 14 7 0
72 66 69 52 63 61 43 22 0
72 66 69 25 32 30 23 3 0
72 66 69 45 55 54 38 12 0
72 66 67 65 52 63 61 58 0
72 66 67 65 25 32 30 27 0
72 66 67 65 36 41 40 37 0
72 66 67 65 9 18 14 13 0
72 66 67 52 63 61 58 22 0
72 66 67 25 32 30 27 3 0
72 66 67 36 41 40 37 5 0
72 66 65 52 63 61 58 43 0
72 66 65 25 32 30 27 23 0
72 66 65 9 18 14 13 7 0
72 66 52 63 61 58 43 22 0
72 66 25 32 30 27 23 3 0
72 69 67 65 52 63 61 33 0
72 69 67 65 45 55 54 28 0
72 69 67 65 36 41 40 24 0
72 69 67 65 9 18 14 4 0
72 69 67 52 63 61 33 22 0
72 69 67 45 55 54 28 12 0
72 69 67 36 41 40 24 5 0
72 69 65 52 63 61 33 43 0
72 69 65 45 55 54 28 38 0
72 69 65 9 18 14 4 7 0
72 69 52 63 61 33 43 22 0
72 69 45 55 54 28 38 12 0
72 67 65 52 63 61 33 58 0
72 67 65 36 41 40 24 37 0
72 67 65 9 18 14 4 13 0
72 67 52 63 61 33 58 22 0
72 67 36 41 40 24 37 5 0
72 65 52 63 61 33 58 43 0
72 65 9 18 14 4 13 7 0
72 52 63 61 33 58 43 22 0
68 71 70 66 69 67 65 51 0
68 71 70 66 69 67 65 64 0
68 71 70 66 69 67 65 62 0
68 71 70 66 69 67 65 34 0
68 71 70 66 69 67 65 57 0
68 71 70 66 69 67 65 44 0
68 71 70 66 69 67 65 21 0
68 71 70 66 69 67 51 10 0
68 71 70 66 69 67 64 17 0
68 71 70 66 69 67 62 16 0
68 71 70 66 69 67 34 3 0
68 71 70 66 69 67 57 12 0
68 71 70 66 69 67 44 5 0
68 71 70 66 69 65 51 35 0
68 71 70 66 69 65 64 42 0
68 71 70 66 69 65 62 39 0
68 71 70 66 69 65 34 23 0
68 71 70 66 69 65 57 38 0
68 71 70 66 69 65 21 7 0
68 71 70 66 69 51 35 10 0
68 71 70 66 69 64 42 17 0
68 71 70 66 69 62 39 16 0
68 71 70 66 69 34 23 3 0
68 71 70 66 69 57 38 12 0
68 71 70 66 67 65 51 46 0
68 71 70 66 67 65 64 56 0
68 71 70 66 67 65 62 53 0
68 71 70 66 67 65 34 27 0
68 71 70 66 67 65 44 37 0
68 71 70 66 67 65 21 13 0
68 71 70 66 67 51 46 10 0
68 71 70 66 67 64 56 17 0
68 71 70 66 67 62 53 16 0
68 71 70 66 67 34 27 3 0
68 71 70 66 67 44 37 5 0
68 71 70 66 65 51 46 35 0
68 71 70 66 65 64 56 42 0
68 71 70 66 65 62 53 39 0
68 71 70 66 65 34 27 23 0
68 71 70 66 65 21 13 7 0
68 71 70 66 51 46 35 10 0
68 71 70 66 64 56 42 17 0
68 71 70 66 62 53 39 16 0
68 71 70 66 34 27 23 3 0
68 71 70 69 67 65 51 26 0
68 71 70 69 67 65 64 31 0
68 71 70 69 67 65 62 29 0
68 71 70 69 67 65 57 28 0
68 71 70 69 67 65 44 24 0
68 71 70 69 67 65 21 4 0
68 71 70 69 67 51 26 10 0
68 71 70 69 67 64 31 17 0
68 71 70 69 67 62 29 16 0
68 71 70 69 67 57 28 12 0
68 71 70 69 67 44 24 5 0
68 71 70 69 65 51 26 35 0
68 71 70 69 65 64 31 42 0
68 71 70 69 65 62 29 39 0
68 71 70 69 65 57 28 38 0
68 71 70 69 65 21 4 7 0
68 71 70 69 51 26 35 10 0
68 71 70 69 64 31 42 17 0
68 71 70 69 62 29 39 16 0
68 71 70 69 57 28 38 12 0
68 71 70 67 65 51 26 46 0
68 71 70 67 65 64 31 56 0
68 71 70 67 65 62 29 53 0
68 71 70 67 65 44 24 37 0
68 71 70 67 65 21 4 13 0
68 71 70 67 51 26 46 10 0
68 71 70 67 64 31 56 17 0
68 71 70 67 62 29 53 16 0
68 71 70 67 44 24 37 5 0
68 71 70 65 51 26 46 35 0
68 71 70 65 64 31 56 42 0
68 71 70 65 62 29 53 39 0
68 71 70 65 21 4 13 7 0
68 71 70 51 26 46 35 10 0
68 71 70 64 31 56 42 17 0
68 71 70 62 29 53 39 16 0
68 71 66 69 67 65 51 48 0
68 71 66 69 67 65 64 59 0
68 71 66 69 67 65 34 30 0
68 71 66 69 67 65 57 54 0
68 71 66 69 67 65 44 40 0
68 71 66 69 67 65 21 14 0
68 71 66 69 67 51 48 10 0
68 71 66 69 67 64 59 17 0
68 71 66 69 67 34 30 3 0
68 71 66 69 67 57 54 12 0
68 71 66 69 67 44 40 5 0
68 71 66 69 65 51 48 35 0
68 71 66 69 65 64 59 42 0
68 71 66 69 65 34 30 23 0
68 71 66 69 65 57 54 38 0
68 71 66 69 65 21 14 7 0
68 71 66 69 51 48 35 10 0
68 71 66 69 64 59 42 17 0
68 71 66 69 34 30 23 3 0
68 71 66 69 57 54 38 12 0
68 71 66 67 65 51 48 46 0
68 71 66 67 65 64 59 56 0
68 71 66 67 65 34 30 27 0
68 71 66 67 65 44 40 37 0
68 71 66 67 65 21 14 13 0
68 71 66 67 51 48 46 10 0
68 71 66 67 64 59 56 17 0
68 71 66 67 34 30 27 3 0
68 71 66 67 44 40 37 5 0
68 71 66 65 51 48 46 35 0
68 71 66 65 64 59 56 42 0
68 71 66 65 34 30 27 23 0
68 71 66 65 21 14 13 7 0
68 71 66 51 48 46 35 10 0
68 71 66 64 59 56 42 17 0
68 71 66 34 30 27 23 3 0
68 71 69 67 65 51 48 26 0
68 71 69 67 65 64 59 31 0
68 71 69 67 65 57 54 28 0
68 71 69 67 65 44 40 24 0
68 71 69 67 65 21 14 4 0
68 71 69 67 51 48 26 10 0
68 71 69 67 64 59 31 17 0
68 71 69 67 57 54 28 12 0
68 71 69 67 44 40 24 5 0
68 71 69 65 51 48 26 35 0
68 71 69 65 64 59 31 42 0
68 71 69 65 57 54 28 38 0
68 71 69 65 21 14 4 7 0
68 71 69 51 48 26 35 10 0
68 71 69 64 59 31 42 17 0
68 71 69 57 54 28 38 12 0
68 71 67 65 51 48 26 46 0
68 71 67 65 64 59 31 56 0
68 71 67 65 44 40 24 37 0
68 71 67 65 21 14 4 13 0
68 71 67 51 48 26 46 10 0
68 71 67 64 59 31 56 17 0
68 71 67 44 40 24 37 5 0
68 71 65 51 48 26 46 35 0
68 71 65 64 59 31 56 42 0
68 71 65 21 14 4 13 7 0
68 71 51 48 26 46 35 10 0
68 71 64 59 31 56 42 17 0
68 70 66 69 67 65 51 50 0
68 70 66 69 67 65 62 60 0
68 70 66 69 67 65 34 32 0
68 70 66 69 67 65 57 55 0
68 70 66 69 67 65 44 41 0
68 70 66 69 67 65 21 18 0
68 70 66 69 67 51 50 10 0
68 70 66 69 67 62 60 16 0
68 70 66 69 67 34 32 3 0
68 70 66 69 67 57 55 12 0
68 70 66 69 67 44 41 5 0
68 70 66 69 65 51 50 35 0
68 70 66 69 65 62 60 39 0
68 70 66 69 65 34 32 23 0
68 70 66 69 65 57 55 38 0
68 70 66 69 65 21 18 7 0
68 70 66 69 51 50 35 10 0
68 70 66 69 62 60 39 16 0
68 70 66 69 34 32 23 3 0
68 70 66 69 57 55 38 12 0
68 70 66 67 65 51 50 46 0
68 70 66 67 65 62 60 53 0
68 70 66 67 65 34 32 27 0
68 70 66 67 65 44 41 37 0
68 70 66 67 65 21 18 13 0
68 70 66 67 51 50 46 10 0
68 70 66 67 62 60 53 16 0
68 70 66 67 34 32 27 3 0
68 70 66 67 44 41 37 5 0
68 70 66 65 51 50 46 35 0
68 70 66 65 62 60 53 39 0
68 70 66 65 34 32 27 23 0
68 70 66 65 21 18 13 7 0
68 70 66 51 50 46 35 10 0
68 70 66 62 60 53 39 16 0
68 70 66 34 32 27 23 3 0
68 70 69 67 65 51 50 26 0
68 70 69 67 65 62 60 29 0
68 70 69 67 65 57 55 28 0
68 70 69 67 65 44 41 24 0
68 70 69 67 65 21 18 4 0
68 70 69 67 51 50 26 10 0
68 70 69 67 62 60 29 16 0
68 70 69 67 57 55 28 12 0
68 70 69 67 44 41 24 5 0
68 70 69 65 51 50 26 35 0
68 70 69 65 62 60 29 39 0
68 70 69 65 57 55 28 38 0
68 70 69 65 21 18 4 7 0
68 70 69 51 50 26 35 10 0
68 70 69 62 60 29 39 16 0
68 70 69 57 55 28 38 12 0
68 70 67 65 51 50 26 46 0
68 70 67 65 62 60 29 53 0
68 70 67 65 44 41 24 37 0
68 70 67 65 21 18 4 13 0
68 70 67 51 50 26 46 10 0
68 70 67 62 60 29 53 16 0
68 70 67 44 41 24 37 5 0
68 70 65 51 50 26 46 35 0
68 70 65 62 60 29 53 39 0
68 70 65 21 18 4 13 7 0
68 70 51 50 26 46 35 10 0
68 70 62 60 29 53 39 16 0
68 66 69 67 65 51 50 48 0
68 66 69 67 65 34 32 30 0
68 66 69 67 65 57 55 54 0
68 66 69 67 65 44 41 40 0
68 66 69 67 65 21 18 14 0
68 66 69 67 51 50 48 10 0
68 66 69 67 34 32 30 3 0
68 66 69 67 57 55 54 12 0
68 66 69 67 44 41 40 5 0
68 66 69 65 51 50 48 35 0
68 66 69 65 34 32 30 23 0
68 66 69 65 57 55 54 38 0
68 66 69 65 21 18 14 7 0
68 66 69 51 50 48 35 10 0
68 66 69 34 32 30 23 3 0
68 66 69 57 55 54 38 12 0
68 66 67 65 51 50 48 46 0
68 66 67 65 34 32 30 27 0
68 66 67 65 44 41 40 37 0
68 66 67 65 21 18 14 13 0
68 66 67 51 50 48 46 10 0
68 66 67 34 32 30 27 3 0
68 66 67 44 41 40 37 5 0
68 66 65 51 50 48 46 35 0
68 66 65 34 32 30 27 23 0
68 66 65 21 18 14 13 7 0
68 66 51 50 48 46 35 10 0
68 66 34 32 30 27 23 3 0
68 69 67 65 51 50 48 26 0
68 69 67 65 57 55 54 28 0
68 69 67 65 44 41 40 24 0
68 69 67 65 21 18 14 4 0
68 69 67 51 50 48 26 10 0
68 69 67 57 55 54 28 12 0
68 69 67 44 41 40 24 5 0
68 69 65 51 50 48 26 35 0
68 69 65 57 55 54 28 38 0
68 69 65 21 18 14 4 7 0
68 69 51 50 48 26 35 10 0
68 69 57 55 54 28 38 12 0
68 67 65 51 50 48 26 46 0
68 67 65 44 41 40 24 37 0
68 67 65 21 18 14 4 13 0
68 67 51 50 48 26 46 10 0
68 67 44 41 40 24 37 5 0
68 65 51 50 48 26 46 35 0
68 65 21 18 14 4 13 7 0
68 51 50 48 26 46 35 10 0
71 70 66 69 67 65 64 49 0
71 70 66 69 67 65 62 47 0
71 70 66 69 67 65 34 25 0
71 70 66 69 67 65 57 45 0
71 70 66 69 67 65 44 36 0
71 70 66 69 67 65 21 9 0
71 70 66 69 67 64 49 17 0
71 70 66 69 67 62 47 16 0
71 70 66 69 67 34 25 3 0
71 70 66 69 67 57 45 12 0
71 70 66 69 67 44 36 5 0
71 70 66 69 65 64 49 42 0
71 70 66 69 65 62 47 39 0
71 70 66 69 65 34 25 23 0
71 70 66 69 65 57 45 38 0
71 70 66 69 65 21 9 7 0
71 70 66 69 64 49 42 17 0
71 70 66 69 62 47 39 16 0
71 70 66 69 34 25 23 3 0
71 70 66 69 57 45 38 12 0
71 70 66 67 65 64 49 56 0
71 70 66 67 65 62 47 53 0
71 70 66 67 65 34 25 27 0
71 70 66 67 65 44 36 37 0
71 70 66 67 65 21 9 13 0
71 70 66 67 64 49 56 17 0
71 70 66 67 62 47 53 16 0
71 70 66 67 34 25 27 3 0
71 70 66 67 44 36 37 5 0
71 70 66 65 64 49 56 42 0
71 70 66 65 62 47 53 39 0
71 70 66 65 34 25 27 23 0
71 70 66 65 21 9 13 7 0
71 70 66 64 49 56 42 17 0
71 70 66 62 47 53 39 16 0
71 70 66 34 25 27 23 3 0
71 70 69 67 65 64 49 31 0
71 70 69 67 65 62 47 29 0
71 70 69 67 65 57 45 28 0
71 70 69 67 65 44 36 24 0
71 70 69 67 65 21 9 4 0
71 70 69 67 64 49 31 17 0
71 70 69 67 62 47 29 16 0
71 70 69 67 57 45 28 12 0
71 70 69 67 44 36 24 5 0
71 70 69 65 64 49 31 42 0
71 70 69 65 62 47 29 39 0
71 70 69 65 57 45 28 38 0
71 70 69 65 21 9 4 7 0
71 70 69 64 49 31 42 17 0
71 70 69 62 47 29 39 16 0
71 70 69 57 45 28 38 12 0
71 70 67 65 64 49 31 56 0
71 70 67 65 62 47 29 53 0
71 70 67 65 44 36 24 37 0
71 70 67 65 21 9 4 13 0
71 70 67 64 49 31 56 17 0
71 70 67 62 47 29 53 16 0
71 70 67 44 36 24 37 5 0
71 70 65 64 49 31 56 42 0
71 70 65 62 47 29 53 39 0
71 70 65 21 9 4 13 7 0
71 70 64 49 31 56 42 17 0
71 70 62 47 29 53 39 16 0
71 66 69 67 65 64 49 59 0
71 66 69 67 65 34 25 30 0
71 66 69 67 65 57 45 54 0
71 66 69 67 65 44 36 40 0
71 66 69 67 65 21 9 14 0
71 66 69 67 64 49 59 17 0
71 66 69 67 34 25 30 3 0
71 66 69 67 57 45 54 12 0
71 66 69 67 44 36 40 5 0
71 66 69 65 64 49 59 42 0
71 66 69 65 34 25 30 23 0
71 66 69 65 57 45 54 38 0
71 66 69 65 21 9 14 7 0
71 66 69 64 49 59 42 17 0
71 66 69 34 25 30 23 3 0
71 66 69 57 45 54 38 12 0
71 66 67 65 64 49 59 56 0
71 66 67 65 34 25 30 27 0
71 66 67 65 44 36 40 37 0
71 66 67 65 21 9 14 13 0
71 66 67 64 49 59 56 17 0
71 66 67 34 25 30 27 3 0
71 66 67 44 36 40 37 5 0
71 66 65 64 49 59 56 42 0
71 66 65 34 25 30 27 23 0
71 66 65 21 9 14 13 7 0
71 66 64 49 59 56 42 17 0
71 66 34 25 30 27 23 3 0
71 69 67 65 64 49 59 31 0
71 69 67 65 57 45 54 28 0
71 69 67 65 44 36 40 24 0
71 69 67 65 21 9 14 4 0
71 69 67 64 49 59 31 17 0
71 69 67 57 45 54 28 12 0
71 69 67 44 36 40 24 5 0
71 69 65 64 49 59 31 42 0
71 69 65 57 45 54 28 38 0
71 69 65 21 9 14 4 7 0
71 69 64 49 59 31 42 17 0
71 69 57 45 54 28 38 12 0
71 67 65 64 49 59 31 56 0
71 67 65 44 36 40 24 37 0
71 67 65 21 9 14 4 13 0
71 67 64 49 59 31 56 17 0
71 67 44 36 40 24 37 5 0
71 65 64 49 59 31 56 42 0
71 65 21 9 14 4 13 7 0
71 64 49 59 31 56 42 17 0
70 66 69 67 65 62 47 60 0
70 66 69 67 65 34 25 32 0
70 66 69 67 65 57 45 55 0
70 66 69 67 65 44 36 41 0
70 66 69 67 65 21 9 18 0
70 66 69 67 62 47 60 16 0
70 66 69 67 34 25 32 3 0
70 66 69 67 57 45 55 12 0
70 66 69 67 44 36 41 5 0
70 66 69 65 62 47 60 39 0
70 66 69 65 34 25 32 23 0
70 66 69 65 57 45 55 38 0
70 66 69 65 21 9 18 7 0
70 66 69 62 47 60 39 16 0
70 66 69 34 25 32 23 3 0
70 66 69 57 45 55 38 12 0
70 66 67 65 62 47 60 53 0
70 66 67 65 34 25 32 27 0
70 66 67 65 44 36 41 37 0
70 66 67 65 21 9 18 13 0
70 66 67 62 47 60 53 16 0
70 66 67 34 25 32 27 3 0
70 66 67 44 36 41 37 5 0
70 66 65 62 47 60 53 39 0
70 66 65 34 25 32 27 23 0
70 66 65 21 9 18 13 7 0
70 66 62 47 60 53 39 16 0
70 66 34 25 32 27 23 3 0
70 69 67 65 62 47 60 29 0
70 69 67 65 57 45 55 28 0
70 69 67 65 44 36 41 24 0
70 69 67 65 21 9 18 4 0
70 69 67 62 47 60 29 16 0
70 69 67 57 45 55 28 12 0
70 69 67 44 36 41 24 5 0
70 69 65 62 47 60 29 39 0
70 69 65 57 45 55 28 38 0
70 69 65 21 9 18 4 7 0
70 69 62 47 60 29 39 16 0
70 69 57 45 55 28 38 12 0
70 67 65 62 47 60 29 53 0
70 67 65 44 36 41 24 37 0
70 67 65 21 9 18 4 13 0
70 67 62 47 60 29 53 16 0
70 67 44 36 41 24 37 5 0
70 65 62 47 60 29 53 39 0
70 65 21 9 18 4 13 7 0
70 62 47 60 29 53 39 16 0
66 69 67 65 34 25 32 30 0
66 69 67 65 57 45 55 54 0
66 69 67 65 44 36 41 40 0
66 69 67 65 21 9 18 14 0
66 69 67 34 25 32 30 3 0
66 69 67 57 45 55 54 12 0
66 69 67 44 36 41 40 5 0
66 69 65 34 25 32 30 23 0
66 69 65 57 45 55 54 38 0
66 69 65 21 9 18 14 7 0
66 69 34 25 32 30 23 3 0
66 69 57 45 55 54 38 12 0
66 67 65 34 25 32 30 27 0
66 67 65 44 36 41 40 37 0
66 67 65 21 9 18 14 13 0
66 67 34 25 32 30 27 3 0
66 67 44 36 41 40 37 5 0
66 65 34 25 32 30 27 23 0
66 65 21 9 18 14 13 7 0
66 34 25 32 30 27 23 3 0
69 67 65 57 45 55 54 28 0
69 67 65 44 36 41 40 24 0
69 67 65 21 9 18 14 4 0
69 67 57 45 55 54 28 12 0
69 67 44 36 41 40 24 5 0
69 65 57 45 55 54 28 38 0
69 65 21 9 18 14 4 7 0
69 57 45 55 54 28 38 12 0
67 65 44 36 41 40 24 37 0
67 65 21 9 18 14 4 13 0
67 44 36 41 40 24 37 5 0
65 21 9 18 14 4 13 7 0
72 68 71 70 66 69 67 65 20 0
72 68 71 70 66 69 67 65 8 0
72 68 71 70 66 69 67 65 19 0
72 68 71 70 66 69 67 65 15 0
72 68 71 70 66 69 67 65 2 0
72 68 71 70 66 69 67 65 11 0
72 68 71 70 66 69 67 65 6 0
72 68 71 70 66 69 67 65 1 0
72 68 71 70 66 69 67 20 22 0
72 68 71 70 66 69 67 8 10 0
72 68 71 70 66 69 67 19 17 0
72 68 71 70 66 69 67 15 16 0
72 68 71 70 66 69 67 2 3 0
72 68 71 70 66 69 67 11 12 0
72 68 71 70 66 69 67 6 5 0
72 68 71 70 66 69 65 20 43 0
72 68 71 70 66 69 65 8 35 0
72 68 71 70 66 69 65 19 42 0
72 68 71 70 66 69 65 15 39 0
72 68 71 70 66 69 65 2 23 0
72 68 71 70 66 69 65 11 38 0
72 68 71 70 66 69 65 7 1 0
72 68 71 70 66 69 20 43 22 0
72 68 71 70 66 69 8 35 10 0
72 68 71 70 66 69 19 42 17 0
72 68 71 70 66 69 15 39 16 0
72 68 71 70 66 69 2 23 3 0
72 68 71 70 66 69 11 38 12 0
72 68 71 70 66 67 65 20 58 0
72 68 71 70 66 67 65 8 46 0
72 68 71 70 66 67 65 19 56 0
72 68 71 70 66 67 65 15 53 0
72 68 71 70 66 67 65 2 27 0
72 68 71 70 66 67 65 37 6 0
72 68 71 70 66 67 65 13 1 0
72 68 71 70 66 67 20 58 22 0
72 68 71 70 66 67 8 46 10 0
72 68 71 70 66 67 19 56 17 0
72 68 71 70 66 67 15 53 16 0
72 68 71 70 66 67 2 27 3 0
72 68 71 70 66 67 37 6 5 0
72 68 71 70 66 65 20 58 43 0
72 68 71 70 66 65 8 46 35 0
72 68 71 70 66 65 19 56 42 0
72 68 71 70 66 65 15 53 39 0
72 68 71 70 66 65 2 27 23 0
72 68 71 70 66 65 13 7 1 0
72 68 71 70 66 20 58 43 22 0
72 68 71 70 66 8 46 35 10 0
72 68 71 70 66 19 56 42 17 0
72 68 71 70 66 15 53 39 16 0
72 68 71 70 66 2 27 23 3 0
72 68 71 70 69 67 65 20 33 0
72 68 71 70 69 67 65 8 26 0
72 68 71 70 69 67 65 19 31 0
72 68 71 70 69 67 65 15 29 0
72 68 71 70 69 67 65 28 11 0
72 68 71 70 69 67 65 24 6 0
72 68 71 70 69 67 65 4 1 0
72 68 71 70 69 67 20 33 22 0
72 68 71 70 69 67 8 26 10 0
72 68 71 70 69 67 19 31 17 0
72 68 71 70 69 67 15 29 16 0
72 68 71 70 69 67 28 11 12 0
72 68 71 70 69 67 24 6 5 0
72 68 71 70 69 65 20 33 43 0
72 68 71 70 69 65 8 26 35 0
72 68 71 70 69 65 19 31 42 0
72 68 71 70 69 65 15 29 39 0
72 68 71 70 69 65 28 11 38 0
72 68 71 70 69 65 4 7 1 0
72 68 71 70 69 20 33 43 22 0
72 68 71 70 69 8 26 35 10 0
72 68 71 70 69 19 31 42 17 0
72 68 71 70 69 15 29 39 16 0
72 68 71 70 69 28 11 38 12 0
72 68 71 70 67 65 20 33 58 0
72 68 71 70 67 65 8 26 46 0
72 68 71 70 67 65 19 31 56 0
72 68 71 70 67 65 15 29 53 0
72 68 71 70 67 65 24 37 6 0
72 68 71 70 67 65 4 13 1 0
72 68 71 70 67 20 33 58 22 0
72 68 71 70 67 8 26 46 10 0
72 68 71 70 67 19 31 56 17 0
72 68 71 70 67 15 29 53 16 0
72 68 71 70 67 24 37 6 5 0
72 68 71 70 65 20 33 58 43 0
72 68 71 70 65 8 26 46 35 0
72 68 71 70 65 19 31 56 42 0
72 68 71 70 65 15 29 53 39 0
72 68 71 70 65 4 13 7 1 0
72 68 71 70 20 33 58 43 22 0
72 68 71 70 8 26 46 35 10 0
72 68 71 70 19 31 56 42 17 0
72 68 71 70 15 29 53 39 16 0
72 68 71 66 69 67 65 20 61 0
72 68 71 66 69 67 65 8 48 0
72 68 71 66 69 67 65 19 59 0
72 68 71 66 69 67 65 30 2 0
72 68 71 66 69 67 65 54 11 0
72 68 71 66 69 67 65 40 6 0
72 68 71 66 69 67 65 14 1 0
72 68 71 66 69 67 20 61 22 0
72 68 71 66 69 67 8 48 10 0
72 68 71 66 69 67 19 59 17 0
72 68 71 66 69 67 30 2 3 0
72 68 71 66 69 67 54 11 12 0
72 68 71 66 69 67 40 6 5 0
72 68 71 66 69 65 20 61 43 0
72 68 71 66 69 65 8 48 35 0
72 68 71 66 69 65 19 59 42 0
72 68 71 66 69 65 30 2 23 0
72 68 71 66 69 65 54 11 38 0
72 68 71 66 69 65 14 7 1 0
72 68 71 66 69 20 61 43 22 0
72 68 71 66 69 8 48 35 10 0
72 68 71 66 69 19 59 42 17 0
72 68 71 66 69 30 2 23 3 0
72 68 71 66 69 54 11 38 12 0
72 68 71 66 67 65 20 61 58 0
72 68 71 66 67 65 8 48 46 0
72 68 71 66 67 65 19 59 56 0
72 68 71 66 67 65 30 2 27 0
72 68 71 66 67 65 40 37 6 0
72 68 71 66 67 65 14 13 1 0
72 68 71 66 67 20 61 58 22 0
72 68 71 66 67 8 48 46 10 0
72 68 71 66 67 19 59 56 17 0
72 68 71 66 67 30 2 27 3 0
72 68 71 66 67 40 37 6 5 0
72 68 71 66 65 20 61 58 43 0
72 68 71 66 65 8 48 46 35 0
72 68 71 66 65 19 59 56 42 0
72 68 71 66 65 30 2 27 23 0
72 68 71 66 65 14 13 7 1 0
72 68 71 66 20 61 58 43 22 0
72 68 71 66 8 48 46 35 10 0
72 68 71 66 19 59 56 42 17 0
72 68 71 66 30 2 27 23 3 0
72 68 71 69 67 65 20 61 33 0
72 68 71 69 67 65 8 48 26 0
72 68 71 69 67 65 19 59 31 0
72 68 71 69 67 65 54 28 11 0
72 68 71 69 67 65 40 24 6 0
72 68 71 69 67 65 14 4 1 0
72 68 71 69 67 20 61 33 22 0
72 68 71 69 67 8 48 26 10 0
72 68 71 69 67 19 59 31 17 0
72 68 71 69 67 54 28 11 12 0
72 68 71 69 67 40 24 6 5 0
72 68 71 69 65 20 61 33 43 0
72 68 71 69 65 8 48 26 35 0
72 68 71 69 65 19 59 31 42 0
72 68 71 69 65 54 28 11 38 0
72 68 71 69 65 14 4 7 1 0
72 68 71 69 20 61 33 43 22 0
72 68 71 69 8 48 26 35 10 0
72 68 71 69 19 59 31 42 17 0
72 68 71 69 54 28 11 38 12 0
72 68 71 67 65 20 61 33 58 0
72 68 71 67 65 8 48 26 46 0
72 68 71 67 65 19 59 31 56 0
72 68 71 67 65 40 24 37 6 0
72 68 71 67 65 14 4 13 1 0
72 68 71 67 20 61 33 58 22 0
72 68 71 67 8 48 26 46 10 0
72 68 71 67 19 59 31 56 17 0
72 68 71 67 40 24 37 6 5 0
72 68 71 65 20 61 33 58 43 0
72 68 71 65 8 48 26 46 35 0
72 68 71 65 19 59 31 56 42 0
72 68 71 65 14 4 13 7 1 0
72 68 71 20 61 33 58 43 22 0
72 68 71 8 48 26 46 35 10 0
72 68 71 19 59 31 56 42 17 0
72 68 70 66 69 67 65 20 63 0
72 68 70 66 69 67 65 8 50 0
72 68 70 66 69 67 65 60 15 0
72 68 70 66 69 67 65 32 2 0
72 68 70 66 69 67 65 55 11 0
72 68 70 66 69 67 65 41 6 0
72 68 70 66 69 67 65 18 1 0
72 68 70 66 69 67 20 63 22 0
72 68 70 66 69 67 8 50 10 0
72 68 70 66 69 67 60 15 16 0
72 68 70 66 69 67 32 2 3 0
72 68 70 66 69 67 55 11 12 0
72 68 70 66 69 67 41 6 5 0
72 68 70 66 69 65 20 63 43 0
72 68 70 66 69 65 8 50 35 0
72 68 70 66 69 65 60 15 39 0
72 68 70 66 69 65 32 2 23 0
72 68 70 66 69 65 55 11 38 0
72 68 70 66 69 65 18 7 1 0
72 68 70 66 69 20 63 43 22 0
72 68 70 66 69 8 50 35 10 0
72 68 70 66 69 60 15 39 16 0
72 68 70 66 69 32 2 23 3 0
72 68 70 66 69 55 11 38 12 0
72 68 70 66 67 65 20 63 58 0
72 68 70 66 67 65 8 50 46 0
72 68 70 66 67 65 60 15 53 0
72 68 70 66 67 65 32 2 27 0
72 68 70 66 67 65 41 37 6 0
72 68 70 66 67 65 18 13 1 0
72 68 70 66 67 20 63 58 22 0
72 68 70 66 67 8 50 46 10 0
72 68 70 66 67 60 15 53 16 0
72 68 70 66 67 32 2 27 3 0
72 68 70 66 67 41 37 6 5 0
72 68 70 66 65 20 63 58 43 0
72 68 70 66 65 8 50 46 35 0
72 68 70 66 65 60 15 53 39 0
72 68 70 66 65 32 2 27 23 0
72 68 70 66 65 18 13 7 1 0
72 68 70 66 20 63 58 43 22 0
72 68 70 66 8 50 46 35 10 0
72 68 70 66 60 15 53 39 16 0
72 68 70 66 32 2 27 23 3 0
72 68 70 69 67 65 20 63 33 0
72 68 70 69 67 65 8 50 26 0
72 68 70 69 67 65 60 15 29 0
72 68 70 69 67 65 55 28 11 0
72 68 70 69 67 65 41 24 6 0
72 68 70 69 67 65 18 4 1 0
72 68 70 69 67 20 63 33 22 0
72 68 70 69 67 8 50 26 10 0
72 68 70 69 67 60 15 29 16 0
72 68 70 69 67 55 28 11 12 0
72 68 70 69 67 41 24 6 5 0
72 68 70 69 65 20 63 33 43 0
72 68 70 69 65 8 50 26 35 0
72 68 70 69 65 60 15 29 39 0
72 68 70 69 65 55 28 11 38 0
72 68 70 69 65 18 4 7 1 0
72 68 70 69 20 63 33 43 22 0
72 68 70 69 8 50 26 35 10 0
72 68 70 69 60 15 29 39 16 0
72 68 70 69 55 28 11 38 12 0
72 68 70 67 65 20 63 33 58 0
72 68 70 67 65 8 50 26 46 0
72 68 70 67 65 60 15 29 53 0
72 68 70 67 65 41 24 37 6 0
72 68 70 67 65 18 4 13 1 0
72 68 70 67 20 63 33 58 22 0
72 68 70 67 8 50 26 46 10 0
72 68 70 67 60 15 29 53 16 0
72 68 70 67 41 24 37 6 5 0
72 68 70 65 20 63 33 58 43 0
72 68 70 65 8 50 26 46 35 0
72 68 70 65 60 15 29 53 39 0
72 68 70 65 18 4 13 7 1 0
72 68 70 20 63 33 58 43 22 0
72 68 70 8 50 26 46 35 10 0
72 68 70 60 15 29 53 39 16 0
72 68 66 69 67 65 20 63 61 0
72 68 66 69 67 65 8 50 48 0
72 68 66 69 67 65 32 30 2 0
72 68 66 69 67 65 55 54 11 0
72 68 66 69 67 65 41 40 6 0
72 68 66 69 67 65 18 14 1 0
72 68 66 69 67 20 63 61 22 0
72 68 66 69 67 8 50 48 10 0
72 68 66 69 67 32 30 2 3 0
72 68 66 69 67 55 54 11 12 0
72 68 66 69 67 41 40 6 5 0
72 68 66 69 65 20 63 61 43 0
72 68 66 69 65 8 50 48 35 0
72 68 66 69 65 32 30 2 23 0
72 68 66 69 65 55 54 11 38 0
72 68 66 69 65 18 14 7 1 0
72 68 66 69 20 63 61 43 22 0
72 68 66 69 8 50 48 35 10 0
72 68 66 69 32 30 2 23 3 0
72 68 66 69 55 54 11 38 12 0
72 68 66 67 65 20 63 61 58 0
72 68 66 67 65 8 50 48 46 0
72 68 66 67 65 32 30 2 27 0
72 68 66 67 65 41 40 37 6 0
72 68 66 67 65 18 14 13 1 0
72 68 66 67 20 63 61 58 22 0
72 68 66 67 8 50 48 46 10 0
72 68 66 67 32 30 2 27 3 0
72 68 66 67 41 40 37 6 5 0
72 68 66 65 20 63 61 58 43 0
72 68 66 65 8 50 48 46 35 0
72 68 66 65 32 30 2 27 23 0
72 68 66 65 18 14 13 7 1 0
72 68 66 20 63 61 58 43 22 0
72 68 66 8 50 48 46 35 10 0
72 68 66 32 30 2 27 23 3 0
72 68 69 67 65 20 63 61 33 0
72 68 69 67 65 8 50 48 26 0
72 68 69 67 65 55 54 28 11 0
72 68 69 67 65 41 40 24 6 0
72 68 69 67 65 18 14 4 1 0
72 68 69 67 20 63 61 33 22 0
72 68 69 67 8 50 48 26 10 0
72 68 69 67 55 54 28 11 12 0
72 68 69 67 41 40 24 6 5 0
72 68 69 65 20 63 61 33 43 0
72 68 69 65 8 50 48 26 35 0
72 68 69 65 55 54 28 11 38 0
72 68 69 65 18 14 4 7 1 0
72 68 69 20 63 61 33 43 22 0
72 68 69 8 50 48 26 35 10 0
72 68 69 55 54 28 11 38 12 0
72 68 67 65 20 63 61 33 58 0
72 68 67 65 8 50 48 26 46 0
72 68 67 65 41 40 24 37 6 0
72 68 67 65 18 14 4 13 1 0
72 68 67 20 63 61 33 58 22 0
72 68 67 8 50 48 26 46 10 0
72 68 67 41 40 24 37 6 5 0
72 68 65 20 63 61 33 58 43 0
72 68 65 8 50 48 26 46 35 0
72 68 65 18 14 4 13 7 1 0
72 68 20 63 61 33 58 43 22 0
72 68 8 50 48 26 46 35 10 0
72 71 70 66 69 67 65 20 52 0
72 71 70 66 69 67 65 49 19 0
72 71 70 66 69 67 65 47 15 0
72 71 70 66 69 67 65 25 2 0
72 71 70 66 69 67 65 45 11 0
72 71 70 66 69 67 65 36 6 0
72 71 70 66 69 67 65 9 1 0
72 71 70 66 69 67 20 52 22 0
72 71 70 66 69 67 49 19 17 0
72 71 70 66 69 67 47 15 16 0
72 71 70 66 69 67 25 2 3 0
72 71 70 66 69 67 45 11 12 0
72 71 70 66 69 67 36 6 5 0
72 71 70 66 69 65 20 52 43 0
72 71 70 66 69 65 49 19 42 0
72 71 70 66 69 65 47 15 39 0
72 71 70 66 69 65 25 2 23 0
72 71 70 66 69 65 45 11 38 0
72 71 70 66 69 65 9 7 1 0
72 71 70 66 69 20 52 43 22 0
72 71 70 66 69 49 19 42 17 0
72 71 70 66 69 47 15 39 16 0
72 71 70 66 69 25 2 23 3 0
72 71 70 66 69 45 11 38 12 0
72 71 70 66 67 65 20 52 58 0
72 71 70 66 67 65 49 19 56 0
72 71 70 66 67 65 47 15 53 0
72 71 70 66 67 65 25 2 27 0
72 71 70 66 67 65 36 37 6 0
72 71 70 66 67 65 9 13 1 0
72 71 70 66 67 20 52 58 22 0
72 71 70 66 67 49 19 56 17 0
72 71 70 66 67 47 15 53 16 0
72 71 70 66 67 25 2 27 3 0
72 71 70 66 67 36 37 6 5 0
72 71 70 66 65 20 52 58 43 0
72 71 70 66 65 49 19 56 42 0
72 71 70 66 65 47 15 53 39 0
72 71 70 66 65 25 2 27 23 0
72 71 70 66 65 9 13 7 1 0
72 71 70 66 20 52 58 43 22 0
72 71 70 66 49 19 56 42 17 0
72 71 70 66 47 15 53 39 16 0
72 71 70 66 25 2 27 23 3 0
72 71 70 69 67 65 20 52 33 0
72 71 70 69 67 65 49 19 31 0
72 71 70 69 67 65 47 15 29 0
72 71 70 69 67 65 45 28 11 0
72 71 70 69 67 65 36 24 6 0
72 71 70 69 67 65 9 4 1 0
72 71 70 69 67 20 52 33 22 0
72 71 70 69 67 49 19 31 17 0
72 71 70 69 67 47 15 29 16 0
72 71 70 69 67 45 28 11 12 0
72 71 70 69 67 36 24 6 5 0
72 71 70 69 65 20 52 33 43 0
72 71 70 69 65 49 19 31 42 0
72 71 70 69 65 47 15 29 39 0
72 71 70 69 65 45 28 11 38 0
72 71 70 69 65 9 4 7 1 0
72 71 70 69 20 52 33 43 22 0
72 71 70 69 49 19 31 42 17 0
72 71 70 69 47 15 29 39 16 0
72 71 70 69 45 28 11 38 12 0
72 71 70 67 65 20 52 33 58 0
72 71 70 67 65 49 19 31 56 0
72 71 70 67 65 47 15 29 53 0
72 71 70 67 65 36 24 37 6 0
72 71 70 67 65 9 4 13 1 0
72 71 70 67 20 52 33 58 22 0
72 71 70 67 49 19 31 56 17 0
72 71 70 67 47 15 29 53 16 0
72 71 70 67 36 24 37 6 5 0
72 71 70 65 20 52 33 58 43 0
72 71 70 65 49 19 31 56 42 0
72 71 70 65 47 15 29 53 39 0
72 71 70 65 9 4 13 7 1 0
72 71 70 20 52 33 58 43 22 0
72 71 70 49 19 31 56 42 17 0
72 71 70 47 15 29 53 39 16 0
72 71 66 69 67 65 20 52 61 0
72 71 66 69 67 65 49 19 59 0
72 71 66 69 67 65 25 30 2 0
72 71 66 69 67 65 45 54 11 0
72 71 66 69 67 65 36 40 6 0
72 71 66 69 67 65 9 14 1 0
72 71 66 69 67 20 52 61 22 0
72 71 66 69 67 49 19 59 17 0
72 71 66 69 67 25 30 2 3 0
72 71 66 69 67 45 54 11 12 0
72 71 66 69 67 36 40 6 5 0
72 71 66 69 65 20 52 61 43 0
72 71 66 69 65 49 19 59 42 0
72 71 66 69 65 25 30 2 23 0
72 71 66 69 65 45 54 11 38 0
72 71 66 69 65 9 14 7 1 0
72 71 66 69 20 52 61 43 22 0
72 71 66 69 49 19 59 42 17 0
72 71 66 69 25 30 2 23 3 0
72 71 66 69 45 54 11 38 12 0
72 71 66 67 65 20 52 61 58 0
72 71 66 67 65 49 19 59 56 0
72 71 66 67 65 25 30 2 27 0
72 71 66 67 65 36 40 37 6 0
72 71 66 67 65 9 14 13 1 0
72 71 66 67 20 52 61 58 22 0
72 71 66 67 49 19 59 56 17 0
72 71 66 67 25 30 2 27 3 0
72 71 66 67 36 40 37 6 5 0
72 71 66 65 20 52 61 58 43 0
72 71 66 65 49 19 59 56 42 0
72 71 66 65 25 30 2 27 23 0
72 71 66 65 9 14 13 7 1 0
72 71 66 20 52 61 58 43 22 0
72 71 66 49 19 59 56 42 17 0
72 71 66 25 30 2 27 23 3 0
72 71 69 67 65 20 52 61 33 0
72 71 69 67 65 49 19 59 31 0
72 71 69 67 65 45 54 28 11 0
72 71 69 67 65 36 40 24 6 0
72 71 69 67 65 9 14 4 1 0
72 71 69 67 20 52 61 33 22 0
72 71 69 67 49 19 59 31 17 0
72 71 69 67 45 54 28 11 12 0
72 71 69 67 36 40 24 6 5 0
72 71 69 65 20 52 61 33 43 0
72 71 69 65 49 19 59 31 42 0
72 71 69 65 45 54 28 11 38 0
72 71 69 65 9 14 4 7 1 0
72 71 69 20 52 61 33 43 22 0
72 71 69 49 19 59 31 42 17 0
72 71 69 45 54 28 11 38 12 0
72 71 67 65 20 52 61 33 58 0
72 71 67 65 49 19 59 31 56 0
72 71 67 65 36 40 24 37 6 0
72 71 67 65 9 14 4 13 1 0
72 71 67 20 52 61 33 58 22 0
72 71 67 49 19 59 31 56 17 0
72 71 67 36 40 24 37 6 5 0
72 71 65 20 52 61 33 58 43 0
72 71 65 49 19 59 31 56 42 0
72 71 65 9 14 4 13 7 1 0
72 71 20 52 61 33 58 43 22 0
72 71 49 19 59 31 56 42 17 0
72 70 66 69 67 65 20 52 63 0
72 70 66 69 67 65 47 60 15 0
72 70 66 69 67 65 25 32 2 0
72 70 66 69 67 65 45 55 11 0
72 70 66 69 67 65 36 41 6 0
72 70 66 69 67 65 9 18 1 0
72 70 66 69 67 20 52 63 22 0
72 70 66 69 67 47 60 15 16 0
72 70 66 69 67 25 32 2 3 0
72 70 66 69 67 45 55 11 12 0
72 70 66 69 67 36 41 6 5 0
72 70 66 69 65 20 52 63 43 0
72 70 66 69 65 47 60 15 39 0
72 70 66 69 65 25 32 2 23 0
72 70 66 69 65 45 55 11 38 0
72 70 66 69 65 9 18 7 1 0
72 70 66 69 20 52 63 43 22 0
72 70 66 69 47 60 15 39 16 0
72 70 66 69 25 32 2 23 3 0
72 70 66 69 45 55 11 38 12 0
72 70 66 67 65 20 52 63 58 0
72 70 66 67 65 47 60 15 53 0
72 70 66 67 65 25 32 2 27 0
72 70 66 67 65 36 41 37 6 0
72 70 66 67 65 9 18 13 1 0
72 70 66 67 20 52 63 58 22 0
72 70 66 67 47 60 15 53 16 0
72 70 66 67 25 32 2 27 3 0
72 70 66 67 36 41 37 6 5 0
72 70 66 65 20 52 63 58 43 0
72 70 66 65 47 60 15 53 39 0
72 70 66 65 25 32 2 27 23 0
72 70 66 65 9 18 13 7 1 0
72 70 66 20 52 63 58 43 22 0
72 70 66 47 60 15 53 39 16 0
72 70 66 25 32 2 27 23 3 0
72 70 69 67 65 20 52 63 33 0
72 70 69 67 65 47 60 15 29 0
72 70 69 67 65 45 55 28 11 0
72 70 69 67 65 36 41 24 6 0
72 70 69 67 65 9 18 4 1 0
72 70 69 67 20 52 63 33 22 0
72 70 69 67 47 60 15 29 16 0
72 70 69 67 45 55 28 11 12 0
72 70 69 67 36 41 24 6 5 0
72 70 69 65 20 52 63 33 43 0
72 70 69 65 47 60 15 29 39 0
72 70 69 65 45 55 28 11 38 0
72 70 69 65 9 18 4 7 1 0
72 70 69 20 52 63 33 43 22 0
72 70 69 47 60 15 29 39 16 0
72 70 69 45 55 28 11 38 12 0
72 70 67 65 20 52 63 33 58 0
72 70 67 65 47 60 15 29 53 0
72 70 67 65 36 41 24 37 6 0
72 70 67 65 9 18 4 13 1 0
72 70 67 20 52 63 33 58 22 0
72 70 67 47 60 15 29 53 16 0
72 70 67 36 41 24 37 6 5 0
72 70 65 20 52 63 33 58 43 0
72 70 65 47 60 15 29 53 39 0
72 70 65 9 18 4 13 7 1 0
72 70 20 52 63 33 58 43 22 0
72 70 47 60 15 29 53 39 16 0
72 66 69 67 65 20 52 63 61 0
72 66 69 67 65 25 32 30 2 0
72 66 69 67 65 45 55 54 11 0
72 66 69 67 65 36 41 40 6 0
72 66 69 67 65 9 18 14 1 0
72 66 69 67 20 52 63 61 22 0
72 66 69 67 25 32 30 2 3 0
72 66 69 67 45 55 54 11 12 0
72 66 69 67 36 41 40 6 5 0
72 66 69 65 20 52 63 61 43 0
72 66 69 65 25 32 30 2 23 0
72 66 69 65 45 55 54 11 38 0
72 66 69 65 9 18 14 7 1 0
72 66 69 20 52 63 61 43 22 0
72 66 69 25 32 30 2 23 3 0
72 66 69 45 55 54 11 38 12 0
72 66 67 65 20 52 63 61 58 0
72 66 67 65 25 32 30 2 27 0
72 66 67 65 36 41 40 37 6 0
72 66 67 65 9 18 14 13 1 0
72 66 67 20 52 63 61 58 22 0
72 66 67 25 32 30 2 27 3 0
72 66 67 36 41 40 37 6 5 0
72 66 65 20 52 63 61 58 43 0
72 66 65 25 32 30 2 27 23 0
72 66 65 9 18 14 13 7 1 0
72 66 20 52 63 61 58 43 22 0
72 66 25 32 30 2 27 23 3 0
72 69 67 65 20 52 63 61 33 0
72 69 67 65 45 55 54 28 11 0
72 69 67 65 36 41 40 24 6 0
72 69 67 65 9 18 14 4 1 0
72 69 67 20 52 63 61 33 22 0
72 69 67 45 55 54 28 11 12 0
72 69 67 36 41 40 24 6 5 0
72 69 65 20 52 63 61 33 43 0
72 69 65 45 55 54 28 11 38 0
72 69 65 9 18 14 4 7 1 0
72 69 20 52 63 61 33 43 22 0
72 69 45 55 54 28 11 38 12 0
72 67 65 20 52 63 61 33 58 0
72 67 65 36 41 40 24 37 6 0
72 67 65 9 18 14 4 13 1 0
72 67 20 52 63 61 33 58 22 0
72 67 36 41 40 24 37 6 5 0
72 65 20 52 63 61 33 58 43 0
72 65 9 18 14 4 13 7 1 0
72 20 52 63 61 33 58 43 22 0
68 71 70 66 69 67 65 51 8 0
68 71 70 66 69 67 65 64 19 0
68 71 70 66 69 67 65 62 15 0
68 71 70 66 69 67 65 34 2 0
68 71 70 66 69 67 65 57 11 0
68 71 70 66 69 67 65 44 6 0
68 71 70 66 69 67 65 21 1 0
68 71 70 66 69 67 51 8 10 0
68 71 70 66 69 67 64 19 17 0
68 71 70 66 69 67 62 15 16 0
68 71 70 66 69 67 34 2 3 0
68 71 70 66 69 67 57 11 12 0
68 71 70 66 69 67 44 6 5 0
68 71 70 66 69 65 51 8 35 0
68 71 70 66 69 65 64 19 42 0
68 71 70 66 69 65 62 15 39 0
68 71 70 66 69 65 34 2 23 0
68 71 70 66 69 65 57 11 38 0
68 71 70 66 69 65 21 7 1 0
68 71 70 66 69 51 8 35 10 0
68 71 70 66 69 64 19 42 17 0
68 71 70 66 69 62 15 39 16 0
68 71 70 66 69 34 2 23 3 0
68 71 70 66 69 57 11 38 12 0
68 71 70 66 67 65 51 8 46 0
68 71 70 66 67 65 64 19 56 0
68 71 70 66 67 65 62 15 53 0
68 71 70 66 67 65 34 2 27 0
68 71 70 66 67 65 44 37 6 0
68 71 70 66 67 65 21 13 1 0
68 71 70 66 67 51 8 46 10 0
68 71 70 66 67 64 19 56 17 0
68 71 70 66 67 62 15 53 16 0
68 71 70 66 67 34 2 27 3 0
68 71 70 66 67 44 37 6 5 0
68 71 70 66 65 51 8 46 35 0
68 71 70 66 65 64 19 56 42 0
68 71 70 66 65 62 15 53 39 0
68 71 70 66 65 34 2 27 23 0
68 71 70 66 65 21 13 7 1 0
68 71 70 66 51 8 46 35 10 0
68 71 70 66 64 19 56 42 17 0
68 71 70 66 62 15 53 39 16 0
68 71 70 66 34 2 27 23 3 0
68 71 70 69 67 65 51 8 26 0
68 71 70 69 67 65 64 19 31 0
68 71 70 69 67 65 62 15 29 0
68 71 70 69 67 65 57 28 11 0
68 71 70 69 67 65 44 24 6 0
68 71 70 69 67 65 21 4 1 0
68 71 70 69 67 51 8 26 10 0
68 71 70 69 67 64 19 31 17 0
68 71 70 69 67 62 15 29 16 0
68 71 70 69 67 57 28 11 12 0
68 71 70 69 67 44 24 6 5 0
68 71 70 69 65 51 8 26 35 0
68 71 70 69 65 64 19 31 42 0
68 71 70 69 65 62 15 29 39 0
68 71 70 69 65 57 28 11 38 0
68 71 70 69 65 21 4 7 1 0
68 71 70 69 51 8 26 35 10 0
68 71 70 69 64 19 31 42 17 0
68 71 70 69 62 15 29 39 16 0
68 71 70 69 57 28 11 38 12 0
68 71 70 67 65 51 8 26 46 0
68 71 70 67 65 64 19 31 56 0
68 71 70 67 65 62 15 29 53 0
68 71 70 67 65 44 24 37 6 0
68 71 70 67 65 21 4 13 1 0
68 71 70 67 51 8 26 46 10 0
68 71 70 67 64 19 31 56 17 0
68 71 70 67 62 15 29 53 16 0
68 71 70 67 44 24 37 6 5 0
68 71 70 65 51 8 26 46 35 0
68 71 70 65 64 19 31 56 42 0
68 71 70 65 62 15 29 53 39 0
68 71 70 65 21 4 13 7 1 0
68 71 70 51 8 26 46 35 10 0
68 71 70 64 19 31 56 42 17 0
68 71 70 62 15 29 53 39 16 0
68 71 66 69 67 65 51 8 48 0
68 71 66 69 67 65 64 19 59 0
68 71 66 69 67 65 34 30 2 0
68 71 66 69 67 65 57 54 11 0
68 71 66 69 67 65 44 40 6 0
68 71 66 69 67 65 21 14 1 0
68 71 66 69 67 51 8 48 10 0
68 71 66 69 67 64 19 59 17 0
68 71 66 69 67 34 30 2 3 0
68 71 66 69 67 57 54 11 12 0
68 71 66 69 67 44 40 6 5 0
68 71 66 69 65 51 8 48 35 0
68 71 66 69 65 64 19 59 42 0
68 71 66 69 65 34 30 2 23 0
68 71 66 69 65 57 54 11 38 0
68 71 66 69 65 21 14 7 1 0
68 71 66 69 51 8 48 35 10 0
68 71 66 69 64 19 59 42 17 0
68 71 66 69 34 30 2 23 3 0
68 71 66 69 57 54 11 38 12 0
68 71 66 67 65 51 8 48 46 0
68 71 66 67 65 64 19 59 56 0
68 71 66 67 65 34 30 2 27 0
68 71 66 67 65 44 40 37 6 0
68 71 66 67 65 21 14 13 1 0
68 71 66 67 51 8 48 46 10 0
68 71 66 67 64 19 59 56 17 0
68 71 66 67 34 30 2 27 3 0
68 71 66 67 44 40 37 6 5 0
68 71 66 65 51 8 48 46 35 0
68 71 66 65 64 19 59 56 42 0
68 71 66 65 34 30 2 27 23 0
68 71 66 65 21 14 13 7 1 0
68 71 66 51 8 48 46 35 10 0
68 71 66 64 19 59 56 42 17 0
68 71 66 34 30 2 27 23 3 0
68 71 69 67 65 51 8 48 26 0
68 71 69 67 65 64 19 59 31 0
68 71 69 67 65 57 54 28 11 0
68 71 69 67 65 44 40 24 6 0
68 71 69 67 65 21 14 4 1 0
68 71 69 67 51 8 48 26 10 0
68 71 69 67 64 19 59 31 17 0
68 71 69 67 57 54 28 11 12 0
68 71 69 67 44 40 24 6 5 0
68 71 69 65 51 8 48 26 35 0
68 71 69 65 64 19 59 31 42 0
68 71 69 65 57 54 28 11 38 0
68 71 69 65 21 14 4 7 1 0
68 71 69 51 8 48 26 35 10 0
68 71 69 64 19 59 31 42 17 0
68 71 69 57 54 28 11 38 12 0
68 71 67 65 51 8 48 26 46 0
68 71 67 65 64 19 59 31 56 0
68 71 67 65 44 40 24 37 6 0
68 71 67 65 21 14 4 13 1 0
68 71 67 51 8 48 26 46 10 0
68 71 67 64 19 59 31 56 17 0
68 71 67 44 40 24 37 6 5 0
68 71 65 51 8 48 26 46 35 0
68 71 65 64 19 59 31 56 42 0
68 71 65 21 14 4 13 7 1 0
68 71 51 8 48 26 46 35 10 0
68 71 64 19 59 31 56 42 17 0
68 70 66 69 67 65 51 8 50 0
68 70 66 69 67 65 62 60 15 0
68 70 66 69 67 65 34 32 2 0
68 70 66 69 67 65 57 55 11 0
68 70 66 69 67 65 44 41 6 0
68 70 66 69 67 65 21 18 1 0
68 70 66 69 67 51 8 50 10 0
68 70 66 69 67 62 60 15 16 0
68 70 66 69 67 34 32 2 3 0
68 70 66 69 67 57 55 11 12 0
68 70 66 69 67 44 41 6 5 0
68 70 66 69 65 51 8 50 35 0
68 70 66 69 65 62 60 15 39 0
68 70 66 69 65 34 32 2 23 0
68 70 66 69 65 57 55 11 38 0
68 70 66 69 65 21 18 7 1 0
68 70 66 69 51 8 50 35 10 0
68 70 66 69 62 60 15 39 16 0
68 70 66 69 34 32 2 23 3 0
68 70 66 69 57 55 11 38 12 0
68 70 66 67 65 51 8 50 46 0
68 70 66 67 65 62 60 15 53 0
68 70 66 67 65 34 32 2 27 0
68 70 66 67 65 44 41 37 6 0
68 70 66 67 65 21 18 13 1 0
68 70 66 67 51 8 50 46 10 0
68 70 66 67 62 60 15 53 16 0
68 70 66 67 34 32 2 27 3 0
68 70 66 67 44 41 37 6 5 0
68 70 66 65 51 8 50 46 35 0
68 70 66 65 62 60 15 53 39 0
68 70 66 65 34 32 2 27 23 0
68 70 66 65 21 18 13 7 1 0
68 70 66 51 8 50 46 35 10 0
68 70 66 62 60 15 53 39 16 0
68 70 66 34 32 2 27 23 3 0
68 70 69 67 65 51 8 50 26 0
68 70 69 67 65 62 60 15 29 0
68 70 69 67 65 57 55 28 11 0
68 70 69 67 65 44 41 24 6 0
68 70 69 67 65 21 18 4 1 0
68 70 69 67 51 8 50 26 10 0
68 70 69 67 62 60 15 29 16 0
68 70 69 67 57 55 28 11 12 0
68 70 69 67 44 41 24 6 5 0
68 70 69 65 51 8 50 26 35 0
68 70 69 65 62 60 15 29 39 0
68 70 69 65 57 55 28 11 38 0
68 70 69 65 21 18 4 7 1 0
68 70 69 51 8 50 26 35 10 0
68 70 69 62 60 15 29 39 16 0
68 70 69 57 55 28 11 38 12 0
68 70 67 65 51 8 50 26 46 0
68 70 67 65 62 60 15 29 53 0
68 70 67 65 44 41 24 37 6 0
68 70 67 65 21 18 4 13 1 0
68 70 67 51 8 50 26 46 10 0
68 70 67 62 60 15 29 53 16 0
68 70 67 44 41 24 37 6 5 0
68 70 65 51 8 50 26 46 35 0
68 70 65 62 60 15 29 53 39 0
68 70 65 21 18 4 13 7 1 0
68 70 51 8 50 26 46 35 10 0
68 70 62 60 15 29 53 39 16 0
68 66 69 67 65 51 8 50 48 0
68 66 69 67 65 34 32 30 2 0
68 66 69 67 65 57 55 54 11 0
68 66 69 67 65 44 41 40 6 0
68 66 69 67 65 21 18 14 1 0
68 66 69 67 51 8 50 48 10 0
68 66 69 67 34 32 30 2 3 0
68 66 69 67 57 55 54 11 12 0
68 66 69 67 44 41 40 6 5 0
68 66 69 65 51 8 50 48 35 0
68 66 69 65 34 32 30 2 23 0
68 66 69 65 57 55 54 11 38 0
68 66 69 65 21 18 14 7 1 0
68 66 69 51 8 50 48 35 10 0
68 66 69 34 32 30 2 23 3 0
68 66 69 57 55 54 11 38 12 0
68 66 67 65 51 8 50 48 46 0
68 66 67 65 34 32 30 2 27 0
68 66 67 65 44 41 40 37 6 0
68 66 67 65 21 18 14 13 1 0
68 66 67 51 8 50 48 46 10 0
68 66 67 34 32 30 2 27 3 0
68 66 67 44 41 40 37 6 5 0
68 66 65 51 8 50 48 46 35 0
68 66 65 34 32 30 2 27 23 0
68 66 65 21 18 14 13 7 1 0
68 66 51 8 50 48 46 35 10 0
68 66 34 32 30 2 27 23 3 0
68 69 67 65 51 8 50 48 26 0
68 69 67 65 57 55 54 28 11 0
68 69 67 65 44 41 40 24 6 0
68 69 67 65 21 18 14 4 1 0
68 69 67 51 8 50 48 26 10 0
68 69 67 57 55 54 28 11 12 0
68 69 67 44 41 40 24 6 5 0
68 69 65 51 8 50 48 26 35 0
68 69 65 57 55 54 28 11 38 0
68 69 65 21 18 14 4 7 1 0
68 69 51 8 50 48 26 35 10 0
68 69 57 55 54 28 11 38 12 0
68 67 65 51 8 50 48 26 46 0
68 67 65 44 41 40 24 37 6 0
68 67 65 21 18 14 4 13 1 0
68 67 51 8 50 48 26 46 10 0
68 67 44 41 40 24 37 6 5 0
68 65 51 8 50 48 26 46 35 0
68 65 21 18 14 4 13 7 1 0
68 51 8 50 48 26 46 35 10 0
71 70 66 69 67 65 64 49 19 0
71 70 66 69 67 65 62 47 15 0
71 70 66 69 67 65 34 25 2 0
71 70 66 69 67 65 57 45 11 0
71 70 66 69 67 65 44 36 6 0
71 70 66 69 67 65 21 9 1 0
71 70 66 69 67 64 49 19 17 0
71 70 66 69 67 62 47 15 16 0
71 70 66 69 67 34 25 2 3 0
71 70 66 69 67 57 45 11 12 0
71 70 66 69 67 44 36 6 5 0
71 70 66 69 65 64 49 19 42 0
71 70 66 69 65 62 47 15 39 0
71 70 66 69 65 34 25 2 23 0
71 70 66 69 65 57 45 11 38 0
71 70 66 69 65 21 9 7 1 0
71 70 66 69 64 49 19 42 17 0
71 70 66 69 62 47 15 39 16 0
71 70 66 69 34 25 2 23 3 0
71 70 66 69 57 45 11 38 12 0
71 70 66 67 65 64 49 19 56 0
71 70 66 67 65 62 47 15 53 0
71 70 66 67 65 34 25 2 27 0
71 70 66 67 65 44 36 37 6 0
71 70 66 67 65 21 9 13 1 0
71 70 66 67 64 49 19 56 17 0
71 70 66 67 62 47 15 53 16 0
71 70 66 67 34 25 2 27 3 0
71 70 66 67 44 36 37 6 5 0
71 70 66 65 64 49 19 56 42 0
71 70 66 65 62 47 15 53 39 0
71 70 66 65 34 25 2 27 23 0
71 70 66 65 21 9 13 7 1 0
71 70 66 64 49 19 56 42 17 0
71 70 66 62 47 15 53 39 16 0
71 70 66 34 25 2 27 23 3 0
71 70 69 67 65 64 49 19 31 0
71 70 69 67 65 62 47 15 29 0
71 70 69 67 65 57 45 28 11 0
71 70 69 67 65 44 36 24 6 0
71 70 69 67 65 21 9 4 1 0
71 70 69 67 64 49 19 31 17 0
71 70 69 67 62 47 15 29 16 0
71 70 69 67 57 45 28 11 12 0
71 70 69 67 44 36 24 6 5 0
71 70 69 65 64 49 19 31 42 0
71 70 69 65 62 47 15 29 39 0
71 70 69 65 57 45 28 11 38 0
71 70 69 65 21 9 4 7 1 0
71 70 69 64 49 19 31 42 17 0
71 70 69 62 47 15 29 39 16 0
71 70 69 57 45 28 11 38 12 0
71 70 67 65 64 49 19 31 56 0
71 70 67 65 62 47 15 29 53 0
71 70 67 65 44 36 24 37 6 0
71 70 67 65 21 9 4 13 1 0
71 70 67 64 49 19 31 56 17 0
71 70 67 62 47 15 29 53 16 0
71 70 67 44 36 24 37 6 5 0
71 70 65 64 49 19 31 56 42 0
71 70 65 62 47 15 29 53 39 0
71 70 65 21 9 4 13 7 1 0
71 70 64 49 19 31 56 42 17 0
71 70 62 47 15 29 53 39 16 0
71 66 69 67 65 64 49 19 59 0
71 66 69 67 65 34 25 30 2 0
71 66 69 67 65 57 45 54 11 0
71 66 69 67 65 44 36 40 6 0
71 66 69 67 65 21 9 14 1 0
71 66 69 67 64 49 19 59 17 0
71 66 69 67 34 25 30 2 3 0
71 66 69 67 57 45 54 11 12 0
71 66 69 67 44 36 40 6 5 0
71 66 69 65 64 49 19 59 42 0
71 66 69 65 34 25 30 2 23 0
71 66 69 65 57 45 54 11 38 0
71 66 69 65 21 9 14 7 1 0
71 66 69 64 49 19 59 42 17 0
71 66 69 34 25 30 2 23 3 0
71 66 69 57 45 54 11 38 12 0
71 66 67 65 64 49 19 59 56 0
71 66 67 65 34 25 30 2 27 0
71 66 67 65 44 36 40 37 6 0
71 66 67 65 21 9 14 13 1 0
71 66 67 64 49 19 59 56 17 0
71 66 67 34 25 30 2 27 3 0
71 66 67 44 36 40 37 6 5 0
71 66 65 64 49 19 59 56 42 0
71 66 65 34 25 30 2 27 23 0
71 66 65 21 9 14 13 7 1 0
71 66 64 49 19 59 56 42 17 0
71 66 34 25 30 2 27 23 3 0
71 69 67 65 64 49 19 59 31 0
71 69 67 65 57 45 54 28 11 0
71 69 67 65 44 36 40 24 6 0
71 69 67 65 21 9 14 4 1 0
71 69 67 64 49 19 59 31 17 0
71 69 67 57 45 54 28 11 12 0
71 69 67 44 36 40 24 6 5 0
71 69 65 64 49 19 59 31 42 0
71 69 65 57 45 54 28 11 38 0
71 69 65 21 9 14 4 7 1 0
71 69 64 49 19 59 31 42 17 0
71 69 57 45 54 28 11 38 12 0
71 67 65 64 49 19 59 31 56 0
71 67 65 44 36 40 24 37 6 0
71 67 65 21 9 14 4 13 1 0
71 67 64 49 19 59 31 56 17 0
71 67 44 36 40 24 37 6 5 0
71 65 64 49 19 59 31 56 42 0
71 65 21 9 14 4 13 7 1 0
71 64 49 19 59 31 56 42 17 0
70 66 69 67 65 62 47 60 15 0
70 66 69 67 65 34 25 32 2 0
70 66 69 67 65 57 45 55 11 0
70 66 69 67 65 44 36 41 6 0
70 66 69 67 65 21 9 18 1 0
70 66 69 67 62 47 60 15 16 0
70 66 69 67 34 25 32 2 3 0
70 66 69 67 57 45 55 11 12 0
70 66 69 67 44 36 41 6 5 0
70 66 69 65 62 47 60 15 39 0
70 66 69 65 34 25 32 2 23 0
70 66 69 65 57 45 55 11 38 0
70 66 69 65 21 9 18 7 1 0
70 66 69 62 47 60 15 39 16 0
70 66 69 34 25 32 2 23 3 0
70 66 69 57 45 55 11 38 12 0
70 66 67 65 62 47 60 15 53 0
70 66 67 65 34 25 32 2 27 0
70 66 67 65 44 36 41 37 6 0
70 66 67 65 21 9 18 13 1 0
70 66 67 62 47 60 15 53 16 0
70 66 67 34 25 32 2 27 3 0
70 66 67 44 36 41 37 6 5 0
70 66 65 62 47 60 15 53 39 0
70 66 65 34 25 32 2 27 23 0
70 66 65 21 9 18 13 7 1 0
70 66 62 47 60 15 53 39 16 0
70 66 34 25 32 2 27 23 3 0
70 69 67 65 62 47 60 15 29 0
70 69 67 65 57 45 55 28 11 0
70 69 67 65 44 36 41 24 6 0
70 69 67 65 21 9 18 4 1 0
70 69 67 62 47 60 15 29 16 0
70 69 67 57 45 55 28 11 12 0
70 69 67 44 36 41 24 6 5 0
70 69 65 62 47 60 15 29 39 0
70 69 65 57 45 55 28 11 38 0
70 69 65 21 9 18 4 7 1 0
70 69 62 47 60 15 29 39 16 0
70 69 57 45 55 28 11 38 12 0
70 67 65 62 47 60 15 29 53 0
70 67 65 44 36 41 24 37 6 0
70 67 65 21 9 18 4 13 1 0
70 67 62 47 60 15 29 53 16 0
70 67 44 36 41 24 37 6 5 0
70 65 62 47 60 15 29 53 39 0
70 65 21 9 18 4 13 7 1 0
70 62 47 60 15 29 53 39 16 0
66 69 67 65 34 25 32 30 2 0
66 69 67 65 57 45 55 54 11 0
66 69 67 65 44 36 41 40 6 0
66 69 67 65 21 9 18 14 1 0
66 69 67 34 25 32 30 2 3 0
66 69 67 57 45 55 54 11 12 0
66 69 67 44 36 41 40 6 5 0
66 69 65 34 25 32 30 2 23 0
66 69 65 57 45 55 54 11 38 0
66 69 65 21 9 18 14 7 1 0
66 69 34 25 32 30 2 23 3 0
66 69 57 45 55 54 11 38 12 0
66 67 65 34 25 32 30 2 27 0
66 67 65 44 36 41 40 37 6 0
66 67 65 21 9 18 14 13 1 0
66 67 34 25 32 30 2 27 3 0
66 67 44 36 41 40 37 6 5 0
66 65 34 25 32 30 2 27 23 0
66 65 21 9 18 14 13 7 1 0
66 34 25 32 30 2 27 23 3 0
69 67 65 57 45 55 54 28 11 0
69 67 65 44 36 41 40 24 6 0
69 67 65 21 9 18 14 4 1 0
69 67 57 45 55 54 28 11 12 0
69 67 44 36 41 40 24 6 5 0
69 65 57 45 55 54 28 11 38 0
69 65 21 9 18 14 4 7 1 0
69 57 45 55 54 28 11 38 12 0
67 65 44 36 41 40 24 37 6 0
67 65 21 9 18 14 4 13 1 0
67 44 36 41 40 24 37 6 5 0
65 21 9 18 14 4 13 7 1 0
