c E(8,8) E(0,0) E(8,0) E(0,8) E(8,3) E(3,8) E(3,3) E(1,8) E(8,1) E(1,1) E(4,8) E(4,4) E(8,4) E(8,7) E(7,8) E(7,7) E(6,6) E(6,8) E(8,6) E(8,2) E(2,8) E(2,2) E(8,5) E(5,8) E(5,5) E(0,3) E(3,0) E(1,0) E(0,1) E(4,0) E(0,4) E(7,0) E(0,7) E(0,6) E(6,0) E(2,0) E(0,2) E(0,5) E(5,0) E(3,1) E(1,3) E(3,4) E(4,3) E(3,7) E(7,3) E(6,3) E(3,6) E(2,3) E(3,2) E(3,5) E(5,3) E(4,1) E(1,4) E(1,7) E(7,1) E(1,6) E(6,1) E(2,1) E(1,2) E(5,1) E(1,5) E(7,4) E(4,7) E(6,4) E(4,6) E(4,2) E(2,4) E(5,4) E(4,5) E(7,6) E(6,7) E(2,7) E(7,2) E(5,7) E(7,5) E(2,6) E(6,2) E(6,5) E(5,6) E(5,2) E(2,5) D(8) D(0) D(3) D(1) D(4) D(7) D(6) D(2) D(5)
c 1 2 3 4 5 6 7 8 9 10 11 12 13 14 15 16 17 18 19 20 21 22 23 24 25 26 27 28 29 30 31 32 33 34 35 36 37 38 39 40 41 42 43 44 45 46 47 48 49 50 51 52 53 54 55 56 57 58 59 60 61 62 63 64 65 66 67 68 69 70 71 72 73 74 75 76 77 78 79 80 81 82 83 84 85 86 87 88 89 90
p cnf 90 4690
-2 0
-10 0
-22 0
-7 0
-12 0
-25 0
-17 0
-16 0
-1 0
2 -2 0
29 -28 0
37 -36 0
26 -27 0
31 -30 0
38 -39 0
34 -35 0
33 -32 0
4 -3 0
28 -29 0
10 -10 0
59 -58 0
41 -40 0
53 -52 0
61 -60 0
56 -57 0
54 -55 0
8 -9 0
36 -37 0
58 -59 0
22 -22 0
48 -49 0
67 -66 0
81 -80 0
76 -77 0
72 -73 0
21 -20 0
27 -26 0
40 -41 0
49 -48 0
7 -7 0
42 -43 0
50 -51 0
47 -46 0
44 -45 0
6 -5 0
30 -31 0
52 -53 0
66 -67 0
43 -42 0
12 -12 0
69 -68 0
65 -64 0
63 -62 0
11 -13 0
39 -38 0
60 -61 0
80 -81 0
51 -50 0
68 -69 0
25 -25 0
79 -78 0
74 -75 0
24 -23 0
35 -34 0
57 -56 0
77 -76 0
46 -47 0
64 -65 0
78 -79 0
17 -17 0
71 -70 0
18 -19 0
32 -33 0
55 -54 0
73 -72 0
45 -44 0
62 -63 0
75 -74 0
70 -71 0
16 -16 0
15 -14 0
3 -4 0
9 -8 0
20 -21 0
5 -6 0
13 -11 0
23 -24 0
19 -18 0
14 -15 0
1 -1 0
83 85 89 84 86 90 88 87 82 0
83 85 89 84 86 90 88 87 4 0
83 85 89 84 86 90 88 87 8 0
83 85 89 84 86 90 88 87 21 0
83 85 89 84 86 90 88 87 6 0
83 85 89 84 86 90 88 87 11 0
83 85 89 84 86 90 88 87 24 0
83 85 89 84 86 90 88 87 18 0
83 85 89 84 86 90 88 87 15 0
83 85 89 84 86 90 88 82 33 0
83 85 89 84 86 90 88 82 54 0
83 85 89 84 86 90 88 82 72 0
83 85 89 84 86 90 88 82 44 0
83 85 89 84 86 90 88 82 63 0
83 85 89 84 86 90 88 82 74 0
83 85 89 84 86 90 88 82 71 0
83 85 89 84 86 90 88 82 14 0
83 85 89 84 86 90 88 33 4 0
83 85 89 84 86 90 88 54 8 0
83 85 89 84 86 90 88 72 21 0
83 85 89 84 86 90 88 44 6 0
83 85 89 84 86 90 88 63 11 0
83 85 89 84 86 90 88 74 24 0
83 85 89 84 86 90 88 71 18 0
83 85 89 84 86 90 87 82 34 0
83 85 89 84 86 90 87 82 56 0
83 85 89 84 86 90 87 82 76 0
83 85 89 84 86 90 87 82 47 0
83 85 89 84 86 90 87 82 65 0
83 85 89 84 86 90 87 82 79 0
83 85 89 84 86 90 87 82 70 0
83 85 89 84 86 90 87 82 19 0
83 85 89 84 86 90 87 34 4 0
83 85 89 84 86 90 87 56 8 0
83 85 89 84 86 90 87 76 21 0
83 85 89 84 86 90 87 47 6 0
83 85 89 84 86 90 87 65 11 0
83 85 89 84 86 90 87 79 24 0
83 85 89 84 86 90 87 70 15 0
83 85 89 84 86 90 82 34 33 0
83 85 89 84 86 90 82 56 54 0
83 85 89 84 86 90 82 76 72 0
83 85 89 84 86 90 82 47 44 0
83 85 89 84 86 90 82 65 63 0
83 85 89 84 86 90 82 79 74 0
83 85 89 84 86 90 82 19 14 0
83 85 89 84 86 90 34 33 4 0
83 85 89 84 86 90 56 54 8 0
83 85 89 84 86 90 76 72 21 0
83 85 89 84 86 90 47 44 6 0
83 85 89 84 86 90 65 63 11 0
83 85 89 84 86 90 79 74 24 0
83 85 89 84 86 88 87 82 38 0
83 85 89 84 86 88 87 82 61 0
83 85 89 84 86 88 87 82 81 0
83 85 89 84 86 88 87 82 50 0
83 85 89 84 86 88 87 82 69 0
83 85 89 84 86 88 87 82 78 0
83 85 89 84 86 88 87 82 75 0
83 85 89 84 86 88 87 82 23 0
83 85 89 84 86 88 87 38 4 0
83 85 89 84 86 88 87 61 8 0
83 85 89 84 86 88 87 81 21 0
83 85 89 84 86 88 87 50 6 0
83 85 89 84 86 88 87 69 11 0
83 85 89 84 86 88 87 78 18 0
83 85 89 84 86 88 87 75 15 0
83 85 89 84 86 88 82 38 33 0
83 85 89 84 86 88 82 61 54 0
83 85 89 84 86 88 82 81 72 0
83 85 89 84 86 88 82 50 44 0
83 85 89 84 86 88 82 69 63 0
83 85 89 84 86 88 82 78 71 0
83 85 89 84 86 88 82 23 14 0
83 85 89 84 86 88 38 33 4 0
83 85 89 84 86 88 61 54 8 0
83 85 89 84 86 88 81 72 21 0
83 85 89 84 86 88 50 44 6 0
83 85 89 84 86 88 69 63 11 0
83 85 89 84 86 88 78 71 18 0
83 85 89 84 86 87 82 38 34 0
83 85 89 84 86 87 82 61 56 0
83 85 89 84 86 87 82 81 76 0
83 85 89 84 86 87 82 50 47 0
83 85 89 84 86 87 82 69 65 0
83 85 89 84 86 87 82 75 70 0
83 85 89 84 86 87 82 23 19 0
83 85 89 84 86 87 38 34 4 0
83 85 89 84 86 87 61 56 8 0
83 85 89 84 86 87 81 76 21 0
83 85 89 84 86 87 50 47 6 0
83 85 89 84 86 87 69 65 11 0
83 85 89 84 86 87 75 70 15 0
83 85 89 84 86 82 38 34 33 0
83 85 89 84 86 82 61 56 54 0
83 85 89 84 86 82 81 76 72 0
83 85 89 84 86 82 50 47 44 0
83 85 89 84 86 82 69 65 63 0
83 85 89 84 86 82 23 19 14 0
83 85 89 84 86 38 34 33 4 0
83 85 89 84 86 61 56 54 8 0
83 85 89 84 86 81 76 72 21 0
83 85 89 84 86 50 47 44 6 0
83 85 89 84 86 69 65 63 11 0
83 85 89 84 90 88 87 82 31 0
83 85 89 84 90 88 87 82 53 0
83 85 89 84 90 88 87 82 67 0
83 85 89 84 90 88 87 82 42 0
83 85 89 84 90 88 87 82 68 0
83 85 89 84 90 88 87 82 64 0
83 85 89 84 90 88 87 82 62 0
83 85 89 84 90 88 87 82 13 0
83 85 89 84 90 88 87 31 4 0
83 85 89 84 90 88 87 53 8 0
83 85 89 84 90 88 87 67 21 0
83 85 89 84 90 88 87 42 6 0
83 85 89 84 90 88 87 68 24 0
83 85 89 84 90 88 87 64 18 0
83 85 89 84 90 88 87 62 15 0
83 85 89 84 90 88 82 31 33 0
83 85 89 84 90 88 82 53 54 0
83 85 89 84 90 88 82 67 72 0
83 85 89 84 90 88 82 42 44 0
83 85 89 84 90 88 82 68 74 0
83 85 89 84 90 88 82 64 71 0
83 85 89 84 90 88 82 13 14 0
83 85 89 84 90 88 31 33 4 0
83 85 89 84 90 88 53 54 8 0
83 85 89 84 90 88 67 72 21 0
83 85 89 84 90 88 42 44 6 0
83 85 89 84 90 88 68 74 24 0
83 85 89 84 90 88 64 71 18 0
83 85 89 84 90 87 82 31 34 0
83 85 89 84 90 87 82 53 56 0
83 85 89 84 90 87 82 67 76 0
83 85 89 84 90 87 82 42 47 0
83 85 89 84 90 87 82 68 79 0
83 85 89 84 90 87 82 62 70 0
83 85 89 84 90 87 82 13 19 0
83 85 89 84 90 87 31 34 4 0
83 85 89 84 90 87 53 56 8 0
83 85 89 84 90 87 67 76 21 0
83 85 89 84 90 87 42 47 6 0
83 85 89 84 90 87 68 79 24 0
83 85 89 84 90 87 62 70 15 0
83 85 89 84 90 82 31 34 33 0
83 85 89 84 90 82 53 56 54 0
83 85 89 84 90 82 67 76 72 0
83 85 89 84 90 82 42 47 44 0
83 85 89 84 90 82 68 79 74 0
83 85 89 84 90 82 13 19 14 0
83 85 89 84 90 31 34 33 4 0
83 85 89 84 90 53 56 54 8 0
83 85 89 84 90 67 76 72 21 0
83 85 89 84 90 42 47 44 6 0
83 85 89 84 90 68 79 74 24 0
83 85 89 84 88 87 82 31 38 0
83 85 89 84 88 87 82 53 61 0
83 85 89 84 88 87 82 67 81 0
83 85 89 84 88 87 82 42 50 0
83 85 89 84 88 87 82 64 78 0
83 85 89 84 88 87 82 62 75 0
83 85 89 84 88 87 82 13 23 0
83 85 89 84 88 87 31 38 4 0
83 85 89 84 88 87 53 61 8 0
83 85 89 84 88 87 67 81 21 0
83 85 89 84 88 87 42 50 6 0
83 85 89 84 88 87 64 78 18 0
83 85 89 84 88 87 62 75 15 0
83 85 89 84 88 82 31 38 33 0
83 85 89 84 88 82 53 61 54 0
83 85 89 84 88 82 67 81 72 0
83 85 89 84 88 82 42 50 44 0
83 85 89 84 88 82 64 78 71 0
83 85 89 84 88 82 13 23 14 0
83 85 89 84 88 31 38 33 4 0
83 85 89 84 88 53 61 54 8 0
83 85 89 84 88 67 81 72 21 0
83 85 89 84 88 42 50 44 6 0
83 85 89 84 88 64 78 71 18 0
83 85 89 84 87 82 31 38 34 0
83 85 89 84 87 82 53 61 56 0
83 85 89 84 87 82 67 81 76 0
83 85 89 84 87 82 42 50 47 0
83 85 89 84 87 82 62 75 70 0
83 85 89 84 87 82 13 23 19 0
83 85 89 84 87 31 38 34 4 0
83 85 89 84 87 53 61 56 8 0
83 85 89 84 87 67 81 76 21 0
83 85 89 84 87 42 50 47 6 0
83 85 89 84 87 62 75 70 15 0
83 85 89 84 82 31 38 34 33 0
83 85 89 84 82 53 61 56 54 0
83 85 89 84 82 67 81 76 72 0
83 85 89 84 82 42 50 47 44 0
83 85 89 84 82 13 23 19 14 0
83 85 89 84 31 38 34 33 4 0
83 85 89 84 53 61 56 54 8 0
83 85 89 84 67 81 76 72 21 0
83 85 89 84 42 50 47 44 6 0
83 85 89 86 90 88 87 82 26 0
83 85 89 86 90 88 87 82 41 0
83 85 89 86 90 88 87 82 48 0
83 85 89 86 90 88 87 82 43 0
83 85 89 86 90 88 87 82 51 0
83 85 89 86 90 88 87 82 46 0
83 85 89 86 90 88 87 82 45 0
83 85 89 86 90 88 87 82 5 0
83 85 89 86 90 88 87 26 4 0
83 85 89 86 90 88 87 41 8 0
83 85 89 86 90 88 87 48 21 0
83 85 89 86 90 88 87 43 11 0
83 85 89 86 90 88 87 51 24 0
83 85 89 86 90 88 87 46 18 0
83 85 89 86 90 88 87 45 15 0
83 85 89 86 90 88 82 26 33 0
83 85 89 86 90 88 82 41 54 0
83 85 89 86 90 88 82 48 72 0
83 85 89 86 90 88 82 43 63 0
83 85 89 86 90 88 82 51 74 0
83 85 89 86 90 88 82 46 71 0
83 85 89 86 90 88 82 5 14 0
83 85 89 86 90 88 26 33 4 0
83 85 89 86 90 88 41 54 8 0
83 85 89 86 90 88 48 72 21 0
83 85 89 86 90 88 43 63 11 0
83 85 89 86 90 88 51 74 24 0
83 85 89 86 90 88 46 71 18 0
83 85 89 86 90 87 82 26 34 0
83 85 89 86 90 87 82 41 56 0
83 85 89 86 90 87 82 48 76 0
83 85 89 86 90 87 82 43 65 0
83 85 89 86 90 87 82 51 79 0
83 85 89 86 90 87 82 45 70 0
83 85 89 86 90 87 82 5 19 0
83 85 89 86 90 87 26 34 4 0
83 85 89 86 90 87 41 56 8 0
83 85 89 86 90 87 48 76 21 0
83 85 89 86 90 87 43 65 11 0
83 85 89 86 90 87 51 79 24 0
83 85 89 86 90 87 45 70 15 0
83 85 89 86 90 82 26 34 33 0
83 85 89 86 90 82 41 56 54 0
83 85 89 86 90 82 48 76 72 0
83 85 89 86 90 82 43 65 63 0
83 85 89 86 90 82 51 79 74 0
83 85 89 86 90 82 5 19 14 0
83 85 89 86 90 26 34 33 4 0
83 85 89 86 90 41 56 54 8 0
83 85 89 86 90 48 76 72 21 0
83 85 89 86 90 43 65 63 11 0
83 85 89 86 90 51 79 74 24 0
83 85 89 86 88 87 82 26 38 0
83 85 89 86 88 87 82 41 61 0
83 85 89 86 88 87 82 48 81 0
83 85 89 86 88 87 82 43 69 0
83 85 89 86 88 87 82 46 78 0
83 85 89 86 88 87 82 45 75 0
83 85 89 86 88 87 82 5 23 0
83 85 89 86 88 87 26 38 4 0
83 85 89 86 88 87 41 61 8 0
83 85 89 86 88 87 48 81 21 0
83 85 89 86 88 87 43 69 11 0
83 85 89 86 88 87 46 78 18 0
83 85 89 86 88 87 45 75 15 0
83 85 89 86 88 82 26 38 33 0
83 85 89 86 88 82 41 61 54 0
83 85 89 86 88 82 48 81 72 0
83 85 89 86 88 82 43 69 63 0
83 85 89 86 88 82 46 78 71 0
83 85 89 86 88 82 5 23 14 0
83 85 89 86 88 26 38 33 4 0
83 85 89 86 88 41 61 54 8 0
83 85 89 86 88 48 81 72 21 0
83 85 89 86 88 43 69 63 11 0
83 85 89 86 88 46 78 71 18 0
83 85 89 86 87 82 26 38 34 0
83 85 89 86 87 82 41 61 56 0
83 85 89 86 87 82 48 81 76 0
83 85 89 86 87 82 43 69 65 0
83 85 89 86 87 82 45 75 70 0
83 85 89 86 87 82 5 23 19 0
83 85 89 86 87 26 38 34 4 0
83 85 89 86 87 41 61 56 8 0
83 85 89 86 87 48 81 76 21 0
83 85 89 86 87 43 69 65 11 0
83 85 89 86 87 45 75 70 15 0
83 85 89 86 82 26 38 34 33 0
83 85 89 86 82 41 61 56 54 0
83 85 89 86 82 48 81 76 72 0
83 85 89 86 82 43 69 65 63 0
83 85 89 86 82 5 23 19 14 0
83 85 89 86 26 38 34 33 4 0
83 85 89 86 41 61 56 54 8 0
83 85 89 86 48 81 76 72 21 0
83 85 89 86 43 69 65 63 11 0
83 85 89 90 88 87 82 26 31 0
83 85 89 90 88 87 82 41 53 0
83 85 89 90 88 87 82 48 67 0
83 85 89 90 88 87 82 51 68 0
83 85 89 90 88 87 82 46 64 0
83 85 89 90 88 87 82 45 62 0
83 85 89 90 88 87 82 5 13 0
83 85 89 90 88 87 26 31 4 0
83 85 89 90 88 87 41 53 8 0
83 85 89 90 88 87 48 67 21 0
83 85 89 90 88 87 51 68 24 0
83 85 89 90 88 87 46 64 18 0
83 85 89 90 88 87 45 62 15 0
83 85 89 90 88 82 26 31 33 0
83 85 89 90 88 82 41 53 54 0
83 85 89 90 88 82 48 67 72 0
83 85 89 90 88 82 51 68 74 0
83 85 89 90 88 82 46 64 71 0
83 85 89 90 88 82 5 13 14 0
83 85 89 90 88 26 31 33 4 0
83 85 89 90 88 41 53 54 8 0
83 85 89 90 88 48 67 72 21 0
83 85 89 90 88 51 68 74 24 0
83 85 89 90 88 46 64 71 18 0
83 85 89 90 87 82 26 31 34 0
83 85 89 90 87 82 41 53 56 0
83 85 89 90 87 82 48 67 76 0
83 85 89 90 87 82 51 68 79 0
83 85 89 90 87 82 45 62 70 0
83 85 89 90 87 82 5 13 19 0
83 85 89 90 87 26 31 34 4 0
83 85 89 90 87 41 53 56 8 0
83 85 89 90 87 48 67 76 21 0
83 85 89 90 87 51 68 79 24 0
83 85 89 90 87 45 62 70 15 0
83 85 89 90 82 26 31 34 33 0
83 85 89 90 82 41 53 56 54 0
83 85 89 90 82 48 67 76 72 0
83 85 89 90 82 51 68 79 74 0
83 85 89 90 82 5 13 19 14 0
83 85 89 90 26 31 34 33 4 0
83 85 89 90 41 53 56 54 8 0
83 85 89 90 48 67 76 72 21 0
83 85 89 90 51 68 79 74 24 0
83 85 89 88 87 82 26 31 38 0
83 85 89 88 87 82 41 53 61 0
83 85 89 88 87 82 48 67 81 0
83 85 89 88 87 82 46 64 78 0
83 85 89 88 87 82 45 62 75 0
83 85 89 88 87 82 5 13 23 0
83 85 89 88 87 26 31 38 4 0
83 85 89 88 87 41 53 61 8 0
83 85 89 88 87 48 67 81 21 0
83 85 89 88 87 46 64 78 18 0
83 85 89 88 87 45 62 75 15 0
83 85 89 88 82 26 31 38 33 0
83 85 89 88 82 41 53 61 54 0
83 85 89 88 82 48 67 81 72 0
83 85 89 88 82 46 64 78 71 0
83 85 89 88 82 5 13 23 14 0
83 85 89 88 26 31 38 33 4 0
83 85 89 88 41 53 61 54 8 0
83 85 89 88 48 67 81 72 21 0
83 85 89 88 46 64 78 71 18 0
83 85 89 87 82 26 31 38 34 0
83 85 89 87 82 41 53 61 56 0
83 85 89 87 82 48 67 81 76 0
83 85 89 87 82 45 62 75 70 0
83 85 89 87 82 5 13 23 19 0
83 85 89 87 26 31 38 34 4 0
83 85 89 87 41 53 61 56 8 0
83 85 89 87 48 67 81 76 21 0
83 85 89 87 45 62 75 70 15 0
83 85 89 82 26 31 38 34 33 0
83 85 89 82 41 53 61 56 54 0
83 85 89 82 48 67 81 76 72 0
83 85 89 82 5 13 23 19 14 0
83 85 89 26 31 38 34 33 4 0
83 85 89 41 53 61 56 54 8 0
83 85 89 48 67 81 76 72 21 0
83 85 84 86 90 88 87 82 37 0
83 85 84 86 90 88 87 82 59 0
83 85 84 86 90 88 87 82 49 0
83 85 84 86 90 88 87 82 66 0
83 85 84 86 90 88 87 82 80 0
83 85 84 86 90 88 87 82 77 0
83 85 84 86 90 88 87 82 73 0
83 85 84 86 90 88 87 82 20 0
83 85 84 86 90 88 87 37 4 0
83 85 84 86 90 88 87 59 8 0
83 85 84 86 90 88 87 49 6 0
83 85 84 86 90 88 87 66 11 0
83 85 84 86 90 88 87 80 24 0
83 85 84 86 90 88 87 77 18 0
83 85 84 86 90 88 87 73 15 0
83 85 84 86 90 88 82 37 33 0
83 85 84 86 90 88 82 59 54 0
83 85 84 86 90 88 82 49 44 0
83 85 84 86 90 88 82 66 63 0
83 85 84 86 90 88 82 80 74 0
83 85 84 86 90 88 82 77 71 0
83 85 84 86 90 88 82 20 14 0
83 85 84 86 90 88 37 33 4 0
83 85 84 86 90 88 59 54 8 0
83 85 84 86 90 88 49 44 6 0
83 85 84 86 90 88 66 63 11 0
83 85 84 86 90 88 80 74 24 0
83 85 84 86 90 88 77 71 18 0
83 85 84 86 90 87 82 37 34 0
83 85 84 86 90 87 82 59 56 0
83 85 84 86 90 87 82 49 47 0
83 85 84 86 90 87 82 66 65 0
83 85 84 86 90 87 82 80 79 0
83 85 84 86 90 87 82 73 70 0
83 85 84 86 90 87 82 20 19 0
83 85 84 86 90 87 37 34 4 0
83 85 84 86 90 87 59 56 8 0
83 85 84 86 90 87 49 47 6 0
83 85 84 86 90 87 66 65 11 0
83 85 84 86 90 87 80 79 24 0
83 85 84 86 90 87 73 70 15 0
83 85 84 86 90 82 37 34 33 0
83 85 84 86 90 82 59 56 54 0
83 85 84 86 90 82 49 47 44 0
83 85 84 86 90 82 66 65 63 0
83 85 84 86 90 82 80 79 74 0
83 85 84 86 90 82 20 19 14 0
83 85 84 86 90 37 34 33 4 0
83 85 84 86 90 59 56 54 8 0
83 85 84 86 90 49 47 44 6 0
83 85 84 86 90 66 65 63 11 0
83 85 84 86 90 80 79 74 24 0
83 85 84 86 88 87 82 37 38 0
83 85 84 86 88 87 82 59 61 0
83 85 84 86 88 87 82 49 50 0
83 85 84 86 88 87 82 66 69 0
83 85 84 86 88 87 82 77 78 0
83 85 84 86 88 87 82 73 75 0
83 85 84 86 88 87 82 20 23 0
83 85 84 86 88 87 37 38 4 0
83 85 84 86 88 87 59 61 8 0
83 85 84 86 88 87 49 50 6 0
83 85 84 86 88 87 66 69 11 0
83 85 84 86 88 87 77 78 18 0
83 85 84 86 88 87 73 75 15 0
83 85 84 86 88 82 37 38 33 0
83 85 84 86 88 82 59 61 54 0
83 85 84 86 88 82 49 50 44 0
83 85 84 86 88 82 66 69 63 0
83 85 84 86 88 82 77 78 71 0
83 85 84 86 88 82 20 23 14 0
83 85 84 86 88 37 38 33 4 0
83 85 84 86 88 59 61 54 8 0
83 85 84 86 88 49 50 44 6 0
83 85 84 86 88 66 69 63 11 0
83 85 84 86 88 77 78 71 18 0
83 85 84 86 87 82 37 38 34 0
83 85 84 86 87 82 59 61 56 0
83 85 84 86 87 82 49 50 47 0
83 85 84 86 87 82 66 69 65 0
83 85 84 86 87 82 73 75 70 0
83 85 84 86 87 82 20 23 19 0
83 85 84 86 87 37 38 34 4 0
83 85 84 86 87 59 61 56 8 0
83 85 84 86 87 49 50 47 6 0
83 85 84 86 87 66 69 65 11 0
83 85 84 86 87 73 75 70 15 0
83 85 84 86 82 37 38 34 33 0
83 85 84 86 82 59 61 56 54 0
83 85 84 86 82 49 50 47 44 0
83 85 84 86 82 66 69 65 63 0
83 85 84 86 82 20 23 19 14 0
83 85 84 86 37 38 34 33 4 0
83 85 84 86 59 61 56 54 8 0
83 85 84 86 49 50 47 44 6 0
83 85 84 86 66 69 65 63 11 0
83 85 84 90 88 87 82 37 31 0
83 85 84 90 88 87 82 59 53 0
83 85 84 90 88 87 82 49 42 0
83 85 84 90 88 87 82 80 68 0
83 85 84 90 88 87 82 77 64 0
83 85 84 90 88 87 82 73 62 0
83 85 84 90 88 87 82 20 13 0
83 85 84 90 88 87 37 31 4 0
83 85 84 90 88 87 59 53 8 0
83 85 84 90 88 87 49 42 6 0
83 85 84 90 88 87 80 68 24 0
83 85 84 90 88 87 77 64 18 0
83 85 84 90 88 87 73 62 15 0
83 85 84 90 88 82 37 31 33 0
83 85 84 90 88 82 59 53 54 0
83 85 84 90 88 82 49 42 44 0
83 85 84 90 88 82 80 68 74 0
83 85 84 90 88 82 77 64 71 0
83 85 84 90 88 82 20 13 14 0
83 85 84 90 88 37 31 33 4 0
83 85 84 90 88 59 53 54 8 0
83 85 84 90 88 49 42 44 6 0
83 85 84 90 88 80 68 74 24 0
83 85 84 90 88 77 64 71 18 0
83 85 84 90 87 82 37 31 34 0
83 85 84 90 87 82 59 53 56 0
83 85 84 90 87 82 49 42 47 0
83 85 84 90 87 82 80 68 79 0
83 85 84 90 87 82 73 62 70 0
83 85 84 90 87 82 20 13 19 0
83 85 84 90 87 37 31 34 4 0
83 85 84 90 87 59 53 56 8 0
83 85 84 90 87 49 42 47 6 0
83 85 84 90 87 80 68 79 24 0
83 85 84 90 87 73 62 70 15 0
83 85 84 90 82 37 31 34 33 0
83 85 84 90 82 59 53 56 54 0
83 85 84 90 82 49 42 47 44 0
83 85 84 90 82 80 68 79 74 0
83 85 84 90 82 20 13 19 14 0
83 85 84 90 37 31 34 33 4 0
83 85 84 90 59 53 56 54 8 0
83 85 84 90 49 42 47 44 6 0
83 85 84 90 80 68 79 74 24 0
83 85 84 88 87 82 37 31 38 0
83 85 84 88 87 82 59 53 61 0
83 85 84 88 87 82 49 42 50 0
83 85 84 88 87 82 77 64 78 0
83 85 84 88 87 82 73 62 75 0
83 85 84 88 87 82 20 13 23 0
83 85 84 88 87 37 31 38 4 0
83 85 84 88 87 59 53 61 8 0
83 85 84 88 87 49 42 50 6 0
83 85 84 88 87 77 64 78 18 0
83 85 84 88 87 73 62 75 15 0
83 85 84 88 82 37 31 38 33 0
83 85 84 88 82 59 53 61 54 0
83 85 84 88 82 49 42 50 44 0
83 85 84 88 82 77 64 78 71 0
83 85 84 88 82 20 13 23 14 0
83 85 84 88 37 31 38 33 4 0
83 85 84 88 59 53 61 54 8 0
83 85 84 88 49 42 50 44 6 0
83 85 84 88 77 64 78 71 18 0
83 85 84 87 82 37 31 38 34 0
83 85 84 87 82 59 53 61 56 0
83 85 84 87 82 49 42 50 47 0
83 85 84 87 82 73 62 75 70 0
83 85 84 87 82 20 13 23 19 0
83 85 84 87 37 31 38 34 4 0
83 85 84 87 59 53 61 56 8 0
83 85 84 87 49 42 50 47 6 0
83 85 84 87 73 62 75 70 15 0
83 85 84 82 37 31 38 34 33 0
83 85 84 82 59 53 61 56 54 0
83 85 84 82 49 42 50 47 44 0
83 85 84 82 20 13 23 19 14 0
83 85 84 37 31 38 34 33 4 0
83 85 84 59 53 61 56 54 8 0
83 85 84 49 42 50 47 44 6 0
83 85 86 90 88 87 82 37 26 0
83 85 86 90 88 87 82 59 41 0
83 85 86 90 88 87 82 66 43 0
83 85 86 90 88 87 82 80 51 0
83 85 86 90 88 87 82 77 46 0
83 85 86 90 88 87 82 73 45 0
83 85 86 90 88 87 82 20 5 0
83 85 86 90 88 87 37 26 4 0
83 85 86 90 88 87 59 41 8 0
83 85 86 90 88 87 66 43 11 0
83 85 86 90 88 87 80 51 24 0
83 85 86 90 88 87 77 46 18 0
83 85 86 90 88 87 73 45 15 0
83 85 86 90 88 82 37 26 33 0
83 85 86 90 88 82 59 41 54 0
83 85 86 90 88 82 66 43 63 0
83 85 86 90 88 82 80 51 74 0
83 85 86 90 88 82 77 46 71 0
83 85 86 90 88 82 20 5 14 0
83 85 86 90 88 37 26 33 4 0
83 85 86 90 88 59 41 54 8 0
83 85 86 90 88 66 43 63 11 0
83 85 86 90 88 80 51 74 24 0
83 85 86 90 88 77 46 71 18 0
83 85 86 90 87 82 37 26 34 0
83 85 86 90 87 82 59 41 56 0
83 85 86 90 87 82 66 43 65 0
83 85 86 90 87 82 80 51 79 0
83 85 86 90 87 82 73 45 70 0
83 85 86 90 87 82 20 5 19 0
83 85 86 90 87 37 26 34 4 0
83 85 86 90 87 59 41 56 8 0
83 85 86 90 87 66 43 65 11 0
83 85 86 90 87 80 51 79 24 0
83 85 86 90 87 73 45 70 15 0
83 85 86 90 82 37 26 34 33 0
83 85 86 90 82 59 41 56 54 0
83 85 86 90 82 66 43 65 63 0
83 85 86 90 82 80 51 79 74 0
83 85 86 90 82 20 5 19 14 0
83 85 86 90 37 26 34 33 4 0
83 85 86 90 59 41 56 54 8 0
83 85 86 90 66 43 65 63 11 0
83 85 86 90 80 51 79 74 24 0
83 85 86 88 87 82 37 26 38 0
83 85 86 88 87 82 59 41 61 0
83 85 86 88 87 82 66 43 69 0
83 85 86 88 87 82 77 46 78 0
83 85 86 88 87 82 73 45 75 0
83 85 86 88 87 82 20 5 23 0
83 85 86 88 87 37 26 38 4 0
83 85 86 88 87 59 41 61 8 0
83 85 86 88 87 66 43 69 11 0
83 85 86 88 87 77 46 78 18 0
83 85 86 88 87 73 45 75 15 0
83 85 86 88 82 37 26 38 33 0
83 85 86 88 82 59 41 61 54 0
83 85 86 88 82 66 43 69 63 0
83 85 86 88 82 77 46 78 71 0
83 85 86 88 82 20 5 23 14 0
83 85 86 88 37 26 38 33 4 0
83 85 86 88 59 41 61 54 8 0
83 85 86 88 66 43 69 63 11 0
83 85 86 88 77 46 78 71 18 0
83 85 86 87 82 37 26 38 34 0
83 85 86 87 82 59 41 61 56 0
83 85 86 87 82 66 43 69 65 0
83 85 86 87 82 73 45 75 70 0
83 85 86 87 82 20 5 23 19 0
83 85 86 87 37 26 38 34 4 0
83 85 86 87 59 41 61 56 8 0
83 85 86 87 66 43 69 65 11 0
83 85 86 87 73 45 75 70 15 0
83 85 86 82 37 26 38 34 33 0
83 85 86 82 59 41 61 56 54 0
83 85 86 82 66 43 69 65 63 0
83 85 86 82 20 5 23 19 14 0
83 85 86 37 26 38 34 33 4 0
83 85 86 59 41 61 56 54 8 0
83 85 86 66 43 69 65 63 11 0
83 85 90 88 87 82 37 26 31 0
83 85 90 88 87 82 59 41 53 0
83 85 90 88 87 82 80 51 68 0
83 85 90 88 87 82 77 46 64 0
83 85 90 88 87 82 73 45 62 0
83 85 90 88 87 82 20 5 13 0
83 85 90 88 87 37 26 31 4 0
83 85 90 88 87 59 41 53 8 0
83 85 90 88 87 80 51 68 24 0
83 85 90 88 87 77 46 64 18 0
83 85 90 88 87 73 45 62 15 0
83 85 90 88 82 37 26 31 33 0
83 85 90 88 82 59 41 53 54 0
83 85 90 88 82 80 51 68 74 0
83 85 90 88 82 77 46 64 71 0
83 85 90 88 82 20 5 13 14 0
83 85 90 88 37 26 31 33 4 0
83 85 90 88 59 41 53 54 8 0
83 85 90 88 80 51 68 74 24 0
83 85 90 88 77 46 64 71 18 0
83 85 90 87 82 37 26 31 34 0
83 85 90 87 82 59 41 53 56 0
83 85 90 87 82 80 51 68 79 0
83 85 90 87 82 73 45 62 70 0
83 85 90 87 82 20 5 13 19 0
83 85 90 87 37 26 31 34 4 0
83 85 90 87 59 41 53 56 8 0
83 85 90 87 80 51 68 79 24 0
83 85 90 87 73 45 62 70 15 0
83 85 90 82 37 26 31 34 33 0
83 85 90 82 59 41 53 56 54 0
83 85 90 82 80 51 68 79 74 0
83 85 90 82 20 5 13 19 14 0
83 85 90 37 26 31 34 33 4 0
83 85 90 59 41 53 56 54 8 0
83 85 90 80 51 68 79 74 24 0
83 85 88 87 82 37 26 31 38 0
83 85 88 87 82 59 41 53 61 0
83 85 88 87 82 77 46 64 78 0
83 85 88 87 82 73 45 62 75 0
83 85 88 87 82 20 5 13 23 0
83 85 88 87 37 26 31 38 4 0
83 85 88 87 59 41 53 61 8 0
83 85 88 87 77 46 64 78 18 0
83 85 88 87 73 45 62 75 15 0
83 85 88 82 37 26 31 38 33 0
83 85 88 82 59 41 53 61 54 0
83 85 88 82 77 46 64 78 71 0
83 85 88 82 20 5 13 23 14 0
83 85 88 37 26 31 38 33 4 0
83 85 88 59 41 53 61 54 8 0
83 85 88 77 46 64 78 71 18 0
83 85 87 82 37 26 31 38 34 0
83 85 87 82 59 41 53 61 56 0
83 85 87 82 73 45 62 75 70 0
83 85 87 82 20 5 13 23 19 0
83 85 87 37 26 31 38 34 4 0
83 85 87 59 41 53 61 56 8 0
83 85 87 73 45 62 75 70 15 0
83 85 82 37 26 31 38 34 33 0
83 85 82 59 41 53 61 56 54 0
83 85 82 20 5 13 23 19 14 0
83 85 37 26 31 38 34 33 4 0
83 85 59 41 53 61 56 54 8 0
83 89 84 86 90 88 87 82 29 0
83 89 84 86 90 88 87 82 58 0
83 89 84 86 90 88 87 82 40 0
83 89 84 86 90 88 87 82 52 0
83 89 84 86 90 88 87 82 60 0
83 89 84 86 90 88 87 82 57 0
83 89 84 86 90 88 87 82 55 0
83 89 84 86 90 88 87 82 9 0
83 89 84 86 90 88 87 29 4 0
83 89 84 86 90 88 87 58 21 0
83 89 84 86 90 88 87 40 6 0
83 89 84 86 90 88 87 52 11 0
83 89 84 86 90 88 87 60 24 0
83 89 84 86 90 88 87 57 18 0
83 89 84 86 90 88 87 55 15 0
83 89 84 86 90 88 82 29 33 0
83 89 84 86 90 88 82 58 72 0
83 89 84 86 90 88 82 40 44 0
83 89 84 86 90 88 82 52 63 0
83 89 84 86 90 88 82 60 74 0
83 89 84 86 90 88 82 57 71 0
83 89 84 86 90 88 82 9 14 0
83 89 84 86 90 88 29 33 4 0
83 89 84 86 90 88 58 72 21 0
83 89 84 86 90 88 40 44 6 0
83 89 84 86 90 88 52 63 11 0
83 89 84 86 90 88 60 74 24 0
83 89 84 86 90 88 57 71 18 0
83 89 84 86 90 87 82 29 34 0
83 89 84 86 90 87 82 58 76 0
83 89 84 86 90 87 82 40 47 0
83 89 84 86 90 87 82 52 65 0
83 89 84 86 90 87 82 60 79 0
83 89 84 86 90 87 82 55 70 0
83 89 84 86 90 87 82 9 19 0
83 89 84 86 90 87 29 34 4 0
83 89 84 86 90 87 58 76 21 0
83 89 84 86 90 87 40 47 6 0
83 89 84 86 90 87 52 65 11 0
83 89 84 86 90 87 60 79 24 0
83 89 84 86 90 87 55 70 15 0
83 89 84 86 90 82 29 34 33 0
83 89 84 86 90 82 58 76 72 0
83 89 84 86 90 82 40 47 44 0
83 89 84 86 90 82 52 65 63 0
83 89 84 86 90 82 60 79 74 0
83 89 84 86 90 82 9 19 14 0
83 89 84 86 90 29 34 33 4 0
83 89 84 86 90 58 76 72 21 0
83 89 84 86 90 40 47 44 6 0
83 89 84 86 90 52 65 63 11 0
83 89 84 86 90 60 79 74 24 0
83 89 84 86 88 87 82 29 38 0
83 89 84 86 88 87 82 58 81 0
83 89 84 86 88 87 82 40 50 0
83 89 84 86 88 87 82 52 69 0
83 89 84 86 88 87 82 57 78 0
83 89 84 86 88 87 82 55 75 0
83 89 84 86 88 87 82 9 23 0
83 89 84 86 88 87 29 38 4 0
83 89 84 86 88 87 58 81 21 0
83 89 84 86 88 87 40 50 6 0
83 89 84 86 88 87 52 69 11 0
83 89 84 86 88 87 57 78 18 0
83 89 84 86 88 87 55 75 15 0
83 89 84 86 88 82 29 38 33 0
83 89 84 86 88 82 58 81 72 0
83 89 84 86 88 82 40 50 44 0
83 89 84 86 88 82 52 69 63 0
83 89 84 86 88 82 57 78 71 0
83 89 84 86 88 82 9 23 14 0
83 89 84 86 88 29 38 33 4 0
83 89 84 86 88 58 81 72 21 0
83 89 84 86 88 40 50 44 6 0
83 89 84 86 88 52 69 63 11 0
83 89 84 86 88 57 78 71 18 0
83 89 84 86 87 82 29 38 34 0
83 89 84 86 87 82 58 81 76 0
83 89 84 86 87 82 40 50 47 0
83 89 84 86 87 82 52 69 65 0
83 89 84 86 87 82 55 75 70 0
83 89 84 86 87 82 9 23 19 0
83 89 84 86 87 29 38 34 4 0
83 89 84 86 87 58 81 76 21 0
83 89 84 86 87 40 50 47 6 0
83 89 84 86 87 52 69 65 11 0
83 89 84 86 87 55 75 70 15 0
83 89 84 86 82 29 38 34 33 0
83 89 84 86 82 58 81 76 72 0
83 89 84 86 82 40 50 47 44 0
83 89 84 86 82 52 69 65 63 0
83 89 84 86 82 9 23 19 14 0
83 89 84 86 29 38 34 33 4 0
83 89 84 86 58 81 76 72 21 0
83 89 84 86 40 50 47 44 6 0
83 89 84 86 52 69 65 63 11 0
83 89 84 90 88 87 82 29 31 0
83 89 84 90 88 87 82 58 67 0
83 89 84 90 88 87 82 40 42 0
83 89 84 90 88 87 82 60 68 0
83 89 84 90 88 87 82 57 64 0
83 89 84 90 88 87 82 55 62 0
83 89 84 90 88 87 82 9 13 0
83 89 84 90 88 87 29 31 4 0
83 89 84 90 88 87 58 67 21 0
83 89 84 90 88 87 40 42 6 0
83 89 84 90 88 87 60 68 24 0
83 89 84 90 88 87 57 64 18 0
83 89 84 90 88 87 55 62 15 0
83 89 84 90 88 82 29 31 33 0
83 89 84 90 88 82 58 67 72 0
83 89 84 90 88 82 40 42 44 0
83 89 84 90 88 82 60 68 74 0
83 89 84 90 88 82 57 64 71 0
83 89 84 90 88 82 9 13 14 0
83 89 84 90 88 29 31 33 4 0
83 89 84 90 88 58 67 72 21 0
83 89 84 90 88 40 42 44 6 0
83 89 84 90 88 60 68 74 24 0
83 89 84 90 88 57 64 71 18 0
83 89 84 90 87 82 29 31 34 0
83 89 84 90 87 82 58 67 76 0
83 89 84 90 87 82 40 42 47 0
83 89 84 90 87 82 60 68 79 0
83 89 84 90 87 82 55 62 70 0
83 89 84 90 87 82 9 13 19 0
83 89 84 90 87 29 31 34 4 0
83 89 84 90 87 58 67 76 21 0
83 89 84 90 87 40 42 47 6 0
83 89 84 90 87 60 68 79 24 0
83 89 84 90 87 55 62 70 15 0
83 89 84 90 82 29 31 34 33 0
83 89 84 90 82 58 67 76 72 0
83 89 84 90 82 40 42 47 44 0
83 89 84 90 82 60 68 79 74 0
83 89 84 90 82 9 13 19 14 0
83 89 84 90 29 31 34 33 4 0
83 89 84 90 58 67 76 72 21 0
83 89 84 90 40 42 47 44 6 0
83 89 84 90 60 68 79 74 24 0
83 89 84 88 87 82 29 31 38 0
83 89 84 88 87 82 58 67 81 0
83 89 84 88 87 82 40 42 50 0
83 89 84 88 87 82 57 64 78 0
83 89 84 88 87 82 55 62 75 0
83 89 84 88 87 82 9 13 23 0
83 89 84 88 87 29 31 38 4 0
83 89 84 88 87 58 67 81 21 0
83 89 84 88 87 40 42 50 6 0
83 89 84 88 87 57 64 78 18 0
83 89 84 88 87 55 62 75 15 0
83 89 84 88 82 29 31 38 33 0
83 89 84 88 82 58 67 81 72 0
83 89 84 88 82 40 42 50 44 0
83 89 84 88 82 57 64 78 71 0
83 89 84 88 82 9 13 23 14 0
83 89 84 88 29 31 38 33 4 0
83 89 84 88 58 67 81 72 21 0
83 89 84 88 40 42 50 44 6 0
83 89 84 88 57 64 78 71 18 0
83 89 84 87 82 29 31 38 34 0
83 89 84 87 82 58 67 81 76 0
83 89 84 87 82 40 42 50 47 0
83 89 84 87 82 55 62 75 70 0
83 89 84 87 82 9 13 23 19 0
83 89 84 87 29 31 38 34 4 0
83 89 84 87 58 67 81 76 21 0
83 89 84 87 40 42 50 47 6 0
83 89 84 87 55 62 75 70 15 0
83 89 84 82 29 31 38 34 33 0
83 89 84 82 58 67 81 76 72 0
83 89 84 82 40 42 50 47 44 0
83 89 84 82 9 13 23 19 14 0
83 89 84 29 31 38 34 33 4 0
83 89 84 58 67 81 76 72 21 0
83 89 84 40 42 50 47 44 6 0
83 89 86 90 88 87 82 29 26 0
83 89 86 90 88 87 82 58 48 0
83 89 86 90 88 87 82 52 43 0
83 89 86 90 88 87 82 60 51 0
83 89 86 90 88 87 82 57 46 0
83 89 86 90 88 87 82 55 45 0
83 89 86 90 88 87 82 9 5 0
83 89 86 90 88 87 29 26 4 0
83 89 86 90 88 87 58 48 21 0
83 89 86 90 88 87 52 43 11 0
83 89 86 90 88 87 60 51 24 0
83 89 86 90 88 87 57 46 18 0
83 89 86 90 88 87 55 45 15 0
83 89 86 90 88 82 29 26 33 0
83 89 86 90 88 82 58 48 72 0
83 89 86 90 88 82 52 43 63 0
83 89 86 90 88 82 60 51 74 0
83 89 86 90 88 82 57 46 71 0
83 89 86 90 88 82 9 5 14 0
83 89 86 90 88 29 26 33 4 0
83 89 86 90 88 58 48 72 21 0
83 89 86 90 88 52 43 63 11 0
83 89 86 90 88 60 51 74 24 0
83 89 86 90 88 57 46 71 18 0
83 89 86 90 87 82 29 26 34 0
83 89 86 90 87 82 58 48 76 0
83 89 86 90 87 82 52 43 65 0
83 89 86 90 87 82 60 51 79 0
83 89 86 90 87 82 55 45 70 0
83 89 86 90 87 82 9 5 19 0
83 89 86 90 87 29 26 34 4 0
83 89 86 90 87 58 48 76 21 0
83 89 86 90 87 52 43 65 11 0
83 89 86 90 87 60 51 79 24 0
83 89 86 90 87 55 45 70 15 0
83 89 86 90 82 29 26 34 33 0
83 89 86 90 82 58 48 76 72 0
83 89 86 90 82 52 43 65 63 0
83 89 86 90 82 60 51 79 74 0
83 89 86 90 82 9 5 19 14 0
83 89 86 90 29 26 34 33 4 0
83 89 86 90 58 48 76 72 21 0
83 89 86 90 52 43 65 63 11 0
83 89 86 90 60 51 79 74 24 0
83 89 86 88 87 82 29 26 38 0
83 89 86 88 87 82 58 48 81 0
83 89 86 88 87 82 52 43 69 0
83 89 86 88 87 82 57 46 78 0
83 89 86 88 87 82 55 45 75 0
83 89 86 88 87 82 9 5 23 0
83 89 86 88 87 29 26 38 4 0
83 89 86 88 87 58 48 81 21 0
83 89 86 88 87 52 43 69 11 0
83 89 86 88 87 57 46 78 18 0
83 89 86 88 87 55 45 75 15 0
83 89 86 88 82 29 26 38 33 0
83 89 86 88 82 58 48 81 72 0
83 89 86 88 82 52 43 69 63 0
83 89 86 88 82 57 46 78 71 0
83 89 86 88 82 9 5 23 14 0
83 89 86 88 29 26 38 33 4 0
83 89 86 88 58 48 81 72 21 0
83 89 86 88 52 43 69 63 11 0
83 89 86 88 57 46 78 71 18 0
83 89 86 87 82 29 26 38 34 0
83 89 86 87 82 58 48 81 76 0
83 89 86 87 82 52 43 69 65 0
83 89 86 87 82 55 45 75 70 0
83 89 86 87 82 9 5 23 19 0
83 89 86 87 29 26 38 34 4 0
83 89 86 87 58 48 81 76 21 0
83 89 86 87 52 43 69 65 11 0
83 89 86 87 55 45 75 70 15 0
83 89 86 82 29 26 38 34 33 0
83 89 86 82 58 48 81 76 72 0
83 89 86 82 52 43 69 65 63 0
83 89 86 82 9 5 23 19 14 0
83 89 86 29 26 38 34 33 4 0
83 89 86 58 48 81 76 72 21 0
83 89 86 52 43 69 65 63 11 0
83 89 90 88 87 82 29 26 31 0
83 89 90 88 87 82 58 48 67 0
83 89 90 88 87 82 60 51 68 0
83 89 90 88 87 82 57 46 64 0
83 89 90 88 87 82 55 45 62 0
83 89 90 88 87 82 9 5 13 0
83 89 90 88 87 29 26 31 4 0
83 89 90 88 87 58 48 67 21 0
83 89 90 88 87 60 51 68 24 0
83 89 90 88 87 57 46 64 18 0
83 89 90 88 87 55 45 62 15 0
83 89 90 88 82 29 26 31 33 0
83 89 90 88 82 58 48 67 72 0
83 89 90 88 82 60 51 68 74 0
83 89 90 88 82 57 46 64 71 0
83 89 90 88 82 9 5 13 14 0
83 89 90 88 29 26 31 33 4 0
83 89 90 88 58 48 67 72 21 0
83 89 90 88 60 51 68 74 24 0
83 89 90 88 57 46 64 71 18 0
83 89 90 87 82 29 26 31 34 0
83 89 90 87 82 58 48 67 76 0
83 89 90 87 82 60 51 68 79 0
83 89 90 87 82 55 45 62 70 0
83 89 90 87 82 9 5 13 19 0
83 89 90 87 29 26 31 34 4 0
83 89 90 87 58 48 67 76 21 0
83 89 90 87 60 51 68 79 24 0
83 89 90 87 55 45 62 70 15 0
83 89 90 82 29 26 31 34 33 0
83 89 90 82 58 48 67 76 72 0
83 89 90 82 60 51 68 79 74 0
83 89 90 82 9 5 13 19 14 0
83 89 90 29 26 31 34 33 4 0
83 89 90 58 48 67 76 72 21 0
83 89 90 60 51 68 79 74 24 0
83 89 88 87 82 29 26 31 38 0
83 89 88 87 82 58 48 67 81 0
83 89 88 87 82 57 46 64 78 0
83 89 88 87 82 55 45 62 75 0
83 89 88 87 82 9 5 13 23 0
83 89 88 87 29 26 31 38 4 0
83 89 88 87 58 48 67 81 21 0
83 89 88 87 57 46 64 78 18 0
83 89 88 87 55 45 62 75 15 0
83 89 88 82 29 26 31 38 33 0
83 89 88 82 58 48 67 81 72 0
83 89 88 82 57 46 64 78 71 0
83 89 88 82 9 5 13 23 14 0
83 89 88 29 26 31 38 33 4 0
83 89 88 58 48 67 81 72 21 0
83 89 88 57 46 64 78 71 18 0
83 89 87 82 29 26 31 38 34 0
83 89 87 82 58 48 67 81 76 0
83 89 87 82 55 45 62 75 70 0
83 89 87 82 9 5 13 23 19 0
83 89 87 29 26 31 38 34 4 0
83 89 87 58 48 67 81 76 21 0
83 89 87 55 45 62 75 70 15 0
83 89 82 29 26 31 38 34 33 0
83 89 82 58 48 67 81 76 72 0
83 89 82 9 5 13 23 19 14 0
83 89 29 26 31 38 34 33 4 0
83 89 58 48 67 81 76 72 21 0
83 84 86 90 88 87 82 29 37 0
83 84 86 90 88 87 82 40 49 0
83 84 86 90 88 87 82 52 66 0
83 84 86 90 88 87 82 60 80 0
83 84 86 90 88 87 82 57 77 0
83 84 86 90 88 87 82 55 73 0
83 84 86 90 88 87 82 9 20 0
83 84 86 90 88 87 29 37 4 0
83 84 86 90 88 87 40 49 6 0
83 84 86 90 88 87 52 66 11 0
83 84 86 90 88 87 60 80 24 0
83 84 86 90 88 87 57 77 18 0
83 84 86 90 88 87 55 73 15 0
83 84 86 90 88 82 29 37 33 0
83 84 86 90 88 82 40 49 44 0
83 84 86 90 88 82 52 66 63 0
83 84 86 90 88 82 60 80 74 0
83 84 86 90 88 82 57 77 71 0
83 84 86 90 88 82 9 20 14 0
83 84 86 90 88 29 37 33 4 0
83 84 86 90 88 40 49 44 6 0
83 84 86 90 88 52 66 63 11 0
83 84 86 90 88 60 80 74 24 0
83 84 86 90 88 57 77 71 18 0
83 84 86 90 87 82 29 37 34 0
83 84 86 90 87 82 40 49 47 0
83 84 86 90 87 82 52 66 65 0
83 84 86 90 87 82 60 80 79 0
83 84 86 90 87 82 55 73 70 0
83 84 86 90 87 82 9 20 19 0
83 84 86 90 87 29 37 34 4 0
83 84 86 90 87 40 49 47 6 0
83 84 86 90 87 52 66 65 11 0
83 84 86 90 87 60 80 79 24 0
83 84 86 90 87 55 73 70 15 0
83 84 86 90 82 29 37 34 33 0
83 84 86 90 82 40 49 47 44 0
83 84 86 90 82 52 66 65 63 0
83 84 86 90 82 60 80 79 74 0
83 84 86 90 82 9 20 19 14 0
83 84 86 90 29 37 34 33 4 0
83 84 86 90 40 49 47 44 6 0
83 84 86 90 52 66 65 63 11 0
83 84 86 90 60 80 79 74 24 0
83 84 86 88 87 82 29 37 38 0
83 84 86 88 87 82 40 49 50 0
83 84 86 88 87 82 52 66 69 0
83 84 86 88 87 82 57 77 78 0
83 84 86 88 87 82 55 73 75 0
83 84 86 88 87 82 9 20 23 0
83 84 86 88 87 29 37 38 4 0
83 84 86 88 87 40 49 50 6 0
83 84 86 88 87 52 66 69 11 0
83 84 86 88 87 57 77 78 18 0
83 84 86 88 87 55 73 75 15 0
83 84 86 88 82 29 37 38 33 0
83 84 86 88 82 40 49 50 44 0
83 84 86 88 82 52 66 69 63 0
83 84 86 88 82 57 77 78 71 0
83 84 86 88 82 9 20 23 14 0
83 84 86 88 29 37 38 33 4 0
83 84 86 88 40 49 50 44 6 0
83 84 86 88 52 66 69 63 11 0
83 84 86 88 57 77 78 71 18 0
83 84 86 87 82 29 37 38 34 0
83 84 86 87 82 40 49 50 47 0
83 84 86 87 82 52 66 69 65 0
83 84 86 87 82 55 73 75 70 0
83 84 86 87 82 9 20 23 19 0
83 84 86 87 29 37 38 34 4 0
83 84 86 87 40 49 50 47 6 0
83 84 86 87 52 66 69 65 11 0
83 84 86 87 55 73 75 70 15 0
83 84 86 82 29 37 38 34 33 0
83 84 86 82 40 49 50 47 44 0
83 84 86 82 52 66 69 65 63 0
83 84 86 82 9 20 23 19 14 0
83 84 86 29 37 38 34 33 4 0
83 84 86 40 49 50 47 44 6 0
83 84 86 52 66 69 65 63 11 0
83 84 90 88 87 82 29 37 31 0
83 84 90 88 87 82 40 49 42 0
83 84 90 88 87 82 60 80 68 0
83 84 90 88 87 82 57 77 64 0
83 84 90 88 87 82 55 73 62 0
83 84 90 88 87 82 9 20 13 0
83 84 90 88 87 29 37 31 4 0
83 84 90 88 87 40 49 42 6 0
83 84 90 88 87 60 80 68 24 0
83 84 90 88 87 57 77 64 18 0
83 84 90 88 87 55 73 62 15 0
83 84 90 88 82 29 37 31 33 0
83 84 90 88 82 40 49 42 44 0
83 84 90 88 82 60 80 68 74 0
83 84 90 88 82 57 77 64 71 0
83 84 90 88 82 9 20 13 14 0
83 84 90 88 29 37 31 33 4 0
83 84 90 88 40 49 42 44 6 0
83 84 90 88 60 80 68 74 24 0
83 84 90 88 57 77 64 71 18 0
83 84 90 87 82 29 37 31 34 0
83 84 90 87 82 40 49 42 47 0
83 84 90 87 82 60 80 68 79 0
83 84 90 87 82 55 73 62 70 0
83 84 90 87 82 9 20 13 19 0
83 84 90 87 29 37 31 34 4 0
83 84 90 87 40 49 42 47 6 0
83 84 90 87 60 80 68 79 24 0
83 84 90 87 55 73 62 70 15 0
83 84 90 82 29 37 31 34 33 0
83 84 90 82 40 49 42 47 44 0
83 84 90 82 60 80 68 79 74 0
83 84 90 82 9 20 13 19 14 0
83 84 90 29 37 31 34 33 4 0
83 84 90 40 49 42 47 44 6 0
83 84 90 60 80 68 79 74 24 0
83 84 88 87 82 29 37 31 38 0
83 84 88 87 82 40 49 42 50 0
83 84 88 87 82 57 77 64 78 0
83 84 88 87 82 55 73 62 75 0
83 84 88 87 82 9 20 13 23 0
83 84 88 87 29 37 31 38 4 0
83 84 88 87 40 49 42 50 6 0
83 84 88 87 57 77 64 78 18 0
83 84 88 87 55 73 62 75 15 0
83 84 88 82 29 37 31 38 33 0
83 84 88 82 40 49 42 50 44 0
83 84 88 82 57 77 64 78 71 0
83 84 88 82 9 20 13 23 14 0
83 84 88 29 37 31 38 33 4 0
83 84 88 40 49 42 50 44 6 0
83 84 88 57 77 64 78 71 18 0
83 84 87 82 29 37 31 38 34 0
83 84 87 82 40 49 42 50 47 0
83 84 87 82 55 73 62 75 70 0
83 84 87 82 9 20 13 23 19 0
83 84 87 29 37 31 38 34 4 0
83 84 87 40 49 42 50 47 6 0
83 84 87 55 73 62 75 70 15 0
83 84 82 29 37 31 38 34 33 0
83 84 82 40 49 42 50 47 44 0
83 84 82 9 20 13 23 19 14 0
83 84 29 37 31 38 34 33 4 0
83 84 40 49 42 50 47 44 6 0
83 86 90 88 87 82 29 37 26 0
83 86 90 88 87 82 52 66 43 0
83 86 90 88 87 82 60 80 51 0
83 86 90 88 87 82 57 77 46 0
83 86 90 88 87 82 55 73 45 0
83 86 90 88 87 82 9 20 5 0
83 86 90 88 87 29 37 26 4 0
83 86 90 88 87 52 66 43 11 0
83 86 90 88 87 60 80 51 24 0
83 86 90 88 87 57 77 46 18 0
83 86 90 88 87 55 73 45 15 0
83 86 90 88 82 29 37 26 33 0
83 86 90 88 82 52 66 43 63 0
83 86 90 88 82 60 80 51 74 0
83 86 90 88 82 57 77 46 71 0
83 86 90 88 82 9 20 5 14 0
83 86 90 88 29 37 26 33 4 0
83 86 90 88 52 66 43 63 11 0
83 86 90 88 60 80 51 74 24 0
83 86 90 88 57 77 46 71 18 0
83 86 90 87 82 29 37 26 34 0
83 86 90 87 82 52 66 43 65 0
83 86 90 87 82 60 80 51 79 0
83 86 90 87 82 55 73 45 70 0
83 86 90 87 82 9 20 5 19 0
83 86 90 87 29 37 26 34 4 0
83 86 90 87 52 66 43 65 11 0
83 86 90 87 60 80 51 79 24 0
83 86 90 87 55 73 45 70 15 0
83 86 90 82 29 37 26 34 33 0
83 86 90 82 52 66 43 65 63 0
83 86 90 82 60 80 51 79 74 0
83 86 90 82 9 20 5 19 14 0
83 86 90 29 37 26 34 33 4 0
83 86 90 52 66 43 65 63 11 0
83 86 90 60 80 51 79 74 24 0
83 86 88 87 82 29 37 26 38 0
83 86 88 87 82 52 66 43 69 0
83 86 88 87 82 57 77 46 78 0
83 86 88 87 82 55 73 45 75 0
83 86 88 87 82 9 20 5 23 0
83 86 88 87 29 37 26 38 4 0
83 86 88 87 52 66 43 69 11 0
83 86 88 87 57 77 46 78 18 0
83 86 88 87 55 73 45 75 15 0
83 86 88 82 29 37 26 38 33 0
83 86 88 82 52 66 43 69 63 0
83 86 88 82 57 77 46 78 71 0
83 86 88 82 9 20 5 23 14 0
83 86 88 29 37 26 38 33 4 0
83 86 88 52 66 43 69 63 11 0
83 86 88 57 77 46 78 71 18 0
83 86 87 82 29 37 26 38 34 0
83 86 87 82 52 66 43 69 65 0
83 86 87 82 55 73 45 75 70 0
83 86 87 82 9 20 5 23 19 0
83 86 87 29 37 26 38 34 4 0
83 86 87 52 66 43 69 65 11 0
83 86 87 55 73 45 75 70 15 0
83 86 82 29 37 26 38 34 33 0
83 86 82 52 66 43 69 65 63 0
83 86 82 9 20 5 23 19 14 0
83 86 29 37 26 38 34 33 4 0
83 86 52 66 43 69 65 63 11 0
83 90 88 87 82 29 37 26 31 0
83 90 88 87 82 60 80 51 68 0
83 90 88 87 82 57 77 46 64 0
83 90 88 87 82 55 73 45 62 0
83 90 88 87 82 9 20 5 13 0
83 90 88 87 29 37 26 31 4 0
83 90 88 87 60 80 51 68 24 0
83 90 88 87 57 77 46 64 18 0
83 90 88 87 55 73 45 62 15 0
83 90 88 82 29 37 26 31 33 0
83 90 88 82 60 80 51 68 74 0
83 90 88 82 57 77 46 64 71 0
83 90 88 82 9 20 5 13 14 0
83 90 88 29 37 26 31 33 4 0
83 90 88 60 80 51 68 74 24 0
83 90 88 57 77 46 64 71 18 0
83 90 87 82 29 37 26 31 34 0
83 90 87 82 60 80 51 68 79 0
83 90 87 82 55 73 45 62 70 0
83 90 87 82 9 20 5 13 19 0
83 90 87 29 37 26 31 34 4 0
83 90 87 60 80 51 68 79 24 0
83 90 87 55 73 45 62 70 15 0
83 90 82 29 37 26 31 34 33 0
83 90 82 60 80 51 68 79 74 0
83 90 82 9 20 5 13 19 14 0
83 90 29 37 26 31 34 33 4 0
83 90 60 80 51 68 79 74 24 0
83 88 87 82 29 37 26 31 38 0
83 88 87 82 57 77 46 64 78 0
83 88 87 82 55 73 45 62 75 0
83 88 87 82 9 20 5 13 23 0
83 88 87 29 37 26 31 38 4 0
83 88 87 57 77 46 64 78 18 0
83 88 87 55 73 45 62 75 15 0
83 88 82 29 37 26 31 38 33 0
83 88 82 57 77 46 64 78 71 0
83 88 82 9 20 5 13 23 14 0
83 88 29 37 26 31 38 33 4 0
83 88 57 77 46 64 78 71 18 0
83 87 82 29 37 26 31 38 34 0
83 87 82 55 73 45 62 75 70 0
83 87 82 9 20 5 13 23 19 0
83 87 29 37 26 31 38 34 4 0
83 87 55 73 45 62 75 70 15 0
83 82 29 37 26 31 38 34 33 0
83 82 9 20 5 13 23 19 14 0
83 29 37 26 31 38 34 33 4 0
85 89 84 86 90 88 87 82 28 0
85 89 84 86 90 88 87 82 36 0
85 89 84 86 90 88 87 82 27 0
85 89 84 86 90 88 87 82 30 0
85 89 84 86 90 88 87 82 39 0
85 89 84 86 90 88 87 82 35 0
85 89 84 86 90 88 87 82 32 0
85 89 84 86 90 88 87 82 3 0
85 89 84 86 90 88 87 28 8 0
85 89 84 86 90 88 87 36 21 0
85 89 84 86 90 88 87 27 6 0
85 89 84 86 90 88 87 30 11 0
85 89 84 86 90 88 87 39 24 0
85 89 84 86 90 88 87 35 18 0
85 89 84 86 90 88 87 32 15 0
85 89 84 86 90 88 82 28 54 0
85 89 84 86 90 88 82 36 72 0
85 89 84 86 90 88 82 27 44 0
85 89 84 86 90 88 82 30 63 0
85 89 84 86 90 88 82 39 74 0
85 89 84 86 90 88 82 35 71 0
85 89 84 86 90 88 82 3 14 0
85 89 84 86 90 88 28 54 8 0
85 89 84 86 90 88 36 72 21 0
85 89 84 86 90 88 27 44 6 0
85 89 84 86 90 88 30 63 11 0
85 89 84 86 90 88 39 74 24 0
85 89 84 86 90 88 35 71 18 0
85 89 84 86 90 87 82 28 56 0
85 89 84 86 90 87 82 36 76 0
85 89 84 86 90 87 82 27 47 0
85 89 84 86 90 87 82 30 65 0
85 89 84 86 90 87 82 39 79 0
85 89 84 86 90 87 82 32 70 0
85 89 84 86 90 87 82 3 19 0
85 89 84 86 90 87 28 56 8 0
85 89 84 86 90 87 36 76 21 0
85 89 84 86 90 87 27 47 6 0
85 89 84 86 90 87 30 65 11 0
85 89 84 86 90 87 39 79 24 0
85 89 84 86 90 87 32 70 15 0
85 89 84 86 90 82 28 56 54 0
85 89 84 86 90 82 36 76 72 0
85 89 84 86 90 82 27 47 44 0
85 89 84 86 90 82 30 65 63 0
85 89 84 86 90 82 39 79 74 0
85 89 84 86 90 82 3 19 14 0
85 89 84 86 90 28 56 54 8 0
85 89 84 86 90 36 76 72 21 0
85 89 84 86 90 27 47 44 6 0
85 89 84 86 90 30 65 63 11 0
85 89 84 86 90 39 79 74 24 0
85 89 84 86 88 87 82 28 61 0
85 89 84 86 88 87 82 36 81 0
85 89 84 86 88 87 82 27 50 0
85 89 84 86 88 87 82 30 69 0
85 89 84 86 88 87 82 35 78 0
85 89 84 86 88 87 82 32 75 0
85 89 84 86 88 87 82 3 23 0
85 89 84 86 88 87 28 61 8 0
85 89 84 86 88 87 36 81 21 0
85 89 84 86 88 87 27 50 6 0
85 89 84 86 88 87 30 69 11 0
85 89 84 86 88 87 35 78 18 0
85 89 84 86 88 87 32 75 15 0
85 89 84 86 88 82 28 61 54 0
85 89 84 86 88 82 36 81 72 0
85 89 84 86 88 82 27 50 44 0
85 89 84 86 88 82 30 69 63 0
85 89 84 86 88 82 35 78 71 0
85 89 84 86 88 82 3 23 14 0
85 89 84 86 88 28 61 54 8 0
85 89 84 86 88 36 81 72 21 0
85 89 84 86 88 27 50 44 6 0
85 89 84 86 88 30 69 63 11 0
85 89 84 86 88 35 78 71 18 0
85 89 84 86 87 82 28 61 56 0
85 89 84 86 87 82 36 81 76 0
85 89 84 86 87 82 27 50 47 0
85 89 84 86 87 82 30 69 65 0
85 89 84 86 87 82 32 75 70 0
85 89 84 86 87 82 3 23 19 0
85 89 84 86 87 28 61 56 8 0
85 89 84 86 87 36 81 76 21 0
85 89 84 86 87 27 50 47 6 0
85 89 84 86 87 30 69 65 11 0
85 89 84 86 87 32 75 70 15 0
85 89 84 86 82 28 61 56 54 0
85 89 84 86 82 36 81 76 72 0
85 89 84 86 82 27 50 47 44 0
85 89 84 86 82 30 69 65 63 0
85 89 84 86 82 3 23 19 14 0
85 89 84 86 28 61 56 54 8 0
85 89 84 86 36 81 76 72 21 0
85 89 84 86 27 50 47 44 6 0
85 89 84 86 30 69 65 63 11 0
85 89 84 90 88 87 82 28 53 0
85 89 84 90 88 87 82 36 67 0
85 89 84 90 88 87 82 27 42 0
85 89 84 90 88 87 82 39 68 0
85 89 84 90 88 87 82 35 64 0
85 89 84 90 88 87 82 32 62 0
85 89 84 90 88 87 82 3 13 0
85 89 84 90 88 87 28 53 8 0
85 89 84 90 88 87 36 67 21 0
85 89 84 90 88 87 27 42 6 0
85 89 84 90 88 87 39 68 24 0
85 89 84 90 88 87 35 64 18 0
85 89 84 90 88 87 32 62 15 0
85 89 84 90 88 82 28 53 54 0
85 89 84 90 88 82 36 67 72 0
85 89 84 90 88 82 27 42 44 0
85 89 84 90 88 82 39 68 74 0
85 89 84 90 88 82 35 64 71 0
85 89 84 90 88 82 3 13 14 0
85 89 84 90 88 28 53 54 8 0
85 89 84 90 88 36 67 72 21 0
85 89 84 90 88 27 42 44 6 0
85 89 84 90 88 39 68 74 24 0
85 89 84 90 88 35 64 71 18 0
85 89 84 90 87 82 28 53 56 0
85 89 84 90 87 82 36 67 76 0
85 89 84 90 87 82 27 42 47 0
85 89 84 90 87 82 39 68 79 0
85 89 84 90 87 82 32 62 70 0
85 89 84 90 87 82 3 13 19 0
85 89 84 90 87 28 53 56 8 0
85 89 84 90 87 36 67 76 21 0
85 89 84 90 87 27 42 47 6 0
85 89 84 90 87 39 68 79 24 0
85 89 84 90 87 32 62 70 15 0
85 89 84 90 82 28 53 56 54 0
85 89 84 90 82 36 67 76 72 0
85 89 84 90 82 27 42 47 44 0
85 89 84 90 82 39 68 79 74 0
85 89 84 90 82 3 13 19 14 0
85 89 84 90 28 53 56 54 8 0
85 89 84 90 36 67 76 72 21 0
85 89 84 90 27 42 47 44 6 0
85 89 84 90 39 68 79 74 24 0
85 89 84 88 87 82 28 53 61 0
85 89 84 88 87 82 36 67 81 0
85 89 84 88 87 82 27 42 50 0
85 89 84 88 87 82 35 64 78 0
85 89 84 88 87 82 32 62 75 0
85 89 84 88 87 82 3 13 23 0
85 89 84 88 87 28 53 61 8 0
85 89 84 88 87 36 67 81 21 0
85 89 84 88 87 27 42 50 6 0
85 89 84 88 87 35 64 78 18 0
85 89 84 88 87 32 62 75 15 0
85 89 84 88 82 28 53 61 54 0
85 89 84 88 82 36 67 81 72 0
85 89 84 88 82 27 42 50 44 0
85 89 84 88 82 35 64 78 71 0
85 89 84 88 82 3 13 23 14 0
85 89 84 88 28 53 61 54 8 0
85 89 84 88 36 67 81 72 21 0
85 89 84 88 27 42 50 44 6 0
85 89 84 88 35 64 78 71 18 0
85 89 84 87 82 28 53 61 56 0
85 89 84 87 82 36 67 81 76 0
85 89 84 87 82 27 42 50 47 0
85 89 84 87 82 32 62 75 70 0
85 89 84 87 82 3 13 23 19 0
85 89 84 87 28 53 61 56 8 0
85 89 84 87 36 67 81 76 21 0
85 89 84 87 27 42 50 47 6 0
85 89 84 87 32 62 75 70 15 0
85 89 84 82 28 53 61 56 54 0
85 89 84 82 36 67 81 76 72 0
85 89 84 82 27 42 50 47 44 0
85 89 84 82 3 13 23 19 14 0
85 89 84 28 53 61 56 54 8 0
85 89 84 36 67 81 76 72 21 0
85 89 84 27 42 50 47 44 6 0
85 89 86 90 88 87 82 28 41 0
85 89 86 90 88 87 82 36 48 0
85 89 86 90 88 87 82 30 43 0
85 89 86 90 88 87 82 39 51 0
85 89 86 90 88 87 82 35 46 0
85 89 86 90 88 87 82 32 45 0
85 89 86 90 88 87 82 3 5 0
85 89 86 90 88 87 28 41 8 0
85 89 86 90 88 87 36 48 21 0
85 89 86 90 88 87 30 43 11 0
85 89 86 90 88 87 39 51 24 0
85 89 86 90 88 87 35 46 18 0
85 89 86 90 88 87 32 45 15 0
85 89 86 90 88 82 28 41 54 0
85 89 86 90 88 82 36 48 72 0
85 89 86 90 88 82 30 43 63 0
85 89 86 90 88 82 39 51 74 0
85 89 86 90 88 82 35 46 71 0
85 89 86 90 88 82 3 5 14 0
85 89 86 90 88 28 41 54 8 0
85 89 86 90 88 36 48 72 21 0
85 89 86 90 88 30 43 63 11 0
85 89 86 90 88 39 51 74 24 0
85 89 86 90 88 35 46 71 18 0
85 89 86 90 87 82 28 41 56 0
85 89 86 90 87 82 36 48 76 0
85 89 86 90 87 82 30 43 65 0
85 89 86 90 87 82 39 51 79 0
85 89 86 90 87 82 32 45 70 0
85 89 86 90 87 82 3 5 19 0
85 89 86 90 87 28 41 56 8 0
85 89 86 90 87 36 48 76 21 0
85 89 86 90 87 30 43 65 11 0
85 89 86 90 87 39 51 79 24 0
85 89 86 90 87 32 45 70 15 0
85 89 86 90 82 28 41 56 54 0
85 89 86 90 82 36 48 76 72 0
85 89 86 90 82 30 43 65 63 0
85 89 86 90 82 39 51 79 74 0
85 89 86 90 82 3 5 19 14 0
85 89 86 90 28 41 56 54 8 0
85 89 86 90 36 48 76 72 21 0
85 89 86 90 30 43 65 63 11 0
85 89 86 90 39 51 79 74 24 0
85 89 86 88 87 82 28 41 61 0
85 89 86 88 87 82 36 48 81 0
85 89 86 88 87 82 30 43 69 0
85 89 86 88 87 82 35 46 78 0
85 89 86 88 87 82 32 45 75 0
85 89 86 88 87 82 3 5 23 0
85 89 86 88 87 28 41 61 8 0
85 89 86 88 87 36 48 81 21 0
85 89 86 88 87 30 43 69 11 0
85 89 86 88 87 35 46 78 18 0
85 89 86 88 87 32 45 75 15 0
85 89 86 88 82 28 41 61 54 0
85 89 86 88 82 36 48 81 72 0
85 89 86 88 82 30 43 69 63 0
85 89 86 88 82 35 46 78 71 0
85 89 86 88 82 3 5 23 14 0
85 89 86 88 28 41 61 54 8 0
85 89 86 88 36 48 81 72 21 0
85 89 86 88 30 43 69 63 11 0
85 89 86 88 35 46 78 71 18 0
85 89 86 87 82 28 41 61 56 0
85 89 86 87 82 36 48 81 76 0
85 89 86 87 82 30 43 69 65 0
85 89 86 87 82 32 45 75 70 0
85 89 86 87 82 3 5 23 19 0
85 89 86 87 28 41 61 56 8 0
85 89 86 87 36 48 81 76 21 0
85 89 86 87 30 43 69 65 11 0
85 89 86 87 32 45 75 70 15 0
85 89 86 82 28 41 61 56 54 0
85 89 86 82 36 48 81 76 72 0
85 89 86 82 30 43 69 65 63 0
85 89 86 82 3 5 23 19 14 0
85 89 86 28 41 61 56 54 8 0
85 89 86 36 48 81 76 72 21 0
85 89 86 30 43 69 65 63 11 0
85 89 90 88 87 82 28 41 53 0
85 89 90 88 87 82 36 48 67 0
85 89 90 88 87 82 39 51 68 0
85 89 90 88 87 82 35 46 64 0
85 89 90 88 87 82 32 45 62 0
85 89 90 88 87 82 3 5 13 0
85 89 90 88 87 28 41 53 8 0
85 89 90 88 87 36 48 67 21 0
85 89 90 88 87 39 51 68 24 0
85 89 90 88 87 35 46 64 18 0
85 89 90 88 87 32 45 62 15 0
85 89 90 88 82 28 41 53 54 0
85 89 90 88 82 36 48 67 72 0
85 89 90 88 82 39 51 68 74 0
85 89 90 88 82 35 46 64 71 0
85 89 90 88 82 3 5 13 14 0
85 89 90 88 28 41 53 54 8 0
85 89 90 88 36 48 67 72 21 0
85 89 90 88 39 51 68 74 24 0
85 89 90 88 35 46 64 71 18 0
85 89 90 87 82 28 41 53 56 0
85 89 90 87 82 36 48 67 76 0
85 89 90 87 82 39 51 68 79 0
85 89 90 87 82 32 45 62 70 0
85 89 90 87 82 3 5 13 19 0
85 89 90 87 28 41 53 56 8 0
85 89 90 87 36 48 67 76 21 0
85 89 90 87 39 51 68 79 24 0
85 89 90 87 32 45 62 70 15 0
85 89 90 82 28 41 53 56 54 0
85 89 90 82 36 48 67 76 72 0
85 89 90 82 39 51 68 79 74 0
85 89 90 82 3 5 13 19 14 0
85 89 90 28 41 53 56 54 8 0
85 89 90 36 48 67 76 72 21 0
85 89 90 39 51 68 79 74 24 0
85 89 88 87 82 28 41 53 61 0
85 89 88 87 82 36 48 67 81 0
85 89 88 87 82 35 46 64 78 0
85 89 88 87 82 32 45 62 75 0
85 89 88 87 82 3 5 13 23 0
85 89 88 87 28 41 53 61 8 0
85 89 88 87 36 48 67 81 21 0
85 89 88 87 35 46 64 78 18 0
85 89 88 87 32 45 62 75 15 0
85 89 88 82 28 41 53 61 54 0
85 89 88 82 36 48 67 81 72 0
85 89 88 82 35 46 64 78 71 0
85 89 88 82 3 5 13 23 14 0
85 89 88 28 41 53 61 54 8 0
85 89 88 36 48 67 81 72 21 0
85 89 88 35 46 64 78 71 18 0
85 89 87 82 28 41 53 61 56 0
85 89 87 82 36 48 67 81 76 0
85 89 87 82 32 45 62 75 70 0
85 89 87 82 3 5 13 23 19 0
85 89 87 28 41 53 61 56 8 0
85 89 87 36 48 67 81 76 21 0
85 89 87 32 45 62 75 70 15 0
85 89 82 28 41 53 61 56 54 0
85 89 82 36 48 67 81 76 72 0
85 89 82 3 5 13 23 19 14 0
85 89 28 41 53 61 56 54 8 0
85 89 36 48 67 81 76 72 21 0
85 84 86 90 88 87 82 28 59 0
85 84 86 90 88 87 82 27 49 0
85 84 86 90 88 87 82 30 66 0
85 84 86 90 88 87 82 39 80 0
85 84 86 90 88 87 82 35 77 0
85 84 86 90 88 87 82 32 73 0
85 84 86 90 88 87 82 3 20 0
85 84 86 90 88 87 28 59 8 0
85 84 86 90 88 87 27 49 6 0
85 84 86 90 88 87 30 66 11 0
85 84 86 90 88 87 39 80 24 0
85 84 86 90 88 87 35 77 18 0
85 84 86 90 88 87 32 73 15 0
85 84 86 90 88 82 28 59 54 0
85 84 86 90 88 82 27 49 44 0
85 84 86 90 88 82 30 66 63 0
85 84 86 90 88 82 39 80 74 0
85 84 86 90 88 82 35 77 71 0
85 84 86 90 88 82 3 20 14 0
85 84 86 90 88 28 59 54 8 0
85 84 86 90 88 27 49 44 6 0
85 84 86 90 88 30 66 63 11 0
85 84 86 90 88 39 80 74 24 0
85 84 86 90 88 35 77 71 18 0
85 84 86 90 87 82 28 59 56 0
85 84 86 90 87 82 27 49 47 0
85 84 86 90 87 82 30 66 65 0
85 84 86 90 87 82 39 80 79 0
85 84 86 90 87 82 32 73 70 0
85 84 86 90 87 82 3 20 19 0
85 84 86 90 87 28 59 56 8 0
85 84 86 90 87 27 49 47 6 0
85 84 86 90 87 30 66 65 11 0
85 84 86 90 87 39 80 79 24 0
85 84 86 90 87 32 73 70 15 0
85 84 86 90 82 28 59 56 54 0
85 84 86 90 82 27 49 47 44 0
85 84 86 90 82 30 66 65 63 0
85 84 86 90 82 39 80 79 74 0
85 84 86 90 82 3 20 19 14 0
85 84 86 90 28 59 56 54 8 0
85 84 86 90 27 49 47 44 6 0
85 84 86 90 30 66 65 63 11 0
85 84 86 90 39 80 79 74 24 0
85 84 86 88 87 82 28 59 61 0
85 84 86 88 87 82 27 49 50 0
85 84 86 88 87 82 30 66 69 0
85 84 86 88 87 82 35 77 78 0
85 84 86 88 87 82 32 73 75 0
85 84 86 88 87 82 3 20 23 0
85 84 86 88 87 28 59 61 8 0
85 84 86 88 87 27 49 50 6 0
85 84 86 88 87 30 66 69 11 0
85 84 86 88 87 35 77 78 18 0
85 84 86 88 87 32 73 75 15 0
85 84 86 88 82 28 59 61 54 0
85 84 86 88 82 27 49 50 44 0
85 84 86 88 82 30 66 69 63 0
85 84 86 88 82 35 77 78 71 0
85 84 86 88 82 3 20 23 14 0
85 84 86 88 28 59 61 54 8 0
85 84 86 88 27 49 50 44 6 0
85 84 86 88 30 66 69 63 11 0
85 84 86 88 35 77 78 71 18 0
85 84 86 87 82 28 59 61 56 0
85 84 86 87 82 27 49 50 47 0
85 84 86 87 82 30 66 69 65 0
85 84 86 87 82 32 73 75 70 0
85 84 86 87 82 3 20 23 19 0
85 84 86 87 28 59 61 56 8 0
85 84 86 87 27 49 50 47 6 0
85 84 86 87 30 66 69 65 11 0
85 84 86 87 32 73 75 70 15 0
85 84 86 82 28 59 61 56 54 0
85 84 86 82 27 49 50 47 44 0
85 84 86 82 30 66 69 65 63 0
85 84 86 82 3 20 23 19 14 0
85 84 86 28 59 61 56 54 8 0
85 84 86 27 49 50 47 44 6 0
85 84 86 30 66 69 65 63 11 0
85 84 90 88 87 82 28 59 53 0
85 84 90 88 87 82 27 49 42 0
85 84 90 88 87 82 39 80 68 0
85 84 90 88 87 82 35 77 64 0
85 84 90 88 87 82 32 73 62 0
85 84 90 88 87 82 3 20 13 0
85 84 90 88 87 28 59 53 8 0
85 84 90 88 87 27 49 42 6 0
85 84 90 88 87 39 80 68 24 0
85 84 90 88 87 35 77 64 18 0
85 84 90 88 87 32 73 62 15 0
85 84 90 88 82 28 59 53 54 0
85 84 90 88 82 27 49 42 44 0
85 84 90 88 82 39 80 68 74 0
85 84 90 88 82 35 77 64 71 0
85 84 90 88 82 3 20 13 14 0
85 84 90 88 28 59 53 54 8 0
85 84 90 88 27 49 42 44 6 0
85 84 90 88 39 80 68 74 24 0
85 84 90 88 35 77 64 71 18 0
85 84 90 87 82 28 59 53 56 0
85 84 90 87 82 27 49 42 47 0
85 84 90 87 82 39 80 68 79 0
85 84 90 87 82 32 73 62 70 0
85 84 90 87 82 3 20 13 19 0
85 84 90 87 28 59 53 56 8 0
85 84 90 87 27 49 42 47 6 0
85 84 90 87 39 80 68 79 24 0
85 84 90 87 32 73 62 70 15 0
85 84 90 82 28 59 53 56 54 0
85 84 90 82 27 49 42 47 44 0
85 84 90 82 39 80 68 79 74 0
85 84 90 82 3 20 13 19 14 0
85 84 90 28 59 53 56 54 8 0
85 84 90 27 49 42 47 44 6 0
85 84 90 39 80 68 79 74 24 0
85 84 88 87 82 28 59 53 61 0
85 84 88 87 82 27 49 42 50 0
85 84 88 87 82 35 77 64 78 0
85 84 88 87 82 32 73 62 75 0
85 84 88 87 82 3 20 13 23 0
85 84 88 87 28 59 53 61 8 0
85 84 88 87 27 49 42 50 6 0
85 84 88 87 35 77 64 78 18 0
85 84 88 87 32 73 62 75 15 0
85 84 88 82 28 59 53 61 54 0
85 84 88 82 27 49 42 50 44 0
85 84 88 82 35 77 64 78 71 0
85 84 88 82 3 20 13 23 14 0
85 84 88 28 59 53 61 54 8 0
85 84 88 27 49 42 50 44 6 0
85 84 88 35 77 64 78 71 18 0
85 84 87 82 28 59 53 61 56 0
85 84 87 82 27 49 42 50 47 0
85 84 87 82 32 73 62 75 70 0
85 84 87 82 3 20 13 23 19 0
85 84 87 28 59 53 61 56 8 0
85 84 87 27 49 42 50 47 6 0
85 84 87 32 73 62 75 70 15 0
85 84 82 28 59 53 61 56 54 0
85 84 82 27 49 42 50 47 44 0
85 84 82 3 20 13 23 19 14 0
85 84 28 59 53 61 56 54 8 0
85 84 27 49 42 50 47 44 6 0
85 86 90 88 87 82 28 59 41 0
85 86 90 88 87 82 30 66 43 0
85 86 90 88 87 82 39 80 51 0
85 86 90 88 87 82 35 77 46 0
85 86 90 88 87 82 32 73 45 0
85 86 90 88 87 82 3 20 5 0
85 86 90 88 87 28 59 41 8 0
85 86 90 88 87 30 66 43 11 0
85 86 90 88 87 39 80 51 24 0
85 86 90 88 87 35 77 46 18 0
85 86 90 88 87 32 73 45 15 0
85 86 90 88 82 28 59 41 54 0
85 86 90 88 82 30 66 43 63 0
85 86 90 88 82 39 80 51 74 0
85 86 90 88 82 35 77 46 71 0
85 86 90 88 82 3 20 5 14 0
85 86 90 88 28 59 41 54 8 0
85 86 90 88 30 66 43 63 11 0
85 86 90 88 39 80 51 74 24 0
85 86 90 88 35 77 46 71 18 0
85 86 90 87 82 28 59 41 56 0
85 86 90 87 82 30 66 43 65 0
85 86 90 87 82 39 80 51 79 0
85 86 90 87 82 32 73 45 70 0
85 86 90 87 82 3 20 5 19 0
85 86 90 87 28 59 41 56 8 0
85 86 90 87 30 66 43 65 11 0
85 86 90 87 39 80 51 79 24 0
85 86 90 87 32 73 45 70 15 0
85 86 90 82 28 59 41 56 54 0
85 86 90 82 30 66 43 65 63 0
85 86 90 82 39 80 51 79 74 0
85 86 90 82 3 20 5 19 14 0
85 86 90 28 59 41 56 54 8 0
85 86 90 30 66 43 65 63 11 0
85 86 90 39 80 51 79 74 24 0
85 86 88 87 82 28 59 41 61 0
85 86 88 87 82 30 66 43 69 0
85 86 88 87 82 35 77 46 78 0
85 86 88 87 82 32 73 45 75 0
85 86 88 87 82 3 20 5 23 0
85 86 88 87 28 59 41 61 8 0
85 86 88 87 30 66 43 69 11 0
85 86 88 87 35 77 46 78 18 0
85 86 88 87 32 73 45 75 15 0
85 86 88 82 28 59 41 61 54 0
85 86 88 82 30 66 43 69 63 0
85 86 88 82 35 77 46 78 71 0
85 86 88 82 3 20 5 23 14 0
85 86 88 28 59 41 61 54 8 0
85 86 88 30 66 43 69 63 11 0
85 86 88 35 77 46 78 71 18 0
85 86 87 82 28 59 41 61 56 0
85 86 87 82 30 66 43 69 65 0
85 86 87 82 32 73 45 75 70 0
85 86 87 82 3 20 5 23 19 0
85 86 87 28 59 41 61 56 8 0
85 86 87 30 66 43 69 65 11 0
85 86 87 32 73 45 75 70 15 0
85 86 82 28 59 41 61 56 54 0
85 86 82 30 66 43 69 65 63 0
85 86 82 3 20 5 23 19 14 0
85 86 28 59 41 61 56 54 8 0
85 86 30 66 43 69 65 63 11 0
85 90 88 87 82 28 59 41 53 0
85 90 88 87 82 39 80 51 68 0
85 90 88 87 82 35 77 46 64 0
85 90 88 87 82 32 73 45 62 0
85 90 88 87 82 3 20 5 13 0
85 90 88 87 28 59 41 53 8 0
85 90 88 87 39 80 51 68 24 0
85 90 88 87 35 77 46 64 18 0
85 90 88 87 32 73 45 62 15 0
85 90 88 82 28 59 41 53 54 0
85 90 88 82 39 80 51 68 74 0
85 90 88 82 35 77 46 64 71 0
85 90 88 82 3 20 5 13 14 0
85 90 88 28 59 41 53 54 8 0
85 90 88 39 80 51 68 74 24 0
85 90 88 35 77 46 64 71 18 0
85 90 87 82 28 59 41 53 56 0
85 90 87 82 39 80 51 68 79 0
85 90 87 82 32 73 45 62 70 0
85 90 87 82 3 20 5 13 19 0
85 90 87 28 59 41 53 56 8 0
85 90 87 39 80 51 68 79 24 0
85 90 87 32 73 45 62 70 15 0
85 90 82 28 59 41 53 56 54 0
85 90 82 39 80 51 68 79 74 0
85 90 82 3 20 5 13 19 14 0
85 90 28 59 41 53 56 54 8 0
85 90 39 80 51 68 79 74 24 0
85 88 87 82 28 59 41 53 61 0
85 88 87 82 35 77 46 64 78 0
85 88 87 82 32 73 45 62 75 0
85 88 87 82 3 20 5 13 23 0
85 88 87 28 59 41 53 61 8 0
85 88 87 35 77 46 64 78 18 0
85 88 87 32 73 45 62 75 15 0
85 88 82 28 59 41 53 61 54 0
85 88 82 35 77 46 64 78 71 0
85 88 82 3 20 5 13 23 14 0
85 88 28 59 41 53 61 54 8 0
85 88 35 77 46 64 78 71 18 0
85 87 82 28 59 41 53 61 56 0
85 87 82 32 73 45 62 75 70 0
85 87 82 3 20 5 13 23 19 0
85 87 28 59 41 53 61 56 8 0
85 87 32 73 45 62 75 70 15 0
85 82 28 59 41 53 61 56 54 0
85 82 3 20 5 13 23 19 14 0
85 28 59 41 53 61 56 54 8 0
89 84 86 90 88 87 82 36 58 0
89 84 86 90 88 87 82 27 40 0
89 84 86 90 88 87 82 30 52 0
89 84 86 90 88 87 82 39 60 0
89 84 86 90 88 87 82 35 57 0
89 84 86 90 88 87 82 32 55 0
89 84 86 90 88 87 82 3 9 0
89 84 86 90 88 87 36 58 21 0
89 84 86 90 88 87 27 40 6 0
89 84 86 90 88 87 30 52 11 0
89 84 86 90 88 87 39 60 24 0
89 84 86 90 88 87 35 57 18 0
89 84 86 90 88 87 32 55 15 0
89 84 86 90 88 82 36 58 72 0
89 84 86 90 88 82 27 40 44 0
89 84 86 90 88 82 30 52 63 0
89 84 86 90 88 82 39 60 74 0
89 84 86 90 88 82 35 57 71 0
89 84 86 90 88 82 3 9 14 0
89 84 86 90 88 36 58 72 21 0
89 84 86 90 88 27 40 44 6 0
89 84 86 90 88 30 52 63 11 0
89 84 86 90 88 39 60 74 24 0
89 84 86 90 88 35 57 71 18 0
89 84 86 90 87 82 36 58 76 0
89 84 86 90 87 82 27 40 47 0
89 84 86 90 87 82 30 52 65 0
89 84 86 90 87 82 39 60 79 0
89 84 86 90 87 82 32 55 70 0
89 84 86 90 87 82 3 9 19 0
89 84 86 90 87 36 58 76 21 0
89 84 86 90 87 27 40 47 6 0
89 84 86 90 87 30 52 65 11 0
89 84 86 90 87 39 60 79 24 0
89 84 86 90 87 32 55 70 15 0
89 84 86 90 82 36 58 76 72 0
89 84 86 90 82 27 40 47 44 0
89 84 86 90 82 30 52 65 63 0
89 84 86 90 82 39 60 79 74 0
89 84 86 90 82 3 9 19 14 0
89 84 86 90 36 58 76 72 21 0
89 84 86 90 27 40 47 44 6 0
89 84 86 90 30 52 65 63 11 0
89 84 86 90 39 60 79 74 24 0
89 84 86 88 87 82 36 58 81 0
89 84 86 88 87 82 27 40 50 0
89 84 86 88 87 82 30 52 69 0
89 84 86 88 87 82 35 57 78 0
89 84 86 88 87 82 32 55 75 0
89 84 86 88 87 82 3 9 23 0
89 84 86 88 87 36 58 81 21 0
89 84 86 88 87 27 40 50 6 0
89 84 86 88 87 30 52 69 11 0
89 84 86 88 87 35 57 78 18 0
89 84 86 88 87 32 55 75 15 0
89 84 86 88 82 36 58 81 72 0
89 84 86 88 82 27 40 50 44 0
89 84 86 88 82 30 52 69 63 0
89 84 86 88 82 35 57 78 71 0
89 84 86 88 82 3 9 23 14 0
89 84 86 88 36 58 81 72 21 0
89 84 86 88 27 40 50 44 6 0
89 84 86 88 30 52 69 63 11 0
89 84 86 88 35 57 78 71 18 0
89 84 86 87 82 36 58 81 76 0
89 84 86 87 82 27 40 50 47 0
89 84 86 87 82 30 52 69 65 0
89 84 86 87 82 32 55 75 70 0
89 84 86 87 82 3 9 23 19 0
89 84 86 87 36 58 81 76 21 0
89 84 86 87 27 40 50 47 6 0
89 84 86 87 30 52 69 65 11 0
89 84 86 87 32 55 75 70 15 0
89 84 86 82 36 58 81 76 72 0
89 84 86 82 27 40 50 47 44 0
89 84 86 82 30 52 69 65 63 0
89 84 86 82 3 9 23 19 14 0
89 84 86 36 58 81 76 72 21 0
89 84 86 27 40 50 47 44 6 0
89 84 86 30 52 69 65 63 11 0
89 84 90 88 87 82 36 58 67 0
89 84 90 88 87 82 27 40 42 0
89 84 90 88 87 82 39 60 68 0
89 84 90 88 87 82 35 57 64 0
89 84 90 88 87 82 32 55 62 0
89 84 90 88 87 82 3 9 13 0
89 84 90 88 87 36 58 67 21 0
89 84 90 88 87 27 40 42 6 0
89 84 90 88 87 39 60 68 24 0
89 84 90 88 87 35 57 64 18 0
89 84 90 88 87 32 55 62 15 0
89 84 90 88 82 36 58 67 72 0
89 84 90 88 82 27 40 42 44 0
89 84 90 88 82 39 60 68 74 0
89 84 90 88 82 35 57 64 71 0
89 84 90 88 82 3 9 13 14 0
89 84 90 88 36 58 67 72 21 0
89 84 90 88 27 40 42 44 6 0
89 84 90 88 39 60 68 74 24 0
89 84 90 88 35 57 64 71 18 0
89 84 90 87 82 36 58 67 76 0
89 84 90 87 82 27 40 42 47 0
89 84 90 87 82 39 60 68 79 0
89 84 90 87 82 32 55 62 70 0
89 84 90 87 82 3 9 13 19 0
89 84 90 87 36 58 67 76 21 0
89 84 90 87 27 40 42 47 6 0
89 84 90 87 39 60 68 79 24 0
89 84 90 87 32 55 62 70 15 0
89 84 90 82 36 58 67 76 72 0
89 84 90 82 27 40 42 47 44 0
89 84 90 82 39 60 68 79 74 0
89 84 90 82 3 9 13 19 14 0
89 84 90 36 58 67 76 72 21 0
89 84 90 27 40 42 47 44 6 0
89 84 90 39 60 68 79 74 24 0
89 84 88 87 82 36 58 67 81 0
89 84 88 87 82 27 40 42 50 0
89 84 88 87 82 35 57 64 78 0
89 84 88 87 82 32 55 62 75 0
89 84 88 87 82 3 9 13 23 0
89 84 88 87 36 58 67 81 21 0
89 84 88 87 27 40 42 50 6 0
89 84 88 87 35 57 64 78 18 0
89 84 88 87 32 55 62 75 15 0
89 84 88 82 36 58 67 81 72 0
89 84 88 82 27 40 42 50 44 0
89 84 88 82 35 57 64 78 71 0
89 84 88 82 3 9 13 23 14 0
89 84 88 36 58 67 81 72 21 0
89 84 88 27 40 42 50 44 6 0
89 84 88 35 57 64 78 71 18 0
89 84 87 82 36 58 67 81 76 0
89 84 87 82 27 40 42 50 47 0
89 84 87 82 32 55 62 75 70 0
89 84 87 82 3 9 13 23 19 0
89 84 87 36 58 67 81 76 21 0
89 84 87 27 40 42 50 47 6 0
89 84 87 32 55 62 75 70 15 0
89 84 82 36 58 67 81 76 72 0
89 84 82 27 40 42 50 47 44 0
89 84 82 3 9 13 23 19 14 0
89 84 36 58 67 81 76 72 21 0
89 84 27 40 42 50 47 44 6 0
89 86 90 88 87 82 36 58 48 0
89 86 90 88 87 82 30 52 43 0
89 86 90 88 87 82 39 60 51 0
89 86 90 88 87 82 35 57 46 0
89 86 90 88 87 82 32 55 45 0
89 86 90 88 87 82 3 9 5 0
89 86 90 88 87 36 58 48 21 0
89 86 90 88 87 30 52 43 11 0
89 86 90 88 87 39 60 51 24 0
89 86 90 88 87 35 57 46 18 0
89 86 90 88 87 32 55 45 15 0
89 86 90 88 82 36 58 48 72 0
89 86 90 88 82 30 52 43 63 0
89 86 90 88 82 39 60 51 74 0
89 86 90 88 82 35 57 46 71 0
89 86 90 88 82 3 9 5 14 0
89 86 90 88 36 58 48 72 21 0
89 86 90 88 30 52 43 63 11 0
89 86 90 88 39 60 51 74 24 0
89 86 90 88 35 57 46 71 18 0
89 86 90 87 82 36 58 48 76 0
89 86 90 87 82 30 52 43 65 0
89 86 90 87 82 39 60 51 79 0
89 86 90 87 82 32 55 45 70 0
89 86 90 87 82 3 9 5 19 0
89 86 90 87 36 58 48 76 21 0
89 86 90 87 30 52 43 65 11 0
89 86 90 87 39 60 51 79 24 0
89 86 90 87 32 55 45 70 15 0
89 86 90 82 36 58 48 76 72 0
89 86 90 82 30 52 43 65 63 0
89 86 90 82 39 60 51 79 74 0
89 86 90 82 3 9 5 19 14 0
89 86 90 36 58 48 76 72 21 0
89 86 90 30 52 43 65 63 11 0
89 86 90 39 60 51 79 74 24 0
89 86 88 87 82 36 58 48 81 0
89 86 88 87 82 30 52 43 69 0
89 86 88 87 82 35 57 46 78 0
89 86 88 87 82 32 55 45 75 0
89 86 88 87 82 3 9 5 23 0
89 86 88 87 36 58 48 81 21 0
89 86 88 87 30 52 43 69 11 0
89 86 88 87 35 57 46 78 18 0
89 86 88 87 32 55 45 75 15 0
89 86 88 82 36 58 48 81 72 0
89 86 88 82 30 52 43 69 63 0
89 86 88 82 35 57 46 78 71 0
89 86 88 82 3 9 5 23 14 0
89 86 88 36 58 48 81 72 21 0
89 86 88 30 52 43 69 63 11 0
89 86 88 35 57 46 78 71 18 0
89 86 87 82 36 58 48 81 76 0
89 86 87 82 30 52 43 69 65 0
89 86 87 82 32 55 45 75 70 0
89 86 87 82 3 9 5 23 19 0
89 86 87 36 58 48 81 76 21 0
89 86 87 30 52 43 69 65 11 0
89 86 87 32 55 45 75 70 15 0
89 86 82 36 58 48 81 76 72 0
89 86 82 30 52 43 69 65 63 0
89 86 82 3 9 5 23 19 14 0
89 86 36 58 48 81 76 72 21 0
89 86 30 52 43 69 65 63 11 0
89 90 88 87 82 36 58 48 67 0
89 90 88 87 82 39 60 51 68 0
89 90 88 87 82 35 57 46 64 0
89 90 88 87 82 32 55 45 62 0
89 90 88 87 82 3 9 5 13 0
89 90 88 87 36 58 48 67 21 0
89 90 88 87 39 60 51 68 24 0
89 90 88 87 35 57 46 64 18 0
89 90 88 87 32 55 45 62 15 0
89 90 88 82 36 58 48 67 72 0
89 90 88 82 39 60 51 68 74 0
89 90 88 82 35 57 46 64 71 0
89 90 88 82 3 9 5 13 14 0
89 90 88 36 58 48 67 72 21 0
89 90 88 39 60 51 68 74 24 0
89 90 88 35 57 46 64 71 18 0
89 90 87 82 36 58 48 67 76 0
89 90 87 82 39 60 51 68 79 0
89 90 87 82 32 55 45 62 70 0
89 90 87 82 3 9 5 13 19 0
89 90 87 36 58 48 67 76 21 0
89 90 87 39 60 51 68 79 24 0
89 90 87 32 55 45 62 70 15 0
89 90 82 36 58 48 67 76 72 0
89 90 82 39 60 51 68 79 74 0
89 90 82 3 9 5 13 19 14 0
89 90 36 58 48 67 76 72 21 0
89 90 39 60 51 68 79 74 24 0
89 88 87 82 36 58 48 67 81 0
89 88 87 82 35 57 46 64 78 0
89 88 87 82 32 55 45 62 75 0
89 88 87 82 3 9 5 13 23 0
89 88 87 36 58 48 67 81 21 0
89 88 87 35 57 46 64 78 18 0
89 88 87 32 55 45 62 75 15 0
89 88 82 36 58 48 67 81 72 0
89 88 82 35 57 46 64 78 71 0
89 88 82 3 9 5 13 23 14 0
89 88 36 58 48 67 81 72 21 0
89 88 35 57 46 64 78 71 18 0
89 87 82 36 58 48 67 81 76 0
89 87 82 32 55 45 62 75 70 0
89 87 82 3 9 5 13 23 19 0
89 87 36 58 48 67 81 76 21 0
89 87 32 55 45 62 75 70 15 0
89 82 36 58 48 67 81 76 72 0
89 82 3 9 5 13 23 19 14 0
89 36 58 48 67 81 76 72 21 0
84 86 90 88 87 82 27 40 49 0
84 86 90 88 87 82 30 52 66 0
84 86 90 88 87 82 39 60 80 0
84 86 90 88 87 82 35 57 77 0
84 86 90 88 87 82 32 55 73 0
84 86 90 88 87 82 3 9 20 0
84 86 90 88 87 27 40 49 6 0
84 86 90 88 87 30 52 66 11 0
84 86 90 88 87 39 60 80 24 0
84 86 90 88 87 35 57 77 18 0
84 86 90 88 87 32 55 73 15 0
84 86 90 88 82 27 40 49 44 0
84 86 90 88 82 30 52 66 63 0
84 86 90 88 82 39 60 80 74 0
84 86 90 88 82 35 57 77 71 0
84 86 90 88 82 3 9 20 14 0
84 86 90 88 27 40 49 44 6 0
84 86 90 88 30 52 66 63 11 0
84 86 90 88 39 60 80 74 24 0
84 86 90 88 35 57 77 71 18 0
84 86 90 87 82 27 40 49 47 0
84 86 90 87 82 30 52 66 65 0
84 86 90 87 82 39 60 80 79 0
84 86 90 87 82 32 55 73 70 0
84 86 90 87 82 3 9 20 19 0
84 86 90 87 27 40 49 47 6 0
84 86 90 87 30 52 66 65 11 0
84 86 90 87 39 60 80 79 24 0
84 86 90 87 32 55 73 70 15 0
84 86 90 82 27 40 49 47 44 0
84 86 90 82 30 52 66 65 63 0
84 86 90 82 39 60 80 79 74 0
84 86 90 82 3 9 20 19 14 0
84 86 90 27 40 49 47 44 6 0
84 86 90 30 52 66 65 63 11 0
84 86 90 39 60 80 79 74 24 0
84 86 88 87 82 27 40 49 50 0
84 86 88 87 82 30 52 66 69 0
84 86 88 87 82 35 57 77 78 0
84 86 88 87 82 32 55 73 75 0
84 86 88 87 82 3 9 20 23 0
84 86 88 87 27 40 49 50 6 0
84 86 88 87 30 52 66 69 11 0
84 86 88 87 35 57 77 78 18 0
84 86 88 87 32 55 73 75 15 0
84 86 88 82 27 40 49 50 44 0
84 86 88 82 30 52 66 69 63 0
84 86 88 82 35 57 77 78 71 0
84 86 88 82 3 9 20 23 14 0
84 86 88 27 40 49 50 44 6 0
84 86 88 30 52 66 69 63 11 0
84 86 88 35 57 77 78 71 18 0
84 86 87 82 27 40 49 50 47 0
84 86 87 82 30 52 66 69 65 0
84 86 87 82 32 55 73 75 70 0
84 86 87 82 3 9 20 23 19 0
84 86 87 27 40 49 50 47 6 0
84 86 87 30 52 66 69 65 11 0
84 86 87 32 55 73 75 70 15 0
84 86 82 27 40 49 50 47 44 0
84 86 82 30 52 66 69 65 63 0
84 86 82 3 9 20 23 19 14 0
84 86 27 40 49 50 47 44 6 0
84 86 30 52 66 69 65 63 11 0
84 90 88 87 82 27 40 49 42 0
84 90 88 87 82 39 60 80 68 0
84 90 88 87 82 35 57 77 64 0
84 90 88 87 82 32 55 73 62 0
84 90 88 87 82 3 9 20 13 0
84 90 88 87 27 40 49 42 6 0
84 90 88 87 39 60 80 68 24 0
84 90 88 87 35 57 77 64 18 0
84 90 88 87 32 55 73 62 15 0
84 90 88 82 27 40 49 42 44 0
84 90 88 82 39 60 80 68 74 0
84 90 88 82 35 57 77 64 71 0
84 90 88 82 3 9 20 13 14 0
84 90 88 27 40 49 42 44 6 0
84 90 88 39 60 80 68 74 24 0
84 90 88 35 57 77 64 71 18 0
84 90 87 82 27 40 49 42 47 0
84 90 87 82 39 60 80 68 79 0
84 90 87 82 32 55 73 62 70 0
84 90 87 82 3 9 20 13 19 0
84 90 87 27 40 49 42 47 6 0
84 90 87 39 60 80 68 79 24 0
84 90 87 32 55 73 62 70 15 0
84 90 82 27 40 49 42 47 44 0
84 90 82 39 60 80 68 79 74 0
84 90 82 3 9 20 13 19 14 0
84 90 27 40 49 42 47 44 6 0
84 90 39 60 80 68 79 74 24 0
84 88 87 82 27 40 49 42 50 0
84 88 87 82 35 57 77 64 78 0
84 88 87 82 32 55 73 62 75 0
84 88 87 82 3 9 20 13 23 0
84 88 87 27 40 49 42 50 6 0
84 88 87 35 57 77 64 78 18 0
84 88 87 32 55 73 62 75 15 0
84 88 82 27 40 49 42 50 44 0
84 88 82 35 57 77 64 78 71 0
84 88 82 3 9 20 13 23 14 0
84 88 27 40 49 42 50 44 6 0
84 88 35 57 77 64 78 71 18 0
84 87 82 27 40 49 42 50 47 0
84 87 82 32 55 73 62 75 70 0
84 87 82 3 9 20 13 23 19 0
84 87 27 40 49 42 50 47 6 0
84 87 32 55 73 62 75 70 15 0
84 82 27 40 49 42 50 47 44 0
84 82 3 9 20 13 23 19 14 0
84 27 40 49 42 50 47 44 6 0
86 90 88 87 82 30 52 66 43 0
86 90 88 87 82 39 60 80 51 0
86 90 88 87 82 35 57 77 46 0
86 90 88 87 82 32 55 73 45 0
86 90 88 87 82 3 9 20 5 0
86 90 88 87 30 52 66 43 11 0
86 90 88 87 39 60 80 51 24 0
86 90 88 87 35 57 77 46 18 0
86 90 88 87 32 55 73 45 15 0
86 90 88 82 30 52 66 43 63 0
86 90 88 82 39 60 80 51 74 0
86 90 88 82 35 57 77 46 71 0
86 90 88 82 3 9 20 5 14 0
86 90 88 30 52 66 43 63 11 0
86 90 88 39 60 80 51 74 24 0
86 90 88 35 57 77 46 71 18 0
86 90 87 82 30 52 66 43 65 0
86 90 87 82 39 60 80 51 79 0
86 90 87 82 32 55 73 45 70 0
86 90 87 82 3 9 20 5 19 0
86 90 87 30 52 66 43 65 11 0
86 90 87 39 60 80 51 79 24 0
86 90 87 32 55 73 45 70 15 0
86 90 82 30 52 66 43 65 63 0
86 90 82 39 60 80 51 79 74 0
86 90 82 3 9 20 5 19 14 0
86 90 30 52 66 43 65 63 11 0
86 90 39 60 80 51 79 74 24 0
86 88 87 82 30 52 66 43 69 0
86 88 87 82 35 57 77 46 78 0
86 88 87 82 32 55 73 45 75 0
86 88 87 82 3 9 20 5 23 0
86 88 87 30 52 66 43 69 11 0
86 88 87 35 57 77 46 78 18 0
86 88 87 32 55 73 45 75 15 0
86 88 82 30 52 66 43 69 63 0
86 88 82 35 57 77 46 78 71 0
86 88 82 3 9 20 5 23 14 0
86 88 30 52 66 43 69 63 11 0
86 88 35 57 77 46 78 71 18 0
86 87 82 30 52 66 43 69 65 0
86 87 82 32 55 73 45 75 70 0
86 87 82 3 9 20 5 23 19 0
86 87 30 52 66 43 69 65 11 0
86 87 32 55 73 45 75 70 15 0
86 82 30 52 66 43 69 65 63 0
86 82 3 9 20 5 23 19 14 0
86 30 52 66 43 69 65 63 11 0
90 88 87 82 39 60 80 51 68 0
90 88 87 82 35 57 77 46 64 0
90 88 87 82 32 55 73 45 62 0
90 88 87 82 3 9 20 5 13 0
90 88 87 39 60 80 51 68 24 0
90 88 87 35 57 77 46 64 18 0
90 88 87 32 55 73 45 62 15 0
90 88 82 39 60 80 51 68 74 0
90 88 82 35 57 77 46 64 71 0
90 88 82 3 9 20 5 13 14 0
90 88 39 60 80 51 68 74 24 0
90 88 35 57 77 46 64 71 18 0
90 87 82 39 60 80 51 68 79 0
90 87 82 32 55 73 45 62 70 0
90 87 82 3 9 20 5 13 19 0
90 87 39 60 80 51 68 79 24 0
90 87 32 55 73 45 62 70 15 0
90 82 39 60 80 51 68 79 74 0
90 82 3 9 20 5 13 19 14 0
90 39 60 80 51 68 79 74 24 0
88 87 82 35 57 77 46 64 78 0
88 87 82 32 55 73 45 62 75 0
88 87 82 3 9 20 5 13 23 0
88 87 35 57 77 46 64 78 18 0
88 87 32 55 73 45 62 75 15 0
88 82 35 57 77 46 64 78 71 0
88 82 3 9 20 5 13 23 14 0
88 35 57 77 46 64 78 71 18 0
87 82 32 55 73 45 62 75 70 0
87 82 3 9 20 5 13 23 19 0
87 32 55 73 45 62 75 70 15 0
82 3 9 20 5 13 23 19 14 0
83 85 89 84 86 90 88 87 82 2 0
83 85 89 84 86 90 88 87 82 10 0
83 85 89 84 86 90 88 87 82 22 0
83 85 89 84 86 90 88 87 82 7 0
83 85 89 84 86 90 88 87 82 12 0
83 85 89 84 86 90 88 87 82 25 0
83 85 89 84 86 90 88 87 82 17 0
83 85 89 84 86 90 88 87 82 16 0
83 85 89 84 86 90 88 87 82 1 0
83 85 89 84 86 90 88 87 2 4 0
83 85 89 84 86 90 88 87 10 8 0
83 85 89 84 86 90 88 87 22 21 0
83 85 89 84 86 90 88 87 7 6 0
83 85 89 84 86 90 88 87 12 11 0
83 85 89 84 86 90 88 87 25 24 0
83 85 89 84 86 90 88 87 17 18 0
83 85 89 84 86 90 88 87 16 15 0
83 85 89 84 86 90 88 82 2 33 0
83 85 89 84 86 90 88 82 10 54 0
83 85 89 84 86 90 88 82 22 72 0
83 85 89 84 86 90 88 82 7 44 0
83 85 89 84 86 90 88 82 12 63 0
83 85 89 84 86 90 88 82 25 74 0
83 85 89 84 86 90 88 82 17 71 0
83 85 89 84 86 90 88 82 14 1 0
83 85 89 84 86 90 88 2 33 4 0
83 85 89 84 86 90 88 10 54 8 0
83 85 89 84 86 90 88 22 72 21 0
83 85 89 84 86 90 88 7 44 6 0
83 85 89 84 86 90 88 12 63 11 0
83 85 89 84 86 90 88 25 74 24 0
83 85 89 84 86 90 88 17 71 18 0
83 85 89 84 86 90 87 82 2 34 0
83 85 89 84 86 90 87 82 10 56 0
83 85 89 84 86 90 87 82 22 76 0
83 85 89 84 86 90 87 82 7 47 0
83 85 89 84 86 90 87 82 12 65 0
83 85 89 84 86 90 87 82 25 79 0
83 85 89 84 86 90 87 82 70 16 0
83 85 89 84 86 90 87 82 19 1 0
83 85 89 84 86 90 87 2 34 4 0
83 85 89 84 86 90 87 10 56 8 0
83 85 89 84 86 90 87 22 76 21 0
83 85 89 84 86 90 87 7 47 6 0
83 85 89 84 86 90 87 12 65 11 0
83 85 89 84 86 90 87 25 79 24 0
83 85 89 84 86 90 87 70 16 15 0
83 85 89 84 86 90 82 2 34 33 0
83 85 89 84 86 90 82 10 56 54 0
83 85 89 84 86 90 82 22 76 72 0
83 85 89 84 86 90 82 7 47 44 0
83 85 89 84 86 90 82 12 65 63 0
83 85 89 84 86 90 82 25 79 74 0
83 85 89 84 86 90 82 19 14 1 0
83 85 89 84 86 90 2 34 33 4 0
83 85 89 84 86 90 10 56 54 8 0
83 85 89 84 86 90 22 76 72 21 0
83 85 89 84 86 90 7 47 44 6 0
83 85 89 84 86 90 12 65 63 11 0
83 85 89 84 86 90 25 79 74 24 0
83 85 89 84 86 88 87 82 2 38 0
83 85 89 84 86 88 87 82 10 61 0
83 85 89 84 86 88 87 82 22 81 0
83 85 89 84 86 88 87 82 7 50 0
83 85 89 84 86 88 87 82 12 69 0
83 85 89 84 86 88 87 82 78 17 0
83 85 89 84 86 88 87 82 75 16 0
83 85 89 84 86 88 87 82 23 1 0
83 85 89 84 86 88 87 2 38 4 0
83 85 89 84 86 88 87 10 61 8 0
83 85 89 84 86 88 87 22 81 21 0
83 85 89 84 86 88 87 7 50 6 0
83 85 89 84 86 88 87 12 69 11 0
83 85 89 84 86 88 87 78 17 18 0
83 85 89 84 86 88 87 75 16 15 0
83 85 89 84 86 88 82 2 38 33 0
83 85 89 84 86 88 82 10 61 54 0
83 85 89 84 86 88 82 22 81 72 0
83 85 89 84 86 88 82 7 50 44 0
83 85 89 84 86 88 82 12 69 63 0
83 85 89 84 86 88 82 78 17 71 0
83 85 89 84 86 88 82 23 14 1 0
83 85 89 84 86 88 2 38 33 4 0
83 85 89 84 86 88 10 61 54 8 0
83 85 89 84 86 88 22 81 72 21 0
83 85 89 84 86 88 7 50 44 6 0
83 85 89 84 86 88 12 69 63 11 0
83 85 89 84 86 88 78 17 71 18 0
83 85 89 84 86 87 82 2 38 34 0
83 85 89 84 86 87 82 10 61 56 0
83 85 89 84 86 87 82 22 81 76 0
83 85 89 84 86 87 82 7 50 47 0
83 85 89 84 86 87 82 12 69 65 0
83 85 89 84 86 87 82 75 70 16 0
83 85 89 84 86 87 82 23 19 1 0
83 85 89 84 86 87 2 38 34 4 0
83 85 89 84 86 87 10 61 56 8 0
83 85 89 84 86 87 22 81 76 21 0
83 85 89 84 86 87 7 50 47 6 0
83 85 89 84 86 87 12 69 65 11 0
83 85 89 84 86 87 75 70 16 15 0
83 85 89 84 86 82 2 38 34 33 0
83 85 89 84 86 82 10 61 56 54 0
83 85 89 84 86 82 22 81 76 72 0
83 85 89 84 86 82 7 50 47 44 0
83 85 89 84 86 82 12 69 65 63 0
83 85 89 84 86 82 23 19 14 1 0
83 85 89 84 86 2 38 34 33 4 0
83 85 89 84 86 10 61 56 54 8 0
83 85 89 84 86 22 81 76 72 21 0
83 85 89 84 86 7 50 47 44 6 0
83 85 89 84 86 12 69 65 63 11 0
83 85 89 84 90 88 87 82 2 31 0
83 85 89 84 90 88 87 82 10 53 0
83 85 89 84 90 88 87 82 22 67 0
83 85 89 84 90 88 87 82 7 42 0
83 85 89 84 90 88 87 82 68 25 0
83 85 89 84 90 88 87 82 64 17 0
83 85 89 84 90 88 87 82 62 16 0
83 85 89 84 90 88 87 82 13 1 0
83 85 89 84 90 88 87 2 31 4 0
83 85 89 84 90 88 87 10 53 8 0
83 85 89 84 90 88 87 22 67 21 0
83 85 89 84 90 88 87 7 42 6 0
83 85 89 84 90 88 87 68 25 24 0
83 85 89 84 90 88 87 64 17 18 0
83 85 89 84 90 88 87 62 16 15 0
83 85 89 84 90 88 82 2 31 33 0
83 85 89 84 90 88 82 10 53 54 0
83 85 89 84 90 88 82 22 67 72 0
83 85 89 84 90 88 82 7 42 44 0
83 85 89 84 90 88 82 68 25 74 0
83 85 89 84 90 88 82 64 17 71 0
83 85 89 84 90 88 82 13 14 1 0
83 85 89 84 90 88 2 31 33 4 0
83 85 89 84 90 88 10 53 54 8 0
83 85 89 84 90 88 22 67 72 21 0
83 85 89 84 90 88 7 42 44 6 0
83 85 89 84 90 88 68 25 74 24 0
83 85 89 84 90 88 64 17 71 18 0
83 85 89 84 90 87 82 2 31 34 0
83 85 89 84 90 87 82 10 53 56 0
83 85 89 84 90 87 82 22 67 76 0
83 85 89 84 90 87 82 7 42 47 0
83 85 89 84 90 87 82 68 25 79 0
83 85 89 84 90 87 82 62 70 16 0
83 85 89 84 90 87 82 13 19 1 0
83 85 89 84 90 87 2 31 34 4 0
83 85 89 84 90 87 10 53 56 8 0
83 85 89 84 90 87 22 67 76 21 0
83 85 89 84 90 87 7 42 47 6 0
83 85 89 84 90 87 68 25 79 24 0
83 85 89 84 90 87 62 70 16 15 0
83 85 89 84 90 82 2 31 34 33 0
83 85 89 84 90 82 10 53 56 54 0
83 85 89 84 90 82 22 67 76 72 0
83 85 89 84 90 82 7 42 47 44 0
83 85 89 84 90 82 68 25 79 74 0
83 85 89 84 90 82 13 19 14 1 0
83 85 89 84 90 2 31 34 33 4 0
83 85 89 84 90 10 53 56 54 8 0
83 85 89 84 90 22 67 76 72 21 0
83 85 89 84 90 7 42 47 44 6 0
83 85 89 84 90 68 25 79 74 24 0
83 85 89 84 88 87 82 2 31 38 0
83 85 89 84 88 87 82 10 53 61 0
83 85 89 84 88 87 82 22 67 81 0
83 85 89 84 88 87 82 7 42 50 0
83 85 89 84 88 87 82 64 78 17 0
83 85 89 84 88 87 82 62 75 16 0
83 85 89 84 88 87 82 13 23 1 0
83 85 89 84 88 87 2 31 38 4 0
83 85 89 84 88 87 10 53 61 8 0
83 85 89 84 88 87 22 67 81 21 0
83 85 89 84 88 87 7 42 50 6 0
83 85 89 84 88 87 64 78 17 18 0
83 85 89 84 88 87 62 75 16 15 0
83 85 89 84 88 82 2 31 38 33 0
83 85 89 84 88 82 10 53 61 54 0
83 85 89 84 88 82 22 67 81 72 0
83 85 89 84 88 82 7 42 50 44 0
83 85 89 84 88 82 64 78 17 71 0
83 85 89 84 88 82 13 23 14 1 0
83 85 89 84 88 2 31 38 33 4 0
83 85 89 84 88 10 53 61 54 8 0
83 85 89 84 88 22 67 81 72 21 0
83 85 89 84 88 7 42 50 44 6 0
83 85 89 84 88 64 78 17 71 18 0
83 85 89 84 87 82 2 31 38 34 0
83 85 89 84 87 82 10 53 61 56 0
83 85 89 84 87 82 22 67 81 76 0
83 85 89 84 87 82 7 42 50 47 0
83 85 89 84 87 82 62 75 70 16 0
83 85 89 84 87 82 13 23 19 1 0
83 85 89 84 87 2 31 38 34 4 0
83 85 89 84 87 10 53 61 56 8 0
83 85 89 84 87 22 67 81 76 21 0
83 85 89 84 87 7 42 50 47 6 0
83 85 89 84 87 62 75 70 16 15 0
83 85 89 84 82 2 31 38 34 33 0
83 85 89 84 82 10 53 61 56 54 0
83 85 89 84 82 22 67 81 76 72 0
83 85 89 84 82 7 42 50 47 44 0
83 85 89 84 82 13 23 19 14 1 0
83 85 89 84 2 31 38 34 33 4 0
83 85 89 84 10 53 61 56 54 8 0
83 85 89 84 22 67 81 76 72 21 0
83 85 89 84 7 42 50 47 44 6 0
83 85 89 86 90 88 87 82 2 26 0
83 85 89 86 90 88 87 82 10 41 0
83 85 89 86 90 88 87 82 22 48 0
83 85 89 86 90 88 87 82 43 12 0
83 85 89 86 90 88 87 82 51 25 0
83 85 89 86 90 88 87 82 46 17 0
83 85 89 86 90 88 87 82 45 16 0
83 85 89 86 90 88 87 82 5 1 0
83 85 89 86 90 88 87 2 26 4 0
83 85 89 86 90 88 87 10 41 8 0
83 85 89 86 90 88 87 22 48 21 0
83 85 89 86 90 88 87 43 12 11 0
83 85 89 86 90 88 87 51 25 24 0
83 85 89 86 90 88 87 46 17 18 0
83 85 89 86 90 88 87 45 16 15 0
83 85 89 86 90 88 82 2 26 33 0
83 85 89 86 90 88 82 10 41 54 0
83 85 89 86 90 88 82 22 48 72 0
83 85 89 86 90 88 82 43 12 63 0
83 85 89 86 90 88 82 51 25 74 0
83 85 89 86 90 88 82 46 17 71 0
83 85 89 86 90 88 82 5 14 1 0
83 85 89 86 90 88 2 26 33 4 0
83 85 89 86 90 88 10 41 54 8 0
83 85 89 86 90 88 22 48 72 21 0
83 85 89 86 90 88 43 12 63 11 0
83 85 89 86 90 88 51 25 74 24 0
83 85 89 86 90 88 46 17 71 18 0
83 85 89 86 90 87 82 2 26 34 0
83 85 89 86 90 87 82 10 41 56 0
83 85 89 86 90 87 82 22 48 76 0
83 85 89 86 90 87 82 43 12 65 0
83 85 89 86 90 87 82 51 25 79 0
83 85 89 86 90 87 82 45 70 16 0
83 85 89 86 90 87 82 5 19 1 0
83 85 89 86 90 87 2 26 34 4 0
83 85 89 86 90 87 10 41 56 8 0
83 85 89 86 90 87 22 48 76 21 0
83 85 89 86 90 87 43 12 65 11 0
83 85 89 86 90 87 51 25 79 24 0
83 85 89 86 90 87 45 70 16 15 0
83 85 89 86 90 82 2 26 34 33 0
83 85 89 86 90 82 10 41 56 54 0
83 85 89 86 90 82 22 48 76 72 0
83 85 89 86 90 82 43 12 65 63 0
83 85 89 86 90 82 51 25 79 74 0
83 85 89 86 90 82 5 19 14 1 0
83 85 89 86 90 2 26 34 33 4 0
83 85 89 86 90 10 41 56 54 8 0
83 85 89 86 90 22 48 76 72 21 0
83 85 89 86 90 43 12 65 63 11 0
83 85 89 86 90 51 25 79 74 24 0
83 85 89 86 88 87 82 2 26 38 0
83 85 89 86 88 87 82 10 41 61 0
83 85 89 86 88 87 82 22 48 81 0
83 85 89 86 88 87 82 43 12 69 0
83 85 89 86 88 87 82 46 78 17 0
83 85 89 86 88 87 82 45 75 16 0
83 85 89 86 88 87 82 5 23 1 0
83 85 89 86 88 87 2 26 38 4 0
83 85 89 86 88 87 10 41 61 8 0
83 85 89 86 88 87 22 48 81 21 0
83 85 89 86 88 87 43 12 69 11 0
83 85 89 86 88 87 46 78 17 18 0
83 85 89 86 88 87 45 75 16 15 0
83 85 89 86 88 82 2 26 38 33 0
83 85 89 86 88 82 10 41 61 54 0
83 85 89 86 88 82 22 48 81 72 0
83 85 89 86 88 82 43 12 69 63 0
83 85 89 86 88 82 46 78 17 71 0
83 85 89 86 88 82 5 23 14 1 0
83 85 89 86 88 2 26 38 33 4 0
83 85 89 86 88 10 41 61 54 8 0
83 85 89 86 88 22 48 81 72 21 0
83 85 89 86 88 43 12 69 63 11 0
83 85 89 86 88 46 78 17 71 18 0
83 85 89 86 87 82 2 26 38 34 0
83 85 89 86 87 82 10 41 61 56 0
83 85 89 86 87 82 22 48 81 76 0
83 85 89 86 87 82 43 12 69 65 0
83 85 89 86 87 82 45 75 70 16 0
83 85 89 86 87 82 5 23 19 1 0
83 85 89 86 87 2 26 38 34 4 0
83 85 89 86 87 10 41 61 56 8 0
83 85 89 86 87 22 48 81 76 21 0
83 85 89 86 87 43 12 69 65 11 0
83 85 89 86 87 45 75 70 16 15 0
83 85 89 86 82 2 26 38 34 33 0
83 85 89 86 82 10 41 61 56 54 0
83 85 89 86 82 22 48 81 76 72 0
83 85 89 86 82 43 12 69 65 63 0
83 85 89 86 82 5 23 19 14 1 0
83 85 89 86 2 26 38 34 33 4 0
83 85 89 86 10 41 61 56 54 8 0
83 85 89 86 22 48 81 76 72 21 0
83 85 89 86 43 12 69 65 63 11 0
83 85 89 90 88 87 82 2 26 31 0
83 85 89 90 88 87 82 10 41 53 0
83 85 89 90 88 87 82 22 48 67 0
83 85 89 90 88 87 82 51 68 25 0
83 85 89 90 88 87 82 46 64 17 0
83 85 89 90 88 87 82 45 62 16 0
83 85 89 90 88 87 82 5 13 1 0
83 85 89 90 88 87 2 26 31 4 0
83 85 89 90 88 87 10 41 53 8 0
83 85 89 90 88 87 22 48 67 21 0
83 85 89 90 88 87 51 68 25 24 0
83 85 89 90 88 87 46 64 17 18 0
83 85 89 90 88 87 45 62 16 15 0
83 85 89 90 88 82 2 26 31 33 0
83 85 89 90 88 82 10 41 53 54 0
83 85 89 90 88 82 22 48 67 72 0
83 85 89 90 88 82 51 68 25 74 0
83 85 89 90 88 82 46 64 17 71 0
83 85 89 90 88 82 5 13 14 1 0
83 85 89 90 88 2 26 31 33 4 0
83 85 89 90 88 10 41 53 54 8 0
83 85 89 90 88 22 48 67 72 21 0
83 85 89 90 88 51 68 25 74 24 0
83 85 89 90 88 46 64 17 71 18 0
83 85 89 90 87 82 2 26 31 34 0
83 85 89 90 87 82 10 41 53 56 0
83 85 89 90 87 82 22 48 67 76 0
83 85 89 90 87 82 51 68 25 79 0
83 85 89 90 87 82 45 62 70 16 0
83 85 89 90 87 82 5 13 19 1 0
83 85 89 90 87 2 26 31 34 4 0
83 85 89 90 87 10 41 53 56 8 0
83 85 89 90 87 22 48 67 76 21 0
83 85 89 90 87 51 68 25 79 24 0
83 85 89 90 87 45 62 70 16 15 0
83 85 89 90 82 2 26 31 34 33 0
83 85 89 90 82 10 41 53 56 54 0
83 85 89 90 82 22 48 67 76 72 0
83 85 89 90 82 51 68 25 79 74 0
83 85 89 90 82 5 13 19 14 1 0
83 85 89 90 2 26 31 34 33 4 0
83 85 89 90 10 41 53 56 54 8 0
83 85 89 90 22 48 67 76 72 21 0
83 85 89 90 51 68 25 79 74 24 0
83 85 89 88 87 82 2 26 31 38 0
83 85 89 88 87 82 10 41 53 61 0
83 85 89 88 87 82 22 48 67 81 0
83 85 89 88 87 82 46 64 78 17 0
83 85 89 88 87 82 45 62 75 16 0
83 85 89 88 87 82 5 13 23 1 0
83 85 89 88 87 2 26 31 38 4 0
83 85 89 88 87 10 41 53 61 8 0
83 85 89 88 87 22 48 67 81 21 0
83 85 89 88 87 46 64 78 17 18 0
83 85 89 88 87 45 62 75 16 15 0
83 85 89 88 82 2 26 31 38 33 0
83 85 89 88 82 10 41 53 61 54 0
83 85 89 88 82 22 48 67 81 72 0
83 85 89 88 82 46 64 78 17 71 0
83 85 89 88 82 5 13 23 14 1 0
83 85 89 88 2 26 31 38 33 4 0
83 85 89 88 10 41 53 61 54 8 0
83 85 89 88 22 48 67 81 72 21 0
83 85 89 88 46 64 78 17 71 18 0
83 85 89 87 82 2 26 31 38 34 0
83 85 89 87 82 10 41 53 61 56 0
83 85 89 87 82 22 48 67 81 76 0
83 85 89 87 82 45 62 75 70 16 0
83 85 89 87 82 5 13 23 19 1 0
83 85 89 87 2 26 31 38 34 4 0
83 85 89 87 10 41 53 61 56 8 0
83 85 89 87 22 48 67 81 76 21 0
83 85 89 87 45 62 75 70 16 15 0
83 85 89 82 2 26 31 38 34 33 0
83 85 89 82 10 41 53 61 56 54 0
83 85 89 82 22 48 67 81 76 72 0
83 85 89 82 5 13 23 19 14 1 0
83 85 89 2 26 31 38 34 33 4 0
83 85 89 10 41 53 61 56 54 8 0
83 85 89 22 48 67 81 76 72 21 0
83 85 84 86 90 88 87 82 2 37 0
83 85 84 86 90 88 87 82 10 59 0
83 85 84 86 90 88 87 82 49 7 0
83 85 84 86 90 88 87 82 66 12 0
83 85 84 86 90 88 87 82 80 25 0
83 85 84 86 90 88 87 82 77 17 0
83 85 84 86 90 88 87 82 73 16 0
83 85 84 86 90 88 87 82 20 1 0
83 85 84 86 90 88 87 2 37 4 0
83 85 84 86 90 88 87 10 59 8 0
83 85 84 86 90 88 87 49 7 6 0
83 85 84 86 90 88 87 66 12 11 0
83 85 84 86 90 88 87 80 25 24 0
83 85 84 86 90 88 87 77 17 18 0
83 85 84 86 90 88 87 73 16 15 0
83 85 84 86 90 88 82 2 37 33 0
83 85 84 86 90 88 82 10 59 54 0
83 85 84 86 90 88 82 49 7 44 0
83 85 84 86 90 88 82 66 12 63 0
83 85 84 86 90 88 82 80 25 74 0
83 85 84 86 90 88 82 77 17 71 0
83 85 84 86 90 88 82 20 14 1 0
83 85 84 86 90 88 2 37 33 4 0
83 85 84 86 90 88 10 59 54 8 0
83 85 84 86 90 88 49 7 44 6 0
83 85 84 86 90 88 66 12 63 11 0
83 85 84 86 90 88 80 25 74 24 0
83 85 84 86 90 88 77 17 71 18 0
83 85 84 86 90 87 82 2 37 34 0
83 85 84 86 90 87 82 10 59 56 0
83 85 84 86 90 87 82 49 7 47 0
83 85 84 86 90 87 82 66 12 65 0
83 85 84 86 90 87 82 80 25 79 0
83 85 84 86 90 87 82 73 70 16 0
83 85 84 86 90 87 82 20 19 1 0
83 85 84 86 90 87 2 37 34 4 0
83 85 84 86 90 87 10 59 56 8 0
83 85 84 86 90 87 49 7 47 6 0
83 85 84 86 90 87 66 12 65 11 0
83 85 84 86 90 87 80 25 79 24 0
83 85 84 86 90 87 73 70 16 15 0
83 85 84 86 90 82 2 37 34 33 0
83 85 84 86 90 82 10 59 56 54 0
83 85 84 86 90 82 49 7 47 44 0
83 85 84 86 90 82 66 12 65 63 0
83 85 84 86 90 82 80 25 79 74 0
83 85 84 86 90 82 20 19 14 1 0
83 85 84 86 90 2 37 34 33 4 0
83 85 84 86 90 10 59 56 54 8 0
83 85 84 86 90 49 7 47 44 6 0
83 85 84 86 90 66 12 65 63 11 0
83 85 84 86 90 80 25 79 74 24 0
83 85 84 86 88 87 82 2 37 38 0
83 85 84 86 88 87 82 10 59 61 0
83 85 84 86 88 87 82 49 7 50 0
83 85 84 86 88 87 82 66 12 69 0
83 85 84 86 88 87 82 77 78 17 0
83 85 84 86 88 87 82 73 75 16 0
83 85 84 86 88 87 82 20 23 1 0
83 85 84 86 88 87 2 37 38 4 0
83 85 84 86 88 87 10 59 61 8 0
83 85 84 86 88 87 49 7 50 6 0
83 85 84 86 88 87 66 12 69 11 0
83 85 84 86 88 87 77 78 17 18 0
83 85 84 86 88 87 73 75 16 15 0
83 85 84 86 88 82 2 37 38 33 0
83 85 84 86 88 82 10 59 61 54 0
83 85 84 86 88 82 49 7 50 44 0
83 85 84 86 88 82 66 12 69 63 0
83 85 84 86 88 82 77 78 17 71 0
83 85 84 86 88 82 20 23 14 1 0
83 85 84 86 88 2 37 38 33 4 0
83 85 84 86 88 10 59 61 54 8 0
83 85 84 86 88 49 7 50 44 6 0
83 85 84 86 88 66 12 69 63 11 0
83 85 84 86 88 77 78 17 71 18 0
83 85 84 86 87 82 2 37 38 34 0
83 85 84 86 87 82 10 59 61 56 0
83 85 84 86 87 82 49 7 50 47 0
83 85 84 86 87 82 66 12 69 65 0
83 85 84 86 87 82 73 75 70 16 0
83 85 84 86 87 82 20 23 19 1 0
83 85 84 86 87 2 37 38 34 4 0
83 85 84 86 87 10 59 61 56 8 0
83 85 84 86 87 49 7 50 47 6 0
83 85 84 86 87 66 12 69 65 11 0
83 85 84 86 87 73 75 70 16 15 0
83 85 84 86 82 2 37 38 34 33 0
83 85 84 86 82 10 59 61 56 54 0
83 85 84 86 82 49 7 50 47 44 0
83 85 84 86 82 66 12 69 65 63 0
83 85 84 86 82 20 23 19 14 1 0
83 85 84 86 2 37 38 34 33 4 0
83 85 84 86 10 59 61 56 54 8 0
83 85 84 86 49 7 50 47 44 6 0
83 85 84 86 66 12 69 65 63 11 0
83 85 84 90 88 87 82 2 37 31 0
83 85 84 90 88 87 82 10 59 53 0
83 85 84 90 88 87 82 49 7 42 0
83 85 84 90 88 87 82 80 68 25 0
83 85 84 90 88 87 82 77 64 17 0
83 85 84 90 88 87 82 73 62 16 0
83 85 84 90 88 87 82 20 13 1 0
83 85 84 90 88 87 2 37 31 4 0
83 85 84 90 88 87 10 59 53 8 0
83 85 84 90 88 87 49 7 42 6 0
83 85 84 90 88 87 80 68 25 24 0
83 85 84 90 88 87 77 64 17 18 0
83 85 84 90 88 87 73 62 16 15 0
83 85 84 90 88 82 2 37 31 33 0
83 85 84 90 88 82 10 59 53 54 0
83 85 84 90 88 82 49 7 42 44 0
83 85 84 90 88 82 80 68 25 74 0
83 85 84 90 88 82 77 64 17 71 0
83 85 84 90 88 82 20 13 14 1 0
83 85 84 90 88 2 37 31 33 4 0
83 85 84 90 88 10 59 53 54 8 0
83 85 84 90 88 49 7 42 44 6 0
83 85 84 90 88 80 68 25 74 24 0
83 85 84 90 88 77 64 17 71 18 0
83 85 84 90 87 82 2 37 31 34 0
83 85 84 90 87 82 10 59 53 56 0
83 85 84 90 87 82 49 7 42 47 0
83 85 84 90 87 82 80 68 25 79 0
83 85 84 90 87 82 73 62 70 16 0
83 85 84 90 87 82 20 13 19 1 0
83 85 84 90 87 2 37 31 34 4 0
83 85 84 90 87 10 59 53 56 8 0
83 85 84 90 87 49 7 42 47 6 0
83 85 84 90 87 80 68 25 79 24 0
83 85 84 90 87 73 62 70 16 15 0
83 85 84 90 82 2 37 31 34 33 0
83 85 84 90 82 10 59 53 56 54 0
83 85 84 90 82 49 7 42 47 44 0
83 85 84 90 82 80 68 25 79 74 0
83 85 84 90 82 20 13 19 14 1 0
83 85 84 90 2 37 31 34 33 4 0
83 85 84 90 10 59 53 56 54 8 0
83 85 84 90 49 7 42 47 44 6 0
83 85 84 90 80 68 25 79 74 24 0
83 85 84 88 87 82 2 37 31 38 0
83 85 84 88 87 82 10 59 53 61 0
83 85 84 88 87 82 49 7 42 50 0
83 85 84 88 87 82 77 64 78 17 0
83 85 84 88 87 82 73 62 75 16 0
83 85 84 88 87 82 20 13 23 1 0
83 85 84 88 87 2 37 31 38 4 0
83 85 84 88 87 10 59 53 61 8 0
83 85 84 88 87 49 7 42 50 6 0
83 85 84 88 87 77 64 78 17 18 0
83 85 84 88 87 73 62 75 16 15 0
83 85 84 88 82 2 37 31 38 33 0
83 85 84 88 82 10 59 53 61 54 0
83 85 84 88 82 49 7 42 50 44 0
83 85 84 88 82 77 64 78 17 71 0
83 85 84 88 82 20 13 23 14 1 0
83 85 84 88 2 37 31 38 33 4 0
83 85 84 88 10 59 53 61 54 8 0
83 85 84 88 49 7 42 50 44 6 0
83 85 84 88 77 64 78 17 71 18 0
83 85 84 87 82 2 37 31 38 34 0
83 85 84 87 82 10 59 53 61 56 0
83 85 84 87 82 49 7 42 50 47 0
83 85 84 87 82 73 62 75 70 16 0
83 85 84 87 82 20 13 23 19 1 0
83 85 84 87 2 37 31 38 34 4 0
83 85 84 87 10 59 53 61 56 8 0
83 85 84 87 49 7 42 50 47 6 0
83 85 84 87 73 62 75 70 16 15 0
83 85 84 82 2 37 31 38 34 33 0
83 85 84 82 10 59 53 61 56 54 0
83 85 84 82 49 7 42 50 47 44 0
83 85 84 82 20 13 23 19 14 1 0
83 85 84 2 37 31 38 34 33 4 0
83 85 84 10 59 53 61 56 54 8 0
83 85 84 49 7 42 50 47 44 6 0
83 85 86 90 88 87 82 2 37 26 0
83 85 86 90 88 87 82 10 59 41 0
83 85 86 90 88 87 82 66 43 12 0
83 85 86 90 88 87 82 80 51 25 0
83 85 86 90 88 87 82 77 46 17 0
83 85 86 90 88 87 82 73 45 16 0
83 85 86 90 88 87 82 20 5 1 0
83 85 86 90 88 87 2 37 26 4 0
83 85 86 90 88 87 10 59 41 8 0
83 85 86 90 88 87 66 43 12 11 0
83 85 86 90 88 87 80 51 25 24 0
83 85 86 90 88 87 77 46 17 18 0
83 85 86 90 88 87 73 45 16 15 0
83 85 86 90 88 82 2 37 26 33 0
83 85 86 90 88 82 10 59 41 54 0
83 85 86 90 88 82 66 43 12 63 0
83 85 86 90 88 82 80 51 25 74 0
83 85 86 90 88 82 77 46 17 71 0
83 85 86 90 88 82 20 5 14 1 0
83 85 86 90 88 2 37 26 33 4 0
83 85 86 90 88 10 59 41 54 8 0
83 85 86 90 88 66 43 12 63 11 0
83 85 86 90 88 80 51 25 74 24 0
83 85 86 90 88 77 46 17 71 18 0
83 85 86 90 87 82 2 37 26 34 0
83 85 86 90 87 82 10 59 41 56 0
83 85 86 90 87 82 66 43 12 65 0
83 85 86 90 87 82 80 51 25 79 0
83 85 86 90 87 82 73 45 70 16 0
83 85 86 90 87 82 20 5 19 1 0
83 85 86 90 87 2 37 26 34 4 0
83 85 86 90 87 10 59 41 56 8 0
83 85 86 90 87 66 43 12 65 11 0
83 85 86 90 87 80 51 25 79 24 0
83 85 86 90 87 73 45 70 16 15 0
83 85 86 90 82 2 37 26 34 33 0
83 85 86 90 82 10 59 41 56 54 0
83 85 86 90 82 66 43 12 65 63 0
83 85 86 90 82 80 51 25 79 74 0
83 85 86 90 82 20 5 19 14 1 0
83 85 86 90 2 37 26 34 33 4 0
83 85 86 90 10 59 41 56 54 8 0
83 85 86 90 66 43 12 65 63 11 0
83 85 86 90 80 51 25 79 74 24 0
83 85 86 88 87 82 2 37 26 38 0
83 85 86 88 87 82 10 59 41 61 0
83 85 86 88 87 82 66 43 12 69 0
83 85 86 88 87 82 77 46 78 17 0
83 85 86 88 87 82 73 45 75 16 0
83 85 86 88 87 82 20 5 23 1 0
83 85 86 88 87 2 37 26 38 4 0
83 85 86 88 87 10 59 41 61 8 0
83 85 86 88 87 66 43 12 69 11 0
83 85 86 88 87 77 46 78 17 18 0
83 85 86 88 87 73 45 75 16 15 0
83 85 86 88 82 2 37 26 38 33 0
83 85 86 88 82 10 59 41 61 54 0
83 85 86 88 82 66 43 12 69 63 0
83 85 86 88 82 77 46 78 17 71 0
83 85 86 88 82 20 5 23 14 1 0
83 85 86 88 2 37 26 38 33 4 0
83 85 86 88 10 59 41 61 54 8 0
83 85 86 88 66 43 12 69 63 11 0
83 85 86 88 77 46 78 17 71 18 0
83 85 86 87 82 2 37 26 38 34 0
83 85 86 87 82 10 59 41 61 56 0
83 85 86 87 82 66 43 12 69 65 0
83 85 86 87 82 73 45 75 70 16 0
83 85 86 87 82 20 5 23 19 1 0
83 85 86 87 2 37 26 38 34 4 0
83 85 86 87 10 59 41 61 56 8 0
83 85 86 87 66 43 12 69 65 11 0
83 85 86 87 73 45 75 70 16 15 0
83 85 86 82 2 37 26 38 34 33 0
83 85 86 82 10 59 41 61 56 54 0
83 85 86 82 66 43 12 69 65 63 0
83 85 86 82 20 5 23 19 14 1 0
83 85 86 2 37 26 38 34 33 4 0
83 85 86 10 59 41 61 56 54 8 0
83 85 86 66 43 12 69 65 63 11 0
83 85 90 88 87 82 2 37 26 31 0
83 85 90 88 87 82 10 59 41 53 0
83 85 90 88 87 82 80 51 68 25 0
83 85 90 88 87 82 77 46 64 17 0
83 85 90 88 87 82 73 45 62 16 0
83 85 90 88 87 82 20 5 13 1 0
83 85 90 88 87 2 37 26 31 4 0
83 85 90 88 87 10 59 41 53 8 0
83 85 90 88 87 80 51 68 25 24 0
83 85 90 88 87 77 46 64 17 18 0
83 85 90 88 87 73 45 62 16 15 0
83 85 90 88 82 2 37 26 31 33 0
83 85 90 88 82 10 59 41 53 54 0
83 85 90 88 82 80 51 68 25 74 0
83 85 90 88 82 77 46 64 17 71 0
83 85 90 88 82 20 5 13 14 1 0
83 85 90 88 2 37 26 31 33 4 0
83 85 90 88 10 59 41 53 54 8 0
83 85 90 88 80 51 68 25 74 24 0
83 85 90 88 77 46 64 17 71 18 0
83 85 90 87 82 2 37 26 31 34 0
83 85 90 87 82 10 59 41 53 56 0
83 85 90 87 82 80 51 68 25 79 0
83 85 90 87 82 73 45 62 70 16 0
83 85 90 87 82 20 5 13 19 1 0
83 85 90 87 2 37 26 31 34 4 0
83 85 90 87 10 59 41 53 56 8 0
83 85 90 87 80 51 68 25 79 24 0
83 85 90 87 73 45 62 70 16 15 0
83 85 90 82 2 37 26 31 34 33 0
83 85 90 82 10 59 41 53 56 54 0
83 85 90 82 80 51 68 25 79 74 0
83 85 90 82 20 5 13 19 14 1 0
83 85 90 2 37 26 31 34 33 4 0
83 85 90 10 59 41 53 56 54 8 0
83 85 90 80 51 68 25 79 74 24 0
83 85 88 87 82 2 37 26 31 38 0
83 85 88 87 82 10 59 41 53 61 0
83 85 88 87 82 77 46 64 78 17 0
83 85 88 87 82 73 45 62 75 16 0
83 85 88 87 82 20 5 13 23 1 0
83 85 88 87 2 37 26 31 38 4 0
83 85 88 87 10 59 41 53 61 8 0
83 85 88 87 77 46 64 78 17 18 0
83 85 88 87 73 45 62 75 16 15 0
83 85 88 82 2 37 26 31 38 33 0
83 85 88 82 10 59 41 53 61 54 0
83 85 88 82 77 46 64 78 17 71 0
83 85 88 82 20 5 13 23 14 1 0
83 85 88 2 37 26 31 38 33 4 0
83 85 88 10 59 41 53 61 54 8 0
83 85 88 77 46 64 78 17 71 18 0
83 85 87 82 2 37 26 31 38 34 0
83 85 87 82 10 59 41 53 61 56 0
83 85 87 82 73 45 62 75 70 16 0
83 85 87 82 20 5 13 23 19 1 0
83 85 87 2 37 26 31 38 34 4 0
83 85 87 10 59 41 53 61 56 8 0
83 85 87 73 45 62 75 70 16 15 0
83 85 82 2 37 26 31 38 34 33 0
83 85 82 10 59 41 53 61 56 54 0
83 85 82 20 5 13 23 19 14 1 0
83 85 2 37 26 31 38 34 33 4 0
83 85 10 59 41 53 61 56 54 8 0
83 89 84 86 90 88 87 82 2 29 0
83 89 84 86 90 88 87 82 58 22 0
83 89 84 86 90 88 87 82 40 7 0
83 89 84 86 90 88 87 82 52 12 0
83 89 84 86 90 88 87 82 60 25 0
83 89 84 86 90 88 87 82 57 17 0
83 89 84 86 90 88 87 82 55 16 0
83 89 84 86 90 88 87 82 9 1 0
83 89 84 86 90 88 87 2 29 4 0
83 89 84 86 90 88 87 58 22 21 0
83 89 84 86 90 88 87 40 7 6 0
83 89 84 86 90 88 87 52 12 11 0
83 89 84 86 90 88 87 60 25 24 0
83 89 84 86 90 88 87 57 17 18 0
83 89 84 86 90 88 87 55 16 15 0
83 89 84 86 90 88 82 2 29 33 0
83 89 84 86 90 88 82 58 22 72 0
83 89 84 86 90 88 82 40 7 44 0
83 89 84 86 90 88 82 52 12 63 0
83 89 84 86 90 88 82 60 25 74 0
83 89 84 86 90 88 82 57 17 71 0
83 89 84 86 90 88 82 9 14 1 0
83 89 84 86 90 88 2 29 33 4 0
83 89 84 86 90 88 58 22 72 21 0
83 89 84 86 90 88 40 7 44 6 0
83 89 84 86 90 88 52 12 63 11 0
83 89 84 86 90 88 60 25 74 24 0
83 89 84 86 90 88 57 17 71 18 0
83 89 84 86 90 87 82 2 29 34 0
83 89 84 86 90 87 82 58 22 76 0
83 89 84 86 90 87 82 40 7 47 0
83 89 84 86 90 87 82 52 12 65 0
83 89 84 86 90 87 82 60 25 79 0
83 89 84 86 90 87 82 55 70 16 0
83 89 84 86 90 87 82 9 19 1 0
83 89 84 86 90 87 2 29 34 4 0
83 89 84 86 90 87 58 22 76 21 0
83 89 84 86 90 87 40 7 47 6 0
83 89 84 86 90 87 52 12 65 11 0
83 89 84 86 90 87 60 25 79 24 0
83 89 84 86 90 87 55 70 16 15 0
83 89 84 86 90 82 2 29 34 33 0
83 89 84 86 90 82 58 22 76 72 0
83 89 84 86 90 82 40 7 47 44 0
83 89 84 86 90 82 52 12 65 63 0
83 89 84 86 90 82 60 25 79 74 0
83 89 84 86 90 82 9 19 14 1 0
83 89 84 86 90 2 29 34 33 4 0
83 89 84 86 90 58 22 76 72 21 0
83 89 84 86 90 40 7 47 44 6 0
83 89 84 86 90 52 12 65 63 11 0
83 89 84 86 90 60 25 79 74 24 0
83 89 84 86 88 87 82 2 29 38 0
83 89 84 86 88 87 82 58 22 81 0
83 89 84 86 88 87 82 40 7 50 0
83 89 84 86 88 87 82 52 12 69 0
83 89 84 86 88 87 82 57 78 17 0
83 89 84 86 88 87 82 55 75 16 0
83 89 84 86 88 87 82 9 23 1 0
83 89 84 86 88 87 2 29 38 4 0
83 89 84 86 88 87 58 22 81 21 0
83 89 84 86 88 87 40 7 50 6 0
83 89 84 86 88 87 52 12 69 11 0
83 89 84 86 88 87 57 78 17 18 0
83 89 84 86 88 87 55 75 16 15 0
83 89 84 86 88 82 2 29 38 33 0
83 89 84 86 88 82 58 22 81 72 0
83 89 84 86 88 82 40 7 50 44 0
83 89 84 86 88 82 52 12 69 63 0
83 89 84 86 88 82 57 78 17 71 0
83 89 84 86 88 82 9 23 14 1 0
83 89 84 86 88 2 29 38 33 4 0
83 89 84 86 88 58 22 81 72 21 0
83 89 84 86 88 40 7 50 44 6 0
83 89 84 86 88 52 12 69 63 11 0
83 89 84 86 88 57 78 17 71 18 0
83 89 84 86 87 82 2 29 38 34 0
83 89 84 86 87 82 58 22 81 76 0
83 89 84 86 87 82 40 7 50 47 0
83 89 84 86 87 82 52 12 69 65 0
83 89 84 86 87 82 55 75 70 16 0
83 89 84 86 87 82 9 23 19 1 0
83 89 84 86 87 2 29 38 34 4 0
83 89 84 86 87 58 22 81 76 21 0
83 89 84 86 87 40 7 50 47 6 0
83 89 84 86 87 52 12 69 65 11 0
83 89 84 86 87 55 75 70 16 15 0
83 89 84 86 82 2 29 38 34 33 0
83 89 84 86 82 58 22 81 76 72 0
83 89 84 86 82 40 7 50 47 44 0
83 89 84 86 82 52 12 69 65 63 0
83 89 84 86 82 9 23 19 14 1 0
83 89 84 86 2 29 38 34 33 4 0
83 89 84 86 58 22 81 76 72 21 0
83 89 84 86 40 7 50 47 44 6 0
83 89 84 86 52 12 69 65 63 11 0
83 89 84 90 88 87 82 2 29 31 0
83 89 84 90 88 87 82 58 22 67 0
83 89 84 90 88 87 82 40 7 42 0
83 89 84 90 88 87 82 60 68 25 0
83 89 84 90 88 87 82 57 64 17 0
83 89 84 90 88 87 82 55 62 16 0
83 89 84 90 88 87 82 9 13 1 0
83 89 84 90 88 87 2 29 31 4 0
83 89 84 90 88 87 58 22 67 21 0
83 89 84 90 88 87 40 7 42 6 0
83 89 84 90 88 87 60 68 25 24 0
83 89 84 90 88 87 57 64 17 18 0
83 89 84 90 88 87 55 62 16 15 0
83 89 84 90 88 82 2 29 31 33 0
83 89 84 90 88 82 58 22 67 72 0
83 89 84 90 88 82 40 7 42 44 0
83 89 84 90 88 82 60 68 25 74 0
83 89 84 90 88 82 57 64 17 71 0
83 89 84 90 88 82 9 13 14 1 0
83 89 84 90 88 2 29 31 33 4 0
83 89 84 90 88 58 22 67 72 21 0
83 89 84 90 88 40 7 42 44 6 0
83 89 84 90 88 60 68 25 74 24 0
83 89 84 90 88 57 64 17 71 18 0
83 89 84 90 87 82 2 29 31 34 0
83 89 84 90 87 82 58 22 67 76 0
83 89 84 90 87 82 40 7 42 47 0
83 89 84 90 87 82 60 68 25 79 0
83 89 84 90 87 82 55 62 70 16 0
83 89 84 90 87 82 9 13 19 1 0
83 89 84 90 87 2 29 31 34 4 0
83 89 84 90 87 58 22 67 76 21 0
83 89 84 90 87 40 7 42 47 6 0
83 89 84 90 87 60 68 25 79 24 0
83 89 84 90 87 55 62 70 16 15 0
83 89 84 90 82 2 29 31 34 33 0
83 89 84 90 82 58 22 67 76 72 0
83 89 84 90 82 40 7 42 47 44 0
83 89 84 90 82 60 68 25 79 74 0
83 89 84 90 82 9 13 19 14 1 0
83 89 84 90 2 29 31 34 33 4 0
83 89 84 90 58 22 67 76 72 21 0
83 89 84 90 40 7 42 47 44 6 0
83 89 84 90 60 68 25 79 74 24 0
83 89 84 88 87 82 2 29 31 38 0
83 89 84 88 87 82 58 22 67 81 0
83 89 84 88 87 82 40 7 42 50 0
83 89 84 88 87 82 57 64 78 17 0
83 89 84 88 87 82 55 62 75 16 0
83 89 84 88 87 82 9 13 23 1 0
83 89 84 88 87 2 29 31 38 4 0
83 89 84 88 87 58 22 67 81 21 0
83 89 84 88 87 40 7 42 50 6 0
83 89 84 88 87 57 64 78 17 18 0
83 89 84 88 87 55 62 75 16 15 0
83 89 84 88 82 2 29 31 38 33 0
83 89 84 88 82 58 22 67 81 72 0
83 89 84 88 82 40 7 42 50 44 0
83 89 84 88 82 57 64 78 17 71 0
83 89 84 88 82 9 13 23 14 1 0
83 89 84 88 2 29 31 38 33 4 0
83 89 84 88 58 22 67 81 72 21 0
83 89 84 88 40 7 42 50 44 6 0
83 89 84 88 57 64 78 17 71 18 0
83 89 84 87 82 2 29 31 38 34 0
83 89 84 87 82 58 22 67 81 76 0
83 89 84 87 82 40 7 42 50 47 0
83 89 84 87 82 55 62 75 70 16 0
83 89 84 87 82 9 13 23 19 1 0
83 89 84 87 2 29 31 38 34 4 0
83 89 84 87 58 22 67 81 76 21 0
83 89 84 87 40 7 42 50 47 6 0
83 89 84 87 55 62 75 70 16 15 0
83 89 84 82 2 29 31 38 34 33 0
83 89 84 82 58 22 67 81 76 72 0
83 89 84 82 40 7 42 50 47 44 0
83 89 84 82 9 13 23 19 14 1 0
83 89 84 2 29 31 38 34 33 4 0
83 89 84 58 22 67 81 76 72 21 0
83 89 84 40 7 42 50 47 44 6 0
83 89 86 90 88 87 82 2 29 26 0
83 89 86 90 88 87 82 58 22 48 0
83 89 86 90 88 87 82 52 43 12 0
83 89 86 90 88 87 82 60 51 25 0
83 89 86 90 88 87 82 57 46 17 0
83 89 86 90 88 87 82 55 45 16 0
83 89 86 90 88 87 82 9 5 1 0
83 89 86 90 88 87 2 29 26 4 0
83 89 86 90 88 87 58 22 48 21 0
83 89 86 90 88 87 52 43 12 11 0
83 89 86 90 88 87 60 51 25 24 0
83 89 86 90 88 87 57 46 17 18 0
83 89 86 90 88 87 55 45 16 15 0
83 89 86 90 88 82 2 29 26 33 0
83 89 86 90 88 82 58 22 48 72 0
83 89 86 90 88 82 52 43 12 63 0
83 89 86 90 88 82 60 51 25 74 0
83 89 86 90 88 82 57 46 17 71 0
83 89 86 90 88 82 9 5 14 1 0
83 89 86 90 88 2 29 26 33 4 0
83 89 86 90 88 58 22 48 72 21 0
83 89 86 90 88 52 43 12 63 11 0
83 89 86 90 88 60 51 25 74 24 0
83 89 86 90 88 57 46 17 71 18 0
83 89 86 90 87 82 2 29 26 34 0
83 89 86 90 87 82 58 22 48 76 0
83 89 86 90 87 82 52 43 12 65 0
83 89 86 90 87 82 60 51 25 79 0
83 89 86 90 87 82 55 45 70 16 0
83 89 86 90 87 82 9 5 19 1 0
83 89 86 90 87 2 29 26 34 4 0
83 89 86 90 87 58 22 48 76 21 0
83 89 86 90 87 52 43 12 65 11 0
83 89 86 90 87 60 51 25 79 24 0
83 89 86 90 87 55 45 70 16 15 0
83 89 86 90 82 2 29 26 34 33 0
83 89 86 90 82 58 22 48 76 72 0
83 89 86 90 82 52 43 12 65 63 0
83 89 86 90 82 60 51 25 79 74 0
83 89 86 90 82 9 5 19 14 1 0
83 89 86 90 2 29 26 34 33 4 0
83 89 86 90 58 22 48 76 72 21 0
83 89 86 90 52 43 12 65 63 11 0
83 89 86 90 60 51 25 79 74 24 0
83 89 86 88 87 82 2 29 26 38 0
83 89 86 88 87 82 58 22 48 81 0
83 89 86 88 87 82 52 43 12 69 0
83 89 86 88 87 82 57 46 78 17 0
83 89 86 88 87 82 55 45 75 16 0
83 89 86 88 87 82 9 5 23 1 0
83 89 86 88 87 2 29 26 38 4 0
83 89 86 88 87 58 22 48 81 21 0
83 89 86 88 87 52 43 12 69 11 0
83 89 86 88 87 57 46 78 17 18 0
83 89 86 88 87 55 45 75 16 15 0
83 89 86 88 82 2 29 26 38 33 0
83 89 86 88 82 58 22 48 81 72 0
83 89 86 88 82 52 43 12 69 63 0
83 89 86 88 82 57 46 78 17 71 0
83 89 86 88 82 9 5 23 14 1 0
83 89 86 88 2 29 26 38 33 4 0
83 89 86 88 58 22 48 81 72 21 0
83 89 86 88 52 43 12 69 63 11 0
83 89 86 88 57 46 78 17 71 18 0
83 89 86 87 82 2 29 26 38 34 0
83 89 86 87 82 58 22 48 81 76 0
83 89 86 87 82 52 43 12 69 65 0
83 89 86 87 82 55 45 75 70 16 0
83 89 86 87 82 9 5 23 19 1 0
83 89 86 87 2 29 26 38 34 4 0
83 89 86 87 58 22 48 81 76 21 0
83 89 86 87 52 43 12 69 65 11 0
83 89 86 87 55 45 75 70 16 15 0
83 89 86 82 2 29 26 38 34 33 0
83 89 86 82 58 22 48 81 76 72 0
83 89 86 82 52 43 12 69 65 63 0
83 89 86 82 9 5 23 19 14 1 0
83 89 86 2 29 26 38 34 33 4 0
83 89 86 58 22 48 81 76 72 21 0
83 89 86 52 43 12 69 65 63 11 0
83 89 90 88 87 82 2 29 26 31 0
83 89 90 88 87 82 58 22 48 67 0
83 89 90 88 87 82 60 51 68 25 0
83 89 90 88 87 82 57 46 64 17 0
83 89 90 88 87 82 55 45 62 16 0
83 89 90 88 87 82 9 5 13 1 0
83 89 90 88 87 2 29 26 31 4 0
83 89 90 88 87 58 22 48 67 21 0
83 89 90 88 87 60 51 68 25 24 0
83 89 90 88 87 57 46 64 17 18 0
83 89 90 88 87 55 45 62 16 15 0
83 89 90 88 82 2 29 26 31 33 0
83 89 90 88 82 58 22 48 67 72 0
83 89 90 88 82 60 51 68 25 74 0
83 89 90 88 82 57 46 64 17 71 0
83 89 90 88 82 9 5 13 14 1 0
83 89 90 88 2 29 26 31 33 4 0
83 89 90 88 58 22 48 67 72 21 0
83 89 90 88 60 51 68 25 74 24 0
83 89 90 88 57 46 64 17 71 18 0
83 89 90 87 82 2 29 26 31 34 0
83 89 90 87 82 58 22 48 67 76 0
83 89 90 87 82 60 51 68 25 79 0
83 89 90 87 82 55 45 62 70 16 0
83 89 90 87 82 9 5 13 19 1 0
83 89 90 87 2 29 26 31 34 4 0
83 89 90 87 58 22 48 67 76 21 0
83 89 90 87 60 51 68 25 79 24 0
83 89 90 87 55 45 62 70 16 15 0
83 89 90 82 2 29 26 31 34 33 0
83 89 90 82 58 22 48 67 76 72 0
83 89 90 82 60 51 68 25 79 74 0
83 89 90 82 9 5 13 19 14 1 0
83 89 90 2 29 26 31 34 33 4 0
83 89 90 58 22 48 67 76 72 21 0
83 89 90 60 51 68 25 79 74 24 0
83 89 88 87 82 2 29 26 31 38 0
83 89 88 87 82 58 22 48 67 81 0
83 89 88 87 82 57 46 64 78 17 0
83 89 88 87 82 55 45 62 75 16 0
83 89 88 87 82 9 5 13 23 1 0
83 89 88 87 2 29 26 31 38 4 0
83 89 88 87 58 22 48 67 81 21 0
83 89 88 87 57 46 64 78 17 18 0
83 89 88 87 55 45 62 75 16 15 0
83 89 88 82 2 29 26 31 38 33 0
83 89 88 82 58 22 48 67 81 72 0
83 89 88 82 57 46 64 78 17 71 0
83 89 88 82 9 5 13 23 14 1 0
83 89 88 2 29 26 31 38 33 4 0
83 89 88 58 22 48 67 81 72 21 0
83 89 88 57 46 64 78 17 71 18 0
83 89 87 82 2 29 26 31 38 34 0
83 89 87 82 58 22 48 67 81 76 0
83 89 87 82 55 45 62 75 70 16 0
83 89 87 82 9 5 13 23 19 1 0
83 89 87 2 29 26 31 38 34 4 0
83 89 87 58 22 48 67 81 76 21 0
83 89 87 55 45 62 75 70 16 15 0
83 89 82 2 29 26 31 38 34 33 0
83 89 82 58 22 48 67 81 76 72 0
83 89 82 9 5 13 23 19 14 1 0
83 89 2 29 26 31 38 34 33 4 0
83 89 58 22 48 67 81 76 72 21 0
83 84 86 90 88 87 82 2 29 37 0
83 84 86 90 88 87 82 40 49 7 0
83 84 86 90 88 87 82 52 66 12 0
83 84 86 90 88 87 82 60 80 25 0
83 84 86 90 88 87 82 57 77 17 0
83 84 86 90 88 87 82 55 73 16 0
83 84 86 90 88 87 82 9 20 1 0
83 84 86 90 88 87 2 29 37 4 0
83 84 86 90 88 87 40 49 7 6 0
83 84 86 90 88 87 52 66 12 11 0
83 84 86 90 88 87 60 80 25 24 0
83 84 86 90 88 87 57 77 17 18 0
83 84 86 90 88 87 55 73 16 15 0
83 84 86 90 88 82 2 29 37 33 0
83 84 86 90 88 82 40 49 7 44 0
83 84 86 90 88 82 52 66 12 63 0
83 84 86 90 88 82 60 80 25 74 0
83 84 86 90 88 82 57 77 17 71 0
83 84 86 90 88 82 9 20 14 1 0
83 84 86 90 88 2 29 37 33 4 0
83 84 86 90 88 40 49 7 44 6 0
83 84 86 90 88 52 66 12 63 11 0
83 84 86 90 88 60 80 25 74 24 0
83 84 86 90 88 57 77 17 71 18 0
83 84 86 90 87 82 2 29 37 34 0
83 84 86 90 87 82 40 49 7 47 0
83 84 86 90 87 82 52 66 12 65 0
83 84 86 90 87 82 60 80 25 79 0
83 84 86 90 87 82 55 73 70 16 0
83 84 86 90 87 82 9 20 19 1 0
83 84 86 90 87 2 29 37 34 4 0
83 84 86 90 87 40 49 7 47 6 0
83 84 86 90 87 52 66 12 65 11 0
83 84 86 90 87 60 80 25 79 24 0
83 84 86 90 87 55 73 70 16 15 0
83 84 86 90 82 2 29 37 34 33 0
83 84 86 90 82 40 49 7 47 44 0
83 84 86 90 82 52 66 12 65 63 0
83 84 86 90 82 60 80 25 79 74 0
83 84 86 90 82 9 20 19 14 1 0
83 84 86 90 2 29 37 34 33 4 0
83 84 86 90 40 49 7 47 44 6 0
83 84 86 90 52 66 12 65 63 11 0
83 84 86 90 60 80 25 79 74 24 0
83 84 86 88 87 82 2 29 37 38 0
83 84 86 88 87 82 40 49 7 50 0
83 84 86 88 87 82 52 66 12 69 0
83 84 86 88 87 82 57 77 78 17 0
83 84 86 88 87 82 55 73 75 16 0
83 84 86 88 87 82 9 20 23 1 0
83 84 86 88 87 2 29 37 38 4 0
83 84 86 88 87 40 49 7 50 6 0
83 84 86 88 87 52 66 12 69 11 0
83 84 86 88 87 57 77 78 17 18 0
83 84 86 88 87 55 73 75 16 15 0
83 84 86 88 82 2 29 37 38 33 0
83 84 86 88 82 40 49 7 50 44 0
83 84 86 88 82 52 66 12 69 63 0
83 84 86 88 82 57 77 78 17 71 0
83 84 86 88 82 9 20 23 14 1 0
83 84 86 88 2 29 37 38 33 4 0
83 84 86 88 40 49 7 50 44 6 0
83 84 86 88 52 66 12 69 63 11 0
83 84 86 88 57 77 78 17 71 18 0
83 84 86 87 82 2 29 37 38 34 0
83 84 86 87 82 40 49 7 50 47 0
83 84 86 87 82 52 66 12 69 65 0
83 84 86 87 82 55 73 75 70 16 0
83 84 86 87 82 9 20 23 19 1 0
83 84 86 87 2 29 37 38 34 4 0
83 84 86 87 40 49 7 50 47 6 0
83 84 86 87 52 66 12 69 65 11 0
83 84 86 87 55 73 75 70 16 15 0
83 84 86 82 2 29 37 38 34 33 0
83 84 86 82 40 49 7 50 47 44 0
83 84 86 82 52 66 12 69 65 63 0
83 84 86 82 9 20 23 19 14 1 0
83 84 86 2 29 37 38 34 33 4 0
83 84 86 40 49 7 50 47 44 6 0
83 84 86 52 66 12 69 65 63 11 0
83 84 90 88 87 82 2 29 37 31 0
83 84 90 88 87 82 40 49 7 42 0
83 84 90 88 87 82 60 80 68 25 0
83 84 90 88 87 82 57 77 64 17 0
83 84 90 88 87 82 55 73 62 16 0
83 84 90 88 87 82 9 20 13 1 0
83 84 90 88 87 2 29 37 31 4 0
83 84 90 88 87 40 49 7 42 6 0
83 84 90 88 87 60 80 68 25 24 0
83 84 90 88 87 57 77 64 17 18 0
83 84 90 88 87 55 73 62 16 15 0
83 84 90 88 82 2 29 37 31 33 0
83 84 90 88 82 40 49 7 42 44 0
83 84 90 88 82 60 80 68 25 74 0
83 84 90 88 82 57 77 64 17 71 0
83 84 90 88 82 9 20 13 14 1 0
83 84 90 88 2 29 37 31 33 4 0
83 84 90 88 40 49 7 42 44 6 0
83 84 90 88 60 80 68 25 74 24 0
83 84 90 88 57 77 64 17 71 18 0
83 84 90 87 82 2 29 37 31 34 0
83 84 90 87 82 40 49 7 42 47 0
83 84 90 87 82 60 80 68 25 79 0
83 84 90 87 82 55 73 62 70 16 0
83 84 90 87 82 9 20 13 19 1 0
83 84 90 87 2 29 37 31 34 4 0
83 84 90 87 40 49 7 42 47 6 0
83 84 90 87 60 80 68 25 79 24 0
83 84 90 87 55 73 62 70 16 15 0
83 84 90 82 2 29 37 31 34 33 0
83 84 90 82 40 49 7 42 47 44 0
83 84 90 82 60 80 68 25 79 74 0
83 84 90 82 9 20 13 19 14 1 0
83 84 90 2 29 37 31 34 33 4 0
83 84 90 40 49 7 42 47 44 6 0
83 84 90 60 80 68 25 79 74 24 0
83 84 88 87 82 2 29 37 31 38 0
83 84 88 87 82 40 49 7 42 50 0
83 84 88 87 82 57 77 64 78 17 0
83 84 88 87 82 55 73 62 75 16 0
83 84 88 87 82 9 20 13 23 1 0
83 84 88 87 2 29 37 31 38 4 0
83 84 88 87 40 49 7 42 50 6 0
83 84 88 87 57 77 64 78 17 18 0
83 84 88 87 55 73 62 75 16 15 0
83 84 88 82 2 29 37 31 38 33 0
83 84 88 82 40 49 7 42 50 44 0
83 84 88 82 57 77 64 78 17 71 0
83 84 88 82 9 20 13 23 14 1 0
83 84 88 2 29 37 31 38 33 4 0
83 84 88 40 49 7 42 50 44 6 0
83 84 88 57 77 64 78 17 71 18 0
83 84 87 82 2 29 37 31 38 34 0
83 84 87 82 40 49 7 42 50 47 0
83 84 87 82 55 73 62 75 70 16 0
83 84 87 82 9 20 13 23 19 1 0
83 84 87 2 29 37 31 38 34 4 0
83 84 87 40 49 7 42 50 47 6 0
83 84 87 55 73 62 75 70 16 15 0
83 84 82 2 29 37 31 38 34 33 0
83 84 82 40 49 7 42 50 47 44 0
83 84 82 9 20 13 23 19 14 1 0
83 84 2 29 37 31 38 34 33 4 0
83 84 40 49 7 42 50 47 44 6 0
83 86 90 88 87 82 2 29 37 26 0
83 86 90 88 87 82 52 66 43 12 0
83 86 90 88 87 82 60 80 51 25 0
83 86 90 88 87 82 57 77 46 17 0
83 86 90 88 87 82 55 73 45 16 0
83 86 90 88 87 82 9 20 5 1 0
83 86 90 88 87 2 29 37 26 4 0
83 86 90 88 87 52 66 43 12 11 0
83 86 90 88 87 60 80 51 25 24 0
83 86 90 88 87 57 77 46 17 18 0
83 86 90 88 87 55 73 45 16 15 0
83 86 90 88 82 2 29 37 26 33 0
83 86 90 88 82 52 66 43 12 63 0
83 86 90 88 82 60 80 51 25 74 0
83 86 90 88 82 57 77 46 17 71 0
83 86 90 88 82 9 20 5 14 1 0
83 86 90 88 2 29 37 26 33 4 0
83 86 90 88 52 66 43 12 63 11 0
83 86 90 88 60 80 51 25 74 24 0
83 86 90 88 57 77 46 17 71 18 0
83 86 90 87 82 2 29 37 26 34 0
83 86 90 87 82 52 66 43 12 65 0
83 86 90 87 82 60 80 51 25 79 0
83 86 90 87 82 55 73 45 70 16 0
83 86 90 87 82 9 20 5 19 1 0
83 86 90 87 2 29 37 26 34 4 0
83 86 90 87 52 66 43 12 65 11 0
83 86 90 87 60 80 51 25 79 24 0
83 86 90 87 55 73 45 70 16 15 0
83 86 90 82 2 29 37 26 34 33 0
83 86 90 82 52 66 43 12 65 63 0
83 86 90 82 60 80 51 25 79 74 0
83 86 90 82 9 20 5 19 14 1 0
83 86 90 2 29 37 26 34 33 4 0
83 86 90 52 66 43 12 65 63 11 0
83 86 90 60 80 51 25 79 74 24 0
83 86 88 87 82 2 29 37 26 38 0
83 86 88 87 82 52 66 43 12 69 0
83 86 88 87 82 57 77 46 78 17 0
83 86 88 87 82 55 73 45 75 16 0
83 86 88 87 82 9 20 5 23 1 0
83 86 88 87 2 29 37 26 38 4 0
83 86 88 87 52 66 43 12 69 11 0
83 86 88 87 57 77 46 78 17 18 0
83 86 88 87 55 73 45 75 16 15 0
83 86 88 82 2 29 37 26 38 33 0
83 86 88 82 52 66 43 12 69 63 0
83 86 88 82 57 77 46 78 17 71 0
83 86 88 82 9 20 5 23 14 1 0
83 86 88 2 29 37 26 38 33 4 0
83 86 88 52 66 43 12 69 63 11 0
83 86 88 57 77 46 78 17 71 18 0
83 86 87 82 2 29 37 26 38 34 0
83 86 87 82 52 66 43 12 69 65 0
83 86 87 82 55 73 45 75 70 16 0
83 86 87 82 9 20 5 23 19 1 0
83 86 87 2 29 37 26 38 34 4 0
83 86 87 52 66 43 12 69 65 11 0
83 86 87 55 73 45 75 70 16 15 0
83 86 82 2 29 37 26 38 34 33 0
83 86 82 52 66 43 12 69 65 63 0
83 86 82 9 20 5 23 19 14 1 0
83 86 2 29 37 26 38 34 33 4 0
83 86 52 66 43 12 69 65 63 11 0
83 90 88 87 82 2 29 37 26 31 0
83 90 88 87 82 60 80 51 68 25 0
83 90 88 87 82 57 77 46 64 17 0
83 90 88 87 82 55 73 45 62 16 0
83 90 88 87 82 9 20 5 13 1 0
83 90 88 87 2 29 37 26 31 4 0
83 90 88 87 60 80 51 68 25 24 0
83 90 88 87 57 77 46 64 17 18 0
83 90 88 87 55 73 45 62 16 15 0
83 90 88 82 2 29 37 26 31 33 0
83 90 88 82 60 80 51 68 25 74 0
83 90 88 82 57 77 46 64 17 71 0
83 90 88 82 9 20 5 13 14 1 0
83 90 88 2 29 37 26 31 33 4 0
83 90 88 60 80 51 68 25 74 24 0
83 90 88 57 77 46 64 17 71 18 0
83 90 87 82 2 29 37 26 31 34 0
83 90 87 82 60 80 51 68 25 79 0
83 90 87 82 55 73 45 62 70 16 0
83 90 87 82 9 20 5 13 19 1 0
83 90 87 2 29 37 26 31 34 4 0
83 90 87 60 80 51 68 25 79 24 0
83 90 87 55 73 45 62 70 16 15 0
83 90 82 2 29 37 26 31 34 33 0
83 90 82 60 80 51 68 25 79 74 0
83 90 82 9 20 5 13 19 14 1 0
83 90 2 29 37 26 31 34 33 4 0
83 90 60 80 51 68 25 79 74 24 0
83 88 87 82 2 29 37 26 31 38 0
83 88 87 82 57 77 46 64 78 17 0
83 88 87 82 55 73 45 62 75 16 0
83 88 87 82 9 20 5 13 23 1 0
83 88 87 2 29 37 26 31 38 4 0
83 88 87 57 77 46 64 78 17 18 0
83 88 87 55 73 45 62 75 16 15 0
83 88 82 2 29 37 26 31 38 33 0
83 88 82 57 77 46 64 78 17 71 0
83 88 82 9 20 5 13 23 14 1 0
83 88 2 29 37 26 31 38 33 4 0
83 88 57 77 46 64 78 17 71 18 0
83 87 82 2 29 37 26 31 38 34 0
83 87 82 55 73 45 62 75 70 16 0
83 87 82 9 20 5 13 23 19 1 0
83 87 2 29 37 26 31 38 34 4 0
83 87 55 73 45 62 75 70 16 15 0
83 82 2 29 37 26 31 38 34 33 0
83 82 9 20 5 13 23 19 14 1 0
83 2 29 37 26 31 38 34 33 4 0
85 89 84 86 90 88 87 82 28 10 0
85 89 84 86 90 88 87 82 36 22 0
85 89 84 86 90 88 87 82 27 7 0
85 89 84 86 90 88 87 82 30 12 0
85 89 84 86 90 88 87 82 39 25 0
85 89 84 86 90 88 87 82 35 17 0
85 89 84 86 90 88 87 82 32 16 0
85 89 84 86 90 88 87 82 3 1 0
85 89 84 86 90 88 87 28 10 8 0
85 89 84 86 90 88 87 36 22 21 0
85 89 84 86 90 88 87 27 7 6 0
85 89 84 86 90 88 87 30 12 11 0
85 89 84 86 90 88 87 39 25 24 0
85 89 84 86 90 88 87 35 17 18 0
85 89 84 86 90 88 87 32 16 15 0
85 89 84 86 90 88 82 28 10 54 0
85 89 84 86 90 88 82 36 22 72 0
85 89 84 86 90 88 82 27 7 44 0
85 89 84 86 90 88 82 30 12 63 0
85 89 84 86 90 88 82 39 25 74 0
85 89 84 86 90 88 82 35 17 71 0
85 89 84 86 90 88 82 3 14 1 0
85 89 84 86 90 88 28 10 54 8 0
85 89 84 86 90 88 36 22 72 21 0
85 89 84 86 90 88 27 7 44 6 0
85 89 84 86 90 88 30 12 63 11 0
85 89 84 86 90 88 39 25 74 24 0
85 89 84 86 90 88 35 17 71 18 0
85 89 84 86 90 87 82 28 10 56 0
85 89 84 86 90 87 82 36 22 76 0
85 89 84 86 90 87 82 27 7 47 0
85 89 84 86 90 87 82 30 12 65 0
85 89 84 86 90 87 82 39 25 79 0
85 89 84 86 90 87 82 32 70 16 0
85 89 84 86 90 87 82 3 19 1 0
85 89 84 86 90 87 28 10 56 8 0
85 89 84 86 90 87 36 22 76 21 0
85 89 84 86 90 87 27 7 47 6 0
85 89 84 86 90 87 30 12 65 11 0
85 89 84 86 90 87 39 25 79 24 0
85 89 84 86 90 87 32 70 16 15 0
85 89 84 86 90 82 28 10 56 54 0
85 89 84 86 90 82 36 22 76 72 0
85 89 84 86 90 82 27 7 47 44 0
85 89 84 86 90 82 30 12 65 63 0
85 89 84 86 90 82 39 25 79 74 0
85 89 84 86 90 82 3 19 14 1 0
85 89 84 86 90 28 10 56 54 8 0
85 89 84 86 90 36 22 76 72 21 0
85 89 84 86 90 27 7 47 44 6 0
85 89 84 86 90 30 12 65 63 11 0
85 89 84 86 90 39 25 79 74 24 0
85 89 84 86 88 87 82 28 10 61 0
85 89 84 86 88 87 82 36 22 81 0
85 89 84 86 88 87 82 27 7 50 0
85 89 84 86 88 87 82 30 12 69 0
85 89 84 86 88 87 82 35 78 17 0
85 89 84 86 88 87 82 32 75 16 0
85 89 84 86 88 87 82 3 23 1 0
85 89 84 86 88 87 28 10 61 8 0
85 89 84 86 88 87 36 22 81 21 0
85 89 84 86 88 87 27 7 50 6 0
85 89 84 86 88 87 30 12 69 11 0
85 89 84 86 88 87 35 78 17 18 0
85 89 84 86 88 87 32 75 16 15 0
85 89 84 86 88 82 28 10 61 54 0
85 89 84 86 88 82 36 22 81 72 0
85 89 84 86 88 82 27 7 50 44 0
85 89 84 86 88 82 30 12 69 63 0
85 89 84 86 88 82 35 78 17 71 0
85 89 84 86 88 82 3 23 14 1 0
85 89 84 86 88 28 10 61 54 8 0
85 89 84 86 88 36 22 81 72 21 0
85 89 84 86 88 27 7 50 44 6 0
85 89 84 86 88 30 12 69 63 11 0
85 89 84 86 88 35 78 17 71 18 0
85 89 84 86 87 82 28 10 61 56 0
85 89 84 86 87 82 36 22 81 76 0
85 89 84 86 87 82 27 7 50 47 0
85 89 84 86 87 82 30 12 69 65 0
85 89 84 86 87 82 32 75 70 16 0
85 89 84 86 87 82 3 23 19 1 0
85 89 84 86 87 28 10 61 56 8 0
85 89 84 86 87 36 22 81 76 21 0
85 89 84 86 87 27 7 50 47 6 0
85 89 84 86 87 30 12 69 65 11 0
85 89 84 86 87 32 75 70 16 15 0
85 89 84 86 82 28 10 61 56 54 0
85 89 84 86 82 36 22 81 76 72 0
85 89 84 86 82 27 7 50 47 44 0
85 89 84 86 82 30 12 69 65 63 0
85 89 84 86 82 3 23 19 14 1 0
85 89 84 86 28 10 61 56 54 8 0
85 89 84 86 36 22 81 76 72 21 0
85 89 84 86 27 7 50 47 44 6 0
85 89 84 86 30 12 69 65 63 11 0
85 89 84 90 88 87 82 28 10 53 0
85 89 84 90 88 87 82 36 22 67 0
85 89 84 90 88 87 82 27 7 42 0
85 89 84 90 88 87 82 39 68 25 0
85 89 84 90 88 87 82 35 64 17 0
85 89 84 90 88 87 82 32 62 16 0
85 89 84 90 88 87 82 3 13 1 0
85 89 84 90 88 87 28 10 53 8 0
85 89 84 90 88 87 36 22 67 21 0
85 89 84 90 88 87 27 7 42 6 0
85 89 84 90 88 87 39 68 25 24 0
85 89 84 90 88 87 35 64 17 18 0
85 89 84 90 88 87 32 62 16 15 0
85 89 84 90 88 82 28 10 53 54 0
85 89 84 90 88 82 36 22 67 72 0
85 89 84 90 88 82 27 7 42 44 0
85 89 84 90 88 82 39 68 25 74 0
85 89 84 90 88 82 35 64 17 71 0
85 89 84 90 88 82 3 13 14 1 0
85 89 84 90 88 28 10 53 54 8 0
85 89 84 90 88 36 22 67 72 21 0
85 89 84 90 88 27 7 42 44 6 0
85 89 84 90 88 39 68 25 74 24 0
85 89 84 90 88 35 64 17 71 18 0
85 89 84 90 87 82 28 10 53 56 0
85 89 84 90 87 82 36 22 67 76 0
85 89 84 90 87 82 27 7 42 47 0
85 89 84 90 87 82 39 68 25 79 0
85 89 84 90 87 82 32 62 70 16 0
85 89 84 90 87 82 3 13 19 1 0
85 89 84 90 87 28 10 53 56 8 0
85 89 84 90 87 36 22 67 76 21 0
85 89 84 90 87 27 7 42 47 6 0
85 89 84 90 87 39 68 25 79 24 0
85 89 84 90 87 32 62 70 16 15 0
85 89 84 90 82 28 10 53 56 54 0
85 89 84 90 82 36 22 67 76 72 0
85 89 84 90 82 27 7 42 47 44 0
85 89 84 90 82 39 68 25 79 74 0
85 89 84 90 82 3 13 19 14 1 0
85 89 84 90 28 10 53 56 54 8 0
85 89 84 90 36 22 67 76 72 21 0
85 89 84 90 27 7 42 47 44 6 0
85 89 84 90 39 68 25 79 74 24 0
85 89 84 88 87 82 28 10 53 61 0
85 89 84 88 87 82 36 22 67 81 0
85 89 84 88 87 82 27 7 42 50 0
85 89 84 88 87 82 35 64 78 17 0
85 89 84 88 87 82 32 62 75 16 0
85 89 84 88 87 82 3 13 23 1 0
85 89 84 88 87 28 10 53 61 8 0
85 89 84 88 87 36 22 67 81 21 0
85 89 84 88 87 27 7 42 50 6 0
85 89 84 88 87 35 64 78 17 18 0
85 89 84 88 87 32 62 75 16 15 0
85 89 84 88 82 28 10 53 61 54 0
85 89 84 88 82 36 22 67 81 72 0
85 89 84 88 82 27 7 42 50 44 0
85 89 84 88 82 35 64 78 17 71 0
85 89 84 88 82 3 13 23 14 1 0
85 89 84 88 28 10 53 61 54 8 0
85 89 84 88 36 22 67 81 72 21 0
85 89 84 88 27 7 42 50 44 6 0
85 89 84 88 35 64 78 17 71 18 0
85 89 84 87 82 28 10 53 61 56 0
85 89 84 87 82 36 22 67 81 76 0
85 89 84 87 82 27 7 42 50 47 0
85 89 84 87 82 32 62 75 70 16 0
85 89 84 87 82 3 13 23 19 1 0
85 89 84 87 28 10 53 61 56 8 0
85 89 84 87 36 22 67 81 76 21 0
85 89 84 87 27 7 42 50 47 6 0
85 89 84 87 32 62 75 70 16 15 0
85 89 84 82 28 10 53 61 56 54 0
85 89 84 82 36 22 67 81 76 72 0
85 89 84 82 27 7 42 50 47 44 0
85 89 84 82 3 13 23 19 14 1 0
85 89 84 28 10 53 61 56 54 8 0
85 89 84 36 22 67 81 76 72 21 0
85 89 84 27 7 42 50 47 44 6 0
85 89 86 90 88 87 82 28 10 41 0
85 89 86 90 88 87 82 36 22 48 0
85 89 86 90 88 87 82 30 43 12 0
85 89 86 90 88 87 82 39 51 25 0
85 89 86 90 88 87 82 35 46 17 0
85 89 86 90 88 87 82 32 45 16 0
85 89 86 90 88 87 82 3 5 1 0
85 89 86 90 88 87 28 10 41 8 0
85 89 86 90 88 87 36 22 48 21 0
85 89 86 90 88 87 30 43 12 11 0
85 89 86 90 88 87 39 51 25 24 0
85 89 86 90 88 87 35 46 17 18 0
85 89 86 90 88 87 32 45 16 15 0
85 89 86 90 88 82 28 10 41 54 0
85 89 86 90 88 82 36 22 48 72 0
85 89 86 90 88 82 30 43 12 63 0
85 89 86 90 88 82 39 51 25 74 0
85 89 86 90 88 82 35 46 17 71 0
85 89 86 90 88 82 3 5 14 1 0
85 89 86 90 88 28 10 41 54 8 0
85 89 86 90 88 36 22 48 72 21 0
85 89 86 90 88 30 43 12 63 11 0
85 89 86 90 88 39 51 25 74 24 0
85 89 86 90 88 35 46 17 71 18 0
85 89 86 90 87 82 28 10 41 56 0
85 89 86 90 87 82 36 22 48 76 0
85 89 86 90 87 82 30 43 12 65 0
85 89 86 90 87 82 39 51 25 79 0
85 89 86 90 87 82 32 45 70 16 0
85 89 86 90 87 82 3 5 19 1 0
85 89 86 90 87 28 10 41 56 8 0
85 89 86 90 87 36 22 48 76 21 0
85 89 86 90 87 30 43 12 65 11 0
85 89 86 90 87 39 51 25 79 24 0
85 89 86 90 87 32 45 70 16 15 0
85 89 86 90 82 28 10 41 56 54 0
85 89 86 90 82 36 22 48 76 72 0
85 89 86 90 82 30 43 12 65 63 0
85 89 86 90 82 39 51 25 79 74 0
85 89 86 90 82 3 5 19 14 1 0
85 89 86 90 28 10 41 56 54 8 0
85 89 86 90 36 22 48 76 72 21 0
85 89 86 90 30 43 12 65 63 11 0
85 89 86 90 39 51 25 79 74 24 0
85 89 86 88 87 82 28 10 41 61 0
85 89 86 88 87 82 36 22 48 81 0
85 89 86 88 87 82 30 43 12 69 0
85 89 86 88 87 82 35 46 78 17 0
85 89 86 88 87 82 32 45 75 16 0
85 89 86 88 87 82 3 5 23 1 0
85 89 86 88 87 28 10 41 61 8 0
85 89 86 88 87 36 22 48 81 21 0
85 89 86 88 87 30 43 12 69 11 0
85 89 86 88 87 35 46 78 17 18 0
85 89 86 88 87 32 45 75 16 15 0
85 89 86 88 82 28 10 41 61 54 0
85 89 86 88 82 36 22 48 81 72 0
85 89 86 88 82 30 43 12 69 63 0
85 89 86 88 82 35 46 78 17 71 0
85 89 86 88 82 3 5 23 14 1 0
85 89 86 88 28 10 41 61 54 8 0
85 89 86 88 36 22 48 81 72 21 0
85 89 86 88 30 43 12 69 63 11 0
85 89 86 88 35 46 78 17 71 18 0
85 89 86 87 82 28 10 41 61 56 0
85 89 86 87 82 36 22 48 81 76 0
85 89 86 87 82 30 43 12 69 65 0
85 89 86 87 82 32 45 75 70 16 0
85 89 86 87 82 3 5 23 19 1 0
85 89 86 87 28 10 41 61 56 8 0
85 89 86 87 36 22 48 81 76 21 0
85 89 86 87 30 43 12 69 65 11 0
85 89 86 87 32 45 75 70 16 15 0
85 89 86 82 28 10 41 61 56 54 0
85 89 86 82 36 22 48 81 76 72 0
85 89 86 82 30 43 12 69 65 63 0
85 89 86 82 3 5 23 19 14 1 0
85 89 86 28 10 41 61 56 54 8 0
85 89 86 36 22 48 81 76 72 21 0
85 89 86 30 43 12 69 65 63 11 0
85 89 90 88 87 82 28 10 41 53 0
85 89 90 88 87 82 36 22 48 67 0
85 89 90 88 87 82 39 51 68 25 0
85 89 90 88 87 82 35 46 64 17 0
85 89 90 88 87 82 32 45 62 16 0
85 89 90 88 87 82 3 5 13 1 0
85 89 90 88 87 28 10 41 53 8 0
85 89 90 88 87 36 22 48 67 21 0
85 89 90 88 87 39 51 68 25 24 0
85 89 90 88 87 35 46 64 17 18 0
85 89 90 88 87 32 45 62 16 15 0
85 89 90 88 82 28 10 41 53 54 0
85 89 90 88 82 36 22 48 67 72 0
85 89 90 88 82 39 51 68 25 74 0
85 89 90 88 82 35 46 64 17 71 0
85 89 90 88 82 3 5 13 14 1 0
85 89 90 88 28 10 41 53 54 8 0
85 89 90 88 36 22 48 67 72 21 0
85 89 90 88 39 51 68 25 74 24 0
85 89 90 88 35 46 64 17 71 18 0
85 89 90 87 82 28 10 41 53 56 0
85 89 90 87 82 36 22 48 67 76 0
85 89 90 87 82 39 51 68 25 79 0
85 89 90 87 82 32 45 62 70 16 0
85 89 90 87 82 3 5 13 19 1 0
85 89 90 87 28 10 41 53 56 8 0
85 89 90 87 36 22 48 67 76 21 0
85 89 90 87 39 51 68 25 79 24 0
85 89 90 87 32 45 62 70 16 15 0
85 89 90 82 28 10 41 53 56 54 0
85 89 90 82 36 22 48 67 76 72 0
85 89 90 82 39 51 68 25 79 74 0
85 89 90 82 3 5 13 19 14 1 0
85 89 90 28 10 41 53 56 54 8 0
85 89 90 36 22 48 67 76 72 21 0
85 89 90 39 51 68 25 79 74 24 0
85 89 88 87 82 28 10 41 53 61 0
85 89 88 87 82 36 22 48 67 81 0
85 89 88 87 82 35 46 64 78 17 0
85 89 88 87 82 32 45 62 75 16 0
85 89 88 87 82 3 5 13 23 1 0
85 89 88 87 28 10 41 53 61 8 0
85 89 88 87 36 22 48 67 81 21 0
85 89 88 87 35 46 64 78 17 18 0
85 89 88 87 32 45 62 75 16 15 0
85 89 88 82 28 10 41 53 61 54 0
85 89 88 82 36 22 48 67 81 72 0
85 89 88 82 35 46 64 78 17 71 0
85 89 88 82 3 5 13 23 14 1 0
85 89 88 28 10 41 53 61 54 8 0
85 89 88 36 22 48 67 81 72 21 0
85 89 88 35 46 64 78 17 71 18 0
85 89 87 82 28 10 41 53 61 56 0
85 89 87 82 36 22 48 67 81 76 0
85 89 87 82 32 45 62 75 70 16 0
85 89 87 82 3 5 13 23 19 1 0
85 89 87 28 10 41 53 61 56 8 0
85 89 87 36 22 48 67 81 76 21 0
85 89 87 32 45 62 75 70 16 15 0
85 89 82 28 10 41 53 61 56 54 0
85 89 82 36 22 48 67 81 76 72 0
85 89 82 3 5 13 23 19 14 1 0
85 89 28 10 41 53 61 56 54 8 0
85 89 36 22 48 67 81 76 72 21 0
85 84 86 90 88 87 82 28 10 59 0
85 84 86 90 88 87 82 27 49 7 0
85 84 86 90 88 87 82 30 66 12 0
85 84 86 90 88 87 82 39 80 25 0
85 84 86 90 88 87 82 35 77 17 0
85 84 86 90 88 87 82 32 73 16 0
85 84 86 90 88 87 82 3 20 1 0
85 84 86 90 88 87 28 10 59 8 0
85 84 86 90 88 87 27 49 7 6 0
85 84 86 90 88 87 30 66 12 11 0
85 84 86 90 88 87 39 80 25 24 0
85 84 86 90 88 87 35 77 17 18 0
85 84 86 90 88 87 32 73 16 15 0
85 84 86 90 88 82 28 10 59 54 0
85 84 86 90 88 82 27 49 7 44 0
85 84 86 90 88 82 30 66 12 63 0
85 84 86 90 88 82 39 80 25 74 0
85 84 86 90 88 82 35 77 17 71 0
85 84 86 90 88 82 3 20 14 1 0
85 84 86 90 88 28 10 59 54 8 0
85 84 86 90 88 27 49 7 44 6 0
85 84 86 90 88 30 66 12 63 11 0
85 84 86 90 88 39 80 25 74 24 0
85 84 86 90 88 35 77 17 71 18 0
85 84 86 90 87 82 28 10 59 56 0
85 84 86 90 87 82 27 49 7 47 0
85 84 86 90 87 82 30 66 12 65 0
85 84 86 90 87 82 39 80 25 79 0
85 84 86 90 87 82 32 73 70 16 0
85 84 86 90 87 82 3 20 19 1 0
85 84 86 90 87 28 10 59 56 8 0
85 84 86 90 87 27 49 7 47 6 0
85 84 86 90 87 30 66 12 65 11 0
85 84 86 90 87 39 80 25 79 24 0
85 84 86 90 87 32 73 70 16 15 0
85 84 86 90 82 28 10 59 56 54 0
85 84 86 90 82 27 49 7 47 44 0
85 84 86 90 82 30 66 12 65 63 0
85 84 86 90 82 39 80 25 79 74 0
85 84 86 90 82 3 20 19 14 1 0
85 84 86 90 28 10 59 56 54 8 0
85 84 86 90 27 49 7 47 44 6 0
85 84 86 90 30 66 12 65 63 11 0
85 84 86 90 39 80 25 79 74 24 0
85 84 86 88 87 82 28 10 59 61 0
85 84 86 88 87 82 27 49 7 50 0
85 84 86 88 87 82 30 66 12 69 0
85 84 86 88 87 82 35 77 78 17 0
85 84 86 88 87 82 32 73 75 16 0
85 84 86 88 87 82 3 20 23 1 0
85 84 86 88 87 28 10 59 61 8 0
85 84 86 88 87 27 49 7 50 6 0
85 84 86 88 87 30 66 12 69 11 0
85 84 86 88 87 35 77 78 17 18 0
85 84 86 88 87 32 73 75 16 15 0
85 84 86 88 82 28 10 59 61 54 0
85 84 86 88 82 27 49 7 50 44 0
85 84 86 88 82 30 66 12 69 63 0
85 84 86 88 82 35 77 78 17 71 0
85 84 86 88 82 3 20 23 14 1 0
85 84 86 88 28 10 59 61 54 8 0
85 84 86 88 27 49 7 50 44 6 0
85 84 86 88 30 66 12 69 63 11 0
85 84 86 88 35 77 78 17 71 18 0
85 84 86 87 82 28 10 59 61 56 0
85 84 86 87 82 27 49 7 50 47 0
85 84 86 87 82 30 66 12 69 65 0
85 84 86 87 82 32 73 75 70 16 0
85 84 86 87 82 3 20 23 19 1 0
85 84 86 87 28 10 59 61 56 8 0
85 84 86 87 27 49 7 50 47 6 0
85 84 86 87 30 66 12 69 65 11 0
85 84 86 87 32 73 75 70 16 15 0
85 84 86 82 28 10 59 61 56 54 0
85 84 86 82 27 49 7 50 47 44 0
85 84 86 82 30 66 12 69 65 63 0
85 84 86 82 3 20 23 19 14 1 0
85 84 86 28 10 59 61 56 54 8 0
85 84 86 27 49 7 50 47 44 6 0
85 84 86 30 66 12 69 65 63 11 0
85 84 90 88 87 82 28 10 59 53 0
85 84 90 88 87 82 27 49 7 42 0
85 84 90 88 87 82 39 80 68 25 0
85 84 90 88 87 82 35 77 64 17 0
85 84 90 88 87 82 32 73 62 16 0
85 84 90 88 87 82 3 20 13 1 0
85 84 90 88 87 28 10 59 53 8 0
85 84 90 88 87 27 49 7 42 6 0
85 84 90 88 87 39 80 68 25 24 0
85 84 90 88 87 35 77 64 17 18 0
85 84 90 88 87 32 73 62 16 15 0
85 84 90 88 82 28 10 59 53 54 0
85 84 90 88 82 27 49 7 42 44 0
85 84 90 88 82 39 80 68 25 74 0
85 84 90 88 82 35 77 64 17 71 0
85 84 90 88 82 3 20 13 14 1 0
85 84 90 88 28 10 59 53 54 8 0
85 84 90 88 27 49 7 42 44 6 0
85 84 90 88 39 80 68 25 74 24 0
85 84 90 88 35 77 64 17 71 18 0
85 84 90 87 82 28 10 59 53 56 0
85 84 90 87 82 27 49 7 42 47 0
85 84 90 87 82 39 80 68 25 79 0
85 84 90 87 82 32 73 62 70 16 0
85 84 90 87 82 3 20 13 19 1 0
85 84 90 87 28 10 59 53 56 8 0
85 84 90 87 27 49 7 42 47 6 0
85 84 90 87 39 80 68 25 79 24 0
85 84 90 87 32 73 62 70 16 15 0
85 84 90 82 28 10 59 53 56 54 0
85 84 90 82 27 49 7 42 47 44 0
85 84 90 82 39 80 68 25 79 74 0
85 84 90 82 3 20 13 19 14 1 0
85 84 90 28 10 59 53 56 54 8 0
85 84 90 27 49 7 42 47 44 6 0
85 84 90 39 80 68 25 79 74 24 0
85 84 88 87 82 28 10 59 53 61 0
85 84 88 87 82 27 49 7 42 50 0
85 84 88 87 82 35 77 64 78 17 0
85 84 88 87 82 32 73 62 75 16 0
85 84 88 87 82 3 20 13 23 1 0
85 84 88 87 28 10 59 53 61 8 0
85 84 88 87 27 49 7 42 50 6 0
85 84 88 87 35 77 64 78 17 18 0
85 84 88 87 32 73 62 75 16 15 0
85 84 88 82 28 10 59 53 61 54 0
85 84 88 82 27 49 7 42 50 44 0
85 84 88 82 35 77 64 78 17 71 0
85 84 88 82 3 20 13 23 14 1 0
85 84 88 28 10 59 53 61 54 8 0
85 84 88 27 49 7 42 50 44 6 0
85 84 88 35 77 64 78 17 71 18 0
85 84 87 82 28 10 59 53 61 56 0
85 84 87 82 27 49 7 42 50 47 0
85 84 87 82 32 73 62 75 70 16 0
85 84 87 82 3 20 13 23 19 1 0
85 84 87 28 10 59 53 61 56 8 0
85 84 87 27 49 7 42 50 47 6 0
85 84 87 32 73 62 75 70 16 15 0
85 84 82 28 10 59 53 61 56 54 0
85 84 82 27 49 7 42 50 47 44 0
85 84 82 3 20 13 23 19 14 1 0
85 84 28 10 59 53 61 56 54 8 0
85 84 27 49 7 42 50 47 44 6 0
85 86 90 88 87 82 28 10 59 41 0
85 86 90 88 87 82 30 66 43 12 0
85 86 90 88 87 82 39 80 51 25 0
85 86 90 88 87 82 35 77 46 17 0
85 86 90 88 87 82 32 73 45 16 0
85 86 90 88 87 82 3 20 5 1 0
85 86 90 88 87 28 10 59 41 8 0
85 86 90 88 87 30 66 43 12 11 0
85 86 90 88 87 39 80 51 25 24 0
85 86 90 88 87 35 77 46 17 18 0
85 86 90 88 87 32 73 45 16 15 0
85 86 90 88 82 28 10 59 41 54 0
85 86 90 88 82 30 66 43 12 63 0
85 86 90 88 82 39 80 51 25 74 0
85 86 90 88 82 35 77 46 17 71 0
85 86 90 88 82 3 20 5 14 1 0
85 86 90 88 28 10 59 41 54 8 0
85 86 90 88 30 66 43 12 63 11 0
85 86 90 88 39 80 51 25 74 24 0
85 86 90 88 35 77 46 17 71 18 0
85 86 90 87 82 28 10 59 41 56 0
85 86 90 87 82 30 66 43 12 65 0
85 86 90 87 82 39 80 51 25 79 0
85 86 90 87 82 32 73 45 70 16 0
85 86 90 87 82 3 20 5 19 1 0
85 86 90 87 28 10 59 41 56 8 0
85 86 90 87 30 66 43 12 65 11 0
85 86 90 87 39 80 51 25 79 24 0
85 86 90 87 32 73 45 70 16 15 0
85 86 90 82 28 10 59 41 56 54 0
85 86 90 82 30 66 43 12 65 63 0
85 86 90 82 39 80 51 25 79 74 0
85 86 90 82 3 20 5 19 14 1 0
85 86 90 28 10 59 41 56 54 8 0
85 86 90 30 66 43 12 65 63 11 0
85 86 90 39 80 51 25 79 74 24 0
85 86 88 87 82 28 10 59 41 61 0
85 86 88 87 82 30 66 43 12 69 0
85 86 88 87 82 35 77 46 78 17 0
85 86 88 87 82 32 73 45 75 16 0
85 86 88 87 82 3 20 5 23 1 0
85 86 88 87 28 10 59 41 61 8 0
85 86 88 87 30 66 43 12 69 11 0
85 86 88 87 35 77 46 78 17 18 0
85 86 88 87 32 73 45 75 16 15 0
85 86 88 82 28 10 59 41 61 54 0
85 86 88 82 30 66 43 12 69 63 0
85 86 88 82 35 77 46 78 17 71 0
85 86 88 82 3 20 5 23 14 1 0
85 86 88 28 10 59 41 61 54 8 0
85 86 88 30 66 43 12 69 63 11 0
85 86 88 35 77 46 78 17 71 18 0
85 86 87 82 28 10 59 41 61 56 0
85 86 87 82 30 66 43 12 69 65 0
85 86 87 82 32 73 45 75 70 16 0
85 86 87 82 3 20 5 23 19 1 0
85 86 87 28 10 59 41 61 56 8 0
85 86 87 30 66 43 12 69 65 11 0
85 86 87 32 73 45 75 70 16 15 0
85 86 82 28 10 59 41 61 56 54 0
85 86 82 30 66 43 12 69 65 63 0
85 86 82 3 20 5 23 19 14 1 0
85 86 28 10 59 41 61 56 54 8 0
85 86 30 66 43 12 69 65 63 11 0
85 90 88 87 82 28 10 59 41 53 0
85 90 88 87 82 39 80 51 68 25 0
85 90 88 87 82 35 77 46 64 17 0
85 90 88 87 82 32 73 45 62 16 0
85 90 88 87 82 3 20 5 13 1 0
85 90 88 87 28 10 59 41 53 8 0
85 90 88 87 39 80 51 68 25 24 0
85 90 88 87 35 77 46 64 17 18 0
85 90 88 87 32 73 45 62 16 15 0
85 90 88 82 28 10 59 41 53 54 0
85 90 88 82 39 80 51 68 25 74 0
85 90 88 82 35 77 46 64 17 71 0
85 90 88 82 3 20 5 13 14 1 0
85 90 88 28 10 59 41 53 54 8 0
85 90 88 39 80 51 68 25 74 24 0
85 90 88 35 77 46 64 17 71 18 0
85 90 87 82 28 10 59 41 53 56 0
85 90 87 82 39 80 51 68 25 79 0
85 90 87 82 32 73 45 62 70 16 0
85 90 87 82 3 20 5 13 19 1 0
85 90 87 28 10 59 41 53 56 8 0
85 90 87 39 80 51 68 25 79 24 0
85 90 87 32 73 45 62 70 16 15 0
85 90 82 28 10 59 41 53 56 54 0
85 90 82 39 80 51 68 25 79 74 0
85 90 82 3 20 5 13 19 14 1 0
85 90 28 10 59 41 53 56 54 8 0
85 90 39 80 51 68 25 79 74 24 0
85 88 87 82 28 10 59 41 53 61 0
85 88 87 82 35 77 46 64 78 17 0
85 88 87 82 32 73 45 62 75 16 0
85 88 87 82 3 20 5 13 23 1 0
85 88 87 28 10 59 41 53 61 8 0
85 88 87 35 77 46 64 78 17 18 0
85 88 87 32 73 45 62 75 16 15 0
85 88 82 28 10 59 41 53 61 54 0
85 88 82 35 77 46 64 78 17 71 0
85 88 82 3 20 5 13 23 14 1 0
85 88 28 10 59 41 53 61 54 8 0
85 88 35 77 46 64 78 17 71 18 0
85 87 82 28 10 59 41 53 61 56 0
85 87 82 32 73 45 62 75 70 16 0
85 87 82 3 20 5 13 23 19 1 0
85 87 28 10 59 41 53 61 56 8 0
85 87 32 73 45 62 75 70 16 15 0
85 82 28 10 59 41 53 61 56 54 0
85 82 3 20 5 13 23 19 14 1 0
85 28 10 59 41 53 61 56 54 8 0
89 84 86 90 88 87 82 36 58 22 0
89 84 86 90 88 87 82 27 40 7 0
89 84 86 90 88 87 82 30 52 12 0
89 84 86 90 88 87 82 39 60 25 0
89 84 86 90 88 87 82 35 57 17 0
89 84 86 90 88 87 82 32 55 16 0
89 84 86 90 88 87 82 3 9 1 0
89 84 86 90 88 87 36 58 22 21 0
89 84 86 90 88 87 27 40 7 6 0
89 84 86 90 88 87 30 52 12 11 0
89 84 86 90 88 87 39 60 25 24 0
89 84 86 90 88 87 35 57 17 18 0
89 84 86 90 88 87 32 55 16 15 0
89 84 86 90 88 82 36 58 22 72 0
89 84 86 90 88 82 27 40 7 44 0
89 84 86 90 88 82 30 52 12 63 0
89 84 86 90 88 82 39 60 25 74 0
89 84 86 90 88 82 35 57 17 71 0
89 84 86 90 88 82 3 9 14 1 0
89 84 86 90 88 36 58 22 72 21 0
89 84 86 90 88 27 40 7 44 6 0
89 84 86 90 88 30 52 12 63 11 0
89 84 86 90 88 39 60 25 74 24 0
89 84 86 90 88 35 57 17 71 18 0
89 84 86 90 87 82 36 58 22 76 0
89 84 86 90 87 82 27 40 7 47 0
89 84 86 90 87 82 30 52 12 65 0
89 84 86 90 87 82 39 60 25 79 0
89 84 86 90 87 82 32 55 70 16 0
89 84 86 90 87 82 3 9 19 1 0
89 84 86 90 87 36 58 22 76 21 0
89 84 86 90 87 27 40 7 47 6 0
89 84 86 90 87 30 52 12 65 11 0
89 84 86 90 87 39 60 25 79 24 0
89 84 86 90 87 32 55 70 16 15 0
89 84 86 90 82 36 58 22 76 72 0
89 84 86 90 82 27 40 7 47 44 0
89 84 86 90 82 30 52 12 65 63 0
89 84 86 90 82 39 60 25 79 74 0
89 84 86 90 82 3 9 19 14 1 0
89 84 86 90 36 58 22 76 72 21 0
89 84 86 90 27 40 7 47 44 6 0
89 84 86 90 30 52 12 65 63 11 0
89 84 86 90 39 60 25 79 74 24 0
89 84 86 88 87 82 36 58 22 81 0
89 84 86 88 87 82 27 40 7 50 0
89 84 86 88 87 82 30 52 12 69 0
89 84 86 88 87 82 35 57 78 17 0
89 84 86 88 87 82 32 55 75 16 0
89 84 86 88 87 82 3 9 23 1 0
89 84 86 88 87 36 58 22 81 21 0
89 84 86 88 87 27 40 7 50 6 0
89 84 86 88 87 30 52 12 69 11 0
89 84 86 88 87 35 57 78 17 18 0
89 84 86 88 87 32 55 75 16 15 0
89 84 86 88 82 36 58 22 81 72 0
89 84 86 88 82 27 40 7 50 44 0
89 84 86 88 82 30 52 12 69 63 0
89 84 86 88 82 35 57 78 17 71 0
89 84 86 88 82 3 9 23 14 1 0
89 84 86 88 36 58 22 81 72 21 0
89 84 86 88 27 40 7 50 44 6 0
89 84 86 88 30 52 12 69 63 11 0
89 84 86 88 35 57 78 17 71 18 0
89 84 86 87 82 36 58 22 81 76 0
89 84 86 87 82 27 40 7 50 47 0
89 84 86 87 82 30 52 12 69 65 0
89 84 86 87 82 32 55 75 70 16 0
89 84 86 87 82 3 9 23 19 1 0
89 84 86 87 36 58 22 81 76 21 0
89 84 86 87 27 40 7 50 47 6 0
89 84 86 87 30 52 12 69 65 11 0
89 84 86 87 32 55 75 70 16 15 0
89 84 86 82 36 58 22 81 76 72 0
89 84 86 82 27 40 7 50 47 44 0
89 84 86 82 30 52 12 69 65 63 0
89 84 86 82 3 9 23 19 14 1 0
89 84 86 36 58 22 81 76 72 21 0
89 84 86 27 40 7 50 47 44 6 0
89 84 86 30 52 12 69 65 63 11 0
89 84 90 88 87 82 36 58 22 67 0
89 84 90 88 87 82 27 40 7 42 0
89 84 90 88 87 82 39 60 68 25 0
89 84 90 88 87 82 35 57 64 17 0
89 84 90 88 87 82 32 55 62 16 0
89 84 90 88 87 82 3 9 13 1 0
89 84 90 88 87 36 58 22 67 21 0
89 84 90 88 87 27 40 7 42 6 0
89 84 90 88 87 39 60 68 25 24 0
89 84 90 88 87 35 57 64 17 18 0
89 84 90 88 87 32 55 62 16 15 0
89 84 90 88 82 36 58 22 67 72 0
89 84 90 88 82 27 40 7 42 44 0
89 84 90 88 82 39 60 68 25 74 0
89 84 90 88 82 35 57 64 17 71 0
89 84 90 88 82 3 9 13 14 1 0
89 84 90 88 36 58 22 67 72 21 0
89 84 90 88 27 40 7 42 44 6 0
89 84 90 88 39 60 68 25 74 24 0
89 84 90 88 35 57 64 17 71 18 0
89 84 90 87 82 36 58 22 67 76 0
89 84 90 87 82 27 40 7 42 47 0
89 84 90 87 82 39 60 68 25 79 0
89 84 90 87 82 32 55 62 70 16 0
89 84 90 87 82 3 9 13 19 1 0
89 84 90 87 36 58 22 67 76 21 0
89 84 90 87 27 40 7 42 47 6 0
89 84 90 87 39 60 68 25 79 24 0
89 84 90 87 32 55 62 70 16 15 0
89 84 90 82 36 58 22 67 76 72 0
89 84 90 82 27 40 7 42 47 44 0
89 84 90 82 39 60 68 25 79 74 0
89 84 90 82 3 9 13 19 14 1 0
89 84 90 36 58 22 67 76 72 21 0
89 84 90 27 40 7 42 47 44 6 0
89 84 90 39 60 68 25 79 74 24 0
89 84 88 87 82 36 58 22 67 81 0
89 84 88 87 82 27 40 7 42 50 0
89 84 88 87 82 35 57 64 78 17 0
89 84 88 87 82 32 55 62 75 16 0
89 84 88 87 82 3 9 13 23 1 0
89 84 88 87 36 58 22 67 81 21 0
89 84 88 87 27 40 7 42 50 6 0
89 84 88 87 35 57 64 78 17 18 0
89 84 88 87 32 55 62 75 16 15 0
89 84 88 82 36 58 22 67 81 72 0
89 84 88 82 27 40 7 42 50 44 0
89 84 88 82 35 57 64 78 17 71 0
89 84 88 82 3 9 13 23 14 1 0
89 84 88 36 58 22 67 81 72 21 0
89 84 88 27 40 7 42 50 44 6 0
89 84 88 35 57 64 78 17 71 18 0
89 84 87 82 36 58 22 67 81 76 0
89 84 87 82 27 40 7 42 50 47 0
89 84 87 82 32 55 62 75 70 16 0
89 84 87 82 3 9 13 23 19 1 0
89 84 87 36 58 22 67 81 76 21 0
89 84 87 27 40 7 42 50 47 6 0
89 84 87 32 55 62 75 70 16 15 0
89 84 82 36 58 22 67 81 76 72 0
89 84 82 27 40 7 42 50 47 44 0
89 84 82 3 9 13 23 19 14 1 0
89 84 36 58 22 67 81 76 72 21 0
89 84 27 40 7 42 50 47 44 6 0
89 86 90 88 87 82 36 58 22 48 0
89 86 90 88 87 82 30 52 43 12 0
89 86 90 88 87 82 39 60 51 25 0
89 86 90 88 87 82 35 57 46 17 0
89 86 90 88 87 82 32 55 45 16 0
89 86 90 88 87 82 3 9 5 1 0
89 86 90 88 87 36 58 22 48 21 0
89 86 90 88 87 30 52 43 12 11 0
89 86 90 88 87 39 60 51 25 24 0
89 86 90 88 87 35 57 46 17 18 0
89 86 90 88 87 32 55 45 16 15 0
89 86 90 88 82 36 58 22 48 72 0
89 86 90 88 82 30 52 43 12 63 0
89 86 90 88 82 39 60 51 25 74 0
89 86 90 88 82 35 57 46 17 71 0
89 86 90 88 82 3 9 5 14 1 0
89 86 90 88 36 58 22 48 72 21 0
89 86 90 88 30 52 43 12 63 11 0
89 86 90 88 39 60 51 25 74 24 0
89 86 90 88 35 57 46 17 71 18 0
89 86 90 87 82 36 58 22 48 76 0
89 86 90 87 82 30 52 43 12 65 0
89 86 90 87 82 39 60 51 25 79 0
89 86 90 87 82 32 55 45 70 16 0
89 86 90 87 82 3 9 5 19 1 0
89 86 90 87 36 58 22 48 76 21 0
89 86 90 87 30 52 43 12 65 11 0
89 86 90 87 39 60 51 25 79 24 0
89 86 90 87 32 55 45 70 16 15 0
89 86 90 82 36 58 22 48 76 72 0
89 86 90 82 30 52 43 12 65 63 0
89 86 90 82 39 60 51 25 79 74 0
89 86 90 82 3 9 5 19 14 1 0
89 86 90 36 58 22 48 76 72 21 0
89 86 90 30 52 43 12 65 63 11 0
89 86 90 39 60 51 25 79 74 24 0
89 86 88 87 82 36 58 22 48 81 0
89 86 88 87 82 30 52 43 12 69 0
89 86 88 87 82 35 57 46 78 17 0
89 86 88 87 82 32 55 45 75 16 0
89 86 88 87 82 3 9 5 23 1 0
89 86 88 87 36 58 22 48 81 21 0
89 86 88 87 30 52 43 12 69 11 0
89 86 88 87 35 57 46 78 17 18 0
89 86 88 87 32 55 45 75 16 15 0
89 86 88 82 36 58 22 48 81 72 0
89 86 88 82 30 52 43 12 69 63 0
89 86 88 82 35 57 46 78 17 71 0
89 86 88 82 3 9 5 23 14 1 0
89 86 88 36 58 22 48 81 72 21 0
89 86 88 30 52 43 12 69 63 11 0
89 86 88 35 57 46 78 17 71 18 0
89 86 87 82 36 58 22 48 81 76 0
89 86 87 82 30 52 43 12 69 65 0
89 86 87 82 32 55 45 75 70 16 0
89 86 87 82 3 9 5 23 19 1 0
89 86 87 36 58 22 48 81 76 21 0
89 86 87 30 52 43 12 69 65 11 0
89 86 87 32 55 45 75 70 16 15 0
89 86 82 36 58 22 48 81 76 72 0
89 86 82 30 52 43 12 69 65 63 0
89 86 82 3 9 5 23 19 14 1 0
89 86 36 58 22 48 81 76 72 21 0
89 86 30 52 43 12 69 65 63 11 0
89 90 88 87 82 36 58 22 48 67 0
89 90 88 87 82 39 60 51 68 25 0
89 90 88 87 82 35 57 46 64 17 0
89 90 88 87 82 32 55 45 62 16 0
89 90 88 87 82 3 9 5 13 1 0
89 90 88 87 36 58 22 48 67 21 0
89 90 88 87 39 60 51 68 25 24 0
89 90 88 87 35 57 46 64 17 18 0
89 90 88 87 32 55 45 62 16 15 0
89 90 88 82 36 58 22 48 67 72 0
89 90 88 82 39 60 51 68 25 74 0
89 90 88 82 35 57 46 64 17 71 0
89 90 88 82 3 9 5 13 14 1 0
89 90 88 36 58 22 48 67 72 21 0
89 90 88 39 60 51 68 25 74 24 0
89 90 88 35 57 46 64 17 71 18 0
89 90 87 82 36 58 22 48 67 76 0
89 90 87 82 39 60 51 68 25 79 0
89 90 87 82 32 55 45 62 70 16 0
89 90 87 82 3 9 5 13 19 1 0
89 90 87 36 58 22 48 67 76 21 0
89 90 87 39 60 51 68 25 79 24 0
89 90 87 32 55 45 62 70 16 15 0
89 90 82 36 58 22 48 67 76 72 0
89 90 82 39 60 51 68 25 79 74 0
89 90 82 3 9 5 13 19 14 1 0
89 90 36 58 22 48 67 76 72 21 0
89 90 39 60 51 68 25 79 74 24 0
89 88 87 82 36 58 22 48 67 81 0
89 88 87 82 35 57 46 64 78 17 0
89 88 87 82 32 55 45 62 75 16 0
89 88 87 82 3 9 5 13 23 1 0
89 88 87 36 58 22 48 67 81 21 0
89 88 87 35 57 46 64 78 17 18 0
89 88 87 32 55 45 62 75 16 15 0
89 88 82 36 58 22 48 67 81 72 0
89 88 82 35 57 46 64 78 17 71 0
89 88 82 3 9 5 13 23 14 1 0
89 88 36 58 22 48 67 81 72 21 0
89 88 35 57 46 64 78 17 71 18 0
89 87 82 36 58 22 48 67 81 76 0
89 87 82 32 55 45 62 75 70 16 0
89 87 82 3 9 5 13 23 19 1 0
89 87 36 58 22 48 67 81 76 21 0
89 87 32 55 45 62 75 70 16 15 0
89 82 36 58 22 48 67 81 76 72 0
89 82 3 9 5 13 23 19 14 1 0
89 36 58 22 48 67 81 76 72 21 0
84 86 90 88 87 82 27 40 49 7 0
84 86 90 88 87 82 30 52 66 12 0
84 86 90 88 87 82 39 60 80 25 0
84 86 90 88 87 82 35 57 77 17 0
84 86 90 88 87 82 32 55 73 16 0
84 86 90 88 87 82 3 9 20 1 0
84 86 90 88 87 27 40 49 7 6 0
84 86 90 88 87 30 52 66 12 11 0
84 86 90 88 87 39 60 80 25 24 0
84 86 90 88 87 35 57 77 17 18 0
84 86 90 88 87 32 55 73 16 15 0
84 86 90 88 82 27 40 49 7 44 0
84 86 90 88 82 30 52 66 12 63 0
84 86 90 88 82 39 60 80 25 74 0
84 86 90 88 82 35 57 77 17 71 0
84 86 90 88 82 3 9 20 14 1 0
84 86 90 88 27 40 49 7 44 6 0
84 86 90 88 30 52 66 12 63 11 0
84 86 90 88 39 60 80 25 74 24 0
84 86 90 88 35 57 77 17 71 18 0
84 86 90 87 82 27 40 49 7 47 0
84 86 90 87 82 30 52 66 12 65 0
84 86 90 87 82 39 60 80 25 79 0
84 86 90 87 82 32 55 73 70 16 0
84 86 90 87 82 3 9 20 19 1 0
84 86 90 87 27 40 49 7 47 6 0
84 86 90 87 30 52 66 12 65 11 0
84 86 90 87 39 60 80 25 79 24 0
84 86 90 87 32 55 73 70 16 15 0
84 86 90 82 27 40 49 7 47 44 0
84 86 90 82 30 52 66 12 65 63 0
84 86 90 82 39 60 80 25 79 74 0
84 86 90 82 3 9 20 19 14 1 0
84 86 90 27 40 49 7 47 44 6 0
84 86 90 30 52 66 12 65 63 11 0
84 86 90 39 60 80 25 79 74 24 0
84 86 88 87 82 27 40 49 7 50 0
84 86 88 87 82 30 52 66 12 69 0
84 86 88 87 82 35 57 77 78 17 0
84 86 88 87 82 32 55 73 75 16 0
84 86 88 87 82 3 9 20 23 1 0
84 86 88 87 27 40 49 7 50 6 0
84 86 88 87 30 52 66 12 69 11 0
84 86 88 87 35 57 77 78 17 18 0
84 86 88 87 32 55 73 75 16 15 0
84 86 88 82 27 40 49 7 50 44 0
84 86 88 82 30 52 66 12 69 63 0
84 86 88 82 35 57 77 78 17 71 0
84 86 88 82 3 9 20 23 14 1 0
84 86 88 27 40 49 7 50 44 6 0
84 86 88 30 52 66 12 69 63 11 0
84 86 88 35 57 77 78 17 71 18 0
84 86 87 82 27 40 49 7 50 47 0
84 86 87 82 30 52 66 12 69 65 0
84 86 87 82 32 55 73 75 70 16 0
84 86 87 82 3 9 20 23 19 1 0
84 86 87 27 40 49 7 50 47 6 0
84 86 87 30 52 66 12 69 65 11 0
84 86 87 32 55 73 75 70 16 15 0
84 86 82 27 40 49 7 50 47 44 0
84 86 82 30 52 66 12 69 65 63 0
84 86 82 3 9 20 23 19 14 1 0
84 86 27 40 49 7 50 47 44 6 0
84 86 30 52 66 12 69 65 63 11 0
84 90 88 87 82 27 40 49 7 42 0
84 90 88 87 82 39 60 80 68 25 0
84 90 88 87 82 35 57 77 64 17 0
84 90 88 87 82 32 55 73 62 16 0
84 90 88 87 82 3 9 20 13 1 0
84 90 88 87 27 40 49 7 42 6 0
84 90 88 87 39 60 80 68 25 24 0
84 90 88 87 35 57 77 64 17 18 0
84 90 88 87 32 55 73 62 16 15 0
84 90 88 82 27 40 49 7 42 44 0
84 90 88 82 39 60 80 68 25 74 0
84 90 88 82 35 57 77 64 17 71 0
84 90 88 82 3 9 20 13 14 1 0
84 90 88 27 40 49 7 42 44 6 0
84 90 88 39 60 80 68 25 74 24 0
84 90 88 35 57 77 64 17 71 18 0
84 90 87 82 27 40 49 7 42 47 0
84 90 87 82 39 60 80 68 25 79 0
84 90 87 82 32 55 73 62 70 16 0
84 90 87 82 3 9 20 13 19 1 0
84 90 87 27 40 49 7 42 47 6 0
84 90 87 39 60 80 68 25 79 24 0
84 90 87 32 55 73 62 70 16 15 0
84 90 82 27 40 49 7 42 47 44 0
84 90 82 39 60 80 68 25 79 74 0
84 90 82 3 9 20 13 19 14 1 0
84 90 27 40 49 7 42 47 44 6 0
84 90 39 60 80 68 25 79 74 24 0
84 88 87 82 27 40 49 7 42 50 0
84 88 87 82 35 57 77 64 78 17 0
84 88 87 82 32 55 73 62 75 16 0
84 88 87 82 3 9 20 13 23 1 0
84 88 87 27 40 49 7 42 50 6 0
84 88 87 35 57 77 64 78 17 18 0
84 88 87 32 55 73 62 75 16 15 0
84 88 82 27 40 49 7 42 50 44 0
84 88 82 35 57 77 64 78 17 71 0
84 88 82 3 9 20 13 23 14 1 0
84 88 27 40 49 7 42 50 44 6 0
84 88 35 57 77 64 78 17 71 18 0
84 87 82 27 40 49 7 42 50 47 0
84 87 82 32 55 73 62 75 70 16 0
84 87 82 3 9 20 13 23 19 1 0
84 87 27 40 49 7 42 50 47 6 0
84 87 32 55 73 62 75 70 16 15 0
84 82 27 40 49 7 42 50 47 44 0
84 82 3 9 20 13 23 19 14 1 0
84 27 40 49 7 42 50 47 44 6 0
86 90 88 87 82 30 52 66 43 12 0
86 90 88 87 82 39 60 80 51 25 0
86 90 88 87 82 35 57 77 46 17 0
86 90 88 87 82 32 55 73 45 16 0
86 90 88 87 82 3 9 20 5 1 0
86 90 88 87 30 52 66 43 12 11 0
86 90 88 87 39 60 80 51 25 24 0
86 90 88 87 35 57 77 46 17 18 0
86 90 88 87 32 55 73 45 16 15 0
86 90 88 82 30 52 66 43 12 63 0
86 90 88 82 39 60 80 51 25 74 0
86 90 88 82 35 57 77 46 17 71 0
86 90 88 82 3 9 20 5 14 1 0
86 90 88 30 52 66 43 12 63 11 0
86 90 88 39 60 80 51 25 74 24 0
86 90 88 35 57 77 46 17 71 18 0
86 90 87 82 30 52 66 43 12 65 0
86 90 87 82 39 60 80 51 25 79 0
86 90 87 82 32 55 73 45 70 16 0
86 90 87 82 3 9 20 5 19 1 0
86 90 87 30 52 66 43 12 65 11 0
86 90 87 39 60 80 51 25 79 24 0
86 90 87 32 55 73 45 70 16 15 0
86 90 82 30 52 66 43 12 65 63 0
86 90 82 39 60 80 51 25 79 74 0
86 90 82 3 9 20 5 19 14 1 0
86 90 30 52 66 43 12 65 63 11 0
86 90 39 60 80 51 25 79 74 24 0
86 88 87 82 30 52 66 43 12 69 0
86 88 87 82 35 57 77 46 78 17 0
86 88 87 82 32 55 73 45 75 16 0
86 88 87 82 3 9 20 5 23 1 0
86 88 87 30 52 66 43 12 69 11 0
86 88 87 35 57 77 46 78 17 18 0
86 88 87 32 55 73 45 75 16 15 0
86 88 82 30 52 66 43 12 69 63 0
86 88 82 35 57 77 46 78 17 71 0
86 88 82 3 9 20 5 23 14 1 0
86 88 30 52 66 43 12 69 63 11 0
86 88 35 57 77 46 78 17 71 18 0
86 87 82 30 52 66 43 12 69 65 0
86 87 82 32 55 73 45 75 70 16 0
86 87 82 3 9 20 5 23 19 1 0
86 87 30 52 66 43 12 69 65 11 0
86 87 32 55 73 45 75 70 16 15 0
86 82 30 52 66 43 12 69 65 63 0
86 82 3 9 20 5 23 19 14 1 0
86 30 52 66 43 12 69 65 63 11 0
90 88 87 82 39 60 80 51 68 25 0
90 88 87 82 35 57 77 46 64 17 0
90 88 87 82 32 55 73 45 62 16 0
90 88 87 82 3 9 20 5 13 1 0
90 88 87 39 60 80 51 68 25 24 0
90 88 87 35 57 77 46 64 17 18 0
90 88 87 32 55 73 45 62 16 15 0
90 88 82 39 60 80 51 68 25 74 0
90 88 82 35 57 77 46 64 17 71 0
90 88 82 3 9 20 5 13 14 1 0
90 88 39 60 80 51 68 25 74 24 0
90 88 35 57 77 46 64 17 71 18 0
90 87 82 39 60 80 51 68 25 79 0
90 87 82 32 55 73 45 62 70 16 0
90 87 82 3 9 20 5 13 19 1 0
90 87 39 60 80 51 68 25 79 24 0
90 87 32 55 73 45 62 70 16 15 0
90 82 39 60 80 51 68 25 79 74 0
90 82 3 9 20 5 13 19 14 1 0
90 39 60 80 51 68 25 79 74 24 0
88 87 82 35 57 77 46 64 78 17 0
88 87 82 32 55 73 45 62 75 16 0
88 87 82 3 9 20 5 13 23 1 0
88 87 35 57 77 46 64 78 17 18 0
88 87 32 55 73 45 62 75 16 15 0
88 82 35 57 77 46 64 78 17 71 0
88 82 3 9 20 5 13 23 14 1 0
88 35 57 77 46 64 78 17 71 18 0
87 82 32 55 73 45 62 75 70 16 0
87 82 3 9 20 5 13 23 19 1 0
87 32 55 73 45 62 75 70 16 15 0
82 3 9 20 5 13 23 19 14 1 0
