c E2(5,5) U1(5) E1(5,5) U3(5) U4(5) U2(5) E2(4,5) E1(5,4) E2(5,4) U2(4) U3(4) U1(4) U4(4) E1(4,5) U2(7) E1(7,5) U4(7) U3(7) E1(5,7) U1(7) E2(5,7) E2(7,5) U2(3) E1(5,3) U1(3) E2(5,3) E1(3,5) U3(3) U4(3) E2(3,5) U2(8) E2(5,8) E1(8,5) E2(8,5) U3(8) U4(8) E1(5,8) U1(8) E1(5,9) E2(9,5) E1(9,5) U2(9) E2(5,9) U1(9) U4(9) U3(9) E2(5,1) E1(1,5) U4(1) E1(5,1) U2(1) E2(1,5) U1(1) U3(1) U2(0) E1(5,0) U1(0) U4(0) E2(0,5) E2(5,0) E1(0,5) U3(0) U4(6) E1(5,6) E2(6,5) U3(6) E1(6,5) E2(5,6) U2(6) U1(6) U3(2) E1(5,2) U2(2) E2(5,2) U4(2) E1(2,5) E2(2,5) U1(2) E1(4,4) E2(4,4) E2(7,4) E2(4,7) E1(4,7) E1(7,4) E1(3,4) E2(3,4) E1(4,3) E2(4,3) E1(4,8) E1(8,4) E2(4,8) E2(8,4) E1(4,9) E1(9,4) E2(4,9) E2(9,4) E2(4,1) E1(1,4) E1(4,1) E2(1,4) E1(0,4) E2(0,4) E1(4,0) E2(4,0) E2(4,6) E1(6,4) E1(4,6) E2(6,4) E1(2,4) E2(2,4) E1(4,2) E2(4,2) E2(7,7) E1(7,7) E2(3,7) E1(7,3) E2(7,3) E1(3,7) E2(8,7) E2(7,8) E1(7,8) E1(8,7) E2(7,9) E1(7,9) E1(9,7) E2(9,7) E2(1,7) E1(7,1) E1(1,7) E2(7,1) E1(7,0) E1(0,7) E2(7,0) E2(0,7) E1(7,6) E1(6,7) E2(6,7) E2(7,6) E2(7,2) E1(2,7) E2(2,7) E1(7,2) E2(3,3) E1(3,3) E1(3,8) E2(3,8) E2(8,3) E1(8,3) E2(3,9) E1(9,3) E2(9,3) E1(3,9) E1(3,1) E1(1,3) E2(3,1) E2(1,3) E1(0,3) E2(0,3) E1(3,0) E2(3,0) E1(6,3) E2(3,6) E2(6,3) E1(3,6) E1(3,2) E1(2,3) E2(3,2) E2(2,3) E2(8,8) E1(8,8) E1(8,9) E2(9,8) E2(8,9) E1(9,8) E2(1,8) E1(8,1) E1(1,8) E2(8,1) E2(0,8) E2(8,0) E1(8,0) E1(0,8) E1(6,8) E2(8,6) E1(8,6) E2(6,8) E2(8,2) E1(2,8) E1(8,2) E2(2,8) E2(9,9) E1(9,9) E2(9,1) E1(1,9) E2(1,9) E1(9,1) E2(0,9) E1(9,0) E2(9,0) E1(0,9) E1(9,6) E1(6,9) E2(9,6) E2(6,9) E2(2,9) E1(9,2) E2(9,2) E1(2,9) E1(1,1) E2(1,1) E2(1,0) E1(1,0) E1(0,1) E2(0,1) E2(1,6) E1(6,1) E2(6,1) E1(1,6) E2(2,1) E1(2,1) E1(1,2) E2(1,2) E1(0,0) E2(0,0) E1(6,0) E2(6,0) E1(0,6) E2(0,6) E1(0,2) E2(0,2) E1(2,0) E2(2,0) E1(6,6) E2(6,6) E1(6,2) E2(2,6) E2(6,2) E1(2,6) E2(2,2) E1(2,2)
c 1 2 3 4 5 6 7 8 9 10 11 12 13 14 15 16 17 18 19 20 21 22 23 24 25 26 27 28 29 30 31 32 33 34 35 36 37 38 39 40 41 42 43 44 45 46 47 48 49 50 51 52 53 54 55 56 57 58 59 60 61 62 63 64 65 66 67 68 69 70 71 72 73 74 75 76 77 78 79 80 81 82 83 84 85 86 87 88 89 90 91 92 93 94 95 96 97 98 99 100 101 102 103 104 105 106 107 108 109 110 111 112 113 114 115 116 117 118 119 120 121 122 123 124 125 126 127 128 129 130 131 132 133 134 135 136 137 138 139 140 141 142 143 144 145 146 147 148 149 150 151 152 153 154 155 156 157 158 159 160 161 162 163 164 165 166 167 168 169 170 171 172 173 174 175 176 177 178 179 180 181 182 183 184 185 186 187 188 189 190 191 192 193 194 195 196 197 198 199 200 201 202 203 204 205 206 207 208 209 210 211 212 213 214 215 216 217 218 219 220 221 222 223 224 225 226 227 228 229 230 231 232 233 234 235 236 237 238 239 240
p cnf 240 6790
223 -223 0
213 -212 0
229 -231 0
157 -159 0
101 -103 0
61 -56 0
227 -225 0
132 -131 0
182 -181 0
200 -198 0
212 -213 0
209 -209 0
221 -220 0
154 -153 0
98 -99 0
48 -50 0
218 -216 0
129 -128 0
177 -176 0
194 -196 0
231 -229 0
220 -221 0
240 -240 0
166 -165 0
109 -111 0
76 -72 0
238 -235 0
140 -142 0
188 -189 0
208 -206 0
159 -157 0
153 -154 0
165 -166 0
144 -144 0
85 -87 0
27 -24 0
164 -161 0
118 -116 0
145 -148 0
152 -150 0
103 -101 0
99 -98 0
111 -109 0
87 -85 0
79 -79 0
14 -8 0
107 -106 0
83 -84 0
89 -90 0
93 -94 0
56 -61 0
50 -48 0
72 -76 0
24 -27 0
8 -14 0
3 -3 0
64 -67 0
19 -16 0
37 -33 0
39 -41 0
225 -227 0
216 -218 0
235 -238 0
161 -164 0
106 -107 0
67 -64 0
233 -233 0
136 -135 0
183 -185 0
202 -201 0
131 -132 0
128 -129 0
142 -140 0
116 -118 0
84 -83 0
16 -19 0
135 -136 0
114 -114 0
121 -122 0
124 -125 0
181 -182 0
176 -177 0
189 -188 0
148 -145 0
90 -89 0
33 -37 0
185 -183 0
122 -121 0
170 -170 0
171 -174 0
198 -200 0
196 -194 0
206 -208 0
150 -152 0
94 -93 0
41 -39 0
201 -202 0
125 -124 0
174 -171 0
192 -192 0
224 -224 0
214 -211 0
230 -232 0
158 -160 0
102 -104 0
59 -60 0
228 -226 0
134 -133 0
179 -180 0
197 -199 0
211 -214 0
210 -210 0
222 -219 0
156 -155 0
100 -97 0
52 -47 0
215 -217 0
127 -130 0
175 -178 0
195 -193 0
232 -230 0
219 -222 0
239 -239 0
168 -167 0
110 -112 0
77 -74 0
236 -237 0
141 -139 0
190 -187 0
205 -207 0
160 -158 0
155 -156 0
167 -168 0
143 -143 0
86 -88 0
30 -26 0
162 -163 0
115 -117 0
146 -147 0
149 -151 0
104 -102 0
97 -100 0
112 -110 0
88 -86 0
80 -80 0
7 -9 0
105 -108 0
82 -81 0
91 -92 0
95 -96 0
60 -59 0
47 -52 0
74 -77 0
26 -30 0
9 -7 0
1 -1 0
68 -65 0
21 -22 0
32 -34 0
43 -40 0
226 -228 0
217 -215 0
237 -236 0
163 -162 0
108 -105 0
65 -68 0
234 -234 0
137 -138 0
186 -184 0
204 -203 0
133 -134 0
130 -127 0
139 -141 0
117 -115 0
81 -82 0
22 -21 0
138 -137 0
113 -113 0
120 -119 0
123 -126 0
180 -179 0
178 -175 0
187 -190 0
147 -146 0
92 -91 0
34 -32 0
184 -186 0
119 -120 0
169 -169 0
173 -172 0
199 -197 0
193 -195 0
207 -205 0
151 -149 0
96 -95 0
40 -43 0
203 -204 0
126 -123 0
172 -173 0
191 -191 0
-223 -224 0
-213 -214 0
-229 -230 0
-157 -158 0
-101 -102 0
-61 -59 0
-227 -228 0
-132 -134 0
-182 -179 0
-200 -197 0
-212 -211 0
-209 -210 0
-221 -222 0
-154 -156 0
-98 -100 0
-48 -52 0
-218 -215 0
-129 -127 0
-177 -175 0
-194 -195 0
-231 -232 0
-220 -219 0
-240 -239 0
-166 -168 0
-109 -110 0
-76 -77 0
-238 -236 0
-140 -141 0
-188 -190 0
-208 -205 0
-159 -160 0
-153 -155 0
-165 -167 0
-144 -143 0
-85 -86 0
-27 -30 0
-164 -162 0
-118 -115 0
-145 -146 0
-152 -149 0
-103 -104 0
-99 -97 0
-111 -112 0
-87 -88 0
-79 -80 0
-14 -7 0
-107 -105 0
-83 -82 0
-89 -91 0
-93 -95 0
-56 -60 0
-50 -47 0
-72 -74 0
-24 -26 0
-8 -9 0
-3 -1 0
-64 -68 0
-19 -21 0
-37 -32 0
-39 -43 0
-225 -226 0
-216 -217 0
-235 -237 0
-161 -163 0
-106 -108 0
-67 -65 0
-233 -234 0
-136 -137 0
-183 -186 0
-202 -204 0
-131 -133 0
-128 -130 0
-142 -139 0
-116 -117 0
-84 -81 0
-16 -22 0
-135 -138 0
-114 -113 0
-121 -120 0
-124 -123 0
-181 -180 0
-176 -178 0
-189 -187 0
-148 -147 0
-90 -92 0
-33 -34 0
-185 -184 0
-122 -119 0
-170 -169 0
-171 -173 0
-198 -199 0
-196 -193 0
-206 -207 0
-150 -151 0
-94 -96 0
-41 -40 0
-201 -203 0
-125 -126 0
-174 -172 0
-192 -191 0
-57 -55 0
-57 -62 0
-57 -58 0
-53 -51 0
-53 -54 0
-53 -49 0
-78 -73 0
-78 -71 0
-78 -75 0
-25 -23 0
-25 -28 0
-25 -29 0
-12 -10 0
-12 -11 0
-12 -13 0
-2 -6 0
-2 -4 0
-2 -5 0
-70 -69 0
-70 -66 0
-70 -63 0
-20 -15 0
-20 -18 0
-20 -17 0
-38 -31 0
-38 -35 0
-38 -36 0
-44 -42 0
-44 -46 0
-44 -45 0
-55 -62 0
-55 -58 0
-51 -54 0
-51 -49 0
-73 -71 0
-73 -75 0
-23 -28 0
-23 -29 0
-10 -11 0
-10 -13 0
-6 -4 0
-6 -5 0
-69 -66 0
-69 -63 0
-15 -18 0
-15 -17 0
-31 -35 0
-31 -36 0
-42 -46 0
-42 -45 0
-62 -58 0
-54 -49 0
-71 -75 0
-28 -29 0
-11 -13 0
-4 -5 0
-66 -63 0
-18 -17 0
-35 -36 0
-46 -45 0
57 55 62 58 0
53 51 54 49 0
78 73 71 75 0
25 23 28 29 0
12 10 11 13 0
2 6 4 5 0
70 69 66 63 0
20 15 18 17 0
38 31 35 36 0
44 42 46 45 0
57 55 62 -223 0
57 55 62 -224 0
57 55 58 -223 0
57 55 58 -224 0
57 62 58 -223 0
57 62 58 -224 0
53 51 54 -209 0
53 51 54 -210 0
53 51 49 -209 0
53 51 49 -210 0
53 54 49 -209 0
53 54 49 -210 0
78 73 71 -240 0
78 73 71 -239 0
78 73 75 -240 0
78 73 75 -239 0
78 71 75 -240 0
78 71 75 -239 0
25 23 28 -144 0
25 23 28 -143 0
25 23 29 -144 0
25 23 29 -143 0
25 28 29 -144 0
25 28 29 -143 0
12 10 11 -79 0
12 10 11 -80 0
12 10 13 -79 0
12 10 13 -80 0
12 11 13 -79 0
12 11 13 -80 0
2 6 4 -3 0
2 6 4 -1 0
2 6 5 -3 0
2 6 5 -1 0
2 4 5 -3 0
2 4 5 -1 0
70 69 66 -233 0
70 69 66 -234 0
70 69 63 -233 0
70 69 63 -234 0
70 66 63 -233 0
70 66 63 -234 0
20 15 18 -114 0
20 15 18 -113 0
20 15 17 -114 0
20 15 17 -113 0
20 18 17 -114 0
20 18 17 -113 0
38 31 35 -170 0
38 31 35 -169 0
38 31 36 -170 0
38 31 36 -169 0
38 35 36 -170 0
38 35 36 -169 0
44 42 46 -192 0
44 42 46 -191 0
44 42 45 -192 0
44 42 45 -191 0
44 46 45 -192 0
44 46 45 -191 0
55 62 58 -223 0
55 62 58 -224 0
51 54 49 -209 0
51 54 49 -210 0
73 71 75 -240 0
73 71 75 -239 0
23 28 29 -144 0
23 28 29 -143 0
10 11 13 -79 0
10 11 13 -80 0
6 4 5 -3 0
6 4 5 -1 0
69 66 63 -233 0
69 66 63 -234 0
15 18 17 -114 0
15 18 17 -113 0
31 35 36 -170 0
31 35 36 -169 0
42 46 45 -192 0
42 46 45 -191 0
57 55 62 58 -223 0
57 55 62 58 -213 0
57 55 62 58 -229 0
57 55 62 58 -157 0
57 55 62 58 -101 0
57 55 62 58 -61 0
57 55 62 58 -227 0
57 55 62 58 -132 0
57 55 62 58 -182 0
57 55 62 58 -200 0
57 55 62 58 -212 0
57 55 62 58 -231 0
57 55 62 58 -159 0
57 55 62 58 -103 0
57 55 62 58 -56 0
57 55 62 58 -225 0
57 55 62 58 -131 0
57 55 62 58 -181 0
57 55 62 58 -198 0
57 55 62 58 -224 0
57 55 62 58 -214 0
57 55 62 58 -230 0
57 55 62 58 -158 0
57 55 62 58 -102 0
57 55 62 58 -59 0
57 55 62 58 -228 0
57 55 62 58 -134 0
57 55 62 58 -179 0
57 55 62 58 -197 0
57 55 62 58 -211 0
57 55 62 58 -232 0
57 55 62 58 -160 0
57 55 62 58 -104 0
57 55 62 58 -60 0
57 55 62 58 -226 0
57 55 62 58 -133 0
57 55 62 58 -180 0
57 55 62 58 -199 0
53 51 54 49 -213 0
53 51 54 49 -212 0
53 51 54 49 -209 0
53 51 54 49 -221 0
53 51 54 49 -154 0
53 51 54 49 -98 0
53 51 54 49 -48 0
53 51 54 49 -218 0
53 51 54 49 -129 0
53 51 54 49 -177 0
53 51 54 49 -194 0
53 51 54 49 -220 0
53 51 54 49 -153 0
53 51 54 49 -99 0
53 51 54 49 -50 0
53 51 54 49 -216 0
53 51 54 49 -128 0
53 51 54 49 -176 0
53 51 54 49 -196 0
53 51 54 49 -214 0
53 51 54 49 -211 0
53 51 54 49 -210 0
53 51 54 49 -222 0
53 51 54 49 -156 0
53 51 54 49 -100 0
53 51 54 49 -52 0
53 51 54 49 -215 0
53 51 54 49 -127 0
53 51 54 49 -175 0
53 51 54 49 -195 0
53 51 54 49 -219 0
53 51 54 49 -155 0
53 51 54 49 -97 0
53 51 54 49 -47 0
53 51 54 49 -217 0
53 51 54 49 -130 0
53 51 54 49 -178 0
53 51 54 49 -193 0
78 73 71 75 -229 0
78 73 71 75 -221 0
78 73 71 75 -231 0
78 73 71 75 -220 0
78 73 71 75 -240 0
78 73 71 75 -166 0
78 73 71 75 -109 0
78 73 71 75 -76 0
78 73 71 75 -238 0
78 73 71 75 -140 0
78 73 71 75 -188 0
78 73 71 75 -208 0
78 73 71 75 -165 0
78 73 71 75 -111 0
78 73 71 75 -72 0
78 73 71 75 -235 0
78 73 71 75 -142 0
78 73 71 75 -189 0
78 73 71 75 -206 0
78 73 71 75 -230 0
78 73 71 75 -222 0
78 73 71 75 -232 0
78 73 71 75 -219 0
78 73 71 75 -239 0
78 73 71 75 -168 0
78 73 71 75 -110 0
78 73 71 75 -77 0
78 73 71 75 -236 0
78 73 71 75 -141 0
78 73 71 75 -190 0
78 73 71 75 -205 0
78 73 71 75 -167 0
78 73 71 75 -112 0
78 73 71 75 -74 0
78 73 71 75 -237 0
78 73 71 75 -139 0
78 73 71 75 -187 0
78 73 71 75 -207 0
25 23 28 29 -157 0
25 23 28 29 -154 0
25 23 28 29 -166 0
25 23 28 29 -159 0
25 23 28 29 -153 0
25 23 28 29 -165 0
25 23 28 29 -144 0
25 23 28 29 -85 0
25 23 28 29 -27 0
25 23 28 29 -164 0
25 23 28 29 -118 0
25 23 28 29 -145 0
25 23 28 29 -152 0
25 23 28 29 -87 0
25 23 28 29 -24 0
25 23 28 29 -161 0
25 23 28 29 -116 0
25 23 28 29 -148 0
25 23 28 29 -150 0
25 23 28 29 -158 0
25 23 28 29 -156 0
25 23 28 29 -168 0
25 23 28 29 -160 0
25 23 28 29 -155 0
25 23 28 29 -167 0
25 23 28 29 -143 0
25 23 28 29 -86 0
25 23 28 29 -30 0
25 23 28 29 -162 0
25 23 28 29 -115 0
25 23 28 29 -146 0
25 23 28 29 -149 0
25 23 28 29 -88 0
25 23 28 29 -26 0
25 23 28 29 -163 0
25 23 28 29 -117 0
25 23 28 29 -147 0
25 23 28 29 -151 0
12 10 11 13 -101 0
12 10 11 13 -98 0
12 10 11 13 -109 0
12 10 11 13 -85 0
12 10 11 13 -103 0
12 10 11 13 -99 0
12 10 11 13 -111 0
12 10 11 13 -87 0
12 10 11 13 -79 0
12 10 11 13 -14 0
12 10 11 13 -107 0
12 10 11 13 -83 0
12 10 11 13 -89 0
12 10 11 13 -93 0
12 10 11 13 -8 0
12 10 11 13 -106 0
12 10 11 13 -84 0
12 10 11 13 -90 0
12 10 11 13 -94 0
12 10 11 13 -102 0
12 10 11 13 -100 0
12 10 11 13 -110 0
12 10 11 13 -86 0
12 10 11 13 -104 0
12 10 11 13 -97 0
12 10 11 13 -112 0
12 10 11 13 -88 0
12 10 11 13 -80 0
12 10 11 13 -7 0
12 10 11 13 -105 0
12 10 11 13 -82 0
12 10 11 13 -91 0
12 10 11 13 -95 0
12 10 11 13 -9 0
12 10 11 13 -108 0
12 10 11 13 -81 0
12 10 11 13 -92 0
12 10 11 13 -96 0
2 6 4 5 -61 0
2 6 4 5 -48 0
2 6 4 5 -76 0
2 6 4 5 -27 0
2 6 4 5 -14 0
2 6 4 5 -56 0
2 6 4 5 -50 0
2 6 4 5 -72 0
2 6 4 5 -24 0
2 6 4 5 -8 0
2 6 4 5 -3 0
2 6 4 5 -64 0
2 6 4 5 -19 0
2 6 4 5 -37 0
2 6 4 5 -39 0
2 6 4 5 -67 0
2 6 4 5 -16 0
2 6 4 5 -33 0
2 6 4 5 -41 0
2 6 4 5 -59 0
2 6 4 5 -52 0
2 6 4 5 -77 0
2 6 4 5 -30 0
2 6 4 5 -7 0
2 6 4 5 -60 0
2 6 4 5 -47 0
2 6 4 5 -74 0
2 6 4 5 -26 0
2 6 4 5 -9 0
2 6 4 5 -1 0
2 6 4 5 -68 0
2 6 4 5 -21 0
2 6 4 5 -32 0
2 6 4 5 -43 0
2 6 4 5 -65 0
2 6 4 5 -22 0
2 6 4 5 -34 0
2 6 4 5 -40 0
70 69 66 63 -227 0
70 69 66 63 -218 0
70 69 66 63 -238 0
70 69 66 63 -164 0
70 69 66 63 -107 0
70 69 66 63 -64 0
70 69 66 63 -225 0
70 69 66 63 -216 0
70 69 66 63 -235 0
70 69 66 63 -161 0
70 69 66 63 -106 0
70 69 66 63 -67 0
70 69 66 63 -233 0
70 69 66 63 -136 0
70 69 66 63 -183 0
70 69 66 63 -202 0
70 69 66 63 -135 0
70 69 66 63 -185 0
70 69 66 63 -201 0
70 69 66 63 -228 0
70 69 66 63 -215 0
70 69 66 63 -236 0
70 69 66 63 -162 0
70 69 66 63 -105 0
70 69 66 63 -68 0
70 69 66 63 -226 0
70 69 66 63 -217 0
70 69 66 63 -237 0
70 69 66 63 -163 0
70 69 66 63 -108 0
70 69 66 63 -65 0
70 69 66 63 -234 0
70 69 66 63 -137 0
70 69 66 63 -186 0
70 69 66 63 -204 0
70 69 66 63 -138 0
70 69 66 63 -184 0
70 69 66 63 -203 0
20 15 18 17 -132 0
20 15 18 17 -129 0
20 15 18 17 -140 0
20 15 18 17 -118 0
20 15 18 17 -83 0
20 15 18 17 -19 0
20 15 18 17 -136 0
20 15 18 17 -131 0
20 15 18 17 -128 0
20 15 18 17 -142 0
20 15 18 17 -116 0
20 15 18 17 -84 0
20 15 18 17 -16 0
20 15 18 17 -135 0
20 15 18 17 -114 0
20 15 18 17 -121 0
20 15 18 17 -124 0
20 15 18 17 -122 0
20 15 18 17 -125 0
20 15 18 17 -134 0
20 15 18 17 -127 0
20 15 18 17 -141 0
20 15 18 17 -115 0
20 15 18 17 -82 0
20 15 18 17 -21 0
20 15 18 17 -137 0
20 15 18 17 -133 0
20 15 18 17 -130 0
20 15 18 17 -139 0
20 15 18 17 -117 0
20 15 18 17 -81 0
20 15 18 17 -22 0
20 15 18 17 -138 0
20 15 18 17 -113 0
20 15 18 17 -120 0
20 15 18 17 -123 0
20 15 18 17 -119 0
20 15 18 17 -126 0
38 31 35 36 -182 0
38 31 35 36 -177 0
38 31 35 36 -188 0
38 31 35 36 -145 0
38 31 35 36 -89 0
38 31 35 36 -37 0
38 31 35 36 -183 0
38 31 35 36 -121 0
38 31 35 36 -181 0
38 31 35 36 -176 0
38 31 35 36 -189 0
38 31 35 36 -148 0
38 31 35 36 -90 0
38 31 35 36 -33 0
38 31 35 36 -185 0
38 31 35 36 -122 0
38 31 35 36 -170 0
38 31 35 36 -171 0
38 31 35 36 -174 0
38 31 35 36 -179 0
38 31 35 36 -175 0
38 31 35 36 -190 0
38 31 35 36 -146 0
38 31 35 36 -91 0
38 31 35 36 -32 0
38 31 35 36 -186 0
38 31 35 36 -120 0
38 31 35 36 -180 0
38 31 35 36 -178 0
38 31 35 36 -187 0
38 31 35 36 -147 0
38 31 35 36 -92 0
38 31 35 36 -34 0
38 31 35 36 -184 0
38 31 35 36 -119 0
38 31 35 36 -169 0
38 31 35 36 -173 0
38 31 35 36 -172 0
44 42 46 45 -200 0
44 42 46 45 -194 0
44 42 46 45 -208 0
44 42 46 45 -152 0
44 42 46 45 -93 0
44 42 46 45 -39 0
44 42 46 45 -202 0
44 42 46 45 -124 0
44 42 46 45 -171 0
44 42 46 45 -198 0
44 42 46 45 -196 0
44 42 46 45 -206 0
44 42 46 45 -150 0
44 42 46 45 -94 0
44 42 46 45 -41 0
44 42 46 45 -201 0
44 42 46 45 -125 0
44 42 46 45 -174 0
44 42 46 45 -192 0
44 42 46 45 -197 0
44 42 46 45 -195 0
44 42 46 45 -205 0
44 42 46 45 -149 0
44 42 46 45 -95 0
44 42 46 45 -43 0
44 42 46 45 -204 0
44 42 46 45 -123 0
44 42 46 45 -173 0
44 42 46 45 -199 0
44 42 46 45 -193 0
44 42 46 45 -207 0
44 42 46 45 -151 0
44 42 46 45 -96 0
44 42 46 45 -40 0
44 42 46 45 -203 0
44 42 46 45 -126 0
44 42 46 45 -172 0
44 42 46 45 -191 0
57 53 55 62 58 -213 0
57 53 55 62 58 -212 0
57 53 55 62 58 -214 0
57 53 55 62 58 -211 0
57 53 51 54 49 -213 0
57 53 51 54 49 -212 0
57 53 51 54 49 -214 0
57 53 51 54 49 -211 0
57 78 55 62 58 -229 0
57 78 55 62 58 -231 0
57 78 55 62 58 -230 0
57 78 55 62 58 -232 0
57 78 73 71 75 -229 0
57 78 73 71 75 -231 0
57 78 73 71 75 -230 0
57 78 73 71 75 -232 0
57 25 55 62 58 -157 0
57 25 55 62 58 -159 0
57 25 55 62 58 -158 0
57 25 55 62 58 -160 0
57 25 23 28 29 -157 0
57 25 23 28 29 -159 0
57 25 23 28 29 -158 0
57 25 23 28 29 -160 0
57 12 55 62 58 -101 0
57 12 55 62 58 -103 0
57 12 55 62 58 -102 0
57 12 55 62 58 -104 0
57 12 10 11 13 -101 0
57 12 10 11 13 -103 0
57 12 10 11 13 -102 0
57 12 10 11 13 -104 0
57 2 55 62 58 -61 0
57 2 55 62 58 -56 0
57 2 55 62 58 -59 0
57 2 55 62 58 -60 0
57 2 6 4 5 -61 0
57 2 6 4 5 -56 0
57 2 6 4 5 -59 0
57 2 6 4 5 -60 0
57 70 55 62 58 -227 0
57 70 55 62 58 -225 0
57 70 55 62 58 -228 0
57 70 55 62 58 -226 0
57 70 69 66 63 -227 0
57 70 69 66 63 -225 0
57 70 69 66 63 -228 0
57 70 69 66 63 -226 0
57 20 55 62 58 -132 0
57 20 55 62 58 -131 0
57 20 55 62 58 -134 0
57 20 55 62 58 -133 0
57 20 15 18 17 -132 0
57 20 15 18 17 -131 0
57 20 15 18 17 -134 0
57 20 15 18 17 -133 0
57 38 55 62 58 -182 0
57 38 55 62 58 -181 0
57 38 55 62 58 -179 0
57 38 55 62 58 -180 0
57 38 31 35 36 -182 0
57 38 31 35 36 -181 0
57 38 31 35 36 -179 0
57 38 31 35 36 -180 0
57 44 55 62 58 -200 0
57 44 55 62 58 -198 0
57 44 55 62 58 -197 0
57 44 55 62 58 -199 0
57 44 42 46 45 -200 0
57 44 42 46 45 -198 0
57 44 42 46 45 -197 0
57 44 42 46 45 -199 0
57 55 51 62 58 -213 0
57 55 51 62 58 -212 0
57 55 51 62 58 -214 0
57 55 51 62 58 -211 0
57 55 73 62 58 -229 0
57 55 73 62 58 -231 0
57 55 73 62 58 -230 0
57 55 73 62 58 -232 0
57 55 23 62 58 -157 0
57 55 23 62 58 -159 0
57 55 23 62 58 -158 0
57 55 23 62 58 -160 0
57 55 10 62 58 -101 0
57 55 10 62 58 -103 0
57 55 10 62 58 -102 0
57 55 10 62 58 -104 0
57 55 6 62 58 -61 0
57 55 6 62 58 -56 0
57 55 6 62 58 -59 0
57 55 6 62 58 -60 0
57 55 69 62 58 -227 0
57 55 69 62 58 -225 0
57 55 69 62 58 -228 0
57 55 69 62 58 -226 0
57 55 15 62 58 -132 0
57 55 15 62 58 -131 0
57 55 15 62 58 -134 0
57 55 15 62 58 -133 0
57 55 31 62 58 -182 0
57 55 31 62 58 -181 0
57 55 31 62 58 -179 0
57 55 31 62 58 -180 0
57 55 42 62 58 -200 0
57 55 42 62 58 -198 0
57 55 42 62 58 -197 0
57 55 42 62 58 -199 0
57 55 62 54 58 -213 0
57 55 62 54 58 -212 0
57 55 62 54 58 -214 0
57 55 62 54 58 -211 0
57 55 62 71 58 -229 0
57 55 62 71 58 -231 0
57 55 62 71 58 -230 0
57 55 62 71 58 -232 0
57 55 62 28 58 -157 0
57 55 62 28 58 -159 0
57 55 62 28 58 -158 0
57 55 62 28 58 -160 0
57 55 62 11 58 -101 0
57 55 62 11 58 -103 0
57 55 62 11 58 -102 0
57 55 62 11 58 -104 0
57 55 62 4 58 -61 0
57 55 62 4 58 -56 0
57 55 62 4 58 -59 0
57 55 62 4 58 -60 0
57 55 62 66 58 -227 0
57 55 62 66 58 -225 0
57 55 62 66 58 -228 0
57 55 62 66 58 -226 0
57 55 62 18 58 -132 0
57 55 62 18 58 -131 0
57 55 62 18 58 -134 0
57 55 62 18 58 -133 0
57 55 62 35 58 -182 0
57 55 62 35 58 -181 0
57 55 62 35 58 -179 0
57 55 62 35 58 -180 0
57 55 62 46 58 -200 0
57 55 62 46 58 -198 0
57 55 62 46 58 -197 0
57 55 62 46 58 -199 0
57 55 62 58 49 -213 0
57 55 62 58 49 -212 0
57 55 62 58 49 -214 0
57 55 62 58 49 -211 0
57 55 62 58 75 -229 0
57 55 62 58 75 -231 0
57 55 62 58 75 -230 0
57 55 62 58 75 -232 0
57 55 62 58 29 -157 0
57 55 62 58 29 -159 0
57 55 62 58 29 -158 0
57 55 62 58 29 -160 0
57 55 62 58 13 -101 0
57 55 62 58 13 -103 0
57 55 62 58 13 -102 0
57 55 62 58 13 -104 0
57 55 62 58 5 -61 0
57 55 62 58 5 -56 0
57 55 62 58 5 -59 0
57 55 62 58 5 -60 0
57 55 62 58 63 -227 0
57 55 62 58 63 -225 0
57 55 62 58 63 -228 0
57 55 62 58 63 -226 0
57 55 62 58 17 -132 0
57 55 62 58 17 -131 0
57 55 62 58 17 -134 0
57 55 62 58 17 -133 0
57 55 62 58 36 -182 0
57 55 62 58 36 -181 0
57 55 62 58 36 -179 0
57 55 62 58 36 -180 0
57 55 62 58 45 -200 0
57 55 62 58 45 -198 0
57 55 62 58 45 -197 0
57 55 62 58 45 -199 0
53 78 51 54 49 -221 0
53 78 51 54 49 -220 0
53 78 51 54 49 -222 0
53 78 51 54 49 -219 0
53 78 73 71 75 -221 0
53 78 73 71 75 -220 0
53 78 73 71 75 -222 0
53 78 73 71 75 -219 0
53 25 51 54 49 -154 0
53 25 51 54 49 -153 0
53 25 51 54 49 -156 0
53 25 51 54 49 -155 0
53 25 23 28 29 -154 0
53 25 23 28 29 -153 0
53 25 23 28 29 -156 0
53 25 23 28 29 -155 0
53 12 51 54 49 -98 0
53 12 51 54 49 -99 0
53 12 51 54 49 -100 0
53 12 51 54 49 -97 0
53 12 10 11 13 -98 0
53 12 10 11 13 -99 0
53 12 10 11 13 -100 0
53 12 10 11 13 -97 0
53 2 51 54 49 -48 0
53 2 51 54 49 -50 0
53 2 51 54 49 -52 0
53 2 51 54 49 -47 0
53 2 6 4 5 -48 0
53 2 6 4 5 -50 0
53 2 6 4 5 -52 0
53 2 6 4 5 -47 0
53 70 51 54 49 -218 0
53 70 51 54 49 -216 0
53 70 51 54 49 -215 0
53 70 51 54 49 -217 0
53 70 69 66 63 -218 0
53 70 69 66 63 -216 0
53 70 69 66 63 -215 0
53 70 69 66 63 -217 0
53 20 51 54 49 -129 0
53 20 51 54 49 -128 0
53 20 51 54 49 -127 0
53 20 51 54 49 -130 0
53 20 15 18 17 -129 0
53 20 15 18 17 -128 0
53 20 15 18 17 -127 0
53 20 15 18 17 -130 0
53 38 51 54 49 -177 0
53 38 51 54 49 -176 0
53 38 51 54 49 -175 0
53 38 51 54 49 -178 0
53 38 31 35 36 -177 0
53 38 31 35 36 -176 0
53 38 31 35 36 -175 0
53 38 31 35 36 -178 0
53 44 51 54 49 -194 0
53 44 51 54 49 -196 0
53 44 51 54 49 -195 0
53 44 51 54 49 -193 0
53 44 42 46 45 -194 0
53 44 42 46 45 -196 0
53 44 42 46 45 -195 0
53 44 42 46 45 -193 0
53 55 51 54 49 -213 0
53 55 51 54 49 -212 0
53 55 51 54 49 -214 0
53 55 51 54 49 -211 0
53 51 73 54 49 -221 0
53 51 73 54 49 -220 0
53 51 73 54 49 -222 0
53 51 73 54 49 -219 0
53 51 23 54 49 -154 0
53 51 23 54 49 -153 0
53 51 23 54 49 -156 0
53 51 23 54 49 -155 0
53 51 10 54 49 -98 0
53 51 10 54 49 -99 0
53 51 10 54 49 -100 0
53 51 10 54 49 -97 0
53 51 6 54 49 -48 0
53 51 6 54 49 -50 0
53 51 6 54 49 -52 0
53 51 6 54 49 -47 0
53 51 69 54 49 -218 0
53 51 69 54 49 -216 0
53 51 69 54 49 -215 0
53 51 69 54 49 -217 0
53 51 15 54 49 -129 0
53 51 15 54 49 -128 0
53 51 15 54 49 -127 0
53 51 15 54 49 -130 0
53 51 31 54 49 -177 0
53 51 31 54 49 -176 0
53 51 31 54 49 -175 0
53 51 31 54 49 -178 0
53 51 42 54 49 -194 0
53 51 42 54 49 -196 0
53 51 42 54 49 -195 0
53 51 42 54 49 -193 0
53 51 62 54 49 -213 0
53 51 62 54 49 -212 0
53 51 62 54 49 -214 0
53 51 62 54 49 -211 0
53 51 54 71 49 -221 0
53 51 54 71 49 -220 0
53 51 54 71 49 -222 0
53 51 54 71 49 -219 0
53 51 54 28 49 -154 0
53 51 54 28 49 -153 0
53 51 54 28 49 -156 0
53 51 54 28 49 -155 0
53 51 54 11 49 -98 0
53 51 54 11 49 -99 0
53 51 54 11 49 -100 0
53 51 54 11 49 -97 0
53 51 54 4 49 -48 0
53 51 54 4 49 -50 0
53 51 54 4 49 -52 0
53 51 54 4 49 -47 0
53 51 54 66 49 -218 0
53 51 54 66 49 -216 0
53 51 54 66 49 -215 0
53 51 54 66 49 -217 0
53 51 54 18 49 -129 0
53 51 54 18 49 -128 0
53 51 54 18 49 -127 0
53 51 54 18 49 -130 0
53 51 54 35 49 -177 0
53 51 54 35 49 -176 0
53 51 54 35 49 -175 0
53 51 54 35 49 -178 0
53 51 54 46 49 -194 0
53 51 54 46 49 -196 0
53 51 54 46 49 -195 0
53 51 54 46 49 -193 0
53 51 54 58 49 -213 0
53 51 54 58 49 -212 0
53 51 54 58 49 -214 0
53 51 54 58 49 -211 0
53 51 54 49 75 -221 0
53 51 54 49 75 -220 0
53 51 54 49 75 -222 0
53 51 54 49 75 -219 0
53 51 54 49 29 -154 0
53 51 54 49 29 -153 0
53 51 54 49 29 -156 0
53 51 54 49 29 -155 0
53 51 54 49 13 -98 0
53 51 54 49 13 -99 0
53 51 54 49 13 -100 0
53 51 54 49 13 -97 0
53 51 54 49 5 -48 0
53 51 54 49 5 -50 0
53 51 54 49 5 -52 0
53 51 54 49 5 -47 0
53 51 54 49 63 -218 0
53 51 54 49 63 -216 0
53 51 54 49 63 -215 0
53 51 54 49 63 -217 0
53 51 54 49 17 -129 0
53 51 54 49 17 -128 0
53 51 54 49 17 -127 0
53 51 54 49 17 -130 0
53 51 54 49 36 -177 0
53 51 54 49 36 -176 0
53 51 54 49 36 -175 0
53 51 54 49 36 -178 0
53 51 54 49 45 -194 0
53 51 54 49 45 -196 0
53 51 54 49 45 -195 0
53 51 54 49 45 -193 0
78 25 73 71 75 -166 0
78 25 73 71 75 -165 0
78 25 73 71 75 -168 0
78 25 73 71 75 -167 0
78 25 23 28 29 -166 0
78 25 23 28 29 -165 0
78 25 23 28 29 -168 0
78 25 23 28 29 -167 0
78 12 73 71 75 -109 0
78 12 73 71 75 -111 0
78 12 73 71 75 -110 0
78 12 73 71 75 -112 0
78 12 10 11 13 -109 0
78 12 10 11 13 -111 0
78 12 10 11 13 -110 0
78 12 10 11 13 -112 0
78 2 73 71 75 -76 0
78 2 73 71 75 -72 0
78 2 73 71 75 -77 0
78 2 73 71 75 -74 0
78 2 6 4 5 -76 0
78 2 6 4 5 -72 0
78 2 6 4 5 -77 0
78 2 6 4 5 -74 0
78 70 73 71 75 -238 0
78 70 73 71 75 -235 0
78 70 73 71 75 -236 0
78 70 73 71 75 -237 0
78 70 69 66 63 -238 0
78 70 69 66 63 -235 0
78 70 69 66 63 -236 0
78 70 69 66 63 -237 0
78 20 73 71 75 -140 0
78 20 73 71 75 -142 0
78 20 73 71 75 -141 0
78 20 73 71 75 -139 0
78 20 15 18 17 -140 0
78 20 15 18 17 -142 0
78 20 15 18 17 -141 0
78 20 15 18 17 -139 0
78 38 73 71 75 -188 0
78 38 73 71 75 -189 0
78 38 73 71 75 -190 0
78 38 73 71 75 -187 0
78 38 31 35 36 -188 0
78 38 31 35 36 -189 0
78 38 31 35 36 -190 0
78 38 31 35 36 -187 0
78 44 73 71 75 -208 0
78 44 73 71 75 -206 0
78 44 73 71 75 -205 0
78 44 73 71 75 -207 0
78 44 42 46 45 -208 0
78 44 42 46 45 -206 0
78 44 42 46 45 -205 0
78 44 42 46 45 -207 0
78 55 73 71 75 -229 0
78 55 73 71 75 -231 0
78 55 73 71 75 -230 0
78 55 73 71 75 -232 0
78 51 73 71 75 -221 0
78 51 73 71 75 -220 0
78 51 73 71 75 -222 0
78 51 73 71 75 -219 0
78 73 23 71 75 -166 0
78 73 23 71 75 -165 0
78 73 23 71 75 -168 0
78 73 23 71 75 -167 0
78 73 10 71 75 -109 0
78 73 10 71 75 -111 0
78 73 10 71 75 -110 0
78 73 10 71 75 -112 0
78 73 6 71 75 -76 0
78 73 6 71 75 -72 0
78 73 6 71 75 -77 0
78 73 6 71 75 -74 0
78 73 69 71 75 -238 0
78 73 69 71 75 -235 0
78 73 69 71 75 -236 0
78 73 69 71 75 -237 0
78 73 15 71 75 -140 0
78 73 15 71 75 -142 0
78 73 15 71 75 -141 0
78 73 15 71 75 -139 0
78 73 31 71 75 -188 0
78 73 31 71 75 -189 0
78 73 31 71 75 -190 0
78 73 31 71 75 -187 0
78 73 42 71 75 -208 0
78 73 42 71 75 -206 0
78 73 42 71 75 -205 0
78 73 42 71 75 -207 0
78 73 62 71 75 -229 0
78 73 62 71 75 -231 0
78 73 62 71 75 -230 0
78 73 62 71 75 -232 0
78 73 54 71 75 -221 0
78 73 54 71 75 -220 0
78 73 54 71 75 -222 0
78 73 54 71 75 -219 0
78 73 71 28 75 -166 0
78 73 71 28 75 -165 0
78 73 71 28 75 -168 0
78 73 71 28 75 -167 0
78 73 71 11 75 -109 0
78 73 71 11 75 -111 0
78 73 71 11 75 -110 0
78 73 71 11 75 -112 0
78 73 71 4 75 -76 0
78 73 71 4 75 -72 0
78 73 71 4 75 -77 0
78 73 71 4 75 -74 0
78 73 71 66 75 -238 0
78 73 71 66 75 -235 0
78 73 71 66 75 -236 0
78 73 71 66 75 -237 0
78 73 71 18 75 -140 0
78 73 71 18 75 -142 0
78 73 71 18 75 -141 0
78 73 71 18 75 -139 0
78 73 71 35 75 -188 0
78 73 71 35 75 -189 0
78 73 71 35 75 -190 0
78 73 71 35 75 -187 0
78 73 71 46 75 -208 0
78 73 71 46 75 -206 0
78 73 71 46 75 -205 0
78 73 71 46 75 -207 0
78 73 71 58 75 -229 0
78 73 71 58 75 -231 0
78 73 71 58 75 -230 0
78 73 71 58 75 -232 0
78 73 71 49 75 -221 0
78 73 71 49 75 -220 0
78 73 71 49 75 -222 0
78 73 71 49 75 -219 0
78 73 71 75 29 -166 0
78 73 71 75 29 -165 0
78 73 71 75 29 -168 0
78 73 71 75 29 -167 0
78 73 71 75 13 -109 0
78 73 71 75 13 -111 0
78 73 71 75 13 -110 0
78 73 71 75 13 -112 0
78 73 71 75 5 -76 0
78 73 71 75 5 -72 0
78 73 71 75 5 -77 0
78 73 71 75 5 -74 0
78 73 71 75 63 -238 0
78 73 71 75 63 -235 0
78 73 71 75 63 -236 0
78 73 71 75 63 -237 0
78 73 71 75 17 -140 0
78 73 71 75 17 -142 0
78 73 71 75 17 -141 0
78 73 71 75 17 -139 0
78 73 71 75 36 -188 0
78 73 71 75 36 -189 0
78 73 71 75 36 -190 0
78 73 71 75 36 -187 0
78 73 71 75 45 -208 0
78 73 71 75 45 -206 0
78 73 71 75 45 -205 0
78 73 71 75 45 -207 0
25 12 23 28 29 -85 0
25 12 23 28 29 -87 0
25 12 23 28 29 -86 0
25 12 23 28 29 -88 0
25 12 10 11 13 -85 0
25 12 10 11 13 -87 0
25 12 10 11 13 -86 0
25 12 10 11 13 -88 0
25 2 23 28 29 -27 0
25 2 23 28 29 -24 0
25 2 23 28 29 -30 0
25 2 23 28 29 -26 0
25 2 6 4 5 -27 0
25 2 6 4 5 -24 0
25 2 6 4 5 -30 0
25 2 6 4 5 -26 0
25 70 23 28 29 -164 0
25 70 23 28 29 -161 0
25 70 23 28 29 -162 0
25 70 23 28 29 -163 0
25 70 69 66 63 -164 0
25 70 69 66 63 -161 0
25 70 69 66 63 -162 0
25 70 69 66 63 -163 0
25 20 23 28 29 -118 0
25 20 23 28 29 -116 0
25 20 23 28 29 -115 0
25 20 23 28 29 -117 0
25 20 15 18 17 -118 0
25 20 15 18 17 -116 0
25 20 15 18 17 -115 0
25 20 15 18 17 -117 0
25 38 23 28 29 -145 0
25 38 23 28 29 -148 0
25 38 23 28 29 -146 0
25 38 23 28 29 -147 0
25 38 31 35 36 -145 0
25 38 31 35 36 -148 0
25 38 31 35 36 -146 0
25 38 31 35 36 -147 0
25 44 23 28 29 -152 0
25 44 23 28 29 -150 0
25 44 23 28 29 -149 0
25 44 23 28 29 -151 0
25 44 42 46 45 -152 0
25 44 42 46 45 -150 0
25 44 42 46 45 -149 0
25 44 42 46 45 -151 0
25 55 23 28 29 -157 0
25 55 23 28 29 -159 0
25 55 23 28 29 -158 0
25 55 23 28 29 -160 0
25 51 23 28 29 -154 0
25 51 23 28 29 -153 0
25 51 23 28 29 -156 0
25 51 23 28 29 -155 0
25 73 23 28 29 -166 0
25 73 23 28 29 -165 0
25 73 23 28 29 -168 0
25 73 23 28 29 -167 0
25 23 10 28 29 -85 0
25 23 10 28 29 -87 0
25 23 10 28 29 -86 0
25 23 10 28 29 -88 0
25 23 6 28 29 -27 0
25 23 6 28 29 -24 0
25 23 6 28 29 -30 0
25 23 6 28 29 -26 0
25 23 69 28 29 -164 0
25 23 69 28 29 -161 0
25 23 69 28 29 -162 0
25 23 69 28 29 -163 0
25 23 15 28 29 -118 0
25 23 15 28 29 -116 0
25 23 15 28 29 -115 0
25 23 15 28 29 -117 0
25 23 31 28 29 -145 0
25 23 31 28 29 -148 0
25 23 31 28 29 -146 0
25 23 31 28 29 -147 0
25 23 42 28 29 -152 0
25 23 42 28 29 -150 0
25 23 42 28 29 -149 0
25 23 42 28 29 -151 0
25 23 62 28 29 -157 0
25 23 62 28 29 -159 0
25 23 62 28 29 -158 0
25 23 62 28 29 -160 0
25 23 54 28 29 -154 0
25 23 54 28 29 -153 0
25 23 54 28 29 -156 0
25 23 54 28 29 -155 0
25 23 71 28 29 -166 0
25 23 71 28 29 -165 0
25 23 71 28 29 -168 0
25 23 71 28 29 -167 0
25 23 28 11 29 -85 0
25 23 28 11 29 -87 0
25 23 28 11 29 -86 0
25 23 28 11 29 -88 0
25 23 28 4 29 -27 0
25 23 28 4 29 -24 0
25 23 28 4 29 -30 0
25 23 28 4 29 -26 0
25 23 28 66 29 -164 0
25 23 28 66 29 -161 0
25 23 28 66 29 -162 0
25 23 28 66 29 -163 0
25 23 28 18 29 -118 0
25 23 28 18 29 -116 0
25 23 28 18 29 -115 0
25 23 28 18 29 -117 0
25 23 28 35 29 -145 0
25 23 28 35 29 -148 0
25 23 28 35 29 -146 0
25 23 28 35 29 -147 0
25 23 28 46 29 -152 0
25 23 28 46 29 -150 0
25 23 28 46 29 -149 0
25 23 28 46 29 -151 0
25 23 28 58 29 -157 0
25 23 28 58 29 -159 0
25 23 28 58 29 -158 0
25 23 28 58 29 -160 0
25 23 28 49 29 -154 0
25 23 28 49 29 -153 0
25 23 28 49 29 -156 0
25 23 28 49 29 -155 0
25 23 28 75 29 -166 0
25 23 28 75 29 -165 0
25 23 28 75 29 -168 0
25 23 28 75 29 -167 0
25 23 28 29 13 -85 0
25 23 28 29 13 -87 0
25 23 28 29 13 -86 0
25 23 28 29 13 -88 0
25 23 28 29 5 -27 0
25 23 28 29 5 -24 0
25 23 28 29 5 -30 0
25 23 28 29 5 -26 0
25 23 28 29 63 -164 0
25 23 28 29 63 -161 0
25 23 28 29 63 -162 0
25 23 28 29 63 -163 0
25 23 28 29 17 -118 0
25 23 28 29 17 -116 0
25 23 28 29 17 -115 0
25 23 28 29 17 -117 0
25 23 28 29 36 -145 0
25 23 28 29 36 -148 0
25 23 28 29 36 -146 0
25 23 28 29 36 -147 0
25 23 28 29 45 -152 0
25 23 28 29 45 -150 0
25 23 28 29 45 -149 0
25 23 28 29 45 -151 0
12 2 10 11 13 -14 0
12 2 10 11 13 -8 0
12 2 10 11 13 -7 0
12 2 10 11 13 -9 0
12 2 6 4 5 -14 0
12 2 6 4 5 -8 0
12 2 6 4 5 -7 0
12 2 6 4 5 -9 0
12 70 10 11 13 -107 0
12 70 10 11 13 -106 0
12 70 10 11 13 -105 0
12 70 10 11 13 -108 0
12 70 69 66 63 -107 0
12 70 69 66 63 -106 0
12 70 69 66 63 -105 0
12 70 69 66 63 -108 0
12 20 10 11 13 -83 0
12 20 10 11 13 -84 0
12 20 10 11 13 -82 0
12 20 10 11 13 -81 0
12 20 15 18 17 -83 0
12 20 15 18 17 -84 0
12 20 15 18 17 -82 0
12 20 15 18 17 -81 0
12 38 10 11 13 -89 0
12 38 10 11 13 -90 0
12 38 10 11 13 -91 0
12 38 10 11 13 -92 0
12 38 31 35 36 -89 0
12 38 31 35 36 -90 0
12 38 31 35 36 -91 0
12 38 31 35 36 -92 0
12 44 10 11 13 -93 0
12 44 10 11 13 -94 0
12 44 10 11 13 -95 0
12 44 10 11 13 -96 0
12 44 42 46 45 -93 0
12 44 42 46 45 -94 0
12 44 42 46 45 -95 0
12 44 42 46 45 -96 0
12 55 10 11 13 -101 0
12 55 10 11 13 -103 0
12 55 10 11 13 -102 0
12 55 10 11 13 -104 0
12 51 10 11 13 -98 0
12 51 10 11 13 -99 0
12 51 10 11 13 -100 0
12 51 10 11 13 -97 0
12 73 10 11 13 -109 0
12 73 10 11 13 -111 0
12 73 10 11 13 -110 0
12 73 10 11 13 -112 0
12 23 10 11 13 -85 0
12 23 10 11 13 -87 0
12 23 10 11 13 -86 0
12 23 10 11 13 -88 0
12 10 6 11 13 -14 0
12 10 6 11 13 -8 0
12 10 6 11 13 -7 0
12 10 6 11 13 -9 0
12 10 69 11 13 -107 0
12 10 69 11 13 -106 0
12 10 69 11 13 -105 0
12 10 69 11 13 -108 0
12 10 15 11 13 -83 0
12 10 15 11 13 -84 0
12 10 15 11 13 -82 0
12 10 15 11 13 -81 0
12 10 31 11 13 -89 0
12 10 31 11 13 -90 0
12 10 31 11 13 -91 0
12 10 31 11 13 -92 0
12 10 42 11 13 -93 0
12 10 42 11 13 -94 0
12 10 42 11 13 -95 0
12 10 42 11 13 -96 0
12 10 62 11 13 -101 0
12 10 62 11 13 -103 0
12 10 62 11 13 -102 0
12 10 62 11 13 -104 0
12 10 54 11 13 -98 0
12 10 54 11 13 -99 0
12 10 54 11 13 -100 0
12 10 54 11 13 -97 0
12 10 71 11 13 -109 0
12 10 71 11 13 -111 0
12 10 71 11 13 -110 0
12 10 71 11 13 -112 0
12 10 28 11 13 -85 0
12 10 28 11 13 -87 0
12 10 28 11 13 -86 0
12 10 28 11 13 -88 0
12 10 11 4 13 -14 0
12 10 11 4 13 -8 0
12 10 11 4 13 -7 0
12 10 11 4 13 -9 0
12 10 11 66 13 -107 0
12 10 11 66 13 -106 0
12 10 11 66 13 -105 0
12 10 11 66 13 -108 0
12 10 11 18 13 -83 0
12 10 11 18 13 -84 0
12 10 11 18 13 -82 0
12 10 11 18 13 -81 0
12 10 11 35 13 -89 0
12 10 11 35 13 -90 0
12 10 11 35 13 -91 0
12 10 11 35 13 -92 0
12 10 11 46 13 -93 0
12 10 11 46 13 -94 0
12 10 11 46 13 -95 0
12 10 11 46 13 -96 0
12 10 11 58 13 -101 0
12 10 11 58 13 -103 0
12 10 11 58 13 -102 0
12 10 11 58 13 -104 0
12 10 11 49 13 -98 0
12 10 11 49 13 -99 0
12 10 11 49 13 -100 0
12 10 11 49 13 -97 0
12 10 11 75 13 -109 0
12 10 11 75 13 -111 0
12 10 11 75 13 -110 0
12 10 11 75 13 -112 0
12 10 11 29 13 -85 0
12 10 11 29 13 -87 0
12 10 11 29 13 -86 0
12 10 11 29 13 -88 0
12 10 11 13 5 -14 0
12 10 11 13 5 -8 0
12 10 11 13 5 -7 0
12 10 11 13 5 -9 0
12 10 11 13 63 -107 0
12 10 11 13 63 -106 0
12 10 11 13 63 -105 0
12 10 11 13 63 -108 0
12 10 11 13 17 -83 0
12 10 11 13 17 -84 0
12 10 11 13 17 -82 0
12 10 11 13 17 -81 0
12 10 11 13 36 -89 0
12 10 11 13 36 -90 0
12 10 11 13 36 -91 0
12 10 11 13 36 -92 0
12 10 11 13 45 -93 0
12 10 11 13 45 -94 0
12 10 11 13 45 -95 0
12 10 11 13 45 -96 0
2 70 6 4 5 -64 0
2 70 6 4 5 -67 0
2 70 6 4 5 -68 0
2 70 6 4 5 -65 0
2 70 69 66 63 -64 0
2 70 69 66 63 -67 0
2 70 69 66 63 -68 0
2 70 69 66 63 -65 0
2 20 6 4 5 -19 0
2 20 6 4 5 -16 0
2 20 6 4 5 -21 0
2 20 6 4 5 -22 0
2 20 15 18 17 -19 0
2 20 15 18 17 -16 0
2 20 15 18 17 -21 0
2 20 15 18 17 -22 0
2 38 6 4 5 -37 0
2 38 6 4 5 -33 0
2 38 6 4 5 -32 0
2 38 6 4 5 -34 0
2 38 31 35 36 -37 0
2 38 31 35 36 -33 0
2 38 31 35 36 -32 0
2 38 31 35 36 -34 0
2 44 6 4 5 -39 0
2 44 6 4 5 -41 0
2 44 6 4 5 -43 0
2 44 6 4 5 -40 0
2 44 42 46 45 -39 0
2 44 42 46 45 -41 0
2 44 42 46 45 -43 0
2 44 42 46 45 -40 0
2 55 6 4 5 -61 0
2 55 6 4 5 -56 0
2 55 6 4 5 -59 0
2 55 6 4 5 -60 0
2 51 6 4 5 -48 0
2 51 6 4 5 -50 0
2 51 6 4 5 -52 0
2 51 6 4 5 -47 0
2 73 6 4 5 -76 0
2 73 6 4 5 -72 0
2 73 6 4 5 -77 0
2 73 6 4 5 -74 0
2 23 6 4 5 -27 0
2 23 6 4 5 -24 0
2 23 6 4 5 -30 0
2 23 6 4 5 -26 0
2 10 6 4 5 -14 0
2 10 6 4 5 -8 0
2 10 6 4 5 -7 0
2 10 6 4 5 -9 0
2 6 69 4 5 -64 0
2 6 69 4 5 -67 0
2 6 69 4 5 -68 0
2 6 69 4 5 -65 0
2 6 15 4 5 -19 0
2 6 15 4 5 -16 0
2 6 15 4 5 -21 0
2 6 15 4 5 -22 0
2 6 31 4 5 -37 0
2 6 31 4 5 -33 0
2 6 31 4 5 -32 0
2 6 31 4 5 -34 0
2 6 42 4 5 -39 0
2 6 42 4 5 -41 0
2 6 42 4 5 -43 0
2 6 42 4 5 -40 0
2 6 62 4 5 -61 0
2 6 62 4 5 -56 0
2 6 62 4 5 -59 0
2 6 62 4 5 -60 0
2 6 54 4 5 -48 0
2 6 54 4 5 -50 0
2 6 54 4 5 -52 0
2 6 54 4 5 -47 0
2 6 71 4 5 -76 0
2 6 71 4 5 -72 0
2 6 71 4 5 -77 0
2 6 71 4 5 -74 0
2 6 28 4 5 -27 0
2 6 28 4 5 -24 0
2 6 28 4 5 -30 0
2 6 28 4 5 -26 0
2 6 11 4 5 -14 0
2 6 11 4 5 -8 0
2 6 11 4 5 -7 0
2 6 11 4 5 -9 0
2 6 4 66 5 -64 0
2 6 4 66 5 -67 0
2 6 4 66 5 -68 0
2 6 4 66 5 -65 0
2 6 4 18 5 -19 0
2 6 4 18 5 -16 0
2 6 4 18 5 -21 0
2 6 4 18 5 -22 0
2 6 4 35 5 -37 0
2 6 4 35 5 -33 0
2 6 4 35 5 -32 0
2 6 4 35 5 -34 0
2 6 4 46 5 -39 0
2 6 4 46 5 -41 0
2 6 4 46 5 -43 0
2 6 4 46 5 -40 0
2 6 4 58 5 -61 0
2 6 4 58 5 -56 0
2 6 4 58 5 -59 0
2 6 4 58 5 -60 0
2 6 4 49 5 -48 0
2 6 4 49 5 -50 0
2 6 4 49 5 -52 0
2 6 4 49 5 -47 0
2 6 4 75 5 -76 0
2 6 4 75 5 -72 0
2 6 4 75 5 -77 0
2 6 4 75 5 -74 0
2 6 4 29 5 -27 0
2 6 4 29 5 -24 0
2 6 4 29 5 -30 0
2 6 4 29 5 -26 0
2 6 4 13 5 -14 0
2 6 4 13 5 -8 0
2 6 4 13 5 -7 0
2 6 4 13 5 -9 0
2 6 4 5 63 -64 0
2 6 4 5 63 -67 0
2 6 4 5 63 -68 0
2 6 4 5 63 -65 0
2 6 4 5 17 -19 0
2 6 4 5 17 -16 0
2 6 4 5 17 -21 0
2 6 4 5 17 -22 0
2 6 4 5 36 -37 0
2 6 4 5 36 -33 0
2 6 4 5 36 -32 0
2 6 4 5 36 -34 0
2 6 4 5 45 -39 0
2 6 4 5 45 -41 0
2 6 4 5 45 -43 0
2 6 4 5 45 -40 0
70 20 69 66 63 -136 0
70 20 69 66 63 -135 0
70 20 69 66 63 -137 0
70 20 69 66 63 -138 0
70 20 15 18 17 -136 0
70 20 15 18 17 -135 0
70 20 15 18 17 -137 0
70 20 15 18 17 -138 0
70 38 69 66 63 -183 0
70 38 69 66 63 -185 0
70 38 69 66 63 -186 0
70 38 69 66 63 -184 0
70 38 31 35 36 -183 0
70 38 31 35 36 -185 0
70 38 31 35 36 -186 0
70 38 31 35 36 -184 0
70 44 69 66 63 -202 0
70 44 69 66 63 -201 0
70 44 69 66 63 -204 0
70 44 69 66 63 -203 0
70 44 42 46 45 -202 0
70 44 42 46 45 -201 0
70 44 42 46 45 -204 0
70 44 42 46 45 -203 0
70 55 69 66 63 -227 0
70 55 69 66 63 -225 0
70 55 69 66 63 -228 0
70 55 69 66 63 -226 0
70 51 69 66 63 -218 0
70 51 69 66 63 -216 0
70 51 69 66 63 -215 0
70 51 69 66 63 -217 0
70 73 69 66 63 -238 0
70 73 69 66 63 -235 0
70 73 69 66 63 -236 0
70 73 69 66 63 -237 0
70 23 69 66 63 -164 0
70 23 69 66 63 -161 0
70 23 69 66 63 -162 0
70 23 69 66 63 -163 0
70 10 69 66 63 -107 0
70 10 69 66 63 -106 0
70 10 69 66 63 -105 0
70 10 69 66 63 -108 0
70 6 69 66 63 -64 0
70 6 69 66 63 -67 0
70 6 69 66 63 -68 0
70 6 69 66 63 -65 0
70 69 15 66 63 -136 0
70 69 15 66 63 -135 0
70 69 15 66 63 -137 0
70 69 15 66 63 -138 0
70 69 31 66 63 -183 0
70 69 31 66 63 -185 0
70 69 31 66 63 -186 0
70 69 31 66 63 -184 0
70 69 42 66 63 -202 0
70 69 42 66 63 -201 0
70 69 42 66 63 -204 0
70 69 42 66 63 -203 0
70 69 62 66 63 -227 0
70 69 62 66 63 -225 0
70 69 62 66 63 -228 0
70 69 62 66 63 -226 0
70 69 54 66 63 -218 0
70 69 54 66 63 -216 0
70 69 54 66 63 -215 0
70 69 54 66 63 -217 0
70 69 71 66 63 -238 0
70 69 71 66 63 -235 0
70 69 71 66 63 -236 0
70 69 71 66 63 -237 0
70 69 28 66 63 -164 0
70 69 28 66 63 -161 0
70 69 28 66 63 -162 0
70 69 28 66 63 -163 0
70 69 11 66 63 -107 0
70 69 11 66 63 -106 0
70 69 11 66 63 -105 0
70 69 11 66 63 -108 0
70 69 4 66 63 -64 0
70 69 4 66 63 -67 0
70 69 4 66 63 -68 0
70 69 4 66 63 -65 0
70 69 66 18 63 -136 0
70 69 66 18 63 -135 0
70 69 66 18 63 -137 0
70 69 66 18 63 -138 0
70 69 66 35 63 -183 0
70 69 66 35 63 -185 0
70 69 66 35 63 -186 0
70 69 66 35 63 -184 0
70 69 66 46 63 -202 0
70 69 66 46 63 -201 0
70 69 66 46 63 -204 0
70 69 66 46 63 -203 0
70 69 66 58 63 -227 0
70 69 66 58 63 -225 0
70 69 66 58 63 -228 0
70 69 66 58 63 -226 0
70 69 66 49 63 -218 0
70 69 66 49 63 -216 0
70 69 66 49 63 -215 0
70 69 66 49 63 -217 0
70 69 66 75 63 -238 0
70 69 66 75 63 -235 0
70 69 66 75 63 -236 0
70 69 66 75 63 -237 0
70 69 66 29 63 -164 0
70 69 66 29 63 -161 0
70 69 66 29 63 -162 0
70 69 66 29 63 -163 0
70 69 66 13 63 -107 0
70 69 66 13 63 -106 0
70 69 66 13 63 -105 0
70 69 66 13 63 -108 0
70 69 66 5 63 -64 0
70 69 66 5 63 -67 0
70 69 66 5 63 -68 0
70 69 66 5 63 -65 0
70 69 66 63 17 -136 0
70 69 66 63 17 -135 0
70 69 66 63 17 -137 0
70 69 66 63 17 -138 0
70 69 66 63 36 -183 0
70 69 66 63 36 -185 0
70 69 66 63 36 -186 0
70 69 66 63 36 -184 0
70 69 66 63 45 -202 0
70 69 66 63 45 -201 0
70 69 66 63 45 -204 0
70 69 66 63 45 -203 0
20 38 15 18 17 -121 0
20 38 15 18 17 -122 0
20 38 15 18 17 -120 0
20 38 15 18 17 -119 0
20 38 31 35 36 -121 0
20 38 31 35 36 -122 0
20 38 31 35 36 -120 0
20 38 31 35 36 -119 0
20 44 15 18 17 -124 0
20 44 15 18 17 -125 0
20 44 15 18 17 -123 0
20 44 15 18 17 -126 0
20 44 42 46 45 -124 0
20 44 42 46 45 -125 0
20 44 42 46 45 -123 0
20 44 42 46 45 -126 0
20 55 15 18 17 -132 0
20 55 15 18 17 -131 0
20 55 15 18 17 -134 0
20 55 15 18 17 -133 0
20 51 15 18 17 -129 0
20 51 15 18 17 -128 0
20 51 15 18 17 -127 0
20 51 15 18 17 -130 0
20 73 15 18 17 -140 0
20 73 15 18 17 -142 0
20 73 15 18 17 -141 0
20 73 15 18 17 -139 0
20 23 15 18 17 -118 0
20 23 15 18 17 -116 0
20 23 15 18 17 -115 0
20 23 15 18 17 -117 0
20 10 15 18 17 -83 0
20 10 15 18 17 -84 0
20 10 15 18 17 -82 0
20 10 15 18 17 -81 0
20 6 15 18 17 -19 0
20 6 15 18 17 -16 0
20 6 15 18 17 -21 0
20 6 15 18 17 -22 0
20 69 15 18 17 -136 0
20 69 15 18 17 -135 0
20 69 15 18 17 -137 0
20 69 15 18 17 -138 0
20 15 31 18 17 -121 0
20 15 31 18 17 -122 0
20 15 31 18 17 -120 0
20 15 31 18 17 -119 0
20 15 42 18 17 -124 0
20 15 42 18 17 -125 0
20 15 42 18 17 -123 0
20 15 42 18 17 -126 0
20 15 62 18 17 -132 0
20 15 62 18 17 -131 0
20 15 62 18 17 -134 0
20 15 62 18 17 -133 0
20 15 54 18 17 -129 0
20 15 54 18 17 -128 0
20 15 54 18 17 -127 0
20 15 54 18 17 -130 0
20 15 71 18 17 -140 0
20 15 71 18 17 -142 0
20 15 71 18 17 -141 0
20 15 71 18 17 -139 0
20 15 28 18 17 -118 0
20 15 28 18 17 -116 0
20 15 28 18 17 -115 0
20 15 28 18 17 -117 0
20 15 11 18 17 -83 0
20 15 11 18 17 -84 0
20 15 11 18 17 -82 0
20 15 11 18 17 -81 0
20 15 4 18 17 -19 0
20 15 4 18 17 -16 0
20 15 4 18 17 -21 0
20 15 4 18 17 -22 0
20 15 66 18 17 -136 0
20 15 66 18 17 -135 0
20 15 66 18 17 -137 0
20 15 66 18 17 -138 0
20 15 18 35 17 -121 0
20 15 18 35 17 -122 0
20 15 18 35 17 -120 0
20 15 18 35 17 -119 0
20 15 18 46 17 -124 0
20 15 18 46 17 -125 0
20 15 18 46 17 -123 0
20 15 18 46 17 -126 0
20 15 18 58 17 -132 0
20 15 18 58 17 -131 0
20 15 18 58 17 -134 0
20 15 18 58 17 -133 0
20 15 18 49 17 -129 0
20 15 18 49 17 -128 0
20 15 18 49 17 -127 0
20 15 18 49 17 -130 0
20 15 18 75 17 -140 0
20 15 18 75 17 -142 0
20 15 18 75 17 -141 0
20 15 18 75 17 -139 0
20 15 18 29 17 -118 0
20 15 18 29 17 -116 0
20 15 18 29 17 -115 0
20 15 18 29 17 -117 0
20 15 18 13 17 -83 0
20 15 18 13 17 -84 0
20 15 18 13 17 -82 0
20 15 18 13 17 -81 0
20 15 18 5 17 -19 0
20 15 18 5 17 -16 0
20 15 18 5 17 -21 0
20 15 18 5 17 -22 0
20 15 18 63 17 -136 0
20 15 18 63 17 -135 0
20 15 18 63 17 -137 0
20 15 18 63 17 -138 0
20 15 18 17 36 -121 0
20 15 18 17 36 -122 0
20 15 18 17 36 -120 0
20 15 18 17 36 -119 0
20 15 18 17 45 -124 0
20 15 18 17 45 -125 0
20 15 18 17 45 -123 0
20 15 18 17 45 -126 0
38 44 31 35 36 -171 0
38 44 31 35 36 -174 0
38 44 31 35 36 -173 0
38 44 31 35 36 -172 0
38 44 42 46 45 -171 0
38 44 42 46 45 -174 0
38 44 42 46 45 -173 0
38 44 42 46 45 -172 0
38 55 31 35 36 -182 0
38 55 31 35 36 -181 0
38 55 31 35 36 -179 0
38 55 31 35 36 -180 0
38 51 31 35 36 -177 0
38 51 31 35 36 -176 0
38 51 31 35 36 -175 0
38 51 31 35 36 -178 0
38 73 31 35 36 -188 0
38 73 31 35 36 -189 0
38 73 31 35 36 -190 0
38 73 31 35 36 -187 0
38 23 31 35 36 -145 0
38 23 31 35 36 -148 0
38 23 31 35 36 -146 0
38 23 31 35 36 -147 0
38 10 31 35 36 -89 0
38 10 31 35 36 -90 0
38 10 31 35 36 -91 0
38 10 31 35 36 -92 0
38 6 31 35 36 -37 0
38 6 31 35 36 -33 0
38 6 31 35 36 -32 0
38 6 31 35 36 -34 0
38 69 31 35 36 -183 0
38 69 31 35 36 -185 0
38 69 31 35 36 -186 0
38 69 31 35 36 -184 0
38 15 31 35 36 -121 0
38 15 31 35 36 -122 0
38 15 31 35 36 -120 0
38 15 31 35 36 -119 0
38 31 42 35 36 -171 0
38 31 42 35 36 -174 0
38 31 42 35 36 -173 0
38 31 42 35 36 -172 0
38 31 62 35 36 -182 0
38 31 62 35 36 -181 0
38 31 62 35 36 -179 0
38 31 62 35 36 -180 0
38 31 54 35 36 -177 0
38 31 54 35 36 -176 0
38 31 54 35 36 -175 0
38 31 54 35 36 -178 0
38 31 71 35 36 -188 0
38 31 71 35 36 -189 0
38 31 71 35 36 -190 0
38 31 71 35 36 -187 0
38 31 28 35 36 -145 0
38 31 28 35 36 -148 0
38 31 28 35 36 -146 0
38 31 28 35 36 -147 0
38 31 11 35 36 -89 0
38 31 11 35 36 -90 0
38 31 11 35 36 -91 0
38 31 11 35 36 -92 0
38 31 4 35 36 -37 0
38 31 4 35 36 -33 0
38 31 4 35 36 -32 0
38 31 4 35 36 -34 0
38 31 66 35 36 -183 0
38 31 66 35 36 -185 0
38 31 66 35 36 -186 0
38 31 66 35 36 -184 0
38 31 18 35 36 -121 0
38 31 18 35 36 -122 0
38 31 18 35 36 -120 0
38 31 18 35 36 -119 0
38 31 35 46 36 -171 0
38 31 35 46 36 -174 0
38 31 35 46 36 -173 0
38 31 35 46 36 -172 0
38 31 35 58 36 -182 0
38 31 35 58 36 -181 0
38 31 35 58 36 -179 0
38 31 35 58 36 -180 0
38 31 35 49 36 -177 0
38 31 35 49 36 -176 0
38 31 35 49 36 -175 0
38 31 35 49 36 -178 0
38 31 35 75 36 -188 0
38 31 35 75 36 -189 0
38 31 35 75 36 -190 0
38 31 35 75 36 -187 0
38 31 35 29 36 -145 0
38 31 35 29 36 -148 0
38 31 35 29 36 -146 0
38 31 35 29 36 -147 0
38 31 35 13 36 -89 0
38 31 35 13 36 -90 0
38 31 35 13 36 -91 0
38 31 35 13 36 -92 0
38 31 35 5 36 -37 0
38 31 35 5 36 -33 0
38 31 35 5 36 -32 0
38 31 35 5 36 -34 0
38 31 35 63 36 -183 0
38 31 35 63 36 -185 0
38 31 35 63 36 -186 0
38 31 35 63 36 -184 0
38 31 35 17 36 -121 0
38 31 35 17 36 -122 0
38 31 35 17 36 -120 0
38 31 35 17 36 -119 0
38 31 35 36 45 -171 0
38 31 35 36 45 -174 0
38 31 35 36 45 -173 0
38 31 35 36 45 -172 0
44 55 42 46 45 -200 0
44 55 42 46 45 -198 0
44 55 42 46 45 -197 0
44 55 42 46 45 -199 0
44 51 42 46 45 -194 0
44 51 42 46 45 -196 0
44 51 42 46 45 -195 0
44 51 42 46 45 -193 0
44 73 42 46 45 -208 0
44 73 42 46 45 -206 0
44 73 42 46 45 -205 0
44 73 42 46 45 -207 0
44 23 42 46 45 -152 0
44 23 42 46 45 -150 0
44 23 42 46 45 -149 0
44 23 42 46 45 -151 0
44 10 42 46 45 -93 0
44 10 42 46 45 -94 0
44 10 42 46 45 -95 0
44 10 42 46 45 -96 0
44 6 42 46 45 -39 0
44 6 42 46 45 -41 0
44 6 42 46 45 -43 0
44 6 42 46 45 -40 0
44 69 42 46 45 -202 0
44 69 42 46 45 -201 0
44 69 42 46 45 -204 0
44 69 42 46 45 -203 0
44 15 42 46 45 -124 0
44 15 42 46 45 -125 0
44 15 42 46 45 -123 0
44 15 42 46 45 -126 0
44 31 42 46 45 -171 0
44 31 42 46 45 -174 0
44 31 42 46 45 -173 0
44 31 42 46 45 -172 0
44 42 62 46 45 -200 0
44 42 62 46 45 -198 0
44 42 62 46 45 -197 0
44 42 62 46 45 -199 0
44 42 54 46 45 -194 0
44 42 54 46 45 -196 0
44 42 54 46 45 -195 0
44 42 54 46 45 -193 0
44 42 71 46 45 -208 0
44 42 71 46 45 -206 0
44 42 71 46 45 -205 0
44 42 71 46 45 -207 0
44 42 28 46 45 -152 0
44 42 28 46 45 -150 0
44 42 28 46 45 -149 0
44 42 28 46 45 -151 0
44 42 11 46 45 -93 0
44 42 11 46 45 -94 0
44 42 11 46 45 -95 0
44 42 11 46 45 -96 0
44 42 4 46 45 -39 0
44 42 4 46 45 -41 0
44 42 4 46 45 -43 0
44 42 4 46 45 -40 0
44 42 66 46 45 -202 0
44 42 66 46 45 -201 0
44 42 66 46 45 -204 0
44 42 66 46 45 -203 0
44 42 18 46 45 -124 0
44 42 18 46 45 -125 0
44 42 18 46 45 -123 0
44 42 18 46 45 -126 0
44 42 35 46 45 -171 0
44 42 35 46 45 -174 0
44 42 35 46 45 -173 0
44 42 35 46 45 -172 0
44 42 46 58 45 -200 0
44 42 46 58 45 -198 0
44 42 46 58 45 -197 0
44 42 46 58 45 -199 0
44 42 46 49 45 -194 0
44 42 46 49 45 -196 0
44 42 46 49 45 -195 0
44 42 46 49 45 -193 0
44 42 46 75 45 -208 0
44 42 46 75 45 -206 0
44 42 46 75 45 -205 0
44 42 46 75 45 -207 0
44 42 46 29 45 -152 0
44 42 46 29 45 -150 0
44 42 46 29 45 -149 0
44 42 46 29 45 -151 0
44 42 46 13 45 -93 0
44 42 46 13 45 -94 0
44 42 46 13 45 -95 0
44 42 46 13 45 -96 0
44 42 46 5 45 -39 0
44 42 46 5 45 -41 0
44 42 46 5 45 -43 0
44 42 46 5 45 -40 0
44 42 46 63 45 -202 0
44 42 46 63 45 -201 0
44 42 46 63 45 -204 0
44 42 46 63 45 -203 0
44 42 46 17 45 -124 0
44 42 46 17 45 -125 0
44 42 46 17 45 -123 0
44 42 46 17 45 -126 0
44 42 46 36 45 -171 0
44 42 46 36 45 -174 0
44 42 46 36 45 -173 0
44 42 46 36 45 -172 0
57 53 55 51 62 54 -213 0
57 53 55 51 62 54 -212 0
57 53 55 51 62 54 -214 0
57 53 55 51 62 54 -211 0
57 53 55 51 62 58 -213 0
57 53 55 51 62 58 -212 0
57 53 55 51 62 58 -214 0
57 53 55 51 62 58 -211 0
57 53 55 51 54 49 -213 0
57 53 55 51 54 49 -212 0
57 53 55 51 54 49 -214 0
57 53 55 51 54 49 -211 0
57 53 55 51 58 49 -213 0
57 53 55 51 58 49 -212 0
57 53 55 51 58 49 -214 0
57 53 55 51 58 49 -211 0
57 53 55 62 54 58 -213 0
57 53 55 62 54 58 -212 0
57 53 55 62 54 58 -214 0
57 53 55 62 54 58 -211 0
57 53 55 62 58 49 -213 0
57 53 55 62 58 49 -212 0
57 53 55 62 58 49 -214 0
57 53 55 62 58 49 -211 0
57 53 51 62 54 49 -213 0
57 53 51 62 54 49 -212 0
57 53 51 62 54 49 -214 0
57 53 51 62 54 49 -211 0
57 53 51 54 58 49 -213 0
57 53 51 54 58 49 -212 0
57 53 51 54 58 49 -214 0
57 53 51 54 58 49 -211 0
57 53 62 54 58 49 -213 0
57 53 62 54 58 49 -212 0
57 53 62 54 58 49 -214 0
57 53 62 54 58 49 -211 0
57 78 55 73 62 71 -229 0
57 78 55 73 62 71 -231 0
57 78 55 73 62 71 -230 0
57 78 55 73 62 71 -232 0
57 78 55 73 62 58 -229 0
57 78 55 73 62 58 -231 0
57 78 55 73 62 58 -230 0
57 78 55 73 62 58 -232 0
57 78 55 73 71 75 -229 0
57 78 55 73 71 75 -231 0
57 78 55 73 71 75 -230 0
57 78 55 73 71 75 -232 0
57 78 55 73 58 75 -229 0
57 78 55 73 58 75 -231 0
57 78 55 73 58 75 -230 0
57 78 55 73 58 75 -232 0
57 78 55 62 71 58 -229 0
57 78 55 62 71 58 -231 0
57 78 55 62 71 58 -230 0
57 78 55 62 71 58 -232 0
57 78 55 62 58 75 -229 0
57 78 55 62 58 75 -231 0
57 78 55 62 58 75 -230 0
57 78 55 62 58 75 -232 0
57 78 73 62 71 75 -229 0
57 78 73 62 71 75 -231 0
57 78 73 62 71 75 -230 0
57 78 73 62 71 75 -232 0
57 78 73 71 58 75 -229 0
57 78 73 71 58 75 -231 0
57 78 73 71 58 75 -230 0
57 78 73 71 58 75 -232 0
57 78 62 71 58 75 -229 0
57 78 62 71 58 75 -231 0
57 78 62 71 58 75 -230 0
57 78 62 71 58 75 -232 0
57 25 55 23 62 28 -157 0
57 25 55 23 62 28 -159 0
57 25 55 23 62 28 -158 0
57 25 55 23 62 28 -160 0
57 25 55 23 62 58 -157 0
57 25 55 23 62 58 -159 0
57 25 55 23 62 58 -158 0
57 25 55 23 62 58 -160 0
57 25 55 23 28 29 -157 0
57 25 55 23 28 29 -159 0
57 25 55 23 28 29 -158 0
57 25 55 23 28 29 -160 0
57 25 55 23 58 29 -157 0
57 25 55 23 58 29 -159 0
57 25 55 23 58 29 -158 0
57 25 55 23 58 29 -160 0
57 25 55 62 28 58 -157 0
57 25 55 62 28 58 -159 0
57 25 55 62 28 58 -158 0
57 25 55 62 28 58 -160 0
57 25 55 62 58 29 -157 0
57 25 55 62 58 29 -159 0
57 25 55 62 58 29 -158 0
57 25 55 62 58 29 -160 0
57 25 23 62 28 29 -157 0
57 25 23 62 28 29 -159 0
57 25 23 62 28 29 -158 0
57 25 23 62 28 29 -160 0
57 25 23 28 58 29 -157 0
57 25 23 28 58 29 -159 0
57 25 23 28 58 29 -158 0
57 25 23 28 58 29 -160 0
57 25 62 28 58 29 -157 0
57 25 62 28 58 29 -159 0
57 25 62 28 58 29 -158 0
57 25 62 28 58 29 -160 0
57 12 55 10 62 11 -101 0
57 12 55 10 62 11 -103 0
57 12 55 10 62 11 -102 0
57 12 55 10 62 11 -104 0
57 12 55 10 62 58 -101 0
57 12 55 10 62 58 -103 0
57 12 55 10 62 58 -102 0
57 12 55 10 62 58 -104 0
57 12 55 10 11 13 -101 0
57 12 55 10 11 13 -103 0
57 12 55 10 11 13 -102 0
57 12 55 10 11 13 -104 0
57 12 55 10 58 13 -101 0
57 12 55 10 58 13 -103 0
57 12 55 10 58 13 -102 0
57 12 55 10 58 13 -104 0
57 12 55 62 11 58 -101 0
57 12 55 62 11 58 -103 0
57 12 55 62 11 58 -102 0
57 12 55 62 11 58 -104 0
57 12 55 62 58 13 -101 0
57 12 55 62 58 13 -103 0
57 12 55 62 58 13 -102 0
57 12 55 62 58 13 -104 0
57 12 10 62 11 13 -101 0
57 12 10 62 11 13 -103 0
57 12 10 62 11 13 -102 0
57 12 10 62 11 13 -104 0
57 12 10 11 58 13 -101 0
57 12 10 11 58 13 -103 0
57 12 10 11 58 13 -102 0
57 12 10 11 58 13 -104 0
57 12 62 11 58 13 -101 0
57 12 62 11 58 13 -103 0
57 12 62 11 58 13 -102 0
57 12 62 11 58 13 -104 0
57 2 55 6 62 4 -61 0
57 2 55 6 62 4 -56 0
57 2 55 6 62 4 -59 0
57 2 55 6 62 4 -60 0
57 2 55 6 62 58 -61 0
57 2 55 6 62 58 -56 0
57 2 55 6 62 58 -59 0
57 2 55 6 62 58 -60 0
57 2 55 6 4 5 -61 0
57 2 55 6 4 5 -56 0
57 2 55 6 4 5 -59 0
57 2 55 6 4 5 -60 0
57 2 55 6 58 5 -61 0
57 2 55 6 58 5 -56 0
57 2 55 6 58 5 -59 0
57 2 55 6 58 5 -60 0
57 2 55 62 4 58 -61 0
57 2 55 62 4 58 -56 0
57 2 55 62 4 58 -59 0
57 2 55 62 4 58 -60 0
57 2 55 62 58 5 -61 0
57 2 55 62 58 5 -56 0
57 2 55 62 58 5 -59 0
57 2 55 62 58 5 -60 0
57 2 6 62 4 5 -61 0
57 2 6 62 4 5 -56 0
57 2 6 62 4 5 -59 0
57 2 6 62 4 5 -60 0
57 2 6 4 58 5 -61 0
57 2 6 4 58 5 -56 0
57 2 6 4 58 5 -59 0
57 2 6 4 58 5 -60 0
57 2 62 4 58 5 -61 0
57 2 62 4 58 5 -56 0
57 2 62 4 58 5 -59 0
57 2 62 4 58 5 -60 0
57 70 55 69 62 66 -227 0
57 70 55 69 62 66 -225 0
57 70 55 69 62 66 -228 0
57 70 55 69 62 66 -226 0
57 70 55 69 62 58 -227 0
57 70 55 69 62 58 -225 0
57 70 55 69 62 58 -228 0
57 70 55 69 62 58 -226 0
57 70 55 69 66 63 -227 0
57 70 55 69 66 63 -225 0
57 70 55 69 66 63 -228 0
57 70 55 69 66 63 -226 0
57 70 55 69 58 63 -227 0
57 70 55 69 58 63 -225 0
57 70 55 69 58 63 -228 0
57 70 55 69 58 63 -226 0
57 70 55 62 66 58 -227 0
57 70 55 62 66 58 -225 0
57 70 55 62 66 58 -228 0
57 70 55 62 66 58 -226 0
57 70 55 62 58 63 -227 0
57 70 55 62 58 63 -225 0
57 70 55 62 58 63 -228 0
57 70 55 62 58 63 -226 0
57 70 69 62 66 63 -227 0
57 70 69 62 66 63 -225 0
57 70 69 62 66 63 -228 0
57 70 69 62 66 63 -226 0
57 70 69 66 58 63 -227 0
57 70 69 66 58 63 -225 0
57 70 69 66 58 63 -228 0
57 70 69 66 58 63 -226 0
57 70 62 66 58 63 -227 0
57 70 62 66 58 63 -225 0
57 70 62 66 58 63 -228 0
57 70 62 66 58 63 -226 0
57 20 55 15 62 18 -132 0
57 20 55 15 62 18 -131 0
57 20 55 15 62 18 -134 0
57 20 55 15 62 18 -133 0
57 20 55 15 62 58 -132 0
57 20 55 15 62 58 -131 0
57 20 55 15 62 58 -134 0
57 20 55 15 62 58 -133 0
57 20 55 15 18 17 -132 0
57 20 55 15 18 17 -131 0
57 20 55 15 18 17 -134 0
57 20 55 15 18 17 -133 0
57 20 55 15 58 17 -132 0
57 20 55 15 58 17 -131 0
57 20 55 15 58 17 -134 0
57 20 55 15 58 17 -133 0
57 20 55 62 18 58 -132 0
57 20 55 62 18 58 -131 0
57 20 55 62 18 58 -134 0
57 20 55 62 18 58 -133 0
57 20 55 62 58 17 -132 0
57 20 55 62 58 17 -131 0
57 20 55 62 58 17 -134 0
57 20 55 62 58 17 -133 0
57 20 15 62 18 17 -132 0
57 20 15 62 18 17 -131 0
57 20 15 62 18 17 -134 0
57 20 15 62 18 17 -133 0
57 20 15 18 58 17 -132 0
57 20 15 18 58 17 -131 0
57 20 15 18 58 17 -134 0
57 20 15 18 58 17 -133 0
57 20 62 18 58 17 -132 0
57 20 62 18 58 17 -131 0
57 20 62 18 58 17 -134 0
57 20 62 18 58 17 -133 0
57 38 55 31 62 35 -182 0
57 38 55 31 62 35 -181 0
57 38 55 31 62 35 -179 0
57 38 55 31 62 35 -180 0
57 38 55 31 62 58 -182 0
57 38 55 31 62 58 -181 0
57 38 55 31 62 58 -179 0
57 38 55 31 62 58 -180 0
57 38 55 31 35 36 -182 0
57 38 55 31 35 36 -181 0
57 38 55 31 35 36 -179 0
57 38 55 31 35 36 -180 0
57 38 55 31 58 36 -182 0
57 38 55 31 58 36 -181 0
57 38 55 31 58 36 -179 0
57 38 55 31 58 36 -180 0
57 38 55 62 35 58 -182 0
57 38 55 62 35 58 -181 0
57 38 55 62 35 58 -179 0
57 38 55 62 35 58 -180 0
57 38 55 62 58 36 -182 0
57 38 55 62 58 36 -181 0
57 38 55 62 58 36 -179 0
57 38 55 62 58 36 -180 0
57 38 31 62 35 36 -182 0
57 38 31 62 35 36 -181 0
57 38 31 62 35 36 -179 0
57 38 31 62 35 36 -180 0
57 38 31 35 58 36 -182 0
57 38 31 35 58 36 -181 0
57 38 31 35 58 36 -179 0
57 38 31 35 58 36 -180 0
57 38 62 35 58 36 -182 0
57 38 62 35 58 36 -181 0
57 38 62 35 58 36 -179 0
57 38 62 35 58 36 -180 0
57 44 55 42 62 46 -200 0
57 44 55 42 62 46 -198 0
57 44 55 42 62 46 -197 0
57 44 55 42 62 46 -199 0
57 44 55 42 62 58 -200 0
57 44 55 42 62 58 -198 0
57 44 55 42 62 58 -197 0
57 44 55 42 62 58 -199 0
57 44 55 42 46 45 -200 0
57 44 55 42 46 45 -198 0
57 44 55 42 46 45 -197 0
57 44 55 42 46 45 -199 0
57 44 55 42 58 45 -200 0
57 44 55 42 58 45 -198 0
57 44 55 42 58 45 -197 0
57 44 55 42 58 45 -199 0
57 44 55 62 46 58 -200 0
57 44 55 62 46 58 -198 0
57 44 55 62 46 58 -197 0
57 44 55 62 46 58 -199 0
57 44 55 62 58 45 -200 0
57 44 55 62 58 45 -198 0
57 44 55 62 58 45 -197 0
57 44 55 62 58 45 -199 0
57 44 42 62 46 45 -200 0
57 44 42 62 46 45 -198 0
57 44 42 62 46 45 -197 0
57 44 42 62 46 45 -199 0
57 44 42 46 58 45 -200 0
57 44 42 46 58 45 -198 0
57 44 42 46 58 45 -197 0
57 44 42 46 58 45 -199 0
57 44 62 46 58 45 -200 0
57 44 62 46 58 45 -198 0
57 44 62 46 58 45 -197 0
57 44 62 46 58 45 -199 0
57 55 51 62 54 58 -213 0
57 55 51 62 54 58 -212 0
57 55 51 62 54 58 -214 0
57 55 51 62 54 58 -211 0
57 55 51 62 58 49 -213 0
57 55 51 62 58 49 -212 0
57 55 51 62 58 49 -214 0
57 55 51 62 58 49 -211 0
57 55 73 62 71 58 -229 0
57 55 73 62 71 58 -231 0
57 55 73 62 71 58 -230 0
57 55 73 62 71 58 -232 0
57 55 73 62 58 75 -229 0
57 55 73 62 58 75 -231 0
57 55 73 62 58 75 -230 0
57 55 73 62 58 75 -232 0
57 55 23 62 28 58 -157 0
57 55 23 62 28 58 -159 0
57 55 23 62 28 58 -158 0
57 55 23 62 28 58 -160 0
57 55 23 62 58 29 -157 0
57 55 23 62 58 29 -159 0
57 55 23 62 58 29 -158 0
57 55 23 62 58 29 -160 0
57 55 10 62 11 58 -101 0
57 55 10 62 11 58 -103 0
57 55 10 62 11 58 -102 0
57 55 10 62 11 58 -104 0
57 55 10 62 58 13 -101 0
57 55 10 62 58 13 -103 0
57 55 10 62 58 13 -102 0
57 55 10 62 58 13 -104 0
57 55 6 62 4 58 -61 0
57 55 6 62 4 58 -56 0
57 55 6 62 4 58 -59 0
57 55 6 62 4 58 -60 0
57 55 6 62 58 5 -61 0
57 55 6 62 58 5 -56 0
57 55 6 62 58 5 -59 0
57 55 6 62 58 5 -60 0
57 55 69 62 66 58 -227 0
57 55 69 62 66 58 -225 0
57 55 69 62 66 58 -228 0
57 55 69 62 66 58 -226 0
57 55 69 62 58 63 -227 0
57 55 69 62 58 63 -225 0
57 55 69 62 58 63 -228 0
57 55 69 62 58 63 -226 0
57 55 15 62 18 58 -132 0
57 55 15 62 18 58 -131 0
57 55 15 62 18 58 -134 0
57 55 15 62 18 58 -133 0
57 55 15 62 58 17 -132 0
57 55 15 62 58 17 -131 0
57 55 15 62 58 17 -134 0
57 55 15 62 58 17 -133 0
57 55 31 62 35 58 -182 0
57 55 31 62 35 58 -181 0
57 55 31 62 35 58 -179 0
57 55 31 62 35 58 -180 0
57 55 31 62 58 36 -182 0
57 55 31 62 58 36 -181 0
57 55 31 62 58 36 -179 0
57 55 31 62 58 36 -180 0
57 55 42 62 46 58 -200 0
57 55 42 62 46 58 -198 0
57 55 42 62 46 58 -197 0
57 55 42 62 46 58 -199 0
57 55 42 62 58 45 -200 0
57 55 42 62 58 45 -198 0
57 55 42 62 58 45 -197 0
57 55 42 62 58 45 -199 0
57 55 62 54 58 49 -213 0
57 55 62 54 58 49 -212 0
57 55 62 54 58 49 -214 0
57 55 62 54 58 49 -211 0
57 55 62 71 58 75 -229 0
57 55 62 71 58 75 -231 0
57 55 62 71 58 75 -230 0
57 55 62 71 58 75 -232 0
57 55 62 28 58 29 -157 0
57 55 62 28 58 29 -159 0
57 55 62 28 58 29 -158 0
57 55 62 28 58 29 -160 0
57 55 62 11 58 13 -101 0
57 55 62 11 58 13 -103 0
57 55 62 11 58 13 -102 0
57 55 62 11 58 13 -104 0
57 55 62 4 58 5 -61 0
57 55 62 4 58 5 -56 0
57 55 62 4 58 5 -59 0
57 55 62 4 58 5 -60 0
57 55 62 66 58 63 -227 0
57 55 62 66 58 63 -225 0
57 55 62 66 58 63 -228 0
57 55 62 66 58 63 -226 0
57 55 62 18 58 17 -132 0
57 55 62 18 58 17 -131 0
57 55 62 18 58 17 -134 0
57 55 62 18 58 17 -133 0
57 55 62 35 58 36 -182 0
57 55 62 35 58 36 -181 0
57 55 62 35 58 36 -179 0
57 55 62 35 58 36 -180 0
57 55 62 46 58 45 -200 0
57 55 62 46 58 45 -198 0
57 55 62 46 58 45 -197 0
57 55 62 46 58 45 -199 0
53 78 51 73 54 71 -221 0
53 78 51 73 54 71 -220 0
53 78 51 73 54 71 -222 0
53 78 51 73 54 71 -219 0
53 78 51 73 54 49 -221 0
53 78 51 73 54 49 -220 0
53 78 51 73 54 49 -222 0
53 78 51 73 54 49 -219 0
53 78 51 73 71 75 -221 0
53 78 51 73 71 75 -220 0
53 78 51 73 71 75 -222 0
53 78 51 73 71 75 -219 0
53 78 51 73 49 75 -221 0
53 78 51 73 49 75 -220 0
53 78 51 73 49 75 -222 0
53 78 51 73 49 75 -219 0
53 78 51 54 71 49 -221 0
53 78 51 54 71 49 -220 0
53 78 51 54 71 49 -222 0
53 78 51 54 71 49 -219 0
53 78 51 54 49 75 -221 0
53 78 51 54 49 75 -220 0
53 78 51 54 49 75 -222 0
53 78 51 54 49 75 -219 0
53 78 73 54 71 75 -221 0
53 78 73 54 71 75 -220 0
53 78 73 54 71 75 -222 0
53 78 73 54 71 75 -219 0
53 78 73 71 49 75 -221 0
53 78 73 71 49 75 -220 0
53 78 73 71 49 75 -222 0
53 78 73 71 49 75 -219 0
53 78 54 71 49 75 -221 0
53 78 54 71 49 75 -220 0
53 78 54 71 49 75 -222 0
53 78 54 71 49 75 -219 0
53 25 51 23 54 28 -154 0
53 25 51 23 54 28 -153 0
53 25 51 23 54 28 -156 0
53 25 51 23 54 28 -155 0
53 25 51 23 54 49 -154 0
53 25 51 23 54 49 -153 0
53 25 51 23 54 49 -156 0
53 25 51 23 54 49 -155 0
53 25 51 23 28 29 -154 0
53 25 51 23 28 29 -153 0
53 25 51 23 28 29 -156 0
53 25 51 23 28 29 -155 0
53 25 51 23 49 29 -154 0
53 25 51 23 49 29 -153 0
53 25 51 23 49 29 -156 0
53 25 51 23 49 29 -155 0
53 25 51 54 28 49 -154 0
53 25 51 54 28 49 -153 0
53 25 51 54 28 49 -156 0
53 25 51 54 28 49 -155 0
53 25 51 54 49 29 -154 0
53 25 51 54 49 29 -153 0
53 25 51 54 49 29 -156 0
53 25 51 54 49 29 -155 0
53 25 23 54 28 29 -154 0
53 25 23 54 28 29 -153 0
53 25 23 54 28 29 -156 0
53 25 23 54 28 29 -155 0
53 25 23 28 49 29 -154 0
53 25 23 28 49 29 -153 0
53 25 23 28 49 29 -156 0
53 25 23 28 49 29 -155 0
53 25 54 28 49 29 -154 0
53 25 54 28 49 29 -153 0
53 25 54 28 49 29 -156 0
53 25 54 28 49 29 -155 0
53 12 51 10 54 11 -98 0
53 12 51 10 54 11 -99 0
53 12 51 10 54 11 -100 0
53 12 51 10 54 11 -97 0
53 12 51 10 54 49 -98 0
53 12 51 10 54 49 -99 0
53 12 51 10 54 49 -100 0
53 12 51 10 54 49 -97 0
53 12 51 10 11 13 -98 0
53 12 51 10 11 13 -99 0
53 12 51 10 11 13 -100 0
53 12 51 10 11 13 -97 0
53 12 51 10 49 13 -98 0
53 12 51 10 49 13 -99 0
53 12 51 10 49 13 -100 0
53 12 51 10 49 13 -97 0
53 12 51 54 11 49 -98 0
53 12 51 54 11 49 -99 0
53 12 51 54 11 49 -100 0
53 12 51 54 11 49 -97 0
53 12 51 54 49 13 -98 0
53 12 51 54 49 13 -99 0
53 12 51 54 49 13 -100 0
53 12 51 54 49 13 -97 0
53 12 10 54 11 13 -98 0
53 12 10 54 11 13 -99 0
53 12 10 54 11 13 -100 0
53 12 10 54 11 13 -97 0
53 12 10 11 49 13 -98 0
53 12 10 11 49 13 -99 0
53 12 10 11 49 13 -100 0
53 12 10 11 49 13 -97 0
53 12 54 11 49 13 -98 0
53 12 54 11 49 13 -99 0
53 12 54 11 49 13 -100 0
53 12 54 11 49 13 -97 0
53 2 51 6 54 4 -48 0
53 2 51 6 54 4 -50 0
53 2 51 6 54 4 -52 0
53 2 51 6 54 4 -47 0
53 2 51 6 54 49 -48 0
53 2 51 6 54 49 -50 0
53 2 51 6 54 49 -52 0
53 2 51 6 54 49 -47 0
53 2 51 6 4 5 -48 0
53 2 51 6 4 5 -50 0
53 2 51 6 4 5 -52 0
53 2 51 6 4 5 -47 0
53 2 51 6 49 5 -48 0
53 2 51 6 49 5 -50 0
53 2 51 6 49 5 -52 0
53 2 51 6 49 5 -47 0
53 2 51 54 4 49 -48 0
53 2 51 54 4 49 -50 0
53 2 51 54 4 49 -52 0
53 2 51 54 4 49 -47 0
53 2 51 54 49 5 -48 0
53 2 51 54 49 5 -50 0
53 2 51 54 49 5 -52 0
53 2 51 54 49 5 -47 0
53 2 6 54 4 5 -48 0
53 2 6 54 4 5 -50 0
53 2 6 54 4 5 -52 0
53 2 6 54 4 5 -47 0
53 2 6 4 49 5 -48 0
53 2 6 4 49 5 -50 0
53 2 6 4 49 5 -52 0
53 2 6 4 49 5 -47 0
53 2 54 4 49 5 -48 0
53 2 54 4 49 5 -50 0
53 2 54 4 49 5 -52 0
53 2 54 4 49 5 -47 0
53 70 51 69 54 66 -218 0
53 70 51 69 54 66 -216 0
53 70 51 69 54 66 -215 0
53 70 51 69 54 66 -217 0
53 70 51 69 54 49 -218 0
53 70 51 69 54 49 -216 0
53 70 51 69 54 49 -215 0
53 70 51 69 54 49 -217 0
53 70 51 69 66 63 -218 0
53 70 51 69 66 63 -216 0
53 70 51 69 66 63 -215 0
53 70 51 69 66 63 -217 0
53 70 51 69 49 63 -218 0
53 70 51 69 49 63 -216 0
53 70 51 69 49 63 -215 0
53 70 51 69 49 63 -217 0
53 70 51 54 66 49 -218 0
53 70 51 54 66 49 -216 0
53 70 51 54 66 49 -215 0
53 70 51 54 66 49 -217 0
53 70 51 54 49 63 -218 0
53 70 51 54 49 63 -216 0
53 70 51 54 49 63 -215 0
53 70 51 54 49 63 -217 0
53 70 69 54 66 63 -218 0
53 70 69 54 66 63 -216 0
53 70 69 54 66 63 -215 0
53 70 69 54 66 63 -217 0
53 70 69 66 49 63 -218 0
53 70 69 66 49 63 -216 0
53 70 69 66 49 63 -215 0
53 70 69 66 49 63 -217 0
53 70 54 66 49 63 -218 0
53 70 54 66 49 63 -216 0
53 70 54 66 49 63 -215 0
53 70 54 66 49 63 -217 0
53 20 51 15 54 18 -129 0
53 20 51 15 54 18 -128 0
53 20 51 15 54 18 -127 0
53 20 51 15 54 18 -130 0
53 20 51 15 54 49 -129 0
53 20 51 15 54 49 -128 0
53 20 51 15 54 49 -127 0
53 20 51 15 54 49 -130 0
53 20 51 15 18 17 -129 0
53 20 51 15 18 17 -128 0
53 20 51 15 18 17 -127 0
53 20 51 15 18 17 -130 0
53 20 51 15 49 17 -129 0
53 20 51 15 49 17 -128 0
53 20 51 15 49 17 -127 0
53 20 51 15 49 17 -130 0
53 20 51 54 18 49 -129 0
53 20 51 54 18 49 -128 0
53 20 51 54 18 49 -127 0
53 20 51 54 18 49 -130 0
53 20 51 54 49 17 -129 0
53 20 51 54 49 17 -128 0
53 20 51 54 49 17 -127 0
53 20 51 54 49 17 -130 0
53 20 15 54 18 17 -129 0
53 20 15 54 18 17 -128 0
53 20 15 54 18 17 -127 0
53 20 15 54 18 17 -130 0
53 20 15 18 49 17 -129 0
53 20 15 18 49 17 -128 0
53 20 15 18 49 17 -127 0
53 20 15 18 49 17 -130 0
53 20 54 18 49 17 -129 0
53 20 54 18 49 17 -128 0
53 20 54 18 49 17 -127 0
53 20 54 18 49 17 -130 0
53 38 51 31 54 35 -177 0
53 38 51 31 54 35 -176 0
53 38 51 31 54 35 -175 0
53 38 51 31 54 35 -178 0
53 38 51 31 54 49 -177 0
53 38 51 31 54 49 -176 0
53 38 51 31 54 49 -175 0
53 38 51 31 54 49 -178 0
53 38 51 31 35 36 -177 0
53 38 51 31 35 36 -176 0
53 38 51 31 35 36 -175 0
53 38 51 31 35 36 -178 0
53 38 51 31 49 36 -177 0
53 38 51 31 49 36 -176 0
53 38 51 31 49 36 -175 0
53 38 51 31 49 36 -178 0
53 38 51 54 35 49 -177 0
53 38 51 54 35 49 -176 0
53 38 51 54 35 49 -175 0
53 38 51 54 35 49 -178 0
53 38 51 54 49 36 -177 0
53 38 51 54 49 36 -176 0
53 38 51 54 49 36 -175 0
53 38 51 54 49 36 -178 0
53 38 31 54 35 36 -177 0
53 38 31 54 35 36 -176 0
53 38 31 54 35 36 -175 0
53 38 31 54 35 36 -178 0
53 38 31 35 49 36 -177 0
53 38 31 35 49 36 -176 0
53 38 31 35 49 36 -175 0
53 38 31 35 49 36 -178 0
53 38 54 35 49 36 -177 0
53 38 54 35 49 36 -176 0
53 38 54 35 49 36 -175 0
53 38 54 35 49 36 -178 0
53 44 51 42 54 46 -194 0
53 44 51 42 54 46 -196 0
53 44 51 42 54 46 -195 0
53 44 51 42 54 46 -193 0
53 44 51 42 54 49 -194 0
53 44 51 42 54 49 -196 0
53 44 51 42 54 49 -195 0
53 44 51 42 54 49 -193 0
53 44 51 42 46 45 -194 0
53 44 51 42 46 45 -196 0
53 44 51 42 46 45 -195 0
53 44 51 42 46 45 -193 0
53 44 51 42 49 45 -194 0
53 44 51 42 49 45 -196 0
53 44 51 42 49 45 -195 0
53 44 51 42 49 45 -193 0
53 44 51 54 46 49 -194 0
53 44 51 54 46 49 -196 0
53 44 51 54 46 49 -195 0
53 44 51 54 46 49 -193 0
53 44 51 54 49 45 -194 0
53 44 51 54 49 45 -196 0
53 44 51 54 49 45 -195 0
53 44 51 54 49 45 -193 0
53 44 42 54 46 45 -194 0
53 44 42 54 46 45 -196 0
53 44 42 54 46 45 -195 0
53 44 42 54 46 45 -193 0
53 44 42 46 49 45 -194 0
53 44 42 46 49 45 -196 0
53 44 42 46 49 45 -195 0
53 44 42 46 49 45 -193 0
53 44 54 46 49 45 -194 0
53 44 54 46 49 45 -196 0
53 44 54 46 49 45 -195 0
53 44 54 46 49 45 -193 0
53 55 51 62 54 49 -213 0
53 55 51 62 54 49 -212 0
53 55 51 62 54 49 -214 0
53 55 51 62 54 49 -211 0
53 55 51 54 58 49 -213 0
53 55 51 54 58 49 -212 0
53 55 51 54 58 49 -214 0
53 55 51 54 58 49 -211 0
53 51 73 54 71 49 -221 0
53 51 73 54 71 49 -220 0
53 51 73 54 71 49 -222 0
53 51 73 54 71 49 -219 0
53 51 73 54 49 75 -221 0
53 51 73 54 49 75 -220 0
53 51 73 54 49 75 -222 0
53 51 73 54 49 75 -219 0
53 51 23 54 28 49 -154 0
53 51 23 54 28 49 -153 0
53 51 23 54 28 49 -156 0
53 51 23 54 28 49 -155 0
53 51 23 54 49 29 -154 0
53 51 23 54 49 29 -153 0
53 51 23 54 49 29 -156 0
53 51 23 54 49 29 -155 0
53 51 10 54 11 49 -98 0
53 51 10 54 11 49 -99 0
53 51 10 54 11 49 -100 0
53 51 10 54 11 49 -97 0
53 51 10 54 49 13 -98 0
53 51 10 54 49 13 -99 0
53 51 10 54 49 13 -100 0
53 51 10 54 49 13 -97 0
53 51 6 54 4 49 -48 0
53 51 6 54 4 49 -50 0
53 51 6 54 4 49 -52 0
53 51 6 54 4 49 -47 0
53 51 6 54 49 5 -48 0
53 51 6 54 49 5 -50 0
53 51 6 54 49 5 -52 0
53 51 6 54 49 5 -47 0
53 51 69 54 66 49 -218 0
53 51 69 54 66 49 -216 0
53 51 69 54 66 49 -215 0
53 51 69 54 66 49 -217 0
53 51 69 54 49 63 -218 0
53 51 69 54 49 63 -216 0
53 51 69 54 49 63 -215 0
53 51 69 54 49 63 -217 0
53 51 15 54 18 49 -129 0
53 51 15 54 18 49 -128 0
53 51 15 54 18 49 -127 0
53 51 15 54 18 49 -130 0
53 51 15 54 49 17 -129 0
53 51 15 54 49 17 -128 0
53 51 15 54 49 17 -127 0
53 51 15 54 49 17 -130 0
53 51 31 54 35 49 -177 0
53 51 31 54 35 49 -176 0
53 51 31 54 35 49 -175 0
53 51 31 54 35 49 -178 0
53 51 31 54 49 36 -177 0
53 51 31 54 49 36 -176 0
53 51 31 54 49 36 -175 0
53 51 31 54 49 36 -178 0
53 51 42 54 46 49 -194 0
53 51 42 54 46 49 -196 0
53 51 42 54 46 49 -195 0
53 51 42 54 46 49 -193 0
53 51 42 54 49 45 -194 0
53 51 42 54 49 45 -196 0
53 51 42 54 49 45 -195 0
53 51 42 54 49 45 -193 0
53 51 62 54 58 49 -213 0
53 51 62 54 58 49 -212 0
53 51 62 54 58 49 -214 0
53 51 62 54 58 49 -211 0
53 51 54 71 49 75 -221 0
53 51 54 71 49 75 -220 0
53 51 54 71 49 75 -222 0
53 51 54 71 49 75 -219 0
53 51 54 28 49 29 -154 0
53 51 54 28 49 29 -153 0
53 51 54 28 49 29 -156 0
53 51 54 28 49 29 -155 0
53 51 54 11 49 13 -98 0
53 51 54 11 49 13 -99 0
53 51 54 11 49 13 -100 0
53 51 54 11 49 13 -97 0
53 51 54 4 49 5 -48 0
53 51 54 4 49 5 -50 0
53 51 54 4 49 5 -52 0
53 51 54 4 49 5 -47 0
53 51 54 66 49 63 -218 0
53 51 54 66 49 63 -216 0
53 51 54 66 49 63 -215 0
53 51 54 66 49 63 -217 0
53 51 54 18 49 17 -129 0
53 51 54 18 49 17 -128 0
53 51 54 18 49 17 -127 0
53 51 54 18 49 17 -130 0
53 51 54 35 49 36 -177 0
53 51 54 35 49 36 -176 0
53 51 54 35 49 36 -175 0
53 51 54 35 49 36 -178 0
53 51 54 46 49 45 -194 0
53 51 54 46 49 45 -196 0
53 51 54 46 49 45 -195 0
53 51 54 46 49 45 -193 0
78 25 73 23 71 28 -166 0
78 25 73 23 71 28 -165 0
78 25 73 23 71 28 -168 0
78 25 73 23 71 28 -167 0
78 25 73 23 71 75 -166 0
78 25 73 23 71 75 -165 0
78 25 73 23 71 75 -168 0
78 25 73 23 71 75 -167 0
78 25 73 23 28 29 -166 0
78 25 73 23 28 29 -165 0
78 25 73 23 28 29 -168 0
78 25 73 23 28 29 -167 0
78 25 73 23 75 29 -166 0
78 25 73 23 75 29 -165 0
78 25 73 23 75 29 -168 0
78 25 73 23 75 29 -167 0
78 25 73 71 28 75 -166 0
78 25 73 71 28 75 -165 0
78 25 73 71 28 75 -168 0
78 25 73 71 28 75 -167 0
78 25 73 71 75 29 -166 0
78 25 73 71 75 29 -165 0
78 25 73 71 75 29 -168 0
78 25 73 71 75 29 -167 0
78 25 23 71 28 29 -166 0
78 25 23 71 28 29 -165 0
78 25 23 71 28 29 -168 0
78 25 23 71 28 29 -167 0
78 25 23 28 75 29 -166 0
78 25 23 28 75 29 -165 0
78 25 23 28 75 29 -168 0
78 25 23 28 75 29 -167 0
78 25 71 28 75 29 -166 0
78 25 71 28 75 29 -165 0
78 25 71 28 75 29 -168 0
78 25 71 28 75 29 -167 0
78 12 73 10 71 11 -109 0
78 12 73 10 71 11 -111 0
78 12 73 10 71 11 -110 0
78 12 73 10 71 11 -112 0
78 12 73 10 71 75 -109 0
78 12 73 10 71 75 -111 0
78 12 73 10 71 75 -110 0
78 12 73 10 71 75 -112 0
78 12 73 10 11 13 -109 0
78 12 73 10 11 13 -111 0
78 12 73 10 11 13 -110 0
78 12 73 10 11 13 -112 0
78 12 73 10 75 13 -109 0
78 12 73 10 75 13 -111 0
78 12 73 10 75 13 -110 0
78 12 73 10 75 13 -112 0
78 12 73 71 11 75 -109 0
78 12 73 71 11 75 -111 0
78 12 73 71 11 75 -110 0
78 12 73 71 11 75 -112 0
78 12 73 71 75 13 -109 0
78 12 73 71 75 13 -111 0
78 12 73 71 75 13 -110 0
78 12 73 71 75 13 -112 0
78 12 10 71 11 13 -109 0
78 12 10 71 11 13 -111 0
78 12 10 71 11 13 -110 0
78 12 10 71 11 13 -112 0
78 12 10 11 75 13 -109 0
78 12 10 11 75 13 -111 0
78 12 10 11 75 13 -110 0
78 12 10 11 75 13 -112 0
78 12 71 11 75 13 -109 0
78 12 71 11 75 13 -111 0
78 12 71 11 75 13 -110 0
78 12 71 11 75 13 -112 0
78 2 73 6 71 4 -76 0
78 2 73 6 71 4 -72 0
78 2 73 6 71 4 -77 0
78 2 73 6 71 4 -74 0
78 2 73 6 71 75 -76 0
78 2 73 6 71 75 -72 0
78 2 73 6 71 75 -77 0
78 2 73 6 71 75 -74 0
78 2 73 6 4 5 -76 0
78 2 73 6 4 5 -72 0
78 2 73 6 4 5 -77 0
78 2 73 6 4 5 -74 0
78 2 73 6 75 5 -76 0
78 2 73 6 75 5 -72 0
78 2 73 6 75 5 -77 0
78 2 73 6 75 5 -74 0
78 2 73 71 4 75 -76 0
78 2 73 71 4 75 -72 0
78 2 73 71 4 75 -77 0
78 2 73 71 4 75 -74 0
78 2 73 71 75 5 -76 0
78 2 73 71 75 5 -72 0
78 2 73 71 75 5 -77 0
78 2 73 71 75 5 -74 0
78 2 6 71 4 5 -76 0
78 2 6 71 4 5 -72 0
78 2 6 71 4 5 -77 0
78 2 6 71 4 5 -74 0
78 2 6 4 75 5 -76 0
78 2 6 4 75 5 -72 0
78 2 6 4 75 5 -77 0
78 2 6 4 75 5 -74 0
78 2 71 4 75 5 -76 0
78 2 71 4 75 5 -72 0
78 2 71 4 75 5 -77 0
78 2 71 4 75 5 -74 0
78 70 73 69 71 66 -238 0
78 70 73 69 71 66 -235 0
78 70 73 69 71 66 -236 0
78 70 73 69 71 66 -237 0
78 70 73 69 71 75 -238 0
78 70 73 69 71 75 -235 0
78 70 73 69 71 75 -236 0
78 70 73 69 71 75 -237 0
78 70 73 69 66 63 -238 0
78 70 73 69 66 63 -235 0
78 70 73 69 66 63 -236 0
78 70 73 69 66 63 -237 0
78 70 73 69 75 63 -238 0
78 70 73 69 75 63 -235 0
78 70 73 69 75 63 -236 0
78 70 73 69 75 63 -237 0
78 70 73 71 66 75 -238 0
78 70 73 71 66 75 -235 0
78 70 73 71 66 75 -236 0
78 70 73 71 66 75 -237 0
78 70 73 71 75 63 -238 0
78 70 73 71 75 63 -235 0
78 70 73 71 75 63 -236 0
78 70 73 71 75 63 -237 0
78 70 69 71 66 63 -238 0
78 70 69 71 66 63 -235 0
78 70 69 71 66 63 -236 0
78 70 69 71 66 63 -237 0
78 70 69 66 75 63 -238 0
78 70 69 66 75 63 -235 0
78 70 69 66 75 63 -236 0
78 70 69 66 75 63 -237 0
78 70 71 66 75 63 -238 0
78 70 71 66 75 63 -235 0
78 70 71 66 75 63 -236 0
78 70 71 66 75 63 -237 0
78 20 73 15 71 18 -140 0
78 20 73 15 71 18 -142 0
78 20 73 15 71 18 -141 0
78 20 73 15 71 18 -139 0
78 20 73 15 71 75 -140 0
78 20 73 15 71 75 -142 0
78 20 73 15 71 75 -141 0
78 20 73 15 71 75 -139 0
78 20 73 15 18 17 -140 0
78 20 73 15 18 17 -142 0
78 20 73 15 18 17 -141 0
78 20 73 15 18 17 -139 0
78 20 73 15 75 17 -140 0
78 20 73 15 75 17 -142 0
78 20 73 15 75 17 -141 0
78 20 73 15 75 17 -139 0
78 20 73 71 18 75 -140 0
78 20 73 71 18 75 -142 0
78 20 73 71 18 75 -141 0
78 20 73 71 18 75 -139 0
78 20 73 71 75 17 -140 0
78 20 73 71 75 17 -142 0
78 20 73 71 75 17 -141 0
78 20 73 71 75 17 -139 0
78 20 15 71 18 17 -140 0
78 20 15 71 18 17 -142 0
78 20 15 71 18 17 -141 0
78 20 15 71 18 17 -139 0
78 20 15 18 75 17 -140 0
78 20 15 18 75 17 -142 0
78 20 15 18 75 17 -141 0
78 20 15 18 75 17 -139 0
78 20 71 18 75 17 -140 0
78 20 71 18 75 17 -142 0
78 20 71 18 75 17 -141 0
78 20 71 18 75 17 -139 0
78 38 73 31 71 35 -188 0
78 38 73 31 71 35 -189 0
78 38 73 31 71 35 -190 0
78 38 73 31 71 35 -187 0
78 38 73 31 71 75 -188 0
78 38 73 31 71 75 -189 0
78 38 73 31 71 75 -190 0
78 38 73 31 71 75 -187 0
78 38 73 31 35 36 -188 0
78 38 73 31 35 36 -189 0
78 38 73 31 35 36 -190 0
78 38 73 31 35 36 -187 0
78 38 73 31 75 36 -188 0
78 38 73 31 75 36 -189 0
78 38 73 31 75 36 -190 0
78 38 73 31 75 36 -187 0
78 38 73 71 35 75 -188 0
78 38 73 71 35 75 -189 0
78 38 73 71 35 75 -190 0
78 38 73 71 35 75 -187 0
78 38 73 71 75 36 -188 0
78 38 73 71 75 36 -189 0
78 38 73 71 75 36 -190 0
78 38 73 71 75 36 -187 0
78 38 31 71 35 36 -188 0
78 38 31 71 35 36 -189 0
78 38 31 71 35 36 -190 0
78 38 31 71 35 36 -187 0
78 38 31 35 75 36 -188 0
78 38 31 35 75 36 -189 0
78 38 31 35 75 36 -190 0
78 38 31 35 75 36 -187 0
78 38 71 35 75 36 -188 0
78 38 71 35 75 36 -189 0
78 38 71 35 75 36 -190 0
78 38 71 35 75 36 -187 0
78 44 73 42 71 46 -208 0
78 44 73 42 71 46 -206 0
78 44 73 42 71 46 -205 0
78 44 73 42 71 46 -207 0
78 44 73 42 71 75 -208 0
78 44 73 42 71 75 -206 0
78 44 73 42 71 75 -205 0
78 44 73 42 71 75 -207 0
78 44 73 42 46 45 -208 0
78 44 73 42 46 45 -206 0
78 44 73 42 46 45 -205 0
78 44 73 42 46 45 -207 0
78 44 73 42 75 45 -208 0
78 44 73 42 75 45 -206 0
78 44 73 42 75 45 -205 0
78 44 73 42 75 45 -207 0
78 44 73 71 46 75 -208 0
78 44 73 71 46 75 -206 0
78 44 73 71 46 75 -205 0
78 44 73 71 46 75 -207 0
78 44 73 71 75 45 -208 0
78 44 73 71 75 45 -206 0
78 44 73 71 75 45 -205 0
78 44 73 71 75 45 -207 0
78 44 42 71 46 45 -208 0
78 44 42 71 46 45 -206 0
78 44 42 71 46 45 -205 0
78 44 42 71 46 45 -207 0
78 44 42 46 75 45 -208 0
78 44 42 46 75 45 -206 0
78 44 42 46 75 45 -205 0
78 44 42 46 75 45 -207 0
78 44 71 46 75 45 -208 0
78 44 71 46 75 45 -206 0
78 44 71 46 75 45 -205 0
78 44 71 46 75 45 -207 0
78 55 73 62 71 75 -229 0
78 55 73 62 71 75 -231 0
78 55 73 62 71 75 -230 0
78 55 73 62 71 75 -232 0
78 55 73 71 58 75 -229 0
78 55 73 71 58 75 -231 0
78 55 73 71 58 75 -230 0
78 55 73 71 58 75 -232 0
78 51 73 54 71 75 -221 0
78 51 73 54 71 75 -220 0
78 51 73 54 71 75 -222 0
78 51 73 54 71 75 -219 0
78 51 73 71 49 75 -221 0
78 51 73 71 49 75 -220 0
78 51 73 71 49 75 -222 0
78 51 73 71 49 75 -219 0
78 73 23 71 28 75 -166 0
78 73 23 71 28 75 -165 0
78 73 23 71 28 75 -168 0
78 73 23 71 28 75 -167 0
78 73 23 71 75 29 -166 0
78 73 23 71 75 29 -165 0
78 73 23 71 75 29 -168 0
78 73 23 71 75 29 -167 0
78 73 10 71 11 75 -109 0
78 73 10 71 11 75 -111 0
78 73 10 71 11 75 -110 0
78 73 10 71 11 75 -112 0
78 73 10 71 75 13 -109 0
78 73 10 71 75 13 -111 0
78 73 10 71 75 13 -110 0
78 73 10 71 75 13 -112 0
78 73 6 71 4 75 -76 0
78 73 6 71 4 75 -72 0
78 73 6 71 4 75 -77 0
78 73 6 71 4 75 -74 0
78 73 6 71 75 5 -76 0
78 73 6 71 75 5 -72 0
78 73 6 71 75 5 -77 0
78 73 6 71 75 5 -74 0
78 73 69 71 66 75 -238 0
78 73 69 71 66 75 -235 0
78 73 69 71 66 75 -236 0
78 73 69 71 66 75 -237 0
78 73 69 71 75 63 -238 0
78 73 69 71 75 63 -235 0
78 73 69 71 75 63 -236 0
78 73 69 71 75 63 -237 0
78 73 15 71 18 75 -140 0
78 73 15 71 18 75 -142 0
78 73 15 71 18 75 -141 0
78 73 15 71 18 75 -139 0
78 73 15 71 75 17 -140 0
78 73 15 71 75 17 -142 0
78 73 15 71 75 17 -141 0
78 73 15 71 75 17 -139 0
78 73 31 71 35 75 -188 0
78 73 31 71 35 75 -189 0
78 73 31 71 35 75 -190 0
78 73 31 71 35 75 -187 0
78 73 31 71 75 36 -188 0
78 73 31 71 75 36 -189 0
78 73 31 71 75 36 -190 0
78 73 31 71 75 36 -187 0
78 73 42 71 46 75 -208 0
78 73 42 71 46 75 -206 0
78 73 42 71 46 75 -205 0
78 73 42 71 46 75 -207 0
78 73 42 71 75 45 -208 0
78 73 42 71 75 45 -206 0
78 73 42 71 75 45 -205 0
78 73 42 71 75 45 -207 0
78 73 62 71 58 75 -229 0
78 73 62 71 58 75 -231 0
78 73 62 71 58 75 -230 0
78 73 62 71 58 75 -232 0
78 73 54 71 49 75 -221 0
78 73 54 71 49 75 -220 0
78 73 54 71 49 75 -222 0
78 73 54 71 49 75 -219 0
78 73 71 28 75 29 -166 0
78 73 71 28 75 29 -165 0
78 73 71 28 75 29 -168 0
78 73 71 28 75 29 -167 0
78 73 71 11 75 13 -109 0
78 73 71 11 75 13 -111 0
78 73 71 11 75 13 -110 0
78 73 71 11 75 13 -112 0
78 73 71 4 75 5 -76 0
78 73 71 4 75 5 -72 0
78 73 71 4 75 5 -77 0
78 73 71 4 75 5 -74 0
78 73 71 66 75 63 -238 0
78 73 71 66 75 63 -235 0
78 73 71 66 75 63 -236 0
78 73 71 66 75 63 -237 0
78 73 71 18 75 17 -140 0
78 73 71 18 75 17 -142 0
78 73 71 18 75 17 -141 0
78 73 71 18 75 17 -139 0
78 73 71 35 75 36 -188 0
78 73 71 35 75 36 -189 0
78 73 71 35 75 36 -190 0
78 73 71 35 75 36 -187 0
78 73 71 46 75 45 -208 0
78 73 71 46 75 45 -206 0
78 73 71 46 75 45 -205 0
78 73 71 46 75 45 -207 0
25 12 23 10 28 11 -85 0
25 12 23 10 28 11 -87 0
25 12 23 10 28 11 -86 0
25 12 23 10 28 11 -88 0
25 12 23 10 28 29 -85 0
25 12 23 10 28 29 -87 0
25 12 23 10 28 29 -86 0
25 12 23 10 28 29 -88 0
25 12 23 10 11 13 -85 0
25 12 23 10 11 13 -87 0
25 12 23 10 11 13 -86 0
25 12 23 10 11 13 -88 0
25 12 23 10 29 13 -85 0
25 12 23 10 29 13 -87 0
25 12 23 10 29 13 -86 0
25 12 23 10 29 13 -88 0
25 12 23 28 11 29 -85 0
25 12 23 28 11 29 -87 0
25 12 23 28 11 29 -86 0
25 12 23 28 11 29 -88 0
25 12 23 28 29 13 -85 0
25 12 23 28 29 13 -87 0
25 12 23 28 29 13 -86 0
25 12 23 28 29 13 -88 0
25 12 10 28 11 13 -85 0
25 12 10 28 11 13 -87 0
25 12 10 28 11 13 -86 0
25 12 10 28 11 13 -88 0
25 12 10 11 29 13 -85 0
25 12 10 11 29 13 -87 0
25 12 10 11 29 13 -86 0
25 12 10 11 29 13 -88 0
25 12 28 11 29 13 -85 0
25 12 28 11 29 13 -87 0
25 12 28 11 29 13 -86 0
25 12 28 11 29 13 -88 0
25 2 23 6 28 4 -27 0
25 2 23 6 28 4 -24 0
25 2 23 6 28 4 -30 0
25 2 23 6 28 4 -26 0
25 2 23 6 28 29 -27 0
25 2 23 6 28 29 -24 0
25 2 23 6 28 29 -30 0
25 2 23 6 28 29 -26 0
25 2 23 6 4 5 -27 0
25 2 23 6 4 5 -24 0
25 2 23 6 4 5 -30 0
25 2 23 6 4 5 -26 0
25 2 23 6 29 5 -27 0
25 2 23 6 29 5 -24 0
25 2 23 6 29 5 -30 0
25 2 23 6 29 5 -26 0
25 2 23 28 4 29 -27 0
25 2 23 28 4 29 -24 0
25 2 23 28 4 29 -30 0
25 2 23 28 4 29 -26 0
25 2 23 28 29 5 -27 0
25 2 23 28 29 5 -24 0
25 2 23 28 29 5 -30 0
25 2 23 28 29 5 -26 0
25 2 6 28 4 5 -27 0
25 2 6 28 4 5 -24 0
25 2 6 28 4 5 -30 0
25 2 6 28 4 5 -26 0
25 2 6 4 29 5 -27 0
25 2 6 4 29 5 -24 0
25 2 6 4 29 5 -30 0
25 2 6 4 29 5 -26 0
25 2 28 4 29 5 -27 0
25 2 28 4 29 5 -24 0
25 2 28 4 29 5 -30 0
25 2 28 4 29 5 -26 0
25 70 23 69 28 66 -164 0
25 70 23 69 28 66 -161 0
25 70 23 69 28 66 -162 0
25 70 23 69 28 66 -163 0
25 70 23 69 28 29 -164 0
25 70 23 69 28 29 -161 0
25 70 23 69 28 29 -162 0
25 70 23 69 28 29 -163 0
25 70 23 69 66 63 -164 0
25 70 23 69 66 63 -161 0
25 70 23 69 66 63 -162 0
25 70 23 69 66 63 -163 0
25 70 23 69 29 63 -164 0
25 70 23 69 29 63 -161 0
25 70 23 69 29 63 -162 0
25 70 23 69 29 63 -163 0
25 70 23 28 66 29 -164 0
25 70 23 28 66 29 -161 0
25 70 23 28 66 29 -162 0
25 70 23 28 66 29 -163 0
25 70 23 28 29 63 -164 0
25 70 23 28 29 63 -161 0
25 70 23 28 29 63 -162 0
25 70 23 28 29 63 -163 0
25 70 69 28 66 63 -164 0
25 70 69 28 66 63 -161 0
25 70 69 28 66 63 -162 0
25 70 69 28 66 63 -163 0
25 70 69 66 29 63 -164 0
25 70 69 66 29 63 -161 0
25 70 69 66 29 63 -162 0
25 70 69 66 29 63 -163 0
25 70 28 66 29 63 -164 0
25 70 28 66 29 63 -161 0
25 70 28 66 29 63 -162 0
25 70 28 66 29 63 -163 0
25 20 23 15 28 18 -118 0
25 20 23 15 28 18 -116 0
25 20 23 15 28 18 -115 0
25 20 23 15 28 18 -117 0
25 20 23 15 28 29 -118 0
25 20 23 15 28 29 -116 0
25 20 23 15 28 29 -115 0
25 20 23 15 28 29 -117 0
25 20 23 15 18 17 -118 0
25 20 23 15 18 17 -116 0
25 20 23 15 18 17 -115 0
25 20 23 15 18 17 -117 0
25 20 23 15 29 17 -118 0
25 20 23 15 29 17 -116 0
25 20 23 15 29 17 -115 0
25 20 23 15 29 17 -117 0
25 20 23 28 18 29 -118 0
25 20 23 28 18 29 -116 0
25 20 23 28 18 29 -115 0
25 20 23 28 18 29 -117 0
25 20 23 28 29 17 -118 0
25 20 23 28 29 17 -116 0
25 20 23 28 29 17 -115 0
25 20 23 28 29 17 -117 0
25 20 15 28 18 17 -118 0
25 20 15 28 18 17 -116 0
25 20 15 28 18 17 -115 0
25 20 15 28 18 17 -117 0
25 20 15 18 29 17 -118 0
25 20 15 18 29 17 -116 0
25 20 15 18 29 17 -115 0
25 20 15 18 29 17 -117 0
25 20 28 18 29 17 -118 0
25 20 28 18 29 17 -116 0
25 20 28 18 29 17 -115 0
25 20 28 18 29 17 -117 0
25 38 23 31 28 35 -145 0
25 38 23 31 28 35 -148 0
25 38 23 31 28 35 -146 0
25 38 23 31 28 35 -147 0
25 38 23 31 28 29 -145 0
25 38 23 31 28 29 -148 0
25 38 23 31 28 29 -146 0
25 38 23 31 28 29 -147 0
25 38 23 31 35 36 -145 0
25 38 23 31 35 36 -148 0
25 38 23 31 35 36 -146 0
25 38 23 31 35 36 -147 0
25 38 23 31 29 36 -145 0
25 38 23 31 29 36 -148 0
25 38 23 31 29 36 -146 0
25 38 23 31 29 36 -147 0
25 38 23 28 35 29 -145 0
25 38 23 28 35 29 -148 0
25 38 23 28 35 29 -146 0
25 38 23 28 35 29 -147 0
25 38 23 28 29 36 -145 0
25 38 23 28 29 36 -148 0
25 38 23 28 29 36 -146 0
25 38 23 28 29 36 -147 0
25 38 31 28 35 36 -145 0
25 38 31 28 35 36 -148 0
25 38 31 28 35 36 -146 0
25 38 31 28 35 36 -147 0
25 38 31 35 29 36 -145 0
25 38 31 35 29 36 -148 0
25 38 31 35 29 36 -146 0
25 38 31 35 29 36 -147 0
25 38 28 35 29 36 -145 0
25 38 28 35 29 36 -148 0
25 38 28 35 29 36 -146 0
25 38 28 35 29 36 -147 0
25 44 23 42 28 46 -152 0
25 44 23 42 28 46 -150 0
25 44 23 42 28 46 -149 0
25 44 23 42 28 46 -151 0
25 44 23 42 28 29 -152 0
25 44 23 42 28 29 -150 0
25 44 23 42 28 29 -149 0
25 44 23 42 28 29 -151 0
25 44 23 42 46 45 -152 0
25 44 23 42 46 45 -150 0
25 44 23 42 46 45 -149 0
25 44 23 42 46 45 -151 0
25 44 23 42 29 45 -152 0
25 44 23 42 29 45 -150 0
25 44 23 42 29 45 -149 0
25 44 23 42 29 45 -151 0
25 44 23 28 46 29 -152 0
25 44 23 28 46 29 -150 0
25 44 23 28 46 29 -149 0
25 44 23 28 46 29 -151 0
25 44 23 28 29 45 -152 0
25 44 23 28 29 45 -150 0
25 44 23 28 29 45 -149 0
25 44 23 28 29 45 -151 0
25 44 42 28 46 45 -152 0
25 44 42 28 46 45 -150 0
25 44 42 28 46 45 -149 0
25 44 42 28 46 45 -151 0
25 44 42 46 29 45 -152 0
25 44 42 46 29 45 -150 0
25 44 42 46 29 45 -149 0
25 44 42 46 29 45 -151 0
25 44 28 46 29 45 -152 0
25 44 28 46 29 45 -150 0
25 44 28 46 29 45 -149 0
25 44 28 46 29 45 -151 0
25 55 23 62 28 29 -157 0
25 55 23 62 28 29 -159 0
25 55 23 62 28 29 -158 0
25 55 23 62 28 29 -160 0
25 55 23 28 58 29 -157 0
25 55 23 28 58 29 -159 0
25 55 23 28 58 29 -158 0
25 55 23 28 58 29 -160 0
25 51 23 54 28 29 -154 0
25 51 23 54 28 29 -153 0
25 51 23 54 28 29 -156 0
25 51 23 54 28 29 -155 0
25 51 23 28 49 29 -154 0
25 51 23 28 49 29 -153 0
25 51 23 28 49 29 -156 0
25 51 23 28 49 29 -155 0
25 73 23 71 28 29 -166 0
25 73 23 71 28 29 -165 0
25 73 23 71 28 29 -168 0
25 73 23 71 28 29 -167 0
25 73 23 28 75 29 -166 0
25 73 23 28 75 29 -165 0
25 73 23 28 75 29 -168 0
25 73 23 28 75 29 -167 0
25 23 10 28 11 29 -85 0
25 23 10 28 11 29 -87 0
25 23 10 28 11 29 -86 0
25 23 10 28 11 29 -88 0
25 23 10 28 29 13 -85 0
25 23 10 28 29 13 -87 0
25 23 10 28 29 13 -86 0
25 23 10 28 29 13 -88 0
25 23 6 28 4 29 -27 0
25 23 6 28 4 29 -24 0
25 23 6 28 4 29 -30 0
25 23 6 28 4 29 -26 0
25 23 6 28 29 5 -27 0
25 23 6 28 29 5 -24 0
25 23 6 28 29 5 -30 0
25 23 6 28 29 5 -26 0
25 23 69 28 66 29 -164 0
25 23 69 28 66 29 -161 0
25 23 69 28 66 29 -162 0
25 23 69 28 66 29 -163 0
25 23 69 28 29 63 -164 0
25 23 69 28 29 63 -161 0
25 23 69 28 29 63 -162 0
25 23 69 28 29 63 -163 0
25 23 15 28 18 29 -118 0
25 23 15 28 18 29 -116 0
25 23 15 28 18 29 -115 0
25 23 15 28 18 29 -117 0
25 23 15 28 29 17 -118 0
25 23 15 28 29 17 -116 0
25 23 15 28 29 17 -115 0
25 23 15 28 29 17 -117 0
25 23 31 28 35 29 -145 0
25 23 31 28 35 29 -148 0
25 23 31 28 35 29 -146 0
25 23 31 28 35 29 -147 0
25 23 31 28 29 36 -145 0
25 23 31 28 29 36 -148 0
25 23 31 28 29 36 -146 0
25 23 31 28 29 36 -147 0
25 23 42 28 46 29 -152 0
25 23 42 28 46 29 -150 0
25 23 42 28 46 29 -149 0
25 23 42 28 46 29 -151 0
25 23 42 28 29 45 -152 0
25 23 42 28 29 45 -150 0
25 23 42 28 29 45 -149 0
25 23 42 28 29 45 -151 0
25 23 62 28 58 29 -157 0
25 23 62 28 58 29 -159 0
25 23 62 28 58 29 -158 0
25 23 62 28 58 29 -160 0
25 23 54 28 49 29 -154 0
25 23 54 28 49 29 -153 0
25 23 54 28 49 29 -156 0
25 23 54 28 49 29 -155 0
25 23 71 28 75 29 -166 0
25 23 71 28 75 29 -165 0
25 23 71 28 75 29 -168 0
25 23 71 28 75 29 -167 0
25 23 28 11 29 13 -85 0
25 23 28 11 29 13 -87 0
25 23 28 11 29 13 -86 0
25 23 28 11 29 13 -88 0
25 23 28 4 29 5 -27 0
25 23 28 4 29 5 -24 0
25 23 28 4 29 5 -30 0
25 23 28 4 29 5 -26 0
25 23 28 66 29 63 -164 0
25 23 28 66 29 63 -161 0
25 23 28 66 29 63 -162 0
25 23 28 66 29 63 -163 0
25 23 28 18 29 17 -118 0
25 23 28 18 29 17 -116 0
25 23 28 18 29 17 -115 0
25 23 28 18 29 17 -117 0
25 23 28 35 29 36 -145 0
25 23 28 35 29 36 -148 0
25 23 28 35 29 36 -146 0
25 23 28 35 29 36 -147 0
25 23 28 46 29 45 -152 0
25 23 28 46 29 45 -150 0
25 23 28 46 29 45 -149 0
25 23 28 46 29 45 -151 0
12 2 10 6 11 4 -14 0
12 2 10 6 11 4 -8 0
12 2 10 6 11 4 -7 0
12 2 10 6 11 4 -9 0
12 2 10 6 11 13 -14 0
12 2 10 6 11 13 -8 0
12 2 10 6 11 13 -7 0
12 2 10 6 11 13 -9 0
12 2 10 6 4 5 -14 0
12 2 10 6 4 5 -8 0
12 2 10 6 4 5 -7 0
12 2 10 6 4 5 -9 0
12 2 10 6 13 5 -14 0
12 2 10 6 13 5 -8 0
12 2 10 6 13 5 -7 0
12 2 10 6 13 5 -9 0
12 2 10 11 4 13 -14 0
12 2 10 11 4 13 -8 0
12 2 10 11 4 13 -7 0
12 2 10 11 4 13 -9 0
12 2 10 11 13 5 -14 0
12 2 10 11 13 5 -8 0
12 2 10 11 13 5 -7 0
12 2 10 11 13 5 -9 0
12 2 6 11 4 5 -14 0
12 2 6 11 4 5 -8 0
12 2 6 11 4 5 -7 0
12 2 6 11 4 5 -9 0
12 2 6 4 13 5 -14 0
12 2 6 4 13 5 -8 0
12 2 6 4 13 5 -7 0
12 2 6 4 13 5 -9 0
12 2 11 4 13 5 -14 0
12 2 11 4 13 5 -8 0
12 2 11 4 13 5 -7 0
12 2 11 4 13 5 -9 0
12 70 10 69 11 66 -107 0
12 70 10 69 11 66 -106 0
12 70 10 69 11 66 -105 0
12 70 10 69 11 66 -108 0
12 70 10 69 11 13 -107 0
12 70 10 69 11 13 -106 0
12 70 10 69 11 13 -105 0
12 70 10 69 11 13 -108 0
12 70 10 69 66 63 -107 0
12 70 10 69 66 63 -106 0
12 70 10 69 66 63 -105 0
12 70 10 69 66 63 -108 0
12 70 10 69 13 63 -107 0
12 70 10 69 13 63 -106 0
12 70 10 69 13 63 -105 0
12 70 10 69 13 63 -108 0
12 70 10 11 66 13 -107 0
12 70 10 11 66 13 -106 0
12 70 10 11 66 13 -105 0
12 70 10 11 66 13 -108 0
12 70 10 11 13 63 -107 0
12 70 10 11 13 63 -106 0
12 70 10 11 13 63 -105 0
12 70 10 11 13 63 -108 0
12 70 69 11 66 63 -107 0
12 70 69 11 66 63 -106 0
12 70 69 11 66 63 -105 0
12 70 69 11 66 63 -108 0
12 70 69 66 13 63 -107 0
12 70 69 66 13 63 -106 0
12 70 69 66 13 63 -105 0
12 70 69 66 13 63 -108 0
12 70 11 66 13 63 -107 0
12 70 11 66 13 63 -106 0
12 70 11 66 13 63 -105 0
12 70 11 66 13 63 -108 0
12 20 10 15 11 18 -83 0
12 20 10 15 11 18 -84 0
12 20 10 15 11 18 -82 0
12 20 10 15 11 18 -81 0
12 20 10 15 11 13 -83 0
12 20 10 15 11 13 -84 0
12 20 10 15 11 13 -82 0
12 20 10 15 11 13 -81 0
12 20 10 15 18 17 -83 0
12 20 10 15 18 17 -84 0
12 20 10 15 18 17 -82 0
12 20 10 15 18 17 -81 0
12 20 10 15 13 17 -83 0
12 20 10 15 13 17 -84 0
12 20 10 15 13 17 -82 0
12 20 10 15 13 17 -81 0
12 20 10 11 18 13 -83 0
12 20 10 11 18 13 -84 0
12 20 10 11 18 13 -82 0
12 20 10 11 18 13 -81 0
12 20 10 11 13 17 -83 0
12 20 10 11 13 17 -84 0
12 20 10 11 13 17 -82 0
12 20 10 11 13 17 -81 0
12 20 15 11 18 17 -83 0
12 20 15 11 18 17 -84 0
12 20 15 11 18 17 -82 0
12 20 15 11 18 17 -81 0
12 20 15 18 13 17 -83 0
12 20 15 18 13 17 -84 0
12 20 15 18 13 17 -82 0
12 20 15 18 13 17 -81 0
12 20 11 18 13 17 -83 0
12 20 11 18 13 17 -84 0
12 20 11 18 13 17 -82 0
12 20 11 18 13 17 -81 0
12 38 10 31 11 35 -89 0
12 38 10 31 11 35 -90 0
12 38 10 31 11 35 -91 0
12 38 10 31 11 35 -92 0
12 38 10 31 11 13 -89 0
12 38 10 31 11 13 -90 0
12 38 10 31 11 13 -91 0
12 38 10 31 11 13 -92 0
12 38 10 31 35 36 -89 0
12 38 10 31 35 36 -90 0
12 38 10 31 35 36 -91 0
12 38 10 31 35 36 -92 0
12 38 10 31 13 36 -89 0
12 38 10 31 13 36 -90 0
12 38 10 31 13 36 -91 0
12 38 10 31 13 36 -92 0
12 38 10 11 35 13 -89 0
12 38 10 11 35 13 -90 0
12 38 10 11 35 13 -91 0
12 38 10 11 35 13 -92 0
12 38 10 11 13 36 -89 0
12 38 10 11 13 36 -90 0
12 38 10 11 13 36 -91 0
12 38 10 11 13 36 -92 0
12 38 31 11 35 36 -89 0
12 38 31 11 35 36 -90 0
12 38 31 11 35 36 -91 0
12 38 31 11 35 36 -92 0
12 38 31 35 13 36 -89 0
12 38 31 35 13 36 -90 0
12 38 31 35 13 36 -91 0
12 38 31 35 13 36 -92 0
12 38 11 35 13 36 -89 0
12 38 11 35 13 36 -90 0
12 38 11 35 13 36 -91 0
12 38 11 35 13 36 -92 0
12 44 10 42 11 46 -93 0
12 44 10 42 11 46 -94 0
12 44 10 42 11 46 -95 0
12 44 10 42 11 46 -96 0
12 44 10 42 11 13 -93 0
12 44 10 42 11 13 -94 0
12 44 10 42 11 13 -95 0
12 44 10 42 11 13 -96 0
12 44 10 42 46 45 -93 0
12 44 10 42 46 45 -94 0
12 44 10 42 46 45 -95 0
12 44 10 42 46 45 -96 0
12 44 10 42 13 45 -93 0
12 44 10 42 13 45 -94 0
12 44 10 42 13 45 -95 0
12 44 10 42 13 45 -96 0
12 44 10 11 46 13 -93 0
12 44 10 11 46 13 -94 0
12 44 10 11 46 13 -95 0
12 44 10 11 46 13 -96 0
12 44 10 11 13 45 -93 0
12 44 10 11 13 45 -94 0
12 44 10 11 13 45 -95 0
12 44 10 11 13 45 -96 0
12 44 42 11 46 45 -93 0
12 44 42 11 46 45 -94 0
12 44 42 11 46 45 -95 0
12 44 42 11 46 45 -96 0
12 44 42 46 13 45 -93 0
12 44 42 46 13 45 -94 0
12 44 42 46 13 45 -95 0
12 44 42 46 13 45 -96 0
12 44 11 46 13 45 -93 0
12 44 11 46 13 45 -94 0
12 44 11 46 13 45 -95 0
12 44 11 46 13 45 -96 0
12 55 10 62 11 13 -101 0
12 55 10 62 11 13 -103 0
12 55 10 62 11 13 -102 0
12 55 10 62 11 13 -104 0
12 55 10 11 58 13 -101 0
12 55 10 11 58 13 -103 0
12 55 10 11 58 13 -102 0
12 55 10 11 58 13 -104 0
12 51 10 54 11 13 -98 0
12 51 10 54 11 13 -99 0
12 51 10 54 11 13 -100 0
12 51 10 54 11 13 -97 0
12 51 10 11 49 13 -98 0
12 51 10 11 49 13 -99 0
12 51 10 11 49 13 -100 0
12 51 10 11 49 13 -97 0
12 73 10 71 11 13 -109 0
12 73 10 71 11 13 -111 0
12 73 10 71 11 13 -110 0
12 73 10 71 11 13 -112 0
12 73 10 11 75 13 -109 0
12 73 10 11 75 13 -111 0
12 73 10 11 75 13 -110 0
12 73 10 11 75 13 -112 0
12 23 10 28 11 13 -85 0
12 23 10 28 11 13 -87 0
12 23 10 28 11 13 -86 0
12 23 10 28 11 13 -88 0
12 23 10 11 29 13 -85 0
12 23 10 11 29 13 -87 0
12 23 10 11 29 13 -86 0
12 23 10 11 29 13 -88 0
12 10 6 11 4 13 -14 0
12 10 6 11 4 13 -8 0
12 10 6 11 4 13 -7 0
12 10 6 11 4 13 -9 0
12 10 6 11 13 5 -14 0
12 10 6 11 13 5 -8 0
12 10 6 11 13 5 -7 0
12 10 6 11 13 5 -9 0
12 10 69 11 66 13 -107 0
12 10 69 11 66 13 -106 0
12 10 69 11 66 13 -105 0
12 10 69 11 66 13 -108 0
12 10 69 11 13 63 -107 0
12 10 69 11 13 63 -106 0
12 10 69 11 13 63 -105 0
12 10 69 11 13 63 -108 0
12 10 15 11 18 13 -83 0
12 10 15 11 18 13 -84 0
12 10 15 11 18 13 -82 0
12 10 15 11 18 13 -81 0
12 10 15 11 13 17 -83 0
12 10 15 11 13 17 -84 0
12 10 15 11 13 17 -82 0
12 10 15 11 13 17 -81 0
12 10 31 11 35 13 -89 0
12 10 31 11 35 13 -90 0
12 10 31 11 35 13 -91 0
12 10 31 11 35 13 -92 0
12 10 31 11 13 36 -89 0
12 10 31 11 13 36 -90 0
12 10 31 11 13 36 -91 0
12 10 31 11 13 36 -92 0
12 10 42 11 46 13 -93 0
12 10 42 11 46 13 -94 0
12 10 42 11 46 13 -95 0
12 10 42 11 46 13 -96 0
12 10 42 11 13 45 -93 0
12 10 42 11 13 45 -94 0
12 10 42 11 13 45 -95 0
12 10 42 11 13 45 -96 0
12 10 62 11 58 13 -101 0
12 10 62 11 58 13 -103 0
12 10 62 11 58 13 -102 0
12 10 62 11 58 13 -104 0
12 10 54 11 49 13 -98 0
12 10 54 11 49 13 -99 0
12 10 54 11 49 13 -100 0
12 10 54 11 49 13 -97 0
12 10 71 11 75 13 -109 0
12 10 71 11 75 13 -111 0
12 10 71 11 75 13 -110 0
12 10 71 11 75 13 -112 0
12 10 28 11 29 13 -85 0
12 10 28 11 29 13 -87 0
12 10 28 11 29 13 -86 0
12 10 28 11 29 13 -88 0
12 10 11 4 13 5 -14 0
12 10 11 4 13 5 -8 0
12 10 11 4 13 5 -7 0
12 10 11 4 13 5 -9 0
12 10 11 66 13 63 -107 0
12 10 11 66 13 63 -106 0
12 10 11 66 13 63 -105 0
12 10 11 66 13 63 -108 0
12 10 11 18 13 17 -83 0
12 10 11 18 13 17 -84 0
12 10 11 18 13 17 -82 0
12 10 11 18 13 17 -81 0
12 10 11 35 13 36 -89 0
12 10 11 35 13 36 -90 0
12 10 11 35 13 36 -91 0
12 10 11 35 13 36 -92 0
12 10 11 46 13 45 -93 0
12 10 11 46 13 45 -94 0
12 10 11 46 13 45 -95 0
12 10 11 46 13 45 -96 0
2 70 6 69 4 66 -64 0
2 70 6 69 4 66 -67 0
2 70 6 69 4 66 -68 0
2 70 6 69 4 66 -65 0
2 70 6 69 4 5 -64 0
2 70 6 69 4 5 -67 0
2 70 6 69 4 5 -68 0
2 70 6 69 4 5 -65 0
2 70 6 69 66 63 -64 0
2 70 6 69 66 63 -67 0
2 70 6 69 66 63 -68 0
2 70 6 69 66 63 -65 0
2 70 6 69 5 63 -64 0
2 70 6 69 5 63 -67 0
2 70 6 69 5 63 -68 0
2 70 6 69 5 63 -65 0
2 70 6 4 66 5 -64 0
2 70 6 4 66 5 -67 0
2 70 6 4 66 5 -68 0
2 70 6 4 66 5 -65 0
2 70 6 4 5 63 -64 0
2 70 6 4 5 63 -67 0
2 70 6 4 5 63 -68 0
2 70 6 4 5 63 -65 0
2 70 69 4 66 63 -64 0
2 70 69 4 66 63 -67 0
2 70 69 4 66 63 -68 0
2 70 69 4 66 63 -65 0
2 70 69 66 5 63 -64 0
2 70 69 66 5 63 -67 0
2 70 69 66 5 63 -68 0
2 70 69 66 5 63 -65 0
2 70 4 66 5 63 -64 0
2 70 4 66 5 63 -67 0
2 70 4 66 5 63 -68 0
2 70 4 66 5 63 -65 0
2 20 6 15 4 18 -19 0
2 20 6 15 4 18 -16 0
2 20 6 15 4 18 -21 0
2 20 6 15 4 18 -22 0
2 20 6 15 4 5 -19 0
2 20 6 15 4 5 -16 0
2 20 6 15 4 5 -21 0
2 20 6 15 4 5 -22 0
2 20 6 15 18 17 -19 0
2 20 6 15 18 17 -16 0
2 20 6 15 18 17 -21 0
2 20 6 15 18 17 -22 0
2 20 6 15 5 17 -19 0
2 20 6 15 5 17 -16 0
2 20 6 15 5 17 -21 0
2 20 6 15 5 17 -22 0
2 20 6 4 18 5 -19 0
2 20 6 4 18 5 -16 0
2 20 6 4 18 5 -21 0
2 20 6 4 18 5 -22 0
2 20 6 4 5 17 -19 0
2 20 6 4 5 17 -16 0
2 20 6 4 5 17 -21 0
2 20 6 4 5 17 -22 0
2 20 15 4 18 17 -19 0
2 20 15 4 18 17 -16 0
2 20 15 4 18 17 -21 0
2 20 15 4 18 17 -22 0
2 20 15 18 5 17 -19 0
2 20 15 18 5 17 -16 0
2 20 15 18 5 17 -21 0
2 20 15 18 5 17 -22 0
2 20 4 18 5 17 -19 0
2 20 4 18 5 17 -16 0
2 20 4 18 5 17 -21 0
2 20 4 18 5 17 -22 0
2 38 6 31 4 35 -37 0
2 38 6 31 4 35 -33 0
2 38 6 31 4 35 -32 0
2 38 6 31 4 35 -34 0
2 38 6 31 4 5 -37 0
2 38 6 31 4 5 -33 0
2 38 6 31 4 5 -32 0
2 38 6 31 4 5 -34 0
2 38 6 31 35 36 -37 0
2 38 6 31 35 36 -33 0
2 38 6 31 35 36 -32 0
2 38 6 31 35 36 -34 0
2 38 6 31 5 36 -37 0
2 38 6 31 5 36 -33 0
2 38 6 31 5 36 -32 0
2 38 6 31 5 36 -34 0
2 38 6 4 35 5 -37 0
2 38 6 4 35 5 -33 0
2 38 6 4 35 5 -32 0
2 38 6 4 35 5 -34 0
2 38 6 4 5 36 -37 0
2 38 6 4 5 36 -33 0
2 38 6 4 5 36 -32 0
2 38 6 4 5 36 -34 0
2 38 31 4 35 36 -37 0
2 38 31 4 35 36 -33 0
2 38 31 4 35 36 -32 0
2 38 31 4 35 36 -34 0
2 38 31 35 5 36 -37 0
2 38 31 35 5 36 -33 0
2 38 31 35 5 36 -32 0
2 38 31 35 5 36 -34 0
2 38 4 35 5 36 -37 0
2 38 4 35 5 36 -33 0
2 38 4 35 5 36 -32 0
2 38 4 35 5 36 -34 0
2 44 6 42 4 46 -39 0
2 44 6 42 4 46 -41 0
2 44 6 42 4 46 -43 0
2 44 6 42 4 46 -40 0
2 44 6 42 4 5 -39 0
2 44 6 42 4 5 -41 0
2 44 6 42 4 5 -43 0
2 44 6 42 4 5 -40 0
2 44 6 42 46 45 -39 0
2 44 6 42 46 45 -41 0
2 44 6 42 46 45 -43 0
2 44 6 42 46 45 -40 0
2 44 6 42 5 45 -39 0
2 44 6 42 5 45 -41 0
2 44 6 42 5 45 -43 0
2 44 6 42 5 45 -40 0
2 44 6 4 46 5 -39 0
2 44 6 4 46 5 -41 0
2 44 6 4 46 5 -43 0
2 44 6 4 46 5 -40 0
2 44 6 4 5 45 -39 0
2 44 6 4 5 45 -41 0
2 44 6 4 5 45 -43 0
2 44 6 4 5 45 -40 0
2 44 42 4 46 45 -39 0
2 44 42 4 46 45 -41 0
2 44 42 4 46 45 -43 0
2 44 42 4 46 45 -40 0
2 44 42 46 5 45 -39 0
2 44 42 46 5 45 -41 0
2 44 42 46 5 45 -43 0
2 44 42 46 5 45 -40 0
2 44 4 46 5 45 -39 0
2 44 4 46 5 45 -41 0
2 44 4 46 5 45 -43 0
2 44 4 46 5 45 -40 0
2 55 6 62 4 5 -61 0
2 55 6 62 4 5 -56 0
2 55 6 62 4 5 -59 0
2 55 6 62 4 5 -60 0
2 55 6 4 58 5 -61 0
2 55 6 4 58 5 -56 0
2 55 6 4 58 5 -59 0
2 55 6 4 58 5 -60 0
2 51 6 54 4 5 -48 0
2 51 6 54 4 5 -50 0
2 51 6 54 4 5 -52 0
2 51 6 54 4 5 -47 0
2 51 6 4 49 5 -48 0
2 51 6 4 49 5 -50 0
2 51 6 4 49 5 -52 0
2 51 6 4 49 5 -47 0
2 73 6 71 4 5 -76 0
2 73 6 71 4 5 -72 0
2 73 6 71 4 5 -77 0
2 73 6 71 4 5 -74 0
2 73 6 4 75 5 -76 0
2 73 6 4 75 5 -72 0
2 73 6 4 75 5 -77 0
2 73 6 4 75 5 -74 0
2 23 6 28 4 5 -27 0
2 23 6 28 4 5 -24 0
2 23 6 28 4 5 -30 0
2 23 6 28 4 5 -26 0
2 23 6 4 29 5 -27 0
2 23 6 4 29 5 -24 0
2 23 6 4 29 5 -30 0
2 23 6 4 29 5 -26 0
2 10 6 11 4 5 -14 0
2 10 6 11 4 5 -8 0
2 10 6 11 4 5 -7 0
2 10 6 11 4 5 -9 0
2 10 6 4 13 5 -14 0
2 10 6 4 13 5 -8 0
2 10 6 4 13 5 -7 0
2 10 6 4 13 5 -9 0
2 6 69 4 66 5 -64 0
2 6 69 4 66 5 -67 0
2 6 69 4 66 5 -68 0
2 6 69 4 66 5 -65 0
2 6 69 4 5 63 -64 0
2 6 69 4 5 63 -67 0
2 6 69 4 5 63 -68 0
2 6 69 4 5 63 -65 0
2 6 15 4 18 5 -19 0
2 6 15 4 18 5 -16 0
2 6 15 4 18 5 -21 0
2 6 15 4 18 5 -22 0
2 6 15 4 5 17 -19 0
2 6 15 4 5 17 -16 0
2 6 15 4 5 17 -21 0
2 6 15 4 5 17 -22 0
2 6 31 4 35 5 -37 0
2 6 31 4 35 5 -33 0
2 6 31 4 35 5 -32 0
2 6 31 4 35 5 -34 0
2 6 31 4 5 36 -37 0
2 6 31 4 5 36 -33 0
2 6 31 4 5 36 -32 0
2 6 31 4 5 36 -34 0
2 6 42 4 46 5 -39 0
2 6 42 4 46 5 -41 0
2 6 42 4 46 5 -43 0
2 6 42 4 46 5 -40 0
2 6 42 4 5 45 -39 0
2 6 42 4 5 45 -41 0
2 6 42 4 5 45 -43 0
2 6 42 4 5 45 -40 0
2 6 62 4 58 5 -61 0
2 6 62 4 58 5 -56 0
2 6 62 4 58 5 -59 0
2 6 62 4 58 5 -60 0
2 6 54 4 49 5 -48 0
2 6 54 4 49 5 -50 0
2 6 54 4 49 5 -52 0
2 6 54 4 49 5 -47 0
2 6 71 4 75 5 -76 0
2 6 71 4 75 5 -72 0
2 6 71 4 75 5 -77 0
2 6 71 4 75 5 -74 0
2 6 28 4 29 5 -27 0
2 6 28 4 29 5 -24 0
2 6 28 4 29 5 -30 0
2 6 28 4 29 5 -26 0
2 6 11 4 13 5 -14 0
2 6 11 4 13 5 -8 0
2 6 11 4 13 5 -7 0
2 6 11 4 13 5 -9 0
2 6 4 66 5 63 -64 0
2 6 4 66 5 63 -67 0
2 6 4 66 5 63 -68 0
2 6 4 66 5 63 -65 0
2 6 4 18 5 17 -19 0
2 6 4 18 5 17 -16 0
2 6 4 18 5 17 -21 0
2 6 4 18 5 17 -22 0
2 6 4 35 5 36 -37 0
2 6 4 35 5 36 -33 0
2 6 4 35 5 36 -32 0
2 6 4 35 5 36 -34 0
2 6 4 46 5 45 -39 0
2 6 4 46 5 45 -41 0
2 6 4 46 5 45 -43 0
2 6 4 46 5 45 -40 0
70 20 69 15 66 18 -136 0
70 20 69 15 66 18 -135 0
70 20 69 15 66 18 -137 0
70 20 69 15 66 18 -138 0
70 20 69 15 66 63 -136 0
70 20 69 15 66 63 -135 0
70 20 69 15 66 63 -137 0
70 20 69 15 66 63 -138 0
70 20 69 15 18 17 -136 0
70 20 69 15 18 17 -135 0
70 20 69 15 18 17 -137 0
70 20 69 15 18 17 -138 0
70 20 69 15 63 17 -136 0
70 20 69 15 63 17 -135 0
70 20 69 15 63 17 -137 0
70 20 69 15 63 17 -138 0
70 20 69 66 18 63 -136 0
70 20 69 66 18 63 -135 0
70 20 69 66 18 63 -137 0
70 20 69 66 18 63 -138 0
70 20 69 66 63 17 -136 0
70 20 69 66 63 17 -135 0
70 20 69 66 63 17 -137 0
70 20 69 66 63 17 -138 0
70 20 15 66 18 17 -136 0
70 20 15 66 18 17 -135 0
70 20 15 66 18 17 -137 0
70 20 15 66 18 17 -138 0
70 20 15 18 63 17 -136 0
70 20 15 18 63 17 -135 0
70 20 15 18 63 17 -137 0
70 20 15 18 63 17 -138 0
70 20 66 18 63 17 -136 0
70 20 66 18 63 17 -135 0
70 20 66 18 63 17 -137 0
70 20 66 18 63 17 -138 0
70 38 69 31 66 35 -183 0
70 38 69 31 66 35 -185 0
70 38 69 31 66 35 -186 0
70 38 69 31 66 35 -184 0
70 38 69 31 66 63 -183 0
70 38 69 31 66 63 -185 0
70 38 69 31 66 63 -186 0
70 38 69 31 66 63 -184 0
70 38 69 31 35 36 -183 0
70 38 69 31 35 36 -185 0
70 38 69 31 35 36 -186 0
70 38 69 31 35 36 -184 0
70 38 69 31 63 36 -183 0
70 38 69 31 63 36 -185 0
70 38 69 31 63 36 -186 0
70 38 69 31 63 36 -184 0
70 38 69 66 35 63 -183 0
70 38 69 66 35 63 -185 0
70 38 69 66 35 63 -186 0
70 38 69 66 35 63 -184 0
70 38 69 66 63 36 -183 0
70 38 69 66 63 36 -185 0
70 38 69 66 63 36 -186 0
70 38 69 66 63 36 -184 0
70 38 31 66 35 36 -183 0
70 38 31 66 35 36 -185 0
70 38 31 66 35 36 -186 0
70 38 31 66 35 36 -184 0
70 38 31 35 63 36 -183 0
70 38 31 35 63 36 -185 0
70 38 31 35 63 36 -186 0
70 38 31 35 63 36 -184 0
70 38 66 35 63 36 -183 0
70 38 66 35 63 36 -185 0
70 38 66 35 63 36 -186 0
70 38 66 35 63 36 -184 0
70 44 69 42 66 46 -202 0
70 44 69 42 66 46 -201 0
70 44 69 42 66 46 -204 0
70 44 69 42 66 46 -203 0
70 44 69 42 66 63 -202 0
70 44 69 42 66 63 -201 0
70 44 69 42 66 63 -204 0
70 44 69 42 66 63 -203 0
70 44 69 42 46 45 -202 0
70 44 69 42 46 45 -201 0
70 44 69 42 46 45 -204 0
70 44 69 42 46 45 -203 0
70 44 69 42 63 45 -202 0
70 44 69 42 63 45 -201 0
70 44 69 42 63 45 -204 0
70 44 69 42 63 45 -203 0
70 44 69 66 46 63 -202 0
70 44 69 66 46 63 -201 0
70 44 69 66 46 63 -204 0
70 44 69 66 46 63 -203 0
70 44 69 66 63 45 -202 0
70 44 69 66 63 45 -201 0
70 44 69 66 63 45 -204 0
70 44 69 66 63 45 -203 0
70 44 42 66 46 45 -202 0
70 44 42 66 46 45 -201 0
70 44 42 66 46 45 -204 0
70 44 42 66 46 45 -203 0
70 44 42 46 63 45 -202 0
70 44 42 46 63 45 -201 0
70 44 42 46 63 45 -204 0
70 44 42 46 63 45 -203 0
70 44 66 46 63 45 -202 0
70 44 66 46 63 45 -201 0
70 44 66 46 63 45 -204 0
70 44 66 46 63 45 -203 0
70 55 69 62 66 63 -227 0
70 55 69 62 66 63 -225 0
70 55 69 62 66 63 -228 0
70 55 69 62 66 63 -226 0
70 55 69 66 58 63 -227 0
70 55 69 66 58 63 -225 0
70 55 69 66 58 63 -228 0
70 55 69 66 58 63 -226 0
70 51 69 54 66 63 -218 0
70 51 69 54 66 63 -216 0
70 51 69 54 66 63 -215 0
70 51 69 54 66 63 -217 0
70 51 69 66 49 63 -218 0
70 51 69 66 49 63 -216 0
70 51 69 66 49 63 -215 0
70 51 69 66 49 63 -217 0
70 73 69 71 66 63 -238 0
70 73 69 71 66 63 -235 0
70 73 69 71 66 63 -236 0
70 73 69 71 66 63 -237 0
70 73 69 66 75 63 -238 0
70 73 69 66 75 63 -235 0
70 73 69 66 75 63 -236 0
70 73 69 66 75 63 -237 0
70 23 69 28 66 63 -164 0
70 23 69 28 66 63 -161 0
70 23 69 28 66 63 -162 0
70 23 69 28 66 63 -163 0
70 23 69 66 29 63 -164 0
70 23 69 66 29 63 -161 0
70 23 69 66 29 63 -162 0
70 23 69 66 29 63 -163 0
70 10 69 11 66 63 -107 0
70 10 69 11 66 63 -106 0
70 10 69 11 66 63 -105 0
70 10 69 11 66 63 -108 0
70 10 69 66 13 63 -107 0
70 10 69 66 13 63 -106 0
70 10 69 66 13 63 -105 0
70 10 69 66 13 63 -108 0
70 6 69 4 66 63 -64 0
70 6 69 4 66 63 -67 0
70 6 69 4 66 63 -68 0
70 6 69 4 66 63 -65 0
70 6 69 66 5 63 -64 0
70 6 69 66 5 63 -67 0
70 6 69 66 5 63 -68 0
70 6 69 66 5 63 -65 0
70 69 15 66 18 63 -136 0
70 69 15 66 18 63 -135 0
70 69 15 66 18 63 -137 0
70 69 15 66 18 63 -138 0
70 69 15 66 63 17 -136 0
70 69 15 66 63 17 -135 0
70 69 15 66 63 17 -137 0
70 69 15 66 63 17 -138 0
70 69 31 66 35 63 -183 0
70 69 31 66 35 63 -185 0
70 69 31 66 35 63 -186 0
70 69 31 66 35 63 -184 0
70 69 31 66 63 36 -183 0
70 69 31 66 63 36 -185 0
70 69 31 66 63 36 -186 0
70 69 31 66 63 36 -184 0
70 69 42 66 46 63 -202 0
70 69 42 66 46 63 -201 0
70 69 42 66 46 63 -204 0
70 69 42 66 46 63 -203 0
70 69 42 66 63 45 -202 0
70 69 42 66 63 45 -201 0
70 69 42 66 63 45 -204 0
70 69 42 66 63 45 -203 0
70 69 62 66 58 63 -227 0
70 69 62 66 58 63 -225 0
70 69 62 66 58 63 -228 0
70 69 62 66 58 63 -226 0
70 69 54 66 49 63 -218 0
70 69 54 66 49 63 -216 0
70 69 54 66 49 63 -215 0
70 69 54 66 49 63 -217 0
70 69 71 66 75 63 -238 0
70 69 71 66 75 63 -235 0
70 69 71 66 75 63 -236 0
70 69 71 66 75 63 -237 0
70 69 28 66 29 63 -164 0
70 69 28 66 29 63 -161 0
70 69 28 66 29 63 -162 0
70 69 28 66 29 63 -163 0
70 69 11 66 13 63 -107 0
70 69 11 66 13 63 -106 0
70 69 11 66 13 63 -105 0
70 69 11 66 13 63 -108 0
70 69 4 66 5 63 -64 0
70 69 4 66 5 63 -67 0
70 69 4 66 5 63 -68 0
70 69 4 66 5 63 -65 0
70 69 66 18 63 17 -136 0
70 69 66 18 63 17 -135 0
70 69 66 18 63 17 -137 0
70 69 66 18 63 17 -138 0
70 69 66 35 63 36 -183 0
70 69 66 35 63 36 -185 0
70 69 66 35 63 36 -186 0
70 69 66 35 63 36 -184 0
70 69 66 46 63 45 -202 0
70 69 66 46 63 45 -201 0
70 69 66 46 63 45 -204 0
70 69 66 46 63 45 -203 0
20 38 15 31 18 35 -121 0
20 38 15 31 18 35 -122 0
20 38 15 31 18 35 -120 0
20 38 15 31 18 35 -119 0
20 38 15 31 18 17 -121 0
20 38 15 31 18 17 -122 0
20 38 15 31 18 17 -120 0
20 38 15 31 18 17 -119 0
20 38 15 31 35 36 -121 0
20 38 15 31 35 36 -122 0
20 38 15 31 35 36 -120 0
20 38 15 31 35 36 -119 0
20 38 15 31 17 36 -121 0
20 38 15 31 17 36 -122 0
20 38 15 31 17 36 -120 0
20 38 15 31 17 36 -119 0
20 38 15 18 35 17 -121 0
20 38 15 18 35 17 -122 0
20 38 15 18 35 17 -120 0
20 38 15 18 35 17 -119 0
20 38 15 18 17 36 -121 0
20 38 15 18 17 36 -122 0
20 38 15 18 17 36 -120 0
20 38 15 18 17 36 -119 0
20 38 31 18 35 36 -121 0
20 38 31 18 35 36 -122 0
20 38 31 18 35 36 -120 0
20 38 31 18 35 36 -119 0
20 38 31 35 17 36 -121 0
20 38 31 35 17 36 -122 0
20 38 31 35 17 36 -120 0
20 38 31 35 17 36 -119 0
20 38 18 35 17 36 -121 0
20 38 18 35 17 36 -122 0
20 38 18 35 17 36 -120 0
20 38 18 35 17 36 -119 0
20 44 15 42 18 46 -124 0
20 44 15 42 18 46 -125 0
20 44 15 42 18 46 -123 0
20 44 15 42 18 46 -126 0
20 44 15 42 18 17 -124 0
20 44 15 42 18 17 -125 0
20 44 15 42 18 17 -123 0
20 44 15 42 18 17 -126 0
20 44 15 42 46 45 -124 0
20 44 15 42 46 45 -125 0
20 44 15 42 46 45 -123 0
20 44 15 42 46 45 -126 0
20 44 15 42 17 45 -124 0
20 44 15 42 17 45 -125 0
20 44 15 42 17 45 -123 0
20 44 15 42 17 45 -126 0
20 44 15 18 46 17 -124 0
20 44 15 18 46 17 -125 0
20 44 15 18 46 17 -123 0
20 44 15 18 46 17 -126 0
20 44 15 18 17 45 -124 0
20 44 15 18 17 45 -125 0
20 44 15 18 17 45 -123 0
20 44 15 18 17 45 -126 0
20 44 42 18 46 45 -124 0
20 44 42 18 46 45 -125 0
20 44 42 18 46 45 -123 0
20 44 42 18 46 45 -126 0
20 44 42 46 17 45 -124 0
20 44 42 46 17 45 -125 0
20 44 42 46 17 45 -123 0
20 44 42 46 17 45 -126 0
20 44 18 46 17 45 -124 0
20 44 18 46 17 45 -125 0
20 44 18 46 17 45 -123 0
20 44 18 46 17 45 -126 0
20 55 15 62 18 17 -132 0
20 55 15 62 18 17 -131 0
20 55 15 62 18 17 -134 0
20 55 15 62 18 17 -133 0
20 55 15 18 58 17 -132 0
20 55 15 18 58 17 -131 0
20 55 15 18 58 17 -134 0
20 55 15 18 58 17 -133 0
20 51 15 54 18 17 -129 0
20 51 15 54 18 17 -128 0
20 51 15 54 18 17 -127 0
20 51 15 54 18 17 -130 0
20 51 15 18 49 17 -129 0
20 51 15 18 49 17 -128 0
20 51 15 18 49 17 -127 0
20 51 15 18 49 17 -130 0
20 73 15 71 18 17 -140 0
20 73 15 71 18 17 -142 0
20 73 15 71 18 17 -141 0
20 73 15 71 18 17 -139 0
20 73 15 18 75 17 -140 0
20 73 15 18 75 17 -142 0
20 73 15 18 75 17 -141 0
20 73 15 18 75 17 -139 0
20 23 15 28 18 17 -118 0
20 23 15 28 18 17 -116 0
20 23 15 28 18 17 -115 0
20 23 15 28 18 17 -117 0
20 23 15 18 29 17 -118 0
20 23 15 18 29 17 -116 0
20 23 15 18 29 17 -115 0
20 23 15 18 29 17 -117 0
20 10 15 11 18 17 -83 0
20 10 15 11 18 17 -84 0
20 10 15 11 18 17 -82 0
20 10 15 11 18 17 -81 0
20 10 15 18 13 17 -83 0
20 10 15 18 13 17 -84 0
20 10 15 18 13 17 -82 0
20 10 15 18 13 17 -81 0
20 6 15 4 18 17 -19 0
20 6 15 4 18 17 -16 0
20 6 15 4 18 17 -21 0
20 6 15 4 18 17 -22 0
20 6 15 18 5 17 -19 0
20 6 15 18 5 17 -16 0
20 6 15 18 5 17 -21 0
20 6 15 18 5 17 -22 0
20 69 15 66 18 17 -136 0
20 69 15 66 18 17 -135 0
20 69 15 66 18 17 -137 0
20 69 15 66 18 17 -138 0
20 69 15 18 63 17 -136 0
20 69 15 18 63 17 -135 0
20 69 15 18 63 17 -137 0
20 69 15 18 63 17 -138 0
20 15 31 18 35 17 -121 0
20 15 31 18 35 17 -122 0
20 15 31 18 35 17 -120 0
20 15 31 18 35 17 -119 0
20 15 31 18 17 36 -121 0
20 15 31 18 17 36 -122 0
20 15 31 18 17 36 -120 0
20 15 31 18 17 36 -119 0
20 15 42 18 46 17 -124 0
20 15 42 18 46 17 -125 0
20 15 42 18 46 17 -123 0
20 15 42 18 46 17 -126 0
20 15 42 18 17 45 -124 0
20 15 42 18 17 45 -125 0
20 15 42 18 17 45 -123 0
20 15 42 18 17 45 -126 0
20 15 62 18 58 17 -132 0
20 15 62 18 58 17 -131 0
20 15 62 18 58 17 -134 0
20 15 62 18 58 17 -133 0
20 15 54 18 49 17 -129 0
20 15 54 18 49 17 -128 0
20 15 54 18 49 17 -127 0
20 15 54 18 49 17 -130 0
20 15 71 18 75 17 -140 0
20 15 71 18 75 17 -142 0
20 15 71 18 75 17 -141 0
20 15 71 18 75 17 -139 0
20 15 28 18 29 17 -118 0
20 15 28 18 29 17 -116 0
20 15 28 18 29 17 -115 0
20 15 28 18 29 17 -117 0
20 15 11 18 13 17 -83 0
20 15 11 18 13 17 -84 0
20 15 11 18 13 17 -82 0
20 15 11 18 13 17 -81 0
20 15 4 18 5 17 -19 0
20 15 4 18 5 17 -16 0
20 15 4 18 5 17 -21 0
20 15 4 18 5 17 -22 0
20 15 66 18 63 17 -136 0
20 15 66 18 63 17 -135 0
20 15 66 18 63 17 -137 0
20 15 66 18 63 17 -138 0
20 15 18 35 17 36 -121 0
20 15 18 35 17 36 -122 0
20 15 18 35 17 36 -120 0
20 15 18 35 17 36 -119 0
20 15 18 46 17 45 -124 0
20 15 18 46 17 45 -125 0
20 15 18 46 17 45 -123 0
20 15 18 46 17 45 -126 0
38 44 31 42 35 46 -171 0
38 44 31 42 35 46 -174 0
38 44 31 42 35 46 -173 0
38 44 31 42 35 46 -172 0
38 44 31 42 35 36 -171 0
38 44 31 42 35 36 -174 0
38 44 31 42 35 36 -173 0
38 44 31 42 35 36 -172 0
38 44 31 42 46 45 -171 0
38 44 31 42 46 45 -174 0
38 44 31 42 46 45 -173 0
38 44 31 42 46 45 -172 0
38 44 31 42 36 45 -171 0
38 44 31 42 36 45 -174 0
38 44 31 42 36 45 -173 0
38 44 31 42 36 45 -172 0
38 44 31 35 46 36 -171 0
38 44 31 35 46 36 -174 0
38 44 31 35 46 36 -173 0
38 44 31 35 46 36 -172 0
38 44 31 35 36 45 -171 0
38 44 31 35 36 45 -174 0
38 44 31 35 36 45 -173 0
38 44 31 35 36 45 -172 0
38 44 42 35 46 45 -171 0
38 44 42 35 46 45 -174 0
38 44 42 35 46 45 -173 0
38 44 42 35 46 45 -172 0
38 44 42 46 36 45 -171 0
38 44 42 46 36 45 -174 0
38 44 42 46 36 45 -173 0
38 44 42 46 36 45 -172 0
38 44 35 46 36 45 -171 0
38 44 35 46 36 45 -174 0
38 44 35 46 36 45 -173 0
38 44 35 46 36 45 -172 0
38 55 31 62 35 36 -182 0
38 55 31 62 35 36 -181 0
38 55 31 62 35 36 -179 0
38 55 31 62 35 36 -180 0
38 55 31 35 58 36 -182 0
38 55 31 35 58 36 -181 0
38 55 31 35 58 36 -179 0
38 55 31 35 58 36 -180 0
38 51 31 54 35 36 -177 0
38 51 31 54 35 36 -176 0
38 51 31 54 35 36 -175 0
38 51 31 54 35 36 -178 0
38 51 31 35 49 36 -177 0
38 51 31 35 49 36 -176 0
38 51 31 35 49 36 -175 0
38 51 31 35 49 36 -178 0
38 73 31 71 35 36 -188 0
38 73 31 71 35 36 -189 0
38 73 31 71 35 36 -190 0
38 73 31 71 35 36 -187 0
38 73 31 35 75 36 -188 0
38 73 31 35 75 36 -189 0
38 73 31 35 75 36 -190 0
38 73 31 35 75 36 -187 0
38 23 31 28 35 36 -145 0
38 23 31 28 35 36 -148 0
38 23 31 28 35 36 -146 0
38 23 31 28 35 36 -147 0
38 23 31 35 29 36 -145 0
38 23 31 35 29 36 -148 0
38 23 31 35 29 36 -146 0
38 23 31 35 29 36 -147 0
38 10 31 11 35 36 -89 0
38 10 31 11 35 36 -90 0
38 10 31 11 35 36 -91 0
38 10 31 11 35 36 -92 0
38 10 31 35 13 36 -89 0
38 10 31 35 13 36 -90 0
38 10 31 35 13 36 -91 0
38 10 31 35 13 36 -92 0
38 6 31 4 35 36 -37 0
38 6 31 4 35 36 -33 0
38 6 31 4 35 36 -32 0
38 6 31 4 35 36 -34 0
38 6 31 35 5 36 -37 0
38 6 31 35 5 36 -33 0
38 6 31 35 5 36 -32 0
38 6 31 35 5 36 -34 0
38 69 31 66 35 36 -183 0
38 69 31 66 35 36 -185 0
38 69 31 66 35 36 -186 0
38 69 31 66 35 36 -184 0
38 69 31 35 63 36 -183 0
38 69 31 35 63 36 -185 0
38 69 31 35 63 36 -186 0
38 69 31 35 63 36 -184 0
38 15 31 18 35 36 -121 0
38 15 31 18 35 36 -122 0
38 15 31 18 35 36 -120 0
38 15 31 18 35 36 -119 0
38 15 31 35 17 36 -121 0
38 15 31 35 17 36 -122 0
38 15 31 35 17 36 -120 0
38 15 31 35 17 36 -119 0
38 31 42 35 46 36 -171 0
38 31 42 35 46 36 -174 0
38 31 42 35 46 36 -173 0
38 31 42 35 46 36 -172 0
38 31 42 35 36 45 -171 0
38 31 42 35 36 45 -174 0
38 31 42 35 36 45 -173 0
38 31 42 35 36 45 -172 0
38 31 62 35 58 36 -182 0
38 31 62 35 58 36 -181 0
38 31 62 35 58 36 -179 0
38 31 62 35 58 36 -180 0
38 31 54 35 49 36 -177 0
38 31 54 35 49 36 -176 0
38 31 54 35 49 36 -175 0
38 31 54 35 49 36 -178 0
38 31 71 35 75 36 -188 0
38 31 71 35 75 36 -189 0
38 31 71 35 75 36 -190 0
38 31 71 35 75 36 -187 0
38 31 28 35 29 36 -145 0
38 31 28 35 29 36 -148 0
38 31 28 35 29 36 -146 0
38 31 28 35 29 36 -147 0
38 31 11 35 13 36 -89 0
38 31 11 35 13 36 -90 0
38 31 11 35 13 36 -91 0
38 31 11 35 13 36 -92 0
38 31 4 35 5 36 -37 0
38 31 4 35 5 36 -33 0
38 31 4 35 5 36 -32 0
38 31 4 35 5 36 -34 0
38 31 66 35 63 36 -183 0
38 31 66 35 63 36 -185 0
38 31 66 35 63 36 -186 0
38 31 66 35 63 36 -184 0
38 31 18 35 17 36 -121 0
38 31 18 35 17 36 -122 0
38 31 18 35 17 36 -120 0
38 31 18 35 17 36 -119 0
38 31 35 46 36 45 -171 0
38 31 35 46 36 45 -174 0
38 31 35 46 36 45 -173 0
38 31 35 46 36 45 -172 0
44 55 42 62 46 45 -200 0
44 55 42 62 46 45 -198 0
44 55 42 62 46 45 -197 0
44 55 42 62 46 45 -199 0
44 55 42 46 58 45 -200 0
44 55 42 46 58 45 -198 0
44 55 42 46 58 45 -197 0
44 55 42 46 58 45 -199 0
44 51 42 54 46 45 -194 0
44 51 42 54 46 45 -196 0
44 51 42 54 46 45 -195 0
44 51 42 54 46 45 -193 0
44 51 42 46 49 45 -194 0
44 51 42 46 49 45 -196 0
44 51 42 46 49 45 -195 0
44 51 42 46 49 45 -193 0
44 73 42 71 46 45 -208 0
44 73 42 71 46 45 -206 0
44 73 42 71 46 45 -205 0
44 73 42 71 46 45 -207 0
44 73 42 46 75 45 -208 0
44 73 42 46 75 45 -206 0
44 73 42 46 75 45 -205 0
44 73 42 46 75 45 -207 0
44 23 42 28 46 45 -152 0
44 23 42 28 46 45 -150 0
44 23 42 28 46 45 -149 0
44 23 42 28 46 45 -151 0
44 23 42 46 29 45 -152 0
44 23 42 46 29 45 -150 0
44 23 42 46 29 45 -149 0
44 23 42 46 29 45 -151 0
44 10 42 11 46 45 -93 0
44 10 42 11 46 45 -94 0
44 10 42 11 46 45 -95 0
44 10 42 11 46 45 -96 0
44 10 42 46 13 45 -93 0
44 10 42 46 13 45 -94 0
44 10 42 46 13 45 -95 0
44 10 42 46 13 45 -96 0
44 6 42 4 46 45 -39 0
44 6 42 4 46 45 -41 0
44 6 42 4 46 45 -43 0
44 6 42 4 46 45 -40 0
44 6 42 46 5 45 -39 0
44 6 42 46 5 45 -41 0
44 6 42 46 5 45 -43 0
44 6 42 46 5 45 -40 0
44 69 42 66 46 45 -202 0
44 69 42 66 46 45 -201 0
44 69 42 66 46 45 -204 0
44 69 42 66 46 45 -203 0
44 69 42 46 63 45 -202 0
44 69 42 46 63 45 -201 0
44 69 42 46 63 45 -204 0
44 69 42 46 63 45 -203 0
44 15 42 18 46 45 -124 0
44 15 42 18 46 45 -125 0
44 15 42 18 46 45 -123 0
44 15 42 18 46 45 -126 0
44 15 42 46 17 45 -124 0
44 15 42 46 17 45 -125 0
44 15 42 46 17 45 -123 0
44 15 42 46 17 45 -126 0
44 31 42 35 46 45 -171 0
44 31 42 35 46 45 -174 0
44 31 42 35 46 45 -173 0
44 31 42 35 46 45 -172 0
44 31 42 46 36 45 -171 0
44 31 42 46 36 45 -174 0
44 31 42 46 36 45 -173 0
44 31 42 46 36 45 -172 0
44 42 62 46 58 45 -200 0
44 42 62 46 58 45 -198 0
44 42 62 46 58 45 -197 0
44 42 62 46 58 45 -199 0
44 42 54 46 49 45 -194 0
44 42 54 46 49 45 -196 0
44 42 54 46 49 45 -195 0
44 42 54 46 49 45 -193 0
44 42 71 46 75 45 -208 0
44 42 71 46 75 45 -206 0
44 42 71 46 75 45 -205 0
44 42 71 46 75 45 -207 0
44 42 28 46 29 45 -152 0
44 42 28 46 29 45 -150 0
44 42 28 46 29 45 -149 0
44 42 28 46 29 45 -151 0
44 42 11 46 13 45 -93 0
44 42 11 46 13 45 -94 0
44 42 11 46 13 45 -95 0
44 42 11 46 13 45 -96 0
44 42 4 46 5 45 -39 0
44 42 4 46 5 45 -41 0
44 42 4 46 5 45 -43 0
44 42 4 46 5 45 -40 0
44 42 66 46 63 45 -202 0
44 42 66 46 63 45 -201 0
44 42 66 46 63 45 -204 0
44 42 66 46 63 45 -203 0
44 42 18 46 17 45 -124 0
44 42 18 46 17 45 -125 0
44 42 18 46 17 45 -123 0
44 42 18 46 17 45 -126 0
44 42 35 46 36 45 -171 0
44 42 35 46 36 45 -174 0
44 42 35 46 36 45 -173 0
44 42 35 46 36 45 -172 0
55 51 62 54 58 49 -213 0
55 51 62 54 58 49 -212 0
55 51 62 54 58 49 -214 0
55 51 62 54 58 49 -211 0
55 73 62 71 58 75 -229 0
55 73 62 71 58 75 -231 0
55 73 62 71 58 75 -230 0
55 73 62 71 58 75 -232 0
55 23 62 28 58 29 -157 0
55 23 62 28 58 29 -159 0
55 23 62 28 58 29 -158 0
55 23 62 28 58 29 -160 0
55 10 62 11 58 13 -101 0
55 10 62 11 58 13 -103 0
55 10 62 11 58 13 -102 0
55 10 62 11 58 13 -104 0
55 6 62 4 58 5 -61 0
55 6 62 4 58 5 -56 0
55 6 62 4 58 5 -59 0
55 6 62 4 58 5 -60 0
55 69 62 66 58 63 -227 0
55 69 62 66 58 63 -225 0
55 69 62 66 58 63 -228 0
55 69 62 66 58 63 -226 0
55 15 62 18 58 17 -132 0
55 15 62 18 58 17 -131 0
55 15 62 18 58 17 -134 0
55 15 62 18 58 17 -133 0
55 31 62 35 58 36 -182 0
55 31 62 35 58 36 -181 0
55 31 62 35 58 36 -179 0
55 31 62 35 58 36 -180 0
55 42 62 46 58 45 -200 0
55 42 62 46 58 45 -198 0
55 42 62 46 58 45 -197 0
55 42 62 46 58 45 -199 0
51 73 54 71 49 75 -221 0
51 73 54 71 49 75 -220 0
51 73 54 71 49 75 -222 0
51 73 54 71 49 75 -219 0
51 23 54 28 49 29 -154 0
51 23 54 28 49 29 -153 0
51 23 54 28 49 29 -156 0
51 23 54 28 49 29 -155 0
51 10 54 11 49 13 -98 0
51 10 54 11 49 13 -99 0
51 10 54 11 49 13 -100 0
51 10 54 11 49 13 -97 0
51 6 54 4 49 5 -48 0
51 6 54 4 49 5 -50 0
51 6 54 4 49 5 -52 0
51 6 54 4 49 5 -47 0
51 69 54 66 49 63 -218 0
51 69 54 66 49 63 -216 0
51 69 54 66 49 63 -215 0
51 69 54 66 49 63 -217 0
51 15 54 18 49 17 -129 0
51 15 54 18 49 17 -128 0
51 15 54 18 49 17 -127 0
51 15 54 18 49 17 -130 0
51 31 54 35 49 36 -177 0
51 31 54 35 49 36 -176 0
51 31 54 35 49 36 -175 0
51 31 54 35 49 36 -178 0
51 42 54 46 49 45 -194 0
51 42 54 46 49 45 -196 0
51 42 54 46 49 45 -195 0
51 42 54 46 49 45 -193 0
73 23 71 28 75 29 -166 0
73 23 71 28 75 29 -165 0
73 23 71 28 75 29 -168 0
73 23 71 28 75 29 -167 0
73 10 71 11 75 13 -109 0
73 10 71 11 75 13 -111 0
73 10 71 11 75 13 -110 0
73 10 71 11 75 13 -112 0
73 6 71 4 75 5 -76 0
73 6 71 4 75 5 -72 0
73 6 71 4 75 5 -77 0
73 6 71 4 75 5 -74 0
73 69 71 66 75 63 -238 0
73 69 71 66 75 63 -235 0
73 69 71 66 75 63 -236 0
73 69 71 66 75 63 -237 0
73 15 71 18 75 17 -140 0
73 15 71 18 75 17 -142 0
73 15 71 18 75 17 -141 0
73 15 71 18 75 17 -139 0
73 31 71 35 75 36 -188 0
73 31 71 35 75 36 -189 0
73 31 71 35 75 36 -190 0
73 31 71 35 75 36 -187 0
73 42 71 46 75 45 -208 0
73 42 71 46 75 45 -206 0
73 42 71 46 75 45 -205 0
73 42 71 46 75 45 -207 0
23 10 28 11 29 13 -85 0
23 10 28 11 29 13 -87 0
23 10 28 11 29 13 -86 0
23 10 28 11 29 13 -88 0
23 6 28 4 29 5 -27 0
23 6 28 4 29 5 -24 0
23 6 28 4 29 5 -30 0
23 6 28 4 29 5 -26 0
23 69 28 66 29 63 -164 0
23 69 28 66 29 63 -161 0
23 69 28 66 29 63 -162 0
23 69 28 66 29 63 -163 0
23 15 28 18 29 17 -118 0
23 15 28 18 29 17 -116 0
23 15 28 18 29 17 -115 0
23 15 28 18 29 17 -117 0
23 31 28 35 29 36 -145 0
23 31 28 35 29 36 -148 0
23 31 28 35 29 36 -146 0
23 31 28 35 29 36 -147 0
23 42 28 46 29 45 -152 0
23 42 28 46 29 45 -150 0
23 42 28 46 29 45 -149 0
23 42 28 46 29 45 -151 0
10 6 11 4 13 5 -14 0
10 6 11 4 13 5 -8 0
10 6 11 4 13 5 -7 0
10 6 11 4 13 5 -9 0
10 69 11 66 13 63 -107 0
10 69 11 66 13 63 -106 0
10 69 11 66 13 63 -105 0
10 69 11 66 13 63 -108 0
10 15 11 18 13 17 -83 0
10 15 11 18 13 17 -84 0
10 15 11 18 13 17 -82 0
10 15 11 18 13 17 -81 0
10 31 11 35 13 36 -89 0
10 31 11 35 13 36 -90 0
10 31 11 35 13 36 -91 0
10 31 11 35 13 36 -92 0
10 42 11 46 13 45 -93 0
10 42 11 46 13 45 -94 0
10 42 11 46 13 45 -95 0
10 42 11 46 13 45 -96 0
6 69 4 66 5 63 -64 0
6 69 4 66 5 63 -67 0
6 69 4 66 5 63 -68 0
6 69 4 66 5 63 -65 0
6 15 4 18 5 17 -19 0
6 15 4 18 5 17 -16 0
6 15 4 18 5 17 -21 0
6 15 4 18 5 17 -22 0
6 31 4 35 5 36 -37 0
6 31 4 35 5 36 -33 0
6 31 4 35 5 36 -32 0
6 31 4 35 5 36 -34 0
6 42 4 46 5 45 -39 0
6 42 4 46 5 45 -41 0
6 42 4 46 5 45 -43 0
6 42 4 46 5 45 -40 0
69 15 66 18 63 17 -136 0
69 15 66 18 63 17 -135 0
69 15 66 18 63 17 -137 0
69 15 66 18 63 17 -138 0
69 31 66 35 63 36 -183 0
69 31 66 35 63 36 -185 0
69 31 66 35 63 36 -186 0
69 31 66 35 63 36 -184 0
69 42 66 46 63 45 -202 0
69 42 66 46 63 45 -201 0
69 42 66 46 63 45 -204 0
69 42 66 46 63 45 -203 0
15 31 18 35 17 36 -121 0
15 31 18 35 17 36 -122 0
15 31 18 35 17 36 -120 0
15 31 18 35 17 36 -119 0
15 42 18 46 17 45 -124 0
15 42 18 46 17 45 -125 0
15 42 18 46 17 45 -123 0
15 42 18 46 17 45 -126 0
31 42 35 46 36 45 -171 0
31 42 35 46 36 45 -174 0
31 42 35 46 36 45 -173 0
31 42 35 46 36 45 -172 0
57 53 55 51 62 54 58 -213 0
57 53 55 51 62 54 58 -212 0
57 53 55 51 62 54 58 -214 0
57 53 55 51 62 54 58 -211 0
57 53 55 51 62 54 49 -213 0
57 53 55 51 62 54 49 -212 0
57 53 55 51 62 54 49 -214 0
57 53 55 51 62 54 49 -211 0
57 53 55 51 62 58 49 -213 0
57 53 55 51 62 58 49 -212 0
57 53 55 51 62 58 49 -214 0
57 53 55 51 62 58 49 -211 0
57 53 55 51 54 58 49 -213 0
57 53 55 51 54 58 49 -212 0
57 53 55 51 54 58 49 -214 0
57 53 55 51 54 58 49 -211 0
57 53 55 62 54 58 49 -213 0
57 53 55 62 54 58 49 -212 0
57 53 55 62 54 58 49 -214 0
57 53 55 62 54 58 49 -211 0
57 53 51 62 54 58 49 -213 0
57 53 51 62 54 58 49 -212 0
57 53 51 62 54 58 49 -214 0
57 53 51 62 54 58 49 -211 0
57 78 55 73 62 71 58 -229 0
57 78 55 73 62 71 58 -231 0
57 78 55 73 62 71 58 -230 0
57 78 55 73 62 71 58 -232 0
57 78 55 73 62 71 75 -229 0
57 78 55 73 62 71 75 -231 0
57 78 55 73 62 71 75 -230 0
57 78 55 73 62 71 75 -232 0
57 78 55 73 62 58 75 -229 0
57 78 55 73 62 58 75 -231 0
57 78 55 73 62 58 75 -230 0
57 78 55 73 62 58 75 -232 0
57 78 55 73 71 58 75 -229 0
57 78 55 73 71 58 75 -231 0
57 78 55 73 71 58 75 -230 0
57 78 55 73 71 58 75 -232 0
57 78 55 62 71 58 75 -229 0
57 78 55 62 71 58 75 -231 0
57 78 55 62 71 58 75 -230 0
57 78 55 62 71 58 75 -232 0
57 78 73 62 71 58 75 -229 0
57 78 73 62 71 58 75 -231 0
57 78 73 62 71 58 75 -230 0
57 78 73 62 71 58 75 -232 0
57 25 55 23 62 28 58 -157 0
57 25 55 23 62 28 58 -159 0
57 25 55 23 62 28 58 -158 0
57 25 55 23 62 28 58 -160 0
57 25 55 23 62 28 29 -157 0
57 25 55 23 62 28 29 -159 0
57 25 55 23 62 28 29 -158 0
57 25 55 23 62 28 29 -160 0
57 25 55 23 62 58 29 -157 0
57 25 55 23 62 58 29 -159 0
57 25 55 23 62 58 29 -158 0
57 25 55 23 62 58 29 -160 0
57 25 55 23 28 58 29 -157 0
57 25 55 23 28 58 29 -159 0
57 25 55 23 28 58 29 -158 0
57 25 55 23 28 58 29 -160 0
57 25 55 62 28 58 29 -157 0
57 25 55 62 28 58 29 -159 0
57 25 55 62 28 58 29 -158 0
57 25 55 62 28 58 29 -160 0
57 25 23 62 28 58 29 -157 0
57 25 23 62 28 58 29 -159 0
57 25 23 62 28 58 29 -158 0
57 25 23 62 28 58 29 -160 0
57 12 55 10 62 11 58 -101 0
57 12 55 10 62 11 58 -103 0
57 12 55 10 62 11 58 -102 0
57 12 55 10 62 11 58 -104 0
57 12 55 10 62 11 13 -101 0
57 12 55 10 62 11 13 -103 0
57 12 55 10 62 11 13 -102 0
57 12 55 10 62 11 13 -104 0
57 12 55 10 62 58 13 -101 0
57 12 55 10 62 58 13 -103 0
57 12 55 10 62 58 13 -102 0
57 12 55 10 62 58 13 -104 0
57 12 55 10 11 58 13 -101 0
57 12 55 10 11 58 13 -103 0
57 12 55 10 11 58 13 -102 0
57 12 55 10 11 58 13 -104 0
57 12 55 62 11 58 13 -101 0
57 12 55 62 11 58 13 -103 0
57 12 55 62 11 58 13 -102 0
57 12 55 62 11 58 13 -104 0
57 12 10 62 11 58 13 -101 0
57 12 10 62 11 58 13 -103 0
57 12 10 62 11 58 13 -102 0
57 12 10 62 11 58 13 -104 0
57 2 55 6 62 4 58 -61 0
57 2 55 6 62 4 58 -56 0
57 2 55 6 62 4 58 -59 0
57 2 55 6 62 4 58 -60 0
57 2 55 6 62 4 5 -61 0
57 2 55 6 62 4 5 -56 0
57 2 55 6 62 4 5 -59 0
57 2 55 6 62 4 5 -60 0
57 2 55 6 62 58 5 -61 0
57 2 55 6 62 58 5 -56 0
57 2 55 6 62 58 5 -59 0
57 2 55 6 62 58 5 -60 0
57 2 55 6 4 58 5 -61 0
57 2 55 6 4 58 5 -56 0
57 2 55 6 4 58 5 -59 0
57 2 55 6 4 58 5 -60 0
57 2 55 62 4 58 5 -61 0
57 2 55 62 4 58 5 -56 0
57 2 55 62 4 58 5 -59 0
57 2 55 62 4 58 5 -60 0
57 2 6 62 4 58 5 -61 0
57 2 6 62 4 58 5 -56 0
57 2 6 62 4 58 5 -59 0
57 2 6 62 4 58 5 -60 0
57 70 55 69 62 66 58 -227 0
57 70 55 69 62 66 58 -225 0
57 70 55 69 62 66 58 -228 0
57 70 55 69 62 66 58 -226 0
57 70 55 69 62 66 63 -227 0
57 70 55 69 62 66 63 -225 0
57 70 55 69 62 66 63 -228 0
57 70 55 69 62 66 63 -226 0
57 70 55 69 62 58 63 -227 0
57 70 55 69 62 58 63 -225 0
57 70 55 69 62 58 63 -228 0
57 70 55 69 62 58 63 -226 0
57 70 55 69 66 58 63 -227 0
57 70 55 69 66 58 63 -225 0
57 70 55 69 66 58 63 -228 0
57 70 55 69 66 58 63 -226 0
57 70 55 62 66 58 63 -227 0
57 70 55 62 66 58 63 -225 0
57 70 55 62 66 58 63 -228 0
57 70 55 62 66 58 63 -226 0
57 70 69 62 66 58 63 -227 0
57 70 69 62 66 58 63 -225 0
57 70 69 62 66 58 63 -228 0
57 70 69 62 66 58 63 -226 0
57 20 55 15 62 18 58 -132 0
57 20 55 15 62 18 58 -131 0
57 20 55 15 62 18 58 -134 0
57 20 55 15 62 18 58 -133 0
57 20 55 15 62 18 17 -132 0
57 20 55 15 62 18 17 -131 0
57 20 55 15 62 18 17 -134 0
57 20 55 15 62 18 17 -133 0
57 20 55 15 62 58 17 -132 0
57 20 55 15 62 58 17 -131 0
57 20 55 15 62 58 17 -134 0
57 20 55 15 62 58 17 -133 0
57 20 55 15 18 58 17 -132 0
57 20 55 15 18 58 17 -131 0
57 20 55 15 18 58 17 -134 0
57 20 55 15 18 58 17 -133 0
57 20 55 62 18 58 17 -132 0
57 20 55 62 18 58 17 -131 0
57 20 55 62 18 58 17 -134 0
57 20 55 62 18 58 17 -133 0
57 20 15 62 18 58 17 -132 0
57 20 15 62 18 58 17 -131 0
57 20 15 62 18 58 17 -134 0
57 20 15 62 18 58 17 -133 0
57 38 55 31 62 35 58 -182 0
57 38 55 31 62 35 58 -181 0
57 38 55 31 62 35 58 -179 0
57 38 55 31 62 35 58 -180 0
57 38 55 31 62 35 36 -182 0
57 38 55 31 62 35 36 -181 0
57 38 55 31 62 35 36 -179 0
57 38 55 31 62 35 36 -180 0
57 38 55 31 62 58 36 -182 0
57 38 55 31 62 58 36 -181 0
57 38 55 31 62 58 36 -179 0
57 38 55 31 62 58 36 -180 0
57 38 55 31 35 58 36 -182 0
57 38 55 31 35 58 36 -181 0
57 38 55 31 35 58 36 -179 0
57 38 55 31 35 58 36 -180 0
57 38 55 62 35 58 36 -182 0
57 38 55 62 35 58 36 -181 0
57 38 55 62 35 58 36 -179 0
57 38 55 62 35 58 36 -180 0
57 38 31 62 35 58 36 -182 0
57 38 31 62 35 58 36 -181 0
57 38 31 62 35 58 36 -179 0
57 38 31 62 35 58 36 -180 0
57 44 55 42 62 46 58 -200 0
57 44 55 42 62 46 58 -198 0
57 44 55 42 62 46 58 -197 0
57 44 55 42 62 46 58 -199 0
57 44 55 42 62 46 45 -200 0
57 44 55 42 62 46 45 -198 0
57 44 55 42 62 46 45 -197 0
57 44 55 42 62 46 45 -199 0
57 44 55 42 62 58 45 -200 0
57 44 55 42 62 58 45 -198 0
57 44 55 42 62 58 45 -197 0
57 44 55 42 62 58 45 -199 0
57 44 55 42 46 58 45 -200 0
57 44 55 42 46 58 45 -198 0
57 44 55 42 46 58 45 -197 0
57 44 55 42 46 58 45 -199 0
57 44 55 62 46 58 45 -200 0
57 44 55 62 46 58 45 -198 0
57 44 55 62 46 58 45 -197 0
57 44 55 62 46 58 45 -199 0
57 44 42 62 46 58 45 -200 0
57 44 42 62 46 58 45 -198 0
57 44 42 62 46 58 45 -197 0
57 44 42 62 46 58 45 -199 0
57 55 51 62 54 58 49 -213 0
57 55 51 62 54 58 49 -212 0
57 55 51 62 54 58 49 -214 0
57 55 51 62 54 58 49 -211 0
57 55 73 62 71 58 75 -229 0
57 55 73 62 71 58 75 -231 0
57 55 73 62 71 58 75 -230 0
57 55 73 62 71 58 75 -232 0
57 55 23 62 28 58 29 -157 0
57 55 23 62 28 58 29 -159 0
57 55 23 62 28 58 29 -158 0
57 55 23 62 28 58 29 -160 0
57 55 10 62 11 58 13 -101 0
57 55 10 62 11 58 13 -103 0
57 55 10 62 11 58 13 -102 0
57 55 10 62 11 58 13 -104 0
57 55 6 62 4 58 5 -61 0
57 55 6 62 4 58 5 -56 0
57 55 6 62 4 58 5 -59 0
57 55 6 62 4 58 5 -60 0
57 55 69 62 66 58 63 -227 0
57 55 69 62 66 58 63 -225 0
57 55 69 62 66 58 63 -228 0
57 55 69 62 66 58 63 -226 0
57 55 15 62 18 58 17 -132 0
57 55 15 62 18 58 17 -131 0
57 55 15 62 18 58 17 -134 0
57 55 15 62 18 58 17 -133 0
57 55 31 62 35 58 36 -182 0
57 55 31 62 35 58 36 -181 0
57 55 31 62 35 58 36 -179 0
57 55 31 62 35 58 36 -180 0
57 55 42 62 46 58 45 -200 0
57 55 42 62 46 58 45 -198 0
57 55 42 62 46 58 45 -197 0
57 55 42 62 46 58 45 -199 0
53 78 51 73 54 71 49 -221 0
53 78 51 73 54 71 49 -220 0
53 78 51 73 54 71 49 -222 0
53 78 51 73 54 71 49 -219 0
53 78 51 73 54 71 75 -221 0
53 78 51 73 54 71 75 -220 0
53 78 51 73 54 71 75 -222 0
53 78 51 73 54 71 75 -219 0
53 78 51 73 54 49 75 -221 0
53 78 51 73 54 49 75 -220 0
53 78 51 73 54 49 75 -222 0
53 78 51 73 54 49 75 -219 0
53 78 51 73 71 49 75 -221 0
53 78 51 73 71 49 75 -220 0
53 78 51 73 71 49 75 -222 0
53 78 51 73 71 49 75 -219 0
53 78 51 54 71 49 75 -221 0
53 78 51 54 71 49 75 -220 0
53 78 51 54 71 49 75 -222 0
53 78 51 54 71 49 75 -219 0
53 78 73 54 71 49 75 -221 0
53 78 73 54 71 49 75 -220 0
53 78 73 54 71 49 75 -222 0
53 78 73 54 71 49 75 -219 0
53 25 51 23 54 28 49 -154 0
53 25 51 23 54 28 49 -153 0
53 25 51 23 54 28 49 -156 0
53 25 51 23 54 28 49 -155 0
53 25 51 23 54 28 29 -154 0
53 25 51 23 54 28 29 -153 0
53 25 51 23 54 28 29 -156 0
53 25 51 23 54 28 29 -155 0
53 25 51 23 54 49 29 -154 0
53 25 51 23 54 49 29 -153 0
53 25 51 23 54 49 29 -156 0
53 25 51 23 54 49 29 -155 0
53 25 51 23 28 49 29 -154 0
53 25 51 23 28 49 29 -153 0
53 25 51 23 28 49 29 -156 0
53 25 51 23 28 49 29 -155 0
53 25 51 54 28 49 29 -154 0
53 25 51 54 28 49 29 -153 0
53 25 51 54 28 49 29 -156 0
53 25 51 54 28 49 29 -155 0
53 25 23 54 28 49 29 -154 0
53 25 23 54 28 49 29 -153 0
53 25 23 54 28 49 29 -156 0
53 25 23 54 28 49 29 -155 0
53 12 51 10 54 11 49 -98 0
53 12 51 10 54 11 49 -99 0
53 12 51 10 54 11 49 -100 0
53 12 51 10 54 11 49 -97 0
53 12 51 10 54 11 13 -98 0
53 12 51 10 54 11 13 -99 0
53 12 51 10 54 11 13 -100 0
53 12 51 10 54 11 13 -97 0
53 12 51 10 54 49 13 -98 0
53 12 51 10 54 49 13 -99 0
53 12 51 10 54 49 13 -100 0
53 12 51 10 54 49 13 -97 0
53 12 51 10 11 49 13 -98 0
53 12 51 10 11 49 13 -99 0
53 12 51 10 11 49 13 -100 0
53 12 51 10 11 49 13 -97 0
53 12 51 54 11 49 13 -98 0
53 12 51 54 11 49 13 -99 0
53 12 51 54 11 49 13 -100 0
53 12 51 54 11 49 13 -97 0
53 12 10 54 11 49 13 -98 0
53 12 10 54 11 49 13 -99 0
53 12 10 54 11 49 13 -100 0
53 12 10 54 11 49 13 -97 0
53 2 51 6 54 4 49 -48 0
53 2 51 6 54 4 49 -50 0
53 2 51 6 54 4 49 -52 0
53 2 51 6 54 4 49 -47 0
53 2 51 6 54 4 5 -48 0
53 2 51 6 54 4 5 -50 0
53 2 51 6 54 4 5 -52 0
53 2 51 6 54 4 5 -47 0
53 2 51 6 54 49 5 -48 0
53 2 51 6 54 49 5 -50 0
53 2 51 6 54 49 5 -52 0
53 2 51 6 54 49 5 -47 0
53 2 51 6 4 49 5 -48 0
53 2 51 6 4 49 5 -50 0
53 2 51 6 4 49 5 -52 0
53 2 51 6 4 49 5 -47 0
53 2 51 54 4 49 5 -48 0
53 2 51 54 4 49 5 -50 0
53 2 51 54 4 49 5 -52 0
53 2 51 54 4 49 5 -47 0
53 2 6 54 4 49 5 -48 0
53 2 6 54 4 49 5 -50 0
53 2 6 54 4 49 5 -52 0
53 2 6 54 4 49 5 -47 0
53 70 51 69 54 66 49 -218 0
53 70 51 69 54 66 49 -216 0
53 70 51 69 54 66 49 -215 0
53 70 51 69 54 66 49 -217 0
53 70 51 69 54 66 63 -218 0
53 70 51 69 54 66 63 -216 0
53 70 51 69 54 66 63 -215 0
53 70 51 69 54 66 63 -217 0
53 70 51 69 54 49 63 -218 0
53 70 51 69 54 49 63 -216 0
53 70 51 69 54 49 63 -215 0
53 70 51 69 54 49 63 -217 0
53 70 51 69 66 49 63 -218 0
53 70 51 69 66 49 63 -216 0
53 70 51 69 66 49 63 -215 0
53 70 51 69 66 49 63 -217 0
53 70 51 54 66 49 63 -218 0
53 70 51 54 66 49 63 -216 0
53 70 51 54 66 49 63 -215 0
53 70 51 54 66 49 63 -217 0
53 70 69 54 66 49 63 -218 0
53 70 69 54 66 49 63 -216 0
53 70 69 54 66 49 63 -215 0
53 70 69 54 66 49 63 -217 0
53 20 51 15 54 18 49 -129 0
53 20 51 15 54 18 49 -128 0
53 20 51 15 54 18 49 -127 0
53 20 51 15 54 18 49 -130 0
53 20 51 15 54 18 17 -129 0
53 20 51 15 54 18 17 -128 0
53 20 51 15 54 18 17 -127 0
53 20 51 15 54 18 17 -130 0
53 20 51 15 54 49 17 -129 0
53 20 51 15 54 49 17 -128 0
53 20 51 15 54 49 17 -127 0
53 20 51 15 54 49 17 -130 0
53 20 51 15 18 49 17 -129 0
53 20 51 15 18 49 17 -128 0
53 20 51 15 18 49 17 -127 0
53 20 51 15 18 49 17 -130 0
53 20 51 54 18 49 17 -129 0
53 20 51 54 18 49 17 -128 0
53 20 51 54 18 49 17 -127 0
53 20 51 54 18 49 17 -130 0
53 20 15 54 18 49 17 -129 0
53 20 15 54 18 49 17 -128 0
53 20 15 54 18 49 17 -127 0
53 20 15 54 18 49 17 -130 0
53 38 51 31 54 35 49 -177 0
53 38 51 31 54 35 49 -176 0
53 38 51 31 54 35 49 -175 0
53 38 51 31 54 35 49 -178 0
53 38 51 31 54 35 36 -177 0
53 38 51 31 54 35 36 -176 0
53 38 51 31 54 35 36 -175 0
53 38 51 31 54 35 36 -178 0
53 38 51 31 54 49 36 -177 0
53 38 51 31 54 49 36 -176 0
53 38 51 31 54 49 36 -175 0
53 38 51 31 54 49 36 -178 0
53 38 51 31 35 49 36 -177 0
53 38 51 31 35 49 36 -176 0
53 38 51 31 35 49 36 -175 0
53 38 51 31 35 49 36 -178 0
53 38 51 54 35 49 36 -177 0
53 38 51 54 35 49 36 -176 0
53 38 51 54 35 49 36 -175 0
53 38 51 54 35 49 36 -178 0
53 38 31 54 35 49 36 -177 0
53 38 31 54 35 49 36 -176 0
53 38 31 54 35 49 36 -175 0
53 38 31 54 35 49 36 -178 0
53 44 51 42 54 46 49 -194 0
53 44 51 42 54 46 49 -196 0
53 44 51 42 54 46 49 -195 0
53 44 51 42 54 46 49 -193 0
53 44 51 42 54 46 45 -194 0
53 44 51 42 54 46 45 -196 0
53 44 51 42 54 46 45 -195 0
53 44 51 42 54 46 45 -193 0
53 44 51 42 54 49 45 -194 0
53 44 51 42 54 49 45 -196 0
53 44 51 42 54 49 45 -195 0
53 44 51 42 54 49 45 -193 0
53 44 51 42 46 49 45 -194 0
53 44 51 42 46 49 45 -196 0
53 44 51 42 46 49 45 -195 0
53 44 51 42 46 49 45 -193 0
53 44 51 54 46 49 45 -194 0
53 44 51 54 46 49 45 -196 0
53 44 51 54 46 49 45 -195 0
53 44 51 54 46 49 45 -193 0
53 44 42 54 46 49 45 -194 0
53 44 42 54 46 49 45 -196 0
53 44 42 54 46 49 45 -195 0
53 44 42 54 46 49 45 -193 0
53 55 51 62 54 58 49 -213 0
53 55 51 62 54 58 49 -212 0
53 55 51 62 54 58 49 -214 0
53 55 51 62 54 58 49 -211 0
53 51 73 54 71 49 75 -221 0
53 51 73 54 71 49 75 -220 0
53 51 73 54 71 49 75 -222 0
53 51 73 54 71 49 75 -219 0
53 51 23 54 28 49 29 -154 0
53 51 23 54 28 49 29 -153 0
53 51 23 54 28 49 29 -156 0
53 51 23 54 28 49 29 -155 0
53 51 10 54 11 49 13 -98 0
53 51 10 54 11 49 13 -99 0
53 51 10 54 11 49 13 -100 0
53 51 10 54 11 49 13 -97 0
53 51 6 54 4 49 5 -48 0
53 51 6 54 4 49 5 -50 0
53 51 6 54 4 49 5 -52 0
53 51 6 54 4 49 5 -47 0
53 51 69 54 66 49 63 -218 0
53 51 69 54 66 49 63 -216 0
53 51 69 54 66 49 63 -215 0
53 51 69 54 66 49 63 -217 0
53 51 15 54 18 49 17 -129 0
53 51 15 54 18 49 17 -128 0
53 51 15 54 18 49 17 -127 0
53 51 15 54 18 49 17 -130 0
53 51 31 54 35 49 36 -177 0
53 51 31 54 35 49 36 -176 0
53 51 31 54 35 49 36 -175 0
53 51 31 54 35 49 36 -178 0
53 51 42 54 46 49 45 -194 0
53 51 42 54 46 49 45 -196 0
53 51 42 54 46 49 45 -195 0
53 51 42 54 46 49 45 -193 0
78 25 73 23 71 28 75 -166 0
78 25 73 23 71 28 75 -165 0
78 25 73 23 71 28 75 -168 0
78 25 73 23 71 28 75 -167 0
78 25 73 23 71 28 29 -166 0
78 25 73 23 71 28 29 -165 0
78 25 73 23 71 28 29 -168 0
78 25 73 23 71 28 29 -167 0
78 25 73 23 71 75 29 -166 0
78 25 73 23 71 75 29 -165 0
78 25 73 23 71 75 29 -168 0
78 25 73 23 71 75 29 -167 0
78 25 73 23 28 75 29 -166 0
78 25 73 23 28 75 29 -165 0
78 25 73 23 28 75 29 -168 0
78 25 73 23 28 75 29 -167 0
78 25 73 71 28 75 29 -166 0
78 25 73 71 28 75 29 -165 0
78 25 73 71 28 75 29 -168 0
78 25 73 71 28 75 29 -167 0
78 25 23 71 28 75 29 -166 0
78 25 23 71 28 75 29 -165 0
78 25 23 71 28 75 29 -168 0
78 25 23 71 28 75 29 -167 0
78 12 73 10 71 11 75 -109 0
78 12 73 10 71 11 75 -111 0
78 12 73 10 71 11 75 -110 0
78 12 73 10 71 11 75 -112 0
78 12 73 10 71 11 13 -109 0
78 12 73 10 71 11 13 -111 0
78 12 73 10 71 11 13 -110 0
78 12 73 10 71 11 13 -112 0
78 12 73 10 71 75 13 -109 0
78 12 73 10 71 75 13 -111 0
78 12 73 10 71 75 13 -110 0
78 12 73 10 71 75 13 -112 0
78 12 73 10 11 75 13 -109 0
78 12 73 10 11 75 13 -111 0
78 12 73 10 11 75 13 -110 0
78 12 73 10 11 75 13 -112 0
78 12 73 71 11 75 13 -109 0
78 12 73 71 11 75 13 -111 0
78 12 73 71 11 75 13 -110 0
78 12 73 71 11 75 13 -112 0
78 12 10 71 11 75 13 -109 0
78 12 10 71 11 75 13 -111 0
78 12 10 71 11 75 13 -110 0
78 12 10 71 11 75 13 -112 0
78 2 73 6 71 4 75 -76 0
78 2 73 6 71 4 75 -72 0
78 2 73 6 71 4 75 -77 0
78 2 73 6 71 4 75 -74 0
78 2 73 6 71 4 5 -76 0
78 2 73 6 71 4 5 -72 0
78 2 73 6 71 4 5 -77 0
78 2 73 6 71 4 5 -74 0
78 2 73 6 71 75 5 -76 0
78 2 73 6 71 75 5 -72 0
78 2 73 6 71 75 5 -77 0
78 2 73 6 71 75 5 -74 0
78 2 73 6 4 75 5 -76 0
78 2 73 6 4 75 5 -72 0
78 2 73 6 4 75 5 -77 0
78 2 73 6 4 75 5 -74 0
78 2 73 71 4 75 5 -76 0
78 2 73 71 4 75 5 -72 0
78 2 73 71 4 75 5 -77 0
78 2 73 71 4 75 5 -74 0
78 2 6 71 4 75 5 -76 0
78 2 6 71 4 75 5 -72 0
78 2 6 71 4 75 5 -77 0
78 2 6 71 4 75 5 -74 0
78 70 73 69 71 66 75 -238 0
78 70 73 69 71 66 75 -235 0
78 70 73 69 71 66 75 -236 0
78 70 73 69 71 66 75 -237 0
78 70 73 69 71 66 63 -238 0
78 70 73 69 71 66 63 -235 0
78 70 73 69 71 66 63 -236 0
78 70 73 69 71 66 63 -237 0
78 70 73 69 71 75 63 -238 0
78 70 73 69 71 75 63 -235 0
78 70 73 69 71 75 63 -236 0
78 70 73 69 71 75 63 -237 0
78 70 73 69 66 75 63 -238 0
78 70 73 69 66 75 63 -235 0
78 70 73 69 66 75 63 -236 0
78 70 73 69 66 75 63 -237 0
78 70 73 71 66 75 63 -238 0
78 70 73 71 66 75 63 -235 0
78 70 73 71 66 75 63 -236 0
78 70 73 71 66 75 63 -237 0
78 70 69 71 66 75 63 -238 0
78 70 69 71 66 75 63 -235 0
78 70 69 71 66 75 63 -236 0
78 70 69 71 66 75 63 -237 0
78 20 73 15 71 18 75 -140 0
78 20 73 15 71 18 75 -142 0
78 20 73 15 71 18 75 -141 0
78 20 73 15 71 18 75 -139 0
78 20 73 15 71 18 17 -140 0
78 20 73 15 71 18 17 -142 0
78 20 73 15 71 18 17 -141 0
78 20 73 15 71 18 17 -139 0
78 20 73 15 71 75 17 -140 0
78 20 73 15 71 75 17 -142 0
78 20 73 15 71 75 17 -141 0
78 20 73 15 71 75 17 -139 0
78 20 73 15 18 75 17 -140 0
78 20 73 15 18 75 17 -142 0
78 20 73 15 18 75 17 -141 0
78 20 73 15 18 75 17 -139 0
78 20 73 71 18 75 17 -140 0
78 20 73 71 18 75 17 -142 0
78 20 73 71 18 75 17 -141 0
78 20 73 71 18 75 17 -139 0
78 20 15 71 18 75 17 -140 0
78 20 15 71 18 75 17 -142 0
78 20 15 71 18 75 17 -141 0
78 20 15 71 18 75 17 -139 0
78 38 73 31 71 35 75 -188 0
78 38 73 31 71 35 75 -189 0
78 38 73 31 71 35 75 -190 0
78 38 73 31 71 35 75 -187 0
78 38 73 31 71 35 36 -188 0
78 38 73 31 71 35 36 -189 0
78 38 73 31 71 35 36 -190 0
78 38 73 31 71 35 36 -187 0
78 38 73 31 71 75 36 -188 0
78 38 73 31 71 75 36 -189 0
78 38 73 31 71 75 36 -190 0
78 38 73 31 71 75 36 -187 0
78 38 73 31 35 75 36 -188 0
78 38 73 31 35 75 36 -189 0
78 38 73 31 35 75 36 -190 0
78 38 73 31 35 75 36 -187 0
78 38 73 71 35 75 36 -188 0
78 38 73 71 35 75 36 -189 0
78 38 73 71 35 75 36 -190 0
78 38 73 71 35 75 36 -187 0
78 38 31 71 35 75 36 -188 0
78 38 31 71 35 75 36 -189 0
78 38 31 71 35 75 36 -190 0
78 38 31 71 35 75 36 -187 0
78 44 73 42 71 46 75 -208 0
78 44 73 42 71 46 75 -206 0
78 44 73 42 71 46 75 -205 0
78 44 73 42 71 46 75 -207 0
78 44 73 42 71 46 45 -208 0
78 44 73 42 71 46 45 -206 0
78 44 73 42 71 46 45 -205 0
78 44 73 42 71 46 45 -207 0
78 44 73 42 71 75 45 -208 0
78 44 73 42 71 75 45 -206 0
78 44 73 42 71 75 45 -205 0
78 44 73 42 71 75 45 -207 0
78 44 73 42 46 75 45 -208 0
78 44 73 42 46 75 45 -206 0
78 44 73 42 46 75 45 -205 0
78 44 73 42 46 75 45 -207 0
78 44 73 71 46 75 45 -208 0
78 44 73 71 46 75 45 -206 0
78 44 73 71 46 75 45 -205 0
78 44 73 71 46 75 45 -207 0
78 44 42 71 46 75 45 -208 0
78 44 42 71 46 75 45 -206 0
78 44 42 71 46 75 45 -205 0
78 44 42 71 46 75 45 -207 0
78 55 73 62 71 58 75 -229 0
78 55 73 62 71 58 75 -231 0
78 55 73 62 71 58 75 -230 0
78 55 73 62 71 58 75 -232 0
78 51 73 54 71 49 75 -221 0
78 51 73 54 71 49 75 -220 0
78 51 73 54 71 49 75 -222 0
78 51 73 54 71 49 75 -219 0
78 73 23 71 28 75 29 -166 0
78 73 23 71 28 75 29 -165 0
78 73 23 71 28 75 29 -168 0
78 73 23 71 28 75 29 -167 0
78 73 10 71 11 75 13 -109 0
78 73 10 71 11 75 13 -111 0
78 73 10 71 11 75 13 -110 0
78 73 10 71 11 75 13 -112 0
78 73 6 71 4 75 5 -76 0
78 73 6 71 4 75 5 -72 0
78 73 6 71 4 75 5 -77 0
78 73 6 71 4 75 5 -74 0
78 73 69 71 66 75 63 -238 0
78 73 69 71 66 75 63 -235 0
78 73 69 71 66 75 63 -236 0
78 73 69 71 66 75 63 -237 0
78 73 15 71 18 75 17 -140 0
78 73 15 71 18 75 17 -142 0
78 73 15 71 18 75 17 -141 0
78 73 15 71 18 75 17 -139 0
78 73 31 71 35 75 36 -188 0
78 73 31 71 35 75 36 -189 0
78 73 31 71 35 75 36 -190 0
78 73 31 71 35 75 36 -187 0
78 73 42 71 46 75 45 -208 0
78 73 42 71 46 75 45 -206 0
78 73 42 71 46 75 45 -205 0
78 73 42 71 46 75 45 -207 0
25 12 23 10 28 11 29 -85 0
25 12 23 10 28 11 29 -87 0
25 12 23 10 28 11 29 -86 0
25 12 23 10 28 11 29 -88 0
25 12 23 10 28 11 13 -85 0
25 12 23 10 28 11 13 -87 0
25 12 23 10 28 11 13 -86 0
25 12 23 10 28 11 13 -88 0
25 12 23 10 28 29 13 -85 0
25 12 23 10 28 29 13 -87 0
25 12 23 10 28 29 13 -86 0
25 12 23 10 28 29 13 -88 0
25 12 23 10 11 29 13 -85 0
25 12 23 10 11 29 13 -87 0
25 12 23 10 11 29 13 -86 0
25 12 23 10 11 29 13 -88 0
25 12 23 28 11 29 13 -85 0
25 12 23 28 11 29 13 -87 0
25 12 23 28 11 29 13 -86 0
25 12 23 28 11 29 13 -88 0
25 12 10 28 11 29 13 -85 0
25 12 10 28 11 29 13 -87 0
25 12 10 28 11 29 13 -86 0
25 12 10 28 11 29 13 -88 0
25 2 23 6 28 4 29 -27 0
25 2 23 6 28 4 29 -24 0
25 2 23 6 28 4 29 -30 0
25 2 23 6 28 4 29 -26 0
25 2 23 6 28 4 5 -27 0
25 2 23 6 28 4 5 -24 0
25 2 23 6 28 4 5 -30 0
25 2 23 6 28 4 5 -26 0
25 2 23 6 28 29 5 -27 0
25 2 23 6 28 29 5 -24 0
25 2 23 6 28 29 5 -30 0
25 2 23 6 28 29 5 -26 0
25 2 23 6 4 29 5 -27 0
25 2 23 6 4 29 5 -24 0
25 2 23 6 4 29 5 -30 0
25 2 23 6 4 29 5 -26 0
25 2 23 28 4 29 5 -27 0
25 2 23 28 4 29 5 -24 0
25 2 23 28 4 29 5 -30 0
25 2 23 28 4 29 5 -26 0
25 2 6 28 4 29 5 -27 0
25 2 6 28 4 29 5 -24 0
25 2 6 28 4 29 5 -30 0
25 2 6 28 4 29 5 -26 0
25 70 23 69 28 66 29 -164 0
25 70 23 69 28 66 29 -161 0
25 70 23 69 28 66 29 -162 0
25 70 23 69 28 66 29 -163 0
25 70 23 69 28 66 63 -164 0
25 70 23 69 28 66 63 -161 0
25 70 23 69 28 66 63 -162 0
25 70 23 69 28 66 63 -163 0
25 70 23 69 28 29 63 -164 0
25 70 23 69 28 29 63 -161 0
25 70 23 69 28 29 63 -162 0
25 70 23 69 28 29 63 -163 0
25 70 23 69 66 29 63 -164 0
25 70 23 69 66 29 63 -161 0
25 70 23 69 66 29 63 -162 0
25 70 23 69 66 29 63 -163 0
25 70 23 28 66 29 63 -164 0
25 70 23 28 66 29 63 -161 0
25 70 23 28 66 29 63 -162 0
25 70 23 28 66 29 63 -163 0
25 70 69 28 66 29 63 -164 0
25 70 69 28 66 29 63 -161 0
25 70 69 28 66 29 63 -162 0
25 70 69 28 66 29 63 -163 0
25 20 23 15 28 18 29 -118 0
25 20 23 15 28 18 29 -116 0
25 20 23 15 28 18 29 -115 0
25 20 23 15 28 18 29 -117 0
25 20 23 15 28 18 17 -118 0
25 20 23 15 28 18 17 -116 0
25 20 23 15 28 18 17 -115 0
25 20 23 15 28 18 17 -117 0
25 20 23 15 28 29 17 -118 0
25 20 23 15 28 29 17 -116 0
25 20 23 15 28 29 17 -115 0
25 20 23 15 28 29 17 -117 0
25 20 23 15 18 29 17 -118 0
25 20 23 15 18 29 17 -116 0
25 20 23 15 18 29 17 -115 0
25 20 23 15 18 29 17 -117 0
25 20 23 28 18 29 17 -118 0
25 20 23 28 18 29 17 -116 0
25 20 23 28 18 29 17 -115 0
25 20 23 28 18 29 17 -117 0
25 20 15 28 18 29 17 -118 0
25 20 15 28 18 29 17 -116 0
25 20 15 28 18 29 17 -115 0
25 20 15 28 18 29 17 -117 0
25 38 23 31 28 35 29 -145 0
25 38 23 31 28 35 29 -148 0
25 38 23 31 28 35 29 -146 0
25 38 23 31 28 35 29 -147 0
25 38 23 31 28 35 36 -145 0
25 38 23 31 28 35 36 -148 0
25 38 23 31 28 35 36 -146 0
25 38 23 31 28 35 36 -147 0
25 38 23 31 28 29 36 -145 0
25 38 23 31 28 29 36 -148 0
25 38 23 31 28 29 36 -146 0
25 38 23 31 28 29 36 -147 0
25 38 23 31 35 29 36 -145 0
25 38 23 31 35 29 36 -148 0
25 38 23 31 35 29 36 -146 0
25 38 23 31 35 29 36 -147 0
25 38 23 28 35 29 36 -145 0
25 38 23 28 35 29 36 -148 0
25 38 23 28 35 29 36 -146 0
25 38 23 28 35 29 36 -147 0
25 38 31 28 35 29 36 -145 0
25 38 31 28 35 29 36 -148 0
25 38 31 28 35 29 36 -146 0
25 38 31 28 35 29 36 -147 0
25 44 23 42 28 46 29 -152 0
25 44 23 42 28 46 29 -150 0
25 44 23 42 28 46 29 -149 0
25 44 23 42 28 46 29 -151 0
25 44 23 42 28 46 45 -152 0
25 44 23 42 28 46 45 -150 0
25 44 23 42 28 46 45 -149 0
25 44 23 42 28 46 45 -151 0
25 44 23 42 28 29 45 -152 0
25 44 23 42 28 29 45 -150 0
25 44 23 42 28 29 45 -149 0
25 44 23 42 28 29 45 -151 0
25 44 23 42 46 29 45 -152 0
25 44 23 42 46 29 45 -150 0
25 44 23 42 46 29 45 -149 0
25 44 23 42 46 29 45 -151 0
25 44 23 28 46 29 45 -152 0
25 44 23 28 46 29 45 -150 0
25 44 23 28 46 29 45 -149 0
25 44 23 28 46 29 45 -151 0
25 44 42 28 46 29 45 -152 0
25 44 42 28 46 29 45 -150 0
25 44 42 28 46 29 45 -149 0
25 44 42 28 46 29 45 -151 0
25 55 23 62 28 58 29 -157 0
25 55 23 62 28 58 29 -159 0
25 55 23 62 28 58 29 -158 0
25 55 23 62 28 58 29 -160 0
25 51 23 54 28 49 29 -154 0
25 51 23 54 28 49 29 -153 0
25 51 23 54 28 49 29 -156 0
25 51 23 54 28 49 29 -155 0
25 73 23 71 28 75 29 -166 0
25 73 23 71 28 75 29 -165 0
25 73 23 71 28 75 29 -168 0
25 73 23 71 28 75 29 -167 0
25 23 10 28 11 29 13 -85 0
25 23 10 28 11 29 13 -87 0
25 23 10 28 11 29 13 -86 0
25 23 10 28 11 29 13 -88 0
25 23 6 28 4 29 5 -27 0
25 23 6 28 4 29 5 -24 0
25 23 6 28 4 29 5 -30 0
25 23 6 28 4 29 5 -26 0
25 23 69 28 66 29 63 -164 0
25 23 69 28 66 29 63 -161 0
25 23 69 28 66 29 63 -162 0
25 23 69 28 66 29 63 -163 0
25 23 15 28 18 29 17 -118 0
25 23 15 28 18 29 17 -116 0
25 23 15 28 18 29 17 -115 0
25 23 15 28 18 29 17 -117 0
25 23 31 28 35 29 36 -145 0
25 23 31 28 35 29 36 -148 0
25 23 31 28 35 29 36 -146 0
25 23 31 28 35 29 36 -147 0
25 23 42 28 46 29 45 -152 0
25 23 42 28 46 29 45 -150 0
25 23 42 28 46 29 45 -149 0
25 23 42 28 46 29 45 -151 0
12 2 10 6 11 4 13 -14 0
12 2 10 6 11 4 13 -8 0
12 2 10 6 11 4 13 -7 0
12 2 10 6 11 4 13 -9 0
12 2 10 6 11 4 5 -14 0
12 2 10 6 11 4 5 -8 0
12 2 10 6 11 4 5 -7 0
12 2 10 6 11 4 5 -9 0
12 2 10 6 11 13 5 -14 0
12 2 10 6 11 13 5 -8 0
12 2 10 6 11 13 5 -7 0
12 2 10 6 11 13 5 -9 0
12 2 10 6 4 13 5 -14 0
12 2 10 6 4 13 5 -8 0
12 2 10 6 4 13 5 -7 0
12 2 10 6 4 13 5 -9 0
12 2 10 11 4 13 5 -14 0
12 2 10 11 4 13 5 -8 0
12 2 10 11 4 13 5 -7 0
12 2 10 11 4 13 5 -9 0
12 2 6 11 4 13 5 -14 0
12 2 6 11 4 13 5 -8 0
12 2 6 11 4 13 5 -7 0
12 2 6 11 4 13 5 -9 0
12 70 10 69 11 66 13 -107 0
12 70 10 69 11 66 13 -106 0
12 70 10 69 11 66 13 -105 0
12 70 10 69 11 66 13 -108 0
12 70 10 69 11 66 63 -107 0
12 70 10 69 11 66 63 -106 0
12 70 10 69 11 66 63 -105 0
12 70 10 69 11 66 63 -108 0
12 70 10 69 11 13 63 -107 0
12 70 10 69 11 13 63 -106 0
12 70 10 69 11 13 63 -105 0
12 70 10 69 11 13 63 -108 0
12 70 10 69 66 13 63 -107 0
12 70 10 69 66 13 63 -106 0
12 70 10 69 66 13 63 -105 0
12 70 10 69 66 13 63 -108 0
12 70 10 11 66 13 63 -107 0
12 70 10 11 66 13 63 -106 0
12 70 10 11 66 13 63 -105 0
12 70 10 11 66 13 63 -108 0
12 70 69 11 66 13 63 -107 0
12 70 69 11 66 13 63 -106 0
12 70 69 11 66 13 63 -105 0
12 70 69 11 66 13 63 -108 0
12 20 10 15 11 18 13 -83 0
12 20 10 15 11 18 13 -84 0
12 20 10 15 11 18 13 -82 0
12 20 10 15 11 18 13 -81 0
12 20 10 15 11 18 17 -83 0
12 20 10 15 11 18 17 -84 0
12 20 10 15 11 18 17 -82 0
12 20 10 15 11 18 17 -81 0
12 20 10 15 11 13 17 -83 0
12 20 10 15 11 13 17 -84 0
12 20 10 15 11 13 17 -82 0
12 20 10 15 11 13 17 -81 0
12 20 10 15 18 13 17 -83 0
12 20 10 15 18 13 17 -84 0
12 20 10 15 18 13 17 -82 0
12 20 10 15 18 13 17 -81 0
12 20 10 11 18 13 17 -83 0
12 20 10 11 18 13 17 -84 0
12 20 10 11 18 13 17 -82 0
12 20 10 11 18 13 17 -81 0
12 20 15 11 18 13 17 -83 0
12 20 15 11 18 13 17 -84 0
12 20 15 11 18 13 17 -82 0
12 20 15 11 18 13 17 -81 0
12 38 10 31 11 35 13 -89 0
12 38 10 31 11 35 13 -90 0
12 38 10 31 11 35 13 -91 0
12 38 10 31 11 35 13 -92 0
12 38 10 31 11 35 36 -89 0
12 38 10 31 11 35 36 -90 0
12 38 10 31 11 35 36 -91 0
12 38 10 31 11 35 36 -92 0
12 38 10 31 11 13 36 -89 0
12 38 10 31 11 13 36 -90 0
12 38 10 31 11 13 36 -91 0
12 38 10 31 11 13 36 -92 0
12 38 10 31 35 13 36 -89 0
12 38 10 31 35 13 36 -90 0
12 38 10 31 35 13 36 -91 0
12 38 10 31 35 13 36 -92 0
12 38 10 11 35 13 36 -89 0
12 38 10 11 35 13 36 -90 0
12 38 10 11 35 13 36 -91 0
12 38 10 11 35 13 36 -92 0
12 38 31 11 35 13 36 -89 0
12 38 31 11 35 13 36 -90 0
12 38 31 11 35 13 36 -91 0
12 38 31 11 35 13 36 -92 0
12 44 10 42 11 46 13 -93 0
12 44 10 42 11 46 13 -94 0
12 44 10 42 11 46 13 -95 0
12 44 10 42 11 46 13 -96 0
12 44 10 42 11 46 45 -93 0
12 44 10 42 11 46 45 -94 0
12 44 10 42 11 46 45 -95 0
12 44 10 42 11 46 45 -96 0
12 44 10 42 11 13 45 -93 0
12 44 10 42 11 13 45 -94 0
12 44 10 42 11 13 45 -95 0
12 44 10 42 11 13 45 -96 0
12 44 10 42 46 13 45 -93 0
12 44 10 42 46 13 45 -94 0
12 44 10 42 46 13 45 -95 0
12 44 10 42 46 13 45 -96 0
12 44 10 11 46 13 45 -93 0
12 44 10 11 46 13 45 -94 0
12 44 10 11 46 13 45 -95 0
12 44 10 11 46 13 45 -96 0
12 44 42 11 46 13 45 -93 0
12 44 42 11 46 13 45 -94 0
12 44 42 11 46 13 45 -95 0
12 44 42 11 46 13 45 -96 0
12 55 10 62 11 58 13 -101 0
12 55 10 62 11 58 13 -103 0
12 55 10 62 11 58 13 -102 0
12 55 10 62 11 58 13 -104 0
12 51 10 54 11 49 13 -98 0
12 51 10 54 11 49 13 -99 0
12 51 10 54 11 49 13 -100 0
12 51 10 54 11 49 13 -97 0
12 73 10 71 11 75 13 -109 0
12 73 10 71 11 75 13 -111 0
12 73 10 71 11 75 13 -110 0
12 73 10 71 11 75 13 -112 0
12 23 10 28 11 29 13 -85 0
12 23 10 28 11 29 13 -87 0
12 23 10 28 11 29 13 -86 0
12 23 10 28 11 29 13 -88 0
12 10 6 11 4 13 5 -14 0
12 10 6 11 4 13 5 -8 0
12 10 6 11 4 13 5 -7 0
12 10 6 11 4 13 5 -9 0
12 10 69 11 66 13 63 -107 0
12 10 69 11 66 13 63 -106 0
12 10 69 11 66 13 63 -105 0
12 10 69 11 66 13 63 -108 0
12 10 15 11 18 13 17 -83 0
12 10 15 11 18 13 17 -84 0
12 10 15 11 18 13 17 -82 0
12 10 15 11 18 13 17 -81 0
12 10 31 11 35 13 36 -89 0
12 10 31 11 35 13 36 -90 0
12 10 31 11 35 13 36 -91 0
12 10 31 11 35 13 36 -92 0
12 10 42 11 46 13 45 -93 0
12 10 42 11 46 13 45 -94 0
12 10 42 11 46 13 45 -95 0
12 10 42 11 46 13 45 -96 0
2 70 6 69 4 66 5 -64 0
2 70 6 69 4 66 5 -67 0
2 70 6 69 4 66 5 -68 0
2 70 6 69 4 66 5 -65 0
2 70 6 69 4 66 63 -64 0
2 70 6 69 4 66 63 -67 0
2 70 6 69 4 66 63 -68 0
2 70 6 69 4 66 63 -65 0
2 70 6 69 4 5 63 -64 0
2 70 6 69 4 5 63 -67 0
2 70 6 69 4 5 63 -68 0
2 70 6 69 4 5 63 -65 0
2 70 6 69 66 5 63 -64 0
2 70 6 69 66 5 63 -67 0
2 70 6 69 66 5 63 -68 0
2 70 6 69 66 5 63 -65 0
2 70 6 4 66 5 63 -64 0
2 70 6 4 66 5 63 -67 0
2 70 6 4 66 5 63 -68 0
2 70 6 4 66 5 63 -65 0
2 70 69 4 66 5 63 -64 0
2 70 69 4 66 5 63 -67 0
2 70 69 4 66 5 63 -68 0
2 70 69 4 66 5 63 -65 0
2 20 6 15 4 18 5 -19 0
2 20 6 15 4 18 5 -16 0
2 20 6 15 4 18 5 -21 0
2 20 6 15 4 18 5 -22 0
2 20 6 15 4 18 17 -19 0
2 20 6 15 4 18 17 -16 0
2 20 6 15 4 18 17 -21 0
2 20 6 15 4 18 17 -22 0
2 20 6 15 4 5 17 -19 0
2 20 6 15 4 5 17 -16 0
2 20 6 15 4 5 17 -21 0
2 20 6 15 4 5 17 -22 0
2 20 6 15 18 5 17 -19 0
2 20 6 15 18 5 17 -16 0
2 20 6 15 18 5 17 -21 0
2 20 6 15 18 5 17 -22 0
2 20 6 4 18 5 17 -19 0
2 20 6 4 18 5 17 -16 0
2 20 6 4 18 5 17 -21 0
2 20 6 4 18 5 17 -22 0
2 20 15 4 18 5 17 -19 0
2 20 15 4 18 5 17 -16 0
2 20 15 4 18 5 17 -21 0
2 20 15 4 18 5 17 -22 0
2 38 6 31 4 35 5 -37 0
2 38 6 31 4 35 5 -33 0
2 38 6 31 4 35 5 -32 0
2 38 6 31 4 35 5 -34 0
2 38 6 31 4 35 36 -37 0
2 38 6 31 4 35 36 -33 0
2 38 6 31 4 35 36 -32 0
2 38 6 31 4 35 36 -34 0
2 38 6 31 4 5 36 -37 0
2 38 6 31 4 5 36 -33 0
2 38 6 31 4 5 36 -32 0
2 38 6 31 4 5 36 -34 0
2 38 6 31 35 5 36 -37 0
2 38 6 31 35 5 36 -33 0
2 38 6 31 35 5 36 -32 0
2 38 6 31 35 5 36 -34 0
2 38 6 4 35 5 36 -37 0
2 38 6 4 35 5 36 -33 0
2 38 6 4 35 5 36 -32 0
2 38 6 4 35 5 36 -34 0
2 38 31 4 35 5 36 -37 0
2 38 31 4 35 5 36 -33 0
2 38 31 4 35 5 36 -32 0
2 38 31 4 35 5 36 -34 0
2 44 6 42 4 46 5 -39 0
2 44 6 42 4 46 5 -41 0
2 44 6 42 4 46 5 -43 0
2 44 6 42 4 46 5 -40 0
2 44 6 42 4 46 45 -39 0
2 44 6 42 4 46 45 -41 0
2 44 6 42 4 46 45 -43 0
2 44 6 42 4 46 45 -40 0
2 44 6 42 4 5 45 -39 0
2 44 6 42 4 5 45 -41 0
2 44 6 42 4 5 45 -43 0
2 44 6 42 4 5 45 -40 0
2 44 6 42 46 5 45 -39 0
2 44 6 42 46 5 45 -41 0
2 44 6 42 46 5 45 -43 0
2 44 6 42 46 5 45 -40 0
2 44 6 4 46 5 45 -39 0
2 44 6 4 46 5 45 -41 0
2 44 6 4 46 5 45 -43 0
2 44 6 4 46 5 45 -40 0
2 44 42 4 46 5 45 -39 0
2 44 42 4 46 5 45 -41 0
2 44 42 4 46 5 45 -43 0
2 44 42 4 46 5 45 -40 0
2 55 6 62 4 58 5 -61 0
2 55 6 62 4 58 5 -56 0
2 55 6 62 4 58 5 -59 0
2 55 6 62 4 58 5 -60 0
2 51 6 54 4 49 5 -48 0
2 51 6 54 4 49 5 -50 0
2 51 6 54 4 49 5 -52 0
2 51 6 54 4 49 5 -47 0
2 73 6 71 4 75 5 -76 0
2 73 6 71 4 75 5 -72 0
2 73 6 71 4 75 5 -77 0
2 73 6 71 4 75 5 -74 0
2 23 6 28 4 29 5 -27 0
2 23 6 28 4 29 5 -24 0
2 23 6 28 4 29 5 -30 0
2 23 6 28 4 29 5 -26 0
2 10 6 11 4 13 5 -14 0
2 10 6 11 4 13 5 -8 0
2 10 6 11 4 13 5 -7 0
2 10 6 11 4 13 5 -9 0
2 6 69 4 66 5 63 -64 0
2 6 69 4 66 5 63 -67 0
2 6 69 4 66 5 63 -68 0
2 6 69 4 66 5 63 -65 0
2 6 15 4 18 5 17 -19 0
2 6 15 4 18 5 17 -16 0
2 6 15 4 18 5 17 -21 0
2 6 15 4 18 5 17 -22 0
2 6 31 4 35 5 36 -37 0
2 6 31 4 35 5 36 -33 0
2 6 31 4 35 5 36 -32 0
2 6 31 4 35 5 36 -34 0
2 6 42 4 46 5 45 -39 0
2 6 42 4 46 5 45 -41 0
2 6 42 4 46 5 45 -43 0
2 6 42 4 46 5 45 -40 0
70 20 69 15 66 18 63 -136 0
70 20 69 15 66 18 63 -135 0
70 20 69 15 66 18 63 -137 0
70 20 69 15 66 18 63 -138 0
70 20 69 15 66 18 17 -136 0
70 20 69 15 66 18 17 -135 0
70 20 69 15 66 18 17 -137 0
70 20 69 15 66 18 17 -138 0
70 20 69 15 66 63 17 -136 0
70 20 69 15 66 63 17 -135 0
70 20 69 15 66 63 17 -137 0
70 20 69 15 66 63 17 -138 0
70 20 69 15 18 63 17 -136 0
70 20 69 15 18 63 17 -135 0
70 20 69 15 18 63 17 -137 0
70 20 69 15 18 63 17 -138 0
70 20 69 66 18 63 17 -136 0
70 20 69 66 18 63 17 -135 0
70 20 69 66 18 63 17 -137 0
70 20 69 66 18 63 17 -138 0
70 20 15 66 18 63 17 -136 0
70 20 15 66 18 63 17 -135 0
70 20 15 66 18 63 17 -137 0
70 20 15 66 18 63 17 -138 0
70 38 69 31 66 35 63 -183 0
70 38 69 31 66 35 63 -185 0
70 38 69 31 66 35 63 -186 0
70 38 69 31 66 35 63 -184 0
70 38 69 31 66 35 36 -183 0
70 38 69 31 66 35 36 -185 0
70 38 69 31 66 35 36 -186 0
70 38 69 31 66 35 36 -184 0
70 38 69 31 66 63 36 -183 0
70 38 69 31 66 63 36 -185 0
70 38 69 31 66 63 36 -186 0
70 38 69 31 66 63 36 -184 0
70 38 69 31 35 63 36 -183 0
70 38 69 31 35 63 36 -185 0
70 38 69 31 35 63 36 -186 0
70 38 69 31 35 63 36 -184 0
70 38 69 66 35 63 36 -183 0
70 38 69 66 35 63 36 -185 0
70 38 69 66 35 63 36 -186 0
70 38 69 66 35 63 36 -184 0
70 38 31 66 35 63 36 -183 0
70 38 31 66 35 63 36 -185 0
70 38 31 66 35 63 36 -186 0
70 38 31 66 35 63 36 -184 0
70 44 69 42 66 46 63 -202 0
70 44 69 42 66 46 63 -201 0
70 44 69 42 66 46 63 -204 0
70 44 69 42 66 46 63 -203 0
70 44 69 42 66 46 45 -202 0
70 44 69 42 66 46 45 -201 0
70 44 69 42 66 46 45 -204 0
70 44 69 42 66 46 45 -203 0
70 44 69 42 66 63 45 -202 0
70 44 69 42 66 63 45 -201 0
70 44 69 42 66 63 45 -204 0
70 44 69 42 66 63 45 -203 0
70 44 69 42 46 63 45 -202 0
70 44 69 42 46 63 45 -201 0
70 44 69 42 46 63 45 -204 0
70 44 69 42 46 63 45 -203 0
70 44 69 66 46 63 45 -202 0
70 44 69 66 46 63 45 -201 0
70 44 69 66 46 63 45 -204 0
70 44 69 66 46 63 45 -203 0
70 44 42 66 46 63 45 -202 0
70 44 42 66 46 63 45 -201 0
70 44 42 66 46 63 45 -204 0
70 44 42 66 46 63 45 -203 0
70 55 69 62 66 58 63 -227 0
70 55 69 62 66 58 63 -225 0
70 55 69 62 66 58 63 -228 0
70 55 69 62 66 58 63 -226 0
70 51 69 54 66 49 63 -218 0
70 51 69 54 66 49 63 -216 0
70 51 69 54 66 49 63 -215 0
70 51 69 54 66 49 63 -217 0
70 73 69 71 66 75 63 -238 0
70 73 69 71 66 75 63 -235 0
70 73 69 71 66 75 63 -236 0
70 73 69 71 66 75 63 -237 0
70 23 69 28 66 29 63 -164 0
70 23 69 28 66 29 63 -161 0
70 23 69 28 66 29 63 -162 0
70 23 69 28 66 29 63 -163 0
70 10 69 11 66 13 63 -107 0
70 10 69 11 66 13 63 -106 0
70 10 69 11 66 13 63 -105 0
70 10 69 11 66 13 63 -108 0
70 6 69 4 66 5 63 -64 0
70 6 69 4 66 5 63 -67 0
70 6 69 4 66 5 63 -68 0
70 6 69 4 66 5 63 -65 0
70 69 15 66 18 63 17 -136 0
70 69 15 66 18 63 17 -135 0
70 69 15 66 18 63 17 -137 0
70 69 15 66 18 63 17 -138 0
70 69 31 66 35 63 36 -183 0
70 69 31 66 35 63 36 -185 0
70 69 31 66 35 63 36 -186 0
70 69 31 66 35 63 36 -184 0
70 69 42 66 46 63 45 -202 0
70 69 42 66 46 63 45 -201 0
70 69 42 66 46 63 45 -204 0
70 69 42 66 46 63 45 -203 0
20 38 15 31 18 35 17 -121 0
20 38 15 31 18 35 17 -122 0
20 38 15 31 18 35 17 -120 0
20 38 15 31 18 35 17 -119 0
20 38 15 31 18 35 36 -121 0
20 38 15 31 18 35 36 -122 0
20 38 15 31 18 35 36 -120 0
20 38 15 31 18 35 36 -119 0
20 38 15 31 18 17 36 -121 0
20 38 15 31 18 17 36 -122 0
20 38 15 31 18 17 36 -120 0
20 38 15 31 18 17 36 -119 0
20 38 15 31 35 17 36 -121 0
20 38 15 31 35 17 36 -122 0
20 38 15 31 35 17 36 -120 0
20 38 15 31 35 17 36 -119 0
20 38 15 18 35 17 36 -121 0
20 38 15 18 35 17 36 -122 0
20 38 15 18 35 17 36 -120 0
20 38 15 18 35 17 36 -119 0
20 38 31 18 35 17 36 -121 0
20 38 31 18 35 17 36 -122 0
20 38 31 18 35 17 36 -120 0
20 38 31 18 35 17 36 -119 0
20 44 15 42 18 46 17 -124 0
20 44 15 42 18 46 17 -125 0
20 44 15 42 18 46 17 -123 0
20 44 15 42 18 46 17 -126 0
20 44 15 42 18 46 45 -124 0
20 44 15 42 18 46 45 -125 0
20 44 15 42 18 46 45 -123 0
20 44 15 42 18 46 45 -126 0
20 44 15 42 18 17 45 -124 0
20 44 15 42 18 17 45 -125 0
20 44 15 42 18 17 45 -123 0
20 44 15 42 18 17 45 -126 0
20 44 15 42 46 17 45 -124 0
20 44 15 42 46 17 45 -125 0
20 44 15 42 46 17 45 -123 0
20 44 15 42 46 17 45 -126 0
20 44 15 18 46 17 45 -124 0
20 44 15 18 46 17 45 -125 0
20 44 15 18 46 17 45 -123 0
20 44 15 18 46 17 45 -126 0
20 44 42 18 46 17 45 -124 0
20 44 42 18 46 17 45 -125 0
20 44 42 18 46 17 45 -123 0
20 44 42 18 46 17 45 -126 0
20 55 15 62 18 58 17 -132 0
20 55 15 62 18 58 17 -131 0
20 55 15 62 18 58 17 -134 0
20 55 15 62 18 58 17 -133 0
20 51 15 54 18 49 17 -129 0
20 51 15 54 18 49 17 -128 0
20 51 15 54 18 49 17 -127 0
20 51 15 54 18 49 17 -130 0
20 73 15 71 18 75 17 -140 0
20 73 15 71 18 75 17 -142 0
20 73 15 71 18 75 17 -141 0
20 73 15 71 18 75 17 -139 0
20 23 15 28 18 29 17 -118 0
20 23 15 28 18 29 17 -116 0
20 23 15 28 18 29 17 -115 0
20 23 15 28 18 29 17 -117 0
20 10 15 11 18 13 17 -83 0
20 10 15 11 18 13 17 -84 0
20 10 15 11 18 13 17 -82 0
20 10 15 11 18 13 17 -81 0
20 6 15 4 18 5 17 -19 0
20 6 15 4 18 5 17 -16 0
20 6 15 4 18 5 17 -21 0
20 6 15 4 18 5 17 -22 0
20 69 15 66 18 63 17 -136 0
20 69 15 66 18 63 17 -135 0
20 69 15 66 18 63 17 -137 0
20 69 15 66 18 63 17 -138 0
20 15 31 18 35 17 36 -121 0
20 15 31 18 35 17 36 -122 0
20 15 31 18 35 17 36 -120 0
20 15 31 18 35 17 36 -119 0
20 15 42 18 46 17 45 -124 0
20 15 42 18 46 17 45 -125 0
20 15 42 18 46 17 45 -123 0
20 15 42 18 46 17 45 -126 0
38 44 31 42 35 46 36 -171 0
38 44 31 42 35 46 36 -174 0
38 44 31 42 35 46 36 -173 0
38 44 31 42 35 46 36 -172 0
38 44 31 42 35 46 45 -171 0
38 44 31 42 35 46 45 -174 0
38 44 31 42 35 46 45 -173 0
38 44 31 42 35 46 45 -172 0
38 44 31 42 35 36 45 -171 0
38 44 31 42 35 36 45 -174 0
38 44 31 42 35 36 45 -173 0
38 44 31 42 35 36 45 -172 0
38 44 31 42 46 36 45 -171 0
38 44 31 42 46 36 45 -174 0
38 44 31 42 46 36 45 -173 0
38 44 31 42 46 36 45 -172 0
38 44 31 35 46 36 45 -171 0
38 44 31 35 46 36 45 -174 0
38 44 31 35 46 36 45 -173 0
38 44 31 35 46 36 45 -172 0
38 44 42 35 46 36 45 -171 0
38 44 42 35 46 36 45 -174 0
38 44 42 35 46 36 45 -173 0
38 44 42 35 46 36 45 -172 0
38 55 31 62 35 58 36 -182 0
38 55 31 62 35 58 36 -181 0
38 55 31 62 35 58 36 -179 0
38 55 31 62 35 58 36 -180 0
38 51 31 54 35 49 36 -177 0
38 51 31 54 35 49 36 -176 0
38 51 31 54 35 49 36 -175 0
38 51 31 54 35 49 36 -178 0
38 73 31 71 35 75 36 -188 0
38 73 31 71 35 75 36 -189 0
38 73 31 71 35 75 36 -190 0
38 73 31 71 35 75 36 -187 0
38 23 31 28 35 29 36 -145 0
38 23 31 28 35 29 36 -148 0
38 23 31 28 35 29 36 -146 0
38 23 31 28 35 29 36 -147 0
38 10 31 11 35 13 36 -89 0
38 10 31 11 35 13 36 -90 0
38 10 31 11 35 13 36 -91 0
38 10 31 11 35 13 36 -92 0
38 6 31 4 35 5 36 -37 0
38 6 31 4 35 5 36 -33 0
38 6 31 4 35 5 36 -32 0
38 6 31 4 35 5 36 -34 0
38 69 31 66 35 63 36 -183 0
38 69 31 66 35 63 36 -185 0
38 69 31 66 35 63 36 -186 0
38 69 31 66 35 63 36 -184 0
38 15 31 18 35 17 36 -121 0
38 15 31 18 35 17 36 -122 0
38 15 31 18 35 17 36 -120 0
38 15 31 18 35 17 36 -119 0
38 31 42 35 46 36 45 -171 0
38 31 42 35 46 36 45 -174 0
38 31 42 35 46 36 45 -173 0
38 31 42 35 46 36 45 -172 0
44 55 42 62 46 58 45 -200 0
44 55 42 62 46 58 45 -198 0
44 55 42 62 46 58 45 -197 0
44 55 42 62 46 58 45 -199 0
44 51 42 54 46 49 45 -194 0
44 51 42 54 46 49 45 -196 0
44 51 42 54 46 49 45 -195 0
44 51 42 54 46 49 45 -193 0
44 73 42 71 46 75 45 -208 0
44 73 42 71 46 75 45 -206 0
44 73 42 71 46 75 45 -205 0
44 73 42 71 46 75 45 -207 0
44 23 42 28 46 29 45 -152 0
44 23 42 28 46 29 45 -150 0
44 23 42 28 46 29 45 -149 0
44 23 42 28 46 29 45 -151 0
44 10 42 11 46 13 45 -93 0
44 10 42 11 46 13 45 -94 0
44 10 42 11 46 13 45 -95 0
44 10 42 11 46 13 45 -96 0
44 6 42 4 46 5 45 -39 0
44 6 42 4 46 5 45 -41 0
44 6 42 4 46 5 45 -43 0
44 6 42 4 46 5 45 -40 0
44 69 42 66 46 63 45 -202 0
44 69 42 66 46 63 45 -201 0
44 69 42 66 46 63 45 -204 0
44 69 42 66 46 63 45 -203 0
44 15 42 18 46 17 45 -124 0
44 15 42 18 46 17 45 -125 0
44 15 42 18 46 17 45 -123 0
44 15 42 18 46 17 45 -126 0
44 31 42 35 46 36 45 -171 0
44 31 42 35 46 36 45 -174 0
44 31 42 35 46 36 45 -173 0
44 31 42 35 46 36 45 -172 0
57 53 55 51 62 54 58 49 -213 0
57 53 55 51 62 54 58 49 -212 0
57 53 55 51 62 54 58 49 -214 0
57 53 55 51 62 54 58 49 -211 0
57 78 55 73 62 71 58 75 -229 0
57 78 55 73 62 71 58 75 -231 0
57 78 55 73 62 71 58 75 -230 0
57 78 55 73 62 71 58 75 -232 0
57 25 55 23 62 28 58 29 -157 0
57 25 55 23 62 28 58 29 -159 0
57 25 55 23 62 28 58 29 -158 0
57 25 55 23 62 28 58 29 -160 0
57 12 55 10 62 11 58 13 -101 0
57 12 55 10 62 11 58 13 -103 0
57 12 55 10 62 11 58 13 -102 0
57 12 55 10 62 11 58 13 -104 0
57 2 55 6 62 4 58 5 -61 0
57 2 55 6 62 4 58 5 -56 0
57 2 55 6 62 4 58 5 -59 0
57 2 55 6 62 4 58 5 -60 0
57 70 55 69 62 66 58 63 -227 0
57 70 55 69 62 66 58 63 -225 0
57 70 55 69 62 66 58 63 -228 0
57 70 55 69 62 66 58 63 -226 0
57 20 55 15 62 18 58 17 -132 0
57 20 55 15 62 18 58 17 -131 0
57 20 55 15 62 18 58 17 -134 0
57 20 55 15 62 18 58 17 -133 0
57 38 55 31 62 35 58 36 -182 0
57 38 55 31 62 35 58 36 -181 0
57 38 55 31 62 35 58 36 -179 0
57 38 55 31 62 35 58 36 -180 0
57 44 55 42 62 46 58 45 -200 0
57 44 55 42 62 46 58 45 -198 0
57 44 55 42 62 46 58 45 -197 0
57 44 55 42 62 46 58 45 -199 0
53 78 51 73 54 71 49 75 -221 0
53 78 51 73 54 71 49 75 -220 0
53 78 51 73 54 71 49 75 -222 0
53 78 51 73 54 71 49 75 -219 0
53 25 51 23 54 28 49 29 -154 0
53 25 51 23 54 28 49 29 -153 0
53 25 51 23 54 28 49 29 -156 0
53 25 51 23 54 28 49 29 -155 0
53 12 51 10 54 11 49 13 -98 0
53 12 51 10 54 11 49 13 -99 0
53 12 51 10 54 11 49 13 -100 0
53 12 51 10 54 11 49 13 -97 0
53 2 51 6 54 4 49 5 -48 0
53 2 51 6 54 4 49 5 -50 0
53 2 51 6 54 4 49 5 -52 0
53 2 51 6 54 4 49 5 -47 0
53 70 51 69 54 66 49 63 -218 0
53 70 51 69 54 66 49 63 -216 0
53 70 51 69 54 66 49 63 -215 0
53 70 51 69 54 66 49 63 -217 0
53 20 51 15 54 18 49 17 -129 0
53 20 51 15 54 18 49 17 -128 0
53 20 51 15 54 18 49 17 -127 0
53 20 51 15 54 18 49 17 -130 0
53 38 51 31 54 35 49 36 -177 0
53 38 51 31 54 35 49 36 -176 0
53 38 51 31 54 35 49 36 -175 0
53 38 51 31 54 35 49 36 -178 0
53 44 51 42 54 46 49 45 -194 0
53 44 51 42 54 46 49 45 -196 0
53 44 51 42 54 46 49 45 -195 0
53 44 51 42 54 46 49 45 -193 0
78 25 73 23 71 28 75 29 -166 0
78 25 73 23 71 28 75 29 -165 0
78 25 73 23 71 28 75 29 -168 0
78 25 73 23 71 28 75 29 -167 0
78 12 73 10 71 11 75 13 -109 0
78 12 73 10 71 11 75 13 -111 0
78 12 73 10 71 11 75 13 -110 0
78 12 73 10 71 11 75 13 -112 0
78 2 73 6 71 4 75 5 -76 0
78 2 73 6 71 4 75 5 -72 0
78 2 73 6 71 4 75 5 -77 0
78 2 73 6 71 4 75 5 -74 0
78 70 73 69 71 66 75 63 -238 0
78 70 73 69 71 66 75 63 -235 0
78 70 73 69 71 66 75 63 -236 0
78 70 73 69 71 66 75 63 -237 0
78 20 73 15 71 18 75 17 -140 0
78 20 73 15 71 18 75 17 -142 0
78 20 73 15 71 18 75 17 -141 0
78 20 73 15 71 18 75 17 -139 0
78 38 73 31 71 35 75 36 -188 0
78 38 73 31 71 35 75 36 -189 0
78 38 73 31 71 35 75 36 -190 0
78 38 73 31 71 35 75 36 -187 0
78 44 73 42 71 46 75 45 -208 0
78 44 73 42 71 46 75 45 -206 0
78 44 73 42 71 46 75 45 -205 0
78 44 73 42 71 46 75 45 -207 0
25 12 23 10 28 11 29 13 -85 0
25 12 23 10 28 11 29 13 -87 0
25 12 23 10 28 11 29 13 -86 0
25 12 23 10 28 11 29 13 -88 0
25 2 23 6 28 4 29 5 -27 0
25 2 23 6 28 4 29 5 -24 0
25 2 23 6 28 4 29 5 -30 0
25 2 23 6 28 4 29 5 -26 0
25 70 23 69 28 66 29 63 -164 0
25 70 23 69 28 66 29 63 -161 0
25 70 23 69 28 66 29 63 -162 0
25 70 23 69 28 66 29 63 -163 0
25 20 23 15 28 18 29 17 -118 0
25 20 23 15 28 18 29 17 -116 0
25 20 23 15 28 18 29 17 -115 0
25 20 23 15 28 18 29 17 -117 0
25 38 23 31 28 35 29 36 -145 0
25 38 23 31 28 35 29 36 -148 0
25 38 23 31 28 35 29 36 -146 0
25 38 23 31 28 35 29 36 -147 0
25 44 23 42 28 46 29 45 -152 0
25 44 23 42 28 46 29 45 -150 0
25 44 23 42 28 46 29 45 -149 0
25 44 23 42 28 46 29 45 -151 0
12 2 10 6 11 4 13 5 -14 0
12 2 10 6 11 4 13 5 -8 0
12 2 10 6 11 4 13 5 -7 0
12 2 10 6 11 4 13 5 -9 0
12 70 10 69 11 66 13 63 -107 0
12 70 10 69 11 66 13 63 -106 0
12 70 10 69 11 66 13 63 -105 0
12 70 10 69 11 66 13 63 -108 0
12 20 10 15 11 18 13 17 -83 0
12 20 10 15 11 18 13 17 -84 0
12 20 10 15 11 18 13 17 -82 0
12 20 10 15 11 18 13 17 -81 0
12 38 10 31 11 35 13 36 -89 0
12 38 10 31 11 35 13 36 -90 0
12 38 10 31 11 35 13 36 -91 0
12 38 10 31 11 35 13 36 -92 0
12 44 10 42 11 46 13 45 -93 0
12 44 10 42 11 46 13 45 -94 0
12 44 10 42 11 46 13 45 -95 0
12 44 10 42 11 46 13 45 -96 0
2 70 6 69 4 66 5 63 -64 0
2 70 6 69 4 66 5 63 -67 0
2 70 6 69 4 66 5 63 -68 0
2 70 6 69 4 66 5 63 -65 0
2 20 6 15 4 18 5 17 -19 0
2 20 6 15 4 18 5 17 -16 0
2 20 6 15 4 18 5 17 -21 0
2 20 6 15 4 18 5 17 -22 0
2 38 6 31 4 35 5 36 -37 0
2 38 6 31 4 35 5 36 -33 0
2 38 6 31 4 35 5 36 -32 0
2 38 6 31 4 35 5 36 -34 0
2 44 6 42 4 46 5 45 -39 0
2 44 6 42 4 46 5 45 -41 0
2 44 6 42 4 46 5 45 -43 0
2 44 6 42 4 46 5 45 -40 0
70 20 69 15 66 18 63 17 -136 0
70 20 69 15 66 18 63 17 -135 0
70 20 69 15 66 18 63 17 -137 0
70 20 69 15 66 18 63 17 -138 0
70 38 69 31 66 35 63 36 -183 0
70 38 69 31 66 35 63 36 -185 0
70 38 69 31 66 35 63 36 -186 0
70 38 69 31 66 35 63 36 -184 0
70 44 69 42 66 46 63 45 -202 0
70 44 69 42 66 46 63 45 -201 0
70 44 69 42 66 46 63 45 -204 0
70 44 69 42 66 46 63 45 -203 0
20 38 15 31 18 35 17 36 -121 0
20 38 15 31 18 35 17 36 -122 0
20 38 15 31 18 35 17 36 -120 0
20 38 15 31 18 35 17 36 -119 0
20 44 15 42 18 46 17 45 -124 0
20 44 15 42 18 46 17 45 -125 0
20 44 15 42 18 46 17 45 -123 0
20 44 15 42 18 46 17 45 -126 0
38 44 31 42 35 46 36 45 -171 0
38 44 31 42 35 46 36 45 -174 0
38 44 31 42 35 46 36 45 -173 0
38 44 31 42 35 46 36 45 -172 0
223 213 229 157 101 61 227 132 182 200 0
212 209 221 154 98 48 218 129 177 194 0
231 220 240 166 109 76 238 140 188 208 0
159 153 165 144 85 27 164 118 145 152 0
103 99 111 87 79 14 107 83 89 93 0
56 50 72 24 8 3 64 19 37 39 0
225 216 235 161 106 67 233 136 183 202 0
131 128 142 116 84 16 135 114 121 124 0
181 176 189 148 90 33 185 122 170 171 0
198 196 206 150 94 41 201 125 174 192 0
224 214 230 158 102 59 228 134 179 197 0
211 210 222 156 100 52 215 127 175 195 0
232 219 239 168 110 77 236 141 190 205 0
160 155 167 143 86 30 162 115 146 149 0
104 97 112 88 80 7 105 82 91 95 0
60 47 74 26 9 1 68 21 32 43 0
226 217 237 163 108 65 234 137 186 204 0
133 130 139 117 81 22 138 113 120 123 0
180 178 187 147 92 34 184 119 169 173 0
199 193 207 151 96 40 203 126 172 191 0
