c U1(3) U3(3) U2(3) E1(3,3) E2(3,3) U4(3) E1(3,1) U3(1) E2(3,1) U2(1) U1(1) U4(1) E1(1,3) E2(1,3) E1(0,3) E2(3,0) U2(0) E1(3,0) E2(0,3) U4(0) U1(0) U3(0) E1(2,3) U4(2) U3(2) E2(2,3) E2(3,2) U1(2) U2(2) E1(3,2) E1(1,1) E2(1,1) E2(1,0) E1(1,0) E1(0,1) E2(0,1) E1(2,1) E2(1,2) E1(1,2) E2(2,1) E2(0,0) E1(0,0) E1(0,2) E2(0,2) E1(2,0) E2(2,0) E1(2,2) E2(2,2)
c 1 2 3 4 5 6 7 8 9 10 11 12 13 14 15 16 17 18 19 20 21 22 23 24 25 26 27 28 29 30 31 32 33 34 35 36 37 38 39 40 41 42 43 44 45 46 47 48
p cnf 48 964
42 -42 0
35 -34 0
43 -45 0
15 -18 0
34 -35 0
31 -31 0
39 -37 0
13 -7 0
45 -43 0
37 -39 0
47 -47 0
23 -30 0
18 -15 0
7 -13 0
30 -23 0
4 -4 0
41 -41 0
36 -33 0
44 -46 0
19 -16 0
33 -36 0
32 -32 0
38 -40 0
14 -9 0
46 -44 0
40 -38 0
48 -48 0
26 -27 0
16 -19 0
9 -14 0
27 -26 0
5 -5 0
-42 -41 0
-35 -36 0
-43 -44 0
-15 -19 0
-34 -33 0
-31 -32 0
-39 -38 0
-13 -14 0
-45 -46 0
-37 -40 0
-47 -48 0
-23 -26 0
-18 -16 0
-7 -9 0
-30 -27 0
-4 -5 0
-21 -17 0
-21 -22 0
-21 -20 0
-11 -10 0
-11 -8 0
-11 -12 0
-28 -29 0
-28 -25 0
-28 -24 0
-1 -3 0
-1 -2 0
-1 -6 0
-17 -22 0
-17 -20 0
-10 -8 0
-10 -12 0
-29 -25 0
-29 -24 0
-3 -2 0
-3 -6 0
-22 -20 0
-8 -12 0
-25 -24 0
-2 -6 0
42 35 43 15 0
34 31 39 13 0
45 37 47 23 0
18 7 30 4 0
41 36 44 19 0
33 32 38 14 0
46 40 48 26 0
16 9 27 5 0
21 17 22 20 0
11 10 8 12 0
28 29 25 24 0
1 3 2 6 0
21 17 22 -42 0
21 17 22 -41 0
21 17 20 -42 0
21 17 20 -41 0
21 22 20 -42 0
21 22 20 -41 0
11 10 8 -31 0
11 10 8 -32 0
11 10 12 -31 0
11 10 12 -32 0
11 8 12 -31 0
11 8 12 -32 0
28 29 25 -47 0
28 29 25 -48 0
28 29 24 -47 0
28 29 24 -48 0
28 25 24 -47 0
28 25 24 -48 0
1 3 2 -4 0
1 3 2 -5 0
1 3 6 -4 0
1 3 6 -5 0
1 2 6 -4 0
1 2 6 -5 0
17 22 20 -42 0
17 22 20 -41 0
10 8 12 -31 0
10 8 12 -32 0
29 25 24 -47 0
29 25 24 -48 0
3 2 6 -4 0
3 2 6 -5 0
21 17 22 20 -42 0
21 17 22 20 -35 0
21 17 22 20 -43 0
21 17 22 20 -15 0
21 17 22 20 -34 0
21 17 22 20 -45 0
21 17 22 20 -18 0
21 17 22 20 -41 0
21 17 22 20 -36 0
21 17 22 20 -44 0
21 17 22 20 -19 0
21 17 22 20 -33 0
21 17 22 20 -46 0
21 17 22 20 -16 0
11 10 8 12 -35 0
11 10 8 12 -34 0
11 10 8 12 -31 0
11 10 8 12 -39 0
11 10 8 12 -13 0
11 10 8 12 -37 0
11 10 8 12 -7 0
11 10 8 12 -36 0
11 10 8 12 -33 0
11 10 8 12 -32 0
11 10 8 12 -38 0
11 10 8 12 -14 0
11 10 8 12 -40 0
11 10 8 12 -9 0
28 29 25 24 -43 0
28 29 25 24 -39 0
28 29 25 24 -45 0
28 29 25 24 -37 0
28 29 25 24 -47 0
28 29 25 24 -23 0
28 29 25 24 -30 0
28 29 25 24 -44 0
28 29 25 24 -38 0
28 29 25 24 -46 0
28 29 25 24 -40 0
28 29 25 24 -48 0
28 29 25 24 -26 0
28 29 25 24 -27 0
1 3 2 6 -15 0
1 3 2 6 -13 0
1 3 2 6 -23 0
1 3 2 6 -18 0
1 3 2 6 -7 0
1 3 2 6 -30 0
1 3 2 6 -4 0
1 3 2 6 -19 0
1 3 2 6 -14 0
1 3 2 6 -26 0
1 3 2 6 -16 0
1 3 2 6 -9 0
1 3 2 6 -27 0
1 3 2 6 -5 0
21 11 17 22 20 -35 0
21 11 17 22 20 -34 0
21 11 17 22 20 -36 0
21 11 17 22 20 -33 0
21 11 10 8 12 -35 0
21 11 10 8 12 -34 0
21 11 10 8 12 -36 0
21 11 10 8 12 -33 0
21 28 17 22 20 -43 0
21 28 17 22 20 -45 0
21 28 17 22 20 -44 0
21 28 17 22 20 -46 0
21 28 29 25 24 -43 0
21 28 29 25 24 -45 0
21 28 29 25 24 -44 0
21 28 29 25 24 -46 0
21 1 17 22 20 -15 0
21 1 17 22 20 -18 0
21 1 17 22 20 -19 0
21 1 17 22 20 -16 0
21 1 3 2 6 -15 0
21 1 3 2 6 -18 0
21 1 3 2 6 -19 0
21 1 3 2 6 -16 0
21 17 10 22 20 -35 0
21 17 10 22 20 -34 0
21 17 10 22 20 -36 0
21 17 10 22 20 -33 0
21 17 29 22 20 -43 0
21 17 29 22 20 -45 0
21 17 29 22 20 -44 0
21 17 29 22 20 -46 0
21 17 3 22 20 -15 0
21 17 3 22 20 -18 0
21 17 3 22 20 -19 0
21 17 3 22 20 -16 0
21 17 22 8 20 -35 0
21 17 22 8 20 -34 0
21 17 22 8 20 -36 0
21 17 22 8 20 -33 0
21 17 22 25 20 -43 0
21 17 22 25 20 -45 0
21 17 22 25 20 -44 0
21 17 22 25 20 -46 0
21 17 22 2 20 -15 0
21 17 22 2 20 -18 0
21 17 22 2 20 -19 0
21 17 22 2 20 -16 0
21 17 22 20 12 -35 0
21 17 22 20 12 -34 0
21 17 22 20 12 -36 0
21 17 22 20 12 -33 0
21 17 22 20 24 -43 0
21 17 22 20 24 -45 0
21 17 22 20 24 -44 0
21 17 22 20 24 -46 0
21 17 22 20 6 -15 0
21 17 22 20 6 -18 0
21 17 22 20 6 -19 0
21 17 22 20 6 -16 0
11 28 10 8 12 -39 0
11 28 10 8 12 -37 0
11 28 10 8 12 -38 0
11 28 10 8 12 -40 0
11 28 29 25 24 -39 0
11 28 29 25 24 -37 0
11 28 29 25 24 -38 0
11 28 29 25 24 -40 0
11 1 10 8 12 -13 0
11 1 10 8 12 -7 0
11 1 10 8 12 -14 0
11 1 10 8 12 -9 0
11 1 3 2 6 -13 0
11 1 3 2 6 -7 0
11 1 3 2 6 -14 0
11 1 3 2 6 -9 0
11 17 10 8 12 -35 0
11 17 10 8 12 -34 0
11 17 10 8 12 -36 0
11 17 10 8 12 -33 0
11 10 29 8 12 -39 0
11 10 29 8 12 -37 0
11 10 29 8 12 -38 0
11 10 29 8 12 -40 0
11 10 3 8 12 -13 0
11 10 3 8 12 -7 0
11 10 3 8 12 -14 0
11 10 3 8 12 -9 0
11 10 22 8 12 -35 0
11 10 22 8 12 -34 0
11 10 22 8 12 -36 0
11 10 22 8 12 -33 0
11 10 8 25 12 -39 0
11 10 8 25 12 -37 0
11 10 8 25 12 -38 0
11 10 8 25 12 -40 0
11 10 8 2 12 -13 0
11 10 8 2 12 -7 0
11 10 8 2 12 -14 0
11 10 8 2 12 -9 0
11 10 8 20 12 -35 0
11 10 8 20 12 -34 0
11 10 8 20 12 -36 0
11 10 8 20 12 -33 0
11 10 8 12 24 -39 0
11 10 8 12 24 -37 0
11 10 8 12 24 -38 0
11 10 8 12 24 -40 0
11 10 8 12 6 -13 0
11 10 8 12 6 -7 0
11 10 8 12 6 -14 0
11 10 8 12 6 -9 0
28 1 29 25 24 -23 0
28 1 29 25 24 -30 0
28 1 29 25 24 -26 0
28 1 29 25 24 -27 0
28 1 3 2 6 -23 0
28 1 3 2 6 -30 0
28 1 3 2 6 -26 0
28 1 3 2 6 -27 0
28 17 29 25 24 -43 0
28 17 29 25 24 -45 0
28 17 29 25 24 -44 0
28 17 29 25 24 -46 0
28 10 29 25 24 -39 0
28 10 29 25 24 -37 0
28 10 29 25 24 -38 0
28 10 29 25 24 -40 0
28 29 3 25 24 -23 0
28 29 3 25 24 -30 0
28 29 3 25 24 -26 0
28 29 3 25 24 -27 0
28 29 22 25 24 -43 0
28 29 22 25 24 -45 0
28 29 22 25 24 -44 0
28 29 22 25 24 -46 0
28 29 8 25 24 -39 0
28 29 8 25 24 -37 0
28 29 8 25 24 -38 0
28 29 8 25 24 -40 0
28 29 25 2 24 -23 0
28 29 25 2 24 -30 0
28 29 25 2 24 -26 0
28 29 25 2 24 -27 0
28 29 25 20 24 -43 0
28 29 25 20 24 -45 0
28 29 25 20 24 -44 0
28 29 25 20 24 -46 0
28 29 25 12 24 -39 0
28 29 25 12 24 -37 0
28 29 25 12 24 -38 0
28 29 25 12 24 -40 0
28 29 25 24 6 -23 0
28 29 25 24 6 -30 0
28 29 25 24 6 -26 0
28 29 25 24 6 -27 0
1 17 3 2 6 -15 0
1 17 3 2 6 -18 0
1 17 3 2 6 -19 0
1 17 3 2 6 -16 0
1 10 3 2 6 -13 0
1 10 3 2 6 -7 0
1 10 3 2 6 -14 0
1 10 3 2 6 -9 0
1 29 3 2 6 -23 0
1 29 3 2 6 -30 0
1 29 3 2 6 -26 0
1 29 3 2 6 -27 0
1 3 22 2 6 -15 0
1 3 22 2 6 -18 0
1 3 22 2 6 -19 0
1 3 22 2 6 -16 0
1 3 8 2 6 -13 0
1 3 8 2 6 -7 0
1 3 8 2 6 -14 0
1 3 8 2 6 -9 0
1 3 25 2 6 -23 0
1 3 25 2 6 -30 0
1 3 25 2 6 -26 0
1 3 25 2 6 -27 0
1 3 2 20 6 -15 0
1 3 2 20 6 -18 0
1 3 2 20 6 -19 0
1 3 2 20 6 -16 0
1 3 2 12 6 -13 0
1 3 2 12 6 -7 0
1 3 2 12 6 -14 0
1 3 2 12 6 -9 0
1 3 2 24 6 -23 0
1 3 2 24 6 -30 0
1 3 2 24 6 -26 0
1 3 2 24 6 -27 0
21 11 17 10 22 8 -35 0
21 11 17 10 22 8 -34 0
21 11 17 10 22 8 -36 0
21 11 17 10 22 8 -33 0
21 11 17 10 22 20 -35 0
21 11 17 10 22 20 -34 0
21 11 17 10 22 20 -36 0
21 11 17 10 22 20 -33 0
21 11 17 10 8 12 -35 0
21 11 17 10 8 12 -34 0
21 11 17 10 8 12 -36 0
21 11 17 10 8 12 -33 0
21 11 17 10 20 12 -35 0
21 11 17 10 20 12 -34 0
21 11 17 10 20 12 -36 0
21 11 17 10 20 12 -33 0
21 11 17 22 8 20 -35 0
21 11 17 22 8 20 -34 0
21 11 17 22 8 20 -36 0
21 11 17 22 8 20 -33 0
21 11 17 22 20 12 -35 0
21 11 17 22 20 12 -34 0
21 11 17 22 20 12 -36 0
21 11 17 22 20 12 -33 0
21 11 10 22 8 12 -35 0
21 11 10 22 8 12 -34 0
21 11 10 22 8 12 -36 0
21 11 10 22 8 12 -33 0
21 11 10 8 20 12 -35 0
21 11 10 8 20 12 -34 0
21 11 10 8 20 12 -36 0
21 11 10 8 20 12 -33 0
21 11 22 8 20 12 -35 0
21 11 22 8 20 12 -34 0
21 11 22 8 20 12 -36 0
21 11 22 8 20 12 -33 0
21 28 17 29 22 25 -43 0
21 28 17 29 22 25 -45 0
21 28 17 29 22 25 -44 0
21 28 17 29 22 25 -46 0
21 28 17 29 22 20 -43 0
21 28 17 29 22 20 -45 0
21 28 17 29 22 20 -44 0
21 28 17 29 22 20 -46 0
21 28 17 29 25 24 -43 0
21 28 17 29 25 24 -45 0
21 28 17 29 25 24 -44 0
21 28 17 29 25 24 -46 0
21 28 17 29 20 24 -43 0
21 28 17 29 20 24 -45 0
21 28 17 29 20 24 -44 0
21 28 17 29 20 24 -46 0
21 28 17 22 25 20 -43 0
21 28 17 22 25 20 -45 0
21 28 17 22 25 20 -44 0
21 28 17 22 25 20 -46 0
21 28 17 22 20 24 -43 0
21 28 17 22 20 24 -45 0
21 28 17 22 20 24 -44 0
21 28 17 22 20 24 -46 0
21 28 29 22 25 24 -43 0
21 28 29 22 25 24 -45 0
21 28 29 22 25 24 -44 0
21 28 29 22 25 24 -46 0
21 28 29 25 20 24 -43 0
21 28 29 25 20 24 -45 0
21 28 29 25 20 24 -44 0
21 28 29 25 20 24 -46 0
21 28 22 25 20 24 -43 0
21 28 22 25 20 24 -45 0
21 28 22 25 20 24 -44 0
21 28 22 25 20 24 -46 0
21 1 17 3 22 2 -15 0
21 1 17 3 22 2 -18 0
21 1 17 3 22 2 -19 0
21 1 17 3 22 2 -16 0
21 1 17 3 22 20 -15 0
21 1 17 3 22 20 -18 0
21 1 17 3 22 20 -19 0
21 1 17 3 22 20 -16 0
21 1 17 3 2 6 -15 0
21 1 17 3 2 6 -18 0
21 1 17 3 2 6 -19 0
21 1 17 3 2 6 -16 0
21 1 17 3 20 6 -15 0
21 1 17 3 20 6 -18 0
21 1 17 3 20 6 -19 0
21 1 17 3 20 6 -16 0
21 1 17 22 2 20 -15 0
21 1 17 22 2 20 -18 0
21 1 17 22 2 20 -19 0
21 1 17 22 2 20 -16 0
21 1 17 22 20 6 -15 0
21 1 17 22 20 6 -18 0
21 1 17 22 20 6 -19 0
21 1 17 22 20 6 -16 0
21 1 3 22 2 6 -15 0
21 1 3 22 2 6 -18 0
21 1 3 22 2 6 -19 0
21 1 3 22 2 6 -16 0
21 1 3 2 20 6 -15 0
21 1 3 2 20 6 -18 0
21 1 3 2 20 6 -19 0
21 1 3 2 20 6 -16 0
21 1 22 2 20 6 -15 0
21 1 22 2 20 6 -18 0
21 1 22 2 20 6 -19 0
21 1 22 2 20 6 -16 0
21 17 10 22 8 20 -35 0
21 17 10 22 8 20 -34 0
21 17 10 22 8 20 -36 0
21 17 10 22 8 20 -33 0
21 17 10 22 20 12 -35 0
21 17 10 22 20 12 -34 0
21 17 10 22 20 12 -36 0
21 17 10 22 20 12 -33 0
21 17 29 22 25 20 -43 0
21 17 29 22 25 20 -45 0
21 17 29 22 25 20 -44 0
21 17 29 22 25 20 -46 0
21 17 29 22 20 24 -43 0
21 17 29 22 20 24 -45 0
21 17 29 22 20 24 -44 0
21 17 29 22 20 24 -46 0
21 17 3 22 2 20 -15 0
21 17 3 22 2 20 -18 0
21 17 3 22 2 20 -19 0
21 17 3 22 2 20 -16 0
21 17 3 22 20 6 -15 0
21 17 3 22 20 6 -18 0
21 17 3 22 20 6 -19 0
21 17 3 22 20 6 -16 0
21 17 22 8 20 12 -35 0
21 17 22 8 20 12 -34 0
21 17 22 8 20 12 -36 0
21 17 22 8 20 12 -33 0
21 17 22 25 20 24 -43 0
21 17 22 25 20 24 -45 0
21 17 22 25 20 24 -44 0
21 17 22 25 20 24 -46 0
21 17 22 2 20 6 -15 0
21 17 22 2 20 6 -18 0
21 17 22 2 20 6 -19 0
21 17 22 2 20 6 -16 0
11 28 10 29 8 25 -39 0
11 28 10 29 8 25 -37 0
11 28 10 29 8 25 -38 0
11 28 10 29 8 25 -40 0
11 28 10 29 8 12 -39 0
11 28 10 29 8 12 -37 0
11 28 10 29 8 12 -38 0
11 28 10 29 8 12 -40 0
11 28 10 29 25 24 -39 0
11 28 10 29 25 24 -37 0
11 28 10 29 25 24 -38 0
11 28 10 29 25 24 -40 0
11 28 10 29 12 24 -39 0
11 28 10 29 12 24 -37 0
11 28 10 29 12 24 -38 0
11 28 10 29 12 24 -40 0
11 28 10 8 25 12 -39 0
11 28 10 8 25 12 -37 0
11 28 10 8 25 12 -38 0
11 28 10 8 25 12 -40 0
11 28 10 8 12 24 -39 0
11 28 10 8 12 24 -37 0
11 28 10 8 12 24 -38 0
11 28 10 8 12 24 -40 0
11 28 29 8 25 24 -39 0
11 28 29 8 25 24 -37 0
11 28 29 8 25 24 -38 0
11 28 29 8 25 24 -40 0
11 28 29 25 12 24 -39 0
11 28 29 25 12 24 -37 0
11 28 29 25 12 24 -38 0
11 28 29 25 12 24 -40 0
11 28 8 25 12 24 -39 0
11 28 8 25 12 24 -37 0
11 28 8 25 12 24 -38 0
11 28 8 25 12 24 -40 0
11 1 10 3 8 2 -13 0
11 1 10 3 8 2 -7 0
11 1 10 3 8 2 -14 0
11 1 10 3 8 2 -9 0
11 1 10 3 8 12 -13 0
11 1 10 3 8 12 -7 0
11 1 10 3 8 12 -14 0
11 1 10 3 8 12 -9 0
11 1 10 3 2 6 -13 0
11 1 10 3 2 6 -7 0
11 1 10 3 2 6 -14 0
11 1 10 3 2 6 -9 0
11 1 10 3 12 6 -13 0
11 1 10 3 12 6 -7 0
11 1 10 3 12 6 -14 0
11 1 10 3 12 6 -9 0
11 1 10 8 2 12 -13 0
11 1 10 8 2 12 -7 0
11 1 10 8 2 12 -14 0
11 1 10 8 2 12 -9 0
11 1 10 8 12 6 -13 0
11 1 10 8 12 6 -7 0
11 1 10 8 12 6 -14 0
11 1 10 8 12 6 -9 0
11 1 3 8 2 6 -13 0
11 1 3 8 2 6 -7 0
11 1 3 8 2 6 -14 0
11 1 3 8 2 6 -9 0
11 1 3 2 12 6 -13 0
11 1 3 2 12 6 -7 0
11 1 3 2 12 6 -14 0
11 1 3 2 12 6 -9 0
11 1 8 2 12 6 -13 0
11 1 8 2 12 6 -7 0
11 1 8 2 12 6 -14 0
11 1 8 2 12 6 -9 0
11 17 10 22 8 12 -35 0
11 17 10 22 8 12 -34 0
11 17 10 22 8 12 -36 0
11 17 10 22 8 12 -33 0
11 17 10 8 20 12 -35 0
11 17 10 8 20 12 -34 0
11 17 10 8 20 12 -36 0
11 17 10 8 20 12 -33 0
11 10 29 8 25 12 -39 0
11 10 29 8 25 12 -37 0
11 10 29 8 25 12 -38 0
11 10 29 8 25 12 -40 0
11 10 29 8 12 24 -39 0
11 10 29 8 12 24 -37 0
11 10 29 8 12 24 -38 0
11 10 29 8 12 24 -40 0
11 10 3 8 2 12 -13 0
11 10 3 8 2 12 -7 0
11 10 3 8 2 12 -14 0
11 10 3 8 2 12 -9 0
11 10 3 8 12 6 -13 0
11 10 3 8 12 6 -7 0
11 10 3 8 12 6 -14 0
11 10 3 8 12 6 -9 0
11 10 22 8 20 12 -35 0
11 10 22 8 20 12 -34 0
11 10 22 8 20 12 -36 0
11 10 22 8 20 12 -33 0
11 10 8 25 12 24 -39 0
11 10 8 25 12 24 -37 0
11 10 8 25 12 24 -38 0
11 10 8 25 12 24 -40 0
11 10 8 2 12 6 -13 0
11 10 8 2 12 6 -7 0
11 10 8 2 12 6 -14 0
11 10 8 2 12 6 -9 0
28 1 29 3 25 2 -23 0
28 1 29 3 25 2 -30 0
28 1 29 3 25 2 -26 0
28 1 29 3 25 2 -27 0
28 1 29 3 25 24 -23 0
28 1 29 3 25 24 -30 0
28 1 29 3 25 24 -26 0
28 1 29 3 25 24 -27 0
28 1 29 3 2 6 -23 0
28 1 29 3 2 6 -30 0
28 1 29 3 2 6 -26 0
28 1 29 3 2 6 -27 0
28 1 29 3 24 6 -23 0
28 1 29 3 24 6 -30 0
28 1 29 3 24 6 -26 0
28 1 29 3 24 6 -27 0
28 1 29 25 2 24 -23 0
28 1 29 25 2 24 -30 0
28 1 29 25 2 24 -26 0
28 1 29 25 2 24 -27 0
28 1 29 25 24 6 -23 0
28 1 29 25 24 6 -30 0
28 1 29 25 24 6 -26 0
28 1 29 25 24 6 -27 0
28 1 3 25 2 6 -23 0
28 1 3 25 2 6 -30 0
28 1 3 25 2 6 -26 0
28 1 3 25 2 6 -27 0
28 1 3 2 24 6 -23 0
28 1 3 2 24 6 -30 0
28 1 3 2 24 6 -26 0
28 1 3 2 24 6 -27 0
28 1 25 2 24 6 -23 0
28 1 25 2 24 6 -30 0
28 1 25 2 24 6 -26 0
28 1 25 2 24 6 -27 0
28 17 29 22 25 24 -43 0
28 17 29 22 25 24 -45 0
28 17 29 22 25 24 -44 0
28 17 29 22 25 24 -46 0
28 17 29 25 20 24 -43 0
28 17 29 25 20 24 -45 0
28 17 29 25 20 24 -44 0
28 17 29 25 20 24 -46 0
28 10 29 8 25 24 -39 0
28 10 29 8 25 24 -37 0
28 10 29 8 25 24 -38 0
28 10 29 8 25 24 -40 0
28 10 29 25 12 24 -39 0
28 10 29 25 12 24 -37 0
28 10 29 25 12 24 -38 0
28 10 29 25 12 24 -40 0
28 29 3 25 2 24 -23 0
28 29 3 25 2 24 -30 0
28 29 3 25 2 24 -26 0
28 29 3 25 2 24 -27 0
28 29 3 25 24 6 -23 0
28 29 3 25 24 6 -30 0
28 29 3 25 24 6 -26 0
28 29 3 25 24 6 -27 0
28 29 22 25 20 24 -43 0
28 29 22 25 20 24 -45 0
28 29 22 25 20 24 -44 0
28 29 22 25 20 24 -46 0
28 29 8 25 12 24 -39 0
28 29 8 25 12 24 -37 0
28 29 8 25 12 24 -38 0
28 29 8 25 12 24 -40 0
28 29 25 2 24 6 -23 0
28 29 25 2 24 6 -30 0
28 29 25 2 24 6 -26 0
28 29 25 2 24 6 -27 0
1 17 3 22 2 6 -15 0
1 17 3 22 2 6 -18 0
1 17 3 22 2 6 -19 0
1 17 3 22 2 6 -16 0
1 17 3 2 20 6 -15 0
1 17 3 2 20 6 -18 0
1 17 3 2 20 6 -19 0
1 17 3 2 20 6 -16 0
1 10 3 8 2 6 -13 0
1 10 3 8 2 6 -7 0
1 10 3 8 2 6 -14 0
1 10 3 8 2 6 -9 0
1 10 3 2 12 6 -13 0
1 10 3 2 12 6 -7 0
1 10 3 2 12 6 -14 0
1 10 3 2 12 6 -9 0
1 29 3 25 2 6 -23 0
1 29 3 25 2 6 -30 0
1 29 3 25 2 6 -26 0
1 29 3 25 2 6 -27 0
1 29 3 2 24 6 -23 0
1 29 3 2 24 6 -30 0
1 29 3 2 24 6 -26 0
1 29 3 2 24 6 -27 0
1 3 22 2 20 6 -15 0
1 3 22 2 20 6 -18 0
1 3 22 2 20 6 -19 0
1 3 22 2 20 6 -16 0
1 3 8 2 12 6 -13 0
1 3 8 2 12 6 -7 0
1 3 8 2 12 6 -14 0
1 3 8 2 12 6 -9 0
1 3 25 2 24 6 -23 0
1 3 25 2 24 6 -30 0
1 3 25 2 24 6 -26 0
1 3 25 2 24 6 -27 0
17 10 22 8 20 12 -35 0
17 10 22 8 20 12 -34 0
17 10 22 8 20 12 -36 0
17 10 22 8 20 12 -33 0
17 29 22 25 20 24 -43 0
17 29 22 25 20 24 -45 0
17 29 22 25 20 24 -44 0
17 29 22 25 20 24 -46 0
17 3 22 2 20 6 -15 0
17 3 22 2 20 6 -18 0
17 3 22 2 20 6 -19 0
17 3 22 2 20 6 -16 0
10 29 8 25 12 24 -39 0
10 29 8 25 12 24 -37 0
10 29 8 25 12 24 -38 0
10 29 8 25 12 24 -40 0
10 3 8 2 12 6 -13 0
10 3 8 2 12 6 -7 0
10 3 8 2 12 6 -14 0
10 3 8 2 12 6 -9 0
29 3 25 2 24 6 -23 0
29 3 25 2 24 6 -30 0
29 3 25 2 24 6 -26 0
29 3 25 2 24 6 -27 0
21 11 17 10 22 8 20 -35 0
21 11 17 10 22 8 20 -34 0
21 11 17 10 22 8 20 -36 0
21 11 17 10 22 8 20 -33 0
21 11 17 10 22 8 12 -35 0
21 11 17 10 22 8 12 -34 0
21 11 17 10 22 8 12 -36 0
21 11 17 10 22 8 12 -33 0
21 11 17 10 22 20 12 -35 0
21 11 17 10 22 20 12 -34 0
21 11 17 10 22 20 12 -36 0
21 11 17 10 22 20 12 -33 0
21 11 17 10 8 20 12 -35 0
21 11 17 10 8 20 12 -34 0
21 11 17 10 8 20 12 -36 0
21 11 17 10 8 20 12 -33 0
21 11 17 22 8 20 12 -35 0
21 11 17 22 8 20 12 -34 0
21 11 17 22 8 20 12 -36 0
21 11 17 22 8 20 12 -33 0
21 11 10 22 8 20 12 -35 0
21 11 10 22 8 20 12 -34 0
21 11 10 22 8 20 12 -36 0
21 11 10 22 8 20 12 -33 0
21 28 17 29 22 25 20 -43 0
21 28 17 29 22 25 20 -45 0
21 28 17 29 22 25 20 -44 0
21 28 17 29 22 25 20 -46 0
21 28 17 29 22 25 24 -43 0
21 28 17 29 22 25 24 -45 0
21 28 17 29 22 25 24 -44 0
21 28 17 29 22 25 24 -46 0
21 28 17 29 22 20 24 -43 0
21 28 17 29 22 20 24 -45 0
21 28 17 29 22 20 24 -44 0
21 28 17 29 22 20 24 -46 0
21 28 17 29 25 20 24 -43 0
21 28 17 29 25 20 24 -45 0
21 28 17 29 25 20 24 -44 0
21 28 17 29 25 20 24 -46 0
21 28 17 22 25 20 24 -43 0
21 28 17 22 25 20 24 -45 0
21 28 17 22 25 20 24 -44 0
21 28 17 22 25 20 24 -46 0
21 28 29 22 25 20 24 -43 0
21 28 29 22 25 20 24 -45 0
21 28 29 22 25 20 24 -44 0
21 28 29 22 25 20 24 -46 0
21 1 17 3 22 2 20 -15 0
21 1 17 3 22 2 20 -18 0
21 1 17 3 22 2 20 -19 0
21 1 17 3 22 2 20 -16 0
21 1 17 3 22 2 6 -15 0
21 1 17 3 22 2 6 -18 0
21 1 17 3 22 2 6 -19 0
21 1 17 3 22 2 6 -16 0
21 1 17 3 22 20 6 -15 0
21 1 17 3 22 20 6 -18 0
21 1 17 3 22 20 6 -19 0
21 1 17 3 22 20 6 -16 0
21 1 17 3 2 20 6 -15 0
21 1 17 3 2 20 6 -18 0
21 1 17 3 2 20 6 -19 0
21 1 17 3 2 20 6 -16 0
21 1 17 22 2 20 6 -15 0
21 1 17 22 2 20 6 -18 0
21 1 17 22 2 20 6 -19 0
21 1 17 22 2 20 6 -16 0
21 1 3 22 2 20 6 -15 0
21 1 3 22 2 20 6 -18 0
21 1 3 22 2 20 6 -19 0
21 1 3 22 2 20 6 -16 0
21 17 10 22 8 20 12 -35 0
21 17 10 22 8 20 12 -34 0
21 17 10 22 8 20 12 -36 0
21 17 10 22 8 20 12 -33 0
21 17 29 22 25 20 24 -43 0
21 17 29 22 25 20 24 -45 0
21 17 29 22 25 20 24 -44 0
21 17 29 22 25 20 24 -46 0
21 17 3 22 2 20 6 -15 0
21 17 3 22 2 20 6 -18 0
21 17 3 22 2 20 6 -19 0
21 17 3 22 2 20 6 -16 0
11 28 10 29 8 25 12 -39 0
11 28 10 29 8 25 12 -37 0
11 28 10 29 8 25 12 -38 0
11 28 10 29 8 25 12 -40 0
11 28 10 29 8 25 24 -39 0
11 28 10 29 8 25 24 -37 0
11 28 10 29 8 25 24 -38 0
11 28 10 29 8 25 24 -40 0
11 28 10 29 8 12 24 -39 0
11 28 10 29 8 12 24 -37 0
11 28 10 29 8 12 24 -38 0
11 28 10 29 8 12 24 -40 0
11 28 10 29 25 12 24 -39 0
11 28 10 29 25 12 24 -37 0
11 28 10 29 25 12 24 -38 0
11 28 10 29 25 12 24 -40 0
11 28 10 8 25 12 24 -39 0
11 28 10 8 25 12 24 -37 0
11 28 10 8 25 12 24 -38 0
11 28 10 8 25 12 24 -40 0
11 28 29 8 25 12 24 -39 0
11 28 29 8 25 12 24 -37 0
11 28 29 8 25 12 24 -38 0
11 28 29 8 25 12 24 -40 0
11 1 10 3 8 2 12 -13 0
11 1 10 3 8 2 12 -7 0
11 1 10 3 8 2 12 -14 0
11 1 10 3 8 2 12 -9 0
11 1 10 3 8 2 6 -13 0
11 1 10 3 8 2 6 -7 0
11 1 10 3 8 2 6 -14 0
11 1 10 3 8 2 6 -9 0
11 1 10 3 8 12 6 -13 0
11 1 10 3 8 12 6 -7 0
11 1 10 3 8 12 6 -14 0
11 1 10 3 8 12 6 -9 0
11 1 10 3 2 12 6 -13 0
11 1 10 3 2 12 6 -7 0
11 1 10 3 2 12 6 -14 0
11 1 10 3 2 12 6 -9 0
11 1 10 8 2 12 6 -13 0
11 1 10 8 2 12 6 -7 0
11 1 10 8 2 12 6 -14 0
11 1 10 8 2 12 6 -9 0
11 1 3 8 2 12 6 -13 0
11 1 3 8 2 12 6 -7 0
11 1 3 8 2 12 6 -14 0
11 1 3 8 2 12 6 -9 0
11 17 10 22 8 20 12 -35 0
11 17 10 22 8 20 12 -34 0
11 17 10 22 8 20 12 -36 0
11 17 10 22 8 20 12 -33 0
11 10 29 8 25 12 24 -39 0
11 10 29 8 25 12 24 -37 0
11 10 29 8 25 12 24 -38 0
11 10 29 8 25 12 24 -40 0
11 10 3 8 2 12 6 -13 0
11 10 3 8 2 12 6 -7 0
11 10 3 8 2 12 6 -14 0
11 10 3 8 2 12 6 -9 0
28 1 29 3 25 2 24 -23 0
28 1 29 3 25 2 24 -30 0
28 1 29 3 25 2 24 -26 0
28 1 29 3 25 2 24 -27 0
28 1 29 3 25 2 6 -23 0
28 1 29 3 25 2 6 -30 0
28 1 29 3 25 2 6 -26 0
28 1 29 3 25 2 6 -27 0
28 1 29 3 25 24 6 -23 0
28 1 29 3 25 24 6 -30 0
28 1 29 3 25 24 6 -26 0
28 1 29 3 25 24 6 -27 0
28 1 29 3 2 24 6 -23 0
28 1 29 3 2 24 6 -30 0
28 1 29 3 2 24 6 -26 0
28 1 29 3 2 24 6 -27 0
28 1 29 25 2 24 6 -23 0
28 1 29 25 2 24 6 -30 0
28 1 29 25 2 24 6 -26 0
28 1 29 25 2 24 6 -27 0
28 1 3 25 2 24 6 -23 0
28 1 3 25 2 24 6 -30 0
28 1 3 25 2 24 6 -26 0
28 1 3 25 2 24 6 -27 0
28 17 29 22 25 20 24 -43 0
28 17 29 22 25 20 24 -45 0
28 17 29 22 25 20 24 -44 0
28 17 29 22 25 20 24 -46 0
28 10 29 8 25 12 24 -39 0
28 10 29 8 25 12 24 -37 0
28 10 29 8 25 12 24 -38 0
28 10 29 8 25 12 24 -40 0
28 29 3 25 2 24 6 -23 0
28 29 3 25 2 24 6 -30 0
28 29 3 25 2 24 6 -26 0
28 29 3 25 2 24 6 -27 0
1 17 3 22 2 20 6 -15 0
1 17 3 22 2 20 6 -18 0
1 17 3 22 2 20 6 -19 0
1 17 3 22 2 20 6 -16 0
1 10 3 8 2 12 6 -13 0
1 10 3 8 2 12 6 -7 0
1 10 3 8 2 12 6 -14 0
1 10 3 8 2 12 6 -9 0
1 29 3 25 2 24 6 -23 0
1 29 3 25 2 24 6 -30 0
1 29 3 25 2 24 6 -26 0
1 29 3 25 2 24 6 -27 0
21 11 17 10 22 8 20 12 -35 0
21 11 17 10 22 8 20 12 -34 0
21 11 17 10 22 8 20 12 -36 0
21 11 17 10 22 8 20 12 -33 0
21 28 17 29 22 25 20 24 -43 0
21 28 17 29 22 25 20 24 -45 0
21 28 17 29 22 25 20 24 -44 0
21 28 17 29 22 25 20 24 -46 0
21 1 17 3 22 2 20 6 -15 0
21 1 17 3 22 2 20 6 -18 0
21 1 17 3 22 2 20 6 -19 0
21 1 17 3 22 2 20 6 -16 0
11 28 10 29 8 25 12 24 -39 0
11 28 10 29 8 25 12 24 -37 0
11 28 10 29 8 25 12 24 -38 0
11 28 10 29 8 25 12 24 -40 0
11 1 10 3 8 2 12 6 -13 0
11 1 10 3 8 2 12 6 -7 0
11 1 10 3 8 2 12 6 -14 0
11 1 10 3 8 2 12 6 -9 0
28 1 29 3 25 2 24 6 -23 0
28 1 29 3 25 2 24 6 -30 0
28 1 29 3 25 2 24 6 -26 0
28 1 29 3 25 2 24 6 -27 0
