c E1(2,2) U4(2) U2(2) U1(2) E2(2,2) U3(2) U2(1) U1(1) E2(2,1) E1(2,1) E1(1,2) E2(1,2) U4(1) U3(1) U2(0) U1(0) E2(0,2) E1(2,0) U4(0) E2(2,0) E1(0,2) U3(0) E2(2,4) U3(4) E1(2,4) U2(4) U4(4) U1(4) E2(4,2) E1(4,2) U3(3) U2(3) U4(3) E2(2,3) E2(3,2) E1(2,3) E1(3,2) U1(3) E1(1,1) E2(1,1) E1(0,1) E2(1,0) E1(1,0) E2(0,1) E2(1,4) E1(1,4) E2(4,1) E1(4,1) E1(3,1) E2(1,3) E1(1,3) E2(3,1) E2(0,0) E1(0,0) E2(0,4) E2(4,0) E1(4,0) E1(0,4) E2(0,3) E1(0,3) E1(3,0) E2(3,0) E2(4,4) E1(4,4) E2(3,4) E1(3,4) E1(4,3) E2(4,3) E1(3,3) E2(3,3)
c 1 2 3 4 5 6 7 8 9 10 11 12 13 14 15 16 17 18 19 20 21 22 23 24 25 26 27 28 29 30 31 32 33 34 35 36 37 38 39 40 41 42 43 44 45 46 47 48 49 50 51 52 53 54 55 56 57 58 59 60 61 62 63 64 65 66 67 68 69 70
p cnf 70 1570
54 -54 0
41 -43 0
21 -18 0
60 -61 0
58 -57 0
43 -41 0
39 -39 0
11 -10 0
51 -49 0
46 -48 0
18 -21 0
10 -11 0
1 -1 0
36 -37 0
25 -30 0
61 -60 0
49 -51 0
37 -36 0
69 -69 0
66 -67 0
57 -58 0
48 -46 0
30 -25 0
67 -66 0
64 -64 0
53 -53 0
44 -42 0
17 -20 0
59 -62 0
55 -56 0
42 -44 0
40 -40 0
12 -9 0
50 -52 0
45 -47 0
20 -17 0
9 -12 0
5 -5 0
34 -35 0
23 -29 0
62 -59 0
52 -50 0
35 -34 0
70 -70 0
65 -68 0
56 -55 0
47 -45 0
29 -23 0
68 -65 0
63 -63 0
-54 -53 0
-41 -44 0
-21 -17 0
-60 -59 0
-58 -55 0
-43 -42 0
-39 -40 0
-11 -12 0
-51 -50 0
-46 -45 0
-18 -20 0
-10 -9 0
-1 -5 0
-36 -34 0
-25 -23 0
-61 -62 0
-49 -52 0
-37 -35 0
-69 -70 0
-66 -65 0
-57 -56 0
-48 -47 0
-30 -29 0
-67 -68 0
-64 -63 0
-16 -15 0
-16 -22 0
-16 -19 0
-8 -7 0
-8 -14 0
-8 -13 0
-4 -3 0
-4 -6 0
-4 -2 0
-38 -32 0
-38 -31 0
-38 -33 0
-28 -26 0
-28 -24 0
-28 -27 0
-15 -22 0
-15 -19 0
-7 -14 0
-7 -13 0
-3 -6 0
-3 -2 0
-32 -31 0
-32 -33 0
-26 -24 0
-26 -27 0
-22 -19 0
-14 -13 0
-6 -2 0
-31 -33 0
-24 -27 0
16 15 22 19 0
8 7 14 13 0
4 3 6 2 0
38 32 31 33 0
28 26 24 27 0
16 15 22 -54 0
16 15 22 -53 0
16 15 19 -54 0
16 15 19 -53 0
16 22 19 -54 0
16 22 19 -53 0
8 7 14 -39 0
8 7 14 -40 0
8 7 13 -39 0
8 7 13 -40 0
8 14 13 -39 0
8 14 13 -40 0
4 3 6 -1 0
4 3 6 -5 0
4 3 2 -1 0
4 3 2 -5 0
4 6 2 -1 0
4 6 2 -5 0
38 32 31 -69 0
38 32 31 -70 0
38 32 33 -69 0
38 32 33 -70 0
38 31 33 -69 0
38 31 33 -70 0
28 26 24 -64 0
28 26 24 -63 0
28 26 27 -64 0
28 26 27 -63 0
28 24 27 -64 0
28 24 27 -63 0
15 22 19 -54 0
15 22 19 -53 0
7 14 13 -39 0
7 14 13 -40 0
3 6 2 -1 0
3 6 2 -5 0
32 31 33 -69 0
32 31 33 -70 0
26 24 27 -64 0
26 24 27 -63 0
54 41 21 60 58 0
43 39 11 51 46 0
18 10 1 36 25 0
61 49 37 69 66 0
57 48 30 67 64 0
53 44 17 59 55 0
42 40 12 50 45 0
20 9 5 34 23 0
62 52 35 70 65 0
56 47 29 68 63 0
16 15 22 19 -54 0
16 15 22 19 -41 0
16 15 22 19 -21 0
16 15 22 19 -60 0
16 15 22 19 -58 0
16 15 22 19 -43 0
16 15 22 19 -18 0
16 15 22 19 -61 0
16 15 22 19 -57 0
16 15 22 19 -53 0
16 15 22 19 -44 0
16 15 22 19 -17 0
16 15 22 19 -59 0
16 15 22 19 -55 0
16 15 22 19 -42 0
16 15 22 19 -20 0
16 15 22 19 -62 0
16 15 22 19 -56 0
8 7 14 13 -41 0
8 7 14 13 -43 0
8 7 14 13 -39 0
8 7 14 13 -11 0
8 7 14 13 -51 0
8 7 14 13 -46 0
8 7 14 13 -10 0
8 7 14 13 -49 0
8 7 14 13 -48 0
8 7 14 13 -44 0
8 7 14 13 -42 0
8 7 14 13 -40 0
8 7 14 13 -12 0
8 7 14 13 -50 0
8 7 14 13 -45 0
8 7 14 13 -9 0
8 7 14 13 -52 0
8 7 14 13 -47 0
4 3 6 2 -21 0
4 3 6 2 -11 0
4 3 6 2 -18 0
4 3 6 2 -10 0
4 3 6 2 -1 0
4 3 6 2 -36 0
4 3 6 2 -25 0
4 3 6 2 -37 0
4 3 6 2 -30 0
4 3 6 2 -17 0
4 3 6 2 -12 0
4 3 6 2 -20 0
4 3 6 2 -9 0
4 3 6 2 -5 0
4 3 6 2 -34 0
4 3 6 2 -23 0
4 3 6 2 -35 0
4 3 6 2 -29 0
38 32 31 33 -60 0
38 32 31 33 -51 0
38 32 31 33 -36 0
38 32 31 33 -61 0
38 32 31 33 -49 0
38 32 31 33 -37 0
38 32 31 33 -69 0
38 32 31 33 -66 0
38 32 31 33 -67 0
38 32 31 33 -59 0
38 32 31 33 -50 0
38 32 31 33 -34 0
38 32 31 33 -62 0
38 32 31 33 -52 0
38 32 31 33 -35 0
38 32 31 33 -70 0
38 32 31 33 -65 0
38 32 31 33 -68 0
28 26 24 27 -58 0
28 26 24 27 -46 0
28 26 24 27 -25 0
28 26 24 27 -66 0
28 26 24 27 -57 0
28 26 24 27 -48 0
28 26 24 27 -30 0
28 26 24 27 -67 0
28 26 24 27 -64 0
28 26 24 27 -55 0
28 26 24 27 -45 0
28 26 24 27 -23 0
28 26 24 27 -65 0
28 26 24 27 -56 0
28 26 24 27 -47 0
28 26 24 27 -29 0
28 26 24 27 -68 0
28 26 24 27 -63 0
16 8 15 22 19 -41 0
16 8 15 22 19 -43 0
16 8 15 22 19 -44 0
16 8 15 22 19 -42 0
16 8 7 14 13 -41 0
16 8 7 14 13 -43 0
16 8 7 14 13 -44 0
16 8 7 14 13 -42 0
16 4 15 22 19 -21 0
16 4 15 22 19 -18 0
16 4 15 22 19 -17 0
16 4 15 22 19 -20 0
16 4 3 6 2 -21 0
16 4 3 6 2 -18 0
16 4 3 6 2 -17 0
16 4 3 6 2 -20 0
16 38 15 22 19 -60 0
16 38 15 22 19 -61 0
16 38 15 22 19 -59 0
16 38 15 22 19 -62 0
16 38 32 31 33 -60 0
16 38 32 31 33 -61 0
16 38 32 31 33 -59 0
16 38 32 31 33 -62 0
16 28 15 22 19 -58 0
16 28 15 22 19 -57 0
16 28 15 22 19 -55 0
16 28 15 22 19 -56 0
16 28 26 24 27 -58 0
16 28 26 24 27 -57 0
16 28 26 24 27 -55 0
16 28 26 24 27 -56 0
16 15 7 22 19 -41 0
16 15 7 22 19 -43 0
16 15 7 22 19 -44 0
16 15 7 22 19 -42 0
16 15 3 22 19 -21 0
16 15 3 22 19 -18 0
16 15 3 22 19 -17 0
16 15 3 22 19 -20 0
16 15 32 22 19 -60 0
16 15 32 22 19 -61 0
16 15 32 22 19 -59 0
16 15 32 22 19 -62 0
16 15 26 22 19 -58 0
16 15 26 22 19 -57 0
16 15 26 22 19 -55 0
16 15 26 22 19 -56 0
16 15 22 14 19 -41 0
16 15 22 14 19 -43 0
16 15 22 14 19 -44 0
16 15 22 14 19 -42 0
16 15 22 6 19 -21 0
16 15 22 6 19 -18 0
16 15 22 6 19 -17 0
16 15 22 6 19 -20 0
16 15 22 31 19 -60 0
16 15 22 31 19 -61 0
16 15 22 31 19 -59 0
16 15 22 31 19 -62 0
16 15 22 24 19 -58 0
16 15 22 24 19 -57 0
16 15 22 24 19 -55 0
16 15 22 24 19 -56 0
16 15 22 19 13 -41 0
16 15 22 19 13 -43 0
16 15 22 19 13 -44 0
16 15 22 19 13 -42 0
16 15 22 19 2 -21 0
16 15 22 19 2 -18 0
16 15 22 19 2 -17 0
16 15 22 19 2 -20 0
16 15 22 19 33 -60 0
16 15 22 19 33 -61 0
16 15 22 19 33 -59 0
16 15 22 19 33 -62 0
16 15 22 19 27 -58 0
16 15 22 19 27 -57 0
16 15 22 19 27 -55 0
16 15 22 19 27 -56 0
8 4 7 14 13 -11 0
8 4 7 14 13 -10 0
8 4 7 14 13 -12 0
8 4 7 14 13 -9 0
8 4 3 6 2 -11 0
8 4 3 6 2 -10 0
8 4 3 6 2 -12 0
8 4 3 6 2 -9 0
8 38 7 14 13 -51 0
8 38 7 14 13 -49 0
8 38 7 14 13 -50 0
8 38 7 14 13 -52 0
8 38 32 31 33 -51 0
8 38 32 31 33 -49 0
8 38 32 31 33 -50 0
8 38 32 31 33 -52 0
8 28 7 14 13 -46 0
8 28 7 14 13 -48 0
8 28 7 14 13 -45 0
8 28 7 14 13 -47 0
8 28 26 24 27 -46 0
8 28 26 24 27 -48 0
8 28 26 24 27 -45 0
8 28 26 24 27 -47 0
8 15 7 14 13 -41 0
8 15 7 14 13 -43 0
8 15 7 14 13 -44 0
8 15 7 14 13 -42 0
8 7 3 14 13 -11 0
8 7 3 14 13 -10 0
8 7 3 14 13 -12 0
8 7 3 14 13 -9 0
8 7 32 14 13 -51 0
8 7 32 14 13 -49 0
8 7 32 14 13 -50 0
8 7 32 14 13 -52 0
8 7 26 14 13 -46 0
8 7 26 14 13 -48 0
8 7 26 14 13 -45 0
8 7 26 14 13 -47 0
8 7 22 14 13 -41 0
8 7 22 14 13 -43 0
8 7 22 14 13 -44 0
8 7 22 14 13 -42 0
8 7 14 6 13 -11 0
8 7 14 6 13 -10 0
8 7 14 6 13 -12 0
8 7 14 6 13 -9 0
8 7 14 31 13 -51 0
8 7 14 31 13 -49 0
8 7 14 31 13 -50 0
8 7 14 31 13 -52 0
8 7 14 24 13 -46 0
8 7 14 24 13 -48 0
8 7 14 24 13 -45 0
8 7 14 24 13 -47 0
8 7 14 19 13 -41 0
8 7 14 19 13 -43 0
8 7 14 19 13 -44 0
8 7 14 19 13 -42 0
8 7 14 13 2 -11 0
8 7 14 13 2 -10 0
8 7 14 13 2 -12 0
8 7 14 13 2 -9 0
8 7 14 13 33 -51 0
8 7 14 13 33 -49 0
8 7 14 13 33 -50 0
8 7 14 13 33 -52 0
8 7 14 13 27 -46 0
8 7 14 13 27 -48 0
8 7 14 13 27 -45 0
8 7 14 13 27 -47 0
4 38 3 6 2 -36 0
4 38 3 6 2 -37 0
4 38 3 6 2 -34 0
4 38 3 6 2 -35 0
4 38 32 31 33 -36 0
4 38 32 31 33 -37 0
4 38 32 31 33 -34 0
4 38 32 31 33 -35 0
4 28 3 6 2 -25 0
4 28 3 6 2 -30 0
4 28 3 6 2 -23 0
4 28 3 6 2 -29 0
4 28 26 24 27 -25 0
4 28 26 24 27 -30 0
4 28 26 24 27 -23 0
4 28 26 24 27 -29 0
4 15 3 6 2 -21 0
4 15 3 6 2 -18 0
4 15 3 6 2 -17 0
4 15 3 6 2 -20 0
4 7 3 6 2 -11 0
4 7 3 6 2 -10 0
4 7 3 6 2 -12 0
4 7 3 6 2 -9 0
4 3 32 6 2 -36 0
4 3 32 6 2 -37 0
4 3 32 6 2 -34 0
4 3 32 6 2 -35 0
4 3 26 6 2 -25 0
4 3 26 6 2 -30 0
4 3 26 6 2 -23 0
4 3 26 6 2 -29 0
4 3 22 6 2 -21 0
4 3 22 6 2 -18 0
4 3 22 6 2 -17 0
4 3 22 6 2 -20 0
4 3 14 6 2 -11 0
4 3 14 6 2 -10 0
4 3 14 6 2 -12 0
4 3 14 6 2 -9 0
4 3 6 31 2 -36 0
4 3 6 31 2 -37 0
4 3 6 31 2 -34 0
4 3 6 31 2 -35 0
4 3 6 24 2 -25 0
4 3 6 24 2 -30 0
4 3 6 24 2 -23 0
4 3 6 24 2 -29 0
4 3 6 19 2 -21 0
4 3 6 19 2 -18 0
4 3 6 19 2 -17 0
4 3 6 19 2 -20 0
4 3 6 13 2 -11 0
4 3 6 13 2 -10 0
4 3 6 13 2 -12 0
4 3 6 13 2 -9 0
4 3 6 2 33 -36 0
4 3 6 2 33 -37 0
4 3 6 2 33 -34 0
4 3 6 2 33 -35 0
4 3 6 2 27 -25 0
4 3 6 2 27 -30 0
4 3 6 2 27 -23 0
4 3 6 2 27 -29 0
38 28 32 31 33 -66 0
38 28 32 31 33 -67 0
38 28 32 31 33 -65 0
38 28 32 31 33 -68 0
38 28 26 24 27 -66 0
38 28 26 24 27 -67 0
38 28 26 24 27 -65 0
38 28 26 24 27 -68 0
38 15 32 31 33 -60 0
38 15 32 31 33 -61 0
38 15 32 31 33 -59 0
38 15 32 31 33 -62 0
38 7 32 31 33 -51 0
38 7 32 31 33 -49 0
38 7 32 31 33 -50 0
38 7 32 31 33 -52 0
38 3 32 31 33 -36 0
38 3 32 31 33 -37 0
38 3 32 31 33 -34 0
38 3 32 31 33 -35 0
38 32 26 31 33 -66 0
38 32 26 31 33 -67 0
38 32 26 31 33 -65 0
38 32 26 31 33 -68 0
38 32 22 31 33 -60 0
38 32 22 31 33 -61 0
38 32 22 31 33 -59 0
38 32 22 31 33 -62 0
38 32 14 31 33 -51 0
38 32 14 31 33 -49 0
38 32 14 31 33 -50 0
38 32 14 31 33 -52 0
38 32 6 31 33 -36 0
38 32 6 31 33 -37 0
38 32 6 31 33 -34 0
38 32 6 31 33 -35 0
38 32 31 24 33 -66 0
38 32 31 24 33 -67 0
38 32 31 24 33 -65 0
38 32 31 24 33 -68 0
38 32 31 19 33 -60 0
38 32 31 19 33 -61 0
38 32 31 19 33 -59 0
38 32 31 19 33 -62 0
38 32 31 13 33 -51 0
38 32 31 13 33 -49 0
38 32 31 13 33 -50 0
38 32 31 13 33 -52 0
38 32 31 2 33 -36 0
38 32 31 2 33 -37 0
38 32 31 2 33 -34 0
38 32 31 2 33 -35 0
38 32 31 33 27 -66 0
38 32 31 33 27 -67 0
38 32 31 33 27 -65 0
38 32 31 33 27 -68 0
28 15 26 24 27 -58 0
28 15 26 24 27 -57 0
28 15 26 24 27 -55 0
28 15 26 24 27 -56 0
28 7 26 24 27 -46 0
28 7 26 24 27 -48 0
28 7 26 24 27 -45 0
28 7 26 24 27 -47 0
28 3 26 24 27 -25 0
28 3 26 24 27 -30 0
28 3 26 24 27 -23 0
28 3 26 24 27 -29 0
28 32 26 24 27 -66 0
28 32 26 24 27 -67 0
28 32 26 24 27 -65 0
28 32 26 24 27 -68 0
28 26 22 24 27 -58 0
28 26 22 24 27 -57 0
28 26 22 24 27 -55 0
28 26 22 24 27 -56 0
28 26 14 24 27 -46 0
28 26 14 24 27 -48 0
28 26 14 24 27 -45 0
28 26 14 24 27 -47 0
28 26 6 24 27 -25 0
28 26 6 24 27 -30 0
28 26 6 24 27 -23 0
28 26 6 24 27 -29 0
28 26 31 24 27 -66 0
28 26 31 24 27 -67 0
28 26 31 24 27 -65 0
28 26 31 24 27 -68 0
28 26 24 19 27 -58 0
28 26 24 19 27 -57 0
28 26 24 19 27 -55 0
28 26 24 19 27 -56 0
28 26 24 13 27 -46 0
28 26 24 13 27 -48 0
28 26 24 13 27 -45 0
28 26 24 13 27 -47 0
28 26 24 2 27 -25 0
28 26 24 2 27 -30 0
28 26 24 2 27 -23 0
28 26 24 2 27 -29 0
28 26 24 33 27 -66 0
28 26 24 33 27 -67 0
28 26 24 33 27 -65 0
28 26 24 33 27 -68 0
16 8 15 7 22 14 -41 0
16 8 15 7 22 14 -43 0
16 8 15 7 22 14 -44 0
16 8 15 7 22 14 -42 0
16 8 15 7 22 19 -41 0
16 8 15 7 22 19 -43 0
16 8 15 7 22 19 -44 0
16 8 15 7 22 19 -42 0
16 8 15 7 14 13 -41 0
16 8 15 7 14 13 -43 0
16 8 15 7 14 13 -44 0
16 8 15 7 14 13 -42 0
16 8 15 7 19 13 -41 0
16 8 15 7 19 13 -43 0
16 8 15 7 19 13 -44 0
16 8 15 7 19 13 -42 0
16 8 15 22 14 19 -41 0
16 8 15 22 14 19 -43 0
16 8 15 22 14 19 -44 0
16 8 15 22 14 19 -42 0
16 8 15 22 19 13 -41 0
16 8 15 22 19 13 -43 0
16 8 15 22 19 13 -44 0
16 8 15 22 19 13 -42 0
16 8 7 22 14 13 -41 0
16 8 7 22 14 13 -43 0
16 8 7 22 14 13 -44 0
16 8 7 22 14 13 -42 0
16 8 7 14 19 13 -41 0
16 8 7 14 19 13 -43 0
16 8 7 14 19 13 -44 0
16 8 7 14 19 13 -42 0
16 8 22 14 19 13 -41 0
16 8 22 14 19 13 -43 0
16 8 22 14 19 13 -44 0
16 8 22 14 19 13 -42 0
16 4 15 3 22 6 -21 0
16 4 15 3 22 6 -18 0
16 4 15 3 22 6 -17 0
16 4 15 3 22 6 -20 0
16 4 15 3 22 19 -21 0
16 4 15 3 22 19 -18 0
16 4 15 3 22 19 -17 0
16 4 15 3 22 19 -20 0
16 4 15 3 6 2 -21 0
16 4 15 3 6 2 -18 0
16 4 15 3 6 2 -17 0
16 4 15 3 6 2 -20 0
16 4 15 3 19 2 -21 0
16 4 15 3 19 2 -18 0
16 4 15 3 19 2 -17 0
16 4 15 3 19 2 -20 0
16 4 15 22 6 19 -21 0
16 4 15 22 6 19 -18 0
16 4 15 22 6 19 -17 0
16 4 15 22 6 19 -20 0
16 4 15 22 19 2 -21 0
16 4 15 22 19 2 -18 0
16 4 15 22 19 2 -17 0
16 4 15 22 19 2 -20 0
16 4 3 22 6 2 -21 0
16 4 3 22 6 2 -18 0
16 4 3 22 6 2 -17 0
16 4 3 22 6 2 -20 0
16 4 3 6 19 2 -21 0
16 4 3 6 19 2 -18 0
16 4 3 6 19 2 -17 0
16 4 3 6 19 2 -20 0
16 4 22 6 19 2 -21 0
16 4 22 6 19 2 -18 0
16 4 22 6 19 2 -17 0
16 4 22 6 19 2 -20 0
16 38 15 32 22 31 -60 0
16 38 15 32 22 31 -61 0
16 38 15 32 22 31 -59 0
16 38 15 32 22 31 -62 0
16 38 15 32 22 19 -60 0
16 38 15 32 22 19 -61 0
16 38 15 32 22 19 -59 0
16 38 15 32 22 19 -62 0
16 38 15 32 31 33 -60 0
16 38 15 32 31 33 -61 0
16 38 15 32 31 33 -59 0
16 38 15 32 31 33 -62 0
16 38 15 32 19 33 -60 0
16 38 15 32 19 33 -61 0
16 38 15 32 19 33 -59 0
16 38 15 32 19 33 -62 0
16 38 15 22 31 19 -60 0
16 38 15 22 31 19 -61 0
16 38 15 22 31 19 -59 0
16 38 15 22 31 19 -62 0
16 38 15 22 19 33 -60 0
16 38 15 22 19 33 -61 0
16 38 15 22 19 33 -59 0
16 38 15 22 19 33 -62 0
16 38 32 22 31 33 -60 0
16 38 32 22 31 33 -61 0
16 38 32 22 31 33 -59 0
16 38 32 22 31 33 -62 0
16 38 32 31 19 33 -60 0
16 38 32 31 19 33 -61 0
16 38 32 31 19 33 -59 0
16 38 32 31 19 33 -62 0
16 38 22 31 19 33 -60 0
16 38 22 31 19 33 -61 0
16 38 22 31 19 33 -59 0
16 38 22 31 19 33 -62 0
16 28 15 26 22 24 -58 0
16 28 15 26 22 24 -57 0
16 28 15 26 22 24 -55 0
16 28 15 26 22 24 -56 0
16 28 15 26 22 19 -58 0
16 28 15 26 22 19 -57 0
16 28 15 26 22 19 -55 0
16 28 15 26 22 19 -56 0
16 28 15 26 24 27 -58 0
16 28 15 26 24 27 -57 0
16 28 15 26 24 27 -55 0
16 28 15 26 24 27 -56 0
16 28 15 26 19 27 -58 0
16 28 15 26 19 27 -57 0
16 28 15 26 19 27 -55 0
16 28 15 26 19 27 -56 0
16 28 15 22 24 19 -58 0
16 28 15 22 24 19 -57 0
16 28 15 22 24 19 -55 0
16 28 15 22 24 19 -56 0
16 28 15 22 19 27 -58 0
16 28 15 22 19 27 -57 0
16 28 15 22 19 27 -55 0
16 28 15 22 19 27 -56 0
16 28 26 22 24 27 -58 0
16 28 26 22 24 27 -57 0
16 28 26 22 24 27 -55 0
16 28 26 22 24 27 -56 0
16 28 26 24 19 27 -58 0
16 28 26 24 19 27 -57 0
16 28 26 24 19 27 -55 0
16 28 26 24 19 27 -56 0
16 28 22 24 19 27 -58 0
16 28 22 24 19 27 -57 0
16 28 22 24 19 27 -55 0
16 28 22 24 19 27 -56 0
16 15 7 22 14 19 -41 0
16 15 7 22 14 19 -43 0
16 15 7 22 14 19 -44 0
16 15 7 22 14 19 -42 0
16 15 7 22 19 13 -41 0
16 15 7 22 19 13 -43 0
16 15 7 22 19 13 -44 0
16 15 7 22 19 13 -42 0
16 15 3 22 6 19 -21 0
16 15 3 22 6 19 -18 0
16 15 3 22 6 19 -17 0
16 15 3 22 6 19 -20 0
16 15 3 22 19 2 -21 0
16 15 3 22 19 2 -18 0
16 15 3 22 19 2 -17 0
16 15 3 22 19 2 -20 0
16 15 32 22 31 19 -60 0
16 15 32 22 31 19 -61 0
16 15 32 22 31 19 -59 0
16 15 32 22 31 19 -62 0
16 15 32 22 19 33 -60 0
16 15 32 22 19 33 -61 0
16 15 32 22 19 33 -59 0
16 15 32 22 19 33 -62 0
16 15 26 22 24 19 -58 0
16 15 26 22 24 19 -57 0
16 15 26 22 24 19 -55 0
16 15 26 22 24 19 -56 0
16 15 26 22 19 27 -58 0
16 15 26 22 19 27 -57 0
16 15 26 22 19 27 -55 0
16 15 26 22 19 27 -56 0
16 15 22 14 19 13 -41 0
16 15 22 14 19 13 -43 0
16 15 22 14 19 13 -44 0
16 15 22 14 19 13 -42 0
16 15 22 6 19 2 -21 0
16 15 22 6 19 2 -18 0
16 15 22 6 19 2 -17 0
16 15 22 6 19 2 -20 0
16 15 22 31 19 33 -60 0
16 15 22 31 19 33 -61 0
16 15 22 31 19 33 -59 0
16 15 22 31 19 33 -62 0
16 15 22 24 19 27 -58 0
16 15 22 24 19 27 -57 0
16 15 22 24 19 27 -55 0
16 15 22 24 19 27 -56 0
8 4 7 3 14 6 -11 0
8 4 7 3 14 6 -10 0
8 4 7 3 14 6 -12 0
8 4 7 3 14 6 -9 0
8 4 7 3 14 13 -11 0
8 4 7 3 14 13 -10 0
8 4 7 3 14 13 -12 0
8 4 7 3 14 13 -9 0
8 4 7 3 6 2 -11 0
8 4 7 3 6 2 -10 0
8 4 7 3 6 2 -12 0
8 4 7 3 6 2 -9 0
8 4 7 3 13 2 -11 0
8 4 7 3 13 2 -10 0
8 4 7 3 13 2 -12 0
8 4 7 3 13 2 -9 0
8 4 7 14 6 13 -11 0
8 4 7 14 6 13 -10 0
8 4 7 14 6 13 -12 0
8 4 7 14 6 13 -9 0
8 4 7 14 13 2 -11 0
8 4 7 14 13 2 -10 0
8 4 7 14 13 2 -12 0
8 4 7 14 13 2 -9 0
8 4 3 14 6 2 -11 0
8 4 3 14 6 2 -10 0
8 4 3 14 6 2 -12 0
8 4 3 14 6 2 -9 0
8 4 3 6 13 2 -11 0
8 4 3 6 13 2 -10 0
8 4 3 6 13 2 -12 0
8 4 3 6 13 2 -9 0
8 4 14 6 13 2 -11 0
8 4 14 6 13 2 -10 0
8 4 14 6 13 2 -12 0
8 4 14 6 13 2 -9 0
8 38 7 32 14 31 -51 0
8 38 7 32 14 31 -49 0
8 38 7 32 14 31 -50 0
8 38 7 32 14 31 -52 0
8 38 7 32 14 13 -51 0
8 38 7 32 14 13 -49 0
8 38 7 32 14 13 -50 0
8 38 7 32 14 13 -52 0
8 38 7 32 31 33 -51 0
8 38 7 32 31 33 -49 0
8 38 7 32 31 33 -50 0
8 38 7 32 31 33 -52 0
8 38 7 32 13 33 -51 0
8 38 7 32 13 33 -49 0
8 38 7 32 13 33 -50 0
8 38 7 32 13 33 -52 0
8 38 7 14 31 13 -51 0
8 38 7 14 31 13 -49 0
8 38 7 14 31 13 -50 0
8 38 7 14 31 13 -52 0
8 38 7 14 13 33 -51 0
8 38 7 14 13 33 -49 0
8 38 7 14 13 33 -50 0
8 38 7 14 13 33 -52 0
8 38 32 14 31 33 -51 0
8 38 32 14 31 33 -49 0
8 38 32 14 31 33 -50 0
8 38 32 14 31 33 -52 0
8 38 32 31 13 33 -51 0
8 38 32 31 13 33 -49 0
8 38 32 31 13 33 -50 0
8 38 32 31 13 33 -52 0
8 38 14 31 13 33 -51 0
8 38 14 31 13 33 -49 0
8 38 14 31 13 33 -50 0
8 38 14 31 13 33 -52 0
8 28 7 26 14 24 -46 0
8 28 7 26 14 24 -48 0
8 28 7 26 14 24 -45 0
8 28 7 26 14 24 -47 0
8 28 7 26 14 13 -46 0
8 28 7 26 14 13 -48 0
8 28 7 26 14 13 -45 0
8 28 7 26 14 13 -47 0
8 28 7 26 24 27 -46 0
8 28 7 26 24 27 -48 0
8 28 7 26 24 27 -45 0
8 28 7 26 24 27 -47 0
8 28 7 26 13 27 -46 0
8 28 7 26 13 27 -48 0
8 28 7 26 13 27 -45 0
8 28 7 26 13 27 -47 0
8 28 7 14 24 13 -46 0
8 28 7 14 24 13 -48 0
8 28 7 14 24 13 -45 0
8 28 7 14 24 13 -47 0
8 28 7 14 13 27 -46 0
8 28 7 14 13 27 -48 0
8 28 7 14 13 27 -45 0
8 28 7 14 13 27 -47 0
8 28 26 14 24 27 -46 0
8 28 26 14 24 27 -48 0
8 28 26 14 24 27 -45 0
8 28 26 14 24 27 -47 0
8 28 26 24 13 27 -46 0
8 28 26 24 13 27 -48 0
8 28 26 24 13 27 -45 0
8 28 26 24 13 27 -47 0
8 28 14 24 13 27 -46 0
8 28 14 24 13 27 -48 0
8 28 14 24 13 27 -45 0
8 28 14 24 13 27 -47 0
8 15 7 22 14 13 -41 0
8 15 7 22 14 13 -43 0
8 15 7 22 14 13 -44 0
8 15 7 22 14 13 -42 0
8 15 7 14 19 13 -41 0
8 15 7 14 19 13 -43 0
8 15 7 14 19 13 -44 0
8 15 7 14 19 13 -42 0
8 7 3 14 6 13 -11 0
8 7 3 14 6 13 -10 0
8 7 3 14 6 13 -12 0
8 7 3 14 6 13 -9 0
8 7 3 14 13 2 -11 0
8 7 3 14 13 2 -10 0
8 7 3 14 13 2 -12 0
8 7 3 14 13 2 -9 0
8 7 32 14 31 13 -51 0
8 7 32 14 31 13 -49 0
8 7 32 14 31 13 -50 0
8 7 32 14 31 13 -52 0
8 7 32 14 13 33 -51 0
8 7 32 14 13 33 -49 0
8 7 32 14 13 33 -50 0
8 7 32 14 13 33 -52 0
8 7 26 14 24 13 -46 0
8 7 26 14 24 13 -48 0
8 7 26 14 24 13 -45 0
8 7 26 14 24 13 -47 0
8 7 26 14 13 27 -46 0
8 7 26 14 13 27 -48 0
8 7 26 14 13 27 -45 0
8 7 26 14 13 27 -47 0
8 7 22 14 19 13 -41 0
8 7 22 14 19 13 -43 0
8 7 22 14 19 13 -44 0
8 7 22 14 19 13 -42 0
8 7 14 6 13 2 -11 0
8 7 14 6 13 2 -10 0
8 7 14 6 13 2 -12 0
8 7 14 6 13 2 -9 0
8 7 14 31 13 33 -51 0
8 7 14 31 13 33 -49 0
8 7 14 31 13 33 -50 0
8 7 14 31 13 33 -52 0
8 7 14 24 13 27 -46 0
8 7 14 24 13 27 -48 0
8 7 14 24 13 27 -45 0
8 7 14 24 13 27 -47 0
4 38 3 32 6 31 -36 0
4 38 3 32 6 31 -37 0
4 38 3 32 6 31 -34 0
4 38 3 32 6 31 -35 0
4 38 3 32 6 2 -36 0
4 38 3 32 6 2 -37 0
4 38 3 32 6 2 -34 0
4 38 3 32 6 2 -35 0
4 38 3 32 31 33 -36 0
4 38 3 32 31 33 -37 0
4 38 3 32 31 33 -34 0
4 38 3 32 31 33 -35 0
4 38 3 32 2 33 -36 0
4 38 3 32 2 33 -37 0
4 38 3 32 2 33 -34 0
4 38 3 32 2 33 -35 0
4 38 3 6 31 2 -36 0
4 38 3 6 31 2 -37 0
4 38 3 6 31 2 -34 0
4 38 3 6 31 2 -35 0
4 38 3 6 2 33 -36 0
4 38 3 6 2 33 -37 0
4 38 3 6 2 33 -34 0
4 38 3 6 2 33 -35 0
4 38 32 6 31 33 -36 0
4 38 32 6 31 33 -37 0
4 38 32 6 31 33 -34 0
4 38 32 6 31 33 -35 0
4 38 32 31 2 33 -36 0
4 38 32 31 2 33 -37 0
4 38 32 31 2 33 -34 0
4 38 32 31 2 33 -35 0
4 38 6 31 2 33 -36 0
4 38 6 31 2 33 -37 0
4 38 6 31 2 33 -34 0
4 38 6 31 2 33 -35 0
4 28 3 26 6 24 -25 0
4 28 3 26 6 24 -30 0
4 28 3 26 6 24 -23 0
4 28 3 26 6 24 -29 0
4 28 3 26 6 2 -25 0
4 28 3 26 6 2 -30 0
4 28 3 26 6 2 -23 0
4 28 3 26 6 2 -29 0
4 28 3 26 24 27 -25 0
4 28 3 26 24 27 -30 0
4 28 3 26 24 27 -23 0
4 28 3 26 24 27 -29 0
4 28 3 26 2 27 -25 0
4 28 3 26 2 27 -30 0
4 28 3 26 2 27 -23 0
4 28 3 26 2 27 -29 0
4 28 3 6 24 2 -25 0
4 28 3 6 24 2 -30 0
4 28 3 6 24 2 -23 0
4 28 3 6 24 2 -29 0
4 28 3 6 2 27 -25 0
4 28 3 6 2 27 -30 0
4 28 3 6 2 27 -23 0
4 28 3 6 2 27 -29 0
4 28 26 6 24 27 -25 0
4 28 26 6 24 27 -30 0
4 28 26 6 24 27 -23 0
4 28 26 6 24 27 -29 0
4 28 26 24 2 27 -25 0
4 28 26 24 2 27 -30 0
4 28 26 24 2 27 -23 0
4 28 26 24 2 27 -29 0
4 28 6 24 2 27 -25 0
4 28 6 24 2 27 -30 0
4 28 6 24 2 27 -23 0
4 28 6 24 2 27 -29 0
4 15 3 22 6 2 -21 0
4 15 3 22 6 2 -18 0
4 15 3 22 6 2 -17 0
4 15 3 22 6 2 -20 0
4 15 3 6 19 2 -21 0
4 15 3 6 19 2 -18 0
4 15 3 6 19 2 -17 0
4 15 3 6 19 2 -20 0
4 7 3 14 6 2 -11 0
4 7 3 14 6 2 -10 0
4 7 3 14 6 2 -12 0
4 7 3 14 6 2 -9 0
4 7 3 6 13 2 -11 0
4 7 3 6 13 2 -10 0
4 7 3 6 13 2 -12 0
4 7 3 6 13 2 -9 0
4 3 32 6 31 2 -36 0
4 3 32 6 31 2 -37 0
4 3 32 6 31 2 -34 0
4 3 32 6 31 2 -35 0
4 3 32 6 2 33 -36 0
4 3 32 6 2 33 -37 0
4 3 32 6 2 33 -34 0
4 3 32 6 2 33 -35 0
4 3 26 6 24 2 -25 0
4 3 26 6 24 2 -30 0
4 3 26 6 24 2 -23 0
4 3 26 6 24 2 -29 0
4 3 26 6 2 27 -25 0
4 3 26 6 2 27 -30 0
4 3 26 6 2 27 -23 0
4 3 26 6 2 27 -29 0
4 3 22 6 19 2 -21 0
4 3 22 6 19 2 -18 0
4 3 22 6 19 2 -17 0
4 3 22 6 19 2 -20 0
4 3 14 6 13 2 -11 0
4 3 14 6 13 2 -10 0
4 3 14 6 13 2 -12 0
4 3 14 6 13 2 -9 0
4 3 6 31 2 33 -36 0
4 3 6 31 2 33 -37 0
4 3 6 31 2 33 -34 0
4 3 6 31 2 33 -35 0
4 3 6 24 2 27 -25 0
4 3 6 24 2 27 -30 0
4 3 6 24 2 27 -23 0
4 3 6 24 2 27 -29 0
38 28 32 26 31 24 -66 0
38 28 32 26 31 24 -67 0
38 28 32 26 31 24 -65 0
38 28 32 26 31 24 -68 0
38 28 32 26 31 33 -66 0
38 28 32 26 31 33 -67 0
38 28 32 26 31 33 -65 0
38 28 32 26 31 33 -68 0
38 28 32 26 24 27 -66 0
38 28 32 26 24 27 -67 0
38 28 32 26 24 27 -65 0
38 28 32 26 24 27 -68 0
38 28 32 26 33 27 -66 0
38 28 32 26 33 27 -67 0
38 28 32 26 33 27 -65 0
38 28 32 26 33 27 -68 0
38 28 32 31 24 33 -66 0
38 28 32 31 24 33 -67 0
38 28 32 31 24 33 -65 0
38 28 32 31 24 33 -68 0
38 28 32 31 33 27 -66 0
38 28 32 31 33 27 -67 0
38 28 32 31 33 27 -65 0
38 28 32 31 33 27 -68 0
38 28 26 31 24 27 -66 0
38 28 26 31 24 27 -67 0
38 28 26 31 24 27 -65 0
38 28 26 31 24 27 -68 0
38 28 26 24 33 27 -66 0
38 28 26 24 33 27 -67 0
38 28 26 24 33 27 -65 0
38 28 26 24 33 27 -68 0
38 28 31 24 33 27 -66 0
38 28 31 24 33 27 -67 0
38 28 31 24 33 27 -65 0
38 28 31 24 33 27 -68 0
38 15 32 22 31 33 -60 0
38 15 32 22 31 33 -61 0
38 15 32 22 31 33 -59 0
38 15 32 22 31 33 -62 0
38 15 32 31 19 33 -60 0
38 15 32 31 19 33 -61 0
38 15 32 31 19 33 -59 0
38 15 32 31 19 33 -62 0
38 7 32 14 31 33 -51 0
38 7 32 14 31 33 -49 0
38 7 32 14 31 33 -50 0
38 7 32 14 31 33 -52 0
38 7 32 31 13 33 -51 0
38 7 32 31 13 33 -49 0
38 7 32 31 13 33 -50 0
38 7 32 31 13 33 -52 0
38 3 32 6 31 33 -36 0
38 3 32 6 31 33 -37 0
38 3 32 6 31 33 -34 0
38 3 32 6 31 33 -35 0
38 3 32 31 2 33 -36 0
38 3 32 31 2 33 -37 0
38 3 32 31 2 33 -34 0
38 3 32 31 2 33 -35 0
38 32 26 31 24 33 -66 0
38 32 26 31 24 33 -67 0
38 32 26 31 24 33 -65 0
38 32 26 31 24 33 -68 0
38 32 26 31 33 27 -66 0
38 32 26 31 33 27 -67 0
38 32 26 31 33 27 -65 0
38 32 26 31 33 27 -68 0
38 32 22 31 19 33 -60 0
38 32 22 31 19 33 -61 0
38 32 22 31 19 33 -59 0
38 32 22 31 19 33 -62 0
38 32 14 31 13 33 -51 0
38 32 14 31 13 33 -49 0
38 32 14 31 13 33 -50 0
38 32 14 31 13 33 -52 0
38 32 6 31 2 33 -36 0
38 32 6 31 2 33 -37 0
38 32 6 31 2 33 -34 0
38 32 6 31 2 33 -35 0
38 32 31 24 33 27 -66 0
38 32 31 24 33 27 -67 0
38 32 31 24 33 27 -65 0
38 32 31 24 33 27 -68 0
28 15 26 22 24 27 -58 0
28 15 26 22 24 27 -57 0
28 15 26 22 24 27 -55 0
28 15 26 22 24 27 -56 0
28 15 26 24 19 27 -58 0
28 15 26 24 19 27 -57 0
28 15 26 24 19 27 -55 0
28 15 26 24 19 27 -56 0
28 7 26 14 24 27 -46 0
28 7 26 14 24 27 -48 0
28 7 26 14 24 27 -45 0
28 7 26 14 24 27 -47 0
28 7 26 24 13 27 -46 0
28 7 26 24 13 27 -48 0
28 7 26 24 13 27 -45 0
28 7 26 24 13 27 -47 0
28 3 26 6 24 27 -25 0
28 3 26 6 24 27 -30 0
28 3 26 6 24 27 -23 0
28 3 26 6 24 27 -29 0
28 3 26 24 2 27 -25 0
28 3 26 24 2 27 -30 0
28 3 26 24 2 27 -23 0
28 3 26 24 2 27 -29 0
28 32 26 31 24 27 -66 0
28 32 26 31 24 27 -67 0
28 32 26 31 24 27 -65 0
28 32 26 31 24 27 -68 0
28 32 26 24 33 27 -66 0
28 32 26 24 33 27 -67 0
28 32 26 24 33 27 -65 0
28 32 26 24 33 27 -68 0
28 26 22 24 19 27 -58 0
28 26 22 24 19 27 -57 0
28 26 22 24 19 27 -55 0
28 26 22 24 19 27 -56 0
28 26 14 24 13 27 -46 0
28 26 14 24 13 27 -48 0
28 26 14 24 13 27 -45 0
28 26 14 24 13 27 -47 0
28 26 6 24 2 27 -25 0
28 26 6 24 2 27 -30 0
28 26 6 24 2 27 -23 0
28 26 6 24 2 27 -29 0
28 26 31 24 33 27 -66 0
28 26 31 24 33 27 -67 0
28 26 31 24 33 27 -65 0
28 26 31 24 33 27 -68 0
15 7 22 14 19 13 -41 0
15 7 22 14 19 13 -43 0
15 7 22 14 19 13 -44 0
15 7 22 14 19 13 -42 0
15 3 22 6 19 2 -21 0
15 3 22 6 19 2 -18 0
15 3 22 6 19 2 -17 0
15 3 22 6 19 2 -20 0
15 32 22 31 19 33 -60 0
15 32 22 31 19 33 -61 0
15 32 22 31 19 33 -59 0
15 32 22 31 19 33 -62 0
15 26 22 24 19 27 -58 0
15 26 22 24 19 27 -57 0
15 26 22 24 19 27 -55 0
15 26 22 24 19 27 -56 0
7 3 14 6 13 2 -11 0
7 3 14 6 13 2 -10 0
7 3 14 6 13 2 -12 0
7 3 14 6 13 2 -9 0
7 32 14 31 13 33 -51 0
7 32 14 31 13 33 -49 0
7 32 14 31 13 33 -50 0
7 32 14 31 13 33 -52 0
7 26 14 24 13 27 -46 0
7 26 14 24 13 27 -48 0
7 26 14 24 13 27 -45 0
7 26 14 24 13 27 -47 0
3 32 6 31 2 33 -36 0
3 32 6 31 2 33 -37 0
3 32 6 31 2 33 -34 0
3 32 6 31 2 33 -35 0
3 26 6 24 2 27 -25 0
3 26 6 24 2 27 -30 0
3 26 6 24 2 27 -23 0
3 26 6 24 2 27 -29 0
32 26 31 24 33 27 -66 0
32 26 31 24 33 27 -67 0
32 26 31 24 33 27 -65 0
32 26 31 24 33 27 -68 0
16 8 15 7 22 14 19 -41 0
16 8 15 7 22 14 19 -43 0
16 8 15 7 22 14 19 -44 0
16 8 15 7 22 14 19 -42 0
16 8 15 7 22 14 13 -41 0
16 8 15 7 22 14 13 -43 0
16 8 15 7 22 14 13 -44 0
16 8 15 7 22 14 13 -42 0
16 8 15 7 22 19 13 -41 0
16 8 15 7 22 19 13 -43 0
16 8 15 7 22 19 13 -44 0
16 8 15 7 22 19 13 -42 0
16 8 15 7 14 19 13 -41 0
16 8 15 7 14 19 13 -43 0
16 8 15 7 14 19 13 -44 0
16 8 15 7 14 19 13 -42 0
16 8 15 22 14 19 13 -41 0
16 8 15 22 14 19 13 -43 0
16 8 15 22 14 19 13 -44 0
16 8 15 22 14 19 13 -42 0
16 8 7 22 14 19 13 -41 0
16 8 7 22 14 19 13 -43 0
16 8 7 22 14 19 13 -44 0
16 8 7 22 14 19 13 -42 0
16 4 15 3 22 6 19 -21 0
16 4 15 3 22 6 19 -18 0
16 4 15 3 22 6 19 -17 0
16 4 15 3 22 6 19 -20 0
16 4 15 3 22 6 2 -21 0
16 4 15 3 22 6 2 -18 0
16 4 15 3 22 6 2 -17 0
16 4 15 3 22 6 2 -20 0
16 4 15 3 22 19 2 -21 0
16 4 15 3 22 19 2 -18 0
16 4 15 3 22 19 2 -17 0
16 4 15 3 22 19 2 -20 0
16 4 15 3 6 19 2 -21 0
16 4 15 3 6 19 2 -18 0
16 4 15 3 6 19 2 -17 0
16 4 15 3 6 19 2 -20 0
16 4 15 22 6 19 2 -21 0
16 4 15 22 6 19 2 -18 0
16 4 15 22 6 19 2 -17 0
16 4 15 22 6 19 2 -20 0
16 4 3 22 6 19 2 -21 0
16 4 3 22 6 19 2 -18 0
16 4 3 22 6 19 2 -17 0
16 4 3 22 6 19 2 -20 0
16 38 15 32 22 31 19 -60 0
16 38 15 32 22 31 19 -61 0
16 38 15 32 22 31 19 -59 0
16 38 15 32 22 31 19 -62 0
16 38 15 32 22 31 33 -60 0
16 38 15 32 22 31 33 -61 0
16 38 15 32 22 31 33 -59 0
16 38 15 32 22 31 33 -62 0
16 38 15 32 22 19 33 -60 0
16 38 15 32 22 19 33 -61 0
16 38 15 32 22 19 33 -59 0
16 38 15 32 22 19 33 -62 0
16 38 15 32 31 19 33 -60 0
16 38 15 32 31 19 33 -61 0
16 38 15 32 31 19 33 -59 0
16 38 15 32 31 19 33 -62 0
16 38 15 22 31 19 33 -60 0
16 38 15 22 31 19 33 -61 0
16 38 15 22 31 19 33 -59 0
16 38 15 22 31 19 33 -62 0
16 38 32 22 31 19 33 -60 0
16 38 32 22 31 19 33 -61 0
16 38 32 22 31 19 33 -59 0
16 38 32 22 31 19 33 -62 0
16 28 15 26 22 24 19 -58 0
16 28 15 26 22 24 19 -57 0
16 28 15 26 22 24 19 -55 0
16 28 15 26 22 24 19 -56 0
16 28 15 26 22 24 27 -58 0
16 28 15 26 22 24 27 -57 0
16 28 15 26 22 24 27 -55 0
16 28 15 26 22 24 27 -56 0
16 28 15 26 22 19 27 -58 0
16 28 15 26 22 19 27 -57 0
16 28 15 26 22 19 27 -55 0
16 28 15 26 22 19 27 -56 0
16 28 15 26 24 19 27 -58 0
16 28 15 26 24 19 27 -57 0
16 28 15 26 24 19 27 -55 0
16 28 15 26 24 19 27 -56 0
16 28 15 22 24 19 27 -58 0
16 28 15 22 24 19 27 -57 0
16 28 15 22 24 19 27 -55 0
16 28 15 22 24 19 27 -56 0
16 28 26 22 24 19 27 -58 0
16 28 26 22 24 19 27 -57 0
16 28 26 22 24 19 27 -55 0
16 28 26 22 24 19 27 -56 0
16 15 7 22 14 19 13 -41 0
16 15 7 22 14 19 13 -43 0
16 15 7 22 14 19 13 -44 0
16 15 7 22 14 19 13 -42 0
16 15 3 22 6 19 2 -21 0
16 15 3 22 6 19 2 -18 0
16 15 3 22 6 19 2 -17 0
16 15 3 22 6 19 2 -20 0
16 15 32 22 31 19 33 -60 0
16 15 32 22 31 19 33 -61 0
16 15 32 22 31 19 33 -59 0
16 15 32 22 31 19 33 -62 0
16 15 26 22 24 19 27 -58 0
16 15 26 22 24 19 27 -57 0
16 15 26 22 24 19 27 -55 0
16 15 26 22 24 19 27 -56 0
8 4 7 3 14 6 13 -11 0
8 4 7 3 14 6 13 -10 0
8 4 7 3 14 6 13 -12 0
8 4 7 3 14 6 13 -9 0
8 4 7 3 14 6 2 -11 0
8 4 7 3 14 6 2 -10 0
8 4 7 3 14 6 2 -12 0
8 4 7 3 14 6 2 -9 0
8 4 7 3 14 13 2 -11 0
8 4 7 3 14 13 2 -10 0
8 4 7 3 14 13 2 -12 0
8 4 7 3 14 13 2 -9 0
8 4 7 3 6 13 2 -11 0
8 4 7 3 6 13 2 -10 0
8 4 7 3 6 13 2 -12 0
8 4 7 3 6 13 2 -9 0
8 4 7 14 6 13 2 -11 0
8 4 7 14 6 13 2 -10 0
8 4 7 14 6 13 2 -12 0
8 4 7 14 6 13 2 -9 0
8 4 3 14 6 13 2 -11 0
8 4 3 14 6 13 2 -10 0
8 4 3 14 6 13 2 -12 0
8 4 3 14 6 13 2 -9 0
8 38 7 32 14 31 13 -51 0
8 38 7 32 14 31 13 -49 0
8 38 7 32 14 31 13 -50 0
8 38 7 32 14 31 13 -52 0
8 38 7 32 14 31 33 -51 0
8 38 7 32 14 31 33 -49 0
8 38 7 32 14 31 33 -50 0
8 38 7 32 14 31 33 -52 0
8 38 7 32 14 13 33 -51 0
8 38 7 32 14 13 33 -49 0
8 38 7 32 14 13 33 -50 0
8 38 7 32 14 13 33 -52 0
8 38 7 32 31 13 33 -51 0
8 38 7 32 31 13 33 -49 0
8 38 7 32 31 13 33 -50 0
8 38 7 32 31 13 33 -52 0
8 38 7 14 31 13 33 -51 0
8 38 7 14 31 13 33 -49 0
8 38 7 14 31 13 33 -50 0
8 38 7 14 31 13 33 -52 0
8 38 32 14 31 13 33 -51 0
8 38 32 14 31 13 33 -49 0
8 38 32 14 31 13 33 -50 0
8 38 32 14 31 13 33 -52 0
8 28 7 26 14 24 13 -46 0
8 28 7 26 14 24 13 -48 0
8 28 7 26 14 24 13 -45 0
8 28 7 26 14 24 13 -47 0
8 28 7 26 14 24 27 -46 0
8 28 7 26 14 24 27 -48 0
8 28 7 26 14 24 27 -45 0
8 28 7 26 14 24 27 -47 0
8 28 7 26 14 13 27 -46 0
8 28 7 26 14 13 27 -48 0
8 28 7 26 14 13 27 -45 0
8 28 7 26 14 13 27 -47 0
8 28 7 26 24 13 27 -46 0
8 28 7 26 24 13 27 -48 0
8 28 7 26 24 13 27 -45 0
8 28 7 26 24 13 27 -47 0
8 28 7 14 24 13 27 -46 0
8 28 7 14 24 13 27 -48 0
8 28 7 14 24 13 27 -45 0
8 28 7 14 24 13 27 -47 0
8 28 26 14 24 13 27 -46 0
8 28 26 14 24 13 27 -48 0
8 28 26 14 24 13 27 -45 0
8 28 26 14 24 13 27 -47 0
8 15 7 22 14 19 13 -41 0
8 15 7 22 14 19 13 -43 0
8 15 7 22 14 19 13 -44 0
8 15 7 22 14 19 13 -42 0
8 7 3 14 6 13 2 -11 0
8 7 3 14 6 13 2 -10 0
8 7 3 14 6 13 2 -12 0
8 7 3 14 6 13 2 -9 0
8 7 32 14 31 13 33 -51 0
8 7 32 14 31 13 33 -49 0
8 7 32 14 31 13 33 -50 0
8 7 32 14 31 13 33 -52 0
8 7 26 14 24 13 27 -46 0
8 7 26 14 24 13 27 -48 0
8 7 26 14 24 13 27 -45 0
8 7 26 14 24 13 27 -47 0
4 38 3 32 6 31 2 -36 0
4 38 3 32 6 31 2 -37 0
4 38 3 32 6 31 2 -34 0
4 38 3 32 6 31 2 -35 0
4 38 3 32 6 31 33 -36 0
4 38 3 32 6 31 33 -37 0
4 38 3 32 6 31 33 -34 0
4 38 3 32 6 31 33 -35 0
4 38 3 32 6 2 33 -36 0
4 38 3 32 6 2 33 -37 0
4 38 3 32 6 2 33 -34 0
4 38 3 32 6 2 33 -35 0
4 38 3 32 31 2 33 -36 0
4 38 3 32 31 2 33 -37 0
4 38 3 32 31 2 33 -34 0
4 38 3 32 31 2 33 -35 0
4 38 3 6 31 2 33 -36 0
4 38 3 6 31 2 33 -37 0
4 38 3 6 31 2 33 -34 0
4 38 3 6 31 2 33 -35 0
4 38 32 6 31 2 33 -36 0
4 38 32 6 31 2 33 -37 0
4 38 32 6 31 2 33 -34 0
4 38 32 6 31 2 33 -35 0
4 28 3 26 6 24 2 -25 0
4 28 3 26 6 24 2 -30 0
4 28 3 26 6 24 2 -23 0
4 28 3 26 6 24 2 -29 0
4 28 3 26 6 24 27 -25 0
4 28 3 26 6 24 27 -30 0
4 28 3 26 6 24 27 -23 0
4 28 3 26 6 24 27 -29 0
4 28 3 26 6 2 27 -25 0
4 28 3 26 6 2 27 -30 0
4 28 3 26 6 2 27 -23 0
4 28 3 26 6 2 27 -29 0
4 28 3 26 24 2 27 -25 0
4 28 3 26 24 2 27 -30 0
4 28 3 26 24 2 27 -23 0
4 28 3 26 24 2 27 -29 0
4 28 3 6 24 2 27 -25 0
4 28 3 6 24 2 27 -30 0
4 28 3 6 24 2 27 -23 0
4 28 3 6 24 2 27 -29 0
4 28 26 6 24 2 27 -25 0
4 28 26 6 24 2 27 -30 0
4 28 26 6 24 2 27 -23 0
4 28 26 6 24 2 27 -29 0
4 15 3 22 6 19 2 -21 0
4 15 3 22 6 19 2 -18 0
4 15 3 22 6 19 2 -17 0
4 15 3 22 6 19 2 -20 0
4 7 3 14 6 13 2 -11 0
4 7 3 14 6 13 2 -10 0
4 7 3 14 6 13 2 -12 0
4 7 3 14 6 13 2 -9 0
4 3 32 6 31 2 33 -36 0
4 3 32 6 31 2 33 -37 0
4 3 32 6 31 2 33 -34 0
4 3 32 6 31 2 33 -35 0
4 3 26 6 24 2 27 -25 0
4 3 26 6 24 2 27 -30 0
4 3 26 6 24 2 27 -23 0
4 3 26 6 24 2 27 -29 0
38 28 32 26 31 24 33 -66 0
38 28 32 26 31 24 33 -67 0
38 28 32 26 31 24 33 -65 0
38 28 32 26 31 24 33 -68 0
38 28 32 26 31 24 27 -66 0
38 28 32 26 31 24 27 -67 0
38 28 32 26 31 24 27 -65 0
38 28 32 26 31 24 27 -68 0
38 28 32 26 31 33 27 -66 0
38 28 32 26 31 33 27 -67 0
38 28 32 26 31 33 27 -65 0
38 28 32 26 31 33 27 -68 0
38 28 32 26 24 33 27 -66 0
38 28 32 26 24 33 27 -67 0
38 28 32 26 24 33 27 -65 0
38 28 32 26 24 33 27 -68 0
38 28 32 31 24 33 27 -66 0
38 28 32 31 24 33 27 -67 0
38 28 32 31 24 33 27 -65 0
38 28 32 31 24 33 27 -68 0
38 28 26 31 24 33 27 -66 0
38 28 26 31 24 33 27 -67 0
38 28 26 31 24 33 27 -65 0
38 28 26 31 24 33 27 -68 0
38 15 32 22 31 19 33 -60 0
38 15 32 22 31 19 33 -61 0
38 15 32 22 31 19 33 -59 0
38 15 32 22 31 19 33 -62 0
38 7 32 14 31 13 33 -51 0
38 7 32 14 31 13 33 -49 0
38 7 32 14 31 13 33 -50 0
38 7 32 14 31 13 33 -52 0
38 3 32 6 31 2 33 -36 0
38 3 32 6 31 2 33 -37 0
38 3 32 6 31 2 33 -34 0
38 3 32 6 31 2 33 -35 0
38 32 26 31 24 33 27 -66 0
38 32 26 31 24 33 27 -67 0
38 32 26 31 24 33 27 -65 0
38 32 26 31 24 33 27 -68 0
28 15 26 22 24 19 27 -58 0
28 15 26 22 24 19 27 -57 0
28 15 26 22 24 19 27 -55 0
28 15 26 22 24 19 27 -56 0
28 7 26 14 24 13 27 -46 0
28 7 26 14 24 13 27 -48 0
28 7 26 14 24 13 27 -45 0
28 7 26 14 24 13 27 -47 0
28 3 26 6 24 2 27 -25 0
28 3 26 6 24 2 27 -30 0
28 3 26 6 24 2 27 -23 0
28 3 26 6 24 2 27 -29 0
28 32 26 31 24 33 27 -66 0
28 32 26 31 24 33 27 -67 0
28 32 26 31 24 33 27 -65 0
28 32 26 31 24 33 27 -68 0
16 8 15 7 22 14 19 13 -41 0
16 8 15 7 22 14 19 13 -43 0
16 8 15 7 22 14 19 13 -44 0
16 8 15 7 22 14 19 13 -42 0
16 4 15 3 22 6 19 2 -21 0
16 4 15 3 22 6 19 2 -18 0
16 4 15 3 22 6 19 2 -17 0
16 4 15 3 22 6 19 2 -20 0
16 38 15 32 22 31 19 33 -60 0
16 38 15 32 22 31 19 33 -61 0
16 38 15 32 22 31 19 33 -59 0
16 38 15 32 22 31 19 33 -62 0
16 28 15 26 22 24 19 27 -58 0
16 28 15 26 22 24 19 27 -57 0
16 28 15 26 22 24 19 27 -55 0
16 28 15 26 22 24 19 27 -56 0
8 4 7 3 14 6 13 2 -11 0
8 4 7 3 14 6 13 2 -10 0
8 4 7 3 14 6 13 2 -12 0
8 4 7 3 14 6 13 2 -9 0
8 38 7 32 14 31 13 33 -51 0
8 38 7 32 14 31 13 33 -49 0
8 38 7 32 14 31 13 33 -50 0
8 38 7 32 14 31 13 33 -52 0
8 28 7 26 14 24 13 27 -46 0
8 28 7 26 14 24 13 27 -48 0
8 28 7 26 14 24 13 27 -45 0
8 28 7 26 14 24 13 27 -47 0
4 38 3 32 6 31 2 33 -36 0
4 38 3 32 6 31 2 33 -37 0
4 38 3 32 6 31 2 33 -34 0
4 38 3 32 6 31 2 33 -35 0
4 28 3 26 6 24 2 27 -25 0
4 28 3 26 6 24 2 27 -30 0
4 28 3 26 6 24 2 27 -23 0
4 28 3 26 6 24 2 27 -29 0
38 28 32 26 31 24 33 27 -66 0
38 28 32 26 31 24 33 27 -67 0
38 28 32 26 31 24 33 27 -65 0
38 28 32 26 31 24 33 27 -68 0
