c U4(2) U2(2) E2(2,2) U1(2) E1(2,2) U3(2) E2(2,1) U3(1) U2(1) U1(1) U4(1) E1(2,1) E1(1,2) E2(1,2) U1(0) E1(2,0) U4(0) E2(2,0) E1(0,2) U3(0) U2(0) E2(0,2) U3(4) E2(2,4) E1(4,2) U4(4) U2(4) E2(4,2) E1(2,4) U1(4) U3(5) E2(5,2) E1(2,5) U4(5) U2(5) U1(5) E2(2,5) E1(5,2) E2(3,2) U4(3) E1(2,3) U1(3) E2(2,3) U3(3) E1(3,2) U2(3) E2(1,1) E1(1,1) E2(1,0) E2(0,1) E1(1,0) E1(0,1) E1(1,4) E2(1,4) E2(4,1) E1(4,1) E1(5,1) E1(1,5) E2(5,1) E2(1,5) E2(1,3) E2(3,1) E1(3,1) E1(1,3) E1(0,0) E2(0,0) E1(0,4) E2(4,0) E1(4,0) E2(0,4) E2(0,5) E1(5,0) E1(0,5) E2(5,0) E2(0,3) E1(0,3) E1(3,0) E2(3,0) E2(4,4) E1(4,4) E1(5,4) E1(4,5) E2(4,5) E2(5,4) E1(3,4) E1(4,3) E2(4,3) E2(3,4) E1(5,5) E2(5,5) E1(5,3) E2(5,3) E2(3,5) E1(3,5) E1(3,3) E2(3,3)
c 1 2 3 4 5 6 7 8 9 10 11 12 13 14 15 16 17 18 19 20 21 22 23 24 25 26 27 28 29 30 31 32 33 34 35 36 37 38 39 40 41 42 43 44 45 46 47 48 49 50 51 52 53 54 55 56 57 58 59 60 61 62 63 64 65 66 67 68 69 70 71 72 73 74 75 76 77 78 79 80 81 82 83 84 85 86 87 88 89 90 91 92 93 94 95 96
p cnf 96 2322
65 -65 0
52 -51 0
19 -16 0
76 -77 0
67 -69 0
73 -72 0
51 -52 0
48 -48 0
13 -12 0
64 -63 0
53 -56 0
58 -57 0
16 -19 0
12 -13 0
5 -5 0
41 -45 0
29 -25 0
33 -38 0
77 -76 0
63 -64 0
45 -41 0
95 -95 0
85 -86 0
94 -91 0
69 -67 0
56 -53 0
25 -29 0
86 -85 0
80 -80 0
82 -81 0
72 -73 0
57 -58 0
38 -33 0
91 -94 0
81 -82 0
89 -89 0
66 -66 0
50 -49 0
22 -18 0
75 -78 0
70 -68 0
71 -74 0
49 -50 0
47 -47 0
14 -7 0
61 -62 0
54 -55 0
60 -59 0
18 -22 0
7 -14 0
3 -3 0
43 -39 0
24 -28 0
37 -32 0
78 -75 0
62 -61 0
39 -43 0
96 -96 0
88 -87 0
93 -92 0
68 -70 0
55 -54 0
28 -24 0
87 -88 0
79 -79 0
83 -84 0
74 -71 0
59 -60 0
32 -37 0
92 -93 0
84 -83 0
90 -90 0
-65 -66 0
-52 -50 0
-19 -22 0
-76 -75 0
-67 -70 0
-73 -71 0
-51 -49 0
-48 -47 0
-13 -14 0
-64 -61 0
-53 -54 0
-58 -60 0
-16 -18 0
-12 -7 0
-5 -3 0
-41 -43 0
-29 -24 0
-33 -37 0
-77 -78 0
-63 -62 0
-45 -39 0
-95 -96 0
-85 -88 0
-94 -93 0
-69 -68 0
-56 -55 0
-25 -28 0
-86 -87 0
-80 -79 0
-82 -83 0
-72 -74 0
-57 -59 0
-38 -32 0
-91 -92 0
-81 -84 0
-89 -90 0
-15 -21 0
-15 -20 0
-15 -17 0
-10 -9 0
-10 -8 0
-10 -11 0
-4 -2 0
-4 -6 0
-4 -1 0
-42 -46 0
-42 -44 0
-42 -40 0
-30 -27 0
-30 -23 0
-30 -26 0
-36 -35 0
-36 -31 0
-36 -34 0
-21 -20 0
-21 -17 0
-9 -8 0
-9 -11 0
-2 -6 0
-2 -1 0
-46 -44 0
-46 -40 0
-27 -23 0
-27 -26 0
-35 -31 0
-35 -34 0
-20 -17 0
-8 -11 0
-6 -1 0
-44 -40 0
-23 -26 0
-31 -34 0
15 21 20 17 0
10 9 8 11 0
4 2 6 1 0
42 46 44 40 0
30 27 23 26 0
36 35 31 34 0
15 21 20 -65 0
15 21 20 -66 0
15 21 17 -65 0
15 21 17 -66 0
15 20 17 -65 0
15 20 17 -66 0
10 9 8 -48 0
10 9 8 -47 0
10 9 11 -48 0
10 9 11 -47 0
10 8 11 -48 0
10 8 11 -47 0
4 2 6 -5 0
4 2 6 -3 0
4 2 1 -5 0
4 2 1 -3 0
4 6 1 -5 0
4 6 1 -3 0
42 46 44 -95 0
42 46 44 -96 0
42 46 40 -95 0
42 46 40 -96 0
42 44 40 -95 0
42 44 40 -96 0
30 27 23 -80 0
30 27 23 -79 0
30 27 26 -80 0
30 27 26 -79 0
30 23 26 -80 0
30 23 26 -79 0
36 35 31 -89 0
36 35 31 -90 0
36 35 34 -89 0
36 35 34 -90 0
36 31 34 -89 0
36 31 34 -90 0
21 20 17 -65 0
21 20 17 -66 0
9 8 11 -48 0
9 8 11 -47 0
2 6 1 -5 0
2 6 1 -3 0
46 44 40 -95 0
46 44 40 -96 0
27 23 26 -80 0
27 23 26 -79 0
35 31 34 -89 0
35 31 34 -90 0
15 21 20 17 -65 0
15 21 20 17 -52 0
15 21 20 17 -19 0
15 21 20 17 -76 0
15 21 20 17 -67 0
15 21 20 17 -73 0
15 21 20 17 -51 0
15 21 20 17 -16 0
15 21 20 17 -77 0
15 21 20 17 -69 0
15 21 20 17 -72 0
15 21 20 17 -66 0
15 21 20 17 -50 0
15 21 20 17 -22 0
15 21 20 17 -75 0
15 21 20 17 -70 0
15 21 20 17 -71 0
15 21 20 17 -49 0
15 21 20 17 -18 0
15 21 20 17 -78 0
15 21 20 17 -68 0
15 21 20 17 -74 0
10 9 8 11 -52 0
10 9 8 11 -51 0
10 9 8 11 -48 0
10 9 8 11 -13 0
10 9 8 11 -64 0
10 9 8 11 -53 0
10 9 8 11 -58 0
10 9 8 11 -12 0
10 9 8 11 -63 0
10 9 8 11 -56 0
10 9 8 11 -57 0
10 9 8 11 -50 0
10 9 8 11 -49 0
10 9 8 11 -47 0
10 9 8 11 -14 0
10 9 8 11 -61 0
10 9 8 11 -54 0
10 9 8 11 -60 0
10 9 8 11 -7 0
10 9 8 11 -62 0
10 9 8 11 -55 0
10 9 8 11 -59 0
4 2 6 1 -19 0
4 2 6 1 -13 0
4 2 6 1 -16 0
4 2 6 1 -12 0
4 2 6 1 -5 0
4 2 6 1 -41 0
4 2 6 1 -29 0
4 2 6 1 -33 0
4 2 6 1 -45 0
4 2 6 1 -25 0
4 2 6 1 -38 0
4 2 6 1 -22 0
4 2 6 1 -14 0
4 2 6 1 -18 0
4 2 6 1 -7 0
4 2 6 1 -3 0
4 2 6 1 -43 0
4 2 6 1 -24 0
4 2 6 1 -37 0
4 2 6 1 -39 0
4 2 6 1 -28 0
4 2 6 1 -32 0
42 46 44 40 -76 0
42 46 44 40 -64 0
42 46 44 40 -41 0
42 46 44 40 -77 0
42 46 44 40 -63 0
42 46 44 40 -45 0
42 46 44 40 -95 0
42 46 44 40 -85 0
42 46 44 40 -94 0
42 46 44 40 -86 0
42 46 44 40 -91 0
42 46 44 40 -75 0
42 46 44 40 -61 0
42 46 44 40 -43 0
42 46 44 40 -78 0
42 46 44 40 -62 0
42 46 44 40 -39 0
42 46 44 40 -96 0
42 46 44 40 -88 0
42 46 44 40 -93 0
42 46 44 40 -87 0
42 46 44 40 -92 0
30 27 23 26 -67 0
30 27 23 26 -53 0
30 27 23 26 -29 0
30 27 23 26 -85 0
30 27 23 26 -69 0
30 27 23 26 -56 0
30 27 23 26 -25 0
30 27 23 26 -86 0
30 27 23 26 -80 0
30 27 23 26 -82 0
30 27 23 26 -81 0
30 27 23 26 -70 0
30 27 23 26 -54 0
30 27 23 26 -24 0
30 27 23 26 -88 0
30 27 23 26 -68 0
30 27 23 26 -55 0
30 27 23 26 -28 0
30 27 23 26 -87 0
30 27 23 26 -79 0
30 27 23 26 -83 0
30 27 23 26 -84 0
36 35 31 34 -73 0
36 35 31 34 -58 0
36 35 31 34 -33 0
36 35 31 34 -94 0
36 35 31 34 -82 0
36 35 31 34 -72 0
36 35 31 34 -57 0
36 35 31 34 -38 0
36 35 31 34 -91 0
36 35 31 34 -81 0
36 35 31 34 -89 0
36 35 31 34 -71 0
36 35 31 34 -60 0
36 35 31 34 -37 0
36 35 31 34 -93 0
36 35 31 34 -83 0
36 35 31 34 -74 0
36 35 31 34 -59 0
36 35 31 34 -32 0
36 35 31 34 -92 0
36 35 31 34 -84 0
36 35 31 34 -90 0
65 52 19 76 67 73 0
51 48 13 64 53 58 0
16 12 5 41 29 33 0
77 63 45 95 85 94 0
69 56 25 86 80 82 0
72 57 38 91 81 89 0
66 50 22 75 70 71 0
49 47 14 61 54 60 0
18 7 3 43 24 37 0
78 62 39 96 88 93 0
68 55 28 87 79 83 0
74 59 32 92 84 90 0
15 10 21 20 17 -52 0
15 10 21 20 17 -51 0
15 10 21 20 17 -50 0
15 10 21 20 17 -49 0
15 10 9 8 11 -52 0
15 10 9 8 11 -51 0
15 10 9 8 11 -50 0
15 10 9 8 11 -49 0
15 4 21 20 17 -19 0
15 4 21 20 17 -16 0
15 4 21 20 17 -22 0
15 4 21 20 17 -18 0
15 4 2 6 1 -19 0
15 4 2 6 1 -16 0
15 4 2 6 1 -22 0
15 4 2 6 1 -18 0
15 42 21 20 17 -76 0
15 42 21 20 17 -77 0
15 42 21 20 17 -75 0
15 42 21 20 17 -78 0
15 42 46 44 40 -76 0
15 42 46 44 40 -77 0
15 42 46 44 40 -75 0
15 42 46 44 40 -78 0
15 30 21 20 17 -67 0
15 30 21 20 17 -69 0
15 30 21 20 17 -70 0
15 30 21 20 17 -68 0
15 30 27 23 26 -67 0
15 30 27 23 26 -69 0
15 30 27 23 26 -70 0
15 30 27 23 26 -68 0
15 36 21 20 17 -73 0
15 36 21 20 17 -72 0
15 36 21 20 17 -71 0
15 36 21 20 17 -74 0
15 36 35 31 34 -73 0
15 36 35 31 34 -72 0
15 36 35 31 34 -71 0
15 36 35 31 34 -74 0
15 21 9 20 17 -52 0
15 21 9 20 17 -51 0
15 21 9 20 17 -50 0
15 21 9 20 17 -49 0
15 21 2 20 17 -19 0
15 21 2 20 17 -16 0
15 21 2 20 17 -22 0
15 21 2 20 17 -18 0
15 21 46 20 17 -76 0
15 21 46 20 17 -77 0
15 21 46 20 17 -75 0
15 21 46 20 17 -78 0
15 21 27 20 17 -67 0
15 21 27 20 17 -69 0
15 21 27 20 17 -70 0
15 21 27 20 17 -68 0
15 21 35 20 17 -73 0
15 21 35 20 17 -72 0
15 21 35 20 17 -71 0
15 21 35 20 17 -74 0
15 21 20 8 17 -52 0
15 21 20 8 17 -51 0
15 21 20 8 17 -50 0
15 21 20 8 17 -49 0
15 21 20 6 17 -19 0
15 21 20 6 17 -16 0
15 21 20 6 17 -22 0
15 21 20 6 17 -18 0
15 21 20 44 17 -76 0
15 21 20 44 17 -77 0
15 21 20 44 17 -75 0
15 21 20 44 17 -78 0
15 21 20 23 17 -67 0
15 21 20 23 17 -69 0
15 21 20 23 17 -70 0
15 21 20 23 17 -68 0
15 21 20 31 17 -73 0
15 21 20 31 17 -72 0
15 21 20 31 17 -71 0
15 21 20 31 17 -74 0
15 21 20 17 11 -52 0
15 21 20 17 11 -51 0
15 21 20 17 11 -50 0
15 21 20 17 11 -49 0
15 21 20 17 1 -19 0
15 21 20 17 1 -16 0
15 21 20 17 1 -22 0
15 21 20 17 1 -18 0
15 21 20 17 40 -76 0
15 21 20 17 40 -77 0
15 21 20 17 40 -75 0
15 21 20 17 40 -78 0
15 21 20 17 26 -67 0
15 21 20 17 26 -69 0
15 21 20 17 26 -70 0
15 21 20 17 26 -68 0
15 21 20 17 34 -73 0
15 21 20 17 34 -72 0
15 21 20 17 34 -71 0
15 21 20 17 34 -74 0
10 4 9 8 11 -13 0
10 4 9 8 11 -12 0
10 4 9 8 11 -14 0
10 4 9 8 11 -7 0
10 4 2 6 1 -13 0
10 4 2 6 1 -12 0
10 4 2 6 1 -14 0
10 4 2 6 1 -7 0
10 42 9 8 11 -64 0
10 42 9 8 11 -63 0
10 42 9 8 11 -61 0
10 42 9 8 11 -62 0
10 42 46 44 40 -64 0
10 42 46 44 40 -63 0
10 42 46 44 40 -61 0
10 42 46 44 40 -62 0
10 30 9 8 11 -53 0
10 30 9 8 11 -56 0
10 30 9 8 11 -54 0
10 30 9 8 11 -55 0
10 30 27 23 26 -53 0
10 30 27 23 26 -56 0
10 30 27 23 26 -54 0
10 30 27 23 26 -55 0
10 36 9 8 11 -58 0
10 36 9 8 11 -57 0
10 36 9 8 11 -60 0
10 36 9 8 11 -59 0
10 36 35 31 34 -58 0
10 36 35 31 34 -57 0
10 36 35 31 34 -60 0
10 36 35 31 34 -59 0
10 21 9 8 11 -52 0
10 21 9 8 11 -51 0
10 21 9 8 11 -50 0
10 21 9 8 11 -49 0
10 9 2 8 11 -13 0
10 9 2 8 11 -12 0
10 9 2 8 11 -14 0
10 9 2 8 11 -7 0
10 9 46 8 11 -64 0
10 9 46 8 11 -63 0
10 9 46 8 11 -61 0
10 9 46 8 11 -62 0
10 9 27 8 11 -53 0
10 9 27 8 11 -56 0
10 9 27 8 11 -54 0
10 9 27 8 11 -55 0
10 9 35 8 11 -58 0
10 9 35 8 11 -57 0
10 9 35 8 11 -60 0
10 9 35 8 11 -59 0
10 9 20 8 11 -52 0
10 9 20 8 11 -51 0
10 9 20 8 11 -50 0
10 9 20 8 11 -49 0
10 9 8 6 11 -13 0
10 9 8 6 11 -12 0
10 9 8 6 11 -14 0
10 9 8 6 11 -7 0
10 9 8 44 11 -64 0
10 9 8 44 11 -63 0
10 9 8 44 11 -61 0
10 9 8 44 11 -62 0
10 9 8 23 11 -53 0
10 9 8 23 11 -56 0
10 9 8 23 11 -54 0
10 9 8 23 11 -55 0
10 9 8 31 11 -58 0
10 9 8 31 11 -57 0
10 9 8 31 11 -60 0
10 9 8 31 11 -59 0
10 9 8 17 11 -52 0
10 9 8 17 11 -51 0
10 9 8 17 11 -50 0
10 9 8 17 11 -49 0
10 9 8 11 1 -13 0
10 9 8 11 1 -12 0
10 9 8 11 1 -14 0
10 9 8 11 1 -7 0
10 9 8 11 40 -64 0
10 9 8 11 40 -63 0
10 9 8 11 40 -61 0
10 9 8 11 40 -62 0
10 9 8 11 26 -53 0
10 9 8 11 26 -56 0
10 9 8 11 26 -54 0
10 9 8 11 26 -55 0
10 9 8 11 34 -58 0
10 9 8 11 34 -57 0
10 9 8 11 34 -60 0
10 9 8 11 34 -59 0
4 42 2 6 1 -41 0
4 42 2 6 1 -45 0
4 42 2 6 1 -43 0
4 42 2 6 1 -39 0
4 42 46 44 40 -41 0
4 42 46 44 40 -45 0
4 42 46 44 40 -43 0
4 42 46 44 40 -39 0
4 30 2 6 1 -29 0
4 30 2 6 1 -25 0
4 30 2 6 1 -24 0
4 30 2 6 1 -28 0
4 30 27 23 26 -29 0
4 30 27 23 26 -25 0
4 30 27 23 26 -24 0
4 30 27 23 26 -28 0
4 36 2 6 1 -33 0
4 36 2 6 1 -38 0
4 36 2 6 1 -37 0
4 36 2 6 1 -32 0
4 36 35 31 34 -33 0
4 36 35 31 34 -38 0
4 36 35 31 34 -37 0
4 36 35 31 34 -32 0
4 21 2 6 1 -19 0
4 21 2 6 1 -16 0
4 21 2 6 1 -22 0
4 21 2 6 1 -18 0
4 9 2 6 1 -13 0
4 9 2 6 1 -12 0
4 9 2 6 1 -14 0
4 9 2 6 1 -7 0
4 2 46 6 1 -41 0
4 2 46 6 1 -45 0
4 2 46 6 1 -43 0
4 2 46 6 1 -39 0
4 2 27 6 1 -29 0
4 2 27 6 1 -25 0
4 2 27 6 1 -24 0
4 2 27 6 1 -28 0
4 2 35 6 1 -33 0
4 2 35 6 1 -38 0
4 2 35 6 1 -37 0
4 2 35 6 1 -32 0
4 2 20 6 1 -19 0
4 2 20 6 1 -16 0
4 2 20 6 1 -22 0
4 2 20 6 1 -18 0
4 2 8 6 1 -13 0
4 2 8 6 1 -12 0
4 2 8 6 1 -14 0
4 2 8 6 1 -7 0
4 2 6 44 1 -41 0
4 2 6 44 1 -45 0
4 2 6 44 1 -43 0
4 2 6 44 1 -39 0
4 2 6 23 1 -29 0
4 2 6 23 1 -25 0
4 2 6 23 1 -24 0
4 2 6 23 1 -28 0
4 2 6 31 1 -33 0
4 2 6 31 1 -38 0
4 2 6 31 1 -37 0
4 2 6 31 1 -32 0
4 2 6 17 1 -19 0
4 2 6 17 1 -16 0
4 2 6 17 1 -22 0
4 2 6 17 1 -18 0
4 2 6 11 1 -13 0
4 2 6 11 1 -12 0
4 2 6 11 1 -14 0
4 2 6 11 1 -7 0
4 2 6 1 40 -41 0
4 2 6 1 40 -45 0
4 2 6 1 40 -43 0
4 2 6 1 40 -39 0
4 2 6 1 26 -29 0
4 2 6 1 26 -25 0
4 2 6 1 26 -24 0
4 2 6 1 26 -28 0
4 2 6 1 34 -33 0
4 2 6 1 34 -38 0
4 2 6 1 34 -37 0
4 2 6 1 34 -32 0
42 30 46 44 40 -85 0
42 30 46 44 40 -86 0
42 30 46 44 40 -88 0
42 30 46 44 40 -87 0
42 30 27 23 26 -85 0
42 30 27 23 26 -86 0
42 30 27 23 26 -88 0
42 30 27 23 26 -87 0
42 36 46 44 40 -94 0
42 36 46 44 40 -91 0
42 36 46 44 40 -93 0
42 36 46 44 40 -92 0
42 36 35 31 34 -94 0
42 36 35 31 34 -91 0
42 36 35 31 34 -93 0
42 36 35 31 34 -92 0
42 21 46 44 40 -76 0
42 21 46 44 40 -77 0
42 21 46 44 40 -75 0
42 21 46 44 40 -78 0
42 9 46 44 40 -64 0
42 9 46 44 40 -63 0
42 9 46 44 40 -61 0
42 9 46 44 40 -62 0
42 2 46 44 40 -41 0
42 2 46 44 40 -45 0
42 2 46 44 40 -43 0
42 2 46 44 40 -39 0
42 46 27 44 40 -85 0
42 46 27 44 40 -86 0
42 46 27 44 40 -88 0
42 46 27 44 40 -87 0
42 46 35 44 40 -94 0
42 46 35 44 40 -91 0
42 46 35 44 40 -93 0
42 46 35 44 40 -92 0
42 46 20 44 40 -76 0
42 46 20 44 40 -77 0
42 46 20 44 40 -75 0
42 46 20 44 40 -78 0
42 46 8 44 40 -64 0
42 46 8 44 40 -63 0
42 46 8 44 40 -61 0
42 46 8 44 40 -62 0
42 46 6 44 40 -41 0
42 46 6 44 40 -45 0
42 46 6 44 40 -43 0
42 46 6 44 40 -39 0
42 46 44 23 40 -85 0
42 46 44 23 40 -86 0
42 46 44 23 40 -88 0
42 46 44 23 40 -87 0
42 46 44 31 40 -94 0
42 46 44 31 40 -91 0
42 46 44 31 40 -93 0
42 46 44 31 40 -92 0
42 46 44 17 40 -76 0
42 46 44 17 40 -77 0
42 46 44 17 40 -75 0
42 46 44 17 40 -78 0
42 46 44 11 40 -64 0
42 46 44 11 40 -63 0
42 46 44 11 40 -61 0
42 46 44 11 40 -62 0
42 46 44 1 40 -41 0
42 46 44 1 40 -45 0
42 46 44 1 40 -43 0
42 46 44 1 40 -39 0
42 46 44 40 26 -85 0
42 46 44 40 26 -86 0
42 46 44 40 26 -88 0
42 46 44 40 26 -87 0
42 46 44 40 34 -94 0
42 46 44 40 34 -91 0
42 46 44 40 34 -93 0
42 46 44 40 34 -92 0
30 36 27 23 26 -82 0
30 36 27 23 26 -81 0
30 36 27 23 26 -83 0
30 36 27 23 26 -84 0
30 36 35 31 34 -82 0
30 36 35 31 34 -81 0
30 36 35 31 34 -83 0
30 36 35 31 34 -84 0
30 21 27 23 26 -67 0
30 21 27 23 26 -69 0
30 21 27 23 26 -70 0
30 21 27 23 26 -68 0
30 9 27 23 26 -53 0
30 9 27 23 26 -56 0
30 9 27 23 26 -54 0
30 9 27 23 26 -55 0
30 2 27 23 26 -29 0
30 2 27 23 26 -25 0
30 2 27 23 26 -24 0
30 2 27 23 26 -28 0
30 46 27 23 26 -85 0
30 46 27 23 26 -86 0
30 46 27 23 26 -88 0
30 46 27 23 26 -87 0
30 27 35 23 26 -82 0
30 27 35 23 26 -81 0
30 27 35 23 26 -83 0
30 27 35 23 26 -84 0
30 27 20 23 26 -67 0
30 27 20 23 26 -69 0
30 27 20 23 26 -70 0
30 27 20 23 26 -68 0
30 27 8 23 26 -53 0
30 27 8 23 26 -56 0
30 27 8 23 26 -54 0
30 27 8 23 26 -55 0
30 27 6 23 26 -29 0
30 27 6 23 26 -25 0
30 27 6 23 26 -24 0
30 27 6 23 26 -28 0
30 27 44 23 26 -85 0
30 27 44 23 26 -86 0
30 27 44 23 26 -88 0
30 27 44 23 26 -87 0
30 27 23 31 26 -82 0
30 27 23 31 26 -81 0
30 27 23 31 26 -83 0
30 27 23 31 26 -84 0
30 27 23 17 26 -67 0
30 27 23 17 26 -69 0
30 27 23 17 26 -70 0
30 27 23 17 26 -68 0
30 27 23 11 26 -53 0
30 27 23 11 26 -56 0
30 27 23 11 26 -54 0
30 27 23 11 26 -55 0
30 27 23 1 26 -29 0
30 27 23 1 26 -25 0
30 27 23 1 26 -24 0
30 27 23 1 26 -28 0
30 27 23 40 26 -85 0
30 27 23 40 26 -86 0
30 27 23 40 26 -88 0
30 27 23 40 26 -87 0
30 27 23 26 34 -82 0
30 27 23 26 34 -81 0
30 27 23 26 34 -83 0
30 27 23 26 34 -84 0
36 21 35 31 34 -73 0
36 21 35 31 34 -72 0
36 21 35 31 34 -71 0
36 21 35 31 34 -74 0
36 9 35 31 34 -58 0
36 9 35 31 34 -57 0
36 9 35 31 34 -60 0
36 9 35 31 34 -59 0
36 2 35 31 34 -33 0
36 2 35 31 34 -38 0
36 2 35 31 34 -37 0
36 2 35 31 34 -32 0
36 46 35 31 34 -94 0
36 46 35 31 34 -91 0
36 46 35 31 34 -93 0
36 46 35 31 34 -92 0
36 27 35 31 34 -82 0
36 27 35 31 34 -81 0
36 27 35 31 34 -83 0
36 27 35 31 34 -84 0
36 35 20 31 34 -73 0
36 35 20 31 34 -72 0
36 35 20 31 34 -71 0
36 35 20 31 34 -74 0
36 35 8 31 34 -58 0
36 35 8 31 34 -57 0
36 35 8 31 34 -60 0
36 35 8 31 34 -59 0
36 35 6 31 34 -33 0
36 35 6 31 34 -38 0
36 35 6 31 34 -37 0
36 35 6 31 34 -32 0
36 35 44 31 34 -94 0
36 35 44 31 34 -91 0
36 35 44 31 34 -93 0
36 35 44 31 34 -92 0
36 35 23 31 34 -82 0
36 35 23 31 34 -81 0
36 35 23 31 34 -83 0
36 35 23 31 34 -84 0
36 35 31 17 34 -73 0
36 35 31 17 34 -72 0
36 35 31 17 34 -71 0
36 35 31 17 34 -74 0
36 35 31 11 34 -58 0
36 35 31 11 34 -57 0
36 35 31 11 34 -60 0
36 35 31 11 34 -59 0
36 35 31 1 34 -33 0
36 35 31 1 34 -38 0
36 35 31 1 34 -37 0
36 35 31 1 34 -32 0
36 35 31 40 34 -94 0
36 35 31 40 34 -91 0
36 35 31 40 34 -93 0
36 35 31 40 34 -92 0
36 35 31 26 34 -82 0
36 35 31 26 34 -81 0
36 35 31 26 34 -83 0
36 35 31 26 34 -84 0
15 10 21 9 20 8 -52 0
15 10 21 9 20 8 -51 0
15 10 21 9 20 8 -50 0
15 10 21 9 20 8 -49 0
15 10 21 9 20 17 -52 0
15 10 21 9 20 17 -51 0
15 10 21 9 20 17 -50 0
15 10 21 9 20 17 -49 0
15 10 21 9 8 11 -52 0
15 10 21 9 8 11 -51 0
15 10 21 9 8 11 -50 0
15 10 21 9 8 11 -49 0
15 10 21 9 17 11 -52 0
15 10 21 9 17 11 -51 0
15 10 21 9 17 11 -50 0
15 10 21 9 17 11 -49 0
15 10 21 20 8 17 -52 0
15 10 21 20 8 17 -51 0
15 10 21 20 8 17 -50 0
15 10 21 20 8 17 -49 0
15 10 21 20 17 11 -52 0
15 10 21 20 17 11 -51 0
15 10 21 20 17 11 -50 0
15 10 21 20 17 11 -49 0
15 10 9 20 8 11 -52 0
15 10 9 20 8 11 -51 0
15 10 9 20 8 11 -50 0
15 10 9 20 8 11 -49 0
15 10 9 8 17 11 -52 0
15 10 9 8 17 11 -51 0
15 10 9 8 17 11 -50 0
15 10 9 8 17 11 -49 0
15 10 20 8 17 11 -52 0
15 10 20 8 17 11 -51 0
15 10 20 8 17 11 -50 0
15 10 20 8 17 11 -49 0
15 4 21 2 20 6 -19 0
15 4 21 2 20 6 -16 0
15 4 21 2 20 6 -22 0
15 4 21 2 20 6 -18 0
15 4 21 2 20 17 -19 0
15 4 21 2 20 17 -16 0
15 4 21 2 20 17 -22 0
15 4 21 2 20 17 -18 0
15 4 21 2 6 1 -19 0
15 4 21 2 6 1 -16 0
15 4 21 2 6 1 -22 0
15 4 21 2 6 1 -18 0
15 4 21 2 17 1 -19 0
15 4 21 2 17 1 -16 0
15 4 21 2 17 1 -22 0
15 4 21 2 17 1 -18 0
15 4 21 20 6 17 -19 0
15 4 21 20 6 17 -16 0
15 4 21 20 6 17 -22 0
15 4 21 20 6 17 -18 0
15 4 21 20 17 1 -19 0
15 4 21 20 17 1 -16 0
15 4 21 20 17 1 -22 0
15 4 21 20 17 1 -18 0
15 4 2 20 6 1 -19 0
15 4 2 20 6 1 -16 0
15 4 2 20 6 1 -22 0
15 4 2 20 6 1 -18 0
15 4 2 6 17 1 -19 0
15 4 2 6 17 1 -16 0
15 4 2 6 17 1 -22 0
15 4 2 6 17 1 -18 0
15 4 20 6 17 1 -19 0
15 4 20 6 17 1 -16 0
15 4 20 6 17 1 -22 0
15 4 20 6 17 1 -18 0
15 42 21 46 20 44 -76 0
15 42 21 46 20 44 -77 0
15 42 21 46 20 44 -75 0
15 42 21 46 20 44 -78 0
15 42 21 46 20 17 -76 0
15 42 21 46 20 17 -77 0
15 42 21 46 20 17 -75 0
15 42 21 46 20 17 -78 0
15 42 21 46 44 40 -76 0
15 42 21 46 44 40 -77 0
15 42 21 46 44 40 -75 0
15 42 21 46 44 40 -78 0
15 42 21 46 17 40 -76 0
15 42 21 46 17 40 -77 0
15 42 21 46 17 40 -75 0
15 42 21 46 17 40 -78 0
15 42 21 20 44 17 -76 0
15 42 21 20 44 17 -77 0
15 42 21 20 44 17 -75 0
15 42 21 20 44 17 -78 0
15 42 21 20 17 40 -76 0
15 42 21 20 17 40 -77 0
15 42 21 20 17 40 -75 0
15 42 21 20 17 40 -78 0
15 42 46 20 44 40 -76 0
15 42 46 20 44 40 -77 0
15 42 46 20 44 40 -75 0
15 42 46 20 44 40 -78 0
15 42 46 44 17 40 -76 0
15 42 46 44 17 40 -77 0
15 42 46 44 17 40 -75 0
15 42 46 44 17 40 -78 0
15 42 20 44 17 40 -76 0
15 42 20 44 17 40 -77 0
15 42 20 44 17 40 -75 0
15 42 20 44 17 40 -78 0
15 30 21 27 20 23 -67 0
15 30 21 27 20 23 -69 0
15 30 21 27 20 23 -70 0
15 30 21 27 20 23 -68 0
15 30 21 27 20 17 -67 0
15 30 21 27 20 17 -69 0
15 30 21 27 20 17 -70 0
15 30 21 27 20 17 -68 0
15 30 21 27 23 26 -67 0
15 30 21 27 23 26 -69 0
15 30 21 27 23 26 -70 0
15 30 21 27 23 26 -68 0
15 30 21 27 17 26 -67 0
15 30 21 27 17 26 -69 0
15 30 21 27 17 26 -70 0
15 30 21 27 17 26 -68 0
15 30 21 20 23 17 -67 0
15 30 21 20 23 17 -69 0
15 30 21 20 23 17 -70 0
15 30 21 20 23 17 -68 0
15 30 21 20 17 26 -67 0
15 30 21 20 17 26 -69 0
15 30 21 20 17 26 -70 0
15 30 21 20 17 26 -68 0
15 30 27 20 23 26 -67 0
15 30 27 20 23 26 -69 0
15 30 27 20 23 26 -70 0
15 30 27 20 23 26 -68 0
15 30 27 23 17 26 -67 0
15 30 27 23 17 26 -69 0
15 30 27 23 17 26 -70 0
15 30 27 23 17 26 -68 0
15 30 20 23 17 26 -67 0
15 30 20 23 17 26 -69 0
15 30 20 23 17 26 -70 0
15 30 20 23 17 26 -68 0
15 36 21 35 20 31 -73 0
15 36 21 35 20 31 -72 0
15 36 21 35 20 31 -71 0
15 36 21 35 20 31 -74 0
15 36 21 35 20 17 -73 0
15 36 21 35 20 17 -72 0
15 36 21 35 20 17 -71 0
15 36 21 35 20 17 -74 0
15 36 21 35 31 34 -73 0
15 36 21 35 31 34 -72 0
15 36 21 35 31 34 -71 0
15 36 21 35 31 34 -74 0
15 36 21 35 17 34 -73 0
15 36 21 35 17 34 -72 0
15 36 21 35 17 34 -71 0
15 36 21 35 17 34 -74 0
15 36 21 20 31 17 -73 0
15 36 21 20 31 17 -72 0
15 36 21 20 31 17 -71 0
15 36 21 20 31 17 -74 0
15 36 21 20 17 34 -73 0
15 36 21 20 17 34 -72 0
15 36 21 20 17 34 -71 0
15 36 21 20 17 34 -74 0
15 36 35 20 31 34 -73 0
15 36 35 20 31 34 -72 0
15 36 35 20 31 34 -71 0
15 36 35 20 31 34 -74 0
15 36 35 31 17 34 -73 0
15 36 35 31 17 34 -72 0
15 36 35 31 17 34 -71 0
15 36 35 31 17 34 -74 0
15 36 20 31 17 34 -73 0
15 36 20 31 17 34 -72 0
15 36 20 31 17 34 -71 0
15 36 20 31 17 34 -74 0
15 21 9 20 8 17 -52 0
15 21 9 20 8 17 -51 0
15 21 9 20 8 17 -50 0
15 21 9 20 8 17 -49 0
15 21 9 20 17 11 -52 0
15 21 9 20 17 11 -51 0
15 21 9 20 17 11 -50 0
15 21 9 20 17 11 -49 0
15 21 2 20 6 17 -19 0
15 21 2 20 6 17 -16 0
15 21 2 20 6 17 -22 0
15 21 2 20 6 17 -18 0
15 21 2 20 17 1 -19 0
15 21 2 20 17 1 -16 0
15 21 2 20 17 1 -22 0
15 21 2 20 17 1 -18 0
15 21 46 20 44 17 -76 0
15 21 46 20 44 17 -77 0
15 21 46 20 44 17 -75 0
15 21 46 20 44 17 -78 0
15 21 46 20 17 40 -76 0
15 21 46 20 17 40 -77 0
15 21 46 20 17 40 -75 0
15 21 46 20 17 40 -78 0
15 21 27 20 23 17 -67 0
15 21 27 20 23 17 -69 0
15 21 27 20 23 17 -70 0
15 21 27 20 23 17 -68 0
15 21 27 20 17 26 -67 0
15 21 27 20 17 26 -69 0
15 21 27 20 17 26 -70 0
15 21 27 20 17 26 -68 0
15 21 35 20 31 17 -73 0
15 21 35 20 31 17 -72 0
15 21 35 20 31 17 -71 0
15 21 35 20 31 17 -74 0
15 21 35 20 17 34 -73 0
15 21 35 20 17 34 -72 0
15 21 35 20 17 34 -71 0
15 21 35 20 17 34 -74 0
15 21 20 8 17 11 -52 0
15 21 20 8 17 11 -51 0
15 21 20 8 17 11 -50 0
15 21 20 8 17 11 -49 0
15 21 20 6 17 1 -19 0
15 21 20 6 17 1 -16 0
15 21 20 6 17 1 -22 0
15 21 20 6 17 1 -18 0
15 21 20 44 17 40 -76 0
15 21 20 44 17 40 -77 0
15 21 20 44 17 40 -75 0
15 21 20 44 17 40 -78 0
15 21 20 23 17 26 -67 0
15 21 20 23 17 26 -69 0
15 21 20 23 17 26 -70 0
15 21 20 23 17 26 -68 0
15 21 20 31 17 34 -73 0
15 21 20 31 17 34 -72 0
15 21 20 31 17 34 -71 0
15 21 20 31 17 34 -74 0
10 4 9 2 8 6 -13 0
10 4 9 2 8 6 -12 0
10 4 9 2 8 6 -14 0
10 4 9 2 8 6 -7 0
10 4 9 2 8 11 -13 0
10 4 9 2 8 11 -12 0
10 4 9 2 8 11 -14 0
10 4 9 2 8 11 -7 0
10 4 9 2 6 1 -13 0
10 4 9 2 6 1 -12 0
10 4 9 2 6 1 -14 0
10 4 9 2 6 1 -7 0
10 4 9 2 11 1 -13 0
10 4 9 2 11 1 -12 0
10 4 9 2 11 1 -14 0
10 4 9 2 11 1 -7 0
10 4 9 8 6 11 -13 0
10 4 9 8 6 11 -12 0
10 4 9 8 6 11 -14 0
10 4 9 8 6 11 -7 0
10 4 9 8 11 1 -13 0
10 4 9 8 11 1 -12 0
10 4 9 8 11 1 -14 0
10 4 9 8 11 1 -7 0
10 4 2 8 6 1 -13 0
10 4 2 8 6 1 -12 0
10 4 2 8 6 1 -14 0
10 4 2 8 6 1 -7 0
10 4 2 6 11 1 -13 0
10 4 2 6 11 1 -12 0
10 4 2 6 11 1 -14 0
10 4 2 6 11 1 -7 0
10 4 8 6 11 1 -13 0
10 4 8 6 11 1 -12 0
10 4 8 6 11 1 -14 0
10 4 8 6 11 1 -7 0
10 42 9 46 8 44 -64 0
10 42 9 46 8 44 -63 0
10 42 9 46 8 44 -61 0
10 42 9 46 8 44 -62 0
10 42 9 46 8 11 -64 0
10 42 9 46 8 11 -63 0
10 42 9 46 8 11 -61 0
10 42 9 46 8 11 -62 0
10 42 9 46 44 40 -64 0
10 42 9 46 44 40 -63 0
10 42 9 46 44 40 -61 0
10 42 9 46 44 40 -62 0
10 42 9 46 11 40 -64 0
10 42 9 46 11 40 -63 0
10 42 9 46 11 40 -61 0
10 42 9 46 11 40 -62 0
10 42 9 8 44 11 -64 0
10 42 9 8 44 11 -63 0
10 42 9 8 44 11 -61 0
10 42 9 8 44 11 -62 0
10 42 9 8 11 40 -64 0
10 42 9 8 11 40 -63 0
10 42 9 8 11 40 -61 0
10 42 9 8 11 40 -62 0
10 42 46 8 44 40 -64 0
10 42 46 8 44 40 -63 0
10 42 46 8 44 40 -61 0
10 42 46 8 44 40 -62 0
10 42 46 44 11 40 -64 0
10 42 46 44 11 40 -63 0
10 42 46 44 11 40 -61 0
10 42 46 44 11 40 -62 0
10 42 8 44 11 40 -64 0
10 42 8 44 11 40 -63 0
10 42 8 44 11 40 -61 0
10 42 8 44 11 40 -62 0
10 30 9 27 8 23 -53 0
10 30 9 27 8 23 -56 0
10 30 9 27 8 23 -54 0
10 30 9 27 8 23 -55 0
10 30 9 27 8 11 -53 0
10 30 9 27 8 11 -56 0
10 30 9 27 8 11 -54 0
10 30 9 27 8 11 -55 0
10 30 9 27 23 26 -53 0
10 30 9 27 23 26 -56 0
10 30 9 27 23 26 -54 0
10 30 9 27 23 26 -55 0
10 30 9 27 11 26 -53 0
10 30 9 27 11 26 -56 0
10 30 9 27 11 26 -54 0
10 30 9 27 11 26 -55 0
10 30 9 8 23 11 -53 0
10 30 9 8 23 11 -56 0
10 30 9 8 23 11 -54 0
10 30 9 8 23 11 -55 0
10 30 9 8 11 26 -53 0
10 30 9 8 11 26 -56 0
10 30 9 8 11 26 -54 0
10 30 9 8 11 26 -55 0
10 30 27 8 23 26 -53 0
10 30 27 8 23 26 -56 0
10 30 27 8 23 26 -54 0
10 30 27 8 23 26 -55 0
10 30 27 23 11 26 -53 0
10 30 27 23 11 26 -56 0
10 30 27 23 11 26 -54 0
10 30 27 23 11 26 -55 0
10 30 8 23 11 26 -53 0
10 30 8 23 11 26 -56 0
10 30 8 23 11 26 -54 0
10 30 8 23 11 26 -55 0
10 36 9 35 8 31 -58 0
10 36 9 35 8 31 -57 0
10 36 9 35 8 31 -60 0
10 36 9 35 8 31 -59 0
10 36 9 35 8 11 -58 0
10 36 9 35 8 11 -57 0
10 36 9 35 8 11 -60 0
10 36 9 35 8 11 -59 0
10 36 9 35 31 34 -58 0
10 36 9 35 31 34 -57 0
10 36 9 35 31 34 -60 0
10 36 9 35 31 34 -59 0
10 36 9 35 11 34 -58 0
10 36 9 35 11 34 -57 0
10 36 9 35 11 34 -60 0
10 36 9 35 11 34 -59 0
10 36 9 8 31 11 -58 0
10 36 9 8 31 11 -57 0
10 36 9 8 31 11 -60 0
10 36 9 8 31 11 -59 0
10 36 9 8 11 34 -58 0
10 36 9 8 11 34 -57 0
10 36 9 8 11 34 -60 0
10 36 9 8 11 34 -59 0
10 36 35 8 31 34 -58 0
10 36 35 8 31 34 -57 0
10 36 35 8 31 34 -60 0
10 36 35 8 31 34 -59 0
10 36 35 31 11 34 -58 0
10 36 35 31 11 34 -57 0
10 36 35 31 11 34 -60 0
10 36 35 31 11 34 -59 0
10 36 8 31 11 34 -58 0
10 36 8 31 11 34 -57 0
10 36 8 31 11 34 -60 0
10 36 8 31 11 34 -59 0
10 21 9 20 8 11 -52 0
10 21 9 20 8 11 -51 0
10 21 9 20 8 11 -50 0
10 21 9 20 8 11 -49 0
10 21 9 8 17 11 -52 0
10 21 9 8 17 11 -51 0
10 21 9 8 17 11 -50 0
10 21 9 8 17 11 -49 0
10 9 2 8 6 11 -13 0
10 9 2 8 6 11 -12 0
10 9 2 8 6 11 -14 0
10 9 2 8 6 11 -7 0
10 9 2 8 11 1 -13 0
10 9 2 8 11 1 -12 0
10 9 2 8 11 1 -14 0
10 9 2 8 11 1 -7 0
10 9 46 8 44 11 -64 0
10 9 46 8 44 11 -63 0
10 9 46 8 44 11 -61 0
10 9 46 8 44 11 -62 0
10 9 46 8 11 40 -64 0
10 9 46 8 11 40 -63 0
10 9 46 8 11 40 -61 0
10 9 46 8 11 40 -62 0
10 9 27 8 23 11 -53 0
10 9 27 8 23 11 -56 0
10 9 27 8 23 11 -54 0
10 9 27 8 23 11 -55 0
10 9 27 8 11 26 -53 0
10 9 27 8 11 26 -56 0
10 9 27 8 11 26 -54 0
10 9 27 8 11 26 -55 0
10 9 35 8 31 11 -58 0
10 9 35 8 31 11 -57 0
10 9 35 8 31 11 -60 0
10 9 35 8 31 11 -59 0
10 9 35 8 11 34 -58 0
10 9 35 8 11 34 -57 0
10 9 35 8 11 34 -60 0
10 9 35 8 11 34 -59 0
10 9 20 8 17 11 -52 0
10 9 20 8 17 11 -51 0
10 9 20 8 17 11 -50 0
10 9 20 8 17 11 -49 0
10 9 8 6 11 1 -13 0
10 9 8 6 11 1 -12 0
10 9 8 6 11 1 -14 0
10 9 8 6 11 1 -7 0
10 9 8 44 11 40 -64 0
10 9 8 44 11 40 -63 0
10 9 8 44 11 40 -61 0
10 9 8 44 11 40 -62 0
10 9 8 23 11 26 -53 0
10 9 8 23 11 26 -56 0
10 9 8 23 11 26 -54 0
10 9 8 23 11 26 -55 0
10 9 8 31 11 34 -58 0
10 9 8 31 11 34 -57 0
10 9 8 31 11 34 -60 0
10 9 8 31 11 34 -59 0
4 42 2 46 6 44 -41 0
4 42 2 46 6 44 -45 0
4 42 2 46 6 44 -43 0
4 42 2 46 6 44 -39 0
4 42 2 46 6 1 -41 0
4 42 2 46 6 1 -45 0
4 42 2 46 6 1 -43 0
4 42 2 46 6 1 -39 0
4 42 2 46 44 40 -41 0
4 42 2 46 44 40 -45 0
4 42 2 46 44 40 -43 0
4 42 2 46 44 40 -39 0
4 42 2 46 1 40 -41 0
4 42 2 46 1 40 -45 0
4 42 2 46 1 40 -43 0
4 42 2 46 1 40 -39 0
4 42 2 6 44 1 -41 0
4 42 2 6 44 1 -45 0
4 42 2 6 44 1 -43 0
4 42 2 6 44 1 -39 0
4 42 2 6 1 40 -41 0
4 42 2 6 1 40 -45 0
4 42 2 6 1 40 -43 0
4 42 2 6 1 40 -39 0
4 42 46 6 44 40 -41 0
4 42 46 6 44 40 -45 0
4 42 46 6 44 40 -43 0
4 42 46 6 44 40 -39 0
4 42 46 44 1 40 -41 0
4 42 46 44 1 40 -45 0
4 42 46 44 1 40 -43 0
4 42 46 44 1 40 -39 0
4 42 6 44 1 40 -41 0
4 42 6 44 1 40 -45 0
4 42 6 44 1 40 -43 0
4 42 6 44 1 40 -39 0
4 30 2 27 6 23 -29 0
4 30 2 27 6 23 -25 0
4 30 2 27 6 23 -24 0
4 30 2 27 6 23 -28 0
4 30 2 27 6 1 -29 0
4 30 2 27 6 1 -25 0
4 30 2 27 6 1 -24 0
4 30 2 27 6 1 -28 0
4 30 2 27 23 26 -29 0
4 30 2 27 23 26 -25 0
4 30 2 27 23 26 -24 0
4 30 2 27 23 26 -28 0
4 30 2 27 1 26 -29 0
4 30 2 27 1 26 -25 0
4 30 2 27 1 26 -24 0
4 30 2 27 1 26 -28 0
4 30 2 6 23 1 -29 0
4 30 2 6 23 1 -25 0
4 30 2 6 23 1 -24 0
4 30 2 6 23 1 -28 0
4 30 2 6 1 26 -29 0
4 30 2 6 1 26 -25 0
4 30 2 6 1 26 -24 0
4 30 2 6 1 26 -28 0
4 30 27 6 23 26 -29 0
4 30 27 6 23 26 -25 0
4 30 27 6 23 26 -24 0
4 30 27 6 23 26 -28 0
4 30 27 23 1 26 -29 0
4 30 27 23 1 26 -25 0
4 30 27 23 1 26 -24 0
4 30 27 23 1 26 -28 0
4 30 6 23 1 26 -29 0
4 30 6 23 1 26 -25 0
4 30 6 23 1 26 -24 0
4 30 6 23 1 26 -28 0
4 36 2 35 6 31 -33 0
4 36 2 35 6 31 -38 0
4 36 2 35 6 31 -37 0
4 36 2 35 6 31 -32 0
4 36 2 35 6 1 -33 0
4 36 2 35 6 1 -38 0
4 36 2 35 6 1 -37 0
4 36 2 35 6 1 -32 0
4 36 2 35 31 34 -33 0
4 36 2 35 31 34 -38 0
4 36 2 35 31 34 -37 0
4 36 2 35 31 34 -32 0
4 36 2 35 1 34 -33 0
4 36 2 35 1 34 -38 0
4 36 2 35 1 34 -37 0
4 36 2 35 1 34 -32 0
4 36 2 6 31 1 -33 0
4 36 2 6 31 1 -38 0
4 36 2 6 31 1 -37 0
4 36 2 6 31 1 -32 0
4 36 2 6 1 34 -33 0
4 36 2 6 1 34 -38 0
4 36 2 6 1 34 -37 0
4 36 2 6 1 34 -32 0
4 36 35 6 31 34 -33 0
4 36 35 6 31 34 -38 0
4 36 35 6 31 34 -37 0
4 36 35 6 31 34 -32 0
4 36 35 31 1 34 -33 0
4 36 35 31 1 34 -38 0
4 36 35 31 1 34 -37 0
4 36 35 31 1 34 -32 0
4 36 6 31 1 34 -33 0
4 36 6 31 1 34 -38 0
4 36 6 31 1 34 -37 0
4 36 6 31 1 34 -32 0
4 21 2 20 6 1 -19 0
4 21 2 20 6 1 -16 0
4 21 2 20 6 1 -22 0
4 21 2 20 6 1 -18 0
4 21 2 6 17 1 -19 0
4 21 2 6 17 1 -16 0
4 21 2 6 17 1 -22 0
4 21 2 6 17 1 -18 0
4 9 2 8 6 1 -13 0
4 9 2 8 6 1 -12 0
4 9 2 8 6 1 -14 0
4 9 2 8 6 1 -7 0
4 9 2 6 11 1 -13 0
4 9 2 6 11 1 -12 0
4 9 2 6 11 1 -14 0
4 9 2 6 11 1 -7 0
4 2 46 6 44 1 -41 0
4 2 46 6 44 1 -45 0
4 2 46 6 44 1 -43 0
4 2 46 6 44 1 -39 0
4 2 46 6 1 40 -41 0
4 2 46 6 1 40 -45 0
4 2 46 6 1 40 -43 0
4 2 46 6 1 40 -39 0
4 2 27 6 23 1 -29 0
4 2 27 6 23 1 -25 0
4 2 27 6 23 1 -24 0
4 2 27 6 23 1 -28 0
4 2 27 6 1 26 -29 0
4 2 27 6 1 26 -25 0
4 2 27 6 1 26 -24 0
4 2 27 6 1 26 -28 0
4 2 35 6 31 1 -33 0
4 2 35 6 31 1 -38 0
4 2 35 6 31 1 -37 0
4 2 35 6 31 1 -32 0
4 2 35 6 1 34 -33 0
4 2 35 6 1 34 -38 0
4 2 35 6 1 34 -37 0
4 2 35 6 1 34 -32 0
4 2 20 6 17 1 -19 0
4 2 20 6 17 1 -16 0
4 2 20 6 17 1 -22 0
4 2 20 6 17 1 -18 0
4 2 8 6 11 1 -13 0
4 2 8 6 11 1 -12 0
4 2 8 6 11 1 -14 0
4 2 8 6 11 1 -7 0
4 2 6 44 1 40 -41 0
4 2 6 44 1 40 -45 0
4 2 6 44 1 40 -43 0
4 2 6 44 1 40 -39 0
4 2 6 23 1 26 -29 0
4 2 6 23 1 26 -25 0
4 2 6 23 1 26 -24 0
4 2 6 23 1 26 -28 0
4 2 6 31 1 34 -33 0
4 2 6 31 1 34 -38 0
4 2 6 31 1 34 -37 0
4 2 6 31 1 34 -32 0
42 30 46 27 44 23 -85 0
42 30 46 27 44 23 -86 0
42 30 46 27 44 23 -88 0
42 30 46 27 44 23 -87 0
42 30 46 27 44 40 -85 0
42 30 46 27 44 40 -86 0
42 30 46 27 44 40 -88 0
42 30 46 27 44 40 -87 0
42 30 46 27 23 26 -85 0
42 30 46 27 23 26 -86 0
42 30 46 27 23 26 -88 0
42 30 46 27 23 26 -87 0
42 30 46 27 40 26 -85 0
42 30 46 27 40 26 -86 0
42 30 46 27 40 26 -88 0
42 30 46 27 40 26 -87 0
42 30 46 44 23 40 -85 0
42 30 46 44 23 40 -86 0
42 30 46 44 23 40 -88 0
42 30 46 44 23 40 -87 0
42 30 46 44 40 26 -85 0
42 30 46 44 40 26 -86 0
42 30 46 44 40 26 -88 0
42 30 46 44 40 26 -87 0
42 30 27 44 23 26 -85 0
42 30 27 44 23 26 -86 0
42 30 27 44 23 26 -88 0
42 30 27 44 23 26 -87 0
42 30 27 23 40 26 -85 0
42 30 27 23 40 26 -86 0
42 30 27 23 40 26 -88 0
42 30 27 23 40 26 -87 0
42 30 44 23 40 26 -85 0
42 30 44 23 40 26 -86 0
42 30 44 23 40 26 -88 0
42 30 44 23 40 26 -87 0
42 36 46 35 44 31 -94 0
42 36 46 35 44 31 -91 0
42 36 46 35 44 31 -93 0
42 36 46 35 44 31 -92 0
42 36 46 35 44 40 -94 0
42 36 46 35 44 40 -91 0
42 36 46 35 44 40 -93 0
42 36 46 35 44 40 -92 0
42 36 46 35 31 34 -94 0
42 36 46 35 31 34 -91 0
42 36 46 35 31 34 -93 0
42 36 46 35 31 34 -92 0
42 36 46 35 40 34 -94 0
42 36 46 35 40 34 -91 0
42 36 46 35 40 34 -93 0
42 36 46 35 40 34 -92 0
42 36 46 44 31 40 -94 0
42 36 46 44 31 40 -91 0
42 36 46 44 31 40 -93 0
42 36 46 44 31 40 -92 0
42 36 46 44 40 34 -94 0
42 36 46 44 40 34 -91 0
42 36 46 44 40 34 -93 0
42 36 46 44 40 34 -92 0
42 36 35 44 31 34 -94 0
42 36 35 44 31 34 -91 0
42 36 35 44 31 34 -93 0
42 36 35 44 31 34 -92 0
42 36 35 31 40 34 -94 0
42 36 35 31 40 34 -91 0
42 36 35 31 40 34 -93 0
42 36 35 31 40 34 -92 0
42 36 44 31 40 34 -94 0
42 36 44 31 40 34 -91 0
42 36 44 31 40 34 -93 0
42 36 44 31 40 34 -92 0
42 21 46 20 44 40 -76 0
42 21 46 20 44 40 -77 0
42 21 46 20 44 40 -75 0
42 21 46 20 44 40 -78 0
42 21 46 44 17 40 -76 0
42 21 46 44 17 40 -77 0
42 21 46 44 17 40 -75 0
42 21 46 44 17 40 -78 0
42 9 46 8 44 40 -64 0
42 9 46 8 44 40 -63 0
42 9 46 8 44 40 -61 0
42 9 46 8 44 40 -62 0
42 9 46 44 11 40 -64 0
42 9 46 44 11 40 -63 0
42 9 46 44 11 40 -61 0
42 9 46 44 11 40 -62 0
42 2 46 6 44 40 -41 0
42 2 46 6 44 40 -45 0
42 2 46 6 44 40 -43 0
42 2 46 6 44 40 -39 0
42 2 46 44 1 40 -41 0
42 2 46 44 1 40 -45 0
42 2 46 44 1 40 -43 0
42 2 46 44 1 40 -39 0
42 46 27 44 23 40 -85 0
42 46 27 44 23 40 -86 0
42 46 27 44 23 40 -88 0
42 46 27 44 23 40 -87 0
42 46 27 44 40 26 -85 0
42 46 27 44 40 26 -86 0
42 46 27 44 40 26 -88 0
42 46 27 44 40 26 -87 0
42 46 35 44 31 40 -94 0
42 46 35 44 31 40 -91 0
42 46 35 44 31 40 -93 0
42 46 35 44 31 40 -92 0
42 46 35 44 40 34 -94 0
42 46 35 44 40 34 -91 0
42 46 35 44 40 34 -93 0
42 46 35 44 40 34 -92 0
42 46 20 44 17 40 -76 0
42 46 20 44 17 40 -77 0
42 46 20 44 17 40 -75 0
42 46 20 44 17 40 -78 0
42 46 8 44 11 40 -64 0
42 46 8 44 11 40 -63 0
42 46 8 44 11 40 -61 0
42 46 8 44 11 40 -62 0
42 46 6 44 1 40 -41 0
42 46 6 44 1 40 -45 0
42 46 6 44 1 40 -43 0
42 46 6 44 1 40 -39 0
42 46 44 23 40 26 -85 0
42 46 44 23 40 26 -86 0
42 46 44 23 40 26 -88 0
42 46 44 23 40 26 -87 0
42 46 44 31 40 34 -94 0
42 46 44 31 40 34 -91 0
42 46 44 31 40 34 -93 0
42 46 44 31 40 34 -92 0
30 36 27 35 23 31 -82 0
30 36 27 35 23 31 -81 0
30 36 27 35 23 31 -83 0
30 36 27 35 23 31 -84 0
30 36 27 35 23 26 -82 0
30 36 27 35 23 26 -81 0
30 36 27 35 23 26 -83 0
30 36 27 35 23 26 -84 0
30 36 27 35 31 34 -82 0
30 36 27 35 31 34 -81 0
30 36 27 35 31 34 -83 0
30 36 27 35 31 34 -84 0
30 36 27 35 26 34 -82 0
30 36 27 35 26 34 -81 0
30 36 27 35 26 34 -83 0
30 36 27 35 26 34 -84 0
30 36 27 23 31 26 -82 0
30 36 27 23 31 26 -81 0
30 36 27 23 31 26 -83 0
30 36 27 23 31 26 -84 0
30 36 27 23 26 34 -82 0
30 36 27 23 26 34 -81 0
30 36 27 23 26 34 -83 0
30 36 27 23 26 34 -84 0
30 36 35 23 31 34 -82 0
30 36 35 23 31 34 -81 0
30 36 35 23 31 34 -83 0
30 36 35 23 31 34 -84 0
30 36 35 31 26 34 -82 0
30 36 35 31 26 34 -81 0
30 36 35 31 26 34 -83 0
30 36 35 31 26 34 -84 0
30 36 23 31 26 34 -82 0
30 36 23 31 26 34 -81 0
30 36 23 31 26 34 -83 0
30 36 23 31 26 34 -84 0
30 21 27 20 23 26 -67 0
30 21 27 20 23 26 -69 0
30 21 27 20 23 26 -70 0
30 21 27 20 23 26 -68 0
30 21 27 23 17 26 -67 0
30 21 27 23 17 26 -69 0
30 21 27 23 17 26 -70 0
30 21 27 23 17 26 -68 0
30 9 27 8 23 26 -53 0
30 9 27 8 23 26 -56 0
30 9 27 8 23 26 -54 0
30 9 27 8 23 26 -55 0
30 9 27 23 11 26 -53 0
30 9 27 23 11 26 -56 0
30 9 27 23 11 26 -54 0
30 9 27 23 11 26 -55 0
30 2 27 6 23 26 -29 0
30 2 27 6 23 26 -25 0
30 2 27 6 23 26 -24 0
30 2 27 6 23 26 -28 0
30 2 27 23 1 26 -29 0
30 2 27 23 1 26 -25 0
30 2 27 23 1 26 -24 0
30 2 27 23 1 26 -28 0
30 46 27 44 23 26 -85 0
30 46 27 44 23 26 -86 0
30 46 27 44 23 26 -88 0
30 46 27 44 23 26 -87 0
30 46 27 23 40 26 -85 0
30 46 27 23 40 26 -86 0
30 46 27 23 40 26 -88 0
30 46 27 23 40 26 -87 0
30 27 35 23 31 26 -82 0
30 27 35 23 31 26 -81 0
30 27 35 23 31 26 -83 0
30 27 35 23 31 26 -84 0
30 27 35 23 26 34 -82 0
30 27 35 23 26 34 -81 0
30 27 35 23 26 34 -83 0
30 27 35 23 26 34 -84 0
30 27 20 23 17 26 -67 0
30 27 20 23 17 26 -69 0
30 27 20 23 17 26 -70 0
30 27 20 23 17 26 -68 0
30 27 8 23 11 26 -53 0
30 27 8 23 11 26 -56 0
30 27 8 23 11 26 -54 0
30 27 8 23 11 26 -55 0
30 27 6 23 1 26 -29 0
30 27 6 23 1 26 -25 0
30 27 6 23 1 26 -24 0
30 27 6 23 1 26 -28 0
30 27 44 23 40 26 -85 0
30 27 44 23 40 26 -86 0
30 27 44 23 40 26 -88 0
30 27 44 23 40 26 -87 0
30 27 23 31 26 34 -82 0
30 27 23 31 26 34 -81 0
30 27 23 31 26 34 -83 0
30 27 23 31 26 34 -84 0
36 21 35 20 31 34 -73 0
36 21 35 20 31 34 -72 0
36 21 35 20 31 34 -71 0
36 21 35 20 31 34 -74 0
36 21 35 31 17 34 -73 0
36 21 35 31 17 34 -72 0
36 21 35 31 17 34 -71 0
36 21 35 31 17 34 -74 0
36 9 35 8 31 34 -58 0
36 9 35 8 31 34 -57 0
36 9 35 8 31 34 -60 0
36 9 35 8 31 34 -59 0
36 9 35 31 11 34 -58 0
36 9 35 31 11 34 -57 0
36 9 35 31 11 34 -60 0
36 9 35 31 11 34 -59 0
36 2 35 6 31 34 -33 0
36 2 35 6 31 34 -38 0
36 2 35 6 31 34 -37 0
36 2 35 6 31 34 -32 0
36 2 35 31 1 34 -33 0
36 2 35 31 1 34 -38 0
36 2 35 31 1 34 -37 0
36 2 35 31 1 34 -32 0
36 46 35 44 31 34 -94 0
36 46 35 44 31 34 -91 0
36 46 35 44 31 34 -93 0
36 46 35 44 31 34 -92 0
36 46 35 31 40 34 -94 0
36 46 35 31 40 34 -91 0
36 46 35 31 40 34 -93 0
36 46 35 31 40 34 -92 0
36 27 35 23 31 34 -82 0
36 27 35 23 31 34 -81 0
36 27 35 23 31 34 -83 0
36 27 35 23 31 34 -84 0
36 27 35 31 26 34 -82 0
36 27 35 31 26 34 -81 0
36 27 35 31 26 34 -83 0
36 27 35 31 26 34 -84 0
36 35 20 31 17 34 -73 0
36 35 20 31 17 34 -72 0
36 35 20 31 17 34 -71 0
36 35 20 31 17 34 -74 0
36 35 8 31 11 34 -58 0
36 35 8 31 11 34 -57 0
36 35 8 31 11 34 -60 0
36 35 8 31 11 34 -59 0
36 35 6 31 1 34 -33 0
36 35 6 31 1 34 -38 0
36 35 6 31 1 34 -37 0
36 35 6 31 1 34 -32 0
36 35 44 31 40 34 -94 0
36 35 44 31 40 34 -91 0
36 35 44 31 40 34 -93 0
36 35 44 31 40 34 -92 0
36 35 23 31 26 34 -82 0
36 35 23 31 26 34 -81 0
36 35 23 31 26 34 -83 0
36 35 23 31 26 34 -84 0
21 9 20 8 17 11 -52 0
21 9 20 8 17 11 -51 0
21 9 20 8 17 11 -50 0
21 9 20 8 17 11 -49 0
21 2 20 6 17 1 -19 0
21 2 20 6 17 1 -16 0
21 2 20 6 17 1 -22 0
21 2 20 6 17 1 -18 0
21 46 20 44 17 40 -76 0
21 46 20 44 17 40 -77 0
21 46 20 44 17 40 -75 0
21 46 20 44 17 40 -78 0
21 27 20 23 17 26 -67 0
21 27 20 23 17 26 -69 0
21 27 20 23 17 26 -70 0
21 27 20 23 17 26 -68 0
21 35 20 31 17 34 -73 0
21 35 20 31 17 34 -72 0
21 35 20 31 17 34 -71 0
21 35 20 31 17 34 -74 0
9 2 8 6 11 1 -13 0
9 2 8 6 11 1 -12 0
9 2 8 6 11 1 -14 0
9 2 8 6 11 1 -7 0
9 46 8 44 11 40 -64 0
9 46 8 44 11 40 -63 0
9 46 8 44 11 40 -61 0
9 46 8 44 11 40 -62 0
9 27 8 23 11 26 -53 0
9 27 8 23 11 26 -56 0
9 27 8 23 11 26 -54 0
9 27 8 23 11 26 -55 0
9 35 8 31 11 34 -58 0
9 35 8 31 11 34 -57 0
9 35 8 31 11 34 -60 0
9 35 8 31 11 34 -59 0
2 46 6 44 1 40 -41 0
2 46 6 44 1 40 -45 0
2 46 6 44 1 40 -43 0
2 46 6 44 1 40 -39 0
2 27 6 23 1 26 -29 0
2 27 6 23 1 26 -25 0
2 27 6 23 1 26 -24 0
2 27 6 23 1 26 -28 0
2 35 6 31 1 34 -33 0
2 35 6 31 1 34 -38 0
2 35 6 31 1 34 -37 0
2 35 6 31 1 34 -32 0
46 27 44 23 40 26 -85 0
46 27 44 23 40 26 -86 0
46 27 44 23 40 26 -88 0
46 27 44 23 40 26 -87 0
46 35 44 31 40 34 -94 0
46 35 44 31 40 34 -91 0
46 35 44 31 40 34 -93 0
46 35 44 31 40 34 -92 0
27 35 23 31 26 34 -82 0
27 35 23 31 26 34 -81 0
27 35 23 31 26 34 -83 0
27 35 23 31 26 34 -84 0
15 10 21 9 20 8 17 -52 0
15 10 21 9 20 8 17 -51 0
15 10 21 9 20 8 17 -50 0
15 10 21 9 20 8 17 -49 0
15 10 21 9 20 8 11 -52 0
15 10 21 9 20 8 11 -51 0
15 10 21 9 20 8 11 -50 0
15 10 21 9 20 8 11 -49 0
15 10 21 9 20 17 11 -52 0
15 10 21 9 20 17 11 -51 0
15 10 21 9 20 17 11 -50 0
15 10 21 9 20 17 11 -49 0
15 10 21 9 8 17 11 -52 0
15 10 21 9 8 17 11 -51 0
15 10 21 9 8 17 11 -50 0
15 10 21 9 8 17 11 -49 0
15 10 21 20 8 17 11 -52 0
15 10 21 20 8 17 11 -51 0
15 10 21 20 8 17 11 -50 0
15 10 21 20 8 17 11 -49 0
15 10 9 20 8 17 11 -52 0
15 10 9 20 8 17 11 -51 0
15 10 9 20 8 17 11 -50 0
15 10 9 20 8 17 11 -49 0
15 4 21 2 20 6 17 -19 0
15 4 21 2 20 6 17 -16 0
15 4 21 2 20 6 17 -22 0
15 4 21 2 20 6 17 -18 0
15 4 21 2 20 6 1 -19 0
15 4 21 2 20 6 1 -16 0
15 4 21 2 20 6 1 -22 0
15 4 21 2 20 6 1 -18 0
15 4 21 2 20 17 1 -19 0
15 4 21 2 20 17 1 -16 0
15 4 21 2 20 17 1 -22 0
15 4 21 2 20 17 1 -18 0
15 4 21 2 6 17 1 -19 0
15 4 21 2 6 17 1 -16 0
15 4 21 2 6 17 1 -22 0
15 4 21 2 6 17 1 -18 0
15 4 21 20 6 17 1 -19 0
15 4 21 20 6 17 1 -16 0
15 4 21 20 6 17 1 -22 0
15 4 21 20 6 17 1 -18 0
15 4 2 20 6 17 1 -19 0
15 4 2 20 6 17 1 -16 0
15 4 2 20 6 17 1 -22 0
15 4 2 20 6 17 1 -18 0
15 42 21 46 20 44 17 -76 0
15 42 21 46 20 44 17 -77 0
15 42 21 46 20 44 17 -75 0
15 42 21 46 20 44 17 -78 0
15 42 21 46 20 44 40 -76 0
15 42 21 46 20 44 40 -77 0
15 42 21 46 20 44 40 -75 0
15 42 21 46 20 44 40 -78 0
15 42 21 46 20 17 40 -76 0
15 42 21 46 20 17 40 -77 0
15 42 21 46 20 17 40 -75 0
15 42 21 46 20 17 40 -78 0
15 42 21 46 44 17 40 -76 0
15 42 21 46 44 17 40 -77 0
15 42 21 46 44 17 40 -75 0
15 42 21 46 44 17 40 -78 0
15 42 21 20 44 17 40 -76 0
15 42 21 20 44 17 40 -77 0
15 42 21 20 44 17 40 -75 0
15 42 21 20 44 17 40 -78 0
15 42 46 20 44 17 40 -76 0
15 42 46 20 44 17 40 -77 0
15 42 46 20 44 17 40 -75 0
15 42 46 20 44 17 40 -78 0
15 30 21 27 20 23 17 -67 0
15 30 21 27 20 23 17 -69 0
15 30 21 27 20 23 17 -70 0
15 30 21 27 20 23 17 -68 0
15 30 21 27 20 23 26 -67 0
15 30 21 27 20 23 26 -69 0
15 30 21 27 20 23 26 -70 0
15 30 21 27 20 23 26 -68 0
15 30 21 27 20 17 26 -67 0
15 30 21 27 20 17 26 -69 0
15 30 21 27 20 17 26 -70 0
15 30 21 27 20 17 26 -68 0
15 30 21 27 23 17 26 -67 0
15 30 21 27 23 17 26 -69 0
15 30 21 27 23 17 26 -70 0
15 30 21 27 23 17 26 -68 0
15 30 21 20 23 17 26 -67 0
15 30 21 20 23 17 26 -69 0
15 30 21 20 23 17 26 -70 0
15 30 21 20 23 17 26 -68 0
15 30 27 20 23 17 26 -67 0
15 30 27 20 23 17 26 -69 0
15 30 27 20 23 17 26 -70 0
15 30 27 20 23 17 26 -68 0
15 36 21 35 20 31 17 -73 0
15 36 21 35 20 31 17 -72 0
15 36 21 35 20 31 17 -71 0
15 36 21 35 20 31 17 -74 0
15 36 21 35 20 31 34 -73 0
15 36 21 35 20 31 34 -72 0
15 36 21 35 20 31 34 -71 0
15 36 21 35 20 31 34 -74 0
15 36 21 35 20 17 34 -73 0
15 36 21 35 20 17 34 -72 0
15 36 21 35 20 17 34 -71 0
15 36 21 35 20 17 34 -74 0
15 36 21 35 31 17 34 -73 0
15 36 21 35 31 17 34 -72 0
15 36 21 35 31 17 34 -71 0
15 36 21 35 31 17 34 -74 0
15 36 21 20 31 17 34 -73 0
15 36 21 20 31 17 34 -72 0
15 36 21 20 31 17 34 -71 0
15 36 21 20 31 17 34 -74 0
15 36 35 20 31 17 34 -73 0
15 36 35 20 31 17 34 -72 0
15 36 35 20 31 17 34 -71 0
15 36 35 20 31 17 34 -74 0
15 21 9 20 8 17 11 -52 0
15 21 9 20 8 17 11 -51 0
15 21 9 20 8 17 11 -50 0
15 21 9 20 8 17 11 -49 0
15 21 2 20 6 17 1 -19 0
15 21 2 20 6 17 1 -16 0
15 21 2 20 6 17 1 -22 0
15 21 2 20 6 17 1 -18 0
15 21 46 20 44 17 40 -76 0
15 21 46 20 44 17 40 -77 0
15 21 46 20 44 17 40 -75 0
15 21 46 20 44 17 40 -78 0
15 21 27 20 23 17 26 -67 0
15 21 27 20 23 17 26 -69 0
15 21 27 20 23 17 26 -70 0
15 21 27 20 23 17 26 -68 0
15 21 35 20 31 17 34 -73 0
15 21 35 20 31 17 34 -72 0
15 21 35 20 31 17 34 -71 0
15 21 35 20 31 17 34 -74 0
10 4 9 2 8 6 11 -13 0
10 4 9 2 8 6 11 -12 0
10 4 9 2 8 6 11 -14 0
10 4 9 2 8 6 11 -7 0
10 4 9 2 8 6 1 -13 0
10 4 9 2 8 6 1 -12 0
10 4 9 2 8 6 1 -14 0
10 4 9 2 8 6 1 -7 0
10 4 9 2 8 11 1 -13 0
10 4 9 2 8 11 1 -12 0
10 4 9 2 8 11 1 -14 0
10 4 9 2 8 11 1 -7 0
10 4 9 2 6 11 1 -13 0
10 4 9 2 6 11 1 -12 0
10 4 9 2 6 11 1 -14 0
10 4 9 2 6 11 1 -7 0
10 4 9 8 6 11 1 -13 0
10 4 9 8 6 11 1 -12 0
10 4 9 8 6 11 1 -14 0
10 4 9 8 6 11 1 -7 0
10 4 2 8 6 11 1 -13 0
10 4 2 8 6 11 1 -12 0
10 4 2 8 6 11 1 -14 0
10 4 2 8 6 11 1 -7 0
10 42 9 46 8 44 11 -64 0
10 42 9 46 8 44 11 -63 0
10 42 9 46 8 44 11 -61 0
10 42 9 46 8 44 11 -62 0
10 42 9 46 8 44 40 -64 0
10 42 9 46 8 44 40 -63 0
10 42 9 46 8 44 40 -61 0
10 42 9 46 8 44 40 -62 0
10 42 9 46 8 11 40 -64 0
10 42 9 46 8 11 40 -63 0
10 42 9 46 8 11 40 -61 0
10 42 9 46 8 11 40 -62 0
10 42 9 46 44 11 40 -64 0
10 42 9 46 44 11 40 -63 0
10 42 9 46 44 11 40 -61 0
10 42 9 46 44 11 40 -62 0
10 42 9 8 44 11 40 -64 0
10 42 9 8 44 11 40 -63 0
10 42 9 8 44 11 40 -61 0
10 42 9 8 44 11 40 -62 0
10 42 46 8 44 11 40 -64 0
10 42 46 8 44 11 40 -63 0
10 42 46 8 44 11 40 -61 0
10 42 46 8 44 11 40 -62 0
10 30 9 27 8 23 11 -53 0
10 30 9 27 8 23 11 -56 0
10 30 9 27 8 23 11 -54 0
10 30 9 27 8 23 11 -55 0
10 30 9 27 8 23 26 -53 0
10 30 9 27 8 23 26 -56 0
10 30 9 27 8 23 26 -54 0
10 30 9 27 8 23 26 -55 0
10 30 9 27 8 11 26 -53 0
10 30 9 27 8 11 26 -56 0
10 30 9 27 8 11 26 -54 0
10 30 9 27 8 11 26 -55 0
10 30 9 27 23 11 26 -53 0
10 30 9 27 23 11 26 -56 0
10 30 9 27 23 11 26 -54 0
10 30 9 27 23 11 26 -55 0
10 30 9 8 23 11 26 -53 0
10 30 9 8 23 11 26 -56 0
10 30 9 8 23 11 26 -54 0
10 30 9 8 23 11 26 -55 0
10 30 27 8 23 11 26 -53 0
10 30 27 8 23 11 26 -56 0
10 30 27 8 23 11 26 -54 0
10 30 27 8 23 11 26 -55 0
10 36 9 35 8 31 11 -58 0
10 36 9 35 8 31 11 -57 0
10 36 9 35 8 31 11 -60 0
10 36 9 35 8 31 11 -59 0
10 36 9 35 8 31 34 -58 0
10 36 9 35 8 31 34 -57 0
10 36 9 35 8 31 34 -60 0
10 36 9 35 8 31 34 -59 0
10 36 9 35 8 11 34 -58 0
10 36 9 35 8 11 34 -57 0
10 36 9 35 8 11 34 -60 0
10 36 9 35 8 11 34 -59 0
10 36 9 35 31 11 34 -58 0
10 36 9 35 31 11 34 -57 0
10 36 9 35 31 11 34 -60 0
10 36 9 35 31 11 34 -59 0
10 36 9 8 31 11 34 -58 0
10 36 9 8 31 11 34 -57 0
10 36 9 8 31 11 34 -60 0
10 36 9 8 31 11 34 -59 0
10 36 35 8 31 11 34 -58 0
10 36 35 8 31 11 34 -57 0
10 36 35 8 31 11 34 -60 0
10 36 35 8 31 11 34 -59 0
10 21 9 20 8 17 11 -52 0
10 21 9 20 8 17 11 -51 0
10 21 9 20 8 17 11 -50 0
10 21 9 20 8 17 11 -49 0
10 9 2 8 6 11 1 -13 0
10 9 2 8 6 11 1 -12 0
10 9 2 8 6 11 1 -14 0
10 9 2 8 6 11 1 -7 0
10 9 46 8 44 11 40 -64 0
10 9 46 8 44 11 40 -63 0
10 9 46 8 44 11 40 -61 0
10 9 46 8 44 11 40 -62 0
10 9 27 8 23 11 26 -53 0
10 9 27 8 23 11 26 -56 0
10 9 27 8 23 11 26 -54 0
10 9 27 8 23 11 26 -55 0
10 9 35 8 31 11 34 -58 0
10 9 35 8 31 11 34 -57 0
10 9 35 8 31 11 34 -60 0
10 9 35 8 31 11 34 -59 0
4 42 2 46 6 44 1 -41 0
4 42 2 46 6 44 1 -45 0
4 42 2 46 6 44 1 -43 0
4 42 2 46 6 44 1 -39 0
4 42 2 46 6 44 40 -41 0
4 42 2 46 6 44 40 -45 0
4 42 2 46 6 44 40 -43 0
4 42 2 46 6 44 40 -39 0
4 42 2 46 6 1 40 -41 0
4 42 2 46 6 1 40 -45 0
4 42 2 46 6 1 40 -43 0
4 42 2 46 6 1 40 -39 0
4 42 2 46 44 1 40 -41 0
4 42 2 46 44 1 40 -45 0
4 42 2 46 44 1 40 -43 0
4 42 2 46 44 1 40 -39 0
4 42 2 6 44 1 40 -41 0
4 42 2 6 44 1 40 -45 0
4 42 2 6 44 1 40 -43 0
4 42 2 6 44 1 40 -39 0
4 42 46 6 44 1 40 -41 0
4 42 46 6 44 1 40 -45 0
4 42 46 6 44 1 40 -43 0
4 42 46 6 44 1 40 -39 0
4 30 2 27 6 23 1 -29 0
4 30 2 27 6 23 1 -25 0
4 30 2 27 6 23 1 -24 0
4 30 2 27 6 23 1 -28 0
4 30 2 27 6 23 26 -29 0
4 30 2 27 6 23 26 -25 0
4 30 2 27 6 23 26 -24 0
4 30 2 27 6 23 26 -28 0
4 30 2 27 6 1 26 -29 0
4 30 2 27 6 1 26 -25 0
4 30 2 27 6 1 26 -24 0
4 30 2 27 6 1 26 -28 0
4 30 2 27 23 1 26 -29 0
4 30 2 27 23 1 26 -25 0
4 30 2 27 23 1 26 -24 0
4 30 2 27 23 1 26 -28 0
4 30 2 6 23 1 26 -29 0
4 30 2 6 23 1 26 -25 0
4 30 2 6 23 1 26 -24 0
4 30 2 6 23 1 26 -28 0
4 30 27 6 23 1 26 -29 0
4 30 27 6 23 1 26 -25 0
4 30 27 6 23 1 26 -24 0
4 30 27 6 23 1 26 -28 0
4 36 2 35 6 31 1 -33 0
4 36 2 35 6 31 1 -38 0
4 36 2 35 6 31 1 -37 0
4 36 2 35 6 31 1 -32 0
4 36 2 35 6 31 34 -33 0
4 36 2 35 6 31 34 -38 0
4 36 2 35 6 31 34 -37 0
4 36 2 35 6 31 34 -32 0
4 36 2 35 6 1 34 -33 0
4 36 2 35 6 1 34 -38 0
4 36 2 35 6 1 34 -37 0
4 36 2 35 6 1 34 -32 0
4 36 2 35 31 1 34 -33 0
4 36 2 35 31 1 34 -38 0
4 36 2 35 31 1 34 -37 0
4 36 2 35 31 1 34 -32 0
4 36 2 6 31 1 34 -33 0
4 36 2 6 31 1 34 -38 0
4 36 2 6 31 1 34 -37 0
4 36 2 6 31 1 34 -32 0
4 36 35 6 31 1 34 -33 0
4 36 35 6 31 1 34 -38 0
4 36 35 6 31 1 34 -37 0
4 36 35 6 31 1 34 -32 0
4 21 2 20 6 17 1 -19 0
4 21 2 20 6 17 1 -16 0
4 21 2 20 6 17 1 -22 0
4 21 2 20 6 17 1 -18 0
4 9 2 8 6 11 1 -13 0
4 9 2 8 6 11 1 -12 0
4 9 2 8 6 11 1 -14 0
4 9 2 8 6 11 1 -7 0
4 2 46 6 44 1 40 -41 0
4 2 46 6 44 1 40 -45 0
4 2 46 6 44 1 40 -43 0
4 2 46 6 44 1 40 -39 0
4 2 27 6 23 1 26 -29 0
4 2 27 6 23 1 26 -25 0
4 2 27 6 23 1 26 -24 0
4 2 27 6 23 1 26 -28 0
4 2 35 6 31 1 34 -33 0
4 2 35 6 31 1 34 -38 0
4 2 35 6 31 1 34 -37 0
4 2 35 6 31 1 34 -32 0
42 30 46 27 44 23 40 -85 0
42 30 46 27 44 23 40 -86 0
42 30 46 27 44 23 40 -88 0
42 30 46 27 44 23 40 -87 0
42 30 46 27 44 23 26 -85 0
42 30 46 27 44 23 26 -86 0
42 30 46 27 44 23 26 -88 0
42 30 46 27 44 23 26 -87 0
42 30 46 27 44 40 26 -85 0
42 30 46 27 44 40 26 -86 0
42 30 46 27 44 40 26 -88 0
42 30 46 27 44 40 26 -87 0
42 30 46 27 23 40 26 -85 0
42 30 46 27 23 40 26 -86 0
42 30 46 27 23 40 26 -88 0
42 30 46 27 23 40 26 -87 0
42 30 46 44 23 40 26 -85 0
42 30 46 44 23 40 26 -86 0
42 30 46 44 23 40 26 -88 0
42 30 46 44 23 40 26 -87 0
42 30 27 44 23 40 26 -85 0
42 30 27 44 23 40 26 -86 0
42 30 27 44 23 40 26 -88 0
42 30 27 44 23 40 26 -87 0
42 36 46 35 44 31 40 -94 0
42 36 46 35 44 31 40 -91 0
42 36 46 35 44 31 40 -93 0
42 36 46 35 44 31 40 -92 0
42 36 46 35 44 31 34 -94 0
42 36 46 35 44 31 34 -91 0
42 36 46 35 44 31 34 -93 0
42 36 46 35 44 31 34 -92 0
42 36 46 35 44 40 34 -94 0
42 36 46 35 44 40 34 -91 0
42 36 46 35 44 40 34 -93 0
42 36 46 35 44 40 34 -92 0
42 36 46 35 31 40 34 -94 0
42 36 46 35 31 40 34 -91 0
42 36 46 35 31 40 34 -93 0
42 36 46 35 31 40 34 -92 0
42 36 46 44 31 40 34 -94 0
42 36 46 44 31 40 34 -91 0
42 36 46 44 31 40 34 -93 0
42 36 46 44 31 40 34 -92 0
42 36 35 44 31 40 34 -94 0
42 36 35 44 31 40 34 -91 0
42 36 35 44 31 40 34 -93 0
42 36 35 44 31 40 34 -92 0
42 21 46 20 44 17 40 -76 0
42 21 46 20 44 17 40 -77 0
42 21 46 20 44 17 40 -75 0
42 21 46 20 44 17 40 -78 0
42 9 46 8 44 11 40 -64 0
42 9 46 8 44 11 40 -63 0
42 9 46 8 44 11 40 -61 0
42 9 46 8 44 11 40 -62 0
42 2 46 6 44 1 40 -41 0
42 2 46 6 44 1 40 -45 0
42 2 46 6 44 1 40 -43 0
42 2 46 6 44 1 40 -39 0
42 46 27 44 23 40 26 -85 0
42 46 27 44 23 40 26 -86 0
42 46 27 44 23 40 26 -88 0
42 46 27 44 23 40 26 -87 0
42 46 35 44 31 40 34 -94 0
42 46 35 44 31 40 34 -91 0
42 46 35 44 31 40 34 -93 0
42 46 35 44 31 40 34 -92 0
30 36 27 35 23 31 26 -82 0
30 36 27 35 23 31 26 -81 0
30 36 27 35 23 31 26 -83 0
30 36 27 35 23 31 26 -84 0
30 36 27 35 23 31 34 -82 0
30 36 27 35 23 31 34 -81 0
30 36 27 35 23 31 34 -83 0
30 36 27 35 23 31 34 -84 0
30 36 27 35 23 26 34 -82 0
30 36 27 35 23 26 34 -81 0
30 36 27 35 23 26 34 -83 0
30 36 27 35 23 26 34 -84 0
30 36 27 35 31 26 34 -82 0
30 36 27 35 31 26 34 -81 0
30 36 27 35 31 26 34 -83 0
30 36 27 35 31 26 34 -84 0
30 36 27 23 31 26 34 -82 0
30 36 27 23 31 26 34 -81 0
30 36 27 23 31 26 34 -83 0
30 36 27 23 31 26 34 -84 0
30 36 35 23 31 26 34 -82 0
30 36 35 23 31 26 34 -81 0
30 36 35 23 31 26 34 -83 0
30 36 35 23 31 26 34 -84 0
30 21 27 20 23 17 26 -67 0
30 21 27 20 23 17 26 -69 0
30 21 27 20 23 17 26 -70 0
30 21 27 20 23 17 26 -68 0
30 9 27 8 23 11 26 -53 0
30 9 27 8 23 11 26 -56 0
30 9 27 8 23 11 26 -54 0
30 9 27 8 23 11 26 -55 0
30 2 27 6 23 1 26 -29 0
30 2 27 6 23 1 26 -25 0
30 2 27 6 23 1 26 -24 0
30 2 27 6 23 1 26 -28 0
30 46 27 44 23 40 26 -85 0
30 46 27 44 23 40 26 -86 0
30 46 27 44 23 40 26 -88 0
30 46 27 44 23 40 26 -87 0
30 27 35 23 31 26 34 -82 0
30 27 35 23 31 26 34 -81 0
30 27 35 23 31 26 34 -83 0
30 27 35 23 31 26 34 -84 0
36 21 35 20 31 17 34 -73 0
36 21 35 20 31 17 34 -72 0
36 21 35 20 31 17 34 -71 0
36 21 35 20 31 17 34 -74 0
36 9 35 8 31 11 34 -58 0
36 9 35 8 31 11 34 -57 0
36 9 35 8 31 11 34 -60 0
36 9 35 8 31 11 34 -59 0
36 2 35 6 31 1 34 -33 0
36 2 35 6 31 1 34 -38 0
36 2 35 6 31 1 34 -37 0
36 2 35 6 31 1 34 -32 0
36 46 35 44 31 40 34 -94 0
36 46 35 44 31 40 34 -91 0
36 46 35 44 31 40 34 -93 0
36 46 35 44 31 40 34 -92 0
36 27 35 23 31 26 34 -82 0
36 27 35 23 31 26 34 -81 0
36 27 35 23 31 26 34 -83 0
36 27 35 23 31 26 34 -84 0
15 10 21 9 20 8 17 11 -52 0
15 10 21 9 20 8 17 11 -51 0
15 10 21 9 20 8 17 11 -50 0
15 10 21 9 20 8 17 11 -49 0
15 4 21 2 20 6 17 1 -19 0
15 4 21 2 20 6 17 1 -16 0
15 4 21 2 20 6 17 1 -22 0
15 4 21 2 20 6 17 1 -18 0
15 42 21 46 20 44 17 40 -76 0
15 42 21 46 20 44 17 40 -77 0
15 42 21 46 20 44 17 40 -75 0
15 42 21 46 20 44 17 40 -78 0
15 30 21 27 20 23 17 26 -67 0
15 30 21 27 20 23 17 26 -69 0
15 30 21 27 20 23 17 26 -70 0
15 30 21 27 20 23 17 26 -68 0
15 36 21 35 20 31 17 34 -73 0
15 36 21 35 20 31 17 34 -72 0
15 36 21 35 20 31 17 34 -71 0
15 36 21 35 20 31 17 34 -74 0
10 4 9 2 8 6 11 1 -13 0
10 4 9 2 8 6 11 1 -12 0
10 4 9 2 8 6 11 1 -14 0
10 4 9 2 8 6 11 1 -7 0
10 42 9 46 8 44 11 40 -64 0
10 42 9 46 8 44 11 40 -63 0
10 42 9 46 8 44 11 40 -61 0
10 42 9 46 8 44 11 40 -62 0
10 30 9 27 8 23 11 26 -53 0
10 30 9 27 8 23 11 26 -56 0
10 30 9 27 8 23 11 26 -54 0
10 30 9 27 8 23 11 26 -55 0
10 36 9 35 8 31 11 34 -58 0
10 36 9 35 8 31 11 34 -57 0
10 36 9 35 8 31 11 34 -60 0
10 36 9 35 8 31 11 34 -59 0
4 42 2 46 6 44 1 40 -41 0
4 42 2 46 6 44 1 40 -45 0
4 42 2 46 6 44 1 40 -43 0
4 42 2 46 6 44 1 40 -39 0
4 30 2 27 6 23 1 26 -29 0
4 30 2 27 6 23 1 26 -25 0
4 30 2 27 6 23 1 26 -24 0
4 30 2 27 6 23 1 26 -28 0
4 36 2 35 6 31 1 34 -33 0
4 36 2 35 6 31 1 34 -38 0
4 36 2 35 6 31 1 34 -37 0
4 36 2 35 6 31 1 34 -32 0
42 30 46 27 44 23 40 26 -85 0
42 30 46 27 44 23 40 26 -86 0
42 30 46 27 44 23 40 26 -88 0
42 30 46 27 44 23 40 26 -87 0
42 36 46 35 44 31 40 34 -94 0
42 36 46 35 44 31 40 34 -91 0
42 36 46 35 44 31 40 34 -93 0
42 36 46 35 44 31 40 34 -92 0
30 36 27 35 23 31 26 34 -82 0
30 36 27 35 23 31 26 34 -81 0
30 36 27 35 23 31 26 34 -83 0
30 36 27 35 23 31 26 34 -84 0
