c E1(0,0) U3(0) E2(0,0) U1(0) U4(0) U2(0) E2(0,6) E1(0,6) U2(6) E2(6,0) E1(6,0) U1(6) U4(6) U3(6) E2(3,0) E1(3,0) U2(3) E1(0,3) U3(3) E2(0,3) U1(3) U4(3) U1(2) E2(0,2) U4(2) U3(2) E2(2,0) U2(2) E1(0,2) E1(2,0) E1(5,0) E2(0,5) E2(5,0) U2(5) E1(0,5) U3(5) U1(5) U4(5) E2(0,1) E1(0,1) U3(1) E2(1,0) U1(1) U2(1) U4(1) E1(1,0) U1(4) U4(4) E1(0,4) E2(4,0) E2(0,4) U2(4) E1(4,0) U3(4) E1(6,6) E2(6,6) E2(3,6) E1(3,6) E1(6,3) E2(6,3) E2(2,6) E1(6,2) E2(6,2) E1(2,6) E2(6,5) E1(5,6) E1(6,5) E2(5,6) E1(6,1) E2(1,6) E1(1,6) E2(6,1) E2(6,4) E2(4,6) E1(4,6) E1(6,4) E2(3,3) E1(3,3) E1(2,3) E1(3,2) E2(2,3) E2(3,2) E2(5,3) E1(5,3) E2(3,5) E1(3,5) E1(3,1) E2(1,3) E2(3,1) E1(1,3) E1(3,4) E2(3,4) E2(4,3) E1(4,3) E2(2,2) E1(2,2) E2(2,5) E1(2,5) E2(5,2) E1(5,2) E2(1,2) E1(1,2) E2(2,1) E1(2,1) E2(2,4) E2(4,2) E1(2,4) E1(4,2) E1(5,5) E2(5,5) E2(1,5) E1(5,1) E1(1,5) E2(5,1) E2(4,5) E1(4,5) E2(5,4) E1(5,4) E2(1,1) E1(1,1) E2(1,4) E1(4,1) E1(1,4) E2(4,1) E2(4,4) E1(4,4)
c 1 2 3 4 5 6 7 8 9 10 11 12 13 14 15 16 17 18 19 20 21 22 23 24 25 26 27 28 29 30 31 32 33 34 35 36 37 38 39 40 41 42 43 44 45 46 47 48 49 50 51 52 53 54 55 56 57 58 59 60 61 62 63 64 65 66 67 68 69 70 71 72 73 74 75 76 77 78 79 80 81 82 83 84 85 86 87 88 89 90 91 92 93 94 95 96 97 98 99 100 101 102 103 104 105 106 107 108 109 110 111 112 113 114 115 116 117 118 119 120 121 122 123 124 125 126
p cnf 126 3220
1 -1 0
40 -46 0
29 -30 0
18 -16 0
49 -53 0
35 -31 0
8 -11 0
46 -40 0
120 -120 0
102 -104 0
90 -87 0
123 -122 0
113 -112 0
71 -69 0
30 -29 0
104 -102 0
96 -96 0
79 -80 0
107 -108 0
98 -100 0
64 -62 0
16 -18 0
87 -90 0
80 -79 0
78 -78 0
91 -94 0
86 -84 0
58 -59 0
53 -49 0
122 -123 0
108 -107 0
94 -91 0
126 -126 0
116 -118 0
75 -76 0
31 -35 0
112 -113 0
100 -98 0
84 -86 0
118 -116 0
109 -109 0
66 -67 0
11 -8 0
69 -71 0
62 -64 0
59 -58 0
76 -75 0
67 -66 0
55 -55 0
3 -3 0
39 -42 0
24 -27 0
20 -15 0
51 -50 0
32 -33 0
7 -10 0
42 -39 0
119 -119 0
101 -103 0
88 -89 0
121 -124 0
111 -114 0
70 -72 0
27 -24 0
103 -101 0
95 -95 0
81 -82 0
105 -106 0
97 -99 0
61 -63 0
15 -20 0
89 -88 0
82 -81 0
77 -77 0
92 -93 0
85 -83 0
57 -60 0
50 -51 0
124 -121 0
106 -105 0
93 -92 0
125 -125 0
115 -117 0
74 -73 0
33 -32 0
114 -111 0
99 -97 0
83 -85 0
117 -115 0
110 -110 0
68 -65 0
10 -7 0
72 -70 0
63 -61 0
60 -57 0
73 -74 0
65 -68 0
56 -56 0
-1 -3 0
-40 -39 0
-29 -24 0
-18 -20 0
-49 -51 0
-35 -32 0
-8 -7 0
-46 -42 0
-120 -119 0
-102 -101 0
-90 -88 0
-123 -121 0
-113 -111 0
-71 -70 0
-30 -27 0
-104 -103 0
-96 -95 0
-79 -81 0
-107 -105 0
-98 -97 0
-64 -61 0
-16 -15 0
-87 -89 0
-80 -82 0
-78 -77 0
-91 -92 0
-86 -85 0
-58 -57 0
-53 -50 0
-122 -124 0
-108 -106 0
-94 -93 0
-126 -125 0
-116 -115 0
-75 -74 0
-31 -33 0
-112 -114 0
-100 -99 0
-84 -83 0
-118 -117 0
-109 -110 0
-66 -68 0
-11 -10 0
-69 -72 0
-62 -63 0
-59 -60 0
-76 -73 0
-67 -65 0
-55 -56 0
-4 -6 0
-4 -2 0
-4 -5 0
-43 -44 0
-43 -41 0
-43 -45 0
-23 -28 0
-23 -26 0
-23 -25 0
-21 -17 0
-21 -19 0
-21 -22 0
-47 -52 0
-47 -54 0
-47 -48 0
-37 -34 0
-37 -36 0
-37 -38 0
-12 -9 0
-12 -14 0
-12 -13 0
-6 -2 0
-6 -5 0
-44 -41 0
-44 -45 0
-28 -26 0
-28 -25 0
-17 -19 0
-17 -22 0
-52 -54 0
-52 -48 0
-34 -36 0
-34 -38 0
-9 -14 0
-9 -13 0
-2 -5 0
-41 -45 0
-26 -25 0
-19 -22 0
-54 -48 0
-36 -38 0
-14 -13 0
4 6 2 5 0
43 44 41 45 0
23 28 26 25 0
21 17 19 22 0
47 52 54 48 0
37 34 36 38 0
12 9 14 13 0
4 6 2 -1 0
4 6 2 -3 0
4 6 5 -1 0
4 6 5 -3 0
4 2 5 -1 0
4 2 5 -3 0
43 44 41 -120 0
43 44 41 -119 0
43 44 45 -120 0
43 44 45 -119 0
43 41 45 -120 0
43 41 45 -119 0
23 28 26 -96 0
23 28 26 -95 0
23 28 25 -96 0
23 28 25 -95 0
23 26 25 -96 0
23 26 25 -95 0
21 17 19 -78 0
21 17 19 -77 0
21 17 22 -78 0
21 17 22 -77 0
21 19 22 -78 0
21 19 22 -77 0
47 52 54 -126 0
47 52 54 -125 0
47 52 48 -126 0
47 52 48 -125 0
47 54 48 -126 0
47 54 48 -125 0
37 34 36 -109 0
37 34 36 -110 0
37 34 38 -109 0
37 34 38 -110 0
37 36 38 -109 0
37 36 38 -110 0
12 9 14 -55 0
12 9 14 -56 0
12 9 13 -55 0
12 9 13 -56 0
12 14 13 -55 0
12 14 13 -56 0
6 2 5 -1 0
6 2 5 -3 0
44 41 45 -120 0
44 41 45 -119 0
28 26 25 -96 0
28 26 25 -95 0
17 19 22 -78 0
17 19 22 -77 0
52 54 48 -126 0
52 54 48 -125 0
34 36 38 -109 0
34 36 38 -110 0
9 14 13 -55 0
9 14 13 -56 0
4 6 2 5 -1 0
4 6 2 5 -40 0
4 6 2 5 -29 0
4 6 2 5 -18 0
4 6 2 5 -49 0
4 6 2 5 -35 0
4 6 2 5 -8 0
4 6 2 5 -46 0
4 6 2 5 -30 0
4 6 2 5 -16 0
4 6 2 5 -53 0
4 6 2 5 -31 0
4 6 2 5 -11 0
4 6 2 5 -3 0
4 6 2 5 -39 0
4 6 2 5 -24 0
4 6 2 5 -20 0
4 6 2 5 -51 0
4 6 2 5 -32 0
4 6 2 5 -7 0
4 6 2 5 -42 0
4 6 2 5 -27 0
4 6 2 5 -15 0
4 6 2 5 -50 0
4 6 2 5 -33 0
4 6 2 5 -10 0
43 44 41 45 -40 0
43 44 41 45 -46 0
43 44 41 45 -120 0
43 44 41 45 -102 0
43 44 41 45 -90 0
43 44 41 45 -123 0
43 44 41 45 -113 0
43 44 41 45 -71 0
43 44 41 45 -104 0
43 44 41 45 -87 0
43 44 41 45 -122 0
43 44 41 45 -112 0
43 44 41 45 -69 0
43 44 41 45 -39 0
43 44 41 45 -42 0
43 44 41 45 -119 0
43 44 41 45 -101 0
43 44 41 45 -88 0
43 44 41 45 -121 0
43 44 41 45 -111 0
43 44 41 45 -70 0
43 44 41 45 -103 0
43 44 41 45 -89 0
43 44 41 45 -124 0
43 44 41 45 -114 0
43 44 41 45 -72 0
23 28 26 25 -29 0
23 28 26 25 -102 0
23 28 26 25 -30 0
23 28 26 25 -104 0
23 28 26 25 -96 0
23 28 26 25 -79 0
23 28 26 25 -107 0
23 28 26 25 -98 0
23 28 26 25 -64 0
23 28 26 25 -80 0
23 28 26 25 -108 0
23 28 26 25 -100 0
23 28 26 25 -62 0
23 28 26 25 -24 0
23 28 26 25 -101 0
23 28 26 25 -27 0
23 28 26 25 -103 0
23 28 26 25 -95 0
23 28 26 25 -81 0
23 28 26 25 -105 0
23 28 26 25 -97 0
23 28 26 25 -61 0
23 28 26 25 -82 0
23 28 26 25 -106 0
23 28 26 25 -99 0
23 28 26 25 -63 0
21 17 19 22 -18 0
21 17 19 22 -90 0
21 17 19 22 -79 0
21 17 19 22 -16 0
21 17 19 22 -87 0
21 17 19 22 -80 0
21 17 19 22 -78 0
21 17 19 22 -91 0
21 17 19 22 -86 0
21 17 19 22 -58 0
21 17 19 22 -94 0
21 17 19 22 -84 0
21 17 19 22 -59 0
21 17 19 22 -20 0
21 17 19 22 -88 0
21 17 19 22 -81 0
21 17 19 22 -15 0
21 17 19 22 -89 0
21 17 19 22 -82 0
21 17 19 22 -77 0
21 17 19 22 -92 0
21 17 19 22 -85 0
21 17 19 22 -57 0
21 17 19 22 -93 0
21 17 19 22 -83 0
21 17 19 22 -60 0
47 52 54 48 -49 0
47 52 54 48 -123 0
47 52 54 48 -107 0
47 52 54 48 -91 0
47 52 54 48 -53 0
47 52 54 48 -122 0
47 52 54 48 -108 0
47 52 54 48 -94 0
47 52 54 48 -126 0
47 52 54 48 -116 0
47 52 54 48 -75 0
47 52 54 48 -118 0
47 52 54 48 -76 0
47 52 54 48 -51 0
47 52 54 48 -121 0
47 52 54 48 -105 0
47 52 54 48 -92 0
47 52 54 48 -50 0
47 52 54 48 -124 0
47 52 54 48 -106 0
47 52 54 48 -93 0
47 52 54 48 -125 0
47 52 54 48 -115 0
47 52 54 48 -74 0
47 52 54 48 -117 0
47 52 54 48 -73 0
37 34 36 38 -35 0
37 34 36 38 -113 0
37 34 36 38 -98 0
37 34 36 38 -86 0
37 34 36 38 -116 0
37 34 36 38 -31 0
37 34 36 38 -112 0
37 34 36 38 -100 0
37 34 36 38 -84 0
37 34 36 38 -118 0
37 34 36 38 -109 0
37 34 36 38 -66 0
37 34 36 38 -67 0
37 34 36 38 -32 0
37 34 36 38 -111 0
37 34 36 38 -97 0
37 34 36 38 -85 0
37 34 36 38 -115 0
37 34 36 38 -33 0
37 34 36 38 -114 0
37 34 36 38 -99 0
37 34 36 38 -83 0
37 34 36 38 -117 0
37 34 36 38 -110 0
37 34 36 38 -68 0
37 34 36 38 -65 0
12 9 14 13 -8 0
12 9 14 13 -71 0
12 9 14 13 -64 0
12 9 14 13 -58 0
12 9 14 13 -75 0
12 9 14 13 -66 0
12 9 14 13 -11 0
12 9 14 13 -69 0
12 9 14 13 -62 0
12 9 14 13 -59 0
12 9 14 13 -76 0
12 9 14 13 -67 0
12 9 14 13 -55 0
12 9 14 13 -7 0
12 9 14 13 -70 0
12 9 14 13 -61 0
12 9 14 13 -57 0
12 9 14 13 -74 0
12 9 14 13 -68 0
12 9 14 13 -10 0
12 9 14 13 -72 0
12 9 14 13 -63 0
12 9 14 13 -60 0
12 9 14 13 -73 0
12 9 14 13 -65 0
12 9 14 13 -56 0
4 43 6 2 5 -40 0
4 43 6 2 5 -46 0
4 43 6 2 5 -39 0
4 43 6 2 5 -42 0
4 43 44 41 45 -40 0
4 43 44 41 45 -46 0
4 43 44 41 45 -39 0
4 43 44 41 45 -42 0
4 23 6 2 5 -29 0
4 23 6 2 5 -30 0
4 23 6 2 5 -24 0
4 23 6 2 5 -27 0
4 23 28 26 25 -29 0
4 23 28 26 25 -30 0
4 23 28 26 25 -24 0
4 23 28 26 25 -27 0
4 21 6 2 5 -18 0
4 21 6 2 5 -16 0
4 21 6 2 5 -20 0
4 21 6 2 5 -15 0
4 21 17 19 22 -18 0
4 21 17 19 22 -16 0
4 21 17 19 22 -20 0
4 21 17 19 22 -15 0
4 47 6 2 5 -49 0
4 47 6 2 5 -53 0
4 47 6 2 5 -51 0
4 47 6 2 5 -50 0
4 47 52 54 48 -49 0
4 47 52 54 48 -53 0
4 47 52 54 48 -51 0
4 47 52 54 48 -50 0
4 37 6 2 5 -35 0
4 37 6 2 5 -31 0
4 37 6 2 5 -32 0
4 37 6 2 5 -33 0
4 37 34 36 38 -35 0
4 37 34 36 38 -31 0
4 37 34 36 38 -32 0
4 37 34 36 38 -33 0
4 12 6 2 5 -8 0
4 12 6 2 5 -11 0
4 12 6 2 5 -7 0
4 12 6 2 5 -10 0
4 12 9 14 13 -8 0
4 12 9 14 13 -11 0
4 12 9 14 13 -7 0
4 12 9 14 13 -10 0
4 6 44 2 5 -40 0
4 6 44 2 5 -46 0
4 6 44 2 5 -39 0
4 6 44 2 5 -42 0
4 6 28 2 5 -29 0
4 6 28 2 5 -30 0
4 6 28 2 5 -24 0
4 6 28 2 5 -27 0
4 6 17 2 5 -18 0
4 6 17 2 5 -16 0
4 6 17 2 5 -20 0
4 6 17 2 5 -15 0
4 6 52 2 5 -49 0
4 6 52 2 5 -53 0
4 6 52 2 5 -51 0
4 6 52 2 5 -50 0
4 6 34 2 5 -35 0
4 6 34 2 5 -31 0
4 6 34 2 5 -32 0
4 6 34 2 5 -33 0
4 6 9 2 5 -8 0
4 6 9 2 5 -11 0
4 6 9 2 5 -7 0
4 6 9 2 5 -10 0
4 6 2 41 5 -40 0
4 6 2 41 5 -46 0
4 6 2 41 5 -39 0
4 6 2 41 5 -42 0
4 6 2 26 5 -29 0
4 6 2 26 5 -30 0
4 6 2 26 5 -24 0
4 6 2 26 5 -27 0
4 6 2 19 5 -18 0
4 6 2 19 5 -16 0
4 6 2 19 5 -20 0
4 6 2 19 5 -15 0
4 6 2 54 5 -49 0
4 6 2 54 5 -53 0
4 6 2 54 5 -51 0
4 6 2 54 5 -50 0
4 6 2 36 5 -35 0
4 6 2 36 5 -31 0
4 6 2 36 5 -32 0
4 6 2 36 5 -33 0
4 6 2 14 5 -8 0
4 6 2 14 5 -11 0
4 6 2 14 5 -7 0
4 6 2 14 5 -10 0
4 6 2 5 45 -40 0
4 6 2 5 45 -46 0
4 6 2 5 45 -39 0
4 6 2 5 45 -42 0
4 6 2 5 25 -29 0
4 6 2 5 25 -30 0
4 6 2 5 25 -24 0
4 6 2 5 25 -27 0
4 6 2 5 22 -18 0
4 6 2 5 22 -16 0
4 6 2 5 22 -20 0
4 6 2 5 22 -15 0
4 6 2 5 48 -49 0
4 6 2 5 48 -53 0
4 6 2 5 48 -51 0
4 6 2 5 48 -50 0
4 6 2 5 38 -35 0
4 6 2 5 38 -31 0
4 6 2 5 38 -32 0
4 6 2 5 38 -33 0
4 6 2 5 13 -8 0
4 6 2 5 13 -11 0
4 6 2 5 13 -7 0
4 6 2 5 13 -10 0
43 23 44 41 45 -102 0
43 23 44 41 45 -104 0
43 23 44 41 45 -101 0
43 23 44 41 45 -103 0
43 23 28 26 25 -102 0
43 23 28 26 25 -104 0
43 23 28 26 25 -101 0
43 23 28 26 25 -103 0
43 21 44 41 45 -90 0
43 21 44 41 45 -87 0
43 21 44 41 45 -88 0
43 21 44 41 45 -89 0
43 21 17 19 22 -90 0
43 21 17 19 22 -87 0
43 21 17 19 22 -88 0
43 21 17 19 22 -89 0
43 47 44 41 45 -123 0
43 47 44 41 45 -122 0
43 47 44 41 45 -121 0
43 47 44 41 45 -124 0
43 47 52 54 48 -123 0
43 47 52 54 48 -122 0
43 47 52 54 48 -121 0
43 47 52 54 48 -124 0
43 37 44 41 45 -113 0
43 37 44 41 45 -112 0
43 37 44 41 45 -111 0
43 37 44 41 45 -114 0
43 37 34 36 38 -113 0
43 37 34 36 38 -112 0
43 37 34 36 38 -111 0
43 37 34 36 38 -114 0
43 12 44 41 45 -71 0
43 12 44 41 45 -69 0
43 12 44 41 45 -70 0
43 12 44 41 45 -72 0
43 12 9 14 13 -71 0
43 12 9 14 13 -69 0
43 12 9 14 13 -70 0
43 12 9 14 13 -72 0
43 6 44 41 45 -40 0
43 6 44 41 45 -46 0
43 6 44 41 45 -39 0
43 6 44 41 45 -42 0
43 44 28 41 45 -102 0
43 44 28 41 45 -104 0
43 44 28 41 45 -101 0
43 44 28 41 45 -103 0
43 44 17 41 45 -90 0
43 44 17 41 45 -87 0
43 44 17 41 45 -88 0
43 44 17 41 45 -89 0
43 44 52 41 45 -123 0
43 44 52 41 45 -122 0
43 44 52 41 45 -121 0
43 44 52 41 45 -124 0
43 44 34 41 45 -113 0
43 44 34 41 45 -112 0
43 44 34 41 45 -111 0
43 44 34 41 45 -114 0
43 44 9 41 45 -71 0
43 44 9 41 45 -69 0
43 44 9 41 45 -70 0
43 44 9 41 45 -72 0
43 44 2 41 45 -40 0
43 44 2 41 45 -46 0
43 44 2 41 45 -39 0
43 44 2 41 45 -42 0
43 44 41 26 45 -102 0
43 44 41 26 45 -104 0
43 44 41 26 45 -101 0
43 44 41 26 45 -103 0
43 44 41 19 45 -90 0
43 44 41 19 45 -87 0
43 44 41 19 45 -88 0
43 44 41 19 45 -89 0
43 44 41 54 45 -123 0
43 44 41 54 45 -122 0
43 44 41 54 45 -121 0
43 44 41 54 45 -124 0
43 44 41 36 45 -113 0
43 44 41 36 45 -112 0
43 44 41 36 45 -111 0
43 44 41 36 45 -114 0
43 44 41 14 45 -71 0
43 44 41 14 45 -69 0
43 44 41 14 45 -70 0
43 44 41 14 45 -72 0
43 44 41 5 45 -40 0
43 44 41 5 45 -46 0
43 44 41 5 45 -39 0
43 44 41 5 45 -42 0
43 44 41 45 25 -102 0
43 44 41 45 25 -104 0
43 44 41 45 25 -101 0
43 44 41 45 25 -103 0
43 44 41 45 22 -90 0
43 44 41 45 22 -87 0
43 44 41 45 22 -88 0
43 44 41 45 22 -89 0
43 44 41 45 48 -123 0
43 44 41 45 48 -122 0
43 44 41 45 48 -121 0
43 44 41 45 48 -124 0
43 44 41 45 38 -113 0
43 44 41 45 38 -112 0
43 44 41 45 38 -111 0
43 44 41 45 38 -114 0
43 44 41 45 13 -71 0
43 44 41 45 13 -69 0
43 44 41 45 13 -70 0
43 44 41 45 13 -72 0
23 21 28 26 25 -79 0
23 21 28 26 25 -80 0
23 21 28 26 25 -81 0
23 21 28 26 25 -82 0
23 21 17 19 22 -79 0
23 21 17 19 22 -80 0
23 21 17 19 22 -81 0
23 21 17 19 22 -82 0
23 47 28 26 25 -107 0
23 47 28 26 25 -108 0
23 47 28 26 25 -105 0
23 47 28 26 25 -106 0
23 47 52 54 48 -107 0
23 47 52 54 48 -108 0
23 47 52 54 48 -105 0
23 47 52 54 48 -106 0
23 37 28 26 25 -98 0
23 37 28 26 25 -100 0
23 37 28 26 25 -97 0
23 37 28 26 25 -99 0
23 37 34 36 38 -98 0
23 37 34 36 38 -100 0
23 37 34 36 38 -97 0
23 37 34 36 38 -99 0
23 12 28 26 25 -64 0
23 12 28 26 25 -62 0
23 12 28 26 25 -61 0
23 12 28 26 25 -63 0
23 12 9 14 13 -64 0
23 12 9 14 13 -62 0
23 12 9 14 13 -61 0
23 12 9 14 13 -63 0
23 6 28 26 25 -29 0
23 6 28 26 25 -30 0
23 6 28 26 25 -24 0
23 6 28 26 25 -27 0
23 44 28 26 25 -102 0
23 44 28 26 25 -104 0
23 44 28 26 25 -101 0
23 44 28 26 25 -103 0
23 28 17 26 25 -79 0
23 28 17 26 25 -80 0
23 28 17 26 25 -81 0
23 28 17 26 25 -82 0
23 28 52 26 25 -107 0
23 28 52 26 25 -108 0
23 28 52 26 25 -105 0
23 28 52 26 25 -106 0
23 28 34 26 25 -98 0
23 28 34 26 25 -100 0
23 28 34 26 25 -97 0
23 28 34 26 25 -99 0
23 28 9 26 25 -64 0
23 28 9 26 25 -62 0
23 28 9 26 25 -61 0
23 28 9 26 25 -63 0
23 28 2 26 25 -29 0
23 28 2 26 25 -30 0
23 28 2 26 25 -24 0
23 28 2 26 25 -27 0
23 28 41 26 25 -102 0
23 28 41 26 25 -104 0
23 28 41 26 25 -101 0
23 28 41 26 25 -103 0
23 28 26 19 25 -79 0
23 28 26 19 25 -80 0
23 28 26 19 25 -81 0
23 28 26 19 25 -82 0
23 28 26 54 25 -107 0
23 28 26 54 25 -108 0
23 28 26 54 25 -105 0
23 28 26 54 25 -106 0
23 28 26 36 25 -98 0
23 28 26 36 25 -100 0
23 28 26 36 25 -97 0
23 28 26 36 25 -99 0
23 28 26 14 25 -64 0
23 28 26 14 25 -62 0
23 28 26 14 25 -61 0
23 28 26 14 25 -63 0
23 28 26 5 25 -29 0
23 28 26 5 25 -30 0
23 28 26 5 25 -24 0
23 28 26 5 25 -27 0
23 28 26 45 25 -102 0
23 28 26 45 25 -104 0
23 28 26 45 25 -101 0
23 28 26 45 25 -103 0
23 28 26 25 22 -79 0
23 28 26 25 22 -80 0
23 28 26 25 22 -81 0
23 28 26 25 22 -82 0
23 28 26 25 48 -107 0
23 28 26 25 48 -108 0
23 28 26 25 48 -105 0
23 28 26 25 48 -106 0
23 28 26 25 38 -98 0
23 28 26 25 38 -100 0
23 28 26 25 38 -97 0
23 28 26 25 38 -99 0
23 28 26 25 13 -64 0
23 28 26 25 13 -62 0
23 28 26 25 13 -61 0
23 28 26 25 13 -63 0
21 47 17 19 22 -91 0
21 47 17 19 22 -94 0
21 47 17 19 22 -92 0
21 47 17 19 22 -93 0
21 47 52 54 48 -91 0
21 47 52 54 48 -94 0
21 47 52 54 48 -92 0
21 47 52 54 48 -93 0
21 37 17 19 22 -86 0
21 37 17 19 22 -84 0
21 37 17 19 22 -85 0
21 37 17 19 22 -83 0
21 37 34 36 38 -86 0
21 37 34 36 38 -84 0
21 37 34 36 38 -85 0
21 37 34 36 38 -83 0
21 12 17 19 22 -58 0
21 12 17 19 22 -59 0
21 12 17 19 22 -57 0
21 12 17 19 22 -60 0
21 12 9 14 13 -58 0
21 12 9 14 13 -59 0
21 12 9 14 13 -57 0
21 12 9 14 13 -60 0
21 6 17 19 22 -18 0
21 6 17 19 22 -16 0
21 6 17 19 22 -20 0
21 6 17 19 22 -15 0
21 44 17 19 22 -90 0
21 44 17 19 22 -87 0
21 44 17 19 22 -88 0
21 44 17 19 22 -89 0
21 28 17 19 22 -79 0
21 28 17 19 22 -80 0
21 28 17 19 22 -81 0
21 28 17 19 22 -82 0
21 17 52 19 22 -91 0
21 17 52 19 22 -94 0
21 17 52 19 22 -92 0
21 17 52 19 22 -93 0
21 17 34 19 22 -86 0
21 17 34 19 22 -84 0
21 17 34 19 22 -85 0
21 17 34 19 22 -83 0
21 17 9 19 22 -58 0
21 17 9 19 22 -59 0
21 17 9 19 22 -57 0
21 17 9 19 22 -60 0
21 17 2 19 22 -18 0
21 17 2 19 22 -16 0
21 17 2 19 22 -20 0
21 17 2 19 22 -15 0
21 17 41 19 22 -90 0
21 17 41 19 22 -87 0
21 17 41 19 22 -88 0
21 17 41 19 22 -89 0
21 17 26 19 22 -79 0
21 17 26 19 22 -80 0
21 17 26 19 22 -81 0
21 17 26 19 22 -82 0
21 17 19 54 22 -91 0
21 17 19 54 22 -94 0
21 17 19 54 22 -92 0
21 17 19 54 22 -93 0
21 17 19 36 22 -86 0
21 17 19 36 22 -84 0
21 17 19 36 22 -85 0
21 17 19 36 22 -83 0
21 17 19 14 22 -58 0
21 17 19 14 22 -59 0
21 17 19 14 22 -57 0
21 17 19 14 22 -60 0
21 17 19 5 22 -18 0
21 17 19 5 22 -16 0
21 17 19 5 22 -20 0
21 17 19 5 22 -15 0
21 17 19 45 22 -90 0
21 17 19 45 22 -87 0
21 17 19 45 22 -88 0
21 17 19 45 22 -89 0
21 17 19 25 22 -79 0
21 17 19 25 22 -80 0
21 17 19 25 22 -81 0
21 17 19 25 22 -82 0
21 17 19 22 48 -91 0
21 17 19 22 48 -94 0
21 17 19 22 48 -92 0
21 17 19 22 48 -93 0
21 17 19 22 38 -86 0
21 17 19 22 38 -84 0
21 17 19 22 38 -85 0
21 17 19 22 38 -83 0
21 17 19 22 13 -58 0
21 17 19 22 13 -59 0
21 17 19 22 13 -57 0
21 17 19 22 13 -60 0
47 37 52 54 48 -116 0
47 37 52 54 48 -118 0
47 37 52 54 48 -115 0
47 37 52 54 48 -117 0
47 37 34 36 38 -116 0
47 37 34 36 38 -118 0
47 37 34 36 38 -115 0
47 37 34 36 38 -117 0
47 12 52 54 48 -75 0
47 12 52 54 48 -76 0
47 12 52 54 48 -74 0
47 12 52 54 48 -73 0
47 12 9 14 13 -75 0
47 12 9 14 13 -76 0
47 12 9 14 13 -74 0
47 12 9 14 13 -73 0
47 6 52 54 48 -49 0
47 6 52 54 48 -53 0
47 6 52 54 48 -51 0
47 6 52 54 48 -50 0
47 44 52 54 48 -123 0
47 44 52 54 48 -122 0
47 44 52 54 48 -121 0
47 44 52 54 48 -124 0
47 28 52 54 48 -107 0
47 28 52 54 48 -108 0
47 28 52 54 48 -105 0
47 28 52 54 48 -106 0
47 17 52 54 48 -91 0
47 17 52 54 48 -94 0
47 17 52 54 48 -92 0
47 17 52 54 48 -93 0
47 52 34 54 48 -116 0
47 52 34 54 48 -118 0
47 52 34 54 48 -115 0
47 52 34 54 48 -117 0
47 52 9 54 48 -75 0
47 52 9 54 48 -76 0
47 52 9 54 48 -74 0
47 52 9 54 48 -73 0
47 52 2 54 48 -49 0
47 52 2 54 48 -53 0
47 52 2 54 48 -51 0
47 52 2 54 48 -50 0
47 52 41 54 48 -123 0
47 52 41 54 48 -122 0
47 52 41 54 48 -121 0
47 52 41 54 48 -124 0
47 52 26 54 48 -107 0
47 52 26 54 48 -108 0
47 52 26 54 48 -105 0
47 52 26 54 48 -106 0
47 52 19 54 48 -91 0
47 52 19 54 48 -94 0
47 52 19 54 48 -92 0
47 52 19 54 48 -93 0
47 52 54 36 48 -116 0
47 52 54 36 48 -118 0
47 52 54 36 48 -115 0
47 52 54 36 48 -117 0
47 52 54 14 48 -75 0
47 52 54 14 48 -76 0
47 52 54 14 48 -74 0
47 52 54 14 48 -73 0
47 52 54 5 48 -49 0
47 52 54 5 48 -53 0
47 52 54 5 48 -51 0
47 52 54 5 48 -50 0
47 52 54 45 48 -123 0
47 52 54 45 48 -122 0
47 52 54 45 48 -121 0
47 52 54 45 48 -124 0
47 52 54 25 48 -107 0
47 52 54 25 48 -108 0
47 52 54 25 48 -105 0
47 52 54 25 48 -106 0
47 52 54 22 48 -91 0
47 52 54 22 48 -94 0
47 52 54 22 48 -92 0
47 52 54 22 48 -93 0
47 52 54 48 38 -116 0
47 52 54 48 38 -118 0
47 52 54 48 38 -115 0
47 52 54 48 38 -117 0
47 52 54 48 13 -75 0
47 52 54 48 13 -76 0
47 52 54 48 13 -74 0
47 52 54 48 13 -73 0
37 12 34 36 38 -66 0
37 12 34 36 38 -67 0
37 12 34 36 38 -68 0
37 12 34 36 38 -65 0
37 12 9 14 13 -66 0
37 12 9 14 13 -67 0
37 12 9 14 13 -68 0
37 12 9 14 13 -65 0
37 6 34 36 38 -35 0
37 6 34 36 38 -31 0
37 6 34 36 38 -32 0
37 6 34 36 38 -33 0
37 44 34 36 38 -113 0
37 44 34 36 38 -112 0
37 44 34 36 38 -111 0
37 44 34 36 38 -114 0
37 28 34 36 38 -98 0
37 28 34 36 38 -100 0
37 28 34 36 38 -97 0
37 28 34 36 38 -99 0
37 17 34 36 38 -86 0
37 17 34 36 38 -84 0
37 17 34 36 38 -85 0
37 17 34 36 38 -83 0
37 52 34 36 38 -116 0
37 52 34 36 38 -118 0
37 52 34 36 38 -115 0
37 52 34 36 38 -117 0
37 34 9 36 38 -66 0
37 34 9 36 38 -67 0
37 34 9 36 38 -68 0
37 34 9 36 38 -65 0
37 34 2 36 38 -35 0
37 34 2 36 38 -31 0
37 34 2 36 38 -32 0
37 34 2 36 38 -33 0
37 34 41 36 38 -113 0
37 34 41 36 38 -112 0
37 34 41 36 38 -111 0
37 34 41 36 38 -114 0
37 34 26 36 38 -98 0
37 34 26 36 38 -100 0
37 34 26 36 38 -97 0
37 34 26 36 38 -99 0
37 34 19 36 38 -86 0
37 34 19 36 38 -84 0
37 34 19 36 38 -85 0
37 34 19 36 38 -83 0
37 34 54 36 38 -116 0
37 34 54 36 38 -118 0
37 34 54 36 38 -115 0
37 34 54 36 38 -117 0
37 34 36 14 38 -66 0
37 34 36 14 38 -67 0
37 34 36 14 38 -68 0
37 34 36 14 38 -65 0
37 34 36 5 38 -35 0
37 34 36 5 38 -31 0
37 34 36 5 38 -32 0
37 34 36 5 38 -33 0
37 34 36 45 38 -113 0
37 34 36 45 38 -112 0
37 34 36 45 38 -111 0
37 34 36 45 38 -114 0
37 34 36 25 38 -98 0
37 34 36 25 38 -100 0
37 34 36 25 38 -97 0
37 34 36 25 38 -99 0
37 34 36 22 38 -86 0
37 34 36 22 38 -84 0
37 34 36 22 38 -85 0
37 34 36 22 38 -83 0
37 34 36 48 38 -116 0
37 34 36 48 38 -118 0
37 34 36 48 38 -115 0
37 34 36 48 38 -117 0
37 34 36 38 13 -66 0
37 34 36 38 13 -67 0
37 34 36 38 13 -68 0
37 34 36 38 13 -65 0
12 6 9 14 13 -8 0
12 6 9 14 13 -11 0
12 6 9 14 13 -7 0
12 6 9 14 13 -10 0
12 44 9 14 13 -71 0
12 44 9 14 13 -69 0
12 44 9 14 13 -70 0
12 44 9 14 13 -72 0
12 28 9 14 13 -64 0
12 28 9 14 13 -62 0
12 28 9 14 13 -61 0
12 28 9 14 13 -63 0
12 17 9 14 13 -58 0
12 17 9 14 13 -59 0
12 17 9 14 13 -57 0
12 17 9 14 13 -60 0
12 52 9 14 13 -75 0
12 52 9 14 13 -76 0
12 52 9 14 13 -74 0
12 52 9 14 13 -73 0
12 34 9 14 13 -66 0
12 34 9 14 13 -67 0
12 34 9 14 13 -68 0
12 34 9 14 13 -65 0
12 9 2 14 13 -8 0
12 9 2 14 13 -11 0
12 9 2 14 13 -7 0
12 9 2 14 13 -10 0
12 9 41 14 13 -71 0
12 9 41 14 13 -69 0
12 9 41 14 13 -70 0
12 9 41 14 13 -72 0
12 9 26 14 13 -64 0
12 9 26 14 13 -62 0
12 9 26 14 13 -61 0
12 9 26 14 13 -63 0
12 9 19 14 13 -58 0
12 9 19 14 13 -59 0
12 9 19 14 13 -57 0
12 9 19 14 13 -60 0
12 9 54 14 13 -75 0
12 9 54 14 13 -76 0
12 9 54 14 13 -74 0
12 9 54 14 13 -73 0
12 9 36 14 13 -66 0
12 9 36 14 13 -67 0
12 9 36 14 13 -68 0
12 9 36 14 13 -65 0
12 9 14 5 13 -8 0
12 9 14 5 13 -11 0
12 9 14 5 13 -7 0
12 9 14 5 13 -10 0
12 9 14 45 13 -71 0
12 9 14 45 13 -69 0
12 9 14 45 13 -70 0
12 9 14 45 13 -72 0
12 9 14 25 13 -64 0
12 9 14 25 13 -62 0
12 9 14 25 13 -61 0
12 9 14 25 13 -63 0
12 9 14 22 13 -58 0
12 9 14 22 13 -59 0
12 9 14 22 13 -57 0
12 9 14 22 13 -60 0
12 9 14 48 13 -75 0
12 9 14 48 13 -76 0
12 9 14 48 13 -74 0
12 9 14 48 13 -73 0
12 9 14 38 13 -66 0
12 9 14 38 13 -67 0
12 9 14 38 13 -68 0
12 9 14 38 13 -65 0
1 40 29 18 49 35 8 0
46 120 102 90 123 113 71 0
30 104 96 79 107 98 64 0
16 87 80 78 91 86 58 0
53 122 108 94 126 116 75 0
31 112 100 84 118 109 66 0
11 69 62 59 76 67 55 0
3 39 24 20 51 32 7 0
42 119 101 88 121 111 70 0
27 103 95 81 105 97 61 0
15 89 82 77 92 85 57 0
50 124 106 93 125 115 74 0
33 114 99 83 117 110 68 0
10 72 63 60 73 65 56 0
4 43 6 44 2 41 -40 0
4 43 6 44 2 41 -46 0
4 43 6 44 2 41 -39 0
4 43 6 44 2 41 -42 0
4 43 6 44 2 5 -40 0
4 43 6 44 2 5 -46 0
4 43 6 44 2 5 -39 0
4 43 6 44 2 5 -42 0
4 43 6 44 41 45 -40 0
4 43 6 44 41 45 -46 0
4 43 6 44 41 45 -39 0
4 43 6 44 41 45 -42 0
4 43 6 44 5 45 -40 0
4 43 6 44 5 45 -46 0
4 43 6 44 5 45 -39 0
4 43 6 44 5 45 -42 0
4 43 6 2 41 5 -40 0
4 43 6 2 41 5 -46 0
4 43 6 2 41 5 -39 0
4 43 6 2 41 5 -42 0
4 43 6 2 5 45 -40 0
4 43 6 2 5 45 -46 0
4 43 6 2 5 45 -39 0
4 43 6 2 5 45 -42 0
4 43 44 2 41 45 -40 0
4 43 44 2 41 45 -46 0
4 43 44 2 41 45 -39 0
4 43 44 2 41 45 -42 0
4 43 44 41 5 45 -40 0
4 43 44 41 5 45 -46 0
4 43 44 41 5 45 -39 0
4 43 44 41 5 45 -42 0
4 43 2 41 5 45 -40 0
4 43 2 41 5 45 -46 0
4 43 2 41 5 45 -39 0
4 43 2 41 5 45 -42 0
4 23 6 28 2 26 -29 0
4 23 6 28 2 26 -30 0
4 23 6 28 2 26 -24 0
4 23 6 28 2 26 -27 0
4 23 6 28 2 5 -29 0
4 23 6 28 2 5 -30 0
4 23 6 28 2 5 -24 0
4 23 6 28 2 5 -27 0
4 23 6 28 26 25 -29 0
4 23 6 28 26 25 -30 0
4 23 6 28 26 25 -24 0
4 23 6 28 26 25 -27 0
4 23 6 28 5 25 -29 0
4 23 6 28 5 25 -30 0
4 23 6 28 5 25 -24 0
4 23 6 28 5 25 -27 0
4 23 6 2 26 5 -29 0
4 23 6 2 26 5 -30 0
4 23 6 2 26 5 -24 0
4 23 6 2 26 5 -27 0
4 23 6 2 5 25 -29 0
4 23 6 2 5 25 -30 0
4 23 6 2 5 25 -24 0
4 23 6 2 5 25 -27 0
4 23 28 2 26 25 -29 0
4 23 28 2 26 25 -30 0
4 23 28 2 26 25 -24 0
4 23 28 2 26 25 -27 0
4 23 28 26 5 25 -29 0
4 23 28 26 5 25 -30 0
4 23 28 26 5 25 -24 0
4 23 28 26 5 25 -27 0
4 23 2 26 5 25 -29 0
4 23 2 26 5 25 -30 0
4 23 2 26 5 25 -24 0
4 23 2 26 5 25 -27 0
4 21 6 17 2 19 -18 0
4 21 6 17 2 19 -16 0
4 21 6 17 2 19 -20 0
4 21 6 17 2 19 -15 0
4 21 6 17 2 5 -18 0
4 21 6 17 2 5 -16 0
4 21 6 17 2 5 -20 0
4 21 6 17 2 5 -15 0
4 21 6 17 19 22 -18 0
4 21 6 17 19 22 -16 0
4 21 6 17 19 22 -20 0
4 21 6 17 19 22 -15 0
4 21 6 17 5 22 -18 0
4 21 6 17 5 22 -16 0
4 21 6 17 5 22 -20 0
4 21 6 17 5 22 -15 0
4 21 6 2 19 5 -18 0
4 21 6 2 19 5 -16 0
4 21 6 2 19 5 -20 0
4 21 6 2 19 5 -15 0
4 21 6 2 5 22 -18 0
4 21 6 2 5 22 -16 0
4 21 6 2 5 22 -20 0
4 21 6 2 5 22 -15 0
4 21 17 2 19 22 -18 0
4 21 17 2 19 22 -16 0
4 21 17 2 19 22 -20 0
4 21 17 2 19 22 -15 0
4 21 17 19 5 22 -18 0
4 21 17 19 5 22 -16 0
4 21 17 19 5 22 -20 0
4 21 17 19 5 22 -15 0
4 21 2 19 5 22 -18 0
4 21 2 19 5 22 -16 0
4 21 2 19 5 22 -20 0
4 21 2 19 5 22 -15 0
4 47 6 52 2 54 -49 0
4 47 6 52 2 54 -53 0
4 47 6 52 2 54 -51 0
4 47 6 52 2 54 -50 0
4 47 6 52 2 5 -49 0
4 47 6 52 2 5 -53 0
4 47 6 52 2 5 -51 0
4 47 6 52 2 5 -50 0
4 47 6 52 54 48 -49 0
4 47 6 52 54 48 -53 0
4 47 6 52 54 48 -51 0
4 47 6 52 54 48 -50 0
4 47 6 52 5 48 -49 0
4 47 6 52 5 48 -53 0
4 47 6 52 5 48 -51 0
4 47 6 52 5 48 -50 0
4 47 6 2 54 5 -49 0
4 47 6 2 54 5 -53 0
4 47 6 2 54 5 -51 0
4 47 6 2 54 5 -50 0
4 47 6 2 5 48 -49 0
4 47 6 2 5 48 -53 0
4 47 6 2 5 48 -51 0
4 47 6 2 5 48 -50 0
4 47 52 2 54 48 -49 0
4 47 52 2 54 48 -53 0
4 47 52 2 54 48 -51 0
4 47 52 2 54 48 -50 0
4 47 52 54 5 48 -49 0
4 47 52 54 5 48 -53 0
4 47 52 54 5 48 -51 0
4 47 52 54 5 48 -50 0
4 47 2 54 5 48 -49 0
4 47 2 54 5 48 -53 0
4 47 2 54 5 48 -51 0
4 47 2 54 5 48 -50 0
4 37 6 34 2 36 -35 0
4 37 6 34 2 36 -31 0
4 37 6 34 2 36 -32 0
4 37 6 34 2 36 -33 0
4 37 6 34 2 5 -35 0
4 37 6 34 2 5 -31 0
4 37 6 34 2 5 -32 0
4 37 6 34 2 5 -33 0
4 37 6 34 36 38 -35 0
4 37 6 34 36 38 -31 0
4 37 6 34 36 38 -32 0
4 37 6 34 36 38 -33 0
4 37 6 34 5 38 -35 0
4 37 6 34 5 38 -31 0
4 37 6 34 5 38 -32 0
4 37 6 34 5 38 -33 0
4 37 6 2 36 5 -35 0
4 37 6 2 36 5 -31 0
4 37 6 2 36 5 -32 0
4 37 6 2 36 5 -33 0
4 37 6 2 5 38 -35 0
4 37 6 2 5 38 -31 0
4 37 6 2 5 38 -32 0
4 37 6 2 5 38 -33 0
4 37 34 2 36 38 -35 0
4 37 34 2 36 38 -31 0
4 37 34 2 36 38 -32 0
4 37 34 2 36 38 -33 0
4 37 34 36 5 38 -35 0
4 37 34 36 5 38 -31 0
4 37 34 36 5 38 -32 0
4 37 34 36 5 38 -33 0
4 37 2 36 5 38 -35 0
4 37 2 36 5 38 -31 0
4 37 2 36 5 38 -32 0
4 37 2 36 5 38 -33 0
4 12 6 9 2 14 -8 0
4 12 6 9 2 14 -11 0
4 12 6 9 2 14 -7 0
4 12 6 9 2 14 -10 0
4 12 6 9 2 5 -8 0
4 12 6 9 2 5 -11 0
4 12 6 9 2 5 -7 0
4 12 6 9 2 5 -10 0
4 12 6 9 14 13 -8 0
4 12 6 9 14 13 -11 0
4 12 6 9 14 13 -7 0
4 12 6 9 14 13 -10 0
4 12 6 9 5 13 -8 0
4 12 6 9 5 13 -11 0
4 12 6 9 5 13 -7 0
4 12 6 9 5 13 -10 0
4 12 6 2 14 5 -8 0
4 12 6 2 14 5 -11 0
4 12 6 2 14 5 -7 0
4 12 6 2 14 5 -10 0
4 12 6 2 5 13 -8 0
4 12 6 2 5 13 -11 0
4 12 6 2 5 13 -7 0
4 12 6 2 5 13 -10 0
4 12 9 2 14 13 -8 0
4 12 9 2 14 13 -11 0
4 12 9 2 14 13 -7 0
4 12 9 2 14 13 -10 0
4 12 9 14 5 13 -8 0
4 12 9 14 5 13 -11 0
4 12 9 14 5 13 -7 0
4 12 9 14 5 13 -10 0
4 12 2 14 5 13 -8 0
4 12 2 14 5 13 -11 0
4 12 2 14 5 13 -7 0
4 12 2 14 5 13 -10 0
4 6 44 2 41 5 -40 0
4 6 44 2 41 5 -46 0
4 6 44 2 41 5 -39 0
4 6 44 2 41 5 -42 0
4 6 44 2 5 45 -40 0
4 6 44 2 5 45 -46 0
4 6 44 2 5 45 -39 0
4 6 44 2 5 45 -42 0
4 6 28 2 26 5 -29 0
4 6 28 2 26 5 -30 0
4 6 28 2 26 5 -24 0
4 6 28 2 26 5 -27 0
4 6 28 2 5 25 -29 0
4 6 28 2 5 25 -30 0
4 6 28 2 5 25 -24 0
4 6 28 2 5 25 -27 0
4 6 17 2 19 5 -18 0
4 6 17 2 19 5 -16 0
4 6 17 2 19 5 -20 0
4 6 17 2 19 5 -15 0
4 6 17 2 5 22 -18 0
4 6 17 2 5 22 -16 0
4 6 17 2 5 22 -20 0
4 6 17 2 5 22 -15 0
4 6 52 2 54 5 -49 0
4 6 52 2 54 5 -53 0
4 6 52 2 54 5 -51 0
4 6 52 2 54 5 -50 0
4 6 52 2 5 48 -49 0
4 6 52 2 5 48 -53 0
4 6 52 2 5 48 -51 0
4 6 52 2 5 48 -50 0
4 6 34 2 36 5 -35 0
4 6 34 2 36 5 -31 0
4 6 34 2 36 5 -32 0
4 6 34 2 36 5 -33 0
4 6 34 2 5 38 -35 0
4 6 34 2 5 38 -31 0
4 6 34 2 5 38 -32 0
4 6 34 2 5 38 -33 0
4 6 9 2 14 5 -8 0
4 6 9 2 14 5 -11 0
4 6 9 2 14 5 -7 0
4 6 9 2 14 5 -10 0
4 6 9 2 5 13 -8 0
4 6 9 2 5 13 -11 0
4 6 9 2 5 13 -7 0
4 6 9 2 5 13 -10 0
4 6 2 41 5 45 -40 0
4 6 2 41 5 45 -46 0
4 6 2 41 5 45 -39 0
4 6 2 41 5 45 -42 0
4 6 2 26 5 25 -29 0
4 6 2 26 5 25 -30 0
4 6 2 26 5 25 -24 0
4 6 2 26 5 25 -27 0
4 6 2 19 5 22 -18 0
4 6 2 19 5 22 -16 0
4 6 2 19 5 22 -20 0
4 6 2 19 5 22 -15 0
4 6 2 54 5 48 -49 0
4 6 2 54 5 48 -53 0
4 6 2 54 5 48 -51 0
4 6 2 54 5 48 -50 0
4 6 2 36 5 38 -35 0
4 6 2 36 5 38 -31 0
4 6 2 36 5 38 -32 0
4 6 2 36 5 38 -33 0
4 6 2 14 5 13 -8 0
4 6 2 14 5 13 -11 0
4 6 2 14 5 13 -7 0
4 6 2 14 5 13 -10 0
43 23 44 28 41 26 -102 0
43 23 44 28 41 26 -104 0
43 23 44 28 41 26 -101 0
43 23 44 28 41 26 -103 0
43 23 44 28 41 45 -102 0
43 23 44 28 41 45 -104 0
43 23 44 28 41 45 -101 0
43 23 44 28 41 45 -103 0
43 23 44 28 26 25 -102 0
43 23 44 28 26 25 -104 0
43 23 44 28 26 25 -101 0
43 23 44 28 26 25 -103 0
43 23 44 28 45 25 -102 0
43 23 44 28 45 25 -104 0
43 23 44 28 45 25 -101 0
43 23 44 28 45 25 -103 0
43 23 44 41 26 45 -102 0
43 23 44 41 26 45 -104 0
43 23 44 41 26 45 -101 0
43 23 44 41 26 45 -103 0
43 23 44 41 45 25 -102 0
43 23 44 41 45 25 -104 0
43 23 44 41 45 25 -101 0
43 23 44 41 45 25 -103 0
43 23 28 41 26 25 -102 0
43 23 28 41 26 25 -104 0
43 23 28 41 26 25 -101 0
43 23 28 41 26 25 -103 0
43 23 28 26 45 25 -102 0
43 23 28 26 45 25 -104 0
43 23 28 26 45 25 -101 0
43 23 28 26 45 25 -103 0
43 23 41 26 45 25 -102 0
43 23 41 26 45 25 -104 0
43 23 41 26 45 25 -101 0
43 23 41 26 45 25 -103 0
43 21 44 17 41 19 -90 0
43 21 44 17 41 19 -87 0
43 21 44 17 41 19 -88 0
43 21 44 17 41 19 -89 0
43 21 44 17 41 45 -90 0
43 21 44 17 41 45 -87 0
43 21 44 17 41 45 -88 0
43 21 44 17 41 45 -89 0
43 21 44 17 19 22 -90 0
43 21 44 17 19 22 -87 0
43 21 44 17 19 22 -88 0
43 21 44 17 19 22 -89 0
43 21 44 17 45 22 -90 0
43 21 44 17 45 22 -87 0
43 21 44 17 45 22 -88 0
43 21 44 17 45 22 -89 0
43 21 44 41 19 45 -90 0
43 21 44 41 19 45 -87 0
43 21 44 41 19 45 -88 0
43 21 44 41 19 45 -89 0
43 21 44 41 45 22 -90 0
43 21 44 41 45 22 -87 0
43 21 44 41 45 22 -88 0
43 21 44 41 45 22 -89 0
43 21 17 41 19 22 -90 0
43 21 17 41 19 22 -87 0
43 21 17 41 19 22 -88 0
43 21 17 41 19 22 -89 0
43 21 17 19 45 22 -90 0
43 21 17 19 45 22 -87 0
43 21 17 19 45 22 -88 0
43 21 17 19 45 22 -89 0
43 21 41 19 45 22 -90 0
43 21 41 19 45 22 -87 0
43 21 41 19 45 22 -88 0
43 21 41 19 45 22 -89 0
43 47 44 52 41 54 -123 0
43 47 44 52 41 54 -122 0
43 47 44 52 41 54 -121 0
43 47 44 52 41 54 -124 0
43 47 44 52 41 45 -123 0
43 47 44 52 41 45 -122 0
43 47 44 52 41 45 -121 0
43 47 44 52 41 45 -124 0
43 47 44 52 54 48 -123 0
43 47 44 52 54 48 -122 0
43 47 44 52 54 48 -121 0
43 47 44 52 54 48 -124 0
43 47 44 52 45 48 -123 0
43 47 44 52 45 48 -122 0
43 47 44 52 45 48 -121 0
43 47 44 52 45 48 -124 0
43 47 44 41 54 45 -123 0
43 47 44 41 54 45 -122 0
43 47 44 41 54 45 -121 0
43 47 44 41 54 45 -124 0
43 47 44 41 45 48 -123 0
43 47 44 41 45 48 -122 0
43 47 44 41 45 48 -121 0
43 47 44 41 45 48 -124 0
43 47 52 41 54 48 -123 0
43 47 52 41 54 48 -122 0
43 47 52 41 54 48 -121 0
43 47 52 41 54 48 -124 0
43 47 52 54 45 48 -123 0
43 47 52 54 45 48 -122 0
43 47 52 54 45 48 -121 0
43 47 52 54 45 48 -124 0
43 47 41 54 45 48 -123 0
43 47 41 54 45 48 -122 0
43 47 41 54 45 48 -121 0
43 47 41 54 45 48 -124 0
43 37 44 34 41 36 -113 0
43 37 44 34 41 36 -112 0
43 37 44 34 41 36 -111 0
43 37 44 34 41 36 -114 0
43 37 44 34 41 45 -113 0
43 37 44 34 41 45 -112 0
43 37 44 34 41 45 -111 0
43 37 44 34 41 45 -114 0
43 37 44 34 36 38 -113 0
43 37 44 34 36 38 -112 0
43 37 44 34 36 38 -111 0
43 37 44 34 36 38 -114 0
43 37 44 34 45 38 -113 0
43 37 44 34 45 38 -112 0
43 37 44 34 45 38 -111 0
43 37 44 34 45 38 -114 0
43 37 44 41 36 45 -113 0
43 37 44 41 36 45 -112 0
43 37 44 41 36 45 -111 0
43 37 44 41 36 45 -114 0
43 37 44 41 45 38 -113 0
43 37 44 41 45 38 -112 0
43 37 44 41 45 38 -111 0
43 37 44 41 45 38 -114 0
43 37 34 41 36 38 -113 0
43 37 34 41 36 38 -112 0
43 37 34 41 36 38 -111 0
43 37 34 41 36 38 -114 0
43 37 34 36 45 38 -113 0
43 37 34 36 45 38 -112 0
43 37 34 36 45 38 -111 0
43 37 34 36 45 38 -114 0
43 37 41 36 45 38 -113 0
43 37 41 36 45 38 -112 0
43 37 41 36 45 38 -111 0
43 37 41 36 45 38 -114 0
43 12 44 9 41 14 -71 0
43 12 44 9 41 14 -69 0
43 12 44 9 41 14 -70 0
43 12 44 9 41 14 -72 0
43 12 44 9 41 45 -71 0
43 12 44 9 41 45 -69 0
43 12 44 9 41 45 -70 0
43 12 44 9 41 45 -72 0
43 12 44 9 14 13 -71 0
43 12 44 9 14 13 -69 0
43 12 44 9 14 13 -70 0
43 12 44 9 14 13 -72 0
43 12 44 9 45 13 -71 0
43 12 44 9 45 13 -69 0
43 12 44 9 45 13 -70 0
43 12 44 9 45 13 -72 0
43 12 44 41 14 45 -71 0
43 12 44 41 14 45 -69 0
43 12 44 41 14 45 -70 0
43 12 44 41 14 45 -72 0
43 12 44 41 45 13 -71 0
43 12 44 41 45 13 -69 0
43 12 44 41 45 13 -70 0
43 12 44 41 45 13 -72 0
43 12 9 41 14 13 -71 0
43 12 9 41 14 13 -69 0
43 12 9 41 14 13 -70 0
43 12 9 41 14 13 -72 0
43 12 9 14 45 13 -71 0
43 12 9 14 45 13 -69 0
43 12 9 14 45 13 -70 0
43 12 9 14 45 13 -72 0
43 12 41 14 45 13 -71 0
43 12 41 14 45 13 -69 0
43 12 41 14 45 13 -70 0
43 12 41 14 45 13 -72 0
43 6 44 2 41 45 -40 0
43 6 44 2 41 45 -46 0
43 6 44 2 41 45 -39 0
43 6 44 2 41 45 -42 0
43 6 44 41 5 45 -40 0
43 6 44 41 5 45 -46 0
43 6 44 41 5 45 -39 0
43 6 44 41 5 45 -42 0
43 44 28 41 26 45 -102 0
43 44 28 41 26 45 -104 0
43 44 28 41 26 45 -101 0
43 44 28 41 26 45 -103 0
43 44 28 41 45 25 -102 0
43 44 28 41 45 25 -104 0
43 44 28 41 45 25 -101 0
43 44 28 41 45 25 -103 0
43 44 17 41 19 45 -90 0
43 44 17 41 19 45 -87 0
43 44 17 41 19 45 -88 0
43 44 17 41 19 45 -89 0
43 44 17 41 45 22 -90 0
43 44 17 41 45 22 -87 0
43 44 17 41 45 22 -88 0
43 44 17 41 45 22 -89 0
43 44 52 41 54 45 -123 0
43 44 52 41 54 45 -122 0
43 44 52 41 54 45 -121 0
43 44 52 41 54 45 -124 0
43 44 52 41 45 48 -123 0
43 44 52 41 45 48 -122 0
43 44 52 41 45 48 -121 0
43 44 52 41 45 48 -124 0
43 44 34 41 36 45 -113 0
43 44 34 41 36 45 -112 0
43 44 34 41 36 45 -111 0
43 44 34 41 36 45 -114 0
43 44 34 41 45 38 -113 0
43 44 34 41 45 38 -112 0
43 44 34 41 45 38 -111 0
43 44 34 41 45 38 -114 0
43 44 9 41 14 45 -71 0
43 44 9 41 14 45 -69 0
43 44 9 41 14 45 -70 0
43 44 9 41 14 45 -72 0
43 44 9 41 45 13 -71 0
43 44 9 41 45 13 -69 0
43 44 9 41 45 13 -70 0
43 44 9 41 45 13 -72 0
43 44 2 41 5 45 -40 0
43 44 2 41 5 45 -46 0
43 44 2 41 5 45 -39 0
43 44 2 41 5 45 -42 0
43 44 41 26 45 25 -102 0
43 44 41 26 45 25 -104 0
43 44 41 26 45 25 -101 0
43 44 41 26 45 25 -103 0
43 44 41 19 45 22 -90 0
43 44 41 19 45 22 -87 0
43 44 41 19 45 22 -88 0
43 44 41 19 45 22 -89 0
43 44 41 54 45 48 -123 0
43 44 41 54 45 48 -122 0
43 44 41 54 45 48 -121 0
43 44 41 54 45 48 -124 0
43 44 41 36 45 38 -113 0
43 44 41 36 45 38 -112 0
43 44 41 36 45 38 -111 0
43 44 41 36 45 38 -114 0
43 44 41 14 45 13 -71 0
43 44 41 14 45 13 -69 0
43 44 41 14 45 13 -70 0
43 44 41 14 45 13 -72 0
23 21 28 17 26 19 -79 0
23 21 28 17 26 19 -80 0
23 21 28 17 26 19 -81 0
23 21 28 17 26 19 -82 0
23 21 28 17 26 25 -79 0
23 21 28 17 26 25 -80 0
23 21 28 17 26 25 -81 0
23 21 28 17 26 25 -82 0
23 21 28 17 19 22 -79 0
23 21 28 17 19 22 -80 0
23 21 28 17 19 22 -81 0
23 21 28 17 19 22 -82 0
23 21 28 17 25 22 -79 0
23 21 28 17 25 22 -80 0
23 21 28 17 25 22 -81 0
23 21 28 17 25 22 -82 0
23 21 28 26 19 25 -79 0
23 21 28 26 19 25 -80 0
23 21 28 26 19 25 -81 0
23 21 28 26 19 25 -82 0
23 21 28 26 25 22 -79 0
23 21 28 26 25 22 -80 0
23 21 28 26 25 22 -81 0
23 21 28 26 25 22 -82 0
23 21 17 26 19 22 -79 0
23 21 17 26 19 22 -80 0
23 21 17 26 19 22 -81 0
23 21 17 26 19 22 -82 0
23 21 17 19 25 22 -79 0
23 21 17 19 25 22 -80 0
23 21 17 19 25 22 -81 0
23 21 17 19 25 22 -82 0
23 21 26 19 25 22 -79 0
23 21 26 19 25 22 -80 0
23 21 26 19 25 22 -81 0
23 21 26 19 25 22 -82 0
23 47 28 52 26 54 -107 0
23 47 28 52 26 54 -108 0
23 47 28 52 26 54 -105 0
23 47 28 52 26 54 -106 0
23 47 28 52 26 25 -107 0
23 47 28 52 26 25 -108 0
23 47 28 52 26 25 -105 0
23 47 28 52 26 25 -106 0
23 47 28 52 54 48 -107 0
23 47 28 52 54 48 -108 0
23 47 28 52 54 48 -105 0
23 47 28 52 54 48 -106 0
23 47 28 52 25 48 -107 0
23 47 28 52 25 48 -108 0
23 47 28 52 25 48 -105 0
23 47 28 52 25 48 -106 0
23 47 28 26 54 25 -107 0
23 47 28 26 54 25 -108 0
23 47 28 26 54 25 -105 0
23 47 28 26 54 25 -106 0
23 47 28 26 25 48 -107 0
23 47 28 26 25 48 -108 0
23 47 28 26 25 48 -105 0
23 47 28 26 25 48 -106 0
23 47 52 26 54 48 -107 0
23 47 52 26 54 48 -108 0
23 47 52 26 54 48 -105 0
23 47 52 26 54 48 -106 0
23 47 52 54 25 48 -107 0
23 47 52 54 25 48 -108 0
23 47 52 54 25 48 -105 0
23 47 52 54 25 48 -106 0
23 47 26 54 25 48 -107 0
23 47 26 54 25 48 -108 0
23 47 26 54 25 48 -105 0
23 47 26 54 25 48 -106 0
23 37 28 34 26 36 -98 0
23 37 28 34 26 36 -100 0
23 37 28 34 26 36 -97 0
23 37 28 34 26 36 -99 0
23 37 28 34 26 25 -98 0
23 37 28 34 26 25 -100 0
23 37 28 34 26 25 -97 0
23 37 28 34 26 25 -99 0
23 37 28 34 36 38 -98 0
23 37 28 34 36 38 -100 0
23 37 28 34 36 38 -97 0
23 37 28 34 36 38 -99 0
23 37 28 34 25 38 -98 0
23 37 28 34 25 38 -100 0
23 37 28 34 25 38 -97 0
23 37 28 34 25 38 -99 0
23 37 28 26 36 25 -98 0
23 37 28 26 36 25 -100 0
23 37 28 26 36 25 -97 0
23 37 28 26 36 25 -99 0
23 37 28 26 25 38 -98 0
23 37 28 26 25 38 -100 0
23 37 28 26 25 38 -97 0
23 37 28 26 25 38 -99 0
23 37 34 26 36 38 -98 0
23 37 34 26 36 38 -100 0
23 37 34 26 36 38 -97 0
23 37 34 26 36 38 -99 0
23 37 34 36 25 38 -98 0
23 37 34 36 25 38 -100 0
23 37 34 36 25 38 -97 0
23 37 34 36 25 38 -99 0
23 37 26 36 25 38 -98 0
23 37 26 36 25 38 -100 0
23 37 26 36 25 38 -97 0
23 37 26 36 25 38 -99 0
23 12 28 9 26 14 -64 0
23 12 28 9 26 14 -62 0
23 12 28 9 26 14 -61 0
23 12 28 9 26 14 -63 0
23 12 28 9 26 25 -64 0
23 12 28 9 26 25 -62 0
23 12 28 9 26 25 -61 0
23 12 28 9 26 25 -63 0
23 12 28 9 14 13 -64 0
23 12 28 9 14 13 -62 0
23 12 28 9 14 13 -61 0
23 12 28 9 14 13 -63 0
23 12 28 9 25 13 -64 0
23 12 28 9 25 13 -62 0
23 12 28 9 25 13 -61 0
23 12 28 9 25 13 -63 0
23 12 28 26 14 25 -64 0
23 12 28 26 14 25 -62 0
23 12 28 26 14 25 -61 0
23 12 28 26 14 25 -63 0
23 12 28 26 25 13 -64 0
23 12 28 26 25 13 -62 0
23 12 28 26 25 13 -61 0
23 12 28 26 25 13 -63 0
23 12 9 26 14 13 -64 0
23 12 9 26 14 13 -62 0
23 12 9 26 14 13 -61 0
23 12 9 26 14 13 -63 0
23 12 9 14 25 13 -64 0
23 12 9 14 25 13 -62 0
23 12 9 14 25 13 -61 0
23 12 9 14 25 13 -63 0
23 12 26 14 25 13 -64 0
23 12 26 14 25 13 -62 0
23 12 26 14 25 13 -61 0
23 12 26 14 25 13 -63 0
23 6 28 2 26 25 -29 0
23 6 28 2 26 25 -30 0
23 6 28 2 26 25 -24 0
23 6 28 2 26 25 -27 0
23 6 28 26 5 25 -29 0
23 6 28 26 5 25 -30 0
23 6 28 26 5 25 -24 0
23 6 28 26 5 25 -27 0
23 44 28 41 26 25 -102 0
23 44 28 41 26 25 -104 0
23 44 28 41 26 25 -101 0
23 44 28 41 26 25 -103 0
23 44 28 26 45 25 -102 0
23 44 28 26 45 25 -104 0
23 44 28 26 45 25 -101 0
23 44 28 26 45 25 -103 0
23 28 17 26 19 25 -79 0
23 28 17 26 19 25 -80 0
23 28 17 26 19 25 -81 0
23 28 17 26 19 25 -82 0
23 28 17 26 25 22 -79 0
23 28 17 26 25 22 -80 0
23 28 17 26 25 22 -81 0
23 28 17 26 25 22 -82 0
23 28 52 26 54 25 -107 0
23 28 52 26 54 25 -108 0
23 28 52 26 54 25 -105 0
23 28 52 26 54 25 -106 0
23 28 52 26 25 48 -107 0
23 28 52 26 25 48 -108 0
23 28 52 26 25 48 -105 0
23 28 52 26 25 48 -106 0
23 28 34 26 36 25 -98 0
23 28 34 26 36 25 -100 0
23 28 34 26 36 25 -97 0
23 28 34 26 36 25 -99 0
23 28 34 26 25 38 -98 0
23 28 34 26 25 38 -100 0
23 28 34 26 25 38 -97 0
23 28 34 26 25 38 -99 0
23 28 9 26 14 25 -64 0
23 28 9 26 14 25 -62 0
23 28 9 26 14 25 -61 0
23 28 9 26 14 25 -63 0
23 28 9 26 25 13 -64 0
23 28 9 26 25 13 -62 0
23 28 9 26 25 13 -61 0
23 28 9 26 25 13 -63 0
23 28 2 26 5 25 -29 0
23 28 2 26 5 25 -30 0
23 28 2 26 5 25 -24 0
23 28 2 26 5 25 -27 0
23 28 41 26 45 25 -102 0
23 28 41 26 45 25 -104 0
23 28 41 26 45 25 -101 0
23 28 41 26 45 25 -103 0
23 28 26 19 25 22 -79 0
23 28 26 19 25 22 -80 0
23 28 26 19 25 22 -81 0
23 28 26 19 25 22 -82 0
23 28 26 54 25 48 -107 0
23 28 26 54 25 48 -108 0
23 28 26 54 25 48 -105 0
23 28 26 54 25 48 -106 0
23 28 26 36 25 38 -98 0
23 28 26 36 25 38 -100 0
23 28 26 36 25 38 -97 0
23 28 26 36 25 38 -99 0
23 28 26 14 25 13 -64 0
23 28 26 14 25 13 -62 0
23 28 26 14 25 13 -61 0
23 28 26 14 25 13 -63 0
21 47 17 52 19 54 -91 0
21 47 17 52 19 54 -94 0
21 47 17 52 19 54 -92 0
21 47 17 52 19 54 -93 0
21 47 17 52 19 22 -91 0
21 47 17 52 19 22 -94 0
21 47 17 52 19 22 -92 0
21 47 17 52 19 22 -93 0
21 47 17 52 54 48 -91 0
21 47 17 52 54 48 -94 0
21 47 17 52 54 48 -92 0
21 47 17 52 54 48 -93 0
21 47 17 52 22 48 -91 0
21 47 17 52 22 48 -94 0
21 47 17 52 22 48 -92 0
21 47 17 52 22 48 -93 0
21 47 17 19 54 22 -91 0
21 47 17 19 54 22 -94 0
21 47 17 19 54 22 -92 0
21 47 17 19 54 22 -93 0
21 47 17 19 22 48 -91 0
21 47 17 19 22 48 -94 0
21 47 17 19 22 48 -92 0
21 47 17 19 22 48 -93 0
21 47 52 19 54 48 -91 0
21 47 52 19 54 48 -94 0
21 47 52 19 54 48 -92 0
21 47 52 19 54 48 -93 0
21 47 52 54 22 48 -91 0
21 47 52 54 22 48 -94 0
21 47 52 54 22 48 -92 0
21 47 52 54 22 48 -93 0
21 47 19 54 22 48 -91 0
21 47 19 54 22 48 -94 0
21 47 19 54 22 48 -92 0
21 47 19 54 22 48 -93 0
21 37 17 34 19 36 -86 0
21 37 17 34 19 36 -84 0
21 37 17 34 19 36 -85 0
21 37 17 34 19 36 -83 0
21 37 17 34 19 22 -86 0
21 37 17 34 19 22 -84 0
21 37 17 34 19 22 -85 0
21 37 17 34 19 22 -83 0
21 37 17 34 36 38 -86 0
21 37 17 34 36 38 -84 0
21 37 17 34 36 38 -85 0
21 37 17 34 36 38 -83 0
21 37 17 34 22 38 -86 0
21 37 17 34 22 38 -84 0
21 37 17 34 22 38 -85 0
21 37 17 34 22 38 -83 0
21 37 17 19 36 22 -86 0
21 37 17 19 36 22 -84 0
21 37 17 19 36 22 -85 0
21 37 17 19 36 22 -83 0
21 37 17 19 22 38 -86 0
21 37 17 19 22 38 -84 0
21 37 17 19 22 38 -85 0
21 37 17 19 22 38 -83 0
21 37 34 19 36 38 -86 0
21 37 34 19 36 38 -84 0
21 37 34 19 36 38 -85 0
21 37 34 19 36 38 -83 0
21 37 34 36 22 38 -86 0
21 37 34 36 22 38 -84 0
21 37 34 36 22 38 -85 0
21 37 34 36 22 38 -83 0
21 37 19 36 22 38 -86 0
21 37 19 36 22 38 -84 0
21 37 19 36 22 38 -85 0
21 37 19 36 22 38 -83 0
21 12 17 9 19 14 -58 0
21 12 17 9 19 14 -59 0
21 12 17 9 19 14 -57 0
21 12 17 9 19 14 -60 0
21 12 17 9 19 22 -58 0
21 12 17 9 19 22 -59 0
21 12 17 9 19 22 -57 0
21 12 17 9 19 22 -60 0
21 12 17 9 14 13 -58 0
21 12 17 9 14 13 -59 0
21 12 17 9 14 13 -57 0
21 12 17 9 14 13 -60 0
21 12 17 9 22 13 -58 0
21 12 17 9 22 13 -59 0
21 12 17 9 22 13 -57 0
21 12 17 9 22 13 -60 0
21 12 17 19 14 22 -58 0
21 12 17 19 14 22 -59 0
21 12 17 19 14 22 -57 0
21 12 17 19 14 22 -60 0
21 12 17 19 22 13 -58 0
21 12 17 19 22 13 -59 0
21 12 17 19 22 13 -57 0
21 12 17 19 22 13 -60 0
21 12 9 19 14 13 -58 0
21 12 9 19 14 13 -59 0
21 12 9 19 14 13 -57 0
21 12 9 19 14 13 -60 0
21 12 9 14 22 13 -58 0
21 12 9 14 22 13 -59 0
21 12 9 14 22 13 -57 0
21 12 9 14 22 13 -60 0
21 12 19 14 22 13 -58 0
21 12 19 14 22 13 -59 0
21 12 19 14 22 13 -57 0
21 12 19 14 22 13 -60 0
21 6 17 2 19 22 -18 0
21 6 17 2 19 22 -16 0
21 6 17 2 19 22 -20 0
21 6 17 2 19 22 -15 0
21 6 17 19 5 22 -18 0
21 6 17 19 5 22 -16 0
21 6 17 19 5 22 -20 0
21 6 17 19 5 22 -15 0
21 44 17 41 19 22 -90 0
21 44 17 41 19 22 -87 0
21 44 17 41 19 22 -88 0
21 44 17 41 19 22 -89 0
21 44 17 19 45 22 -90 0
21 44 17 19 45 22 -87 0
21 44 17 19 45 22 -88 0
21 44 17 19 45 22 -89 0
21 28 17 26 19 22 -79 0
21 28 17 26 19 22 -80 0
21 28 17 26 19 22 -81 0
21 28 17 26 19 22 -82 0
21 28 17 19 25 22 -79 0
21 28 17 19 25 22 -80 0
21 28 17 19 25 22 -81 0
21 28 17 19 25 22 -82 0
21 17 52 19 54 22 -91 0
21 17 52 19 54 22 -94 0
21 17 52 19 54 22 -92 0
21 17 52 19 54 22 -93 0
21 17 52 19 22 48 -91 0
21 17 52 19 22 48 -94 0
21 17 52 19 22 48 -92 0
21 17 52 19 22 48 -93 0
21 17 34 19 36 22 -86 0
21 17 34 19 36 22 -84 0
21 17 34 19 36 22 -85 0
21 17 34 19 36 22 -83 0
21 17 34 19 22 38 -86 0
21 17 34 19 22 38 -84 0
21 17 34 19 22 38 -85 0
21 17 34 19 22 38 -83 0
21 17 9 19 14 22 -58 0
21 17 9 19 14 22 -59 0
21 17 9 19 14 22 -57 0
21 17 9 19 14 22 -60 0
21 17 9 19 22 13 -58 0
21 17 9 19 22 13 -59 0
21 17 9 19 22 13 -57 0
21 17 9 19 22 13 -60 0
21 17 2 19 5 22 -18 0
21 17 2 19 5 22 -16 0
21 17 2 19 5 22 -20 0
21 17 2 19 5 22 -15 0
21 17 41 19 45 22 -90 0
21 17 41 19 45 22 -87 0
21 17 41 19 45 22 -88 0
21 17 41 19 45 22 -89 0
21 17 26 19 25 22 -79 0
21 17 26 19 25 22 -80 0
21 17 26 19 25 22 -81 0
21 17 26 19 25 22 -82 0
21 17 19 54 22 48 -91 0
21 17 19 54 22 48 -94 0
21 17 19 54 22 48 -92 0
21 17 19 54 22 48 -93 0
21 17 19 36 22 38 -86 0
21 17 19 36 22 38 -84 0
21 17 19 36 22 38 -85 0
21 17 19 36 22 38 -83 0
21 17 19 14 22 13 -58 0
21 17 19 14 22 13 -59 0
21 17 19 14 22 13 -57 0
21 17 19 14 22 13 -60 0
47 37 52 34 54 36 -116 0
47 37 52 34 54 36 -118 0
47 37 52 34 54 36 -115 0
47 37 52 34 54 36 -117 0
47 37 52 34 54 48 -116 0
47 37 52 34 54 48 -118 0
47 37 52 34 54 48 -115 0
47 37 52 34 54 48 -117 0
47 37 52 34 36 38 -116 0
47 37 52 34 36 38 -118 0
47 37 52 34 36 38 -115 0
47 37 52 34 36 38 -117 0
47 37 52 34 48 38 -116 0
47 37 52 34 48 38 -118 0
47 37 52 34 48 38 -115 0
47 37 52 34 48 38 -117 0
47 37 52 54 36 48 -116 0
47 37 52 54 36 48 -118 0
47 37 52 54 36 48 -115 0
47 37 52 54 36 48 -117 0
47 37 52 54 48 38 -116 0
47 37 52 54 48 38 -118 0
47 37 52 54 48 38 -115 0
47 37 52 54 48 38 -117 0
47 37 34 54 36 38 -116 0
47 37 34 54 36 38 -118 0
47 37 34 54 36 38 -115 0
47 37 34 54 36 38 -117 0
47 37 34 36 48 38 -116 0
47 37 34 36 48 38 -118 0
47 37 34 36 48 38 -115 0
47 37 34 36 48 38 -117 0
47 37 54 36 48 38 -116 0
47 37 54 36 48 38 -118 0
47 37 54 36 48 38 -115 0
47 37 54 36 48 38 -117 0
47 12 52 9 54 14 -75 0
47 12 52 9 54 14 -76 0
47 12 52 9 54 14 -74 0
47 12 52 9 54 14 -73 0
47 12 52 9 54 48 -75 0
47 12 52 9 54 48 -76 0
47 12 52 9 54 48 -74 0
47 12 52 9 54 48 -73 0
47 12 52 9 14 13 -75 0
47 12 52 9 14 13 -76 0
47 12 52 9 14 13 -74 0
47 12 52 9 14 13 -73 0
47 12 52 9 48 13 -75 0
47 12 52 9 48 13 -76 0
47 12 52 9 48 13 -74 0
47 12 52 9 48 13 -73 0
47 12 52 54 14 48 -75 0
47 12 52 54 14 48 -76 0
47 12 52 54 14 48 -74 0
47 12 52 54 14 48 -73 0
47 12 52 54 48 13 -75 0
47 12 52 54 48 13 -76 0
47 12 52 54 48 13 -74 0
47 12 52 54 48 13 -73 0
47 12 9 54 14 13 -75 0
47 12 9 54 14 13 -76 0
47 12 9 54 14 13 -74 0
47 12 9 54 14 13 -73 0
47 12 9 14 48 13 -75 0
47 12 9 14 48 13 -76 0
47 12 9 14 48 13 -74 0
47 12 9 14 48 13 -73 0
47 12 54 14 48 13 -75 0
47 12 54 14 48 13 -76 0
47 12 54 14 48 13 -74 0
47 12 54 14 48 13 -73 0
47 6 52 2 54 48 -49 0
47 6 52 2 54 48 -53 0
47 6 52 2 54 48 -51 0
47 6 52 2 54 48 -50 0
47 6 52 54 5 48 -49 0
47 6 52 54 5 48 -53 0
47 6 52 54 5 48 -51 0
47 6 52 54 5 48 -50 0
47 44 52 41 54 48 -123 0
47 44 52 41 54 48 -122 0
47 44 52 41 54 48 -121 0
47 44 52 41 54 48 -124 0
47 44 52 54 45 48 -123 0
47 44 52 54 45 48 -122 0
47 44 52 54 45 48 -121 0
47 44 52 54 45 48 -124 0
47 28 52 26 54 48 -107 0
47 28 52 26 54 48 -108 0
47 28 52 26 54 48 -105 0
47 28 52 26 54 48 -106 0
47 28 52 54 25 48 -107 0
47 28 52 54 25 48 -108 0
47 28 52 54 25 48 -105 0
47 28 52 54 25 48 -106 0
47 17 52 19 54 48 -91 0
47 17 52 19 54 48 -94 0
47 17 52 19 54 48 -92 0
47 17 52 19 54 48 -93 0
47 17 52 54 22 48 -91 0
47 17 52 54 22 48 -94 0
47 17 52 54 22 48 -92 0
47 17 52 54 22 48 -93 0
47 52 34 54 36 48 -116 0
47 52 34 54 36 48 -118 0
47 52 34 54 36 48 -115 0
47 52 34 54 36 48 -117 0
47 52 34 54 48 38 -116 0
47 52 34 54 48 38 -118 0
47 52 34 54 48 38 -115 0
47 52 34 54 48 38 -117 0
47 52 9 54 14 48 -75 0
47 52 9 54 14 48 -76 0
47 52 9 54 14 48 -74 0
47 52 9 54 14 48 -73 0
47 52 9 54 48 13 -75 0
47 52 9 54 48 13 -76 0
47 52 9 54 48 13 -74 0
47 52 9 54 48 13 -73 0
47 52 2 54 5 48 -49 0
47 52 2 54 5 48 -53 0
47 52 2 54 5 48 -51 0
47 52 2 54 5 48 -50 0
47 52 41 54 45 48 -123 0
47 52 41 54 45 48 -122 0
47 52 41 54 45 48 -121 0
47 52 41 54 45 48 -124 0
47 52 26 54 25 48 -107 0
47 52 26 54 25 48 -108 0
47 52 26 54 25 48 -105 0
47 52 26 54 25 48 -106 0
47 52 19 54 22 48 -91 0
47 52 19 54 22 48 -94 0
47 52 19 54 22 48 -92 0
47 52 19 54 22 48 -93 0
47 52 54 36 48 38 -116 0
47 52 54 36 48 38 -118 0
47 52 54 36 48 38 -115 0
47 52 54 36 48 38 -117 0
47 52 54 14 48 13 -75 0
47 52 54 14 48 13 -76 0
47 52 54 14 48 13 -74 0
47 52 54 14 48 13 -73 0
37 12 34 9 36 14 -66 0
37 12 34 9 36 14 -67 0
37 12 34 9 36 14 -68 0
37 12 34 9 36 14 -65 0
37 12 34 9 36 38 -66 0
37 12 34 9 36 38 -67 0
37 12 34 9 36 38 -68 0
37 12 34 9 36 38 -65 0
37 12 34 9 14 13 -66 0
37 12 34 9 14 13 -67 0
37 12 34 9 14 13 -68 0
37 12 34 9 14 13 -65 0
37 12 34 9 38 13 -66 0
37 12 34 9 38 13 -67 0
37 12 34 9 38 13 -68 0
37 12 34 9 38 13 -65 0
37 12 34 36 14 38 -66 0
37 12 34 36 14 38 -67 0
37 12 34 36 14 38 -68 0
37 12 34 36 14 38 -65 0
37 12 34 36 38 13 -66 0
37 12 34 36 38 13 -67 0
37 12 34 36 38 13 -68 0
37 12 34 36 38 13 -65 0
37 12 9 36 14 13 -66 0
37 12 9 36 14 13 -67 0
37 12 9 36 14 13 -68 0
37 12 9 36 14 13 -65 0
37 12 9 14 38 13 -66 0
37 12 9 14 38 13 -67 0
37 12 9 14 38 13 -68 0
37 12 9 14 38 13 -65 0
37 12 36 14 38 13 -66 0
37 12 36 14 38 13 -67 0
37 12 36 14 38 13 -68 0
37 12 36 14 38 13 -65 0
37 6 34 2 36 38 -35 0
37 6 34 2 36 38 -31 0
37 6 34 2 36 38 -32 0
37 6 34 2 36 38 -33 0
37 6 34 36 5 38 -35 0
37 6 34 36 5 38 -31 0
37 6 34 36 5 38 -32 0
37 6 34 36 5 38 -33 0
37 44 34 41 36 38 -113 0
37 44 34 41 36 38 -112 0
37 44 34 41 36 38 -111 0
37 44 34 41 36 38 -114 0
37 44 34 36 45 38 -113 0
37 44 34 36 45 38 -112 0
37 44 34 36 45 38 -111 0
37 44 34 36 45 38 -114 0
37 28 34 26 36 38 -98 0
37 28 34 26 36 38 -100 0
37 28 34 26 36 38 -97 0
37 28 34 26 36 38 -99 0
37 28 34 36 25 38 -98 0
37 28 34 36 25 38 -100 0
37 28 34 36 25 38 -97 0
37 28 34 36 25 38 -99 0
37 17 34 19 36 38 -86 0
37 17 34 19 36 38 -84 0
37 17 34 19 36 38 -85 0
37 17 34 19 36 38 -83 0
37 17 34 36 22 38 -86 0
37 17 34 36 22 38 -84 0
37 17 34 36 22 38 -85 0
37 17 34 36 22 38 -83 0
37 52 34 54 36 38 -116 0
37 52 34 54 36 38 -118 0
37 52 34 54 36 38 -115 0
37 52 34 54 36 38 -117 0
37 52 34 36 48 38 -116 0
37 52 34 36 48 38 -118 0
37 52 34 36 48 38 -115 0
37 52 34 36 48 38 -117 0
37 34 9 36 14 38 -66 0
37 34 9 36 14 38 -67 0
37 34 9 36 14 38 -68 0
37 34 9 36 14 38 -65 0
37 34 9 36 38 13 -66 0
37 34 9 36 38 13 -67 0
37 34 9 36 38 13 -68 0
37 34 9 36 38 13 -65 0
37 34 2 36 5 38 -35 0
37 34 2 36 5 38 -31 0
37 34 2 36 5 38 -32 0
37 34 2 36 5 38 -33 0
37 34 41 36 45 38 -113 0
37 34 41 36 45 38 -112 0
37 34 41 36 45 38 -111 0
37 34 41 36 45 38 -114 0
37 34 26 36 25 38 -98 0
37 34 26 36 25 38 -100 0
37 34 26 36 25 38 -97 0
37 34 26 36 25 38 -99 0
37 34 19 36 22 38 -86 0
37 34 19 36 22 38 -84 0
37 34 19 36 22 38 -85 0
37 34 19 36 22 38 -83 0
37 34 54 36 48 38 -116 0
37 34 54 36 48 38 -118 0
37 34 54 36 48 38 -115 0
37 34 54 36 48 38 -117 0
37 34 36 14 38 13 -66 0
37 34 36 14 38 13 -67 0
37 34 36 14 38 13 -68 0
37 34 36 14 38 13 -65 0
12 6 9 2 14 13 -8 0
12 6 9 2 14 13 -11 0
12 6 9 2 14 13 -7 0
12 6 9 2 14 13 -10 0
12 6 9 14 5 13 -8 0
12 6 9 14 5 13 -11 0
12 6 9 14 5 13 -7 0
12 6 9 14 5 13 -10 0
12 44 9 41 14 13 -71 0
12 44 9 41 14 13 -69 0
12 44 9 41 14 13 -70 0
12 44 9 41 14 13 -72 0
12 44 9 14 45 13 -71 0
12 44 9 14 45 13 -69 0
12 44 9 14 45 13 -70 0
12 44 9 14 45 13 -72 0
12 28 9 26 14 13 -64 0
12 28 9 26 14 13 -62 0
12 28 9 26 14 13 -61 0
12 28 9 26 14 13 -63 0
12 28 9 14 25 13 -64 0
12 28 9 14 25 13 -62 0
12 28 9 14 25 13 -61 0
12 28 9 14 25 13 -63 0
12 17 9 19 14 13 -58 0
12 17 9 19 14 13 -59 0
12 17 9 19 14 13 -57 0
12 17 9 19 14 13 -60 0
12 17 9 14 22 13 -58 0
12 17 9 14 22 13 -59 0
12 17 9 14 22 13 -57 0
12 17 9 14 22 13 -60 0
12 52 9 54 14 13 -75 0
12 52 9 54 14 13 -76 0
12 52 9 54 14 13 -74 0
12 52 9 54 14 13 -73 0
12 52 9 14 48 13 -75 0
12 52 9 14 48 13 -76 0
12 52 9 14 48 13 -74 0
12 52 9 14 48 13 -73 0
12 34 9 36 14 13 -66 0
12 34 9 36 14 13 -67 0
12 34 9 36 14 13 -68 0
12 34 9 36 14 13 -65 0
12 34 9 14 38 13 -66 0
12 34 9 14 38 13 -67 0
12 34 9 14 38 13 -68 0
12 34 9 14 38 13 -65 0
12 9 2 14 5 13 -8 0
12 9 2 14 5 13 -11 0
12 9 2 14 5 13 -7 0
12 9 2 14 5 13 -10 0
12 9 41 14 45 13 -71 0
12 9 41 14 45 13 -69 0
12 9 41 14 45 13 -70 0
12 9 41 14 45 13 -72 0
12 9 26 14 25 13 -64 0
12 9 26 14 25 13 -62 0
12 9 26 14 25 13 -61 0
12 9 26 14 25 13 -63 0
12 9 19 14 22 13 -58 0
12 9 19 14 22 13 -59 0
12 9 19 14 22 13 -57 0
12 9 19 14 22 13 -60 0
12 9 54 14 48 13 -75 0
12 9 54 14 48 13 -76 0
12 9 54 14 48 13 -74 0
12 9 54 14 48 13 -73 0
12 9 36 14 38 13 -66 0
12 9 36 14 38 13 -67 0
12 9 36 14 38 13 -68 0
12 9 36 14 38 13 -65 0
6 44 2 41 5 45 -40 0
6 44 2 41 5 45 -46 0
6 44 2 41 5 45 -39 0
6 44 2 41 5 45 -42 0
6 28 2 26 5 25 -29 0
6 28 2 26 5 25 -30 0
6 28 2 26 5 25 -24 0
6 28 2 26 5 25 -27 0
6 17 2 19 5 22 -18 0
6 17 2 19 5 22 -16 0
6 17 2 19 5 22 -20 0
6 17 2 19 5 22 -15 0
6 52 2 54 5 48 -49 0
6 52 2 54 5 48 -53 0
6 52 2 54 5 48 -51 0
6 52 2 54 5 48 -50 0
6 34 2 36 5 38 -35 0
6 34 2 36 5 38 -31 0
6 34 2 36 5 38 -32 0
6 34 2 36 5 38 -33 0
6 9 2 14 5 13 -8 0
6 9 2 14 5 13 -11 0
6 9 2 14 5 13 -7 0
6 9 2 14 5 13 -10 0
44 28 41 26 45 25 -102 0
44 28 41 26 45 25 -104 0
44 28 41 26 45 25 -101 0
44 28 41 26 45 25 -103 0
44 17 41 19 45 22 -90 0
44 17 41 19 45 22 -87 0
44 17 41 19 45 22 -88 0
44 17 41 19 45 22 -89 0
44 52 41 54 45 48 -123 0
44 52 41 54 45 48 -122 0
44 52 41 54 45 48 -121 0
44 52 41 54 45 48 -124 0
44 34 41 36 45 38 -113 0
44 34 41 36 45 38 -112 0
44 34 41 36 45 38 -111 0
44 34 41 36 45 38 -114 0
44 9 41 14 45 13 -71 0
44 9 41 14 45 13 -69 0
44 9 41 14 45 13 -70 0
44 9 41 14 45 13 -72 0
28 17 26 19 25 22 -79 0
28 17 26 19 25 22 -80 0
28 17 26 19 25 22 -81 0
28 17 26 19 25 22 -82 0
28 52 26 54 25 48 -107 0
28 52 26 54 25 48 -108 0
28 52 26 54 25 48 -105 0
28 52 26 54 25 48 -106 0
28 34 26 36 25 38 -98 0
28 34 26 36 25 38 -100 0
28 34 26 36 25 38 -97 0
28 34 26 36 25 38 -99 0
28 9 26 14 25 13 -64 0
28 9 26 14 25 13 -62 0
28 9 26 14 25 13 -61 0
28 9 26 14 25 13 -63 0
17 52 19 54 22 48 -91 0
17 52 19 54 22 48 -94 0
17 52 19 54 22 48 -92 0
17 52 19 54 22 48 -93 0
17 34 19 36 22 38 -86 0
17 34 19 36 22 38 -84 0
17 34 19 36 22 38 -85 0
17 34 19 36 22 38 -83 0
17 9 19 14 22 13 -58 0
17 9 19 14 22 13 -59 0
17 9 19 14 22 13 -57 0
17 9 19 14 22 13 -60 0
52 34 54 36 48 38 -116 0
52 34 54 36 48 38 -118 0
52 34 54 36 48 38 -115 0
52 34 54 36 48 38 -117 0
52 9 54 14 48 13 -75 0
52 9 54 14 48 13 -76 0
52 9 54 14 48 13 -74 0
52 9 54 14 48 13 -73 0
34 9 36 14 38 13 -66 0
34 9 36 14 38 13 -67 0
34 9 36 14 38 13 -68 0
34 9 36 14 38 13 -65 0
4 43 6 44 2 41 5 -40 0
4 43 6 44 2 41 5 -46 0
4 43 6 44 2 41 5 -39 0
4 43 6 44 2 41 5 -42 0
4 43 6 44 2 41 45 -40 0
4 43 6 44 2 41 45 -46 0
4 43 6 44 2 41 45 -39 0
4 43 6 44 2 41 45 -42 0
4 43 6 44 2 5 45 -40 0
4 43 6 44 2 5 45 -46 0
4 43 6 44 2 5 45 -39 0
4 43 6 44 2 5 45 -42 0
4 43 6 44 41 5 45 -40 0
4 43 6 44 41 5 45 -46 0
4 43 6 44 41 5 45 -39 0
4 43 6 44 41 5 45 -42 0
4 43 6 2 41 5 45 -40 0
4 43 6 2 41 5 45 -46 0
4 43 6 2 41 5 45 -39 0
4 43 6 2 41 5 45 -42 0
4 43 44 2 41 5 45 -40 0
4 43 44 2 41 5 45 -46 0
4 43 44 2 41 5 45 -39 0
4 43 44 2 41 5 45 -42 0
4 23 6 28 2 26 5 -29 0
4 23 6 28 2 26 5 -30 0
4 23 6 28 2 26 5 -24 0
4 23 6 28 2 26 5 -27 0
4 23 6 28 2 26 25 -29 0
4 23 6 28 2 26 25 -30 0
4 23 6 28 2 26 25 -24 0
4 23 6 28 2 26 25 -27 0
4 23 6 28 2 5 25 -29 0
4 23 6 28 2 5 25 -30 0
4 23 6 28 2 5 25 -24 0
4 23 6 28 2 5 25 -27 0
4 23 6 28 26 5 25 -29 0
4 23 6 28 26 5 25 -30 0
4 23 6 28 26 5 25 -24 0
4 23 6 28 26 5 25 -27 0
4 23 6 2 26 5 25 -29 0
4 23 6 2 26 5 25 -30 0
4 23 6 2 26 5 25 -24 0
4 23 6 2 26 5 25 -27 0
4 23 28 2 26 5 25 -29 0
4 23 28 2 26 5 25 -30 0
4 23 28 2 26 5 25 -24 0
4 23 28 2 26 5 25 -27 0
4 21 6 17 2 19 5 -18 0
4 21 6 17 2 19 5 -16 0
4 21 6 17 2 19 5 -20 0
4 21 6 17 2 19 5 -15 0
4 21 6 17 2 19 22 -18 0
4 21 6 17 2 19 22 -16 0
4 21 6 17 2 19 22 -20 0
4 21 6 17 2 19 22 -15 0
4 21 6 17 2 5 22 -18 0
4 21 6 17 2 5 22 -16 0
4 21 6 17 2 5 22 -20 0
4 21 6 17 2 5 22 -15 0
4 21 6 17 19 5 22 -18 0
4 21 6 17 19 5 22 -16 0
4 21 6 17 19 5 22 -20 0
4 21 6 17 19 5 22 -15 0
4 21 6 2 19 5 22 -18 0
4 21 6 2 19 5 22 -16 0
4 21 6 2 19 5 22 -20 0
4 21 6 2 19 5 22 -15 0
4 21 17 2 19 5 22 -18 0
4 21 17 2 19 5 22 -16 0
4 21 17 2 19 5 22 -20 0
4 21 17 2 19 5 22 -15 0
4 47 6 52 2 54 5 -49 0
4 47 6 52 2 54 5 -53 0
4 47 6 52 2 54 5 -51 0
4 47 6 52 2 54 5 -50 0
4 47 6 52 2 54 48 -49 0
4 47 6 52 2 54 48 -53 0
4 47 6 52 2 54 48 -51 0
4 47 6 52 2 54 48 -50 0
4 47 6 52 2 5 48 -49 0
4 47 6 52 2 5 48 -53 0
4 47 6 52 2 5 48 -51 0
4 47 6 52 2 5 48 -50 0
4 47 6 52 54 5 48 -49 0
4 47 6 52 54 5 48 -53 0
4 47 6 52 54 5 48 -51 0
4 47 6 52 54 5 48 -50 0
4 47 6 2 54 5 48 -49 0
4 47 6 2 54 5 48 -53 0
4 47 6 2 54 5 48 -51 0
4 47 6 2 54 5 48 -50 0
4 47 52 2 54 5 48 -49 0
4 47 52 2 54 5 48 -53 0
4 47 52 2 54 5 48 -51 0
4 47 52 2 54 5 48 -50 0
4 37 6 34 2 36 5 -35 0
4 37 6 34 2 36 5 -31 0
4 37 6 34 2 36 5 -32 0
4 37 6 34 2 36 5 -33 0
4 37 6 34 2 36 38 -35 0
4 37 6 34 2 36 38 -31 0
4 37 6 34 2 36 38 -32 0
4 37 6 34 2 36 38 -33 0
4 37 6 34 2 5 38 -35 0
4 37 6 34 2 5 38 -31 0
4 37 6 34 2 5 38 -32 0
4 37 6 34 2 5 38 -33 0
4 37 6 34 36 5 38 -35 0
4 37 6 34 36 5 38 -31 0
4 37 6 34 36 5 38 -32 0
4 37 6 34 36 5 38 -33 0
4 37 6 2 36 5 38 -35 0
4 37 6 2 36 5 38 -31 0
4 37 6 2 36 5 38 -32 0
4 37 6 2 36 5 38 -33 0
4 37 34 2 36 5 38 -35 0
4 37 34 2 36 5 38 -31 0
4 37 34 2 36 5 38 -32 0
4 37 34 2 36 5 38 -33 0
4 12 6 9 2 14 5 -8 0
4 12 6 9 2 14 5 -11 0
4 12 6 9 2 14 5 -7 0
4 12 6 9 2 14 5 -10 0
4 12 6 9 2 14 13 -8 0
4 12 6 9 2 14 13 -11 0
4 12 6 9 2 14 13 -7 0
4 12 6 9 2 14 13 -10 0
4 12 6 9 2 5 13 -8 0
4 12 6 9 2 5 13 -11 0
4 12 6 9 2 5 13 -7 0
4 12 6 9 2 5 13 -10 0
4 12 6 9 14 5 13 -8 0
4 12 6 9 14 5 13 -11 0
4 12 6 9 14 5 13 -7 0
4 12 6 9 14 5 13 -10 0
4 12 6 2 14 5 13 -8 0
4 12 6 2 14 5 13 -11 0
4 12 6 2 14 5 13 -7 0
4 12 6 2 14 5 13 -10 0
4 12 9 2 14 5 13 -8 0
4 12 9 2 14 5 13 -11 0
4 12 9 2 14 5 13 -7 0
4 12 9 2 14 5 13 -10 0
4 6 44 2 41 5 45 -40 0
4 6 44 2 41 5 45 -46 0
4 6 44 2 41 5 45 -39 0
4 6 44 2 41 5 45 -42 0
4 6 28 2 26 5 25 -29 0
4 6 28 2 26 5 25 -30 0
4 6 28 2 26 5 25 -24 0
4 6 28 2 26 5 25 -27 0
4 6 17 2 19 5 22 -18 0
4 6 17 2 19 5 22 -16 0
4 6 17 2 19 5 22 -20 0
4 6 17 2 19 5 22 -15 0
4 6 52 2 54 5 48 -49 0
4 6 52 2 54 5 48 -53 0
4 6 52 2 54 5 48 -51 0
4 6 52 2 54 5 48 -50 0
4 6 34 2 36 5 38 -35 0
4 6 34 2 36 5 38 -31 0
4 6 34 2 36 5 38 -32 0
4 6 34 2 36 5 38 -33 0
4 6 9 2 14 5 13 -8 0
4 6 9 2 14 5 13 -11 0
4 6 9 2 14 5 13 -7 0
4 6 9 2 14 5 13 -10 0
43 23 44 28 41 26 45 -102 0
43 23 44 28 41 26 45 -104 0
43 23 44 28 41 26 45 -101 0
43 23 44 28 41 26 45 -103 0
43 23 44 28 41 26 25 -102 0
43 23 44 28 41 26 25 -104 0
43 23 44 28 41 26 25 -101 0
43 23 44 28 41 26 25 -103 0
43 23 44 28 41 45 25 -102 0
43 23 44 28 41 45 25 -104 0
43 23 44 28 41 45 25 -101 0
43 23 44 28 41 45 25 -103 0
43 23 44 28 26 45 25 -102 0
43 23 44 28 26 45 25 -104 0
43 23 44 28 26 45 25 -101 0
43 23 44 28 26 45 25 -103 0
43 23 44 41 26 45 25 -102 0
43 23 44 41 26 45 25 -104 0
43 23 44 41 26 45 25 -101 0
43 23 44 41 26 45 25 -103 0
43 23 28 41 26 45 25 -102 0
43 23 28 41 26 45 25 -104 0
43 23 28 41 26 45 25 -101 0
43 23 28 41 26 45 25 -103 0
43 21 44 17 41 19 45 -90 0
43 21 44 17 41 19 45 -87 0
43 21 44 17 41 19 45 -88 0
43 21 44 17 41 19 45 -89 0
43 21 44 17 41 19 22 -90 0
43 21 44 17 41 19 22 -87 0
43 21 44 17 41 19 22 -88 0
43 21 44 17 41 19 22 -89 0
43 21 44 17 41 45 22 -90 0
43 21 44 17 41 45 22 -87 0
43 21 44 17 41 45 22 -88 0
43 21 44 17 41 45 22 -89 0
43 21 44 17 19 45 22 -90 0
43 21 44 17 19 45 22 -87 0
43 21 44 17 19 45 22 -88 0
43 21 44 17 19 45 22 -89 0
43 21 44 41 19 45 22 -90 0
43 21 44 41 19 45 22 -87 0
43 21 44 41 19 45 22 -88 0
43 21 44 41 19 45 22 -89 0
43 21 17 41 19 45 22 -90 0
43 21 17 41 19 45 22 -87 0
43 21 17 41 19 45 22 -88 0
43 21 17 41 19 45 22 -89 0
43 47 44 52 41 54 45 -123 0
43 47 44 52 41 54 45 -122 0
43 47 44 52 41 54 45 -121 0
43 47 44 52 41 54 45 -124 0
43 47 44 52 41 54 48 -123 0
43 47 44 52 41 54 48 -122 0
43 47 44 52 41 54 48 -121 0
43 47 44 52 41 54 48 -124 0
43 47 44 52 41 45 48 -123 0
43 47 44 52 41 45 48 -122 0
43 47 44 52 41 45 48 -121 0
43 47 44 52 41 45 48 -124 0
43 47 44 52 54 45 48 -123 0
43 47 44 52 54 45 48 -122 0
43 47 44 52 54 45 48 -121 0
43 47 44 52 54 45 48 -124 0
43 47 44 41 54 45 48 -123 0
43 47 44 41 54 45 48 -122 0
43 47 44 41 54 45 48 -121 0
43 47 44 41 54 45 48 -124 0
43 47 52 41 54 45 48 -123 0
43 47 52 41 54 45 48 -122 0
43 47 52 41 54 45 48 -121 0
43 47 52 41 54 45 48 -124 0
43 37 44 34 41 36 45 -113 0
43 37 44 34 41 36 45 -112 0
43 37 44 34 41 36 45 -111 0
43 37 44 34 41 36 45 -114 0
43 37 44 34 41 36 38 -113 0
43 37 44 34 41 36 38 -112 0
43 37 44 34 41 36 38 -111 0
43 37 44 34 41 36 38 -114 0
43 37 44 34 41 45 38 -113 0
43 37 44 34 41 45 38 -112 0
43 37 44 34 41 45 38 -111 0
43 37 44 34 41 45 38 -114 0
43 37 44 34 36 45 38 -113 0
43 37 44 34 36 45 38 -112 0
43 37 44 34 36 45 38 -111 0
43 37 44 34 36 45 38 -114 0
43 37 44 41 36 45 38 -113 0
43 37 44 41 36 45 38 -112 0
43 37 44 41 36 45 38 -111 0
43 37 44 41 36 45 38 -114 0
43 37 34 41 36 45 38 -113 0
43 37 34 41 36 45 38 -112 0
43 37 34 41 36 45 38 -111 0
43 37 34 41 36 45 38 -114 0
43 12 44 9 41 14 45 -71 0
43 12 44 9 41 14 45 -69 0
43 12 44 9 41 14 45 -70 0
43 12 44 9 41 14 45 -72 0
43 12 44 9 41 14 13 -71 0
43 12 44 9 41 14 13 -69 0
43 12 44 9 41 14 13 -70 0
43 12 44 9 41 14 13 -72 0
43 12 44 9 41 45 13 -71 0
43 12 44 9 41 45 13 -69 0
43 12 44 9 41 45 13 -70 0
43 12 44 9 41 45 13 -72 0
43 12 44 9 14 45 13 -71 0
43 12 44 9 14 45 13 -69 0
43 12 44 9 14 45 13 -70 0
43 12 44 9 14 45 13 -72 0
43 12 44 41 14 45 13 -71 0
43 12 44 41 14 45 13 -69 0
43 12 44 41 14 45 13 -70 0
43 12 44 41 14 45 13 -72 0
43 12 9 41 14 45 13 -71 0
43 12 9 41 14 45 13 -69 0
43 12 9 41 14 45 13 -70 0
43 12 9 41 14 45 13 -72 0
43 6 44 2 41 5 45 -40 0
43 6 44 2 41 5 45 -46 0
43 6 44 2 41 5 45 -39 0
43 6 44 2 41 5 45 -42 0
43 44 28 41 26 45 25 -102 0
43 44 28 41 26 45 25 -104 0
43 44 28 41 26 45 25 -101 0
43 44 28 41 26 45 25 -103 0
43 44 17 41 19 45 22 -90 0
43 44 17 41 19 45 22 -87 0
43 44 17 41 19 45 22 -88 0
43 44 17 41 19 45 22 -89 0
43 44 52 41 54 45 48 -123 0
43 44 52 41 54 45 48 -122 0
43 44 52 41 54 45 48 -121 0
43 44 52 41 54 45 48 -124 0
43 44 34 41 36 45 38 -113 0
43 44 34 41 36 45 38 -112 0
43 44 34 41 36 45 38 -111 0
43 44 34 41 36 45 38 -114 0
43 44 9 41 14 45 13 -71 0
43 44 9 41 14 45 13 -69 0
43 44 9 41 14 45 13 -70 0
43 44 9 41 14 45 13 -72 0
23 21 28 17 26 19 25 -79 0
23 21 28 17 26 19 25 -80 0
23 21 28 17 26 19 25 -81 0
23 21 28 17 26 19 25 -82 0
23 21 28 17 26 19 22 -79 0
23 21 28 17 26 19 22 -80 0
23 21 28 17 26 19 22 -81 0
23 21 28 17 26 19 22 -82 0
23 21 28 17 26 25 22 -79 0
23 21 28 17 26 25 22 -80 0
23 21 28 17 26 25 22 -81 0
23 21 28 17 26 25 22 -82 0
23 21 28 17 19 25 22 -79 0
23 21 28 17 19 25 22 -80 0
23 21 28 17 19 25 22 -81 0
23 21 28 17 19 25 22 -82 0
23 21 28 26 19 25 22 -79 0
23 21 28 26 19 25 22 -80 0
23 21 28 26 19 25 22 -81 0
23 21 28 26 19 25 22 -82 0
23 21 17 26 19 25 22 -79 0
23 21 17 26 19 25 22 -80 0
23 21 17 26 19 25 22 -81 0
23 21 17 26 19 25 22 -82 0
23 47 28 52 26 54 25 -107 0
23 47 28 52 26 54 25 -108 0
23 47 28 52 26 54 25 -105 0
23 47 28 52 26 54 25 -106 0
23 47 28 52 26 54 48 -107 0
23 47 28 52 26 54 48 -108 0
23 47 28 52 26 54 48 -105 0
23 47 28 52 26 54 48 -106 0
23 47 28 52 26 25 48 -107 0
23 47 28 52 26 25 48 -108 0
23 47 28 52 26 25 48 -105 0
23 47 28 52 26 25 48 -106 0
23 47 28 52 54 25 48 -107 0
23 47 28 52 54 25 48 -108 0
23 47 28 52 54 25 48 -105 0
23 47 28 52 54 25 48 -106 0
23 47 28 26 54 25 48 -107 0
23 47 28 26 54 25 48 -108 0
23 47 28 26 54 25 48 -105 0
23 47 28 26 54 25 48 -106 0
23 47 52 26 54 25 48 -107 0
23 47 52 26 54 25 48 -108 0
23 47 52 26 54 25 48 -105 0
23 47 52 26 54 25 48 -106 0
23 37 28 34 26 36 25 -98 0
23 37 28 34 26 36 25 -100 0
23 37 28 34 26 36 25 -97 0
23 37 28 34 26 36 25 -99 0
23 37 28 34 26 36 38 -98 0
23 37 28 34 26 36 38 -100 0
23 37 28 34 26 36 38 -97 0
23 37 28 34 26 36 38 -99 0
23 37 28 34 26 25 38 -98 0
23 37 28 34 26 25 38 -100 0
23 37 28 34 26 25 38 -97 0
23 37 28 34 26 25 38 -99 0
23 37 28 34 36 25 38 -98 0
23 37 28 34 36 25 38 -100 0
23 37 28 34 36 25 38 -97 0
23 37 28 34 36 25 38 -99 0
23 37 28 26 36 25 38 -98 0
23 37 28 26 36 25 38 -100 0
23 37 28 26 36 25 38 -97 0
23 37 28 26 36 25 38 -99 0
23 37 34 26 36 25 38 -98 0
23 37 34 26 36 25 38 -100 0
23 37 34 26 36 25 38 -97 0
23 37 34 26 36 25 38 -99 0
23 12 28 9 26 14 25 -64 0
23 12 28 9 26 14 25 -62 0
23 12 28 9 26 14 25 -61 0
23 12 28 9 26 14 25 -63 0
23 12 28 9 26 14 13 -64 0
23 12 28 9 26 14 13 -62 0
23 12 28 9 26 14 13 -61 0
23 12 28 9 26 14 13 -63 0
23 12 28 9 26 25 13 -64 0
23 12 28 9 26 25 13 -62 0
23 12 28 9 26 25 13 -61 0
23 12 28 9 26 25 13 -63 0
23 12 28 9 14 25 13 -64 0
23 12 28 9 14 25 13 -62 0
23 12 28 9 14 25 13 -61 0
23 12 28 9 14 25 13 -63 0
23 12 28 26 14 25 13 -64 0
23 12 28 26 14 25 13 -62 0
23 12 28 26 14 25 13 -61 0
23 12 28 26 14 25 13 -63 0
23 12 9 26 14 25 13 -64 0
23 12 9 26 14 25 13 -62 0
23 12 9 26 14 25 13 -61 0
23 12 9 26 14 25 13 -63 0
23 6 28 2 26 5 25 -29 0
23 6 28 2 26 5 25 -30 0
23 6 28 2 26 5 25 -24 0
23 6 28 2 26 5 25 -27 0
23 44 28 41 26 45 25 -102 0
23 44 28 41 26 45 25 -104 0
23 44 28 41 26 45 25 -101 0
23 44 28 41 26 45 25 -103 0
23 28 17 26 19 25 22 -79 0
23 28 17 26 19 25 22 -80 0
23 28 17 26 19 25 22 -81 0
23 28 17 26 19 25 22 -82 0
23 28 52 26 54 25 48 -107 0
23 28 52 26 54 25 48 -108 0
23 28 52 26 54 25 48 -105 0
23 28 52 26 54 25 48 -106 0
23 28 34 26 36 25 38 -98 0
23 28 34 26 36 25 38 -100 0
23 28 34 26 36 25 38 -97 0
23 28 34 26 36 25 38 -99 0
23 28 9 26 14 25 13 -64 0
23 28 9 26 14 25 13 -62 0
23 28 9 26 14 25 13 -61 0
23 28 9 26 14 25 13 -63 0
21 47 17 52 19 54 22 -91 0
21 47 17 52 19 54 22 -94 0
21 47 17 52 19 54 22 -92 0
21 47 17 52 19 54 22 -93 0
21 47 17 52 19 54 48 -91 0
21 47 17 52 19 54 48 -94 0
21 47 17 52 19 54 48 -92 0
21 47 17 52 19 54 48 -93 0
21 47 17 52 19 22 48 -91 0
21 47 17 52 19 22 48 -94 0
21 47 17 52 19 22 48 -92 0
21 47 17 52 19 22 48 -93 0
21 47 17 52 54 22 48 -91 0
21 47 17 52 54 22 48 -94 0
21 47 17 52 54 22 48 -92 0
21 47 17 52 54 22 48 -93 0
21 47 17 19 54 22 48 -91 0
21 47 17 19 54 22 48 -94 0
21 47 17 19 54 22 48 -92 0
21 47 17 19 54 22 48 -93 0
21 47 52 19 54 22 48 -91 0
21 47 52 19 54 22 48 -94 0
21 47 52 19 54 22 48 -92 0
21 47 52 19 54 22 48 -93 0
21 37 17 34 19 36 22 -86 0
21 37 17 34 19 36 22 -84 0
21 37 17 34 19 36 22 -85 0
21 37 17 34 19 36 22 -83 0
21 37 17 34 19 36 38 -86 0
21 37 17 34 19 36 38 -84 0
21 37 17 34 19 36 38 -85 0
21 37 17 34 19 36 38 -83 0
21 37 17 34 19 22 38 -86 0
21 37 17 34 19 22 38 -84 0
21 37 17 34 19 22 38 -85 0
21 37 17 34 19 22 38 -83 0
21 37 17 34 36 22 38 -86 0
21 37 17 34 36 22 38 -84 0
21 37 17 34 36 22 38 -85 0
21 37 17 34 36 22 38 -83 0
21 37 17 19 36 22 38 -86 0
21 37 17 19 36 22 38 -84 0
21 37 17 19 36 22 38 -85 0
21 37 17 19 36 22 38 -83 0
21 37 34 19 36 22 38 -86 0
21 37 34 19 36 22 38 -84 0
21 37 34 19 36 22 38 -85 0
21 37 34 19 36 22 38 -83 0
21 12 17 9 19 14 22 -58 0
21 12 17 9 19 14 22 -59 0
21 12 17 9 19 14 22 -57 0
21 12 17 9 19 14 22 -60 0
21 12 17 9 19 14 13 -58 0
21 12 17 9 19 14 13 -59 0
21 12 17 9 19 14 13 -57 0
21 12 17 9 19 14 13 -60 0
21 12 17 9 19 22 13 -58 0
21 12 17 9 19 22 13 -59 0
21 12 17 9 19 22 13 -57 0
21 12 17 9 19 22 13 -60 0
21 12 17 9 14 22 13 -58 0
21 12 17 9 14 22 13 -59 0
21 12 17 9 14 22 13 -57 0
21 12 17 9 14 22 13 -60 0
21 12 17 19 14 22 13 -58 0
21 12 17 19 14 22 13 -59 0
21 12 17 19 14 22 13 -57 0
21 12 17 19 14 22 13 -60 0
21 12 9 19 14 22 13 -58 0
21 12 9 19 14 22 13 -59 0
21 12 9 19 14 22 13 -57 0
21 12 9 19 14 22 13 -60 0
21 6 17 2 19 5 22 -18 0
21 6 17 2 19 5 22 -16 0
21 6 17 2 19 5 22 -20 0
21 6 17 2 19 5 22 -15 0
21 44 17 41 19 45 22 -90 0
21 44 17 41 19 45 22 -87 0
21 44 17 41 19 45 22 -88 0
21 44 17 41 19 45 22 -89 0
21 28 17 26 19 25 22 -79 0
21 28 17 26 19 25 22 -80 0
21 28 17 26 19 25 22 -81 0
21 28 17 26 19 25 22 -82 0
21 17 52 19 54 22 48 -91 0
21 17 52 19 54 22 48 -94 0
21 17 52 19 54 22 48 -92 0
21 17 52 19 54 22 48 -93 0
21 17 34 19 36 22 38 -86 0
21 17 34 19 36 22 38 -84 0
21 17 34 19 36 22 38 -85 0
21 17 34 19 36 22 38 -83 0
21 17 9 19 14 22 13 -58 0
21 17 9 19 14 22 13 -59 0
21 17 9 19 14 22 13 -57 0
21 17 9 19 14 22 13 -60 0
47 37 52 34 54 36 48 -116 0
47 37 52 34 54 36 48 -118 0
47 37 52 34 54 36 48 -115 0
47 37 52 34 54 36 48 -117 0
47 37 52 34 54 36 38 -116 0
47 37 52 34 54 36 38 -118 0
47 37 52 34 54 36 38 -115 0
47 37 52 34 54 36 38 -117 0
47 37 52 34 54 48 38 -116 0
47 37 52 34 54 48 38 -118 0
47 37 52 34 54 48 38 -115 0
47 37 52 34 54 48 38 -117 0
47 37 52 34 36 48 38 -116 0
47 37 52 34 36 48 38 -118 0
47 37 52 34 36 48 38 -115 0
47 37 52 34 36 48 38 -117 0
47 37 52 54 36 48 38 -116 0
47 37 52 54 36 48 38 -118 0
47 37 52 54 36 48 38 -115 0
47 37 52 54 36 48 38 -117 0
47 37 34 54 36 48 38 -116 0
47 37 34 54 36 48 38 -118 0
47 37 34 54 36 48 38 -115 0
47 37 34 54 36 48 38 -117 0
47 12 52 9 54 14 48 -75 0
47 12 52 9 54 14 48 -76 0
47 12 52 9 54 14 48 -74 0
47 12 52 9 54 14 48 -73 0
47 12 52 9 54 14 13 -75 0
47 12 52 9 54 14 13 -76 0
47 12 52 9 54 14 13 -74 0
47 12 52 9 54 14 13 -73 0
47 12 52 9 54 48 13 -75 0
47 12 52 9 54 48 13 -76 0
47 12 52 9 54 48 13 -74 0
47 12 52 9 54 48 13 -73 0
47 12 52 9 14 48 13 -75 0
47 12 52 9 14 48 13 -76 0
47 12 52 9 14 48 13 -74 0
47 12 52 9 14 48 13 -73 0
47 12 52 54 14 48 13 -75 0
47 12 52 54 14 48 13 -76 0
47 12 52 54 14 48 13 -74 0
47 12 52 54 14 48 13 -73 0
47 12 9 54 14 48 13 -75 0
47 12 9 54 14 48 13 -76 0
47 12 9 54 14 48 13 -74 0
47 12 9 54 14 48 13 -73 0
47 6 52 2 54 5 48 -49 0
47 6 52 2 54 5 48 -53 0
47 6 52 2 54 5 48 -51 0
47 6 52 2 54 5 48 -50 0
47 44 52 41 54 45 48 -123 0
47 44 52 41 54 45 48 -122 0
47 44 52 41 54 45 48 -121 0
47 44 52 41 54 45 48 -124 0
47 28 52 26 54 25 48 -107 0
47 28 52 26 54 25 48 -108 0
47 28 52 26 54 25 48 -105 0
47 28 52 26 54 25 48 -106 0
47 17 52 19 54 22 48 -91 0
47 17 52 19 54 22 48 -94 0
47 17 52 19 54 22 48 -92 0
47 17 52 19 54 22 48 -93 0
47 52 34 54 36 48 38 -116 0
47 52 34 54 36 48 38 -118 0
47 52 34 54 36 48 38 -115 0
47 52 34 54 36 48 38 -117 0
47 52 9 54 14 48 13 -75 0
47 52 9 54 14 48 13 -76 0
47 52 9 54 14 48 13 -74 0
47 52 9 54 14 48 13 -73 0
37 12 34 9 36 14 38 -66 0
37 12 34 9 36 14 38 -67 0
37 12 34 9 36 14 38 -68 0
37 12 34 9 36 14 38 -65 0
37 12 34 9 36 14 13 -66 0
37 12 34 9 36 14 13 -67 0
37 12 34 9 36 14 13 -68 0
37 12 34 9 36 14 13 -65 0
37 12 34 9 36 38 13 -66 0
37 12 34 9 36 38 13 -67 0
37 12 34 9 36 38 13 -68 0
37 12 34 9 36 38 13 -65 0
37 12 34 9 14 38 13 -66 0
37 12 34 9 14 38 13 -67 0
37 12 34 9 14 38 13 -68 0
37 12 34 9 14 38 13 -65 0
37 12 34 36 14 38 13 -66 0
37 12 34 36 14 38 13 -67 0
37 12 34 36 14 38 13 -68 0
37 12 34 36 14 38 13 -65 0
37 12 9 36 14 38 13 -66 0
37 12 9 36 14 38 13 -67 0
37 12 9 36 14 38 13 -68 0
37 12 9 36 14 38 13 -65 0
37 6 34 2 36 5 38 -35 0
37 6 34 2 36 5 38 -31 0
37 6 34 2 36 5 38 -32 0
37 6 34 2 36 5 38 -33 0
37 44 34 41 36 45 38 -113 0
37 44 34 41 36 45 38 -112 0
37 44 34 41 36 45 38 -111 0
37 44 34 41 36 45 38 -114 0
37 28 34 26 36 25 38 -98 0
37 28 34 26 36 25 38 -100 0
37 28 34 26 36 25 38 -97 0
37 28 34 26 36 25 38 -99 0
37 17 34 19 36 22 38 -86 0
37 17 34 19 36 22 38 -84 0
37 17 34 19 36 22 38 -85 0
37 17 34 19 36 22 38 -83 0
37 52 34 54 36 48 38 -116 0
37 52 34 54 36 48 38 -118 0
37 52 34 54 36 48 38 -115 0
37 52 34 54 36 48 38 -117 0
37 34 9 36 14 38 13 -66 0
37 34 9 36 14 38 13 -67 0
37 34 9 36 14 38 13 -68 0
37 34 9 36 14 38 13 -65 0
12 6 9 2 14 5 13 -8 0
12 6 9 2 14 5 13 -11 0
12 6 9 2 14 5 13 -7 0
12 6 9 2 14 5 13 -10 0
12 44 9 41 14 45 13 -71 0
12 44 9 41 14 45 13 -69 0
12 44 9 41 14 45 13 -70 0
12 44 9 41 14 45 13 -72 0
12 28 9 26 14 25 13 -64 0
12 28 9 26 14 25 13 -62 0
12 28 9 26 14 25 13 -61 0
12 28 9 26 14 25 13 -63 0
12 17 9 19 14 22 13 -58 0
12 17 9 19 14 22 13 -59 0
12 17 9 19 14 22 13 -57 0
12 17 9 19 14 22 13 -60 0
12 52 9 54 14 48 13 -75 0
12 52 9 54 14 48 13 -76 0
12 52 9 54 14 48 13 -74 0
12 52 9 54 14 48 13 -73 0
12 34 9 36 14 38 13 -66 0
12 34 9 36 14 38 13 -67 0
12 34 9 36 14 38 13 -68 0
12 34 9 36 14 38 13 -65 0
4 43 6 44 2 41 5 45 -40 0
4 43 6 44 2 41 5 45 -46 0
4 43 6 44 2 41 5 45 -39 0
4 43 6 44 2 41 5 45 -42 0
4 23 6 28 2 26 5 25 -29 0
4 23 6 28 2 26 5 25 -30 0
4 23 6 28 2 26 5 25 -24 0
4 23 6 28 2 26 5 25 -27 0
4 21 6 17 2 19 5 22 -18 0
4 21 6 17 2 19 5 22 -16 0
4 21 6 17 2 19 5 22 -20 0
4 21 6 17 2 19 5 22 -15 0
4 47 6 52 2 54 5 48 -49 0
4 47 6 52 2 54 5 48 -53 0
4 47 6 52 2 54 5 48 -51 0
4 47 6 52 2 54 5 48 -50 0
4 37 6 34 2 36 5 38 -35 0
4 37 6 34 2 36 5 38 -31 0
4 37 6 34 2 36 5 38 -32 0
4 37 6 34 2 36 5 38 -33 0
4 12 6 9 2 14 5 13 -8 0
4 12 6 9 2 14 5 13 -11 0
4 12 6 9 2 14 5 13 -7 0
4 12 6 9 2 14 5 13 -10 0
43 23 44 28 41 26 45 25 -102 0
43 23 44 28 41 26 45 25 -104 0
43 23 44 28 41 26 45 25 -101 0
43 23 44 28 41 26 45 25 -103 0
43 21 44 17 41 19 45 22 -90 0
43 21 44 17 41 19 45 22 -87 0
43 21 44 17 41 19 45 22 -88 0
43 21 44 17 41 19 45 22 -89 0
43 47 44 52 41 54 45 48 -123 0
43 47 44 52 41 54 45 48 -122 0
43 47 44 52 41 54 45 48 -121 0
43 47 44 52 41 54 45 48 -124 0
43 37 44 34 41 36 45 38 -113 0
43 37 44 34 41 36 45 38 -112 0
43 37 44 34 41 36 45 38 -111 0
43 37 44 34 41 36 45 38 -114 0
43 12 44 9 41 14 45 13 -71 0
43 12 44 9 41 14 45 13 -69 0
43 12 44 9 41 14 45 13 -70 0
43 12 44 9 41 14 45 13 -72 0
23 21 28 17 26 19 25 22 -79 0
23 21 28 17 26 19 25 22 -80 0
23 21 28 17 26 19 25 22 -81 0
23 21 28 17 26 19 25 22 -82 0
23 47 28 52 26 54 25 48 -107 0
23 47 28 52 26 54 25 48 -108 0
23 47 28 52 26 54 25 48 -105 0
23 47 28 52 26 54 25 48 -106 0
23 37 28 34 26 36 25 38 -98 0
23 37 28 34 26 36 25 38 -100 0
23 37 28 34 26 36 25 38 -97 0
23 37 28 34 26 36 25 38 -99 0
23 12 28 9 26 14 25 13 -64 0
23 12 28 9 26 14 25 13 -62 0
23 12 28 9 26 14 25 13 -61 0
23 12 28 9 26 14 25 13 -63 0
21 47 17 52 19 54 22 48 -91 0
21 47 17 52 19 54 22 48 -94 0
21 47 17 52 19 54 22 48 -92 0
21 47 17 52 19 54 22 48 -93 0
21 37 17 34 19 36 22 38 -86 0
21 37 17 34 19 36 22 38 -84 0
21 37 17 34 19 36 22 38 -85 0
21 37 17 34 19 36 22 38 -83 0
21 12 17 9 19 14 22 13 -58 0
21 12 17 9 19 14 22 13 -59 0
21 12 17 9 19 14 22 13 -57 0
21 12 17 9 19 14 22 13 -60 0
47 37 52 34 54 36 48 38 -116 0
47 37 52 34 54 36 48 38 -118 0
47 37 52 34 54 36 48 38 -115 0
47 37 52 34 54 36 48 38 -117 0
47 12 52 9 54 14 48 13 -75 0
47 12 52 9 54 14 48 13 -76 0
47 12 52 9 54 14 48 13 -74 0
47 12 52 9 54 14 48 13 -73 0
37 12 34 9 36 14 38 13 -66 0
37 12 34 9 36 14 38 13 -67 0
37 12 34 9 36 14 38 13 -68 0
37 12 34 9 36 14 38 13 -65 0
