c E1(2,2) E2(2,2) U3(2) U4(2) U2(2) U1(2) U1(0) U4(0) E2(0,2) E1(0,2) U2(0) E1(2,0) U3(0) E2(2,0) U2(1) U3(1) U1(1) U4(1) E2(2,1) E1(2,1) E2(1,2) E1(1,2) E2(4,2) U4(4) U1(4) E1(4,2) U2(4) E2(2,4) E1(2,4) U3(4) E2(6,2) E1(6,2) U2(6) E1(2,6) U3(6) U1(6) E2(2,6) U4(6) E2(5,2) U1(5) E2(2,5) U4(5) E1(2,5) U3(5) E1(5,2) U2(5) E1(2,3) U4(3) E2(3,2) U2(3) E1(3,2) U3(3) U1(3) E2(2,3) E2(7,2) E2(2,7) U4(7) E1(7,2) U2(7) E1(2,7) U3(7) U1(7) E2(0,0) E1(0,0) E2(1,0) E1(0,1) E1(1,0) E2(0,1) E1(4,0) E1(0,4) E2(4,0) E2(0,4) E1(0,6) E2(0,6) E2(6,0) E1(6,0) E2(5,0) E1(5,0) E1(0,5) E2(0,5) E1(0,3) E2(3,0) E1(3,0) E2(0,3) E1(7,0) E2(7,0) E1(0,7) E2(0,7) E2(1,1) E1(1,1) E2(4,1) E2(1,4) E1(4,1) E1(1,4) E1(6,1) E1(1,6) E2(6,1) E2(1,6) E2(5,1) E2(1,5) E1(1,5) E1(5,1) E1(1,3) E2(1,3) E1(3,1) E2(3,1) E1(1,7) E1(7,1) E2(1,7) E2(7,1) E2(4,4) E1(4,4) E2(6,4) E1(6,4) E2(4,6) E1(4,6) E2(4,5) E1(4,5) E2(5,4) E1(5,4) E1(3,4) E2(4,3) E1(4,3) E2(3,4) E2(7,4) E2(4,7) E1(7,4) E1(4,7) E1(6,6) E2(6,6) E2(6,5) E2(5,6) E1(6,5) E1(5,6) E2(3,6) E1(3,6) E2(6,3) E1(6,3) E2(6,7) E1(7,6) E2(7,6) E1(6,7) E2(5,5) E1(5,5) E2(3,5) E1(3,5) E1(5,3) E2(5,3) E2(7,5) E2(5,7) E1(5,7) E1(7,5) E2(3,3) E1(3,3) E2(7,3) E1(7,3) E1(3,7) E2(3,7) E2(7,7) E1(7,7)
c 1 2 3 4 5 6 7 8 9 10 11 12 13 14 15 16 17 18 19 20 21 22 23 24 25 26 27 28 29 30 31 32 33 34 35 36 37 38 39 40 41 42 43 44 45 46 47 48 49 50 51 52 53 54 55 56 57 58 59 60 61 62 63 64 65 66 67 68 69 70 71 72 73 74 75 76 77 78 79 80 81 82 83 84 85 86 87 88 89 90 91 92 93 94 95 96 97 98 99 100 101 102 103 104 105 106 107 108 109 110 111 112 113 114 115 116 117 118 119 120 121 122 123 124 125 126 127 128 129 130 131 132 133 134 135 136 137 138 139 140 141 142 143 144 145 146 147 148 149 150 151 152 153 154 155 156 157 158 159 160
p cnf 160 4264
64 -64 0
66 -67 0
10 -12 0
81 -83 0
70 -69 0
79 -78 0
73 -76 0
87 -85 0
67 -66 0
90 -90 0
22 -20 0
103 -105 0
94 -93 0
101 -102 0
96 -95 0
107 -108 0
12 -10 0
20 -22 0
1 -1 0
47 -51 0
29 -26 0
43 -45 0
34 -32 0
60 -58 0
83 -81 0
105 -103 0
51 -47 0
154 -154 0
121 -123 0
146 -147 0
136 -138 0
157 -156 0
69 -70 0
93 -94 0
26 -29 0
123 -121 0
112 -112 0
118 -120 0
116 -114 0
128 -127 0
78 -79 0
102 -101 0
45 -43 0
147 -146 0
120 -118 0
144 -144 0
134 -133 0
151 -152 0
76 -73 0
95 -96 0
32 -34 0
138 -136 0
114 -116 0
133 -134 0
129 -129 0
142 -140 0
85 -87 0
108 -107 0
58 -60 0
156 -157 0
127 -128 0
152 -151 0
140 -142 0
160 -160 0
63 -63 0
68 -65 0
9 -14 0
84 -82 0
72 -71 0
80 -77 0
74 -75 0
88 -86 0
65 -68 0
89 -89 0
21 -19 0
104 -106 0
92 -91 0
100 -99 0
98 -97 0
109 -110 0
14 -9 0
19 -21 0
2 -2 0
54 -49 0
28 -23 0
41 -39 0
37 -31 0
56 -55 0
82 -84 0
106 -104 0
49 -54 0
153 -153 0
124 -122 0
145 -148 0
135 -137 0
158 -155 0
71 -72 0
91 -92 0
23 -28 0
122 -124 0
111 -111 0
117 -119 0
115 -113 0
126 -125 0
77 -80 0
99 -100 0
39 -41 0
148 -145 0
119 -117 0
143 -143 0
132 -131 0
150 -149 0
75 -74 0
97 -98 0
31 -37 0
137 -135 0
113 -115 0
131 -132 0
130 -130 0
139 -141 0
86 -88 0
110 -109 0
55 -56 0
155 -158 0
125 -126 0
149 -150 0
141 -139 0
159 -159 0
-64 -63 0
-66 -68 0
-10 -9 0
-81 -84 0
-70 -72 0
-79 -80 0
-73 -74 0
-87 -88 0
-67 -65 0
-90 -89 0
-22 -21 0
-103 -104 0
-94 -92 0
-101 -100 0
-96 -98 0
-107 -109 0
-12 -14 0
-20 -19 0
-1 -2 0
-47 -54 0
-29 -28 0
-43 -41 0
-34 -37 0
-60 -56 0
-83 -82 0
-105 -106 0
-51 -49 0
-154 -153 0
-121 -124 0
-146 -145 0
-136 -135 0
-157 -158 0
-69 -71 0
-93 -91 0
-26 -23 0
-123 -122 0
-112 -111 0
-118 -117 0
-116 -115 0
-128 -126 0
-78 -77 0
-102 -99 0
-45 -39 0
-147 -148 0
-120 -119 0
-144 -143 0
-134 -132 0
-151 -150 0
-76 -75 0
-95 -97 0
-32 -31 0
-138 -137 0
-114 -113 0
-133 -131 0
-129 -130 0
-142 -139 0
-85 -86 0
-108 -110 0
-58 -55 0
-156 -155 0
-127 -125 0
-152 -149 0
-140 -141 0
-160 -159 0
-7 -11 0
-7 -13 0
-7 -8 0
-17 -15 0
-17 -16 0
-17 -18 0
-6 -5 0
-6 -3 0
-6 -4 0
-53 -50 0
-53 -52 0
-53 -48 0
-25 -27 0
-25 -30 0
-25 -24 0
-40 -46 0
-40 -44 0
-40 -42 0
-36 -33 0
-36 -35 0
-36 -38 0
-62 -59 0
-62 -61 0
-62 -57 0
-11 -13 0
-11 -8 0
-15 -16 0
-15 -18 0
-5 -3 0
-5 -4 0
-50 -52 0
-50 -48 0
-27 -30 0
-27 -24 0
-46 -44 0
-46 -42 0
-33 -35 0
-33 -38 0
-59 -61 0
-59 -57 0
-13 -8 0
-16 -18 0
-3 -4 0
-52 -48 0
-30 -24 0
-44 -42 0
-35 -38 0
-61 -57 0
7 11 13 8 0
17 15 16 18 0
6 5 3 4 0
53 50 52 48 0
25 27 30 24 0
40 46 44 42 0
36 33 35 38 0
62 59 61 57 0
7 11 13 -64 0
7 11 13 -63 0
7 11 8 -64 0
7 11 8 -63 0
7 13 8 -64 0
7 13 8 -63 0
17 15 16 -90 0
17 15 16 -89 0
17 15 18 -90 0
17 15 18 -89 0
17 16 18 -90 0
17 16 18 -89 0
6 5 3 -1 0
6 5 3 -2 0
6 5 4 -1 0
6 5 4 -2 0
6 3 4 -1 0
6 3 4 -2 0
53 50 52 -154 0
53 50 52 -153 0
53 50 48 -154 0
53 50 48 -153 0
53 52 48 -154 0
53 52 48 -153 0
25 27 30 -112 0
25 27 30 -111 0
25 27 24 -112 0
25 27 24 -111 0
25 30 24 -112 0
25 30 24 -111 0
40 46 44 -144 0
40 46 44 -143 0
40 46 42 -144 0
40 46 42 -143 0
40 44 42 -144 0
40 44 42 -143 0
36 33 35 -129 0
36 33 35 -130 0
36 33 38 -129 0
36 33 38 -130 0
36 35 38 -129 0
36 35 38 -130 0
62 59 61 -160 0
62 59 61 -159 0
62 59 57 -160 0
62 59 57 -159 0
62 61 57 -160 0
62 61 57 -159 0
11 13 8 -64 0
11 13 8 -63 0
15 16 18 -90 0
15 16 18 -89 0
5 3 4 -1 0
5 3 4 -2 0
50 52 48 -154 0
50 52 48 -153 0
27 30 24 -112 0
27 30 24 -111 0
46 44 42 -144 0
46 44 42 -143 0
33 35 38 -129 0
33 35 38 -130 0
59 61 57 -160 0
59 61 57 -159 0
7 11 13 8 -64 0
7 11 13 8 -66 0
7 11 13 8 -10 0
7 11 13 8 -81 0
7 11 13 8 -70 0
7 11 13 8 -79 0
7 11 13 8 -73 0
7 11 13 8 -87 0
7 11 13 8 -67 0
7 11 13 8 -12 0
7 11 13 8 -83 0
7 11 13 8 -69 0
7 11 13 8 -78 0
7 11 13 8 -76 0
7 11 13 8 -85 0
7 11 13 8 -63 0
7 11 13 8 -68 0
7 11 13 8 -9 0
7 11 13 8 -84 0
7 11 13 8 -72 0
7 11 13 8 -80 0
7 11 13 8 -74 0
7 11 13 8 -88 0
7 11 13 8 -65 0
7 11 13 8 -14 0
7 11 13 8 -82 0
7 11 13 8 -71 0
7 11 13 8 -77 0
7 11 13 8 -75 0
7 11 13 8 -86 0
17 15 16 18 -66 0
17 15 16 18 -67 0
17 15 16 18 -90 0
17 15 16 18 -22 0
17 15 16 18 -103 0
17 15 16 18 -94 0
17 15 16 18 -101 0
17 15 16 18 -96 0
17 15 16 18 -107 0
17 15 16 18 -20 0
17 15 16 18 -105 0
17 15 16 18 -93 0
17 15 16 18 -102 0
17 15 16 18 -95 0
17 15 16 18 -108 0
17 15 16 18 -68 0
17 15 16 18 -65 0
17 15 16 18 -89 0
17 15 16 18 -21 0
17 15 16 18 -104 0
17 15 16 18 -92 0
17 15 16 18 -100 0
17 15 16 18 -98 0
17 15 16 18 -109 0
17 15 16 18 -19 0
17 15 16 18 -106 0
17 15 16 18 -91 0
17 15 16 18 -99 0
17 15 16 18 -97 0
17 15 16 18 -110 0
6 5 3 4 -10 0
6 5 3 4 -22 0
6 5 3 4 -12 0
6 5 3 4 -20 0
6 5 3 4 -1 0
6 5 3 4 -47 0
6 5 3 4 -29 0
6 5 3 4 -43 0
6 5 3 4 -34 0
6 5 3 4 -60 0
6 5 3 4 -51 0
6 5 3 4 -26 0
6 5 3 4 -45 0
6 5 3 4 -32 0
6 5 3 4 -58 0
6 5 3 4 -9 0
6 5 3 4 -21 0
6 5 3 4 -14 0
6 5 3 4 -19 0
6 5 3 4 -2 0
6 5 3 4 -54 0
6 5 3 4 -28 0
6 5 3 4 -41 0
6 5 3 4 -37 0
6 5 3 4 -56 0
6 5 3 4 -49 0
6 5 3 4 -23 0
6 5 3 4 -39 0
6 5 3 4 -31 0
6 5 3 4 -55 0
53 50 52 48 -81 0
53 50 52 48 -103 0
53 50 52 48 -47 0
53 50 52 48 -83 0
53 50 52 48 -105 0
53 50 52 48 -51 0
53 50 52 48 -154 0
53 50 52 48 -121 0
53 50 52 48 -146 0
53 50 52 48 -136 0
53 50 52 48 -157 0
53 50 52 48 -123 0
53 50 52 48 -147 0
53 50 52 48 -138 0
53 50 52 48 -156 0
53 50 52 48 -84 0
53 50 52 48 -104 0
53 50 52 48 -54 0
53 50 52 48 -82 0
53 50 52 48 -106 0
53 50 52 48 -49 0
53 50 52 48 -153 0
53 50 52 48 -124 0
53 50 52 48 -145 0
53 50 52 48 -135 0
53 50 52 48 -158 0
53 50 52 48 -122 0
53 50 52 48 -148 0
53 50 52 48 -137 0
53 50 52 48 -155 0
25 27 30 24 -70 0
25 27 30 24 -94 0
25 27 30 24 -29 0
25 27 30 24 -121 0
25 27 30 24 -69 0
25 27 30 24 -93 0
25 27 30 24 -26 0
25 27 30 24 -123 0
25 27 30 24 -112 0
25 27 30 24 -118 0
25 27 30 24 -116 0
25 27 30 24 -128 0
25 27 30 24 -120 0
25 27 30 24 -114 0
25 27 30 24 -127 0
25 27 30 24 -72 0
25 27 30 24 -92 0
25 27 30 24 -28 0
25 27 30 24 -124 0
25 27 30 24 -71 0
25 27 30 24 -91 0
25 27 30 24 -23 0
25 27 30 24 -122 0
25 27 30 24 -111 0
25 27 30 24 -117 0
25 27 30 24 -115 0
25 27 30 24 -126 0
25 27 30 24 -119 0
25 27 30 24 -113 0
25 27 30 24 -125 0
40 46 44 42 -79 0
40 46 44 42 -101 0
40 46 44 42 -43 0
40 46 44 42 -146 0
40 46 44 42 -118 0
40 46 44 42 -78 0
40 46 44 42 -102 0
40 46 44 42 -45 0
40 46 44 42 -147 0
40 46 44 42 -120 0
40 46 44 42 -144 0
40 46 44 42 -134 0
40 46 44 42 -151 0
40 46 44 42 -133 0
40 46 44 42 -152 0
40 46 44 42 -80 0
40 46 44 42 -100 0
40 46 44 42 -41 0
40 46 44 42 -145 0
40 46 44 42 -117 0
40 46 44 42 -77 0
40 46 44 42 -99 0
40 46 44 42 -39 0
40 46 44 42 -148 0
40 46 44 42 -119 0
40 46 44 42 -143 0
40 46 44 42 -132 0
40 46 44 42 -150 0
40 46 44 42 -131 0
40 46 44 42 -149 0
36 33 35 38 -73 0
36 33 35 38 -96 0
36 33 35 38 -34 0
36 33 35 38 -136 0
36 33 35 38 -116 0
36 33 35 38 -134 0
36 33 35 38 -76 0
36 33 35 38 -95 0
36 33 35 38 -32 0
36 33 35 38 -138 0
36 33 35 38 -114 0
36 33 35 38 -133 0
36 33 35 38 -129 0
36 33 35 38 -142 0
36 33 35 38 -140 0
36 33 35 38 -74 0
36 33 35 38 -98 0
36 33 35 38 -37 0
36 33 35 38 -135 0
36 33 35 38 -115 0
36 33 35 38 -132 0
36 33 35 38 -75 0
36 33 35 38 -97 0
36 33 35 38 -31 0
36 33 35 38 -137 0
36 33 35 38 -113 0
36 33 35 38 -131 0
36 33 35 38 -130 0
36 33 35 38 -139 0
36 33 35 38 -141 0
62 59 61 57 -87 0
62 59 61 57 -107 0
62 59 61 57 -60 0
62 59 61 57 -157 0
62 59 61 57 -128 0
62 59 61 57 -151 0
62 59 61 57 -142 0
62 59 61 57 -85 0
62 59 61 57 -108 0
62 59 61 57 -58 0
62 59 61 57 -156 0
62 59 61 57 -127 0
62 59 61 57 -152 0
62 59 61 57 -140 0
62 59 61 57 -160 0
62 59 61 57 -88 0
62 59 61 57 -109 0
62 59 61 57 -56 0
62 59 61 57 -158 0
62 59 61 57 -126 0
62 59 61 57 -150 0
62 59 61 57 -139 0
62 59 61 57 -86 0
62 59 61 57 -110 0
62 59 61 57 -55 0
62 59 61 57 -155 0
62 59 61 57 -125 0
62 59 61 57 -149 0
62 59 61 57 -141 0
62 59 61 57 -159 0
7 17 11 13 8 -66 0
7 17 11 13 8 -67 0
7 17 11 13 8 -68 0
7 17 11 13 8 -65 0
7 17 15 16 18 -66 0
7 17 15 16 18 -67 0
7 17 15 16 18 -68 0
7 17 15 16 18 -65 0
7 6 11 13 8 -10 0
7 6 11 13 8 -12 0
7 6 11 13 8 -9 0
7 6 11 13 8 -14 0
7 6 5 3 4 -10 0
7 6 5 3 4 -12 0
7 6 5 3 4 -9 0
7 6 5 3 4 -14 0
7 53 11 13 8 -81 0
7 53 11 13 8 -83 0
7 53 11 13 8 -84 0
7 53 11 13 8 -82 0
7 53 50 52 48 -81 0
7 53 50 52 48 -83 0
7 53 50 52 48 -84 0
7 53 50 52 48 -82 0
7 25 11 13 8 -70 0
7 25 11 13 8 -69 0
7 25 11 13 8 -72 0
7 25 11 13 8 -71 0
7 25 27 30 24 -70 0
7 25 27 30 24 -69 0
7 25 27 30 24 -72 0
7 25 27 30 24 -71 0
7 40 11 13 8 -79 0
7 40 11 13 8 -78 0
7 40 11 13 8 -80 0
7 40 11 13 8 -77 0
7 40 46 44 42 -79 0
7 40 46 44 42 -78 0
7 40 46 44 42 -80 0
7 40 46 44 42 -77 0
7 36 11 13 8 -73 0
7 36 11 13 8 -76 0
7 36 11 13 8 -74 0
7 36 11 13 8 -75 0
7 36 33 35 38 -73 0
7 36 33 35 38 -76 0
7 36 33 35 38 -74 0
7 36 33 35 38 -75 0
7 62 11 13 8 -87 0
7 62 11 13 8 -85 0
7 62 11 13 8 -88 0
7 62 11 13 8 -86 0
7 62 59 61 57 -87 0
7 62 59 61 57 -85 0
7 62 59 61 57 -88 0
7 62 59 61 57 -86 0
7 11 15 13 8 -66 0
7 11 15 13 8 -67 0
7 11 15 13 8 -68 0
7 11 15 13 8 -65 0
7 11 5 13 8 -10 0
7 11 5 13 8 -12 0
7 11 5 13 8 -9 0
7 11 5 13 8 -14 0
7 11 50 13 8 -81 0
7 11 50 13 8 -83 0
7 11 50 13 8 -84 0
7 11 50 13 8 -82 0
7 11 27 13 8 -70 0
7 11 27 13 8 -69 0
7 11 27 13 8 -72 0
7 11 27 13 8 -71 0
7 11 46 13 8 -79 0
7 11 46 13 8 -78 0
7 11 46 13 8 -80 0
7 11 46 13 8 -77 0
7 11 33 13 8 -73 0
7 11 33 13 8 -76 0
7 11 33 13 8 -74 0
7 11 33 13 8 -75 0
7 11 59 13 8 -87 0
7 11 59 13 8 -85 0
7 11 59 13 8 -88 0
7 11 59 13 8 -86 0
7 11 13 16 8 -66 0
7 11 13 16 8 -67 0
7 11 13 16 8 -68 0
7 11 13 16 8 -65 0
7 11 13 3 8 -10 0
7 11 13 3 8 -12 0
7 11 13 3 8 -9 0
7 11 13 3 8 -14 0
7 11 13 52 8 -81 0
7 11 13 52 8 -83 0
7 11 13 52 8 -84 0
7 11 13 52 8 -82 0
7 11 13 30 8 -70 0
7 11 13 30 8 -69 0
7 11 13 30 8 -72 0
7 11 13 30 8 -71 0
7 11 13 44 8 -79 0
7 11 13 44 8 -78 0
7 11 13 44 8 -80 0
7 11 13 44 8 -77 0
7 11 13 35 8 -73 0
7 11 13 35 8 -76 0
7 11 13 35 8 -74 0
7 11 13 35 8 -75 0
7 11 13 61 8 -87 0
7 11 13 61 8 -85 0
7 11 13 61 8 -88 0
7 11 13 61 8 -86 0
7 11 13 8 18 -66 0
7 11 13 8 18 -67 0
7 11 13 8 18 -68 0
7 11 13 8 18 -65 0
7 11 13 8 4 -10 0
7 11 13 8 4 -12 0
7 11 13 8 4 -9 0
7 11 13 8 4 -14 0
7 11 13 8 48 -81 0
7 11 13 8 48 -83 0
7 11 13 8 48 -84 0
7 11 13 8 48 -82 0
7 11 13 8 24 -70 0
7 11 13 8 24 -69 0
7 11 13 8 24 -72 0
7 11 13 8 24 -71 0
7 11 13 8 42 -79 0
7 11 13 8 42 -78 0
7 11 13 8 42 -80 0
7 11 13 8 42 -77 0
7 11 13 8 38 -73 0
7 11 13 8 38 -76 0
7 11 13 8 38 -74 0
7 11 13 8 38 -75 0
7 11 13 8 57 -87 0
7 11 13 8 57 -85 0
7 11 13 8 57 -88 0
7 11 13 8 57 -86 0
17 6 15 16 18 -22 0
17 6 15 16 18 -20 0
17 6 15 16 18 -21 0
17 6 15 16 18 -19 0
17 6 5 3 4 -22 0
17 6 5 3 4 -20 0
17 6 5 3 4 -21 0
17 6 5 3 4 -19 0
17 53 15 16 18 -103 0
17 53 15 16 18 -105 0
17 53 15 16 18 -104 0
17 53 15 16 18 -106 0
17 53 50 52 48 -103 0
17 53 50 52 48 -105 0
17 53 50 52 48 -104 0
17 53 50 52 48 -106 0
17 25 15 16 18 -94 0
17 25 15 16 18 -93 0
17 25 15 16 18 -92 0
17 25 15 16 18 -91 0
17 25 27 30 24 -94 0
17 25 27 30 24 -93 0
17 25 27 30 24 -92 0
17 25 27 30 24 -91 0
17 40 15 16 18 -101 0
17 40 15 16 18 -102 0
17 40 15 16 18 -100 0
17 40 15 16 18 -99 0
17 40 46 44 42 -101 0
17 40 46 44 42 -102 0
17 40 46 44 42 -100 0
17 40 46 44 42 -99 0
17 36 15 16 18 -96 0
17 36 15 16 18 -95 0
17 36 15 16 18 -98 0
17 36 15 16 18 -97 0
17 36 33 35 38 -96 0
17 36 33 35 38 -95 0
17 36 33 35 38 -98 0
17 36 33 35 38 -97 0
17 62 15 16 18 -107 0
17 62 15 16 18 -108 0
17 62 15 16 18 -109 0
17 62 15 16 18 -110 0
17 62 59 61 57 -107 0
17 62 59 61 57 -108 0
17 62 59 61 57 -109 0
17 62 59 61 57 -110 0
17 11 15 16 18 -66 0
17 11 15 16 18 -67 0
17 11 15 16 18 -68 0
17 11 15 16 18 -65 0
17 15 5 16 18 -22 0
17 15 5 16 18 -20 0
17 15 5 16 18 -21 0
17 15 5 16 18 -19 0
17 15 50 16 18 -103 0
17 15 50 16 18 -105 0
17 15 50 16 18 -104 0
17 15 50 16 18 -106 0
17 15 27 16 18 -94 0
17 15 27 16 18 -93 0
17 15 27 16 18 -92 0
17 15 27 16 18 -91 0
17 15 46 16 18 -101 0
17 15 46 16 18 -102 0
17 15 46 16 18 -100 0
17 15 46 16 18 -99 0
17 15 33 16 18 -96 0
17 15 33 16 18 -95 0
17 15 33 16 18 -98 0
17 15 33 16 18 -97 0
17 15 59 16 18 -107 0
17 15 59 16 18 -108 0
17 15 59 16 18 -109 0
17 15 59 16 18 -110 0
17 15 13 16 18 -66 0
17 15 13 16 18 -67 0
17 15 13 16 18 -68 0
17 15 13 16 18 -65 0
17 15 16 3 18 -22 0
17 15 16 3 18 -20 0
17 15 16 3 18 -21 0
17 15 16 3 18 -19 0
17 15 16 52 18 -103 0
17 15 16 52 18 -105 0
17 15 16 52 18 -104 0
17 15 16 52 18 -106 0
17 15 16 30 18 -94 0
17 15 16 30 18 -93 0
17 15 16 30 18 -92 0
17 15 16 30 18 -91 0
17 15 16 44 18 -101 0
17 15 16 44 18 -102 0
17 15 16 44 18 -100 0
17 15 16 44 18 -99 0
17 15 16 35 18 -96 0
17 15 16 35 18 -95 0
17 15 16 35 18 -98 0
17 15 16 35 18 -97 0
17 15 16 61 18 -107 0
17 15 16 61 18 -108 0
17 15 16 61 18 -109 0
17 15 16 61 18 -110 0
17 15 16 8 18 -66 0
17 15 16 8 18 -67 0
17 15 16 8 18 -68 0
17 15 16 8 18 -65 0
17 15 16 18 4 -22 0
17 15 16 18 4 -20 0
17 15 16 18 4 -21 0
17 15 16 18 4 -19 0
17 15 16 18 48 -103 0
17 15 16 18 48 -105 0
17 15 16 18 48 -104 0
17 15 16 18 48 -106 0
17 15 16 18 24 -94 0
17 15 16 18 24 -93 0
17 15 16 18 24 -92 0
17 15 16 18 24 -91 0
17 15 16 18 42 -101 0
17 15 16 18 42 -102 0
17 15 16 18 42 -100 0
17 15 16 18 42 -99 0
17 15 16 18 38 -96 0
17 15 16 18 38 -95 0
17 15 16 18 38 -98 0
17 15 16 18 38 -97 0
17 15 16 18 57 -107 0
17 15 16 18 57 -108 0
17 15 16 18 57 -109 0
17 15 16 18 57 -110 0
6 53 5 3 4 -47 0
6 53 5 3 4 -51 0
6 53 5 3 4 -54 0
6 53 5 3 4 -49 0
6 53 50 52 48 -47 0
6 53 50 52 48 -51 0
6 53 50 52 48 -54 0
6 53 50 52 48 -49 0
6 25 5 3 4 -29 0
6 25 5 3 4 -26 0
6 25 5 3 4 -28 0
6 25 5 3 4 -23 0
6 25 27 30 24 -29 0
6 25 27 30 24 -26 0
6 25 27 30 24 -28 0
6 25 27 30 24 -23 0
6 40 5 3 4 -43 0
6 40 5 3 4 -45 0
6 40 5 3 4 -41 0
6 40 5 3 4 -39 0
6 40 46 44 42 -43 0
6 40 46 44 42 -45 0
6 40 46 44 42 -41 0
6 40 46 44 42 -39 0
6 36 5 3 4 -34 0
6 36 5 3 4 -32 0
6 36 5 3 4 -37 0
6 36 5 3 4 -31 0
6 36 33 35 38 -34 0
6 36 33 35 38 -32 0
6 36 33 35 38 -37 0
6 36 33 35 38 -31 0
6 62 5 3 4 -60 0
6 62 5 3 4 -58 0
6 62 5 3 4 -56 0
6 62 5 3 4 -55 0
6 62 59 61 57 -60 0
6 62 59 61 57 -58 0
6 62 59 61 57 -56 0
6 62 59 61 57 -55 0
6 11 5 3 4 -10 0
6 11 5 3 4 -12 0
6 11 5 3 4 -9 0
6 11 5 3 4 -14 0
6 15 5 3 4 -22 0
6 15 5 3 4 -20 0
6 15 5 3 4 -21 0
6 15 5 3 4 -19 0
6 5 50 3 4 -47 0
6 5 50 3 4 -51 0
6 5 50 3 4 -54 0
6 5 50 3 4 -49 0
6 5 27 3 4 -29 0
6 5 27 3 4 -26 0
6 5 27 3 4 -28 0
6 5 27 3 4 -23 0
6 5 46 3 4 -43 0
6 5 46 3 4 -45 0
6 5 46 3 4 -41 0
6 5 46 3 4 -39 0
6 5 33 3 4 -34 0
6 5 33 3 4 -32 0
6 5 33 3 4 -37 0
6 5 33 3 4 -31 0
6 5 59 3 4 -60 0
6 5 59 3 4 -58 0
6 5 59 3 4 -56 0
6 5 59 3 4 -55 0
6 5 13 3 4 -10 0
6 5 13 3 4 -12 0
6 5 13 3 4 -9 0
6 5 13 3 4 -14 0
6 5 16 3 4 -22 0
6 5 16 3 4 -20 0
6 5 16 3 4 -21 0
6 5 16 3 4 -19 0
6 5 3 52 4 -47 0
6 5 3 52 4 -51 0
6 5 3 52 4 -54 0
6 5 3 52 4 -49 0
6 5 3 30 4 -29 0
6 5 3 30 4 -26 0
6 5 3 30 4 -28 0
6 5 3 30 4 -23 0
6 5 3 44 4 -43 0
6 5 3 44 4 -45 0
6 5 3 44 4 -41 0
6 5 3 44 4 -39 0
6 5 3 35 4 -34 0
6 5 3 35 4 -32 0
6 5 3 35 4 -37 0
6 5 3 35 4 -31 0
6 5 3 61 4 -60 0
6 5 3 61 4 -58 0
6 5 3 61 4 -56 0
6 5 3 61 4 -55 0
6 5 3 8 4 -10 0
6 5 3 8 4 -12 0
6 5 3 8 4 -9 0
6 5 3 8 4 -14 0
6 5 3 18 4 -22 0
6 5 3 18 4 -20 0
6 5 3 18 4 -21 0
6 5 3 18 4 -19 0
6 5 3 4 48 -47 0
6 5 3 4 48 -51 0
6 5 3 4 48 -54 0
6 5 3 4 48 -49 0
6 5 3 4 24 -29 0
6 5 3 4 24 -26 0
6 5 3 4 24 -28 0
6 5 3 4 24 -23 0
6 5 3 4 42 -43 0
6 5 3 4 42 -45 0
6 5 3 4 42 -41 0
6 5 3 4 42 -39 0
6 5 3 4 38 -34 0
6 5 3 4 38 -32 0
6 5 3 4 38 -37 0
6 5 3 4 38 -31 0
6 5 3 4 57 -60 0
6 5 3 4 57 -58 0
6 5 3 4 57 -56 0
6 5 3 4 57 -55 0
53 25 50 52 48 -121 0
53 25 50 52 48 -123 0
53 25 50 52 48 -124 0
53 25 50 52 48 -122 0
53 25 27 30 24 -121 0
53 25 27 30 24 -123 0
53 25 27 30 24 -124 0
53 25 27 30 24 -122 0
53 40 50 52 48 -146 0
53 40 50 52 48 -147 0
53 40 50 52 48 -145 0
53 40 50 52 48 -148 0
53 40 46 44 42 -146 0
53 40 46 44 42 -147 0
53 40 46 44 42 -145 0
53 40 46 44 42 -148 0
53 36 50 52 48 -136 0
53 36 50 52 48 -138 0
53 36 50 52 48 -135 0
53 36 50 52 48 -137 0
53 36 33 35 38 -136 0
53 36 33 35 38 -138 0
53 36 33 35 38 -135 0
53 36 33 35 38 -137 0
53 62 50 52 48 -157 0
53 62 50 52 48 -156 0
53 62 50 52 48 -158 0
53 62 50 52 48 -155 0
53 62 59 61 57 -157 0
53 62 59 61 57 -156 0
53 62 59 61 57 -158 0
53 62 59 61 57 -155 0
53 11 50 52 48 -81 0
53 11 50 52 48 -83 0
53 11 50 52 48 -84 0
53 11 50 52 48 -82 0
53 15 50 52 48 -103 0
53 15 50 52 48 -105 0
53 15 50 52 48 -104 0
53 15 50 52 48 -106 0
53 5 50 52 48 -47 0
53 5 50 52 48 -51 0
53 5 50 52 48 -54 0
53 5 50 52 48 -49 0
53 50 27 52 48 -121 0
53 50 27 52 48 -123 0
53 50 27 52 48 -124 0
53 50 27 52 48 -122 0
53 50 46 52 48 -146 0
53 50 46 52 48 -147 0
53 50 46 52 48 -145 0
53 50 46 52 48 -148 0
53 50 33 52 48 -136 0
53 50 33 52 48 -138 0
53 50 33 52 48 -135 0
53 50 33 52 48 -137 0
53 50 59 52 48 -157 0
53 50 59 52 48 -156 0
53 50 59 52 48 -158 0
53 50 59 52 48 -155 0
53 50 13 52 48 -81 0
53 50 13 52 48 -83 0
53 50 13 52 48 -84 0
53 50 13 52 48 -82 0
53 50 16 52 48 -103 0
53 50 16 52 48 -105 0
53 50 16 52 48 -104 0
53 50 16 52 48 -106 0
53 50 3 52 48 -47 0
53 50 3 52 48 -51 0
53 50 3 52 48 -54 0
53 50 3 52 48 -49 0
53 50 52 30 48 -121 0
53 50 52 30 48 -123 0
53 50 52 30 48 -124 0
53 50 52 30 48 -122 0
53 50 52 44 48 -146 0
53 50 52 44 48 -147 0
53 50 52 44 48 -145 0
53 50 52 44 48 -148 0
53 50 52 35 48 -136 0
53 50 52 35 48 -138 0
53 50 52 35 48 -135 0
53 50 52 35 48 -137 0
53 50 52 61 48 -157 0
53 50 52 61 48 -156 0
53 50 52 61 48 -158 0
53 50 52 61 48 -155 0
53 50 52 8 48 -81 0
53 50 52 8 48 -83 0
53 50 52 8 48 -84 0
53 50 52 8 48 -82 0
53 50 52 18 48 -103 0
53 50 52 18 48 -105 0
53 50 52 18 48 -104 0
53 50 52 18 48 -106 0
53 50 52 4 48 -47 0
53 50 52 4 48 -51 0
53 50 52 4 48 -54 0
53 50 52 4 48 -49 0
53 50 52 48 24 -121 0
53 50 52 48 24 -123 0
53 50 52 48 24 -124 0
53 50 52 48 24 -122 0
53 50 52 48 42 -146 0
53 50 52 48 42 -147 0
53 50 52 48 42 -145 0
53 50 52 48 42 -148 0
53 50 52 48 38 -136 0
53 50 52 48 38 -138 0
53 50 52 48 38 -135 0
53 50 52 48 38 -137 0
53 50 52 48 57 -157 0
53 50 52 48 57 -156 0
53 50 52 48 57 -158 0
53 50 52 48 57 -155 0
25 40 27 30 24 -118 0
25 40 27 30 24 -120 0
25 40 27 30 24 -117 0
25 40 27 30 24 -119 0
25 40 46 44 42 -118 0
25 40 46 44 42 -120 0
25 40 46 44 42 -117 0
25 40 46 44 42 -119 0
25 36 27 30 24 -116 0
25 36 27 30 24 -114 0
25 36 27 30 24 -115 0
25 36 27 30 24 -113 0
25 36 33 35 38 -116 0
25 36 33 35 38 -114 0
25 36 33 35 38 -115 0
25 36 33 35 38 -113 0
25 62 27 30 24 -128 0
25 62 27 30 24 -127 0
25 62 27 30 24 -126 0
25 62 27 30 24 -125 0
25 62 59 61 57 -128 0
25 62 59 61 57 -127 0
25 62 59 61 57 -126 0
25 62 59 61 57 -125 0
25 11 27 30 24 -70 0
25 11 27 30 24 -69 0
25 11 27 30 24 -72 0
25 11 27 30 24 -71 0
25 15 27 30 24 -94 0
25 15 27 30 24 -93 0
25 15 27 30 24 -92 0
25 15 27 30 24 -91 0
25 5 27 30 24 -29 0
25 5 27 30 24 -26 0
25 5 27 30 24 -28 0
25 5 27 30 24 -23 0
25 50 27 30 24 -121 0
25 50 27 30 24 -123 0
25 50 27 30 24 -124 0
25 50 27 30 24 -122 0
25 27 46 30 24 -118 0
25 27 46 30 24 -120 0
25 27 46 30 24 -117 0
25 27 46 30 24 -119 0
25 27 33 30 24 -116 0
25 27 33 30 24 -114 0
25 27 33 30 24 -115 0
25 27 33 30 24 -113 0
25 27 59 30 24 -128 0
25 27 59 30 24 -127 0
25 27 59 30 24 -126 0
25 27 59 30 24 -125 0
25 27 13 30 24 -70 0
25 27 13 30 24 -69 0
25 27 13 30 24 -72 0
25 27 13 30 24 -71 0
25 27 16 30 24 -94 0
25 27 16 30 24 -93 0
25 27 16 30 24 -92 0
25 27 16 30 24 -91 0
25 27 3 30 24 -29 0
25 27 3 30 24 -26 0
25 27 3 30 24 -28 0
25 27 3 30 24 -23 0
25 27 52 30 24 -121 0
25 27 52 30 24 -123 0
25 27 52 30 24 -124 0
25 27 52 30 24 -122 0
25 27 30 44 24 -118 0
25 27 30 44 24 -120 0
25 27 30 44 24 -117 0
25 27 30 44 24 -119 0
25 27 30 35 24 -116 0
25 27 30 35 24 -114 0
25 27 30 35 24 -115 0
25 27 30 35 24 -113 0
25 27 30 61 24 -128 0
25 27 30 61 24 -127 0
25 27 30 61 24 -126 0
25 27 30 61 24 -125 0
25 27 30 8 24 -70 0
25 27 30 8 24 -69 0
25 27 30 8 24 -72 0
25 27 30 8 24 -71 0
25 27 30 18 24 -94 0
25 27 30 18 24 -93 0
25 27 30 18 24 -92 0
25 27 30 18 24 -91 0
25 27 30 4 24 -29 0
25 27 30 4 24 -26 0
25 27 30 4 24 -28 0
25 27 30 4 24 -23 0
25 27 30 48 24 -121 0
25 27 30 48 24 -123 0
25 27 30 48 24 -124 0
25 27 30 48 24 -122 0
25 27 30 24 42 -118 0
25 27 30 24 42 -120 0
25 27 30 24 42 -117 0
25 27 30 24 42 -119 0
25 27 30 24 38 -116 0
25 27 30 24 38 -114 0
25 27 30 24 38 -115 0
25 27 30 24 38 -113 0
25 27 30 24 57 -128 0
25 27 30 24 57 -127 0
25 27 30 24 57 -126 0
25 27 30 24 57 -125 0
40 36 46 44 42 -134 0
40 36 46 44 42 -133 0
40 36 46 44 42 -132 0
40 36 46 44 42 -131 0
40 36 33 35 38 -134 0
40 36 33 35 38 -133 0
40 36 33 35 38 -132 0
40 36 33 35 38 -131 0
40 62 46 44 42 -151 0
40 62 46 44 42 -152 0
40 62 46 44 42 -150 0
40 62 46 44 42 -149 0
40 62 59 61 57 -151 0
40 62 59 61 57 -152 0
40 62 59 61 57 -150 0
40 62 59 61 57 -149 0
40 11 46 44 42 -79 0
40 11 46 44 42 -78 0
40 11 46 44 42 -80 0
40 11 46 44 42 -77 0
40 15 46 44 42 -101 0
40 15 46 44 42 -102 0
40 15 46 44 42 -100 0
40 15 46 44 42 -99 0
40 5 46 44 42 -43 0
40 5 46 44 42 -45 0
40 5 46 44 42 -41 0
40 5 46 44 42 -39 0
40 50 46 44 42 -146 0
40 50 46 44 42 -147 0
40 50 46 44 42 -145 0
40 50 46 44 42 -148 0
40 27 46 44 42 -118 0
40 27 46 44 42 -120 0
40 27 46 44 42 -117 0
40 27 46 44 42 -119 0
40 46 33 44 42 -134 0
40 46 33 44 42 -133 0
40 46 33 44 42 -132 0
40 46 33 44 42 -131 0
40 46 59 44 42 -151 0
40 46 59 44 42 -152 0
40 46 59 44 42 -150 0
40 46 59 44 42 -149 0
40 46 13 44 42 -79 0
40 46 13 44 42 -78 0
40 46 13 44 42 -80 0
40 46 13 44 42 -77 0
40 46 16 44 42 -101 0
40 46 16 44 42 -102 0
40 46 16 44 42 -100 0
40 46 16 44 42 -99 0
40 46 3 44 42 -43 0
40 46 3 44 42 -45 0
40 46 3 44 42 -41 0
40 46 3 44 42 -39 0
40 46 52 44 42 -146 0
40 46 52 44 42 -147 0
40 46 52 44 42 -145 0
40 46 52 44 42 -148 0
40 46 30 44 42 -118 0
40 46 30 44 42 -120 0
40 46 30 44 42 -117 0
40 46 30 44 42 -119 0
40 46 44 35 42 -134 0
40 46 44 35 42 -133 0
40 46 44 35 42 -132 0
40 46 44 35 42 -131 0
40 46 44 61 42 -151 0
40 46 44 61 42 -152 0
40 46 44 61 42 -150 0
40 46 44 61 42 -149 0
40 46 44 8 42 -79 0
40 46 44 8 42 -78 0
40 46 44 8 42 -80 0
40 46 44 8 42 -77 0
40 46 44 18 42 -101 0
40 46 44 18 42 -102 0
40 46 44 18 42 -100 0
40 46 44 18 42 -99 0
40 46 44 4 42 -43 0
40 46 44 4 42 -45 0
40 46 44 4 42 -41 0
40 46 44 4 42 -39 0
40 46 44 48 42 -146 0
40 46 44 48 42 -147 0
40 46 44 48 42 -145 0
40 46 44 48 42 -148 0
40 46 44 24 42 -118 0
40 46 44 24 42 -120 0
40 46 44 24 42 -117 0
40 46 44 24 42 -119 0
40 46 44 42 38 -134 0
40 46 44 42 38 -133 0
40 46 44 42 38 -132 0
40 46 44 42 38 -131 0
40 46 44 42 57 -151 0
40 46 44 42 57 -152 0
40 46 44 42 57 -150 0
40 46 44 42 57 -149 0
36 62 33 35 38 -142 0
36 62 33 35 38 -140 0
36 62 33 35 38 -139 0
36 62 33 35 38 -141 0
36 62 59 61 57 -142 0
36 62 59 61 57 -140 0
36 62 59 61 57 -139 0
36 62 59 61 57 -141 0
36 11 33 35 38 -73 0
36 11 33 35 38 -76 0
36 11 33 35 38 -74 0
36 11 33 35 38 -75 0
36 15 33 35 38 -96 0
36 15 33 35 38 -95 0
36 15 33 35 38 -98 0
36 15 33 35 38 -97 0
36 5 33 35 38 -34 0
36 5 33 35 38 -32 0
36 5 33 35 38 -37 0
36 5 33 35 38 -31 0
36 50 33 35 38 -136 0
36 50 33 35 38 -138 0
36 50 33 35 38 -135 0
36 50 33 35 38 -137 0
36 27 33 35 38 -116 0
36 27 33 35 38 -114 0
36 27 33 35 38 -115 0
36 27 33 35 38 -113 0
36 46 33 35 38 -134 0
36 46 33 35 38 -133 0
36 46 33 35 38 -132 0
36 46 33 35 38 -131 0
36 33 59 35 38 -142 0
36 33 59 35 38 -140 0
36 33 59 35 38 -139 0
36 33 59 35 38 -141 0
36 33 13 35 38 -73 0
36 33 13 35 38 -76 0
36 33 13 35 38 -74 0
36 33 13 35 38 -75 0
36 33 16 35 38 -96 0
36 33 16 35 38 -95 0
36 33 16 35 38 -98 0
36 33 16 35 38 -97 0
36 33 3 35 38 -34 0
36 33 3 35 38 -32 0
36 33 3 35 38 -37 0
36 33 3 35 38 -31 0
36 33 52 35 38 -136 0
36 33 52 35 38 -138 0
36 33 52 35 38 -135 0
36 33 52 35 38 -137 0
36 33 30 35 38 -116 0
36 33 30 35 38 -114 0
36 33 30 35 38 -115 0
36 33 30 35 38 -113 0
36 33 44 35 38 -134 0
36 33 44 35 38 -133 0
36 33 44 35 38 -132 0
36 33 44 35 38 -131 0
36 33 35 61 38 -142 0
36 33 35 61 38 -140 0
36 33 35 61 38 -139 0
36 33 35 61 38 -141 0
36 33 35 8 38 -73 0
36 33 35 8 38 -76 0
36 33 35 8 38 -74 0
36 33 35 8 38 -75 0
36 33 35 18 38 -96 0
36 33 35 18 38 -95 0
36 33 35 18 38 -98 0
36 33 35 18 38 -97 0
36 33 35 4 38 -34 0
36 33 35 4 38 -32 0
36 33 35 4 38 -37 0
36 33 35 4 38 -31 0
36 33 35 48 38 -136 0
36 33 35 48 38 -138 0
36 33 35 48 38 -135 0
36 33 35 48 38 -137 0
36 33 35 24 38 -116 0
36 33 35 24 38 -114 0
36 33 35 24 38 -115 0
36 33 35 24 38 -113 0
36 33 35 42 38 -134 0
36 33 35 42 38 -133 0
36 33 35 42 38 -132 0
36 33 35 42 38 -131 0
36 33 35 38 57 -142 0
36 33 35 38 57 -140 0
36 33 35 38 57 -139 0
36 33 35 38 57 -141 0
62 11 59 61 57 -87 0
62 11 59 61 57 -85 0
62 11 59 61 57 -88 0
62 11 59 61 57 -86 0
62 15 59 61 57 -107 0
62 15 59 61 57 -108 0
62 15 59 61 57 -109 0
62 15 59 61 57 -110 0
62 5 59 61 57 -60 0
62 5 59 61 57 -58 0
62 5 59 61 57 -56 0
62 5 59 61 57 -55 0
62 50 59 61 57 -157 0
62 50 59 61 57 -156 0
62 50 59 61 57 -158 0
62 50 59 61 57 -155 0
62 27 59 61 57 -128 0
62 27 59 61 57 -127 0
62 27 59 61 57 -126 0
62 27 59 61 57 -125 0
62 46 59 61 57 -151 0
62 46 59 61 57 -152 0
62 46 59 61 57 -150 0
62 46 59 61 57 -149 0
62 33 59 61 57 -142 0
62 33 59 61 57 -140 0
62 33 59 61 57 -139 0
62 33 59 61 57 -141 0
62 59 13 61 57 -87 0
62 59 13 61 57 -85 0
62 59 13 61 57 -88 0
62 59 13 61 57 -86 0
62 59 16 61 57 -107 0
62 59 16 61 57 -108 0
62 59 16 61 57 -109 0
62 59 16 61 57 -110 0
62 59 3 61 57 -60 0
62 59 3 61 57 -58 0
62 59 3 61 57 -56 0
62 59 3 61 57 -55 0
62 59 52 61 57 -157 0
62 59 52 61 57 -156 0
62 59 52 61 57 -158 0
62 59 52 61 57 -155 0
62 59 30 61 57 -128 0
62 59 30 61 57 -127 0
62 59 30 61 57 -126 0
62 59 30 61 57 -125 0
62 59 44 61 57 -151 0
62 59 44 61 57 -152 0
62 59 44 61 57 -150 0
62 59 44 61 57 -149 0
62 59 35 61 57 -142 0
62 59 35 61 57 -140 0
62 59 35 61 57 -139 0
62 59 35 61 57 -141 0
62 59 61 8 57 -87 0
62 59 61 8 57 -85 0
62 59 61 8 57 -88 0
62 59 61 8 57 -86 0
62 59 61 18 57 -107 0
62 59 61 18 57 -108 0
62 59 61 18 57 -109 0
62 59 61 18 57 -110 0
62 59 61 4 57 -60 0
62 59 61 4 57 -58 0
62 59 61 4 57 -56 0
62 59 61 4 57 -55 0
62 59 61 48 57 -157 0
62 59 61 48 57 -156 0
62 59 61 48 57 -158 0
62 59 61 48 57 -155 0
62 59 61 24 57 -128 0
62 59 61 24 57 -127 0
62 59 61 24 57 -126 0
62 59 61 24 57 -125 0
62 59 61 42 57 -151 0
62 59 61 42 57 -152 0
62 59 61 42 57 -150 0
62 59 61 42 57 -149 0
62 59 61 38 57 -142 0
62 59 61 38 57 -140 0
62 59 61 38 57 -139 0
62 59 61 38 57 -141 0
7 17 11 15 13 16 -66 0
7 17 11 15 13 16 -67 0
7 17 11 15 13 16 -68 0
7 17 11 15 13 16 -65 0
7 17 11 15 13 8 -66 0
7 17 11 15 13 8 -67 0
7 17 11 15 13 8 -68 0
7 17 11 15 13 8 -65 0
7 17 11 15 16 18 -66 0
7 17 11 15 16 18 -67 0
7 17 11 15 16 18 -68 0
7 17 11 15 16 18 -65 0
7 17 11 15 8 18 -66 0
7 17 11 15 8 18 -67 0
7 17 11 15 8 18 -68 0
7 17 11 15 8 18 -65 0
7 17 11 13 16 8 -66 0
7 17 11 13 16 8 -67 0
7 17 11 13 16 8 -68 0
7 17 11 13 16 8 -65 0
7 17 11 13 8 18 -66 0
7 17 11 13 8 18 -67 0
7 17 11 13 8 18 -68 0
7 17 11 13 8 18 -65 0
7 17 15 13 16 18 -66 0
7 17 15 13 16 18 -67 0
7 17 15 13 16 18 -68 0
7 17 15 13 16 18 -65 0
7 17 15 16 8 18 -66 0
7 17 15 16 8 18 -67 0
7 17 15 16 8 18 -68 0
7 17 15 16 8 18 -65 0
7 17 13 16 8 18 -66 0
7 17 13 16 8 18 -67 0
7 17 13 16 8 18 -68 0
7 17 13 16 8 18 -65 0
7 6 11 5 13 3 -10 0
7 6 11 5 13 3 -12 0
7 6 11 5 13 3 -9 0
7 6 11 5 13 3 -14 0
7 6 11 5 13 8 -10 0
7 6 11 5 13 8 -12 0
7 6 11 5 13 8 -9 0
7 6 11 5 13 8 -14 0
7 6 11 5 3 4 -10 0
7 6 11 5 3 4 -12 0
7 6 11 5 3 4 -9 0
7 6 11 5 3 4 -14 0
7 6 11 5 8 4 -10 0
7 6 11 5 8 4 -12 0
7 6 11 5 8 4 -9 0
7 6 11 5 8 4 -14 0
7 6 11 13 3 8 -10 0
7 6 11 13 3 8 -12 0
7 6 11 13 3 8 -9 0
7 6 11 13 3 8 -14 0
7 6 11 13 8 4 -10 0
7 6 11 13 8 4 -12 0
7 6 11 13 8 4 -9 0
7 6 11 13 8 4 -14 0
7 6 5 13 3 4 -10 0
7 6 5 13 3 4 -12 0
7 6 5 13 3 4 -9 0
7 6 5 13 3 4 -14 0
7 6 5 3 8 4 -10 0
7 6 5 3 8 4 -12 0
7 6 5 3 8 4 -9 0
7 6 5 3 8 4 -14 0
7 6 13 3 8 4 -10 0
7 6 13 3 8 4 -12 0
7 6 13 3 8 4 -9 0
7 6 13 3 8 4 -14 0
7 53 11 50 13 52 -81 0
7 53 11 50 13 52 -83 0
7 53 11 50 13 52 -84 0
7 53 11 50 13 52 -82 0
7 53 11 50 13 8 -81 0
7 53 11 50 13 8 -83 0
7 53 11 50 13 8 -84 0
7 53 11 50 13 8 -82 0
7 53 11 50 52 48 -81 0
7 53 11 50 52 48 -83 0
7 53 11 50 52 48 -84 0
7 53 11 50 52 48 -82 0
7 53 11 50 8 48 -81 0
7 53 11 50 8 48 -83 0
7 53 11 50 8 48 -84 0
7 53 11 50 8 48 -82 0
7 53 11 13 52 8 -81 0
7 53 11 13 52 8 -83 0
7 53 11 13 52 8 -84 0
7 53 11 13 52 8 -82 0
7 53 11 13 8 48 -81 0
7 53 11 13 8 48 -83 0
7 53 11 13 8 48 -84 0
7 53 11 13 8 48 -82 0
7 53 50 13 52 48 -81 0
7 53 50 13 52 48 -83 0
7 53 50 13 52 48 -84 0
7 53 50 13 52 48 -82 0
7 53 50 52 8 48 -81 0
7 53 50 52 8 48 -83 0
7 53 50 52 8 48 -84 0
7 53 50 52 8 48 -82 0
7 53 13 52 8 48 -81 0
7 53 13 52 8 48 -83 0
7 53 13 52 8 48 -84 0
7 53 13 52 8 48 -82 0
7 25 11 27 13 30 -70 0
7 25 11 27 13 30 -69 0
7 25 11 27 13 30 -72 0
7 25 11 27 13 30 -71 0
7 25 11 27 13 8 -70 0
7 25 11 27 13 8 -69 0
7 25 11 27 13 8 -72 0
7 25 11 27 13 8 -71 0
7 25 11 27 30 24 -70 0
7 25 11 27 30 24 -69 0
7 25 11 27 30 24 -72 0
7 25 11 27 30 24 -71 0
7 25 11 27 8 24 -70 0
7 25 11 27 8 24 -69 0
7 25 11 27 8 24 -72 0
7 25 11 27 8 24 -71 0
7 25 11 13 30 8 -70 0
7 25 11 13 30 8 -69 0
7 25 11 13 30 8 -72 0
7 25 11 13 30 8 -71 0
7 25 11 13 8 24 -70 0
7 25 11 13 8 24 -69 0
7 25 11 13 8 24 -72 0
7 25 11 13 8 24 -71 0
7 25 27 13 30 24 -70 0
7 25 27 13 30 24 -69 0
7 25 27 13 30 24 -72 0
7 25 27 13 30 24 -71 0
7 25 27 30 8 24 -70 0
7 25 27 30 8 24 -69 0
7 25 27 30 8 24 -72 0
7 25 27 30 8 24 -71 0
7 25 13 30 8 24 -70 0
7 25 13 30 8 24 -69 0
7 25 13 30 8 24 -72 0
7 25 13 30 8 24 -71 0
7 40 11 46 13 44 -79 0
7 40 11 46 13 44 -78 0
7 40 11 46 13 44 -80 0
7 40 11 46 13 44 -77 0
7 40 11 46 13 8 -79 0
7 40 11 46 13 8 -78 0
7 40 11 46 13 8 -80 0
7 40 11 46 13 8 -77 0
7 40 11 46 44 42 -79 0
7 40 11 46 44 42 -78 0
7 40 11 46 44 42 -80 0
7 40 11 46 44 42 -77 0
7 40 11 46 8 42 -79 0
7 40 11 46 8 42 -78 0
7 40 11 46 8 42 -80 0
7 40 11 46 8 42 -77 0
7 40 11 13 44 8 -79 0
7 40 11 13 44 8 -78 0
7 40 11 13 44 8 -80 0
7 40 11 13 44 8 -77 0
7 40 11 13 8 42 -79 0
7 40 11 13 8 42 -78 0
7 40 11 13 8 42 -80 0
7 40 11 13 8 42 -77 0
7 40 46 13 44 42 -79 0
7 40 46 13 44 42 -78 0
7 40 46 13 44 42 -80 0
7 40 46 13 44 42 -77 0
7 40 46 44 8 42 -79 0
7 40 46 44 8 42 -78 0
7 40 46 44 8 42 -80 0
7 40 46 44 8 42 -77 0
7 40 13 44 8 42 -79 0
7 40 13 44 8 42 -78 0
7 40 13 44 8 42 -80 0
7 40 13 44 8 42 -77 0
7 36 11 33 13 35 -73 0
7 36 11 33 13 35 -76 0
7 36 11 33 13 35 -74 0
7 36 11 33 13 35 -75 0
7 36 11 33 13 8 -73 0
7 36 11 33 13 8 -76 0
7 36 11 33 13 8 -74 0
7 36 11 33 13 8 -75 0
7 36 11 33 35 38 -73 0
7 36 11 33 35 38 -76 0
7 36 11 33 35 38 -74 0
7 36 11 33 35 38 -75 0
7 36 11 33 8 38 -73 0
7 36 11 33 8 38 -76 0
7 36 11 33 8 38 -74 0
7 36 11 33 8 38 -75 0
7 36 11 13 35 8 -73 0
7 36 11 13 35 8 -76 0
7 36 11 13 35 8 -74 0
7 36 11 13 35 8 -75 0
7 36 11 13 8 38 -73 0
7 36 11 13 8 38 -76 0
7 36 11 13 8 38 -74 0
7 36 11 13 8 38 -75 0
7 36 33 13 35 38 -73 0
7 36 33 13 35 38 -76 0
7 36 33 13 35 38 -74 0
7 36 33 13 35 38 -75 0
7 36 33 35 8 38 -73 0
7 36 33 35 8 38 -76 0
7 36 33 35 8 38 -74 0
7 36 33 35 8 38 -75 0
7 36 13 35 8 38 -73 0
7 36 13 35 8 38 -76 0
7 36 13 35 8 38 -74 0
7 36 13 35 8 38 -75 0
7 62 11 59 13 61 -87 0
7 62 11 59 13 61 -85 0
7 62 11 59 13 61 -88 0
7 62 11 59 13 61 -86 0
7 62 11 59 13 8 -87 0
7 62 11 59 13 8 -85 0
7 62 11 59 13 8 -88 0
7 62 11 59 13 8 -86 0
7 62 11 59 61 57 -87 0
7 62 11 59 61 57 -85 0
7 62 11 59 61 57 -88 0
7 62 11 59 61 57 -86 0
7 62 11 59 8 57 -87 0
7 62 11 59 8 57 -85 0
7 62 11 59 8 57 -88 0
7 62 11 59 8 57 -86 0
7 62 11 13 61 8 -87 0
7 62 11 13 61 8 -85 0
7 62 11 13 61 8 -88 0
7 62 11 13 61 8 -86 0
7 62 11 13 8 57 -87 0
7 62 11 13 8 57 -85 0
7 62 11 13 8 57 -88 0
7 62 11 13 8 57 -86 0
7 62 59 13 61 57 -87 0
7 62 59 13 61 57 -85 0
7 62 59 13 61 57 -88 0
7 62 59 13 61 57 -86 0
7 62 59 61 8 57 -87 0
7 62 59 61 8 57 -85 0
7 62 59 61 8 57 -88 0
7 62 59 61 8 57 -86 0
7 62 13 61 8 57 -87 0
7 62 13 61 8 57 -85 0
7 62 13 61 8 57 -88 0
7 62 13 61 8 57 -86 0
7 11 15 13 16 8 -66 0
7 11 15 13 16 8 -67 0
7 11 15 13 16 8 -68 0
7 11 15 13 16 8 -65 0
7 11 15 13 8 18 -66 0
7 11 15 13 8 18 -67 0
7 11 15 13 8 18 -68 0
7 11 15 13 8 18 -65 0
7 11 5 13 3 8 -10 0
7 11 5 13 3 8 -12 0
7 11 5 13 3 8 -9 0
7 11 5 13 3 8 -14 0
7 11 5 13 8 4 -10 0
7 11 5 13 8 4 -12 0
7 11 5 13 8 4 -9 0
7 11 5 13 8 4 -14 0
7 11 50 13 52 8 -81 0
7 11 50 13 52 8 -83 0
7 11 50 13 52 8 -84 0
7 11 50 13 52 8 -82 0
7 11 50 13 8 48 -81 0
7 11 50 13 8 48 -83 0
7 11 50 13 8 48 -84 0
7 11 50 13 8 48 -82 0
7 11 27 13 30 8 -70 0
7 11 27 13 30 8 -69 0
7 11 27 13 30 8 -72 0
7 11 27 13 30 8 -71 0
7 11 27 13 8 24 -70 0
7 11 27 13 8 24 -69 0
7 11 27 13 8 24 -72 0
7 11 27 13 8 24 -71 0
7 11 46 13 44 8 -79 0
7 11 46 13 44 8 -78 0
7 11 46 13 44 8 -80 0
7 11 46 13 44 8 -77 0
7 11 46 13 8 42 -79 0
7 11 46 13 8 42 -78 0
7 11 46 13 8 42 -80 0
7 11 46 13 8 42 -77 0
7 11 33 13 35 8 -73 0
7 11 33 13 35 8 -76 0
7 11 33 13 35 8 -74 0
7 11 33 13 35 8 -75 0
7 11 33 13 8 38 -73 0
7 11 33 13 8 38 -76 0
7 11 33 13 8 38 -74 0
7 11 33 13 8 38 -75 0
7 11 59 13 61 8 -87 0
7 11 59 13 61 8 -85 0
7 11 59 13 61 8 -88 0
7 11 59 13 61 8 -86 0
7 11 59 13 8 57 -87 0
7 11 59 13 8 57 -85 0
7 11 59 13 8 57 -88 0
7 11 59 13 8 57 -86 0
7 11 13 16 8 18 -66 0
7 11 13 16 8 18 -67 0
7 11 13 16 8 18 -68 0
7 11 13 16 8 18 -65 0
7 11 13 3 8 4 -10 0
7 11 13 3 8 4 -12 0
7 11 13 3 8 4 -9 0
7 11 13 3 8 4 -14 0
7 11 13 52 8 48 -81 0
7 11 13 52 8 48 -83 0
7 11 13 52 8 48 -84 0
7 11 13 52 8 48 -82 0
7 11 13 30 8 24 -70 0
7 11 13 30 8 24 -69 0
7 11 13 30 8 24 -72 0
7 11 13 30 8 24 -71 0
7 11 13 44 8 42 -79 0
7 11 13 44 8 42 -78 0
7 11 13 44 8 42 -80 0
7 11 13 44 8 42 -77 0
7 11 13 35 8 38 -73 0
7 11 13 35 8 38 -76 0
7 11 13 35 8 38 -74 0
7 11 13 35 8 38 -75 0
7 11 13 61 8 57 -87 0
7 11 13 61 8 57 -85 0
7 11 13 61 8 57 -88 0
7 11 13 61 8 57 -86 0
17 6 15 5 16 3 -22 0
17 6 15 5 16 3 -20 0
17 6 15 5 16 3 -21 0
17 6 15 5 16 3 -19 0
17 6 15 5 16 18 -22 0
17 6 15 5 16 18 -20 0
17 6 15 5 16 18 -21 0
17 6 15 5 16 18 -19 0
17 6 15 5 3 4 -22 0
17 6 15 5 3 4 -20 0
17 6 15 5 3 4 -21 0
17 6 15 5 3 4 -19 0
17 6 15 5 18 4 -22 0
17 6 15 5 18 4 -20 0
17 6 15 5 18 4 -21 0
17 6 15 5 18 4 -19 0
17 6 15 16 3 18 -22 0
17 6 15 16 3 18 -20 0
17 6 15 16 3 18 -21 0
17 6 15 16 3 18 -19 0
17 6 15 16 18 4 -22 0
17 6 15 16 18 4 -20 0
17 6 15 16 18 4 -21 0
17 6 15 16 18 4 -19 0
17 6 5 16 3 4 -22 0
17 6 5 16 3 4 -20 0
17 6 5 16 3 4 -21 0
17 6 5 16 3 4 -19 0
17 6 5 3 18 4 -22 0
17 6 5 3 18 4 -20 0
17 6 5 3 18 4 -21 0
17 6 5 3 18 4 -19 0
17 6 16 3 18 4 -22 0
17 6 16 3 18 4 -20 0
17 6 16 3 18 4 -21 0
17 6 16 3 18 4 -19 0
17 53 15 50 16 52 -103 0
17 53 15 50 16 52 -105 0
17 53 15 50 16 52 -104 0
17 53 15 50 16 52 -106 0
17 53 15 50 16 18 -103 0
17 53 15 50 16 18 -105 0
17 53 15 50 16 18 -104 0
17 53 15 50 16 18 -106 0
17 53 15 50 52 48 -103 0
17 53 15 50 52 48 -105 0
17 53 15 50 52 48 -104 0
17 53 15 50 52 48 -106 0
17 53 15 50 18 48 -103 0
17 53 15 50 18 48 -105 0
17 53 15 50 18 48 -104 0
17 53 15 50 18 48 -106 0
17 53 15 16 52 18 -103 0
17 53 15 16 52 18 -105 0
17 53 15 16 52 18 -104 0
17 53 15 16 52 18 -106 0
17 53 15 16 18 48 -103 0
17 53 15 16 18 48 -105 0
17 53 15 16 18 48 -104 0
17 53 15 16 18 48 -106 0
17 53 50 16 52 48 -103 0
17 53 50 16 52 48 -105 0
17 53 50 16 52 48 -104 0
17 53 50 16 52 48 -106 0
17 53 50 52 18 48 -103 0
17 53 50 52 18 48 -105 0
17 53 50 52 18 48 -104 0
17 53 50 52 18 48 -106 0
17 53 16 52 18 48 -103 0
17 53 16 52 18 48 -105 0
17 53 16 52 18 48 -104 0
17 53 16 52 18 48 -106 0
17 25 15 27 16 30 -94 0
17 25 15 27 16 30 -93 0
17 25 15 27 16 30 -92 0
17 25 15 27 16 30 -91 0
17 25 15 27 16 18 -94 0
17 25 15 27 16 18 -93 0
17 25 15 27 16 18 -92 0
17 25 15 27 16 18 -91 0
17 25 15 27 30 24 -94 0
17 25 15 27 30 24 -93 0
17 25 15 27 30 24 -92 0
17 25 15 27 30 24 -91 0
17 25 15 27 18 24 -94 0
17 25 15 27 18 24 -93 0
17 25 15 27 18 24 -92 0
17 25 15 27 18 24 -91 0
17 25 15 16 30 18 -94 0
17 25 15 16 30 18 -93 0
17 25 15 16 30 18 -92 0
17 25 15 16 30 18 -91 0
17 25 15 16 18 24 -94 0
17 25 15 16 18 24 -93 0
17 25 15 16 18 24 -92 0
17 25 15 16 18 24 -91 0
17 25 27 16 30 24 -94 0
17 25 27 16 30 24 -93 0
17 25 27 16 30 24 -92 0
17 25 27 16 30 24 -91 0
17 25 27 30 18 24 -94 0
17 25 27 30 18 24 -93 0
17 25 27 30 18 24 -92 0
17 25 27 30 18 24 -91 0
17 25 16 30 18 24 -94 0
17 25 16 30 18 24 -93 0
17 25 16 30 18 24 -92 0
17 25 16 30 18 24 -91 0
17 40 15 46 16 44 -101 0
17 40 15 46 16 44 -102 0
17 40 15 46 16 44 -100 0
17 40 15 46 16 44 -99 0
17 40 15 46 16 18 -101 0
17 40 15 46 16 18 -102 0
17 40 15 46 16 18 -100 0
17 40 15 46 16 18 -99 0
17 40 15 46 44 42 -101 0
17 40 15 46 44 42 -102 0
17 40 15 46 44 42 -100 0
17 40 15 46 44 42 -99 0
17 40 15 46 18 42 -101 0
17 40 15 46 18 42 -102 0
17 40 15 46 18 42 -100 0
17 40 15 46 18 42 -99 0
17 40 15 16 44 18 -101 0
17 40 15 16 44 18 -102 0
17 40 15 16 44 18 -100 0
17 40 15 16 44 18 -99 0
17 40 15 16 18 42 -101 0
17 40 15 16 18 42 -102 0
17 40 15 16 18 42 -100 0
17 40 15 16 18 42 -99 0
17 40 46 16 44 42 -101 0
17 40 46 16 44 42 -102 0
17 40 46 16 44 42 -100 0
17 40 46 16 44 42 -99 0
17 40 46 44 18 42 -101 0
17 40 46 44 18 42 -102 0
17 40 46 44 18 42 -100 0
17 40 46 44 18 42 -99 0
17 40 16 44 18 42 -101 0
17 40 16 44 18 42 -102 0
17 40 16 44 18 42 -100 0
17 40 16 44 18 42 -99 0
17 36 15 33 16 35 -96 0
17 36 15 33 16 35 -95 0
17 36 15 33 16 35 -98 0
17 36 15 33 16 35 -97 0
17 36 15 33 16 18 -96 0
17 36 15 33 16 18 -95 0
17 36 15 33 16 18 -98 0
17 36 15 33 16 18 -97 0
17 36 15 33 35 38 -96 0
17 36 15 33 35 38 -95 0
17 36 15 33 35 38 -98 0
17 36 15 33 35 38 -97 0
17 36 15 33 18 38 -96 0
17 36 15 33 18 38 -95 0
17 36 15 33 18 38 -98 0
17 36 15 33 18 38 -97 0
17 36 15 16 35 18 -96 0
17 36 15 16 35 18 -95 0
17 36 15 16 35 18 -98 0
17 36 15 16 35 18 -97 0
17 36 15 16 18 38 -96 0
17 36 15 16 18 38 -95 0
17 36 15 16 18 38 -98 0
17 36 15 16 18 38 -97 0
17 36 33 16 35 38 -96 0
17 36 33 16 35 38 -95 0
17 36 33 16 35 38 -98 0
17 36 33 16 35 38 -97 0
17 36 33 35 18 38 -96 0
17 36 33 35 18 38 -95 0
17 36 33 35 18 38 -98 0
17 36 33 35 18 38 -97 0
17 36 16 35 18 38 -96 0
17 36 16 35 18 38 -95 0
17 36 16 35 18 38 -98 0
17 36 16 35 18 38 -97 0
17 62 15 59 16 61 -107 0
17 62 15 59 16 61 -108 0
17 62 15 59 16 61 -109 0
17 62 15 59 16 61 -110 0
17 62 15 59 16 18 -107 0
17 62 15 59 16 18 -108 0
17 62 15 59 16 18 -109 0
17 62 15 59 16 18 -110 0
17 62 15 59 61 57 -107 0
17 62 15 59 61 57 -108 0
17 62 15 59 61 57 -109 0
17 62 15 59 61 57 -110 0
17 62 15 59 18 57 -107 0
17 62 15 59 18 57 -108 0
17 62 15 59 18 57 -109 0
17 62 15 59 18 57 -110 0
17 62 15 16 61 18 -107 0
17 62 15 16 61 18 -108 0
17 62 15 16 61 18 -109 0
17 62 15 16 61 18 -110 0
17 62 15 16 18 57 -107 0
17 62 15 16 18 57 -108 0
17 62 15 16 18 57 -109 0
17 62 15 16 18 57 -110 0
17 62 59 16 61 57 -107 0
17 62 59 16 61 57 -108 0
17 62 59 16 61 57 -109 0
17 62 59 16 61 57 -110 0
17 62 59 61 18 57 -107 0
17 62 59 61 18 57 -108 0
17 62 59 61 18 57 -109 0
17 62 59 61 18 57 -110 0
17 62 16 61 18 57 -107 0
17 62 16 61 18 57 -108 0
17 62 16 61 18 57 -109 0
17 62 16 61 18 57 -110 0
17 11 15 13 16 18 -66 0
17 11 15 13 16 18 -67 0
17 11 15 13 16 18 -68 0
17 11 15 13 16 18 -65 0
17 11 15 16 8 18 -66 0
17 11 15 16 8 18 -67 0
17 11 15 16 8 18 -68 0
17 11 15 16 8 18 -65 0
17 15 5 16 3 18 -22 0
17 15 5 16 3 18 -20 0
17 15 5 16 3 18 -21 0
17 15 5 16 3 18 -19 0
17 15 5 16 18 4 -22 0
17 15 5 16 18 4 -20 0
17 15 5 16 18 4 -21 0
17 15 5 16 18 4 -19 0
17 15 50 16 52 18 -103 0
17 15 50 16 52 18 -105 0
17 15 50 16 52 18 -104 0
17 15 50 16 52 18 -106 0
17 15 50 16 18 48 -103 0
17 15 50 16 18 48 -105 0
17 15 50 16 18 48 -104 0
17 15 50 16 18 48 -106 0
17 15 27 16 30 18 -94 0
17 15 27 16 30 18 -93 0
17 15 27 16 30 18 -92 0
17 15 27 16 30 18 -91 0
17 15 27 16 18 24 -94 0
17 15 27 16 18 24 -93 0
17 15 27 16 18 24 -92 0
17 15 27 16 18 24 -91 0
17 15 46 16 44 18 -101 0
17 15 46 16 44 18 -102 0
17 15 46 16 44 18 -100 0
17 15 46 16 44 18 -99 0
17 15 46 16 18 42 -101 0
17 15 46 16 18 42 -102 0
17 15 46 16 18 42 -100 0
17 15 46 16 18 42 -99 0
17 15 33 16 35 18 -96 0
17 15 33 16 35 18 -95 0
17 15 33 16 35 18 -98 0
17 15 33 16 35 18 -97 0
17 15 33 16 18 38 -96 0
17 15 33 16 18 38 -95 0
17 15 33 16 18 38 -98 0
17 15 33 16 18 38 -97 0
17 15 59 16 61 18 -107 0
17 15 59 16 61 18 -108 0
17 15 59 16 61 18 -109 0
17 15 59 16 61 18 -110 0
17 15 59 16 18 57 -107 0
17 15 59 16 18 57 -108 0
17 15 59 16 18 57 -109 0
17 15 59 16 18 57 -110 0
17 15 13 16 8 18 -66 0
17 15 13 16 8 18 -67 0
17 15 13 16 8 18 -68 0
17 15 13 16 8 18 -65 0
17 15 16 3 18 4 -22 0
17 15 16 3 18 4 -20 0
17 15 16 3 18 4 -21 0
17 15 16 3 18 4 -19 0
17 15 16 52 18 48 -103 0
17 15 16 52 18 48 -105 0
17 15 16 52 18 48 -104 0
17 15 16 52 18 48 -106 0
17 15 16 30 18 24 -94 0
17 15 16 30 18 24 -93 0
17 15 16 30 18 24 -92 0
17 15 16 30 18 24 -91 0
17 15 16 44 18 42 -101 0
17 15 16 44 18 42 -102 0
17 15 16 44 18 42 -100 0
17 15 16 44 18 42 -99 0
17 15 16 35 18 38 -96 0
17 15 16 35 18 38 -95 0
17 15 16 35 18 38 -98 0
17 15 16 35 18 38 -97 0
17 15 16 61 18 57 -107 0
17 15 16 61 18 57 -108 0
17 15 16 61 18 57 -109 0
17 15 16 61 18 57 -110 0
6 53 5 50 3 52 -47 0
6 53 5 50 3 52 -51 0
6 53 5 50 3 52 -54 0
6 53 5 50 3 52 -49 0
6 53 5 50 3 4 -47 0
6 53 5 50 3 4 -51 0
6 53 5 50 3 4 -54 0
6 53 5 50 3 4 -49 0
6 53 5 50 52 48 -47 0
6 53 5 50 52 48 -51 0
6 53 5 50 52 48 -54 0
6 53 5 50 52 48 -49 0
6 53 5 50 4 48 -47 0
6 53 5 50 4 48 -51 0
6 53 5 50 4 48 -54 0
6 53 5 50 4 48 -49 0
6 53 5 3 52 4 -47 0
6 53 5 3 52 4 -51 0
6 53 5 3 52 4 -54 0
6 53 5 3 52 4 -49 0
6 53 5 3 4 48 -47 0
6 53 5 3 4 48 -51 0
6 53 5 3 4 48 -54 0
6 53 5 3 4 48 -49 0
6 53 50 3 52 48 -47 0
6 53 50 3 52 48 -51 0
6 53 50 3 52 48 -54 0
6 53 50 3 52 48 -49 0
6 53 50 52 4 48 -47 0
6 53 50 52 4 48 -51 0
6 53 50 52 4 48 -54 0
6 53 50 52 4 48 -49 0
6 53 3 52 4 48 -47 0
6 53 3 52 4 48 -51 0
6 53 3 52 4 48 -54 0
6 53 3 52 4 48 -49 0
6 25 5 27 3 30 -29 0
6 25 5 27 3 30 -26 0
6 25 5 27 3 30 -28 0
6 25 5 27 3 30 -23 0
6 25 5 27 3 4 -29 0
6 25 5 27 3 4 -26 0
6 25 5 27 3 4 -28 0
6 25 5 27 3 4 -23 0
6 25 5 27 30 24 -29 0
6 25 5 27 30 24 -26 0
6 25 5 27 30 24 -28 0
6 25 5 27 30 24 -23 0
6 25 5 27 4 24 -29 0
6 25 5 27 4 24 -26 0
6 25 5 27 4 24 -28 0
6 25 5 27 4 24 -23 0
6 25 5 3 30 4 -29 0
6 25 5 3 30 4 -26 0
6 25 5 3 30 4 -28 0
6 25 5 3 30 4 -23 0
6 25 5 3 4 24 -29 0
6 25 5 3 4 24 -26 0
6 25 5 3 4 24 -28 0
6 25 5 3 4 24 -23 0
6 25 27 3 30 24 -29 0
6 25 27 3 30 24 -26 0
6 25 27 3 30 24 -28 0
6 25 27 3 30 24 -23 0
6 25 27 30 4 24 -29 0
6 25 27 30 4 24 -26 0
6 25 27 30 4 24 -28 0
6 25 27 30 4 24 -23 0
6 25 3 30 4 24 -29 0
6 25 3 30 4 24 -26 0
6 25 3 30 4 24 -28 0
6 25 3 30 4 24 -23 0
6 40 5 46 3 44 -43 0
6 40 5 46 3 44 -45 0
6 40 5 46 3 44 -41 0
6 40 5 46 3 44 -39 0
6 40 5 46 3 4 -43 0
6 40 5 46 3 4 -45 0
6 40 5 46 3 4 -41 0
6 40 5 46 3 4 -39 0
6 40 5 46 44 42 -43 0
6 40 5 46 44 42 -45 0
6 40 5 46 44 42 -41 0
6 40 5 46 44 42 -39 0
6 40 5 46 4 42 -43 0
6 40 5 46 4 42 -45 0
6 40 5 46 4 42 -41 0
6 40 5 46 4 42 -39 0
6 40 5 3 44 4 -43 0
6 40 5 3 44 4 -45 0
6 40 5 3 44 4 -41 0
6 40 5 3 44 4 -39 0
6 40 5 3 4 42 -43 0
6 40 5 3 4 42 -45 0
6 40 5 3 4 42 -41 0
6 40 5 3 4 42 -39 0
6 40 46 3 44 42 -43 0
6 40 46 3 44 42 -45 0
6 40 46 3 44 42 -41 0
6 40 46 3 44 42 -39 0
6 40 46 44 4 42 -43 0
6 40 46 44 4 42 -45 0
6 40 46 44 4 42 -41 0
6 40 46 44 4 42 -39 0
6 40 3 44 4 42 -43 0
6 40 3 44 4 42 -45 0
6 40 3 44 4 42 -41 0
6 40 3 44 4 42 -39 0
6 36 5 33 3 35 -34 0
6 36 5 33 3 35 -32 0
6 36 5 33 3 35 -37 0
6 36 5 33 3 35 -31 0
6 36 5 33 3 4 -34 0
6 36 5 33 3 4 -32 0
6 36 5 33 3 4 -37 0
6 36 5 33 3 4 -31 0
6 36 5 33 35 38 -34 0
6 36 5 33 35 38 -32 0
6 36 5 33 35 38 -37 0
6 36 5 33 35 38 -31 0
6 36 5 33 4 38 -34 0
6 36 5 33 4 38 -32 0
6 36 5 33 4 38 -37 0
6 36 5 33 4 38 -31 0
6 36 5 3 35 4 -34 0
6 36 5 3 35 4 -32 0
6 36 5 3 35 4 -37 0
6 36 5 3 35 4 -31 0
6 36 5 3 4 38 -34 0
6 36 5 3 4 38 -32 0
6 36 5 3 4 38 -37 0
6 36 5 3 4 38 -31 0
6 36 33 3 35 38 -34 0
6 36 33 3 35 38 -32 0
6 36 33 3 35 38 -37 0
6 36 33 3 35 38 -31 0
6 36 33 35 4 38 -34 0
6 36 33 35 4 38 -32 0
6 36 33 35 4 38 -37 0
6 36 33 35 4 38 -31 0
6 36 3 35 4 38 -34 0
6 36 3 35 4 38 -32 0
6 36 3 35 4 38 -37 0
6 36 3 35 4 38 -31 0
6 62 5 59 3 61 -60 0
6 62 5 59 3 61 -58 0
6 62 5 59 3 61 -56 0
6 62 5 59 3 61 -55 0
6 62 5 59 3 4 -60 0
6 62 5 59 3 4 -58 0
6 62 5 59 3 4 -56 0
6 62 5 59 3 4 -55 0
6 62 5 59 61 57 -60 0
6 62 5 59 61 57 -58 0
6 62 5 59 61 57 -56 0
6 62 5 59 61 57 -55 0
6 62 5 59 4 57 -60 0
6 62 5 59 4 57 -58 0
6 62 5 59 4 57 -56 0
6 62 5 59 4 57 -55 0
6 62 5 3 61 4 -60 0
6 62 5 3 61 4 -58 0
6 62 5 3 61 4 -56 0
6 62 5 3 61 4 -55 0
6 62 5 3 4 57 -60 0
6 62 5 3 4 57 -58 0
6 62 5 3 4 57 -56 0
6 62 5 3 4 57 -55 0
6 62 59 3 61 57 -60 0
6 62 59 3 61 57 -58 0
6 62 59 3 61 57 -56 0
6 62 59 3 61 57 -55 0
6 62 59 61 4 57 -60 0
6 62 59 61 4 57 -58 0
6 62 59 61 4 57 -56 0
6 62 59 61 4 57 -55 0
6 62 3 61 4 57 -60 0
6 62 3 61 4 57 -58 0
6 62 3 61 4 57 -56 0
6 62 3 61 4 57 -55 0
6 11 5 13 3 4 -10 0
6 11 5 13 3 4 -12 0
6 11 5 13 3 4 -9 0
6 11 5 13 3 4 -14 0
6 11 5 3 8 4 -10 0
6 11 5 3 8 4 -12 0
6 11 5 3 8 4 -9 0
6 11 5 3 8 4 -14 0
6 15 5 16 3 4 -22 0
6 15 5 16 3 4 -20 0
6 15 5 16 3 4 -21 0
6 15 5 16 3 4 -19 0
6 15 5 3 18 4 -22 0
6 15 5 3 18 4 -20 0
6 15 5 3 18 4 -21 0
6 15 5 3 18 4 -19 0
6 5 50 3 52 4 -47 0
6 5 50 3 52 4 -51 0
6 5 50 3 52 4 -54 0
6 5 50 3 52 4 -49 0
6 5 50 3 4 48 -47 0
6 5 50 3 4 48 -51 0
6 5 50 3 4 48 -54 0
6 5 50 3 4 48 -49 0
6 5 27 3 30 4 -29 0
6 5 27 3 30 4 -26 0
6 5 27 3 30 4 -28 0
6 5 27 3 30 4 -23 0
6 5 27 3 4 24 -29 0
6 5 27 3 4 24 -26 0
6 5 27 3 4 24 -28 0
6 5 27 3 4 24 -23 0
6 5 46 3 44 4 -43 0
6 5 46 3 44 4 -45 0
6 5 46 3 44 4 -41 0
6 5 46 3 44 4 -39 0
6 5 46 3 4 42 -43 0
6 5 46 3 4 42 -45 0
6 5 46 3 4 42 -41 0
6 5 46 3 4 42 -39 0
6 5 33 3 35 4 -34 0
6 5 33 3 35 4 -32 0
6 5 33 3 35 4 -37 0
6 5 33 3 35 4 -31 0
6 5 33 3 4 38 -34 0
6 5 33 3 4 38 -32 0
6 5 33 3 4 38 -37 0
6 5 33 3 4 38 -31 0
6 5 59 3 61 4 -60 0
6 5 59 3 61 4 -58 0
6 5 59 3 61 4 -56 0
6 5 59 3 61 4 -55 0
6 5 59 3 4 57 -60 0
6 5 59 3 4 57 -58 0
6 5 59 3 4 57 -56 0
6 5 59 3 4 57 -55 0
6 5 13 3 8 4 -10 0
6 5 13 3 8 4 -12 0
6 5 13 3 8 4 -9 0
6 5 13 3 8 4 -14 0
6 5 16 3 18 4 -22 0
6 5 16 3 18 4 -20 0
6 5 16 3 18 4 -21 0
6 5 16 3 18 4 -19 0
6 5 3 52 4 48 -47 0
6 5 3 52 4 48 -51 0
6 5 3 52 4 48 -54 0
6 5 3 52 4 48 -49 0
6 5 3 30 4 24 -29 0
6 5 3 30 4 24 -26 0
6 5 3 30 4 24 -28 0
6 5 3 30 4 24 -23 0
6 5 3 44 4 42 -43 0
6 5 3 44 4 42 -45 0
6 5 3 44 4 42 -41 0
6 5 3 44 4 42 -39 0
6 5 3 35 4 38 -34 0
6 5 3 35 4 38 -32 0
6 5 3 35 4 38 -37 0
6 5 3 35 4 38 -31 0
6 5 3 61 4 57 -60 0
6 5 3 61 4 57 -58 0
6 5 3 61 4 57 -56 0
6 5 3 61 4 57 -55 0
53 25 50 27 52 30 -121 0
53 25 50 27 52 30 -123 0
53 25 50 27 52 30 -124 0
53 25 50 27 52 30 -122 0
53 25 50 27 52 48 -121 0
53 25 50 27 52 48 -123 0
53 25 50 27 52 48 -124 0
53 25 50 27 52 48 -122 0
53 25 50 27 30 24 -121 0
53 25 50 27 30 24 -123 0
53 25 50 27 30 24 -124 0
53 25 50 27 30 24 -122 0
53 25 50 27 48 24 -121 0
53 25 50 27 48 24 -123 0
53 25 50 27 48 24 -124 0
53 25 50 27 48 24 -122 0
53 25 50 52 30 48 -121 0
53 25 50 52 30 48 -123 0
53 25 50 52 30 48 -124 0
53 25 50 52 30 48 -122 0
53 25 50 52 48 24 -121 0
53 25 50 52 48 24 -123 0
53 25 50 52 48 24 -124 0
53 25 50 52 48 24 -122 0
53 25 27 52 30 24 -121 0
53 25 27 52 30 24 -123 0
53 25 27 52 30 24 -124 0
53 25 27 52 30 24 -122 0
53 25 27 30 48 24 -121 0
53 25 27 30 48 24 -123 0
53 25 27 30 48 24 -124 0
53 25 27 30 48 24 -122 0
53 25 52 30 48 24 -121 0
53 25 52 30 48 24 -123 0
53 25 52 30 48 24 -124 0
53 25 52 30 48 24 -122 0
53 40 50 46 52 44 -146 0
53 40 50 46 52 44 -147 0
53 40 50 46 52 44 -145 0
53 40 50 46 52 44 -148 0
53 40 50 46 52 48 -146 0
53 40 50 46 52 48 -147 0
53 40 50 46 52 48 -145 0
53 40 50 46 52 48 -148 0
53 40 50 46 44 42 -146 0
53 40 50 46 44 42 -147 0
53 40 50 46 44 42 -145 0
53 40 50 46 44 42 -148 0
53 40 50 46 48 42 -146 0
53 40 50 46 48 42 -147 0
53 40 50 46 48 42 -145 0
53 40 50 46 48 42 -148 0
53 40 50 52 44 48 -146 0
53 40 50 52 44 48 -147 0
53 40 50 52 44 48 -145 0
53 40 50 52 44 48 -148 0
53 40 50 52 48 42 -146 0
53 40 50 52 48 42 -147 0
53 40 50 52 48 42 -145 0
53 40 50 52 48 42 -148 0
53 40 46 52 44 42 -146 0
53 40 46 52 44 42 -147 0
53 40 46 52 44 42 -145 0
53 40 46 52 44 42 -148 0
53 40 46 44 48 42 -146 0
53 40 46 44 48 42 -147 0
53 40 46 44 48 42 -145 0
53 40 46 44 48 42 -148 0
53 40 52 44 48 42 -146 0
53 40 52 44 48 42 -147 0
53 40 52 44 48 42 -145 0
53 40 52 44 48 42 -148 0
53 36 50 33 52 35 -136 0
53 36 50 33 52 35 -138 0
53 36 50 33 52 35 -135 0
53 36 50 33 52 35 -137 0
53 36 50 33 52 48 -136 0
53 36 50 33 52 48 -138 0
53 36 50 33 52 48 -135 0
53 36 50 33 52 48 -137 0
53 36 50 33 35 38 -136 0
53 36 50 33 35 38 -138 0
53 36 50 33 35 38 -135 0
53 36 50 33 35 38 -137 0
53 36 50 33 48 38 -136 0
53 36 50 33 48 38 -138 0
53 36 50 33 48 38 -135 0
53 36 50 33 48 38 -137 0
53 36 50 52 35 48 -136 0
53 36 50 52 35 48 -138 0
53 36 50 52 35 48 -135 0
53 36 50 52 35 48 -137 0
53 36 50 52 48 38 -136 0
53 36 50 52 48 38 -138 0
53 36 50 52 48 38 -135 0
53 36 50 52 48 38 -137 0
53 36 33 52 35 38 -136 0
53 36 33 52 35 38 -138 0
53 36 33 52 35 38 -135 0
53 36 33 52 35 38 -137 0
53 36 33 35 48 38 -136 0
53 36 33 35 48 38 -138 0
53 36 33 35 48 38 -135 0
53 36 33 35 48 38 -137 0
53 36 52 35 48 38 -136 0
53 36 52 35 48 38 -138 0
53 36 52 35 48 38 -135 0
53 36 52 35 48 38 -137 0
53 62 50 59 52 61 -157 0
53 62 50 59 52 61 -156 0
53 62 50 59 52 61 -158 0
53 62 50 59 52 61 -155 0
53 62 50 59 52 48 -157 0
53 62 50 59 52 48 -156 0
53 62 50 59 52 48 -158 0
53 62 50 59 52 48 -155 0
53 62 50 59 61 57 -157 0
53 62 50 59 61 57 -156 0
53 62 50 59 61 57 -158 0
53 62 50 59 61 57 -155 0
53 62 50 59 48 57 -157 0
53 62 50 59 48 57 -156 0
53 62 50 59 48 57 -158 0
53 62 50 59 48 57 -155 0
53 62 50 52 61 48 -157 0
53 62 50 52 61 48 -156 0
53 62 50 52 61 48 -158 0
53 62 50 52 61 48 -155 0
53 62 50 52 48 57 -157 0
53 62 50 52 48 57 -156 0
53 62 50 52 48 57 -158 0
53 62 50 52 48 57 -155 0
53 62 59 52 61 57 -157 0
53 62 59 52 61 57 -156 0
53 62 59 52 61 57 -158 0
53 62 59 52 61 57 -155 0
53 62 59 61 48 57 -157 0
53 62 59 61 48 57 -156 0
53 62 59 61 48 57 -158 0
53 62 59 61 48 57 -155 0
53 62 52 61 48 57 -157 0
53 62 52 61 48 57 -156 0
53 62 52 61 48 57 -158 0
53 62 52 61 48 57 -155 0
53 11 50 13 52 48 -81 0
53 11 50 13 52 48 -83 0
53 11 50 13 52 48 -84 0
53 11 50 13 52 48 -82 0
53 11 50 52 8 48 -81 0
53 11 50 52 8 48 -83 0
53 11 50 52 8 48 -84 0
53 11 50 52 8 48 -82 0
53 15 50 16 52 48 -103 0
53 15 50 16 52 48 -105 0
53 15 50 16 52 48 -104 0
53 15 50 16 52 48 -106 0
53 15 50 52 18 48 -103 0
53 15 50 52 18 48 -105 0
53 15 50 52 18 48 -104 0
53 15 50 52 18 48 -106 0
53 5 50 3 52 48 -47 0
53 5 50 3 52 48 -51 0
53 5 50 3 52 48 -54 0
53 5 50 3 52 48 -49 0
53 5 50 52 4 48 -47 0
53 5 50 52 4 48 -51 0
53 5 50 52 4 48 -54 0
53 5 50 52 4 48 -49 0
53 50 27 52 30 48 -121 0
53 50 27 52 30 48 -123 0
53 50 27 52 30 48 -124 0
53 50 27 52 30 48 -122 0
53 50 27 52 48 24 -121 0
53 50 27 52 48 24 -123 0
53 50 27 52 48 24 -124 0
53 50 27 52 48 24 -122 0
53 50 46 52 44 48 -146 0
53 50 46 52 44 48 -147 0
53 50 46 52 44 48 -145 0
53 50 46 52 44 48 -148 0
53 50 46 52 48 42 -146 0
53 50 46 52 48 42 -147 0
53 50 46 52 48 42 -145 0
53 50 46 52 48 42 -148 0
53 50 33 52 35 48 -136 0
53 50 33 52 35 48 -138 0
53 50 33 52 35 48 -135 0
53 50 33 52 35 48 -137 0
53 50 33 52 48 38 -136 0
53 50 33 52 48 38 -138 0
53 50 33 52 48 38 -135 0
53 50 33 52 48 38 -137 0
53 50 59 52 61 48 -157 0
53 50 59 52 61 48 -156 0
53 50 59 52 61 48 -158 0
53 50 59 52 61 48 -155 0
53 50 59 52 48 57 -157 0
53 50 59 52 48 57 -156 0
53 50 59 52 48 57 -158 0
53 50 59 52 48 57 -155 0
53 50 13 52 8 48 -81 0
53 50 13 52 8 48 -83 0
53 50 13 52 8 48 -84 0
53 50 13 52 8 48 -82 0
53 50 16 52 18 48 -103 0
53 50 16 52 18 48 -105 0
53 50 16 52 18 48 -104 0
53 50 16 52 18 48 -106 0
53 50 3 52 4 48 -47 0
53 50 3 52 4 48 -51 0
53 50 3 52 4 48 -54 0
53 50 3 52 4 48 -49 0
53 50 52 30 48 24 -121 0
53 50 52 30 48 24 -123 0
53 50 52 30 48 24 -124 0
53 50 52 30 48 24 -122 0
53 50 52 44 48 42 -146 0
53 50 52 44 48 42 -147 0
53 50 52 44 48 42 -145 0
53 50 52 44 48 42 -148 0
53 50 52 35 48 38 -136 0
53 50 52 35 48 38 -138 0
53 50 52 35 48 38 -135 0
53 50 52 35 48 38 -137 0
53 50 52 61 48 57 -157 0
53 50 52 61 48 57 -156 0
53 50 52 61 48 57 -158 0
53 50 52 61 48 57 -155 0
25 40 27 46 30 44 -118 0
25 40 27 46 30 44 -120 0
25 40 27 46 30 44 -117 0
25 40 27 46 30 44 -119 0
25 40 27 46 30 24 -118 0
25 40 27 46 30 24 -120 0
25 40 27 46 30 24 -117 0
25 40 27 46 30 24 -119 0
25 40 27 46 44 42 -118 0
25 40 27 46 44 42 -120 0
25 40 27 46 44 42 -117 0
25 40 27 46 44 42 -119 0
25 40 27 46 24 42 -118 0
25 40 27 46 24 42 -120 0
25 40 27 46 24 42 -117 0
25 40 27 46 24 42 -119 0
25 40 27 30 44 24 -118 0
25 40 27 30 44 24 -120 0
25 40 27 30 44 24 -117 0
25 40 27 30 44 24 -119 0
25 40 27 30 24 42 -118 0
25 40 27 30 24 42 -120 0
25 40 27 30 24 42 -117 0
25 40 27 30 24 42 -119 0
25 40 46 30 44 42 -118 0
25 40 46 30 44 42 -120 0
25 40 46 30 44 42 -117 0
25 40 46 30 44 42 -119 0
25 40 46 44 24 42 -118 0
25 40 46 44 24 42 -120 0
25 40 46 44 24 42 -117 0
25 40 46 44 24 42 -119 0
25 40 30 44 24 42 -118 0
25 40 30 44 24 42 -120 0
25 40 30 44 24 42 -117 0
25 40 30 44 24 42 -119 0
25 36 27 33 30 35 -116 0
25 36 27 33 30 35 -114 0
25 36 27 33 30 35 -115 0
25 36 27 33 30 35 -113 0
25 36 27 33 30 24 -116 0
25 36 27 33 30 24 -114 0
25 36 27 33 30 24 -115 0
25 36 27 33 30 24 -113 0
25 36 27 33 35 38 -116 0
25 36 27 33 35 38 -114 0
25 36 27 33 35 38 -115 0
25 36 27 33 35 38 -113 0
25 36 27 33 24 38 -116 0
25 36 27 33 24 38 -114 0
25 36 27 33 24 38 -115 0
25 36 27 33 24 38 -113 0
25 36 27 30 35 24 -116 0
25 36 27 30 35 24 -114 0
25 36 27 30 35 24 -115 0
25 36 27 30 35 24 -113 0
25 36 27 30 24 38 -116 0
25 36 27 30 24 38 -114 0
25 36 27 30 24 38 -115 0
25 36 27 30 24 38 -113 0
25 36 33 30 35 38 -116 0
25 36 33 30 35 38 -114 0
25 36 33 30 35 38 -115 0
25 36 33 30 35 38 -113 0
25 36 33 35 24 38 -116 0
25 36 33 35 24 38 -114 0
25 36 33 35 24 38 -115 0
25 36 33 35 24 38 -113 0
25 36 30 35 24 38 -116 0
25 36 30 35 24 38 -114 0
25 36 30 35 24 38 -115 0
25 36 30 35 24 38 -113 0
25 62 27 59 30 61 -128 0
25 62 27 59 30 61 -127 0
25 62 27 59 30 61 -126 0
25 62 27 59 30 61 -125 0
25 62 27 59 30 24 -128 0
25 62 27 59 30 24 -127 0
25 62 27 59 30 24 -126 0
25 62 27 59 30 24 -125 0
25 62 27 59 61 57 -128 0
25 62 27 59 61 57 -127 0
25 62 27 59 61 57 -126 0
25 62 27 59 61 57 -125 0
25 62 27 59 24 57 -128 0
25 62 27 59 24 57 -127 0
25 62 27 59 24 57 -126 0
25 62 27 59 24 57 -125 0
25 62 27 30 61 24 -128 0
25 62 27 30 61 24 -127 0
25 62 27 30 61 24 -126 0
25 62 27 30 61 24 -125 0
25 62 27 30 24 57 -128 0
25 62 27 30 24 57 -127 0
25 62 27 30 24 57 -126 0
25 62 27 30 24 57 -125 0
25 62 59 30 61 57 -128 0
25 62 59 30 61 57 -127 0
25 62 59 30 61 57 -126 0
25 62 59 30 61 57 -125 0
25 62 59 61 24 57 -128 0
25 62 59 61 24 57 -127 0
25 62 59 61 24 57 -126 0
25 62 59 61 24 57 -125 0
25 62 30 61 24 57 -128 0
25 62 30 61 24 57 -127 0
25 62 30 61 24 57 -126 0
25 62 30 61 24 57 -125 0
25 11 27 13 30 24 -70 0
25 11 27 13 30 24 -69 0
25 11 27 13 30 24 -72 0
25 11 27 13 30 24 -71 0
25 11 27 30 8 24 -70 0
25 11 27 30 8 24 -69 0
25 11 27 30 8 24 -72 0
25 11 27 30 8 24 -71 0
25 15 27 16 30 24 -94 0
25 15 27 16 30 24 -93 0
25 15 27 16 30 24 -92 0
25 15 27 16 30 24 -91 0
25 15 27 30 18 24 -94 0
25 15 27 30 18 24 -93 0
25 15 27 30 18 24 -92 0
25 15 27 30 18 24 -91 0
25 5 27 3 30 24 -29 0
25 5 27 3 30 24 -26 0
25 5 27 3 30 24 -28 0
25 5 27 3 30 24 -23 0
25 5 27 30 4 24 -29 0
25 5 27 30 4 24 -26 0
25 5 27 30 4 24 -28 0
25 5 27 30 4 24 -23 0
25 50 27 52 30 24 -121 0
25 50 27 52 30 24 -123 0
25 50 27 52 30 24 -124 0
25 50 27 52 30 24 -122 0
25 50 27 30 48 24 -121 0
25 50 27 30 48 24 -123 0
25 50 27 30 48 24 -124 0
25 50 27 30 48 24 -122 0
25 27 46 30 44 24 -118 0
25 27 46 30 44 24 -120 0
25 27 46 30 44 24 -117 0
25 27 46 30 44 24 -119 0
25 27 46 30 24 42 -118 0
25 27 46 30 24 42 -120 0
25 27 46 30 24 42 -117 0
25 27 46 30 24 42 -119 0
25 27 33 30 35 24 -116 0
25 27 33 30 35 24 -114 0
25 27 33 30 35 24 -115 0
25 27 33 30 35 24 -113 0
25 27 33 30 24 38 -116 0
25 27 33 30 24 38 -114 0
25 27 33 30 24 38 -115 0
25 27 33 30 24 38 -113 0
25 27 59 30 61 24 -128 0
25 27 59 30 61 24 -127 0
25 27 59 30 61 24 -126 0
25 27 59 30 61 24 -125 0
25 27 59 30 24 57 -128 0
25 27 59 30 24 57 -127 0
25 27 59 30 24 57 -126 0
25 27 59 30 24 57 -125 0
25 27 13 30 8 24 -70 0
25 27 13 30 8 24 -69 0
25 27 13 30 8 24 -72 0
25 27 13 30 8 24 -71 0
25 27 16 30 18 24 -94 0
25 27 16 30 18 24 -93 0
25 27 16 30 18 24 -92 0
25 27 16 30 18 24 -91 0
25 27 3 30 4 24 -29 0
25 27 3 30 4 24 -26 0
25 27 3 30 4 24 -28 0
25 27 3 30 4 24 -23 0
25 27 52 30 48 24 -121 0
25 27 52 30 48 24 -123 0
25 27 52 30 48 24 -124 0
25 27 52 30 48 24 -122 0
25 27 30 44 24 42 -118 0
25 27 30 44 24 42 -120 0
25 27 30 44 24 42 -117 0
25 27 30 44 24 42 -119 0
25 27 30 35 24 38 -116 0
25 27 30 35 24 38 -114 0
25 27 30 35 24 38 -115 0
25 27 30 35 24 38 -113 0
25 27 30 61 24 57 -128 0
25 27 30 61 24 57 -127 0
25 27 30 61 24 57 -126 0
25 27 30 61 24 57 -125 0
40 36 46 33 44 35 -134 0
40 36 46 33 44 35 -133 0
40 36 46 33 44 35 -132 0
40 36 46 33 44 35 -131 0
40 36 46 33 44 42 -134 0
40 36 46 33 44 42 -133 0
40 36 46 33 44 42 -132 0
40 36 46 33 44 42 -131 0
40 36 46 33 35 38 -134 0
40 36 46 33 35 38 -133 0
40 36 46 33 35 38 -132 0
40 36 46 33 35 38 -131 0
40 36 46 33 42 38 -134 0
40 36 46 33 42 38 -133 0
40 36 46 33 42 38 -132 0
40 36 46 33 42 38 -131 0
40 36 46 44 35 42 -134 0
40 36 46 44 35 42 -133 0
40 36 46 44 35 42 -132 0
40 36 46 44 35 42 -131 0
40 36 46 44 42 38 -134 0
40 36 46 44 42 38 -133 0
40 36 46 44 42 38 -132 0
40 36 46 44 42 38 -131 0
40 36 33 44 35 38 -134 0
40 36 33 44 35 38 -133 0
40 36 33 44 35 38 -132 0
40 36 33 44 35 38 -131 0
40 36 33 35 42 38 -134 0
40 36 33 35 42 38 -133 0
40 36 33 35 42 38 -132 0
40 36 33 35 42 38 -131 0
40 36 44 35 42 38 -134 0
40 36 44 35 42 38 -133 0
40 36 44 35 42 38 -132 0
40 36 44 35 42 38 -131 0
40 62 46 59 44 61 -151 0
40 62 46 59 44 61 -152 0
40 62 46 59 44 61 -150 0
40 62 46 59 44 61 -149 0
40 62 46 59 44 42 -151 0
40 62 46 59 44 42 -152 0
40 62 46 59 44 42 -150 0
40 62 46 59 44 42 -149 0
40 62 46 59 61 57 -151 0
40 62 46 59 61 57 -152 0
40 62 46 59 61 57 -150 0
40 62 46 59 61 57 -149 0
40 62 46 59 42 57 -151 0
40 62 46 59 42 57 -152 0
40 62 46 59 42 57 -150 0
40 62 46 59 42 57 -149 0
40 62 46 44 61 42 -151 0
40 62 46 44 61 42 -152 0
40 62 46 44 61 42 -150 0
40 62 46 44 61 42 -149 0
40 62 46 44 42 57 -151 0
40 62 46 44 42 57 -152 0
40 62 46 44 42 57 -150 0
40 62 46 44 42 57 -149 0
40 62 59 44 61 57 -151 0
40 62 59 44 61 57 -152 0
40 62 59 44 61 57 -150 0
40 62 59 44 61 57 -149 0
40 62 59 61 42 57 -151 0
40 62 59 61 42 57 -152 0
40 62 59 61 42 57 -150 0
40 62 59 61 42 57 -149 0
40 62 44 61 42 57 -151 0
40 62 44 61 42 57 -152 0
40 62 44 61 42 57 -150 0
40 62 44 61 42 57 -149 0
40 11 46 13 44 42 -79 0
40 11 46 13 44 42 -78 0
40 11 46 13 44 42 -80 0
40 11 46 13 44 42 -77 0
40 11 46 44 8 42 -79 0
40 11 46 44 8 42 -78 0
40 11 46 44 8 42 -80 0
40 11 46 44 8 42 -77 0
40 15 46 16 44 42 -101 0
40 15 46 16 44 42 -102 0
40 15 46 16 44 42 -100 0
40 15 46 16 44 42 -99 0
40 15 46 44 18 42 -101 0
40 15 46 44 18 42 -102 0
40 15 46 44 18 42 -100 0
40 15 46 44 18 42 -99 0
40 5 46 3 44 42 -43 0
40 5 46 3 44 42 -45 0
40 5 46 3 44 42 -41 0
40 5 46 3 44 42 -39 0
40 5 46 44 4 42 -43 0
40 5 46 44 4 42 -45 0
40 5 46 44 4 42 -41 0
40 5 46 44 4 42 -39 0
40 50 46 52 44 42 -146 0
40 50 46 52 44 42 -147 0
40 50 46 52 44 42 -145 0
40 50 46 52 44 42 -148 0
40 50 46 44 48 42 -146 0
40 50 46 44 48 42 -147 0
40 50 46 44 48 42 -145 0
40 50 46 44 48 42 -148 0
40 27 46 30 44 42 -118 0
40 27 46 30 44 42 -120 0
40 27 46 30 44 42 -117 0
40 27 46 30 44 42 -119 0
40 27 46 44 24 42 -118 0
40 27 46 44 24 42 -120 0
40 27 46 44 24 42 -117 0
40 27 46 44 24 42 -119 0
40 46 33 44 35 42 -134 0
40 46 33 44 35 42 -133 0
40 46 33 44 35 42 -132 0
40 46 33 44 35 42 -131 0
40 46 33 44 42 38 -134 0
40 46 33 44 42 38 -133 0
40 46 33 44 42 38 -132 0
40 46 33 44 42 38 -131 0
40 46 59 44 61 42 -151 0
40 46 59 44 61 42 -152 0
40 46 59 44 61 42 -150 0
40 46 59 44 61 42 -149 0
40 46 59 44 42 57 -151 0
40 46 59 44 42 57 -152 0
40 46 59 44 42 57 -150 0
40 46 59 44 42 57 -149 0
40 46 13 44 8 42 -79 0
40 46 13 44 8 42 -78 0
40 46 13 44 8 42 -80 0
40 46 13 44 8 42 -77 0
40 46 16 44 18 42 -101 0
40 46 16 44 18 42 -102 0
40 46 16 44 18 42 -100 0
40 46 16 44 18 42 -99 0
40 46 3 44 4 42 -43 0
40 46 3 44 4 42 -45 0
40 46 3 44 4 42 -41 0
40 46 3 44 4 42 -39 0
40 46 52 44 48 42 -146 0
40 46 52 44 48 42 -147 0
40 46 52 44 48 42 -145 0
40 46 52 44 48 42 -148 0
40 46 30 44 24 42 -118 0
40 46 30 44 24 42 -120 0
40 46 30 44 24 42 -117 0
40 46 30 44 24 42 -119 0
40 46 44 35 42 38 -134 0
40 46 44 35 42 38 -133 0
40 46 44 35 42 38 -132 0
40 46 44 35 42 38 -131 0
40 46 44 61 42 57 -151 0
40 46 44 61 42 57 -152 0
40 46 44 61 42 57 -150 0
40 46 44 61 42 57 -149 0
36 62 33 59 35 61 -142 0
36 62 33 59 35 61 -140 0
36 62 33 59 35 61 -139 0
36 62 33 59 35 61 -141 0
36 62 33 59 35 38 -142 0
36 62 33 59 35 38 -140 0
36 62 33 59 35 38 -139 0
36 62 33 59 35 38 -141 0
36 62 33 59 61 57 -142 0
36 62 33 59 61 57 -140 0
36 62 33 59 61 57 -139 0
36 62 33 59 61 57 -141 0
36 62 33 59 38 57 -142 0
36 62 33 59 38 57 -140 0
36 62 33 59 38 57 -139 0
36 62 33 59 38 57 -141 0
36 62 33 35 61 38 -142 0
36 62 33 35 61 38 -140 0
36 62 33 35 61 38 -139 0
36 62 33 35 61 38 -141 0
36 62 33 35 38 57 -142 0
36 62 33 35 38 57 -140 0
36 62 33 35 38 57 -139 0
36 62 33 35 38 57 -141 0
36 62 59 35 61 57 -142 0
36 62 59 35 61 57 -140 0
36 62 59 35 61 57 -139 0
36 62 59 35 61 57 -141 0
36 62 59 61 38 57 -142 0
36 62 59 61 38 57 -140 0
36 62 59 61 38 57 -139 0
36 62 59 61 38 57 -141 0
36 62 35 61 38 57 -142 0
36 62 35 61 38 57 -140 0
36 62 35 61 38 57 -139 0
36 62 35 61 38 57 -141 0
36 11 33 13 35 38 -73 0
36 11 33 13 35 38 -76 0
36 11 33 13 35 38 -74 0
36 11 33 13 35 38 -75 0
36 11 33 35 8 38 -73 0
36 11 33 35 8 38 -76 0
36 11 33 35 8 38 -74 0
36 11 33 35 8 38 -75 0
36 15 33 16 35 38 -96 0
36 15 33 16 35 38 -95 0
36 15 33 16 35 38 -98 0
36 15 33 16 35 38 -97 0
36 15 33 35 18 38 -96 0
36 15 33 35 18 38 -95 0
36 15 33 35 18 38 -98 0
36 15 33 35 18 38 -97 0
36 5 33 3 35 38 -34 0
36 5 33 3 35 38 -32 0
36 5 33 3 35 38 -37 0
36 5 33 3 35 38 -31 0
36 5 33 35 4 38 -34 0
36 5 33 35 4 38 -32 0
36 5 33 35 4 38 -37 0
36 5 33 35 4 38 -31 0
36 50 33 52 35 38 -136 0
36 50 33 52 35 38 -138 0
36 50 33 52 35 38 -135 0
36 50 33 52 35 38 -137 0
36 50 33 35 48 38 -136 0
36 50 33 35 48 38 -138 0
36 50 33 35 48 38 -135 0
36 50 33 35 48 38 -137 0
36 27 33 30 35 38 -116 0
36 27 33 30 35 38 -114 0
36 27 33 30 35 38 -115 0
36 27 33 30 35 38 -113 0
36 27 33 35 24 38 -116 0
36 27 33 35 24 38 -114 0
36 27 33 35 24 38 -115 0
36 27 33 35 24 38 -113 0
36 46 33 44 35 38 -134 0
36 46 33 44 35 38 -133 0
36 46 33 44 35 38 -132 0
36 46 33 44 35 38 -131 0
36 46 33 35 42 38 -134 0
36 46 33 35 42 38 -133 0
36 46 33 35 42 38 -132 0
36 46 33 35 42 38 -131 0
36 33 59 35 61 38 -142 0
36 33 59 35 61 38 -140 0
36 33 59 35 61 38 -139 0
36 33 59 35 61 38 -141 0
36 33 59 35 38 57 -142 0
36 33 59 35 38 57 -140 0
36 33 59 35 38 57 -139 0
36 33 59 35 38 57 -141 0
36 33 13 35 8 38 -73 0
36 33 13 35 8 38 -76 0
36 33 13 35 8 38 -74 0
36 33 13 35 8 38 -75 0
36 33 16 35 18 38 -96 0
36 33 16 35 18 38 -95 0
36 33 16 35 18 38 -98 0
36 33 16 35 18 38 -97 0
36 33 3 35 4 38 -34 0
36 33 3 35 4 38 -32 0
36 33 3 35 4 38 -37 0
36 33 3 35 4 38 -31 0
36 33 52 35 48 38 -136 0
36 33 52 35 48 38 -138 0
36 33 52 35 48 38 -135 0
36 33 52 35 48 38 -137 0
36 33 30 35 24 38 -116 0
36 33 30 35 24 38 -114 0
36 33 30 35 24 38 -115 0
36 33 30 35 24 38 -113 0
36 33 44 35 42 38 -134 0
36 33 44 35 42 38 -133 0
36 33 44 35 42 38 -132 0
36 33 44 35 42 38 -131 0
36 33 35 61 38 57 -142 0
36 33 35 61 38 57 -140 0
36 33 35 61 38 57 -139 0
36 33 35 61 38 57 -141 0
62 11 59 13 61 57 -87 0
62 11 59 13 61 57 -85 0
62 11 59 13 61 57 -88 0
62 11 59 13 61 57 -86 0
62 11 59 61 8 57 -87 0
62 11 59 61 8 57 -85 0
62 11 59 61 8 57 -88 0
62 11 59 61 8 57 -86 0
62 15 59 16 61 57 -107 0
62 15 59 16 61 57 -108 0
62 15 59 16 61 57 -109 0
62 15 59 16 61 57 -110 0
62 15 59 61 18 57 -107 0
62 15 59 61 18 57 -108 0
62 15 59 61 18 57 -109 0
62 15 59 61 18 57 -110 0
62 5 59 3 61 57 -60 0
62 5 59 3 61 57 -58 0
62 5 59 3 61 57 -56 0
62 5 59 3 61 57 -55 0
62 5 59 61 4 57 -60 0
62 5 59 61 4 57 -58 0
62 5 59 61 4 57 -56 0
62 5 59 61 4 57 -55 0
62 50 59 52 61 57 -157 0
62 50 59 52 61 57 -156 0
62 50 59 52 61 57 -158 0
62 50 59 52 61 57 -155 0
62 50 59 61 48 57 -157 0
62 50 59 61 48 57 -156 0
62 50 59 61 48 57 -158 0
62 50 59 61 48 57 -155 0
62 27 59 30 61 57 -128 0
62 27 59 30 61 57 -127 0
62 27 59 30 61 57 -126 0
62 27 59 30 61 57 -125 0
62 27 59 61 24 57 -128 0
62 27 59 61 24 57 -127 0
62 27 59 61 24 57 -126 0
62 27 59 61 24 57 -125 0
62 46 59 44 61 57 -151 0
62 46 59 44 61 57 -152 0
62 46 59 44 61 57 -150 0
62 46 59 44 61 57 -149 0
62 46 59 61 42 57 -151 0
62 46 59 61 42 57 -152 0
62 46 59 61 42 57 -150 0
62 46 59 61 42 57 -149 0
62 33 59 35 61 57 -142 0
62 33 59 35 61 57 -140 0
62 33 59 35 61 57 -139 0
62 33 59 35 61 57 -141 0
62 33 59 61 38 57 -142 0
62 33 59 61 38 57 -140 0
62 33 59 61 38 57 -139 0
62 33 59 61 38 57 -141 0
62 59 13 61 8 57 -87 0
62 59 13 61 8 57 -85 0
62 59 13 61 8 57 -88 0
62 59 13 61 8 57 -86 0
62 59 16 61 18 57 -107 0
62 59 16 61 18 57 -108 0
62 59 16 61 18 57 -109 0
62 59 16 61 18 57 -110 0
62 59 3 61 4 57 -60 0
62 59 3 61 4 57 -58 0
62 59 3 61 4 57 -56 0
62 59 3 61 4 57 -55 0
62 59 52 61 48 57 -157 0
62 59 52 61 48 57 -156 0
62 59 52 61 48 57 -158 0
62 59 52 61 48 57 -155 0
62 59 30 61 24 57 -128 0
62 59 30 61 24 57 -127 0
62 59 30 61 24 57 -126 0
62 59 30 61 24 57 -125 0
62 59 44 61 42 57 -151 0
62 59 44 61 42 57 -152 0
62 59 44 61 42 57 -150 0
62 59 44 61 42 57 -149 0
62 59 35 61 38 57 -142 0
62 59 35 61 38 57 -140 0
62 59 35 61 38 57 -139 0
62 59 35 61 38 57 -141 0
11 15 13 16 8 18 -66 0
11 15 13 16 8 18 -67 0
11 15 13 16 8 18 -68 0
11 15 13 16 8 18 -65 0
11 5 13 3 8 4 -10 0
11 5 13 3 8 4 -12 0
11 5 13 3 8 4 -9 0
11 5 13 3 8 4 -14 0
11 50 13 52 8 48 -81 0
11 50 13 52 8 48 -83 0
11 50 13 52 8 48 -84 0
11 50 13 52 8 48 -82 0
11 27 13 30 8 24 -70 0
11 27 13 30 8 24 -69 0
11 27 13 30 8 24 -72 0
11 27 13 30 8 24 -71 0
11 46 13 44 8 42 -79 0
11 46 13 44 8 42 -78 0
11 46 13 44 8 42 -80 0
11 46 13 44 8 42 -77 0
11 33 13 35 8 38 -73 0
11 33 13 35 8 38 -76 0
11 33 13 35 8 38 -74 0
11 33 13 35 8 38 -75 0
11 59 13 61 8 57 -87 0
11 59 13 61 8 57 -85 0
11 59 13 61 8 57 -88 0
11 59 13 61 8 57 -86 0
15 5 16 3 18 4 -22 0
15 5 16 3 18 4 -20 0
15 5 16 3 18 4 -21 0
15 5 16 3 18 4 -19 0
15 50 16 52 18 48 -103 0
15 50 16 52 18 48 -105 0
15 50 16 52 18 48 -104 0
15 50 16 52 18 48 -106 0
15 27 16 30 18 24 -94 0
15 27 16 30 18 24 -93 0
15 27 16 30 18 24 -92 0
15 27 16 30 18 24 -91 0
15 46 16 44 18 42 -101 0
15 46 16 44 18 42 -102 0
15 46 16 44 18 42 -100 0
15 46 16 44 18 42 -99 0
15 33 16 35 18 38 -96 0
15 33 16 35 18 38 -95 0
15 33 16 35 18 38 -98 0
15 33 16 35 18 38 -97 0
15 59 16 61 18 57 -107 0
15 59 16 61 18 57 -108 0
15 59 16 61 18 57 -109 0
15 59 16 61 18 57 -110 0
5 50 3 52 4 48 -47 0
5 50 3 52 4 48 -51 0
5 50 3 52 4 48 -54 0
5 50 3 52 4 48 -49 0
5 27 3 30 4 24 -29 0
5 27 3 30 4 24 -26 0
5 27 3 30 4 24 -28 0
5 27 3 30 4 24 -23 0
5 46 3 44 4 42 -43 0
5 46 3 44 4 42 -45 0
5 46 3 44 4 42 -41 0
5 46 3 44 4 42 -39 0
5 33 3 35 4 38 -34 0
5 33 3 35 4 38 -32 0
5 33 3 35 4 38 -37 0
5 33 3 35 4 38 -31 0
5 59 3 61 4 57 -60 0
5 59 3 61 4 57 -58 0
5 59 3 61 4 57 -56 0
5 59 3 61 4 57 -55 0
50 27 52 30 48 24 -121 0
50 27 52 30 48 24 -123 0
50 27 52 30 48 24 -124 0
50 27 52 30 48 24 -122 0
50 46 52 44 48 42 -146 0
50 46 52 44 48 42 -147 0
50 46 52 44 48 42 -145 0
50 46 52 44 48 42 -148 0
50 33 52 35 48 38 -136 0
50 33 52 35 48 38 -138 0
50 33 52 35 48 38 -135 0
50 33 52 35 48 38 -137 0
50 59 52 61 48 57 -157 0
50 59 52 61 48 57 -156 0
50 59 52 61 48 57 -158 0
50 59 52 61 48 57 -155 0
27 46 30 44 24 42 -118 0
27 46 30 44 24 42 -120 0
27 46 30 44 24 42 -117 0
27 46 30 44 24 42 -119 0
27 33 30 35 24 38 -116 0
27 33 30 35 24 38 -114 0
27 33 30 35 24 38 -115 0
27 33 30 35 24 38 -113 0
27 59 30 61 24 57 -128 0
27 59 30 61 24 57 -127 0
27 59 30 61 24 57 -126 0
27 59 30 61 24 57 -125 0
46 33 44 35 42 38 -134 0
46 33 44 35 42 38 -133 0
46 33 44 35 42 38 -132 0
46 33 44 35 42 38 -131 0
46 59 44 61 42 57 -151 0
46 59 44 61 42 57 -152 0
46 59 44 61 42 57 -150 0
46 59 44 61 42 57 -149 0
33 59 35 61 38 57 -142 0
33 59 35 61 38 57 -140 0
33 59 35 61 38 57 -139 0
33 59 35 61 38 57 -141 0
64 66 10 81 70 79 73 87 0
67 90 22 103 94 101 96 107 0
12 20 1 47 29 43 34 60 0
83 105 51 154 121 146 136 157 0
69 93 26 123 112 118 116 128 0
78 102 45 147 120 144 134 151 0
76 95 32 138 114 133 129 142 0
85 108 58 156 127 152 140 160 0
63 68 9 84 72 80 74 88 0
65 89 21 104 92 100 98 109 0
14 19 2 54 28 41 37 56 0
82 106 49 153 124 145 135 158 0
71 91 23 122 111 117 115 126 0
77 99 39 148 119 143 132 150 0
75 97 31 137 113 131 130 139 0
86 110 55 155 125 149 141 159 0
7 17 11 15 13 16 8 -66 0
7 17 11 15 13 16 8 -67 0
7 17 11 15 13 16 8 -68 0
7 17 11 15 13 16 8 -65 0
7 17 11 15 13 16 18 -66 0
7 17 11 15 13 16 18 -67 0
7 17 11 15 13 16 18 -68 0
7 17 11 15 13 16 18 -65 0
7 17 11 15 13 8 18 -66 0
7 17 11 15 13 8 18 -67 0
7 17 11 15 13 8 18 -68 0
7 17 11 15 13 8 18 -65 0
7 17 11 15 16 8 18 -66 0
7 17 11 15 16 8 18 -67 0
7 17 11 15 16 8 18 -68 0
7 17 11 15 16 8 18 -65 0
7 17 11 13 16 8 18 -66 0
7 17 11 13 16 8 18 -67 0
7 17 11 13 16 8 18 -68 0
7 17 11 13 16 8 18 -65 0
7 17 15 13 16 8 18 -66 0
7 17 15 13 16 8 18 -67 0
7 17 15 13 16 8 18 -68 0
7 17 15 13 16 8 18 -65 0
7 6 11 5 13 3 8 -10 0
7 6 11 5 13 3 8 -12 0
7 6 11 5 13 3 8 -9 0
7 6 11 5 13 3 8 -14 0
7 6 11 5 13 3 4 -10 0
7 6 11 5 13 3 4 -12 0
7 6 11 5 13 3 4 -9 0
7 6 11 5 13 3 4 -14 0
7 6 11 5 13 8 4 -10 0
7 6 11 5 13 8 4 -12 0
7 6 11 5 13 8 4 -9 0
7 6 11 5 13 8 4 -14 0
7 6 11 5 3 8 4 -10 0
7 6 11 5 3 8 4 -12 0
7 6 11 5 3 8 4 -9 0
7 6 11 5 3 8 4 -14 0
7 6 11 13 3 8 4 -10 0
7 6 11 13 3 8 4 -12 0
7 6 11 13 3 8 4 -9 0
7 6 11 13 3 8 4 -14 0
7 6 5 13 3 8 4 -10 0
7 6 5 13 3 8 4 -12 0
7 6 5 13 3 8 4 -9 0
7 6 5 13 3 8 4 -14 0
7 53 11 50 13 52 8 -81 0
7 53 11 50 13 52 8 -83 0
7 53 11 50 13 52 8 -84 0
7 53 11 50 13 52 8 -82 0
7 53 11 50 13 52 48 -81 0
7 53 11 50 13 52 48 -83 0
7 53 11 50 13 52 48 -84 0
7 53 11 50 13 52 48 -82 0
7 53 11 50 13 8 48 -81 0
7 53 11 50 13 8 48 -83 0
7 53 11 50 13 8 48 -84 0
7 53 11 50 13 8 48 -82 0
7 53 11 50 52 8 48 -81 0
7 53 11 50 52 8 48 -83 0
7 53 11 50 52 8 48 -84 0
7 53 11 50 52 8 48 -82 0
7 53 11 13 52 8 48 -81 0
7 53 11 13 52 8 48 -83 0
7 53 11 13 52 8 48 -84 0
7 53 11 13 52 8 48 -82 0
7 53 50 13 52 8 48 -81 0
7 53 50 13 52 8 48 -83 0
7 53 50 13 52 8 48 -84 0
7 53 50 13 52 8 48 -82 0
7 25 11 27 13 30 8 -70 0
7 25 11 27 13 30 8 -69 0
7 25 11 27 13 30 8 -72 0
7 25 11 27 13 30 8 -71 0
7 25 11 27 13 30 24 -70 0
7 25 11 27 13 30 24 -69 0
7 25 11 27 13 30 24 -72 0
7 25 11 27 13 30 24 -71 0
7 25 11 27 13 8 24 -70 0
7 25 11 27 13 8 24 -69 0
7 25 11 27 13 8 24 -72 0
7 25 11 27 13 8 24 -71 0
7 25 11 27 30 8 24 -70 0
7 25 11 27 30 8 24 -69 0
7 25 11 27 30 8 24 -72 0
7 25 11 27 30 8 24 -71 0
7 25 11 13 30 8 24 -70 0
7 25 11 13 30 8 24 -69 0
7 25 11 13 30 8 24 -72 0
7 25 11 13 30 8 24 -71 0
7 25 27 13 30 8 24 -70 0
7 25 27 13 30 8 24 -69 0
7 25 27 13 30 8 24 -72 0
7 25 27 13 30 8 24 -71 0
7 40 11 46 13 44 8 -79 0
7 40 11 46 13 44 8 -78 0
7 40 11 46 13 44 8 -80 0
7 40 11 46 13 44 8 -77 0
7 40 11 46 13 44 42 -79 0
7 40 11 46 13 44 42 -78 0
7 40 11 46 13 44 42 -80 0
7 40 11 46 13 44 42 -77 0
7 40 11 46 13 8 42 -79 0
7 40 11 46 13 8 42 -78 0
7 40 11 46 13 8 42 -80 0
7 40 11 46 13 8 42 -77 0
7 40 11 46 44 8 42 -79 0
7 40 11 46 44 8 42 -78 0
7 40 11 46 44 8 42 -80 0
7 40 11 46 44 8 42 -77 0
7 40 11 13 44 8 42 -79 0
7 40 11 13 44 8 42 -78 0
7 40 11 13 44 8 42 -80 0
7 40 11 13 44 8 42 -77 0
7 40 46 13 44 8 42 -79 0
7 40 46 13 44 8 42 -78 0
7 40 46 13 44 8 42 -80 0
7 40 46 13 44 8 42 -77 0
7 36 11 33 13 35 8 -73 0
7 36 11 33 13 35 8 -76 0
7 36 11 33 13 35 8 -74 0
7 36 11 33 13 35 8 -75 0
7 36 11 33 13 35 38 -73 0
7 36 11 33 13 35 38 -76 0
7 36 11 33 13 35 38 -74 0
7 36 11 33 13 35 38 -75 0
7 36 11 33 13 8 38 -73 0
7 36 11 33 13 8 38 -76 0
7 36 11 33 13 8 38 -74 0
7 36 11 33 13 8 38 -75 0
7 36 11 33 35 8 38 -73 0
7 36 11 33 35 8 38 -76 0
7 36 11 33 35 8 38 -74 0
7 36 11 33 35 8 38 -75 0
7 36 11 13 35 8 38 -73 0
7 36 11 13 35 8 38 -76 0
7 36 11 13 35 8 38 -74 0
7 36 11 13 35 8 38 -75 0
7 36 33 13 35 8 38 -73 0
7 36 33 13 35 8 38 -76 0
7 36 33 13 35 8 38 -74 0
7 36 33 13 35 8 38 -75 0
7 62 11 59 13 61 8 -87 0
7 62 11 59 13 61 8 -85 0
7 62 11 59 13 61 8 -88 0
7 62 11 59 13 61 8 -86 0
7 62 11 59 13 61 57 -87 0
7 62 11 59 13 61 57 -85 0
7 62 11 59 13 61 57 -88 0
7 62 11 59 13 61 57 -86 0
7 62 11 59 13 8 57 -87 0
7 62 11 59 13 8 57 -85 0
7 62 11 59 13 8 57 -88 0
7 62 11 59 13 8 57 -86 0
7 62 11 59 61 8 57 -87 0
7 62 11 59 61 8 57 -85 0
7 62 11 59 61 8 57 -88 0
7 62 11 59 61 8 57 -86 0
7 62 11 13 61 8 57 -87 0
7 62 11 13 61 8 57 -85 0
7 62 11 13 61 8 57 -88 0
7 62 11 13 61 8 57 -86 0
7 62 59 13 61 8 57 -87 0
7 62 59 13 61 8 57 -85 0
7 62 59 13 61 8 57 -88 0
7 62 59 13 61 8 57 -86 0
7 11 15 13 16 8 18 -66 0
7 11 15 13 16 8 18 -67 0
7 11 15 13 16 8 18 -68 0
7 11 15 13 16 8 18 -65 0
7 11 5 13 3 8 4 -10 0
7 11 5 13 3 8 4 -12 0
7 11 5 13 3 8 4 -9 0
7 11 5 13 3 8 4 -14 0
7 11 50 13 52 8 48 -81 0
7 11 50 13 52 8 48 -83 0
7 11 50 13 52 8 48 -84 0
7 11 50 13 52 8 48 -82 0
7 11 27 13 30 8 24 -70 0
7 11 27 13 30 8 24 -69 0
7 11 27 13 30 8 24 -72 0
7 11 27 13 30 8 24 -71 0
7 11 46 13 44 8 42 -79 0
7 11 46 13 44 8 42 -78 0
7 11 46 13 44 8 42 -80 0
7 11 46 13 44 8 42 -77 0
7 11 33 13 35 8 38 -73 0
7 11 33 13 35 8 38 -76 0
7 11 33 13 35 8 38 -74 0
7 11 33 13 35 8 38 -75 0
7 11 59 13 61 8 57 -87 0
7 11 59 13 61 8 57 -85 0
7 11 59 13 61 8 57 -88 0
7 11 59 13 61 8 57 -86 0
17 6 15 5 16 3 18 -22 0
17 6 15 5 16 3 18 -20 0
17 6 15 5 16 3 18 -21 0
17 6 15 5 16 3 18 -19 0
17 6 15 5 16 3 4 -22 0
17 6 15 5 16 3 4 -20 0
17 6 15 5 16 3 4 -21 0
17 6 15 5 16 3 4 -19 0
17 6 15 5 16 18 4 -22 0
17 6 15 5 16 18 4 -20 0
17 6 15 5 16 18 4 -21 0
17 6 15 5 16 18 4 -19 0
17 6 15 5 3 18 4 -22 0
17 6 15 5 3 18 4 -20 0
17 6 15 5 3 18 4 -21 0
17 6 15 5 3 18 4 -19 0
17 6 15 16 3 18 4 -22 0
17 6 15 16 3 18 4 -20 0
17 6 15 16 3 18 4 -21 0
17 6 15 16 3 18 4 -19 0
17 6 5 16 3 18 4 -22 0
17 6 5 16 3 18 4 -20 0
17 6 5 16 3 18 4 -21 0
17 6 5 16 3 18 4 -19 0
17 53 15 50 16 52 18 -103 0
17 53 15 50 16 52 18 -105 0
17 53 15 50 16 52 18 -104 0
17 53 15 50 16 52 18 -106 0
17 53 15 50 16 52 48 -103 0
17 53 15 50 16 52 48 -105 0
17 53 15 50 16 52 48 -104 0
17 53 15 50 16 52 48 -106 0
17 53 15 50 16 18 48 -103 0
17 53 15 50 16 18 48 -105 0
17 53 15 50 16 18 48 -104 0
17 53 15 50 16 18 48 -106 0
17 53 15 50 52 18 48 -103 0
17 53 15 50 52 18 48 -105 0
17 53 15 50 52 18 48 -104 0
17 53 15 50 52 18 48 -106 0
17 53 15 16 52 18 48 -103 0
17 53 15 16 52 18 48 -105 0
17 53 15 16 52 18 48 -104 0
17 53 15 16 52 18 48 -106 0
17 53 50 16 52 18 48 -103 0
17 53 50 16 52 18 48 -105 0
17 53 50 16 52 18 48 -104 0
17 53 50 16 52 18 48 -106 0
17 25 15 27 16 30 18 -94 0
17 25 15 27 16 30 18 -93 0
17 25 15 27 16 30 18 -92 0
17 25 15 27 16 30 18 -91 0
17 25 15 27 16 30 24 -94 0
17 25 15 27 16 30 24 -93 0
17 25 15 27 16 30 24 -92 0
17 25 15 27 16 30 24 -91 0
17 25 15 27 16 18 24 -94 0
17 25 15 27 16 18 24 -93 0
17 25 15 27 16 18 24 -92 0
17 25 15 27 16 18 24 -91 0
17 25 15 27 30 18 24 -94 0
17 25 15 27 30 18 24 -93 0
17 25 15 27 30 18 24 -92 0
17 25 15 27 30 18 24 -91 0
17 25 15 16 30 18 24 -94 0
17 25 15 16 30 18 24 -93 0
17 25 15 16 30 18 24 -92 0
17 25 15 16 30 18 24 -91 0
17 25 27 16 30 18 24 -94 0
17 25 27 16 30 18 24 -93 0
17 25 27 16 30 18 24 -92 0
17 25 27 16 30 18 24 -91 0
17 40 15 46 16 44 18 -101 0
17 40 15 46 16 44 18 -102 0
17 40 15 46 16 44 18 -100 0
17 40 15 46 16 44 18 -99 0
17 40 15 46 16 44 42 -101 0
17 40 15 46 16 44 42 -102 0
17 40 15 46 16 44 42 -100 0
17 40 15 46 16 44 42 -99 0
17 40 15 46 16 18 42 -101 0
17 40 15 46 16 18 42 -102 0
17 40 15 46 16 18 42 -100 0
17 40 15 46 16 18 42 -99 0
17 40 15 46 44 18 42 -101 0
17 40 15 46 44 18 42 -102 0
17 40 15 46 44 18 42 -100 0
17 40 15 46 44 18 42 -99 0
17 40 15 16 44 18 42 -101 0
17 40 15 16 44 18 42 -102 0
17 40 15 16 44 18 42 -100 0
17 40 15 16 44 18 42 -99 0
17 40 46 16 44 18 42 -101 0
17 40 46 16 44 18 42 -102 0
17 40 46 16 44 18 42 -100 0
17 40 46 16 44 18 42 -99 0
17 36 15 33 16 35 18 -96 0
17 36 15 33 16 35 18 -95 0
17 36 15 33 16 35 18 -98 0
17 36 15 33 16 35 18 -97 0
17 36 15 33 16 35 38 -96 0
17 36 15 33 16 35 38 -95 0
17 36 15 33 16 35 38 -98 0
17 36 15 33 16 35 38 -97 0
17 36 15 33 16 18 38 -96 0
17 36 15 33 16 18 38 -95 0
17 36 15 33 16 18 38 -98 0
17 36 15 33 16 18 38 -97 0
17 36 15 33 35 18 38 -96 0
17 36 15 33 35 18 38 -95 0
17 36 15 33 35 18 38 -98 0
17 36 15 33 35 18 38 -97 0
17 36 15 16 35 18 38 -96 0
17 36 15 16 35 18 38 -95 0
17 36 15 16 35 18 38 -98 0
17 36 15 16 35 18 38 -97 0
17 36 33 16 35 18 38 -96 0
17 36 33 16 35 18 38 -95 0
17 36 33 16 35 18 38 -98 0
17 36 33 16 35 18 38 -97 0
17 62 15 59 16 61 18 -107 0
17 62 15 59 16 61 18 -108 0
17 62 15 59 16 61 18 -109 0
17 62 15 59 16 61 18 -110 0
17 62 15 59 16 61 57 -107 0
17 62 15 59 16 61 57 -108 0
17 62 15 59 16 61 57 -109 0
17 62 15 59 16 61 57 -110 0
17 62 15 59 16 18 57 -107 0
17 62 15 59 16 18 57 -108 0
17 62 15 59 16 18 57 -109 0
17 62 15 59 16 18 57 -110 0
17 62 15 59 61 18 57 -107 0
17 62 15 59 61 18 57 -108 0
17 62 15 59 61 18 57 -109 0
17 62 15 59 61 18 57 -110 0
17 62 15 16 61 18 57 -107 0
17 62 15 16 61 18 57 -108 0
17 62 15 16 61 18 57 -109 0
17 62 15 16 61 18 57 -110 0
17 62 59 16 61 18 57 -107 0
17 62 59 16 61 18 57 -108 0
17 62 59 16 61 18 57 -109 0
17 62 59 16 61 18 57 -110 0
17 11 15 13 16 8 18 -66 0
17 11 15 13 16 8 18 -67 0
17 11 15 13 16 8 18 -68 0
17 11 15 13 16 8 18 -65 0
17 15 5 16 3 18 4 -22 0
17 15 5 16 3 18 4 -20 0
17 15 5 16 3 18 4 -21 0
17 15 5 16 3 18 4 -19 0
17 15 50 16 52 18 48 -103 0
17 15 50 16 52 18 48 -105 0
17 15 50 16 52 18 48 -104 0
17 15 50 16 52 18 48 -106 0
17 15 27 16 30 18 24 -94 0
17 15 27 16 30 18 24 -93 0
17 15 27 16 30 18 24 -92 0
17 15 27 16 30 18 24 -91 0
17 15 46 16 44 18 42 -101 0
17 15 46 16 44 18 42 -102 0
17 15 46 16 44 18 42 -100 0
17 15 46 16 44 18 42 -99 0
17 15 33 16 35 18 38 -96 0
17 15 33 16 35 18 38 -95 0
17 15 33 16 35 18 38 -98 0
17 15 33 16 35 18 38 -97 0
17 15 59 16 61 18 57 -107 0
17 15 59 16 61 18 57 -108 0
17 15 59 16 61 18 57 -109 0
17 15 59 16 61 18 57 -110 0
6 53 5 50 3 52 4 -47 0
6 53 5 50 3 52 4 -51 0
6 53 5 50 3 52 4 -54 0
6 53 5 50 3 52 4 -49 0
6 53 5 50 3 52 48 -47 0
6 53 5 50 3 52 48 -51 0
6 53 5 50 3 52 48 -54 0
6 53 5 50 3 52 48 -49 0
6 53 5 50 3 4 48 -47 0
6 53 5 50 3 4 48 -51 0
6 53 5 50 3 4 48 -54 0
6 53 5 50 3 4 48 -49 0
6 53 5 50 52 4 48 -47 0
6 53 5 50 52 4 48 -51 0
6 53 5 50 52 4 48 -54 0
6 53 5 50 52 4 48 -49 0
6 53 5 3 52 4 48 -47 0
6 53 5 3 52 4 48 -51 0
6 53 5 3 52 4 48 -54 0
6 53 5 3 52 4 48 -49 0
6 53 50 3 52 4 48 -47 0
6 53 50 3 52 4 48 -51 0
6 53 50 3 52 4 48 -54 0
6 53 50 3 52 4 48 -49 0
6 25 5 27 3 30 4 -29 0
6 25 5 27 3 30 4 -26 0
6 25 5 27 3 30 4 -28 0
6 25 5 27 3 30 4 -23 0
6 25 5 27 3 30 24 -29 0
6 25 5 27 3 30 24 -26 0
6 25 5 27 3 30 24 -28 0
6 25 5 27 3 30 24 -23 0
6 25 5 27 3 4 24 -29 0
6 25 5 27 3 4 24 -26 0
6 25 5 27 3 4 24 -28 0
6 25 5 27 3 4 24 -23 0
6 25 5 27 30 4 24 -29 0
6 25 5 27 30 4 24 -26 0
6 25 5 27 30 4 24 -28 0
6 25 5 27 30 4 24 -23 0
6 25 5 3 30 4 24 -29 0
6 25 5 3 30 4 24 -26 0
6 25 5 3 30 4 24 -28 0
6 25 5 3 30 4 24 -23 0
6 25 27 3 30 4 24 -29 0
6 25 27 3 30 4 24 -26 0
6 25 27 3 30 4 24 -28 0
6 25 27 3 30 4 24 -23 0
6 40 5 46 3 44 4 -43 0
6 40 5 46 3 44 4 -45 0
6 40 5 46 3 44 4 -41 0
6 40 5 46 3 44 4 -39 0
6 40 5 46 3 44 42 -43 0
6 40 5 46 3 44 42 -45 0
6 40 5 46 3 44 42 -41 0
6 40 5 46 3 44 42 -39 0
6 40 5 46 3 4 42 -43 0
6 40 5 46 3 4 42 -45 0
6 40 5 46 3 4 42 -41 0
6 40 5 46 3 4 42 -39 0
6 40 5 46 44 4 42 -43 0
6 40 5 46 44 4 42 -45 0
6 40 5 46 44 4 42 -41 0
6 40 5 46 44 4 42 -39 0
6 40 5 3 44 4 42 -43 0
6 40 5 3 44 4 42 -45 0
6 40 5 3 44 4 42 -41 0
6 40 5 3 44 4 42 -39 0
6 40 46 3 44 4 42 -43 0
6 40 46 3 44 4 42 -45 0
6 40 46 3 44 4 42 -41 0
6 40 46 3 44 4 42 -39 0
6 36 5 33 3 35 4 -34 0
6 36 5 33 3 35 4 -32 0
6 36 5 33 3 35 4 -37 0
6 36 5 33 3 35 4 -31 0
6 36 5 33 3 35 38 -34 0
6 36 5 33 3 35 38 -32 0
6 36 5 33 3 35 38 -37 0
6 36 5 33 3 35 38 -31 0
6 36 5 33 3 4 38 -34 0
6 36 5 33 3 4 38 -32 0
6 36 5 33 3 4 38 -37 0
6 36 5 33 3 4 38 -31 0
6 36 5 33 35 4 38 -34 0
6 36 5 33 35 4 38 -32 0
6 36 5 33 35 4 38 -37 0
6 36 5 33 35 4 38 -31 0
6 36 5 3 35 4 38 -34 0
6 36 5 3 35 4 38 -32 0
6 36 5 3 35 4 38 -37 0
6 36 5 3 35 4 38 -31 0
6 36 33 3 35 4 38 -34 0
6 36 33 3 35 4 38 -32 0
6 36 33 3 35 4 38 -37 0
6 36 33 3 35 4 38 -31 0
6 62 5 59 3 61 4 -60 0
6 62 5 59 3 61 4 -58 0
6 62 5 59 3 61 4 -56 0
6 62 5 59 3 61 4 -55 0
6 62 5 59 3 61 57 -60 0
6 62 5 59 3 61 57 -58 0
6 62 5 59 3 61 57 -56 0
6 62 5 59 3 61 57 -55 0
6 62 5 59 3 4 57 -60 0
6 62 5 59 3 4 57 -58 0
6 62 5 59 3 4 57 -56 0
6 62 5 59 3 4 57 -55 0
6 62 5 59 61 4 57 -60 0
6 62 5 59 61 4 57 -58 0
6 62 5 59 61 4 57 -56 0
6 62 5 59 61 4 57 -55 0
6 62 5 3 61 4 57 -60 0
6 62 5 3 61 4 57 -58 0
6 62 5 3 61 4 57 -56 0
6 62 5 3 61 4 57 -55 0
6 62 59 3 61 4 57 -60 0
6 62 59 3 61 4 57 -58 0
6 62 59 3 61 4 57 -56 0
6 62 59 3 61 4 57 -55 0
6 11 5 13 3 8 4 -10 0
6 11 5 13 3 8 4 -12 0
6 11 5 13 3 8 4 -9 0
6 11 5 13 3 8 4 -14 0
6 15 5 16 3 18 4 -22 0
6 15 5 16 3 18 4 -20 0
6 15 5 16 3 18 4 -21 0
6 15 5 16 3 18 4 -19 0
6 5 50 3 52 4 48 -47 0
6 5 50 3 52 4 48 -51 0
6 5 50 3 52 4 48 -54 0
6 5 50 3 52 4 48 -49 0
6 5 27 3 30 4 24 -29 0
6 5 27 3 30 4 24 -26 0
6 5 27 3 30 4 24 -28 0
6 5 27 3 30 4 24 -23 0
6 5 46 3 44 4 42 -43 0
6 5 46 3 44 4 42 -45 0
6 5 46 3 44 4 42 -41 0
6 5 46 3 44 4 42 -39 0
6 5 33 3 35 4 38 -34 0
6 5 33 3 35 4 38 -32 0
6 5 33 3 35 4 38 -37 0
6 5 33 3 35 4 38 -31 0
6 5 59 3 61 4 57 -60 0
6 5 59 3 61 4 57 -58 0
6 5 59 3 61 4 57 -56 0
6 5 59 3 61 4 57 -55 0
53 25 50 27 52 30 48 -121 0
53 25 50 27 52 30 48 -123 0
53 25 50 27 52 30 48 -124 0
53 25 50 27 52 30 48 -122 0
53 25 50 27 52 30 24 -121 0
53 25 50 27 52 30 24 -123 0
53 25 50 27 52 30 24 -124 0
53 25 50 27 52 30 24 -122 0
53 25 50 27 52 48 24 -121 0
53 25 50 27 52 48 24 -123 0
53 25 50 27 52 48 24 -124 0
53 25 50 27 52 48 24 -122 0
53 25 50 27 30 48 24 -121 0
53 25 50 27 30 48 24 -123 0
53 25 50 27 30 48 24 -124 0
53 25 50 27 30 48 24 -122 0
53 25 50 52 30 48 24 -121 0
53 25 50 52 30 48 24 -123 0
53 25 50 52 30 48 24 -124 0
53 25 50 52 30 48 24 -122 0
53 25 27 52 30 48 24 -121 0
53 25 27 52 30 48 24 -123 0
53 25 27 52 30 48 24 -124 0
53 25 27 52 30 48 24 -122 0
53 40 50 46 52 44 48 -146 0
53 40 50 46 52 44 48 -147 0
53 40 50 46 52 44 48 -145 0
53 40 50 46 52 44 48 -148 0
53 40 50 46 52 44 42 -146 0
53 40 50 46 52 44 42 -147 0
53 40 50 46 52 44 42 -145 0
53 40 50 46 52 44 42 -148 0
53 40 50 46 52 48 42 -146 0
53 40 50 46 52 48 42 -147 0
53 40 50 46 52 48 42 -145 0
53 40 50 46 52 48 42 -148 0
53 40 50 46 44 48 42 -146 0
53 40 50 46 44 48 42 -147 0
53 40 50 46 44 48 42 -145 0
53 40 50 46 44 48 42 -148 0
53 40 50 52 44 48 42 -146 0
53 40 50 52 44 48 42 -147 0
53 40 50 52 44 48 42 -145 0
53 40 50 52 44 48 42 -148 0
53 40 46 52 44 48 42 -146 0
53 40 46 52 44 48 42 -147 0
53 40 46 52 44 48 42 -145 0
53 40 46 52 44 48 42 -148 0
53 36 50 33 52 35 48 -136 0
53 36 50 33 52 35 48 -138 0
53 36 50 33 52 35 48 -135 0
53 36 50 33 52 35 48 -137 0
53 36 50 33 52 35 38 -136 0
53 36 50 33 52 35 38 -138 0
53 36 50 33 52 35 38 -135 0
53 36 50 33 52 35 38 -137 0
53 36 50 33 52 48 38 -136 0
53 36 50 33 52 48 38 -138 0
53 36 50 33 52 48 38 -135 0
53 36 50 33 52 48 38 -137 0
53 36 50 33 35 48 38 -136 0
53 36 50 33 35 48 38 -138 0
53 36 50 33 35 48 38 -135 0
53 36 50 33 35 48 38 -137 0
53 36 50 52 35 48 38 -136 0
53 36 50 52 35 48 38 -138 0
53 36 50 52 35 48 38 -135 0
53 36 50 52 35 48 38 -137 0
53 36 33 52 35 48 38 -136 0
53 36 33 52 35 48 38 -138 0
53 36 33 52 35 48 38 -135 0
53 36 33 52 35 48 38 -137 0
53 62 50 59 52 61 48 -157 0
53 62 50 59 52 61 48 -156 0
53 62 50 59 52 61 48 -158 0
53 62 50 59 52 61 48 -155 0
53 62 50 59 52 61 57 -157 0
53 62 50 59 52 61 57 -156 0
53 62 50 59 52 61 57 -158 0
53 62 50 59 52 61 57 -155 0
53 62 50 59 52 48 57 -157 0
53 62 50 59 52 48 57 -156 0
53 62 50 59 52 48 57 -158 0
53 62 50 59 52 48 57 -155 0
53 62 50 59 61 48 57 -157 0
53 62 50 59 61 48 57 -156 0
53 62 50 59 61 48 57 -158 0
53 62 50 59 61 48 57 -155 0
53 62 50 52 61 48 57 -157 0
53 62 50 52 61 48 57 -156 0
53 62 50 52 61 48 57 -158 0
53 62 50 52 61 48 57 -155 0
53 62 59 52 61 48 57 -157 0
53 62 59 52 61 48 57 -156 0
53 62 59 52 61 48 57 -158 0
53 62 59 52 61 48 57 -155 0
53 11 50 13 52 8 48 -81 0
53 11 50 13 52 8 48 -83 0
53 11 50 13 52 8 48 -84 0
53 11 50 13 52 8 48 -82 0
53 15 50 16 52 18 48 -103 0
53 15 50 16 52 18 48 -105 0
53 15 50 16 52 18 48 -104 0
53 15 50 16 52 18 48 -106 0
53 5 50 3 52 4 48 -47 0
53 5 50 3 52 4 48 -51 0
53 5 50 3 52 4 48 -54 0
53 5 50 3 52 4 48 -49 0
53 50 27 52 30 48 24 -121 0
53 50 27 52 30 48 24 -123 0
53 50 27 52 30 48 24 -124 0
53 50 27 52 30 48 24 -122 0
53 50 46 52 44 48 42 -146 0
53 50 46 52 44 48 42 -147 0
53 50 46 52 44 48 42 -145 0
53 50 46 52 44 48 42 -148 0
53 50 33 52 35 48 38 -136 0
53 50 33 52 35 48 38 -138 0
53 50 33 52 35 48 38 -135 0
53 50 33 52 35 48 38 -137 0
53 50 59 52 61 48 57 -157 0
53 50 59 52 61 48 57 -156 0
53 50 59 52 61 48 57 -158 0
53 50 59 52 61 48 57 -155 0
25 40 27 46 30 44 24 -118 0
25 40 27 46 30 44 24 -120 0
25 40 27 46 30 44 24 -117 0
25 40 27 46 30 44 24 -119 0
25 40 27 46 30 44 42 -118 0
25 40 27 46 30 44 42 -120 0
25 40 27 46 30 44 42 -117 0
25 40 27 46 30 44 42 -119 0
25 40 27 46 30 24 42 -118 0
25 40 27 46 30 24 42 -120 0
25 40 27 46 30 24 42 -117 0
25 40 27 46 30 24 42 -119 0
25 40 27 46 44 24 42 -118 0
25 40 27 46 44 24 42 -120 0
25 40 27 46 44 24 42 -117 0
25 40 27 46 44 24 42 -119 0
25 40 27 30 44 24 42 -118 0
25 40 27 30 44 24 42 -120 0
25 40 27 30 44 24 42 -117 0
25 40 27 30 44 24 42 -119 0
25 40 46 30 44 24 42 -118 0
25 40 46 30 44 24 42 -120 0
25 40 46 30 44 24 42 -117 0
25 40 46 30 44 24 42 -119 0
25 36 27 33 30 35 24 -116 0
25 36 27 33 30 35 24 -114 0
25 36 27 33 30 35 24 -115 0
25 36 27 33 30 35 24 -113 0
25 36 27 33 30 35 38 -116 0
25 36 27 33 30 35 38 -114 0
25 36 27 33 30 35 38 -115 0
25 36 27 33 30 35 38 -113 0
25 36 27 33 30 24 38 -116 0
25 36 27 33 30 24 38 -114 0
25 36 27 33 30 24 38 -115 0
25 36 27 33 30 24 38 -113 0
25 36 27 33 35 24 38 -116 0
25 36 27 33 35 24 38 -114 0
25 36 27 33 35 24 38 -115 0
25 36 27 33 35 24 38 -113 0
25 36 27 30 35 24 38 -116 0
25 36 27 30 35 24 38 -114 0
25 36 27 30 35 24 38 -115 0
25 36 27 30 35 24 38 -113 0
25 36 33 30 35 24 38 -116 0
25 36 33 30 35 24 38 -114 0
25 36 33 30 35 24 38 -115 0
25 36 33 30 35 24 38 -113 0
25 62 27 59 30 61 24 -128 0
25 62 27 59 30 61 24 -127 0
25 62 27 59 30 61 24 -126 0
25 62 27 59 30 61 24 -125 0
25 62 27 59 30 61 57 -128 0
25 62 27 59 30 61 57 -127 0
25 62 27 59 30 61 57 -126 0
25 62 27 59 30 61 57 -125 0
25 62 27 59 30 24 57 -128 0
25 62 27 59 30 24 57 -127 0
25 62 27 59 30 24 57 -126 0
25 62 27 59 30 24 57 -125 0
25 62 27 59 61 24 57 -128 0
25 62 27 59 61 24 57 -127 0
25 62 27 59 61 24 57 -126 0
25 62 27 59 61 24 57 -125 0
25 62 27 30 61 24 57 -128 0
25 62 27 30 61 24 57 -127 0
25 62 27 30 61 24 57 -126 0
25 62 27 30 61 24 57 -125 0
25 62 59 30 61 24 57 -128 0
25 62 59 30 61 24 57 -127 0
25 62 59 30 61 24 57 -126 0
25 62 59 30 61 24 57 -125 0
25 11 27 13 30 8 24 -70 0
25 11 27 13 30 8 24 -69 0
25 11 27 13 30 8 24 -72 0
25 11 27 13 30 8 24 -71 0
25 15 27 16 30 18 24 -94 0
25 15 27 16 30 18 24 -93 0
25 15 27 16 30 18 24 -92 0
25 15 27 16 30 18 24 -91 0
25 5 27 3 30 4 24 -29 0
25 5 27 3 30 4 24 -26 0
25 5 27 3 30 4 24 -28 0
25 5 27 3 30 4 24 -23 0
25 50 27 52 30 48 24 -121 0
25 50 27 52 30 48 24 -123 0
25 50 27 52 30 48 24 -124 0
25 50 27 52 30 48 24 -122 0
25 27 46 30 44 24 42 -118 0
25 27 46 30 44 24 42 -120 0
25 27 46 30 44 24 42 -117 0
25 27 46 30 44 24 42 -119 0
25 27 33 30 35 24 38 -116 0
25 27 33 30 35 24 38 -114 0
25 27 33 30 35 24 38 -115 0
25 27 33 30 35 24 38 -113 0
25 27 59 30 61 24 57 -128 0
25 27 59 30 61 24 57 -127 0
25 27 59 30 61 24 57 -126 0
25 27 59 30 61 24 57 -125 0
40 36 46 33 44 35 42 -134 0
40 36 46 33 44 35 42 -133 0
40 36 46 33 44 35 42 -132 0
40 36 46 33 44 35 42 -131 0
40 36 46 33 44 35 38 -134 0
40 36 46 33 44 35 38 -133 0
40 36 46 33 44 35 38 -132 0
40 36 46 33 44 35 38 -131 0
40 36 46 33 44 42 38 -134 0
40 36 46 33 44 42 38 -133 0
40 36 46 33 44 42 38 -132 0
40 36 46 33 44 42 38 -131 0
40 36 46 33 35 42 38 -134 0
40 36 46 33 35 42 38 -133 0
40 36 46 33 35 42 38 -132 0
40 36 46 33 35 42 38 -131 0
40 36 46 44 35 42 38 -134 0
40 36 46 44 35 42 38 -133 0
40 36 46 44 35 42 38 -132 0
40 36 46 44 35 42 38 -131 0
40 36 33 44 35 42 38 -134 0
40 36 33 44 35 42 38 -133 0
40 36 33 44 35 42 38 -132 0
40 36 33 44 35 42 38 -131 0
40 62 46 59 44 61 42 -151 0
40 62 46 59 44 61 42 -152 0
40 62 46 59 44 61 42 -150 0
40 62 46 59 44 61 42 -149 0
40 62 46 59 44 61 57 -151 0
40 62 46 59 44 61 57 -152 0
40 62 46 59 44 61 57 -150 0
40 62 46 59 44 61 57 -149 0
40 62 46 59 44 42 57 -151 0
40 62 46 59 44 42 57 -152 0
40 62 46 59 44 42 57 -150 0
40 62 46 59 44 42 57 -149 0
40 62 46 59 61 42 57 -151 0
40 62 46 59 61 42 57 -152 0
40 62 46 59 61 42 57 -150 0
40 62 46 59 61 42 57 -149 0
40 62 46 44 61 42 57 -151 0
40 62 46 44 61 42 57 -152 0
40 62 46 44 61 42 57 -150 0
40 62 46 44 61 42 57 -149 0
40 62 59 44 61 42 57 -151 0
40 62 59 44 61 42 57 -152 0
40 62 59 44 61 42 57 -150 0
40 62 59 44 61 42 57 -149 0
40 11 46 13 44 8 42 -79 0
40 11 46 13 44 8 42 -78 0
40 11 46 13 44 8 42 -80 0
40 11 46 13 44 8 42 -77 0
40 15 46 16 44 18 42 -101 0
40 15 46 16 44 18 42 -102 0
40 15 46 16 44 18 42 -100 0
40 15 46 16 44 18 42 -99 0
40 5 46 3 44 4 42 -43 0
40 5 46 3 44 4 42 -45 0
40 5 46 3 44 4 42 -41 0
40 5 46 3 44 4 42 -39 0
40 50 46 52 44 48 42 -146 0
40 50 46 52 44 48 42 -147 0
40 50 46 52 44 48 42 -145 0
40 50 46 52 44 48 42 -148 0
40 27 46 30 44 24 42 -118 0
40 27 46 30 44 24 42 -120 0
40 27 46 30 44 24 42 -117 0
40 27 46 30 44 24 42 -119 0
40 46 33 44 35 42 38 -134 0
40 46 33 44 35 42 38 -133 0
40 46 33 44 35 42 38 -132 0
40 46 33 44 35 42 38 -131 0
40 46 59 44 61 42 57 -151 0
40 46 59 44 61 42 57 -152 0
40 46 59 44 61 42 57 -150 0
40 46 59 44 61 42 57 -149 0
36 62 33 59 35 61 38 -142 0
36 62 33 59 35 61 38 -140 0
36 62 33 59 35 61 38 -139 0
36 62 33 59 35 61 38 -141 0
36 62 33 59 35 61 57 -142 0
36 62 33 59 35 61 57 -140 0
36 62 33 59 35 61 57 -139 0
36 62 33 59 35 61 57 -141 0
36 62 33 59 35 38 57 -142 0
36 62 33 59 35 38 57 -140 0
36 62 33 59 35 38 57 -139 0
36 62 33 59 35 38 57 -141 0
36 62 33 59 61 38 57 -142 0
36 62 33 59 61 38 57 -140 0
36 62 33 59 61 38 57 -139 0
36 62 33 59 61 38 57 -141 0
36 62 33 35 61 38 57 -142 0
36 62 33 35 61 38 57 -140 0
36 62 33 35 61 38 57 -139 0
36 62 33 35 61 38 57 -141 0
36 62 59 35 61 38 57 -142 0
36 62 59 35 61 38 57 -140 0
36 62 59 35 61 38 57 -139 0
36 62 59 35 61 38 57 -141 0
36 11 33 13 35 8 38 -73 0
36 11 33 13 35 8 38 -76 0
36 11 33 13 35 8 38 -74 0
36 11 33 13 35 8 38 -75 0
36 15 33 16 35 18 38 -96 0
36 15 33 16 35 18 38 -95 0
36 15 33 16 35 18 38 -98 0
36 15 33 16 35 18 38 -97 0
36 5 33 3 35 4 38 -34 0
36 5 33 3 35 4 38 -32 0
36 5 33 3 35 4 38 -37 0
36 5 33 3 35 4 38 -31 0
36 50 33 52 35 48 38 -136 0
36 50 33 52 35 48 38 -138 0
36 50 33 52 35 48 38 -135 0
36 50 33 52 35 48 38 -137 0
36 27 33 30 35 24 38 -116 0
36 27 33 30 35 24 38 -114 0
36 27 33 30 35 24 38 -115 0
36 27 33 30 35 24 38 -113 0
36 46 33 44 35 42 38 -134 0
36 46 33 44 35 42 38 -133 0
36 46 33 44 35 42 38 -132 0
36 46 33 44 35 42 38 -131 0
36 33 59 35 61 38 57 -142 0
36 33 59 35 61 38 57 -140 0
36 33 59 35 61 38 57 -139 0
36 33 59 35 61 38 57 -141 0
62 11 59 13 61 8 57 -87 0
62 11 59 13 61 8 57 -85 0
62 11 59 13 61 8 57 -88 0
62 11 59 13 61 8 57 -86 0
62 15 59 16 61 18 57 -107 0
62 15 59 16 61 18 57 -108 0
62 15 59 16 61 18 57 -109 0
62 15 59 16 61 18 57 -110 0
62 5 59 3 61 4 57 -60 0
62 5 59 3 61 4 57 -58 0
62 5 59 3 61 4 57 -56 0
62 5 59 3 61 4 57 -55 0
62 50 59 52 61 48 57 -157 0
62 50 59 52 61 48 57 -156 0
62 50 59 52 61 48 57 -158 0
62 50 59 52 61 48 57 -155 0
62 27 59 30 61 24 57 -128 0
62 27 59 30 61 24 57 -127 0
62 27 59 30 61 24 57 -126 0
62 27 59 30 61 24 57 -125 0
62 46 59 44 61 42 57 -151 0
62 46 59 44 61 42 57 -152 0
62 46 59 44 61 42 57 -150 0
62 46 59 44 61 42 57 -149 0
62 33 59 35 61 38 57 -142 0
62 33 59 35 61 38 57 -140 0
62 33 59 35 61 38 57 -139 0
62 33 59 35 61 38 57 -141 0
7 17 11 15 13 16 8 18 -66 0
7 17 11 15 13 16 8 18 -67 0
7 17 11 15 13 16 8 18 -68 0
7 17 11 15 13 16 8 18 -65 0
7 6 11 5 13 3 8 4 -10 0
7 6 11 5 13 3 8 4 -12 0
7 6 11 5 13 3 8 4 -9 0
7 6 11 5 13 3 8 4 -14 0
7 53 11 50 13 52 8 48 -81 0
7 53 11 50 13 52 8 48 -83 0
7 53 11 50 13 52 8 48 -84 0
7 53 11 50 13 52 8 48 -82 0
7 25 11 27 13 30 8 24 -70 0
7 25 11 27 13 30 8 24 -69 0
7 25 11 27 13 30 8 24 -72 0
7 25 11 27 13 30 8 24 -71 0
7 40 11 46 13 44 8 42 -79 0
7 40 11 46 13 44 8 42 -78 0
7 40 11 46 13 44 8 42 -80 0
7 40 11 46 13 44 8 42 -77 0
7 36 11 33 13 35 8 38 -73 0
7 36 11 33 13 35 8 38 -76 0
7 36 11 33 13 35 8 38 -74 0
7 36 11 33 13 35 8 38 -75 0
7 62 11 59 13 61 8 57 -87 0
7 62 11 59 13 61 8 57 -85 0
7 62 11 59 13 61 8 57 -88 0
7 62 11 59 13 61 8 57 -86 0
17 6 15 5 16 3 18 4 -22 0
17 6 15 5 16 3 18 4 -20 0
17 6 15 5 16 3 18 4 -21 0
17 6 15 5 16 3 18 4 -19 0
17 53 15 50 16 52 18 48 -103 0
17 53 15 50 16 52 18 48 -105 0
17 53 15 50 16 52 18 48 -104 0
17 53 15 50 16 52 18 48 -106 0
17 25 15 27 16 30 18 24 -94 0
17 25 15 27 16 30 18 24 -93 0
17 25 15 27 16 30 18 24 -92 0
17 25 15 27 16 30 18 24 -91 0
17 40 15 46 16 44 18 42 -101 0
17 40 15 46 16 44 18 42 -102 0
17 40 15 46 16 44 18 42 -100 0
17 40 15 46 16 44 18 42 -99 0
17 36 15 33 16 35 18 38 -96 0
17 36 15 33 16 35 18 38 -95 0
17 36 15 33 16 35 18 38 -98 0
17 36 15 33 16 35 18 38 -97 0
17 62 15 59 16 61 18 57 -107 0
17 62 15 59 16 61 18 57 -108 0
17 62 15 59 16 61 18 57 -109 0
17 62 15 59 16 61 18 57 -110 0
6 53 5 50 3 52 4 48 -47 0
6 53 5 50 3 52 4 48 -51 0
6 53 5 50 3 52 4 48 -54 0
6 53 5 50 3 52 4 48 -49 0
6 25 5 27 3 30 4 24 -29 0
6 25 5 27 3 30 4 24 -26 0
6 25 5 27 3 30 4 24 -28 0
6 25 5 27 3 30 4 24 -23 0
6 40 5 46 3 44 4 42 -43 0
6 40 5 46 3 44 4 42 -45 0
6 40 5 46 3 44 4 42 -41 0
6 40 5 46 3 44 4 42 -39 0
6 36 5 33 3 35 4 38 -34 0
6 36 5 33 3 35 4 38 -32 0
6 36 5 33 3 35 4 38 -37 0
6 36 5 33 3 35 4 38 -31 0
6 62 5 59 3 61 4 57 -60 0
6 62 5 59 3 61 4 57 -58 0
6 62 5 59 3 61 4 57 -56 0
6 62 5 59 3 61 4 57 -55 0
53 25 50 27 52 30 48 24 -121 0
53 25 50 27 52 30 48 24 -123 0
53 25 50 27 52 30 48 24 -124 0
53 25 50 27 52 30 48 24 -122 0
53 40 50 46 52 44 48 42 -146 0
53 40 50 46 52 44 48 42 -147 0
53 40 50 46 52 44 48 42 -145 0
53 40 50 46 52 44 48 42 -148 0
53 36 50 33 52 35 48 38 -136 0
53 36 50 33 52 35 48 38 -138 0
53 36 50 33 52 35 48 38 -135 0
53 36 50 33 52 35 48 38 -137 0
53 62 50 59 52 61 48 57 -157 0
53 62 50 59 52 61 48 57 -156 0
53 62 50 59 52 61 48 57 -158 0
53 62 50 59 52 61 48 57 -155 0
25 40 27 46 30 44 24 42 -118 0
25 40 27 46 30 44 24 42 -120 0
25 40 27 46 30 44 24 42 -117 0
25 40 27 46 30 44 24 42 -119 0
25 36 27 33 30 35 24 38 -116 0
25 36 27 33 30 35 24 38 -114 0
25 36 27 33 30 35 24 38 -115 0
25 36 27 33 30 35 24 38 -113 0
25 62 27 59 30 61 24 57 -128 0
25 62 27 59 30 61 24 57 -127 0
25 62 27 59 30 61 24 57 -126 0
25 62 27 59 30 61 24 57 -125 0
40 36 46 33 44 35 42 38 -134 0
40 36 46 33 44 35 42 38 -133 0
40 36 46 33 44 35 42 38 -132 0
40 36 46 33 44 35 42 38 -131 0
40 62 46 59 44 61 42 57 -151 0
40 62 46 59 44 61 42 57 -152 0
40 62 46 59 44 61 42 57 -150 0
40 62 46 59 44 61 42 57 -149 0
36 62 33 59 35 61 38 57 -142 0
36 62 33 59 35 61 38 57 -140 0
36 62 33 59 35 61 38 57 -139 0
36 62 33 59 35 61 38 57 -141 0
