c E2(1,1) U1(1) U2(1) E1(1,1) E1(6,1) E2(1,6) U1(6) E1(1,6) U2(6) E2(6,1) E1(3,1) E1(1,3) E2(3,1) E2(1,3) U1(3) U2(3) E2(1,9) E1(1,9) E1(9,1) U1(9) U2(9) E2(9,1) U2(7) E2(7,1) E2(1,7) U1(7) E1(7,1) E1(1,7) U2(8) E1(8,1) E2(1,8) U1(8) E1(1,8) E2(8,1) E2(0,1) U2(0) E1(1,0) E2(1,0) E1(0,1) U1(0) U2(4) E1(1,4) E2(1,4) E1(4,1) U1(4) E2(4,1) U2(5) E1(5,1) E2(5,1) E2(1,5) U1(5) E1(1,5) U2(2) E2(1,2) U1(2) E1(2,1) E2(2,1) E1(1,2) E2(6,6) E1(6,6) E2(3,6) E1(6,3) E1(3,6) E2(6,3) E1(6,9) E2(9,6) E1(9,6) E2(6,9) E2(7,6) E1(6,7) E1(7,6) E2(6,7) E2(6,8) E2(8,6) E1(6,8) E1(8,6) E2(0,6) E1(0,6) E1(6,0) E2(6,0) E1(6,4) E1(4,6) E2(6,4) E2(4,6) E1(5,6) E1(6,5) E2(6,5) E2(5,6) E1(6,2) E2(2,6) E1(2,6) E2(6,2) E1(3,3) E2(3,3) E2(3,9) E1(9,3) E2(9,3) E1(3,9) E2(3,7) E1(3,7) E1(7,3) E2(7,3) E1(3,8) E1(8,3) E2(3,8) E2(8,3) E2(3,0) E2(0,3) E1(3,0) E1(0,3) E1(3,4) E1(4,3) E2(3,4) E2(4,3) E2(5,3) E1(3,5) E2(3,5) E1(5,3) E2(2,3) E1(3,2) E2(3,2) E1(2,3) E1(9,9) E2(9,9) E1(7,9) E2(9,7) E1(9,7) E2(7,9) E1(9,8) E1(8,9) E2(8,9) E2(9,8) E2(0,9) E1(9,0) E2(9,0) E1(0,9) E1(9,4) E1(4,9) E2(9,4) E2(4,9) E2(5,9) E1(9,5) E2(9,5) E1(5,9) E2(2,9) E2(9,2) E1(9,2) E1(2,9) E2(7,7) E1(7,7) E1(7,8) E1(8,7) E2(7,8) E2(8,7) E2(7,0) E2(0,7) E1(7,0) E1(0,7) E1(7,4) E1(4,7) E2(7,4) E2(4,7) E1(5,7) E2(7,5) E2(5,7) E1(7,5) E1(2,7) E2(2,7) E2(7,2) E1(7,2) E1(8,8) E2(8,8) E1(0,8) E2(0,8) E1(8,0) E2(8,0) E1(8,4) E1(4,8) E2(8,4) E2(4,8) E1(8,5) E2(8,5) E1(5,8) E2(5,8) E1(8,2) E2(2,8) E2(8,2) E1(2,8) E1(0,0) E2(0,0) E2(4,0) E1(0,4) E1(4,0) E2(0,4) E1(0,5) E1(5,0) E2(0,5) E2(5,0) E1(2,0) E2(2,0) E2(0,2) E1(0,2) E1(4,4) E2(4,4) E1(5,4) E2(4,5) E2(5,4) E1(4,5) E1(2,4) E2(4,2) E2(2,4) E1(4,2) E2(5,5) E1(5,5) E1(2,5) E2(2,5) E1(5,2) E2(5,2) E1(2,2) E2(2,2)
c 1 2 3 4 5 6 7 8 9 10 11 12 13 14 15 16 17 18 19 20 21 22 23 24 25 26 27 28 29 30 31 32 33 34 35 36 37 38 39 40 41 42 43 44 45 46 47 48 49 50 51 52 53 54 55 56 57 58 59 60 61 62 63 64 65 66 67 68 69 70 71 72 73 74 75 76 77 78 79 80 81 82 83 84 85 86 87 88 89 90 91 92 93 94 95 96 97 98 99 100 101 102 103 104 105 106 107 108 109 110 111 112 113 114 115 116 117 118 119 120 121 122 123 124 125 126 127 128 129 130 131 132 133 134 135 136 137 138 139 140 141 142 143 144 145 146 147 148 149 150 151 152 153 154 155 156 157 158 159 160 161 162 163 164 165 166 167 168 169 170 171 172 173 174 175 176 177 178 179 180 181 182 183 184 185 186 187 188 189 190 191 192 193 194 195 196 197 198 199 200 201 202 203 204 205 206 207 208 209 210 211 212 213 214 215 216 217 218 219 220
p cnf 220 1100
40 36 0
2 3 0
55 53 0
15 16 0
45 41 0
51 47 0
7 9 0
26 23 0
32 29 0
20 21 0
189 -189 0
39 -37 0
202 -199 0
110 -109 0
192 -193 0
195 -196 0
78 -79 0
158 -157 0
173 -175 0
136 -134 0
37 -39 0
4 -4 0
58 -56 0
12 -11 0
42 -44 0
52 -48 0
8 -5 0
28 -27 0
33 -30 0
18 -19 0
199 -202 0
56 -58 0
219 -219 0
122 -120 0
209 -212 0
215 -217 0
91 -89 0
167 -170 0
188 -185 0
148 -147 0
109 -110 0
11 -12 0
120 -122 0
93 -93 0
111 -112 0
116 -118 0
63 -62 0
100 -101 0
103 -104 0
98 -96 0
193 -192 0
44 -42 0
212 -209 0
112 -111 0
203 -203 0
208 -205 0
82 -81 0
160 -159 0
178 -177 0
138 -137 0
196 -195 0
48 -52 0
217 -215 0
118 -116 0
205 -208 0
214 -214 0
85 -86 0
163 -166 0
183 -181 0
144 -142 0
79 -78 0
5 -8 0
89 -91 0
62 -63 0
81 -82 0
86 -85 0
60 -60 0
70 -71 0
75 -76 0
65 -67 0
157 -158 0
27 -28 0
170 -167 0
101 -100 0
159 -160 0
166 -163 0
71 -70 0
150 -150 0
151 -152 0
125 -127 0
175 -173 0
30 -33 0
185 -188 0
104 -103 0
177 -178 0
181 -183 0
76 -75 0
152 -151 0
171 -171 0
130 -129 0
134 -136 0
19 -18 0
147 -148 0
96 -98 0
137 -138 0
142 -144 0
67 -65 0
127 -125 0
129 -130 0
123 -123 0
190 -190 0
35 -38 0
201 -200 0
108 -107 0
194 -191 0
197 -198 0
77 -80 0
156 -155 0
174 -176 0
133 -135 0
38 -35 0
1 -1 0
54 -57 0
14 -13 0
43 -46 0
50 -49 0
6 -10 0
25 -24 0
31 -34 0
17 -22 0
200 -201 0
57 -54 0
220 -220 0
119 -121 0
211 -210 0
216 -218 0
90 -92 0
168 -169 0
186 -187 0
145 -146 0
107 -108 0
13 -14 0
121 -119 0
94 -94 0
113 -114 0
117 -115 0
61 -64 0
99 -102 0
105 -106 0
95 -97 0
191 -194 0
46 -43 0
210 -211 0
114 -113 0
204 -204 0
206 -207 0
84 -83 0
162 -161 0
180 -179 0
140 -139 0
198 -197 0
49 -50 0
218 -216 0
115 -117 0
207 -206 0
213 -213 0
88 -87 0
165 -164 0
184 -182 0
141 -143 0
80 -77 0
10 -6 0
92 -90 0
64 -61 0
83 -84 0
87 -88 0
59 -59 0
72 -69 0
73 -74 0
68 -66 0
155 -156 0
24 -25 0
169 -168 0
102 -99 0
161 -162 0
164 -165 0
69 -72 0
149 -149 0
153 -154 0
128 -126 0
176 -174 0
34 -31 0
187 -186 0
106 -105 0
179 -180 0
182 -184 0
74 -73 0
154 -153 0
172 -172 0
131 -132 0
135 -133 0
22 -17 0
146 -145 0
97 -95 0
139 -140 0
143 -141 0
66 -68 0
126 -128 0
132 -131 0
124 -124 0
40 -189 0
40 -190 0
2 -4 0
2 -1 0
55 -219 0
55 -220 0
15 -93 0
15 -94 0
45 -203 0
45 -204 0
51 -214 0
51 -213 0
7 -60 0
7 -59 0
26 -150 0
26 -149 0
32 -171 0
32 -172 0
20 -123 0
20 -124 0
36 -189 0
36 -190 0
3 -4 0
3 -1 0
53 -219 0
53 -220 0
16 -93 0
16 -94 0
41 -203 0
41 -204 0
47 -214 0
47 -213 0
9 -60 0
9 -59 0
23 -150 0
23 -149 0
29 -171 0
29 -172 0
21 -123 0
21 -124 0
-189 -190 0
-39 -35 0
-202 -201 0
-110 -108 0
-192 -194 0
-195 -197 0
-78 -77 0
-158 -156 0
-173 -174 0
-136 -133 0
-37 -38 0
-4 -1 0
-58 -54 0
-12 -14 0
-42 -43 0
-52 -50 0
-8 -6 0
-28 -25 0
-33 -31 0
-18 -17 0
-199 -200 0
-56 -57 0
-219 -220 0
-122 -119 0
-209 -211 0
-215 -216 0
-91 -90 0
-167 -168 0
-188 -186 0
-148 -145 0
-109 -107 0
-11 -13 0
-120 -121 0
-93 -94 0
-111 -113 0
-116 -117 0
-63 -61 0
-100 -99 0
-103 -105 0
-98 -95 0
-193 -191 0
-44 -46 0
-212 -210 0
-112 -114 0
-203 -204 0
-208 -206 0
-82 -84 0
-160 -162 0
-178 -180 0
-138 -140 0
-196 -198 0
-48 -49 0
-217 -218 0
-118 -115 0
-205 -207 0
-214 -213 0
-85 -88 0
-163 -165 0
-183 -184 0
-144 -141 0
-79 -80 0
-5 -10 0
-89 -92 0
-62 -64 0
-81 -83 0
-86 -87 0
-60 -59 0
-70 -72 0
-75 -73 0
-65 -68 0
-157 -155 0
-27 -24 0
-170 -169 0
-101 -102 0
-159 -161 0
-166 -164 0
-71 -69 0
-150 -149 0
-151 -153 0
-125 -128 0
-175 -176 0
-30 -34 0
-185 -187 0
-104 -106 0
-177 -179 0
-181 -182 0
-76 -74 0
-152 -154 0
-171 -172 0
-130 -131 0
-134 -135 0
-19 -22 0
-147 -146 0
-96 -97 0
-137 -139 0
-142 -143 0
-67 -66 0
-127 -126 0
-129 -132 0
-123 -124 0
-40 -36 0
-2 -3 0
-55 -53 0
-15 -16 0
-45 -41 0
-51 -47 0
-7 -9 0
-26 -23 0
-32 -29 0
-20 -21 0
40 2 -39 0
40 2 -37 0
40 2 -35 0
40 2 -38 0
40 55 -202 0
40 55 -199 0
40 55 -201 0
40 55 -200 0
40 15 -110 0
40 15 -109 0
40 15 -108 0
40 15 -107 0
40 45 -192 0
40 45 -193 0
40 45 -194 0
40 45 -191 0
40 51 -195 0
40 51 -196 0
40 51 -197 0
40 51 -198 0
40 7 -78 0
40 7 -79 0
40 7 -77 0
40 7 -80 0
40 26 -158 0
40 26 -157 0
40 26 -156 0
40 26 -155 0
40 32 -173 0
40 32 -175 0
40 32 -174 0
40 32 -176 0
40 20 -136 0
40 20 -134 0
40 20 -133 0
40 20 -135 0
40 36 -39 0
40 36 -202 0
40 36 -110 0
40 36 -192 0
40 36 -195 0
40 36 -78 0
40 36 -158 0
40 36 -173 0
40 36 -136 0
40 36 -37 0
40 36 -199 0
40 36 -109 0
40 36 -193 0
40 36 -196 0
40 36 -79 0
40 36 -157 0
40 36 -175 0
40 36 -134 0
40 36 -35 0
40 36 -201 0
40 36 -108 0
40 36 -194 0
40 36 -197 0
40 36 -77 0
40 36 -156 0
40 36 -174 0
40 36 -133 0
40 36 -38 0
40 36 -200 0
40 36 -107 0
40 36 -191 0
40 36 -198 0
40 36 -80 0
40 36 -155 0
40 36 -176 0
40 36 -135 0
2 55 -58 0
2 55 -56 0
2 55 -54 0
2 55 -57 0
2 15 -12 0
2 15 -11 0
2 15 -14 0
2 15 -13 0
2 45 -42 0
2 45 -44 0
2 45 -43 0
2 45 -46 0
2 51 -52 0
2 51 -48 0
2 51 -50 0
2 51 -49 0
2 7 -8 0
2 7 -5 0
2 7 -6 0
2 7 -10 0
2 26 -28 0
2 26 -27 0
2 26 -25 0
2 26 -24 0
2 32 -33 0
2 32 -30 0
2 32 -31 0
2 32 -34 0
2 20 -18 0
2 20 -19 0
2 20 -17 0
2 20 -22 0
2 3 -39 0
2 3 -37 0
2 3 -58 0
2 3 -12 0
2 3 -42 0
2 3 -52 0
2 3 -8 0
2 3 -28 0
2 3 -33 0
2 3 -18 0
2 3 -56 0
2 3 -11 0
2 3 -44 0
2 3 -48 0
2 3 -5 0
2 3 -27 0
2 3 -30 0
2 3 -19 0
2 3 -35 0
2 3 -38 0
2 3 -54 0
2 3 -14 0
2 3 -43 0
2 3 -50 0
2 3 -6 0
2 3 -25 0
2 3 -31 0
2 3 -17 0
2 3 -57 0
2 3 -13 0
2 3 -46 0
2 3 -49 0
2 3 -10 0
2 3 -24 0
2 3 -34 0
2 3 -22 0
55 15 -122 0
55 15 -120 0
55 15 -119 0
55 15 -121 0
55 45 -209 0
55 45 -212 0
55 45 -211 0
55 45 -210 0
55 51 -215 0
55 51 -217 0
55 51 -216 0
55 51 -218 0
55 7 -91 0
55 7 -89 0
55 7 -90 0
55 7 -92 0
55 26 -167 0
55 26 -170 0
55 26 -168 0
55 26 -169 0
55 32 -188 0
55 32 -185 0
55 32 -186 0
55 32 -187 0
55 20 -148 0
55 20 -147 0
55 20 -145 0
55 20 -146 0
55 53 -202 0
55 53 -58 0
55 53 -199 0
55 53 -56 0
55 53 -122 0
55 53 -209 0
55 53 -215 0
55 53 -91 0
55 53 -167 0
55 53 -188 0
55 53 -148 0
55 53 -120 0
55 53 -212 0
55 53 -217 0
55 53 -89 0
55 53 -170 0
55 53 -185 0
55 53 -147 0
55 53 -201 0
55 53 -54 0
55 53 -200 0
55 53 -57 0
55 53 -119 0
55 53 -211 0
55 53 -216 0
55 53 -90 0
55 53 -168 0
55 53 -186 0
55 53 -145 0
55 53 -121 0
55 53 -210 0
55 53 -218 0
55 53 -92 0
55 53 -169 0
55 53 -187 0
55 53 -146 0
15 45 -111 0
15 45 -112 0
15 45 -113 0
15 45 -114 0
15 51 -116 0
15 51 -118 0
15 51 -117 0
15 51 -115 0
15 7 -63 0
15 7 -62 0
15 7 -61 0
15 7 -64 0
15 26 -100 0
15 26 -101 0
15 26 -99 0
15 26 -102 0
15 32 -103 0
15 32 -104 0
15 32 -105 0
15 32 -106 0
15 20 -98 0
15 20 -96 0
15 20 -95 0
15 20 -97 0
15 16 -110 0
15 16 -12 0
15 16 -122 0
15 16 -109 0
15 16 -11 0
15 16 -120 0
15 16 -111 0
15 16 -116 0
15 16 -63 0
15 16 -100 0
15 16 -103 0
15 16 -98 0
15 16 -112 0
15 16 -118 0
15 16 -62 0
15 16 -101 0
15 16 -104 0
15 16 -96 0
15 16 -108 0
15 16 -14 0
15 16 -119 0
15 16 -107 0
15 16 -13 0
15 16 -121 0
15 16 -113 0
15 16 -117 0
15 16 -61 0
15 16 -99 0
15 16 -105 0
15 16 -95 0
15 16 -114 0
15 16 -115 0
15 16 -64 0
15 16 -102 0
15 16 -106 0
15 16 -97 0
45 51 -208 0
45 51 -205 0
45 51 -206 0
45 51 -207 0
45 7 -82 0
45 7 -81 0
45 7 -84 0
45 7 -83 0
45 26 -160 0
45 26 -159 0
45 26 -162 0
45 26 -161 0
45 32 -178 0
45 32 -177 0
45 32 -180 0
45 32 -179 0
45 20 -138 0
45 20 -137 0
45 20 -140 0
45 20 -139 0
45 41 -192 0
45 41 -42 0
45 41 -209 0
45 41 -111 0
45 41 -193 0
45 41 -44 0
45 41 -212 0
45 41 -112 0
45 41 -208 0
45 41 -82 0
45 41 -160 0
45 41 -178 0
45 41 -138 0
45 41 -205 0
45 41 -81 0
45 41 -159 0
45 41 -177 0
45 41 -137 0
45 41 -194 0
45 41 -43 0
45 41 -211 0
45 41 -113 0
45 41 -191 0
45 41 -46 0
45 41 -210 0
45 41 -114 0
45 41 -206 0
45 41 -84 0
45 41 -162 0
45 41 -180 0
45 41 -140 0
45 41 -207 0
45 41 -83 0
45 41 -161 0
45 41 -179 0
45 41 -139 0
51 7 -85 0
51 7 -86 0
51 7 -88 0
51 7 -87 0
51 26 -163 0
51 26 -166 0
51 26 -165 0
51 26 -164 0
51 32 -183 0
51 32 -181 0
51 32 -184 0
51 32 -182 0
51 20 -144 0
51 20 -142 0
51 20 -141 0
51 20 -143 0
51 47 -195 0
51 47 -52 0
51 47 -215 0
51 47 -116 0
51 47 -208 0
51 47 -196 0
51 47 -48 0
51 47 -217 0
51 47 -118 0
51 47 -205 0
51 47 -85 0
51 47 -163 0
51 47 -183 0
51 47 -144 0
51 47 -86 0
51 47 -166 0
51 47 -181 0
51 47 -142 0
51 47 -197 0
51 47 -50 0
51 47 -216 0
51 47 -117 0
51 47 -206 0
51 47 -198 0
51 47 -49 0
51 47 -218 0
51 47 -115 0
51 47 -207 0
51 47 -88 0
51 47 -165 0
51 47 -184 0
51 47 -141 0
51 47 -87 0
51 47 -164 0
51 47 -182 0
51 47 -143 0
7 26 -70 0
7 26 -71 0
7 26 -72 0
7 26 -69 0
7 32 -75 0
7 32 -76 0
7 32 -73 0
7 32 -74 0
7 20 -65 0
7 20 -67 0
7 20 -68 0
7 20 -66 0
7 9 -78 0
7 9 -8 0
7 9 -91 0
7 9 -63 0
7 9 -82 0
7 9 -85 0
7 9 -79 0
7 9 -5 0
7 9 -89 0
7 9 -62 0
7 9 -81 0
7 9 -86 0
7 9 -70 0
7 9 -75 0
7 9 -65 0
7 9 -71 0
7 9 -76 0
7 9 -67 0
7 9 -77 0
7 9 -6 0
7 9 -90 0
7 9 -61 0
7 9 -84 0
7 9 -88 0
7 9 -80 0
7 9 -10 0
7 9 -92 0
7 9 -64 0
7 9 -83 0
7 9 -87 0
7 9 -72 0
7 9 -73 0
7 9 -68 0
7 9 -69 0
7 9 -74 0
7 9 -66 0
26 32 -151 0
26 32 -152 0
26 32 -153 0
26 32 -154 0
26 20 -125 0
26 20 -127 0
26 20 -128 0
26 20 -126 0
26 23 -158 0
26 23 -28 0
26 23 -167 0
26 23 -100 0
26 23 -160 0
26 23 -163 0
26 23 -70 0
26 23 -157 0
26 23 -27 0
26 23 -170 0
26 23 -101 0
26 23 -159 0
26 23 -166 0
26 23 -71 0
26 23 -151 0
26 23 -125 0
26 23 -152 0
26 23 -127 0
26 23 -156 0
26 23 -25 0
26 23 -168 0
26 23 -99 0
26 23 -162 0
26 23 -165 0
26 23 -72 0
26 23 -155 0
26 23 -24 0
26 23 -169 0
26 23 -102 0
26 23 -161 0
26 23 -164 0
26 23 -69 0
26 23 -153 0
26 23 -128 0
26 23 -154 0
26 23 -126 0
32 20 -130 0
32 20 -129 0
32 20 -131 0
32 20 -132 0
32 29 -173 0
32 29 -33 0
32 29 -188 0
32 29 -103 0
32 29 -178 0
32 29 -183 0
32 29 -75 0
32 29 -151 0
32 29 -175 0
32 29 -30 0
32 29 -185 0
32 29 -104 0
32 29 -177 0
32 29 -181 0
32 29 -76 0
32 29 -152 0
32 29 -130 0
32 29 -129 0
32 29 -174 0
32 29 -31 0
32 29 -186 0
32 29 -105 0
32 29 -180 0
32 29 -184 0
32 29 -73 0
32 29 -153 0
32 29 -176 0
32 29 -34 0
32 29 -187 0
32 29 -106 0
32 29 -179 0
32 29 -182 0
32 29 -74 0
32 29 -154 0
32 29 -131 0
32 29 -132 0
20 21 -136 0
20 21 -18 0
20 21 -148 0
20 21 -98 0
20 21 -138 0
20 21 -144 0
20 21 -65 0
20 21 -125 0
20 21 -130 0
20 21 -134 0
20 21 -19 0
20 21 -147 0
20 21 -96 0
20 21 -137 0
20 21 -142 0
20 21 -67 0
20 21 -127 0
20 21 -129 0
20 21 -133 0
20 21 -17 0
20 21 -145 0
20 21 -95 0
20 21 -140 0
20 21 -141 0
20 21 -68 0
20 21 -128 0
20 21 -131 0
20 21 -135 0
20 21 -22 0
20 21 -146 0
20 21 -97 0
20 21 -139 0
20 21 -143 0
20 21 -66 0
20 21 -126 0
20 21 -132 0
36 3 -39 0
36 3 -37 0
36 3 -35 0
36 3 -38 0
36 53 -202 0
36 53 -199 0
36 53 -201 0
36 53 -200 0
36 16 -110 0
36 16 -109 0
36 16 -108 0
36 16 -107 0
36 41 -192 0
36 41 -193 0
36 41 -194 0
36 41 -191 0
36 47 -195 0
36 47 -196 0
36 47 -197 0
36 47 -198 0
36 9 -78 0
36 9 -79 0
36 9 -77 0
36 9 -80 0
36 23 -158 0
36 23 -157 0
36 23 -156 0
36 23 -155 0
36 29 -173 0
36 29 -175 0
36 29 -174 0
36 29 -176 0
36 21 -136 0
36 21 -134 0
36 21 -133 0
36 21 -135 0
3 53 -58 0
3 53 -56 0
3 53 -54 0
3 53 -57 0
3 16 -12 0
3 16 -11 0
3 16 -14 0
3 16 -13 0
3 41 -42 0
3 41 -44 0
3 41 -43 0
3 41 -46 0
3 47 -52 0
3 47 -48 0
3 47 -50 0
3 47 -49 0
3 9 -8 0
3 9 -5 0
3 9 -6 0
3 9 -10 0
3 23 -28 0
3 23 -27 0
3 23 -25 0
3 23 -24 0
3 29 -33 0
3 29 -30 0
3 29 -31 0
3 29 -34 0
3 21 -18 0
3 21 -19 0
3 21 -17 0
3 21 -22 0
53 16 -122 0
53 16 -120 0
53 16 -119 0
53 16 -121 0
53 41 -209 0
53 41 -212 0
53 41 -211 0
53 41 -210 0
53 47 -215 0
53 47 -217 0
53 47 -216 0
53 47 -218 0
53 9 -91 0
53 9 -89 0
53 9 -90 0
53 9 -92 0
53 23 -167 0
53 23 -170 0
53 23 -168 0
53 23 -169 0
53 29 -188 0
53 29 -185 0
53 29 -186 0
53 29 -187 0
53 21 -148 0
53 21 -147 0
53 21 -145 0
53 21 -146 0
16 41 -111 0
16 41 -112 0
16 41 -113 0
16 41 -114 0
16 47 -116 0
16 47 -118 0
16 47 -117 0
16 47 -115 0
16 9 -63 0
16 9 -62 0
16 9 -61 0
16 9 -64 0
16 23 -100 0
16 23 -101 0
16 23 -99 0
16 23 -102 0
16 29 -103 0
16 29 -104 0
16 29 -105 0
16 29 -106 0
16 21 -98 0
16 21 -96 0
16 21 -95 0
16 21 -97 0
41 47 -208 0
41 47 -205 0
41 47 -206 0
41 47 -207 0
41 9 -82 0
41 9 -81 0
41 9 -84 0
41 9 -83 0
41 23 -160 0
41 23 -159 0
41 23 -162 0
41 23 -161 0
41 29 -178 0
41 29 -177 0
41 29 -180 0
41 29 -179 0
41 21 -138 0
41 21 -137 0
41 21 -140 0
41 21 -139 0
47 9 -85 0
47 9 -86 0
47 9 -88 0
47 9 -87 0
47 23 -163 0
47 23 -166 0
47 23 -165 0
47 23 -164 0
47 29 -183 0
47 29 -181 0
47 29 -184 0
47 29 -182 0
47 21 -144 0
47 21 -142 0
47 21 -141 0
47 21 -143 0
9 23 -70 0
9 23 -71 0
9 23 -72 0
9 23 -69 0
9 29 -75 0
9 29 -76 0
9 29 -73 0
9 29 -74 0
9 21 -65 0
9 21 -67 0
9 21 -68 0
9 21 -66 0
23 29 -151 0
23 29 -152 0
23 29 -153 0
23 29 -154 0
23 21 -125 0
23 21 -127 0
23 21 -128 0
23 21 -126 0
29 21 -130 0
29 21 -129 0
29 21 -131 0
29 21 -132 0
189 39 202 110 192 195 78 158 173 136 0
37 4 58 12 42 52 8 28 33 18 0
199 56 219 122 209 215 91 167 188 148 0
109 11 120 93 111 116 63 100 103 98 0
193 44 212 112 203 208 82 160 178 138 0
196 48 217 118 205 214 85 163 183 144 0
79 5 89 62 81 86 60 70 75 65 0
157 27 170 101 159 166 71 150 151 125 0
175 30 185 104 177 181 76 152 171 130 0
134 19 147 96 137 142 67 127 129 123 0
190 35 201 108 194 197 77 156 174 133 0
38 1 54 14 43 50 6 25 31 17 0
200 57 220 119 211 216 90 168 186 145 0
107 13 121 94 113 117 61 99 105 95 0
191 46 210 114 204 206 84 162 180 140 0
198 49 218 115 207 213 88 165 184 141 0
80 10 92 64 83 87 59 72 73 68 0
155 24 169 102 161 164 69 149 153 128 0
176 34 187 106 179 182 74 154 172 131 0
135 22 146 97 139 143 66 126 132 124 0
