c E2(0,0) U2(0) U1(0) E1(0,0) E1(0,1) E1(1,0) E2(0,1) U1(1) E2(1,0) U2(1) E1(3,0) E2(0,3) E1(0,3) E2(3,0) U2(3) U1(3) E1(4,0) U2(4) E2(0,4) U1(4) E1(0,4) E2(4,0) E1(0,2) E2(0,2) U1(2) E1(2,0) E2(2,0) U2(2) E1(1,1) E2(1,1) E1(1,3) E2(1,3) E1(3,1) E2(3,1) E1(4,1) E2(4,1) E1(1,4) E2(1,4) E1(2,1) E2(2,1) E2(1,2) E1(1,2) E2(3,3) E1(3,3) E1(4,3) E2(4,3) E2(3,4) E1(3,4) E1(3,2) E1(2,3) E2(3,2) E2(2,3) E1(4,4) E2(4,4) E2(4,2) E2(2,4) E1(2,4) E1(4,2) E1(2,2) E2(2,2)
c 1 2 3 4 5 6 7 8 9 10 11 12 13 14 15 16 17 18 19 20 21 22 23 24 25 26 27 28 29 30 31 32 33 34 35 36 37 38 39 40 41 42 43 44 45 46 47 48 49 50 51 52 53 54 55 56 57 58 59 60
p cnf 60 275
3 2 0
8 10 0
25 28 0
16 15 0
20 18 0
4 -4 0
5 -6 0
23 -26 0
13 -11 0
21 -17 0
6 -5 0
29 -29 0
42 -39 0
31 -33 0
37 -35 0
26 -23 0
39 -42 0
59 -59 0
50 -49 0
57 -58 0
11 -13 0
33 -31 0
49 -50 0
44 -44 0
48 -45 0
17 -21 0
35 -37 0
58 -57 0
45 -48 0
53 -53 0
1 -1 0
7 -9 0
24 -27 0
12 -14 0
19 -22 0
9 -7 0
30 -30 0
41 -40 0
32 -34 0
38 -36 0
27 -24 0
40 -41 0
60 -60 0
52 -51 0
56 -55 0
14 -12 0
34 -32 0
51 -52 0
43 -43 0
47 -46 0
22 -19 0
36 -38 0
55 -56 0
46 -47 0
54 -54 0
3 -4 0
3 -1 0
8 -29 0
8 -30 0
25 -59 0
25 -60 0
16 -44 0
16 -43 0
20 -53 0
20 -54 0
2 -4 0
2 -1 0
10 -29 0
10 -30 0
28 -59 0
28 -60 0
15 -44 0
15 -43 0
18 -53 0
18 -54 0
-4 -1 0
-5 -7 0
-23 -24 0
-13 -12 0
-21 -19 0
-6 -9 0
-29 -30 0
-42 -41 0
-31 -32 0
-37 -38 0
-26 -27 0
-39 -40 0
-59 -60 0
-50 -52 0
-57 -56 0
-11 -14 0
-33 -34 0
-49 -51 0
-44 -43 0
-48 -47 0
-17 -22 0
-35 -36 0
-58 -55 0
-45 -46 0
-53 -54 0
-3 -2 0
-8 -10 0
-25 -28 0
-16 -15 0
-20 -18 0
3 8 -5 0
3 8 -6 0
3 8 -7 0
3 8 -9 0
3 25 -23 0
3 25 -26 0
3 25 -24 0
3 25 -27 0
3 16 -13 0
3 16 -11 0
3 16 -12 0
3 16 -14 0
3 20 -21 0
3 20 -17 0
3 20 -19 0
3 20 -22 0
3 2 -5 0
3 2 -23 0
3 2 -13 0
3 2 -21 0
3 2 -6 0
3 2 -26 0
3 2 -11 0
3 2 -17 0
3 2 -7 0
3 2 -24 0
3 2 -12 0
3 2 -19 0
3 2 -9 0
3 2 -27 0
3 2 -14 0
3 2 -22 0
8 25 -42 0
8 25 -39 0
8 25 -41 0
8 25 -40 0
8 16 -31 0
8 16 -33 0
8 16 -32 0
8 16 -34 0
8 20 -37 0
8 20 -35 0
8 20 -38 0
8 20 -36 0
8 10 -5 0
8 10 -6 0
8 10 -42 0
8 10 -31 0
8 10 -37 0
8 10 -39 0
8 10 -33 0
8 10 -35 0
8 10 -7 0
8 10 -9 0
8 10 -41 0
8 10 -32 0
8 10 -38 0
8 10 -40 0
8 10 -34 0
8 10 -36 0
25 16 -50 0
25 16 -49 0
25 16 -52 0
25 16 -51 0
25 20 -57 0
25 20 -58 0
25 20 -56 0
25 20 -55 0
25 28 -23 0
25 28 -42 0
25 28 -26 0
25 28 -39 0
25 28 -50 0
25 28 -57 0
25 28 -49 0
25 28 -58 0
25 28 -24 0
25 28 -41 0
25 28 -27 0
25 28 -40 0
25 28 -52 0
25 28 -56 0
25 28 -51 0
25 28 -55 0
16 20 -48 0
16 20 -45 0
16 20 -47 0
16 20 -46 0
16 15 -13 0
16 15 -31 0
16 15 -50 0
16 15 -11 0
16 15 -33 0
16 15 -49 0
16 15 -48 0
16 15 -45 0
16 15 -12 0
16 15 -32 0
16 15 -52 0
16 15 -14 0
16 15 -34 0
16 15 -51 0
16 15 -47 0
16 15 -46 0
20 18 -21 0
20 18 -37 0
20 18 -57 0
20 18 -48 0
20 18 -17 0
20 18 -35 0
20 18 -58 0
20 18 -45 0
20 18 -19 0
20 18 -38 0
20 18 -56 0
20 18 -47 0
20 18 -22 0
20 18 -36 0
20 18 -55 0
20 18 -46 0
2 10 -5 0
2 10 -6 0
2 10 -7 0
2 10 -9 0
2 28 -23 0
2 28 -26 0
2 28 -24 0
2 28 -27 0
2 15 -13 0
2 15 -11 0
2 15 -12 0
2 15 -14 0
2 18 -21 0
2 18 -17 0
2 18 -19 0
2 18 -22 0
10 28 -42 0
10 28 -39 0
10 28 -41 0
10 28 -40 0
10 15 -31 0
10 15 -33 0
10 15 -32 0
10 15 -34 0
10 18 -37 0
10 18 -35 0
10 18 -38 0
10 18 -36 0
28 15 -50 0
28 15 -49 0
28 15 -52 0
28 15 -51 0
28 18 -57 0
28 18 -58 0
28 18 -56 0
28 18 -55 0
15 18 -48 0
15 18 -45 0
15 18 -47 0
15 18 -46 0
4 5 23 13 21 0
6 29 42 31 37 0
26 39 59 50 57 0
11 33 49 44 48 0
17 35 58 45 53 0
1 7 24 12 19 0
9 30 41 32 38 0
27 40 60 52 56 0
14 34 51 43 47 0
22 36 55 46 54 0
