c E2(2,2) U1(2) E1(2,2) U2(2) E2(0,2) E1(0,2) E1(2,0) E2(2,0) U2(0) U1(0) U2(1) E2(2,1) E1(1,2) U1(1) E2(1,2) E1(2,1) E2(2,4) E2(4,2) E1(4,2) U1(4) U2(4) E1(2,4) E2(5,2) E1(5,2) U2(5) E2(2,5) U1(5) E1(2,5) E1(3,2) E2(2,3) U1(3) U2(3) E2(3,2) E1(2,3) E2(0,0) E1(0,0) E2(1,0) E1(0,1) E1(1,0) E2(0,1) E2(4,0) E2(0,4) E1(0,4) E1(4,0) E2(0,5) E2(5,0) E1(0,5) E1(5,0) E2(3,0) E2(0,3) E1(3,0) E1(0,3) E2(1,1) E1(1,1) E1(1,4) E1(4,1) E2(1,4) E2(4,1) E2(1,5) E1(5,1) E1(1,5) E2(5,1) E1(3,1) E2(1,3) E1(1,3) E2(3,1) E1(4,4) E2(4,4) E1(5,4) E1(4,5) E2(5,4) E2(4,5) E2(3,4) E1(4,3) E1(3,4) E2(4,3) E1(5,5) E2(5,5) E1(3,5) E1(5,3) E2(3,5) E2(5,3) E2(3,3) E1(3,3)
c 1 2 3 4 5 6 7 8 9 10 11 12 13 14 15 16 17 18 19 20 21 22 23 24 25 26 27 28 29 30 31 32 33 34 35 36 37 38 39 40 41 42 43 44 45 46 47 48 49 50 51 52 53 54 55 56 57 58 59 60 61 62 63 64 65 66 67 68 69 70 71 72 73 74 75 76 77 78 79 80 81 82 83 84
p cnf 84 396
10 9 0
14 11 0
2 4 0
31 32 0
20 21 0
27 25 0
36 -36 0
38 -39 0
6 -7 0
52 -51 0
43 -44 0
47 -48 0
39 -38 0
54 -54 0
13 -16 0
65 -63 0
55 -56 0
61 -60 0
7 -6 0
16 -13 0
3 -3 0
34 -29 0
22 -19 0
28 -24 0
51 -52 0
63 -65 0
29 -34 0
84 -84 0
75 -74 0
79 -80 0
44 -43 0
56 -55 0
19 -22 0
74 -75 0
67 -67 0
70 -69 0
48 -47 0
60 -61 0
24 -28 0
80 -79 0
69 -70 0
77 -77 0
35 -35 0
40 -37 0
5 -8 0
50 -49 0
42 -41 0
45 -46 0
37 -40 0
53 -53 0
15 -12 0
64 -66 0
57 -58 0
59 -62 0
8 -5 0
12 -15 0
1 -1 0
30 -33 0
17 -18 0
26 -23 0
49 -50 0
66 -64 0
33 -30 0
83 -83 0
73 -76 0
81 -82 0
41 -42 0
58 -57 0
18 -17 0
76 -73 0
68 -68 0
72 -71 0
46 -45 0
62 -59 0
23 -26 0
82 -81 0
71 -72 0
78 -78 0
10 -36 0
10 -35 0
14 -54 0
14 -53 0
2 -3 0
2 -1 0
31 -84 0
31 -83 0
20 -67 0
20 -68 0
27 -77 0
27 -78 0
9 -36 0
9 -35 0
11 -54 0
11 -53 0
4 -3 0
4 -1 0
32 -84 0
32 -83 0
21 -67 0
21 -68 0
25 -77 0
25 -78 0
-36 -35 0
-38 -40 0
-6 -5 0
-52 -50 0
-43 -42 0
-47 -45 0
-39 -37 0
-54 -53 0
-13 -15 0
-65 -64 0
-55 -57 0
-61 -59 0
-7 -8 0
-16 -12 0
-3 -1 0
-34 -30 0
-22 -17 0
-28 -26 0
-51 -49 0
-63 -66 0
-29 -33 0
-84 -83 0
-75 -73 0
-79 -81 0
-44 -41 0
-56 -58 0
-19 -18 0
-74 -76 0
-67 -68 0
-70 -72 0
-48 -46 0
-60 -62 0
-24 -23 0
-80 -82 0
-69 -71 0
-77 -78 0
-10 -9 0
-14 -11 0
-2 -4 0
-31 -32 0
-20 -21 0
-27 -25 0
10 14 -38 0
10 14 -39 0
10 14 -40 0
10 14 -37 0
10 2 -6 0
10 2 -7 0
10 2 -5 0
10 2 -8 0
10 31 -52 0
10 31 -51 0
10 31 -50 0
10 31 -49 0
10 20 -43 0
10 20 -44 0
10 20 -42 0
10 20 -41 0
10 27 -47 0
10 27 -48 0
10 27 -45 0
10 27 -46 0
10 9 -38 0
10 9 -6 0
10 9 -52 0
10 9 -43 0
10 9 -47 0
10 9 -39 0
10 9 -7 0
10 9 -51 0
10 9 -44 0
10 9 -48 0
10 9 -40 0
10 9 -5 0
10 9 -50 0
10 9 -42 0
10 9 -45 0
10 9 -37 0
10 9 -8 0
10 9 -49 0
10 9 -41 0
10 9 -46 0
14 2 -13 0
14 2 -16 0
14 2 -15 0
14 2 -12 0
14 31 -65 0
14 31 -63 0
14 31 -64 0
14 31 -66 0
14 20 -55 0
14 20 -56 0
14 20 -57 0
14 20 -58 0
14 27 -61 0
14 27 -60 0
14 27 -59 0
14 27 -62 0
14 11 -38 0
14 11 -39 0
14 11 -13 0
14 11 -65 0
14 11 -55 0
14 11 -61 0
14 11 -16 0
14 11 -63 0
14 11 -56 0
14 11 -60 0
14 11 -40 0
14 11 -37 0
14 11 -15 0
14 11 -64 0
14 11 -57 0
14 11 -59 0
14 11 -12 0
14 11 -66 0
14 11 -58 0
14 11 -62 0
2 31 -34 0
2 31 -29 0
2 31 -30 0
2 31 -33 0
2 20 -22 0
2 20 -19 0
2 20 -17 0
2 20 -18 0
2 27 -28 0
2 27 -24 0
2 27 -26 0
2 27 -23 0
2 4 -6 0
2 4 -13 0
2 4 -7 0
2 4 -16 0
2 4 -34 0
2 4 -22 0
2 4 -28 0
2 4 -29 0
2 4 -19 0
2 4 -24 0
2 4 -5 0
2 4 -15 0
2 4 -8 0
2 4 -12 0
2 4 -30 0
2 4 -17 0
2 4 -26 0
2 4 -33 0
2 4 -18 0
2 4 -23 0
31 20 -75 0
31 20 -74 0
31 20 -73 0
31 20 -76 0
31 27 -79 0
31 27 -80 0
31 27 -81 0
31 27 -82 0
31 32 -52 0
31 32 -65 0
31 32 -34 0
31 32 -51 0
31 32 -63 0
31 32 -29 0
31 32 -75 0
31 32 -79 0
31 32 -74 0
31 32 -80 0
31 32 -50 0
31 32 -64 0
31 32 -30 0
31 32 -49 0
31 32 -66 0
31 32 -33 0
31 32 -73 0
31 32 -81 0
31 32 -76 0
31 32 -82 0
20 27 -70 0
20 27 -69 0
20 27 -72 0
20 27 -71 0
20 21 -43 0
20 21 -55 0
20 21 -22 0
20 21 -75 0
20 21 -44 0
20 21 -56 0
20 21 -19 0
20 21 -74 0
20 21 -70 0
20 21 -69 0
20 21 -42 0
20 21 -57 0
20 21 -17 0
20 21 -73 0
20 21 -41 0
20 21 -58 0
20 21 -18 0
20 21 -76 0
20 21 -72 0
20 21 -71 0
27 25 -47 0
27 25 -61 0
27 25 -28 0
27 25 -79 0
27 25 -70 0
27 25 -48 0
27 25 -60 0
27 25 -24 0
27 25 -80 0
27 25 -69 0
27 25 -45 0
27 25 -59 0
27 25 -26 0
27 25 -81 0
27 25 -72 0
27 25 -46 0
27 25 -62 0
27 25 -23 0
27 25 -82 0
27 25 -71 0
9 11 -38 0
9 11 -39 0
9 11 -40 0
9 11 -37 0
9 4 -6 0
9 4 -7 0
9 4 -5 0
9 4 -8 0
9 32 -52 0
9 32 -51 0
9 32 -50 0
9 32 -49 0
9 21 -43 0
9 21 -44 0
9 21 -42 0
9 21 -41 0
9 25 -47 0
9 25 -48 0
9 25 -45 0
9 25 -46 0
11 4 -13 0
11 4 -16 0
11 4 -15 0
11 4 -12 0
11 32 -65 0
11 32 -63 0
11 32 -64 0
11 32 -66 0
11 21 -55 0
11 21 -56 0
11 21 -57 0
11 21 -58 0
11 25 -61 0
11 25 -60 0
11 25 -59 0
11 25 -62 0
4 32 -34 0
4 32 -29 0
4 32 -30 0
4 32 -33 0
4 21 -22 0
4 21 -19 0
4 21 -17 0
4 21 -18 0
4 25 -28 0
4 25 -24 0
4 25 -26 0
4 25 -23 0
32 21 -75 0
32 21 -74 0
32 21 -73 0
32 21 -76 0
32 25 -79 0
32 25 -80 0
32 25 -81 0
32 25 -82 0
21 25 -70 0
21 25 -69 0
21 25 -72 0
21 25 -71 0
36 38 6 52 43 47 0
39 54 13 65 55 61 0
7 16 3 34 22 28 0
51 63 29 84 75 79 0
44 56 19 74 67 70 0
48 60 24 80 69 77 0
35 40 5 50 42 45 0
37 53 15 64 57 59 0
8 12 1 30 17 26 0
49 66 33 83 73 81 0
41 58 18 76 68 72 0
46 62 23 82 71 78 0
