c U2(4) E1(4,4) E2(4,4) U1(4) U2(3) U1(3) E1(3,4) E2(4,3) E2(3,4) E1(4,3) E1(1,4) U1(1) E2(4,1) E1(4,1) E2(1,4) U2(1) E1(4,2) E2(4,2) E2(2,4) U1(2) E1(2,4) U2(2) E2(4,0) U1(0) U2(0) E1(4,0) E1(0,4) E2(0,4) E1(4,5) E2(5,4) E2(4,5) U1(5) U2(5) E1(5,4) E1(4,6) E2(6,4) E1(6,4) E2(4,6) U2(6) U1(6) E2(3,3) E1(3,3) E2(1,3) E1(3,1) E2(3,1) E1(1,3) E2(2,3) E1(2,3) E2(3,2) E1(3,2) E1(3,0) E2(0,3) E2(3,0) E1(0,3) E2(5,3) E2(3,5) E1(5,3) E1(3,5) E1(3,6) E2(6,3) E1(6,3) E2(3,6) E1(1,1) E2(1,1) E2(2,1) E2(1,2) E1(2,1) E1(1,2) E1(1,0) E2(0,1) E2(1,0) E1(0,1) E1(1,5) E2(1,5) E1(5,1) E2(5,1) E1(1,6) E2(6,1) E2(1,6) E1(6,1) E1(2,2) E2(2,2) E1(0,2) E1(2,0) E2(0,2) E2(2,0) E2(2,5) E1(2,5) E2(5,2) E1(5,2) E1(2,6) E1(6,2) E2(6,2) E2(2,6) E1(0,0) E2(0,0) E1(0,5) E1(5,0) E2(0,5) E2(5,0) E1(6,0) E1(0,6) E2(0,6) E2(6,0) E2(5,5) E1(5,5) E1(5,6) E2(5,6) E1(6,5) E2(6,5) E1(6,6) E2(6,6)
c 1 2 3 4 5 6 7 8 9 10 11 12 13 14 15 16 17 18 19 20 21 22 23 24 25 26 27 28 29 30 31 32 33 34 35 36 37 38 39 40 41 42 43 44 45 46 47 48 49 50 51 52 53 54 55 56 57 58 59 60 61 62 63 64 65 66 67 68 69 70 71 72 73 74 75 76 77 78 79 80 81 82 83 84 85 86 87 88 89 90 91 92 93 94 95 96 97 98 99 100 101 102 103 104 105 106 107 108 109 110 111 112
p cnf 112 539
24 25 0
12 16 0
20 22 0
6 5 0
4 1 0
32 33 0
40 39 0
95 -95 0
72 -69 0
83 -84 0
54 -51 0
27 -26 0
97 -98 0
102 -101 0
69 -72 0
63 -63 0
68 -67 0
46 -44 0
11 -14 0
73 -75 0
77 -80 0
84 -83 0
67 -68 0
81 -81 0
48 -50 0
21 -17 0
88 -90 0
91 -92 0
51 -54 0
44 -46 0
50 -48 0
42 -42 0
7 -10 0
58 -57 0
59 -61 0
26 -27 0
14 -11 0
17 -21 0
10 -7 0
2 -2 0
29 -34 0
35 -37 0
98 -97 0
75 -73 0
90 -88 0
57 -58 0
34 -29 0
106 -106 0
107 -109 0
101 -102 0
80 -77 0
92 -91 0
61 -59 0
37 -35 0
109 -107 0
111 -111 0
96 -96 0
70 -71 0
85 -86 0
52 -53 0
28 -23 0
99 -100 0
103 -104 0
71 -70 0
64 -64 0
66 -65 0
43 -45 0
15 -13 0
74 -76 0
79 -78 0
86 -85 0
65 -66 0
82 -82 0
47 -49 0
19 -18 0
87 -89 0
94 -93 0
53 -52 0
45 -43 0
49 -47 0
41 -41 0
9 -8 0
56 -55 0
62 -60 0
23 -28 0
13 -15 0
18 -19 0
8 -9 0
3 -3 0
31 -30 0
38 -36 0
100 -99 0
76 -74 0
89 -87 0
55 -56 0
30 -31 0
105 -105 0
108 -110 0
104 -103 0
78 -79 0
93 -94 0
60 -62 0
36 -38 0
110 -108 0
112 -112 0
24 -95 0
24 -96 0
12 -63 0
12 -64 0
20 -81 0
20 -82 0
6 -42 0
6 -41 0
4 -2 0
4 -3 0
32 -106 0
32 -105 0
40 -111 0
40 -112 0
25 -95 0
25 -96 0
16 -63 0
16 -64 0
22 -81 0
22 -82 0
5 -42 0
5 -41 0
1 -2 0
1 -3 0
33 -106 0
33 -105 0
39 -111 0
39 -112 0
-95 -96 0
-72 -70 0
-83 -85 0
-54 -52 0
-27 -28 0
-97 -99 0
-102 -103 0
-69 -71 0
-63 -64 0
-68 -66 0
-46 -43 0
-11 -15 0
-73 -74 0
-77 -79 0
-84 -86 0
-67 -65 0
-81 -82 0
-48 -47 0
-21 -19 0
-88 -87 0
-91 -94 0
-51 -53 0
-44 -45 0
-50 -49 0
-42 -41 0
-7 -9 0
-58 -56 0
-59 -62 0
-26 -23 0
-14 -13 0
-17 -18 0
-10 -8 0
-2 -3 0
-29 -31 0
-35 -38 0
-98 -100 0
-75 -76 0
-90 -89 0
-57 -55 0
-34 -30 0
-106 -105 0
-107 -108 0
-101 -104 0
-80 -78 0
-92 -93 0
-61 -60 0
-37 -36 0
-109 -110 0
-111 -112 0
-24 -25 0
-12 -16 0
-20 -22 0
-6 -5 0
-4 -1 0
-32 -33 0
-40 -39 0
24 12 -72 0
24 12 -69 0
24 12 -70 0
24 12 -71 0
24 20 -83 0
24 20 -84 0
24 20 -85 0
24 20 -86 0
24 6 -54 0
24 6 -51 0
24 6 -52 0
24 6 -53 0
24 4 -27 0
24 4 -26 0
24 4 -28 0
24 4 -23 0
24 32 -97 0
24 32 -98 0
24 32 -99 0
24 32 -100 0
24 40 -102 0
24 40 -101 0
24 40 -103 0
24 40 -104 0
24 25 -72 0
24 25 -83 0
24 25 -54 0
24 25 -27 0
24 25 -97 0
24 25 -102 0
24 25 -69 0
24 25 -84 0
24 25 -51 0
24 25 -26 0
24 25 -98 0
24 25 -101 0
24 25 -70 0
24 25 -85 0
24 25 -52 0
24 25 -28 0
24 25 -99 0
24 25 -103 0
24 25 -71 0
24 25 -86 0
24 25 -53 0
24 25 -23 0
24 25 -100 0
24 25 -104 0
12 20 -68 0
12 20 -67 0
12 20 -66 0
12 20 -65 0
12 6 -46 0
12 6 -44 0
12 6 -43 0
12 6 -45 0
12 4 -11 0
12 4 -14 0
12 4 -15 0
12 4 -13 0
12 32 -73 0
12 32 -75 0
12 32 -74 0
12 32 -76 0
12 40 -77 0
12 40 -80 0
12 40 -79 0
12 40 -78 0
12 16 -72 0
12 16 -69 0
12 16 -68 0
12 16 -46 0
12 16 -11 0
12 16 -73 0
12 16 -77 0
12 16 -67 0
12 16 -44 0
12 16 -14 0
12 16 -75 0
12 16 -80 0
12 16 -70 0
12 16 -71 0
12 16 -66 0
12 16 -43 0
12 16 -15 0
12 16 -74 0
12 16 -79 0
12 16 -65 0
12 16 -45 0
12 16 -13 0
12 16 -76 0
12 16 -78 0
20 6 -48 0
20 6 -50 0
20 6 -47 0
20 6 -49 0
20 4 -21 0
20 4 -17 0
20 4 -19 0
20 4 -18 0
20 32 -88 0
20 32 -90 0
20 32 -87 0
20 32 -89 0
20 40 -91 0
20 40 -92 0
20 40 -94 0
20 40 -93 0
20 22 -83 0
20 22 -68 0
20 22 -84 0
20 22 -67 0
20 22 -48 0
20 22 -21 0
20 22 -88 0
20 22 -91 0
20 22 -50 0
20 22 -17 0
20 22 -90 0
20 22 -92 0
20 22 -85 0
20 22 -66 0
20 22 -86 0
20 22 -65 0
20 22 -47 0
20 22 -19 0
20 22 -87 0
20 22 -94 0
20 22 -49 0
20 22 -18 0
20 22 -89 0
20 22 -93 0
6 4 -7 0
6 4 -10 0
6 4 -9 0
6 4 -8 0
6 32 -58 0
6 32 -57 0
6 32 -56 0
6 32 -55 0
6 40 -59 0
6 40 -61 0
6 40 -62 0
6 40 -60 0
6 5 -54 0
6 5 -46 0
6 5 -48 0
6 5 -51 0
6 5 -44 0
6 5 -50 0
6 5 -7 0
6 5 -58 0
6 5 -59 0
6 5 -10 0
6 5 -57 0
6 5 -61 0
6 5 -52 0
6 5 -43 0
6 5 -47 0
6 5 -53 0
6 5 -45 0
6 5 -49 0
6 5 -9 0
6 5 -56 0
6 5 -62 0
6 5 -8 0
6 5 -55 0
6 5 -60 0
4 32 -29 0
4 32 -34 0
4 32 -31 0
4 32 -30 0
4 40 -35 0
4 40 -37 0
4 40 -38 0
4 40 -36 0
4 1 -27 0
4 1 -11 0
4 1 -21 0
4 1 -7 0
4 1 -26 0
4 1 -14 0
4 1 -17 0
4 1 -10 0
4 1 -29 0
4 1 -35 0
4 1 -34 0
4 1 -37 0
4 1 -28 0
4 1 -15 0
4 1 -19 0
4 1 -9 0
4 1 -23 0
4 1 -13 0
4 1 -18 0
4 1 -8 0
4 1 -31 0
4 1 -38 0
4 1 -30 0
4 1 -36 0
32 40 -107 0
32 40 -109 0
32 40 -108 0
32 40 -110 0
32 33 -97 0
32 33 -73 0
32 33 -88 0
32 33 -58 0
32 33 -29 0
32 33 -98 0
32 33 -75 0
32 33 -90 0
32 33 -57 0
32 33 -34 0
32 33 -107 0
32 33 -109 0
32 33 -99 0
32 33 -74 0
32 33 -87 0
32 33 -56 0
32 33 -31 0
32 33 -100 0
32 33 -76 0
32 33 -89 0
32 33 -55 0
32 33 -30 0
32 33 -108 0
32 33 -110 0
40 39 -102 0
40 39 -77 0
40 39 -91 0
40 39 -59 0
40 39 -35 0
40 39 -107 0
40 39 -101 0
40 39 -80 0
40 39 -92 0
40 39 -61 0
40 39 -37 0
40 39 -109 0
40 39 -103 0
40 39 -79 0
40 39 -94 0
40 39 -62 0
40 39 -38 0
40 39 -108 0
40 39 -104 0
40 39 -78 0
40 39 -93 0
40 39 -60 0
40 39 -36 0
40 39 -110 0
25 16 -72 0
25 16 -69 0
25 16 -70 0
25 16 -71 0
25 22 -83 0
25 22 -84 0
25 22 -85 0
25 22 -86 0
25 5 -54 0
25 5 -51 0
25 5 -52 0
25 5 -53 0
25 1 -27 0
25 1 -26 0
25 1 -28 0
25 1 -23 0
25 33 -97 0
25 33 -98 0
25 33 -99 0
25 33 -100 0
25 39 -102 0
25 39 -101 0
25 39 -103 0
25 39 -104 0
16 22 -68 0
16 22 -67 0
16 22 -66 0
16 22 -65 0
16 5 -46 0
16 5 -44 0
16 5 -43 0
16 5 -45 0
16 1 -11 0
16 1 -14 0
16 1 -15 0
16 1 -13 0
16 33 -73 0
16 33 -75 0
16 33 -74 0
16 33 -76 0
16 39 -77 0
16 39 -80 0
16 39 -79 0
16 39 -78 0
22 5 -48 0
22 5 -50 0
22 5 -47 0
22 5 -49 0
22 1 -21 0
22 1 -17 0
22 1 -19 0
22 1 -18 0
22 33 -88 0
22 33 -90 0
22 33 -87 0
22 33 -89 0
22 39 -91 0
22 39 -92 0
22 39 -94 0
22 39 -93 0
5 1 -7 0
5 1 -10 0
5 1 -9 0
5 1 -8 0
5 33 -58 0
5 33 -57 0
5 33 -56 0
5 33 -55 0
5 39 -59 0
5 39 -61 0
5 39 -62 0
5 39 -60 0
1 33 -29 0
1 33 -34 0
1 33 -31 0
1 33 -30 0
1 39 -35 0
1 39 -37 0
1 39 -38 0
1 39 -36 0
33 39 -107 0
33 39 -109 0
33 39 -108 0
33 39 -110 0
95 72 83 54 27 97 102 0
69 63 68 46 11 73 77 0
84 67 81 48 21 88 91 0
51 44 50 42 7 58 59 0
26 14 17 10 2 29 35 0
98 75 90 57 34 106 107 0
101 80 92 61 37 109 111 0
96 70 85 52 28 99 103 0
71 64 66 43 15 74 79 0
86 65 82 47 19 87 94 0
53 45 49 41 9 56 62 0
23 13 18 8 3 31 38 0
100 76 89 55 30 105 108 0
104 78 93 60 36 110 112 0
