c U1(4) U2(4) E1(4,4) E2(4,4) E2(4,7) E2(7,4) U1(7) U2(7) E1(4,7) E1(7,4) U2(0) U1(0) E2(4,0) E1(0,4) E1(4,0) E2(0,4) E2(4,6) U1(6) E2(6,4) E1(4,6) U2(6) E1(6,4) E1(4,2) E2(4,2) U2(2) E1(2,4) U1(2) E2(2,4) E1(5,4) E2(5,4) E1(4,5) U1(5) E2(4,5) U2(5) E2(3,4) E1(4,3) U2(3) E1(3,4) E2(4,3) U1(3) E1(4,1) E2(1,4) E2(4,1) U1(1) U2(1) E1(1,4) E2(7,7) E1(7,7) E1(7,0) E1(0,7) E2(7,0) E2(0,7) E1(7,6) E2(7,6) E1(6,7) E2(6,7) E1(7,2) E2(7,2) E1(2,7) E2(2,7) E2(7,5) E1(5,7) E2(5,7) E1(7,5) E2(7,3) E2(3,7) E1(3,7) E1(7,3) E1(1,7) E1(7,1) E2(7,1) E2(1,7) E2(0,0) E1(0,0) E1(6,0) E1(0,6) E2(0,6) E2(6,0) E2(2,0) E1(0,2) E2(0,2) E1(2,0) E2(5,0) E1(5,0) E1(0,5) E2(0,5) E2(3,0) E2(0,3) E1(3,0) E1(0,3) E2(0,1) E1(0,1) E1(1,0) E2(1,0) E1(6,6) E2(6,6) E2(2,6) E2(6,2) E1(6,2) E1(2,6) E2(5,6) E2(6,5) E1(6,5) E1(5,6) E2(3,6) E1(6,3) E2(6,3) E1(3,6) E2(6,1) E2(1,6) E1(1,6) E1(6,1) E1(2,2) E2(2,2) E1(5,2) E2(5,2) E1(2,5) E2(2,5) E1(3,2) E2(2,3) E2(3,2) E1(2,3) E2(1,2) E1(2,1) E2(2,1) E1(1,2) E1(5,5) E2(5,5) E1(3,5) E2(3,5) E1(5,3) E2(5,3) E2(1,5) E2(5,1) E1(5,1) E1(1,5) E1(3,3) E2(3,3) E1(3,1) E2(1,3) E2(3,1) E1(1,3) E2(1,1) E1(1,1)
c 1 2 3 4 5 6 7 8 9 10 11 12 13 14 15 16 17 18 19 20 21 22 23 24 25 26 27 28 29 30 31 32 33 34 35 36 37 38 39 40 41 42 43 44 45 46 47 48 49 50 51 52 53 54 55 56 57 58 59 60 61 62 63 64 65 66 67 68 69 70 71 72 73 74 75 76 77 78 79 80 81 82 83 84 85 86 87 88 89 90 91 92 93 94 95 96 97 98 99 100 101 102 103 104 105 106 107 108 109 110 111 112 113 114 115 116 117 118 119 120 121 122 123 124 125 126 127 128 129 130 131 132 133 134 135 136 137 138 139 140 141 142 143 144
p cnf 144 704
12 11 0
44 45 0
27 25 0
40 37 0
1 2 0
32 34 0
18 21 0
7 8 0
74 -74 0
92 -93 0
80 -82 0
90 -89 0
14 -15 0
85 -84 0
76 -75 0
50 -49 0
93 -92 0
144 -144 0
126 -124 0
142 -139 0
46 -41 0
136 -135 0
111 -112 0
69 -70 0
82 -80 0
124 -126 0
113 -113 0
122 -119 0
26 -23 0
117 -115 0
100 -99 0
59 -57 0
89 -90 0
139 -142 0
119 -122 0
137 -137 0
38 -36 0
129 -131 0
108 -106 0
67 -68 0
15 -14 0
41 -46 0
23 -26 0
36 -38 0
3 -3 0
31 -29 0
20 -22 0
9 -10 0
84 -85 0
135 -136 0
115 -117 0
131 -129 0
29 -31 0
127 -127 0
104 -103 0
62 -64 0
75 -76 0
112 -111 0
99 -100 0
106 -108 0
22 -20 0
103 -104 0
95 -95 0
55 -53 0
49 -50 0
70 -69 0
57 -59 0
68 -67 0
10 -9 0
64 -62 0
53 -55 0
48 -48 0
73 -73 0
91 -94 0
81 -79 0
88 -87 0
16 -13 0
86 -83 0
77 -78 0
52 -51 0
94 -91 0
143 -143 0
123 -125 0
140 -141 0
42 -43 0
133 -134 0
110 -109 0
72 -71 0
79 -81 0
125 -123 0
114 -114 0
120 -121 0
28 -24 0
118 -116 0
97 -98 0
60 -58 0
87 -88 0
141 -140 0
121 -120 0
138 -138 0
35 -39 0
130 -132 0
105 -107 0
66 -65 0
13 -16 0
43 -42 0
24 -28 0
39 -35 0
4 -4 0
33 -30 0
17 -19 0
5 -6 0
83 -86 0
134 -133 0
116 -118 0
132 -130 0
30 -33 0
128 -128 0
101 -102 0
63 -61 0
78 -77 0
109 -110 0
98 -97 0
107 -105 0
19 -17 0
102 -101 0
96 -96 0
56 -54 0
51 -52 0
71 -72 0
58 -60 0
65 -66 0
6 -5 0
61 -63 0
54 -56 0
47 -47 0
12 -74 0
12 -73 0
44 -144 0
44 -143 0
27 -113 0
27 -114 0
40 -137 0
40 -138 0
1 -3 0
1 -4 0
32 -127 0
32 -128 0
18 -95 0
18 -96 0
7 -48 0
7 -47 0
11 -74 0
11 -73 0
45 -144 0
45 -143 0
25 -113 0
25 -114 0
37 -137 0
37 -138 0
2 -3 0
2 -4 0
34 -127 0
34 -128 0
21 -95 0
21 -96 0
8 -48 0
8 -47 0
-74 -73 0
-92 -91 0
-80 -81 0
-90 -88 0
-14 -16 0
-85 -86 0
-76 -77 0
-50 -52 0
-93 -94 0
-144 -143 0
-126 -123 0
-142 -140 0
-46 -42 0
-136 -133 0
-111 -110 0
-69 -72 0
-82 -79 0
-124 -125 0
-113 -114 0
-122 -120 0
-26 -28 0
-117 -118 0
-100 -97 0
-59 -60 0
-89 -87 0
-139 -141 0
-119 -121 0
-137 -138 0
-38 -35 0
-129 -130 0
-108 -105 0
-67 -66 0
-15 -13 0
-41 -43 0
-23 -24 0
-36 -39 0
-3 -4 0
-31 -33 0
-20 -17 0
-9 -5 0
-84 -83 0
-135 -134 0
-115 -116 0
-131 -132 0
-29 -30 0
-127 -128 0
-104 -101 0
-62 -63 0
-75 -78 0
-112 -109 0
-99 -98 0
-106 -107 0
-22 -19 0
-103 -102 0
-95 -96 0
-55 -56 0
-49 -51 0
-70 -71 0
-57 -58 0
-68 -65 0
-10 -6 0
-64 -61 0
-53 -54 0
-48 -47 0
-12 -11 0
-44 -45 0
-27 -25 0
-40 -37 0
-1 -2 0
-32 -34 0
-18 -21 0
-7 -8 0
12 44 -92 0
12 44 -93 0
12 44 -91 0
12 44 -94 0
12 27 -80 0
12 27 -82 0
12 27 -81 0
12 27 -79 0
12 40 -90 0
12 40 -89 0
12 40 -88 0
12 40 -87 0
12 1 -14 0
12 1 -15 0
12 1 -16 0
12 1 -13 0
12 32 -85 0
12 32 -84 0
12 32 -86 0
12 32 -83 0
12 18 -76 0
12 18 -75 0
12 18 -77 0
12 18 -78 0
12 7 -50 0
12 7 -49 0
12 7 -52 0
12 7 -51 0
12 11 -92 0
12 11 -80 0
12 11 -90 0
12 11 -14 0
12 11 -85 0
12 11 -76 0
12 11 -50 0
12 11 -93 0
12 11 -82 0
12 11 -89 0
12 11 -15 0
12 11 -84 0
12 11 -75 0
12 11 -49 0
12 11 -91 0
12 11 -81 0
12 11 -88 0
12 11 -16 0
12 11 -86 0
12 11 -77 0
12 11 -52 0
12 11 -94 0
12 11 -79 0
12 11 -87 0
12 11 -13 0
12 11 -83 0
12 11 -78 0
12 11 -51 0
44 27 -126 0
44 27 -124 0
44 27 -123 0
44 27 -125 0
44 40 -142 0
44 40 -139 0
44 40 -140 0
44 40 -141 0
44 1 -46 0
44 1 -41 0
44 1 -42 0
44 1 -43 0
44 32 -136 0
44 32 -135 0
44 32 -133 0
44 32 -134 0
44 18 -111 0
44 18 -112 0
44 18 -110 0
44 18 -109 0
44 7 -69 0
44 7 -70 0
44 7 -72 0
44 7 -71 0
44 45 -92 0
44 45 -93 0
44 45 -126 0
44 45 -142 0
44 45 -46 0
44 45 -136 0
44 45 -111 0
44 45 -69 0
44 45 -124 0
44 45 -139 0
44 45 -41 0
44 45 -135 0
44 45 -112 0
44 45 -70 0
44 45 -91 0
44 45 -94 0
44 45 -123 0
44 45 -140 0
44 45 -42 0
44 45 -133 0
44 45 -110 0
44 45 -72 0
44 45 -125 0
44 45 -141 0
44 45 -43 0
44 45 -134 0
44 45 -109 0
44 45 -71 0
27 40 -122 0
27 40 -119 0
27 40 -120 0
27 40 -121 0
27 1 -26 0
27 1 -23 0
27 1 -28 0
27 1 -24 0
27 32 -117 0
27 32 -115 0
27 32 -118 0
27 32 -116 0
27 18 -100 0
27 18 -99 0
27 18 -97 0
27 18 -98 0
27 7 -59 0
27 7 -57 0
27 7 -60 0
27 7 -58 0
27 25 -80 0
27 25 -126 0
27 25 -82 0
27 25 -124 0
27 25 -122 0
27 25 -26 0
27 25 -117 0
27 25 -100 0
27 25 -59 0
27 25 -119 0
27 25 -23 0
27 25 -115 0
27 25 -99 0
27 25 -57 0
27 25 -81 0
27 25 -123 0
27 25 -79 0
27 25 -125 0
27 25 -120 0
27 25 -28 0
27 25 -118 0
27 25 -97 0
27 25 -60 0
27 25 -121 0
27 25 -24 0
27 25 -116 0
27 25 -98 0
27 25 -58 0
40 1 -38 0
40 1 -36 0
40 1 -35 0
40 1 -39 0
40 32 -129 0
40 32 -131 0
40 32 -130 0
40 32 -132 0
40 18 -108 0
40 18 -106 0
40 18 -105 0
40 18 -107 0
40 7 -67 0
40 7 -68 0
40 7 -66 0
40 7 -65 0
40 37 -90 0
40 37 -142 0
40 37 -122 0
40 37 -89 0
40 37 -139 0
40 37 -119 0
40 37 -38 0
40 37 -129 0
40 37 -108 0
40 37 -67 0
40 37 -36 0
40 37 -131 0
40 37 -106 0
40 37 -68 0
40 37 -88 0
40 37 -140 0
40 37 -120 0
40 37 -87 0
40 37 -141 0
40 37 -121 0
40 37 -35 0
40 37 -130 0
40 37 -105 0
40 37 -66 0
40 37 -39 0
40 37 -132 0
40 37 -107 0
40 37 -65 0
1 32 -31 0
1 32 -29 0
1 32 -33 0
1 32 -30 0
1 18 -20 0
1 18 -22 0
1 18 -17 0
1 18 -19 0
1 7 -9 0
1 7 -10 0
1 7 -5 0
1 7 -6 0
1 2 -14 0
1 2 -46 0
1 2 -26 0
1 2 -38 0
1 2 -15 0
1 2 -41 0
1 2 -23 0
1 2 -36 0
1 2 -31 0
1 2 -20 0
1 2 -9 0
1 2 -29 0
1 2 -22 0
1 2 -10 0
1 2 -16 0
1 2 -42 0
1 2 -28 0
1 2 -35 0
1 2 -13 0
1 2 -43 0
1 2 -24 0
1 2 -39 0
1 2 -33 0
1 2 -17 0
1 2 -5 0
1 2 -30 0
1 2 -19 0
1 2 -6 0
32 18 -104 0
32 18 -103 0
32 18 -101 0
32 18 -102 0
32 7 -62 0
32 7 -64 0
32 7 -63 0
32 7 -61 0
32 34 -85 0
32 34 -136 0
32 34 -117 0
32 34 -129 0
32 34 -31 0
32 34 -84 0
32 34 -135 0
32 34 -115 0
32 34 -131 0
32 34 -29 0
32 34 -104 0
32 34 -62 0
32 34 -103 0
32 34 -64 0
32 34 -86 0
32 34 -133 0
32 34 -118 0
32 34 -130 0
32 34 -33 0
32 34 -83 0
32 34 -134 0
32 34 -116 0
32 34 -132 0
32 34 -30 0
32 34 -101 0
32 34 -63 0
32 34 -102 0
32 34 -61 0
18 7 -55 0
18 7 -53 0
18 7 -56 0
18 7 -54 0
18 21 -76 0
18 21 -111 0
18 21 -100 0
18 21 -108 0
18 21 -20 0
18 21 -104 0
18 21 -75 0
18 21 -112 0
18 21 -99 0
18 21 -106 0
18 21 -22 0
18 21 -103 0
18 21 -55 0
18 21 -53 0
18 21 -77 0
18 21 -110 0
18 21 -97 0
18 21 -105 0
18 21 -17 0
18 21 -101 0
18 21 -78 0
18 21 -109 0
18 21 -98 0
18 21 -107 0
18 21 -19 0
18 21 -102 0
18 21 -56 0
18 21 -54 0
7 8 -50 0
7 8 -69 0
7 8 -59 0
7 8 -67 0
7 8 -9 0
7 8 -62 0
7 8 -55 0
7 8 -49 0
7 8 -70 0
7 8 -57 0
7 8 -68 0
7 8 -10 0
7 8 -64 0
7 8 -53 0
7 8 -52 0
7 8 -72 0
7 8 -60 0
7 8 -66 0
7 8 -5 0
7 8 -63 0
7 8 -56 0
7 8 -51 0
7 8 -71 0
7 8 -58 0
7 8 -65 0
7 8 -6 0
7 8 -61 0
7 8 -54 0
11 45 -92 0
11 45 -93 0
11 45 -91 0
11 45 -94 0
11 25 -80 0
11 25 -82 0
11 25 -81 0
11 25 -79 0
11 37 -90 0
11 37 -89 0
11 37 -88 0
11 37 -87 0
11 2 -14 0
11 2 -15 0
11 2 -16 0
11 2 -13 0
11 34 -85 0
11 34 -84 0
11 34 -86 0
11 34 -83 0
11 21 -76 0
11 21 -75 0
11 21 -77 0
11 21 -78 0
11 8 -50 0
11 8 -49 0
11 8 -52 0
11 8 -51 0
45 25 -126 0
45 25 -124 0
45 25 -123 0
45 25 -125 0
45 37 -142 0
45 37 -139 0
45 37 -140 0
45 37 -141 0
45 2 -46 0
45 2 -41 0
45 2 -42 0
45 2 -43 0
45 34 -136 0
45 34 -135 0
45 34 -133 0
45 34 -134 0
45 21 -111 0
45 21 -112 0
45 21 -110 0
45 21 -109 0
45 8 -69 0
45 8 -70 0
45 8 -72 0
45 8 -71 0
25 37 -122 0
25 37 -119 0
25 37 -120 0
25 37 -121 0
25 2 -26 0
25 2 -23 0
25 2 -28 0
25 2 -24 0
25 34 -117 0
25 34 -115 0
25 34 -118 0
25 34 -116 0
25 21 -100 0
25 21 -99 0
25 21 -97 0
25 21 -98 0
25 8 -59 0
25 8 -57 0
25 8 -60 0
25 8 -58 0
37 2 -38 0
37 2 -36 0
37 2 -35 0
37 2 -39 0
37 34 -129 0
37 34 -131 0
37 34 -130 0
37 34 -132 0
37 21 -108 0
37 21 -106 0
37 21 -105 0
37 21 -107 0
37 8 -67 0
37 8 -68 0
37 8 -66 0
37 8 -65 0
2 34 -31 0
2 34 -29 0
2 34 -33 0
2 34 -30 0
2 21 -20 0
2 21 -22 0
2 21 -17 0
2 21 -19 0
2 8 -9 0
2 8 -10 0
2 8 -5 0
2 8 -6 0
34 21 -104 0
34 21 -103 0
34 21 -101 0
34 21 -102 0
34 8 -62 0
34 8 -64 0
34 8 -63 0
34 8 -61 0
21 8 -55 0
21 8 -53 0
21 8 -56 0
21 8 -54 0
74 92 80 90 14 85 76 50 0
93 144 126 142 46 136 111 69 0
82 124 113 122 26 117 100 59 0
89 139 119 137 38 129 108 67 0
15 41 23 36 3 31 20 9 0
84 135 115 131 29 127 104 62 0
75 112 99 106 22 103 95 55 0
49 70 57 68 10 64 53 48 0
73 91 81 88 16 86 77 52 0
94 143 123 140 42 133 110 72 0
79 125 114 120 28 118 97 60 0
87 141 121 138 35 130 105 66 0
13 43 24 39 4 33 17 5 0
83 134 116 132 30 128 101 63 0
78 109 98 107 19 102 96 56 0
51 71 58 65 6 61 54 47 0
