c U2(5) U1(5) E1(5,5) E2(5,5) E1(6,5) U1(6) E2(5,6) U2(6) E1(5,6) E2(6,5) U2(8) E1(5,8) E2(5,8) E1(8,5) U1(8) E2(8,5) E1(5,7) E1(7,5) E2(5,7) E2(7,5) U1(7) U2(7) E2(3,5) E1(5,3) U2(3) U1(3) E1(3,5) E2(5,3) E1(0,5) E2(5,0) U1(0) E2(0,5) U2(0) E1(5,0) E1(2,5) E1(5,2) E2(5,2) U1(2) E2(2,5) U2(2) E1(5,1) E1(1,5) E2(1,5) U2(1) E2(5,1) U1(1) U2(4) U1(4) E2(5,4) E1(5,4) E1(4,5) E2(4,5) E2(6,6) E1(6,6) E1(6,8) E2(6,8) E2(8,6) E1(8,6) E1(6,7) E2(7,6) E2(6,7) E1(7,6) E1(6,3) E1(3,6) E2(3,6) E2(6,3) E2(6,0) E1(0,6) E1(6,0) E2(0,6) E2(2,6) E2(6,2) E1(6,2) E1(2,6) E1(6,1) E2(1,6) E2(6,1) E1(1,6) E2(4,6) E1(4,6) E2(6,4) E1(6,4) E2(8,8) E1(8,8) E1(7,8) E2(8,7) E1(8,7) E2(7,8) E2(8,3) E2(3,8) E1(3,8) E1(8,3) E1(8,0) E2(0,8) E1(0,8) E2(8,0) E2(8,2) E1(2,8) E1(8,2) E2(2,8) E2(1,8) E1(8,1) E1(1,8) E2(8,1) E1(8,4) E2(4,8) E2(8,4) E1(4,8) E1(7,7) E2(7,7) E2(3,7) E2(7,3) E1(7,3) E1(3,7) E1(7,0) E1(0,7) E2(7,0) E2(0,7) E1(7,2) E1(2,7) E2(7,2) E2(2,7) E2(7,1) E1(1,7) E1(7,1) E2(1,7) E2(4,7) E2(7,4) E1(7,4) E1(4,7) E1(3,3) E2(3,3) E1(0,3) E1(3,0) E2(3,0) E2(0,3) E1(2,3) E2(2,3) E1(3,2) E2(3,2) E1(1,3) E1(3,1) E2(1,3) E2(3,1) E1(3,4) E2(4,3) E1(4,3) E2(3,4) E2(0,0) E1(0,0) E1(0,2) E1(2,0) E2(2,0) E2(0,2) E2(0,1) E2(1,0) E1(1,0) E1(0,1) E1(4,0) E2(0,4) E1(0,4) E2(4,0) E1(2,2) E2(2,2) E2(2,1) E1(1,2) E1(2,1) E2(1,2) E2(4,2) E1(2,4) E1(4,2) E2(2,4) E1(1,1) E2(1,1) E1(4,1) E1(1,4) E2(4,1) E2(1,4) E2(4,4) E1(4,4)
c 1 2 3 4 5 6 7 8 9 10 11 12 13 14 15 16 17 18 19 20 21 22 23 24 25 26 27 28 29 30 31 32 33 34 35 36 37 38 39 40 41 42 43 44 45 46 47 48 49 50 51 52 53 54 55 56 57 58 59 60 61 62 63 64 65 66 67 68 69 70 71 72 73 74 75 76 77 78 79 80 81 82 83 84 85 86 87 88 89 90 91 92 93 94 95 96 97 98 99 100 101 102 103 104 105 106 107 108 109 110 111 112 113 114 115 116 117 118 119 120 121 122 123 124 125 126 127 128 129 130 131 132 133 134 135 136 137 138 139 140 141 142 143 144 145 146 147 148 149 150 151 152 153 154 155 156 157 158 159 160 161 162 163 164 165 166 167 168 169 170 171 172 173 174 175 176 177 178 179 180
p cnf 180 891
31 33 0
46 44 0
38 40 0
26 25 0
48 47 0
2 1 0
6 8 0
21 22 0
15 11 0
150 -150 0
158 -157 0
151 -152 0
133 -134 0
161 -159 0
29 -34 0
68 -69 0
116 -115 0
95 -93 0
157 -158 0
173 -173 0
166 -167 0
141 -142 0
176 -175 0
42 -41 0
78 -75 0
124 -125 0
103 -102 0
152 -151 0
167 -166 0
163 -163 0
137 -139 0
170 -171 0
35 -36 0
74 -73 0
120 -119 0
98 -99 0
134 -133 0
142 -141 0
139 -137 0
131 -131 0
145 -147 0
27 -24 0
64 -63 0
114 -113 0
91 -92 0
159 -161 0
175 -176 0
171 -170 0
147 -145 0
180 -180 0
51 -50 0
80 -82 0
130 -129 0
108 -105 0
34 -29 0
41 -42 0
36 -35 0
24 -27 0
50 -51 0
3 -3 0
9 -5 0
17 -18 0
12 -14 0
69 -68 0
75 -78 0
73 -74 0
63 -64 0
82 -80 0
5 -9 0
54 -54 0
59 -62 0
55 -58 0
115 -116 0
125 -124 0
119 -120 0
113 -114 0
129 -130 0
18 -17 0
62 -59 0
109 -109 0
85 -87 0
93 -95 0
102 -103 0
99 -98 0
92 -91 0
105 -108 0
14 -12 0
58 -55 0
87 -85 0
84 -84 0
149 -149 0
155 -156 0
154 -153 0
136 -135 0
160 -162 0
32 -30 0
70 -67 0
118 -117 0
94 -96 0
156 -155 0
174 -174 0
168 -165 0
143 -144 0
178 -177 0
43 -45 0
76 -77 0
126 -123 0
101 -104 0
153 -154 0
165 -168 0
164 -164 0
138 -140 0
172 -169 0
39 -37 0
71 -72 0
122 -121 0
100 -97 0
135 -136 0
144 -143 0
140 -138 0
132 -132 0
148 -146 0
23 -28 0
65 -66 0
111 -112 0
90 -89 0
162 -160 0
177 -178 0
169 -172 0
146 -148 0
179 -179 0
52 -49 0
79 -81 0
127 -128 0
106 -107 0
30 -32 0
45 -43 0
37 -39 0
28 -23 0
49 -52 0
4 -4 0
7 -10 0
19 -20 0
13 -16 0
67 -70 0
77 -76 0
72 -71 0
66 -65 0
81 -79 0
10 -7 0
53 -53 0
61 -60 0
56 -57 0
117 -118 0
123 -126 0
121 -122 0
112 -111 0
128 -127 0
20 -19 0
60 -61 0
110 -110 0
88 -86 0
96 -94 0
104 -101 0
97 -100 0
89 -90 0
107 -106 0
16 -13 0
57 -56 0
86 -88 0
83 -83 0
31 -150 0
31 -149 0
46 -173 0
46 -174 0
38 -163 0
38 -164 0
26 -131 0
26 -132 0
48 -180 0
48 -179 0
2 -3 0
2 -4 0
6 -54 0
6 -53 0
21 -109 0
21 -110 0
15 -84 0
15 -83 0
33 -150 0
33 -149 0
44 -173 0
44 -174 0
40 -163 0
40 -164 0
25 -131 0
25 -132 0
47 -180 0
47 -179 0
1 -3 0
1 -4 0
8 -54 0
8 -53 0
22 -109 0
22 -110 0
11 -84 0
11 -83 0
-150 -149 0
-158 -155 0
-151 -154 0
-133 -136 0
-161 -160 0
-29 -32 0
-68 -70 0
-116 -118 0
-95 -94 0
-157 -156 0
-173 -174 0
-166 -168 0
-141 -143 0
-176 -178 0
-42 -43 0
-78 -76 0
-124 -126 0
-103 -101 0
-152 -153 0
-167 -165 0
-163 -164 0
-137 -138 0
-170 -172 0
-35 -39 0
-74 -71 0
-120 -122 0
-98 -100 0
-134 -135 0
-142 -144 0
-139 -140 0
-131 -132 0
-145 -148 0
-27 -23 0
-64 -65 0
-114 -111 0
-91 -90 0
-159 -162 0
-175 -177 0
-171 -169 0
-147 -146 0
-180 -179 0
-51 -52 0
-80 -79 0
-130 -127 0
-108 -106 0
-34 -30 0
-41 -45 0
-36 -37 0
-24 -28 0
-50 -49 0
-3 -4 0
-9 -7 0
-17 -19 0
-12 -13 0
-69 -67 0
-75 -77 0
-73 -72 0
-63 -66 0
-82 -81 0
-5 -10 0
-54 -53 0
-59 -61 0
-55 -56 0
-115 -117 0
-125 -123 0
-119 -121 0
-113 -112 0
-129 -128 0
-18 -20 0
-62 -60 0
-109 -110 0
-85 -88 0
-93 -96 0
-102 -104 0
-99 -97 0
-92 -89 0
-105 -107 0
-14 -16 0
-58 -57 0
-87 -86 0
-84 -83 0
-31 -33 0
-46 -44 0
-38 -40 0
-26 -25 0
-48 -47 0
-2 -1 0
-6 -8 0
-21 -22 0
-15 -11 0
31 46 -158 0
31 46 -157 0
31 46 -155 0
31 46 -156 0
31 38 -151 0
31 38 -152 0
31 38 -154 0
31 38 -153 0
31 26 -133 0
31 26 -134 0
31 26 -136 0
31 26 -135 0
31 48 -161 0
31 48 -159 0
31 48 -160 0
31 48 -162 0
31 2 -29 0
31 2 -34 0
31 2 -32 0
31 2 -30 0
31 6 -68 0
31 6 -69 0
31 6 -70 0
31 6 -67 0
31 21 -116 0
31 21 -115 0
31 21 -118 0
31 21 -117 0
31 15 -95 0
31 15 -93 0
31 15 -94 0
31 15 -96 0
31 33 -158 0
31 33 -151 0
31 33 -133 0
31 33 -161 0
31 33 -29 0
31 33 -68 0
31 33 -116 0
31 33 -95 0
31 33 -157 0
31 33 -152 0
31 33 -134 0
31 33 -159 0
31 33 -34 0
31 33 -69 0
31 33 -115 0
31 33 -93 0
31 33 -155 0
31 33 -154 0
31 33 -136 0
31 33 -160 0
31 33 -32 0
31 33 -70 0
31 33 -118 0
31 33 -94 0
31 33 -156 0
31 33 -153 0
31 33 -135 0
31 33 -162 0
31 33 -30 0
31 33 -67 0
31 33 -117 0
31 33 -96 0
46 38 -166 0
46 38 -167 0
46 38 -168 0
46 38 -165 0
46 26 -141 0
46 26 -142 0
46 26 -143 0
46 26 -144 0
46 48 -176 0
46 48 -175 0
46 48 -178 0
46 48 -177 0
46 2 -42 0
46 2 -41 0
46 2 -43 0
46 2 -45 0
46 6 -78 0
46 6 -75 0
46 6 -76 0
46 6 -77 0
46 21 -124 0
46 21 -125 0
46 21 -126 0
46 21 -123 0
46 15 -103 0
46 15 -102 0
46 15 -101 0
46 15 -104 0
46 44 -158 0
46 44 -157 0
46 44 -166 0
46 44 -141 0
46 44 -176 0
46 44 -42 0
46 44 -78 0
46 44 -124 0
46 44 -103 0
46 44 -167 0
46 44 -142 0
46 44 -175 0
46 44 -41 0
46 44 -75 0
46 44 -125 0
46 44 -102 0
46 44 -155 0
46 44 -156 0
46 44 -168 0
46 44 -143 0
46 44 -178 0
46 44 -43 0
46 44 -76 0
46 44 -126 0
46 44 -101 0
46 44 -165 0
46 44 -144 0
46 44 -177 0
46 44 -45 0
46 44 -77 0
46 44 -123 0
46 44 -104 0
38 26 -137 0
38 26 -139 0
38 26 -138 0
38 26 -140 0
38 48 -170 0
38 48 -171 0
38 48 -172 0
38 48 -169 0
38 2 -35 0
38 2 -36 0
38 2 -39 0
38 2 -37 0
38 6 -74 0
38 6 -73 0
38 6 -71 0
38 6 -72 0
38 21 -120 0
38 21 -119 0
38 21 -122 0
38 21 -121 0
38 15 -98 0
38 15 -99 0
38 15 -100 0
38 15 -97 0
38 40 -151 0
38 40 -166 0
38 40 -152 0
38 40 -167 0
38 40 -137 0
38 40 -170 0
38 40 -35 0
38 40 -74 0
38 40 -120 0
38 40 -98 0
38 40 -139 0
38 40 -171 0
38 40 -36 0
38 40 -73 0
38 40 -119 0
38 40 -99 0
38 40 -154 0
38 40 -168 0
38 40 -153 0
38 40 -165 0
38 40 -138 0
38 40 -172 0
38 40 -39 0
38 40 -71 0
38 40 -122 0
38 40 -100 0
38 40 -140 0
38 40 -169 0
38 40 -37 0
38 40 -72 0
38 40 -121 0
38 40 -97 0
26 48 -145 0
26 48 -147 0
26 48 -148 0
26 48 -146 0
26 2 -27 0
26 2 -24 0
26 2 -23 0
26 2 -28 0
26 6 -64 0
26 6 -63 0
26 6 -65 0
26 6 -66 0
26 21 -114 0
26 21 -113 0
26 21 -111 0
26 21 -112 0
26 15 -91 0
26 15 -92 0
26 15 -90 0
26 15 -89 0
26 25 -133 0
26 25 -141 0
26 25 -137 0
26 25 -134 0
26 25 -142 0
26 25 -139 0
26 25 -145 0
26 25 -27 0
26 25 -64 0
26 25 -114 0
26 25 -91 0
26 25 -147 0
26 25 -24 0
26 25 -63 0
26 25 -113 0
26 25 -92 0
26 25 -136 0
26 25 -143 0
26 25 -138 0
26 25 -135 0
26 25 -144 0
26 25 -140 0
26 25 -148 0
26 25 -23 0
26 25 -65 0
26 25 -111 0
26 25 -90 0
26 25 -146 0
26 25 -28 0
26 25 -66 0
26 25 -112 0
26 25 -89 0
48 2 -51 0
48 2 -50 0
48 2 -52 0
48 2 -49 0
48 6 -80 0
48 6 -82 0
48 6 -79 0
48 6 -81 0
48 21 -130 0
48 21 -129 0
48 21 -127 0
48 21 -128 0
48 15 -108 0
48 15 -105 0
48 15 -106 0
48 15 -107 0
48 47 -161 0
48 47 -176 0
48 47 -170 0
48 47 -145 0
48 47 -159 0
48 47 -175 0
48 47 -171 0
48 47 -147 0
48 47 -51 0
48 47 -80 0
48 47 -130 0
48 47 -108 0
48 47 -50 0
48 47 -82 0
48 47 -129 0
48 47 -105 0
48 47 -160 0
48 47 -178 0
48 47 -172 0
48 47 -148 0
48 47 -162 0
48 47 -177 0
48 47 -169 0
48 47 -146 0
48 47 -52 0
48 47 -79 0
48 47 -127 0
48 47 -106 0
48 47 -49 0
48 47 -81 0
48 47 -128 0
48 47 -107 0
2 6 -9 0
2 6 -5 0
2 6 -7 0
2 6 -10 0
2 21 -17 0
2 21 -18 0
2 21 -19 0
2 21 -20 0
2 15 -12 0
2 15 -14 0
2 15 -13 0
2 15 -16 0
2 1 -29 0
2 1 -42 0
2 1 -35 0
2 1 -27 0
2 1 -51 0
2 1 -34 0
2 1 -41 0
2 1 -36 0
2 1 -24 0
2 1 -50 0
2 1 -9 0
2 1 -17 0
2 1 -12 0
2 1 -5 0
2 1 -18 0
2 1 -14 0
2 1 -32 0
2 1 -43 0
2 1 -39 0
2 1 -23 0
2 1 -52 0
2 1 -30 0
2 1 -45 0
2 1 -37 0
2 1 -28 0
2 1 -49 0
2 1 -7 0
2 1 -19 0
2 1 -13 0
2 1 -10 0
2 1 -20 0
2 1 -16 0
6 21 -59 0
6 21 -62 0
6 21 -61 0
6 21 -60 0
6 15 -55 0
6 15 -58 0
6 15 -56 0
6 15 -57 0
6 8 -68 0
6 8 -78 0
6 8 -74 0
6 8 -64 0
6 8 -80 0
6 8 -9 0
6 8 -69 0
6 8 -75 0
6 8 -73 0
6 8 -63 0
6 8 -82 0
6 8 -5 0
6 8 -59 0
6 8 -55 0
6 8 -62 0
6 8 -58 0
6 8 -70 0
6 8 -76 0
6 8 -71 0
6 8 -65 0
6 8 -79 0
6 8 -7 0
6 8 -67 0
6 8 -77 0
6 8 -72 0
6 8 -66 0
6 8 -81 0
6 8 -10 0
6 8 -61 0
6 8 -56 0
6 8 -60 0
6 8 -57 0
21 15 -85 0
21 15 -87 0
21 15 -88 0
21 15 -86 0
21 22 -116 0
21 22 -124 0
21 22 -120 0
21 22 -114 0
21 22 -130 0
21 22 -17 0
21 22 -59 0
21 22 -115 0
21 22 -125 0
21 22 -119 0
21 22 -113 0
21 22 -129 0
21 22 -18 0
21 22 -62 0
21 22 -85 0
21 22 -87 0
21 22 -118 0
21 22 -126 0
21 22 -122 0
21 22 -111 0
21 22 -127 0
21 22 -19 0
21 22 -61 0
21 22 -117 0
21 22 -123 0
21 22 -121 0
21 22 -112 0
21 22 -128 0
21 22 -20 0
21 22 -60 0
21 22 -88 0
21 22 -86 0
15 11 -95 0
15 11 -103 0
15 11 -98 0
15 11 -91 0
15 11 -108 0
15 11 -12 0
15 11 -55 0
15 11 -85 0
15 11 -93 0
15 11 -102 0
15 11 -99 0
15 11 -92 0
15 11 -105 0
15 11 -14 0
15 11 -58 0
15 11 -87 0
15 11 -94 0
15 11 -101 0
15 11 -100 0
15 11 -90 0
15 11 -106 0
15 11 -13 0
15 11 -56 0
15 11 -88 0
15 11 -96 0
15 11 -104 0
15 11 -97 0
15 11 -89 0
15 11 -107 0
15 11 -16 0
15 11 -57 0
15 11 -86 0
33 44 -158 0
33 44 -157 0
33 44 -155 0
33 44 -156 0
33 40 -151 0
33 40 -152 0
33 40 -154 0
33 40 -153 0
33 25 -133 0
33 25 -134 0
33 25 -136 0
33 25 -135 0
33 47 -161 0
33 47 -159 0
33 47 -160 0
33 47 -162 0
33 1 -29 0
33 1 -34 0
33 1 -32 0
33 1 -30 0
33 8 -68 0
33 8 -69 0
33 8 -70 0
33 8 -67 0
33 22 -116 0
33 22 -115 0
33 22 -118 0
33 22 -117 0
33 11 -95 0
33 11 -93 0
33 11 -94 0
33 11 -96 0
44 40 -166 0
44 40 -167 0
44 40 -168 0
44 40 -165 0
44 25 -141 0
44 25 -142 0
44 25 -143 0
44 25 -144 0
44 47 -176 0
44 47 -175 0
44 47 -178 0
44 47 -177 0
44 1 -42 0
44 1 -41 0
44 1 -43 0
44 1 -45 0
44 8 -78 0
44 8 -75 0
44 8 -76 0
44 8 -77 0
44 22 -124 0
44 22 -125 0
44 22 -126 0
44 22 -123 0
44 11 -103 0
44 11 -102 0
44 11 -101 0
44 11 -104 0
40 25 -137 0
40 25 -139 0
40 25 -138 0
40 25 -140 0
40 47 -170 0
40 47 -171 0
40 47 -172 0
40 47 -169 0
40 1 -35 0
40 1 -36 0
40 1 -39 0
40 1 -37 0
40 8 -74 0
40 8 -73 0
40 8 -71 0
40 8 -72 0
40 22 -120 0
40 22 -119 0
40 22 -122 0
40 22 -121 0
40 11 -98 0
40 11 -99 0
40 11 -100 0
40 11 -97 0
25 47 -145 0
25 47 -147 0
25 47 -148 0
25 47 -146 0
25 1 -27 0
25 1 -24 0
25 1 -23 0
25 1 -28 0
25 8 -64 0
25 8 -63 0
25 8 -65 0
25 8 -66 0
25 22 -114 0
25 22 -113 0
25 22 -111 0
25 22 -112 0
25 11 -91 0
25 11 -92 0
25 11 -90 0
25 11 -89 0
47 1 -51 0
47 1 -50 0
47 1 -52 0
47 1 -49 0
47 8 -80 0
47 8 -82 0
47 8 -79 0
47 8 -81 0
47 22 -130 0
47 22 -129 0
47 22 -127 0
47 22 -128 0
47 11 -108 0
47 11 -105 0
47 11 -106 0
47 11 -107 0
1 8 -9 0
1 8 -5 0
1 8 -7 0
1 8 -10 0
1 22 -17 0
1 22 -18 0
1 22 -19 0
1 22 -20 0
1 11 -12 0
1 11 -14 0
1 11 -13 0
1 11 -16 0
8 22 -59 0
8 22 -62 0
8 22 -61 0
8 22 -60 0
8 11 -55 0
8 11 -58 0
8 11 -56 0
8 11 -57 0
22 11 -85 0
22 11 -87 0
22 11 -88 0
22 11 -86 0
150 158 151 133 161 29 68 116 95 0
157 173 166 141 176 42 78 124 103 0
152 167 163 137 170 35 74 120 98 0
134 142 139 131 145 27 64 114 91 0
159 175 171 147 180 51 80 130 108 0
34 41 36 24 50 3 9 17 12 0
69 75 73 63 82 5 54 59 55 0
115 125 119 113 129 18 62 109 85 0
93 102 99 92 105 14 58 87 84 0
149 155 154 136 160 32 70 118 94 0
156 174 168 143 178 43 76 126 101 0
153 165 164 138 172 39 71 122 100 0
135 144 140 132 148 23 65 111 90 0
162 177 169 146 179 52 79 127 106 0
30 45 37 28 49 4 7 19 13 0
67 77 72 66 81 10 53 61 56 0
117 123 121 112 128 20 60 110 88 0
96 104 97 89 107 16 57 86 83 0
