c E(7,7) G(7) B(7) R(7) E(7,6) R(6) E(6,6) G(6) B(6) E(6,7) E(8,8) G(8) E(8,7) B(8) E(7,8) R(8) E(1,7) E(1,1) B(1) R(1) E(7,1) G(1) B(3) E(3,7) E(7,3) E(3,3) R(3) G(3) G(5) E(7,5) E(5,7) R(5) B(5) E(5,5) R(4) E(4,4) B(4) E(7,4) E(4,7) G(4) R(0) E(0,0) G(0) E(0,7) B(0) E(7,0) G(9) B(9) E(7,9) E(9,7) E(9,9) R(9) R(2) B(2) E(7,2) E(2,2) E(2,7) G(2) E(8,6) E(6,8) E(1,6) E(6,1) E(3,6) E(6,3) E(6,5) E(5,6) E(4,6) E(6,4) E(6,0) E(0,6) E(6,9) E(9,6) E(2,6) E(6,2) E(1,8) E(8,1) E(8,3) E(3,8) E(8,5) E(5,8) E(4,8) E(8,4) E(8,0) E(0,8) E(9,8) E(8,9) E(2,8) E(8,2) E(3,1) E(1,3) E(1,5) E(5,1) E(1,4) E(4,1) E(0,1) E(1,0) E(9,1) E(1,9) E(2,1) E(1,2) E(3,5) E(5,3) E(3,4) E(4,3) E(3,0) E(0,3) E(9,3) E(3,9) E(3,2) E(2,3) E(5,4) E(4,5) E(5,0) E(0,5) E(5,9) E(9,5) E(2,5) E(5,2) E(4,0) E(0,4) E(9,4) E(4,9) E(2,4) E(4,2) E(9,0) E(0,9) E(0,2) E(2,0) E(9,2) E(2,9)
c 1 2 3 4 5 6 7 8 9 10 11 12 13 14 15 16 17 18 19 20 21 22 23 24 25 26 27 28 29 30 31 32 33 34 35 36 37 38 39 40 41 42 43 44 45 46 47 48 49 50 51 52 53 54 55 56 57 58 59 60 61 62 63 64 65 66 67 68 69 70 71 72 73 74 75 76 77 78 79 80 81 82 83 84 85 86 87 88 89 90 91 92 93 94 95 96 97 98 99 100 101 102 103 104 105 106 107 108 109 110 111 112 113 114 115 116 117 118 119 120 121 122 123 124 125 126 127 128 129 130
p cnf 130 450
-42 0
-18 0
-56 0
-26 0
-36 0
-34 0
-7 0
-1 0
-11 0
-51 0
42 -42 0
95 -96 0
127 -128 0
106 -105 0
120 -119 0
114 -113 0
70 -69 0
44 -46 0
84 -83 0
126 -125 0
96 -95 0
18 -18 0
100 -99 0
90 -89 0
93 -94 0
91 -92 0
61 -62 0
17 -21 0
75 -76 0
98 -97 0
128 -127 0
99 -100 0
56 -56 0
110 -109 0
123 -124 0
117 -118 0
73 -74 0
57 -55 0
87 -88 0
130 -129 0
105 -106 0
89 -90 0
109 -110 0
26 -26 0
103 -104 0
101 -102 0
63 -64 0
24 -25 0
78 -77 0
108 -107 0
119 -120 0
94 -93 0
124 -123 0
104 -103 0
36 -36 0
112 -111 0
67 -68 0
39 -38 0
81 -82 0
122 -121 0
113 -114 0
92 -91 0
118 -117 0
102 -101 0
111 -112 0
34 -34 0
66 -65 0
31 -30 0
80 -79 0
115 -116 0
69 -70 0
62 -61 0
74 -73 0
64 -63 0
68 -67 0
65 -66 0
7 -7 0
10 -5 0
60 -59 0
71 -72 0
46 -44 0
21 -17 0
55 -57 0
25 -24 0
38 -39 0
30 -31 0
5 -10 0
1 -1 0
15 -13 0
49 -50 0
83 -84 0
76 -75 0
88 -87 0
77 -78 0
82 -81 0
79 -80 0
59 -60 0
13 -15 0
11 -11 0
86 -85 0
125 -126 0
97 -98 0
129 -130 0
107 -108 0
121 -122 0
116 -115 0
72 -71 0
50 -49 0
85 -86 0
51 -51 0
45 43 41 0
19 22 20 0
54 58 53 0
23 28 27 0
37 40 35 0
33 29 32 0
9 8 6 0
3 2 4 0
14 12 16 0
48 47 52 0
-45 -42 0
-45 -43 0
-45 -41 0
-19 -18 0
-19 -22 0
-19 -20 0
-54 -56 0
-54 -58 0
-54 -53 0
-23 -26 0
-23 -28 0
-23 -27 0
-37 -36 0
-37 -40 0
-37 -35 0
-33 -34 0
-33 -29 0
-33 -32 0
-9 -7 0
-9 -8 0
-9 -6 0
-3 -1 0
-3 -2 0
-3 -4 0
-14 -11 0
-14 -12 0
-14 -16 0
-48 -51 0
-48 -47 0
-48 -52 0
-42 -43 0
-42 -41 0
-18 -22 0
-18 -20 0
-56 -58 0
-56 -53 0
-26 -28 0
-26 -27 0
-36 -40 0
-36 -35 0
-34 -29 0
-34 -32 0
-7 -8 0
-7 -6 0
-1 -2 0
-1 -4 0
-11 -12 0
-11 -16 0
-51 -47 0
-51 -52 0
-43 -41 0
-22 -20 0
-58 -53 0
-28 -27 0
-40 -35 0
-29 -32 0
-8 -6 0
-2 -4 0
-12 -16 0
-47 -52 0
-45 -19 -95 0
-45 -19 -96 0
-45 -54 -127 0
-45 -54 -128 0
-45 -23 -106 0
-45 -23 -105 0
-45 -37 -120 0
-45 -37 -119 0
-45 -33 -114 0
-45 -33 -113 0
-45 -9 -70 0
-45 -9 -69 0
-45 -3 -44 0
-45 -3 -46 0
-45 -14 -84 0
-45 -14 -83 0
-45 -48 -126 0
-45 -48 -125 0
-19 -54 -100 0
-19 -54 -99 0
-19 -23 -90 0
-19 -23 -89 0
-19 -37 -93 0
-19 -37 -94 0
-19 -33 -91 0
-19 -33 -92 0
-19 -9 -61 0
-19 -9 -62 0
-19 -3 -17 0
-19 -3 -21 0
-19 -14 -75 0
-19 -14 -76 0
-19 -48 -98 0
-19 -48 -97 0
-54 -23 -110 0
-54 -23 -109 0
-54 -37 -123 0
-54 -37 -124 0
-54 -33 -117 0
-54 -33 -118 0
-54 -9 -73 0
-54 -9 -74 0
-54 -3 -57 0
-54 -3 -55 0
-54 -14 -87 0
-54 -14 -88 0
-54 -48 -130 0
-54 -48 -129 0
-23 -37 -103 0
-23 -37 -104 0
-23 -33 -101 0
-23 -33 -102 0
-23 -9 -63 0
-23 -9 -64 0
-23 -3 -24 0
-23 -3 -25 0
-23 -14 -78 0
-23 -14 -77 0
-23 -48 -108 0
-23 -48 -107 0
-37 -33 -112 0
-37 -33 -111 0
-37 -9 -67 0
-37 -9 -68 0
-37 -3 -39 0
-37 -3 -38 0
-37 -14 -81 0
-37 -14 -82 0
-37 -48 -122 0
-37 -48 -121 0
-33 -9 -66 0
-33 -9 -65 0
-33 -3 -31 0
-33 -3 -30 0
-33 -14 -80 0
-33 -14 -79 0
-33 -48 -115 0
-33 -48 -116 0
-9 -3 -10 0
-9 -3 -5 0
-9 -14 -60 0
-9 -14 -59 0
-9 -48 -71 0
-9 -48 -72 0
-3 -14 -15 0
-3 -14 -13 0
-3 -48 -49 0
-3 -48 -50 0
-14 -48 -86 0
-14 -48 -85 0
-95 -43 -22 0
-95 -41 -20 0
-127 -43 -58 0
-127 -41 -53 0
-106 -43 -28 0
-106 -41 -27 0
-120 -43 -40 0
-120 -41 -35 0
-114 -43 -29 0
-114 -41 -32 0
-70 -43 -8 0
-70 -41 -6 0
-44 -43 -2 0
-44 -41 -4 0
-84 -43 -12 0
-84 -41 -16 0
-126 -43 -47 0
-126 -41 -52 0
-96 -43 -22 0
-96 -41 -20 0
-100 -22 -58 0
-100 -20 -53 0
-90 -22 -28 0
-90 -20 -27 0
-93 -22 -40 0
-93 -20 -35 0
-91 -22 -29 0
-91 -20 -32 0
-61 -22 -8 0
-61 -20 -6 0
-17 -22 -2 0
-17 -20 -4 0
-75 -22 -12 0
-75 -20 -16 0
-98 -22 -47 0
-98 -20 -52 0
-128 -43 -58 0
-128 -41 -53 0
-99 -22 -58 0
-99 -20 -53 0
-110 -58 -28 0
-110 -53 -27 0
-123 -58 -40 0
-123 -53 -35 0
-117 -58 -29 0
-117 -53 -32 0
-73 -58 -8 0
-73 -53 -6 0
-57 -58 -2 0
-57 -53 -4 0
-87 -58 -12 0
-87 -53 -16 0
-130 -58 -47 0
-130 -53 -52 0
-105 -43 -28 0
-105 -41 -27 0
-89 -22 -28 0
-89 -20 -27 0
-109 -58 -28 0
-109 -53 -27 0
-103 -28 -40 0
-103 -27 -35 0
-101 -28 -29 0
-101 -27 -32 0
-63 -28 -8 0
-63 -27 -6 0
-24 -28 -2 0
-24 -27 -4 0
-78 -28 -12 0
-78 -27 -16 0
-108 -28 -47 0
-108 -27 -52 0
-119 -43 -40 0
-119 -41 -35 0
-94 -22 -40 0
-94 -20 -35 0
-124 -58 -40 0
-124 -53 -35 0
-104 -28 -40 0
-104 -27 -35 0
-112 -40 -29 0
-112 -35 -32 0
-67 -40 -8 0
-67 -35 -6 0
-39 -40 -2 0
-39 -35 -4 0
-81 -40 -12 0
-81 -35 -16 0
-122 -40 -47 0
-122 -35 -52 0
-113 -43 -29 0
-113 -41 -32 0
-92 -22 -29 0
-92 -20 -32 0
-118 -58 -29 0
-118 -53 -32 0
-102 -28 -29 0
-102 -27 -32 0
-111 -40 -29 0
-111 -35 -32 0
-66 -29 -8 0
-66 -32 -6 0
-31 -29 -2 0
-31 -32 -4 0
-80 -29 -12 0
-80 -32 -16 0
-115 -29 -47 0
-115 -32 -52 0
-69 -43 -8 0
-69 -41 -6 0
-62 -22 -8 0
-62 -20 -6 0
-74 -58 -8 0
-74 -53 -6 0
-64 -28 -8 0
-64 -27 -6 0
-68 -40 -8 0
-68 -35 -6 0
-65 -29 -8 0
-65 -32 -6 0
-10 -8 -2 0
-10 -6 -4 0
-60 -8 -12 0
-60 -6 -16 0
-71 -8 -47 0
-71 -6 -52 0
-46 -43 -2 0
-46 -41 -4 0
-21 -22 -2 0
-21 -20 -4 0
-55 -58 -2 0
-55 -53 -4 0
-25 -28 -2 0
-25 -27 -4 0
-38 -40 -2 0
-38 -35 -4 0
-30 -29 -2 0
-30 -32 -4 0
-5 -8 -2 0
-5 -6 -4 0
-15 -2 -12 0
-15 -4 -16 0
-49 -2 -47 0
-49 -4 -52 0
-83 -43 -12 0
-83 -41 -16 0
-76 -22 -12 0
-76 -20 -16 0
-88 -58 -12 0
-88 -53 -16 0
-77 -28 -12 0
-77 -27 -16 0
-82 -40 -12 0
-82 -35 -16 0
-79 -29 -12 0
-79 -32 -16 0
-59 -8 -12 0
-59 -6 -16 0
-13 -2 -12 0
-13 -4 -16 0
-86 -12 -47 0
-86 -16 -52 0
-125 -43 -47 0
-125 -41 -52 0
-97 -22 -47 0
-97 -20 -52 0
-129 -58 -47 0
-129 -53 -52 0
-107 -28 -47 0
-107 -27 -52 0
-121 -40 -47 0
-121 -35 -52 0
-116 -29 -47 0
-116 -32 -52 0
-72 -8 -47 0
-72 -6 -52 0
-50 -2 -47 0
-50 -4 -52 0
-85 -12 -47 0
-85 -16 -52 0
