c R(0) B(0) E(0,0) G(0) E(4,4) B(4) E(0,4) G(4) E(4,0) R(4) B(6) G(6) R(6) E(6,6) E(6,0) E(0,6) G(9) E(9,0) E(0,9) B(9) E(9,9) R(9) R(8) E(8,8) E(8,0) B(8) G(8) E(0,8) E(1,0) E(1,1) E(0,1) B(1) G(1) R(1) B(2) E(2,2) E(0,2) R(2) G(2) E(2,0) B(3) G(3) E(0,3) E(3,3) R(3) E(3,0) R(10) E(10,10) E(10,0) B(10) G(10) E(0,10) E(5,0) G(5) R(5) E(5,5) B(5) E(0,5) B(7) G(7) R(7) E(0,7) E(7,7) E(7,0) E(6,4) E(4,6) E(4,9) E(9,4) E(4,8) E(8,4) E(1,4) E(4,1) E(4,2) E(2,4) E(4,3) E(3,4) E(10,4) E(4,10) E(5,4) E(4,5) E(4,7) E(7,4) E(9,6) E(6,9) E(6,8) E(8,6) E(1,6) E(6,1) E(2,6) E(6,2) E(3,6) E(6,3) E(6,10) E(10,6) E(6,5) E(5,6) E(6,7) E(7,6) E(8,9) E(9,8) E(1,9) E(9,1) E(2,9) E(9,2) E(9,3) E(3,9) E(9,10) E(10,9) E(9,5) E(5,9) E(9,7) E(7,9) E(8,1) E(1,8) E(2,8) E(8,2) E(3,8) E(8,3) E(10,8) E(8,10) E(5,8) E(8,5) E(8,7) E(7,8) E(2,1) E(1,2) E(3,1) E(1,3) E(10,1) E(1,10) E(5,1) E(1,5) E(7,1) E(1,7) E(3,2) E(2,3) E(10,2) E(2,10) E(5,2) E(2,5) E(7,2) E(2,7) E(3,10) E(10,3) E(3,5) E(5,3) E(7,3) E(3,7) E(5,10) E(10,5) E(10,7) E(7,10) E(5,7) E(7,5)
c 1 2 3 4 5 6 7 8 9 10 11 12 13 14 15 16 17 18 19 20 21 22 23 24 25 26 27 28 29 30 31 32 33 34 35 36 37 38 39 40 41 42 43 44 45 46 47 48 49 50 51 52 53 54 55 56 57 58 59 60 61 62 63 64 65 66 67 68 69 70 71 72 73 74 75 76 77 78 79 80 81 82 83 84 85 86 87 88 89 90 91 92 93 94 95 96 97 98 99 100 101 102 103 104 105 106 107 108 109 110 111 112 113 114 115 116 117 118 119 120 121 122 123 124 125 126 127 128 129 130 131 132 133 134 135 136 137 138 139 140 141 142 143 144 145 146 147 148 149 150 151 152 153 154
p cnf 154 539
-3 0
-30 0
-48 0
-36 0
-44 0
-5 0
-56 0
-14 0
-63 0
-24 0
-21 0
3 -3 0
31 -29 0
52 -49 0
37 -40 0
43 -46 0
7 -9 0
58 -53 0
16 -15 0
62 -64 0
28 -25 0
19 -18 0
29 -31 0
30 -30 0
130 -129 0
126 -125 0
128 -127 0
71 -72 0
132 -131 0
87 -88 0
134 -133 0
114 -113 0
101 -102 0
49 -52 0
129 -130 0
48 -48 0
137 -138 0
144 -143 0
77 -78 0
150 -149 0
94 -93 0
151 -152 0
119 -120 0
108 -107 0
40 -37 0
125 -126 0
138 -137 0
36 -36 0
136 -135 0
74 -73 0
140 -139 0
89 -90 0
142 -141 0
115 -116 0
103 -104 0
46 -43 0
127 -128 0
143 -144 0
135 -136 0
44 -44 0
76 -75 0
145 -146 0
91 -92 0
148 -147 0
117 -118 0
106 -105 0
9 -7 0
72 -71 0
78 -77 0
73 -74 0
75 -76 0
5 -5 0
80 -79 0
66 -65 0
81 -82 0
69 -70 0
67 -68 0
53 -58 0
131 -132 0
149 -150 0
139 -140 0
146 -145 0
79 -80 0
56 -56 0
96 -95 0
153 -154 0
121 -122 0
110 -109 0
15 -16 0
88 -87 0
93 -94 0
90 -89 0
92 -91 0
65 -66 0
95 -96 0
14 -14 0
97 -98 0
85 -86 0
84 -83 0
64 -62 0
133 -134 0
152 -151 0
141 -142 0
147 -148 0
82 -81 0
154 -153 0
98 -97 0
63 -63 0
124 -123 0
112 -111 0
25 -28 0
113 -114 0
120 -119 0
116 -115 0
118 -117 0
70 -69 0
122 -121 0
86 -85 0
123 -124 0
24 -24 0
99 -100 0
18 -19 0
102 -101 0
107 -108 0
104 -103 0
105 -106 0
68 -67 0
109 -110 0
83 -84 0
111 -112 0
100 -99 0
21 -21 0
2 4 1 0
32 33 34 0
50 51 47 0
35 39 38 0
41 42 45 0
6 8 10 0
57 54 55 0
11 12 13 0
59 60 61 0
26 27 23 0
20 17 22 0
-2 -3 0
-2 -4 0
-2 -1 0
-32 -30 0
-32 -33 0
-32 -34 0
-50 -48 0
-50 -51 0
-50 -47 0
-35 -36 0
-35 -39 0
-35 -38 0
-41 -44 0
-41 -42 0
-41 -45 0
-6 -5 0
-6 -8 0
-6 -10 0
-57 -56 0
-57 -54 0
-57 -55 0
-11 -14 0
-11 -12 0
-11 -13 0
-59 -63 0
-59 -60 0
-59 -61 0
-26 -24 0
-26 -27 0
-26 -23 0
-20 -21 0
-20 -17 0
-20 -22 0
-3 -4 0
-3 -1 0
-30 -33 0
-30 -34 0
-48 -51 0
-48 -47 0
-36 -39 0
-36 -38 0
-44 -42 0
-44 -45 0
-5 -8 0
-5 -10 0
-56 -54 0
-56 -55 0
-14 -12 0
-14 -13 0
-63 -60 0
-63 -61 0
-24 -27 0
-24 -23 0
-21 -17 0
-21 -22 0
-4 -1 0
-33 -34 0
-51 -47 0
-39 -38 0
-42 -45 0
-8 -10 0
-54 -55 0
-12 -13 0
-60 -61 0
-27 -23 0
-17 -22 0
-2 -32 -31 0
-2 -32 -29 0
-2 -50 -52 0
-2 -50 -49 0
-2 -35 -37 0
-2 -35 -40 0
-2 -41 -43 0
-2 -41 -46 0
-2 -6 -7 0
-2 -6 -9 0
-2 -57 -58 0
-2 -57 -53 0
-2 -11 -16 0
-2 -11 -15 0
-2 -59 -62 0
-2 -59 -64 0
-2 -26 -28 0
-2 -26 -25 0
-2 -20 -19 0
-2 -20 -18 0
-32 -50 -130 0
-32 -50 -129 0
-32 -35 -126 0
-32 -35 -125 0
-32 -41 -128 0
-32 -41 -127 0
-32 -6 -71 0
-32 -6 -72 0
-32 -57 -132 0
-32 -57 -131 0
-32 -11 -87 0
-32 -11 -88 0
-32 -59 -134 0
-32 -59 -133 0
-32 -26 -114 0
-32 -26 -113 0
-32 -20 -101 0
-32 -20 -102 0
-50 -35 -137 0
-50 -35 -138 0
-50 -41 -144 0
-50 -41 -143 0
-50 -6 -77 0
-50 -6 -78 0
-50 -57 -150 0
-50 -57 -149 0
-50 -11 -94 0
-50 -11 -93 0
-50 -59 -151 0
-50 -59 -152 0
-50 -26 -119 0
-50 -26 -120 0
-50 -20 -108 0
-50 -20 -107 0
-35 -41 -136 0
-35 -41 -135 0
-35 -6 -74 0
-35 -6 -73 0
-35 -57 -140 0
-35 -57 -139 0
-35 -11 -89 0
-35 -11 -90 0
-35 -59 -142 0
-35 -59 -141 0
-35 -26 -115 0
-35 -26 -116 0
-35 -20 -103 0
-35 -20 -104 0
-41 -6 -76 0
-41 -6 -75 0
-41 -57 -145 0
-41 -57 -146 0
-41 -11 -91 0
-41 -11 -92 0
-41 -59 -148 0
-41 -59 -147 0
-41 -26 -117 0
-41 -26 -118 0
-41 -20 -106 0
-41 -20 -105 0
-6 -57 -80 0
-6 -57 -79 0
-6 -11 -66 0
-6 -11 -65 0
-6 -59 -81 0
-6 -59 -82 0
-6 -26 -69 0
-6 -26 -70 0
-6 -20 -67 0
-6 -20 -68 0
-57 -11 -96 0
-57 -11 -95 0
-57 -59 -153 0
-57 -59 -154 0
-57 -26 -121 0
-57 -26 -122 0
-57 -20 -110 0
-57 -20 -109 0
-11 -59 -97 0
-11 -59 -98 0
-11 -26 -85 0
-11 -26 -86 0
-11 -20 -84 0
-11 -20 -83 0
-59 -26 -124 0
-59 -26 -123 0
-59 -20 -112 0
-59 -20 -111 0
-26 -20 -99 0
-26 -20 -100 0
-31 -4 -33 0
-31 -1 -34 0
-52 -4 -51 0
-52 -1 -47 0
-37 -4 -39 0
-37 -1 -38 0
-43 -4 -42 0
-43 -1 -45 0
-7 -4 -8 0
-7 -1 -10 0
-58 -4 -54 0
-58 -1 -55 0
-16 -4 -12 0
-16 -1 -13 0
-62 -4 -60 0
-62 -1 -61 0
-28 -4 -27 0
-28 -1 -23 0
-19 -4 -17 0
-19 -1 -22 0
-29 -4 -33 0
-29 -1 -34 0
-130 -33 -51 0
-130 -34 -47 0
-126 -33 -39 0
-126 -34 -38 0
-128 -33 -42 0
-128 -34 -45 0
-71 -33 -8 0
-71 -34 -10 0
-132 -33 -54 0
-132 -34 -55 0
-87 -33 -12 0
-87 -34 -13 0
-134 -33 -60 0
-134 -34 -61 0
-114 -33 -27 0
-114 -34 -23 0
-101 -33 -17 0
-101 -34 -22 0
-49 -4 -51 0
-49 -1 -47 0
-129 -33 -51 0
-129 -34 -47 0
-137 -51 -39 0
-137 -47 -38 0
-144 -51 -42 0
-144 -47 -45 0
-77 -51 -8 0
-77 -47 -10 0
-150 -51 -54 0
-150 -47 -55 0
-94 -51 -12 0
-94 -47 -13 0
-151 -51 -60 0
-151 -47 -61 0
-119 -51 -27 0
-119 -47 -23 0
-108 -51 -17 0
-108 -47 -22 0
-40 -4 -39 0
-40 -1 -38 0
-125 -33 -39 0
-125 -34 -38 0
-138 -51 -39 0
-138 -47 -38 0
-136 -39 -42 0
-136 -38 -45 0
-74 -39 -8 0
-74 -38 -10 0
-140 -39 -54 0
-140 -38 -55 0
-89 -39 -12 0
-89 -38 -13 0
-142 -39 -60 0
-142 -38 -61 0
-115 -39 -27 0
-115 -38 -23 0
-103 -39 -17 0
-103 -38 -22 0
-46 -4 -42 0
-46 -1 -45 0
-127 -33 -42 0
-127 -34 -45 0
-143 -51 -42 0
-143 -47 -45 0
-135 -39 -42 0
-135 -38 -45 0
-76 -42 -8 0
-76 -45 -10 0
-145 -42 -54 0
-145 -45 -55 0
-91 -42 -12 0
-91 -45 -13 0
-148 -42 -60 0
-148 -45 -61 0
-117 -42 -27 0
-117 -45 -23 0
-106 -42 -17 0
-106 -45 -22 0
-9 -4 -8 0
-9 -1 -10 0
-72 -33 -8 0
-72 -34 -10 0
-78 -51 -8 0
-78 -47 -10 0
-73 -39 -8 0
-73 -38 -10 0
-75 -42 -8 0
-75 -45 -10 0
-80 -8 -54 0
-80 -10 -55 0
-66 -8 -12 0
-66 -10 -13 0
-81 -8 -60 0
-81 -10 -61 0
-69 -8 -27 0
-69 -10 -23 0
-67 -8 -17 0
-67 -10 -22 0
-53 -4 -54 0
-53 -1 -55 0
-131 -33 -54 0
-131 -34 -55 0
-149 -51 -54 0
-149 -47 -55 0
-139 -39 -54 0
-139 -38 -55 0
-146 -42 -54 0
-146 -45 -55 0
-79 -8 -54 0
-79 -10 -55 0
-96 -54 -12 0
-96 -55 -13 0
-153 -54 -60 0
-153 -55 -61 0
-121 -54 -27 0
-121 -55 -23 0
-110 -54 -17 0
-110 -55 -22 0
-15 -4 -12 0
-15 -1 -13 0
-88 -33 -12 0
-88 -34 -13 0
-93 -51 -12 0
-93 -47 -13 0
-90 -39 -12 0
-90 -38 -13 0
-92 -42 -12 0
-92 -45 -13 0
-65 -8 -12 0
-65 -10 -13 0
-95 -54 -12 0
-95 -55 -13 0
-97 -12 -60 0
-97 -13 -61 0
-85 -12 -27 0
-85 -13 -23 0
-84 -12 -17 0
-84 -13 -22 0
-64 -4 -60 0
-64 -1 -61 0
-133 -33 -60 0
-133 -34 -61 0
-152 -51 -60 0
-152 -47 -61 0
-141 -39 -60 0
-141 -38 -61 0
-147 -42 -60 0
-147 -45 -61 0
-82 -8 -60 0
-82 -10 -61 0
-154 -54 -60 0
-154 -55 -61 0
-98 -12 -60 0
-98 -13 -61 0
-124 -60 -27 0
-124 -61 -23 0
-112 -60 -17 0
-112 -61 -22 0
-25 -4 -27 0
-25 -1 -23 0
-113 -33 -27 0
-113 -34 -23 0
-120 -51 -27 0
-120 -47 -23 0
-116 -39 -27 0
-116 -38 -23 0
-118 -42 -27 0
-118 -45 -23 0
-70 -8 -27 0
-70 -10 -23 0
-122 -54 -27 0
-122 -55 -23 0
-86 -12 -27 0
-86 -13 -23 0
-123 -60 -27 0
-123 -61 -23 0
-99 -27 -17 0
-99 -23 -22 0
-18 -4 -17 0
-18 -1 -22 0
-102 -33 -17 0
-102 -34 -22 0
-107 -51 -17 0
-107 -47 -22 0
-104 -39 -17 0
-104 -38 -22 0
-105 -42 -17 0
-105 -45 -22 0
-68 -8 -17 0
-68 -10 -22 0
-109 -54 -17 0
-109 -55 -22 0
-83 -12 -17 0
-83 -13 -22 0
-111 -60 -17 0
-111 -61 -22 0
-100 -27 -17 0
-100 -23 -22 0
