c G(1) E(1,1) B(1) R(1) E(1,7) E(7,7) E(7,1) G(7) R(7) B(7) E(0,1) E(1,0) R(0) G(0) E(0,0) B(0) R(8) E(1,8) B(8) E(8,1) G(8) E(8,8) E(1,10) B(10) E(10,10) E(10,1) R(10) G(10) R(4) E(4,1) E(1,4) B(4) E(4,4) G(4) B(9) G(9) E(9,1) E(1,9) R(9) E(9,9) E(3,1) B(3) E(3,3) R(3) E(1,3) G(3) E(6,6) R(6) G(6) E(6,1) E(1,6) B(6) R(11) E(1,11) E(11,11) E(11,1) G(11) B(11) E(1,2) R(2) E(2,1) E(2,2) G(2) B(2) E(5,1) G(5) E(5,5) E(1,5) B(5) R(5) E(0,7) E(7,0) E(7,8) E(8,7) E(7,10) E(10,7) E(4,7) E(7,4) E(9,7) E(7,9) E(3,7) E(7,3) E(6,7) E(7,6) E(7,11) E(11,7) E(2,7) E(7,2) E(5,7) E(7,5) E(0,8) E(8,0) E(10,0) E(0,10) E(0,4) E(4,0) E(0,9) E(9,0) E(0,3) E(3,0) E(0,6) E(6,0) E(11,0) E(0,11) E(0,2) E(2,0) E(5,0) E(0,5) E(10,8) E(8,10) E(4,8) E(8,4) E(8,9) E(9,8) E(8,3) E(3,8) E(8,6) E(6,8) E(8,11) E(11,8) E(8,2) E(2,8) E(8,5) E(5,8) E(10,4) E(4,10) E(9,10) E(10,9) E(10,3) E(3,10) E(10,6) E(6,10) E(10,11) E(11,10) E(2,10) E(10,2) E(5,10) E(10,5) E(4,9) E(9,4) E(3,4) E(4,3) E(6,4) E(4,6) E(11,4) E(4,11) E(4,2) E(2,4) E(5,4) E(4,5) E(9,3) E(3,9) E(9,6) E(6,9) E(11,9) E(9,11) E(2,9) E(9,2) E(5,9) E(9,5) E(6,3) E(3,6) E(3,11) E(11,3) E(3,2) E(2,3) E(5,3) E(3,5) E(11,6) E(6,11) E(2,6) E(6,2) E(5,6) E(6,5) E(2,11) E(11,2) E(5,11) E(11,5) E(5,2) E(2,5)
c 1 2 3 4 5 6 7 8 9 10 11 12 13 14 15 16 17 18 19 20 21 22 23 24 25 26 27 28 29 30 31 32 33 34 35 36 37 38 39 40 41 42 43 44 45 46 47 48 49 50 51 52 53 54 55 56 57 58 59 60 61 62 63 64 65 66 67 68 69 70 71 72 73 74 75 76 77 78 79 80 81 82 83 84 85 86 87 88 89 90 91 92 93 94 95 96 97 98 99 100 101 102 103 104 105 106 107 108 109 110 111 112 113 114 115 116 117 118 119 120 121 122 123 124 125 126 127 128 129 130 131 132 133 134 135 136 137 138 139 140 141 142 143 144 145 146 147 148 149 150 151 152 153 154 155 156 157 158 159 160 161 162 163 164 165 166 167 168 169 170 171 172 173 174 175 176 177 178 179 180
p cnf 180 636
-15 0
-2 0
-25 0
-55 0
-62 0
-43 0
-33 0
-67 0
-47 0
-6 0
-22 0
-40 0
15 -15 0
11 -12 0
94 -93 0
104 -103 0
105 -106 0
99 -100 0
95 -96 0
108 -107 0
101 -102 0
71 -72 0
91 -92 0
97 -98 0
12 -11 0
2 -2 0
23 -26 0
54 -56 0
59 -61 0
45 -41 0
31 -30 0
68 -65 0
51 -50 0
5 -7 0
18 -20 0
38 -37 0
93 -94 0
26 -23 0
25 -25 0
133 -134 0
136 -135 0
129 -130 0
125 -126 0
138 -137 0
131 -132 0
76 -75 0
109 -110 0
128 -127 0
103 -104 0
56 -54 0
134 -133 0
55 -55 0
176 -175 0
164 -163 0
145 -146 0
178 -177 0
169 -170 0
86 -85 0
120 -119 0
155 -156 0
106 -105 0
61 -59 0
135 -136 0
175 -176 0
62 -62 0
166 -165 0
148 -147 0
180 -179 0
171 -172 0
87 -88 0
122 -121 0
157 -158 0
100 -99 0
41 -45 0
130 -129 0
163 -164 0
165 -166 0
43 -43 0
141 -142 0
168 -167 0
162 -161 0
81 -82 0
116 -115 0
152 -151 0
96 -95 0
30 -31 0
126 -125 0
146 -145 0
147 -148 0
142 -141 0
33 -33 0
150 -149 0
144 -143 0
77 -78 0
111 -112 0
139 -140 0
107 -108 0
65 -68 0
137 -138 0
177 -178 0
179 -180 0
167 -168 0
149 -150 0
67 -67 0
173 -174 0
89 -90 0
124 -123 0
159 -160 0
102 -101 0
50 -51 0
132 -131 0
170 -169 0
172 -171 0
161 -162 0
143 -144 0
174 -173 0
47 -47 0
83 -84 0
118 -117 0
154 -153 0
72 -71 0
7 -5 0
75 -76 0
85 -86 0
88 -87 0
82 -81 0
78 -77 0
90 -89 0
84 -83 0
6 -6 0
73 -74 0
80 -79 0
92 -91 0
20 -18 0
110 -109 0
119 -120 0
121 -122 0
115 -116 0
112 -111 0
123 -124 0
117 -118 0
74 -73 0
22 -22 0
113 -114 0
98 -97 0
37 -38 0
127 -128 0
156 -155 0
158 -157 0
151 -152 0
140 -139 0
160 -159 0
153 -154 0
79 -80 0
114 -113 0
40 -40 0
16 14 13 0
3 1 4 0
24 28 27 0
58 57 53 0
64 63 60 0
42 46 44 0
32 34 29 0
69 66 70 0
52 49 48 0
10 8 9 0
19 21 17 0
35 36 39 0
-16 -15 0
-16 -14 0
-16 -13 0
-3 -2 0
-3 -1 0
-3 -4 0
-24 -25 0
-24 -28 0
-24 -27 0
-58 -55 0
-58 -57 0
-58 -53 0
-64 -62 0
-64 -63 0
-64 -60 0
-42 -43 0
-42 -46 0
-42 -44 0
-32 -33 0
-32 -34 0
-32 -29 0
-69 -67 0
-69 -66 0
-69 -70 0
-52 -47 0
-52 -49 0
-52 -48 0
-10 -6 0
-10 -8 0
-10 -9 0
-19 -22 0
-19 -21 0
-19 -17 0
-35 -40 0
-35 -36 0
-35 -39 0
-15 -14 0
-15 -13 0
-2 -1 0
-2 -4 0
-25 -28 0
-25 -27 0
-55 -57 0
-55 -53 0
-62 -63 0
-62 -60 0
-43 -46 0
-43 -44 0
-33 -34 0
-33 -29 0
-67 -66 0
-67 -70 0
-47 -49 0
-47 -48 0
-6 -8 0
-6 -9 0
-22 -21 0
-22 -17 0
-40 -36 0
-40 -39 0
-14 -13 0
-1 -4 0
-28 -27 0
-57 -53 0
-63 -60 0
-46 -44 0
-34 -29 0
-66 -70 0
-49 -48 0
-8 -9 0
-21 -17 0
-36 -39 0
-16 -3 -11 0
-16 -3 -12 0
-16 -24 -94 0
-16 -24 -93 0
-16 -58 -104 0
-16 -58 -103 0
-16 -64 -105 0
-16 -64 -106 0
-16 -42 -99 0
-16 -42 -100 0
-16 -32 -95 0
-16 -32 -96 0
-16 -69 -108 0
-16 -69 -107 0
-16 -52 -101 0
-16 -52 -102 0
-16 -10 -71 0
-16 -10 -72 0
-16 -19 -91 0
-16 -19 -92 0
-16 -35 -97 0
-16 -35 -98 0
-3 -24 -23 0
-3 -24 -26 0
-3 -58 -54 0
-3 -58 -56 0
-3 -64 -59 0
-3 -64 -61 0
-3 -42 -45 0
-3 -42 -41 0
-3 -32 -31 0
-3 -32 -30 0
-3 -69 -68 0
-3 -69 -65 0
-3 -52 -51 0
-3 -52 -50 0
-3 -10 -5 0
-3 -10 -7 0
-3 -19 -18 0
-3 -19 -20 0
-3 -35 -38 0
-3 -35 -37 0
-24 -58 -133 0
-24 -58 -134 0
-24 -64 -136 0
-24 -64 -135 0
-24 -42 -129 0
-24 -42 -130 0
-24 -32 -125 0
-24 -32 -126 0
-24 -69 -138 0
-24 -69 -137 0
-24 -52 -131 0
-24 -52 -132 0
-24 -10 -76 0
-24 -10 -75 0
-24 -19 -109 0
-24 -19 -110 0
-24 -35 -128 0
-24 -35 -127 0
-58 -64 -176 0
-58 -64 -175 0
-58 -42 -164 0
-58 -42 -163 0
-58 -32 -145 0
-58 -32 -146 0
-58 -69 -178 0
-58 -69 -177 0
-58 -52 -169 0
-58 -52 -170 0
-58 -10 -86 0
-58 -10 -85 0
-58 -19 -120 0
-58 -19 -119 0
-58 -35 -155 0
-58 -35 -156 0
-64 -42 -166 0
-64 -42 -165 0
-64 -32 -148 0
-64 -32 -147 0
-64 -69 -180 0
-64 -69 -179 0
-64 -52 -171 0
-64 -52 -172 0
-64 -10 -87 0
-64 -10 -88 0
-64 -19 -122 0
-64 -19 -121 0
-64 -35 -157 0
-64 -35 -158 0
-42 -32 -141 0
-42 -32 -142 0
-42 -69 -168 0
-42 -69 -167 0
-42 -52 -162 0
-42 -52 -161 0
-42 -10 -81 0
-42 -10 -82 0
-42 -19 -116 0
-42 -19 -115 0
-42 -35 -152 0
-42 -35 -151 0
-32 -69 -150 0
-32 -69 -149 0
-32 -52 -144 0
-32 -52 -143 0
-32 -10 -77 0
-32 -10 -78 0
-32 -19 -111 0
-32 -19 -112 0
-32 -35 -139 0
-32 -35 -140 0
-69 -52 -173 0
-69 -52 -174 0
-69 -10 -89 0
-69 -10 -90 0
-69 -19 -124 0
-69 -19 -123 0
-69 -35 -159 0
-69 -35 -160 0
-52 -10 -83 0
-52 -10 -84 0
-52 -19 -118 0
-52 -19 -117 0
-52 -35 -154 0
-52 -35 -153 0
-10 -19 -73 0
-10 -19 -74 0
-10 -35 -80 0
-10 -35 -79 0
-19 -35 -113 0
-19 -35 -114 0
-11 -14 -1 0
-11 -13 -4 0
-94 -14 -28 0
-94 -13 -27 0
-104 -14 -57 0
-104 -13 -53 0
-105 -14 -63 0
-105 -13 -60 0
-99 -14 -46 0
-99 -13 -44 0
-95 -14 -34 0
-95 -13 -29 0
-108 -14 -66 0
-108 -13 -70 0
-101 -14 -49 0
-101 -13 -48 0
-71 -14 -8 0
-71 -13 -9 0
-91 -14 -21 0
-91 -13 -17 0
-97 -14 -36 0
-97 -13 -39 0
-12 -14 -1 0
-12 -13 -4 0
-23 -1 -28 0
-23 -4 -27 0
-54 -1 -57 0
-54 -4 -53 0
-59 -1 -63 0
-59 -4 -60 0
-45 -1 -46 0
-45 -4 -44 0
-31 -1 -34 0
-31 -4 -29 0
-68 -1 -66 0
-68 -4 -70 0
-51 -1 -49 0
-51 -4 -48 0
-5 -1 -8 0
-5 -4 -9 0
-18 -1 -21 0
-18 -4 -17 0
-38 -1 -36 0
-38 -4 -39 0
-93 -14 -28 0
-93 -13 -27 0
-26 -1 -28 0
-26 -4 -27 0
-133 -28 -57 0
-133 -27 -53 0
-136 -28 -63 0
-136 -27 -60 0
-129 -28 -46 0
-129 -27 -44 0
-125 -28 -34 0
-125 -27 -29 0
-138 -28 -66 0
-138 -27 -70 0
-131 -28 -49 0
-131 -27 -48 0
-76 -28 -8 0
-76 -27 -9 0
-109 -28 -21 0
-109 -27 -17 0
-128 -28 -36 0
-128 -27 -39 0
-103 -14 -57 0
-103 -13 -53 0
-56 -1 -57 0
-56 -4 -53 0
-134 -28 -57 0
-134 -27 -53 0
-176 -57 -63 0
-176 -53 -60 0
-164 -57 -46 0
-164 -53 -44 0
-145 -57 -34 0
-145 -53 -29 0
-178 -57 -66 0
-178 -53 -70 0
-169 -57 -49 0
-169 -53 -48 0
-86 -57 -8 0
-86 -53 -9 0
-120 -57 -21 0
-120 -53 -17 0
-155 -57 -36 0
-155 -53 -39 0
-106 -14 -63 0
-106 -13 -60 0
-61 -1 -63 0
-61 -4 -60 0
-135 -28 -63 0
-135 -27 -60 0
-175 -57 -63 0
-175 -53 -60 0
-166 -63 -46 0
-166 -60 -44 0
-148 -63 -34 0
-148 -60 -29 0
-180 -63 -66 0
-180 -60 -70 0
-171 -63 -49 0
-171 -60 -48 0
-87 -63 -8 0
-87 -60 -9 0
-122 -63 -21 0
-122 -60 -17 0
-157 -63 -36 0
-157 -60 -39 0
-100 -14 -46 0
-100 -13 -44 0
-41 -1 -46 0
-41 -4 -44 0
-130 -28 -46 0
-130 -27 -44 0
-163 -57 -46 0
-163 -53 -44 0
-165 -63 -46 0
-165 -60 -44 0
-141 -46 -34 0
-141 -44 -29 0
-168 -46 -66 0
-168 -44 -70 0
-162 -46 -49 0
-162 -44 -48 0
-81 -46 -8 0
-81 -44 -9 0
-116 -46 -21 0
-116 -44 -17 0
-152 -46 -36 0
-152 -44 -39 0
-96 -14 -34 0
-96 -13 -29 0
-30 -1 -34 0
-30 -4 -29 0
-126 -28 -34 0
-126 -27 -29 0
-146 -57 -34 0
-146 -53 -29 0
-147 -63 -34 0
-147 -60 -29 0
-142 -46 -34 0
-142 -44 -29 0
-150 -34 -66 0
-150 -29 -70 0
-144 -34 -49 0
-144 -29 -48 0
-77 -34 -8 0
-77 -29 -9 0
-111 -34 -21 0
-111 -29 -17 0
-139 -34 -36 0
-139 -29 -39 0
-107 -14 -66 0
-107 -13 -70 0
-65 -1 -66 0
-65 -4 -70 0
-137 -28 -66 0
-137 -27 -70 0
-177 -57 -66 0
-177 -53 -70 0
-179 -63 -66 0
-179 -60 -70 0
-167 -46 -66 0
-167 -44 -70 0
-149 -34 -66 0
-149 -29 -70 0
-173 -66 -49 0
-173 -70 -48 0
-89 -66 -8 0
-89 -70 -9 0
-124 -66 -21 0
-124 -70 -17 0
-159 -66 -36 0
-159 -70 -39 0
-102 -14 -49 0
-102 -13 -48 0
-50 -1 -49 0
-50 -4 -48 0
-132 -28 -49 0
-132 -27 -48 0
-170 -57 -49 0
-170 -53 -48 0
-172 -63 -49 0
-172 -60 -48 0
-161 -46 -49 0
-161 -44 -48 0
-143 -34 -49 0
-143 -29 -48 0
-174 -66 -49 0
-174 -70 -48 0
-83 -49 -8 0
-83 -48 -9 0
-118 -49 -21 0
-118 -48 -17 0
-154 -49 -36 0
-154 -48 -39 0
-72 -14 -8 0
-72 -13 -9 0
-7 -1 -8 0
-7 -4 -9 0
-75 -28 -8 0
-75 -27 -9 0
-85 -57 -8 0
-85 -53 -9 0
-88 -63 -8 0
-88 -60 -9 0
-82 -46 -8 0
-82 -44 -9 0
-78 -34 -8 0
-78 -29 -9 0
-90 -66 -8 0
-90 -70 -9 0
-84 -49 -8 0
-84 -48 -9 0
-73 -8 -21 0
-73 -9 -17 0
-80 -8 -36 0
-80 -9 -39 0
-92 -14 -21 0
-92 -13 -17 0
-20 -1 -21 0
-20 -4 -17 0
-110 -28 -21 0
-110 -27 -17 0
-119 -57 -21 0
-119 -53 -17 0
-121 -63 -21 0
-121 -60 -17 0
-115 -46 -21 0
-115 -44 -17 0
-112 -34 -21 0
-112 -29 -17 0
-123 -66 -21 0
-123 -70 -17 0
-117 -49 -21 0
-117 -48 -17 0
-74 -8 -21 0
-74 -9 -17 0
-113 -21 -36 0
-113 -17 -39 0
-98 -14 -36 0
-98 -13 -39 0
-37 -1 -36 0
-37 -4 -39 0
-127 -28 -36 0
-127 -27 -39 0
-156 -57 -36 0
-156 -53 -39 0
-158 -63 -36 0
-158 -60 -39 0
-151 -46 -36 0
-151 -44 -39 0
-140 -34 -36 0
-140 -29 -39 0
-160 -66 -36 0
-160 -70 -39 0
-153 -49 -36 0
-153 -48 -39 0
-79 -8 -36 0
-79 -9 -39 0
-114 -21 -36 0
-114 -17 -39 0
