c R(1) G(1) B(1) E(1,1) E(10,1) E(10,10) B(10) G(10) R(10) E(1,10) R(6) E(6,6) G(6) E(6,1) B(6) E(1,6) G(4) E(4,4) B(4) E(1,4) R(4) E(4,1) R(3) E(3,1) B(3) E(1,3) G(3) E(3,3) R(12) B(12) E(12,12) E(12,1) E(1,12) G(12) G(9) B(9) R(9) E(9,1) E(1,9) E(9,9) B(0) G(0) R(0) E(0,1) E(1,0) E(0,0) R(5) E(5,1) G(5) E(5,5) E(1,5) B(5) R(7) E(7,1) G(7) E(7,7) B(7) E(1,7) E(2,1) G(2) B(2) E(1,2) R(2) E(2,2) R(11) E(1,11) E(11,1) G(11) B(11) E(11,11) E(8,8) B(8) E(1,8) R(8) G(8) E(8,1) E(10,6) E(6,10) E(4,10) E(10,4) E(10,3) E(3,10) E(12,10) E(10,12) E(10,9) E(9,10) E(0,10) E(10,0) E(5,10) E(10,5) E(7,10) E(10,7) E(10,2) E(2,10) E(11,10) E(10,11) E(10,8) E(8,10) E(4,6) E(6,4) E(6,3) E(3,6) E(6,12) E(12,6) E(6,9) E(9,6) E(0,6) E(6,0) E(5,6) E(6,5) E(7,6) E(6,7) E(2,6) E(6,2) E(6,11) E(11,6) E(6,8) E(8,6) E(3,4) E(4,3) E(4,12) E(12,4) E(4,9) E(9,4) E(4,0) E(0,4) E(4,5) E(5,4) E(7,4) E(4,7) E(2,4) E(4,2) E(11,4) E(4,11) E(8,4) E(4,8) E(3,12) E(12,3) E(9,3) E(3,9) E(0,3) E(3,0) E(5,3) E(3,5) E(3,7) E(7,3) E(3,2) E(2,3) E(3,11) E(11,3) E(8,3) E(3,8) E(9,12) E(12,9) E(0,12) E(12,0) E(5,12) E(12,5) E(12,7) E(7,12) E(12,2) E(2,12) E(12,11) E(11,12) E(8,12) E(12,8) E(9,0) E(0,9) E(9,5) E(5,9) E(9,7) E(7,9) E(9,2) E(2,9) E(9,11) E(11,9) E(8,9) E(9,8) E(5,0) E(0,5) E(0,7) E(7,0) E(2,0) E(0,2) E(11,0) E(0,11) E(0,8) E(8,0) E(5,7) E(7,5) E(5,2) E(2,5) E(11,5) E(5,11) E(8,5) E(5,8) E(2,7) E(7,2) E(11,7) E(7,11) E(8,7) E(7,8) E(11,2) E(2,11) E(8,2) E(2,8) E(8,11) E(11,8)
c 1 2 3 4 5 6 7 8 9 10 11 12 13 14 15 16 17 18 19 20 21 22 23 24 25 26 27 28 29 30 31 32 33 34 35 36 37 38 39 40 41 42 43 44 45 46 47 48 49 50 51 52 53 54 55 56 57 58 59 60 61 62 63 64 65 66 67 68 69 70 71 72 73 74 75 76 77 78 79 80 81 82 83 84 85 86 87 88 89 90 91 92 93 94 95 96 97 98 99 100 101 102 103 104 105 106 107 108 109 110 111 112 113 114 115 116 117 118 119 120 121 122 123 124 125 126 127 128 129 130 131 132 133 134 135 136 137 138 139 140 141 142 143 144 145 146 147 148 149 150 151 152 153 154 155 156 157 158 159 160 161 162 163 164 165 166 167 168 169 170 171 172 173 174 175 176 177 178 179 180 181 182 183 184 185 186 187 188 189 190 191 192 193 194 195 196 197 198 199 200 201 202 203 204 205 206 207 208
p cnf 208 741
-46 0
-4 0
-6 0
-70 0
-31 0
-64 0
-28 0
-18 0
-50 0
-12 0
-56 0
-71 0
-40 0
46 -46 0
44 -45 0
87 -88 0
186 -185 0
155 -156 0
184 -183 0
141 -142 0
126 -125 0
180 -179 0
107 -108 0
181 -182 0
187 -188 0
168 -167 0
45 -44 0
4 -4 0
10 -5 0
66 -67 0
33 -32 0
62 -59 0
26 -24 0
20 -22 0
51 -48 0
16 -14 0
58 -54 0
73 -76 0
39 -38 0
88 -87 0
5 -10 0
6 -6 0
96 -95 0
84 -83 0
93 -94 0
81 -82 0
80 -79 0
90 -89 0
77 -78 0
92 -91 0
97 -98 0
85 -86 0
185 -186 0
67 -66 0
95 -96 0
70 -70 0
164 -163 0
203 -204 0
150 -149 0
133 -134 0
193 -194 0
116 -115 0
199 -200 0
208 -207 0
176 -175 0
156 -155 0
32 -33 0
83 -84 0
163 -164 0
31 -31 0
161 -162 0
138 -137 0
122 -121 0
158 -157 0
104 -103 0
159 -160 0
166 -165 0
154 -153 0
183 -184 0
59 -62 0
94 -93 0
204 -203 0
162 -161 0
64 -64 0
148 -147 0
131 -132 0
192 -191 0
113 -114 0
197 -198 0
206 -205 0
174 -173 0
142 -141 0
24 -26 0
82 -81 0
149 -150 0
137 -138 0
147 -148 0
28 -28 0
119 -120 0
144 -143 0
102 -101 0
145 -146 0
152 -151 0
140 -139 0
125 -126 0
22 -20 0
79 -80 0
134 -133 0
121 -122 0
132 -131 0
120 -119 0
18 -18 0
127 -128 0
99 -100 0
130 -129 0
136 -135 0
123 -124 0
179 -180 0
48 -51 0
89 -90 0
194 -193 0
157 -158 0
191 -192 0
143 -144 0
128 -127 0
50 -50 0
109 -110 0
189 -190 0
196 -195 0
170 -169 0
108 -107 0
14 -16 0
78 -77 0
115 -116 0
103 -104 0
114 -113 0
101 -102 0
100 -99 0
110 -109 0
12 -12 0
112 -111 0
117 -118 0
105 -106 0
182 -181 0
54 -58 0
91 -92 0
200 -199 0
160 -159 0
198 -197 0
146 -145 0
129 -130 0
190 -189 0
111 -112 0
56 -56 0
202 -201 0
172 -171 0
188 -187 0
76 -73 0
98 -97 0
207 -208 0
165 -166 0
205 -206 0
151 -152 0
135 -136 0
195 -196 0
118 -117 0
201 -202 0
71 -71 0
177 -178 0
167 -168 0
38 -39 0
86 -85 0
175 -176 0
153 -154 0
173 -174 0
139 -140 0
124 -123 0
169 -170 0
106 -105 0
171 -172 0
178 -177 0
40 -40 0
41 42 43 0
3 2 1 0
7 8 9 0
69 68 65 0
30 34 29 0
61 60 63 0
25 27 23 0
19 17 21 0
52 49 47 0
15 13 11 0
57 55 53 0
72 75 74 0
36 35 37 0
-41 -46 0
-41 -42 0
-41 -43 0
-3 -4 0
-3 -2 0
-3 -1 0
-7 -6 0
-7 -8 0
-7 -9 0
-69 -70 0
-69 -68 0
-69 -65 0
-30 -31 0
-30 -34 0
-30 -29 0
-61 -64 0
-61 -60 0
-61 -63 0
-25 -28 0
-25 -27 0
-25 -23 0
-19 -18 0
-19 -17 0
-19 -21 0
-52 -50 0
-52 -49 0
-52 -47 0
-15 -12 0
-15 -13 0
-15 -11 0
-57 -56 0
-57 -55 0
-57 -53 0
-72 -71 0
-72 -75 0
-72 -74 0
-36 -40 0
-36 -35 0
-36 -37 0
-46 -42 0
-46 -43 0
-4 -2 0
-4 -1 0
-6 -8 0
-6 -9 0
-70 -68 0
-70 -65 0
-31 -34 0
-31 -29 0
-64 -60 0
-64 -63 0
-28 -27 0
-28 -23 0
-18 -17 0
-18 -21 0
-50 -49 0
-50 -47 0
-12 -13 0
-12 -11 0
-56 -55 0
-56 -53 0
-71 -75 0
-71 -74 0
-40 -35 0
-40 -37 0
-42 -43 0
-2 -1 0
-8 -9 0
-68 -65 0
-34 -29 0
-60 -63 0
-27 -23 0
-17 -21 0
-49 -47 0
-13 -11 0
-55 -53 0
-75 -74 0
-35 -37 0
-41 -3 -44 0
-41 -3 -45 0
-41 -7 -87 0
-41 -7 -88 0
-41 -69 -186 0
-41 -69 -185 0
-41 -30 -155 0
-41 -30 -156 0
-41 -61 -184 0
-41 -61 -183 0
-41 -25 -141 0
-41 -25 -142 0
-41 -19 -126 0
-41 -19 -125 0
-41 -52 -180 0
-41 -52 -179 0
-41 -15 -107 0
-41 -15 -108 0
-41 -57 -181 0
-41 -57 -182 0
-41 -72 -187 0
-41 -72 -188 0
-41 -36 -168 0
-41 -36 -167 0
-3 -7 -10 0
-3 -7 -5 0
-3 -69 -66 0
-3 -69 -67 0
-3 -30 -33 0
-3 -30 -32 0
-3 -61 -62 0
-3 -61 -59 0
-3 -25 -26 0
-3 -25 -24 0
-3 -19 -20 0
-3 -19 -22 0
-3 -52 -51 0
-3 -52 -48 0
-3 -15 -16 0
-3 -15 -14 0
-3 -57 -58 0
-3 -57 -54 0
-3 -72 -73 0
-3 -72 -76 0
-3 -36 -39 0
-3 -36 -38 0
-7 -69 -96 0
-7 -69 -95 0
-7 -30 -84 0
-7 -30 -83 0
-7 -61 -93 0
-7 -61 -94 0
-7 -25 -81 0
-7 -25 -82 0
-7 -19 -80 0
-7 -19 -79 0
-7 -52 -90 0
-7 -52 -89 0
-7 -15 -77 0
-7 -15 -78 0
-7 -57 -92 0
-7 -57 -91 0
-7 -72 -97 0
-7 -72 -98 0
-7 -36 -85 0
-7 -36 -86 0
-69 -30 -164 0
-69 -30 -163 0
-69 -61 -203 0
-69 -61 -204 0
-69 -25 -150 0
-69 -25 -149 0
-69 -19 -133 0
-69 -19 -134 0
-69 -52 -193 0
-69 -52 -194 0
-69 -15 -116 0
-69 -15 -115 0
-69 -57 -199 0
-69 -57 -200 0
-69 -72 -208 0
-69 -72 -207 0
-69 -36 -176 0
-69 -36 -175 0
-30 -61 -161 0
-30 -61 -162 0
-30 -25 -138 0
-30 -25 -137 0
-30 -19 -122 0
-30 -19 -121 0
-30 -52 -158 0
-30 -52 -157 0
-30 -15 -104 0
-30 -15 -103 0
-30 -57 -159 0
-30 -57 -160 0
-30 -72 -166 0
-30 -72 -165 0
-30 -36 -154 0
-30 -36 -153 0
-61 -25 -148 0
-61 -25 -147 0
-61 -19 -131 0
-61 -19 -132 0
-61 -52 -192 0
-61 -52 -191 0
-61 -15 -113 0
-61 -15 -114 0
-61 -57 -197 0
-61 -57 -198 0
-61 -72 -206 0
-61 -72 -205 0
-61 -36 -174 0
-61 -36 -173 0
-25 -19 -119 0
-25 -19 -120 0
-25 -52 -144 0
-25 -52 -143 0
-25 -15 -102 0
-25 -15 -101 0
-25 -57 -145 0
-25 -57 -146 0
-25 -72 -152 0
-25 -72 -151 0
-25 -36 -140 0
-25 -36 -139 0
-19 -52 -127 0
-19 -52 -128 0
-19 -15 -99 0
-19 -15 -100 0
-19 -57 -130 0
-19 -57 -129 0
-19 -72 -136 0
-19 -72 -135 0
-19 -36 -123 0
-19 -36 -124 0
-52 -15 -109 0
-52 -15 -110 0
-52 -57 -189 0
-52 -57 -190 0
-52 -72 -196 0
-52 -72 -195 0
-52 -36 -170 0
-52 -36 -169 0
-15 -57 -112 0
-15 -57 -111 0
-15 -72 -117 0
-15 -72 -118 0
-15 -36 -105 0
-15 -36 -106 0
-57 -72 -202 0
-57 -72 -201 0
-57 -36 -172 0
-57 -36 -171 0
-72 -36 -177 0
-72 -36 -178 0
-44 -42 -2 0
-44 -43 -1 0
-87 -42 -8 0
-87 -43 -9 0
-186 -42 -68 0
-186 -43 -65 0
-155 -42 -34 0
-155 -43 -29 0
-184 -42 -60 0
-184 -43 -63 0
-141 -42 -27 0
-141 -43 -23 0
-126 -42 -17 0
-126 -43 -21 0
-180 -42 -49 0
-180 -43 -47 0
-107 -42 -13 0
-107 -43 -11 0
-181 -42 -55 0
-181 -43 -53 0
-187 -42 -75 0
-187 -43 -74 0
-168 -42 -35 0
-168 -43 -37 0
-45 -42 -2 0
-45 -43 -1 0
-10 -2 -8 0
-10 -1 -9 0
-66 -2 -68 0
-66 -1 -65 0
-33 -2 -34 0
-33 -1 -29 0
-62 -2 -60 0
-62 -1 -63 0
-26 -2 -27 0
-26 -1 -23 0
-20 -2 -17 0
-20 -1 -21 0
-51 -2 -49 0
-51 -1 -47 0
-16 -2 -13 0
-16 -1 -11 0
-58 -2 -55 0
-58 -1 -53 0
-73 -2 -75 0
-73 -1 -74 0
-39 -2 -35 0
-39 -1 -37 0
-88 -42 -8 0
-88 -43 -9 0
-5 -2 -8 0
-5 -1 -9 0
-96 -8 -68 0
-96 -9 -65 0
-84 -8 -34 0
-84 -9 -29 0
-93 -8 -60 0
-93 -9 -63 0
-81 -8 -27 0
-81 -9 -23 0
-80 -8 -17 0
-80 -9 -21 0
-90 -8 -49 0
-90 -9 -47 0
-77 -8 -13 0
-77 -9 -11 0
-92 -8 -55 0
-92 -9 -53 0
-97 -8 -75 0
-97 -9 -74 0
-85 -8 -35 0
-85 -9 -37 0
-185 -42 -68 0
-185 -43 -65 0
-67 -2 -68 0
-67 -1 -65 0
-95 -8 -68 0
-95 -9 -65 0
-164 -68 -34 0
-164 -65 -29 0
-203 -68 -60 0
-203 -65 -63 0
-150 -68 -27 0
-150 -65 -23 0
-133 -68 -17 0
-133 -65 -21 0
-193 -68 -49 0
-193 -65 -47 0
-116 -68 -13 0
-116 -65 -11 0
-199 -68 -55 0
-199 -65 -53 0
-208 -68 -75 0
-208 -65 -74 0
-176 -68 -35 0
-176 -65 -37 0
-156 -42 -34 0
-156 -43 -29 0
-32 -2 -34 0
-32 -1 -29 0
-83 -8 -34 0
-83 -9 -29 0
-163 -68 -34 0
-163 -65 -29 0
-161 -34 -60 0
-161 -29 -63 0
-138 -34 -27 0
-138 -29 -23 0
-122 -34 -17 0
-122 -29 -21 0
-158 -34 -49 0
-158 -29 -47 0
-104 -34 -13 0
-104 -29 -11 0
-159 -34 -55 0
-159 -29 -53 0
-166 -34 -75 0
-166 -29 -74 0
-154 -34 -35 0
-154 -29 -37 0
-183 -42 -60 0
-183 -43 -63 0
-59 -2 -60 0
-59 -1 -63 0
-94 -8 -60 0
-94 -9 -63 0
-204 -68 -60 0
-204 -65 -63 0
-162 -34 -60 0
-162 -29 -63 0
-148 -60 -27 0
-148 -63 -23 0
-131 -60 -17 0
-131 -63 -21 0
-192 -60 -49 0
-192 -63 -47 0
-113 -60 -13 0
-113 -63 -11 0
-197 -60 -55 0
-197 -63 -53 0
-206 -60 -75 0
-206 -63 -74 0
-174 -60 -35 0
-174 -63 -37 0
-142 -42 -27 0
-142 -43 -23 0
-24 -2 -27 0
-24 -1 -23 0
-82 -8 -27 0
-82 -9 -23 0
-149 -68 -27 0
-149 -65 -23 0
-137 -34 -27 0
-137 -29 -23 0
-147 -60 -27 0
-147 -63 -23 0
-119 -27 -17 0
-119 -23 -21 0
-144 -27 -49 0
-144 -23 -47 0
-102 -27 -13 0
-102 -23 -11 0
-145 -27 -55 0
-145 -23 -53 0
-152 -27 -75 0
-152 -23 -74 0
-140 -27 -35 0
-140 -23 -37 0
-125 -42 -17 0
-125 -43 -21 0
-22 -2 -17 0
-22 -1 -21 0
-79 -8 -17 0
-79 -9 -21 0
-134 -68 -17 0
-134 -65 -21 0
-121 -34 -17 0
-121 -29 -21 0
-132 -60 -17 0
-132 -63 -21 0
-120 -27 -17 0
-120 -23 -21 0
-127 -17 -49 0
-127 -21 -47 0
-99 -17 -13 0
-99 -21 -11 0
-130 -17 -55 0
-130 -21 -53 0
-136 -17 -75 0
-136 -21 -74 0
-123 -17 -35 0
-123 -21 -37 0
-179 -42 -49 0
-179 -43 -47 0
-48 -2 -49 0
-48 -1 -47 0
-89 -8 -49 0
-89 -9 -47 0
-194 -68 -49 0
-194 -65 -47 0
-157 -34 -49 0
-157 -29 -47 0
-191 -60 -49 0
-191 -63 -47 0
-143 -27 -49 0
-143 -23 -47 0
-128 -17 -49 0
-128 -21 -47 0
-109 -49 -13 0
-109 -47 -11 0
-189 -49 -55 0
-189 -47 -53 0
-196 -49 -75 0
-196 -47 -74 0
-170 -49 -35 0
-170 -47 -37 0
-108 -42 -13 0
-108 -43 -11 0
-14 -2 -13 0
-14 -1 -11 0
-78 -8 -13 0
-78 -9 -11 0
-115 -68 -13 0
-115 -65 -11 0
-103 -34 -13 0
-103 -29 -11 0
-114 -60 -13 0
-114 -63 -11 0
-101 -27 -13 0
-101 -23 -11 0
-100 -17 -13 0
-100 -21 -11 0
-110 -49 -13 0
-110 -47 -11 0
-112 -13 -55 0
-112 -11 -53 0
-117 -13 -75 0
-117 -11 -74 0
-105 -13 -35 0
-105 -11 -37 0
-182 -42 -55 0
-182 -43 -53 0
-54 -2 -55 0
-54 -1 -53 0
-91 -8 -55 0
-91 -9 -53 0
-200 -68 -55 0
-200 -65 -53 0
-160 -34 -55 0
-160 -29 -53 0
-198 -60 -55 0
-198 -63 -53 0
-146 -27 -55 0
-146 -23 -53 0
-129 -17 -55 0
-129 -21 -53 0
-190 -49 -55 0
-190 -47 -53 0
-111 -13 -55 0
-111 -11 -53 0
-202 -55 -75 0
-202 -53 -74 0
-172 -55 -35 0
-172 -53 -37 0
-188 -42 -75 0
-188 -43 -74 0
-76 -2 -75 0
-76 -1 -74 0
-98 -8 -75 0
-98 -9 -74 0
-207 -68 -75 0
-207 -65 -74 0
-165 -34 -75 0
-165 -29 -74 0
-205 -60 -75 0
-205 -63 -74 0
-151 -27 -75 0
-151 -23 -74 0
-135 -17 -75 0
-135 -21 -74 0
-195 -49 -75 0
-195 -47 -74 0
-118 -13 -75 0
-118 -11 -74 0
-201 -55 -75 0
-201 -53 -74 0
-177 -75 -35 0
-177 -74 -37 0
-167 -42 -35 0
-167 -43 -37 0
-38 -2 -35 0
-38 -1 -37 0
-86 -8 -35 0
-86 -9 -37 0
-175 -68 -35 0
-175 -65 -37 0
-153 -34 -35 0
-153 -29 -37 0
-173 -60 -35 0
-173 -63 -37 0
-139 -27 -35 0
-139 -23 -37 0
-124 -17 -35 0
-124 -21 -37 0
-169 -49 -35 0
-169 -47 -37 0
-106 -13 -35 0
-106 -11 -37 0
-171 -55 -35 0
-171 -53 -37 0
-178 -75 -35 0
-178 -74 -37 0
