c G(11) E(11,11) B(11) R(11) E(11,0) E(0,11) G(0) R(0) E(0,0) B(0) G(9) E(9,9) E(9,11) R(9) B(9) E(11,9) B(12) E(11,12) E(12,12) E(12,11) R(12) G(12) E(13,11) B(13) E(11,13) E(13,13) G(13) R(13) E(3,11) E(3,3) G(3) B(3) E(11,3) R(3) E(11,7) E(7,11) E(7,7) R(7) B(7) G(7) G(8) E(8,8) E(8,11) R(8) B(8) E(11,8) G(4) E(4,4) B(4) E(11,4) R(4) E(4,11) G(6) E(11,6) E(6,6) R(6) E(6,11) B(6) G(10) R(10) B(10) E(10,10) E(10,11) E(11,10) E(11,2) E(2,2) B(2) G(2) R(2) E(2,11) E(11,1) E(1,11) E(1,1) B(1) G(1) R(1) E(5,5) E(11,5) G(5) B(5) E(5,11) R(5) E(0,9) E(9,0) E(12,0) E(0,12) E(13,0) E(0,13) E(3,0) E(0,3) E(7,0) E(0,7) E(0,8) E(8,0) E(0,4) E(4,0) E(6,0) E(0,6) E(0,10) E(10,0) E(0,2) E(2,0) E(0,1) E(1,0) E(0,5) E(5,0) E(12,9) E(9,12) E(9,13) E(13,9) E(9,3) E(3,9) E(7,9) E(9,7) E(9,8) E(8,9) E(9,4) E(4,9) E(9,6) E(6,9) E(9,10) E(10,9) E(9,2) E(2,9) E(1,9) E(9,1) E(9,5) E(5,9) E(13,12) E(12,13) E(3,12) E(12,3) E(7,12) E(12,7) E(12,8) E(8,12) E(12,4) E(4,12) E(12,6) E(6,12) E(10,12) E(12,10) E(2,12) E(12,2) E(1,12) E(12,1) E(5,12) E(12,5) E(3,13) E(13,3) E(7,13) E(13,7) E(13,8) E(8,13) E(13,4) E(4,13) E(13,6) E(6,13) E(13,10) E(10,13) E(2,13) E(13,2) E(1,13) E(13,1) E(5,13) E(13,5) E(3,7) E(7,3) E(3,8) E(8,3) E(3,4) E(4,3) E(6,3) E(3,6) E(10,3) E(3,10) E(2,3) E(3,2) E(3,1) E(1,3) E(3,5) E(5,3) E(7,8) E(8,7) E(4,7) E(7,4) E(7,6) E(6,7) E(7,10) E(10,7) E(7,2) E(2,7) E(1,7) E(7,1) E(7,5) E(5,7) E(4,8) E(8,4) E(8,6) E(6,8) E(8,10) E(10,8) E(2,8) E(8,2) E(1,8) E(8,1) E(8,5) E(5,8) E(4,6) E(6,4) E(4,10) E(10,4) E(4,2) E(2,4) E(1,4) E(4,1) E(4,5) E(5,4) E(6,10) E(10,6) E(2,6) E(6,2) E(1,6) E(6,1) E(6,5) E(5,6) E(10,2) E(2,10) E(10,1) E(1,10) E(10,5) E(5,10) E(1,2) E(2,1) E(5,2) E(2,5) E(5,1) E(1,5)
c 1 2 3 4 5 6 7 8 9 10 11 12 13 14 15 16 17 18 19 20 21 22 23 24 25 26 27 28 29 30 31 32 33 34 35 36 37 38 39 40 41 42 43 44 45 46 47 48 49 50 51 52 53 54 55 56 57 58 59 60 61 62 63 64 65 66 67 68 69 70 71 72 73 74 75 76 77 78 79 80 81 82 83 84 85 86 87 88 89 90 91 92 93 94 95 96 97 98 99 100 101 102 103 104 105 106 107 108 109 110 111 112 113 114 115 116 117 118 119 120 121 122 123 124 125 126 127 128 129 130 131 132 133 134 135 136 137 138 139 140 141 142 143 144 145 146 147 148 149 150 151 152 153 154 155 156 157 158 159 160 161 162 163 164 165 166 167 168 169 170 171 172 173 174 175 176 177 178 179 180 181 182 183 184 185 186 187 188 189 190 191 192 193 194 195 196 197 198 199 200 201 202 203 204 205 206 207 208 209 210 211 212 213 214 215 216 217 218 219 220 221 222 223 224 225 226 227 228 229 230 231 232 233 234 235 236 237 238
p cnf 238 854
-9 0
-73 0
-62 0
-2 0
-19 0
-26 0
-66 0
-30 0
-48 0
-77 0
-55 0
-37 0
-42 0
-12 0
9 -9 0
103 -104 0
99 -100 0
6 -5 0
86 -85 0
88 -87 0
101 -102 0
90 -89 0
95 -96 0
105 -106 0
98 -97 0
92 -91 0
93 -94 0
83 -84 0
104 -103 0
73 -73 0
230 -229 0
72 -71 0
145 -146 0
163 -164 0
233 -234 0
180 -179 0
215 -216 0
238 -237 0
223 -224 0
193 -194 0
205 -206 0
125 -126 0
100 -99 0
229 -230 0
62 -62 0
63 -64 0
141 -142 0
160 -159 0
227 -228 0
175 -176 0
212 -211 0
231 -232 0
220 -219 0
190 -189 0
202 -201 0
122 -121 0
5 -6 0
71 -72 0
64 -63 0
2 -2 0
18 -20 0
25 -23 0
65 -70 0
33 -29 0
50 -52 0
78 -81 0
54 -57 0
35 -36 0
46 -43 0
16 -13 0
85 -86 0
146 -145 0
142 -141 0
20 -18 0
19 -19 0
130 -129 0
144 -143 0
132 -131 0
137 -138 0
148 -147 0
139 -140 0
134 -133 0
135 -136 0
107 -108 0
87 -88 0
164 -163 0
159 -160 0
23 -25 0
129 -130 0
26 -26 0
162 -161 0
150 -149 0
155 -156 0
166 -165 0
157 -158 0
152 -151 0
153 -154 0
110 -109 0
102 -101 0
234 -233 0
228 -227 0
70 -65 0
143 -144 0
161 -162 0
66 -66 0
177 -178 0
214 -213 0
236 -235 0
221 -222 0
192 -191 0
203 -204 0
124 -123 0
89 -90 0
179 -180 0
176 -175 0
29 -33 0
131 -132 0
149 -150 0
178 -177 0
30 -30 0
171 -172 0
181 -182 0
174 -173 0
167 -168 0
169 -170 0
112 -111 0
96 -95 0
216 -215 0
211 -212 0
52 -50 0
138 -137 0
156 -155 0
213 -214 0
172 -171 0
48 -48 0
217 -218 0
209 -210 0
185 -186 0
197 -198 0
118 -117 0
106 -105 0
237 -238 0
232 -231 0
81 -78 0
147 -148 0
165 -166 0
235 -236 0
182 -181 0
218 -217 0
77 -77 0
226 -225 0
196 -195 0
208 -207 0
128 -127 0
97 -98 0
224 -223 0
219 -220 0
57 -54 0
140 -139 0
158 -157 0
222 -221 0
173 -174 0
210 -209 0
225 -226 0
55 -55 0
188 -187 0
200 -199 0
120 -119 0
91 -92 0
194 -193 0
189 -190 0
36 -35 0
133 -134 0
151 -152 0
191 -192 0
168 -167 0
186 -185 0
195 -196 0
187 -188 0
37 -37 0
183 -184 0
113 -114 0
94 -93 0
206 -205 0
201 -202 0
43 -46 0
136 -135 0
154 -153 0
204 -203 0
170 -169 0
198 -197 0
207 -208 0
199 -200 0
184 -183 0
42 -42 0
116 -115 0
84 -83 0
126 -125 0
121 -122 0
13 -16 0
108 -107 0
109 -110 0
123 -124 0
111 -112 0
117 -118 0
127 -128 0
119 -120 0
114 -113 0
115 -116 0
12 -12 0
10 7 8 0
74 75 76 0
61 59 60 0
3 1 4 0
17 22 21 0
24 27 28 0
67 68 69 0
32 31 34 0
49 47 51 0
80 79 82 0
58 53 56 0
39 40 38 0
45 41 44 0
15 11 14 0
-10 -9 0
-10 -7 0
-10 -8 0
-74 -73 0
-74 -75 0
-74 -76 0
-61 -62 0
-61 -59 0
-61 -60 0
-3 -2 0
-3 -1 0
-3 -4 0
-17 -19 0
-17 -22 0
-17 -21 0
-24 -26 0
-24 -27 0
-24 -28 0
-67 -66 0
-67 -68 0
-67 -69 0
-32 -30 0
-32 -31 0
-32 -34 0
-49 -48 0
-49 -47 0
-49 -51 0
-80 -77 0
-80 -79 0
-80 -82 0
-58 -55 0
-58 -53 0
-58 -56 0
-39 -37 0
-39 -40 0
-39 -38 0
-45 -42 0
-45 -41 0
-45 -44 0
-15 -12 0
-15 -11 0
-15 -14 0
-9 -7 0
-9 -8 0
-73 -75 0
-73 -76 0
-62 -59 0
-62 -60 0
-2 -1 0
-2 -4 0
-19 -22 0
-19 -21 0
-26 -27 0
-26 -28 0
-66 -68 0
-66 -69 0
-30 -31 0
-30 -34 0
-48 -47 0
-48 -51 0
-77 -79 0
-77 -82 0
-55 -53 0
-55 -56 0
-37 -40 0
-37 -38 0
-42 -41 0
-42 -44 0
-12 -11 0
-12 -14 0
-7 -8 0
-75 -76 0
-59 -60 0
-1 -4 0
-22 -21 0
-27 -28 0
-68 -69 0
-31 -34 0
-47 -51 0
-79 -82 0
-53 -56 0
-40 -38 0
-41 -44 0
-11 -14 0
-10 -74 -103 0
-10 -74 -104 0
-10 -61 -99 0
-10 -61 -100 0
-10 -3 -6 0
-10 -3 -5 0
-10 -17 -86 0
-10 -17 -85 0
-10 -24 -88 0
-10 -24 -87 0
-10 -67 -101 0
-10 -67 -102 0
-10 -32 -90 0
-10 -32 -89 0
-10 -49 -95 0
-10 -49 -96 0
-10 -80 -105 0
-10 -80 -106 0
-10 -58 -98 0
-10 -58 -97 0
-10 -39 -92 0
-10 -39 -91 0
-10 -45 -93 0
-10 -45 -94 0
-10 -15 -83 0
-10 -15 -84 0
-74 -61 -230 0
-74 -61 -229 0
-74 -3 -72 0
-74 -3 -71 0
-74 -17 -145 0
-74 -17 -146 0
-74 -24 -163 0
-74 -24 -164 0
-74 -67 -233 0
-74 -67 -234 0
-74 -32 -180 0
-74 -32 -179 0
-74 -49 -215 0
-74 -49 -216 0
-74 -80 -238 0
-74 -80 -237 0
-74 -58 -223 0
-74 -58 -224 0
-74 -39 -193 0
-74 -39 -194 0
-74 -45 -205 0
-74 -45 -206 0
-74 -15 -125 0
-74 -15 -126 0
-61 -3 -63 0
-61 -3 -64 0
-61 -17 -141 0
-61 -17 -142 0
-61 -24 -160 0
-61 -24 -159 0
-61 -67 -227 0
-61 -67 -228 0
-61 -32 -175 0
-61 -32 -176 0
-61 -49 -212 0
-61 -49 -211 0
-61 -80 -231 0
-61 -80 -232 0
-61 -58 -220 0
-61 -58 -219 0
-61 -39 -190 0
-61 -39 -189 0
-61 -45 -202 0
-61 -45 -201 0
-61 -15 -122 0
-61 -15 -121 0
-3 -17 -18 0
-3 -17 -20 0
-3 -24 -25 0
-3 -24 -23 0
-3 -67 -65 0
-3 -67 -70 0
-3 -32 -33 0
-3 -32 -29 0
-3 -49 -50 0
-3 -49 -52 0
-3 -80 -78 0
-3 -80 -81 0
-3 -58 -54 0
-3 -58 -57 0
-3 -39 -35 0
-3 -39 -36 0
-3 -45 -46 0
-3 -45 -43 0
-3 -15 -16 0
-3 -15 -13 0
-17 -24 -130 0
-17 -24 -129 0
-17 -67 -144 0
-17 -67 -143 0
-17 -32 -132 0
-17 -32 -131 0
-17 -49 -137 0
-17 -49 -138 0
-17 -80 -148 0
-17 -80 -147 0
-17 -58 -139 0
-17 -58 -140 0
-17 -39 -134 0
-17 -39 -133 0
-17 -45 -135 0
-17 -45 -136 0
-17 -15 -107 0
-17 -15 -108 0
-24 -67 -162 0
-24 -67 -161 0
-24 -32 -150 0
-24 -32 -149 0
-24 -49 -155 0
-24 -49 -156 0
-24 -80 -166 0
-24 -80 -165 0
-24 -58 -157 0
-24 -58 -158 0
-24 -39 -152 0
-24 -39 -151 0
-24 -45 -153 0
-24 -45 -154 0
-24 -15 -110 0
-24 -15 -109 0
-67 -32 -177 0
-67 -32 -178 0
-67 -49 -214 0
-67 -49 -213 0
-67 -80 -236 0
-67 -80 -235 0
-67 -58 -221 0
-67 -58 -222 0
-67 -39 -192 0
-67 -39 -191 0
-67 -45 -203 0
-67 -45 -204 0
-67 -15 -124 0
-67 -15 -123 0
-32 -49 -171 0
-32 -49 -172 0
-32 -80 -181 0
-32 -80 -182 0
-32 -58 -174 0
-32 -58 -173 0
-32 -39 -167 0
-32 -39 -168 0
-32 -45 -169 0
-32 -45 -170 0
-32 -15 -112 0
-32 -15 -111 0
-49 -80 -217 0
-49 -80 -218 0
-49 -58 -209 0
-49 -58 -210 0
-49 -39 -185 0
-49 -39 -186 0
-49 -45 -197 0
-49 -45 -198 0
-49 -15 -118 0
-49 -15 -117 0
-80 -58 -226 0
-80 -58 -225 0
-80 -39 -196 0
-80 -39 -195 0
-80 -45 -208 0
-80 -45 -207 0
-80 -15 -128 0
-80 -15 -127 0
-58 -39 -188 0
-58 -39 -187 0
-58 -45 -200 0
-58 -45 -199 0
-58 -15 -120 0
-58 -15 -119 0
-39 -45 -183 0
-39 -45 -184 0
-39 -15 -113 0
-39 -15 -114 0
-45 -15 -116 0
-45 -15 -115 0
-103 -7 -75 0
-103 -8 -76 0
-99 -7 -59 0
-99 -8 -60 0
-6 -7 -1 0
-6 -8 -4 0
-86 -7 -22 0
-86 -8 -21 0
-88 -7 -27 0
-88 -8 -28 0
-101 -7 -68 0
-101 -8 -69 0
-90 -7 -31 0
-90 -8 -34 0
-95 -7 -47 0
-95 -8 -51 0
-105 -7 -79 0
-105 -8 -82 0
-98 -7 -53 0
-98 -8 -56 0
-92 -7 -40 0
-92 -8 -38 0
-93 -7 -41 0
-93 -8 -44 0
-83 -7 -11 0
-83 -8 -14 0
-104 -7 -75 0
-104 -8 -76 0
-230 -75 -59 0
-230 -76 -60 0
-72 -75 -1 0
-72 -76 -4 0
-145 -75 -22 0
-145 -76 -21 0
-163 -75 -27 0
-163 -76 -28 0
-233 -75 -68 0
-233 -76 -69 0
-180 -75 -31 0
-180 -76 -34 0
-215 -75 -47 0
-215 -76 -51 0
-238 -75 -79 0
-238 -76 -82 0
-223 -75 -53 0
-223 -76 -56 0
-193 -75 -40 0
-193 -76 -38 0
-205 -75 -41 0
-205 -76 -44 0
-125 -75 -11 0
-125 -76 -14 0
-100 -7 -59 0
-100 -8 -60 0
-229 -75 -59 0
-229 -76 -60 0
-63 -59 -1 0
-63 -60 -4 0
-141 -59 -22 0
-141 -60 -21 0
-160 -59 -27 0
-160 -60 -28 0
-227 -59 -68 0
-227 -60 -69 0
-175 -59 -31 0
-175 -60 -34 0
-212 -59 -47 0
-212 -60 -51 0
-231 -59 -79 0
-231 -60 -82 0
-220 -59 -53 0
-220 -60 -56 0
-190 -59 -40 0
-190 -60 -38 0
-202 -59 -41 0
-202 -60 -44 0
-122 -59 -11 0
-122 -60 -14 0
-5 -7 -1 0
-5 -8 -4 0
-71 -75 -1 0
-71 -76 -4 0
-64 -59 -1 0
-64 -60 -4 0
-18 -1 -22 0
-18 -4 -21 0
-25 -1 -27 0
-25 -4 -28 0
-65 -1 -68 0
-65 -4 -69 0
-33 -1 -31 0
-33 -4 -34 0
-50 -1 -47 0
-50 -4 -51 0
-78 -1 -79 0
-78 -4 -82 0
-54 -1 -53 0
-54 -4 -56 0
-35 -1 -40 0
-35 -4 -38 0
-46 -1 -41 0
-46 -4 -44 0
-16 -1 -11 0
-16 -4 -14 0
-85 -7 -22 0
-85 -8 -21 0
-146 -75 -22 0
-146 -76 -21 0
-142 -59 -22 0
-142 -60 -21 0
-20 -1 -22 0
-20 -4 -21 0
-130 -22 -27 0
-130 -21 -28 0
-144 -22 -68 0
-144 -21 -69 0
-132 -22 -31 0
-132 -21 -34 0
-137 -22 -47 0
-137 -21 -51 0
-148 -22 -79 0
-148 -21 -82 0
-139 -22 -53 0
-139 -21 -56 0
-134 -22 -40 0
-134 -21 -38 0
-135 -22 -41 0
-135 -21 -44 0
-107 -22 -11 0
-107 -21 -14 0
-87 -7 -27 0
-87 -8 -28 0
-164 -75 -27 0
-164 -76 -28 0
-159 -59 -27 0
-159 -60 -28 0
-23 -1 -27 0
-23 -4 -28 0
-129 -22 -27 0
-129 -21 -28 0
-162 -27 -68 0
-162 -28 -69 0
-150 -27 -31 0
-150 -28 -34 0
-155 -27 -47 0
-155 -28 -51 0
-166 -27 -79 0
-166 -28 -82 0
-157 -27 -53 0
-157 -28 -56 0
-152 -27 -40 0
-152 -28 -38 0
-153 -27 -41 0
-153 -28 -44 0
-110 -27 -11 0
-110 -28 -14 0
-102 -7 -68 0
-102 -8 -69 0
-234 -75 -68 0
-234 -76 -69 0
-228 -59 -68 0
-228 -60 -69 0
-70 -1 -68 0
-70 -4 -69 0
-143 -22 -68 0
-143 -21 -69 0
-161 -27 -68 0
-161 -28 -69 0
-177 -68 -31 0
-177 -69 -34 0
-214 -68 -47 0
-214 -69 -51 0
-236 -68 -79 0
-236 -69 -82 0
-221 -68 -53 0
-221 -69 -56 0
-192 -68 -40 0
-192 -69 -38 0
-203 -68 -41 0
-203 -69 -44 0
-124 -68 -11 0
-124 -69 -14 0
-89 -7 -31 0
-89 -8 -34 0
-179 -75 -31 0
-179 -76 -34 0
-176 -59 -31 0
-176 -60 -34 0
-29 -1 -31 0
-29 -4 -34 0
-131 -22 -31 0
-131 -21 -34 0
-149 -27 -31 0
-149 -28 -34 0
-178 -68 -31 0
-178 -69 -34 0
-171 -31 -47 0
-171 -34 -51 0
-181 -31 -79 0
-181 -34 -82 0
-174 -31 -53 0
-174 -34 -56 0
-167 -31 -40 0
-167 -34 -38 0
-169 -31 -41 0
-169 -34 -44 0
-112 -31 -11 0
-112 -34 -14 0
-96 -7 -47 0
-96 -8 -51 0
-216 -75 -47 0
-216 -76 -51 0
-211 -59 -47 0
-211 -60 -51 0
-52 -1 -47 0
-52 -4 -51 0
-138 -22 -47 0
-138 -21 -51 0
-156 -27 -47 0
-156 -28 -51 0
-213 -68 -47 0
-213 -69 -51 0
-172 -31 -47 0
-172 -34 -51 0
-217 -47 -79 0
-217 -51 -82 0
-209 -47 -53 0
-209 -51 -56 0
-185 -47 -40 0
-185 -51 -38 0
-197 -47 -41 0
-197 -51 -44 0
-118 -47 -11 0
-118 -51 -14 0
-106 -7 -79 0
-106 -8 -82 0
-237 -75 -79 0
-237 -76 -82 0
-232 -59 -79 0
-232 -60 -82 0
-81 -1 -79 0
-81 -4 -82 0
-147 -22 -79 0
-147 -21 -82 0
-165 -27 -79 0
-165 -28 -82 0
-235 -68 -79 0
-235 -69 -82 0
-182 -31 -79 0
-182 -34 -82 0
-218 -47 -79 0
-218 -51 -82 0
-226 -79 -53 0
-226 -82 -56 0
-196 -79 -40 0
-196 -82 -38 0
-208 -79 -41 0
-208 -82 -44 0
-128 -79 -11 0
-128 -82 -14 0
-97 -7 -53 0
-97 -8 -56 0
-224 -75 -53 0
-224 -76 -56 0
-219 -59 -53 0
-219 -60 -56 0
-57 -1 -53 0
-57 -4 -56 0
-140 -22 -53 0
-140 -21 -56 0
-158 -27 -53 0
-158 -28 -56 0
-222 -68 -53 0
-222 -69 -56 0
-173 -31 -53 0
-173 -34 -56 0
-210 -47 -53 0
-210 -51 -56 0
-225 -79 -53 0
-225 -82 -56 0
-188 -53 -40 0
-188 -56 -38 0
-200 -53 -41 0
-200 -56 -44 0
-120 -53 -11 0
-120 -56 -14 0
-91 -7 -40 0
-91 -8 -38 0
-194 -75 -40 0
-194 -76 -38 0
-189 -59 -40 0
-189 -60 -38 0
-36 -1 -40 0
-36 -4 -38 0
-133 -22 -40 0
-133 -21 -38 0
-151 -27 -40 0
-151 -28 -38 0
-191 -68 -40 0
-191 -69 -38 0
-168 -31 -40 0
-168 -34 -38 0
-186 -47 -40 0
-186 -51 -38 0
-195 -79 -40 0
-195 -82 -38 0
-187 -53 -40 0
-187 -56 -38 0
-183 -40 -41 0
-183 -38 -44 0
-113 -40 -11 0
-113 -38 -14 0
-94 -7 -41 0
-94 -8 -44 0
-206 -75 -41 0
-206 -76 -44 0
-201 -59 -41 0
-201 -60 -44 0
-43 -1 -41 0
-43 -4 -44 0
-136 -22 -41 0
-136 -21 -44 0
-154 -27 -41 0
-154 -28 -44 0
-204 -68 -41 0
-204 -69 -44 0
-170 -31 -41 0
-170 -34 -44 0
-198 -47 -41 0
-198 -51 -44 0
-207 -79 -41 0
-207 -82 -44 0
-199 -53 -41 0
-199 -56 -44 0
-184 -40 -41 0
-184 -38 -44 0
-116 -41 -11 0
-116 -44 -14 0
-84 -7 -11 0
-84 -8 -14 0
-126 -75 -11 0
-126 -76 -14 0
-121 -59 -11 0
-121 -60 -14 0
-13 -1 -11 0
-13 -4 -14 0
-108 -22 -11 0
-108 -21 -14 0
-109 -27 -11 0
-109 -28 -14 0
-123 -68 -11 0
-123 -69 -14 0
-111 -31 -11 0
-111 -34 -14 0
-117 -47 -11 0
-117 -51 -14 0
-127 -79 -11 0
-127 -82 -14 0
-119 -53 -11 0
-119 -56 -14 0
-114 -40 -11 0
-114 -38 -14 0
-115 -41 -11 0
-115 -44 -14 0
