c G(5) E(5,5) B(5) R(5) E(5,8) E(8,8) B(8) R(8) E(8,5) G(8) E(1,5) B(1) E(5,1) R(1) G(1) E(1,1) E(12,5) E(12,12) G(12) B(12) E(5,12) R(12) E(3,5) E(3,3) E(5,3) R(3) B(3) G(3) E(6,5) E(5,6) E(6,6) R(6) B(6) G(6) E(5,14) R(14) E(14,5) E(14,14) B(14) G(14) R(0) G(0) E(0,5) B(0) E(0,0) E(5,0) E(11,11) B(11) E(11,5) E(5,11) G(11) R(11) R(10) E(5,10) B(10) E(10,10) E(10,5) G(10) E(2,2) E(5,2) R(2) G(2) E(2,5) B(2) R(7) E(7,5) B(7) E(5,7) E(7,7) G(7) G(9) E(9,9) B(9) E(9,5) R(9) E(5,9) E(4,5) R(4) E(4,4) G(4) E(5,4) B(4) R(13) B(13) G(13) E(13,5) E(5,13) E(13,13) E(8,1) E(1,8) E(12,8) E(8,12) E(8,3) E(3,8) E(8,6) E(6,8) E(14,8) E(8,14) E(0,8) E(8,0) E(8,11) E(11,8) E(8,10) E(10,8) E(2,8) E(8,2) E(7,8) E(8,7) E(8,9) E(9,8) E(8,4) E(4,8) E(8,13) E(13,8) E(12,1) E(1,12) E(1,3) E(3,1) E(1,6) E(6,1) E(1,14) E(14,1) E(0,1) E(1,0) E(1,11) E(11,1) E(1,10) E(10,1) E(1,2) E(2,1) E(1,7) E(7,1) E(9,1) E(1,9) E(4,1) E(1,4) E(13,1) E(1,13) E(12,3) E(3,12) E(12,6) E(6,12) E(12,14) E(14,12) E(12,0) E(0,12) E(11,12) E(12,11) E(10,12) E(12,10) E(2,12) E(12,2) E(12,7) E(7,12) E(12,9) E(9,12) E(12,4) E(4,12) E(13,12) E(12,13) E(6,3) E(3,6) E(14,3) E(3,14) E(0,3) E(3,0) E(3,11) E(11,3) E(10,3) E(3,10) E(3,2) E(2,3) E(7,3) E(3,7) E(3,9) E(9,3) E(4,3) E(3,4) E(13,3) E(3,13) E(14,6) E(6,14) E(0,6) E(6,0) E(6,11) E(11,6) E(10,6) E(6,10) E(6,2) E(2,6) E(7,6) E(6,7) E(9,6) E(6,9) E(6,4) E(4,6) E(6,13) E(13,6) E(0,14) E(14,0) E(14,11) E(11,14) E(10,14) E(14,10) E(14,2) E(2,14) E(14,7) E(7,14) E(9,14) E(14,9) E(14,4) E(4,14) E(14,13) E(13,14) E(0,11) E(11,0) E(0,10) E(10,0) E(2,0) E(0,2) E(7,0) E(0,7) E(9,0) E(0,9) E(4,0) E(0,4) E(13,0) E(0,13) E(10,11) E(11,10) E(2,11) E(11,2) E(7,11) E(11,7) E(9,11) E(11,9) E(11,4) E(4,11) E(13,11) E(11,13) E(2,10) E(10,2) E(10,7) E(7,10) E(9,10) E(10,9) E(4,10) E(10,4) E(10,13) E(13,10) E(2,7) E(7,2) E(9,2) E(2,9) E(2,4) E(4,2) E(2,13) E(13,2) E(7,9) E(9,7) E(4,7) E(7,4) E(7,13) E(13,7) E(9,4) E(4,9) E(9,13) E(13,9) E(4,13) E(13,4)
c 1 2 3 4 5 6 7 8 9 10 11 12 13 14 15 16 17 18 19 20 21 22 23 24 25 26 27 28 29 30 31 32 33 34 35 36 37 38 39 40 41 42 43 44 45 46 47 48 49 50 51 52 53 54 55 56 57 58 59 60 61 62 63 64 65 66 67 68 69 70 71 72 73 74 75 76 77 78 79 80 81 82 83 84 85 86 87 88 89 90 91 92 93 94 95 96 97 98 99 100 101 102 103 104 105 106 107 108 109 110 111 112 113 114 115 116 117 118 119 120 121 122 123 124 125 126 127 128 129 130 131 132 133 134 135 136 137 138 139 140 141 142 143 144 145 146 147 148 149 150 151 152 153 154 155 156 157 158 159 160 161 162 163 164 165 166 167 168 169 170 171 172 173 174 175 176 177 178 179 180 181 182 183 184 185 186 187 188 189 190 191 192 193 194 195 196 197 198 199 200 201 202 203 204 205 206 207 208 209 210 211 212 213 214 215 216 217 218 219 220 221 222 223 224 225 226 227 228 229 230 231 232 233 234 235 236 237 238 239 240 241 242 243 244 245 246 247 248 249 250 251 252 253 254 255 256 257 258 259 260 261 262 263 264 265 266 267 268 269 270
p cnf 270 975
-45 0
-16 0
-56 0
-47 0
-18 0
-88 0
-38 0
-59 0
-24 0
-79 0
-2 0
-31 0
-69 0
-6 0
-72 0
45 -45 0
123 -124 0
217 -218 0
215 -216 0
146 -145 0
228 -227 0
199 -200 0
220 -219 0
165 -166 0
226 -225 0
43 -46 0
183 -184 0
222 -221 0
99 -100 0
224 -223 0
124 -123 0
16 -16 0
127 -128 0
125 -126 0
116 -115 0
138 -137 0
121 -122 0
129 -130 0
117 -118 0
136 -135 0
11 -13 0
119 -120 0
131 -132 0
90 -89 0
134 -133 0
218 -217 0
128 -127 0
56 -56 0
229 -230 0
149 -150 0
249 -250 0
203 -204 0
242 -241 0
169 -170 0
248 -247 0
57 -54 0
187 -188 0
243 -244 0
104 -103 0
246 -245 0
216 -215 0
126 -125 0
230 -229 0
47 -47 0
147 -148 0
240 -239 0
202 -201 0
232 -231 0
168 -167 0
237 -238 0
49 -50 0
186 -185 0
234 -233 0
102 -101 0
236 -235 0
145 -146 0
115 -116 0
150 -149 0
148 -147 0
18 -18 0
160 -159 0
143 -144 0
152 -151 0
139 -140 0
157 -158 0
17 -21 0
141 -142 0
153 -154 0
91 -92 0
155 -156 0
227 -228 0
137 -138 0
250 -249 0
239 -240 0
159 -160 0
88 -88 0
214 -213 0
258 -257 0
179 -180 0
270 -269 0
86 -87 0
198 -197 0
264 -263 0
114 -113 0
268 -267 0
200 -199 0
122 -121 0
204 -203 0
201 -202 0
144 -143 0
213 -214 0
38 -38 0
205 -206 0
163 -164 0
211 -212 0
37 -35 0
181 -182 0
207 -208 0
97 -98 0
210 -209 0
219 -220 0
130 -129 0
241 -242 0
231 -232 0
151 -152 0
257 -258 0
206 -205 0
59 -59 0
172 -171 0
255 -256 0
63 -60 0
190 -189 0
251 -252 0
105 -106 0
254 -253 0
166 -165 0
118 -117 0
170 -169 0
167 -168 0
140 -139 0
180 -179 0
164 -163 0
171 -172 0
24 -24 0
178 -177 0
23 -25 0
162 -161 0
174 -173 0
94 -93 0
175 -176 0
225 -226 0
135 -136 0
247 -248 0
238 -237 0
158 -157 0
269 -270 0
212 -211 0
256 -255 0
177 -178 0
79 -79 0
77 -81 0
196 -195 0
261 -262 0
112 -111 0
266 -265 0
46 -43 0
13 -11 0
54 -57 0
50 -49 0
21 -17 0
87 -86 0
35 -37 0
60 -63 0
25 -23 0
81 -77 0
2 -2 0
30 -29 0
68 -66 0
5 -9 0
76 -74 0
184 -183 0
120 -119 0
188 -187 0
185 -186 0
142 -141 0
197 -198 0
182 -181 0
189 -190 0
161 -162 0
195 -196 0
29 -30 0
31 -31 0
192 -191 0
96 -95 0
194 -193 0
221 -222 0
132 -131 0
244 -243 0
233 -234 0
154 -153 0
263 -264 0
208 -207 0
252 -251 0
173 -174 0
262 -261 0
66 -68 0
191 -192 0
69 -69 0
107 -108 0
259 -260 0
100 -99 0
89 -90 0
103 -104 0
101 -102 0
92 -91 0
113 -114 0
98 -97 0
106 -105 0
93 -94 0
111 -112 0
9 -5 0
95 -96 0
108 -107 0
6 -6 0
109 -110 0
223 -224 0
133 -134 0
245 -246 0
235 -236 0
156 -155 0
267 -268 0
209 -210 0
253 -254 0
176 -175 0
265 -266 0
74 -76 0
193 -194 0
260 -259 0
110 -109 0
72 -72 0
44 42 41 0
12 15 14 0
55 58 53 0
48 51 52 0
20 19 22 0
84 85 83 0
39 40 36 0
64 62 61 0
27 28 26 0
82 80 78 0
3 1 4 0
33 34 32 0
67 70 65 0
7 10 8 0
73 71 75 0
-44 -45 0
-44 -42 0
-44 -41 0
-12 -16 0
-12 -15 0
-12 -14 0
-55 -56 0
-55 -58 0
-55 -53 0
-48 -47 0
-48 -51 0
-48 -52 0
-20 -18 0
-20 -19 0
-20 -22 0
-84 -88 0
-84 -85 0
-84 -83 0
-39 -38 0
-39 -40 0
-39 -36 0
-64 -59 0
-64 -62 0
-64 -61 0
-27 -24 0
-27 -28 0
-27 -26 0
-82 -79 0
-82 -80 0
-82 -78 0
-3 -2 0
-3 -1 0
-3 -4 0
-33 -31 0
-33 -34 0
-33 -32 0
-67 -69 0
-67 -70 0
-67 -65 0
-7 -6 0
-7 -10 0
-7 -8 0
-73 -72 0
-73 -71 0
-73 -75 0
-45 -42 0
-45 -41 0
-16 -15 0
-16 -14 0
-56 -58 0
-56 -53 0
-47 -51 0
-47 -52 0
-18 -19 0
-18 -22 0
-88 -85 0
-88 -83 0
-38 -40 0
-38 -36 0
-59 -62 0
-59 -61 0
-24 -28 0
-24 -26 0
-79 -80 0
-79 -78 0
-2 -1 0
-2 -4 0
-31 -34 0
-31 -32 0
-69 -70 0
-69 -65 0
-6 -10 0
-6 -8 0
-72 -71 0
-72 -75 0
-42 -41 0
-15 -14 0
-58 -53 0
-51 -52 0
-19 -22 0
-85 -83 0
-40 -36 0
-62 -61 0
-28 -26 0
-80 -78 0
-1 -4 0
-34 -32 0
-70 -65 0
-10 -8 0
-71 -75 0
-44 -12 -123 0
-44 -12 -124 0
-44 -55 -217 0
-44 -55 -218 0
-44 -48 -215 0
-44 -48 -216 0
-44 -20 -146 0
-44 -20 -145 0
-44 -84 -228 0
-44 -84 -227 0
-44 -39 -199 0
-44 -39 -200 0
-44 -64 -220 0
-44 -64 -219 0
-44 -27 -165 0
-44 -27 -166 0
-44 -82 -226 0
-44 -82 -225 0
-44 -3 -43 0
-44 -3 -46 0
-44 -33 -183 0
-44 -33 -184 0
-44 -67 -222 0
-44 -67 -221 0
-44 -7 -99 0
-44 -7 -100 0
-44 -73 -224 0
-44 -73 -223 0
-12 -55 -127 0
-12 -55 -128 0
-12 -48 -125 0
-12 -48 -126 0
-12 -20 -116 0
-12 -20 -115 0
-12 -84 -138 0
-12 -84 -137 0
-12 -39 -121 0
-12 -39 -122 0
-12 -64 -129 0
-12 -64 -130 0
-12 -27 -117 0
-12 -27 -118 0
-12 -82 -136 0
-12 -82 -135 0
-12 -3 -11 0
-12 -3 -13 0
-12 -33 -119 0
-12 -33 -120 0
-12 -67 -131 0
-12 -67 -132 0
-12 -7 -90 0
-12 -7 -89 0
-12 -73 -134 0
-12 -73 -133 0
-55 -48 -229 0
-55 -48 -230 0
-55 -20 -149 0
-55 -20 -150 0
-55 -84 -249 0
-55 -84 -250 0
-55 -39 -203 0
-55 -39 -204 0
-55 -64 -242 0
-55 -64 -241 0
-55 -27 -169 0
-55 -27 -170 0
-55 -82 -248 0
-55 -82 -247 0
-55 -3 -57 0
-55 -3 -54 0
-55 -33 -187 0
-55 -33 -188 0
-55 -67 -243 0
-55 -67 -244 0
-55 -7 -104 0
-55 -7 -103 0
-55 -73 -246 0
-55 -73 -245 0
-48 -20 -147 0
-48 -20 -148 0
-48 -84 -240 0
-48 -84 -239 0
-48 -39 -202 0
-48 -39 -201 0
-48 -64 -232 0
-48 -64 -231 0
-48 -27 -168 0
-48 -27 -167 0
-48 -82 -237 0
-48 -82 -238 0
-48 -3 -49 0
-48 -3 -50 0
-48 -33 -186 0
-48 -33 -185 0
-48 -67 -234 0
-48 -67 -233 0
-48 -7 -102 0
-48 -7 -101 0
-48 -73 -236 0
-48 -73 -235 0
-20 -84 -160 0
-20 -84 -159 0
-20 -39 -143 0
-20 -39 -144 0
-20 -64 -152 0
-20 -64 -151 0
-20 -27 -139 0
-20 -27 -140 0
-20 -82 -157 0
-20 -82 -158 0
-20 -3 -17 0
-20 -3 -21 0
-20 -33 -141 0
-20 -33 -142 0
-20 -67 -153 0
-20 -67 -154 0
-20 -7 -91 0
-20 -7 -92 0
-20 -73 -155 0
-20 -73 -156 0
-84 -39 -214 0
-84 -39 -213 0
-84 -64 -258 0
-84 -64 -257 0
-84 -27 -179 0
-84 -27 -180 0
-84 -82 -270 0
-84 -82 -269 0
-84 -3 -86 0
-84 -3 -87 0
-84 -33 -198 0
-84 -33 -197 0
-84 -67 -264 0
-84 -67 -263 0
-84 -7 -114 0
-84 -7 -113 0
-84 -73 -268 0
-84 -73 -267 0
-39 -64 -205 0
-39 -64 -206 0
-39 -27 -163 0
-39 -27 -164 0
-39 -82 -211 0
-39 -82 -212 0
-39 -3 -37 0
-39 -3 -35 0
-39 -33 -181 0
-39 -33 -182 0
-39 -67 -207 0
-39 -67 -208 0
-39 -7 -97 0
-39 -7 -98 0
-39 -73 -210 0
-39 -73 -209 0
-64 -27 -172 0
-64 -27 -171 0
-64 -82 -255 0
-64 -82 -256 0
-64 -3 -63 0
-64 -3 -60 0
-64 -33 -190 0
-64 -33 -189 0
-64 -67 -251 0
-64 -67 -252 0
-64 -7 -105 0
-64 -7 -106 0
-64 -73 -254 0
-64 -73 -253 0
-27 -82 -178 0
-27 -82 -177 0
-27 -3 -23 0
-27 -3 -25 0
-27 -33 -162 0
-27 -33 -161 0
-27 -67 -174 0
-27 -67 -173 0
-27 -7 -94 0
-27 -7 -93 0
-27 -73 -175 0
-27 -73 -176 0
-82 -3 -77 0
-82 -3 -81 0
-82 -33 -196 0
-82 -33 -195 0
-82 -67 -261 0
-82 -67 -262 0
-82 -7 -112 0
-82 -7 -111 0
-82 -73 -266 0
-82 -73 -265 0
-3 -33 -30 0
-3 -33 -29 0
-3 -67 -68 0
-3 -67 -66 0
-3 -7 -5 0
-3 -7 -9 0
-3 -73 -76 0
-3 -73 -74 0
-33 -67 -192 0
-33 -67 -191 0
-33 -7 -96 0
-33 -7 -95 0
-33 -73 -194 0
-33 -73 -193 0
-67 -7 -107 0
-67 -7 -108 0
-67 -73 -259 0
-67 -73 -260 0
-7 -73 -109 0
-7 -73 -110 0
-123 -42 -15 0
-123 -41 -14 0
-217 -42 -58 0
-217 -41 -53 0
-215 -42 -51 0
-215 -41 -52 0
-146 -42 -19 0
-146 -41 -22 0
-228 -42 -85 0
-228 -41 -83 0
-199 -42 -40 0
-199 -41 -36 0
-220 -42 -62 0
-220 -41 -61 0
-165 -42 -28 0
-165 -41 -26 0
-226 -42 -80 0
-226 -41 -78 0
-43 -42 -1 0
-43 -41 -4 0
-183 -42 -34 0
-183 -41 -32 0
-222 -42 -70 0
-222 -41 -65 0
-99 -42 -10 0
-99 -41 -8 0
-224 -42 -71 0
-224 -41 -75 0
-124 -42 -15 0
-124 -41 -14 0
-127 -15 -58 0
-127 -14 -53 0
-125 -15 -51 0
-125 -14 -52 0
-116 -15 -19 0
-116 -14 -22 0
-138 -15 -85 0
-138 -14 -83 0
-121 -15 -40 0
-121 -14 -36 0
-129 -15 -62 0
-129 -14 -61 0
-117 -15 -28 0
-117 -14 -26 0
-136 -15 -80 0
-136 -14 -78 0
-11 -15 -1 0
-11 -14 -4 0
-119 -15 -34 0
-119 -14 -32 0
-131 -15 -70 0
-131 -14 -65 0
-90 -15 -10 0
-90 -14 -8 0
-134 -15 -71 0
-134 -14 -75 0
-218 -42 -58 0
-218 -41 -53 0
-128 -15 -58 0
-128 -14 -53 0
-229 -58 -51 0
-229 -53 -52 0
-149 -58 -19 0
-149 -53 -22 0
-249 -58 -85 0
-249 -53 -83 0
-203 -58 -40 0
-203 -53 -36 0
-242 -58 -62 0
-242 -53 -61 0
-169 -58 -28 0
-169 -53 -26 0
-248 -58 -80 0
-248 -53 -78 0
-57 -58 -1 0
-57 -53 -4 0
-187 -58 -34 0
-187 -53 -32 0
-243 -58 -70 0
-243 -53 -65 0
-104 -58 -10 0
-104 -53 -8 0
-246 -58 -71 0
-246 -53 -75 0
-216 -42 -51 0
-216 -41 -52 0
-126 -15 -51 0
-126 -14 -52 0
-230 -58 -51 0
-230 -53 -52 0
-147 -51 -19 0
-147 -52 -22 0
-240 -51 -85 0
-240 -52 -83 0
-202 -51 -40 0
-202 -52 -36 0
-232 -51 -62 0
-232 -52 -61 0
-168 -51 -28 0
-168 -52 -26 0
-237 -51 -80 0
-237 -52 -78 0
-49 -51 -1 0
-49 -52 -4 0
-186 -51 -34 0
-186 -52 -32 0
-234 -51 -70 0
-234 -52 -65 0
-102 -51 -10 0
-102 -52 -8 0
-236 -51 -71 0
-236 -52 -75 0
-145 -42 -19 0
-145 -41 -22 0
-115 -15 -19 0
-115 -14 -22 0
-150 -58 -19 0
-150 -53 -22 0
-148 -51 -19 0
-148 -52 -22 0
-160 -19 -85 0
-160 -22 -83 0
-143 -19 -40 0
-143 -22 -36 0
-152 -19 -62 0
-152 -22 -61 0
-139 -19 -28 0
-139 -22 -26 0
-157 -19 -80 0
-157 -22 -78 0
-17 -19 -1 0
-17 -22 -4 0
-141 -19 -34 0
-141 -22 -32 0
-153 -19 -70 0
-153 -22 -65 0
-91 -19 -10 0
-91 -22 -8 0
-155 -19 -71 0
-155 -22 -75 0
-227 -42 -85 0
-227 -41 -83 0
-137 -15 -85 0
-137 -14 -83 0
-250 -58 -85 0
-250 -53 -83 0
-239 -51 -85 0
-239 -52 -83 0
-159 -19 -85 0
-159 -22 -83 0
-214 -85 -40 0
-214 -83 -36 0
-258 -85 -62 0
-258 -83 -61 0
-179 -85 -28 0
-179 -83 -26 0
-270 -85 -80 0
-270 -83 -78 0
-86 -85 -1 0
-86 -83 -4 0
-198 -85 -34 0
-198 -83 -32 0
-264 -85 -70 0
-264 -83 -65 0
-114 -85 -10 0
-114 -83 -8 0
-268 -85 -71 0
-268 -83 -75 0
-200 -42 -40 0
-200 -41 -36 0
-122 -15 -40 0
-122 -14 -36 0
-204 -58 -40 0
-204 -53 -36 0
-201 -51 -40 0
-201 -52 -36 0
-144 -19 -40 0
-144 -22 -36 0
-213 -85 -40 0
-213 -83 -36 0
-205 -40 -62 0
-205 -36 -61 0
-163 -40 -28 0
-163 -36 -26 0
-211 -40 -80 0
-211 -36 -78 0
-37 -40 -1 0
-37 -36 -4 0
-181 -40 -34 0
-181 -36 -32 0
-207 -40 -70 0
-207 -36 -65 0
-97 -40 -10 0
-97 -36 -8 0
-210 -40 -71 0
-210 -36 -75 0
-219 -42 -62 0
-219 -41 -61 0
-130 -15 -62 0
-130 -14 -61 0
-241 -58 -62 0
-241 -53 -61 0
-231 -51 -62 0
-231 -52 -61 0
-151 -19 -62 0
-151 -22 -61 0
-257 -85 -62 0
-257 -83 -61 0
-206 -40 -62 0
-206 -36 -61 0
-172 -62 -28 0
-172 -61 -26 0
-255 -62 -80 0
-255 -61 -78 0
-63 -62 -1 0
-63 -61 -4 0
-190 -62 -34 0
-190 -61 -32 0
-251 -62 -70 0
-251 -61 -65 0
-105 -62 -10 0
-105 -61 -8 0
-254 -62 -71 0
-254 -61 -75 0
-166 -42 -28 0
-166 -41 -26 0
-118 -15 -28 0
-118 -14 -26 0
-170 -58 -28 0
-170 -53 -26 0
-167 -51 -28 0
-167 -52 -26 0
-140 -19 -28 0
-140 -22 -26 0
-180 -85 -28 0
-180 -83 -26 0
-164 -40 -28 0
-164 -36 -26 0
-171 -62 -28 0
-171 -61 -26 0
-178 -28 -80 0
-178 -26 -78 0
-23 -28 -1 0
-23 -26 -4 0
-162 -28 -34 0
-162 -26 -32 0
-174 -28 -70 0
-174 -26 -65 0
-94 -28 -10 0
-94 -26 -8 0
-175 -28 -71 0
-175 -26 -75 0
-225 -42 -80 0
-225 -41 -78 0
-135 -15 -80 0
-135 -14 -78 0
-247 -58 -80 0
-247 -53 -78 0
-238 -51 -80 0
-238 -52 -78 0
-158 -19 -80 0
-158 -22 -78 0
-269 -85 -80 0
-269 -83 -78 0
-212 -40 -80 0
-212 -36 -78 0
-256 -62 -80 0
-256 -61 -78 0
-177 -28 -80 0
-177 -26 -78 0
-77 -80 -1 0
-77 -78 -4 0
-196 -80 -34 0
-196 -78 -32 0
-261 -80 -70 0
-261 -78 -65 0
-112 -80 -10 0
-112 -78 -8 0
-266 -80 -71 0
-266 -78 -75 0
-46 -42 -1 0
-46 -41 -4 0
-13 -15 -1 0
-13 -14 -4 0
-54 -58 -1 0
-54 -53 -4 0
-50 -51 -1 0
-50 -52 -4 0
-21 -19 -1 0
-21 -22 -4 0
-87 -85 -1 0
-87 -83 -4 0
-35 -40 -1 0
-35 -36 -4 0
-60 -62 -1 0
-60 -61 -4 0
-25 -28 -1 0
-25 -26 -4 0
-81 -80 -1 0
-81 -78 -4 0
-30 -1 -34 0
-30 -4 -32 0
-68 -1 -70 0
-68 -4 -65 0
-5 -1 -10 0
-5 -4 -8 0
-76 -1 -71 0
-76 -4 -75 0
-184 -42 -34 0
-184 -41 -32 0
-120 -15 -34 0
-120 -14 -32 0
-188 -58 -34 0
-188 -53 -32 0
-185 -51 -34 0
-185 -52 -32 0
-142 -19 -34 0
-142 -22 -32 0
-197 -85 -34 0
-197 -83 -32 0
-182 -40 -34 0
-182 -36 -32 0
-189 -62 -34 0
-189 -61 -32 0
-161 -28 -34 0
-161 -26 -32 0
-195 -80 -34 0
-195 -78 -32 0
-29 -1 -34 0
-29 -4 -32 0
-192 -34 -70 0
-192 -32 -65 0
-96 -34 -10 0
-96 -32 -8 0
-194 -34 -71 0
-194 -32 -75 0
-221 -42 -70 0
-221 -41 -65 0
-132 -15 -70 0
-132 -14 -65 0
-244 -58 -70 0
-244 -53 -65 0
-233 -51 -70 0
-233 -52 -65 0
-154 -19 -70 0
-154 -22 -65 0
-263 -85 -70 0
-263 -83 -65 0
-208 -40 -70 0
-208 -36 -65 0
-252 -62 -70 0
-252 -61 -65 0
-173 -28 -70 0
-173 -26 -65 0
-262 -80 -70 0
-262 -78 -65 0
-66 -1 -70 0
-66 -4 -65 0
-191 -34 -70 0
-191 -32 -65 0
-107 -70 -10 0
-107 -65 -8 0
-259 -70 -71 0
-259 -65 -75 0
-100 -42 -10 0
-100 -41 -8 0
-89 -15 -10 0
-89 -14 -8 0
-103 -58 -10 0
-103 -53 -8 0
-101 -51 -10 0
-101 -52 -8 0
-92 -19 -10 0
-92 -22 -8 0
-113 -85 -10 0
-113 -83 -8 0
-98 -40 -10 0
-98 -36 -8 0
-106 -62 -10 0
-106 -61 -8 0
-93 -28 -10 0
-93 -26 -8 0
-111 -80 -10 0
-111 -78 -8 0
-9 -1 -10 0
-9 -4 -8 0
-95 -34 -10 0
-95 -32 -8 0
-108 -70 -10 0
-108 -65 -8 0
-109 -10 -71 0
-109 -8 -75 0
-223 -42 -71 0
-223 -41 -75 0
-133 -15 -71 0
-133 -14 -75 0
-245 -58 -71 0
-245 -53 -75 0
-235 -51 -71 0
-235 -52 -75 0
-156 -19 -71 0
-156 -22 -75 0
-267 -85 -71 0
-267 -83 -75 0
-209 -40 -71 0
-209 -36 -75 0
-253 -62 -71 0
-253 -61 -75 0
-176 -28 -71 0
-176 -26 -75 0
-265 -80 -71 0
-265 -78 -75 0
-74 -1 -71 0
-74 -4 -75 0
-193 -34 -71 0
-193 -32 -75 0
-260 -70 -71 0
-260 -65 -75 0
-110 -10 -71 0
-110 -8 -75 0
