c G(4) E(4,4) B(4) R(4) B(0) G(0) E(0,4) E(4,0) R(0) E(0,0) E(4,3) G(3) R(3) E(3,3) B(3) E(3,4) R(1) E(4,1) E(1,4) B(1) G(1) E(1,1) E(2,4) E(2,2) G(2) R(2) E(4,2) B(2) E(3,0) E(0,3) E(1,0) E(0,1) E(2,0) E(0,2) E(3,1) E(1,3) E(2,3) E(3,2) E(1,2) E(2,1)
c 1 2 3 4 5 6 7 8 9 10 11 12 13 14 15 16 17 18 19 20 21 22 23 24 25 26 27 28 29 30 31 32 33 34 35 36 37 38 39 40
p cnf 40 125
-10 0
-22 0
-24 0
-14 0
-2 0
10 -10 0
32 -31 0
34 -33 0
30 -29 0
7 -8 0
31 -32 0
22 -22 0
39 -40 0
36 -35 0
19 -18 0
33 -34 0
40 -39 0
24 -24 0
37 -38 0
23 -27 0
29 -30 0
35 -36 0
38 -37 0
14 -14 0
16 -11 0
8 -7 0
18 -19 0
27 -23 0
11 -16 0
2 -2 0
5 6 9 0
20 21 17 0
28 25 26 0
15 12 13 0
3 1 4 0
-5 -10 0
-5 -6 0
-5 -9 0
-20 -22 0
-20 -21 0
-20 -17 0
-28 -24 0
-28 -25 0
-28 -26 0
-15 -14 0
-15 -12 0
-15 -13 0
-3 -2 0
-3 -1 0
-3 -4 0
-10 -6 0
-10 -9 0
-22 -21 0
-22 -17 0
-24 -25 0
-24 -26 0
-14 -12 0
-14 -13 0
-2 -1 0
-2 -4 0
-6 -9 0
-21 -17 0
-25 -26 0
-12 -13 0
-1 -4 0
-5 -20 -32 0
-5 -20 -31 0
-5 -28 -34 0
-5 -28 -33 0
-5 -15 -30 0
-5 -15 -29 0
-5 -3 -7 0
-5 -3 -8 0
-20 -28 -39 0
-20 -28 -40 0
-20 -15 -36 0
-20 -15 -35 0
-20 -3 -19 0
-20 -3 -18 0
-28 -15 -37 0
-28 -15 -38 0
-28 -3 -23 0
-28 -3 -27 0
-15 -3 -16 0
-15 -3 -11 0
-32 -6 -21 0
-32 -9 -17 0
-34 -6 -25 0
-34 -9 -26 0
-30 -6 -12 0
-30 -9 -13 0
-7 -6 -1 0
-7 -9 -4 0
-31 -6 -21 0
-31 -9 -17 0
-39 -21 -25 0
-39 -17 -26 0
-36 -21 -12 0
-36 -17 -13 0
-19 -21 -1 0
-19 -17 -4 0
-33 -6 -25 0
-33 -9 -26 0
-40 -21 -25 0
-40 -17 -26 0
-37 -25 -12 0
-37 -26 -13 0
-23 -25 -1 0
-23 -26 -4 0
-29 -6 -12 0
-29 -9 -13 0
-35 -21 -12 0
-35 -17 -13 0
-38 -25 -12 0
-38 -26 -13 0
-16 -12 -1 0
-16 -13 -4 0
-8 -6 -1 0
-8 -9 -4 0
-18 -21 -1 0
-18 -17 -4 0
-27 -25 -1 0
-27 -26 -4 0
-11 -12 -1 0
-11 -13 -4 0
