c B(4) E(4,4) R(4) G(4) E(4,2) E(2,4) R(2) E(2,2) G(2) B(2) B(0) R(0) E(4,0) G(0) E(0,0) E(0,4) E(3,3) E(4,3) G(3) E(3,4) R(3) B(3) G(1) R(1) B(1) E(4,1) E(1,1) E(1,4) B(5) E(5,5) E(5,4) E(4,5) R(5) G(5) E(2,0) E(0,2) E(3,2) E(2,3) E(1,2) E(2,1) E(2,5) E(5,2) E(3,0) E(0,3) E(1,0) E(0,1) E(5,0) E(0,5) E(1,3) E(3,1) E(3,5) E(5,3) E(5,1) E(1,5)
c 1 2 3 4 5 6 7 8 9 10 11 12 13 14 15 16 17 18 19 20 21 22 23 24 25 26 27 28 29 30 31 32 33 34 35 36 37 38 39 40 41 42 43 44 45 46 47 48 49 50 51 52 53 54
p cnf 54 174
-15 0
-27 0
-8 0
-17 0
-2 0
-30 0
15 -15 0
46 -45 0
36 -35 0
44 -43 0
16 -13 0
48 -47 0
45 -46 0
27 -27 0
39 -40 0
49 -50 0
28 -26 0
54 -53 0
35 -36 0
40 -39 0
8 -8 0
38 -37 0
6 -5 0
41 -42 0
43 -44 0
50 -49 0
37 -38 0
17 -17 0
20 -18 0
51 -52 0
13 -16 0
26 -28 0
5 -6 0
18 -20 0
2 -2 0
32 -31 0
47 -48 0
53 -54 0
42 -41 0
52 -51 0
31 -32 0
30 -30 0
11 14 12 0
25 23 24 0
10 9 7 0
22 19 21 0
1 4 3 0
29 34 33 0
-11 -15 0
-11 -14 0
-11 -12 0
-25 -27 0
-25 -23 0
-25 -24 0
-10 -8 0
-10 -9 0
-10 -7 0
-22 -17 0
-22 -19 0
-22 -21 0
-1 -2 0
-1 -4 0
-1 -3 0
-29 -30 0
-29 -34 0
-29 -33 0
-15 -14 0
-15 -12 0
-27 -23 0
-27 -24 0
-8 -9 0
-8 -7 0
-17 -19 0
-17 -21 0
-2 -4 0
-2 -3 0
-30 -34 0
-30 -33 0
-14 -12 0
-23 -24 0
-9 -7 0
-19 -21 0
-4 -3 0
-34 -33 0
-11 -25 -46 0
-11 -25 -45 0
-11 -10 -36 0
-11 -10 -35 0
-11 -22 -44 0
-11 -22 -43 0
-11 -1 -16 0
-11 -1 -13 0
-11 -29 -48 0
-11 -29 -47 0
-25 -10 -39 0
-25 -10 -40 0
-25 -22 -49 0
-25 -22 -50 0
-25 -1 -28 0
-25 -1 -26 0
-25 -29 -54 0
-25 -29 -53 0
-10 -22 -38 0
-10 -22 -37 0
-10 -1 -6 0
-10 -1 -5 0
-10 -29 -41 0
-10 -29 -42 0
-22 -1 -20 0
-22 -1 -18 0
-22 -29 -51 0
-22 -29 -52 0
-1 -29 -32 0
-1 -29 -31 0
-46 -14 -23 0
-46 -12 -24 0
-36 -14 -9 0
-36 -12 -7 0
-44 -14 -19 0
-44 -12 -21 0
-16 -14 -4 0
-16 -12 -3 0
-48 -14 -34 0
-48 -12 -33 0
-45 -14 -23 0
-45 -12 -24 0
-39 -23 -9 0
-39 -24 -7 0
-49 -23 -19 0
-49 -24 -21 0
-28 -23 -4 0
-28 -24 -3 0
-54 -23 -34 0
-54 -24 -33 0
-35 -14 -9 0
-35 -12 -7 0
-40 -23 -9 0
-40 -24 -7 0
-38 -9 -19 0
-38 -7 -21 0
-6 -9 -4 0
-6 -7 -3 0
-41 -9 -34 0
-41 -7 -33 0
-43 -14 -19 0
-43 -12 -21 0
-50 -23 -19 0
-50 -24 -21 0
-37 -9 -19 0
-37 -7 -21 0
-20 -19 -4 0
-20 -21 -3 0
-51 -19 -34 0
-51 -21 -33 0
-13 -14 -4 0
-13 -12 -3 0
-26 -23 -4 0
-26 -24 -3 0
-5 -9 -4 0
-5 -7 -3 0
-18 -19 -4 0
-18 -21 -3 0
-32 -4 -34 0
-32 -3 -33 0
-47 -14 -34 0
-47 -12 -33 0
-53 -23 -34 0
-53 -24 -33 0
-42 -9 -34 0
-42 -7 -33 0
-52 -19 -34 0
-52 -21 -33 0
-31 -4 -34 0
-31 -3 -33 0
