c R(6) B(6) G(6) E(6,6) G(1) E(6,1) B(1) E(1,6) R(1) E(1,1) E(4,4) B(4) E(4,6) R(4) E(6,4) G(4) E(6,3) G(3) R(3) B(3) E(3,6) E(3,3) B(5) E(5,5) G(5) E(5,6) E(6,5) R(5) E(0,6) E(0,0) E(6,0) R(0) G(0) B(0) E(6,2) R(2) G(2) B(2) E(2,6) E(2,2) E(1,4) E(4,1) E(3,1) E(1,3) E(1,5) E(5,1) E(0,1) E(1,0) E(2,1) E(1,2) E(4,3) E(3,4) E(4,5) E(5,4) E(0,4) E(4,0) E(4,2) E(2,4) E(3,5) E(5,3) E(0,3) E(3,0) E(3,2) E(2,3) E(5,0) E(0,5) E(2,5) E(5,2) E(2,0) E(0,2)
c 1 2 3 4 5 6 7 8 9 10 11 12 13 14 15 16 17 18 19 20 21 22 23 24 25 26 27 28 29 30 31 32 33 34 35 36 37 38 39 40 41 42 43 44 45 46 47 48 49 50 51 52 53 54 55 56 57 58 59 60 61 62 63 64 65 66 67 68 69 70
p cnf 70 231
-30 0
-10 0
-40 0
-22 0
-11 0
-24 0
-4 0
30 -30 0
47 -48 0
70 -69 0
61 -62 0
55 -56 0
66 -65 0
29 -31 0
48 -47 0
10 -10 0
50 -49 0
44 -43 0
41 -42 0
45 -46 0
8 -6 0
69 -70 0
49 -50 0
40 -40 0
64 -63 0
58 -57 0
67 -68 0
39 -35 0
62 -61 0
43 -44 0
63 -64 0
22 -22 0
52 -51 0
59 -60 0
21 -17 0
56 -55 0
42 -41 0
57 -58 0
51 -52 0
11 -11 0
53 -54 0
13 -15 0
65 -66 0
46 -45 0
68 -67 0
60 -59 0
54 -53 0
24 -24 0
26 -27 0
31 -29 0
6 -8 0
35 -39 0
17 -21 0
15 -13 0
27 -26 0
4 -4 0
34 33 32 0
7 5 9 0
38 37 36 0
20 18 19 0
12 16 14 0
23 25 28 0
2 3 1 0
-34 -30 0
-34 -33 0
-34 -32 0
-7 -10 0
-7 -5 0
-7 -9 0
-38 -40 0
-38 -37 0
-38 -36 0
-20 -22 0
-20 -18 0
-20 -19 0
-12 -11 0
-12 -16 0
-12 -14 0
-23 -24 0
-23 -25 0
-23 -28 0
-2 -4 0
-2 -3 0
-2 -1 0
-30 -33 0
-30 -32 0
-10 -5 0
-10 -9 0
-40 -37 0
-40 -36 0
-22 -18 0
-22 -19 0
-11 -16 0
-11 -14 0
-24 -25 0
-24 -28 0
-4 -3 0
-4 -1 0
-33 -32 0
-5 -9 0
-37 -36 0
-18 -19 0
-16 -14 0
-25 -28 0
-3 -1 0
-34 -7 -47 0
-34 -7 -48 0
-34 -38 -70 0
-34 -38 -69 0
-34 -20 -61 0
-34 -20 -62 0
-34 -12 -55 0
-34 -12 -56 0
-34 -23 -66 0
-34 -23 -65 0
-34 -2 -29 0
-34 -2 -31 0
-7 -38 -50 0
-7 -38 -49 0
-7 -20 -44 0
-7 -20 -43 0
-7 -12 -41 0
-7 -12 -42 0
-7 -23 -45 0
-7 -23 -46 0
-7 -2 -8 0
-7 -2 -6 0
-38 -20 -64 0
-38 -20 -63 0
-38 -12 -58 0
-38 -12 -57 0
-38 -23 -67 0
-38 -23 -68 0
-38 -2 -39 0
-38 -2 -35 0
-20 -12 -52 0
-20 -12 -51 0
-20 -23 -59 0
-20 -23 -60 0
-20 -2 -21 0
-20 -2 -17 0
-12 -23 -53 0
-12 -23 -54 0
-12 -2 -13 0
-12 -2 -15 0
-23 -2 -26 0
-23 -2 -27 0
-47 -33 -5 0
-47 -32 -9 0
-70 -33 -37 0
-70 -32 -36 0
-61 -33 -18 0
-61 -32 -19 0
-55 -33 -16 0
-55 -32 -14 0
-66 -33 -25 0
-66 -32 -28 0
-29 -33 -3 0
-29 -32 -1 0
-48 -33 -5 0
-48 -32 -9 0
-50 -5 -37 0
-50 -9 -36 0
-44 -5 -18 0
-44 -9 -19 0
-41 -5 -16 0
-41 -9 -14 0
-45 -5 -25 0
-45 -9 -28 0
-8 -5 -3 0
-8 -9 -1 0
-69 -33 -37 0
-69 -32 -36 0
-49 -5 -37 0
-49 -9 -36 0
-64 -37 -18 0
-64 -36 -19 0
-58 -37 -16 0
-58 -36 -14 0
-67 -37 -25 0
-67 -36 -28 0
-39 -37 -3 0
-39 -36 -1 0
-62 -33 -18 0
-62 -32 -19 0
-43 -5 -18 0
-43 -9 -19 0
-63 -37 -18 0
-63 -36 -19 0
-52 -18 -16 0
-52 -19 -14 0
-59 -18 -25 0
-59 -19 -28 0
-21 -18 -3 0
-21 -19 -1 0
-56 -33 -16 0
-56 -32 -14 0
-42 -5 -16 0
-42 -9 -14 0
-57 -37 -16 0
-57 -36 -14 0
-51 -18 -16 0
-51 -19 -14 0
-53 -16 -25 0
-53 -14 -28 0
-13 -16 -3 0
-13 -14 -1 0
-65 -33 -25 0
-65 -32 -28 0
-46 -5 -25 0
-46 -9 -28 0
-68 -37 -25 0
-68 -36 -28 0
-60 -18 -25 0
-60 -19 -28 0
-54 -16 -25 0
-54 -14 -28 0
-26 -25 -3 0
-26 -28 -1 0
-31 -33 -3 0
-31 -32 -1 0
-6 -5 -3 0
-6 -9 -1 0
-35 -37 -3 0
-35 -36 -1 0
-17 -18 -3 0
-17 -19 -1 0
-15 -16 -3 0
-15 -14 -1 0
-27 -25 -3 0
-27 -28 -1 0
