c G(6) B(6) E(6,6) R(6) E(6,1) R(1) G(1) E(1,1) B(1) E(1,6) E(4,4) E(6,4) G(4) R(4) E(4,6) B(4) E(5,6) E(5,5) B(5) E(6,5) G(5) R(5) E(7,6) E(7,7) E(6,7) R(7) B(7) G(7) E(0,0) B(0) E(6,0) G(0) E(0,6) R(0) E(3,3) R(3) E(3,6) E(6,3) G(3) B(3) B(2) G(2) E(2,2) E(6,2) E(2,6) R(2) E(1,4) E(4,1) E(1,5) E(5,1) E(1,7) E(7,1) E(0,1) E(1,0) E(3,1) E(1,3) E(2,1) E(1,2) E(4,5) E(5,4) E(4,7) E(7,4) E(4,0) E(0,4) E(4,3) E(3,4) E(4,2) E(2,4) E(5,7) E(7,5) E(0,5) E(5,0) E(3,5) E(5,3) E(5,2) E(2,5) E(7,0) E(0,7) E(3,7) E(7,3) E(2,7) E(7,2) E(3,0) E(0,3) E(2,0) E(0,2) E(2,3) E(3,2)
c 1 2 3 4 5 6 7 8 9 10 11 12 13 14 15 16 17 18 19 20 21 22 23 24 25 26 27 28 29 30 31 32 33 34 35 36 37 38 39 40 41 42 43 44 45 46 47 48 49 50 51 52 53 54 55 56 57 58 59 60 61 62 63 64 65 66 67 68 69 70 71 72 73 74 75 76 77 78 79 80 81 82 83 84 85 86 87 88
p cnf 88 296
-29 0
-8 0
-43 0
-35 0
-11 0
-18 0
-3 0
-24 0
29 -29 0
53 -54 0
86 -85 0
84 -83 0
64 -63 0
71 -72 0
33 -31 0
78 -77 0
54 -53 0
8 -8 0
58 -57 0
56 -55 0
47 -48 0
49 -50 0
10 -5 0
51 -52 0
85 -86 0
57 -58 0
43 -43 0
87 -88 0
68 -67 0
76 -75 0
45 -44 0
81 -82 0
83 -84 0
55 -56 0
88 -87 0
35 -35 0
66 -65 0
73 -74 0
37 -38 0
79 -80 0
63 -64 0
48 -47 0
67 -68 0
65 -66 0
11 -11 0
59 -60 0
15 -12 0
61 -62 0
72 -71 0
50 -49 0
75 -76 0
74 -73 0
60 -59 0
18 -18 0
17 -20 0
69 -70 0
31 -33 0
5 -10 0
44 -45 0
38 -37 0
12 -15 0
20 -17 0
3 -3 0
25 -23 0
77 -78 0
52 -51 0
82 -81 0
80 -79 0
62 -61 0
70 -69 0
23 -25 0
24 -24 0
30 32 34 0
9 7 6 0
41 42 46 0
40 39 36 0
16 13 14 0
19 21 22 0
2 1 4 0
27 28 26 0
-30 -29 0
-30 -32 0
-30 -34 0
-9 -8 0
-9 -7 0
-9 -6 0
-41 -43 0
-41 -42 0
-41 -46 0
-40 -35 0
-40 -39 0
-40 -36 0
-16 -11 0
-16 -13 0
-16 -14 0
-19 -18 0
-19 -21 0
-19 -22 0
-2 -3 0
-2 -1 0
-2 -4 0
-27 -24 0
-27 -28 0
-27 -26 0
-29 -32 0
-29 -34 0
-8 -7 0
-8 -6 0
-43 -42 0
-43 -46 0
-35 -39 0
-35 -36 0
-11 -13 0
-11 -14 0
-18 -21 0
-18 -22 0
-3 -1 0
-3 -4 0
-24 -28 0
-24 -26 0
-32 -34 0
-7 -6 0
-42 -46 0
-39 -36 0
-13 -14 0
-21 -22 0
-1 -4 0
-28 -26 0
-30 -9 -53 0
-30 -9 -54 0
-30 -41 -86 0
-30 -41 -85 0
-30 -40 -84 0
-30 -40 -83 0
-30 -16 -64 0
-30 -16 -63 0
-30 -19 -71 0
-30 -19 -72 0
-30 -2 -33 0
-30 -2 -31 0
-30 -27 -78 0
-30 -27 -77 0
-9 -41 -58 0
-9 -41 -57 0
-9 -40 -56 0
-9 -40 -55 0
-9 -16 -47 0
-9 -16 -48 0
-9 -19 -49 0
-9 -19 -50 0
-9 -2 -10 0
-9 -2 -5 0
-9 -27 -51 0
-9 -27 -52 0
-41 -40 -87 0
-41 -40 -88 0
-41 -16 -68 0
-41 -16 -67 0
-41 -19 -76 0
-41 -19 -75 0
-41 -2 -45 0
-41 -2 -44 0
-41 -27 -81 0
-41 -27 -82 0
-40 -16 -66 0
-40 -16 -65 0
-40 -19 -73 0
-40 -19 -74 0
-40 -2 -37 0
-40 -2 -38 0
-40 -27 -79 0
-40 -27 -80 0
-16 -19 -59 0
-16 -19 -60 0
-16 -2 -15 0
-16 -2 -12 0
-16 -27 -61 0
-16 -27 -62 0
-19 -2 -17 0
-19 -2 -20 0
-19 -27 -69 0
-19 -27 -70 0
-2 -27 -25 0
-2 -27 -23 0
-53 -32 -7 0
-53 -34 -6 0
-86 -32 -42 0
-86 -34 -46 0
-84 -32 -39 0
-84 -34 -36 0
-64 -32 -13 0
-64 -34 -14 0
-71 -32 -21 0
-71 -34 -22 0
-33 -32 -1 0
-33 -34 -4 0
-78 -32 -28 0
-78 -34 -26 0
-54 -32 -7 0
-54 -34 -6 0
-58 -7 -42 0
-58 -6 -46 0
-56 -7 -39 0
-56 -6 -36 0
-47 -7 -13 0
-47 -6 -14 0
-49 -7 -21 0
-49 -6 -22 0
-10 -7 -1 0
-10 -6 -4 0
-51 -7 -28 0
-51 -6 -26 0
-85 -32 -42 0
-85 -34 -46 0
-57 -7 -42 0
-57 -6 -46 0
-87 -42 -39 0
-87 -46 -36 0
-68 -42 -13 0
-68 -46 -14 0
-76 -42 -21 0
-76 -46 -22 0
-45 -42 -1 0
-45 -46 -4 0
-81 -42 -28 0
-81 -46 -26 0
-83 -32 -39 0
-83 -34 -36 0
-55 -7 -39 0
-55 -6 -36 0
-88 -42 -39 0
-88 -46 -36 0
-66 -39 -13 0
-66 -36 -14 0
-73 -39 -21 0
-73 -36 -22 0
-37 -39 -1 0
-37 -36 -4 0
-79 -39 -28 0
-79 -36 -26 0
-63 -32 -13 0
-63 -34 -14 0
-48 -7 -13 0
-48 -6 -14 0
-67 -42 -13 0
-67 -46 -14 0
-65 -39 -13 0
-65 -36 -14 0
-59 -13 -21 0
-59 -14 -22 0
-15 -13 -1 0
-15 -14 -4 0
-61 -13 -28 0
-61 -14 -26 0
-72 -32 -21 0
-72 -34 -22 0
-50 -7 -21 0
-50 -6 -22 0
-75 -42 -21 0
-75 -46 -22 0
-74 -39 -21 0
-74 -36 -22 0
-60 -13 -21 0
-60 -14 -22 0
-17 -21 -1 0
-17 -22 -4 0
-69 -21 -28 0
-69 -22 -26 0
-31 -32 -1 0
-31 -34 -4 0
-5 -7 -1 0
-5 -6 -4 0
-44 -42 -1 0
-44 -46 -4 0
-38 -39 -1 0
-38 -36 -4 0
-12 -13 -1 0
-12 -14 -4 0
-20 -21 -1 0
-20 -22 -4 0
-25 -1 -28 0
-25 -4 -26 0
-77 -32 -28 0
-77 -34 -26 0
-52 -7 -28 0
-52 -6 -26 0
-82 -42 -28 0
-82 -46 -26 0
-80 -39 -28 0
-80 -36 -26 0
-62 -13 -28 0
-62 -14 -26 0
-70 -21 -28 0
-70 -22 -26 0
-23 -1 -28 0
-23 -4 -26 0
