c E(8,8) B(8) R(8) G(8) G(6) R(6) E(6,6) B(6) E(6,8) E(8,6) E(4,8) G(4) B(4) E(8,4) R(4) E(4,4) G(2) R(2) E(8,2) B(2) E(2,2) E(2,8) R(3) E(3,8) E(8,3) B(3) E(3,3) G(3) E(7,7) E(8,7) G(7) B(7) E(7,8) R(7) E(8,1) R(1) G(1) E(1,1) B(1) E(1,8) G(0) B(0) E(0,0) E(0,8) R(0) E(8,0) E(5,5) E(8,5) G(5) R(5) B(5) E(5,8) E(6,4) E(4,6) E(2,6) E(6,2) E(6,3) E(3,6) E(6,7) E(7,6) E(6,1) E(1,6) E(6,0) E(0,6) E(5,6) E(6,5) E(2,4) E(4,2) E(3,4) E(4,3) E(4,7) E(7,4) E(1,4) E(4,1) E(4,0) E(0,4) E(5,4) E(4,5) E(2,3) E(3,2) E(7,2) E(2,7) E(2,1) E(1,2) E(0,2) E(2,0) E(2,5) E(5,2) E(7,3) E(3,7) E(1,3) E(3,1) E(0,3) E(3,0) E(3,5) E(5,3) E(1,7) E(7,1) E(0,7) E(7,0) E(5,7) E(7,5) E(1,0) E(0,1) E(1,5) E(5,1) E(0,5) E(5,0)
c 1 2 3 4 5 6 7 8 9 10 11 12 13 14 15 16 17 18 19 20 21 22 23 24 25 26 27 28 29 30 31 32 33 34 35 36 37 38 39 40 41 42 43 44 45 46 47 48 49 50 51 52 53 54 55 56 57 58 59 60 61 62 63 64 65 66 67 68 69 70 71 72 73 74 75 76 77 78 79 80 81 82 83 84 85 86 87 88 89 90 91 92 93 94 95 96 97 98 99 100 101 102 103 104 105 106 107 108
p cnf 108 369
-43 0
-38 0
-21 0
-27 0
-16 0
-47 0
-7 0
-29 0
-1 0
43 -43 0
104 -103 0
85 -86 0
93 -94 0
76 -75 0
107 -108 0
64 -63 0
99 -100 0
44 -46 0
103 -104 0
38 -38 0
84 -83 0
91 -92 0
73 -74 0
105 -106 0
62 -61 0
97 -98 0
40 -35 0
86 -85 0
83 -84 0
21 -21 0
79 -80 0
67 -68 0
87 -88 0
55 -56 0
82 -81 0
22 -19 0
94 -93 0
92 -91 0
80 -79 0
27 -27 0
69 -70 0
95 -96 0
58 -57 0
90 -89 0
24 -25 0
75 -76 0
74 -73 0
68 -67 0
70 -69 0
16 -16 0
78 -77 0
54 -53 0
71 -72 0
11 -14 0
108 -107 0
106 -105 0
88 -87 0
96 -95 0
77 -78 0
47 -47 0
65 -66 0
101 -102 0
52 -48 0
63 -64 0
61 -62 0
56 -55 0
57 -58 0
53 -54 0
66 -65 0
7 -7 0
59 -60 0
9 -10 0
100 -99 0
98 -97 0
81 -82 0
89 -90 0
72 -71 0
102 -101 0
60 -59 0
29 -29 0
33 -30 0
46 -44 0
35 -40 0
19 -22 0
25 -24 0
14 -11 0
48 -52 0
10 -9 0
30 -33 0
1 -1 0
42 41 45 0
39 37 36 0
20 17 18 0
26 28 23 0
13 12 15 0
51 49 50 0
8 5 6 0
32 31 34 0
2 4 3 0
-42 -43 0
-42 -41 0
-42 -45 0
-39 -38 0
-39 -37 0
-39 -36 0
-20 -21 0
-20 -17 0
-20 -18 0
-26 -27 0
-26 -28 0
-26 -23 0
-13 -16 0
-13 -12 0
-13 -15 0
-51 -47 0
-51 -49 0
-51 -50 0
-8 -7 0
-8 -5 0
-8 -6 0
-32 -29 0
-32 -31 0
-32 -34 0
-2 -1 0
-2 -4 0
-2 -3 0
-43 -41 0
-43 -45 0
-38 -37 0
-38 -36 0
-21 -17 0
-21 -18 0
-27 -28 0
-27 -23 0
-16 -12 0
-16 -15 0
-47 -49 0
-47 -50 0
-7 -5 0
-7 -6 0
-29 -31 0
-29 -34 0
-1 -4 0
-1 -3 0
-41 -45 0
-37 -36 0
-17 -18 0
-28 -23 0
-12 -15 0
-49 -50 0
-5 -6 0
-31 -34 0
-4 -3 0
-42 -39 -104 0
-42 -39 -103 0
-42 -20 -85 0
-42 -20 -86 0
-42 -26 -93 0
-42 -26 -94 0
-42 -13 -76 0
-42 -13 -75 0
-42 -51 -107 0
-42 -51 -108 0
-42 -8 -64 0
-42 -8 -63 0
-42 -32 -99 0
-42 -32 -100 0
-42 -2 -44 0
-42 -2 -46 0
-39 -20 -84 0
-39 -20 -83 0
-39 -26 -91 0
-39 -26 -92 0
-39 -13 -73 0
-39 -13 -74 0
-39 -51 -105 0
-39 -51 -106 0
-39 -8 -62 0
-39 -8 -61 0
-39 -32 -97 0
-39 -32 -98 0
-39 -2 -40 0
-39 -2 -35 0
-20 -26 -79 0
-20 -26 -80 0
-20 -13 -67 0
-20 -13 -68 0
-20 -51 -87 0
-20 -51 -88 0
-20 -8 -55 0
-20 -8 -56 0
-20 -32 -82 0
-20 -32 -81 0
-20 -2 -22 0
-20 -2 -19 0
-26 -13 -69 0
-26 -13 -70 0
-26 -51 -95 0
-26 -51 -96 0
-26 -8 -58 0
-26 -8 -57 0
-26 -32 -90 0
-26 -32 -89 0
-26 -2 -24 0
-26 -2 -25 0
-13 -51 -78 0
-13 -51 -77 0
-13 -8 -54 0
-13 -8 -53 0
-13 -32 -71 0
-13 -32 -72 0
-13 -2 -11 0
-13 -2 -14 0
-51 -8 -65 0
-51 -8 -66 0
-51 -32 -101 0
-51 -32 -102 0
-51 -2 -52 0
-51 -2 -48 0
-8 -32 -59 0
-8 -32 -60 0
-8 -2 -9 0
-8 -2 -10 0
-32 -2 -33 0
-32 -2 -30 0
-104 -41 -37 0
-104 -45 -36 0
-85 -41 -17 0
-85 -45 -18 0
-93 -41 -28 0
-93 -45 -23 0
-76 -41 -12 0
-76 -45 -15 0
-107 -41 -49 0
-107 -45 -50 0
-64 -41 -5 0
-64 -45 -6 0
-99 -41 -31 0
-99 -45 -34 0
-44 -41 -4 0
-44 -45 -3 0
-103 -41 -37 0
-103 -45 -36 0
-84 -37 -17 0
-84 -36 -18 0
-91 -37 -28 0
-91 -36 -23 0
-73 -37 -12 0
-73 -36 -15 0
-105 -37 -49 0
-105 -36 -50 0
-62 -37 -5 0
-62 -36 -6 0
-97 -37 -31 0
-97 -36 -34 0
-40 -37 -4 0
-40 -36 -3 0
-86 -41 -17 0
-86 -45 -18 0
-83 -37 -17 0
-83 -36 -18 0
-79 -17 -28 0
-79 -18 -23 0
-67 -17 -12 0
-67 -18 -15 0
-87 -17 -49 0
-87 -18 -50 0
-55 -17 -5 0
-55 -18 -6 0
-82 -17 -31 0
-82 -18 -34 0
-22 -17 -4 0
-22 -18 -3 0
-94 -41 -28 0
-94 -45 -23 0
-92 -37 -28 0
-92 -36 -23 0
-80 -17 -28 0
-80 -18 -23 0
-69 -28 -12 0
-69 -23 -15 0
-95 -28 -49 0
-95 -23 -50 0
-58 -28 -5 0
-58 -23 -6 0
-90 -28 -31 0
-90 -23 -34 0
-24 -28 -4 0
-24 -23 -3 0
-75 -41 -12 0
-75 -45 -15 0
-74 -37 -12 0
-74 -36 -15 0
-68 -17 -12 0
-68 -18 -15 0
-70 -28 -12 0
-70 -23 -15 0
-78 -12 -49 0
-78 -15 -50 0
-54 -12 -5 0
-54 -15 -6 0
-71 -12 -31 0
-71 -15 -34 0
-11 -12 -4 0
-11 -15 -3 0
-108 -41 -49 0
-108 -45 -50 0
-106 -37 -49 0
-106 -36 -50 0
-88 -17 -49 0
-88 -18 -50 0
-96 -28 -49 0
-96 -23 -50 0
-77 -12 -49 0
-77 -15 -50 0
-65 -49 -5 0
-65 -50 -6 0
-101 -49 -31 0
-101 -50 -34 0
-52 -49 -4 0
-52 -50 -3 0
-63 -41 -5 0
-63 -45 -6 0
-61 -37 -5 0
-61 -36 -6 0
-56 -17 -5 0
-56 -18 -6 0
-57 -28 -5 0
-57 -23 -6 0
-53 -12 -5 0
-53 -15 -6 0
-66 -49 -5 0
-66 -50 -6 0
-59 -5 -31 0
-59 -6 -34 0
-9 -5 -4 0
-9 -6 -3 0
-100 -41 -31 0
-100 -45 -34 0
-98 -37 -31 0
-98 -36 -34 0
-81 -17 -31 0
-81 -18 -34 0
-89 -28 -31 0
-89 -23 -34 0
-72 -12 -31 0
-72 -15 -34 0
-102 -49 -31 0
-102 -50 -34 0
-60 -5 -31 0
-60 -6 -34 0
-33 -31 -4 0
-33 -34 -3 0
-46 -41 -4 0
-46 -45 -3 0
-35 -37 -4 0
-35 -36 -3 0
-19 -17 -4 0
-19 -18 -3 0
-25 -28 -4 0
-25 -23 -3 0
-14 -12 -4 0
-14 -15 -3 0
-48 -49 -4 0
-48 -50 -3 0
-10 -5 -4 0
-10 -6 -3 0
-30 -31 -4 0
-30 -34 -3 0
