c U3(1) U2(1) E1(1,1) U1(1) U4(1) E1(5,1) U1(5) U3(5) U2(5) E1(1,5) U4(5) E1(0,1) U1(0) U4(0) U2(0) E1(1,0) U3(0) E1(9,1) U1(9) U3(9) U2(9) E1(1,9) U4(9) E1(1,6) E1(6,1) U4(6) U2(6) U1(6) U3(6) U2(8) U1(8) E1(8,1) E1(1,8) U3(8) U4(8) U3(3) U2(3) U1(3) E1(3,1) E1(1,3) U4(3) U1(7) U3(7) U2(7) E1(1,7) E1(7,1) U4(7) U1(2) U4(2) U3(2) E1(2,1) U2(2) E1(1,2) U4(4) U1(4) U2(4) E1(1,4) E1(4,1) U3(4) E1(5,5) E1(5,0) E1(0,5) E1(9,5) E1(5,9) E1(6,5) E1(5,6) E1(5,8) E1(8,5) E1(3,5) E1(5,3) E1(5,7) E1(7,5) E1(5,2) E1(2,5) E1(4,5) E1(5,4) E1(0,0) E1(9,0) E1(0,9) E1(0,6) E1(6,0) E1(8,0) E1(0,8) E1(3,0) E1(0,3) E1(0,7) E1(7,0) E1(0,2) E1(2,0) E1(4,0) E1(0,4) E1(9,9) E1(9,6) E1(6,9) E1(9,8) E1(8,9) E1(3,9) E1(9,3) E1(9,7) E1(7,9) E1(9,2) E1(2,9) E1(4,9) E1(9,4) E1(6,6) E1(8,6) E1(6,8) E1(6,3) E1(3,6) E1(6,7) E1(7,6) E1(2,6) E1(6,2) E1(6,4) E1(4,6) E1(8,8) E1(8,3) E1(3,8) E1(8,7) E1(7,8) E1(8,2) E1(2,8) E1(8,4) E1(4,8) E1(3,3) E1(3,7) E1(7,3) E1(2,3) E1(3,2) E1(3,4) E1(4,3) E1(7,7) E1(2,7) E1(7,2) E1(7,4) E1(4,7) E1(2,2) E1(4,2) E1(2,4) E1(4,4)
c 1 2 3 4 5 6 7 8 9 10 11 12 13 14 15 16 17 18 19 20 21 22 23 24 25 26 27 28 29 30 31 32 33 34 35 36 37 38 39 40 41 42 43 44 45 46 47 48 49 50 51 52 53 54 55 56 57 58 59 60 61 62 63 64 65 66 67 68 69 70 71 72 73 74 75 76 77 78 79 80 81 82 83 84 85 86 87 88 89 90 91 92 93 94 95 96 97 98 99 100 101 102 103 104 105 106 107 108 109 110 111 112 113 114 115 116 117 118 119 120 121 122 123 124 125 126 127 128 129 130 131 132 133 134 135 136 137 138 139 140
p cnf 140 3380
77 -77 0
12 -16 0
88 -89 0
85 -84 0
91 -90 0
62 -61 0
80 -81 0
86 -87 0
83 -82 0
79 -78 0
16 -12 0
3 -3 0
53 -51 0
40 -39 0
57 -58 0
10 -6 0
24 -25 0
45 -46 0
33 -32 0
22 -18 0
89 -88 0
51 -53 0
137 -137 0
128 -129 0
139 -138 0
74 -73 0
112 -113 0
133 -134 0
122 -121 0
102 -101 0
84 -85 0
39 -40 0
129 -128 0
125 -125 0
130 -131 0
69 -70 0
109 -108 0
126 -127 0
118 -117 0
97 -98 0
90 -91 0
58 -57 0
138 -139 0
131 -130 0
140 -140 0
75 -76 0
115 -114 0
136 -135 0
124 -123 0
103 -104 0
61 -62 0
6 -10 0
73 -74 0
70 -69 0
76 -75 0
60 -60 0
66 -65 0
71 -72 0
67 -68 0
64 -63 0
81 -80 0
25 -24 0
113 -112 0
108 -109 0
114 -115 0
65 -66 0
105 -105 0
110 -111 0
107 -106 0
94 -93 0
87 -86 0
46 -45 0
134 -133 0
127 -126 0
135 -136 0
72 -71 0
111 -110 0
132 -132 0
120 -119 0
100 -99 0
82 -83 0
32 -33 0
121 -122 0
117 -118 0
123 -124 0
68 -67 0
106 -107 0
119 -120 0
116 -116 0
96 -95 0
78 -79 0
18 -22 0
101 -102 0
98 -97 0
104 -103 0
63 -64 0
93 -94 0
99 -100 0
95 -96 0
92 -92 0
-13 -15 0
-13 -17 0
-13 -14 0
-4 -2 0
-4 -1 0
-4 -5 0
-48 -52 0
-48 -50 0
-48 -49 0
-38 -37 0
-38 -36 0
-38 -41 0
-55 -56 0
-55 -59 0
-55 -54 0
-7 -9 0
-7 -8 0
-7 -11 0
-28 -27 0
-28 -29 0
-28 -26 0
-42 -44 0
-42 -43 0
-42 -47 0
-31 -30 0
-31 -34 0
-31 -35 0
-19 -21 0
-19 -20 0
-19 -23 0
-15 -17 0
-15 -14 0
-2 -1 0
-2 -5 0
-52 -50 0
-52 -49 0
-37 -36 0
-37 -41 0
-56 -59 0
-56 -54 0
-9 -8 0
-9 -11 0
-27 -29 0
-27 -26 0
-44 -43 0
-44 -47 0
-30 -34 0
-30 -35 0
-21 -20 0
-21 -23 0
-17 -14 0
-1 -5 0
-50 -49 0
-36 -41 0
-59 -54 0
-8 -11 0
-29 -26 0
-43 -47 0
-34 -35 0
-20 -23 0
13 15 17 14 0
4 2 1 5 0
48 52 50 49 0
38 37 36 41 0
55 56 59 54 0
7 9 8 11 0
28 27 29 26 0
42 44 43 47 0
31 30 34 35 0
19 21 20 23 0
13 15 17 -77 0
13 15 14 -77 0
13 17 14 -77 0
4 2 1 -3 0
4 2 5 -3 0
4 1 5 -3 0
48 52 50 -137 0
48 52 49 -137 0
48 50 49 -137 0
38 37 36 -125 0
38 37 41 -125 0
38 36 41 -125 0
55 56 59 -140 0
55 56 54 -140 0
55 59 54 -140 0
7 9 8 -60 0
7 9 11 -60 0
7 8 11 -60 0
28 27 29 -105 0
28 27 26 -105 0
28 29 26 -105 0
42 44 43 -132 0
42 44 47 -132 0
42 43 47 -132 0
31 30 34 -116 0
31 30 35 -116 0
31 34 35 -116 0
19 21 20 -92 0
19 21 23 -92 0
19 20 23 -92 0
15 17 14 -77 0
2 1 5 -3 0
52 50 49 -137 0
37 36 41 -125 0
56 59 54 -140 0
9 8 11 -60 0
27 29 26 -105 0
44 43 47 -132 0
30 34 35 -116 0
21 20 23 -92 0
13 15 17 14 -77 0
13 15 17 14 -12 0
13 15 17 14 -88 0
13 15 17 14 -85 0
13 15 17 14 -91 0
13 15 17 14 -62 0
13 15 17 14 -80 0
13 15 17 14 -86 0
13 15 17 14 -83 0
13 15 17 14 -79 0
13 15 17 14 -16 0
13 15 17 14 -89 0
13 15 17 14 -84 0
13 15 17 14 -90 0
13 15 17 14 -61 0
13 15 17 14 -81 0
13 15 17 14 -87 0
13 15 17 14 -82 0
13 15 17 14 -78 0
4 2 1 5 -12 0
4 2 1 5 -16 0
4 2 1 5 -3 0
4 2 1 5 -53 0
4 2 1 5 -40 0
4 2 1 5 -57 0
4 2 1 5 -10 0
4 2 1 5 -24 0
4 2 1 5 -45 0
4 2 1 5 -33 0
4 2 1 5 -22 0
4 2 1 5 -51 0
4 2 1 5 -39 0
4 2 1 5 -58 0
4 2 1 5 -6 0
4 2 1 5 -25 0
4 2 1 5 -46 0
4 2 1 5 -32 0
4 2 1 5 -18 0
48 52 50 49 -88 0
48 52 50 49 -53 0
48 52 50 49 -89 0
48 52 50 49 -51 0
48 52 50 49 -137 0
48 52 50 49 -128 0
48 52 50 49 -139 0
48 52 50 49 -74 0
48 52 50 49 -112 0
48 52 50 49 -133 0
48 52 50 49 -122 0
48 52 50 49 -102 0
48 52 50 49 -129 0
48 52 50 49 -138 0
48 52 50 49 -73 0
48 52 50 49 -113 0
48 52 50 49 -134 0
48 52 50 49 -121 0
48 52 50 49 -101 0
38 37 36 41 -85 0
38 37 36 41 -40 0
38 37 36 41 -128 0
38 37 36 41 -84 0
38 37 36 41 -39 0
38 37 36 41 -129 0
38 37 36 41 -125 0
38 37 36 41 -130 0
38 37 36 41 -69 0
38 37 36 41 -109 0
38 37 36 41 -126 0
38 37 36 41 -118 0
38 37 36 41 -97 0
38 37 36 41 -131 0
38 37 36 41 -70 0
38 37 36 41 -108 0
38 37 36 41 -127 0
38 37 36 41 -117 0
38 37 36 41 -98 0
55 56 59 54 -91 0
55 56 59 54 -57 0
55 56 59 54 -139 0
55 56 59 54 -130 0
55 56 59 54 -90 0
55 56 59 54 -58 0
55 56 59 54 -138 0
55 56 59 54 -131 0
55 56 59 54 -140 0
55 56 59 54 -75 0
55 56 59 54 -115 0
55 56 59 54 -136 0
55 56 59 54 -124 0
55 56 59 54 -103 0
55 56 59 54 -76 0
55 56 59 54 -114 0
55 56 59 54 -135 0
55 56 59 54 -123 0
55 56 59 54 -104 0
7 9 8 11 -62 0
7 9 8 11 -10 0
7 9 8 11 -74 0
7 9 8 11 -69 0
7 9 8 11 -75 0
7 9 8 11 -61 0
7 9 8 11 -6 0
7 9 8 11 -73 0
7 9 8 11 -70 0
7 9 8 11 -76 0
7 9 8 11 -60 0
7 9 8 11 -66 0
7 9 8 11 -71 0
7 9 8 11 -67 0
7 9 8 11 -64 0
7 9 8 11 -65 0
7 9 8 11 -72 0
7 9 8 11 -68 0
7 9 8 11 -63 0
28 27 29 26 -80 0
28 27 29 26 -24 0
28 27 29 26 -112 0
28 27 29 26 -109 0
28 27 29 26 -115 0
28 27 29 26 -66 0
28 27 29 26 -81 0
28 27 29 26 -25 0
28 27 29 26 -113 0
28 27 29 26 -108 0
28 27 29 26 -114 0
28 27 29 26 -65 0
28 27 29 26 -105 0
28 27 29 26 -110 0
28 27 29 26 -107 0
28 27 29 26 -94 0
28 27 29 26 -111 0
28 27 29 26 -106 0
28 27 29 26 -93 0
42 44 43 47 -86 0
42 44 43 47 -45 0
42 44 43 47 -133 0
42 44 43 47 -126 0
42 44 43 47 -136 0
42 44 43 47 -71 0
42 44 43 47 -110 0
42 44 43 47 -87 0
42 44 43 47 -46 0
42 44 43 47 -134 0
42 44 43 47 -127 0
42 44 43 47 -135 0
42 44 43 47 -72 0
42 44 43 47 -111 0
42 44 43 47 -132 0
42 44 43 47 -120 0
42 44 43 47 -100 0
42 44 43 47 -119 0
42 44 43 47 -99 0
31 30 34 35 -83 0
31 30 34 35 -33 0
31 30 34 35 -122 0
31 30 34 35 -118 0
31 30 34 35 -124 0
31 30 34 35 -67 0
31 30 34 35 -107 0
31 30 34 35 -120 0
31 30 34 35 -82 0
31 30 34 35 -32 0
31 30 34 35 -121 0
31 30 34 35 -117 0
31 30 34 35 -123 0
31 30 34 35 -68 0
31 30 34 35 -106 0
31 30 34 35 -119 0
31 30 34 35 -116 0
31 30 34 35 -96 0
31 30 34 35 -95 0
19 21 20 23 -79 0
19 21 20 23 -22 0
19 21 20 23 -102 0
19 21 20 23 -97 0
19 21 20 23 -103 0
19 21 20 23 -64 0
19 21 20 23 -94 0
19 21 20 23 -100 0
19 21 20 23 -96 0
19 21 20 23 -78 0
19 21 20 23 -18 0
19 21 20 23 -101 0
19 21 20 23 -98 0
19 21 20 23 -104 0
19 21 20 23 -63 0
19 21 20 23 -93 0
19 21 20 23 -99 0
19 21 20 23 -95 0
19 21 20 23 -92 0
13 4 15 17 14 -12 0
13 4 15 17 14 -16 0
13 4 2 1 5 -12 0
13 4 2 1 5 -16 0
13 48 15 17 14 -88 0
13 48 15 17 14 -89 0
13 48 52 50 49 -88 0
13 48 52 50 49 -89 0
13 38 15 17 14 -85 0
13 38 15 17 14 -84 0
13 38 37 36 41 -85 0
13 38 37 36 41 -84 0
13 55 15 17 14 -91 0
13 55 15 17 14 -90 0
13 55 56 59 54 -91 0
13 55 56 59 54 -90 0
13 7 15 17 14 -62 0
13 7 15 17 14 -61 0
13 7 9 8 11 -62 0
13 7 9 8 11 -61 0
13 28 15 17 14 -80 0
13 28 15 17 14 -81 0
13 28 27 29 26 -80 0
13 28 27 29 26 -81 0
13 42 15 17 14 -86 0
13 42 15 17 14 -87 0
13 42 44 43 47 -86 0
13 42 44 43 47 -87 0
13 31 15 17 14 -83 0
13 31 15 17 14 -82 0
13 31 30 34 35 -83 0
13 31 30 34 35 -82 0
13 19 15 17 14 -79 0
13 19 15 17 14 -78 0
13 19 21 20 23 -79 0
13 19 21 20 23 -78 0
13 15 2 17 14 -12 0
13 15 2 17 14 -16 0
13 15 52 17 14 -88 0
13 15 52 17 14 -89 0
13 15 37 17 14 -85 0
13 15 37 17 14 -84 0
13 15 56 17 14 -91 0
13 15 56 17 14 -90 0
13 15 9 17 14 -62 0
13 15 9 17 14 -61 0
13 15 27 17 14 -80 0
13 15 27 17 14 -81 0
13 15 44 17 14 -86 0
13 15 44 17 14 -87 0
13 15 30 17 14 -83 0
13 15 30 17 14 -82 0
13 15 21 17 14 -79 0
13 15 21 17 14 -78 0
13 15 17 1 14 -12 0
13 15 17 1 14 -16 0
13 15 17 50 14 -88 0
13 15 17 50 14 -89 0
13 15 17 36 14 -85 0
13 15 17 36 14 -84 0
13 15 17 59 14 -91 0
13 15 17 59 14 -90 0
13 15 17 8 14 -62 0
13 15 17 8 14 -61 0
13 15 17 29 14 -80 0
13 15 17 29 14 -81 0
13 15 17 43 14 -86 0
13 15 17 43 14 -87 0
13 15 17 34 14 -83 0
13 15 17 34 14 -82 0
13 15 17 20 14 -79 0
13 15 17 20 14 -78 0
13 15 17 14 5 -12 0
13 15 17 14 5 -16 0
13 15 17 14 49 -88 0
13 15 17 14 49 -89 0
13 15 17 14 41 -85 0
13 15 17 14 41 -84 0
13 15 17 14 54 -91 0
13 15 17 14 54 -90 0
13 15 17 14 11 -62 0
13 15 17 14 11 -61 0
13 15 17 14 26 -80 0
13 15 17 14 26 -81 0
13 15 17 14 47 -86 0
13 15 17 14 47 -87 0
13 15 17 14 35 -83 0
13 15 17 14 35 -82 0
13 15 17 14 23 -79 0
13 15 17 14 23 -78 0
4 48 2 1 5 -53 0
4 48 2 1 5 -51 0
4 48 52 50 49 -53 0
4 48 52 50 49 -51 0
4 38 2 1 5 -40 0
4 38 2 1 5 -39 0
4 38 37 36 41 -40 0
4 38 37 36 41 -39 0
4 55 2 1 5 -57 0
4 55 2 1 5 -58 0
4 55 56 59 54 -57 0
4 55 56 59 54 -58 0
4 7 2 1 5 -10 0
4 7 2 1 5 -6 0
4 7 9 8 11 -10 0
4 7 9 8 11 -6 0
4 28 2 1 5 -24 0
4 28 2 1 5 -25 0
4 28 27 29 26 -24 0
4 28 27 29 26 -25 0
4 42 2 1 5 -45 0
4 42 2 1 5 -46 0
4 42 44 43 47 -45 0
4 42 44 43 47 -46 0
4 31 2 1 5 -33 0
4 31 2 1 5 -32 0
4 31 30 34 35 -33 0
4 31 30 34 35 -32 0
4 19 2 1 5 -22 0
4 19 2 1 5 -18 0
4 19 21 20 23 -22 0
4 19 21 20 23 -18 0
4 15 2 1 5 -12 0
4 15 2 1 5 -16 0
4 2 52 1 5 -53 0
4 2 52 1 5 -51 0
4 2 37 1 5 -40 0
4 2 37 1 5 -39 0
4 2 56 1 5 -57 0
4 2 56 1 5 -58 0
4 2 9 1 5 -10 0
4 2 9 1 5 -6 0
4 2 27 1 5 -24 0
4 2 27 1 5 -25 0
4 2 44 1 5 -45 0
4 2 44 1 5 -46 0
4 2 30 1 5 -33 0
4 2 30 1 5 -32 0
4 2 21 1 5 -22 0
4 2 21 1 5 -18 0
4 2 17 1 5 -12 0
4 2 17 1 5 -16 0
4 2 1 50 5 -53 0
4 2 1 50 5 -51 0
4 2 1 36 5 -40 0
4 2 1 36 5 -39 0
4 2 1 59 5 -57 0
4 2 1 59 5 -58 0
4 2 1 8 5 -10 0
4 2 1 8 5 -6 0
4 2 1 29 5 -24 0
4 2 1 29 5 -25 0
4 2 1 43 5 -45 0
4 2 1 43 5 -46 0
4 2 1 34 5 -33 0
4 2 1 34 5 -32 0
4 2 1 20 5 -22 0
4 2 1 20 5 -18 0
4 2 1 14 5 -12 0
4 2 1 14 5 -16 0
4 2 1 5 49 -53 0
4 2 1 5 49 -51 0
4 2 1 5 41 -40 0
4 2 1 5 41 -39 0
4 2 1 5 54 -57 0
4 2 1 5 54 -58 0
4 2 1 5 11 -10 0
4 2 1 5 11 -6 0
4 2 1 5 26 -24 0
4 2 1 5 26 -25 0
4 2 1 5 47 -45 0
4 2 1 5 47 -46 0
4 2 1 5 35 -33 0
4 2 1 5 35 -32 0
4 2 1 5 23 -22 0
4 2 1 5 23 -18 0
48 38 52 50 49 -128 0
48 38 52 50 49 -129 0
48 38 37 36 41 -128 0
48 38 37 36 41 -129 0
48 55 52 50 49 -139 0
48 55 52 50 49 -138 0
48 55 56 59 54 -139 0
48 55 56 59 54 -138 0
48 7 52 50 49 -74 0
48 7 52 50 49 -73 0
48 7 9 8 11 -74 0
48 7 9 8 11 -73 0
48 28 52 50 49 -112 0
48 28 52 50 49 -113 0
48 28 27 29 26 -112 0
48 28 27 29 26 -113 0
48 42 52 50 49 -133 0
48 42 52 50 49 -134 0
48 42 44 43 47 -133 0
48 42 44 43 47 -134 0
48 31 52 50 49 -122 0
48 31 52 50 49 -121 0
48 31 30 34 35 -122 0
48 31 30 34 35 -121 0
48 19 52 50 49 -102 0
48 19 52 50 49 -101 0
48 19 21 20 23 -102 0
48 19 21 20 23 -101 0
48 15 52 50 49 -88 0
48 15 52 50 49 -89 0
48 2 52 50 49 -53 0
48 2 52 50 49 -51 0
48 52 37 50 49 -128 0
48 52 37 50 49 -129 0
48 52 56 50 49 -139 0
48 52 56 50 49 -138 0
48 52 9 50 49 -74 0
48 52 9 50 49 -73 0
48 52 27 50 49 -112 0
48 52 27 50 49 -113 0
48 52 44 50 49 -133 0
48 52 44 50 49 -134 0
48 52 30 50 49 -122 0
48 52 30 50 49 -121 0
48 52 21 50 49 -102 0
48 52 21 50 49 -101 0
48 52 17 50 49 -88 0
48 52 17 50 49 -89 0
48 52 1 50 49 -53 0
48 52 1 50 49 -51 0
48 52 50 36 49 -128 0
48 52 50 36 49 -129 0
48 52 50 59 49 -139 0
48 52 50 59 49 -138 0
48 52 50 8 49 -74 0
48 52 50 8 49 -73 0
48 52 50 29 49 -112 0
48 52 50 29 49 -113 0
48 52 50 43 49 -133 0
48 52 50 43 49 -134 0
48 52 50 34 49 -122 0
48 52 50 34 49 -121 0
48 52 50 20 49 -102 0
48 52 50 20 49 -101 0
48 52 50 14 49 -88 0
48 52 50 14 49 -89 0
48 52 50 5 49 -53 0
48 52 50 5 49 -51 0
48 52 50 49 41 -128 0
48 52 50 49 41 -129 0
48 52 50 49 54 -139 0
48 52 50 49 54 -138 0
48 52 50 49 11 -74 0
48 52 50 49 11 -73 0
48 52 50 49 26 -112 0
48 52 50 49 26 -113 0
48 52 50 49 47 -133 0
48 52 50 49 47 -134 0
48 52 50 49 35 -122 0
48 52 50 49 35 -121 0
48 52 50 49 23 -102 0
48 52 50 49 23 -101 0
38 55 37 36 41 -130 0
38 55 37 36 41 -131 0
38 55 56 59 54 -130 0
38 55 56 59 54 -131 0
38 7 37 36 41 -69 0
38 7 37 36 41 -70 0
38 7 9 8 11 -69 0
38 7 9 8 11 -70 0
38 28 37 36 41 -109 0
38 28 37 36 41 -108 0
38 28 27 29 26 -109 0
38 28 27 29 26 -108 0
38 42 37 36 41 -126 0
38 42 37 36 41 -127 0
38 42 44 43 47 -126 0
38 42 44 43 47 -127 0
38 31 37 36 41 -118 0
38 31 37 36 41 -117 0
38 31 30 34 35 -118 0
38 31 30 34 35 -117 0
38 19 37 36 41 -97 0
38 19 37 36 41 -98 0
38 19 21 20 23 -97 0
38 19 21 20 23 -98 0
38 15 37 36 41 -85 0
38 15 37 36 41 -84 0
38 2 37 36 41 -40 0
38 2 37 36 41 -39 0
38 52 37 36 41 -128 0
38 52 37 36 41 -129 0
38 37 56 36 41 -130 0
38 37 56 36 41 -131 0
38 37 9 36 41 -69 0
38 37 9 36 41 -70 0
38 37 27 36 41 -109 0
38 37 27 36 41 -108 0
38 37 44 36 41 -126 0
38 37 44 36 41 -127 0
38 37 30 36 41 -118 0
38 37 30 36 41 -117 0
38 37 21 36 41 -97 0
38 37 21 36 41 -98 0
38 37 17 36 41 -85 0
38 37 17 36 41 -84 0
38 37 1 36 41 -40 0
38 37 1 36 41 -39 0
38 37 50 36 41 -128 0
38 37 50 36 41 -129 0
38 37 36 59 41 -130 0
38 37 36 59 41 -131 0
38 37 36 8 41 -69 0
38 37 36 8 41 -70 0
38 37 36 29 41 -109 0
38 37 36 29 41 -108 0
38 37 36 43 41 -126 0
38 37 36 43 41 -127 0
38 37 36 34 41 -118 0
38 37 36 34 41 -117 0
38 37 36 20 41 -97 0
38 37 36 20 41 -98 0
38 37 36 14 41 -85 0
38 37 36 14 41 -84 0
38 37 36 5 41 -40 0
38 37 36 5 41 -39 0
38 37 36 49 41 -128 0
38 37 36 49 41 -129 0
38 37 36 41 54 -130 0
38 37 36 41 54 -131 0
38 37 36 41 11 -69 0
38 37 36 41 11 -70 0
38 37 36 41 26 -109 0
38 37 36 41 26 -108 0
38 37 36 41 47 -126 0
38 37 36 41 47 -127 0
38 37 36 41 35 -118 0
38 37 36 41 35 -117 0
38 37 36 41 23 -97 0
38 37 36 41 23 -98 0
55 7 56 59 54 -75 0
55 7 56 59 54 -76 0
55 7 9 8 11 -75 0
55 7 9 8 11 -76 0
55 28 56 59 54 -115 0
55 28 56 59 54 -114 0
55 28 27 29 26 -115 0
55 28 27 29 26 -114 0
55 42 56 59 54 -136 0
55 42 56 59 54 -135 0
55 42 44 43 47 -136 0
55 42 44 43 47 -135 0
55 31 56 59 54 -124 0
55 31 56 59 54 -123 0
55 31 30 34 35 -124 0
55 31 30 34 35 -123 0
55 19 56 59 54 -103 0
55 19 56 59 54 -104 0
55 19 21 20 23 -103 0
55 19 21 20 23 -104 0
55 15 56 59 54 -91 0
55 15 56 59 54 -90 0
55 2 56 59 54 -57 0
55 2 56 59 54 -58 0
55 52 56 59 54 -139 0
55 52 56 59 54 -138 0
55 37 56 59 54 -130 0
55 37 56 59 54 -131 0
55 56 9 59 54 -75 0
55 56 9 59 54 -76 0
55 56 27 59 54 -115 0
55 56 27 59 54 -114 0
55 56 44 59 54 -136 0
55 56 44 59 54 -135 0
55 56 30 59 54 -124 0
55 56 30 59 54 -123 0
55 56 21 59 54 -103 0
55 56 21 59 54 -104 0
55 56 17 59 54 -91 0
55 56 17 59 54 -90 0
55 56 1 59 54 -57 0
55 56 1 59 54 -58 0
55 56 50 59 54 -139 0
55 56 50 59 54 -138 0
55 56 36 59 54 -130 0
55 56 36 59 54 -131 0
55 56 59 8 54 -75 0
55 56 59 8 54 -76 0
55 56 59 29 54 -115 0
55 56 59 29 54 -114 0
55 56 59 43 54 -136 0
55 56 59 43 54 -135 0
55 56 59 34 54 -124 0
55 56 59 34 54 -123 0
55 56 59 20 54 -103 0
55 56 59 20 54 -104 0
55 56 59 14 54 -91 0
55 56 59 14 54 -90 0
55 56 59 5 54 -57 0
55 56 59 5 54 -58 0
55 56 59 49 54 -139 0
55 56 59 49 54 -138 0
55 56 59 41 54 -130 0
55 56 59 41 54 -131 0
55 56 59 54 11 -75 0
55 56 59 54 11 -76 0
55 56 59 54 26 -115 0
55 56 59 54 26 -114 0
55 56 59 54 47 -136 0
55 56 59 54 47 -135 0
55 56 59 54 35 -124 0
55 56 59 54 35 -123 0
55 56 59 54 23 -103 0
55 56 59 54 23 -104 0
7 28 9 8 11 -66 0
7 28 9 8 11 -65 0
7 28 27 29 26 -66 0
7 28 27 29 26 -65 0
7 42 9 8 11 -71 0
7 42 9 8 11 -72 0
7 42 44 43 47 -71 0
7 42 44 43 47 -72 0
7 31 9 8 11 -67 0
7 31 9 8 11 -68 0
7 31 30 34 35 -67 0
7 31 30 34 35 -68 0
7 19 9 8 11 -64 0
7 19 9 8 11 -63 0
7 19 21 20 23 -64 0
7 19 21 20 23 -63 0
7 15 9 8 11 -62 0
7 15 9 8 11 -61 0
7 2 9 8 11 -10 0
7 2 9 8 11 -6 0
7 52 9 8 11 -74 0
7 52 9 8 11 -73 0
7 37 9 8 11 -69 0
7 37 9 8 11 -70 0
7 56 9 8 11 -75 0
7 56 9 8 11 -76 0
7 9 27 8 11 -66 0
7 9 27 8 11 -65 0
7 9 44 8 11 -71 0
7 9 44 8 11 -72 0
7 9 30 8 11 -67 0
7 9 30 8 11 -68 0
7 9 21 8 11 -64 0
7 9 21 8 11 -63 0
7 9 17 8 11 -62 0
7 9 17 8 11 -61 0
7 9 1 8 11 -10 0
7 9 1 8 11 -6 0
7 9 50 8 11 -74 0
7 9 50 8 11 -73 0
7 9 36 8 11 -69 0
7 9 36 8 11 -70 0
7 9 59 8 11 -75 0
7 9 59 8 11 -76 0
7 9 8 29 11 -66 0
7 9 8 29 11 -65 0
7 9 8 43 11 -71 0
7 9 8 43 11 -72 0
7 9 8 34 11 -67 0
7 9 8 34 11 -68 0
7 9 8 20 11 -64 0
7 9 8 20 11 -63 0
7 9 8 14 11 -62 0
7 9 8 14 11 -61 0
7 9 8 5 11 -10 0
7 9 8 5 11 -6 0
7 9 8 49 11 -74 0
7 9 8 49 11 -73 0
7 9 8 41 11 -69 0
7 9 8 41 11 -70 0
7 9 8 54 11 -75 0
7 9 8 54 11 -76 0
7 9 8 11 26 -66 0
7 9 8 11 26 -65 0
7 9 8 11 47 -71 0
7 9 8 11 47 -72 0
7 9 8 11 35 -67 0
7 9 8 11 35 -68 0
7 9 8 11 23 -64 0
7 9 8 11 23 -63 0
28 42 27 29 26 -110 0
28 42 27 29 26 -111 0
28 42 44 43 47 -110 0
28 42 44 43 47 -111 0
28 31 27 29 26 -107 0
28 31 27 29 26 -106 0
28 31 30 34 35 -107 0
28 31 30 34 35 -106 0
28 19 27 29 26 -94 0
28 19 27 29 26 -93 0
28 19 21 20 23 -94 0
28 19 21 20 23 -93 0
28 15 27 29 26 -80 0
28 15 27 29 26 -81 0
28 2 27 29 26 -24 0
28 2 27 29 26 -25 0
28 52 27 29 26 -112 0
28 52 27 29 26 -113 0
28 37 27 29 26 -109 0
28 37 27 29 26 -108 0
28 56 27 29 26 -115 0
28 56 27 29 26 -114 0
28 9 27 29 26 -66 0
28 9 27 29 26 -65 0
28 27 44 29 26 -110 0
28 27 44 29 26 -111 0
28 27 30 29 26 -107 0
28 27 30 29 26 -106 0
28 27 21 29 26 -94 0
28 27 21 29 26 -93 0
28 27 17 29 26 -80 0
28 27 17 29 26 -81 0
28 27 1 29 26 -24 0
28 27 1 29 26 -25 0
28 27 50 29 26 -112 0
28 27 50 29 26 -113 0
28 27 36 29 26 -109 0
28 27 36 29 26 -108 0
28 27 59 29 26 -115 0
28 27 59 29 26 -114 0
28 27 8 29 26 -66 0
28 27 8 29 26 -65 0
28 27 29 43 26 -110 0
28 27 29 43 26 -111 0
28 27 29 34 26 -107 0
28 27 29 34 26 -106 0
28 27 29 20 26 -94 0
28 27 29 20 26 -93 0
28 27 29 14 26 -80 0
28 27 29 14 26 -81 0
28 27 29 5 26 -24 0
28 27 29 5 26 -25 0
28 27 29 49 26 -112 0
28 27 29 49 26 -113 0
28 27 29 41 26 -109 0
28 27 29 41 26 -108 0
28 27 29 54 26 -115 0
28 27 29 54 26 -114 0
28 27 29 11 26 -66 0
28 27 29 11 26 -65 0
28 27 29 26 47 -110 0
28 27 29 26 47 -111 0
28 27 29 26 35 -107 0
28 27 29 26 35 -106 0
28 27 29 26 23 -94 0
28 27 29 26 23 -93 0
42 31 44 43 47 -120 0
42 31 44 43 47 -119 0
42 31 30 34 35 -120 0
42 31 30 34 35 -119 0
42 19 44 43 47 -100 0
42 19 44 43 47 -99 0
42 19 21 20 23 -100 0
42 19 21 20 23 -99 0
42 15 44 43 47 -86 0
42 15 44 43 47 -87 0
42 2 44 43 47 -45 0
42 2 44 43 47 -46 0
42 52 44 43 47 -133 0
42 52 44 43 47 -134 0
42 37 44 43 47 -126 0
42 37 44 43 47 -127 0
42 56 44 43 47 -136 0
42 56 44 43 47 -135 0
42 9 44 43 47 -71 0
42 9 44 43 47 -72 0
42 27 44 43 47 -110 0
42 27 44 43 47 -111 0
42 44 30 43 47 -120 0
42 44 30 43 47 -119 0
42 44 21 43 47 -100 0
42 44 21 43 47 -99 0
42 44 17 43 47 -86 0
42 44 17 43 47 -87 0
42 44 1 43 47 -45 0
42 44 1 43 47 -46 0
42 44 50 43 47 -133 0
42 44 50 43 47 -134 0
42 44 36 43 47 -126 0
42 44 36 43 47 -127 0
42 44 59 43 47 -136 0
42 44 59 43 47 -135 0
42 44 8 43 47 -71 0
42 44 8 43 47 -72 0
42 44 29 43 47 -110 0
42 44 29 43 47 -111 0
42 44 43 34 47 -120 0
42 44 43 34 47 -119 0
42 44 43 20 47 -100 0
42 44 43 20 47 -99 0
42 44 43 14 47 -86 0
42 44 43 14 47 -87 0
42 44 43 5 47 -45 0
42 44 43 5 47 -46 0
42 44 43 49 47 -133 0
42 44 43 49 47 -134 0
42 44 43 41 47 -126 0
42 44 43 41 47 -127 0
42 44 43 54 47 -136 0
42 44 43 54 47 -135 0
42 44 43 11 47 -71 0
42 44 43 11 47 -72 0
42 44 43 26 47 -110 0
42 44 43 26 47 -111 0
42 44 43 47 35 -120 0
42 44 43 47 35 -119 0
42 44 43 47 23 -100 0
42 44 43 47 23 -99 0
31 19 30 34 35 -96 0
31 19 30 34 35 -95 0
31 19 21 20 23 -96 0
31 19 21 20 23 -95 0
31 15 30 34 35 -83 0
31 15 30 34 35 -82 0
31 2 30 34 35 -33 0
31 2 30 34 35 -32 0
31 52 30 34 35 -122 0
31 52 30 34 35 -121 0
31 37 30 34 35 -118 0
31 37 30 34 35 -117 0
31 56 30 34 35 -124 0
31 56 30 34 35 -123 0
31 9 30 34 35 -67 0
31 9 30 34 35 -68 0
31 27 30 34 35 -107 0
31 27 30 34 35 -106 0
31 44 30 34 35 -120 0
31 44 30 34 35 -119 0
31 30 21 34 35 -96 0
31 30 21 34 35 -95 0
31 30 17 34 35 -83 0
31 30 17 34 35 -82 0
31 30 1 34 35 -33 0
31 30 1 34 35 -32 0
31 30 50 34 35 -122 0
31 30 50 34 35 -121 0
31 30 36 34 35 -118 0
31 30 36 34 35 -117 0
31 30 59 34 35 -124 0
31 30 59 34 35 -123 0
31 30 8 34 35 -67 0
31 30 8 34 35 -68 0
31 30 29 34 35 -107 0
31 30 29 34 35 -106 0
31 30 43 34 35 -120 0
31 30 43 34 35 -119 0
31 30 34 20 35 -96 0
31 30 34 20 35 -95 0
31 30 34 14 35 -83 0
31 30 34 14 35 -82 0
31 30 34 5 35 -33 0
31 30 34 5 35 -32 0
31 30 34 49 35 -122 0
31 30 34 49 35 -121 0
31 30 34 41 35 -118 0
31 30 34 41 35 -117 0
31 30 34 54 35 -124 0
31 30 34 54 35 -123 0
31 30 34 11 35 -67 0
31 30 34 11 35 -68 0
31 30 34 26 35 -107 0
31 30 34 26 35 -106 0
31 30 34 47 35 -120 0
31 30 34 47 35 -119 0
31 30 34 35 23 -96 0
31 30 34 35 23 -95 0
19 15 21 20 23 -79 0
19 15 21 20 23 -78 0
19 2 21 20 23 -22 0
19 2 21 20 23 -18 0
19 52 21 20 23 -102 0
19 52 21 20 23 -101 0
19 37 21 20 23 -97 0
19 37 21 20 23 -98 0
19 56 21 20 23 -103 0
19 56 21 20 23 -104 0
19 9 21 20 23 -64 0
19 9 21 20 23 -63 0
19 27 21 20 23 -94 0
19 27 21 20 23 -93 0
19 44 21 20 23 -100 0
19 44 21 20 23 -99 0
19 30 21 20 23 -96 0
19 30 21 20 23 -95 0
19 21 17 20 23 -79 0
19 21 17 20 23 -78 0
19 21 1 20 23 -22 0
19 21 1 20 23 -18 0
19 21 50 20 23 -102 0
19 21 50 20 23 -101 0
19 21 36 20 23 -97 0
19 21 36 20 23 -98 0
19 21 59 20 23 -103 0
19 21 59 20 23 -104 0
19 21 8 20 23 -64 0
19 21 8 20 23 -63 0
19 21 29 20 23 -94 0
19 21 29 20 23 -93 0
19 21 43 20 23 -100 0
19 21 43 20 23 -99 0
19 21 34 20 23 -96 0
19 21 34 20 23 -95 0
19 21 20 14 23 -79 0
19 21 20 14 23 -78 0
19 21 20 5 23 -22 0
19 21 20 5 23 -18 0
19 21 20 49 23 -102 0
19 21 20 49 23 -101 0
19 21 20 41 23 -97 0
19 21 20 41 23 -98 0
19 21 20 54 23 -103 0
19 21 20 54 23 -104 0
19 21 20 11 23 -64 0
19 21 20 11 23 -63 0
19 21 20 26 23 -94 0
19 21 20 26 23 -93 0
19 21 20 47 23 -100 0
19 21 20 47 23 -99 0
19 21 20 35 23 -96 0
19 21 20 35 23 -95 0
13 4 15 2 17 1 -12 0
13 4 15 2 17 1 -16 0
13 4 15 2 17 14 -12 0
13 4 15 2 17 14 -16 0
13 4 15 2 1 5 -12 0
13 4 15 2 1 5 -16 0
13 4 15 2 14 5 -12 0
13 4 15 2 14 5 -16 0
13 4 15 17 1 14 -12 0
13 4 15 17 1 14 -16 0
13 4 15 17 14 5 -12 0
13 4 15 17 14 5 -16 0
13 4 2 17 1 5 -12 0
13 4 2 17 1 5 -16 0
13 4 2 1 14 5 -12 0
13 4 2 1 14 5 -16 0
13 4 17 1 14 5 -12 0
13 4 17 1 14 5 -16 0
13 48 15 52 17 50 -88 0
13 48 15 52 17 50 -89 0
13 48 15 52 17 14 -88 0
13 48 15 52 17 14 -89 0
13 48 15 52 50 49 -88 0
13 48 15 52 50 49 -89 0
13 48 15 52 14 49 -88 0
13 48 15 52 14 49 -89 0
13 48 15 17 50 14 -88 0
13 48 15 17 50 14 -89 0
13 48 15 17 14 49 -88 0
13 48 15 17 14 49 -89 0
13 48 52 17 50 49 -88 0
13 48 52 17 50 49 -89 0
13 48 52 50 14 49 -88 0
13 48 52 50 14 49 -89 0
13 48 17 50 14 49 -88 0
13 48 17 50 14 49 -89 0
13 38 15 37 17 36 -85 0
13 38 15 37 17 36 -84 0
13 38 15 37 17 14 -85 0
13 38 15 37 17 14 -84 0
13 38 15 37 36 41 -85 0
13 38 15 37 36 41 -84 0
13 38 15 37 14 41 -85 0
13 38 15 37 14 41 -84 0
13 38 15 17 36 14 -85 0
13 38 15 17 36 14 -84 0
13 38 15 17 14 41 -85 0
13 38 15 17 14 41 -84 0
13 38 37 17 36 41 -85 0
13 38 37 17 36 41 -84 0
13 38 37 36 14 41 -85 0
13 38 37 36 14 41 -84 0
13 38 17 36 14 41 -85 0
13 38 17 36 14 41 -84 0
13 55 15 56 17 59 -91 0
13 55 15 56 17 59 -90 0
13 55 15 56 17 14 -91 0
13 55 15 56 17 14 -90 0
13 55 15 56 59 54 -91 0
13 55 15 56 59 54 -90 0
13 55 15 56 14 54 -91 0
13 55 15 56 14 54 -90 0
13 55 15 17 59 14 -91 0
13 55 15 17 59 14 -90 0
13 55 15 17 14 54 -91 0
13 55 15 17 14 54 -90 0
13 55 56 17 59 54 -91 0
13 55 56 17 59 54 -90 0
13 55 56 59 14 54 -91 0
13 55 56 59 14 54 -90 0
13 55 17 59 14 54 -91 0
13 55 17 59 14 54 -90 0
13 7 15 9 17 8 -62 0
13 7 15 9 17 8 -61 0
13 7 15 9 17 14 -62 0
13 7 15 9 17 14 -61 0
13 7 15 9 8 11 -62 0
13 7 15 9 8 11 -61 0
13 7 15 9 14 11 -62 0
13 7 15 9 14 11 -61 0
13 7 15 17 8 14 -62 0
13 7 15 17 8 14 -61 0
13 7 15 17 14 11 -62 0
13 7 15 17 14 11 -61 0
13 7 9 17 8 11 -62 0
13 7 9 17 8 11 -61 0
13 7 9 8 14 11 -62 0
13 7 9 8 14 11 -61 0
13 7 17 8 14 11 -62 0
13 7 17 8 14 11 -61 0
13 28 15 27 17 29 -80 0
13 28 15 27 17 29 -81 0
13 28 15 27 17 14 -80 0
13 28 15 27 17 14 -81 0
13 28 15 27 29 26 -80 0
13 28 15 27 29 26 -81 0
13 28 15 27 14 26 -80 0
13 28 15 27 14 26 -81 0
13 28 15 17 29 14 -80 0
13 28 15 17 29 14 -81 0
13 28 15 17 14 26 -80 0
13 28 15 17 14 26 -81 0
13 28 27 17 29 26 -80 0
13 28 27 17 29 26 -81 0
13 28 27 29 14 26 -80 0
13 28 27 29 14 26 -81 0
13 28 17 29 14 26 -80 0
13 28 17 29 14 26 -81 0
13 42 15 44 17 43 -86 0
13 42 15 44 17 43 -87 0
13 42 15 44 17 14 -86 0
13 42 15 44 17 14 -87 0
13 42 15 44 43 47 -86 0
13 42 15 44 43 47 -87 0
13 42 15 44 14 47 -86 0
13 42 15 44 14 47 -87 0
13 42 15 17 43 14 -86 0
13 42 15 17 43 14 -87 0
13 42 15 17 14 47 -86 0
13 42 15 17 14 47 -87 0
13 42 44 17 43 47 -86 0
13 42 44 17 43 47 -87 0
13 42 44 43 14 47 -86 0
13 42 44 43 14 47 -87 0
13 42 17 43 14 47 -86 0
13 42 17 43 14 47 -87 0
13 31 15 30 17 34 -83 0
13 31 15 30 17 34 -82 0
13 31 15 30 17 14 -83 0
13 31 15 30 17 14 -82 0
13 31 15 30 34 35 -83 0
13 31 15 30 34 35 -82 0
13 31 15 30 14 35 -83 0
13 31 15 30 14 35 -82 0
13 31 15 17 34 14 -83 0
13 31 15 17 34 14 -82 0
13 31 15 17 14 35 -83 0
13 31 15 17 14 35 -82 0
13 31 30 17 34 35 -83 0
13 31 30 17 34 35 -82 0
13 31 30 34 14 35 -83 0
13 31 30 34 14 35 -82 0
13 31 17 34 14 35 -83 0
13 31 17 34 14 35 -82 0
13 19 15 21 17 20 -79 0
13 19 15 21 17 20 -78 0
13 19 15 21 17 14 -79 0
13 19 15 21 17 14 -78 0
13 19 15 21 20 23 -79 0
13 19 15 21 20 23 -78 0
13 19 15 21 14 23 -79 0
13 19 15 21 14 23 -78 0
13 19 15 17 20 14 -79 0
13 19 15 17 20 14 -78 0
13 19 15 17 14 23 -79 0
13 19 15 17 14 23 -78 0
13 19 21 17 20 23 -79 0
13 19 21 17 20 23 -78 0
13 19 21 20 14 23 -79 0
13 19 21 20 14 23 -78 0
13 19 17 20 14 23 -79 0
13 19 17 20 14 23 -78 0
13 15 2 17 1 14 -12 0
13 15 2 17 1 14 -16 0
13 15 2 17 14 5 -12 0
13 15 2 17 14 5 -16 0
13 15 52 17 50 14 -88 0
13 15 52 17 50 14 -89 0
13 15 52 17 14 49 -88 0
13 15 52 17 14 49 -89 0
13 15 37 17 36 14 -85 0
13 15 37 17 36 14 -84 0
13 15 37 17 14 41 -85 0
13 15 37 17 14 41 -84 0
13 15 56 17 59 14 -91 0
13 15 56 17 59 14 -90 0
13 15 56 17 14 54 -91 0
13 15 56 17 14 54 -90 0
13 15 9 17 8 14 -62 0
13 15 9 17 8 14 -61 0
13 15 9 17 14 11 -62 0
13 15 9 17 14 11 -61 0
13 15 27 17 29 14 -80 0
13 15 27 17 29 14 -81 0
13 15 27 17 14 26 -80 0
13 15 27 17 14 26 -81 0
13 15 44 17 43 14 -86 0
13 15 44 17 43 14 -87 0
13 15 44 17 14 47 -86 0
13 15 44 17 14 47 -87 0
13 15 30 17 34 14 -83 0
13 15 30 17 34 14 -82 0
13 15 30 17 14 35 -83 0
13 15 30 17 14 35 -82 0
13 15 21 17 20 14 -79 0
13 15 21 17 20 14 -78 0
13 15 21 17 14 23 -79 0
13 15 21 17 14 23 -78 0
13 15 17 1 14 5 -12 0
13 15 17 1 14 5 -16 0
13 15 17 50 14 49 -88 0
13 15 17 50 14 49 -89 0
13 15 17 36 14 41 -85 0
13 15 17 36 14 41 -84 0
13 15 17 59 14 54 -91 0
13 15 17 59 14 54 -90 0
13 15 17 8 14 11 -62 0
13 15 17 8 14 11 -61 0
13 15 17 29 14 26 -80 0
13 15 17 29 14 26 -81 0
13 15 17 43 14 47 -86 0
13 15 17 43 14 47 -87 0
13 15 17 34 14 35 -83 0
13 15 17 34 14 35 -82 0
13 15 17 20 14 23 -79 0
13 15 17 20 14 23 -78 0
4 48 2 52 1 50 -53 0
4 48 2 52 1 50 -51 0
4 48 2 52 1 5 -53 0
4 48 2 52 1 5 -51 0
4 48 2 52 50 49 -53 0
4 48 2 52 50 49 -51 0
4 48 2 52 5 49 -53 0
4 48 2 52 5 49 -51 0
4 48 2 1 50 5 -53 0
4 48 2 1 50 5 -51 0
4 48 2 1 5 49 -53 0
4 48 2 1 5 49 -51 0
4 48 52 1 50 49 -53 0
4 48 52 1 50 49 -51 0
4 48 52 50 5 49 -53 0
4 48 52 50 5 49 -51 0
4 48 1 50 5 49 -53 0
4 48 1 50 5 49 -51 0
4 38 2 37 1 36 -40 0
4 38 2 37 1 36 -39 0
4 38 2 37 1 5 -40 0
4 38 2 37 1 5 -39 0
4 38 2 37 36 41 -40 0
4 38 2 37 36 41 -39 0
4 38 2 37 5 41 -40 0
4 38 2 37 5 41 -39 0
4 38 2 1 36 5 -40 0
4 38 2 1 36 5 -39 0
4 38 2 1 5 41 -40 0
4 38 2 1 5 41 -39 0
4 38 37 1 36 41 -40 0
4 38 37 1 36 41 -39 0
4 38 37 36 5 41 -40 0
4 38 37 36 5 41 -39 0
4 38 1 36 5 41 -40 0
4 38 1 36 5 41 -39 0
4 55 2 56 1 59 -57 0
4 55 2 56 1 59 -58 0
4 55 2 56 1 5 -57 0
4 55 2 56 1 5 -58 0
4 55 2 56 59 54 -57 0
4 55 2 56 59 54 -58 0
4 55 2 56 5 54 -57 0
4 55 2 56 5 54 -58 0
4 55 2 1 59 5 -57 0
4 55 2 1 59 5 -58 0
4 55 2 1 5 54 -57 0
4 55 2 1 5 54 -58 0
4 55 56 1 59 54 -57 0
4 55 56 1 59 54 -58 0
4 55 56 59 5 54 -57 0
4 55 56 59 5 54 -58 0
4 55 1 59 5 54 -57 0
4 55 1 59 5 54 -58 0
4 7 2 9 1 8 -10 0
4 7 2 9 1 8 -6 0
4 7 2 9 1 5 -10 0
4 7 2 9 1 5 -6 0
4 7 2 9 8 11 -10 0
4 7 2 9 8 11 -6 0
4 7 2 9 5 11 -10 0
4 7 2 9 5 11 -6 0
4 7 2 1 8 5 -10 0
4 7 2 1 8 5 -6 0
4 7 2 1 5 11 -10 0
4 7 2 1 5 11 -6 0
4 7 9 1 8 11 -10 0
4 7 9 1 8 11 -6 0
4 7 9 8 5 11 -10 0
4 7 9 8 5 11 -6 0
4 7 1 8 5 11 -10 0
4 7 1 8 5 11 -6 0
4 28 2 27 1 29 -24 0
4 28 2 27 1 29 -25 0
4 28 2 27 1 5 -24 0
4 28 2 27 1 5 -25 0
4 28 2 27 29 26 -24 0
4 28 2 27 29 26 -25 0
4 28 2 27 5 26 -24 0
4 28 2 27 5 26 -25 0
4 28 2 1 29 5 -24 0
4 28 2 1 29 5 -25 0
4 28 2 1 5 26 -24 0
4 28 2 1 5 26 -25 0
4 28 27 1 29 26 -24 0
4 28 27 1 29 26 -25 0
4 28 27 29 5 26 -24 0
4 28 27 29 5 26 -25 0
4 28 1 29 5 26 -24 0
4 28 1 29 5 26 -25 0
4 42 2 44 1 43 -45 0
4 42 2 44 1 43 -46 0
4 42 2 44 1 5 -45 0
4 42 2 44 1 5 -46 0
4 42 2 44 43 47 -45 0
4 42 2 44 43 47 -46 0
4 42 2 44 5 47 -45 0
4 42 2 44 5 47 -46 0
4 42 2 1 43 5 -45 0
4 42 2 1 43 5 -46 0
4 42 2 1 5 47 -45 0
4 42 2 1 5 47 -46 0
4 42 44 1 43 47 -45 0
4 42 44 1 43 47 -46 0
4 42 44 43 5 47 -45 0
4 42 44 43 5 47 -46 0
4 42 1 43 5 47 -45 0
4 42 1 43 5 47 -46 0
4 31 2 30 1 34 -33 0
4 31 2 30 1 34 -32 0
4 31 2 30 1 5 -33 0
4 31 2 30 1 5 -32 0
4 31 2 30 34 35 -33 0
4 31 2 30 34 35 -32 0
4 31 2 30 5 35 -33 0
4 31 2 30 5 35 -32 0
4 31 2 1 34 5 -33 0
4 31 2 1 34 5 -32 0
4 31 2 1 5 35 -33 0
4 31 2 1 5 35 -32 0
4 31 30 1 34 35 -33 0
4 31 30 1 34 35 -32 0
4 31 30 34 5 35 -33 0
4 31 30 34 5 35 -32 0
4 31 1 34 5 35 -33 0
4 31 1 34 5 35 -32 0
4 19 2 21 1 20 -22 0
4 19 2 21 1 20 -18 0
4 19 2 21 1 5 -22 0
4 19 2 21 1 5 -18 0
4 19 2 21 20 23 -22 0
4 19 2 21 20 23 -18 0
4 19 2 21 5 23 -22 0
4 19 2 21 5 23 -18 0
4 19 2 1 20 5 -22 0
4 19 2 1 20 5 -18 0
4 19 2 1 5 23 -22 0
4 19 2 1 5 23 -18 0
4 19 21 1 20 23 -22 0
4 19 21 1 20 23 -18 0
4 19 21 20 5 23 -22 0
4 19 21 20 5 23 -18 0
4 19 1 20 5 23 -22 0
4 19 1 20 5 23 -18 0
4 15 2 17 1 5 -12 0
4 15 2 17 1 5 -16 0
4 15 2 1 14 5 -12 0
4 15 2 1 14 5 -16 0
4 2 52 1 50 5 -53 0
4 2 52 1 50 5 -51 0
4 2 52 1 5 49 -53 0
4 2 52 1 5 49 -51 0
4 2 37 1 36 5 -40 0
4 2 37 1 36 5 -39 0
4 2 37 1 5 41 -40 0
4 2 37 1 5 41 -39 0
4 2 56 1 59 5 -57 0
4 2 56 1 59 5 -58 0
4 2 56 1 5 54 -57 0
4 2 56 1 5 54 -58 0
4 2 9 1 8 5 -10 0
4 2 9 1 8 5 -6 0
4 2 9 1 5 11 -10 0
4 2 9 1 5 11 -6 0
4 2 27 1 29 5 -24 0
4 2 27 1 29 5 -25 0
4 2 27 1 5 26 -24 0
4 2 27 1 5 26 -25 0
4 2 44 1 43 5 -45 0
4 2 44 1 43 5 -46 0
4 2 44 1 5 47 -45 0
4 2 44 1 5 47 -46 0
4 2 30 1 34 5 -33 0
4 2 30 1 34 5 -32 0
4 2 30 1 5 35 -33 0
4 2 30 1 5 35 -32 0
4 2 21 1 20 5 -22 0
4 2 21 1 20 5 -18 0
4 2 21 1 5 23 -22 0
4 2 21 1 5 23 -18 0
4 2 17 1 14 5 -12 0
4 2 17 1 14 5 -16 0
4 2 1 50 5 49 -53 0
4 2 1 50 5 49 -51 0
4 2 1 36 5 41 -40 0
4 2 1 36 5 41 -39 0
4 2 1 59 5 54 -57 0
4 2 1 59 5 54 -58 0
4 2 1 8 5 11 -10 0
4 2 1 8 5 11 -6 0
4 2 1 29 5 26 -24 0
4 2 1 29 5 26 -25 0
4 2 1 43 5 47 -45 0
4 2 1 43 5 47 -46 0
4 2 1 34 5 35 -33 0
4 2 1 34 5 35 -32 0
4 2 1 20 5 23 -22 0
4 2 1 20 5 23 -18 0
48 38 52 37 50 36 -128 0
48 38 52 37 50 36 -129 0
48 38 52 37 50 49 -128 0
48 38 52 37 50 49 -129 0
48 38 52 37 36 41 -128 0
48 38 52 37 36 41 -129 0
48 38 52 37 49 41 -128 0
48 38 52 37 49 41 -129 0
48 38 52 50 36 49 -128 0
48 38 52 50 36 49 -129 0
48 38 52 50 49 41 -128 0
48 38 52 50 49 41 -129 0
48 38 37 50 36 41 -128 0
48 38 37 50 36 41 -129 0
48 38 37 36 49 41 -128 0
48 38 37 36 49 41 -129 0
48 38 50 36 49 41 -128 0
48 38 50 36 49 41 -129 0
48 55 52 56 50 59 -139 0
48 55 52 56 50 59 -138 0
48 55 52 56 50 49 -139 0
48 55 52 56 50 49 -138 0
48 55 52 56 59 54 -139 0
48 55 52 56 59 54 -138 0
48 55 52 56 49 54 -139 0
48 55 52 56 49 54 -138 0
48 55 52 50 59 49 -139 0
48 55 52 50 59 49 -138 0
48 55 52 50 49 54 -139 0
48 55 52 50 49 54 -138 0
48 55 56 50 59 54 -139 0
48 55 56 50 59 54 -138 0
48 55 56 59 49 54 -139 0
48 55 56 59 49 54 -138 0
48 55 50 59 49 54 -139 0
48 55 50 59 49 54 -138 0
48 7 52 9 50 8 -74 0
48 7 52 9 50 8 -73 0
48 7 52 9 50 49 -74 0
48 7 52 9 50 49 -73 0
48 7 52 9 8 11 -74 0
48 7 52 9 8 11 -73 0
48 7 52 9 49 11 -74 0
48 7 52 9 49 11 -73 0
48 7 52 50 8 49 -74 0
48 7 52 50 8 49 -73 0
48 7 52 50 49 11 -74 0
48 7 52 50 49 11 -73 0
48 7 9 50 8 11 -74 0
48 7 9 50 8 11 -73 0
48 7 9 8 49 11 -74 0
48 7 9 8 49 11 -73 0
48 7 50 8 49 11 -74 0
48 7 50 8 49 11 -73 0
48 28 52 27 50 29 -112 0
48 28 52 27 50 29 -113 0
48 28 52 27 50 49 -112 0
48 28 52 27 50 49 -113 0
48 28 52 27 29 26 -112 0
48 28 52 27 29 26 -113 0
48 28 52 27 49 26 -112 0
48 28 52 27 49 26 -113 0
48 28 52 50 29 49 -112 0
48 28 52 50 29 49 -113 0
48 28 52 50 49 26 -112 0
48 28 52 50 49 26 -113 0
48 28 27 50 29 26 -112 0
48 28 27 50 29 26 -113 0
48 28 27 29 49 26 -112 0
48 28 27 29 49 26 -113 0
48 28 50 29 49 26 -112 0
48 28 50 29 49 26 -113 0
48 42 52 44 50 43 -133 0
48 42 52 44 50 43 -134 0
48 42 52 44 50 49 -133 0
48 42 52 44 50 49 -134 0
48 42 52 44 43 47 -133 0
48 42 52 44 43 47 -134 0
48 42 52 44 49 47 -133 0
48 42 52 44 49 47 -134 0
48 42 52 50 43 49 -133 0
48 42 52 50 43 49 -134 0
48 42 52 50 49 47 -133 0
48 42 52 50 49 47 -134 0
48 42 44 50 43 47 -133 0
48 42 44 50 43 47 -134 0
48 42 44 43 49 47 -133 0
48 42 44 43 49 47 -134 0
48 42 50 43 49 47 -133 0
48 42 50 43 49 47 -134 0
48 31 52 30 50 34 -122 0
48 31 52 30 50 34 -121 0
48 31 52 30 50 49 -122 0
48 31 52 30 50 49 -121 0
48 31 52 30 34 35 -122 0
48 31 52 30 34 35 -121 0
48 31 52 30 49 35 -122 0
48 31 52 30 49 35 -121 0
48 31 52 50 34 49 -122 0
48 31 52 50 34 49 -121 0
48 31 52 50 49 35 -122 0
48 31 52 50 49 35 -121 0
48 31 30 50 34 35 -122 0
48 31 30 50 34 35 -121 0
48 31 30 34 49 35 -122 0
48 31 30 34 49 35 -121 0
48 31 50 34 49 35 -122 0
48 31 50 34 49 35 -121 0
48 19 52 21 50 20 -102 0
48 19 52 21 50 20 -101 0
48 19 52 21 50 49 -102 0
48 19 52 21 50 49 -101 0
48 19 52 21 20 23 -102 0
48 19 52 21 20 23 -101 0
48 19 52 21 49 23 -102 0
48 19 52 21 49 23 -101 0
48 19 52 50 20 49 -102 0
48 19 52 50 20 49 -101 0
48 19 52 50 49 23 -102 0
48 19 52 50 49 23 -101 0
48 19 21 50 20 23 -102 0
48 19 21 50 20 23 -101 0
48 19 21 20 49 23 -102 0
48 19 21 20 49 23 -101 0
48 19 50 20 49 23 -102 0
48 19 50 20 49 23 -101 0
48 15 52 17 50 49 -88 0
48 15 52 17 50 49 -89 0
48 15 52 50 14 49 -88 0
48 15 52 50 14 49 -89 0
48 2 52 1 50 49 -53 0
48 2 52 1 50 49 -51 0
48 2 52 50 5 49 -53 0
48 2 52 50 5 49 -51 0
48 52 37 50 36 49 -128 0
48 52 37 50 36 49 -129 0
48 52 37 50 49 41 -128 0
48 52 37 50 49 41 -129 0
48 52 56 50 59 49 -139 0
48 52 56 50 59 49 -138 0
48 52 56 50 49 54 -139 0
48 52 56 50 49 54 -138 0
48 52 9 50 8 49 -74 0
48 52 9 50 8 49 -73 0
48 52 9 50 49 11 -74 0
48 52 9 50 49 11 -73 0
48 52 27 50 29 49 -112 0
48 52 27 50 29 49 -113 0
48 52 27 50 49 26 -112 0
48 52 27 50 49 26 -113 0
48 52 44 50 43 49 -133 0
48 52 44 50 43 49 -134 0
48 52 44 50 49 47 -133 0
48 52 44 50 49 47 -134 0
48 52 30 50 34 49 -122 0
48 52 30 50 34 49 -121 0
48 52 30 50 49 35 -122 0
48 52 30 50 49 35 -121 0
48 52 21 50 20 49 -102 0
48 52 21 50 20 49 -101 0
48 52 21 50 49 23 -102 0
48 52 21 50 49 23 -101 0
48 52 17 50 14 49 -88 0
48 52 17 50 14 49 -89 0
48 52 1 50 5 49 -53 0
48 52 1 50 5 49 -51 0
48 52 50 36 49 41 -128 0
48 52 50 36 49 41 -129 0
48 52 50 59 49 54 -139 0
48 52 50 59 49 54 -138 0
48 52 50 8 49 11 -74 0
48 52 50 8 49 11 -73 0
48 52 50 29 49 26 -112 0
48 52 50 29 49 26 -113 0
48 52 50 43 49 47 -133 0
48 52 50 43 49 47 -134 0
48 52 50 34 49 35 -122 0
48 52 50 34 49 35 -121 0
48 52 50 20 49 23 -102 0
48 52 50 20 49 23 -101 0
38 55 37 56 36 59 -130 0
38 55 37 56 36 59 -131 0
38 55 37 56 36 41 -130 0
38 55 37 56 36 41 -131 0
38 55 37 56 59 54 -130 0
38 55 37 56 59 54 -131 0
38 55 37 56 41 54 -130 0
38 55 37 56 41 54 -131 0
38 55 37 36 59 41 -130 0
38 55 37 36 59 41 -131 0
38 55 37 36 41 54 -130 0
38 55 37 36 41 54 -131 0
38 55 56 36 59 54 -130 0
38 55 56 36 59 54 -131 0
38 55 56 59 41 54 -130 0
38 55 56 59 41 54 -131 0
38 55 36 59 41 54 -130 0
38 55 36 59 41 54 -131 0
38 7 37 9 36 8 -69 0
38 7 37 9 36 8 -70 0
38 7 37 9 36 41 -69 0
38 7 37 9 36 41 -70 0
38 7 37 9 8 11 -69 0
38 7 37 9 8 11 -70 0
38 7 37 9 41 11 -69 0
38 7 37 9 41 11 -70 0
38 7 37 36 8 41 -69 0
38 7 37 36 8 41 -70 0
38 7 37 36 41 11 -69 0
38 7 37 36 41 11 -70 0
38 7 9 36 8 11 -69 0
38 7 9 36 8 11 -70 0
38 7 9 8 41 11 -69 0
38 7 9 8 41 11 -70 0
38 7 36 8 41 11 -69 0
38 7 36 8 41 11 -70 0
38 28 37 27 36 29 -109 0
38 28 37 27 36 29 -108 0
38 28 37 27 36 41 -109 0
38 28 37 27 36 41 -108 0
38 28 37 27 29 26 -109 0
38 28 37 27 29 26 -108 0
38 28 37 27 41 26 -109 0
38 28 37 27 41 26 -108 0
38 28 37 36 29 41 -109 0
38 28 37 36 29 41 -108 0
38 28 37 36 41 26 -109 0
38 28 37 36 41 26 -108 0
38 28 27 36 29 26 -109 0
38 28 27 36 29 26 -108 0
38 28 27 29 41 26 -109 0
38 28 27 29 41 26 -108 0
38 28 36 29 41 26 -109 0
38 28 36 29 41 26 -108 0
38 42 37 44 36 43 -126 0
38 42 37 44 36 43 -127 0
38 42 37 44 36 41 -126 0
38 42 37 44 36 41 -127 0
38 42 37 44 43 47 -126 0
38 42 37 44 43 47 -127 0
38 42 37 44 41 47 -126 0
38 42 37 44 41 47 -127 0
38 42 37 36 43 41 -126 0
38 42 37 36 43 41 -127 0
38 42 37 36 41 47 -126 0
38 42 37 36 41 47 -127 0
38 42 44 36 43 47 -126 0
38 42 44 36 43 47 -127 0
38 42 44 43 41 47 -126 0
38 42 44 43 41 47 -127 0
38 42 36 43 41 47 -126 0
38 42 36 43 41 47 -127 0
38 31 37 30 36 34 -118 0
38 31 37 30 36 34 -117 0
38 31 37 30 36 41 -118 0
38 31 37 30 36 41 -117 0
38 31 37 30 34 35 -118 0
38 31 37 30 34 35 -117 0
38 31 37 30 41 35 -118 0
38 31 37 30 41 35 -117 0
38 31 37 36 34 41 -118 0
38 31 37 36 34 41 -117 0
38 31 37 36 41 35 -118 0
38 31 37 36 41 35 -117 0
38 31 30 36 34 35 -118 0
38 31 30 36 34 35 -117 0
38 31 30 34 41 35 -118 0
38 31 30 34 41 35 -117 0
38 31 36 34 41 35 -118 0
38 31 36 34 41 35 -117 0
38 19 37 21 36 20 -97 0
38 19 37 21 36 20 -98 0
38 19 37 21 36 41 -97 0
38 19 37 21 36 41 -98 0
38 19 37 21 20 23 -97 0
38 19 37 21 20 23 -98 0
38 19 37 21 41 23 -97 0
38 19 37 21 41 23 -98 0
38 19 37 36 20 41 -97 0
38 19 37 36 20 41 -98 0
38 19 37 36 41 23 -97 0
38 19 37 36 41 23 -98 0
38 19 21 36 20 23 -97 0
38 19 21 36 20 23 -98 0
38 19 21 20 41 23 -97 0
38 19 21 20 41 23 -98 0
38 19 36 20 41 23 -97 0
38 19 36 20 41 23 -98 0
38 15 37 17 36 41 -85 0
38 15 37 17 36 41 -84 0
38 15 37 36 14 41 -85 0
38 15 37 36 14 41 -84 0
38 2 37 1 36 41 -40 0
38 2 37 1 36 41 -39 0
38 2 37 36 5 41 -40 0
38 2 37 36 5 41 -39 0
38 52 37 50 36 41 -128 0
38 52 37 50 36 41 -129 0
38 52 37 36 49 41 -128 0
38 52 37 36 49 41 -129 0
38 37 56 36 59 41 -130 0
38 37 56 36 59 41 -131 0
38 37 56 36 41 54 -130 0
38 37 56 36 41 54 -131 0
38 37 9 36 8 41 -69 0
38 37 9 36 8 41 -70 0
38 37 9 36 41 11 -69 0
38 37 9 36 41 11 -70 0
38 37 27 36 29 41 -109 0
38 37 27 36 29 41 -108 0
38 37 27 36 41 26 -109 0
38 37 27 36 41 26 -108 0
38 37 44 36 43 41 -126 0
38 37 44 36 43 41 -127 0
38 37 44 36 41 47 -126 0
38 37 44 36 41 47 -127 0
38 37 30 36 34 41 -118 0
38 37 30 36 34 41 -117 0
38 37 30 36 41 35 -118 0
38 37 30 36 41 35 -117 0
38 37 21 36 20 41 -97 0
38 37 21 36 20 41 -98 0
38 37 21 36 41 23 -97 0
38 37 21 36 41 23 -98 0
38 37 17 36 14 41 -85 0
38 37 17 36 14 41 -84 0
38 37 1 36 5 41 -40 0
38 37 1 36 5 41 -39 0
38 37 50 36 49 41 -128 0
38 37 50 36 49 41 -129 0
38 37 36 59 41 54 -130 0
38 37 36 59 41 54 -131 0
38 37 36 8 41 11 -69 0
38 37 36 8 41 11 -70 0
38 37 36 29 41 26 -109 0
38 37 36 29 41 26 -108 0
38 37 36 43 41 47 -126 0
38 37 36 43 41 47 -127 0
38 37 36 34 41 35 -118 0
38 37 36 34 41 35 -117 0
38 37 36 20 41 23 -97 0
38 37 36 20 41 23 -98 0
55 7 56 9 59 8 -75 0
55 7 56 9 59 8 -76 0
55 7 56 9 59 54 -75 0
55 7 56 9 59 54 -76 0
55 7 56 9 8 11 -75 0
55 7 56 9 8 11 -76 0
55 7 56 9 54 11 -75 0
55 7 56 9 54 11 -76 0
55 7 56 59 8 54 -75 0
55 7 56 59 8 54 -76 0
55 7 56 59 54 11 -75 0
55 7 56 59 54 11 -76 0
55 7 9 59 8 11 -75 0
55 7 9 59 8 11 -76 0
55 7 9 8 54 11 -75 0
55 7 9 8 54 11 -76 0
55 7 59 8 54 11 -75 0
55 7 59 8 54 11 -76 0
55 28 56 27 59 29 -115 0
55 28 56 27 59 29 -114 0
55 28 56 27 59 54 -115 0
55 28 56 27 59 54 -114 0
55 28 56 27 29 26 -115 0
55 28 56 27 29 26 -114 0
55 28 56 27 54 26 -115 0
55 28 56 27 54 26 -114 0
55 28 56 59 29 54 -115 0
55 28 56 59 29 54 -114 0
55 28 56 59 54 26 -115 0
55 28 56 59 54 26 -114 0
55 28 27 59 29 26 -115 0
55 28 27 59 29 26 -114 0
55 28 27 29 54 26 -115 0
55 28 27 29 54 26 -114 0
55 28 59 29 54 26 -115 0
55 28 59 29 54 26 -114 0
55 42 56 44 59 43 -136 0
55 42 56 44 59 43 -135 0
55 42 56 44 59 54 -136 0
55 42 56 44 59 54 -135 0
55 42 56 44 43 47 -136 0
55 42 56 44 43 47 -135 0
55 42 56 44 54 47 -136 0
55 42 56 44 54 47 -135 0
55 42 56 59 43 54 -136 0
55 42 56 59 43 54 -135 0
55 42 56 59 54 47 -136 0
55 42 56 59 54 47 -135 0
55 42 44 59 43 47 -136 0
55 42 44 59 43 47 -135 0
55 42 44 43 54 47 -136 0
55 42 44 43 54 47 -135 0
55 42 59 43 54 47 -136 0
55 42 59 43 54 47 -135 0
55 31 56 30 59 34 -124 0
55 31 56 30 59 34 -123 0
55 31 56 30 59 54 -124 0
55 31 56 30 59 54 -123 0
55 31 56 30 34 35 -124 0
55 31 56 30 34 35 -123 0
55 31 56 30 54 35 -124 0
55 31 56 30 54 35 -123 0
55 31 56 59 34 54 -124 0
55 31 56 59 34 54 -123 0
55 31 56 59 54 35 -124 0
55 31 56 59 54 35 -123 0
55 31 30 59 34 35 -124 0
55 31 30 59 34 35 -123 0
55 31 30 34 54 35 -124 0
55 31 30 34 54 35 -123 0
55 31 59 34 54 35 -124 0
55 31 59 34 54 35 -123 0
55 19 56 21 59 20 -103 0
55 19 56 21 59 20 -104 0
55 19 56 21 59 54 -103 0
55 19 56 21 59 54 -104 0
55 19 56 21 20 23 -103 0
55 19 56 21 20 23 -104 0
55 19 56 21 54 23 -103 0
55 19 56 21 54 23 -104 0
55 19 56 59 20 54 -103 0
55 19 56 59 20 54 -104 0
55 19 56 59 54 23 -103 0
55 19 56 59 54 23 -104 0
55 19 21 59 20 23 -103 0
55 19 21 59 20 23 -104 0
55 19 21 20 54 23 -103 0
55 19 21 20 54 23 -104 0
55 19 59 20 54 23 -103 0
55 19 59 20 54 23 -104 0
55 15 56 17 59 54 -91 0
55 15 56 17 59 54 -90 0
55 15 56 59 14 54 -91 0
55 15 56 59 14 54 -90 0
55 2 56 1 59 54 -57 0
55 2 56 1 59 54 -58 0
55 2 56 59 5 54 -57 0
55 2 56 59 5 54 -58 0
55 52 56 50 59 54 -139 0
55 52 56 50 59 54 -138 0
55 52 56 59 49 54 -139 0
55 52 56 59 49 54 -138 0
55 37 56 36 59 54 -130 0
55 37 56 36 59 54 -131 0
55 37 56 59 41 54 -130 0
55 37 56 59 41 54 -131 0
55 56 9 59 8 54 -75 0
55 56 9 59 8 54 -76 0
55 56 9 59 54 11 -75 0
55 56 9 59 54 11 -76 0
55 56 27 59 29 54 -115 0
55 56 27 59 29 54 -114 0
55 56 27 59 54 26 -115 0
55 56 27 59 54 26 -114 0
55 56 44 59 43 54 -136 0
55 56 44 59 43 54 -135 0
55 56 44 59 54 47 -136 0
55 56 44 59 54 47 -135 0
55 56 30 59 34 54 -124 0
55 56 30 59 34 54 -123 0
55 56 30 59 54 35 -124 0
55 56 30 59 54 35 -123 0
55 56 21 59 20 54 -103 0
55 56 21 59 20 54 -104 0
55 56 21 59 54 23 -103 0
55 56 21 59 54 23 -104 0
55 56 17 59 14 54 -91 0
55 56 17 59 14 54 -90 0
55 56 1 59 5 54 -57 0
55 56 1 59 5 54 -58 0
55 56 50 59 49 54 -139 0
55 56 50 59 49 54 -138 0
55 56 36 59 41 54 -130 0
55 56 36 59 41 54 -131 0
55 56 59 8 54 11 -75 0
55 56 59 8 54 11 -76 0
55 56 59 29 54 26 -115 0
55 56 59 29 54 26 -114 0
55 56 59 43 54 47 -136 0
55 56 59 43 54 47 -135 0
55 56 59 34 54 35 -124 0
55 56 59 34 54 35 -123 0
55 56 59 20 54 23 -103 0
55 56 59 20 54 23 -104 0
7 28 9 27 8 29 -66 0
7 28 9 27 8 29 -65 0
7 28 9 27 8 11 -66 0
7 28 9 27 8 11 -65 0
7 28 9 27 29 26 -66 0
7 28 9 27 29 26 -65 0
7 28 9 27 11 26 -66 0
7 28 9 27 11 26 -65 0
7 28 9 8 29 11 -66 0
7 28 9 8 29 11 -65 0
7 28 9 8 11 26 -66 0
7 28 9 8 11 26 -65 0
7 28 27 8 29 26 -66 0
7 28 27 8 29 26 -65 0
7 28 27 29 11 26 -66 0
7 28 27 29 11 26 -65 0
7 28 8 29 11 26 -66 0
7 28 8 29 11 26 -65 0
7 42 9 44 8 43 -71 0
7 42 9 44 8 43 -72 0
7 42 9 44 8 11 -71 0
7 42 9 44 8 11 -72 0
7 42 9 44 43 47 -71 0
7 42 9 44 43 47 -72 0
7 42 9 44 11 47 -71 0
7 42 9 44 11 47 -72 0
7 42 9 8 43 11 -71 0
7 42 9 8 43 11 -72 0
7 42 9 8 11 47 -71 0
7 42 9 8 11 47 -72 0
7 42 44 8 43 47 -71 0
7 42 44 8 43 47 -72 0
7 42 44 43 11 47 -71 0
7 42 44 43 11 47 -72 0
7 42 8 43 11 47 -71 0
7 42 8 43 11 47 -72 0
7 31 9 30 8 34 -67 0
7 31 9 30 8 34 -68 0
7 31 9 30 8 11 -67 0
7 31 9 30 8 11 -68 0
7 31 9 30 34 35 -67 0
7 31 9 30 34 35 -68 0
7 31 9 30 11 35 -67 0
7 31 9 30 11 35 -68 0
7 31 9 8 34 11 -67 0
7 31 9 8 34 11 -68 0
7 31 9 8 11 35 -67 0
7 31 9 8 11 35 -68 0
7 31 30 8 34 35 -67 0
7 31 30 8 34 35 -68 0
7 31 30 34 11 35 -67 0
7 31 30 34 11 35 -68 0
7 31 8 34 11 35 -67 0
7 31 8 34 11 35 -68 0
7 19 9 21 8 20 -64 0
7 19 9 21 8 20 -63 0
7 19 9 21 8 11 -64 0
7 19 9 21 8 11 -63 0
7 19 9 21 20 23 -64 0
7 19 9 21 20 23 -63 0
7 19 9 21 11 23 -64 0
7 19 9 21 11 23 -63 0
7 19 9 8 20 11 -64 0
7 19 9 8 20 11 -63 0
7 19 9 8 11 23 -64 0
7 19 9 8 11 23 -63 0
7 19 21 8 20 23 -64 0
7 19 21 8 20 23 -63 0
7 19 21 20 11 23 -64 0
7 19 21 20 11 23 -63 0
7 19 8 20 11 23 -64 0
7 19 8 20 11 23 -63 0
7 15 9 17 8 11 -62 0
7 15 9 17 8 11 -61 0
7 15 9 8 14 11 -62 0
7 15 9 8 14 11 -61 0
7 2 9 1 8 11 -10 0
7 2 9 1 8 11 -6 0
7 2 9 8 5 11 -10 0
7 2 9 8 5 11 -6 0
7 52 9 50 8 11 -74 0
7 52 9 50 8 11 -73 0
7 52 9 8 49 11 -74 0
7 52 9 8 49 11 -73 0
7 37 9 36 8 11 -69 0
7 37 9 36 8 11 -70 0
7 37 9 8 41 11 -69 0
7 37 9 8 41 11 -70 0
7 56 9 59 8 11 -75 0
7 56 9 59 8 11 -76 0
7 56 9 8 54 11 -75 0
7 56 9 8 54 11 -76 0
7 9 27 8 29 11 -66 0
7 9 27 8 29 11 -65 0
7 9 27 8 11 26 -66 0
7 9 27 8 11 26 -65 0
7 9 44 8 43 11 -71 0
7 9 44 8 43 11 -72 0
7 9 44 8 11 47 -71 0
7 9 44 8 11 47 -72 0
7 9 30 8 34 11 -67 0
7 9 30 8 34 11 -68 0
7 9 30 8 11 35 -67 0
7 9 30 8 11 35 -68 0
7 9 21 8 20 11 -64 0
7 9 21 8 20 11 -63 0
7 9 21 8 11 23 -64 0
7 9 21 8 11 23 -63 0
7 9 17 8 14 11 -62 0
7 9 17 8 14 11 -61 0
7 9 1 8 5 11 -10 0
7 9 1 8 5 11 -6 0
7 9 50 8 49 11 -74 0
7 9 50 8 49 11 -73 0
7 9 36 8 41 11 -69 0
7 9 36 8 41 11 -70 0
7 9 59 8 54 11 -75 0
7 9 59 8 54 11 -76 0
7 9 8 29 11 26 -66 0
7 9 8 29 11 26 -65 0
7 9 8 43 11 47 -71 0
7 9 8 43 11 47 -72 0
7 9 8 34 11 35 -67 0
7 9 8 34 11 35 -68 0
7 9 8 20 11 23 -64 0
7 9 8 20 11 23 -63 0
28 42 27 44 29 43 -110 0
28 42 27 44 29 43 -111 0
28 42 27 44 29 26 -110 0
28 42 27 44 29 26 -111 0
28 42 27 44 43 47 -110 0
28 42 27 44 43 47 -111 0
28 42 27 44 26 47 -110 0
28 42 27 44 26 47 -111 0
28 42 27 29 43 26 -110 0
28 42 27 29 43 26 -111 0
28 42 27 29 26 47 -110 0
28 42 27 29 26 47 -111 0
28 42 44 29 43 47 -110 0
28 42 44 29 43 47 -111 0
28 42 44 43 26 47 -110 0
28 42 44 43 26 47 -111 0
28 42 29 43 26 47 -110 0
28 42 29 43 26 47 -111 0
28 31 27 30 29 34 -107 0
28 31 27 30 29 34 -106 0
28 31 27 30 29 26 -107 0
28 31 27 30 29 26 -106 0
28 31 27 30 34 35 -107 0
28 31 27 30 34 35 -106 0
28 31 27 30 26 35 -107 0
28 31 27 30 26 35 -106 0
28 31 27 29 34 26 -107 0
28 31 27 29 34 26 -106 0
28 31 27 29 26 35 -107 0
28 31 27 29 26 35 -106 0
28 31 30 29 34 35 -107 0
28 31 30 29 34 35 -106 0
28 31 30 34 26 35 -107 0
28 31 30 34 26 35 -106 0
28 31 29 34 26 35 -107 0
28 31 29 34 26 35 -106 0
28 19 27 21 29 20 -94 0
28 19 27 21 29 20 -93 0
28 19 27 21 29 26 -94 0
28 19 27 21 29 26 -93 0
28 19 27 21 20 23 -94 0
28 19 27 21 20 23 -93 0
28 19 27 21 26 23 -94 0
28 19 27 21 26 23 -93 0
28 19 27 29 20 26 -94 0
28 19 27 29 20 26 -93 0
28 19 27 29 26 23 -94 0
28 19 27 29 26 23 -93 0
28 19 21 29 20 23 -94 0
28 19 21 29 20 23 -93 0
28 19 21 20 26 23 -94 0
28 19 21 20 26 23 -93 0
28 19 29 20 26 23 -94 0
28 19 29 20 26 23 -93 0
28 15 27 17 29 26 -80 0
28 15 27 17 29 26 -81 0
28 15 27 29 14 26 -80 0
28 15 27 29 14 26 -81 0
28 2 27 1 29 26 -24 0
28 2 27 1 29 26 -25 0
28 2 27 29 5 26 -24 0
28 2 27 29 5 26 -25 0
28 52 27 50 29 26 -112 0
28 52 27 50 29 26 -113 0
28 52 27 29 49 26 -112 0
28 52 27 29 49 26 -113 0
28 37 27 36 29 26 -109 0
28 37 27 36 29 26 -108 0
28 37 27 29 41 26 -109 0
28 37 27 29 41 26 -108 0
28 56 27 59 29 26 -115 0
28 56 27 59 29 26 -114 0
28 56 27 29 54 26 -115 0
28 56 27 29 54 26 -114 0
28 9 27 8 29 26 -66 0
28 9 27 8 29 26 -65 0
28 9 27 29 11 26 -66 0
28 9 27 29 11 26 -65 0
28 27 44 29 43 26 -110 0
28 27 44 29 43 26 -111 0
28 27 44 29 26 47 -110 0
28 27 44 29 26 47 -111 0
28 27 30 29 34 26 -107 0
28 27 30 29 34 26 -106 0
28 27 30 29 26 35 -107 0
28 27 30 29 26 35 -106 0
28 27 21 29 20 26 -94 0
28 27 21 29 20 26 -93 0
28 27 21 29 26 23 -94 0
28 27 21 29 26 23 -93 0
28 27 17 29 14 26 -80 0
28 27 17 29 14 26 -81 0
28 27 1 29 5 26 -24 0
28 27 1 29 5 26 -25 0
28 27 50 29 49 26 -112 0
28 27 50 29 49 26 -113 0
28 27 36 29 41 26 -109 0
28 27 36 29 41 26 -108 0
28 27 59 29 54 26 -115 0
28 27 59 29 54 26 -114 0
28 27 8 29 11 26 -66 0
28 27 8 29 11 26 -65 0
28 27 29 43 26 47 -110 0
28 27 29 43 26 47 -111 0
28 27 29 34 26 35 -107 0
28 27 29 34 26 35 -106 0
28 27 29 20 26 23 -94 0
28 27 29 20 26 23 -93 0
42 31 44 30 43 34 -120 0
42 31 44 30 43 34 -119 0
42 31 44 30 43 47 -120 0
42 31 44 30 43 47 -119 0
42 31 44 30 34 35 -120 0
42 31 44 30 34 35 -119 0
42 31 44 30 47 35 -120 0
42 31 44 30 47 35 -119 0
42 31 44 43 34 47 -120 0
42 31 44 43 34 47 -119 0
42 31 44 43 47 35 -120 0
42 31 44 43 47 35 -119 0
42 31 30 43 34 35 -120 0
42 31 30 43 34 35 -119 0
42 31 30 34 47 35 -120 0
42 31 30 34 47 35 -119 0
42 31 43 34 47 35 -120 0
42 31 43 34 47 35 -119 0
42 19 44 21 43 20 -100 0
42 19 44 21 43 20 -99 0
42 19 44 21 43 47 -100 0
42 19 44 21 43 47 -99 0
42 19 44 21 20 23 -100 0
42 19 44 21 20 23 -99 0
42 19 44 21 47 23 -100 0
42 19 44 21 47 23 -99 0
42 19 44 43 20 47 -100 0
42 19 44 43 20 47 -99 0
42 19 44 43 47 23 -100 0
42 19 44 43 47 23 -99 0
42 19 21 43 20 23 -100 0
42 19 21 43 20 23 -99 0
42 19 21 20 47 23 -100 0
42 19 21 20 47 23 -99 0
42 19 43 20 47 23 -100 0
42 19 43 20 47 23 -99 0
42 15 44 17 43 47 -86 0
42 15 44 17 43 47 -87 0
42 15 44 43 14 47 -86 0
42 15 44 43 14 47 -87 0
42 2 44 1 43 47 -45 0
42 2 44 1 43 47 -46 0
42 2 44 43 5 47 -45 0
42 2 44 43 5 47 -46 0
42 52 44 50 43 47 -133 0
42 52 44 50 43 47 -134 0
42 52 44 43 49 47 -133 0
42 52 44 43 49 47 -134 0
42 37 44 36 43 47 -126 0
42 37 44 36 43 47 -127 0
42 37 44 43 41 47 -126 0
42 37 44 43 41 47 -127 0
42 56 44 59 43 47 -136 0
42 56 44 59 43 47 -135 0
42 56 44 43 54 47 -136 0
42 56 44 43 54 47 -135 0
42 9 44 8 43 47 -71 0
42 9 44 8 43 47 -72 0
42 9 44 43 11 47 -71 0
42 9 44 43 11 47 -72 0
42 27 44 29 43 47 -110 0
42 27 44 29 43 47 -111 0
42 27 44 43 26 47 -110 0
42 27 44 43 26 47 -111 0
42 44 30 43 34 47 -120 0
42 44 30 43 34 47 -119 0
42 44 30 43 47 35 -120 0
42 44 30 43 47 35 -119 0
42 44 21 43 20 47 -100 0
42 44 21 43 20 47 -99 0
42 44 21 43 47 23 -100 0
42 44 21 43 47 23 -99 0
42 44 17 43 14 47 -86 0
42 44 17 43 14 47 -87 0
42 44 1 43 5 47 -45 0
42 44 1 43 5 47 -46 0
42 44 50 43 49 47 -133 0
42 44 50 43 49 47 -134 0
42 44 36 43 41 47 -126 0
42 44 36 43 41 47 -127 0
42 44 59 43 54 47 -136 0
42 44 59 43 54 47 -135 0
42 44 8 43 11 47 -71 0
42 44 8 43 11 47 -72 0
42 44 29 43 26 47 -110 0
42 44 29 43 26 47 -111 0
42 44 43 34 47 35 -120 0
42 44 43 34 47 35 -119 0
42 44 43 20 47 23 -100 0
42 44 43 20 47 23 -99 0
31 19 30 21 34 20 -96 0
31 19 30 21 34 20 -95 0
31 19 30 21 34 35 -96 0
31 19 30 21 34 35 -95 0
31 19 30 21 20 23 -96 0
31 19 30 21 20 23 -95 0
31 19 30 21 35 23 -96 0
31 19 30 21 35 23 -95 0
31 19 30 34 20 35 -96 0
31 19 30 34 20 35 -95 0
31 19 30 34 35 23 -96 0
31 19 30 34 35 23 -95 0
31 19 21 34 20 23 -96 0
31 19 21 34 20 23 -95 0
31 19 21 20 35 23 -96 0
31 19 21 20 35 23 -95 0
31 19 34 20 35 23 -96 0
31 19 34 20 35 23 -95 0
31 15 30 17 34 35 -83 0
31 15 30 17 34 35 -82 0
31 15 30 34 14 35 -83 0
31 15 30 34 14 35 -82 0
31 2 30 1 34 35 -33 0
31 2 30 1 34 35 -32 0
31 2 30 34 5 35 -33 0
31 2 30 34 5 35 -32 0
31 52 30 50 34 35 -122 0
31 52 30 50 34 35 -121 0
31 52 30 34 49 35 -122 0
31 52 30 34 49 35 -121 0
31 37 30 36 34 35 -118 0
31 37 30 36 34 35 -117 0
31 37 30 34 41 35 -118 0
31 37 30 34 41 35 -117 0
31 56 30 59 34 35 -124 0
31 56 30 59 34 35 -123 0
31 56 30 34 54 35 -124 0
31 56 30 34 54 35 -123 0
31 9 30 8 34 35 -67 0
31 9 30 8 34 35 -68 0
31 9 30 34 11 35 -67 0
31 9 30 34 11 35 -68 0
31 27 30 29 34 35 -107 0
31 27 30 29 34 35 -106 0
31 27 30 34 26 35 -107 0
31 27 30 34 26 35 -106 0
31 44 30 43 34 35 -120 0
31 44 30 43 34 35 -119 0
31 44 30 34 47 35 -120 0
31 44 30 34 47 35 -119 0
31 30 21 34 20 35 -96 0
31 30 21 34 20 35 -95 0
31 30 21 34 35 23 -96 0
31 30 21 34 35 23 -95 0
31 30 17 34 14 35 -83 0
31 30 17 34 14 35 -82 0
31 30 1 34 5 35 -33 0
31 30 1 34 5 35 -32 0
31 30 50 34 49 35 -122 0
31 30 50 34 49 35 -121 0
31 30 36 34 41 35 -118 0
31 30 36 34 41 35 -117 0
31 30 59 34 54 35 -124 0
31 30 59 34 54 35 -123 0
31 30 8 34 11 35 -67 0
31 30 8 34 11 35 -68 0
31 30 29 34 26 35 -107 0
31 30 29 34 26 35 -106 0
31 30 43 34 47 35 -120 0
31 30 43 34 47 35 -119 0
31 30 34 20 35 23 -96 0
31 30 34 20 35 23 -95 0
19 15 21 17 20 23 -79 0
19 15 21 17 20 23 -78 0
19 15 21 20 14 23 -79 0
19 15 21 20 14 23 -78 0
19 2 21 1 20 23 -22 0
19 2 21 1 20 23 -18 0
19 2 21 20 5 23 -22 0
19 2 21 20 5 23 -18 0
19 52 21 50 20 23 -102 0
19 52 21 50 20 23 -101 0
19 52 21 20 49 23 -102 0
19 52 21 20 49 23 -101 0
19 37 21 36 20 23 -97 0
19 37 21 36 20 23 -98 0
19 37 21 20 41 23 -97 0
19 37 21 20 41 23 -98 0
19 56 21 59 20 23 -103 0
19 56 21 59 20 23 -104 0
19 56 21 20 54 23 -103 0
19 56 21 20 54 23 -104 0
19 9 21 8 20 23 -64 0
19 9 21 8 20 23 -63 0
19 9 21 20 11 23 -64 0
19 9 21 20 11 23 -63 0
19 27 21 29 20 23 -94 0
19 27 21 29 20 23 -93 0
19 27 21 20 26 23 -94 0
19 27 21 20 26 23 -93 0
19 44 21 43 20 23 -100 0
19 44 21 43 20 23 -99 0
19 44 21 20 47 23 -100 0
19 44 21 20 47 23 -99 0
19 30 21 34 20 23 -96 0
19 30 21 34 20 23 -95 0
19 30 21 20 35 23 -96 0
19 30 21 20 35 23 -95 0
19 21 17 20 14 23 -79 0
19 21 17 20 14 23 -78 0
19 21 1 20 5 23 -22 0
19 21 1 20 5 23 -18 0
19 21 50 20 49 23 -102 0
19 21 50 20 49 23 -101 0
19 21 36 20 41 23 -97 0
19 21 36 20 41 23 -98 0
19 21 59 20 54 23 -103 0
19 21 59 20 54 23 -104 0
19 21 8 20 11 23 -64 0
19 21 8 20 11 23 -63 0
19 21 29 20 26 23 -94 0
19 21 29 20 26 23 -93 0
19 21 43 20 47 23 -100 0
19 21 43 20 47 23 -99 0
19 21 34 20 35 23 -96 0
19 21 34 20 35 23 -95 0
15 2 17 1 14 5 -12 0
15 2 17 1 14 5 -16 0
15 52 17 50 14 49 -88 0
15 52 17 50 14 49 -89 0
15 37 17 36 14 41 -85 0
15 37 17 36 14 41 -84 0
15 56 17 59 14 54 -91 0
15 56 17 59 14 54 -90 0
15 9 17 8 14 11 -62 0
15 9 17 8 14 11 -61 0
15 27 17 29 14 26 -80 0
15 27 17 29 14 26 -81 0
15 44 17 43 14 47 -86 0
15 44 17 43 14 47 -87 0
15 30 17 34 14 35 -83 0
15 30 17 34 14 35 -82 0
15 21 17 20 14 23 -79 0
15 21 17 20 14 23 -78 0
2 52 1 50 5 49 -53 0
2 52 1 50 5 49 -51 0
2 37 1 36 5 41 -40 0
2 37 1 36 5 41 -39 0
2 56 1 59 5 54 -57 0
2 56 1 59 5 54 -58 0
2 9 1 8 5 11 -10 0
2 9 1 8 5 11 -6 0
2 27 1 29 5 26 -24 0
2 27 1 29 5 26 -25 0
2 44 1 43 5 47 -45 0
2 44 1 43 5 47 -46 0
2 30 1 34 5 35 -33 0
2 30 1 34 5 35 -32 0
2 21 1 20 5 23 -22 0
2 21 1 20 5 23 -18 0
52 37 50 36 49 41 -128 0
52 37 50 36 49 41 -129 0
52 56 50 59 49 54 -139 0
52 56 50 59 49 54 -138 0
52 9 50 8 49 11 -74 0
52 9 50 8 49 11 -73 0
52 27 50 29 49 26 -112 0
52 27 50 29 49 26 -113 0
52 44 50 43 49 47 -133 0
52 44 50 43 49 47 -134 0
52 30 50 34 49 35 -122 0
52 30 50 34 49 35 -121 0
52 21 50 20 49 23 -102 0
52 21 50 20 49 23 -101 0
37 56 36 59 41 54 -130 0
37 56 36 59 41 54 -131 0
37 9 36 8 41 11 -69 0
37 9 36 8 41 11 -70 0
37 27 36 29 41 26 -109 0
37 27 36 29 41 26 -108 0
37 44 36 43 41 47 -126 0
37 44 36 43 41 47 -127 0
37 30 36 34 41 35 -118 0
37 30 36 34 41 35 -117 0
37 21 36 20 41 23 -97 0
37 21 36 20 41 23 -98 0
56 9 59 8 54 11 -75 0
56 9 59 8 54 11 -76 0
56 27 59 29 54 26 -115 0
56 27 59 29 54 26 -114 0
56 44 59 43 54 47 -136 0
56 44 59 43 54 47 -135 0
56 30 59 34 54 35 -124 0
56 30 59 34 54 35 -123 0
56 21 59 20 54 23 -103 0
56 21 59 20 54 23 -104 0
9 27 8 29 11 26 -66 0
9 27 8 29 11 26 -65 0
9 44 8 43 11 47 -71 0
9 44 8 43 11 47 -72 0
9 30 8 34 11 35 -67 0
9 30 8 34 11 35 -68 0
9 21 8 20 11 23 -64 0
9 21 8 20 11 23 -63 0
27 44 29 43 26 47 -110 0
27 44 29 43 26 47 -111 0
27 30 29 34 26 35 -107 0
27 30 29 34 26 35 -106 0
27 21 29 20 26 23 -94 0
27 21 29 20 26 23 -93 0
44 30 43 34 47 35 -120 0
44 30 43 34 47 35 -119 0
44 21 43 20 47 23 -100 0
44 21 43 20 47 23 -99 0
30 21 34 20 35 23 -96 0
30 21 34 20 35 23 -95 0
13 4 15 2 17 1 14 -12 0
13 4 15 2 17 1 14 -16 0
13 4 15 2 17 1 5 -12 0
13 4 15 2 17 1 5 -16 0
13 4 15 2 17 14 5 -12 0
13 4 15 2 17 14 5 -16 0
13 4 15 2 1 14 5 -12 0
13 4 15 2 1 14 5 -16 0
13 4 15 17 1 14 5 -12 0
13 4 15 17 1 14 5 -16 0
13 4 2 17 1 14 5 -12 0
13 4 2 17 1 14 5 -16 0
13 48 15 52 17 50 14 -88 0
13 48 15 52 17 50 14 -89 0
13 48 15 52 17 50 49 -88 0
13 48 15 52 17 50 49 -89 0
13 48 15 52 17 14 49 -88 0
13 48 15 52 17 14 49 -89 0
13 48 15 52 50 14 49 -88 0
13 48 15 52 50 14 49 -89 0
13 48 15 17 50 14 49 -88 0
13 48 15 17 50 14 49 -89 0
13 48 52 17 50 14 49 -88 0
13 48 52 17 50 14 49 -89 0
13 38 15 37 17 36 14 -85 0
13 38 15 37 17 36 14 -84 0
13 38 15 37 17 36 41 -85 0
13 38 15 37 17 36 41 -84 0
13 38 15 37 17 14 41 -85 0
13 38 15 37 17 14 41 -84 0
13 38 15 37 36 14 41 -85 0
13 38 15 37 36 14 41 -84 0
13 38 15 17 36 14 41 -85 0
13 38 15 17 36 14 41 -84 0
13 38 37 17 36 14 41 -85 0
13 38 37 17 36 14 41 -84 0
13 55 15 56 17 59 14 -91 0
13 55 15 56 17 59 14 -90 0
13 55 15 56 17 59 54 -91 0
13 55 15 56 17 59 54 -90 0
13 55 15 56 17 14 54 -91 0
13 55 15 56 17 14 54 -90 0
13 55 15 56 59 14 54 -91 0
13 55 15 56 59 14 54 -90 0
13 55 15 17 59 14 54 -91 0
13 55 15 17 59 14 54 -90 0
13 55 56 17 59 14 54 -91 0
13 55 56 17 59 14 54 -90 0
13 7 15 9 17 8 14 -62 0
13 7 15 9 17 8 14 -61 0
13 7 15 9 17 8 11 -62 0
13 7 15 9 17 8 11 -61 0
13 7 15 9 17 14 11 -62 0
13 7 15 9 17 14 11 -61 0
13 7 15 9 8 14 11 -62 0
13 7 15 9 8 14 11 -61 0
13 7 15 17 8 14 11 -62 0
13 7 15 17 8 14 11 -61 0
13 7 9 17 8 14 11 -62 0
13 7 9 17 8 14 11 -61 0
13 28 15 27 17 29 14 -80 0
13 28 15 27 17 29 14 -81 0
13 28 15 27 17 29 26 -80 0
13 28 15 27 17 29 26 -81 0
13 28 15 27 17 14 26 -80 0
13 28 15 27 17 14 26 -81 0
13 28 15 27 29 14 26 -80 0
13 28 15 27 29 14 26 -81 0
13 28 15 17 29 14 26 -80 0
13 28 15 17 29 14 26 -81 0
13 28 27 17 29 14 26 -80 0
13 28 27 17 29 14 26 -81 0
13 42 15 44 17 43 14 -86 0
13 42 15 44 17 43 14 -87 0
13 42 15 44 17 43 47 -86 0
13 42 15 44 17 43 47 -87 0
13 42 15 44 17 14 47 -86 0
13 42 15 44 17 14 47 -87 0
13 42 15 44 43 14 47 -86 0
13 42 15 44 43 14 47 -87 0
13 42 15 17 43 14 47 -86 0
13 42 15 17 43 14 47 -87 0
13 42 44 17 43 14 47 -86 0
13 42 44 17 43 14 47 -87 0
13 31 15 30 17 34 14 -83 0
13 31 15 30 17 34 14 -82 0
13 31 15 30 17 34 35 -83 0
13 31 15 30 17 34 35 -82 0
13 31 15 30 17 14 35 -83 0
13 31 15 30 17 14 35 -82 0
13 31 15 30 34 14 35 -83 0
13 31 15 30 34 14 35 -82 0
13 31 15 17 34 14 35 -83 0
13 31 15 17 34 14 35 -82 0
13 31 30 17 34 14 35 -83 0
13 31 30 17 34 14 35 -82 0
13 19 15 21 17 20 14 -79 0
13 19 15 21 17 20 14 -78 0
13 19 15 21 17 20 23 -79 0
13 19 15 21 17 20 23 -78 0
13 19 15 21 17 14 23 -79 0
13 19 15 21 17 14 23 -78 0
13 19 15 21 20 14 23 -79 0
13 19 15 21 20 14 23 -78 0
13 19 15 17 20 14 23 -79 0
13 19 15 17 20 14 23 -78 0
13 19 21 17 20 14 23 -79 0
13 19 21 17 20 14 23 -78 0
13 15 2 17 1 14 5 -12 0
13 15 2 17 1 14 5 -16 0
13 15 52 17 50 14 49 -88 0
13 15 52 17 50 14 49 -89 0
13 15 37 17 36 14 41 -85 0
13 15 37 17 36 14 41 -84 0
13 15 56 17 59 14 54 -91 0
13 15 56 17 59 14 54 -90 0
13 15 9 17 8 14 11 -62 0
13 15 9 17 8 14 11 -61 0
13 15 27 17 29 14 26 -80 0
13 15 27 17 29 14 26 -81 0
13 15 44 17 43 14 47 -86 0
13 15 44 17 43 14 47 -87 0
13 15 30 17 34 14 35 -83 0
13 15 30 17 34 14 35 -82 0
13 15 21 17 20 14 23 -79 0
13 15 21 17 20 14 23 -78 0
4 48 2 52 1 50 5 -53 0
4 48 2 52 1 50 5 -51 0
4 48 2 52 1 50 49 -53 0
4 48 2 52 1 50 49 -51 0
4 48 2 52 1 5 49 -53 0
4 48 2 52 1 5 49 -51 0
4 48 2 52 50 5 49 -53 0
4 48 2 52 50 5 49 -51 0
4 48 2 1 50 5 49 -53 0
4 48 2 1 50 5 49 -51 0
4 48 52 1 50 5 49 -53 0
4 48 52 1 50 5 49 -51 0
4 38 2 37 1 36 5 -40 0
4 38 2 37 1 36 5 -39 0
4 38 2 37 1 36 41 -40 0
4 38 2 37 1 36 41 -39 0
4 38 2 37 1 5 41 -40 0
4 38 2 37 1 5 41 -39 0
4 38 2 37 36 5 41 -40 0
4 38 2 37 36 5 41 -39 0
4 38 2 1 36 5 41 -40 0
4 38 2 1 36 5 41 -39 0
4 38 37 1 36 5 41 -40 0
4 38 37 1 36 5 41 -39 0
4 55 2 56 1 59 5 -57 0
4 55 2 56 1 59 5 -58 0
4 55 2 56 1 59 54 -57 0
4 55 2 56 1 59 54 -58 0
4 55 2 56 1 5 54 -57 0
4 55 2 56 1 5 54 -58 0
4 55 2 56 59 5 54 -57 0
4 55 2 56 59 5 54 -58 0
4 55 2 1 59 5 54 -57 0
4 55 2 1 59 5 54 -58 0
4 55 56 1 59 5 54 -57 0
4 55 56 1 59 5 54 -58 0
4 7 2 9 1 8 5 -10 0
4 7 2 9 1 8 5 -6 0
4 7 2 9 1 8 11 -10 0
4 7 2 9 1 8 11 -6 0
4 7 2 9 1 5 11 -10 0
4 7 2 9 1 5 11 -6 0
4 7 2 9 8 5 11 -10 0
4 7 2 9 8 5 11 -6 0
4 7 2 1 8 5 11 -10 0
4 7 2 1 8 5 11 -6 0
4 7 9 1 8 5 11 -10 0
4 7 9 1 8 5 11 -6 0
4 28 2 27 1 29 5 -24 0
4 28 2 27 1 29 5 -25 0
4 28 2 27 1 29 26 -24 0
4 28 2 27 1 29 26 -25 0
4 28 2 27 1 5 26 -24 0
4 28 2 27 1 5 26 -25 0
4 28 2 27 29 5 26 -24 0
4 28 2 27 29 5 26 -25 0
4 28 2 1 29 5 26 -24 0
4 28 2 1 29 5 26 -25 0
4 28 27 1 29 5 26 -24 0
4 28 27 1 29 5 26 -25 0
4 42 2 44 1 43 5 -45 0
4 42 2 44 1 43 5 -46 0
4 42 2 44 1 43 47 -45 0
4 42 2 44 1 43 47 -46 0
4 42 2 44 1 5 47 -45 0
4 42 2 44 1 5 47 -46 0
4 42 2 44 43 5 47 -45 0
4 42 2 44 43 5 47 -46 0
4 42 2 1 43 5 47 -45 0
4 42 2 1 43 5 47 -46 0
4 42 44 1 43 5 47 -45 0
4 42 44 1 43 5 47 -46 0
4 31 2 30 1 34 5 -33 0
4 31 2 30 1 34 5 -32 0
4 31 2 30 1 34 35 -33 0
4 31 2 30 1 34 35 -32 0
4 31 2 30 1 5 35 -33 0
4 31 2 30 1 5 35 -32 0
4 31 2 30 34 5 35 -33 0
4 31 2 30 34 5 35 -32 0
4 31 2 1 34 5 35 -33 0
4 31 2 1 34 5 35 -32 0
4 31 30 1 34 5 35 -33 0
4 31 30 1 34 5 35 -32 0
4 19 2 21 1 20 5 -22 0
4 19 2 21 1 20 5 -18 0
4 19 2 21 1 20 23 -22 0
4 19 2 21 1 20 23 -18 0
4 19 2 21 1 5 23 -22 0
4 19 2 21 1 5 23 -18 0
4 19 2 21 20 5 23 -22 0
4 19 2 21 20 5 23 -18 0
4 19 2 1 20 5 23 -22 0
4 19 2 1 20 5 23 -18 0
4 19 21 1 20 5 23 -22 0
4 19 21 1 20 5 23 -18 0
4 15 2 17 1 14 5 -12 0
4 15 2 17 1 14 5 -16 0
4 2 52 1 50 5 49 -53 0
4 2 52 1 50 5 49 -51 0
4 2 37 1 36 5 41 -40 0
4 2 37 1 36 5 41 -39 0
4 2 56 1 59 5 54 -57 0
4 2 56 1 59 5 54 -58 0
4 2 9 1 8 5 11 -10 0
4 2 9 1 8 5 11 -6 0
4 2 27 1 29 5 26 -24 0
4 2 27 1 29 5 26 -25 0
4 2 44 1 43 5 47 -45 0
4 2 44 1 43 5 47 -46 0
4 2 30 1 34 5 35 -33 0
4 2 30 1 34 5 35 -32 0
4 2 21 1 20 5 23 -22 0
4 2 21 1 20 5 23 -18 0
48 38 52 37 50 36 49 -128 0
48 38 52 37 50 36 49 -129 0
48 38 52 37 50 36 41 -128 0
48 38 52 37 50 36 41 -129 0
48 38 52 37 50 49 41 -128 0
48 38 52 37 50 49 41 -129 0
48 38 52 37 36 49 41 -128 0
48 38 52 37 36 49 41 -129 0
48 38 52 50 36 49 41 -128 0
48 38 52 50 36 49 41 -129 0
48 38 37 50 36 49 41 -128 0
48 38 37 50 36 49 41 -129 0
48 55 52 56 50 59 49 -139 0
48 55 52 56 50 59 49 -138 0
48 55 52 56 50 59 54 -139 0
48 55 52 56 50 59 54 -138 0
48 55 52 56 50 49 54 -139 0
48 55 52 56 50 49 54 -138 0
48 55 52 56 59 49 54 -139 0
48 55 52 56 59 49 54 -138 0
48 55 52 50 59 49 54 -139 0
48 55 52 50 59 49 54 -138 0
48 55 56 50 59 49 54 -139 0
48 55 56 50 59 49 54 -138 0
48 7 52 9 50 8 49 -74 0
48 7 52 9 50 8 49 -73 0
48 7 52 9 50 8 11 -74 0
48 7 52 9 50 8 11 -73 0
48 7 52 9 50 49 11 -74 0
48 7 52 9 50 49 11 -73 0
48 7 52 9 8 49 11 -74 0
48 7 52 9 8 49 11 -73 0
48 7 52 50 8 49 11 -74 0
48 7 52 50 8 49 11 -73 0
48 7 9 50 8 49 11 -74 0
48 7 9 50 8 49 11 -73 0
48 28 52 27 50 29 49 -112 0
48 28 52 27 50 29 49 -113 0
48 28 52 27 50 29 26 -112 0
48 28 52 27 50 29 26 -113 0
48 28 52 27 50 49 26 -112 0
48 28 52 27 50 49 26 -113 0
48 28 52 27 29 49 26 -112 0
48 28 52 27 29 49 26 -113 0
48 28 52 50 29 49 26 -112 0
48 28 52 50 29 49 26 -113 0
48 28 27 50 29 49 26 -112 0
48 28 27 50 29 49 26 -113 0
48 42 52 44 50 43 49 -133 0
48 42 52 44 50 43 49 -134 0
48 42 52 44 50 43 47 -133 0
48 42 52 44 50 43 47 -134 0
48 42 52 44 50 49 47 -133 0
48 42 52 44 50 49 47 -134 0
48 42 52 44 43 49 47 -133 0
48 42 52 44 43 49 47 -134 0
48 42 52 50 43 49 47 -133 0
48 42 52 50 43 49 47 -134 0
48 42 44 50 43 49 47 -133 0
48 42 44 50 43 49 47 -134 0
48 31 52 30 50 34 49 -122 0
48 31 52 30 50 34 49 -121 0
48 31 52 30 50 34 35 -122 0
48 31 52 30 50 34 35 -121 0
48 31 52 30 50 49 35 -122 0
48 31 52 30 50 49 35 -121 0
48 31 52 30 34 49 35 -122 0
48 31 52 30 34 49 35 -121 0
48 31 52 50 34 49 35 -122 0
48 31 52 50 34 49 35 -121 0
48 31 30 50 34 49 35 -122 0
48 31 30 50 34 49 35 -121 0
48 19 52 21 50 20 49 -102 0
48 19 52 21 50 20 49 -101 0
48 19 52 21 50 20 23 -102 0
48 19 52 21 50 20 23 -101 0
48 19 52 21 50 49 23 -102 0
48 19 52 21 50 49 23 -101 0
48 19 52 21 20 49 23 -102 0
48 19 52 21 20 49 23 -101 0
48 19 52 50 20 49 23 -102 0
48 19 52 50 20 49 23 -101 0
48 19 21 50 20 49 23 -102 0
48 19 21 50 20 49 23 -101 0
48 15 52 17 50 14 49 -88 0
48 15 52 17 50 14 49 -89 0
48 2 52 1 50 5 49 -53 0
48 2 52 1 50 5 49 -51 0
48 52 37 50 36 49 41 -128 0
48 52 37 50 36 49 41 -129 0
48 52 56 50 59 49 54 -139 0
48 52 56 50 59 49 54 -138 0
48 52 9 50 8 49 11 -74 0
48 52 9 50 8 49 11 -73 0
48 52 27 50 29 49 26 -112 0
48 52 27 50 29 49 26 -113 0
48 52 44 50 43 49 47 -133 0
48 52 44 50 43 49 47 -134 0
48 52 30 50 34 49 35 -122 0
48 52 30 50 34 49 35 -121 0
48 52 21 50 20 49 23 -102 0
48 52 21 50 20 49 23 -101 0
38 55 37 56 36 59 41 -130 0
38 55 37 56 36 59 41 -131 0
38 55 37 56 36 59 54 -130 0
38 55 37 56 36 59 54 -131 0
38 55 37 56 36 41 54 -130 0
38 55 37 56 36 41 54 -131 0
38 55 37 56 59 41 54 -130 0
38 55 37 56 59 41 54 -131 0
38 55 37 36 59 41 54 -130 0
38 55 37 36 59 41 54 -131 0
38 55 56 36 59 41 54 -130 0
38 55 56 36 59 41 54 -131 0
38 7 37 9 36 8 41 -69 0
38 7 37 9 36 8 41 -70 0
38 7 37 9 36 8 11 -69 0
38 7 37 9 36 8 11 -70 0
38 7 37 9 36 41 11 -69 0
38 7 37 9 36 41 11 -70 0
38 7 37 9 8 41 11 -69 0
38 7 37 9 8 41 11 -70 0
38 7 37 36 8 41 11 -69 0
38 7 37 36 8 41 11 -70 0
38 7 9 36 8 41 11 -69 0
38 7 9 36 8 41 11 -70 0
38 28 37 27 36 29 41 -109 0
38 28 37 27 36 29 41 -108 0
38 28 37 27 36 29 26 -109 0
38 28 37 27 36 29 26 -108 0
38 28 37 27 36 41 26 -109 0
38 28 37 27 36 41 26 -108 0
38 28 37 27 29 41 26 -109 0
38 28 37 27 29 41 26 -108 0
38 28 37 36 29 41 26 -109 0
38 28 37 36 29 41 26 -108 0
38 28 27 36 29 41 26 -109 0
38 28 27 36 29 41 26 -108 0
38 42 37 44 36 43 41 -126 0
38 42 37 44 36 43 41 -127 0
38 42 37 44 36 43 47 -126 0
38 42 37 44 36 43 47 -127 0
38 42 37 44 36 41 47 -126 0
38 42 37 44 36 41 47 -127 0
38 42 37 44 43 41 47 -126 0
38 42 37 44 43 41 47 -127 0
38 42 37 36 43 41 47 -126 0
38 42 37 36 43 41 47 -127 0
38 42 44 36 43 41 47 -126 0
38 42 44 36 43 41 47 -127 0
38 31 37 30 36 34 41 -118 0
38 31 37 30 36 34 41 -117 0
38 31 37 30 36 34 35 -118 0
38 31 37 30 36 34 35 -117 0
38 31 37 30 36 41 35 -118 0
38 31 37 30 36 41 35 -117 0
38 31 37 30 34 41 35 -118 0
38 31 37 30 34 41 35 -117 0
38 31 37 36 34 41 35 -118 0
38 31 37 36 34 41 35 -117 0
38 31 30 36 34 41 35 -118 0
38 31 30 36 34 41 35 -117 0
38 19 37 21 36 20 41 -97 0
38 19 37 21 36 20 41 -98 0
38 19 37 21 36 20 23 -97 0
38 19 37 21 36 20 23 -98 0
38 19 37 21 36 41 23 -97 0
38 19 37 21 36 41 23 -98 0
38 19 37 21 20 41 23 -97 0
38 19 37 21 20 41 23 -98 0
38 19 37 36 20 41 23 -97 0
38 19 37 36 20 41 23 -98 0
38 19 21 36 20 41 23 -97 0
38 19 21 36 20 41 23 -98 0
38 15 37 17 36 14 41 -85 0
38 15 37 17 36 14 41 -84 0
38 2 37 1 36 5 41 -40 0
38 2 37 1 36 5 41 -39 0
38 52 37 50 36 49 41 -128 0
38 52 37 50 36 49 41 -129 0
38 37 56 36 59 41 54 -130 0
38 37 56 36 59 41 54 -131 0
38 37 9 36 8 41 11 -69 0
38 37 9 36 8 41 11 -70 0
38 37 27 36 29 41 26 -109 0
38 37 27 36 29 41 26 -108 0
38 37 44 36 43 41 47 -126 0
38 37 44 36 43 41 47 -127 0
38 37 30 36 34 41 35 -118 0
38 37 30 36 34 41 35 -117 0
38 37 21 36 20 41 23 -97 0
38 37 21 36 20 41 23 -98 0
55 7 56 9 59 8 54 -75 0
55 7 56 9 59 8 54 -76 0
55 7 56 9 59 8 11 -75 0
55 7 56 9 59 8 11 -76 0
55 7 56 9 59 54 11 -75 0
55 7 56 9 59 54 11 -76 0
55 7 56 9 8 54 11 -75 0
55 7 56 9 8 54 11 -76 0
55 7 56 59 8 54 11 -75 0
55 7 56 59 8 54 11 -76 0
55 7 9 59 8 54 11 -75 0
55 7 9 59 8 54 11 -76 0
55 28 56 27 59 29 54 -115 0
55 28 56 27 59 29 54 -114 0
55 28 56 27 59 29 26 -115 0
55 28 56 27 59 29 26 -114 0
55 28 56 27 59 54 26 -115 0
55 28 56 27 59 54 26 -114 0
55 28 56 27 29 54 26 -115 0
55 28 56 27 29 54 26 -114 0
55 28 56 59 29 54 26 -115 0
55 28 56 59 29 54 26 -114 0
55 28 27 59 29 54 26 -115 0
55 28 27 59 29 54 26 -114 0
55 42 56 44 59 43 54 -136 0
55 42 56 44 59 43 54 -135 0
55 42 56 44 59 43 47 -136 0
55 42 56 44 59 43 47 -135 0
55 42 56 44 59 54 47 -136 0
55 42 56 44 59 54 47 -135 0
55 42 56 44 43 54 47 -136 0
55 42 56 44 43 54 47 -135 0
55 42 56 59 43 54 47 -136 0
55 42 56 59 43 54 47 -135 0
55 42 44 59 43 54 47 -136 0
55 42 44 59 43 54 47 -135 0
55 31 56 30 59 34 54 -124 0
55 31 56 30 59 34 54 -123 0
55 31 56 30 59 34 35 -124 0
55 31 56 30 59 34 35 -123 0
55 31 56 30 59 54 35 -124 0
55 31 56 30 59 54 35 -123 0
55 31 56 30 34 54 35 -124 0
55 31 56 30 34 54 35 -123 0
55 31 56 59 34 54 35 -124 0
55 31 56 59 34 54 35 -123 0
55 31 30 59 34 54 35 -124 0
55 31 30 59 34 54 35 -123 0
55 19 56 21 59 20 54 -103 0
55 19 56 21 59 20 54 -104 0
55 19 56 21 59 20 23 -103 0
55 19 56 21 59 20 23 -104 0
55 19 56 21 59 54 23 -103 0
55 19 56 21 59 54 23 -104 0
55 19 56 21 20 54 23 -103 0
55 19 56 21 20 54 23 -104 0
55 19 56 59 20 54 23 -103 0
55 19 56 59 20 54 23 -104 0
55 19 21 59 20 54 23 -103 0
55 19 21 59 20 54 23 -104 0
55 15 56 17 59 14 54 -91 0
55 15 56 17 59 14 54 -90 0
55 2 56 1 59 5 54 -57 0
55 2 56 1 59 5 54 -58 0
55 52 56 50 59 49 54 -139 0
55 52 56 50 59 49 54 -138 0
55 37 56 36 59 41 54 -130 0
55 37 56 36 59 41 54 -131 0
55 56 9 59 8 54 11 -75 0
55 56 9 59 8 54 11 -76 0
55 56 27 59 29 54 26 -115 0
55 56 27 59 29 54 26 -114 0
55 56 44 59 43 54 47 -136 0
55 56 44 59 43 54 47 -135 0
55 56 30 59 34 54 35 -124 0
55 56 30 59 34 54 35 -123 0
55 56 21 59 20 54 23 -103 0
55 56 21 59 20 54 23 -104 0
7 28 9 27 8 29 11 -66 0
7 28 9 27 8 29 11 -65 0
7 28 9 27 8 29 26 -66 0
7 28 9 27 8 29 26 -65 0
7 28 9 27 8 11 26 -66 0
7 28 9 27 8 11 26 -65 0
7 28 9 27 29 11 26 -66 0
7 28 9 27 29 11 26 -65 0
7 28 9 8 29 11 26 -66 0
7 28 9 8 29 11 26 -65 0
7 28 27 8 29 11 26 -66 0
7 28 27 8 29 11 26 -65 0
7 42 9 44 8 43 11 -71 0
7 42 9 44 8 43 11 -72 0
7 42 9 44 8 43 47 -71 0
7 42 9 44 8 43 47 -72 0
7 42 9 44 8 11 47 -71 0
7 42 9 44 8 11 47 -72 0
7 42 9 44 43 11 47 -71 0
7 42 9 44 43 11 47 -72 0
7 42 9 8 43 11 47 -71 0
7 42 9 8 43 11 47 -72 0
7 42 44 8 43 11 47 -71 0
7 42 44 8 43 11 47 -72 0
7 31 9 30 8 34 11 -67 0
7 31 9 30 8 34 11 -68 0
7 31 9 30 8 34 35 -67 0
7 31 9 30 8 34 35 -68 0
7 31 9 30 8 11 35 -67 0
7 31 9 30 8 11 35 -68 0
7 31 9 30 34 11 35 -67 0
7 31 9 30 34 11 35 -68 0
7 31 9 8 34 11 35 -67 0
7 31 9 8 34 11 35 -68 0
7 31 30 8 34 11 35 -67 0
7 31 30 8 34 11 35 -68 0
7 19 9 21 8 20 11 -64 0
7 19 9 21 8 20 11 -63 0
7 19 9 21 8 20 23 -64 0
7 19 9 21 8 20 23 -63 0
7 19 9 21 8 11 23 -64 0
7 19 9 21 8 11 23 -63 0
7 19 9 21 20 11 23 -64 0
7 19 9 21 20 11 23 -63 0
7 19 9 8 20 11 23 -64 0
7 19 9 8 20 11 23 -63 0
7 19 21 8 20 11 23 -64 0
7 19 21 8 20 11 23 -63 0
7 15 9 17 8 14 11 -62 0
7 15 9 17 8 14 11 -61 0
7 2 9 1 8 5 11 -10 0
7 2 9 1 8 5 11 -6 0
7 52 9 50 8 49 11 -74 0
7 52 9 50 8 49 11 -73 0
7 37 9 36 8 41 11 -69 0
7 37 9 36 8 41 11 -70 0
7 56 9 59 8 54 11 -75 0
7 56 9 59 8 54 11 -76 0
7 9 27 8 29 11 26 -66 0
7 9 27 8 29 11 26 -65 0
7 9 44 8 43 11 47 -71 0
7 9 44 8 43 11 47 -72 0
7 9 30 8 34 11 35 -67 0
7 9 30 8 34 11 35 -68 0
7 9 21 8 20 11 23 -64 0
7 9 21 8 20 11 23 -63 0
28 42 27 44 29 43 26 -110 0
28 42 27 44 29 43 26 -111 0
28 42 27 44 29 43 47 -110 0
28 42 27 44 29 43 47 -111 0
28 42 27 44 29 26 47 -110 0
28 42 27 44 29 26 47 -111 0
28 42 27 44 43 26 47 -110 0
28 42 27 44 43 26 47 -111 0
28 42 27 29 43 26 47 -110 0
28 42 27 29 43 26 47 -111 0
28 42 44 29 43 26 47 -110 0
28 42 44 29 43 26 47 -111 0
28 31 27 30 29 34 26 -107 0
28 31 27 30 29 34 26 -106 0
28 31 27 30 29 34 35 -107 0
28 31 27 30 29 34 35 -106 0
28 31 27 30 29 26 35 -107 0
28 31 27 30 29 26 35 -106 0
28 31 27 30 34 26 35 -107 0
28 31 27 30 34 26 35 -106 0
28 31 27 29 34 26 35 -107 0
28 31 27 29 34 26 35 -106 0
28 31 30 29 34 26 35 -107 0
28 31 30 29 34 26 35 -106 0
28 19 27 21 29 20 26 -94 0
28 19 27 21 29 20 26 -93 0
28 19 27 21 29 20 23 -94 0
28 19 27 21 29 20 23 -93 0
28 19 27 21 29 26 23 -94 0
28 19 27 21 29 26 23 -93 0
28 19 27 21 20 26 23 -94 0
28 19 27 21 20 26 23 -93 0
28 19 27 29 20 26 23 -94 0
28 19 27 29 20 26 23 -93 0
28 19 21 29 20 26 23 -94 0
28 19 21 29 20 26 23 -93 0
28 15 27 17 29 14 26 -80 0
28 15 27 17 29 14 26 -81 0
28 2 27 1 29 5 26 -24 0
28 2 27 1 29 5 26 -25 0
28 52 27 50 29 49 26 -112 0
28 52 27 50 29 49 26 -113 0
28 37 27 36 29 41 26 -109 0
28 37 27 36 29 41 26 -108 0
28 56 27 59 29 54 26 -115 0
28 56 27 59 29 54 26 -114 0
28 9 27 8 29 11 26 -66 0
28 9 27 8 29 11 26 -65 0
28 27 44 29 43 26 47 -110 0
28 27 44 29 43 26 47 -111 0
28 27 30 29 34 26 35 -107 0
28 27 30 29 34 26 35 -106 0
28 27 21 29 20 26 23 -94 0
28 27 21 29 20 26 23 -93 0
42 31 44 30 43 34 47 -120 0
42 31 44 30 43 34 47 -119 0
42 31 44 30 43 34 35 -120 0
42 31 44 30 43 34 35 -119 0
42 31 44 30 43 47 35 -120 0
42 31 44 30 43 47 35 -119 0
42 31 44 30 34 47 35 -120 0
42 31 44 30 34 47 35 -119 0
42 31 44 43 34 47 35 -120 0
42 31 44 43 34 47 35 -119 0
42 31 30 43 34 47 35 -120 0
42 31 30 43 34 47 35 -119 0
42 19 44 21 43 20 47 -100 0
42 19 44 21 43 20 47 -99 0
42 19 44 21 43 20 23 -100 0
42 19 44 21 43 20 23 -99 0
42 19 44 21 43 47 23 -100 0
42 19 44 21 43 47 23 -99 0
42 19 44 21 20 47 23 -100 0
42 19 44 21 20 47 23 -99 0
42 19 44 43 20 47 23 -100 0
42 19 44 43 20 47 23 -99 0
42 19 21 43 20 47 23 -100 0
42 19 21 43 20 47 23 -99 0
42 15 44 17 43 14 47 -86 0
42 15 44 17 43 14 47 -87 0
42 2 44 1 43 5 47 -45 0
42 2 44 1 43 5 47 -46 0
42 52 44 50 43 49 47 -133 0
42 52 44 50 43 49 47 -134 0
42 37 44 36 43 41 47 -126 0
42 37 44 36 43 41 47 -127 0
42 56 44 59 43 54 47 -136 0
42 56 44 59 43 54 47 -135 0
42 9 44 8 43 11 47 -71 0
42 9 44 8 43 11 47 -72 0
42 27 44 29 43 26 47 -110 0
42 27 44 29 43 26 47 -111 0
42 44 30 43 34 47 35 -120 0
42 44 30 43 34 47 35 -119 0
42 44 21 43 20 47 23 -100 0
42 44 21 43 20 47 23 -99 0
31 19 30 21 34 20 35 -96 0
31 19 30 21 34 20 35 -95 0
31 19 30 21 34 20 23 -96 0
31 19 30 21 34 20 23 -95 0
31 19 30 21 34 35 23 -96 0
31 19 30 21 34 35 23 -95 0
31 19 30 21 20 35 23 -96 0
31 19 30 21 20 35 23 -95 0
31 19 30 34 20 35 23 -96 0
31 19 30 34 20 35 23 -95 0
31 19 21 34 20 35 23 -96 0
31 19 21 34 20 35 23 -95 0
31 15 30 17 34 14 35 -83 0
31 15 30 17 34 14 35 -82 0
31 2 30 1 34 5 35 -33 0
31 2 30 1 34 5 35 -32 0
31 52 30 50 34 49 35 -122 0
31 52 30 50 34 49 35 -121 0
31 37 30 36 34 41 35 -118 0
31 37 30 36 34 41 35 -117 0
31 56 30 59 34 54 35 -124 0
31 56 30 59 34 54 35 -123 0
31 9 30 8 34 11 35 -67 0
31 9 30 8 34 11 35 -68 0
31 27 30 29 34 26 35 -107 0
31 27 30 29 34 26 35 -106 0
31 44 30 43 34 47 35 -120 0
31 44 30 43 34 47 35 -119 0
31 30 21 34 20 35 23 -96 0
31 30 21 34 20 35 23 -95 0
19 15 21 17 20 14 23 -79 0
19 15 21 17 20 14 23 -78 0
19 2 21 1 20 5 23 -22 0
19 2 21 1 20 5 23 -18 0
19 52 21 50 20 49 23 -102 0
19 52 21 50 20 49 23 -101 0
19 37 21 36 20 41 23 -97 0
19 37 21 36 20 41 23 -98 0
19 56 21 59 20 54 23 -103 0
19 56 21 59 20 54 23 -104 0
19 9 21 8 20 11 23 -64 0
19 9 21 8 20 11 23 -63 0
19 27 21 29 20 26 23 -94 0
19 27 21 29 20 26 23 -93 0
19 44 21 43 20 47 23 -100 0
19 44 21 43 20 47 23 -99 0
19 30 21 34 20 35 23 -96 0
19 30 21 34 20 35 23 -95 0
13 4 15 2 17 1 14 5 -12 0
13 4 15 2 17 1 14 5 -16 0
13 48 15 52 17 50 14 49 -88 0
13 48 15 52 17 50 14 49 -89 0
13 38 15 37 17 36 14 41 -85 0
13 38 15 37 17 36 14 41 -84 0
13 55 15 56 17 59 14 54 -91 0
13 55 15 56 17 59 14 54 -90 0
13 7 15 9 17 8 14 11 -62 0
13 7 15 9 17 8 14 11 -61 0
13 28 15 27 17 29 14 26 -80 0
13 28 15 27 17 29 14 26 -81 0
13 42 15 44 17 43 14 47 -86 0
13 42 15 44 17 43 14 47 -87 0
13 31 15 30 17 34 14 35 -83 0
13 31 15 30 17 34 14 35 -82 0
13 19 15 21 17 20 14 23 -79 0
13 19 15 21 17 20 14 23 -78 0
4 48 2 52 1 50 5 49 -53 0
4 48 2 52 1 50 5 49 -51 0
4 38 2 37 1 36 5 41 -40 0
4 38 2 37 1 36 5 41 -39 0
4 55 2 56 1 59 5 54 -57 0
4 55 2 56 1 59 5 54 -58 0
4 7 2 9 1 8 5 11 -10 0
4 7 2 9 1 8 5 11 -6 0
4 28 2 27 1 29 5 26 -24 0
4 28 2 27 1 29 5 26 -25 0
4 42 2 44 1 43 5 47 -45 0
4 42 2 44 1 43 5 47 -46 0
4 31 2 30 1 34 5 35 -33 0
4 31 2 30 1 34 5 35 -32 0
4 19 2 21 1 20 5 23 -22 0
4 19 2 21 1 20 5 23 -18 0
48 38 52 37 50 36 49 41 -128 0
48 38 52 37 50 36 49 41 -129 0
48 55 52 56 50 59 49 54 -139 0
48 55 52 56 50 59 49 54 -138 0
48 7 52 9 50 8 49 11 -74 0
48 7 52 9 50 8 49 11 -73 0
48 28 52 27 50 29 49 26 -112 0
48 28 52 27 50 29 49 26 -113 0
48 42 52 44 50 43 49 47 -133 0
48 42 52 44 50 43 49 47 -134 0
48 31 52 30 50 34 49 35 -122 0
48 31 52 30 50 34 49 35 -121 0
48 19 52 21 50 20 49 23 -102 0
48 19 52 21 50 20 49 23 -101 0
38 55 37 56 36 59 41 54 -130 0
38 55 37 56 36 59 41 54 -131 0
38 7 37 9 36 8 41 11 -69 0
38 7 37 9 36 8 41 11 -70 0
38 28 37 27 36 29 41 26 -109 0
38 28 37 27 36 29 41 26 -108 0
38 42 37 44 36 43 41 47 -126 0
38 42 37 44 36 43 41 47 -127 0
38 31 37 30 36 34 41 35 -118 0
38 31 37 30 36 34 41 35 -117 0
38 19 37 21 36 20 41 23 -97 0
38 19 37 21 36 20 41 23 -98 0
55 7 56 9 59 8 54 11 -75 0
55 7 56 9 59 8 54 11 -76 0
55 28 56 27 59 29 54 26 -115 0
55 28 56 27 59 29 54 26 -114 0
55 42 56 44 59 43 54 47 -136 0
55 42 56 44 59 43 54 47 -135 0
55 31 56 30 59 34 54 35 -124 0
55 31 56 30 59 34 54 35 -123 0
55 19 56 21 59 20 54 23 -103 0
55 19 56 21 59 20 54 23 -104 0
7 28 9 27 8 29 11 26 -66 0
7 28 9 27 8 29 11 26 -65 0
7 42 9 44 8 43 11 47 -71 0
7 42 9 44 8 43 11 47 -72 0
7 31 9 30 8 34 11 35 -67 0
7 31 9 30 8 34 11 35 -68 0
7 19 9 21 8 20 11 23 -64 0
7 19 9 21 8 20 11 23 -63 0
28 42 27 44 29 43 26 47 -110 0
28 42 27 44 29 43 26 47 -111 0
28 31 27 30 29 34 26 35 -107 0
28 31 27 30 29 34 26 35 -106 0
28 19 27 21 29 20 26 23 -94 0
28 19 27 21 29 20 26 23 -93 0
42 31 44 30 43 34 47 35 -120 0
42 31 44 30 43 34 47 35 -119 0
42 19 44 21 43 20 47 23 -100 0
42 19 44 21 43 20 47 23 -99 0
31 19 30 21 34 20 35 23 -96 0
31 19 30 21 34 20 35 23 -95 0
77 12 88 85 91 62 80 86 83 79 0
16 3 53 40 57 10 24 45 33 22 0
89 51 137 128 139 74 112 133 122 102 0
84 39 129 125 130 69 109 126 118 97 0
90 58 138 131 140 75 115 136 124 103 0
61 6 73 70 76 60 66 71 67 64 0
81 25 113 108 114 65 105 110 107 94 0
87 46 134 127 135 72 111 132 120 100 0
82 32 121 117 123 68 106 119 116 96 0
78 18 101 98 104 63 93 99 95 92 0
