c U3(3) U4(3) E1(3,3) U1(3) U2(3) U3(1) E1(1,3) U1(1) U2(1) E1(3,1) U4(1) U3(2) E1(3,2) U1(2) E1(2,3) U4(2) U2(2) U2(0) E1(3,0) U4(0) E1(0,3) U3(0) U1(0) E1(1,1) E1(2,1) E1(1,2) E1(1,0) E1(0,1) E1(2,2) E1(0,2) E1(2,0) E1(0,0)
c 1 2 3 4 5 6 7 8 9 10 11 12 13 14 15 16 17 18 19 20 21 22 23 24 25 26 27 28 29 30 31 32
p cnf 32 488
32 -32 0
28 -27 0
30 -31 0
21 -19 0
27 -28 0
24 -24 0
26 -25 0
7 -10 0
31 -30 0
25 -26 0
29 -29 0
15 -13 0
19 -21 0
10 -7 0
13 -15 0
3 -3 0
-23 -18 0
-23 -22 0
-23 -20 0
-8 -9 0
-8 -6 0
-8 -11 0
-14 -17 0
-14 -12 0
-14 -16 0
-4 -5 0
-4 -1 0
-4 -2 0
-18 -22 0
-18 -20 0
-9 -6 0
-9 -11 0
-17 -12 0
-17 -16 0
-5 -1 0
-5 -2 0
-22 -20 0
-6 -11 0
-12 -16 0
-1 -2 0
32 28 30 21 0
27 24 26 7 0
31 25 29 15 0
19 10 13 3 0
23 18 22 20 0
8 9 6 11 0
14 17 12 16 0
4 5 1 2 0
23 18 22 -32 0
23 18 20 -32 0
23 22 20 -32 0
8 9 6 -24 0
8 9 11 -24 0
8 6 11 -24 0
14 17 12 -29 0
14 17 16 -29 0
14 12 16 -29 0
4 5 1 -3 0
4 5 2 -3 0
4 1 2 -3 0
18 22 20 -32 0
9 6 11 -24 0
17 12 16 -29 0
5 1 2 -3 0
23 18 22 20 -32 0
23 18 22 20 -28 0
23 18 22 20 -30 0
23 18 22 20 -21 0
23 18 22 20 -27 0
23 18 22 20 -31 0
23 18 22 20 -19 0
8 9 6 11 -28 0
8 9 6 11 -27 0
8 9 6 11 -24 0
8 9 6 11 -26 0
8 9 6 11 -7 0
8 9 6 11 -25 0
8 9 6 11 -10 0
14 17 12 16 -30 0
14 17 12 16 -26 0
14 17 12 16 -31 0
14 17 12 16 -25 0
14 17 12 16 -29 0
14 17 12 16 -15 0
14 17 12 16 -13 0
4 5 1 2 -21 0
4 5 1 2 -7 0
4 5 1 2 -15 0
4 5 1 2 -19 0
4 5 1 2 -10 0
4 5 1 2 -13 0
4 5 1 2 -3 0
23 8 18 22 20 -28 0
23 8 18 22 20 -27 0
23 8 9 6 11 -28 0
23 8 9 6 11 -27 0
23 14 18 22 20 -30 0
23 14 18 22 20 -31 0
23 14 17 12 16 -30 0
23 14 17 12 16 -31 0
23 4 18 22 20 -21 0
23 4 18 22 20 -19 0
23 4 5 1 2 -21 0
23 4 5 1 2 -19 0
23 18 9 22 20 -28 0
23 18 9 22 20 -27 0
23 18 17 22 20 -30 0
23 18 17 22 20 -31 0
23 18 5 22 20 -21 0
23 18 5 22 20 -19 0
23 18 22 6 20 -28 0
23 18 22 6 20 -27 0
23 18 22 12 20 -30 0
23 18 22 12 20 -31 0
23 18 22 1 20 -21 0
23 18 22 1 20 -19 0
23 18 22 20 11 -28 0
23 18 22 20 11 -27 0
23 18 22 20 16 -30 0
23 18 22 20 16 -31 0
23 18 22 20 2 -21 0
23 18 22 20 2 -19 0
8 14 9 6 11 -26 0
8 14 9 6 11 -25 0
8 14 17 12 16 -26 0
8 14 17 12 16 -25 0
8 4 9 6 11 -7 0
8 4 9 6 11 -10 0
8 4 5 1 2 -7 0
8 4 5 1 2 -10 0
8 18 9 6 11 -28 0
8 18 9 6 11 -27 0
8 9 17 6 11 -26 0
8 9 17 6 11 -25 0
8 9 5 6 11 -7 0
8 9 5 6 11 -10 0
8 9 22 6 11 -28 0
8 9 22 6 11 -27 0
8 9 6 12 11 -26 0
8 9 6 12 11 -25 0
8 9 6 1 11 -7 0
8 9 6 1 11 -10 0
8 9 6 20 11 -28 0
8 9 6 20 11 -27 0
8 9 6 11 16 -26 0
8 9 6 11 16 -25 0
8 9 6 11 2 -7 0
8 9 6 11 2 -10 0
14 4 17 12 16 -15 0
14 4 17 12 16 -13 0
14 4 5 1 2 -15 0
14 4 5 1 2 -13 0
14 18 17 12 16 -30 0
14 18 17 12 16 -31 0
14 9 17 12 16 -26 0
14 9 17 12 16 -25 0
14 17 5 12 16 -15 0
14 17 5 12 16 -13 0
14 17 22 12 16 -30 0
14 17 22 12 16 -31 0
14 17 6 12 16 -26 0
14 17 6 12 16 -25 0
14 17 12 1 16 -15 0
14 17 12 1 16 -13 0
14 17 12 20 16 -30 0
14 17 12 20 16 -31 0
14 17 12 11 16 -26 0
14 17 12 11 16 -25 0
14 17 12 16 2 -15 0
14 17 12 16 2 -13 0
4 18 5 1 2 -21 0
4 18 5 1 2 -19 0
4 9 5 1 2 -7 0
4 9 5 1 2 -10 0
4 17 5 1 2 -15 0
4 17 5 1 2 -13 0
4 5 22 1 2 -21 0
4 5 22 1 2 -19 0
4 5 6 1 2 -7 0
4 5 6 1 2 -10 0
4 5 12 1 2 -15 0
4 5 12 1 2 -13 0
4 5 1 20 2 -21 0
4 5 1 20 2 -19 0
4 5 1 11 2 -7 0
4 5 1 11 2 -10 0
4 5 1 16 2 -15 0
4 5 1 16 2 -13 0
23 8 18 9 22 6 -28 0
23 8 18 9 22 6 -27 0
23 8 18 9 22 20 -28 0
23 8 18 9 22 20 -27 0
23 8 18 9 6 11 -28 0
23 8 18 9 6 11 -27 0
23 8 18 9 20 11 -28 0
23 8 18 9 20 11 -27 0
23 8 18 22 6 20 -28 0
23 8 18 22 6 20 -27 0
23 8 18 22 20 11 -28 0
23 8 18 22 20 11 -27 0
23 8 9 22 6 11 -28 0
23 8 9 22 6 11 -27 0
23 8 9 6 20 11 -28 0
23 8 9 6 20 11 -27 0
23 8 22 6 20 11 -28 0
23 8 22 6 20 11 -27 0
23 14 18 17 22 12 -30 0
23 14 18 17 22 12 -31 0
23 14 18 17 22 20 -30 0
23 14 18 17 22 20 -31 0
23 14 18 17 12 16 -30 0
23 14 18 17 12 16 -31 0
23 14 18 17 20 16 -30 0
23 14 18 17 20 16 -31 0
23 14 18 22 12 20 -30 0
23 14 18 22 12 20 -31 0
23 14 18 22 20 16 -30 0
23 14 18 22 20 16 -31 0
23 14 17 22 12 16 -30 0
23 14 17 22 12 16 -31 0
23 14 17 12 20 16 -30 0
23 14 17 12 20 16 -31 0
23 14 22 12 20 16 -30 0
23 14 22 12 20 16 -31 0
23 4 18 5 22 1 -21 0
23 4 18 5 22 1 -19 0
23 4 18 5 22 20 -21 0
23 4 18 5 22 20 -19 0
23 4 18 5 1 2 -21 0
23 4 18 5 1 2 -19 0
23 4 18 5 20 2 -21 0
23 4 18 5 20 2 -19 0
23 4 18 22 1 20 -21 0
23 4 18 22 1 20 -19 0
23 4 18 22 20 2 -21 0
23 4 18 22 20 2 -19 0
23 4 5 22 1 2 -21 0
23 4 5 22 1 2 -19 0
23 4 5 1 20 2 -21 0
23 4 5 1 20 2 -19 0
23 4 22 1 20 2 -21 0
23 4 22 1 20 2 -19 0
23 18 9 22 6 20 -28 0
23 18 9 22 6 20 -27 0
23 18 9 22 20 11 -28 0
23 18 9 22 20 11 -27 0
23 18 17 22 12 20 -30 0
23 18 17 22 12 20 -31 0
23 18 17 22 20 16 -30 0
23 18 17 22 20 16 -31 0
23 18 5 22 1 20 -21 0
23 18 5 22 1 20 -19 0
23 18 5 22 20 2 -21 0
23 18 5 22 20 2 -19 0
23 18 22 6 20 11 -28 0
23 18 22 6 20 11 -27 0
23 18 22 12 20 16 -30 0
23 18 22 12 20 16 -31 0
23 18 22 1 20 2 -21 0
23 18 22 1 20 2 -19 0
8 14 9 17 6 12 -26 0
8 14 9 17 6 12 -25 0
8 14 9 17 6 11 -26 0
8 14 9 17 6 11 -25 0
8 14 9 17 12 16 -26 0
8 14 9 17 12 16 -25 0
8 14 9 17 11 16 -26 0
8 14 9 17 11 16 -25 0
8 14 9 6 12 11 -26 0
8 14 9 6 12 11 -25 0
8 14 9 6 11 16 -26 0
8 14 9 6 11 16 -25 0
8 14 17 6 12 16 -26 0
8 14 17 6 12 16 -25 0
8 14 17 12 11 16 -26 0
8 14 17 12 11 16 -25 0
8 14 6 12 11 16 -26 0
8 14 6 12 11 16 -25 0
8 4 9 5 6 1 -7 0
8 4 9 5 6 1 -10 0
8 4 9 5 6 11 -7 0
8 4 9 5 6 11 -10 0
8 4 9 5 1 2 -7 0
8 4 9 5 1 2 -10 0
8 4 9 5 11 2 -7 0
8 4 9 5 11 2 -10 0
8 4 9 6 1 11 -7 0
8 4 9 6 1 11 -10 0
8 4 9 6 11 2 -7 0
8 4 9 6 11 2 -10 0
8 4 5 6 1 2 -7 0
8 4 5 6 1 2 -10 0
8 4 5 1 11 2 -7 0
8 4 5 1 11 2 -10 0
8 4 6 1 11 2 -7 0
8 4 6 1 11 2 -10 0
8 18 9 22 6 11 -28 0
8 18 9 22 6 11 -27 0
8 18 9 6 20 11 -28 0
8 18 9 6 20 11 -27 0
8 9 17 6 12 11 -26 0
8 9 17 6 12 11 -25 0
8 9 17 6 11 16 -26 0
8 9 17 6 11 16 -25 0
8 9 5 6 1 11 -7 0
8 9 5 6 1 11 -10 0
8 9 5 6 11 2 -7 0
8 9 5 6 11 2 -10 0
8 9 22 6 20 11 -28 0
8 9 22 6 20 11 -27 0
8 9 6 12 11 16 -26 0
8 9 6 12 11 16 -25 0
8 9 6 1 11 2 -7 0
8 9 6 1 11 2 -10 0
14 4 17 5 12 1 -15 0
14 4 17 5 12 1 -13 0
14 4 17 5 12 16 -15 0
14 4 17 5 12 16 -13 0
14 4 17 5 1 2 -15 0
14 4 17 5 1 2 -13 0
14 4 17 5 16 2 -15 0
14 4 17 5 16 2 -13 0
14 4 17 12 1 16 -15 0
14 4 17 12 1 16 -13 0
14 4 17 12 16 2 -15 0
14 4 17 12 16 2 -13 0
14 4 5 12 1 2 -15 0
14 4 5 12 1 2 -13 0
14 4 5 1 16 2 -15 0
14 4 5 1 16 2 -13 0
14 4 12 1 16 2 -15 0
14 4 12 1 16 2 -13 0
14 18 17 22 12 16 -30 0
14 18 17 22 12 16 -31 0
14 18 17 12 20 16 -30 0
14 18 17 12 20 16 -31 0
14 9 17 6 12 16 -26 0
14 9 17 6 12 16 -25 0
14 9 17 12 11 16 -26 0
14 9 17 12 11 16 -25 0
14 17 5 12 1 16 -15 0
14 17 5 12 1 16 -13 0
14 17 5 12 16 2 -15 0
14 17 5 12 16 2 -13 0
14 17 22 12 20 16 -30 0
14 17 22 12 20 16 -31 0
14 17 6 12 11 16 -26 0
14 17 6 12 11 16 -25 0
14 17 12 1 16 2 -15 0
14 17 12 1 16 2 -13 0
4 18 5 22 1 2 -21 0
4 18 5 22 1 2 -19 0
4 18 5 1 20 2 -21 0
4 18 5 1 20 2 -19 0
4 9 5 6 1 2 -7 0
4 9 5 6 1 2 -10 0
4 9 5 1 11 2 -7 0
4 9 5 1 11 2 -10 0
4 17 5 12 1 2 -15 0
4 17 5 12 1 2 -13 0
4 17 5 1 16 2 -15 0
4 17 5 1 16 2 -13 0
4 5 22 1 20 2 -21 0
4 5 22 1 20 2 -19 0
4 5 6 1 11 2 -7 0
4 5 6 1 11 2 -10 0
4 5 12 1 16 2 -15 0
4 5 12 1 16 2 -13 0
18 9 22 6 20 11 -28 0
18 9 22 6 20 11 -27 0
18 17 22 12 20 16 -30 0
18 17 22 12 20 16 -31 0
18 5 22 1 20 2 -21 0
18 5 22 1 20 2 -19 0
9 17 6 12 11 16 -26 0
9 17 6 12 11 16 -25 0
9 5 6 1 11 2 -7 0
9 5 6 1 11 2 -10 0
17 5 12 1 16 2 -15 0
17 5 12 1 16 2 -13 0
23 8 18 9 22 6 20 -28 0
23 8 18 9 22 6 20 -27 0
23 8 18 9 22 6 11 -28 0
23 8 18 9 22 6 11 -27 0
23 8 18 9 22 20 11 -28 0
23 8 18 9 22 20 11 -27 0
23 8 18 9 6 20 11 -28 0
23 8 18 9 6 20 11 -27 0
23 8 18 22 6 20 11 -28 0
23 8 18 22 6 20 11 -27 0
23 8 9 22 6 20 11 -28 0
23 8 9 22 6 20 11 -27 0
23 14 18 17 22 12 20 -30 0
23 14 18 17 22 12 20 -31 0
23 14 18 17 22 12 16 -30 0
23 14 18 17 22 12 16 -31 0
23 14 18 17 22 20 16 -30 0
23 14 18 17 22 20 16 -31 0
23 14 18 17 12 20 16 -30 0
23 14 18 17 12 20 16 -31 0
23 14 18 22 12 20 16 -30 0
23 14 18 22 12 20 16 -31 0
23 14 17 22 12 20 16 -30 0
23 14 17 22 12 20 16 -31 0
23 4 18 5 22 1 20 -21 0
23 4 18 5 22 1 20 -19 0
23 4 18 5 22 1 2 -21 0
23 4 18 5 22 1 2 -19 0
23 4 18 5 22 20 2 -21 0
23 4 18 5 22 20 2 -19 0
23 4 18 5 1 20 2 -21 0
23 4 18 5 1 20 2 -19 0
23 4 18 22 1 20 2 -21 0
23 4 18 22 1 20 2 -19 0
23 4 5 22 1 20 2 -21 0
23 4 5 22 1 20 2 -19 0
23 18 9 22 6 20 11 -28 0
23 18 9 22 6 20 11 -27 0
23 18 17 22 12 20 16 -30 0
23 18 17 22 12 20 16 -31 0
23 18 5 22 1 20 2 -21 0
23 18 5 22 1 20 2 -19 0
8 14 9 17 6 12 11 -26 0
8 14 9 17 6 12 11 -25 0
8 14 9 17 6 12 16 -26 0
8 14 9 17 6 12 16 -25 0
8 14 9 17 6 11 16 -26 0
8 14 9 17 6 11 16 -25 0
8 14 9 17 12 11 16 -26 0
8 14 9 17 12 11 16 -25 0
8 14 9 6 12 11 16 -26 0
8 14 9 6 12 11 16 -25 0
8 14 17 6 12 11 16 -26 0
8 14 17 6 12 11 16 -25 0
8 4 9 5 6 1 11 -7 0
8 4 9 5 6 1 11 -10 0
8 4 9 5 6 1 2 -7 0
8 4 9 5 6 1 2 -10 0
8 4 9 5 6 11 2 -7 0
8 4 9 5 6 11 2 -10 0
8 4 9 5 1 11 2 -7 0
8 4 9 5 1 11 2 -10 0
8 4 9 6 1 11 2 -7 0
8 4 9 6 1 11 2 -10 0
8 4 5 6 1 11 2 -7 0
8 4 5 6 1 11 2 -10 0
8 18 9 22 6 20 11 -28 0
8 18 9 22 6 20 11 -27 0
8 9 17 6 12 11 16 -26 0
8 9 17 6 12 11 16 -25 0
8 9 5 6 1 11 2 -7 0
8 9 5 6 1 11 2 -10 0
14 4 17 5 12 1 16 -15 0
14 4 17 5 12 1 16 -13 0
14 4 17 5 12 1 2 -15 0
14 4 17 5 12 1 2 -13 0
14 4 17 5 12 16 2 -15 0
14 4 17 5 12 16 2 -13 0
14 4 17 5 1 16 2 -15 0
14 4 17 5 1 16 2 -13 0
14 4 17 12 1 16 2 -15 0
14 4 17 12 1 16 2 -13 0
14 4 5 12 1 16 2 -15 0
14 4 5 12 1 16 2 -13 0
14 18 17 22 12 20 16 -30 0
14 18 17 22 12 20 16 -31 0
14 9 17 6 12 11 16 -26 0
14 9 17 6 12 11 16 -25 0
14 17 5 12 1 16 2 -15 0
14 17 5 12 1 16 2 -13 0
4 18 5 22 1 20 2 -21 0
4 18 5 22 1 20 2 -19 0
4 9 5 6 1 11 2 -7 0
4 9 5 6 1 11 2 -10 0
4 17 5 12 1 16 2 -15 0
4 17 5 12 1 16 2 -13 0
23 8 18 9 22 6 20 11 -28 0
23 8 18 9 22 6 20 11 -27 0
23 14 18 17 22 12 20 16 -30 0
23 14 18 17 22 12 20 16 -31 0
23 4 18 5 22 1 20 2 -21 0
23 4 18 5 22 1 20 2 -19 0
8 14 9 17 6 12 11 16 -26 0
8 14 9 17 6 12 11 16 -25 0
8 4 9 5 6 1 11 2 -7 0
8 4 9 5 6 1 11 2 -10 0
14 4 17 5 12 1 16 2 -15 0
14 4 17 5 12 1 16 2 -13 0
