c E1(1,1) U2(1) U4(1) U1(1) U3(1) U1(0) E1(1,0) E1(0,1) U4(0) U3(0) U2(0) U3(3) E1(1,3) U4(3) U2(3) E1(3,1) U1(3) U1(4) E1(4,1) U2(4) E1(1,4) U4(4) U3(4) U2(2) E1(2,1) E1(1,2) U1(2) U4(2) U3(2) E1(0,0) E1(3,0) E1(0,3) E1(0,4) E1(4,0) E1(2,0) E1(0,2) E1(3,3) E1(4,3) E1(3,4) E1(3,2) E1(2,3) E1(4,4) E1(4,2) E1(2,4) E1(2,2)
c 1 2 3 4 5 6 7 8 9 10 11 12 13 14 15 16 17 18 19 20 21 22 23 24 25 26 27 28 29 30 31 32 33 34 35 36 37 38 39 40 41 42 43 44 45
p cnf 45 790
30 -30 0
8 -7 0
36 -35 0
32 -31 0
33 -34 0
7 -8 0
1 -1 0
26 -25 0
13 -16 0
21 -19 0
35 -36 0
25 -26 0
45 -45 0
41 -40 0
44 -43 0
31 -32 0
16 -13 0
40 -41 0
37 -37 0
39 -38 0
34 -33 0
19 -21 0
43 -44 0
38 -39 0
42 -42 0
-6 -11 0
-6 -10 0
-6 -9 0
-4 -2 0
-4 -5 0
-4 -3 0
-27 -24 0
-27 -29 0
-27 -28 0
-17 -15 0
-17 -12 0
-17 -14 0
-18 -20 0
-18 -23 0
-18 -22 0
-11 -10 0
-11 -9 0
-2 -5 0
-2 -3 0
-24 -29 0
-24 -28 0
-15 -12 0
-15 -14 0
-20 -23 0
-20 -22 0
-10 -9 0
-5 -3 0
-29 -28 0
-12 -14 0
-23 -22 0
6 11 10 9 0
4 2 5 3 0
27 24 29 28 0
17 15 12 14 0
18 20 23 22 0
6 11 10 -30 0
6 11 9 -30 0
6 10 9 -30 0
4 2 5 -1 0
4 2 3 -1 0
4 5 3 -1 0
27 24 29 -45 0
27 24 28 -45 0
27 29 28 -45 0
17 15 12 -37 0
17 15 14 -37 0
17 12 14 -37 0
18 20 23 -42 0
18 20 22 -42 0
18 23 22 -42 0
11 10 9 -30 0
2 5 3 -1 0
24 29 28 -45 0
15 12 14 -37 0
20 23 22 -42 0
30 8 36 32 33 0
7 1 26 13 21 0
35 25 45 41 44 0
31 16 40 37 39 0
34 19 43 38 42 0
6 11 10 9 -30 0
6 11 10 9 -8 0
6 11 10 9 -36 0
6 11 10 9 -32 0
6 11 10 9 -33 0
6 11 10 9 -7 0
6 11 10 9 -35 0
6 11 10 9 -31 0
6 11 10 9 -34 0
4 2 5 3 -8 0
4 2 5 3 -7 0
4 2 5 3 -1 0
4 2 5 3 -26 0
4 2 5 3 -13 0
4 2 5 3 -21 0
4 2 5 3 -25 0
4 2 5 3 -16 0
4 2 5 3 -19 0
27 24 29 28 -36 0
27 24 29 28 -26 0
27 24 29 28 -35 0
27 24 29 28 -25 0
27 24 29 28 -45 0
27 24 29 28 -41 0
27 24 29 28 -44 0
27 24 29 28 -40 0
27 24 29 28 -43 0
17 15 12 14 -32 0
17 15 12 14 -13 0
17 15 12 14 -41 0
17 15 12 14 -31 0
17 15 12 14 -16 0
17 15 12 14 -40 0
17 15 12 14 -37 0
17 15 12 14 -39 0
17 15 12 14 -38 0
18 20 23 22 -33 0
18 20 23 22 -21 0
18 20 23 22 -44 0
18 20 23 22 -39 0
18 20 23 22 -34 0
18 20 23 22 -19 0
18 20 23 22 -43 0
18 20 23 22 -38 0
18 20 23 22 -42 0
6 4 11 10 9 -8 0
6 4 11 10 9 -7 0
6 4 2 5 3 -8 0
6 4 2 5 3 -7 0
6 27 11 10 9 -36 0
6 27 11 10 9 -35 0
6 27 24 29 28 -36 0
6 27 24 29 28 -35 0
6 17 11 10 9 -32 0
6 17 11 10 9 -31 0
6 17 15 12 14 -32 0
6 17 15 12 14 -31 0
6 18 11 10 9 -33 0
6 18 11 10 9 -34 0
6 18 20 23 22 -33 0
6 18 20 23 22 -34 0
6 11 2 10 9 -8 0
6 11 2 10 9 -7 0
6 11 24 10 9 -36 0
6 11 24 10 9 -35 0
6 11 15 10 9 -32 0
6 11 15 10 9 -31 0
6 11 20 10 9 -33 0
6 11 20 10 9 -34 0
6 11 10 5 9 -8 0
6 11 10 5 9 -7 0
6 11 10 29 9 -36 0
6 11 10 29 9 -35 0
6 11 10 12 9 -32 0
6 11 10 12 9 -31 0
6 11 10 23 9 -33 0
6 11 10 23 9 -34 0
6 11 10 9 3 -8 0
6 11 10 9 3 -7 0
6 11 10 9 28 -36 0
6 11 10 9 28 -35 0
6 11 10 9 14 -32 0
6 11 10 9 14 -31 0
6 11 10 9 22 -33 0
6 11 10 9 22 -34 0
4 27 2 5 3 -26 0
4 27 2 5 3 -25 0
4 27 24 29 28 -26 0
4 27 24 29 28 -25 0
4 17 2 5 3 -13 0
4 17 2 5 3 -16 0
4 17 15 12 14 -13 0
4 17 15 12 14 -16 0
4 18 2 5 3 -21 0
4 18 2 5 3 -19 0
4 18 20 23 22 -21 0
4 18 20 23 22 -19 0
4 11 2 5 3 -8 0
4 11 2 5 3 -7 0
4 2 24 5 3 -26 0
4 2 24 5 3 -25 0
4 2 15 5 3 -13 0
4 2 15 5 3 -16 0
4 2 20 5 3 -21 0
4 2 20 5 3 -19 0
4 2 10 5 3 -8 0
4 2 10 5 3 -7 0
4 2 5 29 3 -26 0
4 2 5 29 3 -25 0
4 2 5 12 3 -13 0
4 2 5 12 3 -16 0
4 2 5 23 3 -21 0
4 2 5 23 3 -19 0
4 2 5 9 3 -8 0
4 2 5 9 3 -7 0
4 2 5 3 28 -26 0
4 2 5 3 28 -25 0
4 2 5 3 14 -13 0
4 2 5 3 14 -16 0
4 2 5 3 22 -21 0
4 2 5 3 22 -19 0
27 17 24 29 28 -41 0
27 17 24 29 28 -40 0
27 17 15 12 14 -41 0
27 17 15 12 14 -40 0
27 18 24 29 28 -44 0
27 18 24 29 28 -43 0
27 18 20 23 22 -44 0
27 18 20 23 22 -43 0
27 11 24 29 28 -36 0
27 11 24 29 28 -35 0
27 2 24 29 28 -26 0
27 2 24 29 28 -25 0
27 24 15 29 28 -41 0
27 24 15 29 28 -40 0
27 24 20 29 28 -44 0
27 24 20 29 28 -43 0
27 24 10 29 28 -36 0
27 24 10 29 28 -35 0
27 24 5 29 28 -26 0
27 24 5 29 28 -25 0
27 24 29 12 28 -41 0
27 24 29 12 28 -40 0
27 24 29 23 28 -44 0
27 24 29 23 28 -43 0
27 24 29 9 28 -36 0
27 24 29 9 28 -35 0
27 24 29 3 28 -26 0
27 24 29 3 28 -25 0
27 24 29 28 14 -41 0
27 24 29 28 14 -40 0
27 24 29 28 22 -44 0
27 24 29 28 22 -43 0
17 18 15 12 14 -39 0
17 18 15 12 14 -38 0
17 18 20 23 22 -39 0
17 18 20 23 22 -38 0
17 11 15 12 14 -32 0
17 11 15 12 14 -31 0
17 2 15 12 14 -13 0
17 2 15 12 14 -16 0
17 24 15 12 14 -41 0
17 24 15 12 14 -40 0
17 15 20 12 14 -39 0
17 15 20 12 14 -38 0
17 15 10 12 14 -32 0
17 15 10 12 14 -31 0
17 15 5 12 14 -13 0
17 15 5 12 14 -16 0
17 15 29 12 14 -41 0
17 15 29 12 14 -40 0
17 15 12 23 14 -39 0
17 15 12 23 14 -38 0
17 15 12 9 14 -32 0
17 15 12 9 14 -31 0
17 15 12 3 14 -13 0
17 15 12 3 14 -16 0
17 15 12 28 14 -41 0
17 15 12 28 14 -40 0
17 15 12 14 22 -39 0
17 15 12 14 22 -38 0
18 11 20 23 22 -33 0
18 11 20 23 22 -34 0
18 2 20 23 22 -21 0
18 2 20 23 22 -19 0
18 24 20 23 22 -44 0
18 24 20 23 22 -43 0
18 15 20 23 22 -39 0
18 15 20 23 22 -38 0
18 20 10 23 22 -33 0
18 20 10 23 22 -34 0
18 20 5 23 22 -21 0
18 20 5 23 22 -19 0
18 20 29 23 22 -44 0
18 20 29 23 22 -43 0
18 20 12 23 22 -39 0
18 20 12 23 22 -38 0
18 20 23 9 22 -33 0
18 20 23 9 22 -34 0
18 20 23 3 22 -21 0
18 20 23 3 22 -19 0
18 20 23 28 22 -44 0
18 20 23 28 22 -43 0
18 20 23 14 22 -39 0
18 20 23 14 22 -38 0
6 4 11 2 10 5 -8 0
6 4 11 2 10 5 -7 0
6 4 11 2 10 9 -8 0
6 4 11 2 10 9 -7 0
6 4 11 2 5 3 -8 0
6 4 11 2 5 3 -7 0
6 4 11 2 9 3 -8 0
6 4 11 2 9 3 -7 0
6 4 11 10 5 9 -8 0
6 4 11 10 5 9 -7 0
6 4 11 10 9 3 -8 0
6 4 11 10 9 3 -7 0
6 4 2 10 5 3 -8 0
6 4 2 10 5 3 -7 0
6 4 2 5 9 3 -8 0
6 4 2 5 9 3 -7 0
6 4 10 5 9 3 -8 0
6 4 10 5 9 3 -7 0
6 27 11 24 10 29 -36 0
6 27 11 24 10 29 -35 0
6 27 11 24 10 9 -36 0
6 27 11 24 10 9 -35 0
6 27 11 24 29 28 -36 0
6 27 11 24 29 28 -35 0
6 27 11 24 9 28 -36 0
6 27 11 24 9 28 -35 0
6 27 11 10 29 9 -36 0
6 27 11 10 29 9 -35 0
6 27 11 10 9 28 -36 0
6 27 11 10 9 28 -35 0
6 27 24 10 29 28 -36 0
6 27 24 10 29 28 -35 0
6 27 24 29 9 28 -36 0
6 27 24 29 9 28 -35 0
6 27 10 29 9 28 -36 0
6 27 10 29 9 28 -35 0
6 17 11 15 10 12 -32 0
6 17 11 15 10 12 -31 0
6 17 11 15 10 9 -32 0
6 17 11 15 10 9 -31 0
6 17 11 15 12 14 -32 0
6 17 11 15 12 14 -31 0
6 17 11 15 9 14 -32 0
6 17 11 15 9 14 -31 0
6 17 11 10 12 9 -32 0
6 17 11 10 12 9 -31 0
6 17 11 10 9 14 -32 0
6 17 11 10 9 14 -31 0
6 17 15 10 12 14 -32 0
6 17 15 10 12 14 -31 0
6 17 15 12 9 14 -32 0
6 17 15 12 9 14 -31 0
6 17 10 12 9 14 -32 0
6 17 10 12 9 14 -31 0
6 18 11 20 10 23 -33 0
6 18 11 20 10 23 -34 0
6 18 11 20 10 9 -33 0
6 18 11 20 10 9 -34 0
6 18 11 20 23 22 -33 0
6 18 11 20 23 22 -34 0
6 18 11 20 9 22 -33 0
6 18 11 20 9 22 -34 0
6 18 11 10 23 9 -33 0
6 18 11 10 23 9 -34 0
6 18 11 10 9 22 -33 0
6 18 11 10 9 22 -34 0
6 18 20 10 23 22 -33 0
6 18 20 10 23 22 -34 0
6 18 20 23 9 22 -33 0
6 18 20 23 9 22 -34 0
6 18 10 23 9 22 -33 0
6 18 10 23 9 22 -34 0
6 11 2 10 5 9 -8 0
6 11 2 10 5 9 -7 0
6 11 2 10 9 3 -8 0
6 11 2 10 9 3 -7 0
6 11 24 10 29 9 -36 0
6 11 24 10 29 9 -35 0
6 11 24 10 9 28 -36 0
6 11 24 10 9 28 -35 0
6 11 15 10 12 9 -32 0
6 11 15 10 12 9 -31 0
6 11 15 10 9 14 -32 0
6 11 15 10 9 14 -31 0
6 11 20 10 23 9 -33 0
6 11 20 10 23 9 -34 0
6 11 20 10 9 22 -33 0
6 11 20 10 9 22 -34 0
6 11 10 5 9 3 -8 0
6 11 10 5 9 3 -7 0
6 11 10 29 9 28 -36 0
6 11 10 29 9 28 -35 0
6 11 10 12 9 14 -32 0
6 11 10 12 9 14 -31 0
6 11 10 23 9 22 -33 0
6 11 10 23 9 22 -34 0
4 27 2 24 5 29 -26 0
4 27 2 24 5 29 -25 0
4 27 2 24 5 3 -26 0
4 27 2 24 5 3 -25 0
4 27 2 24 29 28 -26 0
4 27 2 24 29 28 -25 0
4 27 2 24 3 28 -26 0
4 27 2 24 3 28 -25 0
4 27 2 5 29 3 -26 0
4 27 2 5 29 3 -25 0
4 27 2 5 3 28 -26 0
4 27 2 5 3 28 -25 0
4 27 24 5 29 28 -26 0
4 27 24 5 29 28 -25 0
4 27 24 29 3 28 -26 0
4 27 24 29 3 28 -25 0
4 27 5 29 3 28 -26 0
4 27 5 29 3 28 -25 0
4 17 2 15 5 12 -13 0
4 17 2 15 5 12 -16 0
4 17 2 15 5 3 -13 0
4 17 2 15 5 3 -16 0
4 17 2 15 12 14 -13 0
4 17 2 15 12 14 -16 0
4 17 2 15 3 14 -13 0
4 17 2 15 3 14 -16 0
4 17 2 5 12 3 -13 0
4 17 2 5 12 3 -16 0
4 17 2 5 3 14 -13 0
4 17 2 5 3 14 -16 0
4 17 15 5 12 14 -13 0
4 17 15 5 12 14 -16 0
4 17 15 12 3 14 -13 0
4 17 15 12 3 14 -16 0
4 17 5 12 3 14 -13 0
4 17 5 12 3 14 -16 0
4 18 2 20 5 23 -21 0
4 18 2 20 5 23 -19 0
4 18 2 20 5 3 -21 0
4 18 2 20 5 3 -19 0
4 18 2 20 23 22 -21 0
4 18 2 20 23 22 -19 0
4 18 2 20 3 22 -21 0
4 18 2 20 3 22 -19 0
4 18 2 5 23 3 -21 0
4 18 2 5 23 3 -19 0
4 18 2 5 3 22 -21 0
4 18 2 5 3 22 -19 0
4 18 20 5 23 22 -21 0
4 18 20 5 23 22 -19 0
4 18 20 23 3 22 -21 0
4 18 20 23 3 22 -19 0
4 18 5 23 3 22 -21 0
4 18 5 23 3 22 -19 0
4 11 2 10 5 3 -8 0
4 11 2 10 5 3 -7 0
4 11 2 5 9 3 -8 0
4 11 2 5 9 3 -7 0
4 2 24 5 29 3 -26 0
4 2 24 5 29 3 -25 0
4 2 24 5 3 28 -26 0
4 2 24 5 3 28 -25 0
4 2 15 5 12 3 -13 0
4 2 15 5 12 3 -16 0
4 2 15 5 3 14 -13 0
4 2 15 5 3 14 -16 0
4 2 20 5 23 3 -21 0
4 2 20 5 23 3 -19 0
4 2 20 5 3 22 -21 0
4 2 20 5 3 22 -19 0
4 2 10 5 9 3 -8 0
4 2 10 5 9 3 -7 0
4 2 5 29 3 28 -26 0
4 2 5 29 3 28 -25 0
4 2 5 12 3 14 -13 0
4 2 5 12 3 14 -16 0
4 2 5 23 3 22 -21 0
4 2 5 23 3 22 -19 0
27 17 24 15 29 12 -41 0
27 17 24 15 29 12 -40 0
27 17 24 15 29 28 -41 0
27 17 24 15 29 28 -40 0
27 17 24 15 12 14 -41 0
27 17 24 15 12 14 -40 0
27 17 24 15 28 14 -41 0
27 17 24 15 28 14 -40 0
27 17 24 29 12 28 -41 0
27 17 24 29 12 28 -40 0
27 17 24 29 28 14 -41 0
27 17 24 29 28 14 -40 0
27 17 15 29 12 14 -41 0
27 17 15 29 12 14 -40 0
27 17 15 12 28 14 -41 0
27 17 15 12 28 14 -40 0
27 17 29 12 28 14 -41 0
27 17 29 12 28 14 -40 0
27 18 24 20 29 23 -44 0
27 18 24 20 29 23 -43 0
27 18 24 20 29 28 -44 0
27 18 24 20 29 28 -43 0
27 18 24 20 23 22 -44 0
27 18 24 20 23 22 -43 0
27 18 24 20 28 22 -44 0
27 18 24 20 28 22 -43 0
27 18 24 29 23 28 -44 0
27 18 24 29 23 28 -43 0
27 18 24 29 28 22 -44 0
27 18 24 29 28 22 -43 0
27 18 20 29 23 22 -44 0
27 18 20 29 23 22 -43 0
27 18 20 23 28 22 -44 0
27 18 20 23 28 22 -43 0
27 18 29 23 28 22 -44 0
27 18 29 23 28 22 -43 0
27 11 24 10 29 28 -36 0
27 11 24 10 29 28 -35 0
27 11 24 29 9 28 -36 0
27 11 24 29 9 28 -35 0
27 2 24 5 29 28 -26 0
27 2 24 5 29 28 -25 0
27 2 24 29 3 28 -26 0
27 2 24 29 3 28 -25 0
27 24 15 29 12 28 -41 0
27 24 15 29 12 28 -40 0
27 24 15 29 28 14 -41 0
27 24 15 29 28 14 -40 0
27 24 20 29 23 28 -44 0
27 24 20 29 23 28 -43 0
27 24 20 29 28 22 -44 0
27 24 20 29 28 22 -43 0
27 24 10 29 9 28 -36 0
27 24 10 29 9 28 -35 0
27 24 5 29 3 28 -26 0
27 24 5 29 3 28 -25 0
27 24 29 12 28 14 -41 0
27 24 29 12 28 14 -40 0
27 24 29 23 28 22 -44 0
27 24 29 23 28 22 -43 0
17 18 15 20 12 23 -39 0
17 18 15 20 12 23 -38 0
17 18 15 20 12 14 -39 0
17 18 15 20 12 14 -38 0
17 18 15 20 23 22 -39 0
17 18 15 20 23 22 -38 0
17 18 15 20 14 22 -39 0
17 18 15 20 14 22 -38 0
17 18 15 12 23 14 -39 0
17 18 15 12 23 14 -38 0
17 18 15 12 14 22 -39 0
17 18 15 12 14 22 -38 0
17 18 20 12 23 22 -39 0
17 18 20 12 23 22 -38 0
17 18 20 23 14 22 -39 0
17 18 20 23 14 22 -38 0
17 18 12 23 14 22 -39 0
17 18 12 23 14 22 -38 0
17 11 15 10 12 14 -32 0
17 11 15 10 12 14 -31 0
17 11 15 12 9 14 -32 0
17 11 15 12 9 14 -31 0
17 2 15 5 12 14 -13 0
17 2 15 5 12 14 -16 0
17 2 15 12 3 14 -13 0
17 2 15 12 3 14 -16 0
17 24 15 29 12 14 -41 0
17 24 15 29 12 14 -40 0
17 24 15 12 28 14 -41 0
17 24 15 12 28 14 -40 0
17 15 20 12 23 14 -39 0
17 15 20 12 23 14 -38 0
17 15 20 12 14 22 -39 0
17 15 20 12 14 22 -38 0
17 15 10 12 9 14 -32 0
17 15 10 12 9 14 -31 0
17 15 5 12 3 14 -13 0
17 15 5 12 3 14 -16 0
17 15 29 12 28 14 -41 0
17 15 29 12 28 14 -40 0
17 15 12 23 14 22 -39 0
17 15 12 23 14 22 -38 0
18 11 20 10 23 22 -33 0
18 11 20 10 23 22 -34 0
18 11 20 23 9 22 -33 0
18 11 20 23 9 22 -34 0
18 2 20 5 23 22 -21 0
18 2 20 5 23 22 -19 0
18 2 20 23 3 22 -21 0
18 2 20 23 3 22 -19 0
18 24 20 29 23 22 -44 0
18 24 20 29 23 22 -43 0
18 24 20 23 28 22 -44 0
18 24 20 23 28 22 -43 0
18 15 20 12 23 22 -39 0
18 15 20 12 23 22 -38 0
18 15 20 23 14 22 -39 0
18 15 20 23 14 22 -38 0
18 20 10 23 9 22 -33 0
18 20 10 23 9 22 -34 0
18 20 5 23 3 22 -21 0
18 20 5 23 3 22 -19 0
18 20 29 23 28 22 -44 0
18 20 29 23 28 22 -43 0
18 20 12 23 14 22 -39 0
18 20 12 23 14 22 -38 0
11 2 10 5 9 3 -8 0
11 2 10 5 9 3 -7 0
11 24 10 29 9 28 -36 0
11 24 10 29 9 28 -35 0
11 15 10 12 9 14 -32 0
11 15 10 12 9 14 -31 0
11 20 10 23 9 22 -33 0
11 20 10 23 9 22 -34 0
2 24 5 29 3 28 -26 0
2 24 5 29 3 28 -25 0
2 15 5 12 3 14 -13 0
2 15 5 12 3 14 -16 0
2 20 5 23 3 22 -21 0
2 20 5 23 3 22 -19 0
24 15 29 12 28 14 -41 0
24 15 29 12 28 14 -40 0
24 20 29 23 28 22 -44 0
24 20 29 23 28 22 -43 0
15 20 12 23 14 22 -39 0
15 20 12 23 14 22 -38 0
6 4 11 2 10 5 9 -8 0
6 4 11 2 10 5 9 -7 0
6 4 11 2 10 5 3 -8 0
6 4 11 2 10 5 3 -7 0
6 4 11 2 10 9 3 -8 0
6 4 11 2 10 9 3 -7 0
6 4 11 2 5 9 3 -8 0
6 4 11 2 5 9 3 -7 0
6 4 11 10 5 9 3 -8 0
6 4 11 10 5 9 3 -7 0
6 4 2 10 5 9 3 -8 0
6 4 2 10 5 9 3 -7 0
6 27 11 24 10 29 9 -36 0
6 27 11 24 10 29 9 -35 0
6 27 11 24 10 29 28 -36 0
6 27 11 24 10 29 28 -35 0
6 27 11 24 10 9 28 -36 0
6 27 11 24 10 9 28 -35 0
6 27 11 24 29 9 28 -36 0
6 27 11 24 29 9 28 -35 0
6 27 11 10 29 9 28 -36 0
6 27 11 10 29 9 28 -35 0
6 27 24 10 29 9 28 -36 0
6 27 24 10 29 9 28 -35 0
6 17 11 15 10 12 9 -32 0
6 17 11 15 10 12 9 -31 0
6 17 11 15 10 12 14 -32 0
6 17 11 15 10 12 14 -31 0
6 17 11 15 10 9 14 -32 0
6 17 11 15 10 9 14 -31 0
6 17 11 15 12 9 14 -32 0
6 17 11 15 12 9 14 -31 0
6 17 11 10 12 9 14 -32 0
6 17 11 10 12 9 14 -31 0
6 17 15 10 12 9 14 -32 0
6 17 15 10 12 9 14 -31 0
6 18 11 20 10 23 9 -33 0
6 18 11 20 10 23 9 -34 0
6 18 11 20 10 23 22 -33 0
6 18 11 20 10 23 22 -34 0
6 18 11 20 10 9 22 -33 0
6 18 11 20 10 9 22 -34 0
6 18 11 20 23 9 22 -33 0
6 18 11 20 23 9 22 -34 0
6 18 11 10 23 9 22 -33 0
6 18 11 10 23 9 22 -34 0
6 18 20 10 23 9 22 -33 0
6 18 20 10 23 9 22 -34 0
6 11 2 10 5 9 3 -8 0
6 11 2 10 5 9 3 -7 0
6 11 24 10 29 9 28 -36 0
6 11 24 10 29 9 28 -35 0
6 11 15 10 12 9 14 -32 0
6 11 15 10 12 9 14 -31 0
6 11 20 10 23 9 22 -33 0
6 11 20 10 23 9 22 -34 0
4 27 2 24 5 29 3 -26 0
4 27 2 24 5 29 3 -25 0
4 27 2 24 5 29 28 -26 0
4 27 2 24 5 29 28 -25 0
4 27 2 24 5 3 28 -26 0
4 27 2 24 5 3 28 -25 0
4 27 2 24 29 3 28 -26 0
4 27 2 24 29 3 28 -25 0
4 27 2 5 29 3 28 -26 0
4 27 2 5 29 3 28 -25 0
4 27 24 5 29 3 28 -26 0
4 27 24 5 29 3 28 -25 0
4 17 2 15 5 12 3 -13 0
4 17 2 15 5 12 3 -16 0
4 17 2 15 5 12 14 -13 0
4 17 2 15 5 12 14 -16 0
4 17 2 15 5 3 14 -13 0
4 17 2 15 5 3 14 -16 0
4 17 2 15 12 3 14 -13 0
4 17 2 15 12 3 14 -16 0
4 17 2 5 12 3 14 -13 0
4 17 2 5 12 3 14 -16 0
4 17 15 5 12 3 14 -13 0
4 17 15 5 12 3 14 -16 0
4 18 2 20 5 23 3 -21 0
4 18 2 20 5 23 3 -19 0
4 18 2 20 5 23 22 -21 0
4 18 2 20 5 23 22 -19 0
4 18 2 20 5 3 22 -21 0
4 18 2 20 5 3 22 -19 0
4 18 2 20 23 3 22 -21 0
4 18 2 20 23 3 22 -19 0
4 18 2 5 23 3 22 -21 0
4 18 2 5 23 3 22 -19 0
4 18 20 5 23 3 22 -21 0
4 18 20 5 23 3 22 -19 0
4 11 2 10 5 9 3 -8 0
4 11 2 10 5 9 3 -7 0
4 2 24 5 29 3 28 -26 0
4 2 24 5 29 3 28 -25 0
4 2 15 5 12 3 14 -13 0
4 2 15 5 12 3 14 -16 0
4 2 20 5 23 3 22 -21 0
4 2 20 5 23 3 22 -19 0
27 17 24 15 29 12 28 -41 0
27 17 24 15 29 12 28 -40 0
27 17 24 15 29 12 14 -41 0
27 17 24 15 29 12 14 -40 0
27 17 24 15 29 28 14 -41 0
27 17 24 15 29 28 14 -40 0
27 17 24 15 12 28 14 -41 0
27 17 24 15 12 28 14 -40 0
27 17 24 29 12 28 14 -41 0
27 17 24 29 12 28 14 -40 0
27 17 15 29 12 28 14 -41 0
27 17 15 29 12 28 14 -40 0
27 18 24 20 29 23 28 -44 0
27 18 24 20 29 23 28 -43 0
27 18 24 20 29 23 22 -44 0
27 18 24 20 29 23 22 -43 0
27 18 24 20 29 28 22 -44 0
27 18 24 20 29 28 22 -43 0
27 18 24 20 23 28 22 -44 0
27 18 24 20 23 28 22 -43 0
27 18 24 29 23 28 22 -44 0
27 18 24 29 23 28 22 -43 0
27 18 20 29 23 28 22 -44 0
27 18 20 29 23 28 22 -43 0
27 11 24 10 29 9 28 -36 0
27 11 24 10 29 9 28 -35 0
27 2 24 5 29 3 28 -26 0
27 2 24 5 29 3 28 -25 0
27 24 15 29 12 28 14 -41 0
27 24 15 29 12 28 14 -40 0
27 24 20 29 23 28 22 -44 0
27 24 20 29 23 28 22 -43 0
17 18 15 20 12 23 14 -39 0
17 18 15 20 12 23 14 -38 0
17 18 15 20 12 23 22 -39 0
17 18 15 20 12 23 22 -38 0
17 18 15 20 12 14 22 -39 0
17 18 15 20 12 14 22 -38 0
17 18 15 20 23 14 22 -39 0
17 18 15 20 23 14 22 -38 0
17 18 15 12 23 14 22 -39 0
17 18 15 12 23 14 22 -38 0
17 18 20 12 23 14 22 -39 0
17 18 20 12 23 14 22 -38 0
17 11 15 10 12 9 14 -32 0
17 11 15 10 12 9 14 -31 0
17 2 15 5 12 3 14 -13 0
17 2 15 5 12 3 14 -16 0
17 24 15 29 12 28 14 -41 0
17 24 15 29 12 28 14 -40 0
17 15 20 12 23 14 22 -39 0
17 15 20 12 23 14 22 -38 0
18 11 20 10 23 9 22 -33 0
18 11 20 10 23 9 22 -34 0
18 2 20 5 23 3 22 -21 0
18 2 20 5 23 3 22 -19 0
18 24 20 29 23 28 22 -44 0
18 24 20 29 23 28 22 -43 0
18 15 20 12 23 14 22 -39 0
18 15 20 12 23 14 22 -38 0
6 4 11 2 10 5 9 3 -8 0
6 4 11 2 10 5 9 3 -7 0
6 27 11 24 10 29 9 28 -36 0
6 27 11 24 10 29 9 28 -35 0
6 17 11 15 10 12 9 14 -32 0
6 17 11 15 10 12 9 14 -31 0
6 18 11 20 10 23 9 22 -33 0
6 18 11 20 10 23 9 22 -34 0
4 27 2 24 5 29 3 28 -26 0
4 27 2 24 5 29 3 28 -25 0
4 17 2 15 5 12 3 14 -13 0
4 17 2 15 5 12 3 14 -16 0
4 18 2 20 5 23 3 22 -21 0
4 18 2 20 5 23 3 22 -19 0
27 17 24 15 29 12 28 14 -41 0
27 17 24 15 29 12 28 14 -40 0
27 18 24 20 29 23 28 22 -44 0
27 18 24 20 29 23 28 22 -43 0
17 18 15 20 12 23 14 22 -39 0
17 18 15 20 12 23 14 22 -38 0
