c U3(5) E1(5,5) U1(5) U4(5) U2(5) E1(5,1) U1(1) E1(1,5) U2(1) U3(1) U4(1) E1(4,5) U4(4) E1(5,4) U3(4) U1(4) U2(4) U4(2) U1(2) E1(5,2) E1(2,5) U2(2) U3(2) U2(3) E1(3,5) U4(3) U1(3) U3(3) E1(5,3) U3(0) E1(0,5) U4(0) U1(0) E1(5,0) U2(0) E1(1,1) E1(1,4) E1(4,1) E1(2,1) E1(1,2) E1(3,1) E1(1,3) E1(0,1) E1(1,0) E1(4,4) E1(2,4) E1(4,2) E1(3,4) E1(4,3) E1(4,0) E1(0,4) E1(2,2) E1(2,3) E1(3,2) E1(0,2) E1(2,0) E1(3,3) E1(0,3) E1(3,0) E1(0,0)
c 1 2 3 4 5 6 7 8 9 10 11 12 13 14 15 16 17 18 19 20 21 22 23 24 25 26 27 28 29 30 31 32 33 34 35 36 37 38 39 40 41 42 43 44 45 46 47 48 49 50 51 52 53 54 55 56 57 58 59 60
p cnf 60 1164
60 -60 0
43 -44 0
55 -56 0
58 -59 0
51 -50 0
31 -34 0
44 -43 0
36 -36 0
40 -39 0
42 -41 0
37 -38 0
8 -6 0
56 -55 0
39 -40 0
52 -52 0
53 -54 0
46 -47 0
21 -20 0
59 -58 0
41 -42 0
54 -53 0
57 -57 0
48 -49 0
25 -29 0
50 -51 0
38 -37 0
47 -46 0
49 -48 0
45 -45 0
12 -14 0
34 -31 0
6 -8 0
20 -21 0
29 -25 0
14 -12 0
2 -2 0
-33 -35 0
-33 -30 0
-33 -32 0
-7 -9 0
-7 -10 0
-7 -11 0
-19 -22 0
-19 -23 0
-19 -18 0
-27 -24 0
-27 -28 0
-27 -26 0
-16 -17 0
-16 -15 0
-16 -13 0
-3 -5 0
-3 -1 0
-3 -4 0
-35 -30 0
-35 -32 0
-9 -10 0
-9 -11 0
-22 -23 0
-22 -18 0
-24 -28 0
-24 -26 0
-17 -15 0
-17 -13 0
-5 -1 0
-5 -4 0
-30 -32 0
-10 -11 0
-23 -18 0
-28 -26 0
-15 -13 0
-1 -4 0
33 35 30 32 0
7 9 10 11 0
19 22 23 18 0
27 24 28 26 0
16 17 15 13 0
3 5 1 4 0
33 35 30 -60 0
33 35 32 -60 0
33 30 32 -60 0
7 9 10 -36 0
7 9 11 -36 0
7 10 11 -36 0
19 22 23 -52 0
19 22 18 -52 0
19 23 18 -52 0
27 24 28 -57 0
27 24 26 -57 0
27 28 26 -57 0
16 17 15 -45 0
16 17 13 -45 0
16 15 13 -45 0
3 5 1 -2 0
3 5 4 -2 0
3 1 4 -2 0
35 30 32 -60 0
9 10 11 -36 0
22 23 18 -52 0
24 28 26 -57 0
17 15 13 -45 0
5 1 4 -2 0
33 35 30 32 -60 0
33 35 30 32 -43 0
33 35 30 32 -55 0
33 35 30 32 -58 0
33 35 30 32 -51 0
33 35 30 32 -31 0
33 35 30 32 -44 0
33 35 30 32 -56 0
33 35 30 32 -59 0
33 35 30 32 -50 0
33 35 30 32 -34 0
7 9 10 11 -43 0
7 9 10 11 -44 0
7 9 10 11 -36 0
7 9 10 11 -40 0
7 9 10 11 -42 0
7 9 10 11 -37 0
7 9 10 11 -8 0
7 9 10 11 -39 0
7 9 10 11 -41 0
7 9 10 11 -38 0
7 9 10 11 -6 0
19 22 23 18 -55 0
19 22 23 18 -40 0
19 22 23 18 -56 0
19 22 23 18 -39 0
19 22 23 18 -52 0
19 22 23 18 -53 0
19 22 23 18 -46 0
19 22 23 18 -21 0
19 22 23 18 -54 0
19 22 23 18 -47 0
19 22 23 18 -20 0
27 24 28 26 -58 0
27 24 28 26 -42 0
27 24 28 26 -53 0
27 24 28 26 -59 0
27 24 28 26 -41 0
27 24 28 26 -54 0
27 24 28 26 -57 0
27 24 28 26 -48 0
27 24 28 26 -25 0
27 24 28 26 -49 0
27 24 28 26 -29 0
16 17 15 13 -51 0
16 17 15 13 -37 0
16 17 15 13 -46 0
16 17 15 13 -48 0
16 17 15 13 -50 0
16 17 15 13 -38 0
16 17 15 13 -47 0
16 17 15 13 -49 0
16 17 15 13 -45 0
16 17 15 13 -12 0
16 17 15 13 -14 0
3 5 1 4 -31 0
3 5 1 4 -8 0
3 5 1 4 -21 0
3 5 1 4 -25 0
3 5 1 4 -12 0
3 5 1 4 -34 0
3 5 1 4 -6 0
3 5 1 4 -20 0
3 5 1 4 -29 0
3 5 1 4 -14 0
3 5 1 4 -2 0
60 43 55 58 51 31 0
44 36 40 42 37 8 0
56 39 52 53 46 21 0
59 41 54 57 48 25 0
50 38 47 49 45 12 0
34 6 20 29 14 2 0
33 7 35 30 32 -43 0
33 7 35 30 32 -44 0
33 7 9 10 11 -43 0
33 7 9 10 11 -44 0
33 19 35 30 32 -55 0
33 19 35 30 32 -56 0
33 19 22 23 18 -55 0
33 19 22 23 18 -56 0
33 27 35 30 32 -58 0
33 27 35 30 32 -59 0
33 27 24 28 26 -58 0
33 27 24 28 26 -59 0
33 16 35 30 32 -51 0
33 16 35 30 32 -50 0
33 16 17 15 13 -51 0
33 16 17 15 13 -50 0
33 3 35 30 32 -31 0
33 3 35 30 32 -34 0
33 3 5 1 4 -31 0
33 3 5 1 4 -34 0
33 35 9 30 32 -43 0
33 35 9 30 32 -44 0
33 35 22 30 32 -55 0
33 35 22 30 32 -56 0
33 35 24 30 32 -58 0
33 35 24 30 32 -59 0
33 35 17 30 32 -51 0
33 35 17 30 32 -50 0
33 35 5 30 32 -31 0
33 35 5 30 32 -34 0
33 35 30 10 32 -43 0
33 35 30 10 32 -44 0
33 35 30 23 32 -55 0
33 35 30 23 32 -56 0
33 35 30 28 32 -58 0
33 35 30 28 32 -59 0
33 35 30 15 32 -51 0
33 35 30 15 32 -50 0
33 35 30 1 32 -31 0
33 35 30 1 32 -34 0
33 35 30 32 11 -43 0
33 35 30 32 11 -44 0
33 35 30 32 18 -55 0
33 35 30 32 18 -56 0
33 35 30 32 26 -58 0
33 35 30 32 26 -59 0
33 35 30 32 13 -51 0
33 35 30 32 13 -50 0
33 35 30 32 4 -31 0
33 35 30 32 4 -34 0
7 19 9 10 11 -40 0
7 19 9 10 11 -39 0
7 19 22 23 18 -40 0
7 19 22 23 18 -39 0
7 27 9 10 11 -42 0
7 27 9 10 11 -41 0
7 27 24 28 26 -42 0
7 27 24 28 26 -41 0
7 16 9 10 11 -37 0
7 16 9 10 11 -38 0
7 16 17 15 13 -37 0
7 16 17 15 13 -38 0
7 3 9 10 11 -8 0
7 3 9 10 11 -6 0
7 3 5 1 4 -8 0
7 3 5 1 4 -6 0
7 35 9 10 11 -43 0
7 35 9 10 11 -44 0
7 9 22 10 11 -40 0
7 9 22 10 11 -39 0
7 9 24 10 11 -42 0
7 9 24 10 11 -41 0
7 9 17 10 11 -37 0
7 9 17 10 11 -38 0
7 9 5 10 11 -8 0
7 9 5 10 11 -6 0
7 9 30 10 11 -43 0
7 9 30 10 11 -44 0
7 9 10 23 11 -40 0
7 9 10 23 11 -39 0
7 9 10 28 11 -42 0
7 9 10 28 11 -41 0
7 9 10 15 11 -37 0
7 9 10 15 11 -38 0
7 9 10 1 11 -8 0
7 9 10 1 11 -6 0
7 9 10 32 11 -43 0
7 9 10 32 11 -44 0
7 9 10 11 18 -40 0
7 9 10 11 18 -39 0
7 9 10 11 26 -42 0
7 9 10 11 26 -41 0
7 9 10 11 13 -37 0
7 9 10 11 13 -38 0
7 9 10 11 4 -8 0
7 9 10 11 4 -6 0
19 27 22 23 18 -53 0
19 27 22 23 18 -54 0
19 27 24 28 26 -53 0
19 27 24 28 26 -54 0
19 16 22 23 18 -46 0
19 16 22 23 18 -47 0
19 16 17 15 13 -46 0
19 16 17 15 13 -47 0
19 3 22 23 18 -21 0
19 3 22 23 18 -20 0
19 3 5 1 4 -21 0
19 3 5 1 4 -20 0
19 35 22 23 18 -55 0
19 35 22 23 18 -56 0
19 9 22 23 18 -40 0
19 9 22 23 18 -39 0
19 22 24 23 18 -53 0
19 22 24 23 18 -54 0
19 22 17 23 18 -46 0
19 22 17 23 18 -47 0
19 22 5 23 18 -21 0
19 22 5 23 18 -20 0
19 22 30 23 18 -55 0
19 22 30 23 18 -56 0
19 22 10 23 18 -40 0
19 22 10 23 18 -39 0
19 22 23 28 18 -53 0
19 22 23 28 18 -54 0
19 22 23 15 18 -46 0
19 22 23 15 18 -47 0
19 22 23 1 18 -21 0
19 22 23 1 18 -20 0
19 22 23 32 18 -55 0
19 22 23 32 18 -56 0
19 22 23 11 18 -40 0
19 22 23 11 18 -39 0
19 22 23 18 26 -53 0
19 22 23 18 26 -54 0
19 22 23 18 13 -46 0
19 22 23 18 13 -47 0
19 22 23 18 4 -21 0
19 22 23 18 4 -20 0
27 16 24 28 26 -48 0
27 16 24 28 26 -49 0
27 16 17 15 13 -48 0
27 16 17 15 13 -49 0
27 3 24 28 26 -25 0
27 3 24 28 26 -29 0
27 3 5 1 4 -25 0
27 3 5 1 4 -29 0
27 35 24 28 26 -58 0
27 35 24 28 26 -59 0
27 9 24 28 26 -42 0
27 9 24 28 26 -41 0
27 22 24 28 26 -53 0
27 22 24 28 26 -54 0
27 24 17 28 26 -48 0
27 24 17 28 26 -49 0
27 24 5 28 26 -25 0
27 24 5 28 26 -29 0
27 24 30 28 26 -58 0
27 24 30 28 26 -59 0
27 24 10 28 26 -42 0
27 24 10 28 26 -41 0
27 24 23 28 26 -53 0
27 24 23 28 26 -54 0
27 24 28 15 26 -48 0
27 24 28 15 26 -49 0
27 24 28 1 26 -25 0
27 24 28 1 26 -29 0
27 24 28 32 26 -58 0
27 24 28 32 26 -59 0
27 24 28 11 26 -42 0
27 24 28 11 26 -41 0
27 24 28 18 26 -53 0
27 24 28 18 26 -54 0
27 24 28 26 13 -48 0
27 24 28 26 13 -49 0
27 24 28 26 4 -25 0
27 24 28 26 4 -29 0
16 3 17 15 13 -12 0
16 3 17 15 13 -14 0
16 3 5 1 4 -12 0
16 3 5 1 4 -14 0
16 35 17 15 13 -51 0
16 35 17 15 13 -50 0
16 9 17 15 13 -37 0
16 9 17 15 13 -38 0
16 22 17 15 13 -46 0
16 22 17 15 13 -47 0
16 24 17 15 13 -48 0
16 24 17 15 13 -49 0
16 17 5 15 13 -12 0
16 17 5 15 13 -14 0
16 17 30 15 13 -51 0
16 17 30 15 13 -50 0
16 17 10 15 13 -37 0
16 17 10 15 13 -38 0
16 17 23 15 13 -46 0
16 17 23 15 13 -47 0
16 17 28 15 13 -48 0
16 17 28 15 13 -49 0
16 17 15 1 13 -12 0
16 17 15 1 13 -14 0
16 17 15 32 13 -51 0
16 17 15 32 13 -50 0
16 17 15 11 13 -37 0
16 17 15 11 13 -38 0
16 17 15 18 13 -46 0
16 17 15 18 13 -47 0
16 17 15 26 13 -48 0
16 17 15 26 13 -49 0
16 17 15 13 4 -12 0
16 17 15 13 4 -14 0
3 35 5 1 4 -31 0
3 35 5 1 4 -34 0
3 9 5 1 4 -8 0
3 9 5 1 4 -6 0
3 22 5 1 4 -21 0
3 22 5 1 4 -20 0
3 24 5 1 4 -25 0
3 24 5 1 4 -29 0
3 17 5 1 4 -12 0
3 17 5 1 4 -14 0
3 5 30 1 4 -31 0
3 5 30 1 4 -34 0
3 5 10 1 4 -8 0
3 5 10 1 4 -6 0
3 5 23 1 4 -21 0
3 5 23 1 4 -20 0
3 5 28 1 4 -25 0
3 5 28 1 4 -29 0
3 5 15 1 4 -12 0
3 5 15 1 4 -14 0
3 5 1 32 4 -31 0
3 5 1 32 4 -34 0
3 5 1 11 4 -8 0
3 5 1 11 4 -6 0
3 5 1 18 4 -21 0
3 5 1 18 4 -20 0
3 5 1 26 4 -25 0
3 5 1 26 4 -29 0
3 5 1 13 4 -12 0
3 5 1 13 4 -14 0
33 7 35 9 30 10 -43 0
33 7 35 9 30 10 -44 0
33 7 35 9 30 32 -43 0
33 7 35 9 30 32 -44 0
33 7 35 9 10 11 -43 0
33 7 35 9 10 11 -44 0
33 7 35 9 32 11 -43 0
33 7 35 9 32 11 -44 0
33 7 35 30 10 32 -43 0
33 7 35 30 10 32 -44 0
33 7 35 30 32 11 -43 0
33 7 35 30 32 11 -44 0
33 7 9 30 10 11 -43 0
33 7 9 30 10 11 -44 0
33 7 9 10 32 11 -43 0
33 7 9 10 32 11 -44 0
33 7 30 10 32 11 -43 0
33 7 30 10 32 11 -44 0
33 19 35 22 30 23 -55 0
33 19 35 22 30 23 -56 0
33 19 35 22 30 32 -55 0
33 19 35 22 30 32 -56 0
33 19 35 22 23 18 -55 0
33 19 35 22 23 18 -56 0
33 19 35 22 32 18 -55 0
33 19 35 22 32 18 -56 0
33 19 35 30 23 32 -55 0
33 19 35 30 23 32 -56 0
33 19 35 30 32 18 -55 0
33 19 35 30 32 18 -56 0
33 19 22 30 23 18 -55 0
33 19 22 30 23 18 -56 0
33 19 22 23 32 18 -55 0
33 19 22 23 32 18 -56 0
33 19 30 23 32 18 -55 0
33 19 30 23 32 18 -56 0
33 27 35 24 30 28 -58 0
33 27 35 24 30 28 -59 0
33 27 35 24 30 32 -58 0
33 27 35 24 30 32 -59 0
33 27 35 24 28 26 -58 0
33 27 35 24 28 26 -59 0
33 27 35 24 32 26 -58 0
33 27 35 24 32 26 -59 0
33 27 35 30 28 32 -58 0
33 27 35 30 28 32 -59 0
33 27 35 30 32 26 -58 0
33 27 35 30 32 26 -59 0
33 27 24 30 28 26 -58 0
33 27 24 30 28 26 -59 0
33 27 24 28 32 26 -58 0
33 27 24 28 32 26 -59 0
33 27 30 28 32 26 -58 0
33 27 30 28 32 26 -59 0
33 16 35 17 30 15 -51 0
33 16 35 17 30 15 -50 0
33 16 35 17 30 32 -51 0
33 16 35 17 30 32 -50 0
33 16 35 17 15 13 -51 0
33 16 35 17 15 13 -50 0
33 16 35 17 32 13 -51 0
33 16 35 17 32 13 -50 0
33 16 35 30 15 32 -51 0
33 16 35 30 15 32 -50 0
33 16 35 30 32 13 -51 0
33 16 35 30 32 13 -50 0
33 16 17 30 15 13 -51 0
33 16 17 30 15 13 -50 0
33 16 17 15 32 13 -51 0
33 16 17 15 32 13 -50 0
33 16 30 15 32 13 -51 0
33 16 30 15 32 13 -50 0
33 3 35 5 30 1 -31 0
33 3 35 5 30 1 -34 0
33 3 35 5 30 32 -31 0
33 3 35 5 30 32 -34 0
33 3 35 5 1 4 -31 0
33 3 35 5 1 4 -34 0
33 3 35 5 32 4 -31 0
33 3 35 5 32 4 -34 0
33 3 35 30 1 32 -31 0
33 3 35 30 1 32 -34 0
33 3 35 30 32 4 -31 0
33 3 35 30 32 4 -34 0
33 3 5 30 1 4 -31 0
33 3 5 30 1 4 -34 0
33 3 5 1 32 4 -31 0
33 3 5 1 32 4 -34 0
33 3 30 1 32 4 -31 0
33 3 30 1 32 4 -34 0
33 35 9 30 10 32 -43 0
33 35 9 30 10 32 -44 0
33 35 9 30 32 11 -43 0
33 35 9 30 32 11 -44 0
33 35 22 30 23 32 -55 0
33 35 22 30 23 32 -56 0
33 35 22 30 32 18 -55 0
33 35 22 30 32 18 -56 0
33 35 24 30 28 32 -58 0
33 35 24 30 28 32 -59 0
33 35 24 30 32 26 -58 0
33 35 24 30 32 26 -59 0
33 35 17 30 15 32 -51 0
33 35 17 30 15 32 -50 0
33 35 17 30 32 13 -51 0
33 35 17 30 32 13 -50 0
33 35 5 30 1 32 -31 0
33 35 5 30 1 32 -34 0
33 35 5 30 32 4 -31 0
33 35 5 30 32 4 -34 0
33 35 30 10 32 11 -43 0
33 35 30 10 32 11 -44 0
33 35 30 23 32 18 -55 0
33 35 30 23 32 18 -56 0
33 35 30 28 32 26 -58 0
33 35 30 28 32 26 -59 0
33 35 30 15 32 13 -51 0
33 35 30 15 32 13 -50 0
33 35 30 1 32 4 -31 0
33 35 30 1 32 4 -34 0
7 19 9 22 10 23 -40 0
7 19 9 22 10 23 -39 0
7 19 9 22 10 11 -40 0
7 19 9 22 10 11 -39 0
7 19 9 22 23 18 -40 0
7 19 9 22 23 18 -39 0
7 19 9 22 11 18 -40 0
7 19 9 22 11 18 -39 0
7 19 9 10 23 11 -40 0
7 19 9 10 23 11 -39 0
7 19 9 10 11 18 -40 0
7 19 9 10 11 18 -39 0
7 19 22 10 23 18 -40 0
7 19 22 10 23 18 -39 0
7 19 22 23 11 18 -40 0
7 19 22 23 11 18 -39 0
7 19 10 23 11 18 -40 0
7 19 10 23 11 18 -39 0
7 27 9 24 10 28 -42 0
7 27 9 24 10 28 -41 0
7 27 9 24 10 11 -42 0
7 27 9 24 10 11 -41 0
7 27 9 24 28 26 -42 0
7 27 9 24 28 26 -41 0
7 27 9 24 11 26 -42 0
7 27 9 24 11 26 -41 0
7 27 9 10 28 11 -42 0
7 27 9 10 28 11 -41 0
7 27 9 10 11 26 -42 0
7 27 9 10 11 26 -41 0
7 27 24 10 28 26 -42 0
7 27 24 10 28 26 -41 0
7 27 24 28 11 26 -42 0
7 27 24 28 11 26 -41 0
7 27 10 28 11 26 -42 0
7 27 10 28 11 26 -41 0
7 16 9 17 10 15 -37 0
7 16 9 17 10 15 -38 0
7 16 9 17 10 11 -37 0
7 16 9 17 10 11 -38 0
7 16 9 17 15 13 -37 0
7 16 9 17 15 13 -38 0
7 16 9 17 11 13 -37 0
7 16 9 17 11 13 -38 0
7 16 9 10 15 11 -37 0
7 16 9 10 15 11 -38 0
7 16 9 10 11 13 -37 0
7 16 9 10 11 13 -38 0
7 16 17 10 15 13 -37 0
7 16 17 10 15 13 -38 0
7 16 17 15 11 13 -37 0
7 16 17 15 11 13 -38 0
7 16 10 15 11 13 -37 0
7 16 10 15 11 13 -38 0
7 3 9 5 10 1 -8 0
7 3 9 5 10 1 -6 0
7 3 9 5 10 11 -8 0
7 3 9 5 10 11 -6 0
7 3 9 5 1 4 -8 0
7 3 9 5 1 4 -6 0
7 3 9 5 11 4 -8 0
7 3 9 5 11 4 -6 0
7 3 9 10 1 11 -8 0
7 3 9 10 1 11 -6 0
7 3 9 10 11 4 -8 0
7 3 9 10 11 4 -6 0
7 3 5 10 1 4 -8 0
7 3 5 10 1 4 -6 0
7 3 5 1 11 4 -8 0
7 3 5 1 11 4 -6 0
7 3 10 1 11 4 -8 0
7 3 10 1 11 4 -6 0
7 35 9 30 10 11 -43 0
7 35 9 30 10 11 -44 0
7 35 9 10 32 11 -43 0
7 35 9 10 32 11 -44 0
7 9 22 10 23 11 -40 0
7 9 22 10 23 11 -39 0
7 9 22 10 11 18 -40 0
7 9 22 10 11 18 -39 0
7 9 24 10 28 11 -42 0
7 9 24 10 28 11 -41 0
7 9 24 10 11 26 -42 0
7 9 24 10 11 26 -41 0
7 9 17 10 15 11 -37 0
7 9 17 10 15 11 -38 0
7 9 17 10 11 13 -37 0
7 9 17 10 11 13 -38 0
7 9 5 10 1 11 -8 0
7 9 5 10 1 11 -6 0
7 9 5 10 11 4 -8 0
7 9 5 10 11 4 -6 0
7 9 30 10 32 11 -43 0
7 9 30 10 32 11 -44 0
7 9 10 23 11 18 -40 0
7 9 10 23 11 18 -39 0
7 9 10 28 11 26 -42 0
7 9 10 28 11 26 -41 0
7 9 10 15 11 13 -37 0
7 9 10 15 11 13 -38 0
7 9 10 1 11 4 -8 0
7 9 10 1 11 4 -6 0
19 27 22 24 23 28 -53 0
19 27 22 24 23 28 -54 0
19 27 22 24 23 18 -53 0
19 27 22 24 23 18 -54 0
19 27 22 24 28 26 -53 0
19 27 22 24 28 26 -54 0
19 27 22 24 18 26 -53 0
19 27 22 24 18 26 -54 0
19 27 22 23 28 18 -53 0
19 27 22 23 28 18 -54 0
19 27 22 23 18 26 -53 0
19 27 22 23 18 26 -54 0
19 27 24 23 28 26 -53 0
19 27 24 23 28 26 -54 0
19 27 24 28 18 26 -53 0
19 27 24 28 18 26 -54 0
19 27 23 28 18 26 -53 0
19 27 23 28 18 26 -54 0
19 16 22 17 23 15 -46 0
19 16 22 17 23 15 -47 0
19 16 22 17 23 18 -46 0
19 16 22 17 23 18 -47 0
19 16 22 17 15 13 -46 0
19 16 22 17 15 13 -47 0
19 16 22 17 18 13 -46 0
19 16 22 17 18 13 -47 0
19 16 22 23 15 18 -46 0
19 16 22 23 15 18 -47 0
19 16 22 23 18 13 -46 0
19 16 22 23 18 13 -47 0
19 16 17 23 15 13 -46 0
19 16 17 23 15 13 -47 0
19 16 17 15 18 13 -46 0
19 16 17 15 18 13 -47 0
19 16 23 15 18 13 -46 0
19 16 23 15 18 13 -47 0
19 3 22 5 23 1 -21 0
19 3 22 5 23 1 -20 0
19 3 22 5 23 18 -21 0
19 3 22 5 23 18 -20 0
19 3 22 5 1 4 -21 0
19 3 22 5 1 4 -20 0
19 3 22 5 18 4 -21 0
19 3 22 5 18 4 -20 0
19 3 22 23 1 18 -21 0
19 3 22 23 1 18 -20 0
19 3 22 23 18 4 -21 0
19 3 22 23 18 4 -20 0
19 3 5 23 1 4 -21 0
19 3 5 23 1 4 -20 0
19 3 5 1 18 4 -21 0
19 3 5 1 18 4 -20 0
19 3 23 1 18 4 -21 0
19 3 23 1 18 4 -20 0
19 35 22 30 23 18 -55 0
19 35 22 30 23 18 -56 0
19 35 22 23 32 18 -55 0
19 35 22 23 32 18 -56 0
19 9 22 10 23 18 -40 0
19 9 22 10 23 18 -39 0
19 9 22 23 11 18 -40 0
19 9 22 23 11 18 -39 0
19 22 24 23 28 18 -53 0
19 22 24 23 28 18 -54 0
19 22 24 23 18 26 -53 0
19 22 24 23 18 26 -54 0
19 22 17 23 15 18 -46 0
19 22 17 23 15 18 -47 0
19 22 17 23 18 13 -46 0
19 22 17 23 18 13 -47 0
19 22 5 23 1 18 -21 0
19 22 5 23 1 18 -20 0
19 22 5 23 18 4 -21 0
19 22 5 23 18 4 -20 0
19 22 30 23 32 18 -55 0
19 22 30 23 32 18 -56 0
19 22 10 23 11 18 -40 0
19 22 10 23 11 18 -39 0
19 22 23 28 18 26 -53 0
19 22 23 28 18 26 -54 0
19 22 23 15 18 13 -46 0
19 22 23 15 18 13 -47 0
19 22 23 1 18 4 -21 0
19 22 23 1 18 4 -20 0
27 16 24 17 28 15 -48 0
27 16 24 17 28 15 -49 0
27 16 24 17 28 26 -48 0
27 16 24 17 28 26 -49 0
27 16 24 17 15 13 -48 0
27 16 24 17 15 13 -49 0
27 16 24 17 26 13 -48 0
27 16 24 17 26 13 -49 0
27 16 24 28 15 26 -48 0
27 16 24 28 15 26 -49 0
27 16 24 28 26 13 -48 0
27 16 24 28 26 13 -49 0
27 16 17 28 15 13 -48 0
27 16 17 28 15 13 -49 0
27 16 17 15 26 13 -48 0
27 16 17 15 26 13 -49 0
27 16 28 15 26 13 -48 0
27 16 28 15 26 13 -49 0
27 3 24 5 28 1 -25 0
27 3 24 5 28 1 -29 0
27 3 24 5 28 26 -25 0
27 3 24 5 28 26 -29 0
27 3 24 5 1 4 -25 0
27 3 24 5 1 4 -29 0
27 3 24 5 26 4 -25 0
27 3 24 5 26 4 -29 0
27 3 24 28 1 26 -25 0
27 3 24 28 1 26 -29 0
27 3 24 28 26 4 -25 0
27 3 24 28 26 4 -29 0
27 3 5 28 1 4 -25 0
27 3 5 28 1 4 -29 0
27 3 5 1 26 4 -25 0
27 3 5 1 26 4 -29 0
27 3 28 1 26 4 -25 0
27 3 28 1 26 4 -29 0
27 35 24 30 28 26 -58 0
27 35 24 30 28 26 -59 0
27 35 24 28 32 26 -58 0
27 35 24 28 32 26 -59 0
27 9 24 10 28 26 -42 0
27 9 24 10 28 26 -41 0
27 9 24 28 11 26 -42 0
27 9 24 28 11 26 -41 0
27 22 24 23 28 26 -53 0
27 22 24 23 28 26 -54 0
27 22 24 28 18 26 -53 0
27 22 24 28 18 26 -54 0
27 24 17 28 15 26 -48 0
27 24 17 28 15 26 -49 0
27 24 17 28 26 13 -48 0
27 24 17 28 26 13 -49 0
27 24 5 28 1 26 -25 0
27 24 5 28 1 26 -29 0
27 24 5 28 26 4 -25 0
27 24 5 28 26 4 -29 0
27 24 30 28 32 26 -58 0
27 24 30 28 32 26 -59 0
27 24 10 28 11 26 -42 0
27 24 10 28 11 26 -41 0
27 24 23 28 18 26 -53 0
27 24 23 28 18 26 -54 0
27 24 28 15 26 13 -48 0
27 24 28 15 26 13 -49 0
27 24 28 1 26 4 -25 0
27 24 28 1 26 4 -29 0
16 3 17 5 15 1 -12 0
16 3 17 5 15 1 -14 0
16 3 17 5 15 13 -12 0
16 3 17 5 15 13 -14 0
16 3 17 5 1 4 -12 0
16 3 17 5 1 4 -14 0
16 3 17 5 13 4 -12 0
16 3 17 5 13 4 -14 0
16 3 17 15 1 13 -12 0
16 3 17 15 1 13 -14 0
16 3 17 15 13 4 -12 0
16 3 17 15 13 4 -14 0
16 3 5 15 1 4 -12 0
16 3 5 15 1 4 -14 0
16 3 5 1 13 4 -12 0
16 3 5 1 13 4 -14 0
16 3 15 1 13 4 -12 0
16 3 15 1 13 4 -14 0
16 35 17 30 15 13 -51 0
16 35 17 30 15 13 -50 0
16 35 17 15 32 13 -51 0
16 35 17 15 32 13 -50 0
16 9 17 10 15 13 -37 0
16 9 17 10 15 13 -38 0
16 9 17 15 11 13 -37 0
16 9 17 15 11 13 -38 0
16 22 17 23 15 13 -46 0
16 22 17 23 15 13 -47 0
16 22 17 15 18 13 -46 0
16 22 17 15 18 13 -47 0
16 24 17 28 15 13 -48 0
16 24 17 28 15 13 -49 0
16 24 17 15 26 13 -48 0
16 24 17 15 26 13 -49 0
16 17 5 15 1 13 -12 0
16 17 5 15 1 13 -14 0
16 17 5 15 13 4 -12 0
16 17 5 15 13 4 -14 0
16 17 30 15 32 13 -51 0
16 17 30 15 32 13 -50 0
16 17 10 15 11 13 -37 0
16 17 10 15 11 13 -38 0
16 17 23 15 18 13 -46 0
16 17 23 15 18 13 -47 0
16 17 28 15 26 13 -48 0
16 17 28 15 26 13 -49 0
16 17 15 1 13 4 -12 0
16 17 15 1 13 4 -14 0
3 35 5 30 1 4 -31 0
3 35 5 30 1 4 -34 0
3 35 5 1 32 4 -31 0
3 35 5 1 32 4 -34 0
3 9 5 10 1 4 -8 0
3 9 5 10 1 4 -6 0
3 9 5 1 11 4 -8 0
3 9 5 1 11 4 -6 0
3 22 5 23 1 4 -21 0
3 22 5 23 1 4 -20 0
3 22 5 1 18 4 -21 0
3 22 5 1 18 4 -20 0
3 24 5 28 1 4 -25 0
3 24 5 28 1 4 -29 0
3 24 5 1 26 4 -25 0
3 24 5 1 26 4 -29 0
3 17 5 15 1 4 -12 0
3 17 5 15 1 4 -14 0
3 17 5 1 13 4 -12 0
3 17 5 1 13 4 -14 0
3 5 30 1 32 4 -31 0
3 5 30 1 32 4 -34 0
3 5 10 1 11 4 -8 0
3 5 10 1 11 4 -6 0
3 5 23 1 18 4 -21 0
3 5 23 1 18 4 -20 0
3 5 28 1 26 4 -25 0
3 5 28 1 26 4 -29 0
3 5 15 1 13 4 -12 0
3 5 15 1 13 4 -14 0
35 9 30 10 32 11 -43 0
35 9 30 10 32 11 -44 0
35 22 30 23 32 18 -55 0
35 22 30 23 32 18 -56 0
35 24 30 28 32 26 -58 0
35 24 30 28 32 26 -59 0
35 17 30 15 32 13 -51 0
35 17 30 15 32 13 -50 0
35 5 30 1 32 4 -31 0
35 5 30 1 32 4 -34 0
9 22 10 23 11 18 -40 0
9 22 10 23 11 18 -39 0
9 24 10 28 11 26 -42 0
9 24 10 28 11 26 -41 0
9 17 10 15 11 13 -37 0
9 17 10 15 11 13 -38 0
9 5 10 1 11 4 -8 0
9 5 10 1 11 4 -6 0
22 24 23 28 18 26 -53 0
22 24 23 28 18 26 -54 0
22 17 23 15 18 13 -46 0
22 17 23 15 18 13 -47 0
22 5 23 1 18 4 -21 0
22 5 23 1 18 4 -20 0
24 17 28 15 26 13 -48 0
24 17 28 15 26 13 -49 0
24 5 28 1 26 4 -25 0
24 5 28 1 26 4 -29 0
17 5 15 1 13 4 -12 0
17 5 15 1 13 4 -14 0
33 7 35 9 30 10 32 -43 0
33 7 35 9 30 10 32 -44 0
33 7 35 9 30 10 11 -43 0
33 7 35 9 30 10 11 -44 0
33 7 35 9 30 32 11 -43 0
33 7 35 9 30 32 11 -44 0
33 7 35 9 10 32 11 -43 0
33 7 35 9 10 32 11 -44 0
33 7 35 30 10 32 11 -43 0
33 7 35 30 10 32 11 -44 0
33 7 9 30 10 32 11 -43 0
33 7 9 30 10 32 11 -44 0
33 19 35 22 30 23 32 -55 0
33 19 35 22 30 23 32 -56 0
33 19 35 22 30 23 18 -55 0
33 19 35 22 30 23 18 -56 0
33 19 35 22 30 32 18 -55 0
33 19 35 22 30 32 18 -56 0
33 19 35 22 23 32 18 -55 0
33 19 35 22 23 32 18 -56 0
33 19 35 30 23 32 18 -55 0
33 19 35 30 23 32 18 -56 0
33 19 22 30 23 32 18 -55 0
33 19 22 30 23 32 18 -56 0
33 27 35 24 30 28 32 -58 0
33 27 35 24 30 28 32 -59 0
33 27 35 24 30 28 26 -58 0
33 27 35 24 30 28 26 -59 0
33 27 35 24 30 32 26 -58 0
33 27 35 24 30 32 26 -59 0
33 27 35 24 28 32 26 -58 0
33 27 35 24 28 32 26 -59 0
33 27 35 30 28 32 26 -58 0
33 27 35 30 28 32 26 -59 0
33 27 24 30 28 32 26 -58 0
33 27 24 30 28 32 26 -59 0
33 16 35 17 30 15 32 -51 0
33 16 35 17 30 15 32 -50 0
33 16 35 17 30 15 13 -51 0
33 16 35 17 30 15 13 -50 0
33 16 35 17 30 32 13 -51 0
33 16 35 17 30 32 13 -50 0
33 16 35 17 15 32 13 -51 0
33 16 35 17 15 32 13 -50 0
33 16 35 30 15 32 13 -51 0
33 16 35 30 15 32 13 -50 0
33 16 17 30 15 32 13 -51 0
33 16 17 30 15 32 13 -50 0
33 3 35 5 30 1 32 -31 0
33 3 35 5 30 1 32 -34 0
33 3 35 5 30 1 4 -31 0
33 3 35 5 30 1 4 -34 0
33 3 35 5 30 32 4 -31 0
33 3 35 5 30 32 4 -34 0
33 3 35 5 1 32 4 -31 0
33 3 35 5 1 32 4 -34 0
33 3 35 30 1 32 4 -31 0
33 3 35 30 1 32 4 -34 0
33 3 5 30 1 32 4 -31 0
33 3 5 30 1 32 4 -34 0
33 35 9 30 10 32 11 -43 0
33 35 9 30 10 32 11 -44 0
33 35 22 30 23 32 18 -55 0
33 35 22 30 23 32 18 -56 0
33 35 24 30 28 32 26 -58 0
33 35 24 30 28 32 26 -59 0
33 35 17 30 15 32 13 -51 0
33 35 17 30 15 32 13 -50 0
33 35 5 30 1 32 4 -31 0
33 35 5 30 1 32 4 -34 0
7 19 9 22 10 23 11 -40 0
7 19 9 22 10 23 11 -39 0
7 19 9 22 10 23 18 -40 0
7 19 9 22 10 23 18 -39 0
7 19 9 22 10 11 18 -40 0
7 19 9 22 10 11 18 -39 0
7 19 9 22 23 11 18 -40 0
7 19 9 22 23 11 18 -39 0
7 19 9 10 23 11 18 -40 0
7 19 9 10 23 11 18 -39 0
7 19 22 10 23 11 18 -40 0
7 19 22 10 23 11 18 -39 0
7 27 9 24 10 28 11 -42 0
7 27 9 24 10 28 11 -41 0
7 27 9 24 10 28 26 -42 0
7 27 9 24 10 28 26 -41 0
7 27 9 24 10 11 26 -42 0
7 27 9 24 10 11 26 -41 0
7 27 9 24 28 11 26 -42 0
7 27 9 24 28 11 26 -41 0
7 27 9 10 28 11 26 -42 0
7 27 9 10 28 11 26 -41 0
7 27 24 10 28 11 26 -42 0
7 27 24 10 28 11 26 -41 0
7 16 9 17 10 15 11 -37 0
7 16 9 17 10 15 11 -38 0
7 16 9 17 10 15 13 -37 0
7 16 9 17 10 15 13 -38 0
7 16 9 17 10 11 13 -37 0
7 16 9 17 10 11 13 -38 0
7 16 9 17 15 11 13 -37 0
7 16 9 17 15 11 13 -38 0
7 16 9 10 15 11 13 -37 0
7 16 9 10 15 11 13 -38 0
7 16 17 10 15 11 13 -37 0
7 16 17 10 15 11 13 -38 0
7 3 9 5 10 1 11 -8 0
7 3 9 5 10 1 11 -6 0
7 3 9 5 10 1 4 -8 0
7 3 9 5 10 1 4 -6 0
7 3 9 5 10 11 4 -8 0
7 3 9 5 10 11 4 -6 0
7 3 9 5 1 11 4 -8 0
7 3 9 5 1 11 4 -6 0
7 3 9 10 1 11 4 -8 0
7 3 9 10 1 11 4 -6 0
7 3 5 10 1 11 4 -8 0
7 3 5 10 1 11 4 -6 0
7 35 9 30 10 32 11 -43 0
7 35 9 30 10 32 11 -44 0
7 9 22 10 23 11 18 -40 0
7 9 22 10 23 11 18 -39 0
7 9 24 10 28 11 26 -42 0
7 9 24 10 28 11 26 -41 0
7 9 17 10 15 11 13 -37 0
7 9 17 10 15 11 13 -38 0
7 9 5 10 1 11 4 -8 0
7 9 5 10 1 11 4 -6 0
19 27 22 24 23 28 18 -53 0
19 27 22 24 23 28 18 -54 0
19 27 22 24 23 28 26 -53 0
19 27 22 24 23 28 26 -54 0
19 27 22 24 23 18 26 -53 0
19 27 22 24 23 18 26 -54 0
19 27 22 24 28 18 26 -53 0
19 27 22 24 28 18 26 -54 0
19 27 22 23 28 18 26 -53 0
19 27 22 23 28 18 26 -54 0
19 27 24 23 28 18 26 -53 0
19 27 24 23 28 18 26 -54 0
19 16 22 17 23 15 18 -46 0
19 16 22 17 23 15 18 -47 0
19 16 22 17 23 15 13 -46 0
19 16 22 17 23 15 13 -47 0
19 16 22 17 23 18 13 -46 0
19 16 22 17 23 18 13 -47 0
19 16 22 17 15 18 13 -46 0
19 16 22 17 15 18 13 -47 0
19 16 22 23 15 18 13 -46 0
19 16 22 23 15 18 13 -47 0
19 16 17 23 15 18 13 -46 0
19 16 17 23 15 18 13 -47 0
19 3 22 5 23 1 18 -21 0
19 3 22 5 23 1 18 -20 0
19 3 22 5 23 1 4 -21 0
19 3 22 5 23 1 4 -20 0
19 3 22 5 23 18 4 -21 0
19 3 22 5 23 18 4 -20 0
19 3 22 5 1 18 4 -21 0
19 3 22 5 1 18 4 -20 0
19 3 22 23 1 18 4 -21 0
19 3 22 23 1 18 4 -20 0
19 3 5 23 1 18 4 -21 0
19 3 5 23 1 18 4 -20 0
19 35 22 30 23 32 18 -55 0
19 35 22 30 23 32 18 -56 0
19 9 22 10 23 11 18 -40 0
19 9 22 10 23 11 18 -39 0
19 22 24 23 28 18 26 -53 0
19 22 24 23 28 18 26 -54 0
19 22 17 23 15 18 13 -46 0
19 22 17 23 15 18 13 -47 0
19 22 5 23 1 18 4 -21 0
19 22 5 23 1 18 4 -20 0
27 16 24 17 28 15 26 -48 0
27 16 24 17 28 15 26 -49 0
27 16 24 17 28 15 13 -48 0
27 16 24 17 28 15 13 -49 0
27 16 24 17 28 26 13 -48 0
27 16 24 17 28 26 13 -49 0
27 16 24 17 15 26 13 -48 0
27 16 24 17 15 26 13 -49 0
27 16 24 28 15 26 13 -48 0
27 16 24 28 15 26 13 -49 0
27 16 17 28 15 26 13 -48 0
27 16 17 28 15 26 13 -49 0
27 3 24 5 28 1 26 -25 0
27 3 24 5 28 1 26 -29 0
27 3 24 5 28 1 4 -25 0
27 3 24 5 28 1 4 -29 0
27 3 24 5 28 26 4 -25 0
27 3 24 5 28 26 4 -29 0
27 3 24 5 1 26 4 -25 0
27 3 24 5 1 26 4 -29 0
27 3 24 28 1 26 4 -25 0
27 3 24 28 1 26 4 -29 0
27 3 5 28 1 26 4 -25 0
27 3 5 28 1 26 4 -29 0
27 35 24 30 28 32 26 -58 0
27 35 24 30 28 32 26 -59 0
27 9 24 10 28 11 26 -42 0
27 9 24 10 28 11 26 -41 0
27 22 24 23 28 18 26 -53 0
27 22 24 23 28 18 26 -54 0
27 24 17 28 15 26 13 -48 0
27 24 17 28 15 26 13 -49 0
27 24 5 28 1 26 4 -25 0
27 24 5 28 1 26 4 -29 0
16 3 17 5 15 1 13 -12 0
16 3 17 5 15 1 13 -14 0
16 3 17 5 15 1 4 -12 0
16 3 17 5 15 1 4 -14 0
16 3 17 5 15 13 4 -12 0
16 3 17 5 15 13 4 -14 0
16 3 17 5 1 13 4 -12 0
16 3 17 5 1 13 4 -14 0
16 3 17 15 1 13 4 -12 0
16 3 17 15 1 13 4 -14 0
16 3 5 15 1 13 4 -12 0
16 3 5 15 1 13 4 -14 0
16 35 17 30 15 32 13 -51 0
16 35 17 30 15 32 13 -50 0
16 9 17 10 15 11 13 -37 0
16 9 17 10 15 11 13 -38 0
16 22 17 23 15 18 13 -46 0
16 22 17 23 15 18 13 -47 0
16 24 17 28 15 26 13 -48 0
16 24 17 28 15 26 13 -49 0
16 17 5 15 1 13 4 -12 0
16 17 5 15 1 13 4 -14 0
3 35 5 30 1 32 4 -31 0
3 35 5 30 1 32 4 -34 0
3 9 5 10 1 11 4 -8 0
3 9 5 10 1 11 4 -6 0
3 22 5 23 1 18 4 -21 0
3 22 5 23 1 18 4 -20 0
3 24 5 28 1 26 4 -25 0
3 24 5 28 1 26 4 -29 0
3 17 5 15 1 13 4 -12 0
3 17 5 15 1 13 4 -14 0
33 7 35 9 30 10 32 11 -43 0
33 7 35 9 30 10 32 11 -44 0
33 19 35 22 30 23 32 18 -55 0
33 19 35 22 30 23 32 18 -56 0
33 27 35 24 30 28 32 26 -58 0
33 27 35 24 30 28 32 26 -59 0
33 16 35 17 30 15 32 13 -51 0
33 16 35 17 30 15 32 13 -50 0
33 3 35 5 30 1 32 4 -31 0
33 3 35 5 30 1 32 4 -34 0
7 19 9 22 10 23 11 18 -40 0
7 19 9 22 10 23 11 18 -39 0
7 27 9 24 10 28 11 26 -42 0
7 27 9 24 10 28 11 26 -41 0
7 16 9 17 10 15 11 13 -37 0
7 16 9 17 10 15 11 13 -38 0
7 3 9 5 10 1 11 4 -8 0
7 3 9 5 10 1 11 4 -6 0
19 27 22 24 23 28 18 26 -53 0
19 27 22 24 23 28 18 26 -54 0
19 16 22 17 23 15 18 13 -46 0
19 16 22 17 23 15 18 13 -47 0
19 3 22 5 23 1 18 4 -21 0
19 3 22 5 23 1 18 4 -20 0
27 16 24 17 28 15 26 13 -48 0
27 16 24 17 28 15 26 13 -49 0
27 3 24 5 28 1 26 4 -25 0
27 3 24 5 28 1 26 4 -29 0
16 3 17 5 15 1 13 4 -12 0
16 3 17 5 15 1 13 4 -14 0
