c E1(0,0) U4(0) U2(0) U3(0) U1(0) E1(4,0) U1(4) U4(4) E1(0,4) U2(4) U3(4) U1(1) E1(1,0) E1(0,1) U4(1) U2(1) U3(1) U2(5) E1(5,0) U3(5) E1(0,5) U1(5) U4(5) E1(0,3) U1(3) U4(3) E1(3,0) U3(3) U2(3) U3(2) E1(2,0) U2(2) U4(2) U1(2) E1(0,2) E1(0,6) U3(6) E1(6,0) U2(6) U4(6) U1(6) E1(4,4) E1(1,4) E1(4,1) E1(5,4) E1(4,5) E1(3,4) E1(4,3) E1(2,4) E1(4,2) E1(4,6) E1(6,4) E1(1,1) E1(5,1) E1(1,5) E1(3,1) E1(1,3) E1(1,2) E1(2,1) E1(6,1) E1(1,6) E1(5,5) E1(5,3) E1(3,5) E1(5,2) E1(2,5) E1(5,6) E1(6,5) E1(3,3) E1(2,3) E1(3,2) E1(6,3) E1(3,6) E1(2,2) E1(2,6) E1(6,2) E1(6,6)
c 1 2 3 4 5 6 7 8 9 10 11 12 13 14 15 16 17 18 19 20 21 22 23 24 25 26 27 28 29 30 31 32 33 34 35 36 37 38 39 40 41 42 43 44 45 46 47 48 49 50 51 52 53 54 55 56 57 58 59 60 61 62 63 64 65 66 67 68 69 70 71 72 73 74 75 76 77
p cnf 77 1610
1 -1 0
14 -13 0
35 -31 0
24 -27 0
9 -6 0
21 -19 0
36 -38 0
13 -14 0
53 -53 0
58 -59 0
57 -56 0
43 -44 0
55 -54 0
61 -60 0
31 -35 0
59 -58 0
74 -74 0
70 -71 0
49 -50 0
66 -65 0
75 -76 0
27 -24 0
56 -57 0
71 -70 0
69 -69 0
47 -48 0
64 -63 0
73 -72 0
6 -9 0
44 -43 0
50 -49 0
48 -47 0
42 -42 0
46 -45 0
51 -52 0
19 -21 0
54 -55 0
65 -66 0
63 -64 0
45 -46 0
62 -62 0
67 -68 0
38 -36 0
60 -61 0
76 -75 0
72 -73 0
52 -51 0
68 -67 0
77 -77 0
-5 -3 0
-5 -4 0
-5 -2 0
-12 -16 0
-12 -17 0
-12 -15 0
-34 -32 0
-34 -30 0
-34 -33 0
-25 -29 0
-25 -28 0
-25 -26 0
-7 -10 0
-7 -11 0
-7 -8 0
-22 -18 0
-22 -20 0
-22 -23 0
-41 -39 0
-41 -37 0
-41 -40 0
-3 -4 0
-3 -2 0
-16 -17 0
-16 -15 0
-32 -30 0
-32 -33 0
-29 -28 0
-29 -26 0
-10 -11 0
-10 -8 0
-18 -20 0
-18 -23 0
-39 -37 0
-39 -40 0
-4 -2 0
-17 -15 0
-30 -33 0
-28 -26 0
-11 -8 0
-20 -23 0
-37 -40 0
5 3 4 2 0
12 16 17 15 0
34 32 30 33 0
25 29 28 26 0
7 10 11 8 0
22 18 20 23 0
41 39 37 40 0
5 3 4 -1 0
5 3 2 -1 0
5 4 2 -1 0
12 16 17 -53 0
12 16 15 -53 0
12 17 15 -53 0
34 32 30 -74 0
34 32 33 -74 0
34 30 33 -74 0
25 29 28 -69 0
25 29 26 -69 0
25 28 26 -69 0
7 10 11 -42 0
7 10 8 -42 0
7 11 8 -42 0
22 18 20 -62 0
22 18 23 -62 0
22 20 23 -62 0
41 39 37 -77 0
41 39 40 -77 0
41 37 40 -77 0
3 4 2 -1 0
16 17 15 -53 0
32 30 33 -74 0
29 28 26 -69 0
10 11 8 -42 0
18 20 23 -62 0
39 37 40 -77 0
5 3 4 2 -1 0
5 3 4 2 -14 0
5 3 4 2 -35 0
5 3 4 2 -24 0
5 3 4 2 -9 0
5 3 4 2 -21 0
5 3 4 2 -36 0
5 3 4 2 -13 0
5 3 4 2 -31 0
5 3 4 2 -27 0
5 3 4 2 -6 0
5 3 4 2 -19 0
5 3 4 2 -38 0
12 16 17 15 -14 0
12 16 17 15 -13 0
12 16 17 15 -53 0
12 16 17 15 -58 0
12 16 17 15 -57 0
12 16 17 15 -43 0
12 16 17 15 -55 0
12 16 17 15 -61 0
12 16 17 15 -59 0
12 16 17 15 -56 0
12 16 17 15 -44 0
12 16 17 15 -54 0
12 16 17 15 -60 0
34 32 30 33 -35 0
34 32 30 33 -58 0
34 32 30 33 -31 0
34 32 30 33 -59 0
34 32 30 33 -74 0
34 32 30 33 -70 0
34 32 30 33 -49 0
34 32 30 33 -66 0
34 32 30 33 -75 0
34 32 30 33 -71 0
34 32 30 33 -50 0
34 32 30 33 -65 0
34 32 30 33 -76 0
25 29 28 26 -24 0
25 29 28 26 -57 0
25 29 28 26 -70 0
25 29 28 26 -27 0
25 29 28 26 -56 0
25 29 28 26 -71 0
25 29 28 26 -69 0
25 29 28 26 -47 0
25 29 28 26 -64 0
25 29 28 26 -73 0
25 29 28 26 -48 0
25 29 28 26 -63 0
25 29 28 26 -72 0
7 10 11 8 -9 0
7 10 11 8 -43 0
7 10 11 8 -49 0
7 10 11 8 -47 0
7 10 11 8 -6 0
7 10 11 8 -44 0
7 10 11 8 -50 0
7 10 11 8 -48 0
7 10 11 8 -42 0
7 10 11 8 -46 0
7 10 11 8 -51 0
7 10 11 8 -45 0
7 10 11 8 -52 0
22 18 20 23 -21 0
22 18 20 23 -55 0
22 18 20 23 -66 0
22 18 20 23 -64 0
22 18 20 23 -46 0
22 18 20 23 -19 0
22 18 20 23 -54 0
22 18 20 23 -65 0
22 18 20 23 -63 0
22 18 20 23 -45 0
22 18 20 23 -62 0
22 18 20 23 -67 0
22 18 20 23 -68 0
41 39 37 40 -36 0
41 39 37 40 -61 0
41 39 37 40 -75 0
41 39 37 40 -73 0
41 39 37 40 -51 0
41 39 37 40 -67 0
41 39 37 40 -38 0
41 39 37 40 -60 0
41 39 37 40 -76 0
41 39 37 40 -72 0
41 39 37 40 -52 0
41 39 37 40 -68 0
41 39 37 40 -77 0
5 12 3 4 2 -14 0
5 12 3 4 2 -13 0
5 12 16 17 15 -14 0
5 12 16 17 15 -13 0
5 34 3 4 2 -35 0
5 34 3 4 2 -31 0
5 34 32 30 33 -35 0
5 34 32 30 33 -31 0
5 25 3 4 2 -24 0
5 25 3 4 2 -27 0
5 25 29 28 26 -24 0
5 25 29 28 26 -27 0
5 7 3 4 2 -9 0
5 7 3 4 2 -6 0
5 7 10 11 8 -9 0
5 7 10 11 8 -6 0
5 22 3 4 2 -21 0
5 22 3 4 2 -19 0
5 22 18 20 23 -21 0
5 22 18 20 23 -19 0
5 41 3 4 2 -36 0
5 41 3 4 2 -38 0
5 41 39 37 40 -36 0
5 41 39 37 40 -38 0
5 3 16 4 2 -14 0
5 3 16 4 2 -13 0
5 3 32 4 2 -35 0
5 3 32 4 2 -31 0
5 3 29 4 2 -24 0
5 3 29 4 2 -27 0
5 3 10 4 2 -9 0
5 3 10 4 2 -6 0
5 3 18 4 2 -21 0
5 3 18 4 2 -19 0
5 3 39 4 2 -36 0
5 3 39 4 2 -38 0
5 3 4 17 2 -14 0
5 3 4 17 2 -13 0
5 3 4 30 2 -35 0
5 3 4 30 2 -31 0
5 3 4 28 2 -24 0
5 3 4 28 2 -27 0
5 3 4 11 2 -9 0
5 3 4 11 2 -6 0
5 3 4 20 2 -21 0
5 3 4 20 2 -19 0
5 3 4 37 2 -36 0
5 3 4 37 2 -38 0
5 3 4 2 15 -14 0
5 3 4 2 15 -13 0
5 3 4 2 33 -35 0
5 3 4 2 33 -31 0
5 3 4 2 26 -24 0
5 3 4 2 26 -27 0
5 3 4 2 8 -9 0
5 3 4 2 8 -6 0
5 3 4 2 23 -21 0
5 3 4 2 23 -19 0
5 3 4 2 40 -36 0
5 3 4 2 40 -38 0
12 34 16 17 15 -58 0
12 34 16 17 15 -59 0
12 34 32 30 33 -58 0
12 34 32 30 33 -59 0
12 25 16 17 15 -57 0
12 25 16 17 15 -56 0
12 25 29 28 26 -57 0
12 25 29 28 26 -56 0
12 7 16 17 15 -43 0
12 7 16 17 15 -44 0
12 7 10 11 8 -43 0
12 7 10 11 8 -44 0
12 22 16 17 15 -55 0
12 22 16 17 15 -54 0
12 22 18 20 23 -55 0
12 22 18 20 23 -54 0
12 41 16 17 15 -61 0
12 41 16 17 15 -60 0
12 41 39 37 40 -61 0
12 41 39 37 40 -60 0
12 3 16 17 15 -14 0
12 3 16 17 15 -13 0
12 16 32 17 15 -58 0
12 16 32 17 15 -59 0
12 16 29 17 15 -57 0
12 16 29 17 15 -56 0
12 16 10 17 15 -43 0
12 16 10 17 15 -44 0
12 16 18 17 15 -55 0
12 16 18 17 15 -54 0
12 16 39 17 15 -61 0
12 16 39 17 15 -60 0
12 16 4 17 15 -14 0
12 16 4 17 15 -13 0
12 16 17 30 15 -58 0
12 16 17 30 15 -59 0
12 16 17 28 15 -57 0
12 16 17 28 15 -56 0
12 16 17 11 15 -43 0
12 16 17 11 15 -44 0
12 16 17 20 15 -55 0
12 16 17 20 15 -54 0
12 16 17 37 15 -61 0
12 16 17 37 15 -60 0
12 16 17 2 15 -14 0
12 16 17 2 15 -13 0
12 16 17 15 33 -58 0
12 16 17 15 33 -59 0
12 16 17 15 26 -57 0
12 16 17 15 26 -56 0
12 16 17 15 8 -43 0
12 16 17 15 8 -44 0
12 16 17 15 23 -55 0
12 16 17 15 23 -54 0
12 16 17 15 40 -61 0
12 16 17 15 40 -60 0
34 25 32 30 33 -70 0
34 25 32 30 33 -71 0
34 25 29 28 26 -70 0
34 25 29 28 26 -71 0
34 7 32 30 33 -49 0
34 7 32 30 33 -50 0
34 7 10 11 8 -49 0
34 7 10 11 8 -50 0
34 22 32 30 33 -66 0
34 22 32 30 33 -65 0
34 22 18 20 23 -66 0
34 22 18 20 23 -65 0
34 41 32 30 33 -75 0
34 41 32 30 33 -76 0
34 41 39 37 40 -75 0
34 41 39 37 40 -76 0
34 3 32 30 33 -35 0
34 3 32 30 33 -31 0
34 16 32 30 33 -58 0
34 16 32 30 33 -59 0
34 32 29 30 33 -70 0
34 32 29 30 33 -71 0
34 32 10 30 33 -49 0
34 32 10 30 33 -50 0
34 32 18 30 33 -66 0
34 32 18 30 33 -65 0
34 32 39 30 33 -75 0
34 32 39 30 33 -76 0
34 32 4 30 33 -35 0
34 32 4 30 33 -31 0
34 32 17 30 33 -58 0
34 32 17 30 33 -59 0
34 32 30 28 33 -70 0
34 32 30 28 33 -71 0
34 32 30 11 33 -49 0
34 32 30 11 33 -50 0
34 32 30 20 33 -66 0
34 32 30 20 33 -65 0
34 32 30 37 33 -75 0
34 32 30 37 33 -76 0
34 32 30 2 33 -35 0
34 32 30 2 33 -31 0
34 32 30 15 33 -58 0
34 32 30 15 33 -59 0
34 32 30 33 26 -70 0
34 32 30 33 26 -71 0
34 32 30 33 8 -49 0
34 32 30 33 8 -50 0
34 32 30 33 23 -66 0
34 32 30 33 23 -65 0
34 32 30 33 40 -75 0
34 32 30 33 40 -76 0
25 7 29 28 26 -47 0
25 7 29 28 26 -48 0
25 7 10 11 8 -47 0
25 7 10 11 8 -48 0
25 22 29 28 26 -64 0
25 22 29 28 26 -63 0
25 22 18 20 23 -64 0
25 22 18 20 23 -63 0
25 41 29 28 26 -73 0
25 41 29 28 26 -72 0
25 41 39 37 40 -73 0
25 41 39 37 40 -72 0
25 3 29 28 26 -24 0
25 3 29 28 26 -27 0
25 16 29 28 26 -57 0
25 16 29 28 26 -56 0
25 32 29 28 26 -70 0
25 32 29 28 26 -71 0
25 29 10 28 26 -47 0
25 29 10 28 26 -48 0
25 29 18 28 26 -64 0
25 29 18 28 26 -63 0
25 29 39 28 26 -73 0
25 29 39 28 26 -72 0
25 29 4 28 26 -24 0
25 29 4 28 26 -27 0
25 29 17 28 26 -57 0
25 29 17 28 26 -56 0
25 29 30 28 26 -70 0
25 29 30 28 26 -71 0
25 29 28 11 26 -47 0
25 29 28 11 26 -48 0
25 29 28 20 26 -64 0
25 29 28 20 26 -63 0
25 29 28 37 26 -73 0
25 29 28 37 26 -72 0
25 29 28 2 26 -24 0
25 29 28 2 26 -27 0
25 29 28 15 26 -57 0
25 29 28 15 26 -56 0
25 29 28 33 26 -70 0
25 29 28 33 26 -71 0
25 29 28 26 8 -47 0
25 29 28 26 8 -48 0
25 29 28 26 23 -64 0
25 29 28 26 23 -63 0
25 29 28 26 40 -73 0
25 29 28 26 40 -72 0
7 22 10 11 8 -46 0
7 22 10 11 8 -45 0
7 22 18 20 23 -46 0
7 22 18 20 23 -45 0
7 41 10 11 8 -51 0
7 41 10 11 8 -52 0
7 41 39 37 40 -51 0
7 41 39 37 40 -52 0
7 3 10 11 8 -9 0
7 3 10 11 8 -6 0
7 16 10 11 8 -43 0
7 16 10 11 8 -44 0
7 32 10 11 8 -49 0
7 32 10 11 8 -50 0
7 29 10 11 8 -47 0
7 29 10 11 8 -48 0
7 10 18 11 8 -46 0
7 10 18 11 8 -45 0
7 10 39 11 8 -51 0
7 10 39 11 8 -52 0
7 10 4 11 8 -9 0
7 10 4 11 8 -6 0
7 10 17 11 8 -43 0
7 10 17 11 8 -44 0
7 10 30 11 8 -49 0
7 10 30 11 8 -50 0
7 10 28 11 8 -47 0
7 10 28 11 8 -48 0
7 10 11 20 8 -46 0
7 10 11 20 8 -45 0
7 10 11 37 8 -51 0
7 10 11 37 8 -52 0
7 10 11 2 8 -9 0
7 10 11 2 8 -6 0
7 10 11 15 8 -43 0
7 10 11 15 8 -44 0
7 10 11 33 8 -49 0
7 10 11 33 8 -50 0
7 10 11 26 8 -47 0
7 10 11 26 8 -48 0
7 10 11 8 23 -46 0
7 10 11 8 23 -45 0
7 10 11 8 40 -51 0
7 10 11 8 40 -52 0
22 41 18 20 23 -67 0
22 41 18 20 23 -68 0
22 41 39 37 40 -67 0
22 41 39 37 40 -68 0
22 3 18 20 23 -21 0
22 3 18 20 23 -19 0
22 16 18 20 23 -55 0
22 16 18 20 23 -54 0
22 32 18 20 23 -66 0
22 32 18 20 23 -65 0
22 29 18 20 23 -64 0
22 29 18 20 23 -63 0
22 10 18 20 23 -46 0
22 10 18 20 23 -45 0
22 18 39 20 23 -67 0
22 18 39 20 23 -68 0
22 18 4 20 23 -21 0
22 18 4 20 23 -19 0
22 18 17 20 23 -55 0
22 18 17 20 23 -54 0
22 18 30 20 23 -66 0
22 18 30 20 23 -65 0
22 18 28 20 23 -64 0
22 18 28 20 23 -63 0
22 18 11 20 23 -46 0
22 18 11 20 23 -45 0
22 18 20 37 23 -67 0
22 18 20 37 23 -68 0
22 18 20 2 23 -21 0
22 18 20 2 23 -19 0
22 18 20 15 23 -55 0
22 18 20 15 23 -54 0
22 18 20 33 23 -66 0
22 18 20 33 23 -65 0
22 18 20 26 23 -64 0
22 18 20 26 23 -63 0
22 18 20 8 23 -46 0
22 18 20 8 23 -45 0
22 18 20 23 40 -67 0
22 18 20 23 40 -68 0
41 3 39 37 40 -36 0
41 3 39 37 40 -38 0
41 16 39 37 40 -61 0
41 16 39 37 40 -60 0
41 32 39 37 40 -75 0
41 32 39 37 40 -76 0
41 29 39 37 40 -73 0
41 29 39 37 40 -72 0
41 10 39 37 40 -51 0
41 10 39 37 40 -52 0
41 18 39 37 40 -67 0
41 18 39 37 40 -68 0
41 39 4 37 40 -36 0
41 39 4 37 40 -38 0
41 39 17 37 40 -61 0
41 39 17 37 40 -60 0
41 39 30 37 40 -75 0
41 39 30 37 40 -76 0
41 39 28 37 40 -73 0
41 39 28 37 40 -72 0
41 39 11 37 40 -51 0
41 39 11 37 40 -52 0
41 39 20 37 40 -67 0
41 39 20 37 40 -68 0
41 39 37 2 40 -36 0
41 39 37 2 40 -38 0
41 39 37 15 40 -61 0
41 39 37 15 40 -60 0
41 39 37 33 40 -75 0
41 39 37 33 40 -76 0
41 39 37 26 40 -73 0
41 39 37 26 40 -72 0
41 39 37 8 40 -51 0
41 39 37 8 40 -52 0
41 39 37 23 40 -67 0
41 39 37 23 40 -68 0
1 14 35 24 9 21 36 0
13 53 58 57 43 55 61 0
31 59 74 70 49 66 75 0
27 56 71 69 47 64 73 0
6 44 50 48 42 46 51 0
19 54 65 63 45 62 67 0
38 60 76 72 52 68 77 0
5 12 3 16 4 17 -14 0
5 12 3 16 4 17 -13 0
5 12 3 16 4 2 -14 0
5 12 3 16 4 2 -13 0
5 12 3 16 17 15 -14 0
5 12 3 16 17 15 -13 0
5 12 3 16 2 15 -14 0
5 12 3 16 2 15 -13 0
5 12 3 4 17 2 -14 0
5 12 3 4 17 2 -13 0
5 12 3 4 2 15 -14 0
5 12 3 4 2 15 -13 0
5 12 16 4 17 15 -14 0
5 12 16 4 17 15 -13 0
5 12 16 17 2 15 -14 0
5 12 16 17 2 15 -13 0
5 12 4 17 2 15 -14 0
5 12 4 17 2 15 -13 0
5 34 3 32 4 30 -35 0
5 34 3 32 4 30 -31 0
5 34 3 32 4 2 -35 0
5 34 3 32 4 2 -31 0
5 34 3 32 30 33 -35 0
5 34 3 32 30 33 -31 0
5 34 3 32 2 33 -35 0
5 34 3 32 2 33 -31 0
5 34 3 4 30 2 -35 0
5 34 3 4 30 2 -31 0
5 34 3 4 2 33 -35 0
5 34 3 4 2 33 -31 0
5 34 32 4 30 33 -35 0
5 34 32 4 30 33 -31 0
5 34 32 30 2 33 -35 0
5 34 32 30 2 33 -31 0
5 34 4 30 2 33 -35 0
5 34 4 30 2 33 -31 0
5 25 3 29 4 28 -24 0
5 25 3 29 4 28 -27 0
5 25 3 29 4 2 -24 0
5 25 3 29 4 2 -27 0
5 25 3 29 28 26 -24 0
5 25 3 29 28 26 -27 0
5 25 3 29 2 26 -24 0
5 25 3 29 2 26 -27 0
5 25 3 4 28 2 -24 0
5 25 3 4 28 2 -27 0
5 25 3 4 2 26 -24 0
5 25 3 4 2 26 -27 0
5 25 29 4 28 26 -24 0
5 25 29 4 28 26 -27 0
5 25 29 28 2 26 -24 0
5 25 29 28 2 26 -27 0
5 25 4 28 2 26 -24 0
5 25 4 28 2 26 -27 0
5 7 3 10 4 11 -9 0
5 7 3 10 4 11 -6 0
5 7 3 10 4 2 -9 0
5 7 3 10 4 2 -6 0
5 7 3 10 11 8 -9 0
5 7 3 10 11 8 -6 0
5 7 3 10 2 8 -9 0
5 7 3 10 2 8 -6 0
5 7 3 4 11 2 -9 0
5 7 3 4 11 2 -6 0
5 7 3 4 2 8 -9 0
5 7 3 4 2 8 -6 0
5 7 10 4 11 8 -9 0
5 7 10 4 11 8 -6 0
5 7 10 11 2 8 -9 0
5 7 10 11 2 8 -6 0
5 7 4 11 2 8 -9 0
5 7 4 11 2 8 -6 0
5 22 3 18 4 20 -21 0
5 22 3 18 4 20 -19 0
5 22 3 18 4 2 -21 0
5 22 3 18 4 2 -19 0
5 22 3 18 20 23 -21 0
5 22 3 18 20 23 -19 0
5 22 3 18 2 23 -21 0
5 22 3 18 2 23 -19 0
5 22 3 4 20 2 -21 0
5 22 3 4 20 2 -19 0
5 22 3 4 2 23 -21 0
5 22 3 4 2 23 -19 0
5 22 18 4 20 23 -21 0
5 22 18 4 20 23 -19 0
5 22 18 20 2 23 -21 0
5 22 18 20 2 23 -19 0
5 22 4 20 2 23 -21 0
5 22 4 20 2 23 -19 0
5 41 3 39 4 37 -36 0
5 41 3 39 4 37 -38 0
5 41 3 39 4 2 -36 0
5 41 3 39 4 2 -38 0
5 41 3 39 37 40 -36 0
5 41 3 39 37 40 -38 0
5 41 3 39 2 40 -36 0
5 41 3 39 2 40 -38 0
5 41 3 4 37 2 -36 0
5 41 3 4 37 2 -38 0
5 41 3 4 2 40 -36 0
5 41 3 4 2 40 -38 0
5 41 39 4 37 40 -36 0
5 41 39 4 37 40 -38 0
5 41 39 37 2 40 -36 0
5 41 39 37 2 40 -38 0
5 41 4 37 2 40 -36 0
5 41 4 37 2 40 -38 0
5 3 16 4 17 2 -14 0
5 3 16 4 17 2 -13 0
5 3 16 4 2 15 -14 0
5 3 16 4 2 15 -13 0
5 3 32 4 30 2 -35 0
5 3 32 4 30 2 -31 0
5 3 32 4 2 33 -35 0
5 3 32 4 2 33 -31 0
5 3 29 4 28 2 -24 0
5 3 29 4 28 2 -27 0
5 3 29 4 2 26 -24 0
5 3 29 4 2 26 -27 0
5 3 10 4 11 2 -9 0
5 3 10 4 11 2 -6 0
5 3 10 4 2 8 -9 0
5 3 10 4 2 8 -6 0
5 3 18 4 20 2 -21 0
5 3 18 4 20 2 -19 0
5 3 18 4 2 23 -21 0
5 3 18 4 2 23 -19 0
5 3 39 4 37 2 -36 0
5 3 39 4 37 2 -38 0
5 3 39 4 2 40 -36 0
5 3 39 4 2 40 -38 0
5 3 4 17 2 15 -14 0
5 3 4 17 2 15 -13 0
5 3 4 30 2 33 -35 0
5 3 4 30 2 33 -31 0
5 3 4 28 2 26 -24 0
5 3 4 28 2 26 -27 0
5 3 4 11 2 8 -9 0
5 3 4 11 2 8 -6 0
5 3 4 20 2 23 -21 0
5 3 4 20 2 23 -19 0
5 3 4 37 2 40 -36 0
5 3 4 37 2 40 -38 0
12 34 16 32 17 30 -58 0
12 34 16 32 17 30 -59 0
12 34 16 32 17 15 -58 0
12 34 16 32 17 15 -59 0
12 34 16 32 30 33 -58 0
12 34 16 32 30 33 -59 0
12 34 16 32 15 33 -58 0
12 34 16 32 15 33 -59 0
12 34 16 17 30 15 -58 0
12 34 16 17 30 15 -59 0
12 34 16 17 15 33 -58 0
12 34 16 17 15 33 -59 0
12 34 32 17 30 33 -58 0
12 34 32 17 30 33 -59 0
12 34 32 30 15 33 -58 0
12 34 32 30 15 33 -59 0
12 34 17 30 15 33 -58 0
12 34 17 30 15 33 -59 0
12 25 16 29 17 28 -57 0
12 25 16 29 17 28 -56 0
12 25 16 29 17 15 -57 0
12 25 16 29 17 15 -56 0
12 25 16 29 28 26 -57 0
12 25 16 29 28 26 -56 0
12 25 16 29 15 26 -57 0
12 25 16 29 15 26 -56 0
12 25 16 17 28 15 -57 0
12 25 16 17 28 15 -56 0
12 25 16 17 15 26 -57 0
12 25 16 17 15 26 -56 0
12 25 29 17 28 26 -57 0
12 25 29 17 28 26 -56 0
12 25 29 28 15 26 -57 0
12 25 29 28 15 26 -56 0
12 25 17 28 15 26 -57 0
12 25 17 28 15 26 -56 0
12 7 16 10 17 11 -43 0
12 7 16 10 17 11 -44 0
12 7 16 10 17 15 -43 0
12 7 16 10 17 15 -44 0
12 7 16 10 11 8 -43 0
12 7 16 10 11 8 -44 0
12 7 16 10 15 8 -43 0
12 7 16 10 15 8 -44 0
12 7 16 17 11 15 -43 0
12 7 16 17 11 15 -44 0
12 7 16 17 15 8 -43 0
12 7 16 17 15 8 -44 0
12 7 10 17 11 8 -43 0
12 7 10 17 11 8 -44 0
12 7 10 11 15 8 -43 0
12 7 10 11 15 8 -44 0
12 7 17 11 15 8 -43 0
12 7 17 11 15 8 -44 0
12 22 16 18 17 20 -55 0
12 22 16 18 17 20 -54 0
12 22 16 18 17 15 -55 0
12 22 16 18 17 15 -54 0
12 22 16 18 20 23 -55 0
12 22 16 18 20 23 -54 0
12 22 16 18 15 23 -55 0
12 22 16 18 15 23 -54 0
12 22 16 17 20 15 -55 0
12 22 16 17 20 15 -54 0
12 22 16 17 15 23 -55 0
12 22 16 17 15 23 -54 0
12 22 18 17 20 23 -55 0
12 22 18 17 20 23 -54 0
12 22 18 20 15 23 -55 0
12 22 18 20 15 23 -54 0
12 22 17 20 15 23 -55 0
12 22 17 20 15 23 -54 0
12 41 16 39 17 37 -61 0
12 41 16 39 17 37 -60 0
12 41 16 39 17 15 -61 0
12 41 16 39 17 15 -60 0
12 41 16 39 37 40 -61 0
12 41 16 39 37 40 -60 0
12 41 16 39 15 40 -61 0
12 41 16 39 15 40 -60 0
12 41 16 17 37 15 -61 0
12 41 16 17 37 15 -60 0
12 41 16 17 15 40 -61 0
12 41 16 17 15 40 -60 0
12 41 39 17 37 40 -61 0
12 41 39 17 37 40 -60 0
12 41 39 37 15 40 -61 0
12 41 39 37 15 40 -60 0
12 41 17 37 15 40 -61 0
12 41 17 37 15 40 -60 0
12 3 16 4 17 15 -14 0
12 3 16 4 17 15 -13 0
12 3 16 17 2 15 -14 0
12 3 16 17 2 15 -13 0
12 16 32 17 30 15 -58 0
12 16 32 17 30 15 -59 0
12 16 32 17 15 33 -58 0
12 16 32 17 15 33 -59 0
12 16 29 17 28 15 -57 0
12 16 29 17 28 15 -56 0
12 16 29 17 15 26 -57 0
12 16 29 17 15 26 -56 0
12 16 10 17 11 15 -43 0
12 16 10 17 11 15 -44 0
12 16 10 17 15 8 -43 0
12 16 10 17 15 8 -44 0
12 16 18 17 20 15 -55 0
12 16 18 17 20 15 -54 0
12 16 18 17 15 23 -55 0
12 16 18 17 15 23 -54 0
12 16 39 17 37 15 -61 0
12 16 39 17 37 15 -60 0
12 16 39 17 15 40 -61 0
12 16 39 17 15 40 -60 0
12 16 4 17 2 15 -14 0
12 16 4 17 2 15 -13 0
12 16 17 30 15 33 -58 0
12 16 17 30 15 33 -59 0
12 16 17 28 15 26 -57 0
12 16 17 28 15 26 -56 0
12 16 17 11 15 8 -43 0
12 16 17 11 15 8 -44 0
12 16 17 20 15 23 -55 0
12 16 17 20 15 23 -54 0
12 16 17 37 15 40 -61 0
12 16 17 37 15 40 -60 0
34 25 32 29 30 28 -70 0
34 25 32 29 30 28 -71 0
34 25 32 29 30 33 -70 0
34 25 32 29 30 33 -71 0
34 25 32 29 28 26 -70 0
34 25 32 29 28 26 -71 0
34 25 32 29 33 26 -70 0
34 25 32 29 33 26 -71 0
34 25 32 30 28 33 -70 0
34 25 32 30 28 33 -71 0
34 25 32 30 33 26 -70 0
34 25 32 30 33 26 -71 0
34 25 29 30 28 26 -70 0
34 25 29 30 28 26 -71 0
34 25 29 28 33 26 -70 0
34 25 29 28 33 26 -71 0
34 25 30 28 33 26 -70 0
34 25 30 28 33 26 -71 0
34 7 32 10 30 11 -49 0
34 7 32 10 30 11 -50 0
34 7 32 10 30 33 -49 0
34 7 32 10 30 33 -50 0
34 7 32 10 11 8 -49 0
34 7 32 10 11 8 -50 0
34 7 32 10 33 8 -49 0
34 7 32 10 33 8 -50 0
34 7 32 30 11 33 -49 0
34 7 32 30 11 33 -50 0
34 7 32 30 33 8 -49 0
34 7 32 30 33 8 -50 0
34 7 10 30 11 8 -49 0
34 7 10 30 11 8 -50 0
34 7 10 11 33 8 -49 0
34 7 10 11 33 8 -50 0
34 7 30 11 33 8 -49 0
34 7 30 11 33 8 -50 0
34 22 32 18 30 20 -66 0
34 22 32 18 30 20 -65 0
34 22 32 18 30 33 -66 0
34 22 32 18 30 33 -65 0
34 22 32 18 20 23 -66 0
34 22 32 18 20 23 -65 0
34 22 32 18 33 23 -66 0
34 22 32 18 33 23 -65 0
34 22 32 30 20 33 -66 0
34 22 32 30 20 33 -65 0
34 22 32 30 33 23 -66 0
34 22 32 30 33 23 -65 0
34 22 18 30 20 23 -66 0
34 22 18 30 20 23 -65 0
34 22 18 20 33 23 -66 0
34 22 18 20 33 23 -65 0
34 22 30 20 33 23 -66 0
34 22 30 20 33 23 -65 0
34 41 32 39 30 37 -75 0
34 41 32 39 30 37 -76 0
34 41 32 39 30 33 -75 0
34 41 32 39 30 33 -76 0
34 41 32 39 37 40 -75 0
34 41 32 39 37 40 -76 0
34 41 32 39 33 40 -75 0
34 41 32 39 33 40 -76 0
34 41 32 30 37 33 -75 0
34 41 32 30 37 33 -76 0
34 41 32 30 33 40 -75 0
34 41 32 30 33 40 -76 0
34 41 39 30 37 40 -75 0
34 41 39 30 37 40 -76 0
34 41 39 37 33 40 -75 0
34 41 39 37 33 40 -76 0
34 41 30 37 33 40 -75 0
34 41 30 37 33 40 -76 0
34 3 32 4 30 33 -35 0
34 3 32 4 30 33 -31 0
34 3 32 30 2 33 -35 0
34 3 32 30 2 33 -31 0
34 16 32 17 30 33 -58 0
34 16 32 17 30 33 -59 0
34 16 32 30 15 33 -58 0
34 16 32 30 15 33 -59 0
34 32 29 30 28 33 -70 0
34 32 29 30 28 33 -71 0
34 32 29 30 33 26 -70 0
34 32 29 30 33 26 -71 0
34 32 10 30 11 33 -49 0
34 32 10 30 11 33 -50 0
34 32 10 30 33 8 -49 0
34 32 10 30 33 8 -50 0
34 32 18 30 20 33 -66 0
34 32 18 30 20 33 -65 0
34 32 18 30 33 23 -66 0
34 32 18 30 33 23 -65 0
34 32 39 30 37 33 -75 0
34 32 39 30 37 33 -76 0
34 32 39 30 33 40 -75 0
34 32 39 30 33 40 -76 0
34 32 4 30 2 33 -35 0
34 32 4 30 2 33 -31 0
34 32 17 30 15 33 -58 0
34 32 17 30 15 33 -59 0
34 32 30 28 33 26 -70 0
34 32 30 28 33 26 -71 0
34 32 30 11 33 8 -49 0
34 32 30 11 33 8 -50 0
34 32 30 20 33 23 -66 0
34 32 30 20 33 23 -65 0
34 32 30 37 33 40 -75 0
34 32 30 37 33 40 -76 0
25 7 29 10 28 11 -47 0
25 7 29 10 28 11 -48 0
25 7 29 10 28 26 -47 0
25 7 29 10 28 26 -48 0
25 7 29 10 11 8 -47 0
25 7 29 10 11 8 -48 0
25 7 29 10 26 8 -47 0
25 7 29 10 26 8 -48 0
25 7 29 28 11 26 -47 0
25 7 29 28 11 26 -48 0
25 7 29 28 26 8 -47 0
25 7 29 28 26 8 -48 0
25 7 10 28 11 8 -47 0
25 7 10 28 11 8 -48 0
25 7 10 11 26 8 -47 0
25 7 10 11 26 8 -48 0
25 7 28 11 26 8 -47 0
25 7 28 11 26 8 -48 0
25 22 29 18 28 20 -64 0
25 22 29 18 28 20 -63 0
25 22 29 18 28 26 -64 0
25 22 29 18 28 26 -63 0
25 22 29 18 20 23 -64 0
25 22 29 18 20 23 -63 0
25 22 29 18 26 23 -64 0
25 22 29 18 26 23 -63 0
25 22 29 28 20 26 -64 0
25 22 29 28 20 26 -63 0
25 22 29 28 26 23 -64 0
25 22 29 28 26 23 -63 0
25 22 18 28 20 23 -64 0
25 22 18 28 20 23 -63 0
25 22 18 20 26 23 -64 0
25 22 18 20 26 23 -63 0
25 22 28 20 26 23 -64 0
25 22 28 20 26 23 -63 0
25 41 29 39 28 37 -73 0
25 41 29 39 28 37 -72 0
25 41 29 39 28 26 -73 0
25 41 29 39 28 26 -72 0
25 41 29 39 37 40 -73 0
25 41 29 39 37 40 -72 0
25 41 29 39 26 40 -73 0
25 41 29 39 26 40 -72 0
25 41 29 28 37 26 -73 0
25 41 29 28 37 26 -72 0
25 41 29 28 26 40 -73 0
25 41 29 28 26 40 -72 0
25 41 39 28 37 40 -73 0
25 41 39 28 37 40 -72 0
25 41 39 37 26 40 -73 0
25 41 39 37 26 40 -72 0
25 41 28 37 26 40 -73 0
25 41 28 37 26 40 -72 0
25 3 29 4 28 26 -24 0
25 3 29 4 28 26 -27 0
25 3 29 28 2 26 -24 0
25 3 29 28 2 26 -27 0
25 16 29 17 28 26 -57 0
25 16 29 17 28 26 -56 0
25 16 29 28 15 26 -57 0
25 16 29 28 15 26 -56 0
25 32 29 30 28 26 -70 0
25 32 29 30 28 26 -71 0
25 32 29 28 33 26 -70 0
25 32 29 28 33 26 -71 0
25 29 10 28 11 26 -47 0
25 29 10 28 11 26 -48 0
25 29 10 28 26 8 -47 0
25 29 10 28 26 8 -48 0
25 29 18 28 20 26 -64 0
25 29 18 28 20 26 -63 0
25 29 18 28 26 23 -64 0
25 29 18 28 26 23 -63 0
25 29 39 28 37 26 -73 0
25 29 39 28 37 26 -72 0
25 29 39 28 26 40 -73 0
25 29 39 28 26 40 -72 0
25 29 4 28 2 26 -24 0
25 29 4 28 2 26 -27 0
25 29 17 28 15 26 -57 0
25 29 17 28 15 26 -56 0
25 29 30 28 33 26 -70 0
25 29 30 28 33 26 -71 0
25 29 28 11 26 8 -47 0
25 29 28 11 26 8 -48 0
25 29 28 20 26 23 -64 0
25 29 28 20 26 23 -63 0
25 29 28 37 26 40 -73 0
25 29 28 37 26 40 -72 0
7 22 10 18 11 20 -46 0
7 22 10 18 11 20 -45 0
7 22 10 18 11 8 -46 0
7 22 10 18 11 8 -45 0
7 22 10 18 20 23 -46 0
7 22 10 18 20 23 -45 0
7 22 10 18 8 23 -46 0
7 22 10 18 8 23 -45 0
7 22 10 11 20 8 -46 0
7 22 10 11 20 8 -45 0
7 22 10 11 8 23 -46 0
7 22 10 11 8 23 -45 0
7 22 18 11 20 23 -46 0
7 22 18 11 20 23 -45 0
7 22 18 20 8 23 -46 0
7 22 18 20 8 23 -45 0
7 22 11 20 8 23 -46 0
7 22 11 20 8 23 -45 0
7 41 10 39 11 37 -51 0
7 41 10 39 11 37 -52 0
7 41 10 39 11 8 -51 0
7 41 10 39 11 8 -52 0
7 41 10 39 37 40 -51 0
7 41 10 39 37 40 -52 0
7 41 10 39 8 40 -51 0
7 41 10 39 8 40 -52 0
7 41 10 11 37 8 -51 0
7 41 10 11 37 8 -52 0
7 41 10 11 8 40 -51 0
7 41 10 11 8 40 -52 0
7 41 39 11 37 40 -51 0
7 41 39 11 37 40 -52 0
7 41 39 37 8 40 -51 0
7 41 39 37 8 40 -52 0
7 41 11 37 8 40 -51 0
7 41 11 37 8 40 -52 0
7 3 10 4 11 8 -9 0
7 3 10 4 11 8 -6 0
7 3 10 11 2 8 -9 0
7 3 10 11 2 8 -6 0
7 16 10 17 11 8 -43 0
7 16 10 17 11 8 -44 0
7 16 10 11 15 8 -43 0
7 16 10 11 15 8 -44 0
7 32 10 30 11 8 -49 0
7 32 10 30 11 8 -50 0
7 32 10 11 33 8 -49 0
7 32 10 11 33 8 -50 0
7 29 10 28 11 8 -47 0
7 29 10 28 11 8 -48 0
7 29 10 11 26 8 -47 0
7 29 10 11 26 8 -48 0
7 10 18 11 20 8 -46 0
7 10 18 11 20 8 -45 0
7 10 18 11 8 23 -46 0
7 10 18 11 8 23 -45 0
7 10 39 11 37 8 -51 0
7 10 39 11 37 8 -52 0
7 10 39 11 8 40 -51 0
7 10 39 11 8 40 -52 0
7 10 4 11 2 8 -9 0
7 10 4 11 2 8 -6 0
7 10 17 11 15 8 -43 0
7 10 17 11 15 8 -44 0
7 10 30 11 33 8 -49 0
7 10 30 11 33 8 -50 0
7 10 28 11 26 8 -47 0
7 10 28 11 26 8 -48 0
7 10 11 20 8 23 -46 0
7 10 11 20 8 23 -45 0
7 10 11 37 8 40 -51 0
7 10 11 37 8 40 -52 0
22 41 18 39 20 37 -67 0
22 41 18 39 20 37 -68 0
22 41 18 39 20 23 -67 0
22 41 18 39 20 23 -68 0
22 41 18 39 37 40 -67 0
22 41 18 39 37 40 -68 0
22 41 18 39 23 40 -67 0
22 41 18 39 23 40 -68 0
22 41 18 20 37 23 -67 0
22 41 18 20 37 23 -68 0
22 41 18 20 23 40 -67 0
22 41 18 20 23 40 -68 0
22 41 39 20 37 40 -67 0
22 41 39 20 37 40 -68 0
22 41 39 37 23 40 -67 0
22 41 39 37 23 40 -68 0
22 41 20 37 23 40 -67 0
22 41 20 37 23 40 -68 0
22 3 18 4 20 23 -21 0
22 3 18 4 20 23 -19 0
22 3 18 20 2 23 -21 0
22 3 18 20 2 23 -19 0
22 16 18 17 20 23 -55 0
22 16 18 17 20 23 -54 0
22 16 18 20 15 23 -55 0
22 16 18 20 15 23 -54 0
22 32 18 30 20 23 -66 0
22 32 18 30 20 23 -65 0
22 32 18 20 33 23 -66 0
22 32 18 20 33 23 -65 0
22 29 18 28 20 23 -64 0
22 29 18 28 20 23 -63 0
22 29 18 20 26 23 -64 0
22 29 18 20 26 23 -63 0
22 10 18 11 20 23 -46 0
22 10 18 11 20 23 -45 0
22 10 18 20 8 23 -46 0
22 10 18 20 8 23 -45 0
22 18 39 20 37 23 -67 0
22 18 39 20 37 23 -68 0
22 18 39 20 23 40 -67 0
22 18 39 20 23 40 -68 0
22 18 4 20 2 23 -21 0
22 18 4 20 2 23 -19 0
22 18 17 20 15 23 -55 0
22 18 17 20 15 23 -54 0
22 18 30 20 33 23 -66 0
22 18 30 20 33 23 -65 0
22 18 28 20 26 23 -64 0
22 18 28 20 26 23 -63 0
22 18 11 20 8 23 -46 0
22 18 11 20 8 23 -45 0
22 18 20 37 23 40 -67 0
22 18 20 37 23 40 -68 0
41 3 39 4 37 40 -36 0
41 3 39 4 37 40 -38 0
41 3 39 37 2 40 -36 0
41 3 39 37 2 40 -38 0
41 16 39 17 37 40 -61 0
41 16 39 17 37 40 -60 0
41 16 39 37 15 40 -61 0
41 16 39 37 15 40 -60 0
41 32 39 30 37 40 -75 0
41 32 39 30 37 40 -76 0
41 32 39 37 33 40 -75 0
41 32 39 37 33 40 -76 0
41 29 39 28 37 40 -73 0
41 29 39 28 37 40 -72 0
41 29 39 37 26 40 -73 0
41 29 39 37 26 40 -72 0
41 10 39 11 37 40 -51 0
41 10 39 11 37 40 -52 0
41 10 39 37 8 40 -51 0
41 10 39 37 8 40 -52 0
41 18 39 20 37 40 -67 0
41 18 39 20 37 40 -68 0
41 18 39 37 23 40 -67 0
41 18 39 37 23 40 -68 0
41 39 4 37 2 40 -36 0
41 39 4 37 2 40 -38 0
41 39 17 37 15 40 -61 0
41 39 17 37 15 40 -60 0
41 39 30 37 33 40 -75 0
41 39 30 37 33 40 -76 0
41 39 28 37 26 40 -73 0
41 39 28 37 26 40 -72 0
41 39 11 37 8 40 -51 0
41 39 11 37 8 40 -52 0
41 39 20 37 23 40 -67 0
41 39 20 37 23 40 -68 0
3 16 4 17 2 15 -14 0
3 16 4 17 2 15 -13 0
3 32 4 30 2 33 -35 0
3 32 4 30 2 33 -31 0
3 29 4 28 2 26 -24 0
3 29 4 28 2 26 -27 0
3 10 4 11 2 8 -9 0
3 10 4 11 2 8 -6 0
3 18 4 20 2 23 -21 0
3 18 4 20 2 23 -19 0
3 39 4 37 2 40 -36 0
3 39 4 37 2 40 -38 0
16 32 17 30 15 33 -58 0
16 32 17 30 15 33 -59 0
16 29 17 28 15 26 -57 0
16 29 17 28 15 26 -56 0
16 10 17 11 15 8 -43 0
16 10 17 11 15 8 -44 0
16 18 17 20 15 23 -55 0
16 18 17 20 15 23 -54 0
16 39 17 37 15 40 -61 0
16 39 17 37 15 40 -60 0
32 29 30 28 33 26 -70 0
32 29 30 28 33 26 -71 0
32 10 30 11 33 8 -49 0
32 10 30 11 33 8 -50 0
32 18 30 20 33 23 -66 0
32 18 30 20 33 23 -65 0
32 39 30 37 33 40 -75 0
32 39 30 37 33 40 -76 0
29 10 28 11 26 8 -47 0
29 10 28 11 26 8 -48 0
29 18 28 20 26 23 -64 0
29 18 28 20 26 23 -63 0
29 39 28 37 26 40 -73 0
29 39 28 37 26 40 -72 0
10 18 11 20 8 23 -46 0
10 18 11 20 8 23 -45 0
10 39 11 37 8 40 -51 0
10 39 11 37 8 40 -52 0
18 39 20 37 23 40 -67 0
18 39 20 37 23 40 -68 0
5 12 3 16 4 17 2 -14 0
5 12 3 16 4 17 2 -13 0
5 12 3 16 4 17 15 -14 0
5 12 3 16 4 17 15 -13 0
5 12 3 16 4 2 15 -14 0
5 12 3 16 4 2 15 -13 0
5 12 3 16 17 2 15 -14 0
5 12 3 16 17 2 15 -13 0
5 12 3 4 17 2 15 -14 0
5 12 3 4 17 2 15 -13 0
5 12 16 4 17 2 15 -14 0
5 12 16 4 17 2 15 -13 0
5 34 3 32 4 30 2 -35 0
5 34 3 32 4 30 2 -31 0
5 34 3 32 4 30 33 -35 0
5 34 3 32 4 30 33 -31 0
5 34 3 32 4 2 33 -35 0
5 34 3 32 4 2 33 -31 0
5 34 3 32 30 2 33 -35 0
5 34 3 32 30 2 33 -31 0
5 34 3 4 30 2 33 -35 0
5 34 3 4 30 2 33 -31 0
5 34 32 4 30 2 33 -35 0
5 34 32 4 30 2 33 -31 0
5 25 3 29 4 28 2 -24 0
5 25 3 29 4 28 2 -27 0
5 25 3 29 4 28 26 -24 0
5 25 3 29 4 28 26 -27 0
5 25 3 29 4 2 26 -24 0
5 25 3 29 4 2 26 -27 0
5 25 3 29 28 2 26 -24 0
5 25 3 29 28 2 26 -27 0
5 25 3 4 28 2 26 -24 0
5 25 3 4 28 2 26 -27 0
5 25 29 4 28 2 26 -24 0
5 25 29 4 28 2 26 -27 0
5 7 3 10 4 11 2 -9 0
5 7 3 10 4 11 2 -6 0
5 7 3 10 4 11 8 -9 0
5 7 3 10 4 11 8 -6 0
5 7 3 10 4 2 8 -9 0
5 7 3 10 4 2 8 -6 0
5 7 3 10 11 2 8 -9 0
5 7 3 10 11 2 8 -6 0
5 7 3 4 11 2 8 -9 0
5 7 3 4 11 2 8 -6 0
5 7 10 4 11 2 8 -9 0
5 7 10 4 11 2 8 -6 0
5 22 3 18 4 20 2 -21 0
5 22 3 18 4 20 2 -19 0
5 22 3 18 4 20 23 -21 0
5 22 3 18 4 20 23 -19 0
5 22 3 18 4 2 23 -21 0
5 22 3 18 4 2 23 -19 0
5 22 3 18 20 2 23 -21 0
5 22 3 18 20 2 23 -19 0
5 22 3 4 20 2 23 -21 0
5 22 3 4 20 2 23 -19 0
5 22 18 4 20 2 23 -21 0
5 22 18 4 20 2 23 -19 0
5 41 3 39 4 37 2 -36 0
5 41 3 39 4 37 2 -38 0
5 41 3 39 4 37 40 -36 0
5 41 3 39 4 37 40 -38 0
5 41 3 39 4 2 40 -36 0
5 41 3 39 4 2 40 -38 0
5 41 3 39 37 2 40 -36 0
5 41 3 39 37 2 40 -38 0
5 41 3 4 37 2 40 -36 0
5 41 3 4 37 2 40 -38 0
5 41 39 4 37 2 40 -36 0
5 41 39 4 37 2 40 -38 0
5 3 16 4 17 2 15 -14 0
5 3 16 4 17 2 15 -13 0
5 3 32 4 30 2 33 -35 0
5 3 32 4 30 2 33 -31 0
5 3 29 4 28 2 26 -24 0
5 3 29 4 28 2 26 -27 0
5 3 10 4 11 2 8 -9 0
5 3 10 4 11 2 8 -6 0
5 3 18 4 20 2 23 -21 0
5 3 18 4 20 2 23 -19 0
5 3 39 4 37 2 40 -36 0
5 3 39 4 37 2 40 -38 0
12 34 16 32 17 30 15 -58 0
12 34 16 32 17 30 15 -59 0
12 34 16 32 17 30 33 -58 0
12 34 16 32 17 30 33 -59 0
12 34 16 32 17 15 33 -58 0
12 34 16 32 17 15 33 -59 0
12 34 16 32 30 15 33 -58 0
12 34 16 32 30 15 33 -59 0
12 34 16 17 30 15 33 -58 0
12 34 16 17 30 15 33 -59 0
12 34 32 17 30 15 33 -58 0
12 34 32 17 30 15 33 -59 0
12 25 16 29 17 28 15 -57 0
12 25 16 29 17 28 15 -56 0
12 25 16 29 17 28 26 -57 0
12 25 16 29 17 28 26 -56 0
12 25 16 29 17 15 26 -57 0
12 25 16 29 17 15 26 -56 0
12 25 16 29 28 15 26 -57 0
12 25 16 29 28 15 26 -56 0
12 25 16 17 28 15 26 -57 0
12 25 16 17 28 15 26 -56 0
12 25 29 17 28 15 26 -57 0
12 25 29 17 28 15 26 -56 0
12 7 16 10 17 11 15 -43 0
12 7 16 10 17 11 15 -44 0
12 7 16 10 17 11 8 -43 0
12 7 16 10 17 11 8 -44 0
12 7 16 10 17 15 8 -43 0
12 7 16 10 17 15 8 -44 0
12 7 16 10 11 15 8 -43 0
12 7 16 10 11 15 8 -44 0
12 7 16 17 11 15 8 -43 0
12 7 16 17 11 15 8 -44 0
12 7 10 17 11 15 8 -43 0
12 7 10 17 11 15 8 -44 0
12 22 16 18 17 20 15 -55 0
12 22 16 18 17 20 15 -54 0
12 22 16 18 17 20 23 -55 0
12 22 16 18 17 20 23 -54 0
12 22 16 18 17 15 23 -55 0
12 22 16 18 17 15 23 -54 0
12 22 16 18 20 15 23 -55 0
12 22 16 18 20 15 23 -54 0
12 22 16 17 20 15 23 -55 0
12 22 16 17 20 15 23 -54 0
12 22 18 17 20 15 23 -55 0
12 22 18 17 20 15 23 -54 0
12 41 16 39 17 37 15 -61 0
12 41 16 39 17 37 15 -60 0
12 41 16 39 17 37 40 -61 0
12 41 16 39 17 37 40 -60 0
12 41 16 39 17 15 40 -61 0
12 41 16 39 17 15 40 -60 0
12 41 16 39 37 15 40 -61 0
12 41 16 39 37 15 40 -60 0
12 41 16 17 37 15 40 -61 0
12 41 16 17 37 15 40 -60 0
12 41 39 17 37 15 40 -61 0
12 41 39 17 37 15 40 -60 0
12 3 16 4 17 2 15 -14 0
12 3 16 4 17 2 15 -13 0
12 16 32 17 30 15 33 -58 0
12 16 32 17 30 15 33 -59 0
12 16 29 17 28 15 26 -57 0
12 16 29 17 28 15 26 -56 0
12 16 10 17 11 15 8 -43 0
12 16 10 17 11 15 8 -44 0
12 16 18 17 20 15 23 -55 0
12 16 18 17 20 15 23 -54 0
12 16 39 17 37 15 40 -61 0
12 16 39 17 37 15 40 -60 0
34 25 32 29 30 28 33 -70 0
34 25 32 29 30 28 33 -71 0
34 25 32 29 30 28 26 -70 0
34 25 32 29 30 28 26 -71 0
34 25 32 29 30 33 26 -70 0
34 25 32 29 30 33 26 -71 0
34 25 32 29 28 33 26 -70 0
34 25 32 29 28 33 26 -71 0
34 25 32 30 28 33 26 -70 0
34 25 32 30 28 33 26 -71 0
34 25 29 30 28 33 26 -70 0
34 25 29 30 28 33 26 -71 0
34 7 32 10 30 11 33 -49 0
34 7 32 10 30 11 33 -50 0
34 7 32 10 30 11 8 -49 0
34 7 32 10 30 11 8 -50 0
34 7 32 10 30 33 8 -49 0
34 7 32 10 30 33 8 -50 0
34 7 32 10 11 33 8 -49 0
34 7 32 10 11 33 8 -50 0
34 7 32 30 11 33 8 -49 0
34 7 32 30 11 33 8 -50 0
34 7 10 30 11 33 8 -49 0
34 7 10 30 11 33 8 -50 0
34 22 32 18 30 20 33 -66 0
34 22 32 18 30 20 33 -65 0
34 22 32 18 30 20 23 -66 0
34 22 32 18 30 20 23 -65 0
34 22 32 18 30 33 23 -66 0
34 22 32 18 30 33 23 -65 0
34 22 32 18 20 33 23 -66 0
34 22 32 18 20 33 23 -65 0
34 22 32 30 20 33 23 -66 0
34 22 32 30 20 33 23 -65 0
34 22 18 30 20 33 23 -66 0
34 22 18 30 20 33 23 -65 0
34 41 32 39 30 37 33 -75 0
34 41 32 39 30 37 33 -76 0
34 41 32 39 30 37 40 -75 0
34 41 32 39 30 37 40 -76 0
34 41 32 39 30 33 40 -75 0
34 41 32 39 30 33 40 -76 0
34 41 32 39 37 33 40 -75 0
34 41 32 39 37 33 40 -76 0
34 41 32 30 37 33 40 -75 0
34 41 32 30 37 33 40 -76 0
34 41 39 30 37 33 40 -75 0
34 41 39 30 37 33 40 -76 0
34 3 32 4 30 2 33 -35 0
34 3 32 4 30 2 33 -31 0
34 16 32 17 30 15 33 -58 0
34 16 32 17 30 15 33 -59 0
34 32 29 30 28 33 26 -70 0
34 32 29 30 28 33 26 -71 0
34 32 10 30 11 33 8 -49 0
34 32 10 30 11 33 8 -50 0
34 32 18 30 20 33 23 -66 0
34 32 18 30 20 33 23 -65 0
34 32 39 30 37 33 40 -75 0
34 32 39 30 37 33 40 -76 0
25 7 29 10 28 11 26 -47 0
25 7 29 10 28 11 26 -48 0
25 7 29 10 28 11 8 -47 0
25 7 29 10 28 11 8 -48 0
25 7 29 10 28 26 8 -47 0
25 7 29 10 28 26 8 -48 0
25 7 29 10 11 26 8 -47 0
25 7 29 10 11 26 8 -48 0
25 7 29 28 11 26 8 -47 0
25 7 29 28 11 26 8 -48 0
25 7 10 28 11 26 8 -47 0
25 7 10 28 11 26 8 -48 0
25 22 29 18 28 20 26 -64 0
25 22 29 18 28 20 26 -63 0
25 22 29 18 28 20 23 -64 0
25 22 29 18 28 20 23 -63 0
25 22 29 18 28 26 23 -64 0
25 22 29 18 28 26 23 -63 0
25 22 29 18 20 26 23 -64 0
25 22 29 18 20 26 23 -63 0
25 22 29 28 20 26 23 -64 0
25 22 29 28 20 26 23 -63 0
25 22 18 28 20 26 23 -64 0
25 22 18 28 20 26 23 -63 0
25 41 29 39 28 37 26 -73 0
25 41 29 39 28 37 26 -72 0
25 41 29 39 28 37 40 -73 0
25 41 29 39 28 37 40 -72 0
25 41 29 39 28 26 40 -73 0
25 41 29 39 28 26 40 -72 0
25 41 29 39 37 26 40 -73 0
25 41 29 39 37 26 40 -72 0
25 41 29 28 37 26 40 -73 0
25 41 29 28 37 26 40 -72 0
25 41 39 28 37 26 40 -73 0
25 41 39 28 37 26 40 -72 0
25 3 29 4 28 2 26 -24 0
25 3 29 4 28 2 26 -27 0
25 16 29 17 28 15 26 -57 0
25 16 29 17 28 15 26 -56 0
25 32 29 30 28 33 26 -70 0
25 32 29 30 28 33 26 -71 0
25 29 10 28 11 26 8 -47 0
25 29 10 28 11 26 8 -48 0
25 29 18 28 20 26 23 -64 0
25 29 18 28 20 26 23 -63 0
25 29 39 28 37 26 40 -73 0
25 29 39 28 37 26 40 -72 0
7 22 10 18 11 20 8 -46 0
7 22 10 18 11 20 8 -45 0
7 22 10 18 11 20 23 -46 0
7 22 10 18 11 20 23 -45 0
7 22 10 18 11 8 23 -46 0
7 22 10 18 11 8 23 -45 0
7 22 10 18 20 8 23 -46 0
7 22 10 18 20 8 23 -45 0
7 22 10 11 20 8 23 -46 0
7 22 10 11 20 8 23 -45 0
7 22 18 11 20 8 23 -46 0
7 22 18 11 20 8 23 -45 0
7 41 10 39 11 37 8 -51 0
7 41 10 39 11 37 8 -52 0
7 41 10 39 11 37 40 -51 0
7 41 10 39 11 37 40 -52 0
7 41 10 39 11 8 40 -51 0
7 41 10 39 11 8 40 -52 0
7 41 10 39 37 8 40 -51 0
7 41 10 39 37 8 40 -52 0
7 41 10 11 37 8 40 -51 0
7 41 10 11 37 8 40 -52 0
7 41 39 11 37 8 40 -51 0
7 41 39 11 37 8 40 -52 0
7 3 10 4 11 2 8 -9 0
7 3 10 4 11 2 8 -6 0
7 16 10 17 11 15 8 -43 0
7 16 10 17 11 15 8 -44 0
7 32 10 30 11 33 8 -49 0
7 32 10 30 11 33 8 -50 0
7 29 10 28 11 26 8 -47 0
7 29 10 28 11 26 8 -48 0
7 10 18 11 20 8 23 -46 0
7 10 18 11 20 8 23 -45 0
7 10 39 11 37 8 40 -51 0
7 10 39 11 37 8 40 -52 0
22 41 18 39 20 37 23 -67 0
22 41 18 39 20 37 23 -68 0
22 41 18 39 20 37 40 -67 0
22 41 18 39 20 37 40 -68 0
22 41 18 39 20 23 40 -67 0
22 41 18 39 20 23 40 -68 0
22 41 18 39 37 23 40 -67 0
22 41 18 39 37 23 40 -68 0
22 41 18 20 37 23 40 -67 0
22 41 18 20 37 23 40 -68 0
22 41 39 20 37 23 40 -67 0
22 41 39 20 37 23 40 -68 0
22 3 18 4 20 2 23 -21 0
22 3 18 4 20 2 23 -19 0
22 16 18 17 20 15 23 -55 0
22 16 18 17 20 15 23 -54 0
22 32 18 30 20 33 23 -66 0
22 32 18 30 20 33 23 -65 0
22 29 18 28 20 26 23 -64 0
22 29 18 28 20 26 23 -63 0
22 10 18 11 20 8 23 -46 0
22 10 18 11 20 8 23 -45 0
22 18 39 20 37 23 40 -67 0
22 18 39 20 37 23 40 -68 0
41 3 39 4 37 2 40 -36 0
41 3 39 4 37 2 40 -38 0
41 16 39 17 37 15 40 -61 0
41 16 39 17 37 15 40 -60 0
41 32 39 30 37 33 40 -75 0
41 32 39 30 37 33 40 -76 0
41 29 39 28 37 26 40 -73 0
41 29 39 28 37 26 40 -72 0
41 10 39 11 37 8 40 -51 0
41 10 39 11 37 8 40 -52 0
41 18 39 20 37 23 40 -67 0
41 18 39 20 37 23 40 -68 0
5 12 3 16 4 17 2 15 -14 0
5 12 3 16 4 17 2 15 -13 0
5 34 3 32 4 30 2 33 -35 0
5 34 3 32 4 30 2 33 -31 0
5 25 3 29 4 28 2 26 -24 0
5 25 3 29 4 28 2 26 -27 0
5 7 3 10 4 11 2 8 -9 0
5 7 3 10 4 11 2 8 -6 0
5 22 3 18 4 20 2 23 -21 0
5 22 3 18 4 20 2 23 -19 0
5 41 3 39 4 37 2 40 -36 0
5 41 3 39 4 37 2 40 -38 0
12 34 16 32 17 30 15 33 -58 0
12 34 16 32 17 30 15 33 -59 0
12 25 16 29 17 28 15 26 -57 0
12 25 16 29 17 28 15 26 -56 0
12 7 16 10 17 11 15 8 -43 0
12 7 16 10 17 11 15 8 -44 0
12 22 16 18 17 20 15 23 -55 0
12 22 16 18 17 20 15 23 -54 0
12 41 16 39 17 37 15 40 -61 0
12 41 16 39 17 37 15 40 -60 0
34 25 32 29 30 28 33 26 -70 0
34 25 32 29 30 28 33 26 -71 0
34 7 32 10 30 11 33 8 -49 0
34 7 32 10 30 11 33 8 -50 0
34 22 32 18 30 20 33 23 -66 0
34 22 32 18 30 20 33 23 -65 0
34 41 32 39 30 37 33 40 -75 0
34 41 32 39 30 37 33 40 -76 0
25 7 29 10 28 11 26 8 -47 0
25 7 29 10 28 11 26 8 -48 0
25 22 29 18 28 20 26 23 -64 0
25 22 29 18 28 20 26 23 -63 0
25 41 29 39 28 37 26 40 -73 0
25 41 29 39 28 37 26 40 -72 0
7 22 10 18 11 20 8 23 -46 0
7 22 10 18 11 20 8 23 -45 0
7 41 10 39 11 37 8 40 -51 0
7 41 10 39 11 37 8 40 -52 0
22 41 18 39 20 37 23 40 -67 0
22 41 18 39 20 37 23 40 -68 0
