c U4(7) E1(7,7) U2(7) U3(7) U1(7) U2(6) U3(6) U1(6) E1(7,6) E1(6,7) U4(6) U2(0) U3(0) U1(0) E1(7,0) U4(0) E1(0,7) U2(1) U3(1) U1(1) E1(7,1) U4(1) E1(1,7) U3(3) U1(3) U4(3) U2(3) E1(3,7) E1(7,3) U3(5) U1(5) U2(5) E1(7,5) E1(5,7) U4(5) E1(7,2) E1(2,7) U3(2) U1(2) U4(2) U2(2) U1(4) U3(4) E1(7,4) E1(4,7) U4(4) U2(4) E1(6,6) E1(0,6) E1(6,0) E1(6,1) E1(1,6) E1(6,3) E1(3,6) E1(5,6) E1(6,5) E1(6,2) E1(2,6) E1(4,6) E1(6,4) E1(0,0) E1(0,1) E1(1,0) E1(0,3) E1(3,0) E1(5,0) E1(0,5) E1(0,2) E1(2,0) E1(4,0) E1(0,4) E1(1,1) E1(1,3) E1(3,1) E1(1,5) E1(5,1) E1(1,2) E1(2,1) E1(4,1) E1(1,4) E1(3,3) E1(5,3) E1(3,5) E1(3,2) E1(2,3) E1(3,4) E1(4,3) E1(5,5) E1(5,2) E1(2,5) E1(5,4) E1(4,5) E1(2,2) E1(2,4) E1(4,2) E1(4,4)
c 1 2 3 4 5 6 7 8 9 10 11 12 13 14 15 16 17 18 19 20 21 22 23 24 25 26 27 28 29 30 31 32 33 34 35 36 37 38 39 40 41 42 43 44 45 46 47 48 49 50 51 52 53 54 55 56 57 58 59 60 61 62 63 64 65 66 67 68 69 70 71 72 73 74 75 76 77 78 79 80 81 82 83 84 85 86 87 88 89 90 91 92 93 94 95 96
p cnf 96 2128
61 -61 0
62 -63 0
68 -69 0
64 -65 0
71 -70 0
67 -66 0
49 -50 0
17 -15 0
63 -62 0
72 -72 0
77 -78 0
73 -74 0
80 -79 0
75 -76 0
52 -51 0
23 -21 0
69 -68 0
78 -77 0
93 -93 0
85 -84 0
94 -95 0
90 -89 0
58 -57 0
37 -36 0
65 -64 0
74 -73 0
84 -85 0
81 -81 0
86 -87 0
83 -82 0
54 -53 0
28 -29 0
70 -71 0
79 -80 0
95 -94 0
87 -86 0
96 -96 0
92 -91 0
59 -60 0
45 -44 0
66 -67 0
76 -75 0
89 -90 0
82 -83 0
91 -92 0
88 -88 0
55 -56 0
34 -33 0
50 -49 0
51 -52 0
57 -58 0
53 -54 0
60 -59 0
56 -55 0
48 -48 0
10 -9 0
15 -17 0
21 -23 0
36 -37 0
29 -28 0
44 -45 0
33 -34 0
9 -10 0
2 -2 0
-14 -12 0
-14 -13 0
-14 -16 0
-20 -18 0
-20 -19 0
-20 -22 0
-39 -41 0
-39 -38 0
-39 -40 0
-25 -27 0
-25 -24 0
-25 -26 0
-42 -47 0
-42 -43 0
-42 -46 0
-31 -32 0
-31 -30 0
-31 -35 0
-8 -6 0
-8 -7 0
-8 -11 0
-5 -3 0
-5 -4 0
-5 -1 0
-12 -13 0
-12 -16 0
-18 -19 0
-18 -22 0
-41 -38 0
-41 -40 0
-27 -24 0
-27 -26 0
-47 -43 0
-47 -46 0
-32 -30 0
-32 -35 0
-6 -7 0
-6 -11 0
-3 -4 0
-3 -1 0
-13 -16 0
-19 -22 0
-38 -40 0
-24 -26 0
-43 -46 0
-30 -35 0
-7 -11 0
-4 -1 0
14 12 13 16 0
20 18 19 22 0
39 41 38 40 0
25 27 24 26 0
42 47 43 46 0
31 32 30 35 0
8 6 7 11 0
5 3 4 1 0
14 12 13 -61 0
14 12 16 -61 0
14 13 16 -61 0
20 18 19 -72 0
20 18 22 -72 0
20 19 22 -72 0
39 41 38 -93 0
39 41 40 -93 0
39 38 40 -93 0
25 27 24 -81 0
25 27 26 -81 0
25 24 26 -81 0
42 47 43 -96 0
42 47 46 -96 0
42 43 46 -96 0
31 32 30 -88 0
31 32 35 -88 0
31 30 35 -88 0
8 6 7 -48 0
8 6 11 -48 0
8 7 11 -48 0
5 3 4 -2 0
5 3 1 -2 0
5 4 1 -2 0
12 13 16 -61 0
18 19 22 -72 0
41 38 40 -93 0
27 24 26 -81 0
47 43 46 -96 0
32 30 35 -88 0
6 7 11 -48 0
3 4 1 -2 0
14 12 13 16 -61 0
14 12 13 16 -62 0
14 12 13 16 -68 0
14 12 13 16 -64 0
14 12 13 16 -71 0
14 12 13 16 -67 0
14 12 13 16 -49 0
14 12 13 16 -17 0
14 12 13 16 -63 0
14 12 13 16 -69 0
14 12 13 16 -65 0
14 12 13 16 -70 0
14 12 13 16 -66 0
14 12 13 16 -50 0
14 12 13 16 -15 0
20 18 19 22 -62 0
20 18 19 22 -63 0
20 18 19 22 -72 0
20 18 19 22 -77 0
20 18 19 22 -73 0
20 18 19 22 -80 0
20 18 19 22 -75 0
20 18 19 22 -52 0
20 18 19 22 -23 0
20 18 19 22 -78 0
20 18 19 22 -74 0
20 18 19 22 -79 0
20 18 19 22 -76 0
20 18 19 22 -51 0
20 18 19 22 -21 0
39 41 38 40 -68 0
39 41 38 40 -77 0
39 41 38 40 -69 0
39 41 38 40 -78 0
39 41 38 40 -93 0
39 41 38 40 -85 0
39 41 38 40 -94 0
39 41 38 40 -90 0
39 41 38 40 -58 0
39 41 38 40 -37 0
39 41 38 40 -84 0
39 41 38 40 -95 0
39 41 38 40 -89 0
39 41 38 40 -57 0
39 41 38 40 -36 0
25 27 24 26 -64 0
25 27 24 26 -73 0
25 27 24 26 -85 0
25 27 24 26 -65 0
25 27 24 26 -74 0
25 27 24 26 -84 0
25 27 24 26 -81 0
25 27 24 26 -86 0
25 27 24 26 -83 0
25 27 24 26 -54 0
25 27 24 26 -28 0
25 27 24 26 -87 0
25 27 24 26 -82 0
25 27 24 26 -53 0
25 27 24 26 -29 0
42 47 43 46 -71 0
42 47 43 46 -80 0
42 47 43 46 -94 0
42 47 43 46 -86 0
42 47 43 46 -70 0
42 47 43 46 -79 0
42 47 43 46 -95 0
42 47 43 46 -87 0
42 47 43 46 -96 0
42 47 43 46 -92 0
42 47 43 46 -59 0
42 47 43 46 -45 0
42 47 43 46 -91 0
42 47 43 46 -60 0
42 47 43 46 -44 0
31 32 30 35 -67 0
31 32 30 35 -75 0
31 32 30 35 -90 0
31 32 30 35 -83 0
31 32 30 35 -92 0
31 32 30 35 -66 0
31 32 30 35 -76 0
31 32 30 35 -89 0
31 32 30 35 -82 0
31 32 30 35 -91 0
31 32 30 35 -88 0
31 32 30 35 -55 0
31 32 30 35 -34 0
31 32 30 35 -56 0
31 32 30 35 -33 0
8 6 7 11 -49 0
8 6 7 11 -52 0
8 6 7 11 -58 0
8 6 7 11 -54 0
8 6 7 11 -59 0
8 6 7 11 -55 0
8 6 7 11 -50 0
8 6 7 11 -51 0
8 6 7 11 -57 0
8 6 7 11 -53 0
8 6 7 11 -60 0
8 6 7 11 -56 0
8 6 7 11 -48 0
8 6 7 11 -10 0
8 6 7 11 -9 0
5 3 4 1 -17 0
5 3 4 1 -23 0
5 3 4 1 -37 0
5 3 4 1 -28 0
5 3 4 1 -45 0
5 3 4 1 -34 0
5 3 4 1 -10 0
5 3 4 1 -15 0
5 3 4 1 -21 0
5 3 4 1 -36 0
5 3 4 1 -29 0
5 3 4 1 -44 0
5 3 4 1 -33 0
5 3 4 1 -9 0
5 3 4 1 -2 0
14 20 12 13 16 -62 0
14 20 12 13 16 -63 0
14 20 18 19 22 -62 0
14 20 18 19 22 -63 0
14 39 12 13 16 -68 0
14 39 12 13 16 -69 0
14 39 41 38 40 -68 0
14 39 41 38 40 -69 0
14 25 12 13 16 -64 0
14 25 12 13 16 -65 0
14 25 27 24 26 -64 0
14 25 27 24 26 -65 0
14 42 12 13 16 -71 0
14 42 12 13 16 -70 0
14 42 47 43 46 -71 0
14 42 47 43 46 -70 0
14 31 12 13 16 -67 0
14 31 12 13 16 -66 0
14 31 32 30 35 -67 0
14 31 32 30 35 -66 0
14 8 12 13 16 -49 0
14 8 12 13 16 -50 0
14 8 6 7 11 -49 0
14 8 6 7 11 -50 0
14 5 12 13 16 -17 0
14 5 12 13 16 -15 0
14 5 3 4 1 -17 0
14 5 3 4 1 -15 0
14 12 18 13 16 -62 0
14 12 18 13 16 -63 0
14 12 41 13 16 -68 0
14 12 41 13 16 -69 0
14 12 27 13 16 -64 0
14 12 27 13 16 -65 0
14 12 47 13 16 -71 0
14 12 47 13 16 -70 0
14 12 32 13 16 -67 0
14 12 32 13 16 -66 0
14 12 6 13 16 -49 0
14 12 6 13 16 -50 0
14 12 3 13 16 -17 0
14 12 3 13 16 -15 0
14 12 13 19 16 -62 0
14 12 13 19 16 -63 0
14 12 13 38 16 -68 0
14 12 13 38 16 -69 0
14 12 13 24 16 -64 0
14 12 13 24 16 -65 0
14 12 13 43 16 -71 0
14 12 13 43 16 -70 0
14 12 13 30 16 -67 0
14 12 13 30 16 -66 0
14 12 13 7 16 -49 0
14 12 13 7 16 -50 0
14 12 13 4 16 -17 0
14 12 13 4 16 -15 0
14 12 13 16 22 -62 0
14 12 13 16 22 -63 0
14 12 13 16 40 -68 0
14 12 13 16 40 -69 0
14 12 13 16 26 -64 0
14 12 13 16 26 -65 0
14 12 13 16 46 -71 0
14 12 13 16 46 -70 0
14 12 13 16 35 -67 0
14 12 13 16 35 -66 0
14 12 13 16 11 -49 0
14 12 13 16 11 -50 0
14 12 13 16 1 -17 0
14 12 13 16 1 -15 0
20 39 18 19 22 -77 0
20 39 18 19 22 -78 0
20 39 41 38 40 -77 0
20 39 41 38 40 -78 0
20 25 18 19 22 -73 0
20 25 18 19 22 -74 0
20 25 27 24 26 -73 0
20 25 27 24 26 -74 0
20 42 18 19 22 -80 0
20 42 18 19 22 -79 0
20 42 47 43 46 -80 0
20 42 47 43 46 -79 0
20 31 18 19 22 -75 0
20 31 18 19 22 -76 0
20 31 32 30 35 -75 0
20 31 32 30 35 -76 0
20 8 18 19 22 -52 0
20 8 18 19 22 -51 0
20 8 6 7 11 -52 0
20 8 6 7 11 -51 0
20 5 18 19 22 -23 0
20 5 18 19 22 -21 0
20 5 3 4 1 -23 0
20 5 3 4 1 -21 0
20 12 18 19 22 -62 0
20 12 18 19 22 -63 0
20 18 41 19 22 -77 0
20 18 41 19 22 -78 0
20 18 27 19 22 -73 0
20 18 27 19 22 -74 0
20 18 47 19 22 -80 0
20 18 47 19 22 -79 0
20 18 32 19 22 -75 0
20 18 32 19 22 -76 0
20 18 6 19 22 -52 0
20 18 6 19 22 -51 0
20 18 3 19 22 -23 0
20 18 3 19 22 -21 0
20 18 13 19 22 -62 0
20 18 13 19 22 -63 0
20 18 19 38 22 -77 0
20 18 19 38 22 -78 0
20 18 19 24 22 -73 0
20 18 19 24 22 -74 0
20 18 19 43 22 -80 0
20 18 19 43 22 -79 0
20 18 19 30 22 -75 0
20 18 19 30 22 -76 0
20 18 19 7 22 -52 0
20 18 19 7 22 -51 0
20 18 19 4 22 -23 0
20 18 19 4 22 -21 0
20 18 19 16 22 -62 0
20 18 19 16 22 -63 0
20 18 19 22 40 -77 0
20 18 19 22 40 -78 0
20 18 19 22 26 -73 0
20 18 19 22 26 -74 0
20 18 19 22 46 -80 0
20 18 19 22 46 -79 0
20 18 19 22 35 -75 0
20 18 19 22 35 -76 0
20 18 19 22 11 -52 0
20 18 19 22 11 -51 0
20 18 19 22 1 -23 0
20 18 19 22 1 -21 0
39 25 41 38 40 -85 0
39 25 41 38 40 -84 0
39 25 27 24 26 -85 0
39 25 27 24 26 -84 0
39 42 41 38 40 -94 0
39 42 41 38 40 -95 0
39 42 47 43 46 -94 0
39 42 47 43 46 -95 0
39 31 41 38 40 -90 0
39 31 41 38 40 -89 0
39 31 32 30 35 -90 0
39 31 32 30 35 -89 0
39 8 41 38 40 -58 0
39 8 41 38 40 -57 0
39 8 6 7 11 -58 0
39 8 6 7 11 -57 0
39 5 41 38 40 -37 0
39 5 41 38 40 -36 0
39 5 3 4 1 -37 0
39 5 3 4 1 -36 0
39 12 41 38 40 -68 0
39 12 41 38 40 -69 0
39 18 41 38 40 -77 0
39 18 41 38 40 -78 0
39 41 27 38 40 -85 0
39 41 27 38 40 -84 0
39 41 47 38 40 -94 0
39 41 47 38 40 -95 0
39 41 32 38 40 -90 0
39 41 32 38 40 -89 0
39 41 6 38 40 -58 0
39 41 6 38 40 -57 0
39 41 3 38 40 -37 0
39 41 3 38 40 -36 0
39 41 13 38 40 -68 0
39 41 13 38 40 -69 0
39 41 19 38 40 -77 0
39 41 19 38 40 -78 0
39 41 38 24 40 -85 0
39 41 38 24 40 -84 0
39 41 38 43 40 -94 0
39 41 38 43 40 -95 0
39 41 38 30 40 -90 0
39 41 38 30 40 -89 0
39 41 38 7 40 -58 0
39 41 38 7 40 -57 0
39 41 38 4 40 -37 0
39 41 38 4 40 -36 0
39 41 38 16 40 -68 0
39 41 38 16 40 -69 0
39 41 38 22 40 -77 0
39 41 38 22 40 -78 0
39 41 38 40 26 -85 0
39 41 38 40 26 -84 0
39 41 38 40 46 -94 0
39 41 38 40 46 -95 0
39 41 38 40 35 -90 0
39 41 38 40 35 -89 0
39 41 38 40 11 -58 0
39 41 38 40 11 -57 0
39 41 38 40 1 -37 0
39 41 38 40 1 -36 0
25 42 27 24 26 -86 0
25 42 27 24 26 -87 0
25 42 47 43 46 -86 0
25 42 47 43 46 -87 0
25 31 27 24 26 -83 0
25 31 27 24 26 -82 0
25 31 32 30 35 -83 0
25 31 32 30 35 -82 0
25 8 27 24 26 -54 0
25 8 27 24 26 -53 0
25 8 6 7 11 -54 0
25 8 6 7 11 -53 0
25 5 27 24 26 -28 0
25 5 27 24 26 -29 0
25 5 3 4 1 -28 0
25 5 3 4 1 -29 0
25 12 27 24 26 -64 0
25 12 27 24 26 -65 0
25 18 27 24 26 -73 0
25 18 27 24 26 -74 0
25 41 27 24 26 -85 0
25 41 27 24 26 -84 0
25 27 47 24 26 -86 0
25 27 47 24 26 -87 0
25 27 32 24 26 -83 0
25 27 32 24 26 -82 0
25 27 6 24 26 -54 0
25 27 6 24 26 -53 0
25 27 3 24 26 -28 0
25 27 3 24 26 -29 0
25 27 13 24 26 -64 0
25 27 13 24 26 -65 0
25 27 19 24 26 -73 0
25 27 19 24 26 -74 0
25 27 38 24 26 -85 0
25 27 38 24 26 -84 0
25 27 24 43 26 -86 0
25 27 24 43 26 -87 0
25 27 24 30 26 -83 0
25 27 24 30 26 -82 0
25 27 24 7 26 -54 0
25 27 24 7 26 -53 0
25 27 24 4 26 -28 0
25 27 24 4 26 -29 0
25 27 24 16 26 -64 0
25 27 24 16 26 -65 0
25 27 24 22 26 -73 0
25 27 24 22 26 -74 0
25 27 24 40 26 -85 0
25 27 24 40 26 -84 0
25 27 24 26 46 -86 0
25 27 24 26 46 -87 0
25 27 24 26 35 -83 0
25 27 24 26 35 -82 0
25 27 24 26 11 -54 0
25 27 24 26 11 -53 0
25 27 24 26 1 -28 0
25 27 24 26 1 -29 0
42 31 47 43 46 -92 0
42 31 47 43 46 -91 0
42 31 32 30 35 -92 0
42 31 32 30 35 -91 0
42 8 47 43 46 -59 0
42 8 47 43 46 -60 0
42 8 6 7 11 -59 0
42 8 6 7 11 -60 0
42 5 47 43 46 -45 0
42 5 47 43 46 -44 0
42 5 3 4 1 -45 0
42 5 3 4 1 -44 0
42 12 47 43 46 -71 0
42 12 47 43 46 -70 0
42 18 47 43 46 -80 0
42 18 47 43 46 -79 0
42 41 47 43 46 -94 0
42 41 47 43 46 -95 0
42 27 47 43 46 -86 0
42 27 47 43 46 -87 0
42 47 32 43 46 -92 0
42 47 32 43 46 -91 0
42 47 6 43 46 -59 0
42 47 6 43 46 -60 0
42 47 3 43 46 -45 0
42 47 3 43 46 -44 0
42 47 13 43 46 -71 0
42 47 13 43 46 -70 0
42 47 19 43 46 -80 0
42 47 19 43 46 -79 0
42 47 38 43 46 -94 0
42 47 38 43 46 -95 0
42 47 24 43 46 -86 0
42 47 24 43 46 -87 0
42 47 43 30 46 -92 0
42 47 43 30 46 -91 0
42 47 43 7 46 -59 0
42 47 43 7 46 -60 0
42 47 43 4 46 -45 0
42 47 43 4 46 -44 0
42 47 43 16 46 -71 0
42 47 43 16 46 -70 0
42 47 43 22 46 -80 0
42 47 43 22 46 -79 0
42 47 43 40 46 -94 0
42 47 43 40 46 -95 0
42 47 43 26 46 -86 0
42 47 43 26 46 -87 0
42 47 43 46 35 -92 0
42 47 43 46 35 -91 0
42 47 43 46 11 -59 0
42 47 43 46 11 -60 0
42 47 43 46 1 -45 0
42 47 43 46 1 -44 0
31 8 32 30 35 -55 0
31 8 32 30 35 -56 0
31 8 6 7 11 -55 0
31 8 6 7 11 -56 0
31 5 32 30 35 -34 0
31 5 32 30 35 -33 0
31 5 3 4 1 -34 0
31 5 3 4 1 -33 0
31 12 32 30 35 -67 0
31 12 32 30 35 -66 0
31 18 32 30 35 -75 0
31 18 32 30 35 -76 0
31 41 32 30 35 -90 0
31 41 32 30 35 -89 0
31 27 32 30 35 -83 0
31 27 32 30 35 -82 0
31 47 32 30 35 -92 0
31 47 32 30 35 -91 0
31 32 6 30 35 -55 0
31 32 6 30 35 -56 0
31 32 3 30 35 -34 0
31 32 3 30 35 -33 0
31 32 13 30 35 -67 0
31 32 13 30 35 -66 0
31 32 19 30 35 -75 0
31 32 19 30 35 -76 0
31 32 38 30 35 -90 0
31 32 38 30 35 -89 0
31 32 24 30 35 -83 0
31 32 24 30 35 -82 0
31 32 43 30 35 -92 0
31 32 43 30 35 -91 0
31 32 30 7 35 -55 0
31 32 30 7 35 -56 0
31 32 30 4 35 -34 0
31 32 30 4 35 -33 0
31 32 30 16 35 -67 0
31 32 30 16 35 -66 0
31 32 30 22 35 -75 0
31 32 30 22 35 -76 0
31 32 30 40 35 -90 0
31 32 30 40 35 -89 0
31 32 30 26 35 -83 0
31 32 30 26 35 -82 0
31 32 30 46 35 -92 0
31 32 30 46 35 -91 0
31 32 30 35 11 -55 0
31 32 30 35 11 -56 0
31 32 30 35 1 -34 0
31 32 30 35 1 -33 0
8 5 6 7 11 -10 0
8 5 6 7 11 -9 0
8 5 3 4 1 -10 0
8 5 3 4 1 -9 0
8 12 6 7 11 -49 0
8 12 6 7 11 -50 0
8 18 6 7 11 -52 0
8 18 6 7 11 -51 0
8 41 6 7 11 -58 0
8 41 6 7 11 -57 0
8 27 6 7 11 -54 0
8 27 6 7 11 -53 0
8 47 6 7 11 -59 0
8 47 6 7 11 -60 0
8 32 6 7 11 -55 0
8 32 6 7 11 -56 0
8 6 3 7 11 -10 0
8 6 3 7 11 -9 0
8 6 13 7 11 -49 0
8 6 13 7 11 -50 0
8 6 19 7 11 -52 0
8 6 19 7 11 -51 0
8 6 38 7 11 -58 0
8 6 38 7 11 -57 0
8 6 24 7 11 -54 0
8 6 24 7 11 -53 0
8 6 43 7 11 -59 0
8 6 43 7 11 -60 0
8 6 30 7 11 -55 0
8 6 30 7 11 -56 0
8 6 7 4 11 -10 0
8 6 7 4 11 -9 0
8 6 7 16 11 -49 0
8 6 7 16 11 -50 0
8 6 7 22 11 -52 0
8 6 7 22 11 -51 0
8 6 7 40 11 -58 0
8 6 7 40 11 -57 0
8 6 7 26 11 -54 0
8 6 7 26 11 -53 0
8 6 7 46 11 -59 0
8 6 7 46 11 -60 0
8 6 7 35 11 -55 0
8 6 7 35 11 -56 0
8 6 7 11 1 -10 0
8 6 7 11 1 -9 0
5 12 3 4 1 -17 0
5 12 3 4 1 -15 0
5 18 3 4 1 -23 0
5 18 3 4 1 -21 0
5 41 3 4 1 -37 0
5 41 3 4 1 -36 0
5 27 3 4 1 -28 0
5 27 3 4 1 -29 0
5 47 3 4 1 -45 0
5 47 3 4 1 -44 0
5 32 3 4 1 -34 0
5 32 3 4 1 -33 0
5 6 3 4 1 -10 0
5 6 3 4 1 -9 0
5 3 13 4 1 -17 0
5 3 13 4 1 -15 0
5 3 19 4 1 -23 0
5 3 19 4 1 -21 0
5 3 38 4 1 -37 0
5 3 38 4 1 -36 0
5 3 24 4 1 -28 0
5 3 24 4 1 -29 0
5 3 43 4 1 -45 0
5 3 43 4 1 -44 0
5 3 30 4 1 -34 0
5 3 30 4 1 -33 0
5 3 7 4 1 -10 0
5 3 7 4 1 -9 0
5 3 4 16 1 -17 0
5 3 4 16 1 -15 0
5 3 4 22 1 -23 0
5 3 4 22 1 -21 0
5 3 4 40 1 -37 0
5 3 4 40 1 -36 0
5 3 4 26 1 -28 0
5 3 4 26 1 -29 0
5 3 4 46 1 -45 0
5 3 4 46 1 -44 0
5 3 4 35 1 -34 0
5 3 4 35 1 -33 0
5 3 4 11 1 -10 0
5 3 4 11 1 -9 0
14 20 12 18 13 19 -62 0
14 20 12 18 13 19 -63 0
14 20 12 18 13 16 -62 0
14 20 12 18 13 16 -63 0
14 20 12 18 19 22 -62 0
14 20 12 18 19 22 -63 0
14 20 12 18 16 22 -62 0
14 20 12 18 16 22 -63 0
14 20 12 13 19 16 -62 0
14 20 12 13 19 16 -63 0
14 20 12 13 16 22 -62 0
14 20 12 13 16 22 -63 0
14 20 18 13 19 22 -62 0
14 20 18 13 19 22 -63 0
14 20 18 19 16 22 -62 0
14 20 18 19 16 22 -63 0
14 20 13 19 16 22 -62 0
14 20 13 19 16 22 -63 0
14 39 12 41 13 38 -68 0
14 39 12 41 13 38 -69 0
14 39 12 41 13 16 -68 0
14 39 12 41 13 16 -69 0
14 39 12 41 38 40 -68 0
14 39 12 41 38 40 -69 0
14 39 12 41 16 40 -68 0
14 39 12 41 16 40 -69 0
14 39 12 13 38 16 -68 0
14 39 12 13 38 16 -69 0
14 39 12 13 16 40 -68 0
14 39 12 13 16 40 -69 0
14 39 41 13 38 40 -68 0
14 39 41 13 38 40 -69 0
14 39 41 38 16 40 -68 0
14 39 41 38 16 40 -69 0
14 39 13 38 16 40 -68 0
14 39 13 38 16 40 -69 0
14 25 12 27 13 24 -64 0
14 25 12 27 13 24 -65 0
14 25 12 27 13 16 -64 0
14 25 12 27 13 16 -65 0
14 25 12 27 24 26 -64 0
14 25 12 27 24 26 -65 0
14 25 12 27 16 26 -64 0
14 25 12 27 16 26 -65 0
14 25 12 13 24 16 -64 0
14 25 12 13 24 16 -65 0
14 25 12 13 16 26 -64 0
14 25 12 13 16 26 -65 0
14 25 27 13 24 26 -64 0
14 25 27 13 24 26 -65 0
14 25 27 24 16 26 -64 0
14 25 27 24 16 26 -65 0
14 25 13 24 16 26 -64 0
14 25 13 24 16 26 -65 0
14 42 12 47 13 43 -71 0
14 42 12 47 13 43 -70 0
14 42 12 47 13 16 -71 0
14 42 12 47 13 16 -70 0
14 42 12 47 43 46 -71 0
14 42 12 47 43 46 -70 0
14 42 12 47 16 46 -71 0
14 42 12 47 16 46 -70 0
14 42 12 13 43 16 -71 0
14 42 12 13 43 16 -70 0
14 42 12 13 16 46 -71 0
14 42 12 13 16 46 -70 0
14 42 47 13 43 46 -71 0
14 42 47 13 43 46 -70 0
14 42 47 43 16 46 -71 0
14 42 47 43 16 46 -70 0
14 42 13 43 16 46 -71 0
14 42 13 43 16 46 -70 0
14 31 12 32 13 30 -67 0
14 31 12 32 13 30 -66 0
14 31 12 32 13 16 -67 0
14 31 12 32 13 16 -66 0
14 31 12 32 30 35 -67 0
14 31 12 32 30 35 -66 0
14 31 12 32 16 35 -67 0
14 31 12 32 16 35 -66 0
14 31 12 13 30 16 -67 0
14 31 12 13 30 16 -66 0
14 31 12 13 16 35 -67 0
14 31 12 13 16 35 -66 0
14 31 32 13 30 35 -67 0
14 31 32 13 30 35 -66 0
14 31 32 30 16 35 -67 0
14 31 32 30 16 35 -66 0
14 31 13 30 16 35 -67 0
14 31 13 30 16 35 -66 0
14 8 12 6 13 7 -49 0
14 8 12 6 13 7 -50 0
14 8 12 6 13 16 -49 0
14 8 12 6 13 16 -50 0
14 8 12 6 7 11 -49 0
14 8 12 6 7 11 -50 0
14 8 12 6 16 11 -49 0
14 8 12 6 16 11 -50 0
14 8 12 13 7 16 -49 0
14 8 12 13 7 16 -50 0
14 8 12 13 16 11 -49 0
14 8 12 13 16 11 -50 0
14 8 6 13 7 11 -49 0
14 8 6 13 7 11 -50 0
14 8 6 7 16 11 -49 0
14 8 6 7 16 11 -50 0
14 8 13 7 16 11 -49 0
14 8 13 7 16 11 -50 0
14 5 12 3 13 4 -17 0
14 5 12 3 13 4 -15 0
14 5 12 3 13 16 -17 0
14 5 12 3 13 16 -15 0
14 5 12 3 4 1 -17 0
14 5 12 3 4 1 -15 0
14 5 12 3 16 1 -17 0
14 5 12 3 16 1 -15 0
14 5 12 13 4 16 -17 0
14 5 12 13 4 16 -15 0
14 5 12 13 16 1 -17 0
14 5 12 13 16 1 -15 0
14 5 3 13 4 1 -17 0
14 5 3 13 4 1 -15 0
14 5 3 4 16 1 -17 0
14 5 3 4 16 1 -15 0
14 5 13 4 16 1 -17 0
14 5 13 4 16 1 -15 0
14 12 18 13 19 16 -62 0
14 12 18 13 19 16 -63 0
14 12 18 13 16 22 -62 0
14 12 18 13 16 22 -63 0
14 12 41 13 38 16 -68 0
14 12 41 13 38 16 -69 0
14 12 41 13 16 40 -68 0
14 12 41 13 16 40 -69 0
14 12 27 13 24 16 -64 0
14 12 27 13 24 16 -65 0
14 12 27 13 16 26 -64 0
14 12 27 13 16 26 -65 0
14 12 47 13 43 16 -71 0
14 12 47 13 43 16 -70 0
14 12 47 13 16 46 -71 0
14 12 47 13 16 46 -70 0
14 12 32 13 30 16 -67 0
14 12 32 13 30 16 -66 0
14 12 32 13 16 35 -67 0
14 12 32 13 16 35 -66 0
14 12 6 13 7 16 -49 0
14 12 6 13 7 16 -50 0
14 12 6 13 16 11 -49 0
14 12 6 13 16 11 -50 0
14 12 3 13 4 16 -17 0
14 12 3 13 4 16 -15 0
14 12 3 13 16 1 -17 0
14 12 3 13 16 1 -15 0
14 12 13 19 16 22 -62 0
14 12 13 19 16 22 -63 0
14 12 13 38 16 40 -68 0
14 12 13 38 16 40 -69 0
14 12 13 24 16 26 -64 0
14 12 13 24 16 26 -65 0
14 12 13 43 16 46 -71 0
14 12 13 43 16 46 -70 0
14 12 13 30 16 35 -67 0
14 12 13 30 16 35 -66 0
14 12 13 7 16 11 -49 0
14 12 13 7 16 11 -50 0
14 12 13 4 16 1 -17 0
14 12 13 4 16 1 -15 0
20 39 18 41 19 38 -77 0
20 39 18 41 19 38 -78 0
20 39 18 41 19 22 -77 0
20 39 18 41 19 22 -78 0
20 39 18 41 38 40 -77 0
20 39 18 41 38 40 -78 0
20 39 18 41 22 40 -77 0
20 39 18 41 22 40 -78 0
20 39 18 19 38 22 -77 0
20 39 18 19 38 22 -78 0
20 39 18 19 22 40 -77 0
20 39 18 19 22 40 -78 0
20 39 41 19 38 40 -77 0
20 39 41 19 38 40 -78 0
20 39 41 38 22 40 -77 0
20 39 41 38 22 40 -78 0
20 39 19 38 22 40 -77 0
20 39 19 38 22 40 -78 0
20 25 18 27 19 24 -73 0
20 25 18 27 19 24 -74 0
20 25 18 27 19 22 -73 0
20 25 18 27 19 22 -74 0
20 25 18 27 24 26 -73 0
20 25 18 27 24 26 -74 0
20 25 18 27 22 26 -73 0
20 25 18 27 22 26 -74 0
20 25 18 19 24 22 -73 0
20 25 18 19 24 22 -74 0
20 25 18 19 22 26 -73 0
20 25 18 19 22 26 -74 0
20 25 27 19 24 26 -73 0
20 25 27 19 24 26 -74 0
20 25 27 24 22 26 -73 0
20 25 27 24 22 26 -74 0
20 25 19 24 22 26 -73 0
20 25 19 24 22 26 -74 0
20 42 18 47 19 43 -80 0
20 42 18 47 19 43 -79 0
20 42 18 47 19 22 -80 0
20 42 18 47 19 22 -79 0
20 42 18 47 43 46 -80 0
20 42 18 47 43 46 -79 0
20 42 18 47 22 46 -80 0
20 42 18 47 22 46 -79 0
20 42 18 19 43 22 -80 0
20 42 18 19 43 22 -79 0
20 42 18 19 22 46 -80 0
20 42 18 19 22 46 -79 0
20 42 47 19 43 46 -80 0
20 42 47 19 43 46 -79 0
20 42 47 43 22 46 -80 0
20 42 47 43 22 46 -79 0
20 42 19 43 22 46 -80 0
20 42 19 43 22 46 -79 0
20 31 18 32 19 30 -75 0
20 31 18 32 19 30 -76 0
20 31 18 32 19 22 -75 0
20 31 18 32 19 22 -76 0
20 31 18 32 30 35 -75 0
20 31 18 32 30 35 -76 0
20 31 18 32 22 35 -75 0
20 31 18 32 22 35 -76 0
20 31 18 19 30 22 -75 0
20 31 18 19 30 22 -76 0
20 31 18 19 22 35 -75 0
20 31 18 19 22 35 -76 0
20 31 32 19 30 35 -75 0
20 31 32 19 30 35 -76 0
20 31 32 30 22 35 -75 0
20 31 32 30 22 35 -76 0
20 31 19 30 22 35 -75 0
20 31 19 30 22 35 -76 0
20 8 18 6 19 7 -52 0
20 8 18 6 19 7 -51 0
20 8 18 6 19 22 -52 0
20 8 18 6 19 22 -51 0
20 8 18 6 7 11 -52 0
20 8 18 6 7 11 -51 0
20 8 18 6 22 11 -52 0
20 8 18 6 22 11 -51 0
20 8 18 19 7 22 -52 0
20 8 18 19 7 22 -51 0
20 8 18 19 22 11 -52 0
20 8 18 19 22 11 -51 0
20 8 6 19 7 11 -52 0
20 8 6 19 7 11 -51 0
20 8 6 7 22 11 -52 0
20 8 6 7 22 11 -51 0
20 8 19 7 22 11 -52 0
20 8 19 7 22 11 -51 0
20 5 18 3 19 4 -23 0
20 5 18 3 19 4 -21 0
20 5 18 3 19 22 -23 0
20 5 18 3 19 22 -21 0
20 5 18 3 4 1 -23 0
20 5 18 3 4 1 -21 0
20 5 18 3 22 1 -23 0
20 5 18 3 22 1 -21 0
20 5 18 19 4 22 -23 0
20 5 18 19 4 22 -21 0
20 5 18 19 22 1 -23 0
20 5 18 19 22 1 -21 0
20 5 3 19 4 1 -23 0
20 5 3 19 4 1 -21 0
20 5 3 4 22 1 -23 0
20 5 3 4 22 1 -21 0
20 5 19 4 22 1 -23 0
20 5 19 4 22 1 -21 0
20 12 18 13 19 22 -62 0
20 12 18 13 19 22 -63 0
20 12 18 19 16 22 -62 0
20 12 18 19 16 22 -63 0
20 18 41 19 38 22 -77 0
20 18 41 19 38 22 -78 0
20 18 41 19 22 40 -77 0
20 18 41 19 22 40 -78 0
20 18 27 19 24 22 -73 0
20 18 27 19 24 22 -74 0
20 18 27 19 22 26 -73 0
20 18 27 19 22 26 -74 0
20 18 47 19 43 22 -80 0
20 18 47 19 43 22 -79 0
20 18 47 19 22 46 -80 0
20 18 47 19 22 46 -79 0
20 18 32 19 30 22 -75 0
20 18 32 19 30 22 -76 0
20 18 32 19 22 35 -75 0
20 18 32 19 22 35 -76 0
20 18 6 19 7 22 -52 0
20 18 6 19 7 22 -51 0
20 18 6 19 22 11 -52 0
20 18 6 19 22 11 -51 0
20 18 3 19 4 22 -23 0
20 18 3 19 4 22 -21 0
20 18 3 19 22 1 -23 0
20 18 3 19 22 1 -21 0
20 18 13 19 16 22 -62 0
20 18 13 19 16 22 -63 0
20 18 19 38 22 40 -77 0
20 18 19 38 22 40 -78 0
20 18 19 24 22 26 -73 0
20 18 19 24 22 26 -74 0
20 18 19 43 22 46 -80 0
20 18 19 43 22 46 -79 0
20 18 19 30 22 35 -75 0
20 18 19 30 22 35 -76 0
20 18 19 7 22 11 -52 0
20 18 19 7 22 11 -51 0
20 18 19 4 22 1 -23 0
20 18 19 4 22 1 -21 0
39 25 41 27 38 24 -85 0
39 25 41 27 38 24 -84 0
39 25 41 27 38 40 -85 0
39 25 41 27 38 40 -84 0
39 25 41 27 24 26 -85 0
39 25 41 27 24 26 -84 0
39 25 41 27 40 26 -85 0
39 25 41 27 40 26 -84 0
39 25 41 38 24 40 -85 0
39 25 41 38 24 40 -84 0
39 25 41 38 40 26 -85 0
39 25 41 38 40 26 -84 0
39 25 27 38 24 26 -85 0
39 25 27 38 24 26 -84 0
39 25 27 24 40 26 -85 0
39 25 27 24 40 26 -84 0
39 25 38 24 40 26 -85 0
39 25 38 24 40 26 -84 0
39 42 41 47 38 43 -94 0
39 42 41 47 38 43 -95 0
39 42 41 47 38 40 -94 0
39 42 41 47 38 40 -95 0
39 42 41 47 43 46 -94 0
39 42 41 47 43 46 -95 0
39 42 41 47 40 46 -94 0
39 42 41 47 40 46 -95 0
39 42 41 38 43 40 -94 0
39 42 41 38 43 40 -95 0
39 42 41 38 40 46 -94 0
39 42 41 38 40 46 -95 0
39 42 47 38 43 46 -94 0
39 42 47 38 43 46 -95 0
39 42 47 43 40 46 -94 0
39 42 47 43 40 46 -95 0
39 42 38 43 40 46 -94 0
39 42 38 43 40 46 -95 0
39 31 41 32 38 30 -90 0
39 31 41 32 38 30 -89 0
39 31 41 32 38 40 -90 0
39 31 41 32 38 40 -89 0
39 31 41 32 30 35 -90 0
39 31 41 32 30 35 -89 0
39 31 41 32 40 35 -90 0
39 31 41 32 40 35 -89 0
39 31 41 38 30 40 -90 0
39 31 41 38 30 40 -89 0
39 31 41 38 40 35 -90 0
39 31 41 38 40 35 -89 0
39 31 32 38 30 35 -90 0
39 31 32 38 30 35 -89 0
39 31 32 30 40 35 -90 0
39 31 32 30 40 35 -89 0
39 31 38 30 40 35 -90 0
39 31 38 30 40 35 -89 0
39 8 41 6 38 7 -58 0
39 8 41 6 38 7 -57 0
39 8 41 6 38 40 -58 0
39 8 41 6 38 40 -57 0
39 8 41 6 7 11 -58 0
39 8 41 6 7 11 -57 0
39 8 41 6 40 11 -58 0
39 8 41 6 40 11 -57 0
39 8 41 38 7 40 -58 0
39 8 41 38 7 40 -57 0
39 8 41 38 40 11 -58 0
39 8 41 38 40 11 -57 0
39 8 6 38 7 11 -58 0
39 8 6 38 7 11 -57 0
39 8 6 7 40 11 -58 0
39 8 6 7 40 11 -57 0
39 8 38 7 40 11 -58 0
39 8 38 7 40 11 -57 0
39 5 41 3 38 4 -37 0
39 5 41 3 38 4 -36 0
39 5 41 3 38 40 -37 0
39 5 41 3 38 40 -36 0
39 5 41 3 4 1 -37 0
39 5 41 3 4 1 -36 0
39 5 41 3 40 1 -37 0
39 5 41 3 40 1 -36 0
39 5 41 38 4 40 -37 0
39 5 41 38 4 40 -36 0
39 5 41 38 40 1 -37 0
39 5 41 38 40 1 -36 0
39 5 3 38 4 1 -37 0
39 5 3 38 4 1 -36 0
39 5 3 4 40 1 -37 0
39 5 3 4 40 1 -36 0
39 5 38 4 40 1 -37 0
39 5 38 4 40 1 -36 0
39 12 41 13 38 40 -68 0
39 12 41 13 38 40 -69 0
39 12 41 38 16 40 -68 0
39 12 41 38 16 40 -69 0
39 18 41 19 38 40 -77 0
39 18 41 19 38 40 -78 0
39 18 41 38 22 40 -77 0
39 18 41 38 22 40 -78 0
39 41 27 38 24 40 -85 0
39 41 27 38 24 40 -84 0
39 41 27 38 40 26 -85 0
39 41 27 38 40 26 -84 0
39 41 47 38 43 40 -94 0
39 41 47 38 43 40 -95 0
39 41 47 38 40 46 -94 0
39 41 47 38 40 46 -95 0
39 41 32 38 30 40 -90 0
39 41 32 38 30 40 -89 0
39 41 32 38 40 35 -90 0
39 41 32 38 40 35 -89 0
39 41 6 38 7 40 -58 0
39 41 6 38 7 40 -57 0
39 41 6 38 40 11 -58 0
39 41 6 38 40 11 -57 0
39 41 3 38 4 40 -37 0
39 41 3 38 4 40 -36 0
39 41 3 38 40 1 -37 0
39 41 3 38 40 1 -36 0
39 41 13 38 16 40 -68 0
39 41 13 38 16 40 -69 0
39 41 19 38 22 40 -77 0
39 41 19 38 22 40 -78 0
39 41 38 24 40 26 -85 0
39 41 38 24 40 26 -84 0
39 41 38 43 40 46 -94 0
39 41 38 43 40 46 -95 0
39 41 38 30 40 35 -90 0
39 41 38 30 40 35 -89 0
39 41 38 7 40 11 -58 0
39 41 38 7 40 11 -57 0
39 41 38 4 40 1 -37 0
39 41 38 4 40 1 -36 0
25 42 27 47 24 43 -86 0
25 42 27 47 24 43 -87 0
25 42 27 47 24 26 -86 0
25 42 27 47 24 26 -87 0
25 42 27 47 43 46 -86 0
25 42 27 47 43 46 -87 0
25 42 27 47 26 46 -86 0
25 42 27 47 26 46 -87 0
25 42 27 24 43 26 -86 0
25 42 27 24 43 26 -87 0
25 42 27 24 26 46 -86 0
25 42 27 24 26 46 -87 0
25 42 47 24 43 46 -86 0
25 42 47 24 43 46 -87 0
25 42 47 43 26 46 -86 0
25 42 47 43 26 46 -87 0
25 42 24 43 26 46 -86 0
25 42 24 43 26 46 -87 0
25 31 27 32 24 30 -83 0
25 31 27 32 24 30 -82 0
25 31 27 32 24 26 -83 0
25 31 27 32 24 26 -82 0
25 31 27 32 30 35 -83 0
25 31 27 32 30 35 -82 0
25 31 27 32 26 35 -83 0
25 31 27 32 26 35 -82 0
25 31 27 24 30 26 -83 0
25 31 27 24 30 26 -82 0
25 31 27 24 26 35 -83 0
25 31 27 24 26 35 -82 0
25 31 32 24 30 35 -83 0
25 31 32 24 30 35 -82 0
25 31 32 30 26 35 -83 0
25 31 32 30 26 35 -82 0
25 31 24 30 26 35 -83 0
25 31 24 30 26 35 -82 0
25 8 27 6 24 7 -54 0
25 8 27 6 24 7 -53 0
25 8 27 6 24 26 -54 0
25 8 27 6 24 26 -53 0
25 8 27 6 7 11 -54 0
25 8 27 6 7 11 -53 0
25 8 27 6 26 11 -54 0
25 8 27 6 26 11 -53 0
25 8 27 24 7 26 -54 0
25 8 27 24 7 26 -53 0
25 8 27 24 26 11 -54 0
25 8 27 24 26 11 -53 0
25 8 6 24 7 11 -54 0
25 8 6 24 7 11 -53 0
25 8 6 7 26 11 -54 0
25 8 6 7 26 11 -53 0
25 8 24 7 26 11 -54 0
25 8 24 7 26 11 -53 0
25 5 27 3 24 4 -28 0
25 5 27 3 24 4 -29 0
25 5 27 3 24 26 -28 0
25 5 27 3 24 26 -29 0
25 5 27 3 4 1 -28 0
25 5 27 3 4 1 -29 0
25 5 27 3 26 1 -28 0
25 5 27 3 26 1 -29 0
25 5 27 24 4 26 -28 0
25 5 27 24 4 26 -29 0
25 5 27 24 26 1 -28 0
25 5 27 24 26 1 -29 0
25 5 3 24 4 1 -28 0
25 5 3 24 4 1 -29 0
25 5 3 4 26 1 -28 0
25 5 3 4 26 1 -29 0
25 5 24 4 26 1 -28 0
25 5 24 4 26 1 -29 0
25 12 27 13 24 26 -64 0
25 12 27 13 24 26 -65 0
25 12 27 24 16 26 -64 0
25 12 27 24 16 26 -65 0
25 18 27 19 24 26 -73 0
25 18 27 19 24 26 -74 0
25 18 27 24 22 26 -73 0
25 18 27 24 22 26 -74 0
25 41 27 38 24 26 -85 0
25 41 27 38 24 26 -84 0
25 41 27 24 40 26 -85 0
25 41 27 24 40 26 -84 0
25 27 47 24 43 26 -86 0
25 27 47 24 43 26 -87 0
25 27 47 24 26 46 -86 0
25 27 47 24 26 46 -87 0
25 27 32 24 30 26 -83 0
25 27 32 24 30 26 -82 0
25 27 32 24 26 35 -83 0
25 27 32 24 26 35 -82 0
25 27 6 24 7 26 -54 0
25 27 6 24 7 26 -53 0
25 27 6 24 26 11 -54 0
25 27 6 24 26 11 -53 0
25 27 3 24 4 26 -28 0
25 27 3 24 4 26 -29 0
25 27 3 24 26 1 -28 0
25 27 3 24 26 1 -29 0
25 27 13 24 16 26 -64 0
25 27 13 24 16 26 -65 0
25 27 19 24 22 26 -73 0
25 27 19 24 22 26 -74 0
25 27 38 24 40 26 -85 0
25 27 38 24 40 26 -84 0
25 27 24 43 26 46 -86 0
25 27 24 43 26 46 -87 0
25 27 24 30 26 35 -83 0
25 27 24 30 26 35 -82 0
25 27 24 7 26 11 -54 0
25 27 24 7 26 11 -53 0
25 27 24 4 26 1 -28 0
25 27 24 4 26 1 -29 0
42 31 47 32 43 30 -92 0
42 31 47 32 43 30 -91 0
42 31 47 32 43 46 -92 0
42 31 47 32 43 46 -91 0
42 31 47 32 30 35 -92 0
42 31 47 32 30 35 -91 0
42 31 47 32 46 35 -92 0
42 31 47 32 46 35 -91 0
42 31 47 43 30 46 -92 0
42 31 47 43 30 46 -91 0
42 31 47 43 46 35 -92 0
42 31 47 43 46 35 -91 0
42 31 32 43 30 35 -92 0
42 31 32 43 30 35 -91 0
42 31 32 30 46 35 -92 0
42 31 32 30 46 35 -91 0
42 31 43 30 46 35 -92 0
42 31 43 30 46 35 -91 0
42 8 47 6 43 7 -59 0
42 8 47 6 43 7 -60 0
42 8 47 6 43 46 -59 0
42 8 47 6 43 46 -60 0
42 8 47 6 7 11 -59 0
42 8 47 6 7 11 -60 0
42 8 47 6 46 11 -59 0
42 8 47 6 46 11 -60 0
42 8 47 43 7 46 -59 0
42 8 47 43 7 46 -60 0
42 8 47 43 46 11 -59 0
42 8 47 43 46 11 -60 0
42 8 6 43 7 11 -59 0
42 8 6 43 7 11 -60 0
42 8 6 7 46 11 -59 0
42 8 6 7 46 11 -60 0
42 8 43 7 46 11 -59 0
42 8 43 7 46 11 -60 0
42 5 47 3 43 4 -45 0
42 5 47 3 43 4 -44 0
42 5 47 3 43 46 -45 0
42 5 47 3 43 46 -44 0
42 5 47 3 4 1 -45 0
42 5 47 3 4 1 -44 0
42 5 47 3 46 1 -45 0
42 5 47 3 46 1 -44 0
42 5 47 43 4 46 -45 0
42 5 47 43 4 46 -44 0
42 5 47 43 46 1 -45 0
42 5 47 43 46 1 -44 0
42 5 3 43 4 1 -45 0
42 5 3 43 4 1 -44 0
42 5 3 4 46 1 -45 0
42 5 3 4 46 1 -44 0
42 5 43 4 46 1 -45 0
42 5 43 4 46 1 -44 0
42 12 47 13 43 46 -71 0
42 12 47 13 43 46 -70 0
42 12 47 43 16 46 -71 0
42 12 47 43 16 46 -70 0
42 18 47 19 43 46 -80 0
42 18 47 19 43 46 -79 0
42 18 47 43 22 46 -80 0
42 18 47 43 22 46 -79 0
42 41 47 38 43 46 -94 0
42 41 47 38 43 46 -95 0
42 41 47 43 40 46 -94 0
42 41 47 43 40 46 -95 0
42 27 47 24 43 46 -86 0
42 27 47 24 43 46 -87 0
42 27 47 43 26 46 -86 0
42 27 47 43 26 46 -87 0
42 47 32 43 30 46 -92 0
42 47 32 43 30 46 -91 0
42 47 32 43 46 35 -92 0
42 47 32 43 46 35 -91 0
42 47 6 43 7 46 -59 0
42 47 6 43 7 46 -60 0
42 47 6 43 46 11 -59 0
42 47 6 43 46 11 -60 0
42 47 3 43 4 46 -45 0
42 47 3 43 4 46 -44 0
42 47 3 43 46 1 -45 0
42 47 3 43 46 1 -44 0
42 47 13 43 16 46 -71 0
42 47 13 43 16 46 -70 0
42 47 19 43 22 46 -80 0
42 47 19 43 22 46 -79 0
42 47 38 43 40 46 -94 0
42 47 38 43 40 46 -95 0
42 47 24 43 26 46 -86 0
42 47 24 43 26 46 -87 0
42 47 43 30 46 35 -92 0
42 47 43 30 46 35 -91 0
42 47 43 7 46 11 -59 0
42 47 43 7 46 11 -60 0
42 47 43 4 46 1 -45 0
42 47 43 4 46 1 -44 0
31 8 32 6 30 7 -55 0
31 8 32 6 30 7 -56 0
31 8 32 6 30 35 -55 0
31 8 32 6 30 35 -56 0
31 8 32 6 7 11 -55 0
31 8 32 6 7 11 -56 0
31 8 32 6 35 11 -55 0
31 8 32 6 35 11 -56 0
31 8 32 30 7 35 -55 0
31 8 32 30 7 35 -56 0
31 8 32 30 35 11 -55 0
31 8 32 30 35 11 -56 0
31 8 6 30 7 11 -55 0
31 8 6 30 7 11 -56 0
31 8 6 7 35 11 -55 0
31 8 6 7 35 11 -56 0
31 8 30 7 35 11 -55 0
31 8 30 7 35 11 -56 0
31 5 32 3 30 4 -34 0
31 5 32 3 30 4 -33 0
31 5 32 3 30 35 -34 0
31 5 32 3 30 35 -33 0
31 5 32 3 4 1 -34 0
31 5 32 3 4 1 -33 0
31 5 32 3 35 1 -34 0
31 5 32 3 35 1 -33 0
31 5 32 30 4 35 -34 0
31 5 32 30 4 35 -33 0
31 5 32 30 35 1 -34 0
31 5 32 30 35 1 -33 0
31 5 3 30 4 1 -34 0
31 5 3 30 4 1 -33 0
31 5 3 4 35 1 -34 0
31 5 3 4 35 1 -33 0
31 5 30 4 35 1 -34 0
31 5 30 4 35 1 -33 0
31 12 32 13 30 35 -67 0
31 12 32 13 30 35 -66 0
31 12 32 30 16 35 -67 0
31 12 32 30 16 35 -66 0
31 18 32 19 30 35 -75 0
31 18 32 19 30 35 -76 0
31 18 32 30 22 35 -75 0
31 18 32 30 22 35 -76 0
31 41 32 38 30 35 -90 0
31 41 32 38 30 35 -89 0
31 41 32 30 40 35 -90 0
31 41 32 30 40 35 -89 0
31 27 32 24 30 35 -83 0
31 27 32 24 30 35 -82 0
31 27 32 30 26 35 -83 0
31 27 32 30 26 35 -82 0
31 47 32 43 30 35 -92 0
31 47 32 43 30 35 -91 0
31 47 32 30 46 35 -92 0
31 47 32 30 46 35 -91 0
31 32 6 30 7 35 -55 0
31 32 6 30 7 35 -56 0
31 32 6 30 35 11 -55 0
31 32 6 30 35 11 -56 0
31 32 3 30 4 35 -34 0
31 32 3 30 4 35 -33 0
31 32 3 30 35 1 -34 0
31 32 3 30 35 1 -33 0
31 32 13 30 16 35 -67 0
31 32 13 30 16 35 -66 0
31 32 19 30 22 35 -75 0
31 32 19 30 22 35 -76 0
31 32 38 30 40 35 -90 0
31 32 38 30 40 35 -89 0
31 32 24 30 26 35 -83 0
31 32 24 30 26 35 -82 0
31 32 43 30 46 35 -92 0
31 32 43 30 46 35 -91 0
31 32 30 7 35 11 -55 0
31 32 30 7 35 11 -56 0
31 32 30 4 35 1 -34 0
31 32 30 4 35 1 -33 0
8 5 6 3 7 4 -10 0
8 5 6 3 7 4 -9 0
8 5 6 3 7 11 -10 0
8 5 6 3 7 11 -9 0
8 5 6 3 4 1 -10 0
8 5 6 3 4 1 -9 0
8 5 6 3 11 1 -10 0
8 5 6 3 11 1 -9 0
8 5 6 7 4 11 -10 0
8 5 6 7 4 11 -9 0
8 5 6 7 11 1 -10 0
8 5 6 7 11 1 -9 0
8 5 3 7 4 1 -10 0
8 5 3 7 4 1 -9 0
8 5 3 4 11 1 -10 0
8 5 3 4 11 1 -9 0
8 5 7 4 11 1 -10 0
8 5 7 4 11 1 -9 0
8 12 6 13 7 11 -49 0
8 12 6 13 7 11 -50 0
8 12 6 7 16 11 -49 0
8 12 6 7 16 11 -50 0
8 18 6 19 7 11 -52 0
8 18 6 19 7 11 -51 0
8 18 6 7 22 11 -52 0
8 18 6 7 22 11 -51 0
8 41 6 38 7 11 -58 0
8 41 6 38 7 11 -57 0
8 41 6 7 40 11 -58 0
8 41 6 7 40 11 -57 0
8 27 6 24 7 11 -54 0
8 27 6 24 7 11 -53 0
8 27 6 7 26 11 -54 0
8 27 6 7 26 11 -53 0
8 47 6 43 7 11 -59 0
8 47 6 43 7 11 -60 0
8 47 6 7 46 11 -59 0
8 47 6 7 46 11 -60 0
8 32 6 30 7 11 -55 0
8 32 6 30 7 11 -56 0
8 32 6 7 35 11 -55 0
8 32 6 7 35 11 -56 0
8 6 3 7 4 11 -10 0
8 6 3 7 4 11 -9 0
8 6 3 7 11 1 -10 0
8 6 3 7 11 1 -9 0
8 6 13 7 16 11 -49 0
8 6 13 7 16 11 -50 0
8 6 19 7 22 11 -52 0
8 6 19 7 22 11 -51 0
8 6 38 7 40 11 -58 0
8 6 38 7 40 11 -57 0
8 6 24 7 26 11 -54 0
8 6 24 7 26 11 -53 0
8 6 43 7 46 11 -59 0
8 6 43 7 46 11 -60 0
8 6 30 7 35 11 -55 0
8 6 30 7 35 11 -56 0
8 6 7 4 11 1 -10 0
8 6 7 4 11 1 -9 0
5 12 3 13 4 1 -17 0
5 12 3 13 4 1 -15 0
5 12 3 4 16 1 -17 0
5 12 3 4 16 1 -15 0
5 18 3 19 4 1 -23 0
5 18 3 19 4 1 -21 0
5 18 3 4 22 1 -23 0
5 18 3 4 22 1 -21 0
5 41 3 38 4 1 -37 0
5 41 3 38 4 1 -36 0
5 41 3 4 40 1 -37 0
5 41 3 4 40 1 -36 0
5 27 3 24 4 1 -28 0
5 27 3 24 4 1 -29 0
5 27 3 4 26 1 -28 0
5 27 3 4 26 1 -29 0
5 47 3 43 4 1 -45 0
5 47 3 43 4 1 -44 0
5 47 3 4 46 1 -45 0
5 47 3 4 46 1 -44 0
5 32 3 30 4 1 -34 0
5 32 3 30 4 1 -33 0
5 32 3 4 35 1 -34 0
5 32 3 4 35 1 -33 0
5 6 3 7 4 1 -10 0
5 6 3 7 4 1 -9 0
5 6 3 4 11 1 -10 0
5 6 3 4 11 1 -9 0
5 3 13 4 16 1 -17 0
5 3 13 4 16 1 -15 0
5 3 19 4 22 1 -23 0
5 3 19 4 22 1 -21 0
5 3 38 4 40 1 -37 0
5 3 38 4 40 1 -36 0
5 3 24 4 26 1 -28 0
5 3 24 4 26 1 -29 0
5 3 43 4 46 1 -45 0
5 3 43 4 46 1 -44 0
5 3 30 4 35 1 -34 0
5 3 30 4 35 1 -33 0
5 3 7 4 11 1 -10 0
5 3 7 4 11 1 -9 0
12 18 13 19 16 22 -62 0
12 18 13 19 16 22 -63 0
12 41 13 38 16 40 -68 0
12 41 13 38 16 40 -69 0
12 27 13 24 16 26 -64 0
12 27 13 24 16 26 -65 0
12 47 13 43 16 46 -71 0
12 47 13 43 16 46 -70 0
12 32 13 30 16 35 -67 0
12 32 13 30 16 35 -66 0
12 6 13 7 16 11 -49 0
12 6 13 7 16 11 -50 0
12 3 13 4 16 1 -17 0
12 3 13 4 16 1 -15 0
18 41 19 38 22 40 -77 0
18 41 19 38 22 40 -78 0
18 27 19 24 22 26 -73 0
18 27 19 24 22 26 -74 0
18 47 19 43 22 46 -80 0
18 47 19 43 22 46 -79 0
18 32 19 30 22 35 -75 0
18 32 19 30 22 35 -76 0
18 6 19 7 22 11 -52 0
18 6 19 7 22 11 -51 0
18 3 19 4 22 1 -23 0
18 3 19 4 22 1 -21 0
41 27 38 24 40 26 -85 0
41 27 38 24 40 26 -84 0
41 47 38 43 40 46 -94 0
41 47 38 43 40 46 -95 0
41 32 38 30 40 35 -90 0
41 32 38 30 40 35 -89 0
41 6 38 7 40 11 -58 0
41 6 38 7 40 11 -57 0
41 3 38 4 40 1 -37 0
41 3 38 4 40 1 -36 0
27 47 24 43 26 46 -86 0
27 47 24 43 26 46 -87 0
27 32 24 30 26 35 -83 0
27 32 24 30 26 35 -82 0
27 6 24 7 26 11 -54 0
27 6 24 7 26 11 -53 0
27 3 24 4 26 1 -28 0
27 3 24 4 26 1 -29 0
47 32 43 30 46 35 -92 0
47 32 43 30 46 35 -91 0
47 6 43 7 46 11 -59 0
47 6 43 7 46 11 -60 0
47 3 43 4 46 1 -45 0
47 3 43 4 46 1 -44 0
32 6 30 7 35 11 -55 0
32 6 30 7 35 11 -56 0
32 3 30 4 35 1 -34 0
32 3 30 4 35 1 -33 0
6 3 7 4 11 1 -10 0
6 3 7 4 11 1 -9 0
61 62 68 64 71 67 49 17 0
63 72 77 73 80 75 52 23 0
69 78 93 85 94 90 58 37 0
65 74 84 81 86 83 54 28 0
70 79 95 87 96 92 59 45 0
66 76 89 82 91 88 55 34 0
50 51 57 53 60 56 48 10 0
15 21 36 29 44 33 9 2 0
14 20 12 18 13 19 16 -62 0
14 20 12 18 13 19 16 -63 0
14 20 12 18 13 19 22 -62 0
14 20 12 18 13 19 22 -63 0
14 20 12 18 13 16 22 -62 0
14 20 12 18 13 16 22 -63 0
14 20 12 18 19 16 22 -62 0
14 20 12 18 19 16 22 -63 0
14 20 12 13 19 16 22 -62 0
14 20 12 13 19 16 22 -63 0
14 20 18 13 19 16 22 -62 0
14 20 18 13 19 16 22 -63 0
14 39 12 41 13 38 16 -68 0
14 39 12 41 13 38 16 -69 0
14 39 12 41 13 38 40 -68 0
14 39 12 41 13 38 40 -69 0
14 39 12 41 13 16 40 -68 0
14 39 12 41 13 16 40 -69 0
14 39 12 41 38 16 40 -68 0
14 39 12 41 38 16 40 -69 0
14 39 12 13 38 16 40 -68 0
14 39 12 13 38 16 40 -69 0
14 39 41 13 38 16 40 -68 0
14 39 41 13 38 16 40 -69 0
14 25 12 27 13 24 16 -64 0
14 25 12 27 13 24 16 -65 0
14 25 12 27 13 24 26 -64 0
14 25 12 27 13 24 26 -65 0
14 25 12 27 13 16 26 -64 0
14 25 12 27 13 16 26 -65 0
14 25 12 27 24 16 26 -64 0
14 25 12 27 24 16 26 -65 0
14 25 12 13 24 16 26 -64 0
14 25 12 13 24 16 26 -65 0
14 25 27 13 24 16 26 -64 0
14 25 27 13 24 16 26 -65 0
14 42 12 47 13 43 16 -71 0
14 42 12 47 13 43 16 -70 0
14 42 12 47 13 43 46 -71 0
14 42 12 47 13 43 46 -70 0
14 42 12 47 13 16 46 -71 0
14 42 12 47 13 16 46 -70 0
14 42 12 47 43 16 46 -71 0
14 42 12 47 43 16 46 -70 0
14 42 12 13 43 16 46 -71 0
14 42 12 13 43 16 46 -70 0
14 42 47 13 43 16 46 -71 0
14 42 47 13 43 16 46 -70 0
14 31 12 32 13 30 16 -67 0
14 31 12 32 13 30 16 -66 0
14 31 12 32 13 30 35 -67 0
14 31 12 32 13 30 35 -66 0
14 31 12 32 13 16 35 -67 0
14 31 12 32 13 16 35 -66 0
14 31 12 32 30 16 35 -67 0
14 31 12 32 30 16 35 -66 0
14 31 12 13 30 16 35 -67 0
14 31 12 13 30 16 35 -66 0
14 31 32 13 30 16 35 -67 0
14 31 32 13 30 16 35 -66 0
14 8 12 6 13 7 16 -49 0
14 8 12 6 13 7 16 -50 0
14 8 12 6 13 7 11 -49 0
14 8 12 6 13 7 11 -50 0
14 8 12 6 13 16 11 -49 0
14 8 12 6 13 16 11 -50 0
14 8 12 6 7 16 11 -49 0
14 8 12 6 7 16 11 -50 0
14 8 12 13 7 16 11 -49 0
14 8 12 13 7 16 11 -50 0
14 8 6 13 7 16 11 -49 0
14 8 6 13 7 16 11 -50 0
14 5 12 3 13 4 16 -17 0
14 5 12 3 13 4 16 -15 0
14 5 12 3 13 4 1 -17 0
14 5 12 3 13 4 1 -15 0
14 5 12 3 13 16 1 -17 0
14 5 12 3 13 16 1 -15 0
14 5 12 3 4 16 1 -17 0
14 5 12 3 4 16 1 -15 0
14 5 12 13 4 16 1 -17 0
14 5 12 13 4 16 1 -15 0
14 5 3 13 4 16 1 -17 0
14 5 3 13 4 16 1 -15 0
14 12 18 13 19 16 22 -62 0
14 12 18 13 19 16 22 -63 0
14 12 41 13 38 16 40 -68 0
14 12 41 13 38 16 40 -69 0
14 12 27 13 24 16 26 -64 0
14 12 27 13 24 16 26 -65 0
14 12 47 13 43 16 46 -71 0
14 12 47 13 43 16 46 -70 0
14 12 32 13 30 16 35 -67 0
14 12 32 13 30 16 35 -66 0
14 12 6 13 7 16 11 -49 0
14 12 6 13 7 16 11 -50 0
14 12 3 13 4 16 1 -17 0
14 12 3 13 4 16 1 -15 0
20 39 18 41 19 38 22 -77 0
20 39 18 41 19 38 22 -78 0
20 39 18 41 19 38 40 -77 0
20 39 18 41 19 38 40 -78 0
20 39 18 41 19 22 40 -77 0
20 39 18 41 19 22 40 -78 0
20 39 18 41 38 22 40 -77 0
20 39 18 41 38 22 40 -78 0
20 39 18 19 38 22 40 -77 0
20 39 18 19 38 22 40 -78 0
20 39 41 19 38 22 40 -77 0
20 39 41 19 38 22 40 -78 0
20 25 18 27 19 24 22 -73 0
20 25 18 27 19 24 22 -74 0
20 25 18 27 19 24 26 -73 0
20 25 18 27 19 24 26 -74 0
20 25 18 27 19 22 26 -73 0
20 25 18 27 19 22 26 -74 0
20 25 18 27 24 22 26 -73 0
20 25 18 27 24 22 26 -74 0
20 25 18 19 24 22 26 -73 0
20 25 18 19 24 22 26 -74 0
20 25 27 19 24 22 26 -73 0
20 25 27 19 24 22 26 -74 0
20 42 18 47 19 43 22 -80 0
20 42 18 47 19 43 22 -79 0
20 42 18 47 19 43 46 -80 0
20 42 18 47 19 43 46 -79 0
20 42 18 47 19 22 46 -80 0
20 42 18 47 19 22 46 -79 0
20 42 18 47 43 22 46 -80 0
20 42 18 47 43 22 46 -79 0
20 42 18 19 43 22 46 -80 0
20 42 18 19 43 22 46 -79 0
20 42 47 19 43 22 46 -80 0
20 42 47 19 43 22 46 -79 0
20 31 18 32 19 30 22 -75 0
20 31 18 32 19 30 22 -76 0
20 31 18 32 19 30 35 -75 0
20 31 18 32 19 30 35 -76 0
20 31 18 32 19 22 35 -75 0
20 31 18 32 19 22 35 -76 0
20 31 18 32 30 22 35 -75 0
20 31 18 32 30 22 35 -76 0
20 31 18 19 30 22 35 -75 0
20 31 18 19 30 22 35 -76 0
20 31 32 19 30 22 35 -75 0
20 31 32 19 30 22 35 -76 0
20 8 18 6 19 7 22 -52 0
20 8 18 6 19 7 22 -51 0
20 8 18 6 19 7 11 -52 0
20 8 18 6 19 7 11 -51 0
20 8 18 6 19 22 11 -52 0
20 8 18 6 19 22 11 -51 0
20 8 18 6 7 22 11 -52 0
20 8 18 6 7 22 11 -51 0
20 8 18 19 7 22 11 -52 0
20 8 18 19 7 22 11 -51 0
20 8 6 19 7 22 11 -52 0
20 8 6 19 7 22 11 -51 0
20 5 18 3 19 4 22 -23 0
20 5 18 3 19 4 22 -21 0
20 5 18 3 19 4 1 -23 0
20 5 18 3 19 4 1 -21 0
20 5 18 3 19 22 1 -23 0
20 5 18 3 19 22 1 -21 0
20 5 18 3 4 22 1 -23 0
20 5 18 3 4 22 1 -21 0
20 5 18 19 4 22 1 -23 0
20 5 18 19 4 22 1 -21 0
20 5 3 19 4 22 1 -23 0
20 5 3 19 4 22 1 -21 0
20 12 18 13 19 16 22 -62 0
20 12 18 13 19 16 22 -63 0
20 18 41 19 38 22 40 -77 0
20 18 41 19 38 22 40 -78 0
20 18 27 19 24 22 26 -73 0
20 18 27 19 24 22 26 -74 0
20 18 47 19 43 22 46 -80 0
20 18 47 19 43 22 46 -79 0
20 18 32 19 30 22 35 -75 0
20 18 32 19 30 22 35 -76 0
20 18 6 19 7 22 11 -52 0
20 18 6 19 7 22 11 -51 0
20 18 3 19 4 22 1 -23 0
20 18 3 19 4 22 1 -21 0
39 25 41 27 38 24 40 -85 0
39 25 41 27 38 24 40 -84 0
39 25 41 27 38 24 26 -85 0
39 25 41 27 38 24 26 -84 0
39 25 41 27 38 40 26 -85 0
39 25 41 27 38 40 26 -84 0
39 25 41 27 24 40 26 -85 0
39 25 41 27 24 40 26 -84 0
39 25 41 38 24 40 26 -85 0
39 25 41 38 24 40 26 -84 0
39 25 27 38 24 40 26 -85 0
39 25 27 38 24 40 26 -84 0
39 42 41 47 38 43 40 -94 0
39 42 41 47 38 43 40 -95 0
39 42 41 47 38 43 46 -94 0
39 42 41 47 38 43 46 -95 0
39 42 41 47 38 40 46 -94 0
39 42 41 47 38 40 46 -95 0
39 42 41 47 43 40 46 -94 0
39 42 41 47 43 40 46 -95 0
39 42 41 38 43 40 46 -94 0
39 42 41 38 43 40 46 -95 0
39 42 47 38 43 40 46 -94 0
39 42 47 38 43 40 46 -95 0
39 31 41 32 38 30 40 -90 0
39 31 41 32 38 30 40 -89 0
39 31 41 32 38 30 35 -90 0
39 31 41 32 38 30 35 -89 0
39 31 41 32 38 40 35 -90 0
39 31 41 32 38 40 35 -89 0
39 31 41 32 30 40 35 -90 0
39 31 41 32 30 40 35 -89 0
39 31 41 38 30 40 35 -90 0
39 31 41 38 30 40 35 -89 0
39 31 32 38 30 40 35 -90 0
39 31 32 38 30 40 35 -89 0
39 8 41 6 38 7 40 -58 0
39 8 41 6 38 7 40 -57 0
39 8 41 6 38 7 11 -58 0
39 8 41 6 38 7 11 -57 0
39 8 41 6 38 40 11 -58 0
39 8 41 6 38 40 11 -57 0
39 8 41 6 7 40 11 -58 0
39 8 41 6 7 40 11 -57 0
39 8 41 38 7 40 11 -58 0
39 8 41 38 7 40 11 -57 0
39 8 6 38 7 40 11 -58 0
39 8 6 38 7 40 11 -57 0
39 5 41 3 38 4 40 -37 0
39 5 41 3 38 4 40 -36 0
39 5 41 3 38 4 1 -37 0
39 5 41 3 38 4 1 -36 0
39 5 41 3 38 40 1 -37 0
39 5 41 3 38 40 1 -36 0
39 5 41 3 4 40 1 -37 0
39 5 41 3 4 40 1 -36 0
39 5 41 38 4 40 1 -37 0
39 5 41 38 4 40 1 -36 0
39 5 3 38 4 40 1 -37 0
39 5 3 38 4 40 1 -36 0
39 12 41 13 38 16 40 -68 0
39 12 41 13 38 16 40 -69 0
39 18 41 19 38 22 40 -77 0
39 18 41 19 38 22 40 -78 0
39 41 27 38 24 40 26 -85 0
39 41 27 38 24 40 26 -84 0
39 41 47 38 43 40 46 -94 0
39 41 47 38 43 40 46 -95 0
39 41 32 38 30 40 35 -90 0
39 41 32 38 30 40 35 -89 0
39 41 6 38 7 40 11 -58 0
39 41 6 38 7 40 11 -57 0
39 41 3 38 4 40 1 -37 0
39 41 3 38 4 40 1 -36 0
25 42 27 47 24 43 26 -86 0
25 42 27 47 24 43 26 -87 0
25 42 27 47 24 43 46 -86 0
25 42 27 47 24 43 46 -87 0
25 42 27 47 24 26 46 -86 0
25 42 27 47 24 26 46 -87 0
25 42 27 47 43 26 46 -86 0
25 42 27 47 43 26 46 -87 0
25 42 27 24 43 26 46 -86 0
25 42 27 24 43 26 46 -87 0
25 42 47 24 43 26 46 -86 0
25 42 47 24 43 26 46 -87 0
25 31 27 32 24 30 26 -83 0
25 31 27 32 24 30 26 -82 0
25 31 27 32 24 30 35 -83 0
25 31 27 32 24 30 35 -82 0
25 31 27 32 24 26 35 -83 0
25 31 27 32 24 26 35 -82 0
25 31 27 32 30 26 35 -83 0
25 31 27 32 30 26 35 -82 0
25 31 27 24 30 26 35 -83 0
25 31 27 24 30 26 35 -82 0
25 31 32 24 30 26 35 -83 0
25 31 32 24 30 26 35 -82 0
25 8 27 6 24 7 26 -54 0
25 8 27 6 24 7 26 -53 0
25 8 27 6 24 7 11 -54 0
25 8 27 6 24 7 11 -53 0
25 8 27 6 24 26 11 -54 0
25 8 27 6 24 26 11 -53 0
25 8 27 6 7 26 11 -54 0
25 8 27 6 7 26 11 -53 0
25 8 27 24 7 26 11 -54 0
25 8 27 24 7 26 11 -53 0
25 8 6 24 7 26 11 -54 0
25 8 6 24 7 26 11 -53 0
25 5 27 3 24 4 26 -28 0
25 5 27 3 24 4 26 -29 0
25 5 27 3 24 4 1 -28 0
25 5 27 3 24 4 1 -29 0
25 5 27 3 24 26 1 -28 0
25 5 27 3 24 26 1 -29 0
25 5 27 3 4 26 1 -28 0
25 5 27 3 4 26 1 -29 0
25 5 27 24 4 26 1 -28 0
25 5 27 24 4 26 1 -29 0
25 5 3 24 4 26 1 -28 0
25 5 3 24 4 26 1 -29 0
25 12 27 13 24 16 26 -64 0
25 12 27 13 24 16 26 -65 0
25 18 27 19 24 22 26 -73 0
25 18 27 19 24 22 26 -74 0
25 41 27 38 24 40 26 -85 0
25 41 27 38 24 40 26 -84 0
25 27 47 24 43 26 46 -86 0
25 27 47 24 43 26 46 -87 0
25 27 32 24 30 26 35 -83 0
25 27 32 24 30 26 35 -82 0
25 27 6 24 7 26 11 -54 0
25 27 6 24 7 26 11 -53 0
25 27 3 24 4 26 1 -28 0
25 27 3 24 4 26 1 -29 0
42 31 47 32 43 30 46 -92 0
42 31 47 32 43 30 46 -91 0
42 31 47 32 43 30 35 -92 0
42 31 47 32 43 30 35 -91 0
42 31 47 32 43 46 35 -92 0
42 31 47 32 43 46 35 -91 0
42 31 47 32 30 46 35 -92 0
42 31 47 32 30 46 35 -91 0
42 31 47 43 30 46 35 -92 0
42 31 47 43 30 46 35 -91 0
42 31 32 43 30 46 35 -92 0
42 31 32 43 30 46 35 -91 0
42 8 47 6 43 7 46 -59 0
42 8 47 6 43 7 46 -60 0
42 8 47 6 43 7 11 -59 0
42 8 47 6 43 7 11 -60 0
42 8 47 6 43 46 11 -59 0
42 8 47 6 43 46 11 -60 0
42 8 47 6 7 46 11 -59 0
42 8 47 6 7 46 11 -60 0
42 8 47 43 7 46 11 -59 0
42 8 47 43 7 46 11 -60 0
42 8 6 43 7 46 11 -59 0
42 8 6 43 7 46 11 -60 0
42 5 47 3 43 4 46 -45 0
42 5 47 3 43 4 46 -44 0
42 5 47 3 43 4 1 -45 0
42 5 47 3 43 4 1 -44 0
42 5 47 3 43 46 1 -45 0
42 5 47 3 43 46 1 -44 0
42 5 47 3 4 46 1 -45 0
42 5 47 3 4 46 1 -44 0
42 5 47 43 4 46 1 -45 0
42 5 47 43 4 46 1 -44 0
42 5 3 43 4 46 1 -45 0
42 5 3 43 4 46 1 -44 0
42 12 47 13 43 16 46 -71 0
42 12 47 13 43 16 46 -70 0
42 18 47 19 43 22 46 -80 0
42 18 47 19 43 22 46 -79 0
42 41 47 38 43 40 46 -94 0
42 41 47 38 43 40 46 -95 0
42 27 47 24 43 26 46 -86 0
42 27 47 24 43 26 46 -87 0
42 47 32 43 30 46 35 -92 0
42 47 32 43 30 46 35 -91 0
42 47 6 43 7 46 11 -59 0
42 47 6 43 7 46 11 -60 0
42 47 3 43 4 46 1 -45 0
42 47 3 43 4 46 1 -44 0
31 8 32 6 30 7 35 -55 0
31 8 32 6 30 7 35 -56 0
31 8 32 6 30 7 11 -55 0
31 8 32 6 30 7 11 -56 0
31 8 32 6 30 35 11 -55 0
31 8 32 6 30 35 11 -56 0
31 8 32 6 7 35 11 -55 0
31 8 32 6 7 35 11 -56 0
31 8 32 30 7 35 11 -55 0
31 8 32 30 7 35 11 -56 0
31 8 6 30 7 35 11 -55 0
31 8 6 30 7 35 11 -56 0
31 5 32 3 30 4 35 -34 0
31 5 32 3 30 4 35 -33 0
31 5 32 3 30 4 1 -34 0
31 5 32 3 30 4 1 -33 0
31 5 32 3 30 35 1 -34 0
31 5 32 3 30 35 1 -33 0
31 5 32 3 4 35 1 -34 0
31 5 32 3 4 35 1 -33 0
31 5 32 30 4 35 1 -34 0
31 5 32 30 4 35 1 -33 0
31 5 3 30 4 35 1 -34 0
31 5 3 30 4 35 1 -33 0
31 12 32 13 30 16 35 -67 0
31 12 32 13 30 16 35 -66 0
31 18 32 19 30 22 35 -75 0
31 18 32 19 30 22 35 -76 0
31 41 32 38 30 40 35 -90 0
31 41 32 38 30 40 35 -89 0
31 27 32 24 30 26 35 -83 0
31 27 32 24 30 26 35 -82 0
31 47 32 43 30 46 35 -92 0
31 47 32 43 30 46 35 -91 0
31 32 6 30 7 35 11 -55 0
31 32 6 30 7 35 11 -56 0
31 32 3 30 4 35 1 -34 0
31 32 3 30 4 35 1 -33 0
8 5 6 3 7 4 11 -10 0
8 5 6 3 7 4 11 -9 0
8 5 6 3 7 4 1 -10 0
8 5 6 3 7 4 1 -9 0
8 5 6 3 7 11 1 -10 0
8 5 6 3 7 11 1 -9 0
8 5 6 3 4 11 1 -10 0
8 5 6 3 4 11 1 -9 0
8 5 6 7 4 11 1 -10 0
8 5 6 7 4 11 1 -9 0
8 5 3 7 4 11 1 -10 0
8 5 3 7 4 11 1 -9 0
8 12 6 13 7 16 11 -49 0
8 12 6 13 7 16 11 -50 0
8 18 6 19 7 22 11 -52 0
8 18 6 19 7 22 11 -51 0
8 41 6 38 7 40 11 -58 0
8 41 6 38 7 40 11 -57 0
8 27 6 24 7 26 11 -54 0
8 27 6 24 7 26 11 -53 0
8 47 6 43 7 46 11 -59 0
8 47 6 43 7 46 11 -60 0
8 32 6 30 7 35 11 -55 0
8 32 6 30 7 35 11 -56 0
8 6 3 7 4 11 1 -10 0
8 6 3 7 4 11 1 -9 0
5 12 3 13 4 16 1 -17 0
5 12 3 13 4 16 1 -15 0
5 18 3 19 4 22 1 -23 0
5 18 3 19 4 22 1 -21 0
5 41 3 38 4 40 1 -37 0
5 41 3 38 4 40 1 -36 0
5 27 3 24 4 26 1 -28 0
5 27 3 24 4 26 1 -29 0
5 47 3 43 4 46 1 -45 0
5 47 3 43 4 46 1 -44 0
5 32 3 30 4 35 1 -34 0
5 32 3 30 4 35 1 -33 0
5 6 3 7 4 11 1 -10 0
5 6 3 7 4 11 1 -9 0
14 20 12 18 13 19 16 22 -62 0
14 20 12 18 13 19 16 22 -63 0
14 39 12 41 13 38 16 40 -68 0
14 39 12 41 13 38 16 40 -69 0
14 25 12 27 13 24 16 26 -64 0
14 25 12 27 13 24 16 26 -65 0
14 42 12 47 13 43 16 46 -71 0
14 42 12 47 13 43 16 46 -70 0
14 31 12 32 13 30 16 35 -67 0
14 31 12 32 13 30 16 35 -66 0
14 8 12 6 13 7 16 11 -49 0
14 8 12 6 13 7 16 11 -50 0
14 5 12 3 13 4 16 1 -17 0
14 5 12 3 13 4 16 1 -15 0
20 39 18 41 19 38 22 40 -77 0
20 39 18 41 19 38 22 40 -78 0
20 25 18 27 19 24 22 26 -73 0
20 25 18 27 19 24 22 26 -74 0
20 42 18 47 19 43 22 46 -80 0
20 42 18 47 19 43 22 46 -79 0
20 31 18 32 19 30 22 35 -75 0
20 31 18 32 19 30 22 35 -76 0
20 8 18 6 19 7 22 11 -52 0
20 8 18 6 19 7 22 11 -51 0
20 5 18 3 19 4 22 1 -23 0
20 5 18 3 19 4 22 1 -21 0
39 25 41 27 38 24 40 26 -85 0
39 25 41 27 38 24 40 26 -84 0
39 42 41 47 38 43 40 46 -94 0
39 42 41 47 38 43 40 46 -95 0
39 31 41 32 38 30 40 35 -90 0
39 31 41 32 38 30 40 35 -89 0
39 8 41 6 38 7 40 11 -58 0
39 8 41 6 38 7 40 11 -57 0
39 5 41 3 38 4 40 1 -37 0
39 5 41 3 38 4 40 1 -36 0
25 42 27 47 24 43 26 46 -86 0
25 42 27 47 24 43 26 46 -87 0
25 31 27 32 24 30 26 35 -83 0
25 31 27 32 24 30 26 35 -82 0
25 8 27 6 24 7 26 11 -54 0
25 8 27 6 24 7 26 11 -53 0
25 5 27 3 24 4 26 1 -28 0
25 5 27 3 24 4 26 1 -29 0
42 31 47 32 43 30 46 35 -92 0
42 31 47 32 43 30 46 35 -91 0
42 8 47 6 43 7 46 11 -59 0
42 8 47 6 43 7 46 11 -60 0
42 5 47 3 43 4 46 1 -45 0
42 5 47 3 43 4 46 1 -44 0
31 8 32 6 30 7 35 11 -55 0
31 8 32 6 30 7 35 11 -56 0
31 5 32 3 30 4 35 1 -34 0
31 5 32 3 30 4 35 1 -33 0
8 5 6 3 7 4 11 1 -10 0
8 5 6 3 7 4 11 1 -9 0
