c U3(2) U2(2) U4(2) U1(2) E1(2,2) U3(6) U4(6) U2(6) E1(2,6) E1(6,2) U1(6) E1(5,2) U2(5) E1(2,5) U1(5) U3(5) U4(5) U2(4) E1(2,4) U1(4) U3(4) E1(4,2) U4(4) U4(8) U2(8) E1(8,2) E1(2,8) U1(8) U3(8) U3(7) E1(2,7) U4(7) U2(7) E1(7,2) U1(7) U2(3) E1(2,3) U1(3) E1(3,2) U3(3) U4(3) U3(0) E1(2,0) U4(0) U2(0) U1(0) E1(0,2) E1(2,1) E1(1,2) U2(1) U1(1) U3(1) U4(1) E1(6,6) E1(5,6) E1(6,5) E1(4,6) E1(6,4) E1(6,8) E1(8,6) E1(6,7) E1(7,6) E1(6,3) E1(3,6) E1(6,0) E1(0,6) E1(1,6) E1(6,1) E1(5,5) E1(4,5) E1(5,4) E1(5,8) E1(8,5) E1(7,5) E1(5,7) E1(5,3) E1(3,5) E1(0,5) E1(5,0) E1(5,1) E1(1,5) E1(4,4) E1(8,4) E1(4,8) E1(4,7) E1(7,4) E1(3,4) E1(4,3) E1(4,0) E1(0,4) E1(4,1) E1(1,4) E1(8,8) E1(7,8) E1(8,7) E1(3,8) E1(8,3) E1(8,0) E1(0,8) E1(1,8) E1(8,1) E1(7,7) E1(7,3) E1(3,7) E1(0,7) E1(7,0) E1(7,1) E1(1,7) E1(3,3) E1(0,3) E1(3,0) E1(1,3) E1(3,1) E1(0,0) E1(0,1) E1(1,0) E1(1,1)
c 1 2 3 4 5 6 7 8 9 10 11 12 13 14 15 16 17 18 19 20 21 22 23 24 25 26 27 28 29 30 31 32 33 34 35 36 37 38 39 40 41 42 43 44 45 46 47 48 49 50 51 52 53 54 55 56 57 58 59 60 61 62 63 64 65 66 67 68 69 70 71 72 73 74 75 76 77 78 79 80 81 82 83 84 85 86 87 88 89 90 91 92 93 94 95 96 97 98 99 100 101 102 103 104 105 106 107 108 109 110 111 112 113 114 115 116 117
p cnf 117 2718
114 -114 0
115 -116 0
47 -43 0
110 -111 0
90 -89 0
78 -79 0
66 -65 0
105 -106 0
99 -98 0
116 -115 0
117 -117 0
49 -48 0
112 -113 0
92 -91 0
81 -80 0
67 -68 0
108 -107 0
100 -101 0
43 -47 0
48 -49 0
5 -5 0
37 -39 0
19 -22 0
14 -12 0
9 -10 0
31 -34 0
27 -26 0
111 -110 0
113 -112 0
39 -37 0
109 -109 0
87 -88 0
77 -76 0
64 -63 0
104 -103 0
96 -97 0
89 -90 0
91 -92 0
22 -19 0
88 -87 0
82 -82 0
70 -71 0
57 -58 0
85 -86 0
84 -83 0
79 -78 0
80 -81 0
12 -14 0
76 -77 0
71 -70 0
69 -69 0
55 -56 0
75 -74 0
72 -73 0
65 -66 0
68 -67 0
10 -9 0
63 -64 0
58 -57 0
56 -55 0
54 -54 0
61 -62 0
59 -60 0
106 -105 0
107 -108 0
34 -31 0
103 -104 0
86 -85 0
74 -75 0
62 -61 0
102 -102 0
94 -95 0
98 -99 0
101 -100 0
26 -27 0
97 -96 0
83 -84 0
73 -72 0
60 -59 0
95 -94 0
93 -93 0
-46 -45 0
-46 -42 0
-46 -44 0
-51 -50 0
-51 -52 0
-51 -53 0
-4 -2 0
-4 -1 0
-4 -3 0
-38 -36 0
-38 -40 0
-38 -41 0
-20 -18 0
-20 -21 0
-20 -23 0
-15 -13 0
-15 -16 0
-15 -17 0
-11 -8 0
-11 -6 0
-11 -7 0
-35 -33 0
-35 -30 0
-35 -32 0
-28 -25 0
-28 -29 0
-28 -24 0
-45 -42 0
-45 -44 0
-50 -52 0
-50 -53 0
-2 -1 0
-2 -3 0
-36 -40 0
-36 -41 0
-18 -21 0
-18 -23 0
-13 -16 0
-13 -17 0
-8 -6 0
-8 -7 0
-33 -30 0
-33 -32 0
-25 -29 0
-25 -24 0
-42 -44 0
-52 -53 0
-1 -3 0
-40 -41 0
-21 -23 0
-16 -17 0
-6 -7 0
-30 -32 0
-29 -24 0
46 45 42 44 0
51 50 52 53 0
4 2 1 3 0
38 36 40 41 0
20 18 21 23 0
15 13 16 17 0
11 8 6 7 0
35 33 30 32 0
28 25 29 24 0
46 45 42 -114 0
46 45 44 -114 0
46 42 44 -114 0
51 50 52 -117 0
51 50 53 -117 0
51 52 53 -117 0
4 2 1 -5 0
4 2 3 -5 0
4 1 3 -5 0
38 36 40 -109 0
38 36 41 -109 0
38 40 41 -109 0
20 18 21 -82 0
20 18 23 -82 0
20 21 23 -82 0
15 13 16 -69 0
15 13 17 -69 0
15 16 17 -69 0
11 8 6 -54 0
11 8 7 -54 0
11 6 7 -54 0
35 33 30 -102 0
35 33 32 -102 0
35 30 32 -102 0
28 25 29 -93 0
28 25 24 -93 0
28 29 24 -93 0
45 42 44 -114 0
50 52 53 -117 0
2 1 3 -5 0
36 40 41 -109 0
18 21 23 -82 0
13 16 17 -69 0
8 6 7 -54 0
33 30 32 -102 0
25 29 24 -93 0
46 45 42 44 -114 0
46 45 42 44 -115 0
46 45 42 44 -47 0
46 45 42 44 -110 0
46 45 42 44 -90 0
46 45 42 44 -78 0
46 45 42 44 -66 0
46 45 42 44 -105 0
46 45 42 44 -99 0
46 45 42 44 -116 0
46 45 42 44 -43 0
46 45 42 44 -111 0
46 45 42 44 -89 0
46 45 42 44 -79 0
46 45 42 44 -65 0
46 45 42 44 -106 0
46 45 42 44 -98 0
51 50 52 53 -115 0
51 50 52 53 -116 0
51 50 52 53 -117 0
51 50 52 53 -49 0
51 50 52 53 -112 0
51 50 52 53 -92 0
51 50 52 53 -81 0
51 50 52 53 -67 0
51 50 52 53 -108 0
51 50 52 53 -100 0
51 50 52 53 -48 0
51 50 52 53 -113 0
51 50 52 53 -91 0
51 50 52 53 -80 0
51 50 52 53 -68 0
51 50 52 53 -107 0
51 50 52 53 -101 0
4 2 1 3 -47 0
4 2 1 3 -49 0
4 2 1 3 -43 0
4 2 1 3 -48 0
4 2 1 3 -5 0
4 2 1 3 -37 0
4 2 1 3 -19 0
4 2 1 3 -14 0
4 2 1 3 -9 0
4 2 1 3 -31 0
4 2 1 3 -27 0
4 2 1 3 -39 0
4 2 1 3 -22 0
4 2 1 3 -12 0
4 2 1 3 -10 0
4 2 1 3 -34 0
4 2 1 3 -26 0
38 36 40 41 -110 0
38 36 40 41 -112 0
38 36 40 41 -37 0
38 36 40 41 -111 0
38 36 40 41 -113 0
38 36 40 41 -39 0
38 36 40 41 -109 0
38 36 40 41 -87 0
38 36 40 41 -77 0
38 36 40 41 -64 0
38 36 40 41 -104 0
38 36 40 41 -96 0
38 36 40 41 -88 0
38 36 40 41 -76 0
38 36 40 41 -63 0
38 36 40 41 -103 0
38 36 40 41 -97 0
20 18 21 23 -90 0
20 18 21 23 -92 0
20 18 21 23 -19 0
20 18 21 23 -87 0
20 18 21 23 -89 0
20 18 21 23 -91 0
20 18 21 23 -22 0
20 18 21 23 -88 0
20 18 21 23 -82 0
20 18 21 23 -70 0
20 18 21 23 -57 0
20 18 21 23 -85 0
20 18 21 23 -84 0
20 18 21 23 -71 0
20 18 21 23 -58 0
20 18 21 23 -86 0
20 18 21 23 -83 0
15 13 16 17 -78 0
15 13 16 17 -81 0
15 13 16 17 -14 0
15 13 16 17 -77 0
15 13 16 17 -70 0
15 13 16 17 -79 0
15 13 16 17 -80 0
15 13 16 17 -12 0
15 13 16 17 -76 0
15 13 16 17 -71 0
15 13 16 17 -69 0
15 13 16 17 -55 0
15 13 16 17 -75 0
15 13 16 17 -72 0
15 13 16 17 -56 0
15 13 16 17 -74 0
15 13 16 17 -73 0
11 8 6 7 -66 0
11 8 6 7 -67 0
11 8 6 7 -9 0
11 8 6 7 -64 0
11 8 6 7 -57 0
11 8 6 7 -55 0
11 8 6 7 -65 0
11 8 6 7 -68 0
11 8 6 7 -10 0
11 8 6 7 -63 0
11 8 6 7 -58 0
11 8 6 7 -56 0
11 8 6 7 -54 0
11 8 6 7 -61 0
11 8 6 7 -59 0
11 8 6 7 -62 0
11 8 6 7 -60 0
35 33 30 32 -105 0
35 33 30 32 -108 0
35 33 30 32 -31 0
35 33 30 32 -104 0
35 33 30 32 -85 0
35 33 30 32 -75 0
35 33 30 32 -61 0
35 33 30 32 -106 0
35 33 30 32 -107 0
35 33 30 32 -34 0
35 33 30 32 -103 0
35 33 30 32 -86 0
35 33 30 32 -74 0
35 33 30 32 -62 0
35 33 30 32 -102 0
35 33 30 32 -94 0
35 33 30 32 -95 0
28 25 29 24 -99 0
28 25 29 24 -100 0
28 25 29 24 -27 0
28 25 29 24 -96 0
28 25 29 24 -84 0
28 25 29 24 -72 0
28 25 29 24 -59 0
28 25 29 24 -94 0
28 25 29 24 -98 0
28 25 29 24 -101 0
28 25 29 24 -26 0
28 25 29 24 -97 0
28 25 29 24 -83 0
28 25 29 24 -73 0
28 25 29 24 -60 0
28 25 29 24 -95 0
28 25 29 24 -93 0
46 51 45 42 44 -115 0
46 51 45 42 44 -116 0
46 51 50 52 53 -115 0
46 51 50 52 53 -116 0
46 4 45 42 44 -47 0
46 4 45 42 44 -43 0
46 4 2 1 3 -47 0
46 4 2 1 3 -43 0
46 38 45 42 44 -110 0
46 38 45 42 44 -111 0
46 38 36 40 41 -110 0
46 38 36 40 41 -111 0
46 20 45 42 44 -90 0
46 20 45 42 44 -89 0
46 20 18 21 23 -90 0
46 20 18 21 23 -89 0
46 15 45 42 44 -78 0
46 15 45 42 44 -79 0
46 15 13 16 17 -78 0
46 15 13 16 17 -79 0
46 11 45 42 44 -66 0
46 11 45 42 44 -65 0
46 11 8 6 7 -66 0
46 11 8 6 7 -65 0
46 35 45 42 44 -105 0
46 35 45 42 44 -106 0
46 35 33 30 32 -105 0
46 35 33 30 32 -106 0
46 28 45 42 44 -99 0
46 28 45 42 44 -98 0
46 28 25 29 24 -99 0
46 28 25 29 24 -98 0
46 45 50 42 44 -115 0
46 45 50 42 44 -116 0
46 45 2 42 44 -47 0
46 45 2 42 44 -43 0
46 45 36 42 44 -110 0
46 45 36 42 44 -111 0
46 45 18 42 44 -90 0
46 45 18 42 44 -89 0
46 45 13 42 44 -78 0
46 45 13 42 44 -79 0
46 45 8 42 44 -66 0
46 45 8 42 44 -65 0
46 45 33 42 44 -105 0
46 45 33 42 44 -106 0
46 45 25 42 44 -99 0
46 45 25 42 44 -98 0
46 45 42 52 44 -115 0
46 45 42 52 44 -116 0
46 45 42 1 44 -47 0
46 45 42 1 44 -43 0
46 45 42 40 44 -110 0
46 45 42 40 44 -111 0
46 45 42 21 44 -90 0
46 45 42 21 44 -89 0
46 45 42 16 44 -78 0
46 45 42 16 44 -79 0
46 45 42 6 44 -66 0
46 45 42 6 44 -65 0
46 45 42 30 44 -105 0
46 45 42 30 44 -106 0
46 45 42 29 44 -99 0
46 45 42 29 44 -98 0
46 45 42 44 53 -115 0
46 45 42 44 53 -116 0
46 45 42 44 3 -47 0
46 45 42 44 3 -43 0
46 45 42 44 41 -110 0
46 45 42 44 41 -111 0
46 45 42 44 23 -90 0
46 45 42 44 23 -89 0
46 45 42 44 17 -78 0
46 45 42 44 17 -79 0
46 45 42 44 7 -66 0
46 45 42 44 7 -65 0
46 45 42 44 32 -105 0
46 45 42 44 32 -106 0
46 45 42 44 24 -99 0
46 45 42 44 24 -98 0
51 4 50 52 53 -49 0
51 4 50 52 53 -48 0
51 4 2 1 3 -49 0
51 4 2 1 3 -48 0
51 38 50 52 53 -112 0
51 38 50 52 53 -113 0
51 38 36 40 41 -112 0
51 38 36 40 41 -113 0
51 20 50 52 53 -92 0
51 20 50 52 53 -91 0
51 20 18 21 23 -92 0
51 20 18 21 23 -91 0
51 15 50 52 53 -81 0
51 15 50 52 53 -80 0
51 15 13 16 17 -81 0
51 15 13 16 17 -80 0
51 11 50 52 53 -67 0
51 11 50 52 53 -68 0
51 11 8 6 7 -67 0
51 11 8 6 7 -68 0
51 35 50 52 53 -108 0
51 35 50 52 53 -107 0
51 35 33 30 32 -108 0
51 35 33 30 32 -107 0
51 28 50 52 53 -100 0
51 28 50 52 53 -101 0
51 28 25 29 24 -100 0
51 28 25 29 24 -101 0
51 45 50 52 53 -115 0
51 45 50 52 53 -116 0
51 50 2 52 53 -49 0
51 50 2 52 53 -48 0
51 50 36 52 53 -112 0
51 50 36 52 53 -113 0
51 50 18 52 53 -92 0
51 50 18 52 53 -91 0
51 50 13 52 53 -81 0
51 50 13 52 53 -80 0
51 50 8 52 53 -67 0
51 50 8 52 53 -68 0
51 50 33 52 53 -108 0
51 50 33 52 53 -107 0
51 50 25 52 53 -100 0
51 50 25 52 53 -101 0
51 50 42 52 53 -115 0
51 50 42 52 53 -116 0
51 50 52 1 53 -49 0
51 50 52 1 53 -48 0
51 50 52 40 53 -112 0
51 50 52 40 53 -113 0
51 50 52 21 53 -92 0
51 50 52 21 53 -91 0
51 50 52 16 53 -81 0
51 50 52 16 53 -80 0
51 50 52 6 53 -67 0
51 50 52 6 53 -68 0
51 50 52 30 53 -108 0
51 50 52 30 53 -107 0
51 50 52 29 53 -100 0
51 50 52 29 53 -101 0
51 50 52 44 53 -115 0
51 50 52 44 53 -116 0
51 50 52 53 3 -49 0
51 50 52 53 3 -48 0
51 50 52 53 41 -112 0
51 50 52 53 41 -113 0
51 50 52 53 23 -92 0
51 50 52 53 23 -91 0
51 50 52 53 17 -81 0
51 50 52 53 17 -80 0
51 50 52 53 7 -67 0
51 50 52 53 7 -68 0
51 50 52 53 32 -108 0
51 50 52 53 32 -107 0
51 50 52 53 24 -100 0
51 50 52 53 24 -101 0
4 38 2 1 3 -37 0
4 38 2 1 3 -39 0
4 38 36 40 41 -37 0
4 38 36 40 41 -39 0
4 20 2 1 3 -19 0
4 20 2 1 3 -22 0
4 20 18 21 23 -19 0
4 20 18 21 23 -22 0
4 15 2 1 3 -14 0
4 15 2 1 3 -12 0
4 15 13 16 17 -14 0
4 15 13 16 17 -12 0
4 11 2 1 3 -9 0
4 11 2 1 3 -10 0
4 11 8 6 7 -9 0
4 11 8 6 7 -10 0
4 35 2 1 3 -31 0
4 35 2 1 3 -34 0
4 35 33 30 32 -31 0
4 35 33 30 32 -34 0
4 28 2 1 3 -27 0
4 28 2 1 3 -26 0
4 28 25 29 24 -27 0
4 28 25 29 24 -26 0
4 45 2 1 3 -47 0
4 45 2 1 3 -43 0
4 50 2 1 3 -49 0
4 50 2 1 3 -48 0
4 2 36 1 3 -37 0
4 2 36 1 3 -39 0
4 2 18 1 3 -19 0
4 2 18 1 3 -22 0
4 2 13 1 3 -14 0
4 2 13 1 3 -12 0
4 2 8 1 3 -9 0
4 2 8 1 3 -10 0
4 2 33 1 3 -31 0
4 2 33 1 3 -34 0
4 2 25 1 3 -27 0
4 2 25 1 3 -26 0
4 2 42 1 3 -47 0
4 2 42 1 3 -43 0
4 2 52 1 3 -49 0
4 2 52 1 3 -48 0
4 2 1 40 3 -37 0
4 2 1 40 3 -39 0
4 2 1 21 3 -19 0
4 2 1 21 3 -22 0
4 2 1 16 3 -14 0
4 2 1 16 3 -12 0
4 2 1 6 3 -9 0
4 2 1 6 3 -10 0
4 2 1 30 3 -31 0
4 2 1 30 3 -34 0
4 2 1 29 3 -27 0
4 2 1 29 3 -26 0
4 2 1 44 3 -47 0
4 2 1 44 3 -43 0
4 2 1 53 3 -49 0
4 2 1 53 3 -48 0
4 2 1 3 41 -37 0
4 2 1 3 41 -39 0
4 2 1 3 23 -19 0
4 2 1 3 23 -22 0
4 2 1 3 17 -14 0
4 2 1 3 17 -12 0
4 2 1 3 7 -9 0
4 2 1 3 7 -10 0
4 2 1 3 32 -31 0
4 2 1 3 32 -34 0
4 2 1 3 24 -27 0
4 2 1 3 24 -26 0
38 20 36 40 41 -87 0
38 20 36 40 41 -88 0
38 20 18 21 23 -87 0
38 20 18 21 23 -88 0
38 15 36 40 41 -77 0
38 15 36 40 41 -76 0
38 15 13 16 17 -77 0
38 15 13 16 17 -76 0
38 11 36 40 41 -64 0
38 11 36 40 41 -63 0
38 11 8 6 7 -64 0
38 11 8 6 7 -63 0
38 35 36 40 41 -104 0
38 35 36 40 41 -103 0
38 35 33 30 32 -104 0
38 35 33 30 32 -103 0
38 28 36 40 41 -96 0
38 28 36 40 41 -97 0
38 28 25 29 24 -96 0
38 28 25 29 24 -97 0
38 45 36 40 41 -110 0
38 45 36 40 41 -111 0
38 50 36 40 41 -112 0
38 50 36 40 41 -113 0
38 2 36 40 41 -37 0
38 2 36 40 41 -39 0
38 36 18 40 41 -87 0
38 36 18 40 41 -88 0
38 36 13 40 41 -77 0
38 36 13 40 41 -76 0
38 36 8 40 41 -64 0
38 36 8 40 41 -63 0
38 36 33 40 41 -104 0
38 36 33 40 41 -103 0
38 36 25 40 41 -96 0
38 36 25 40 41 -97 0
38 36 42 40 41 -110 0
38 36 42 40 41 -111 0
38 36 52 40 41 -112 0
38 36 52 40 41 -113 0
38 36 1 40 41 -37 0
38 36 1 40 41 -39 0
38 36 40 21 41 -87 0
38 36 40 21 41 -88 0
38 36 40 16 41 -77 0
38 36 40 16 41 -76 0
38 36 40 6 41 -64 0
38 36 40 6 41 -63 0
38 36 40 30 41 -104 0
38 36 40 30 41 -103 0
38 36 40 29 41 -96 0
38 36 40 29 41 -97 0
38 36 40 44 41 -110 0
38 36 40 44 41 -111 0
38 36 40 53 41 -112 0
38 36 40 53 41 -113 0
38 36 40 3 41 -37 0
38 36 40 3 41 -39 0
38 36 40 41 23 -87 0
38 36 40 41 23 -88 0
38 36 40 41 17 -77 0
38 36 40 41 17 -76 0
38 36 40 41 7 -64 0
38 36 40 41 7 -63 0
38 36 40 41 32 -104 0
38 36 40 41 32 -103 0
38 36 40 41 24 -96 0
38 36 40 41 24 -97 0
20 15 18 21 23 -70 0
20 15 18 21 23 -71 0
20 15 13 16 17 -70 0
20 15 13 16 17 -71 0
20 11 18 21 23 -57 0
20 11 18 21 23 -58 0
20 11 8 6 7 -57 0
20 11 8 6 7 -58 0
20 35 18 21 23 -85 0
20 35 18 21 23 -86 0
20 35 33 30 32 -85 0
20 35 33 30 32 -86 0
20 28 18 21 23 -84 0
20 28 18 21 23 -83 0
20 28 25 29 24 -84 0
20 28 25 29 24 -83 0
20 45 18 21 23 -90 0
20 45 18 21 23 -89 0
20 50 18 21 23 -92 0
20 50 18 21 23 -91 0
20 2 18 21 23 -19 0
20 2 18 21 23 -22 0
20 36 18 21 23 -87 0
20 36 18 21 23 -88 0
20 18 13 21 23 -70 0
20 18 13 21 23 -71 0
20 18 8 21 23 -57 0
20 18 8 21 23 -58 0
20 18 33 21 23 -85 0
20 18 33 21 23 -86 0
20 18 25 21 23 -84 0
20 18 25 21 23 -83 0
20 18 42 21 23 -90 0
20 18 42 21 23 -89 0
20 18 52 21 23 -92 0
20 18 52 21 23 -91 0
20 18 1 21 23 -19 0
20 18 1 21 23 -22 0
20 18 40 21 23 -87 0
20 18 40 21 23 -88 0
20 18 21 16 23 -70 0
20 18 21 16 23 -71 0
20 18 21 6 23 -57 0
20 18 21 6 23 -58 0
20 18 21 30 23 -85 0
20 18 21 30 23 -86 0
20 18 21 29 23 -84 0
20 18 21 29 23 -83 0
20 18 21 44 23 -90 0
20 18 21 44 23 -89 0
20 18 21 53 23 -92 0
20 18 21 53 23 -91 0
20 18 21 3 23 -19 0
20 18 21 3 23 -22 0
20 18 21 41 23 -87 0
20 18 21 41 23 -88 0
20 18 21 23 17 -70 0
20 18 21 23 17 -71 0
20 18 21 23 7 -57 0
20 18 21 23 7 -58 0
20 18 21 23 32 -85 0
20 18 21 23 32 -86 0
20 18 21 23 24 -84 0
20 18 21 23 24 -83 0
15 11 13 16 17 -55 0
15 11 13 16 17 -56 0
15 11 8 6 7 -55 0
15 11 8 6 7 -56 0
15 35 13 16 17 -75 0
15 35 13 16 17 -74 0
15 35 33 30 32 -75 0
15 35 33 30 32 -74 0
15 28 13 16 17 -72 0
15 28 13 16 17 -73 0
15 28 25 29 24 -72 0
15 28 25 29 24 -73 0
15 45 13 16 17 -78 0
15 45 13 16 17 -79 0
15 50 13 16 17 -81 0
15 50 13 16 17 -80 0
15 2 13 16 17 -14 0
15 2 13 16 17 -12 0
15 36 13 16 17 -77 0
15 36 13 16 17 -76 0
15 18 13 16 17 -70 0
15 18 13 16 17 -71 0
15 13 8 16 17 -55 0
15 13 8 16 17 -56 0
15 13 33 16 17 -75 0
15 13 33 16 17 -74 0
15 13 25 16 17 -72 0
15 13 25 16 17 -73 0
15 13 42 16 17 -78 0
15 13 42 16 17 -79 0
15 13 52 16 17 -81 0
15 13 52 16 17 -80 0
15 13 1 16 17 -14 0
15 13 1 16 17 -12 0
15 13 40 16 17 -77 0
15 13 40 16 17 -76 0
15 13 21 16 17 -70 0
15 13 21 16 17 -71 0
15 13 16 6 17 -55 0
15 13 16 6 17 -56 0
15 13 16 30 17 -75 0
15 13 16 30 17 -74 0
15 13 16 29 17 -72 0
15 13 16 29 17 -73 0
15 13 16 44 17 -78 0
15 13 16 44 17 -79 0
15 13 16 53 17 -81 0
15 13 16 53 17 -80 0
15 13 16 3 17 -14 0
15 13 16 3 17 -12 0
15 13 16 41 17 -77 0
15 13 16 41 17 -76 0
15 13 16 23 17 -70 0
15 13 16 23 17 -71 0
15 13 16 17 7 -55 0
15 13 16 17 7 -56 0
15 13 16 17 32 -75 0
15 13 16 17 32 -74 0
15 13 16 17 24 -72 0
15 13 16 17 24 -73 0
11 35 8 6 7 -61 0
11 35 8 6 7 -62 0
11 35 33 30 32 -61 0
11 35 33 30 32 -62 0
11 28 8 6 7 -59 0
11 28 8 6 7 -60 0
11 28 25 29 24 -59 0
11 28 25 29 24 -60 0
11 45 8 6 7 -66 0
11 45 8 6 7 -65 0
11 50 8 6 7 -67 0
11 50 8 6 7 -68 0
11 2 8 6 7 -9 0
11 2 8 6 7 -10 0
11 36 8 6 7 -64 0
11 36 8 6 7 -63 0
11 18 8 6 7 -57 0
11 18 8 6 7 -58 0
11 13 8 6 7 -55 0
11 13 8 6 7 -56 0
11 8 33 6 7 -61 0
11 8 33 6 7 -62 0
11 8 25 6 7 -59 0
11 8 25 6 7 -60 0
11 8 42 6 7 -66 0
11 8 42 6 7 -65 0
11 8 52 6 7 -67 0
11 8 52 6 7 -68 0
11 8 1 6 7 -9 0
11 8 1 6 7 -10 0
11 8 40 6 7 -64 0
11 8 40 6 7 -63 0
11 8 21 6 7 -57 0
11 8 21 6 7 -58 0
11 8 16 6 7 -55 0
11 8 16 6 7 -56 0
11 8 6 30 7 -61 0
11 8 6 30 7 -62 0
11 8 6 29 7 -59 0
11 8 6 29 7 -60 0
11 8 6 44 7 -66 0
11 8 6 44 7 -65 0
11 8 6 53 7 -67 0
11 8 6 53 7 -68 0
11 8 6 3 7 -9 0
11 8 6 3 7 -10 0
11 8 6 41 7 -64 0
11 8 6 41 7 -63 0
11 8 6 23 7 -57 0
11 8 6 23 7 -58 0
11 8 6 17 7 -55 0
11 8 6 17 7 -56 0
11 8 6 7 32 -61 0
11 8 6 7 32 -62 0
11 8 6 7 24 -59 0
11 8 6 7 24 -60 0
35 28 33 30 32 -94 0
35 28 33 30 32 -95 0
35 28 25 29 24 -94 0
35 28 25 29 24 -95 0
35 45 33 30 32 -105 0
35 45 33 30 32 -106 0
35 50 33 30 32 -108 0
35 50 33 30 32 -107 0
35 2 33 30 32 -31 0
35 2 33 30 32 -34 0
35 36 33 30 32 -104 0
35 36 33 30 32 -103 0
35 18 33 30 32 -85 0
35 18 33 30 32 -86 0
35 13 33 30 32 -75 0
35 13 33 30 32 -74 0
35 8 33 30 32 -61 0
35 8 33 30 32 -62 0
35 33 25 30 32 -94 0
35 33 25 30 32 -95 0
35 33 42 30 32 -105 0
35 33 42 30 32 -106 0
35 33 52 30 32 -108 0
35 33 52 30 32 -107 0
35 33 1 30 32 -31 0
35 33 1 30 32 -34 0
35 33 40 30 32 -104 0
35 33 40 30 32 -103 0
35 33 21 30 32 -85 0
35 33 21 30 32 -86 0
35 33 16 30 32 -75 0
35 33 16 30 32 -74 0
35 33 6 30 32 -61 0
35 33 6 30 32 -62 0
35 33 30 29 32 -94 0
35 33 30 29 32 -95 0
35 33 30 44 32 -105 0
35 33 30 44 32 -106 0
35 33 30 53 32 -108 0
35 33 30 53 32 -107 0
35 33 30 3 32 -31 0
35 33 30 3 32 -34 0
35 33 30 41 32 -104 0
35 33 30 41 32 -103 0
35 33 30 23 32 -85 0
35 33 30 23 32 -86 0
35 33 30 17 32 -75 0
35 33 30 17 32 -74 0
35 33 30 7 32 -61 0
35 33 30 7 32 -62 0
35 33 30 32 24 -94 0
35 33 30 32 24 -95 0
28 45 25 29 24 -99 0
28 45 25 29 24 -98 0
28 50 25 29 24 -100 0
28 50 25 29 24 -101 0
28 2 25 29 24 -27 0
28 2 25 29 24 -26 0
28 36 25 29 24 -96 0
28 36 25 29 24 -97 0
28 18 25 29 24 -84 0
28 18 25 29 24 -83 0
28 13 25 29 24 -72 0
28 13 25 29 24 -73 0
28 8 25 29 24 -59 0
28 8 25 29 24 -60 0
28 33 25 29 24 -94 0
28 33 25 29 24 -95 0
28 25 42 29 24 -99 0
28 25 42 29 24 -98 0
28 25 52 29 24 -100 0
28 25 52 29 24 -101 0
28 25 1 29 24 -27 0
28 25 1 29 24 -26 0
28 25 40 29 24 -96 0
28 25 40 29 24 -97 0
28 25 21 29 24 -84 0
28 25 21 29 24 -83 0
28 25 16 29 24 -72 0
28 25 16 29 24 -73 0
28 25 6 29 24 -59 0
28 25 6 29 24 -60 0
28 25 30 29 24 -94 0
28 25 30 29 24 -95 0
28 25 29 44 24 -99 0
28 25 29 44 24 -98 0
28 25 29 53 24 -100 0
28 25 29 53 24 -101 0
28 25 29 3 24 -27 0
28 25 29 3 24 -26 0
28 25 29 41 24 -96 0
28 25 29 41 24 -97 0
28 25 29 23 24 -84 0
28 25 29 23 24 -83 0
28 25 29 17 24 -72 0
28 25 29 17 24 -73 0
28 25 29 7 24 -59 0
28 25 29 7 24 -60 0
28 25 29 32 24 -94 0
28 25 29 32 24 -95 0
46 51 45 50 42 52 -115 0
46 51 45 50 42 52 -116 0
46 51 45 50 42 44 -115 0
46 51 45 50 42 44 -116 0
46 51 45 50 52 53 -115 0
46 51 45 50 52 53 -116 0
46 51 45 50 44 53 -115 0
46 51 45 50 44 53 -116 0
46 51 45 42 52 44 -115 0
46 51 45 42 52 44 -116 0
46 51 45 42 44 53 -115 0
46 51 45 42 44 53 -116 0
46 51 50 42 52 53 -115 0
46 51 50 42 52 53 -116 0
46 51 50 52 44 53 -115 0
46 51 50 52 44 53 -116 0
46 51 42 52 44 53 -115 0
46 51 42 52 44 53 -116 0
46 4 45 2 42 1 -47 0
46 4 45 2 42 1 -43 0
46 4 45 2 42 44 -47 0
46 4 45 2 42 44 -43 0
46 4 45 2 1 3 -47 0
46 4 45 2 1 3 -43 0
46 4 45 2 44 3 -47 0
46 4 45 2 44 3 -43 0
46 4 45 42 1 44 -47 0
46 4 45 42 1 44 -43 0
46 4 45 42 44 3 -47 0
46 4 45 42 44 3 -43 0
46 4 2 42 1 3 -47 0
46 4 2 42 1 3 -43 0
46 4 2 1 44 3 -47 0
46 4 2 1 44 3 -43 0
46 4 42 1 44 3 -47 0
46 4 42 1 44 3 -43 0
46 38 45 36 42 40 -110 0
46 38 45 36 42 40 -111 0
46 38 45 36 42 44 -110 0
46 38 45 36 42 44 -111 0
46 38 45 36 40 41 -110 0
46 38 45 36 40 41 -111 0
46 38 45 36 44 41 -110 0
46 38 45 36 44 41 -111 0
46 38 45 42 40 44 -110 0
46 38 45 42 40 44 -111 0
46 38 45 42 44 41 -110 0
46 38 45 42 44 41 -111 0
46 38 36 42 40 41 -110 0
46 38 36 42 40 41 -111 0
46 38 36 40 44 41 -110 0
46 38 36 40 44 41 -111 0
46 38 42 40 44 41 -110 0
46 38 42 40 44 41 -111 0
46 20 45 18 42 21 -90 0
46 20 45 18 42 21 -89 0
46 20 45 18 42 44 -90 0
46 20 45 18 42 44 -89 0
46 20 45 18 21 23 -90 0
46 20 45 18 21 23 -89 0
46 20 45 18 44 23 -90 0
46 20 45 18 44 23 -89 0
46 20 45 42 21 44 -90 0
46 20 45 42 21 44 -89 0
46 20 45 42 44 23 -90 0
46 20 45 42 44 23 -89 0
46 20 18 42 21 23 -90 0
46 20 18 42 21 23 -89 0
46 20 18 21 44 23 -90 0
46 20 18 21 44 23 -89 0
46 20 42 21 44 23 -90 0
46 20 42 21 44 23 -89 0
46 15 45 13 42 16 -78 0
46 15 45 13 42 16 -79 0
46 15 45 13 42 44 -78 0
46 15 45 13 42 44 -79 0
46 15 45 13 16 17 -78 0
46 15 45 13 16 17 -79 0
46 15 45 13 44 17 -78 0
46 15 45 13 44 17 -79 0
46 15 45 42 16 44 -78 0
46 15 45 42 16 44 -79 0
46 15 45 42 44 17 -78 0
46 15 45 42 44 17 -79 0
46 15 13 42 16 17 -78 0
46 15 13 42 16 17 -79 0
46 15 13 16 44 17 -78 0
46 15 13 16 44 17 -79 0
46 15 42 16 44 17 -78 0
46 15 42 16 44 17 -79 0
46 11 45 8 42 6 -66 0
46 11 45 8 42 6 -65 0
46 11 45 8 42 44 -66 0
46 11 45 8 42 44 -65 0
46 11 45 8 6 7 -66 0
46 11 45 8 6 7 -65 0
46 11 45 8 44 7 -66 0
46 11 45 8 44 7 -65 0
46 11 45 42 6 44 -66 0
46 11 45 42 6 44 -65 0
46 11 45 42 44 7 -66 0
46 11 45 42 44 7 -65 0
46 11 8 42 6 7 -66 0
46 11 8 42 6 7 -65 0
46 11 8 6 44 7 -66 0
46 11 8 6 44 7 -65 0
46 11 42 6 44 7 -66 0
46 11 42 6 44 7 -65 0
46 35 45 33 42 30 -105 0
46 35 45 33 42 30 -106 0
46 35 45 33 42 44 -105 0
46 35 45 33 42 44 -106 0
46 35 45 33 30 32 -105 0
46 35 45 33 30 32 -106 0
46 35 45 33 44 32 -105 0
46 35 45 33 44 32 -106 0
46 35 45 42 30 44 -105 0
46 35 45 42 30 44 -106 0
46 35 45 42 44 32 -105 0
46 35 45 42 44 32 -106 0
46 35 33 42 30 32 -105 0
46 35 33 42 30 32 -106 0
46 35 33 30 44 32 -105 0
46 35 33 30 44 32 -106 0
46 35 42 30 44 32 -105 0
46 35 42 30 44 32 -106 0
46 28 45 25 42 29 -99 0
46 28 45 25 42 29 -98 0
46 28 45 25 42 44 -99 0
46 28 45 25 42 44 -98 0
46 28 45 25 29 24 -99 0
46 28 45 25 29 24 -98 0
46 28 45 25 44 24 -99 0
46 28 45 25 44 24 -98 0
46 28 45 42 29 44 -99 0
46 28 45 42 29 44 -98 0
46 28 45 42 44 24 -99 0
46 28 45 42 44 24 -98 0
46 28 25 42 29 24 -99 0
46 28 25 42 29 24 -98 0
46 28 25 29 44 24 -99 0
46 28 25 29 44 24 -98 0
46 28 42 29 44 24 -99 0
46 28 42 29 44 24 -98 0
46 45 50 42 52 44 -115 0
46 45 50 42 52 44 -116 0
46 45 50 42 44 53 -115 0
46 45 50 42 44 53 -116 0
46 45 2 42 1 44 -47 0
46 45 2 42 1 44 -43 0
46 45 2 42 44 3 -47 0
46 45 2 42 44 3 -43 0
46 45 36 42 40 44 -110 0
46 45 36 42 40 44 -111 0
46 45 36 42 44 41 -110 0
46 45 36 42 44 41 -111 0
46 45 18 42 21 44 -90 0
46 45 18 42 21 44 -89 0
46 45 18 42 44 23 -90 0
46 45 18 42 44 23 -89 0
46 45 13 42 16 44 -78 0
46 45 13 42 16 44 -79 0
46 45 13 42 44 17 -78 0
46 45 13 42 44 17 -79 0
46 45 8 42 6 44 -66 0
46 45 8 42 6 44 -65 0
46 45 8 42 44 7 -66 0
46 45 8 42 44 7 -65 0
46 45 33 42 30 44 -105 0
46 45 33 42 30 44 -106 0
46 45 33 42 44 32 -105 0
46 45 33 42 44 32 -106 0
46 45 25 42 29 44 -99 0
46 45 25 42 29 44 -98 0
46 45 25 42 44 24 -99 0
46 45 25 42 44 24 -98 0
46 45 42 52 44 53 -115 0
46 45 42 52 44 53 -116 0
46 45 42 1 44 3 -47 0
46 45 42 1 44 3 -43 0
46 45 42 40 44 41 -110 0
46 45 42 40 44 41 -111 0
46 45 42 21 44 23 -90 0
46 45 42 21 44 23 -89 0
46 45 42 16 44 17 -78 0
46 45 42 16 44 17 -79 0
46 45 42 6 44 7 -66 0
46 45 42 6 44 7 -65 0
46 45 42 30 44 32 -105 0
46 45 42 30 44 32 -106 0
46 45 42 29 44 24 -99 0
46 45 42 29 44 24 -98 0
51 4 50 2 52 1 -49 0
51 4 50 2 52 1 -48 0
51 4 50 2 52 53 -49 0
51 4 50 2 52 53 -48 0
51 4 50 2 1 3 -49 0
51 4 50 2 1 3 -48 0
51 4 50 2 53 3 -49 0
51 4 50 2 53 3 -48 0
51 4 50 52 1 53 -49 0
51 4 50 52 1 53 -48 0
51 4 50 52 53 3 -49 0
51 4 50 52 53 3 -48 0
51 4 2 52 1 3 -49 0
51 4 2 52 1 3 -48 0
51 4 2 1 53 3 -49 0
51 4 2 1 53 3 -48 0
51 4 52 1 53 3 -49 0
51 4 52 1 53 3 -48 0
51 38 50 36 52 40 -112 0
51 38 50 36 52 40 -113 0
51 38 50 36 52 53 -112 0
51 38 50 36 52 53 -113 0
51 38 50 36 40 41 -112 0
51 38 50 36 40 41 -113 0
51 38 50 36 53 41 -112 0
51 38 50 36 53 41 -113 0
51 38 50 52 40 53 -112 0
51 38 50 52 40 53 -113 0
51 38 50 52 53 41 -112 0
51 38 50 52 53 41 -113 0
51 38 36 52 40 41 -112 0
51 38 36 52 40 41 -113 0
51 38 36 40 53 41 -112 0
51 38 36 40 53 41 -113 0
51 38 52 40 53 41 -112 0
51 38 52 40 53 41 -113 0
51 20 50 18 52 21 -92 0
51 20 50 18 52 21 -91 0
51 20 50 18 52 53 -92 0
51 20 50 18 52 53 -91 0
51 20 50 18 21 23 -92 0
51 20 50 18 21 23 -91 0
51 20 50 18 53 23 -92 0
51 20 50 18 53 23 -91 0
51 20 50 52 21 53 -92 0
51 20 50 52 21 53 -91 0
51 20 50 52 53 23 -92 0
51 20 50 52 53 23 -91 0
51 20 18 52 21 23 -92 0
51 20 18 52 21 23 -91 0
51 20 18 21 53 23 -92 0
51 20 18 21 53 23 -91 0
51 20 52 21 53 23 -92 0
51 20 52 21 53 23 -91 0
51 15 50 13 52 16 -81 0
51 15 50 13 52 16 -80 0
51 15 50 13 52 53 -81 0
51 15 50 13 52 53 -80 0
51 15 50 13 16 17 -81 0
51 15 50 13 16 17 -80 0
51 15 50 13 53 17 -81 0
51 15 50 13 53 17 -80 0
51 15 50 52 16 53 -81 0
51 15 50 52 16 53 -80 0
51 15 50 52 53 17 -81 0
51 15 50 52 53 17 -80 0
51 15 13 52 16 17 -81 0
51 15 13 52 16 17 -80 0
51 15 13 16 53 17 -81 0
51 15 13 16 53 17 -80 0
51 15 52 16 53 17 -81 0
51 15 52 16 53 17 -80 0
51 11 50 8 52 6 -67 0
51 11 50 8 52 6 -68 0
51 11 50 8 52 53 -67 0
51 11 50 8 52 53 -68 0
51 11 50 8 6 7 -67 0
51 11 50 8 6 7 -68 0
51 11 50 8 53 7 -67 0
51 11 50 8 53 7 -68 0
51 11 50 52 6 53 -67 0
51 11 50 52 6 53 -68 0
51 11 50 52 53 7 -67 0
51 11 50 52 53 7 -68 0
51 11 8 52 6 7 -67 0
51 11 8 52 6 7 -68 0
51 11 8 6 53 7 -67 0
51 11 8 6 53 7 -68 0
51 11 52 6 53 7 -67 0
51 11 52 6 53 7 -68 0
51 35 50 33 52 30 -108 0
51 35 50 33 52 30 -107 0
51 35 50 33 52 53 -108 0
51 35 50 33 52 53 -107 0
51 35 50 33 30 32 -108 0
51 35 50 33 30 32 -107 0
51 35 50 33 53 32 -108 0
51 35 50 33 53 32 -107 0
51 35 50 52 30 53 -108 0
51 35 50 52 30 53 -107 0
51 35 50 52 53 32 -108 0
51 35 50 52 53 32 -107 0
51 35 33 52 30 32 -108 0
51 35 33 52 30 32 -107 0
51 35 33 30 53 32 -108 0
51 35 33 30 53 32 -107 0
51 35 52 30 53 32 -108 0
51 35 52 30 53 32 -107 0
51 28 50 25 52 29 -100 0
51 28 50 25 52 29 -101 0
51 28 50 25 52 53 -100 0
51 28 50 25 52 53 -101 0
51 28 50 25 29 24 -100 0
51 28 50 25 29 24 -101 0
51 28 50 25 53 24 -100 0
51 28 50 25 53 24 -101 0
51 28 50 52 29 53 -100 0
51 28 50 52 29 53 -101 0
51 28 50 52 53 24 -100 0
51 28 50 52 53 24 -101 0
51 28 25 52 29 24 -100 0
51 28 25 52 29 24 -101 0
51 28 25 29 53 24 -100 0
51 28 25 29 53 24 -101 0
51 28 52 29 53 24 -100 0
51 28 52 29 53 24 -101 0
51 45 50 42 52 53 -115 0
51 45 50 42 52 53 -116 0
51 45 50 52 44 53 -115 0
51 45 50 52 44 53 -116 0
51 50 2 52 1 53 -49 0
51 50 2 52 1 53 -48 0
51 50 2 52 53 3 -49 0
51 50 2 52 53 3 -48 0
51 50 36 52 40 53 -112 0
51 50 36 52 40 53 -113 0
51 50 36 52 53 41 -112 0
51 50 36 52 53 41 -113 0
51 50 18 52 21 53 -92 0
51 50 18 52 21 53 -91 0
51 50 18 52 53 23 -92 0
51 50 18 52 53 23 -91 0
51 50 13 52 16 53 -81 0
51 50 13 52 16 53 -80 0
51 50 13 52 53 17 -81 0
51 50 13 52 53 17 -80 0
51 50 8 52 6 53 -67 0
51 50 8 52 6 53 -68 0
51 50 8 52 53 7 -67 0
51 50 8 52 53 7 -68 0
51 50 33 52 30 53 -108 0
51 50 33 52 30 53 -107 0
51 50 33 52 53 32 -108 0
51 50 33 52 53 32 -107 0
51 50 25 52 29 53 -100 0
51 50 25 52 29 53 -101 0
51 50 25 52 53 24 -100 0
51 50 25 52 53 24 -101 0
51 50 42 52 44 53 -115 0
51 50 42 52 44 53 -116 0
51 50 52 1 53 3 -49 0
51 50 52 1 53 3 -48 0
51 50 52 40 53 41 -112 0
51 50 52 40 53 41 -113 0
51 50 52 21 53 23 -92 0
51 50 52 21 53 23 -91 0
51 50 52 16 53 17 -81 0
51 50 52 16 53 17 -80 0
51 50 52 6 53 7 -67 0
51 50 52 6 53 7 -68 0
51 50 52 30 53 32 -108 0
51 50 52 30 53 32 -107 0
51 50 52 29 53 24 -100 0
51 50 52 29 53 24 -101 0
4 38 2 36 1 40 -37 0
4 38 2 36 1 40 -39 0
4 38 2 36 1 3 -37 0
4 38 2 36 1 3 -39 0
4 38 2 36 40 41 -37 0
4 38 2 36 40 41 -39 0
4 38 2 36 3 41 -37 0
4 38 2 36 3 41 -39 0
4 38 2 1 40 3 -37 0
4 38 2 1 40 3 -39 0
4 38 2 1 3 41 -37 0
4 38 2 1 3 41 -39 0
4 38 36 1 40 41 -37 0
4 38 36 1 40 41 -39 0
4 38 36 40 3 41 -37 0
4 38 36 40 3 41 -39 0
4 38 1 40 3 41 -37 0
4 38 1 40 3 41 -39 0
4 20 2 18 1 21 -19 0
4 20 2 18 1 21 -22 0
4 20 2 18 1 3 -19 0
4 20 2 18 1 3 -22 0
4 20 2 18 21 23 -19 0
4 20 2 18 21 23 -22 0
4 20 2 18 3 23 -19 0
4 20 2 18 3 23 -22 0
4 20 2 1 21 3 -19 0
4 20 2 1 21 3 -22 0
4 20 2 1 3 23 -19 0
4 20 2 1 3 23 -22 0
4 20 18 1 21 23 -19 0
4 20 18 1 21 23 -22 0
4 20 18 21 3 23 -19 0
4 20 18 21 3 23 -22 0
4 20 1 21 3 23 -19 0
4 20 1 21 3 23 -22 0
4 15 2 13 1 16 -14 0
4 15 2 13 1 16 -12 0
4 15 2 13 1 3 -14 0
4 15 2 13 1 3 -12 0
4 15 2 13 16 17 -14 0
4 15 2 13 16 17 -12 0
4 15 2 13 3 17 -14 0
4 15 2 13 3 17 -12 0
4 15 2 1 16 3 -14 0
4 15 2 1 16 3 -12 0
4 15 2 1 3 17 -14 0
4 15 2 1 3 17 -12 0
4 15 13 1 16 17 -14 0
4 15 13 1 16 17 -12 0
4 15 13 16 3 17 -14 0
4 15 13 16 3 17 -12 0
4 15 1 16 3 17 -14 0
4 15 1 16 3 17 -12 0
4 11 2 8 1 6 -9 0
4 11 2 8 1 6 -10 0
4 11 2 8 1 3 -9 0
4 11 2 8 1 3 -10 0
4 11 2 8 6 7 -9 0
4 11 2 8 6 7 -10 0
4 11 2 8 3 7 -9 0
4 11 2 8 3 7 -10 0
4 11 2 1 6 3 -9 0
4 11 2 1 6 3 -10 0
4 11 2 1 3 7 -9 0
4 11 2 1 3 7 -10 0
4 11 8 1 6 7 -9 0
4 11 8 1 6 7 -10 0
4 11 8 6 3 7 -9 0
4 11 8 6 3 7 -10 0
4 11 1 6 3 7 -9 0
4 11 1 6 3 7 -10 0
4 35 2 33 1 30 -31 0
4 35 2 33 1 30 -34 0
4 35 2 33 1 3 -31 0
4 35 2 33 1 3 -34 0
4 35 2 33 30 32 -31 0
4 35 2 33 30 32 -34 0
4 35 2 33 3 32 -31 0
4 35 2 33 3 32 -34 0
4 35 2 1 30 3 -31 0
4 35 2 1 30 3 -34 0
4 35 2 1 3 32 -31 0
4 35 2 1 3 32 -34 0
4 35 33 1 30 32 -31 0
4 35 33 1 30 32 -34 0
4 35 33 30 3 32 -31 0
4 35 33 30 3 32 -34 0
4 35 1 30 3 32 -31 0
4 35 1 30 3 32 -34 0
4 28 2 25 1 29 -27 0
4 28 2 25 1 29 -26 0
4 28 2 25 1 3 -27 0
4 28 2 25 1 3 -26 0
4 28 2 25 29 24 -27 0
4 28 2 25 29 24 -26 0
4 28 2 25 3 24 -27 0
4 28 2 25 3 24 -26 0
4 28 2 1 29 3 -27 0
4 28 2 1 29 3 -26 0
4 28 2 1 3 24 -27 0
4 28 2 1 3 24 -26 0
4 28 25 1 29 24 -27 0
4 28 25 1 29 24 -26 0
4 28 25 29 3 24 -27 0
4 28 25 29 3 24 -26 0
4 28 1 29 3 24 -27 0
4 28 1 29 3 24 -26 0
4 45 2 42 1 3 -47 0
4 45 2 42 1 3 -43 0
4 45 2 1 44 3 -47 0
4 45 2 1 44 3 -43 0
4 50 2 52 1 3 -49 0
4 50 2 52 1 3 -48 0
4 50 2 1 53 3 -49 0
4 50 2 1 53 3 -48 0
4 2 36 1 40 3 -37 0
4 2 36 1 40 3 -39 0
4 2 36 1 3 41 -37 0
4 2 36 1 3 41 -39 0
4 2 18 1 21 3 -19 0
4 2 18 1 21 3 -22 0
4 2 18 1 3 23 -19 0
4 2 18 1 3 23 -22 0
4 2 13 1 16 3 -14 0
4 2 13 1 16 3 -12 0
4 2 13 1 3 17 -14 0
4 2 13 1 3 17 -12 0
4 2 8 1 6 3 -9 0
4 2 8 1 6 3 -10 0
4 2 8 1 3 7 -9 0
4 2 8 1 3 7 -10 0
4 2 33 1 30 3 -31 0
4 2 33 1 30 3 -34 0
4 2 33 1 3 32 -31 0
4 2 33 1 3 32 -34 0
4 2 25 1 29 3 -27 0
4 2 25 1 29 3 -26 0
4 2 25 1 3 24 -27 0
4 2 25 1 3 24 -26 0
4 2 42 1 44 3 -47 0
4 2 42 1 44 3 -43 0
4 2 52 1 53 3 -49 0
4 2 52 1 53 3 -48 0
4 2 1 40 3 41 -37 0
4 2 1 40 3 41 -39 0
4 2 1 21 3 23 -19 0
4 2 1 21 3 23 -22 0
4 2 1 16 3 17 -14 0
4 2 1 16 3 17 -12 0
4 2 1 6 3 7 -9 0
4 2 1 6 3 7 -10 0
4 2 1 30 3 32 -31 0
4 2 1 30 3 32 -34 0
4 2 1 29 3 24 -27 0
4 2 1 29 3 24 -26 0
38 20 36 18 40 21 -87 0
38 20 36 18 40 21 -88 0
38 20 36 18 40 41 -87 0
38 20 36 18 40 41 -88 0
38 20 36 18 21 23 -87 0
38 20 36 18 21 23 -88 0
38 20 36 18 41 23 -87 0
38 20 36 18 41 23 -88 0
38 20 36 40 21 41 -87 0
38 20 36 40 21 41 -88 0
38 20 36 40 41 23 -87 0
38 20 36 40 41 23 -88 0
38 20 18 40 21 23 -87 0
38 20 18 40 21 23 -88 0
38 20 18 21 41 23 -87 0
38 20 18 21 41 23 -88 0
38 20 40 21 41 23 -87 0
38 20 40 21 41 23 -88 0
38 15 36 13 40 16 -77 0
38 15 36 13 40 16 -76 0
38 15 36 13 40 41 -77 0
38 15 36 13 40 41 -76 0
38 15 36 13 16 17 -77 0
38 15 36 13 16 17 -76 0
38 15 36 13 41 17 -77 0
38 15 36 13 41 17 -76 0
38 15 36 40 16 41 -77 0
38 15 36 40 16 41 -76 0
38 15 36 40 41 17 -77 0
38 15 36 40 41 17 -76 0
38 15 13 40 16 17 -77 0
38 15 13 40 16 17 -76 0
38 15 13 16 41 17 -77 0
38 15 13 16 41 17 -76 0
38 15 40 16 41 17 -77 0
38 15 40 16 41 17 -76 0
38 11 36 8 40 6 -64 0
38 11 36 8 40 6 -63 0
38 11 36 8 40 41 -64 0
38 11 36 8 40 41 -63 0
38 11 36 8 6 7 -64 0
38 11 36 8 6 7 -63 0
38 11 36 8 41 7 -64 0
38 11 36 8 41 7 -63 0
38 11 36 40 6 41 -64 0
38 11 36 40 6 41 -63 0
38 11 36 40 41 7 -64 0
38 11 36 40 41 7 -63 0
38 11 8 40 6 7 -64 0
38 11 8 40 6 7 -63 0
38 11 8 6 41 7 -64 0
38 11 8 6 41 7 -63 0
38 11 40 6 41 7 -64 0
38 11 40 6 41 7 -63 0
38 35 36 33 40 30 -104 0
38 35 36 33 40 30 -103 0
38 35 36 33 40 41 -104 0
38 35 36 33 40 41 -103 0
38 35 36 33 30 32 -104 0
38 35 36 33 30 32 -103 0
38 35 36 33 41 32 -104 0
38 35 36 33 41 32 -103 0
38 35 36 40 30 41 -104 0
38 35 36 40 30 41 -103 0
38 35 36 40 41 32 -104 0
38 35 36 40 41 32 -103 0
38 35 33 40 30 32 -104 0
38 35 33 40 30 32 -103 0
38 35 33 30 41 32 -104 0
38 35 33 30 41 32 -103 0
38 35 40 30 41 32 -104 0
38 35 40 30 41 32 -103 0
38 28 36 25 40 29 -96 0
38 28 36 25 40 29 -97 0
38 28 36 25 40 41 -96 0
38 28 36 25 40 41 -97 0
38 28 36 25 29 24 -96 0
38 28 36 25 29 24 -97 0
38 28 36 25 41 24 -96 0
38 28 36 25 41 24 -97 0
38 28 36 40 29 41 -96 0
38 28 36 40 29 41 -97 0
38 28 36 40 41 24 -96 0
38 28 36 40 41 24 -97 0
38 28 25 40 29 24 -96 0
38 28 25 40 29 24 -97 0
38 28 25 29 41 24 -96 0
38 28 25 29 41 24 -97 0
38 28 40 29 41 24 -96 0
38 28 40 29 41 24 -97 0
38 45 36 42 40 41 -110 0
38 45 36 42 40 41 -111 0
38 45 36 40 44 41 -110 0
38 45 36 40 44 41 -111 0
38 50 36 52 40 41 -112 0
38 50 36 52 40 41 -113 0
38 50 36 40 53 41 -112 0
38 50 36 40 53 41 -113 0
38 2 36 1 40 41 -37 0
38 2 36 1 40 41 -39 0
38 2 36 40 3 41 -37 0
38 2 36 40 3 41 -39 0
38 36 18 40 21 41 -87 0
38 36 18 40 21 41 -88 0
38 36 18 40 41 23 -87 0
38 36 18 40 41 23 -88 0
38 36 13 40 16 41 -77 0
38 36 13 40 16 41 -76 0
38 36 13 40 41 17 -77 0
38 36 13 40 41 17 -76 0
38 36 8 40 6 41 -64 0
38 36 8 40 6 41 -63 0
38 36 8 40 41 7 -64 0
38 36 8 40 41 7 -63 0
38 36 33 40 30 41 -104 0
38 36 33 40 30 41 -103 0
38 36 33 40 41 32 -104 0
38 36 33 40 41 32 -103 0
38 36 25 40 29 41 -96 0
38 36 25 40 29 41 -97 0
38 36 25 40 41 24 -96 0
38 36 25 40 41 24 -97 0
38 36 42 40 44 41 -110 0
38 36 42 40 44 41 -111 0
38 36 52 40 53 41 -112 0
38 36 52 40 53 41 -113 0
38 36 1 40 3 41 -37 0
38 36 1 40 3 41 -39 0
38 36 40 21 41 23 -87 0
38 36 40 21 41 23 -88 0
38 36 40 16 41 17 -77 0
38 36 40 16 41 17 -76 0
38 36 40 6 41 7 -64 0
38 36 40 6 41 7 -63 0
38 36 40 30 41 32 -104 0
38 36 40 30 41 32 -103 0
38 36 40 29 41 24 -96 0
38 36 40 29 41 24 -97 0
20 15 18 13 21 16 -70 0
20 15 18 13 21 16 -71 0
20 15 18 13 21 23 -70 0
20 15 18 13 21 23 -71 0
20 15 18 13 16 17 -70 0
20 15 18 13 16 17 -71 0
20 15 18 13 23 17 -70 0
20 15 18 13 23 17 -71 0
20 15 18 21 16 23 -70 0
20 15 18 21 16 23 -71 0
20 15 18 21 23 17 -70 0
20 15 18 21 23 17 -71 0
20 15 13 21 16 17 -70 0
20 15 13 21 16 17 -71 0
20 15 13 16 23 17 -70 0
20 15 13 16 23 17 -71 0
20 15 21 16 23 17 -70 0
20 15 21 16 23 17 -71 0
20 11 18 8 21 6 -57 0
20 11 18 8 21 6 -58 0
20 11 18 8 21 23 -57 0
20 11 18 8 21 23 -58 0
20 11 18 8 6 7 -57 0
20 11 18 8 6 7 -58 0
20 11 18 8 23 7 -57 0
20 11 18 8 23 7 -58 0
20 11 18 21 6 23 -57 0
20 11 18 21 6 23 -58 0
20 11 18 21 23 7 -57 0
20 11 18 21 23 7 -58 0
20 11 8 21 6 7 -57 0
20 11 8 21 6 7 -58 0
20 11 8 6 23 7 -57 0
20 11 8 6 23 7 -58 0
20 11 21 6 23 7 -57 0
20 11 21 6 23 7 -58 0
20 35 18 33 21 30 -85 0
20 35 18 33 21 30 -86 0
20 35 18 33 21 23 -85 0
20 35 18 33 21 23 -86 0
20 35 18 33 30 32 -85 0
20 35 18 33 30 32 -86 0
20 35 18 33 23 32 -85 0
20 35 18 33 23 32 -86 0
20 35 18 21 30 23 -85 0
20 35 18 21 30 23 -86 0
20 35 18 21 23 32 -85 0
20 35 18 21 23 32 -86 0
20 35 33 21 30 32 -85 0
20 35 33 21 30 32 -86 0
20 35 33 30 23 32 -85 0
20 35 33 30 23 32 -86 0
20 35 21 30 23 32 -85 0
20 35 21 30 23 32 -86 0
20 28 18 25 21 29 -84 0
20 28 18 25 21 29 -83 0
20 28 18 25 21 23 -84 0
20 28 18 25 21 23 -83 0
20 28 18 25 29 24 -84 0
20 28 18 25 29 24 -83 0
20 28 18 25 23 24 -84 0
20 28 18 25 23 24 -83 0
20 28 18 21 29 23 -84 0
20 28 18 21 29 23 -83 0
20 28 18 21 23 24 -84 0
20 28 18 21 23 24 -83 0
20 28 25 21 29 24 -84 0
20 28 25 21 29 24 -83 0
20 28 25 29 23 24 -84 0
20 28 25 29 23 24 -83 0
20 28 21 29 23 24 -84 0
20 28 21 29 23 24 -83 0
20 45 18 42 21 23 -90 0
20 45 18 42 21 23 -89 0
20 45 18 21 44 23 -90 0
20 45 18 21 44 23 -89 0
20 50 18 52 21 23 -92 0
20 50 18 52 21 23 -91 0
20 50 18 21 53 23 -92 0
20 50 18 21 53 23 -91 0
20 2 18 1 21 23 -19 0
20 2 18 1 21 23 -22 0
20 2 18 21 3 23 -19 0
20 2 18 21 3 23 -22 0
20 36 18 40 21 23 -87 0
20 36 18 40 21 23 -88 0
20 36 18 21 41 23 -87 0
20 36 18 21 41 23 -88 0
20 18 13 21 16 23 -70 0
20 18 13 21 16 23 -71 0
20 18 13 21 23 17 -70 0
20 18 13 21 23 17 -71 0
20 18 8 21 6 23 -57 0
20 18 8 21 6 23 -58 0
20 18 8 21 23 7 -57 0
20 18 8 21 23 7 -58 0
20 18 33 21 30 23 -85 0
20 18 33 21 30 23 -86 0
20 18 33 21 23 32 -85 0
20 18 33 21 23 32 -86 0
20 18 25 21 29 23 -84 0
20 18 25 21 29 23 -83 0
20 18 25 21 23 24 -84 0
20 18 25 21 23 24 -83 0
20 18 42 21 44 23 -90 0
20 18 42 21 44 23 -89 0
20 18 52 21 53 23 -92 0
20 18 52 21 53 23 -91 0
20 18 1 21 3 23 -19 0
20 18 1 21 3 23 -22 0
20 18 40 21 41 23 -87 0
20 18 40 21 41 23 -88 0
20 18 21 16 23 17 -70 0
20 18 21 16 23 17 -71 0
20 18 21 6 23 7 -57 0
20 18 21 6 23 7 -58 0
20 18 21 30 23 32 -85 0
20 18 21 30 23 32 -86 0
20 18 21 29 23 24 -84 0
20 18 21 29 23 24 -83 0
15 11 13 8 16 6 -55 0
15 11 13 8 16 6 -56 0
15 11 13 8 16 17 -55 0
15 11 13 8 16 17 -56 0
15 11 13 8 6 7 -55 0
15 11 13 8 6 7 -56 0
15 11 13 8 17 7 -55 0
15 11 13 8 17 7 -56 0
15 11 13 16 6 17 -55 0
15 11 13 16 6 17 -56 0
15 11 13 16 17 7 -55 0
15 11 13 16 17 7 -56 0
15 11 8 16 6 7 -55 0
15 11 8 16 6 7 -56 0
15 11 8 6 17 7 -55 0
15 11 8 6 17 7 -56 0
15 11 16 6 17 7 -55 0
15 11 16 6 17 7 -56 0
15 35 13 33 16 30 -75 0
15 35 13 33 16 30 -74 0
15 35 13 33 16 17 -75 0
15 35 13 33 16 17 -74 0
15 35 13 33 30 32 -75 0
15 35 13 33 30 32 -74 0
15 35 13 33 17 32 -75 0
15 35 13 33 17 32 -74 0
15 35 13 16 30 17 -75 0
15 35 13 16 30 17 -74 0
15 35 13 16 17 32 -75 0
15 35 13 16 17 32 -74 0
15 35 33 16 30 32 -75 0
15 35 33 16 30 32 -74 0
15 35 33 30 17 32 -75 0
15 35 33 30 17 32 -74 0
15 35 16 30 17 32 -75 0
15 35 16 30 17 32 -74 0
15 28 13 25 16 29 -72 0
15 28 13 25 16 29 -73 0
15 28 13 25 16 17 -72 0
15 28 13 25 16 17 -73 0
15 28 13 25 29 24 -72 0
15 28 13 25 29 24 -73 0
15 28 13 25 17 24 -72 0
15 28 13 25 17 24 -73 0
15 28 13 16 29 17 -72 0
15 28 13 16 29 17 -73 0
15 28 13 16 17 24 -72 0
15 28 13 16 17 24 -73 0
15 28 25 16 29 24 -72 0
15 28 25 16 29 24 -73 0
15 28 25 29 17 24 -72 0
15 28 25 29 17 24 -73 0
15 28 16 29 17 24 -72 0
15 28 16 29 17 24 -73 0
15 45 13 42 16 17 -78 0
15 45 13 42 16 17 -79 0
15 45 13 16 44 17 -78 0
15 45 13 16 44 17 -79 0
15 50 13 52 16 17 -81 0
15 50 13 52 16 17 -80 0
15 50 13 16 53 17 -81 0
15 50 13 16 53 17 -80 0
15 2 13 1 16 17 -14 0
15 2 13 1 16 17 -12 0
15 2 13 16 3 17 -14 0
15 2 13 16 3 17 -12 0
15 36 13 40 16 17 -77 0
15 36 13 40 16 17 -76 0
15 36 13 16 41 17 -77 0
15 36 13 16 41 17 -76 0
15 18 13 21 16 17 -70 0
15 18 13 21 16 17 -71 0
15 18 13 16 23 17 -70 0
15 18 13 16 23 17 -71 0
15 13 8 16 6 17 -55 0
15 13 8 16 6 17 -56 0
15 13 8 16 17 7 -55 0
15 13 8 16 17 7 -56 0
15 13 33 16 30 17 -75 0
15 13 33 16 30 17 -74 0
15 13 33 16 17 32 -75 0
15 13 33 16 17 32 -74 0
15 13 25 16 29 17 -72 0
15 13 25 16 29 17 -73 0
15 13 25 16 17 24 -72 0
15 13 25 16 17 24 -73 0
15 13 42 16 44 17 -78 0
15 13 42 16 44 17 -79 0
15 13 52 16 53 17 -81 0
15 13 52 16 53 17 -80 0
15 13 1 16 3 17 -14 0
15 13 1 16 3 17 -12 0
15 13 40 16 41 17 -77 0
15 13 40 16 41 17 -76 0
15 13 21 16 23 17 -70 0
15 13 21 16 23 17 -71 0
15 13 16 6 17 7 -55 0
15 13 16 6 17 7 -56 0
15 13 16 30 17 32 -75 0
15 13 16 30 17 32 -74 0
15 13 16 29 17 24 -72 0
15 13 16 29 17 24 -73 0
11 35 8 33 6 30 -61 0
11 35 8 33 6 30 -62 0
11 35 8 33 6 7 -61 0
11 35 8 33 6 7 -62 0
11 35 8 33 30 32 -61 0
11 35 8 33 30 32 -62 0
11 35 8 33 7 32 -61 0
11 35 8 33 7 32 -62 0
11 35 8 6 30 7 -61 0
11 35 8 6 30 7 -62 0
11 35 8 6 7 32 -61 0
11 35 8 6 7 32 -62 0
11 35 33 6 30 32 -61 0
11 35 33 6 30 32 -62 0
11 35 33 30 7 32 -61 0
11 35 33 30 7 32 -62 0
11 35 6 30 7 32 -61 0
11 35 6 30 7 32 -62 0
11 28 8 25 6 29 -59 0
11 28 8 25 6 29 -60 0
11 28 8 25 6 7 -59 0
11 28 8 25 6 7 -60 0
11 28 8 25 29 24 -59 0
11 28 8 25 29 24 -60 0
11 28 8 25 7 24 -59 0
11 28 8 25 7 24 -60 0
11 28 8 6 29 7 -59 0
11 28 8 6 29 7 -60 0
11 28 8 6 7 24 -59 0
11 28 8 6 7 24 -60 0
11 28 25 6 29 24 -59 0
11 28 25 6 29 24 -60 0
11 28 25 29 7 24 -59 0
11 28 25 29 7 24 -60 0
11 28 6 29 7 24 -59 0
11 28 6 29 7 24 -60 0
11 45 8 42 6 7 -66 0
11 45 8 42 6 7 -65 0
11 45 8 6 44 7 -66 0
11 45 8 6 44 7 -65 0
11 50 8 52 6 7 -67 0
11 50 8 52 6 7 -68 0
11 50 8 6 53 7 -67 0
11 50 8 6 53 7 -68 0
11 2 8 1 6 7 -9 0
11 2 8 1 6 7 -10 0
11 2 8 6 3 7 -9 0
11 2 8 6 3 7 -10 0
11 36 8 40 6 7 -64 0
11 36 8 40 6 7 -63 0
11 36 8 6 41 7 -64 0
11 36 8 6 41 7 -63 0
11 18 8 21 6 7 -57 0
11 18 8 21 6 7 -58 0
11 18 8 6 23 7 -57 0
11 18 8 6 23 7 -58 0
11 13 8 16 6 7 -55 0
11 13 8 16 6 7 -56 0
11 13 8 6 17 7 -55 0
11 13 8 6 17 7 -56 0
11 8 33 6 30 7 -61 0
11 8 33 6 30 7 -62 0
11 8 33 6 7 32 -61 0
11 8 33 6 7 32 -62 0
11 8 25 6 29 7 -59 0
11 8 25 6 29 7 -60 0
11 8 25 6 7 24 -59 0
11 8 25 6 7 24 -60 0
11 8 42 6 44 7 -66 0
11 8 42 6 44 7 -65 0
11 8 52 6 53 7 -67 0
11 8 52 6 53 7 -68 0
11 8 1 6 3 7 -9 0
11 8 1 6 3 7 -10 0
11 8 40 6 41 7 -64 0
11 8 40 6 41 7 -63 0
11 8 21 6 23 7 -57 0
11 8 21 6 23 7 -58 0
11 8 16 6 17 7 -55 0
11 8 16 6 17 7 -56 0
11 8 6 30 7 32 -61 0
11 8 6 30 7 32 -62 0
11 8 6 29 7 24 -59 0
11 8 6 29 7 24 -60 0
35 28 33 25 30 29 -94 0
35 28 33 25 30 29 -95 0
35 28 33 25 30 32 -94 0
35 28 33 25 30 32 -95 0
35 28 33 25 29 24 -94 0
35 28 33 25 29 24 -95 0
35 28 33 25 32 24 -94 0
35 28 33 25 32 24 -95 0
35 28 33 30 29 32 -94 0
35 28 33 30 29 32 -95 0
35 28 33 30 32 24 -94 0
35 28 33 30 32 24 -95 0
35 28 25 30 29 24 -94 0
35 28 25 30 29 24 -95 0
35 28 25 29 32 24 -94 0
35 28 25 29 32 24 -95 0
35 28 30 29 32 24 -94 0
35 28 30 29 32 24 -95 0
35 45 33 42 30 32 -105 0
35 45 33 42 30 32 -106 0
35 45 33 30 44 32 -105 0
35 45 33 30 44 32 -106 0
35 50 33 52 30 32 -108 0
35 50 33 52 30 32 -107 0
35 50 33 30 53 32 -108 0
35 50 33 30 53 32 -107 0
35 2 33 1 30 32 -31 0
35 2 33 1 30 32 -34 0
35 2 33 30 3 32 -31 0
35 2 33 30 3 32 -34 0
35 36 33 40 30 32 -104 0
35 36 33 40 30 32 -103 0
35 36 33 30 41 32 -104 0
35 36 33 30 41 32 -103 0
35 18 33 21 30 32 -85 0
35 18 33 21 30 32 -86 0
35 18 33 30 23 32 -85 0
35 18 33 30 23 32 -86 0
35 13 33 16 30 32 -75 0
35 13 33 16 30 32 -74 0
35 13 33 30 17 32 -75 0
35 13 33 30 17 32 -74 0
35 8 33 6 30 32 -61 0
35 8 33 6 30 32 -62 0
35 8 33 30 7 32 -61 0
35 8 33 30 7 32 -62 0
35 33 25 30 29 32 -94 0
35 33 25 30 29 32 -95 0
35 33 25 30 32 24 -94 0
35 33 25 30 32 24 -95 0
35 33 42 30 44 32 -105 0
35 33 42 30 44 32 -106 0
35 33 52 30 53 32 -108 0
35 33 52 30 53 32 -107 0
35 33 1 30 3 32 -31 0
35 33 1 30 3 32 -34 0
35 33 40 30 41 32 -104 0
35 33 40 30 41 32 -103 0
35 33 21 30 23 32 -85 0
35 33 21 30 23 32 -86 0
35 33 16 30 17 32 -75 0
35 33 16 30 17 32 -74 0
35 33 6 30 7 32 -61 0
35 33 6 30 7 32 -62 0
35 33 30 29 32 24 -94 0
35 33 30 29 32 24 -95 0
28 45 25 42 29 24 -99 0
28 45 25 42 29 24 -98 0
28 45 25 29 44 24 -99 0
28 45 25 29 44 24 -98 0
28 50 25 52 29 24 -100 0
28 50 25 52 29 24 -101 0
28 50 25 29 53 24 -100 0
28 50 25 29 53 24 -101 0
28 2 25 1 29 24 -27 0
28 2 25 1 29 24 -26 0
28 2 25 29 3 24 -27 0
28 2 25 29 3 24 -26 0
28 36 25 40 29 24 -96 0
28 36 25 40 29 24 -97 0
28 36 25 29 41 24 -96 0
28 36 25 29 41 24 -97 0
28 18 25 21 29 24 -84 0
28 18 25 21 29 24 -83 0
28 18 25 29 23 24 -84 0
28 18 25 29 23 24 -83 0
28 13 25 16 29 24 -72 0
28 13 25 16 29 24 -73 0
28 13 25 29 17 24 -72 0
28 13 25 29 17 24 -73 0
28 8 25 6 29 24 -59 0
28 8 25 6 29 24 -60 0
28 8 25 29 7 24 -59 0
28 8 25 29 7 24 -60 0
28 33 25 30 29 24 -94 0
28 33 25 30 29 24 -95 0
28 33 25 29 32 24 -94 0
28 33 25 29 32 24 -95 0
28 25 42 29 44 24 -99 0
28 25 42 29 44 24 -98 0
28 25 52 29 53 24 -100 0
28 25 52 29 53 24 -101 0
28 25 1 29 3 24 -27 0
28 25 1 29 3 24 -26 0
28 25 40 29 41 24 -96 0
28 25 40 29 41 24 -97 0
28 25 21 29 23 24 -84 0
28 25 21 29 23 24 -83 0
28 25 16 29 17 24 -72 0
28 25 16 29 17 24 -73 0
28 25 6 29 7 24 -59 0
28 25 6 29 7 24 -60 0
28 25 30 29 32 24 -94 0
28 25 30 29 32 24 -95 0
45 50 42 52 44 53 -115 0
45 50 42 52 44 53 -116 0
45 2 42 1 44 3 -47 0
45 2 42 1 44 3 -43 0
45 36 42 40 44 41 -110 0
45 36 42 40 44 41 -111 0
45 18 42 21 44 23 -90 0
45 18 42 21 44 23 -89 0
45 13 42 16 44 17 -78 0
45 13 42 16 44 17 -79 0
45 8 42 6 44 7 -66 0
45 8 42 6 44 7 -65 0
45 33 42 30 44 32 -105 0
45 33 42 30 44 32 -106 0
45 25 42 29 44 24 -99 0
45 25 42 29 44 24 -98 0
50 2 52 1 53 3 -49 0
50 2 52 1 53 3 -48 0
50 36 52 40 53 41 -112 0
50 36 52 40 53 41 -113 0
50 18 52 21 53 23 -92 0
50 18 52 21 53 23 -91 0
50 13 52 16 53 17 -81 0
50 13 52 16 53 17 -80 0
50 8 52 6 53 7 -67 0
50 8 52 6 53 7 -68 0
50 33 52 30 53 32 -108 0
50 33 52 30 53 32 -107 0
50 25 52 29 53 24 -100 0
50 25 52 29 53 24 -101 0
2 36 1 40 3 41 -37 0
2 36 1 40 3 41 -39 0
2 18 1 21 3 23 -19 0
2 18 1 21 3 23 -22 0
2 13 1 16 3 17 -14 0
2 13 1 16 3 17 -12 0
2 8 1 6 3 7 -9 0
2 8 1 6 3 7 -10 0
2 33 1 30 3 32 -31 0
2 33 1 30 3 32 -34 0
2 25 1 29 3 24 -27 0
2 25 1 29 3 24 -26 0
36 18 40 21 41 23 -87 0
36 18 40 21 41 23 -88 0
36 13 40 16 41 17 -77 0
36 13 40 16 41 17 -76 0
36 8 40 6 41 7 -64 0
36 8 40 6 41 7 -63 0
36 33 40 30 41 32 -104 0
36 33 40 30 41 32 -103 0
36 25 40 29 41 24 -96 0
36 25 40 29 41 24 -97 0
18 13 21 16 23 17 -70 0
18 13 21 16 23 17 -71 0
18 8 21 6 23 7 -57 0
18 8 21 6 23 7 -58 0
18 33 21 30 23 32 -85 0
18 33 21 30 23 32 -86 0
18 25 21 29 23 24 -84 0
18 25 21 29 23 24 -83 0
13 8 16 6 17 7 -55 0
13 8 16 6 17 7 -56 0
13 33 16 30 17 32 -75 0
13 33 16 30 17 32 -74 0
13 25 16 29 17 24 -72 0
13 25 16 29 17 24 -73 0
8 33 6 30 7 32 -61 0
8 33 6 30 7 32 -62 0
8 25 6 29 7 24 -59 0
8 25 6 29 7 24 -60 0
33 25 30 29 32 24 -94 0
33 25 30 29 32 24 -95 0
46 51 45 50 42 52 44 -115 0
46 51 45 50 42 52 44 -116 0
46 51 45 50 42 52 53 -115 0
46 51 45 50 42 52 53 -116 0
46 51 45 50 42 44 53 -115 0
46 51 45 50 42 44 53 -116 0
46 51 45 50 52 44 53 -115 0
46 51 45 50 52 44 53 -116 0
46 51 45 42 52 44 53 -115 0
46 51 45 42 52 44 53 -116 0
46 51 50 42 52 44 53 -115 0
46 51 50 42 52 44 53 -116 0
46 4 45 2 42 1 44 -47 0
46 4 45 2 42 1 44 -43 0
46 4 45 2 42 1 3 -47 0
46 4 45 2 42 1 3 -43 0
46 4 45 2 42 44 3 -47 0
46 4 45 2 42 44 3 -43 0
46 4 45 2 1 44 3 -47 0
46 4 45 2 1 44 3 -43 0
46 4 45 42 1 44 3 -47 0
46 4 45 42 1 44 3 -43 0
46 4 2 42 1 44 3 -47 0
46 4 2 42 1 44 3 -43 0
46 38 45 36 42 40 44 -110 0
46 38 45 36 42 40 44 -111 0
46 38 45 36 42 40 41 -110 0
46 38 45 36 42 40 41 -111 0
46 38 45 36 42 44 41 -110 0
46 38 45 36 42 44 41 -111 0
46 38 45 36 40 44 41 -110 0
46 38 45 36 40 44 41 -111 0
46 38 45 42 40 44 41 -110 0
46 38 45 42 40 44 41 -111 0
46 38 36 42 40 44 41 -110 0
46 38 36 42 40 44 41 -111 0
46 20 45 18 42 21 44 -90 0
46 20 45 18 42 21 44 -89 0
46 20 45 18 42 21 23 -90 0
46 20 45 18 42 21 23 -89 0
46 20 45 18 42 44 23 -90 0
46 20 45 18 42 44 23 -89 0
46 20 45 18 21 44 23 -90 0
46 20 45 18 21 44 23 -89 0
46 20 45 42 21 44 23 -90 0
46 20 45 42 21 44 23 -89 0
46 20 18 42 21 44 23 -90 0
46 20 18 42 21 44 23 -89 0
46 15 45 13 42 16 44 -78 0
46 15 45 13 42 16 44 -79 0
46 15 45 13 42 16 17 -78 0
46 15 45 13 42 16 17 -79 0
46 15 45 13 42 44 17 -78 0
46 15 45 13 42 44 17 -79 0
46 15 45 13 16 44 17 -78 0
46 15 45 13 16 44 17 -79 0
46 15 45 42 16 44 17 -78 0
46 15 45 42 16 44 17 -79 0
46 15 13 42 16 44 17 -78 0
46 15 13 42 16 44 17 -79 0
46 11 45 8 42 6 44 -66 0
46 11 45 8 42 6 44 -65 0
46 11 45 8 42 6 7 -66 0
46 11 45 8 42 6 7 -65 0
46 11 45 8 42 44 7 -66 0
46 11 45 8 42 44 7 -65 0
46 11 45 8 6 44 7 -66 0
46 11 45 8 6 44 7 -65 0
46 11 45 42 6 44 7 -66 0
46 11 45 42 6 44 7 -65 0
46 11 8 42 6 44 7 -66 0
46 11 8 42 6 44 7 -65 0
46 35 45 33 42 30 44 -105 0
46 35 45 33 42 30 44 -106 0
46 35 45 33 42 30 32 -105 0
46 35 45 33 42 30 32 -106 0
46 35 45 33 42 44 32 -105 0
46 35 45 33 42 44 32 -106 0
46 35 45 33 30 44 32 -105 0
46 35 45 33 30 44 32 -106 0
46 35 45 42 30 44 32 -105 0
46 35 45 42 30 44 32 -106 0
46 35 33 42 30 44 32 -105 0
46 35 33 42 30 44 32 -106 0
46 28 45 25 42 29 44 -99 0
46 28 45 25 42 29 44 -98 0
46 28 45 25 42 29 24 -99 0
46 28 45 25 42 29 24 -98 0
46 28 45 25 42 44 24 -99 0
46 28 45 25 42 44 24 -98 0
46 28 45 25 29 44 24 -99 0
46 28 45 25 29 44 24 -98 0
46 28 45 42 29 44 24 -99 0
46 28 45 42 29 44 24 -98 0
46 28 25 42 29 44 24 -99 0
46 28 25 42 29 44 24 -98 0
46 45 50 42 52 44 53 -115 0
46 45 50 42 52 44 53 -116 0
46 45 2 42 1 44 3 -47 0
46 45 2 42 1 44 3 -43 0
46 45 36 42 40 44 41 -110 0
46 45 36 42 40 44 41 -111 0
46 45 18 42 21 44 23 -90 0
46 45 18 42 21 44 23 -89 0
46 45 13 42 16 44 17 -78 0
46 45 13 42 16 44 17 -79 0
46 45 8 42 6 44 7 -66 0
46 45 8 42 6 44 7 -65 0
46 45 33 42 30 44 32 -105 0
46 45 33 42 30 44 32 -106 0
46 45 25 42 29 44 24 -99 0
46 45 25 42 29 44 24 -98 0
51 4 50 2 52 1 53 -49 0
51 4 50 2 52 1 53 -48 0
51 4 50 2 52 1 3 -49 0
51 4 50 2 52 1 3 -48 0
51 4 50 2 52 53 3 -49 0
51 4 50 2 52 53 3 -48 0
51 4 50 2 1 53 3 -49 0
51 4 50 2 1 53 3 -48 0
51 4 50 52 1 53 3 -49 0
51 4 50 52 1 53 3 -48 0
51 4 2 52 1 53 3 -49 0
51 4 2 52 1 53 3 -48 0
51 38 50 36 52 40 53 -112 0
51 38 50 36 52 40 53 -113 0
51 38 50 36 52 40 41 -112 0
51 38 50 36 52 40 41 -113 0
51 38 50 36 52 53 41 -112 0
51 38 50 36 52 53 41 -113 0
51 38 50 36 40 53 41 -112 0
51 38 50 36 40 53 41 -113 0
51 38 50 52 40 53 41 -112 0
51 38 50 52 40 53 41 -113 0
51 38 36 52 40 53 41 -112 0
51 38 36 52 40 53 41 -113 0
51 20 50 18 52 21 53 -92 0
51 20 50 18 52 21 53 -91 0
51 20 50 18 52 21 23 -92 0
51 20 50 18 52 21 23 -91 0
51 20 50 18 52 53 23 -92 0
51 20 50 18 52 53 23 -91 0
51 20 50 18 21 53 23 -92 0
51 20 50 18 21 53 23 -91 0
51 20 50 52 21 53 23 -92 0
51 20 50 52 21 53 23 -91 0
51 20 18 52 21 53 23 -92 0
51 20 18 52 21 53 23 -91 0
51 15 50 13 52 16 53 -81 0
51 15 50 13 52 16 53 -80 0
51 15 50 13 52 16 17 -81 0
51 15 50 13 52 16 17 -80 0
51 15 50 13 52 53 17 -81 0
51 15 50 13 52 53 17 -80 0
51 15 50 13 16 53 17 -81 0
51 15 50 13 16 53 17 -80 0
51 15 50 52 16 53 17 -81 0
51 15 50 52 16 53 17 -80 0
51 15 13 52 16 53 17 -81 0
51 15 13 52 16 53 17 -80 0
51 11 50 8 52 6 53 -67 0
51 11 50 8 52 6 53 -68 0
51 11 50 8 52 6 7 -67 0
51 11 50 8 52 6 7 -68 0
51 11 50 8 52 53 7 -67 0
51 11 50 8 52 53 7 -68 0
51 11 50 8 6 53 7 -67 0
51 11 50 8 6 53 7 -68 0
51 11 50 52 6 53 7 -67 0
51 11 50 52 6 53 7 -68 0
51 11 8 52 6 53 7 -67 0
51 11 8 52 6 53 7 -68 0
51 35 50 33 52 30 53 -108 0
51 35 50 33 52 30 53 -107 0
51 35 50 33 52 30 32 -108 0
51 35 50 33 52 30 32 -107 0
51 35 50 33 52 53 32 -108 0
51 35 50 33 52 53 32 -107 0
51 35 50 33 30 53 32 -108 0
51 35 50 33 30 53 32 -107 0
51 35 50 52 30 53 32 -108 0
51 35 50 52 30 53 32 -107 0
51 35 33 52 30 53 32 -108 0
51 35 33 52 30 53 32 -107 0
51 28 50 25 52 29 53 -100 0
51 28 50 25 52 29 53 -101 0
51 28 50 25 52 29 24 -100 0
51 28 50 25 52 29 24 -101 0
51 28 50 25 52 53 24 -100 0
51 28 50 25 52 53 24 -101 0
51 28 50 25 29 53 24 -100 0
51 28 50 25 29 53 24 -101 0
51 28 50 52 29 53 24 -100 0
51 28 50 52 29 53 24 -101 0
51 28 25 52 29 53 24 -100 0
51 28 25 52 29 53 24 -101 0
51 45 50 42 52 44 53 -115 0
51 45 50 42 52 44 53 -116 0
51 50 2 52 1 53 3 -49 0
51 50 2 52 1 53 3 -48 0
51 50 36 52 40 53 41 -112 0
51 50 36 52 40 53 41 -113 0
51 50 18 52 21 53 23 -92 0
51 50 18 52 21 53 23 -91 0
51 50 13 52 16 53 17 -81 0
51 50 13 52 16 53 17 -80 0
51 50 8 52 6 53 7 -67 0
51 50 8 52 6 53 7 -68 0
51 50 33 52 30 53 32 -108 0
51 50 33 52 30 53 32 -107 0
51 50 25 52 29 53 24 -100 0
51 50 25 52 29 53 24 -101 0
4 38 2 36 1 40 3 -37 0
4 38 2 36 1 40 3 -39 0
4 38 2 36 1 40 41 -37 0
4 38 2 36 1 40 41 -39 0
4 38 2 36 1 3 41 -37 0
4 38 2 36 1 3 41 -39 0
4 38 2 36 40 3 41 -37 0
4 38 2 36 40 3 41 -39 0
4 38 2 1 40 3 41 -37 0
4 38 2 1 40 3 41 -39 0
4 38 36 1 40 3 41 -37 0
4 38 36 1 40 3 41 -39 0
4 20 2 18 1 21 3 -19 0
4 20 2 18 1 21 3 -22 0
4 20 2 18 1 21 23 -19 0
4 20 2 18 1 21 23 -22 0
4 20 2 18 1 3 23 -19 0
4 20 2 18 1 3 23 -22 0
4 20 2 18 21 3 23 -19 0
4 20 2 18 21 3 23 -22 0
4 20 2 1 21 3 23 -19 0
4 20 2 1 21 3 23 -22 0
4 20 18 1 21 3 23 -19 0
4 20 18 1 21 3 23 -22 0
4 15 2 13 1 16 3 -14 0
4 15 2 13 1 16 3 -12 0
4 15 2 13 1 16 17 -14 0
4 15 2 13 1 16 17 -12 0
4 15 2 13 1 3 17 -14 0
4 15 2 13 1 3 17 -12 0
4 15 2 13 16 3 17 -14 0
4 15 2 13 16 3 17 -12 0
4 15 2 1 16 3 17 -14 0
4 15 2 1 16 3 17 -12 0
4 15 13 1 16 3 17 -14 0
4 15 13 1 16 3 17 -12 0
4 11 2 8 1 6 3 -9 0
4 11 2 8 1 6 3 -10 0
4 11 2 8 1 6 7 -9 0
4 11 2 8 1 6 7 -10 0
4 11 2 8 1 3 7 -9 0
4 11 2 8 1 3 7 -10 0
4 11 2 8 6 3 7 -9 0
4 11 2 8 6 3 7 -10 0
4 11 2 1 6 3 7 -9 0
4 11 2 1 6 3 7 -10 0
4 11 8 1 6 3 7 -9 0
4 11 8 1 6 3 7 -10 0
4 35 2 33 1 30 3 -31 0
4 35 2 33 1 30 3 -34 0
4 35 2 33 1 30 32 -31 0
4 35 2 33 1 30 32 -34 0
4 35 2 33 1 3 32 -31 0
4 35 2 33 1 3 32 -34 0
4 35 2 33 30 3 32 -31 0
4 35 2 33 30 3 32 -34 0
4 35 2 1 30 3 32 -31 0
4 35 2 1 30 3 32 -34 0
4 35 33 1 30 3 32 -31 0
4 35 33 1 30 3 32 -34 0
4 28 2 25 1 29 3 -27 0
4 28 2 25 1 29 3 -26 0
4 28 2 25 1 29 24 -27 0
4 28 2 25 1 29 24 -26 0
4 28 2 25 1 3 24 -27 0
4 28 2 25 1 3 24 -26 0
4 28 2 25 29 3 24 -27 0
4 28 2 25 29 3 24 -26 0
4 28 2 1 29 3 24 -27 0
4 28 2 1 29 3 24 -26 0
4 28 25 1 29 3 24 -27 0
4 28 25 1 29 3 24 -26 0
4 45 2 42 1 44 3 -47 0
4 45 2 42 1 44 3 -43 0
4 50 2 52 1 53 3 -49 0
4 50 2 52 1 53 3 -48 0
4 2 36 1 40 3 41 -37 0
4 2 36 1 40 3 41 -39 0
4 2 18 1 21 3 23 -19 0
4 2 18 1 21 3 23 -22 0
4 2 13 1 16 3 17 -14 0
4 2 13 1 16 3 17 -12 0
4 2 8 1 6 3 7 -9 0
4 2 8 1 6 3 7 -10 0
4 2 33 1 30 3 32 -31 0
4 2 33 1 30 3 32 -34 0
4 2 25 1 29 3 24 -27 0
4 2 25 1 29 3 24 -26 0
38 20 36 18 40 21 41 -87 0
38 20 36 18 40 21 41 -88 0
38 20 36 18 40 21 23 -87 0
38 20 36 18 40 21 23 -88 0
38 20 36 18 40 41 23 -87 0
38 20 36 18 40 41 23 -88 0
38 20 36 18 21 41 23 -87 0
38 20 36 18 21 41 23 -88 0
38 20 36 40 21 41 23 -87 0
38 20 36 40 21 41 23 -88 0
38 20 18 40 21 41 23 -87 0
38 20 18 40 21 41 23 -88 0
38 15 36 13 40 16 41 -77 0
38 15 36 13 40 16 41 -76 0
38 15 36 13 40 16 17 -77 0
38 15 36 13 40 16 17 -76 0
38 15 36 13 40 41 17 -77 0
38 15 36 13 40 41 17 -76 0
38 15 36 13 16 41 17 -77 0
38 15 36 13 16 41 17 -76 0
38 15 36 40 16 41 17 -77 0
38 15 36 40 16 41 17 -76 0
38 15 13 40 16 41 17 -77 0
38 15 13 40 16 41 17 -76 0
38 11 36 8 40 6 41 -64 0
38 11 36 8 40 6 41 -63 0
38 11 36 8 40 6 7 -64 0
38 11 36 8 40 6 7 -63 0
38 11 36 8 40 41 7 -64 0
38 11 36 8 40 41 7 -63 0
38 11 36 8 6 41 7 -64 0
38 11 36 8 6 41 7 -63 0
38 11 36 40 6 41 7 -64 0
38 11 36 40 6 41 7 -63 0
38 11 8 40 6 41 7 -64 0
38 11 8 40 6 41 7 -63 0
38 35 36 33 40 30 41 -104 0
38 35 36 33 40 30 41 -103 0
38 35 36 33 40 30 32 -104 0
38 35 36 33 40 30 32 -103 0
38 35 36 33 40 41 32 -104 0
38 35 36 33 40 41 32 -103 0
38 35 36 33 30 41 32 -104 0
38 35 36 33 30 41 32 -103 0
38 35 36 40 30 41 32 -104 0
38 35 36 40 30 41 32 -103 0
38 35 33 40 30 41 32 -104 0
38 35 33 40 30 41 32 -103 0
38 28 36 25 40 29 41 -96 0
38 28 36 25 40 29 41 -97 0
38 28 36 25 40 29 24 -96 0
38 28 36 25 40 29 24 -97 0
38 28 36 25 40 41 24 -96 0
38 28 36 25 40 41 24 -97 0
38 28 36 25 29 41 24 -96 0
38 28 36 25 29 41 24 -97 0
38 28 36 40 29 41 24 -96 0
38 28 36 40 29 41 24 -97 0
38 28 25 40 29 41 24 -96 0
38 28 25 40 29 41 24 -97 0
38 45 36 42 40 44 41 -110 0
38 45 36 42 40 44 41 -111 0
38 50 36 52 40 53 41 -112 0
38 50 36 52 40 53 41 -113 0
38 2 36 1 40 3 41 -37 0
38 2 36 1 40 3 41 -39 0
38 36 18 40 21 41 23 -87 0
38 36 18 40 21 41 23 -88 0
38 36 13 40 16 41 17 -77 0
38 36 13 40 16 41 17 -76 0
38 36 8 40 6 41 7 -64 0
38 36 8 40 6 41 7 -63 0
38 36 33 40 30 41 32 -104 0
38 36 33 40 30 41 32 -103 0
38 36 25 40 29 41 24 -96 0
38 36 25 40 29 41 24 -97 0
20 15 18 13 21 16 23 -70 0
20 15 18 13 21 16 23 -71 0
20 15 18 13 21 16 17 -70 0
20 15 18 13 21 16 17 -71 0
20 15 18 13 21 23 17 -70 0
20 15 18 13 21 23 17 -71 0
20 15 18 13 16 23 17 -70 0
20 15 18 13 16 23 17 -71 0
20 15 18 21 16 23 17 -70 0
20 15 18 21 16 23 17 -71 0
20 15 13 21 16 23 17 -70 0
20 15 13 21 16 23 17 -71 0
20 11 18 8 21 6 23 -57 0
20 11 18 8 21 6 23 -58 0
20 11 18 8 21 6 7 -57 0
20 11 18 8 21 6 7 -58 0
20 11 18 8 21 23 7 -57 0
20 11 18 8 21 23 7 -58 0
20 11 18 8 6 23 7 -57 0
20 11 18 8 6 23 7 -58 0
20 11 18 21 6 23 7 -57 0
20 11 18 21 6 23 7 -58 0
20 11 8 21 6 23 7 -57 0
20 11 8 21 6 23 7 -58 0
20 35 18 33 21 30 23 -85 0
20 35 18 33 21 30 23 -86 0
20 35 18 33 21 30 32 -85 0
20 35 18 33 21 30 32 -86 0
20 35 18 33 21 23 32 -85 0
20 35 18 33 21 23 32 -86 0
20 35 18 33 30 23 32 -85 0
20 35 18 33 30 23 32 -86 0
20 35 18 21 30 23 32 -85 0
20 35 18 21 30 23 32 -86 0
20 35 33 21 30 23 32 -85 0
20 35 33 21 30 23 32 -86 0
20 28 18 25 21 29 23 -84 0
20 28 18 25 21 29 23 -83 0
20 28 18 25 21 29 24 -84 0
20 28 18 25 21 29 24 -83 0
20 28 18 25 21 23 24 -84 0
20 28 18 25 21 23 24 -83 0
20 28 18 25 29 23 24 -84 0
20 28 18 25 29 23 24 -83 0
20 28 18 21 29 23 24 -84 0
20 28 18 21 29 23 24 -83 0
20 28 25 21 29 23 24 -84 0
20 28 25 21 29 23 24 -83 0
20 45 18 42 21 44 23 -90 0
20 45 18 42 21 44 23 -89 0
20 50 18 52 21 53 23 -92 0
20 50 18 52 21 53 23 -91 0
20 2 18 1 21 3 23 -19 0
20 2 18 1 21 3 23 -22 0
20 36 18 40 21 41 23 -87 0
20 36 18 40 21 41 23 -88 0
20 18 13 21 16 23 17 -70 0
20 18 13 21 16 23 17 -71 0
20 18 8 21 6 23 7 -57 0
20 18 8 21 6 23 7 -58 0
20 18 33 21 30 23 32 -85 0
20 18 33 21 30 23 32 -86 0
20 18 25 21 29 23 24 -84 0
20 18 25 21 29 23 24 -83 0
15 11 13 8 16 6 17 -55 0
15 11 13 8 16 6 17 -56 0
15 11 13 8 16 6 7 -55 0
15 11 13 8 16 6 7 -56 0
15 11 13 8 16 17 7 -55 0
15 11 13 8 16 17 7 -56 0
15 11 13 8 6 17 7 -55 0
15 11 13 8 6 17 7 -56 0
15 11 13 16 6 17 7 -55 0
15 11 13 16 6 17 7 -56 0
15 11 8 16 6 17 7 -55 0
15 11 8 16 6 17 7 -56 0
15 35 13 33 16 30 17 -75 0
15 35 13 33 16 30 17 -74 0
15 35 13 33 16 30 32 -75 0
15 35 13 33 16 30 32 -74 0
15 35 13 33 16 17 32 -75 0
15 35 13 33 16 17 32 -74 0
15 35 13 33 30 17 32 -75 0
15 35 13 33 30 17 32 -74 0
15 35 13 16 30 17 32 -75 0
15 35 13 16 30 17 32 -74 0
15 35 33 16 30 17 32 -75 0
15 35 33 16 30 17 32 -74 0
15 28 13 25 16 29 17 -72 0
15 28 13 25 16 29 17 -73 0
15 28 13 25 16 29 24 -72 0
15 28 13 25 16 29 24 -73 0
15 28 13 25 16 17 24 -72 0
15 28 13 25 16 17 24 -73 0
15 28 13 25 29 17 24 -72 0
15 28 13 25 29 17 24 -73 0
15 28 13 16 29 17 24 -72 0
15 28 13 16 29 17 24 -73 0
15 28 25 16 29 17 24 -72 0
15 28 25 16 29 17 24 -73 0
15 45 13 42 16 44 17 -78 0
15 45 13 42 16 44 17 -79 0
15 50 13 52 16 53 17 -81 0
15 50 13 52 16 53 17 -80 0
15 2 13 1 16 3 17 -14 0
15 2 13 1 16 3 17 -12 0
15 36 13 40 16 41 17 -77 0
15 36 13 40 16 41 17 -76 0
15 18 13 21 16 23 17 -70 0
15 18 13 21 16 23 17 -71 0
15 13 8 16 6 17 7 -55 0
15 13 8 16 6 17 7 -56 0
15 13 33 16 30 17 32 -75 0
15 13 33 16 30 17 32 -74 0
15 13 25 16 29 17 24 -72 0
15 13 25 16 29 17 24 -73 0
11 35 8 33 6 30 7 -61 0
11 35 8 33 6 30 7 -62 0
11 35 8 33 6 30 32 -61 0
11 35 8 33 6 30 32 -62 0
11 35 8 33 6 7 32 -61 0
11 35 8 33 6 7 32 -62 0
11 35 8 33 30 7 32 -61 0
11 35 8 33 30 7 32 -62 0
11 35 8 6 30 7 32 -61 0
11 35 8 6 30 7 32 -62 0
11 35 33 6 30 7 32 -61 0
11 35 33 6 30 7 32 -62 0
11 28 8 25 6 29 7 -59 0
11 28 8 25 6 29 7 -60 0
11 28 8 25 6 29 24 -59 0
11 28 8 25 6 29 24 -60 0
11 28 8 25 6 7 24 -59 0
11 28 8 25 6 7 24 -60 0
11 28 8 25 29 7 24 -59 0
11 28 8 25 29 7 24 -60 0
11 28 8 6 29 7 24 -59 0
11 28 8 6 29 7 24 -60 0
11 28 25 6 29 7 24 -59 0
11 28 25 6 29 7 24 -60 0
11 45 8 42 6 44 7 -66 0
11 45 8 42 6 44 7 -65 0
11 50 8 52 6 53 7 -67 0
11 50 8 52 6 53 7 -68 0
11 2 8 1 6 3 7 -9 0
11 2 8 1 6 3 7 -10 0
11 36 8 40 6 41 7 -64 0
11 36 8 40 6 41 7 -63 0
11 18 8 21 6 23 7 -57 0
11 18 8 21 6 23 7 -58 0
11 13 8 16 6 17 7 -55 0
11 13 8 16 6 17 7 -56 0
11 8 33 6 30 7 32 -61 0
11 8 33 6 30 7 32 -62 0
11 8 25 6 29 7 24 -59 0
11 8 25 6 29 7 24 -60 0
35 28 33 25 30 29 32 -94 0
35 28 33 25 30 29 32 -95 0
35 28 33 25 30 29 24 -94 0
35 28 33 25 30 29 24 -95 0
35 28 33 25 30 32 24 -94 0
35 28 33 25 30 32 24 -95 0
35 28 33 25 29 32 24 -94 0
35 28 33 25 29 32 24 -95 0
35 28 33 30 29 32 24 -94 0
35 28 33 30 29 32 24 -95 0
35 28 25 30 29 32 24 -94 0
35 28 25 30 29 32 24 -95 0
35 45 33 42 30 44 32 -105 0
35 45 33 42 30 44 32 -106 0
35 50 33 52 30 53 32 -108 0
35 50 33 52 30 53 32 -107 0
35 2 33 1 30 3 32 -31 0
35 2 33 1 30 3 32 -34 0
35 36 33 40 30 41 32 -104 0
35 36 33 40 30 41 32 -103 0
35 18 33 21 30 23 32 -85 0
35 18 33 21 30 23 32 -86 0
35 13 33 16 30 17 32 -75 0
35 13 33 16 30 17 32 -74 0
35 8 33 6 30 7 32 -61 0
35 8 33 6 30 7 32 -62 0
35 33 25 30 29 32 24 -94 0
35 33 25 30 29 32 24 -95 0
28 45 25 42 29 44 24 -99 0
28 45 25 42 29 44 24 -98 0
28 50 25 52 29 53 24 -100 0
28 50 25 52 29 53 24 -101 0
28 2 25 1 29 3 24 -27 0
28 2 25 1 29 3 24 -26 0
28 36 25 40 29 41 24 -96 0
28 36 25 40 29 41 24 -97 0
28 18 25 21 29 23 24 -84 0
28 18 25 21 29 23 24 -83 0
28 13 25 16 29 17 24 -72 0
28 13 25 16 29 17 24 -73 0
28 8 25 6 29 7 24 -59 0
28 8 25 6 29 7 24 -60 0
28 33 25 30 29 32 24 -94 0
28 33 25 30 29 32 24 -95 0
114 115 47 110 90 78 66 105 99 0
116 117 49 112 92 81 67 108 100 0
43 48 5 37 19 14 9 31 27 0
111 113 39 109 87 77 64 104 96 0
89 91 22 88 82 70 57 85 84 0
79 80 12 76 71 69 55 75 72 0
65 68 10 63 58 56 54 61 59 0
106 107 34 103 86 74 62 102 94 0
98 101 26 97 83 73 60 95 93 0
46 51 45 50 42 52 44 53 -115 0
46 51 45 50 42 52 44 53 -116 0
46 4 45 2 42 1 44 3 -47 0
46 4 45 2 42 1 44 3 -43 0
46 38 45 36 42 40 44 41 -110 0
46 38 45 36 42 40 44 41 -111 0
46 20 45 18 42 21 44 23 -90 0
46 20 45 18 42 21 44 23 -89 0
46 15 45 13 42 16 44 17 -78 0
46 15 45 13 42 16 44 17 -79 0
46 11 45 8 42 6 44 7 -66 0
46 11 45 8 42 6 44 7 -65 0
46 35 45 33 42 30 44 32 -105 0
46 35 45 33 42 30 44 32 -106 0
46 28 45 25 42 29 44 24 -99 0
46 28 45 25 42 29 44 24 -98 0
51 4 50 2 52 1 53 3 -49 0
51 4 50 2 52 1 53 3 -48 0
51 38 50 36 52 40 53 41 -112 0
51 38 50 36 52 40 53 41 -113 0
51 20 50 18 52 21 53 23 -92 0
51 20 50 18 52 21 53 23 -91 0
51 15 50 13 52 16 53 17 -81 0
51 15 50 13 52 16 53 17 -80 0
51 11 50 8 52 6 53 7 -67 0
51 11 50 8 52 6 53 7 -68 0
51 35 50 33 52 30 53 32 -108 0
51 35 50 33 52 30 53 32 -107 0
51 28 50 25 52 29 53 24 -100 0
51 28 50 25 52 29 53 24 -101 0
4 38 2 36 1 40 3 41 -37 0
4 38 2 36 1 40 3 41 -39 0
4 20 2 18 1 21 3 23 -19 0
4 20 2 18 1 21 3 23 -22 0
4 15 2 13 1 16 3 17 -14 0
4 15 2 13 1 16 3 17 -12 0
4 11 2 8 1 6 3 7 -9 0
4 11 2 8 1 6 3 7 -10 0
4 35 2 33 1 30 3 32 -31 0
4 35 2 33 1 30 3 32 -34 0
4 28 2 25 1 29 3 24 -27 0
4 28 2 25 1 29 3 24 -26 0
38 20 36 18 40 21 41 23 -87 0
38 20 36 18 40 21 41 23 -88 0
38 15 36 13 40 16 41 17 -77 0
38 15 36 13 40 16 41 17 -76 0
38 11 36 8 40 6 41 7 -64 0
38 11 36 8 40 6 41 7 -63 0
38 35 36 33 40 30 41 32 -104 0
38 35 36 33 40 30 41 32 -103 0
38 28 36 25 40 29 41 24 -96 0
38 28 36 25 40 29 41 24 -97 0
20 15 18 13 21 16 23 17 -70 0
20 15 18 13 21 16 23 17 -71 0
20 11 18 8 21 6 23 7 -57 0
20 11 18 8 21 6 23 7 -58 0
20 35 18 33 21 30 23 32 -85 0
20 35 18 33 21 30 23 32 -86 0
20 28 18 25 21 29 23 24 -84 0
20 28 18 25 21 29 23 24 -83 0
15 11 13 8 16 6 17 7 -55 0
15 11 13 8 16 6 17 7 -56 0
15 35 13 33 16 30 17 32 -75 0
15 35 13 33 16 30 17 32 -74 0
15 28 13 25 16 29 17 24 -72 0
15 28 13 25 16 29 17 24 -73 0
11 35 8 33 6 30 7 32 -61 0
11 35 8 33 6 30 7 32 -62 0
11 28 8 25 6 29 7 24 -59 0
11 28 8 25 6 29 7 24 -60 0
35 28 33 25 30 29 32 24 -94 0
35 28 33 25 30 29 32 24 -95 0
