c U3(8) E1(8,8) U2(8) U4(8) E2(8,8) U1(8) U4(5) U3(5) U2(5) E2(8,5) E1(8,5) E1(5,8) E2(5,8) U1(5) U2(3) U1(3) E1(8,3) E2(8,3) U3(3) E2(3,8) U4(3) E1(3,8) U1(0) E1(8,0) E2(8,0) U2(0) E1(0,8) U3(0) U4(0) E2(0,8) E1(1,8) E1(8,1) U2(1) E2(8,1) U1(1) U4(1) E2(1,8) U3(1) U3(6) U2(6) U4(6) U1(6) E1(8,6) E1(6,8) E2(8,6) E2(6,8) E2(9,8) E1(9,8) U1(9) E2(8,9) U2(9) U3(9) E1(8,9) U4(9) U1(2) U3(2) U2(2) U4(2) E2(8,2) E1(2,8) E2(2,8) E1(8,2) U4(4) E2(4,8) U3(4) E1(8,4) E2(8,4) U1(4) E1(4,8) U2(4) E2(7,8) E1(7,8) U4(7) U1(7) E2(8,7) E1(8,7) U3(7) U2(7) E1(5,5) E2(5,5) E1(3,5) E2(5,3) E2(3,5) E1(5,3) E1(5,0) E2(0,5) E2(5,0) E1(0,5) E1(5,1) E2(5,1) E1(1,5) E2(1,5) E2(6,5) E1(6,5) E2(5,6) E1(5,6) E1(9,5) E1(5,9) E2(9,5) E2(5,9) E1(2,5) E1(5,2) E2(5,2) E2(2,5) E1(5,4) E2(5,4) E2(4,5) E1(4,5) E1(5,7) E2(5,7) E2(7,5) E1(7,5) E2(3,3) E1(3,3) E2(0,3) E2(3,0) E1(3,0) E1(0,3) E1(3,1) E2(3,1) E2(1,3) E1(1,3) E2(3,6) E1(6,3) E2(6,3) E1(3,6) E2(3,9) E1(9,3) E2(9,3) E1(3,9) E2(2,3) E1(3,2) E2(3,2) E1(2,3) E2(3,4) E1(4,3) E2(4,3) E1(3,4) E1(7,3) E1(3,7) E2(7,3) E2(3,7) E1(0,0) E2(0,0) E2(1,0) E1(1,0) E2(0,1) E1(0,1) E2(0,6) E1(6,0) E2(6,0) E1(0,6) E2(9,0) E1(0,9) E2(0,9) E1(9,0) E1(2,0) E2(0,2) E2(2,0) E1(0,2) E2(0,4) E2(4,0) E1(4,0) E1(0,4) E1(0,7) E2(7,0) E1(7,0) E2(0,7) E2(1,1) E1(1,1) E1(1,6) E2(1,6) E1(6,1) E2(6,1) E1(1,9) E2(1,9) E2(9,1) E1(9,1) E1(1,2) E2(2,1) E1(2,1) E2(1,2) E1(4,1) E1(1,4) E2(1,4) E2(4,1) E1(7,1) E1(1,7) E2(1,7) E2(7,1) E2(6,6) E1(6,6) E2(6,9) E1(9,6) E1(6,9) E2(9,6) E2(2,6) E1(2,6) E2(6,2) E1(6,2) E1(6,4) E2(6,4) E2(4,6) E1(4,6) E1(6,7) E2(6,7) E2(7,6) E1(7,6) E2(9,9) E1(9,9) E2(2,9) E1(2,9) E2(9,2) E1(9,2) E1(4,9) E1(9,4) E2(4,9) E2(9,4) E1(9,7) E2(9,7) E1(7,9) E2(7,9) E2(2,2) E1(2,2) E2(2,4) E1(4,2) E1(2,4) E2(4,2) E1(2,7) E1(7,2) E2(2,7) E2(7,2) E1(4,4) E2(4,4) E2(4,7) E2(7,4) E1(7,4) E1(4,7) E1(7,7) E2(7,7)
c 1 2 3 4 5 6 7 8 9 10 11 12 13 14 15 16 17 18 19 20 21 22 23 24 25 26 27 28 29 30 31 32 33 34 35 36 37 38 39 40 41 42 43 44 45 46 47 48 49 50 51 52 53 54 55 56 57 58 59 60 61 62 63 64 65 66 67 68 69 70 71 72 73 74 75 76 77 78 79 80 81 82 83 84 85 86 87 88 89 90 91 92 93 94 95 96 97 98 99 100 101 102 103 104 105 106 107 108 109 110 111 112 113 114 115 116 117 118 119 120 121 122 123 124 125 126 127 128 129 130 131 132 133 134 135 136 137 138 139 140 141 142 143 144 145 146 147 148 149 150 151 152 153 154 155 156 157 158 159 160 161 162 163 164 165 166 167 168 169 170 171 172 173 174 175 176 177 178 179 180 181 182 183 184 185 186 187 188 189 190 191 192 193 194 195 196 197 198 199 200 201 202 203 204 205 206 207 208 209 210 211 212 213 214 215 216 217 218 219 220 221 222 223 224 225 226 227 228 229 230 231 232 233 234 235 236 237 238 239 240
p cnf 240 6800
-143 0
-170 0
-224 0
-114 0
-233 0
-79 0
-192 0
-239 0
-2 0
-210 0
-144 0
-169 0
-223 0
-113 0
-234 0
-80 0
-191 0
-240 0
-5 0
-209 0
143 -144 0
148 -145 0
160 -159 0
118 -116 0
164 -162 0
88 -87 0
152 -151 0
165 -166 0
27 -25 0
154 -153 0
146 -147 0
170 -169 0
179 -180 0
122 -120 0
184 -186 0
91 -90 0
171 -174 0
188 -190 0
31 -34 0
175 -177 0
157 -158 0
181 -182 0
224 -223 0
134 -133 0
227 -228 0
101 -103 0
198 -199 0
229 -232 0
60 -59 0
212 -213 0
117 -115 0
119 -121 0
132 -131 0
114 -113 0
138 -137 0
81 -82 0
126 -125 0
140 -141 0
22 -18 0
130 -129 0
163 -161 0
183 -185 0
226 -225 0
136 -135 0
233 -234 0
108 -106 0
204 -202 0
238 -236 0
69 -67 0
215 -218 0
85 -86 0
89 -92 0
102 -104 0
84 -83 0
105 -107 0
79 -80 0
96 -93 0
109 -111 0
12 -10 0
98 -99 0
150 -149 0
173 -172 0
200 -197 0
124 -123 0
201 -203 0
94 -95 0
192 -191 0
205 -207 0
44 -45 0
195 -196 0
167 -168 0
187 -189 0
230 -231 0
139 -142 0
237 -235 0
112 -110 0
208 -206 0
239 -240 0
72 -75 0
221 -220 0
24 -30 0
32 -37 0
62 -61 0
17 -20 0
66 -64 0
11 -13 0
43 -46 0
76 -71 0
2 -5 0
53 -47 0
156 -155 0
178 -176 0
214 -211 0
128 -127 0
216 -217 0
97 -100 0
194 -193 0
219 -222 0
48 -50 0
210 -209 0
144 -143 0
147 -146 0
158 -157 0
115 -117 0
161 -163 0
86 -85 0
149 -150 0
168 -167 0
30 -24 0
155 -156 0
145 -148 0
169 -170 0
182 -181 0
121 -119 0
185 -183 0
92 -89 0
172 -173 0
189 -187 0
37 -32 0
176 -178 0
159 -160 0
180 -179 0
223 -224 0
131 -132 0
225 -226 0
104 -102 0
197 -200 0
231 -230 0
61 -62 0
211 -214 0
116 -118 0
120 -122 0
133 -134 0
113 -114 0
135 -136 0
83 -84 0
123 -124 0
142 -139 0
20 -17 0
127 -128 0
162 -164 0
186 -184 0
228 -227 0
137 -138 0
234 -233 0
107 -105 0
203 -201 0
235 -237 0
64 -66 0
217 -216 0
87 -88 0
90 -91 0
103 -101 0
82 -81 0
106 -108 0
80 -79 0
95 -94 0
110 -112 0
13 -11 0
100 -97 0
151 -152 0
174 -171 0
199 -198 0
125 -126 0
202 -204 0
93 -96 0
191 -192 0
206 -208 0
46 -43 0
193 -194 0
166 -165 0
190 -188 0
232 -229 0
141 -140 0
236 -238 0
111 -109 0
207 -205 0
240 -239 0
71 -76 0
222 -219 0
25 -27 0
34 -31 0
59 -60 0
18 -22 0
67 -69 0
10 -12 0
45 -44 0
75 -72 0
5 -2 0
50 -48 0
153 -154 0
177 -175 0
213 -212 0
129 -130 0
218 -215 0
99 -98 0
196 -195 0
220 -221 0
47 -53 0
209 -210 0
-148 -146 0
-160 -157 0
-118 -117 0
-164 -163 0
-88 -85 0
-152 -150 0
-165 -167 0
-27 -24 0
-154 -156 0
-179 -181 0
-122 -119 0
-184 -183 0
-91 -89 0
-171 -173 0
-188 -187 0
-31 -32 0
-175 -178 0
-134 -132 0
-227 -226 0
-101 -102 0
-198 -200 0
-229 -230 0
-60 -62 0
-212 -214 0
-138 -136 0
-81 -84 0
-126 -124 0
-140 -139 0
-22 -17 0
-130 -128 0
-108 -105 0
-204 -201 0
-238 -237 0
-69 -66 0
-215 -216 0
-96 -94 0
-109 -112 0
-12 -11 0
-98 -97 0
-205 -208 0
-44 -43 0
-195 -194 0
-72 -76 0
-221 -219 0
-53 -48 0
-147 -145 0
-158 -159 0
-115 -116 0
-161 -162 0
-86 -87 0
-149 -151 0
-168 -166 0
-30 -25 0
-155 -153 0
-182 -180 0
-121 -120 0
-185 -186 0
-92 -90 0
-172 -174 0
-189 -190 0
-37 -34 0
-176 -177 0
-131 -133 0
-225 -228 0
-104 -103 0
-197 -199 0
-231 -232 0
-61 -59 0
-211 -213 0
-135 -137 0
-83 -82 0
-123 -125 0
-142 -141 0
-20 -18 0
-127 -129 0
-107 -106 0
-203 -202 0
-235 -236 0
-64 -67 0
-217 -218 0
-95 -93 0
-110 -111 0
-13 -10 0
-100 -99 0
-206 -207 0
-46 -45 0
-193 -196 0
-71 -75 0
-222 -220 0
-50 -47 0
-23 -26 0
-23 -28 0
-23 -29 0
-35 -33 0
-35 -38 0
-35 -36 0
-55 -57 0
-55 -56 0
-55 -58 0
-16 -15 0
-16 -19 0
-16 -21 0
-68 -70 0
-68 -65 0
-68 -63 0
-14 -9 0
-14 -8 0
-14 -7 0
-42 -40 0
-42 -39 0
-42 -41 0
-74 -78 0
-74 -77 0
-74 -73 0
-6 -3 0
-6 -1 0
-6 -4 0
-49 -51 0
-49 -52 0
-49 -54 0
-26 -28 0
-26 -29 0
-33 -38 0
-33 -36 0
-57 -56 0
-57 -58 0
-15 -19 0
-15 -21 0
-70 -65 0
-70 -63 0
-9 -8 0
-9 -7 0
-40 -39 0
-40 -41 0
-78 -77 0
-78 -73 0
-3 -1 0
-3 -4 0
-51 -52 0
-51 -54 0
-28 -29 0
-38 -36 0
-56 -58 0
-19 -21 0
-65 -63 0
-8 -7 0
-39 -41 0
-77 -73 0
-1 -4 0
-52 -54 0
23 26 28 29 0
35 33 38 36 0
55 57 56 58 0
16 15 19 21 0
68 70 65 63 0
14 9 8 7 0
42 40 39 41 0
74 78 77 73 0
6 3 1 4 0
49 51 52 54 0
23 26 28 -143 0
23 26 28 -144 0
23 26 29 -143 0
23 26 29 -144 0
23 28 29 -143 0
23 28 29 -144 0
35 33 38 -170 0
35 33 38 -169 0
35 33 36 -170 0
35 33 36 -169 0
35 38 36 -170 0
35 38 36 -169 0
55 57 56 -224 0
55 57 56 -223 0
55 57 58 -224 0
55 57 58 -223 0
55 56 58 -224 0
55 56 58 -223 0
16 15 19 -114 0
16 15 19 -113 0
16 15 21 -114 0
16 15 21 -113 0
16 19 21 -114 0
16 19 21 -113 0
68 70 65 -233 0
68 70 65 -234 0
68 70 63 -233 0
68 70 63 -234 0
68 65 63 -233 0
68 65 63 -234 0
14 9 8 -79 0
14 9 8 -80 0
14 9 7 -79 0
14 9 7 -80 0
14 8 7 -79 0
14 8 7 -80 0
42 40 39 -192 0
42 40 39 -191 0
42 40 41 -192 0
42 40 41 -191 0
42 39 41 -192 0
42 39 41 -191 0
74 78 77 -239 0
74 78 77 -240 0
74 78 73 -239 0
74 78 73 -240 0
74 77 73 -239 0
74 77 73 -240 0
6 3 1 -2 0
6 3 1 -5 0
6 3 4 -2 0
6 3 4 -5 0
6 1 4 -2 0
6 1 4 -5 0
49 51 52 -210 0
49 51 52 -209 0
49 51 54 -210 0
49 51 54 -209 0
49 52 54 -210 0
49 52 54 -209 0
26 28 29 -143 0
26 28 29 -144 0
33 38 36 -170 0
33 38 36 -169 0
57 56 58 -224 0
57 56 58 -223 0
15 19 21 -114 0
15 19 21 -113 0
70 65 63 -233 0
70 65 63 -234 0
9 8 7 -79 0
9 8 7 -80 0
40 39 41 -192 0
40 39 41 -191 0
78 77 73 -239 0
78 77 73 -240 0
3 1 4 -2 0
3 1 4 -5 0
51 52 54 -210 0
51 52 54 -209 0
23 26 28 29 -143 0
23 26 28 29 -148 0
23 26 28 29 -160 0
23 26 28 29 -118 0
23 26 28 29 -164 0
23 26 28 29 -88 0
23 26 28 29 -152 0
23 26 28 29 -165 0
23 26 28 29 -27 0
23 26 28 29 -154 0
23 26 28 29 -146 0
23 26 28 29 -157 0
23 26 28 29 -117 0
23 26 28 29 -163 0
23 26 28 29 -85 0
23 26 28 29 -150 0
23 26 28 29 -167 0
23 26 28 29 -24 0
23 26 28 29 -156 0
23 26 28 29 -144 0
23 26 28 29 -147 0
23 26 28 29 -158 0
23 26 28 29 -115 0
23 26 28 29 -161 0
23 26 28 29 -86 0
23 26 28 29 -149 0
23 26 28 29 -168 0
23 26 28 29 -30 0
23 26 28 29 -155 0
23 26 28 29 -145 0
23 26 28 29 -159 0
23 26 28 29 -116 0
23 26 28 29 -162 0
23 26 28 29 -87 0
23 26 28 29 -151 0
23 26 28 29 -166 0
23 26 28 29 -25 0
23 26 28 29 -153 0
35 33 38 36 -148 0
35 33 38 36 -146 0
35 33 38 36 -170 0
35 33 38 36 -179 0
35 33 38 36 -122 0
35 33 38 36 -184 0
35 33 38 36 -91 0
35 33 38 36 -171 0
35 33 38 36 -188 0
35 33 38 36 -31 0
35 33 38 36 -175 0
35 33 38 36 -181 0
35 33 38 36 -119 0
35 33 38 36 -183 0
35 33 38 36 -89 0
35 33 38 36 -173 0
35 33 38 36 -187 0
35 33 38 36 -32 0
35 33 38 36 -178 0
35 33 38 36 -147 0
35 33 38 36 -145 0
35 33 38 36 -169 0
35 33 38 36 -182 0
35 33 38 36 -121 0
35 33 38 36 -185 0
35 33 38 36 -92 0
35 33 38 36 -172 0
35 33 38 36 -189 0
35 33 38 36 -37 0
35 33 38 36 -176 0
35 33 38 36 -180 0
35 33 38 36 -120 0
35 33 38 36 -186 0
35 33 38 36 -90 0
35 33 38 36 -174 0
35 33 38 36 -190 0
35 33 38 36 -34 0
35 33 38 36 -177 0
55 57 56 58 -160 0
55 57 56 58 -179 0
55 57 56 58 -157 0
55 57 56 58 -181 0
55 57 56 58 -224 0
55 57 56 58 -134 0
55 57 56 58 -227 0
55 57 56 58 -101 0
55 57 56 58 -198 0
55 57 56 58 -229 0
55 57 56 58 -60 0
55 57 56 58 -212 0
55 57 56 58 -132 0
55 57 56 58 -226 0
55 57 56 58 -102 0
55 57 56 58 -200 0
55 57 56 58 -230 0
55 57 56 58 -62 0
55 57 56 58 -214 0
55 57 56 58 -158 0
55 57 56 58 -182 0
55 57 56 58 -159 0
55 57 56 58 -180 0
55 57 56 58 -223 0
55 57 56 58 -131 0
55 57 56 58 -225 0
55 57 56 58 -104 0
55 57 56 58 -197 0
55 57 56 58 -231 0
55 57 56 58 -61 0
55 57 56 58 -211 0
55 57 56 58 -133 0
55 57 56 58 -228 0
55 57 56 58 -103 0
55 57 56 58 -199 0
55 57 56 58 -232 0
55 57 56 58 -59 0
55 57 56 58 -213 0
16 15 19 21 -118 0
16 15 19 21 -122 0
16 15 19 21 -134 0
16 15 19 21 -117 0
16 15 19 21 -119 0
16 15 19 21 -132 0
16 15 19 21 -114 0
16 15 19 21 -138 0
16 15 19 21 -81 0
16 15 19 21 -126 0
16 15 19 21 -140 0
16 15 19 21 -22 0
16 15 19 21 -130 0
16 15 19 21 -136 0
16 15 19 21 -84 0
16 15 19 21 -124 0
16 15 19 21 -139 0
16 15 19 21 -17 0
16 15 19 21 -128 0
16 15 19 21 -115 0
16 15 19 21 -121 0
16 15 19 21 -131 0
16 15 19 21 -116 0
16 15 19 21 -120 0
16 15 19 21 -133 0
16 15 19 21 -113 0
16 15 19 21 -135 0
16 15 19 21 -83 0
16 15 19 21 -123 0
16 15 19 21 -142 0
16 15 19 21 -20 0
16 15 19 21 -127 0
16 15 19 21 -137 0
16 15 19 21 -82 0
16 15 19 21 -125 0
16 15 19 21 -141 0
16 15 19 21 -18 0
16 15 19 21 -129 0
68 70 65 63 -164 0
68 70 65 63 -184 0
68 70 65 63 -227 0
68 70 65 63 -138 0
68 70 65 63 -163 0
68 70 65 63 -183 0
68 70 65 63 -226 0
68 70 65 63 -136 0
68 70 65 63 -233 0
68 70 65 63 -108 0
68 70 65 63 -204 0
68 70 65 63 -238 0
68 70 65 63 -69 0
68 70 65 63 -215 0
68 70 65 63 -105 0
68 70 65 63 -201 0
68 70 65 63 -237 0
68 70 65 63 -66 0
68 70 65 63 -216 0
68 70 65 63 -161 0
68 70 65 63 -185 0
68 70 65 63 -225 0
68 70 65 63 -135 0
68 70 65 63 -162 0
68 70 65 63 -186 0
68 70 65 63 -228 0
68 70 65 63 -137 0
68 70 65 63 -234 0
68 70 65 63 -107 0
68 70 65 63 -203 0
68 70 65 63 -235 0
68 70 65 63 -64 0
68 70 65 63 -217 0
68 70 65 63 -106 0
68 70 65 63 -202 0
68 70 65 63 -236 0
68 70 65 63 -67 0
68 70 65 63 -218 0
14 9 8 7 -88 0
14 9 8 7 -91 0
14 9 8 7 -101 0
14 9 8 7 -81 0
14 9 8 7 -108 0
14 9 8 7 -85 0
14 9 8 7 -89 0
14 9 8 7 -102 0
14 9 8 7 -84 0
14 9 8 7 -105 0
14 9 8 7 -79 0
14 9 8 7 -96 0
14 9 8 7 -109 0
14 9 8 7 -12 0
14 9 8 7 -98 0
14 9 8 7 -94 0
14 9 8 7 -112 0
14 9 8 7 -11 0
14 9 8 7 -97 0
14 9 8 7 -86 0
14 9 8 7 -92 0
14 9 8 7 -104 0
14 9 8 7 -83 0
14 9 8 7 -107 0
14 9 8 7 -87 0
14 9 8 7 -90 0
14 9 8 7 -103 0
14 9 8 7 -82 0
14 9 8 7 -106 0
14 9 8 7 -80 0
14 9 8 7 -95 0
14 9 8 7 -110 0
14 9 8 7 -13 0
14 9 8 7 -100 0
14 9 8 7 -93 0
14 9 8 7 -111 0
14 9 8 7 -10 0
14 9 8 7 -99 0
42 40 39 41 -152 0
42 40 39 41 -171 0
42 40 39 41 -198 0
42 40 39 41 -126 0
42 40 39 41 -204 0
42 40 39 41 -96 0
42 40 39 41 -150 0
42 40 39 41 -173 0
42 40 39 41 -200 0
42 40 39 41 -124 0
42 40 39 41 -201 0
42 40 39 41 -94 0
42 40 39 41 -192 0
42 40 39 41 -205 0
42 40 39 41 -44 0
42 40 39 41 -195 0
42 40 39 41 -208 0
42 40 39 41 -43 0
42 40 39 41 -194 0
42 40 39 41 -149 0
42 40 39 41 -172 0
42 40 39 41 -197 0
42 40 39 41 -123 0
42 40 39 41 -203 0
42 40 39 41 -95 0
42 40 39 41 -151 0
42 40 39 41 -174 0
42 40 39 41 -199 0
42 40 39 41 -125 0
42 40 39 41 -202 0
42 40 39 41 -93 0
42 40 39 41 -191 0
42 40 39 41 -206 0
42 40 39 41 -46 0
42 40 39 41 -193 0
42 40 39 41 -207 0
42 40 39 41 -45 0
42 40 39 41 -196 0
74 78 77 73 -165 0
74 78 77 73 -188 0
74 78 77 73 -229 0
74 78 77 73 -140 0
74 78 77 73 -238 0
74 78 77 73 -109 0
74 78 77 73 -205 0
74 78 77 73 -167 0
74 78 77 73 -187 0
74 78 77 73 -230 0
74 78 77 73 -139 0
74 78 77 73 -237 0
74 78 77 73 -112 0
74 78 77 73 -208 0
74 78 77 73 -239 0
74 78 77 73 -72 0
74 78 77 73 -221 0
74 78 77 73 -76 0
74 78 77 73 -219 0
74 78 77 73 -168 0
74 78 77 73 -189 0
74 78 77 73 -231 0
74 78 77 73 -142 0
74 78 77 73 -235 0
74 78 77 73 -110 0
74 78 77 73 -206 0
74 78 77 73 -166 0
74 78 77 73 -190 0
74 78 77 73 -232 0
74 78 77 73 -141 0
74 78 77 73 -236 0
74 78 77 73 -111 0
74 78 77 73 -207 0
74 78 77 73 -240 0
74 78 77 73 -71 0
74 78 77 73 -222 0
74 78 77 73 -75 0
74 78 77 73 -220 0
6 3 1 4 -27 0
6 3 1 4 -31 0
6 3 1 4 -60 0
6 3 1 4 -22 0
6 3 1 4 -69 0
6 3 1 4 -12 0
6 3 1 4 -44 0
6 3 1 4 -72 0
6 3 1 4 -24 0
6 3 1 4 -32 0
6 3 1 4 -62 0
6 3 1 4 -17 0
6 3 1 4 -66 0
6 3 1 4 -11 0
6 3 1 4 -43 0
6 3 1 4 -76 0
6 3 1 4 -2 0
6 3 1 4 -53 0
6 3 1 4 -48 0
6 3 1 4 -30 0
6 3 1 4 -37 0
6 3 1 4 -61 0
6 3 1 4 -20 0
6 3 1 4 -64 0
6 3 1 4 -13 0
6 3 1 4 -46 0
6 3 1 4 -71 0
6 3 1 4 -25 0
6 3 1 4 -34 0
6 3 1 4 -59 0
6 3 1 4 -18 0
6 3 1 4 -67 0
6 3 1 4 -10 0
6 3 1 4 -45 0
6 3 1 4 -75 0
6 3 1 4 -5 0
6 3 1 4 -50 0
6 3 1 4 -47 0
49 51 52 54 -154 0
49 51 52 54 -175 0
49 51 52 54 -212 0
49 51 52 54 -130 0
49 51 52 54 -215 0
49 51 52 54 -98 0
49 51 52 54 -195 0
49 51 52 54 -221 0
49 51 52 54 -53 0
49 51 52 54 -156 0
49 51 52 54 -178 0
49 51 52 54 -214 0
49 51 52 54 -128 0
49 51 52 54 -216 0
49 51 52 54 -97 0
49 51 52 54 -194 0
49 51 52 54 -219 0
49 51 52 54 -48 0
49 51 52 54 -210 0
49 51 52 54 -155 0
49 51 52 54 -176 0
49 51 52 54 -211 0
49 51 52 54 -127 0
49 51 52 54 -217 0
49 51 52 54 -100 0
49 51 52 54 -193 0
49 51 52 54 -222 0
49 51 52 54 -50 0
49 51 52 54 -153 0
49 51 52 54 -177 0
49 51 52 54 -213 0
49 51 52 54 -129 0
49 51 52 54 -218 0
49 51 52 54 -99 0
49 51 52 54 -196 0
49 51 52 54 -220 0
49 51 52 54 -47 0
49 51 52 54 -209 0
23 35 26 28 29 -148 0
23 35 26 28 29 -146 0
23 35 26 28 29 -147 0
23 35 26 28 29 -145 0
23 35 33 38 36 -148 0
23 35 33 38 36 -146 0
23 35 33 38 36 -147 0
23 35 33 38 36 -145 0
23 55 26 28 29 -160 0
23 55 26 28 29 -157 0
23 55 26 28 29 -158 0
23 55 26 28 29 -159 0
23 55 57 56 58 -160 0
23 55 57 56 58 -157 0
23 55 57 56 58 -158 0
23 55 57 56 58 -159 0
23 16 26 28 29 -118 0
23 16 26 28 29 -117 0
23 16 26 28 29 -115 0
23 16 26 28 29 -116 0
23 16 15 19 21 -118 0
23 16 15 19 21 -117 0
23 16 15 19 21 -115 0
23 16 15 19 21 -116 0
23 68 26 28 29 -164 0
23 68 26 28 29 -163 0
23 68 26 28 29 -161 0
23 68 26 28 29 -162 0
23 68 70 65 63 -164 0
23 68 70 65 63 -163 0
23 68 70 65 63 -161 0
23 68 70 65 63 -162 0
23 14 26 28 29 -88 0
23 14 26 28 29 -85 0
23 14 26 28 29 -86 0
23 14 26 28 29 -87 0
23 14 9 8 7 -88 0
23 14 9 8 7 -85 0
23 14 9 8 7 -86 0
23 14 9 8 7 -87 0
23 42 26 28 29 -152 0
23 42 26 28 29 -150 0
23 42 26 28 29 -149 0
23 42 26 28 29 -151 0
23 42 40 39 41 -152 0
23 42 40 39 41 -150 0
23 42 40 39 41 -149 0
23 42 40 39 41 -151 0
23 74 26 28 29 -165 0
23 74 26 28 29 -167 0
23 74 26 28 29 -168 0
23 74 26 28 29 -166 0
23 74 78 77 73 -165 0
23 74 78 77 73 -167 0
23 74 78 77 73 -168 0
23 74 78 77 73 -166 0
23 6 26 28 29 -27 0
23 6 26 28 29 -24 0
23 6 26 28 29 -30 0
23 6 26 28 29 -25 0
23 6 3 1 4 -27 0
23 6 3 1 4 -24 0
23 6 3 1 4 -30 0
23 6 3 1 4 -25 0
23 49 26 28 29 -154 0
23 49 26 28 29 -156 0
23 49 26 28 29 -155 0
23 49 26 28 29 -153 0
23 49 51 52 54 -154 0
23 49 51 52 54 -156 0
23 49 51 52 54 -155 0
23 49 51 52 54 -153 0
23 26 33 28 29 -148 0
23 26 33 28 29 -146 0
23 26 33 28 29 -147 0
23 26 33 28 29 -145 0
23 26 57 28 29 -160 0
23 26 57 28 29 -157 0
23 26 57 28 29 -158 0
23 26 57 28 29 -159 0
23 26 15 28 29 -118 0
23 26 15 28 29 -117 0
23 26 15 28 29 -115 0
23 26 15 28 29 -116 0
23 26 70 28 29 -164 0
23 26 70 28 29 -163 0
23 26 70 28 29 -161 0
23 26 70 28 29 -162 0
23 26 9 28 29 -88 0
23 26 9 28 29 -85 0
23 26 9 28 29 -86 0
23 26 9 28 29 -87 0
23 26 40 28 29 -152 0
23 26 40 28 29 -150 0
23 26 40 28 29 -149 0
23 26 40 28 29 -151 0
23 26 78 28 29 -165 0
23 26 78 28 29 -167 0
23 26 78 28 29 -168 0
23 26 78 28 29 -166 0
23 26 3 28 29 -27 0
23 26 3 28 29 -24 0
23 26 3 28 29 -30 0
23 26 3 28 29 -25 0
23 26 51 28 29 -154 0
23 26 51 28 29 -156 0
23 26 51 28 29 -155 0
23 26 51 28 29 -153 0
23 26 28 38 29 -148 0
23 26 28 38 29 -146 0
23 26 28 38 29 -147 0
23 26 28 38 29 -145 0
23 26 28 56 29 -160 0
23 26 28 56 29 -157 0
23 26 28 56 29 -158 0
23 26 28 56 29 -159 0
23 26 28 19 29 -118 0
23 26 28 19 29 -117 0
23 26 28 19 29 -115 0
23 26 28 19 29 -116 0
23 26 28 65 29 -164 0
23 26 28 65 29 -163 0
23 26 28 65 29 -161 0
23 26 28 65 29 -162 0
23 26 28 8 29 -88 0
23 26 28 8 29 -85 0
23 26 28 8 29 -86 0
23 26 28 8 29 -87 0
23 26 28 39 29 -152 0
23 26 28 39 29 -150 0
23 26 28 39 29 -149 0
23 26 28 39 29 -151 0
23 26 28 77 29 -165 0
23 26 28 77 29 -167 0
23 26 28 77 29 -168 0
23 26 28 77 29 -166 0
23 26 28 1 29 -27 0
23 26 28 1 29 -24 0
23 26 28 1 29 -30 0
23 26 28 1 29 -25 0
23 26 28 52 29 -154 0
23 26 28 52 29 -156 0
23 26 28 52 29 -155 0
23 26 28 52 29 -153 0
23 26 28 29 36 -148 0
23 26 28 29 36 -146 0
23 26 28 29 36 -147 0
23 26 28 29 36 -145 0
23 26 28 29 58 -160 0
23 26 28 29 58 -157 0
23 26 28 29 58 -158 0
23 26 28 29 58 -159 0
23 26 28 29 21 -118 0
23 26 28 29 21 -117 0
23 26 28 29 21 -115 0
23 26 28 29 21 -116 0
23 26 28 29 63 -164 0
23 26 28 29 63 -163 0
23 26 28 29 63 -161 0
23 26 28 29 63 -162 0
23 26 28 29 7 -88 0
23 26 28 29 7 -85 0
23 26 28 29 7 -86 0
23 26 28 29 7 -87 0
23 26 28 29 41 -152 0
23 26 28 29 41 -150 0
23 26 28 29 41 -149 0
23 26 28 29 41 -151 0
23 26 28 29 73 -165 0
23 26 28 29 73 -167 0
23 26 28 29 73 -168 0
23 26 28 29 73 -166 0
23 26 28 29 4 -27 0
23 26 28 29 4 -24 0
23 26 28 29 4 -30 0
23 26 28 29 4 -25 0
23 26 28 29 54 -154 0
23 26 28 29 54 -156 0
23 26 28 29 54 -155 0
23 26 28 29 54 -153 0
35 55 33 38 36 -179 0
35 55 33 38 36 -181 0
35 55 33 38 36 -182 0
35 55 33 38 36 -180 0
35 55 57 56 58 -179 0
35 55 57 56 58 -181 0
35 55 57 56 58 -182 0
35 55 57 56 58 -180 0
35 16 33 38 36 -122 0
35 16 33 38 36 -119 0
35 16 33 38 36 -121 0
35 16 33 38 36 -120 0
35 16 15 19 21 -122 0
35 16 15 19 21 -119 0
35 16 15 19 21 -121 0
35 16 15 19 21 -120 0
35 68 33 38 36 -184 0
35 68 33 38 36 -183 0
35 68 33 38 36 -185 0
35 68 33 38 36 -186 0
35 68 70 65 63 -184 0
35 68 70 65 63 -183 0
35 68 70 65 63 -185 0
35 68 70 65 63 -186 0
35 14 33 38 36 -91 0
35 14 33 38 36 -89 0
35 14 33 38 36 -92 0
35 14 33 38 36 -90 0
35 14 9 8 7 -91 0
35 14 9 8 7 -89 0
35 14 9 8 7 -92 0
35 14 9 8 7 -90 0
35 42 33 38 36 -171 0
35 42 33 38 36 -173 0
35 42 33 38 36 -172 0
35 42 33 38 36 -174 0
35 42 40 39 41 -171 0
35 42 40 39 41 -173 0
35 42 40 39 41 -172 0
35 42 40 39 41 -174 0
35 74 33 38 36 -188 0
35 74 33 38 36 -187 0
35 74 33 38 36 -189 0
35 74 33 38 36 -190 0
35 74 78 77 73 -188 0
35 74 78 77 73 -187 0
35 74 78 77 73 -189 0
35 74 78 77 73 -190 0
35 6 33 38 36 -31 0
35 6 33 38 36 -32 0
35 6 33 38 36 -37 0
35 6 33 38 36 -34 0
35 6 3 1 4 -31 0
35 6 3 1 4 -32 0
35 6 3 1 4 -37 0
35 6 3 1 4 -34 0
35 49 33 38 36 -175 0
35 49 33 38 36 -178 0
35 49 33 38 36 -176 0
35 49 33 38 36 -177 0
35 49 51 52 54 -175 0
35 49 51 52 54 -178 0
35 49 51 52 54 -176 0
35 49 51 52 54 -177 0
35 26 33 38 36 -148 0
35 26 33 38 36 -146 0
35 26 33 38 36 -147 0
35 26 33 38 36 -145 0
35 33 57 38 36 -179 0
35 33 57 38 36 -181 0
35 33 57 38 36 -182 0
35 33 57 38 36 -180 0
35 33 15 38 36 -122 0
35 33 15 38 36 -119 0
35 33 15 38 36 -121 0
35 33 15 38 36 -120 0
35 33 70 38 36 -184 0
35 33 70 38 36 -183 0
35 33 70 38 36 -185 0
35 33 70 38 36 -186 0
35 33 9 38 36 -91 0
35 33 9 38 36 -89 0
35 33 9 38 36 -92 0
35 33 9 38 36 -90 0
35 33 40 38 36 -171 0
35 33 40 38 36 -173 0
35 33 40 38 36 -172 0
35 33 40 38 36 -174 0
35 33 78 38 36 -188 0
35 33 78 38 36 -187 0
35 33 78 38 36 -189 0
35 33 78 38 36 -190 0
35 33 3 38 36 -31 0
35 33 3 38 36 -32 0
35 33 3 38 36 -37 0
35 33 3 38 36 -34 0
35 33 51 38 36 -175 0
35 33 51 38 36 -178 0
35 33 51 38 36 -176 0
35 33 51 38 36 -177 0
35 33 28 38 36 -148 0
35 33 28 38 36 -146 0
35 33 28 38 36 -147 0
35 33 28 38 36 -145 0
35 33 38 56 36 -179 0
35 33 38 56 36 -181 0
35 33 38 56 36 -182 0
35 33 38 56 36 -180 0
35 33 38 19 36 -122 0
35 33 38 19 36 -119 0
35 33 38 19 36 -121 0
35 33 38 19 36 -120 0
35 33 38 65 36 -184 0
35 33 38 65 36 -183 0
35 33 38 65 36 -185 0
35 33 38 65 36 -186 0
35 33 38 8 36 -91 0
35 33 38 8 36 -89 0
35 33 38 8 36 -92 0
35 33 38 8 36 -90 0
35 33 38 39 36 -171 0
35 33 38 39 36 -173 0
35 33 38 39 36 -172 0
35 33 38 39 36 -174 0
35 33 38 77 36 -188 0
35 33 38 77 36 -187 0
35 33 38 77 36 -189 0
35 33 38 77 36 -190 0
35 33 38 1 36 -31 0
35 33 38 1 36 -32 0
35 33 38 1 36 -37 0
35 33 38 1 36 -34 0
35 33 38 52 36 -175 0
35 33 38 52 36 -178 0
35 33 38 52 36 -176 0
35 33 38 52 36 -177 0
35 33 38 29 36 -148 0
35 33 38 29 36 -146 0
35 33 38 29 36 -147 0
35 33 38 29 36 -145 0
35 33 38 36 58 -179 0
35 33 38 36 58 -181 0
35 33 38 36 58 -182 0
35 33 38 36 58 -180 0
35 33 38 36 21 -122 0
35 33 38 36 21 -119 0
35 33 38 36 21 -121 0
35 33 38 36 21 -120 0
35 33 38 36 63 -184 0
35 33 38 36 63 -183 0
35 33 38 36 63 -185 0
35 33 38 36 63 -186 0
35 33 38 36 7 -91 0
35 33 38 36 7 -89 0
35 33 38 36 7 -92 0
35 33 38 36 7 -90 0
35 33 38 36 41 -171 0
35 33 38 36 41 -173 0
35 33 38 36 41 -172 0
35 33 38 36 41 -174 0
35 33 38 36 73 -188 0
35 33 38 36 73 -187 0
35 33 38 36 73 -189 0
35 33 38 36 73 -190 0
35 33 38 36 4 -31 0
35 33 38 36 4 -32 0
35 33 38 36 4 -37 0
35 33 38 36 4 -34 0
35 33 38 36 54 -175 0
35 33 38 36 54 -178 0
35 33 38 36 54 -176 0
35 33 38 36 54 -177 0
55 16 57 56 58 -134 0
55 16 57 56 58 -132 0
55 16 57 56 58 -131 0
55 16 57 56 58 -133 0
55 16 15 19 21 -134 0
55 16 15 19 21 -132 0
55 16 15 19 21 -131 0
55 16 15 19 21 -133 0
55 68 57 56 58 -227 0
55 68 57 56 58 -226 0
55 68 57 56 58 -225 0
55 68 57 56 58 -228 0
55 68 70 65 63 -227 0
55 68 70 65 63 -226 0
55 68 70 65 63 -225 0
55 68 70 65 63 -228 0
55 14 57 56 58 -101 0
55 14 57 56 58 -102 0
55 14 57 56 58 -104 0
55 14 57 56 58 -103 0
55 14 9 8 7 -101 0
55 14 9 8 7 -102 0
55 14 9 8 7 -104 0
55 14 9 8 7 -103 0
55 42 57 56 58 -198 0
55 42 57 56 58 -200 0
55 42 57 56 58 -197 0
55 42 57 56 58 -199 0
55 42 40 39 41 -198 0
55 42 40 39 41 -200 0
55 42 40 39 41 -197 0
55 42 40 39 41 -199 0
55 74 57 56 58 -229 0
55 74 57 56 58 -230 0
55 74 57 56 58 -231 0
55 74 57 56 58 -232 0
55 74 78 77 73 -229 0
55 74 78 77 73 -230 0
55 74 78 77 73 -231 0
55 74 78 77 73 -232 0
55 6 57 56 58 -60 0
55 6 57 56 58 -62 0
55 6 57 56 58 -61 0
55 6 57 56 58 -59 0
55 6 3 1 4 -60 0
55 6 3 1 4 -62 0
55 6 3 1 4 -61 0
55 6 3 1 4 -59 0
55 49 57 56 58 -212 0
55 49 57 56 58 -214 0
55 49 57 56 58 -211 0
55 49 57 56 58 -213 0
55 49 51 52 54 -212 0
55 49 51 52 54 -214 0
55 49 51 52 54 -211 0
55 49 51 52 54 -213 0
55 26 57 56 58 -160 0
55 26 57 56 58 -157 0
55 26 57 56 58 -158 0
55 26 57 56 58 -159 0
55 33 57 56 58 -179 0
55 33 57 56 58 -181 0
55 33 57 56 58 -182 0
55 33 57 56 58 -180 0
55 57 15 56 58 -134 0
55 57 15 56 58 -132 0
55 57 15 56 58 -131 0
55 57 15 56 58 -133 0
55 57 70 56 58 -227 0
55 57 70 56 58 -226 0
55 57 70 56 58 -225 0
55 57 70 56 58 -228 0
55 57 9 56 58 -101 0
55 57 9 56 58 -102 0
55 57 9 56 58 -104 0
55 57 9 56 58 -103 0
55 57 40 56 58 -198 0
55 57 40 56 58 -200 0
55 57 40 56 58 -197 0
55 57 40 56 58 -199 0
55 57 78 56 58 -229 0
55 57 78 56 58 -230 0
55 57 78 56 58 -231 0
55 57 78 56 58 -232 0
55 57 3 56 58 -60 0
55 57 3 56 58 -62 0
55 57 3 56 58 -61 0
55 57 3 56 58 -59 0
55 57 51 56 58 -212 0
55 57 51 56 58 -214 0
55 57 51 56 58 -211 0
55 57 51 56 58 -213 0
55 57 28 56 58 -160 0
55 57 28 56 58 -157 0
55 57 28 56 58 -158 0
55 57 28 56 58 -159 0
55 57 38 56 58 -179 0
55 57 38 56 58 -181 0
55 57 38 56 58 -182 0
55 57 38 56 58 -180 0
55 57 56 19 58 -134 0
55 57 56 19 58 -132 0
55 57 56 19 58 -131 0
55 57 56 19 58 -133 0
55 57 56 65 58 -227 0
55 57 56 65 58 -226 0
55 57 56 65 58 -225 0
55 57 56 65 58 -228 0
55 57 56 8 58 -101 0
55 57 56 8 58 -102 0
55 57 56 8 58 -104 0
55 57 56 8 58 -103 0
55 57 56 39 58 -198 0
55 57 56 39 58 -200 0
55 57 56 39 58 -197 0
55 57 56 39 58 -199 0
55 57 56 77 58 -229 0
55 57 56 77 58 -230 0
55 57 56 77 58 -231 0
55 57 56 77 58 -232 0
55 57 56 1 58 -60 0
55 57 56 1 58 -62 0
55 57 56 1 58 -61 0
55 57 56 1 58 -59 0
55 57 56 52 58 -212 0
55 57 56 52 58 -214 0
55 57 56 52 58 -211 0
55 57 56 52 58 -213 0
55 57 56 29 58 -160 0
55 57 56 29 58 -157 0
55 57 56 29 58 -158 0
55 57 56 29 58 -159 0
55 57 56 36 58 -179 0
55 57 56 36 58 -181 0
55 57 56 36 58 -182 0
55 57 56 36 58 -180 0
55 57 56 58 21 -134 0
55 57 56 58 21 -132 0
55 57 56 58 21 -131 0
55 57 56 58 21 -133 0
55 57 56 58 63 -227 0
55 57 56 58 63 -226 0
55 57 56 58 63 -225 0
55 57 56 58 63 -228 0
55 57 56 58 7 -101 0
55 57 56 58 7 -102 0
55 57 56 58 7 -104 0
55 57 56 58 7 -103 0
55 57 56 58 41 -198 0
55 57 56 58 41 -200 0
55 57 56 58 41 -197 0
55 57 56 58 41 -199 0
55 57 56 58 73 -229 0
55 57 56 58 73 -230 0
55 57 56 58 73 -231 0
55 57 56 58 73 -232 0
55 57 56 58 4 -60 0
55 57 56 58 4 -62 0
55 57 56 58 4 -61 0
55 57 56 58 4 -59 0
55 57 56 58 54 -212 0
55 57 56 58 54 -214 0
55 57 56 58 54 -211 0
55 57 56 58 54 -213 0
16 68 15 19 21 -138 0
16 68 15 19 21 -136 0
16 68 15 19 21 -135 0
16 68 15 19 21 -137 0
16 68 70 65 63 -138 0
16 68 70 65 63 -136 0
16 68 70 65 63 -135 0
16 68 70 65 63 -137 0
16 14 15 19 21 -81 0
16 14 15 19 21 -84 0
16 14 15 19 21 -83 0
16 14 15 19 21 -82 0
16 14 9 8 7 -81 0
16 14 9 8 7 -84 0
16 14 9 8 7 -83 0
16 14 9 8 7 -82 0
16 42 15 19 21 -126 0
16 42 15 19 21 -124 0
16 42 15 19 21 -123 0
16 42 15 19 21 -125 0
16 42 40 39 41 -126 0
16 42 40 39 41 -124 0
16 42 40 39 41 -123 0
16 42 40 39 41 -125 0
16 74 15 19 21 -140 0
16 74 15 19 21 -139 0
16 74 15 19 21 -142 0
16 74 15 19 21 -141 0
16 74 78 77 73 -140 0
16 74 78 77 73 -139 0
16 74 78 77 73 -142 0
16 74 78 77 73 -141 0
16 6 15 19 21 -22 0
16 6 15 19 21 -17 0
16 6 15 19 21 -20 0
16 6 15 19 21 -18 0
16 6 3 1 4 -22 0
16 6 3 1 4 -17 0
16 6 3 1 4 -20 0
16 6 3 1 4 -18 0
16 49 15 19 21 -130 0
16 49 15 19 21 -128 0
16 49 15 19 21 -127 0
16 49 15 19 21 -129 0
16 49 51 52 54 -130 0
16 49 51 52 54 -128 0
16 49 51 52 54 -127 0
16 49 51 52 54 -129 0
16 26 15 19 21 -118 0
16 26 15 19 21 -117 0
16 26 15 19 21 -115 0
16 26 15 19 21 -116 0
16 33 15 19 21 -122 0
16 33 15 19 21 -119 0
16 33 15 19 21 -121 0
16 33 15 19 21 -120 0
16 57 15 19 21 -134 0
16 57 15 19 21 -132 0
16 57 15 19 21 -131 0
16 57 15 19 21 -133 0
16 15 70 19 21 -138 0
16 15 70 19 21 -136 0
16 15 70 19 21 -135 0
16 15 70 19 21 -137 0
16 15 9 19 21 -81 0
16 15 9 19 21 -84 0
16 15 9 19 21 -83 0
16 15 9 19 21 -82 0
16 15 40 19 21 -126 0
16 15 40 19 21 -124 0
16 15 40 19 21 -123 0
16 15 40 19 21 -125 0
16 15 78 19 21 -140 0
16 15 78 19 21 -139 0
16 15 78 19 21 -142 0
16 15 78 19 21 -141 0
16 15 3 19 21 -22 0
16 15 3 19 21 -17 0
16 15 3 19 21 -20 0
16 15 3 19 21 -18 0
16 15 51 19 21 -130 0
16 15 51 19 21 -128 0
16 15 51 19 21 -127 0
16 15 51 19 21 -129 0
16 15 28 19 21 -118 0
16 15 28 19 21 -117 0
16 15 28 19 21 -115 0
16 15 28 19 21 -116 0
16 15 38 19 21 -122 0
16 15 38 19 21 -119 0
16 15 38 19 21 -121 0
16 15 38 19 21 -120 0
16 15 56 19 21 -134 0
16 15 56 19 21 -132 0
16 15 56 19 21 -131 0
16 15 56 19 21 -133 0
16 15 19 65 21 -138 0
16 15 19 65 21 -136 0
16 15 19 65 21 -135 0
16 15 19 65 21 -137 0
16 15 19 8 21 -81 0
16 15 19 8 21 -84 0
16 15 19 8 21 -83 0
16 15 19 8 21 -82 0
16 15 19 39 21 -126 0
16 15 19 39 21 -124 0
16 15 19 39 21 -123 0
16 15 19 39 21 -125 0
16 15 19 77 21 -140 0
16 15 19 77 21 -139 0
16 15 19 77 21 -142 0
16 15 19 77 21 -141 0
16 15 19 1 21 -22 0
16 15 19 1 21 -17 0
16 15 19 1 21 -20 0
16 15 19 1 21 -18 0
16 15 19 52 21 -130 0
16 15 19 52 21 -128 0
16 15 19 52 21 -127 0
16 15 19 52 21 -129 0
16 15 19 29 21 -118 0
16 15 19 29 21 -117 0
16 15 19 29 21 -115 0
16 15 19 29 21 -116 0
16 15 19 36 21 -122 0
16 15 19 36 21 -119 0
16 15 19 36 21 -121 0
16 15 19 36 21 -120 0
16 15 19 58 21 -134 0
16 15 19 58 21 -132 0
16 15 19 58 21 -131 0
16 15 19 58 21 -133 0
16 15 19 21 63 -138 0
16 15 19 21 63 -136 0
16 15 19 21 63 -135 0
16 15 19 21 63 -137 0
16 15 19 21 7 -81 0
16 15 19 21 7 -84 0
16 15 19 21 7 -83 0
16 15 19 21 7 -82 0
16 15 19 21 41 -126 0
16 15 19 21 41 -124 0
16 15 19 21 41 -123 0
16 15 19 21 41 -125 0
16 15 19 21 73 -140 0
16 15 19 21 73 -139 0
16 15 19 21 73 -142 0
16 15 19 21 73 -141 0
16 15 19 21 4 -22 0
16 15 19 21 4 -17 0
16 15 19 21 4 -20 0
16 15 19 21 4 -18 0
16 15 19 21 54 -130 0
16 15 19 21 54 -128 0
16 15 19 21 54 -127 0
16 15 19 21 54 -129 0
68 14 70 65 63 -108 0
68 14 70 65 63 -105 0
68 14 70 65 63 -107 0
68 14 70 65 63 -106 0
68 14 9 8 7 -108 0
68 14 9 8 7 -105 0
68 14 9 8 7 -107 0
68 14 9 8 7 -106 0
68 42 70 65 63 -204 0
68 42 70 65 63 -201 0
68 42 70 65 63 -203 0
68 42 70 65 63 -202 0
68 42 40 39 41 -204 0
68 42 40 39 41 -201 0
68 42 40 39 41 -203 0
68 42 40 39 41 -202 0
68 74 70 65 63 -238 0
68 74 70 65 63 -237 0
68 74 70 65 63 -235 0
68 74 70 65 63 -236 0
68 74 78 77 73 -238 0
68 74 78 77 73 -237 0
68 74 78 77 73 -235 0
68 74 78 77 73 -236 0
68 6 70 65 63 -69 0
68 6 70 65 63 -66 0
68 6 70 65 63 -64 0
68 6 70 65 63 -67 0
68 6 3 1 4 -69 0
68 6 3 1 4 -66 0
68 6 3 1 4 -64 0
68 6 3 1 4 -67 0
68 49 70 65 63 -215 0
68 49 70 65 63 -216 0
68 49 70 65 63 -217 0
68 49 70 65 63 -218 0
68 49 51 52 54 -215 0
68 49 51 52 54 -216 0
68 49 51 52 54 -217 0
68 49 51 52 54 -218 0
68 26 70 65 63 -164 0
68 26 70 65 63 -163 0
68 26 70 65 63 -161 0
68 26 70 65 63 -162 0
68 33 70 65 63 -184 0
68 33 70 65 63 -183 0
68 33 70 65 63 -185 0
68 33 70 65 63 -186 0
68 57 70 65 63 -227 0
68 57 70 65 63 -226 0
68 57 70 65 63 -225 0
68 57 70 65 63 -228 0
68 15 70 65 63 -138 0
68 15 70 65 63 -136 0
68 15 70 65 63 -135 0
68 15 70 65 63 -137 0
68 70 9 65 63 -108 0
68 70 9 65 63 -105 0
68 70 9 65 63 -107 0
68 70 9 65 63 -106 0
68 70 40 65 63 -204 0
68 70 40 65 63 -201 0
68 70 40 65 63 -203 0
68 70 40 65 63 -202 0
68 70 78 65 63 -238 0
68 70 78 65 63 -237 0
68 70 78 65 63 -235 0
68 70 78 65 63 -236 0
68 70 3 65 63 -69 0
68 70 3 65 63 -66 0
68 70 3 65 63 -64 0
68 70 3 65 63 -67 0
68 70 51 65 63 -215 0
68 70 51 65 63 -216 0
68 70 51 65 63 -217 0
68 70 51 65 63 -218 0
68 70 28 65 63 -164 0
68 70 28 65 63 -163 0
68 70 28 65 63 -161 0
68 70 28 65 63 -162 0
68 70 38 65 63 -184 0
68 70 38 65 63 -183 0
68 70 38 65 63 -185 0
68 70 38 65 63 -186 0
68 70 56 65 63 -227 0
68 70 56 65 63 -226 0
68 70 56 65 63 -225 0
68 70 56 65 63 -228 0
68 70 19 65 63 -138 0
68 70 19 65 63 -136 0
68 70 19 65 63 -135 0
68 70 19 65 63 -137 0
68 70 65 8 63 -108 0
68 70 65 8 63 -105 0
68 70 65 8 63 -107 0
68 70 65 8 63 -106 0
68 70 65 39 63 -204 0
68 70 65 39 63 -201 0
68 70 65 39 63 -203 0
68 70 65 39 63 -202 0
68 70 65 77 63 -238 0
68 70 65 77 63 -237 0
68 70 65 77 63 -235 0
68 70 65 77 63 -236 0
68 70 65 1 63 -69 0
68 70 65 1 63 -66 0
68 70 65 1 63 -64 0
68 70 65 1 63 -67 0
68 70 65 52 63 -215 0
68 70 65 52 63 -216 0
68 70 65 52 63 -217 0
68 70 65 52 63 -218 0
68 70 65 29 63 -164 0
68 70 65 29 63 -163 0
68 70 65 29 63 -161 0
68 70 65 29 63 -162 0
68 70 65 36 63 -184 0
68 70 65 36 63 -183 0
68 70 65 36 63 -185 0
68 70 65 36 63 -186 0
68 70 65 58 63 -227 0
68 70 65 58 63 -226 0
68 70 65 58 63 -225 0
68 70 65 58 63 -228 0
68 70 65 21 63 -138 0
68 70 65 21 63 -136 0
68 70 65 21 63 -135 0
68 70 65 21 63 -137 0
68 70 65 63 7 -108 0
68 70 65 63 7 -105 0
68 70 65 63 7 -107 0
68 70 65 63 7 -106 0
68 70 65 63 41 -204 0
68 70 65 63 41 -201 0
68 70 65 63 41 -203 0
68 70 65 63 41 -202 0
68 70 65 63 73 -238 0
68 70 65 63 73 -237 0
68 70 65 63 73 -235 0
68 70 65 63 73 -236 0
68 70 65 63 4 -69 0
68 70 65 63 4 -66 0
68 70 65 63 4 -64 0
68 70 65 63 4 -67 0
68 70 65 63 54 -215 0
68 70 65 63 54 -216 0
68 70 65 63 54 -217 0
68 70 65 63 54 -218 0
14 42 9 8 7 -96 0
14 42 9 8 7 -94 0
14 42 9 8 7 -95 0
14 42 9 8 7 -93 0
14 42 40 39 41 -96 0
14 42 40 39 41 -94 0
14 42 40 39 41 -95 0
14 42 40 39 41 -93 0
14 74 9 8 7 -109 0
14 74 9 8 7 -112 0
14 74 9 8 7 -110 0
14 74 9 8 7 -111 0
14 74 78 77 73 -109 0
14 74 78 77 73 -112 0
14 74 78 77 73 -110 0
14 74 78 77 73 -111 0
14 6 9 8 7 -12 0
14 6 9 8 7 -11 0
14 6 9 8 7 -13 0
14 6 9 8 7 -10 0
14 6 3 1 4 -12 0
14 6 3 1 4 -11 0
14 6 3 1 4 -13 0
14 6 3 1 4 -10 0
14 49 9 8 7 -98 0
14 49 9 8 7 -97 0
14 49 9 8 7 -100 0
14 49 9 8 7 -99 0
14 49 51 52 54 -98 0
14 49 51 52 54 -97 0
14 49 51 52 54 -100 0
14 49 51 52 54 -99 0
14 26 9 8 7 -88 0
14 26 9 8 7 -85 0
14 26 9 8 7 -86 0
14 26 9 8 7 -87 0
14 33 9 8 7 -91 0
14 33 9 8 7 -89 0
14 33 9 8 7 -92 0
14 33 9 8 7 -90 0
14 57 9 8 7 -101 0
14 57 9 8 7 -102 0
14 57 9 8 7 -104 0
14 57 9 8 7 -103 0
14 15 9 8 7 -81 0
14 15 9 8 7 -84 0
14 15 9 8 7 -83 0
14 15 9 8 7 -82 0
14 70 9 8 7 -108 0
14 70 9 8 7 -105 0
14 70 9 8 7 -107 0
14 70 9 8 7 -106 0
14 9 40 8 7 -96 0
14 9 40 8 7 -94 0
14 9 40 8 7 -95 0
14 9 40 8 7 -93 0
14 9 78 8 7 -109 0
14 9 78 8 7 -112 0
14 9 78 8 7 -110 0
14 9 78 8 7 -111 0
14 9 3 8 7 -12 0
14 9 3 8 7 -11 0
14 9 3 8 7 -13 0
14 9 3 8 7 -10 0
14 9 51 8 7 -98 0
14 9 51 8 7 -97 0
14 9 51 8 7 -100 0
14 9 51 8 7 -99 0
14 9 28 8 7 -88 0
14 9 28 8 7 -85 0
14 9 28 8 7 -86 0
14 9 28 8 7 -87 0
14 9 38 8 7 -91 0
14 9 38 8 7 -89 0
14 9 38 8 7 -92 0
14 9 38 8 7 -90 0
14 9 56 8 7 -101 0
14 9 56 8 7 -102 0
14 9 56 8 7 -104 0
14 9 56 8 7 -103 0
14 9 19 8 7 -81 0
14 9 19 8 7 -84 0
14 9 19 8 7 -83 0
14 9 19 8 7 -82 0
14 9 65 8 7 -108 0
14 9 65 8 7 -105 0
14 9 65 8 7 -107 0
14 9 65 8 7 -106 0
14 9 8 39 7 -96 0
14 9 8 39 7 -94 0
14 9 8 39 7 -95 0
14 9 8 39 7 -93 0
14 9 8 77 7 -109 0
14 9 8 77 7 -112 0
14 9 8 77 7 -110 0
14 9 8 77 7 -111 0
14 9 8 1 7 -12 0
14 9 8 1 7 -11 0
14 9 8 1 7 -13 0
14 9 8 1 7 -10 0
14 9 8 52 7 -98 0
14 9 8 52 7 -97 0
14 9 8 52 7 -100 0
14 9 8 52 7 -99 0
14 9 8 29 7 -88 0
14 9 8 29 7 -85 0
14 9 8 29 7 -86 0
14 9 8 29 7 -87 0
14 9 8 36 7 -91 0
14 9 8 36 7 -89 0
14 9 8 36 7 -92 0
14 9 8 36 7 -90 0
14 9 8 58 7 -101 0
14 9 8 58 7 -102 0
14 9 8 58 7 -104 0
14 9 8 58 7 -103 0
14 9 8 21 7 -81 0
14 9 8 21 7 -84 0
14 9 8 21 7 -83 0
14 9 8 21 7 -82 0
14 9 8 63 7 -108 0
14 9 8 63 7 -105 0
14 9 8 63 7 -107 0
14 9 8 63 7 -106 0
14 9 8 7 41 -96 0
14 9 8 7 41 -94 0
14 9 8 7 41 -95 0
14 9 8 7 41 -93 0
14 9 8 7 73 -109 0
14 9 8 7 73 -112 0
14 9 8 7 73 -110 0
14 9 8 7 73 -111 0
14 9 8 7 4 -12 0
14 9 8 7 4 -11 0
14 9 8 7 4 -13 0
14 9 8 7 4 -10 0
14 9 8 7 54 -98 0
14 9 8 7 54 -97 0
14 9 8 7 54 -100 0
14 9 8 7 54 -99 0
42 74 40 39 41 -205 0
42 74 40 39 41 -208 0
42 74 40 39 41 -206 0
42 74 40 39 41 -207 0
42 74 78 77 73 -205 0
42 74 78 77 73 -208 0
42 74 78 77 73 -206 0
42 74 78 77 73 -207 0
42 6 40 39 41 -44 0
42 6 40 39 41 -43 0
42 6 40 39 41 -46 0
42 6 40 39 41 -45 0
42 6 3 1 4 -44 0
42 6 3 1 4 -43 0
42 6 3 1 4 -46 0
42 6 3 1 4 -45 0
42 49 40 39 41 -195 0
42 49 40 39 41 -194 0
42 49 40 39 41 -193 0
42 49 40 39 41 -196 0
42 49 51 52 54 -195 0
42 49 51 52 54 -194 0
42 49 51 52 54 -193 0
42 49 51 52 54 -196 0
42 26 40 39 41 -152 0
42 26 40 39 41 -150 0
42 26 40 39 41 -149 0
42 26 40 39 41 -151 0
42 33 40 39 41 -171 0
42 33 40 39 41 -173 0
42 33 40 39 41 -172 0
42 33 40 39 41 -174 0
42 57 40 39 41 -198 0
42 57 40 39 41 -200 0
42 57 40 39 41 -197 0
42 57 40 39 41 -199 0
42 15 40 39 41 -126 0
42 15 40 39 41 -124 0
42 15 40 39 41 -123 0
42 15 40 39 41 -125 0
42 70 40 39 41 -204 0
42 70 40 39 41 -201 0
42 70 40 39 41 -203 0
42 70 40 39 41 -202 0
42 9 40 39 41 -96 0
42 9 40 39 41 -94 0
42 9 40 39 41 -95 0
42 9 40 39 41 -93 0
42 40 78 39 41 -205 0
42 40 78 39 41 -208 0
42 40 78 39 41 -206 0
42 40 78 39 41 -207 0
42 40 3 39 41 -44 0
42 40 3 39 41 -43 0
42 40 3 39 41 -46 0
42 40 3 39 41 -45 0
42 40 51 39 41 -195 0
42 40 51 39 41 -194 0
42 40 51 39 41 -193 0
42 40 51 39 41 -196 0
42 40 28 39 41 -152 0
42 40 28 39 41 -150 0
42 40 28 39 41 -149 0
42 40 28 39 41 -151 0
42 40 38 39 41 -171 0
42 40 38 39 41 -173 0
42 40 38 39 41 -172 0
42 40 38 39 41 -174 0
42 40 56 39 41 -198 0
42 40 56 39 41 -200 0
42 40 56 39 41 -197 0
42 40 56 39 41 -199 0
42 40 19 39 41 -126 0
42 40 19 39 41 -124 0
42 40 19 39 41 -123 0
42 40 19 39 41 -125 0
42 40 65 39 41 -204 0
42 40 65 39 41 -201 0
42 40 65 39 41 -203 0
42 40 65 39 41 -202 0
42 40 8 39 41 -96 0
42 40 8 39 41 -94 0
42 40 8 39 41 -95 0
42 40 8 39 41 -93 0
42 40 39 77 41 -205 0
42 40 39 77 41 -208 0
42 40 39 77 41 -206 0
42 40 39 77 41 -207 0
42 40 39 1 41 -44 0
42 40 39 1 41 -43 0
42 40 39 1 41 -46 0
42 40 39 1 41 -45 0
42 40 39 52 41 -195 0
42 40 39 52 41 -194 0
42 40 39 52 41 -193 0
42 40 39 52 41 -196 0
42 40 39 29 41 -152 0
42 40 39 29 41 -150 0
42 40 39 29 41 -149 0
42 40 39 29 41 -151 0
42 40 39 36 41 -171 0
42 40 39 36 41 -173 0
42 40 39 36 41 -172 0
42 40 39 36 41 -174 0
42 40 39 58 41 -198 0
42 40 39 58 41 -200 0
42 40 39 58 41 -197 0
42 40 39 58 41 -199 0
42 40 39 21 41 -126 0
42 40 39 21 41 -124 0
42 40 39 21 41 -123 0
42 40 39 21 41 -125 0
42 40 39 63 41 -204 0
42 40 39 63 41 -201 0
42 40 39 63 41 -203 0
42 40 39 63 41 -202 0
42 40 39 7 41 -96 0
42 40 39 7 41 -94 0
42 40 39 7 41 -95 0
42 40 39 7 41 -93 0
42 40 39 41 73 -205 0
42 40 39 41 73 -208 0
42 40 39 41 73 -206 0
42 40 39 41 73 -207 0
42 40 39 41 4 -44 0
42 40 39 41 4 -43 0
42 40 39 41 4 -46 0
42 40 39 41 4 -45 0
42 40 39 41 54 -195 0
42 40 39 41 54 -194 0
42 40 39 41 54 -193 0
42 40 39 41 54 -196 0
74 6 78 77 73 -72 0
74 6 78 77 73 -76 0
74 6 78 77 73 -71 0
74 6 78 77 73 -75 0
74 6 3 1 4 -72 0
74 6 3 1 4 -76 0
74 6 3 1 4 -71 0
74 6 3 1 4 -75 0
74 49 78 77 73 -221 0
74 49 78 77 73 -219 0
74 49 78 77 73 -222 0
74 49 78 77 73 -220 0
74 49 51 52 54 -221 0
74 49 51 52 54 -219 0
74 49 51 52 54 -222 0
74 49 51 52 54 -220 0
74 26 78 77 73 -165 0
74 26 78 77 73 -167 0
74 26 78 77 73 -168 0
74 26 78 77 73 -166 0
74 33 78 77 73 -188 0
74 33 78 77 73 -187 0
74 33 78 77 73 -189 0
74 33 78 77 73 -190 0
74 57 78 77 73 -229 0
74 57 78 77 73 -230 0
74 57 78 77 73 -231 0
74 57 78 77 73 -232 0
74 15 78 77 73 -140 0
74 15 78 77 73 -139 0
74 15 78 77 73 -142 0
74 15 78 77 73 -141 0
74 70 78 77 73 -238 0
74 70 78 77 73 -237 0
74 70 78 77 73 -235 0
74 70 78 77 73 -236 0
74 9 78 77 73 -109 0
74 9 78 77 73 -112 0
74 9 78 77 73 -110 0
74 9 78 77 73 -111 0
74 40 78 77 73 -205 0
74 40 78 77 73 -208 0
74 40 78 77 73 -206 0
74 40 78 77 73 -207 0
74 78 3 77 73 -72 0
74 78 3 77 73 -76 0
74 78 3 77 73 -71 0
74 78 3 77 73 -75 0
74 78 51 77 73 -221 0
74 78 51 77 73 -219 0
74 78 51 77 73 -222 0
74 78 51 77 73 -220 0
74 78 28 77 73 -165 0
74 78 28 77 73 -167 0
74 78 28 77 73 -168 0
74 78 28 77 73 -166 0
74 78 38 77 73 -188 0
74 78 38 77 73 -187 0
74 78 38 77 73 -189 0
74 78 38 77 73 -190 0
74 78 56 77 73 -229 0
74 78 56 77 73 -230 0
74 78 56 77 73 -231 0
74 78 56 77 73 -232 0
74 78 19 77 73 -140 0
74 78 19 77 73 -139 0
74 78 19 77 73 -142 0
74 78 19 77 73 -141 0
74 78 65 77 73 -238 0
74 78 65 77 73 -237 0
74 78 65 77 73 -235 0
74 78 65 77 73 -236 0
74 78 8 77 73 -109 0
74 78 8 77 73 -112 0
74 78 8 77 73 -110 0
74 78 8 77 73 -111 0
74 78 39 77 73 -205 0
74 78 39 77 73 -208 0
74 78 39 77 73 -206 0
74 78 39 77 73 -207 0
74 78 77 1 73 -72 0
74 78 77 1 73 -76 0
74 78 77 1 73 -71 0
74 78 77 1 73 -75 0
74 78 77 52 73 -221 0
74 78 77 52 73 -219 0
74 78 77 52 73 -222 0
74 78 77 52 73 -220 0
74 78 77 29 73 -165 0
74 78 77 29 73 -167 0
74 78 77 29 73 -168 0
74 78 77 29 73 -166 0
74 78 77 36 73 -188 0
74 78 77 36 73 -187 0
74 78 77 36 73 -189 0
74 78 77 36 73 -190 0
74 78 77 58 73 -229 0
74 78 77 58 73 -230 0
74 78 77 58 73 -231 0
74 78 77 58 73 -232 0
74 78 77 21 73 -140 0
74 78 77 21 73 -139 0
74 78 77 21 73 -142 0
74 78 77 21 73 -141 0
74 78 77 63 73 -238 0
74 78 77 63 73 -237 0
74 78 77 63 73 -235 0
74 78 77 63 73 -236 0
74 78 77 7 73 -109 0
74 78 77 7 73 -112 0
74 78 77 7 73 -110 0
74 78 77 7 73 -111 0
74 78 77 41 73 -205 0
74 78 77 41 73 -208 0
74 78 77 41 73 -206 0
74 78 77 41 73 -207 0
74 78 77 73 4 -72 0
74 78 77 73 4 -76 0
74 78 77 73 4 -71 0
74 78 77 73 4 -75 0
74 78 77 73 54 -221 0
74 78 77 73 54 -219 0
74 78 77 73 54 -222 0
74 78 77 73 54 -220 0
6 49 3 1 4 -53 0
6 49 3 1 4 -48 0
6 49 3 1 4 -50 0
6 49 3 1 4 -47 0
6 49 51 52 54 -53 0
6 49 51 52 54 -48 0
6 49 51 52 54 -50 0
6 49 51 52 54 -47 0
6 26 3 1 4 -27 0
6 26 3 1 4 -24 0
6 26 3 1 4 -30 0
6 26 3 1 4 -25 0
6 33 3 1 4 -31 0
6 33 3 1 4 -32 0
6 33 3 1 4 -37 0
6 33 3 1 4 -34 0
6 57 3 1 4 -60 0
6 57 3 1 4 -62 0
6 57 3 1 4 -61 0
6 57 3 1 4 -59 0
6 15 3 1 4 -22 0
6 15 3 1 4 -17 0
6 15 3 1 4 -20 0
6 15 3 1 4 -18 0
6 70 3 1 4 -69 0
6 70 3 1 4 -66 0
6 70 3 1 4 -64 0
6 70 3 1 4 -67 0
6 9 3 1 4 -12 0
6 9 3 1 4 -11 0
6 9 3 1 4 -13 0
6 9 3 1 4 -10 0
6 40 3 1 4 -44 0
6 40 3 1 4 -43 0
6 40 3 1 4 -46 0
6 40 3 1 4 -45 0
6 78 3 1 4 -72 0
6 78 3 1 4 -76 0
6 78 3 1 4 -71 0
6 78 3 1 4 -75 0
6 3 51 1 4 -53 0
6 3 51 1 4 -48 0
6 3 51 1 4 -50 0
6 3 51 1 4 -47 0
6 3 28 1 4 -27 0
6 3 28 1 4 -24 0
6 3 28 1 4 -30 0
6 3 28 1 4 -25 0
6 3 38 1 4 -31 0
6 3 38 1 4 -32 0
6 3 38 1 4 -37 0
6 3 38 1 4 -34 0
6 3 56 1 4 -60 0
6 3 56 1 4 -62 0
6 3 56 1 4 -61 0
6 3 56 1 4 -59 0
6 3 19 1 4 -22 0
6 3 19 1 4 -17 0
6 3 19 1 4 -20 0
6 3 19 1 4 -18 0
6 3 65 1 4 -69 0
6 3 65 1 4 -66 0
6 3 65 1 4 -64 0
6 3 65 1 4 -67 0
6 3 8 1 4 -12 0
6 3 8 1 4 -11 0
6 3 8 1 4 -13 0
6 3 8 1 4 -10 0
6 3 39 1 4 -44 0
6 3 39 1 4 -43 0
6 3 39 1 4 -46 0
6 3 39 1 4 -45 0
6 3 77 1 4 -72 0
6 3 77 1 4 -76 0
6 3 77 1 4 -71 0
6 3 77 1 4 -75 0
6 3 1 52 4 -53 0
6 3 1 52 4 -48 0
6 3 1 52 4 -50 0
6 3 1 52 4 -47 0
6 3 1 29 4 -27 0
6 3 1 29 4 -24 0
6 3 1 29 4 -30 0
6 3 1 29 4 -25 0
6 3 1 36 4 -31 0
6 3 1 36 4 -32 0
6 3 1 36 4 -37 0
6 3 1 36 4 -34 0
6 3 1 58 4 -60 0
6 3 1 58 4 -62 0
6 3 1 58 4 -61 0
6 3 1 58 4 -59 0
6 3 1 21 4 -22 0
6 3 1 21 4 -17 0
6 3 1 21 4 -20 0
6 3 1 21 4 -18 0
6 3 1 63 4 -69 0
6 3 1 63 4 -66 0
6 3 1 63 4 -64 0
6 3 1 63 4 -67 0
6 3 1 7 4 -12 0
6 3 1 7 4 -11 0
6 3 1 7 4 -13 0
6 3 1 7 4 -10 0
6 3 1 41 4 -44 0
6 3 1 41 4 -43 0
6 3 1 41 4 -46 0
6 3 1 41 4 -45 0
6 3 1 73 4 -72 0
6 3 1 73 4 -76 0
6 3 1 73 4 -71 0
6 3 1 73 4 -75 0
6 3 1 4 54 -53 0
6 3 1 4 54 -48 0
6 3 1 4 54 -50 0
6 3 1 4 54 -47 0
49 26 51 52 54 -154 0
49 26 51 52 54 -156 0
49 26 51 52 54 -155 0
49 26 51 52 54 -153 0
49 33 51 52 54 -175 0
49 33 51 52 54 -178 0
49 33 51 52 54 -176 0
49 33 51 52 54 -177 0
49 57 51 52 54 -212 0
49 57 51 52 54 -214 0
49 57 51 52 54 -211 0
49 57 51 52 54 -213 0
49 15 51 52 54 -130 0
49 15 51 52 54 -128 0
49 15 51 52 54 -127 0
49 15 51 52 54 -129 0
49 70 51 52 54 -215 0
49 70 51 52 54 -216 0
49 70 51 52 54 -217 0
49 70 51 52 54 -218 0
49 9 51 52 54 -98 0
49 9 51 52 54 -97 0
49 9 51 52 54 -100 0
49 9 51 52 54 -99 0
49 40 51 52 54 -195 0
49 40 51 52 54 -194 0
49 40 51 52 54 -193 0
49 40 51 52 54 -196 0
49 78 51 52 54 -221 0
49 78 51 52 54 -219 0
49 78 51 52 54 -222 0
49 78 51 52 54 -220 0
49 3 51 52 54 -53 0
49 3 51 52 54 -48 0
49 3 51 52 54 -50 0
49 3 51 52 54 -47 0
49 51 28 52 54 -154 0
49 51 28 52 54 -156 0
49 51 28 52 54 -155 0
49 51 28 52 54 -153 0
49 51 38 52 54 -175 0
49 51 38 52 54 -178 0
49 51 38 52 54 -176 0
49 51 38 52 54 -177 0
49 51 56 52 54 -212 0
49 51 56 52 54 -214 0
49 51 56 52 54 -211 0
49 51 56 52 54 -213 0
49 51 19 52 54 -130 0
49 51 19 52 54 -128 0
49 51 19 52 54 -127 0
49 51 19 52 54 -129 0
49 51 65 52 54 -215 0
49 51 65 52 54 -216 0
49 51 65 52 54 -217 0
49 51 65 52 54 -218 0
49 51 8 52 54 -98 0
49 51 8 52 54 -97 0
49 51 8 52 54 -100 0
49 51 8 52 54 -99 0
49 51 39 52 54 -195 0
49 51 39 52 54 -194 0
49 51 39 52 54 -193 0
49 51 39 52 54 -196 0
49 51 77 52 54 -221 0
49 51 77 52 54 -219 0
49 51 77 52 54 -222 0
49 51 77 52 54 -220 0
49 51 1 52 54 -53 0
49 51 1 52 54 -48 0
49 51 1 52 54 -50 0
49 51 1 52 54 -47 0
49 51 52 29 54 -154 0
49 51 52 29 54 -156 0
49 51 52 29 54 -155 0
49 51 52 29 54 -153 0
49 51 52 36 54 -175 0
49 51 52 36 54 -178 0
49 51 52 36 54 -176 0
49 51 52 36 54 -177 0
49 51 52 58 54 -212 0
49 51 52 58 54 -214 0
49 51 52 58 54 -211 0
49 51 52 58 54 -213 0
49 51 52 21 54 -130 0
49 51 52 21 54 -128 0
49 51 52 21 54 -127 0
49 51 52 21 54 -129 0
49 51 52 63 54 -215 0
49 51 52 63 54 -216 0
49 51 52 63 54 -217 0
49 51 52 63 54 -218 0
49 51 52 7 54 -98 0
49 51 52 7 54 -97 0
49 51 52 7 54 -100 0
49 51 52 7 54 -99 0
49 51 52 41 54 -195 0
49 51 52 41 54 -194 0
49 51 52 41 54 -193 0
49 51 52 41 54 -196 0
49 51 52 73 54 -221 0
49 51 52 73 54 -219 0
49 51 52 73 54 -222 0
49 51 52 73 54 -220 0
49 51 52 4 54 -53 0
49 51 52 4 54 -48 0
49 51 52 4 54 -50 0
49 51 52 4 54 -47 0
23 35 26 33 28 38 -148 0
23 35 26 33 28 38 -146 0
23 35 26 33 28 38 -147 0
23 35 26 33 28 38 -145 0
23 35 26 33 28 29 -148 0
23 35 26 33 28 29 -146 0
23 35 26 33 28 29 -147 0
23 35 26 33 28 29 -145 0
23 35 26 33 38 36 -148 0
23 35 26 33 38 36 -146 0
23 35 26 33 38 36 -147 0
23 35 26 33 38 36 -145 0
23 35 26 33 29 36 -148 0
23 35 26 33 29 36 -146 0
23 35 26 33 29 36 -147 0
23 35 26 33 29 36 -145 0
23 35 26 28 38 29 -148 0
23 35 26 28 38 29 -146 0
23 35 26 28 38 29 -147 0
23 35 26 28 38 29 -145 0
23 35 26 28 29 36 -148 0
23 35 26 28 29 36 -146 0
23 35 26 28 29 36 -147 0
23 35 26 28 29 36 -145 0
23 35 33 28 38 36 -148 0
23 35 33 28 38 36 -146 0
23 35 33 28 38 36 -147 0
23 35 33 28 38 36 -145 0
23 35 33 38 29 36 -148 0
23 35 33 38 29 36 -146 0
23 35 33 38 29 36 -147 0
23 35 33 38 29 36 -145 0
23 35 28 38 29 36 -148 0
23 35 28 38 29 36 -146 0
23 35 28 38 29 36 -147 0
23 35 28 38 29 36 -145 0
23 55 26 57 28 56 -160 0
23 55 26 57 28 56 -157 0
23 55 26 57 28 56 -158 0
23 55 26 57 28 56 -159 0
23 55 26 57 28 29 -160 0
23 55 26 57 28 29 -157 0
23 55 26 57 28 29 -158 0
23 55 26 57 28 29 -159 0
23 55 26 57 56 58 -160 0
23 55 26 57 56 58 -157 0
23 55 26 57 56 58 -158 0
23 55 26 57 56 58 -159 0
23 55 26 57 29 58 -160 0
23 55 26 57 29 58 -157 0
23 55 26 57 29 58 -158 0
23 55 26 57 29 58 -159 0
23 55 26 28 56 29 -160 0
23 55 26 28 56 29 -157 0
23 55 26 28 56 29 -158 0
23 55 26 28 56 29 -159 0
23 55 26 28 29 58 -160 0
23 55 26 28 29 58 -157 0
23 55 26 28 29 58 -158 0
23 55 26 28 29 58 -159 0
23 55 57 28 56 58 -160 0
23 55 57 28 56 58 -157 0
23 55 57 28 56 58 -158 0
23 55 57 28 56 58 -159 0
23 55 57 56 29 58 -160 0
23 55 57 56 29 58 -157 0
23 55 57 56 29 58 -158 0
23 55 57 56 29 58 -159 0
23 55 28 56 29 58 -160 0
23 55 28 56 29 58 -157 0
23 55 28 56 29 58 -158 0
23 55 28 56 29 58 -159 0
23 16 26 15 28 19 -118 0
23 16 26 15 28 19 -117 0
23 16 26 15 28 19 -115 0
23 16 26 15 28 19 -116 0
23 16 26 15 28 29 -118 0
23 16 26 15 28 29 -117 0
23 16 26 15 28 29 -115 0
23 16 26 15 28 29 -116 0
23 16 26 15 19 21 -118 0
23 16 26 15 19 21 -117 0
23 16 26 15 19 21 -115 0
23 16 26 15 19 21 -116 0
23 16 26 15 29 21 -118 0
23 16 26 15 29 21 -117 0
23 16 26 15 29 21 -115 0
23 16 26 15 29 21 -116 0
23 16 26 28 19 29 -118 0
23 16 26 28 19 29 -117 0
23 16 26 28 19 29 -115 0
23 16 26 28 19 29 -116 0
23 16 26 28 29 21 -118 0
23 16 26 28 29 21 -117 0
23 16 26 28 29 21 -115 0
23 16 26 28 29 21 -116 0
23 16 15 28 19 21 -118 0
23 16 15 28 19 21 -117 0
23 16 15 28 19 21 -115 0
23 16 15 28 19 21 -116 0
23 16 15 19 29 21 -118 0
23 16 15 19 29 21 -117 0
23 16 15 19 29 21 -115 0
23 16 15 19 29 21 -116 0
23 16 28 19 29 21 -118 0
23 16 28 19 29 21 -117 0
23 16 28 19 29 21 -115 0
23 16 28 19 29 21 -116 0
23 68 26 70 28 65 -164 0
23 68 26 70 28 65 -163 0
23 68 26 70 28 65 -161 0
23 68 26 70 28 65 -162 0
23 68 26 70 28 29 -164 0
23 68 26 70 28 29 -163 0
23 68 26 70 28 29 -161 0
23 68 26 70 28 29 -162 0
23 68 26 70 65 63 -164 0
23 68 26 70 65 63 -163 0
23 68 26 70 65 63 -161 0
23 68 26 70 65 63 -162 0
23 68 26 70 29 63 -164 0
23 68 26 70 29 63 -163 0
23 68 26 70 29 63 -161 0
23 68 26 70 29 63 -162 0
23 68 26 28 65 29 -164 0
23 68 26 28 65 29 -163 0
23 68 26 28 65 29 -161 0
23 68 26 28 65 29 -162 0
23 68 26 28 29 63 -164 0
23 68 26 28 29 63 -163 0
23 68 26 28 29 63 -161 0
23 68 26 28 29 63 -162 0
23 68 70 28 65 63 -164 0
23 68 70 28 65 63 -163 0
23 68 70 28 65 63 -161 0
23 68 70 28 65 63 -162 0
23 68 70 65 29 63 -164 0
23 68 70 65 29 63 -163 0
23 68 70 65 29 63 -161 0
23 68 70 65 29 63 -162 0
23 68 28 65 29 63 -164 0
23 68 28 65 29 63 -163 0
23 68 28 65 29 63 -161 0
23 68 28 65 29 63 -162 0
23 14 26 9 28 8 -88 0
23 14 26 9 28 8 -85 0
23 14 26 9 28 8 -86 0
23 14 26 9 28 8 -87 0
23 14 26 9 28 29 -88 0
23 14 26 9 28 29 -85 0
23 14 26 9 28 29 -86 0
23 14 26 9 28 29 -87 0
23 14 26 9 8 7 -88 0
23 14 26 9 8 7 -85 0
23 14 26 9 8 7 -86 0
23 14 26 9 8 7 -87 0
23 14 26 9 29 7 -88 0
23 14 26 9 29 7 -85 0
23 14 26 9 29 7 -86 0
23 14 26 9 29 7 -87 0
23 14 26 28 8 29 -88 0
23 14 26 28 8 29 -85 0
23 14 26 28 8 29 -86 0
23 14 26 28 8 29 -87 0
23 14 26 28 29 7 -88 0
23 14 26 28 29 7 -85 0
23 14 26 28 29 7 -86 0
23 14 26 28 29 7 -87 0
23 14 9 28 8 7 -88 0
23 14 9 28 8 7 -85 0
23 14 9 28 8 7 -86 0
23 14 9 28 8 7 -87 0
23 14 9 8 29 7 -88 0
23 14 9 8 29 7 -85 0
23 14 9 8 29 7 -86 0
23 14 9 8 29 7 -87 0
23 14 28 8 29 7 -88 0
23 14 28 8 29 7 -85 0
23 14 28 8 29 7 -86 0
23 14 28 8 29 7 -87 0
23 42 26 40 28 39 -152 0
23 42 26 40 28 39 -150 0
23 42 26 40 28 39 -149 0
23 42 26 40 28 39 -151 0
23 42 26 40 28 29 -152 0
23 42 26 40 28 29 -150 0
23 42 26 40 28 29 -149 0
23 42 26 40 28 29 -151 0
23 42 26 40 39 41 -152 0
23 42 26 40 39 41 -150 0
23 42 26 40 39 41 -149 0
23 42 26 40 39 41 -151 0
23 42 26 40 29 41 -152 0
23 42 26 40 29 41 -150 0
23 42 26 40 29 41 -149 0
23 42 26 40 29 41 -151 0
23 42 26 28 39 29 -152 0
23 42 26 28 39 29 -150 0
23 42 26 28 39 29 -149 0
23 42 26 28 39 29 -151 0
23 42 26 28 29 41 -152 0
23 42 26 28 29 41 -150 0
23 42 26 28 29 41 -149 0
23 42 26 28 29 41 -151 0
23 42 40 28 39 41 -152 0
23 42 40 28 39 41 -150 0
23 42 40 28 39 41 -149 0
23 42 40 28 39 41 -151 0
23 42 40 39 29 41 -152 0
23 42 40 39 29 41 -150 0
23 42 40 39 29 41 -149 0
23 42 40 39 29 41 -151 0
23 42 28 39 29 41 -152 0
23 42 28 39 29 41 -150 0
23 42 28 39 29 41 -149 0
23 42 28 39 29 41 -151 0
23 74 26 78 28 77 -165 0
23 74 26 78 28 77 -167 0
23 74 26 78 28 77 -168 0
23 74 26 78 28 77 -166 0
23 74 26 78 28 29 -165 0
23 74 26 78 28 29 -167 0
23 74 26 78 28 29 -168 0
23 74 26 78 28 29 -166 0
23 74 26 78 77 73 -165 0
23 74 26 78 77 73 -167 0
23 74 26 78 77 73 -168 0
23 74 26 78 77 73 -166 0
23 74 26 78 29 73 -165 0
23 74 26 78 29 73 -167 0
23 74 26 78 29 73 -168 0
23 74 26 78 29 73 -166 0
23 74 26 28 77 29 -165 0
23 74 26 28 77 29 -167 0
23 74 26 28 77 29 -168 0
23 74 26 28 77 29 -166 0
23 74 26 28 29 73 -165 0
23 74 26 28 29 73 -167 0
23 74 26 28 29 73 -168 0
23 74 26 28 29 73 -166 0
23 74 78 28 77 73 -165 0
23 74 78 28 77 73 -167 0
23 74 78 28 77 73 -168 0
23 74 78 28 77 73 -166 0
23 74 78 77 29 73 -165 0
23 74 78 77 29 73 -167 0
23 74 78 77 29 73 -168 0
23 74 78 77 29 73 -166 0
23 74 28 77 29 73 -165 0
23 74 28 77 29 73 -167 0
23 74 28 77 29 73 -168 0
23 74 28 77 29 73 -166 0
23 6 26 3 28 1 -27 0
23 6 26 3 28 1 -24 0
23 6 26 3 28 1 -30 0
23 6 26 3 28 1 -25 0
23 6 26 3 28 29 -27 0
23 6 26 3 28 29 -24 0
23 6 26 3 28 29 -30 0
23 6 26 3 28 29 -25 0
23 6 26 3 1 4 -27 0
23 6 26 3 1 4 -24 0
23 6 26 3 1 4 -30 0
23 6 26 3 1 4 -25 0
23 6 26 3 29 4 -27 0
23 6 26 3 29 4 -24 0
23 6 26 3 29 4 -30 0
23 6 26 3 29 4 -25 0
23 6 26 28 1 29 -27 0
23 6 26 28 1 29 -24 0
23 6 26 28 1 29 -30 0
23 6 26 28 1 29 -25 0
23 6 26 28 29 4 -27 0
23 6 26 28 29 4 -24 0
23 6 26 28 29 4 -30 0
23 6 26 28 29 4 -25 0
23 6 3 28 1 4 -27 0
23 6 3 28 1 4 -24 0
23 6 3 28 1 4 -30 0
23 6 3 28 1 4 -25 0
23 6 3 1 29 4 -27 0
23 6 3 1 29 4 -24 0
23 6 3 1 29 4 -30 0
23 6 3 1 29 4 -25 0
23 6 28 1 29 4 -27 0
23 6 28 1 29 4 -24 0
23 6 28 1 29 4 -30 0
23 6 28 1 29 4 -25 0
23 49 26 51 28 52 -154 0
23 49 26 51 28 52 -156 0
23 49 26 51 28 52 -155 0
23 49 26 51 28 52 -153 0
23 49 26 51 28 29 -154 0
23 49 26 51 28 29 -156 0
23 49 26 51 28 29 -155 0
23 49 26 51 28 29 -153 0
23 49 26 51 52 54 -154 0
23 49 26 51 52 54 -156 0
23 49 26 51 52 54 -155 0
23 49 26 51 52 54 -153 0
23 49 26 51 29 54 -154 0
23 49 26 51 29 54 -156 0
23 49 26 51 29 54 -155 0
23 49 26 51 29 54 -153 0
23 49 26 28 52 29 -154 0
23 49 26 28 52 29 -156 0
23 49 26 28 52 29 -155 0
23 49 26 28 52 29 -153 0
23 49 26 28 29 54 -154 0
23 49 26 28 29 54 -156 0
23 49 26 28 29 54 -155 0
23 49 26 28 29 54 -153 0
23 49 51 28 52 54 -154 0
23 49 51 28 52 54 -156 0
23 49 51 28 52 54 -155 0
23 49 51 28 52 54 -153 0
23 49 51 52 29 54 -154 0
23 49 51 52 29 54 -156 0
23 49 51 52 29 54 -155 0
23 49 51 52 29 54 -153 0
23 49 28 52 29 54 -154 0
23 49 28 52 29 54 -156 0
23 49 28 52 29 54 -155 0
23 49 28 52 29 54 -153 0
23 26 33 28 38 29 -148 0
23 26 33 28 38 29 -146 0
23 26 33 28 38 29 -147 0
23 26 33 28 38 29 -145 0
23 26 33 28 29 36 -148 0
23 26 33 28 29 36 -146 0
23 26 33 28 29 36 -147 0
23 26 33 28 29 36 -145 0
23 26 57 28 56 29 -160 0
23 26 57 28 56 29 -157 0
23 26 57 28 56 29 -158 0
23 26 57 28 56 29 -159 0
23 26 57 28 29 58 -160 0
23 26 57 28 29 58 -157 0
23 26 57 28 29 58 -158 0
23 26 57 28 29 58 -159 0
23 26 15 28 19 29 -118 0
23 26 15 28 19 29 -117 0
23 26 15 28 19 29 -115 0
23 26 15 28 19 29 -116 0
23 26 15 28 29 21 -118 0
23 26 15 28 29 21 -117 0
23 26 15 28 29 21 -115 0
23 26 15 28 29 21 -116 0
23 26 70 28 65 29 -164 0
23 26 70 28 65 29 -163 0
23 26 70 28 65 29 -161 0
23 26 70 28 65 29 -162 0
23 26 70 28 29 63 -164 0
23 26 70 28 29 63 -163 0
23 26 70 28 29 63 -161 0
23 26 70 28 29 63 -162 0
23 26 9 28 8 29 -88 0
23 26 9 28 8 29 -85 0
23 26 9 28 8 29 -86 0
23 26 9 28 8 29 -87 0
23 26 9 28 29 7 -88 0
23 26 9 28 29 7 -85 0
23 26 9 28 29 7 -86 0
23 26 9 28 29 7 -87 0
23 26 40 28 39 29 -152 0
23 26 40 28 39 29 -150 0
23 26 40 28 39 29 -149 0
23 26 40 28 39 29 -151 0
23 26 40 28 29 41 -152 0
23 26 40 28 29 41 -150 0
23 26 40 28 29 41 -149 0
23 26 40 28 29 41 -151 0
23 26 78 28 77 29 -165 0
23 26 78 28 77 29 -167 0
23 26 78 28 77 29 -168 0
23 26 78 28 77 29 -166 0
23 26 78 28 29 73 -165 0
23 26 78 28 29 73 -167 0
23 26 78 28 29 73 -168 0
23 26 78 28 29 73 -166 0
23 26 3 28 1 29 -27 0
23 26 3 28 1 29 -24 0
23 26 3 28 1 29 -30 0
23 26 3 28 1 29 -25 0
23 26 3 28 29 4 -27 0
23 26 3 28 29 4 -24 0
23 26 3 28 29 4 -30 0
23 26 3 28 29 4 -25 0
23 26 51 28 52 29 -154 0
23 26 51 28 52 29 -156 0
23 26 51 28 52 29 -155 0
23 26 51 28 52 29 -153 0
23 26 51 28 29 54 -154 0
23 26 51 28 29 54 -156 0
23 26 51 28 29 54 -155 0
23 26 51 28 29 54 -153 0
23 26 28 38 29 36 -148 0
23 26 28 38 29 36 -146 0
23 26 28 38 29 36 -147 0
23 26 28 38 29 36 -145 0
23 26 28 56 29 58 -160 0
23 26 28 56 29 58 -157 0
23 26 28 56 29 58 -158 0
23 26 28 56 29 58 -159 0
23 26 28 19 29 21 -118 0
23 26 28 19 29 21 -117 0
23 26 28 19 29 21 -115 0
23 26 28 19 29 21 -116 0
23 26 28 65 29 63 -164 0
23 26 28 65 29 63 -163 0
23 26 28 65 29 63 -161 0
23 26 28 65 29 63 -162 0
23 26 28 8 29 7 -88 0
23 26 28 8 29 7 -85 0
23 26 28 8 29 7 -86 0
23 26 28 8 29 7 -87 0
23 26 28 39 29 41 -152 0
23 26 28 39 29 41 -150 0
23 26 28 39 29 41 -149 0
23 26 28 39 29 41 -151 0
23 26 28 77 29 73 -165 0
23 26 28 77 29 73 -167 0
23 26 28 77 29 73 -168 0
23 26 28 77 29 73 -166 0
23 26 28 1 29 4 -27 0
23 26 28 1 29 4 -24 0
23 26 28 1 29 4 -30 0
23 26 28 1 29 4 -25 0
23 26 28 52 29 54 -154 0
23 26 28 52 29 54 -156 0
23 26 28 52 29 54 -155 0
23 26 28 52 29 54 -153 0
35 55 33 57 38 56 -179 0
35 55 33 57 38 56 -181 0
35 55 33 57 38 56 -182 0
35 55 33 57 38 56 -180 0
35 55 33 57 38 36 -179 0
35 55 33 57 38 36 -181 0
35 55 33 57 38 36 -182 0
35 55 33 57 38 36 -180 0
35 55 33 57 56 58 -179 0
35 55 33 57 56 58 -181 0
35 55 33 57 56 58 -182 0
35 55 33 57 56 58 -180 0
35 55 33 57 36 58 -179 0
35 55 33 57 36 58 -181 0
35 55 33 57 36 58 -182 0
35 55 33 57 36 58 -180 0
35 55 33 38 56 36 -179 0
35 55 33 38 56 36 -181 0
35 55 33 38 56 36 -182 0
35 55 33 38 56 36 -180 0
35 55 33 38 36 58 -179 0
35 55 33 38 36 58 -181 0
35 55 33 38 36 58 -182 0
35 55 33 38 36 58 -180 0
35 55 57 38 56 58 -179 0
35 55 57 38 56 58 -181 0
35 55 57 38 56 58 -182 0
35 55 57 38 56 58 -180 0
35 55 57 56 36 58 -179 0
35 55 57 56 36 58 -181 0
35 55 57 56 36 58 -182 0
35 55 57 56 36 58 -180 0
35 55 38 56 36 58 -179 0
35 55 38 56 36 58 -181 0
35 55 38 56 36 58 -182 0
35 55 38 56 36 58 -180 0
35 16 33 15 38 19 -122 0
35 16 33 15 38 19 -119 0
35 16 33 15 38 19 -121 0
35 16 33 15 38 19 -120 0
35 16 33 15 38 36 -122 0
35 16 33 15 38 36 -119 0
35 16 33 15 38 36 -121 0
35 16 33 15 38 36 -120 0
35 16 33 15 19 21 -122 0
35 16 33 15 19 21 -119 0
35 16 33 15 19 21 -121 0
35 16 33 15 19 21 -120 0
35 16 33 15 36 21 -122 0
35 16 33 15 36 21 -119 0
35 16 33 15 36 21 -121 0
35 16 33 15 36 21 -120 0
35 16 33 38 19 36 -122 0
35 16 33 38 19 36 -119 0
35 16 33 38 19 36 -121 0
35 16 33 38 19 36 -120 0
35 16 33 38 36 21 -122 0
35 16 33 38 36 21 -119 0
35 16 33 38 36 21 -121 0
35 16 33 38 36 21 -120 0
35 16 15 38 19 21 -122 0
35 16 15 38 19 21 -119 0
35 16 15 38 19 21 -121 0
35 16 15 38 19 21 -120 0
35 16 15 19 36 21 -122 0
35 16 15 19 36 21 -119 0
35 16 15 19 36 21 -121 0
35 16 15 19 36 21 -120 0
35 16 38 19 36 21 -122 0
35 16 38 19 36 21 -119 0
35 16 38 19 36 21 -121 0
35 16 38 19 36 21 -120 0
35 68 33 70 38 65 -184 0
35 68 33 70 38 65 -183 0
35 68 33 70 38 65 -185 0
35 68 33 70 38 65 -186 0
35 68 33 70 38 36 -184 0
35 68 33 70 38 36 -183 0
35 68 33 70 38 36 -185 0
35 68 33 70 38 36 -186 0
35 68 33 70 65 63 -184 0
35 68 33 70 65 63 -183 0
35 68 33 70 65 63 -185 0
35 68 33 70 65 63 -186 0
35 68 33 70 36 63 -184 0
35 68 33 70 36 63 -183 0
35 68 33 70 36 63 -185 0
35 68 33 70 36 63 -186 0
35 68 33 38 65 36 -184 0
35 68 33 38 65 36 -183 0
35 68 33 38 65 36 -185 0
35 68 33 38 65 36 -186 0
35 68 33 38 36 63 -184 0
35 68 33 38 36 63 -183 0
35 68 33 38 36 63 -185 0
35 68 33 38 36 63 -186 0
35 68 70 38 65 63 -184 0
35 68 70 38 65 63 -183 0
35 68 70 38 65 63 -185 0
35 68 70 38 65 63 -186 0
35 68 70 65 36 63 -184 0
35 68 70 65 36 63 -183 0
35 68 70 65 36 63 -185 0
35 68 70 65 36 63 -186 0
35 68 38 65 36 63 -184 0
35 68 38 65 36 63 -183 0
35 68 38 65 36 63 -185 0
35 68 38 65 36 63 -186 0
35 14 33 9 38 8 -91 0
35 14 33 9 38 8 -89 0
35 14 33 9 38 8 -92 0
35 14 33 9 38 8 -90 0
35 14 33 9 38 36 -91 0
35 14 33 9 38 36 -89 0
35 14 33 9 38 36 -92 0
35 14 33 9 38 36 -90 0
35 14 33 9 8 7 -91 0
35 14 33 9 8 7 -89 0
35 14 33 9 8 7 -92 0
35 14 33 9 8 7 -90 0
35 14 33 9 36 7 -91 0
35 14 33 9 36 7 -89 0
35 14 33 9 36 7 -92 0
35 14 33 9 36 7 -90 0
35 14 33 38 8 36 -91 0
35 14 33 38 8 36 -89 0
35 14 33 38 8 36 -92 0
35 14 33 38 8 36 -90 0
35 14 33 38 36 7 -91 0
35 14 33 38 36 7 -89 0
35 14 33 38 36 7 -92 0
35 14 33 38 36 7 -90 0
35 14 9 38 8 7 -91 0
35 14 9 38 8 7 -89 0
35 14 9 38 8 7 -92 0
35 14 9 38 8 7 -90 0
35 14 9 8 36 7 -91 0
35 14 9 8 36 7 -89 0
35 14 9 8 36 7 -92 0
35 14 9 8 36 7 -90 0
35 14 38 8 36 7 -91 0
35 14 38 8 36 7 -89 0
35 14 38 8 36 7 -92 0
35 14 38 8 36 7 -90 0
35 42 33 40 38 39 -171 0
35 42 33 40 38 39 -173 0
35 42 33 40 38 39 -172 0
35 42 33 40 38 39 -174 0
35 42 33 40 38 36 -171 0
35 42 33 40 38 36 -173 0
35 42 33 40 38 36 -172 0
35 42 33 40 38 36 -174 0
35 42 33 40 39 41 -171 0
35 42 33 40 39 41 -173 0
35 42 33 40 39 41 -172 0
35 42 33 40 39 41 -174 0
35 42 33 40 36 41 -171 0
35 42 33 40 36 41 -173 0
35 42 33 40 36 41 -172 0
35 42 33 40 36 41 -174 0
35 42 33 38 39 36 -171 0
35 42 33 38 39 36 -173 0
35 42 33 38 39 36 -172 0
35 42 33 38 39 36 -174 0
35 42 33 38 36 41 -171 0
35 42 33 38 36 41 -173 0
35 42 33 38 36 41 -172 0
35 42 33 38 36 41 -174 0
35 42 40 38 39 41 -171 0
35 42 40 38 39 41 -173 0
35 42 40 38 39 41 -172 0
35 42 40 38 39 41 -174 0
35 42 40 39 36 41 -171 0
35 42 40 39 36 41 -173 0
35 42 40 39 36 41 -172 0
35 42 40 39 36 41 -174 0
35 42 38 39 36 41 -171 0
35 42 38 39 36 41 -173 0
35 42 38 39 36 41 -172 0
35 42 38 39 36 41 -174 0
35 74 33 78 38 77 -188 0
35 74 33 78 38 77 -187 0
35 74 33 78 38 77 -189 0
35 74 33 78 38 77 -190 0
35 74 33 78 38 36 -188 0
35 74 33 78 38 36 -187 0
35 74 33 78 38 36 -189 0
35 74 33 78 38 36 -190 0
35 74 33 78 77 73 -188 0
35 74 33 78 77 73 -187 0
35 74 33 78 77 73 -189 0
35 74 33 78 77 73 -190 0
35 74 33 78 36 73 -188 0
35 74 33 78 36 73 -187 0
35 74 33 78 36 73 -189 0
35 74 33 78 36 73 -190 0
35 74 33 38 77 36 -188 0
35 74 33 38 77 36 -187 0
35 74 33 38 77 36 -189 0
35 74 33 38 77 36 -190 0
35 74 33 38 36 73 -188 0
35 74 33 38 36 73 -187 0
35 74 33 38 36 73 -189 0
35 74 33 38 36 73 -190 0
35 74 78 38 77 73 -188 0
35 74 78 38 77 73 -187 0
35 74 78 38 77 73 -189 0
35 74 78 38 77 73 -190 0
35 74 78 77 36 73 -188 0
35 74 78 77 36 73 -187 0
35 74 78 77 36 73 -189 0
35 74 78 77 36 73 -190 0
35 74 38 77 36 73 -188 0
35 74 38 77 36 73 -187 0
35 74 38 77 36 73 -189 0
35 74 38 77 36 73 -190 0
35 6 33 3 38 1 -31 0
35 6 33 3 38 1 -32 0
35 6 33 3 38 1 -37 0
35 6 33 3 38 1 -34 0
35 6 33 3 38 36 -31 0
35 6 33 3 38 36 -32 0
35 6 33 3 38 36 -37 0
35 6 33 3 38 36 -34 0
35 6 33 3 1 4 -31 0
35 6 33 3 1 4 -32 0
35 6 33 3 1 4 -37 0
35 6 33 3 1 4 -34 0
35 6 33 3 36 4 -31 0
35 6 33 3 36 4 -32 0
35 6 33 3 36 4 -37 0
35 6 33 3 36 4 -34 0
35 6 33 38 1 36 -31 0
35 6 33 38 1 36 -32 0
35 6 33 38 1 36 -37 0
35 6 33 38 1 36 -34 0
35 6 33 38 36 4 -31 0
35 6 33 38 36 4 -32 0
35 6 33 38 36 4 -37 0
35 6 33 38 36 4 -34 0
35 6 3 38 1 4 -31 0
35 6 3 38 1 4 -32 0
35 6 3 38 1 4 -37 0
35 6 3 38 1 4 -34 0
35 6 3 1 36 4 -31 0
35 6 3 1 36 4 -32 0
35 6 3 1 36 4 -37 0
35 6 3 1 36 4 -34 0
35 6 38 1 36 4 -31 0
35 6 38 1 36 4 -32 0
35 6 38 1 36 4 -37 0
35 6 38 1 36 4 -34 0
35 49 33 51 38 52 -175 0
35 49 33 51 38 52 -178 0
35 49 33 51 38 52 -176 0
35 49 33 51 38 52 -177 0
35 49 33 51 38 36 -175 0
35 49 33 51 38 36 -178 0
35 49 33 51 38 36 -176 0
35 49 33 51 38 36 -177 0
35 49 33 51 52 54 -175 0
35 49 33 51 52 54 -178 0
35 49 33 51 52 54 -176 0
35 49 33 51 52 54 -177 0
35 49 33 51 36 54 -175 0
35 49 33 51 36 54 -178 0
35 49 33 51 36 54 -176 0
35 49 33 51 36 54 -177 0
35 49 33 38 52 36 -175 0
35 49 33 38 52 36 -178 0
35 49 33 38 52 36 -176 0
35 49 33 38 52 36 -177 0
35 49 33 38 36 54 -175 0
35 49 33 38 36 54 -178 0
35 49 33 38 36 54 -176 0
35 49 33 38 36 54 -177 0
35 49 51 38 52 54 -175 0
35 49 51 38 52 54 -178 0
35 49 51 38 52 54 -176 0
35 49 51 38 52 54 -177 0
35 49 51 52 36 54 -175 0
35 49 51 52 36 54 -178 0
35 49 51 52 36 54 -176 0
35 49 51 52 36 54 -177 0
35 49 38 52 36 54 -175 0
35 49 38 52 36 54 -178 0
35 49 38 52 36 54 -176 0
35 49 38 52 36 54 -177 0
35 26 33 28 38 36 -148 0
35 26 33 28 38 36 -146 0
35 26 33 28 38 36 -147 0
35 26 33 28 38 36 -145 0
35 26 33 38 29 36 -148 0
35 26 33 38 29 36 -146 0
35 26 33 38 29 36 -147 0
35 26 33 38 29 36 -145 0
35 33 57 38 56 36 -179 0
35 33 57 38 56 36 -181 0
35 33 57 38 56 36 -182 0
35 33 57 38 56 36 -180 0
35 33 57 38 36 58 -179 0
35 33 57 38 36 58 -181 0
35 33 57 38 36 58 -182 0
35 33 57 38 36 58 -180 0
35 33 15 38 19 36 -122 0
35 33 15 38 19 36 -119 0
35 33 15 38 19 36 -121 0
35 33 15 38 19 36 -120 0
35 33 15 38 36 21 -122 0
35 33 15 38 36 21 -119 0
35 33 15 38 36 21 -121 0
35 33 15 38 36 21 -120 0
35 33 70 38 65 36 -184 0
35 33 70 38 65 36 -183 0
35 33 70 38 65 36 -185 0
35 33 70 38 65 36 -186 0
35 33 70 38 36 63 -184 0
35 33 70 38 36 63 -183 0
35 33 70 38 36 63 -185 0
35 33 70 38 36 63 -186 0
35 33 9 38 8 36 -91 0
35 33 9 38 8 36 -89 0
35 33 9 38 8 36 -92 0
35 33 9 38 8 36 -90 0
35 33 9 38 36 7 -91 0
35 33 9 38 36 7 -89 0
35 33 9 38 36 7 -92 0
35 33 9 38 36 7 -90 0
35 33 40 38 39 36 -171 0
35 33 40 38 39 36 -173 0
35 33 40 38 39 36 -172 0
35 33 40 38 39 36 -174 0
35 33 40 38 36 41 -171 0
35 33 40 38 36 41 -173 0
35 33 40 38 36 41 -172 0
35 33 40 38 36 41 -174 0
35 33 78 38 77 36 -188 0
35 33 78 38 77 36 -187 0
35 33 78 38 77 36 -189 0
35 33 78 38 77 36 -190 0
35 33 78 38 36 73 -188 0
35 33 78 38 36 73 -187 0
35 33 78 38 36 73 -189 0
35 33 78 38 36 73 -190 0
35 33 3 38 1 36 -31 0
35 33 3 38 1 36 -32 0
35 33 3 38 1 36 -37 0
35 33 3 38 1 36 -34 0
35 33 3 38 36 4 -31 0
35 33 3 38 36 4 -32 0
35 33 3 38 36 4 -37 0
35 33 3 38 36 4 -34 0
35 33 51 38 52 36 -175 0
35 33 51 38 52 36 -178 0
35 33 51 38 52 36 -176 0
35 33 51 38 52 36 -177 0
35 33 51 38 36 54 -175 0
35 33 51 38 36 54 -178 0
35 33 51 38 36 54 -176 0
35 33 51 38 36 54 -177 0
35 33 28 38 29 36 -148 0
35 33 28 38 29 36 -146 0
35 33 28 38 29 36 -147 0
35 33 28 38 29 36 -145 0
35 33 38 56 36 58 -179 0
35 33 38 56 36 58 -181 0
35 33 38 56 36 58 -182 0
35 33 38 56 36 58 -180 0
35 33 38 19 36 21 -122 0
35 33 38 19 36 21 -119 0
35 33 38 19 36 21 -121 0
35 33 38 19 36 21 -120 0
35 33 38 65 36 63 -184 0
35 33 38 65 36 63 -183 0
35 33 38 65 36 63 -185 0
35 33 38 65 36 63 -186 0
35 33 38 8 36 7 -91 0
35 33 38 8 36 7 -89 0
35 33 38 8 36 7 -92 0
35 33 38 8 36 7 -90 0
35 33 38 39 36 41 -171 0
35 33 38 39 36 41 -173 0
35 33 38 39 36 41 -172 0
35 33 38 39 36 41 -174 0
35 33 38 77 36 73 -188 0
35 33 38 77 36 73 -187 0
35 33 38 77 36 73 -189 0
35 33 38 77 36 73 -190 0
35 33 38 1 36 4 -31 0
35 33 38 1 36 4 -32 0
35 33 38 1 36 4 -37 0
35 33 38 1 36 4 -34 0
35 33 38 52 36 54 -175 0
35 33 38 52 36 54 -178 0
35 33 38 52 36 54 -176 0
35 33 38 52 36 54 -177 0
55 16 57 15 56 19 -134 0
55 16 57 15 56 19 -132 0
55 16 57 15 56 19 -131 0
55 16 57 15 56 19 -133 0
55 16 57 15 56 58 -134 0
55 16 57 15 56 58 -132 0
55 16 57 15 56 58 -131 0
55 16 57 15 56 58 -133 0
55 16 57 15 19 21 -134 0
55 16 57 15 19 21 -132 0
55 16 57 15 19 21 -131 0
55 16 57 15 19 21 -133 0
55 16 57 15 58 21 -134 0
55 16 57 15 58 21 -132 0
55 16 57 15 58 21 -131 0
55 16 57 15 58 21 -133 0
55 16 57 56 19 58 -134 0
55 16 57 56 19 58 -132 0
55 16 57 56 19 58 -131 0
55 16 57 56 19 58 -133 0
55 16 57 56 58 21 -134 0
55 16 57 56 58 21 -132 0
55 16 57 56 58 21 -131 0
55 16 57 56 58 21 -133 0
55 16 15 56 19 21 -134 0
55 16 15 56 19 21 -132 0
55 16 15 56 19 21 -131 0
55 16 15 56 19 21 -133 0
55 16 15 19 58 21 -134 0
55 16 15 19 58 21 -132 0
55 16 15 19 58 21 -131 0
55 16 15 19 58 21 -133 0
55 16 56 19 58 21 -134 0
55 16 56 19 58 21 -132 0
55 16 56 19 58 21 -131 0
55 16 56 19 58 21 -133 0
55 68 57 70 56 65 -227 0
55 68 57 70 56 65 -226 0
55 68 57 70 56 65 -225 0
55 68 57 70 56 65 -228 0
55 68 57 70 56 58 -227 0
55 68 57 70 56 58 -226 0
55 68 57 70 56 58 -225 0
55 68 57 70 56 58 -228 0
55 68 57 70 65 63 -227 0
55 68 57 70 65 63 -226 0
55 68 57 70 65 63 -225 0
55 68 57 70 65 63 -228 0
55 68 57 70 58 63 -227 0
55 68 57 70 58 63 -226 0
55 68 57 70 58 63 -225 0
55 68 57 70 58 63 -228 0
55 68 57 56 65 58 -227 0
55 68 57 56 65 58 -226 0
55 68 57 56 65 58 -225 0
55 68 57 56 65 58 -228 0
55 68 57 56 58 63 -227 0
55 68 57 56 58 63 -226 0
55 68 57 56 58 63 -225 0
55 68 57 56 58 63 -228 0
55 68 70 56 65 63 -227 0
55 68 70 56 65 63 -226 0
55 68 70 56 65 63 -225 0
55 68 70 56 65 63 -228 0
55 68 70 65 58 63 -227 0
55 68 70 65 58 63 -226 0
55 68 70 65 58 63 -225 0
55 68 70 65 58 63 -228 0
55 68 56 65 58 63 -227 0
55 68 56 65 58 63 -226 0
55 68 56 65 58 63 -225 0
55 68 56 65 58 63 -228 0
55 14 57 9 56 8 -101 0
55 14 57 9 56 8 -102 0
55 14 57 9 56 8 -104 0
55 14 57 9 56 8 -103 0
55 14 57 9 56 58 -101 0
55 14 57 9 56 58 -102 0
55 14 57 9 56 58 -104 0
55 14 57 9 56 58 -103 0
55 14 57 9 8 7 -101 0
55 14 57 9 8 7 -102 0
55 14 57 9 8 7 -104 0
55 14 57 9 8 7 -103 0
55 14 57 9 58 7 -101 0
55 14 57 9 58 7 -102 0
55 14 57 9 58 7 -104 0
55 14 57 9 58 7 -103 0
55 14 57 56 8 58 -101 0
55 14 57 56 8 58 -102 0
55 14 57 56 8 58 -104 0
55 14 57 56 8 58 -103 0
55 14 57 56 58 7 -101 0
55 14 57 56 58 7 -102 0
55 14 57 56 58 7 -104 0
55 14 57 56 58 7 -103 0
55 14 9 56 8 7 -101 0
55 14 9 56 8 7 -102 0
55 14 9 56 8 7 -104 0
55 14 9 56 8 7 -103 0
55 14 9 8 58 7 -101 0
55 14 9 8 58 7 -102 0
55 14 9 8 58 7 -104 0
55 14 9 8 58 7 -103 0
55 14 56 8 58 7 -101 0
55 14 56 8 58 7 -102 0
55 14 56 8 58 7 -104 0
55 14 56 8 58 7 -103 0
55 42 57 40 56 39 -198 0
55 42 57 40 56 39 -200 0
55 42 57 40 56 39 -197 0
55 42 57 40 56 39 -199 0
55 42 57 40 56 58 -198 0
55 42 57 40 56 58 -200 0
55 42 57 40 56 58 -197 0
55 42 57 40 56 58 -199 0
55 42 57 40 39 41 -198 0
55 42 57 40 39 41 -200 0
55 42 57 40 39 41 -197 0
55 42 57 40 39 41 -199 0
55 42 57 40 58 41 -198 0
55 42 57 40 58 41 -200 0
55 42 57 40 58 41 -197 0
55 42 57 40 58 41 -199 0
55 42 57 56 39 58 -198 0
55 42 57 56 39 58 -200 0
55 42 57 56 39 58 -197 0
55 42 57 56 39 58 -199 0
55 42 57 56 58 41 -198 0
55 42 57 56 58 41 -200 0
55 42 57 56 58 41 -197 0
55 42 57 56 58 41 -199 0
55 42 40 56 39 41 -198 0
55 42 40 56 39 41 -200 0
55 42 40 56 39 41 -197 0
55 42 40 56 39 41 -199 0
55 42 40 39 58 41 -198 0
55 42 40 39 58 41 -200 0
55 42 40 39 58 41 -197 0
55 42 40 39 58 41 -199 0
55 42 56 39 58 41 -198 0
55 42 56 39 58 41 -200 0
55 42 56 39 58 41 -197 0
55 42 56 39 58 41 -199 0
55 74 57 78 56 77 -229 0
55 74 57 78 56 77 -230 0
55 74 57 78 56 77 -231 0
55 74 57 78 56 77 -232 0
55 74 57 78 56 58 -229 0
55 74 57 78 56 58 -230 0
55 74 57 78 56 58 -231 0
55 74 57 78 56 58 -232 0
55 74 57 78 77 73 -229 0
55 74 57 78 77 73 -230 0
55 74 57 78 77 73 -231 0
55 74 57 78 77 73 -232 0
55 74 57 78 58 73 -229 0
55 74 57 78 58 73 -230 0
55 74 57 78 58 73 -231 0
55 74 57 78 58 73 -232 0
55 74 57 56 77 58 -229 0
55 74 57 56 77 58 -230 0
55 74 57 56 77 58 -231 0
55 74 57 56 77 58 -232 0
55 74 57 56 58 73 -229 0
55 74 57 56 58 73 -230 0
55 74 57 56 58 73 -231 0
55 74 57 56 58 73 -232 0
55 74 78 56 77 73 -229 0
55 74 78 56 77 73 -230 0
55 74 78 56 77 73 -231 0
55 74 78 56 77 73 -232 0
55 74 78 77 58 73 -229 0
55 74 78 77 58 73 -230 0
55 74 78 77 58 73 -231 0
55 74 78 77 58 73 -232 0
55 74 56 77 58 73 -229 0
55 74 56 77 58 73 -230 0
55 74 56 77 58 73 -231 0
55 74 56 77 58 73 -232 0
55 6 57 3 56 1 -60 0
55 6 57 3 56 1 -62 0
55 6 57 3 56 1 -61 0
55 6 57 3 56 1 -59 0
55 6 57 3 56 58 -60 0
55 6 57 3 56 58 -62 0
55 6 57 3 56 58 -61 0
55 6 57 3 56 58 -59 0
55 6 57 3 1 4 -60 0
55 6 57 3 1 4 -62 0
55 6 57 3 1 4 -61 0
55 6 57 3 1 4 -59 0
55 6 57 3 58 4 -60 0
55 6 57 3 58 4 -62 0
55 6 57 3 58 4 -61 0
55 6 57 3 58 4 -59 0
55 6 57 56 1 58 -60 0
55 6 57 56 1 58 -62 0
55 6 57 56 1 58 -61 0
55 6 57 56 1 58 -59 0
55 6 57 56 58 4 -60 0
55 6 57 56 58 4 -62 0
55 6 57 56 58 4 -61 0
55 6 57 56 58 4 -59 0
55 6 3 56 1 4 -60 0
55 6 3 56 1 4 -62 0
55 6 3 56 1 4 -61 0
55 6 3 56 1 4 -59 0
55 6 3 1 58 4 -60 0
55 6 3 1 58 4 -62 0
55 6 3 1 58 4 -61 0
55 6 3 1 58 4 -59 0
55 6 56 1 58 4 -60 0
55 6 56 1 58 4 -62 0
55 6 56 1 58 4 -61 0
55 6 56 1 58 4 -59 0
55 49 57 51 56 52 -212 0
55 49 57 51 56 52 -214 0
55 49 57 51 56 52 -211 0
55 49 57 51 56 52 -213 0
55 49 57 51 56 58 -212 0
55 49 57 51 56 58 -214 0
55 49 57 51 56 58 -211 0
55 49 57 51 56 58 -213 0
55 49 57 51 52 54 -212 0
55 49 57 51 52 54 -214 0
55 49 57 51 52 54 -211 0
55 49 57 51 52 54 -213 0
55 49 57 51 58 54 -212 0
55 49 57 51 58 54 -214 0
55 49 57 51 58 54 -211 0
55 49 57 51 58 54 -213 0
55 49 57 56 52 58 -212 0
55 49 57 56 52 58 -214 0
55 49 57 56 52 58 -211 0
55 49 57 56 52 58 -213 0
55 49 57 56 58 54 -212 0
55 49 57 56 58 54 -214 0
55 49 57 56 58 54 -211 0
55 49 57 56 58 54 -213 0
55 49 51 56 52 54 -212 0
55 49 51 56 52 54 -214 0
55 49 51 56 52 54 -211 0
55 49 51 56 52 54 -213 0
55 49 51 52 58 54 -212 0
55 49 51 52 58 54 -214 0
55 49 51 52 58 54 -211 0
55 49 51 52 58 54 -213 0
55 49 56 52 58 54 -212 0
55 49 56 52 58 54 -214 0
55 49 56 52 58 54 -211 0
55 49 56 52 58 54 -213 0
55 26 57 28 56 58 -160 0
55 26 57 28 56 58 -157 0
55 26 57 28 56 58 -158 0
55 26 57 28 56 58 -159 0
55 26 57 56 29 58 -160 0
55 26 57 56 29 58 -157 0
55 26 57 56 29 58 -158 0
55 26 57 56 29 58 -159 0
55 33 57 38 56 58 -179 0
55 33 57 38 56 58 -181 0
55 33 57 38 56 58 -182 0
55 33 57 38 56 58 -180 0
55 33 57 56 36 58 -179 0
55 33 57 56 36 58 -181 0
55 33 57 56 36 58 -182 0
55 33 57 56 36 58 -180 0
55 57 15 56 19 58 -134 0
55 57 15 56 19 58 -132 0
55 57 15 56 19 58 -131 0
55 57 15 56 19 58 -133 0
55 57 15 56 58 21 -134 0
55 57 15 56 58 21 -132 0
55 57 15 56 58 21 -131 0
55 57 15 56 58 21 -133 0
55 57 70 56 65 58 -227 0
55 57 70 56 65 58 -226 0
55 57 70 56 65 58 -225 0
55 57 70 56 65 58 -228 0
55 57 70 56 58 63 -227 0
55 57 70 56 58 63 -226 0
55 57 70 56 58 63 -225 0
55 57 70 56 58 63 -228 0
55 57 9 56 8 58 -101 0
55 57 9 56 8 58 -102 0
55 57 9 56 8 58 -104 0
55 57 9 56 8 58 -103 0
55 57 9 56 58 7 -101 0
55 57 9 56 58 7 -102 0
55 57 9 56 58 7 -104 0
55 57 9 56 58 7 -103 0
55 57 40 56 39 58 -198 0
55 57 40 56 39 58 -200 0
55 57 40 56 39 58 -197 0
55 57 40 56 39 58 -199 0
55 57 40 56 58 41 -198 0
55 57 40 56 58 41 -200 0
55 57 40 56 58 41 -197 0
55 57 40 56 58 41 -199 0
55 57 78 56 77 58 -229 0
55 57 78 56 77 58 -230 0
55 57 78 56 77 58 -231 0
55 57 78 56 77 58 -232 0
55 57 78 56 58 73 -229 0
55 57 78 56 58 73 -230 0
55 57 78 56 58 73 -231 0
55 57 78 56 58 73 -232 0
55 57 3 56 1 58 -60 0
55 57 3 56 1 58 -62 0
55 57 3 56 1 58 -61 0
55 57 3 56 1 58 -59 0
55 57 3 56 58 4 -60 0
55 57 3 56 58 4 -62 0
55 57 3 56 58 4 -61 0
55 57 3 56 58 4 -59 0
55 57 51 56 52 58 -212 0
55 57 51 56 52 58 -214 0
55 57 51 56 52 58 -211 0
55 57 51 56 52 58 -213 0
55 57 51 56 58 54 -212 0
55 57 51 56 58 54 -214 0
55 57 51 56 58 54 -211 0
55 57 51 56 58 54 -213 0
55 57 28 56 29 58 -160 0
55 57 28 56 29 58 -157 0
55 57 28 56 29 58 -158 0
55 57 28 56 29 58 -159 0
55 57 38 56 36 58 -179 0
55 57 38 56 36 58 -181 0
55 57 38 56 36 58 -182 0
55 57 38 56 36 58 -180 0
55 57 56 19 58 21 -134 0
55 57 56 19 58 21 -132 0
55 57 56 19 58 21 -131 0
55 57 56 19 58 21 -133 0
55 57 56 65 58 63 -227 0
55 57 56 65 58 63 -226 0
55 57 56 65 58 63 -225 0
55 57 56 65 58 63 -228 0
55 57 56 8 58 7 -101 0
55 57 56 8 58 7 -102 0
55 57 56 8 58 7 -104 0
55 57 56 8 58 7 -103 0
55 57 56 39 58 41 -198 0
55 57 56 39 58 41 -200 0
55 57 56 39 58 41 -197 0
55 57 56 39 58 41 -199 0
55 57 56 77 58 73 -229 0
55 57 56 77 58 73 -230 0
55 57 56 77 58 73 -231 0
55 57 56 77 58 73 -232 0
55 57 56 1 58 4 -60 0
55 57 56 1 58 4 -62 0
55 57 56 1 58 4 -61 0
55 57 56 1 58 4 -59 0
55 57 56 52 58 54 -212 0
55 57 56 52 58 54 -214 0
55 57 56 52 58 54 -211 0
55 57 56 52 58 54 -213 0
16 68 15 70 19 65 -138 0
16 68 15 70 19 65 -136 0
16 68 15 70 19 65 -135 0
16 68 15 70 19 65 -137 0
16 68 15 70 19 21 -138 0
16 68 15 70 19 21 -136 0
16 68 15 70 19 21 -135 0
16 68 15 70 19 21 -137 0
16 68 15 70 65 63 -138 0
16 68 15 70 65 63 -136 0
16 68 15 70 65 63 -135 0
16 68 15 70 65 63 -137 0
16 68 15 70 21 63 -138 0
16 68 15 70 21 63 -136 0
16 68 15 70 21 63 -135 0
16 68 15 70 21 63 -137 0
16 68 15 19 65 21 -138 0
16 68 15 19 65 21 -136 0
16 68 15 19 65 21 -135 0
16 68 15 19 65 21 -137 0
16 68 15 19 21 63 -138 0
16 68 15 19 21 63 -136 0
16 68 15 19 21 63 -135 0
16 68 15 19 21 63 -137 0
16 68 70 19 65 63 -138 0
16 68 70 19 65 63 -136 0
16 68 70 19 65 63 -135 0
16 68 70 19 65 63 -137 0
16 68 70 65 21 63 -138 0
16 68 70 65 21 63 -136 0
16 68 70 65 21 63 -135 0
16 68 70 65 21 63 -137 0
16 68 19 65 21 63 -138 0
16 68 19 65 21 63 -136 0
16 68 19 65 21 63 -135 0
16 68 19 65 21 63 -137 0
16 14 15 9 19 8 -81 0
16 14 15 9 19 8 -84 0
16 14 15 9 19 8 -83 0
16 14 15 9 19 8 -82 0
16 14 15 9 19 21 -81 0
16 14 15 9 19 21 -84 0
16 14 15 9 19 21 -83 0
16 14 15 9 19 21 -82 0
16 14 15 9 8 7 -81 0
16 14 15 9 8 7 -84 0
16 14 15 9 8 7 -83 0
16 14 15 9 8 7 -82 0
16 14 15 9 21 7 -81 0
16 14 15 9 21 7 -84 0
16 14 15 9 21 7 -83 0
16 14 15 9 21 7 -82 0
16 14 15 19 8 21 -81 0
16 14 15 19 8 21 -84 0
16 14 15 19 8 21 -83 0
16 14 15 19 8 21 -82 0
16 14 15 19 21 7 -81 0
16 14 15 19 21 7 -84 0
16 14 15 19 21 7 -83 0
16 14 15 19 21 7 -82 0
16 14 9 19 8 7 -81 0
16 14 9 19 8 7 -84 0
16 14 9 19 8 7 -83 0
16 14 9 19 8 7 -82 0
16 14 9 8 21 7 -81 0
16 14 9 8 21 7 -84 0
16 14 9 8 21 7 -83 0
16 14 9 8 21 7 -82 0
16 14 19 8 21 7 -81 0
16 14 19 8 21 7 -84 0
16 14 19 8 21 7 -83 0
16 14 19 8 21 7 -82 0
16 42 15 40 19 39 -126 0
16 42 15 40 19 39 -124 0
16 42 15 40 19 39 -123 0
16 42 15 40 19 39 -125 0
16 42 15 40 19 21 -126 0
16 42 15 40 19 21 -124 0
16 42 15 40 19 21 -123 0
16 42 15 40 19 21 -125 0
16 42 15 40 39 41 -126 0
16 42 15 40 39 41 -124 0
16 42 15 40 39 41 -123 0
16 42 15 40 39 41 -125 0
16 42 15 40 21 41 -126 0
16 42 15 40 21 41 -124 0
16 42 15 40 21 41 -123 0
16 42 15 40 21 41 -125 0
16 42 15 19 39 21 -126 0
16 42 15 19 39 21 -124 0
16 42 15 19 39 21 -123 0
16 42 15 19 39 21 -125 0
16 42 15 19 21 41 -126 0
16 42 15 19 21 41 -124 0
16 42 15 19 21 41 -123 0
16 42 15 19 21 41 -125 0
16 42 40 19 39 41 -126 0
16 42 40 19 39 41 -124 0
16 42 40 19 39 41 -123 0
16 42 40 19 39 41 -125 0
16 42 40 39 21 41 -126 0
16 42 40 39 21 41 -124 0
16 42 40 39 21 41 -123 0
16 42 40 39 21 41 -125 0
16 42 19 39 21 41 -126 0
16 42 19 39 21 41 -124 0
16 42 19 39 21 41 -123 0
16 42 19 39 21 41 -125 0
16 74 15 78 19 77 -140 0
16 74 15 78 19 77 -139 0
16 74 15 78 19 77 -142 0
16 74 15 78 19 77 -141 0
16 74 15 78 19 21 -140 0
16 74 15 78 19 21 -139 0
16 74 15 78 19 21 -142 0
16 74 15 78 19 21 -141 0
16 74 15 78 77 73 -140 0
16 74 15 78 77 73 -139 0
16 74 15 78 77 73 -142 0
16 74 15 78 77 73 -141 0
16 74 15 78 21 73 -140 0
16 74 15 78 21 73 -139 0
16 74 15 78 21 73 -142 0
16 74 15 78 21 73 -141 0
16 74 15 19 77 21 -140 0
16 74 15 19 77 21 -139 0
16 74 15 19 77 21 -142 0
16 74 15 19 77 21 -141 0
16 74 15 19 21 73 -140 0
16 74 15 19 21 73 -139 0
16 74 15 19 21 73 -142 0
16 74 15 19 21 73 -141 0
16 74 78 19 77 73 -140 0
16 74 78 19 77 73 -139 0
16 74 78 19 77 73 -142 0
16 74 78 19 77 73 -141 0
16 74 78 77 21 73 -140 0
16 74 78 77 21 73 -139 0
16 74 78 77 21 73 -142 0
16 74 78 77 21 73 -141 0
16 74 19 77 21 73 -140 0
16 74 19 77 21 73 -139 0
16 74 19 77 21 73 -142 0
16 74 19 77 21 73 -141 0
16 6 15 3 19 1 -22 0
16 6 15 3 19 1 -17 0
16 6 15 3 19 1 -20 0
16 6 15 3 19 1 -18 0
16 6 15 3 19 21 -22 0
16 6 15 3 19 21 -17 0
16 6 15 3 19 21 -20 0
16 6 15 3 19 21 -18 0
16 6 15 3 1 4 -22 0
16 6 15 3 1 4 -17 0
16 6 15 3 1 4 -20 0
16 6 15 3 1 4 -18 0
16 6 15 3 21 4 -22 0
16 6 15 3 21 4 -17 0
16 6 15 3 21 4 -20 0
16 6 15 3 21 4 -18 0
16 6 15 19 1 21 -22 0
16 6 15 19 1 21 -17 0
16 6 15 19 1 21 -20 0
16 6 15 19 1 21 -18 0
16 6 15 19 21 4 -22 0
16 6 15 19 21 4 -17 0
16 6 15 19 21 4 -20 0
16 6 15 19 21 4 -18 0
16 6 3 19 1 4 -22 0
16 6 3 19 1 4 -17 0
16 6 3 19 1 4 -20 0
16 6 3 19 1 4 -18 0
16 6 3 1 21 4 -22 0
16 6 3 1 21 4 -17 0
16 6 3 1 21 4 -20 0
16 6 3 1 21 4 -18 0
16 6 19 1 21 4 -22 0
16 6 19 1 21 4 -17 0
16 6 19 1 21 4 -20 0
16 6 19 1 21 4 -18 0
16 49 15 51 19 52 -130 0
16 49 15 51 19 52 -128 0
16 49 15 51 19 52 -127 0
16 49 15 51 19 52 -129 0
16 49 15 51 19 21 -130 0
16 49 15 51 19 21 -128 0
16 49 15 51 19 21 -127 0
16 49 15 51 19 21 -129 0
16 49 15 51 52 54 -130 0
16 49 15 51 52 54 -128 0
16 49 15 51 52 54 -127 0
16 49 15 51 52 54 -129 0
16 49 15 51 21 54 -130 0
16 49 15 51 21 54 -128 0
16 49 15 51 21 54 -127 0
16 49 15 51 21 54 -129 0
16 49 15 19 52 21 -130 0
16 49 15 19 52 21 -128 0
16 49 15 19 52 21 -127 0
16 49 15 19 52 21 -129 0
16 49 15 19 21 54 -130 0
16 49 15 19 21 54 -128 0
16 49 15 19 21 54 -127 0
16 49 15 19 21 54 -129 0
16 49 51 19 52 54 -130 0
16 49 51 19 52 54 -128 0
16 49 51 19 52 54 -127 0
16 49 51 19 52 54 -129 0
16 49 51 52 21 54 -130 0
16 49 51 52 21 54 -128 0
16 49 51 52 21 54 -127 0
16 49 51 52 21 54 -129 0
16 49 19 52 21 54 -130 0
16 49 19 52 21 54 -128 0
16 49 19 52 21 54 -127 0
16 49 19 52 21 54 -129 0
16 26 15 28 19 21 -118 0
16 26 15 28 19 21 -117 0
16 26 15 28 19 21 -115 0
16 26 15 28 19 21 -116 0
16 26 15 19 29 21 -118 0
16 26 15 19 29 21 -117 0
16 26 15 19 29 21 -115 0
16 26 15 19 29 21 -116 0
16 33 15 38 19 21 -122 0
16 33 15 38 19 21 -119 0
16 33 15 38 19 21 -121 0
16 33 15 38 19 21 -120 0
16 33 15 19 36 21 -122 0
16 33 15 19 36 21 -119 0
16 33 15 19 36 21 -121 0
16 33 15 19 36 21 -120 0
16 57 15 56 19 21 -134 0
16 57 15 56 19 21 -132 0
16 57 15 56 19 21 -131 0
16 57 15 56 19 21 -133 0
16 57 15 19 58 21 -134 0
16 57 15 19 58 21 -132 0
16 57 15 19 58 21 -131 0
16 57 15 19 58 21 -133 0
16 15 70 19 65 21 -138 0
16 15 70 19 65 21 -136 0
16 15 70 19 65 21 -135 0
16 15 70 19 65 21 -137 0
16 15 70 19 21 63 -138 0
16 15 70 19 21 63 -136 0
16 15 70 19 21 63 -135 0
16 15 70 19 21 63 -137 0
16 15 9 19 8 21 -81 0
16 15 9 19 8 21 -84 0
16 15 9 19 8 21 -83 0
16 15 9 19 8 21 -82 0
16 15 9 19 21 7 -81 0
16 15 9 19 21 7 -84 0
16 15 9 19 21 7 -83 0
16 15 9 19 21 7 -82 0
16 15 40 19 39 21 -126 0
16 15 40 19 39 21 -124 0
16 15 40 19 39 21 -123 0
16 15 40 19 39 21 -125 0
16 15 40 19 21 41 -126 0
16 15 40 19 21 41 -124 0
16 15 40 19 21 41 -123 0
16 15 40 19 21 41 -125 0
16 15 78 19 77 21 -140 0
16 15 78 19 77 21 -139 0
16 15 78 19 77 21 -142 0
16 15 78 19 77 21 -141 0
16 15 78 19 21 73 -140 0
16 15 78 19 21 73 -139 0
16 15 78 19 21 73 -142 0
16 15 78 19 21 73 -141 0
16 15 3 19 1 21 -22 0
16 15 3 19 1 21 -17 0
16 15 3 19 1 21 -20 0
16 15 3 19 1 21 -18 0
16 15 3 19 21 4 -22 0
16 15 3 19 21 4 -17 0
16 15 3 19 21 4 -20 0
16 15 3 19 21 4 -18 0
16 15 51 19 52 21 -130 0
16 15 51 19 52 21 -128 0
16 15 51 19 52 21 -127 0
16 15 51 19 52 21 -129 0
16 15 51 19 21 54 -130 0
16 15 51 19 21 54 -128 0
16 15 51 19 21 54 -127 0
16 15 51 19 21 54 -129 0
16 15 28 19 29 21 -118 0
16 15 28 19 29 21 -117 0
16 15 28 19 29 21 -115 0
16 15 28 19 29 21 -116 0
16 15 38 19 36 21 -122 0
16 15 38 19 36 21 -119 0
16 15 38 19 36 21 -121 0
16 15 38 19 36 21 -120 0
16 15 56 19 58 21 -134 0
16 15 56 19 58 21 -132 0
16 15 56 19 58 21 -131 0
16 15 56 19 58 21 -133 0
16 15 19 65 21 63 -138 0
16 15 19 65 21 63 -136 0
16 15 19 65 21 63 -135 0
16 15 19 65 21 63 -137 0
16 15 19 8 21 7 -81 0
16 15 19 8 21 7 -84 0
16 15 19 8 21 7 -83 0
16 15 19 8 21 7 -82 0
16 15 19 39 21 41 -126 0
16 15 19 39 21 41 -124 0
16 15 19 39 21 41 -123 0
16 15 19 39 21 41 -125 0
16 15 19 77 21 73 -140 0
16 15 19 77 21 73 -139 0
16 15 19 77 21 73 -142 0
16 15 19 77 21 73 -141 0
16 15 19 1 21 4 -22 0
16 15 19 1 21 4 -17 0
16 15 19 1 21 4 -20 0
16 15 19 1 21 4 -18 0
16 15 19 52 21 54 -130 0
16 15 19 52 21 54 -128 0
16 15 19 52 21 54 -127 0
16 15 19 52 21 54 -129 0
68 14 70 9 65 8 -108 0
68 14 70 9 65 8 -105 0
68 14 70 9 65 8 -107 0
68 14 70 9 65 8 -106 0
68 14 70 9 65 63 -108 0
68 14 70 9 65 63 -105 0
68 14 70 9 65 63 -107 0
68 14 70 9 65 63 -106 0
68 14 70 9 8 7 -108 0
68 14 70 9 8 7 -105 0
68 14 70 9 8 7 -107 0
68 14 70 9 8 7 -106 0
68 14 70 9 63 7 -108 0
68 14 70 9 63 7 -105 0
68 14 70 9 63 7 -107 0
68 14 70 9 63 7 -106 0
68 14 70 65 8 63 -108 0
68 14 70 65 8 63 -105 0
68 14 70 65 8 63 -107 0
68 14 70 65 8 63 -106 0
68 14 70 65 63 7 -108 0
68 14 70 65 63 7 -105 0
68 14 70 65 63 7 -107 0
68 14 70 65 63 7 -106 0
68 14 9 65 8 7 -108 0
68 14 9 65 8 7 -105 0
68 14 9 65 8 7 -107 0
68 14 9 65 8 7 -106 0
68 14 9 8 63 7 -108 0
68 14 9 8 63 7 -105 0
68 14 9 8 63 7 -107 0
68 14 9 8 63 7 -106 0
68 14 65 8 63 7 -108 0
68 14 65 8 63 7 -105 0
68 14 65 8 63 7 -107 0
68 14 65 8 63 7 -106 0
68 42 70 40 65 39 -204 0
68 42 70 40 65 39 -201 0
68 42 70 40 65 39 -203 0
68 42 70 40 65 39 -202 0
68 42 70 40 65 63 -204 0
68 42 70 40 65 63 -201 0
68 42 70 40 65 63 -203 0
68 42 70 40 65 63 -202 0
68 42 70 40 39 41 -204 0
68 42 70 40 39 41 -201 0
68 42 70 40 39 41 -203 0
68 42 70 40 39 41 -202 0
68 42 70 40 63 41 -204 0
68 42 70 40 63 41 -201 0
68 42 70 40 63 41 -203 0
68 42 70 40 63 41 -202 0
68 42 70 65 39 63 -204 0
68 42 70 65 39 63 -201 0
68 42 70 65 39 63 -203 0
68 42 70 65 39 63 -202 0
68 42 70 65 63 41 -204 0
68 42 70 65 63 41 -201 0
68 42 70 65 63 41 -203 0
68 42 70 65 63 41 -202 0
68 42 40 65 39 41 -204 0
68 42 40 65 39 41 -201 0
68 42 40 65 39 41 -203 0
68 42 40 65 39 41 -202 0
68 42 40 39 63 41 -204 0
68 42 40 39 63 41 -201 0
68 42 40 39 63 41 -203 0
68 42 40 39 63 41 -202 0
68 42 65 39 63 41 -204 0
68 42 65 39 63 41 -201 0
68 42 65 39 63 41 -203 0
68 42 65 39 63 41 -202 0
68 74 70 78 65 77 -238 0
68 74 70 78 65 77 -237 0
68 74 70 78 65 77 -235 0
68 74 70 78 65 77 -236 0
68 74 70 78 65 63 -238 0
68 74 70 78 65 63 -237 0
68 74 70 78 65 63 -235 0
68 74 70 78 65 63 -236 0
68 74 70 78 77 73 -238 0
68 74 70 78 77 73 -237 0
68 74 70 78 77 73 -235 0
68 74 70 78 77 73 -236 0
68 74 70 78 63 73 -238 0
68 74 70 78 63 73 -237 0
68 74 70 78 63 73 -235 0
68 74 70 78 63 73 -236 0
68 74 70 65 77 63 -238 0
68 74 70 65 77 63 -237 0
68 74 70 65 77 63 -235 0
68 74 70 65 77 63 -236 0
68 74 70 65 63 73 -238 0
68 74 70 65 63 73 -237 0
68 74 70 65 63 73 -235 0
68 74 70 65 63 73 -236 0
68 74 78 65 77 73 -238 0
68 74 78 65 77 73 -237 0
68 74 78 65 77 73 -235 0
68 74 78 65 77 73 -236 0
68 74 78 77 63 73 -238 0
68 74 78 77 63 73 -237 0
68 74 78 77 63 73 -235 0
68 74 78 77 63 73 -236 0
68 74 65 77 63 73 -238 0
68 74 65 77 63 73 -237 0
68 74 65 77 63 73 -235 0
68 74 65 77 63 73 -236 0
68 6 70 3 65 1 -69 0
68 6 70 3 65 1 -66 0
68 6 70 3 65 1 -64 0
68 6 70 3 65 1 -67 0
68 6 70 3 65 63 -69 0
68 6 70 3 65 63 -66 0
68 6 70 3 65 63 -64 0
68 6 70 3 65 63 -67 0
68 6 70 3 1 4 -69 0
68 6 70 3 1 4 -66 0
68 6 70 3 1 4 -64 0
68 6 70 3 1 4 -67 0
68 6 70 3 63 4 -69 0
68 6 70 3 63 4 -66 0
68 6 70 3 63 4 -64 0
68 6 70 3 63 4 -67 0
68 6 70 65 1 63 -69 0
68 6 70 65 1 63 -66 0
68 6 70 65 1 63 -64 0
68 6 70 65 1 63 -67 0
68 6 70 65 63 4 -69 0
68 6 70 65 63 4 -66 0
68 6 70 65 63 4 -64 0
68 6 70 65 63 4 -67 0
68 6 3 65 1 4 -69 0
68 6 3 65 1 4 -66 0
68 6 3 65 1 4 -64 0
68 6 3 65 1 4 -67 0
68 6 3 1 63 4 -69 0
68 6 3 1 63 4 -66 0
68 6 3 1 63 4 -64 0
68 6 3 1 63 4 -67 0
68 6 65 1 63 4 -69 0
68 6 65 1 63 4 -66 0
68 6 65 1 63 4 -64 0
68 6 65 1 63 4 -67 0
68 49 70 51 65 52 -215 0
68 49 70 51 65 52 -216 0
68 49 70 51 65 52 -217 0
68 49 70 51 65 52 -218 0
68 49 70 51 65 63 -215 0
68 49 70 51 65 63 -216 0
68 49 70 51 65 63 -217 0
68 49 70 51 65 63 -218 0
68 49 70 51 52 54 -215 0
68 49 70 51 52 54 -216 0
68 49 70 51 52 54 -217 0
68 49 70 51 52 54 -218 0
68 49 70 51 63 54 -215 0
68 49 70 51 63 54 -216 0
68 49 70 51 63 54 -217 0
68 49 70 51 63 54 -218 0
68 49 70 65 52 63 -215 0
68 49 70 65 52 63 -216 0
68 49 70 65 52 63 -217 0
68 49 70 65 52 63 -218 0
68 49 70 65 63 54 -215 0
68 49 70 65 63 54 -216 0
68 49 70 65 63 54 -217 0
68 49 70 65 63 54 -218 0
68 49 51 65 52 54 -215 0
68 49 51 65 52 54 -216 0
68 49 51 65 52 54 -217 0
68 49 51 65 52 54 -218 0
68 49 51 52 63 54 -215 0
68 49 51 52 63 54 -216 0
68 49 51 52 63 54 -217 0
68 49 51 52 63 54 -218 0
68 49 65 52 63 54 -215 0
68 49 65 52 63 54 -216 0
68 49 65 52 63 54 -217 0
68 49 65 52 63 54 -218 0
68 26 70 28 65 63 -164 0
68 26 70 28 65 63 -163 0
68 26 70 28 65 63 -161 0
68 26 70 28 65 63 -162 0
68 26 70 65 29 63 -164 0
68 26 70 65 29 63 -163 0
68 26 70 65 29 63 -161 0
68 26 70 65 29 63 -162 0
68 33 70 38 65 63 -184 0
68 33 70 38 65 63 -183 0
68 33 70 38 65 63 -185 0
68 33 70 38 65 63 -186 0
68 33 70 65 36 63 -184 0
68 33 70 65 36 63 -183 0
68 33 70 65 36 63 -185 0
68 33 70 65 36 63 -186 0
68 57 70 56 65 63 -227 0
68 57 70 56 65 63 -226 0
68 57 70 56 65 63 -225 0
68 57 70 56 65 63 -228 0
68 57 70 65 58 63 -227 0
68 57 70 65 58 63 -226 0
68 57 70 65 58 63 -225 0
68 57 70 65 58 63 -228 0
68 15 70 19 65 63 -138 0
68 15 70 19 65 63 -136 0
68 15 70 19 65 63 -135 0
68 15 70 19 65 63 -137 0
68 15 70 65 21 63 -138 0
68 15 70 65 21 63 -136 0
68 15 70 65 21 63 -135 0
68 15 70 65 21 63 -137 0
68 70 9 65 8 63 -108 0
68 70 9 65 8 63 -105 0
68 70 9 65 8 63 -107 0
68 70 9 65 8 63 -106 0
68 70 9 65 63 7 -108 0
68 70 9 65 63 7 -105 0
68 70 9 65 63 7 -107 0
68 70 9 65 63 7 -106 0
68 70 40 65 39 63 -204 0
68 70 40 65 39 63 -201 0
68 70 40 65 39 63 -203 0
68 70 40 65 39 63 -202 0
68 70 40 65 63 41 -204 0
68 70 40 65 63 41 -201 0
68 70 40 65 63 41 -203 0
68 70 40 65 63 41 -202 0
68 70 78 65 77 63 -238 0
68 70 78 65 77 63 -237 0
68 70 78 65 77 63 -235 0
68 70 78 65 77 63 -236 0
68 70 78 65 63 73 -238 0
68 70 78 65 63 73 -237 0
68 70 78 65 63 73 -235 0
68 70 78 65 63 73 -236 0
68 70 3 65 1 63 -69 0
68 70 3 65 1 63 -66 0
68 70 3 65 1 63 -64 0
68 70 3 65 1 63 -67 0
68 70 3 65 63 4 -69 0
68 70 3 65 63 4 -66 0
68 70 3 65 63 4 -64 0
68 70 3 65 63 4 -67 0
68 70 51 65 52 63 -215 0
68 70 51 65 52 63 -216 0
68 70 51 65 52 63 -217 0
68 70 51 65 52 63 -218 0
68 70 51 65 63 54 -215 0
68 70 51 65 63 54 -216 0
68 70 51 65 63 54 -217 0
68 70 51 65 63 54 -218 0
68 70 28 65 29 63 -164 0
68 70 28 65 29 63 -163 0
68 70 28 65 29 63 -161 0
68 70 28 65 29 63 -162 0
68 70 38 65 36 63 -184 0
68 70 38 65 36 63 -183 0
68 70 38 65 36 63 -185 0
68 70 38 65 36 63 -186 0
68 70 56 65 58 63 -227 0
68 70 56 65 58 63 -226 0
68 70 56 65 58 63 -225 0
68 70 56 65 58 63 -228 0
68 70 19 65 21 63 -138 0
68 70 19 65 21 63 -136 0
68 70 19 65 21 63 -135 0
68 70 19 65 21 63 -137 0
68 70 65 8 63 7 -108 0
68 70 65 8 63 7 -105 0
68 70 65 8 63 7 -107 0
68 70 65 8 63 7 -106 0
68 70 65 39 63 41 -204 0
68 70 65 39 63 41 -201 0
68 70 65 39 63 41 -203 0
68 70 65 39 63 41 -202 0
68 70 65 77 63 73 -238 0
68 70 65 77 63 73 -237 0
68 70 65 77 63 73 -235 0
68 70 65 77 63 73 -236 0
68 70 65 1 63 4 -69 0
68 70 65 1 63 4 -66 0
68 70 65 1 63 4 -64 0
68 70 65 1 63 4 -67 0
68 70 65 52 63 54 -215 0
68 70 65 52 63 54 -216 0
68 70 65 52 63 54 -217 0
68 70 65 52 63 54 -218 0
14 42 9 40 8 39 -96 0
14 42 9 40 8 39 -94 0
14 42 9 40 8 39 -95 0
14 42 9 40 8 39 -93 0
14 42 9 40 8 7 -96 0
14 42 9 40 8 7 -94 0
14 42 9 40 8 7 -95 0
14 42 9 40 8 7 -93 0
14 42 9 40 39 41 -96 0
14 42 9 40 39 41 -94 0
14 42 9 40 39 41 -95 0
14 42 9 40 39 41 -93 0
14 42 9 40 7 41 -96 0
14 42 9 40 7 41 -94 0
14 42 9 40 7 41 -95 0
14 42 9 40 7 41 -93 0
14 42 9 8 39 7 -96 0
14 42 9 8 39 7 -94 0
14 42 9 8 39 7 -95 0
14 42 9 8 39 7 -93 0
14 42 9 8 7 41 -96 0
14 42 9 8 7 41 -94 0
14 42 9 8 7 41 -95 0
14 42 9 8 7 41 -93 0
14 42 40 8 39 41 -96 0
14 42 40 8 39 41 -94 0
14 42 40 8 39 41 -95 0
14 42 40 8 39 41 -93 0
14 42 40 39 7 41 -96 0
14 42 40 39 7 41 -94 0
14 42 40 39 7 41 -95 0
14 42 40 39 7 41 -93 0
14 42 8 39 7 41 -96 0
14 42 8 39 7 41 -94 0
14 42 8 39 7 41 -95 0
14 42 8 39 7 41 -93 0
14 74 9 78 8 77 -109 0
14 74 9 78 8 77 -112 0
14 74 9 78 8 77 -110 0
14 74 9 78 8 77 -111 0
14 74 9 78 8 7 -109 0
14 74 9 78 8 7 -112 0
14 74 9 78 8 7 -110 0
14 74 9 78 8 7 -111 0
14 74 9 78 77 73 -109 0
14 74 9 78 77 73 -112 0
14 74 9 78 77 73 -110 0
14 74 9 78 77 73 -111 0
14 74 9 78 7 73 -109 0
14 74 9 78 7 73 -112 0
14 74 9 78 7 73 -110 0
14 74 9 78 7 73 -111 0
14 74 9 8 77 7 -109 0
14 74 9 8 77 7 -112 0
14 74 9 8 77 7 -110 0
14 74 9 8 77 7 -111 0
14 74 9 8 7 73 -109 0
14 74 9 8 7 73 -112 0
14 74 9 8 7 73 -110 0
14 74 9 8 7 73 -111 0
14 74 78 8 77 73 -109 0
14 74 78 8 77 73 -112 0
14 74 78 8 77 73 -110 0
14 74 78 8 77 73 -111 0
14 74 78 77 7 73 -109 0
14 74 78 77 7 73 -112 0
14 74 78 77 7 73 -110 0
14 74 78 77 7 73 -111 0
14 74 8 77 7 73 -109 0
14 74 8 77 7 73 -112 0
14 74 8 77 7 73 -110 0
14 74 8 77 7 73 -111 0
14 6 9 3 8 1 -12 0
14 6 9 3 8 1 -11 0
14 6 9 3 8 1 -13 0
14 6 9 3 8 1 -10 0
14 6 9 3 8 7 -12 0
14 6 9 3 8 7 -11 0
14 6 9 3 8 7 -13 0
14 6 9 3 8 7 -10 0
14 6 9 3 1 4 -12 0
14 6 9 3 1 4 -11 0
14 6 9 3 1 4 -13 0
14 6 9 3 1 4 -10 0
14 6 9 3 7 4 -12 0
14 6 9 3 7 4 -11 0
14 6 9 3 7 4 -13 0
14 6 9 3 7 4 -10 0
14 6 9 8 1 7 -12 0
14 6 9 8 1 7 -11 0
14 6 9 8 1 7 -13 0
14 6 9 8 1 7 -10 0
14 6 9 8 7 4 -12 0
14 6 9 8 7 4 -11 0
14 6 9 8 7 4 -13 0
14 6 9 8 7 4 -10 0
14 6 3 8 1 4 -12 0
14 6 3 8 1 4 -11 0
14 6 3 8 1 4 -13 0
14 6 3 8 1 4 -10 0
14 6 3 1 7 4 -12 0
14 6 3 1 7 4 -11 0
14 6 3 1 7 4 -13 0
14 6 3 1 7 4 -10 0
14 6 8 1 7 4 -12 0
14 6 8 1 7 4 -11 0
14 6 8 1 7 4 -13 0
14 6 8 1 7 4 -10 0
14 49 9 51 8 52 -98 0
14 49 9 51 8 52 -97 0
14 49 9 51 8 52 -100 0
14 49 9 51 8 52 -99 0
14 49 9 51 8 7 -98 0
14 49 9 51 8 7 -97 0
14 49 9 51 8 7 -100 0
14 49 9 51 8 7 -99 0
14 49 9 51 52 54 -98 0
14 49 9 51 52 54 -97 0
14 49 9 51 52 54 -100 0
14 49 9 51 52 54 -99 0
14 49 9 51 7 54 -98 0
14 49 9 51 7 54 -97 0
14 49 9 51 7 54 -100 0
14 49 9 51 7 54 -99 0
14 49 9 8 52 7 -98 0
14 49 9 8 52 7 -97 0
14 49 9 8 52 7 -100 0
14 49 9 8 52 7 -99 0
14 49 9 8 7 54 -98 0
14 49 9 8 7 54 -97 0
14 49 9 8 7 54 -100 0
14 49 9 8 7 54 -99 0
14 49 51 8 52 54 -98 0
14 49 51 8 52 54 -97 0
14 49 51 8 52 54 -100 0
14 49 51 8 52 54 -99 0
14 49 51 52 7 54 -98 0
14 49 51 52 7 54 -97 0
14 49 51 52 7 54 -100 0
14 49 51 52 7 54 -99 0
14 49 8 52 7 54 -98 0
14 49 8 52 7 54 -97 0
14 49 8 52 7 54 -100 0
14 49 8 52 7 54 -99 0
14 26 9 28 8 7 -88 0
14 26 9 28 8 7 -85 0
14 26 9 28 8 7 -86 0
14 26 9 28 8 7 -87 0
14 26 9 8 29 7 -88 0
14 26 9 8 29 7 -85 0
14 26 9 8 29 7 -86 0
14 26 9 8 29 7 -87 0
14 33 9 38 8 7 -91 0
14 33 9 38 8 7 -89 0
14 33 9 38 8 7 -92 0
14 33 9 38 8 7 -90 0
14 33 9 8 36 7 -91 0
14 33 9 8 36 7 -89 0
14 33 9 8 36 7 -92 0
14 33 9 8 36 7 -90 0
14 57 9 56 8 7 -101 0
14 57 9 56 8 7 -102 0
14 57 9 56 8 7 -104 0
14 57 9 56 8 7 -103 0
14 57 9 8 58 7 -101 0
14 57 9 8 58 7 -102 0
14 57 9 8 58 7 -104 0
14 57 9 8 58 7 -103 0
14 15 9 19 8 7 -81 0
14 15 9 19 8 7 -84 0
14 15 9 19 8 7 -83 0
14 15 9 19 8 7 -82 0
14 15 9 8 21 7 -81 0
14 15 9 8 21 7 -84 0
14 15 9 8 21 7 -83 0
14 15 9 8 21 7 -82 0
14 70 9 65 8 7 -108 0
14 70 9 65 8 7 -105 0
14 70 9 65 8 7 -107 0
14 70 9 65 8 7 -106 0
14 70 9 8 63 7 -108 0
14 70 9 8 63 7 -105 0
14 70 9 8 63 7 -107 0
14 70 9 8 63 7 -106 0
14 9 40 8 39 7 -96 0
14 9 40 8 39 7 -94 0
14 9 40 8 39 7 -95 0
14 9 40 8 39 7 -93 0
14 9 40 8 7 41 -96 0
14 9 40 8 7 41 -94 0
14 9 40 8 7 41 -95 0
14 9 40 8 7 41 -93 0
14 9 78 8 77 7 -109 0
14 9 78 8 77 7 -112 0
14 9 78 8 77 7 -110 0
14 9 78 8 77 7 -111 0
14 9 78 8 7 73 -109 0
14 9 78 8 7 73 -112 0
14 9 78 8 7 73 -110 0
14 9 78 8 7 73 -111 0
14 9 3 8 1 7 -12 0
14 9 3 8 1 7 -11 0
14 9 3 8 1 7 -13 0
14 9 3 8 1 7 -10 0
14 9 3 8 7 4 -12 0
14 9 3 8 7 4 -11 0
14 9 3 8 7 4 -13 0
14 9 3 8 7 4 -10 0
14 9 51 8 52 7 -98 0
14 9 51 8 52 7 -97 0
14 9 51 8 52 7 -100 0
14 9 51 8 52 7 -99 0
14 9 51 8 7 54 -98 0
14 9 51 8 7 54 -97 0
14 9 51 8 7 54 -100 0
14 9 51 8 7 54 -99 0
14 9 28 8 29 7 -88 0
14 9 28 8 29 7 -85 0
14 9 28 8 29 7 -86 0
14 9 28 8 29 7 -87 0
14 9 38 8 36 7 -91 0
14 9 38 8 36 7 -89 0
14 9 38 8 36 7 -92 0
14 9 38 8 36 7 -90 0
14 9 56 8 58 7 -101 0
14 9 56 8 58 7 -102 0
14 9 56 8 58 7 -104 0
14 9 56 8 58 7 -103 0
14 9 19 8 21 7 -81 0
14 9 19 8 21 7 -84 0
14 9 19 8 21 7 -83 0
14 9 19 8 21 7 -82 0
14 9 65 8 63 7 -108 0
14 9 65 8 63 7 -105 0
14 9 65 8 63 7 -107 0
14 9 65 8 63 7 -106 0
14 9 8 39 7 41 -96 0
14 9 8 39 7 41 -94 0
14 9 8 39 7 41 -95 0
14 9 8 39 7 41 -93 0
14 9 8 77 7 73 -109 0
14 9 8 77 7 73 -112 0
14 9 8 77 7 73 -110 0
14 9 8 77 7 73 -111 0
14 9 8 1 7 4 -12 0
14 9 8 1 7 4 -11 0
14 9 8 1 7 4 -13 0
14 9 8 1 7 4 -10 0
14 9 8 52 7 54 -98 0
14 9 8 52 7 54 -97 0
14 9 8 52 7 54 -100 0
14 9 8 52 7 54 -99 0
42 74 40 78 39 77 -205 0
42 74 40 78 39 77 -208 0
42 74 40 78 39 77 -206 0
42 74 40 78 39 77 -207 0
42 74 40 78 39 41 -205 0
42 74 40 78 39 41 -208 0
42 74 40 78 39 41 -206 0
42 74 40 78 39 41 -207 0
42 74 40 78 77 73 -205 0
42 74 40 78 77 73 -208 0
42 74 40 78 77 73 -206 0
42 74 40 78 77 73 -207 0
42 74 40 78 41 73 -205 0
42 74 40 78 41 73 -208 0
42 74 40 78 41 73 -206 0
42 74 40 78 41 73 -207 0
42 74 40 39 77 41 -205 0
42 74 40 39 77 41 -208 0
42 74 40 39 77 41 -206 0
42 74 40 39 77 41 -207 0
42 74 40 39 41 73 -205 0
42 74 40 39 41 73 -208 0
42 74 40 39 41 73 -206 0
42 74 40 39 41 73 -207 0
42 74 78 39 77 73 -205 0
42 74 78 39 77 73 -208 0
42 74 78 39 77 73 -206 0
42 74 78 39 77 73 -207 0
42 74 78 77 41 73 -205 0
42 74 78 77 41 73 -208 0
42 74 78 77 41 73 -206 0
42 74 78 77 41 73 -207 0
42 74 39 77 41 73 -205 0
42 74 39 77 41 73 -208 0
42 74 39 77 41 73 -206 0
42 74 39 77 41 73 -207 0
42 6 40 3 39 1 -44 0
42 6 40 3 39 1 -43 0
42 6 40 3 39 1 -46 0
42 6 40 3 39 1 -45 0
42 6 40 3 39 41 -44 0
42 6 40 3 39 41 -43 0
42 6 40 3 39 41 -46 0
42 6 40 3 39 41 -45 0
42 6 40 3 1 4 -44 0
42 6 40 3 1 4 -43 0
42 6 40 3 1 4 -46 0
42 6 40 3 1 4 -45 0
42 6 40 3 41 4 -44 0
42 6 40 3 41 4 -43 0
42 6 40 3 41 4 -46 0
42 6 40 3 41 4 -45 0
42 6 40 39 1 41 -44 0
42 6 40 39 1 41 -43 0
42 6 40 39 1 41 -46 0
42 6 40 39 1 41 -45 0
42 6 40 39 41 4 -44 0
42 6 40 39 41 4 -43 0
42 6 40 39 41 4 -46 0
42 6 40 39 41 4 -45 0
42 6 3 39 1 4 -44 0
42 6 3 39 1 4 -43 0
42 6 3 39 1 4 -46 0
42 6 3 39 1 4 -45 0
42 6 3 1 41 4 -44 0
42 6 3 1 41 4 -43 0
42 6 3 1 41 4 -46 0
42 6 3 1 41 4 -45 0
42 6 39 1 41 4 -44 0
42 6 39 1 41 4 -43 0
42 6 39 1 41 4 -46 0
42 6 39 1 41 4 -45 0
42 49 40 51 39 52 -195 0
42 49 40 51 39 52 -194 0
42 49 40 51 39 52 -193 0
42 49 40 51 39 52 -196 0
42 49 40 51 39 41 -195 0
42 49 40 51 39 41 -194 0
42 49 40 51 39 41 -193 0
42 49 40 51 39 41 -196 0
42 49 40 51 52 54 -195 0
42 49 40 51 52 54 -194 0
42 49 40 51 52 54 -193 0
42 49 40 51 52 54 -196 0
42 49 40 51 41 54 -195 0
42 49 40 51 41 54 -194 0
42 49 40 51 41 54 -193 0
42 49 40 51 41 54 -196 0
42 49 40 39 52 41 -195 0
42 49 40 39 52 41 -194 0
42 49 40 39 52 41 -193 0
42 49 40 39 52 41 -196 0
42 49 40 39 41 54 -195 0
42 49 40 39 41 54 -194 0
42 49 40 39 41 54 -193 0
42 49 40 39 41 54 -196 0
42 49 51 39 52 54 -195 0
42 49 51 39 52 54 -194 0
42 49 51 39 52 54 -193 0
42 49 51 39 52 54 -196 0
42 49 51 52 41 54 -195 0
42 49 51 52 41 54 -194 0
42 49 51 52 41 54 -193 0
42 49 51 52 41 54 -196 0
42 49 39 52 41 54 -195 0
42 49 39 52 41 54 -194 0
42 49 39 52 41 54 -193 0
42 49 39 52 41 54 -196 0
42 26 40 28 39 41 -152 0
42 26 40 28 39 41 -150 0
42 26 40 28 39 41 -149 0
42 26 40 28 39 41 -151 0
42 26 40 39 29 41 -152 0
42 26 40 39 29 41 -150 0
42 26 40 39 29 41 -149 0
42 26 40 39 29 41 -151 0
42 33 40 38 39 41 -171 0
42 33 40 38 39 41 -173 0
42 33 40 38 39 41 -172 0
42 33 40 38 39 41 -174 0
42 33 40 39 36 41 -171 0
42 33 40 39 36 41 -173 0
42 33 40 39 36 41 -172 0
42 33 40 39 36 41 -174 0
42 57 40 56 39 41 -198 0
42 57 40 56 39 41 -200 0
42 57 40 56 39 41 -197 0
42 57 40 56 39 41 -199 0
42 57 40 39 58 41 -198 0
42 57 40 39 58 41 -200 0
42 57 40 39 58 41 -197 0
42 57 40 39 58 41 -199 0
42 15 40 19 39 41 -126 0
42 15 40 19 39 41 -124 0
42 15 40 19 39 41 -123 0
42 15 40 19 39 41 -125 0
42 15 40 39 21 41 -126 0
42 15 40 39 21 41 -124 0
42 15 40 39 21 41 -123 0
42 15 40 39 21 41 -125 0
42 70 40 65 39 41 -204 0
42 70 40 65 39 41 -201 0
42 70 40 65 39 41 -203 0
42 70 40 65 39 41 -202 0
42 70 40 39 63 41 -204 0
42 70 40 39 63 41 -201 0
42 70 40 39 63 41 -203 0
42 70 40 39 63 41 -202 0
42 9 40 8 39 41 -96 0
42 9 40 8 39 41 -94 0
42 9 40 8 39 41 -95 0
42 9 40 8 39 41 -93 0
42 9 40 39 7 41 -96 0
42 9 40 39 7 41 -94 0
42 9 40 39 7 41 -95 0
42 9 40 39 7 41 -93 0
42 40 78 39 77 41 -205 0
42 40 78 39 77 41 -208 0
42 40 78 39 77 41 -206 0
42 40 78 39 77 41 -207 0
42 40 78 39 41 73 -205 0
42 40 78 39 41 73 -208 0
42 40 78 39 41 73 -206 0
42 40 78 39 41 73 -207 0
42 40 3 39 1 41 -44 0
42 40 3 39 1 41 -43 0
42 40 3 39 1 41 -46 0
42 40 3 39 1 41 -45 0
42 40 3 39 41 4 -44 0
42 40 3 39 41 4 -43 0
42 40 3 39 41 4 -46 0
42 40 3 39 41 4 -45 0
42 40 51 39 52 41 -195 0
42 40 51 39 52 41 -194 0
42 40 51 39 52 41 -193 0
42 40 51 39 52 41 -196 0
42 40 51 39 41 54 -195 0
42 40 51 39 41 54 -194 0
42 40 51 39 41 54 -193 0
42 40 51 39 41 54 -196 0
42 40 28 39 29 41 -152 0
42 40 28 39 29 41 -150 0
42 40 28 39 29 41 -149 0
42 40 28 39 29 41 -151 0
42 40 38 39 36 41 -171 0
42 40 38 39 36 41 -173 0
42 40 38 39 36 41 -172 0
42 40 38 39 36 41 -174 0
42 40 56 39 58 41 -198 0
42 40 56 39 58 41 -200 0
42 40 56 39 58 41 -197 0
42 40 56 39 58 41 -199 0
42 40 19 39 21 41 -126 0
42 40 19 39 21 41 -124 0
42 40 19 39 21 41 -123 0
42 40 19 39 21 41 -125 0
42 40 65 39 63 41 -204 0
42 40 65 39 63 41 -201 0
42 40 65 39 63 41 -203 0
42 40 65 39 63 41 -202 0
42 40 8 39 7 41 -96 0
42 40 8 39 7 41 -94 0
42 40 8 39 7 41 -95 0
42 40 8 39 7 41 -93 0
42 40 39 77 41 73 -205 0
42 40 39 77 41 73 -208 0
42 40 39 77 41 73 -206 0
42 40 39 77 41 73 -207 0
42 40 39 1 41 4 -44 0
42 40 39 1 41 4 -43 0
42 40 39 1 41 4 -46 0
42 40 39 1 41 4 -45 0
42 40 39 52 41 54 -195 0
42 40 39 52 41 54 -194 0
42 40 39 52 41 54 -193 0
42 40 39 52 41 54 -196 0
74 6 78 3 77 1 -72 0
74 6 78 3 77 1 -76 0
74 6 78 3 77 1 -71 0
74 6 78 3 77 1 -75 0
74 6 78 3 77 73 -72 0
74 6 78 3 77 73 -76 0
74 6 78 3 77 73 -71 0
74 6 78 3 77 73 -75 0
74 6 78 3 1 4 -72 0
74 6 78 3 1 4 -76 0
74 6 78 3 1 4 -71 0
74 6 78 3 1 4 -75 0
74 6 78 3 73 4 -72 0
74 6 78 3 73 4 -76 0
74 6 78 3 73 4 -71 0
74 6 78 3 73 4 -75 0
74 6 78 77 1 73 -72 0
74 6 78 77 1 73 -76 0
74 6 78 77 1 73 -71 0
74 6 78 77 1 73 -75 0
74 6 78 77 73 4 -72 0
74 6 78 77 73 4 -76 0
74 6 78 77 73 4 -71 0
74 6 78 77 73 4 -75 0
74 6 3 77 1 4 -72 0
74 6 3 77 1 4 -76 0
74 6 3 77 1 4 -71 0
74 6 3 77 1 4 -75 0
74 6 3 1 73 4 -72 0
74 6 3 1 73 4 -76 0
74 6 3 1 73 4 -71 0
74 6 3 1 73 4 -75 0
74 6 77 1 73 4 -72 0
74 6 77 1 73 4 -76 0
74 6 77 1 73 4 -71 0
74 6 77 1 73 4 -75 0
74 49 78 51 77 52 -221 0
74 49 78 51 77 52 -219 0
74 49 78 51 77 52 -222 0
74 49 78 51 77 52 -220 0
74 49 78 51 77 73 -221 0
74 49 78 51 77 73 -219 0
74 49 78 51 77 73 -222 0
74 49 78 51 77 73 -220 0
74 49 78 51 52 54 -221 0
74 49 78 51 52 54 -219 0
74 49 78 51 52 54 -222 0
74 49 78 51 52 54 -220 0
74 49 78 51 73 54 -221 0
74 49 78 51 73 54 -219 0
74 49 78 51 73 54 -222 0
74 49 78 51 73 54 -220 0
74 49 78 77 52 73 -221 0
74 49 78 77 52 73 -219 0
74 49 78 77 52 73 -222 0
74 49 78 77 52 73 -220 0
74 49 78 77 73 54 -221 0
74 49 78 77 73 54 -219 0
74 49 78 77 73 54 -222 0
74 49 78 77 73 54 -220 0
74 49 51 77 52 54 -221 0
74 49 51 77 52 54 -219 0
74 49 51 77 52 54 -222 0
74 49 51 77 52 54 -220 0
74 49 51 52 73 54 -221 0
74 49 51 52 73 54 -219 0
74 49 51 52 73 54 -222 0
74 49 51 52 73 54 -220 0
74 49 77 52 73 54 -221 0
74 49 77 52 73 54 -219 0
74 49 77 52 73 54 -222 0
74 49 77 52 73 54 -220 0
74 26 78 28 77 73 -165 0
74 26 78 28 77 73 -167 0
74 26 78 28 77 73 -168 0
74 26 78 28 77 73 -166 0
74 26 78 77 29 73 -165 0
74 26 78 77 29 73 -167 0
74 26 78 77 29 73 -168 0
74 26 78 77 29 73 -166 0
74 33 78 38 77 73 -188 0
74 33 78 38 77 73 -187 0
74 33 78 38 77 73 -189 0
74 33 78 38 77 73 -190 0
74 33 78 77 36 73 -188 0
74 33 78 77 36 73 -187 0
74 33 78 77 36 73 -189 0
74 33 78 77 36 73 -190 0
74 57 78 56 77 73 -229 0
74 57 78 56 77 73 -230 0
74 57 78 56 77 73 -231 0
74 57 78 56 77 73 -232 0
74 57 78 77 58 73 -229 0
74 57 78 77 58 73 -230 0
74 57 78 77 58 73 -231 0
74 57 78 77 58 73 -232 0
74 15 78 19 77 73 -140 0
74 15 78 19 77 73 -139 0
74 15 78 19 77 73 -142 0
74 15 78 19 77 73 -141 0
74 15 78 77 21 73 -140 0
74 15 78 77 21 73 -139 0
74 15 78 77 21 73 -142 0
74 15 78 77 21 73 -141 0
74 70 78 65 77 73 -238 0
74 70 78 65 77 73 -237 0
74 70 78 65 77 73 -235 0
74 70 78 65 77 73 -236 0
74 70 78 77 63 73 -238 0
74 70 78 77 63 73 -237 0
74 70 78 77 63 73 -235 0
74 70 78 77 63 73 -236 0
74 9 78 8 77 73 -109 0
74 9 78 8 77 73 -112 0
74 9 78 8 77 73 -110 0
74 9 78 8 77 73 -111 0
74 9 78 77 7 73 -109 0
74 9 78 77 7 73 -112 0
74 9 78 77 7 73 -110 0
74 9 78 77 7 73 -111 0
74 40 78 39 77 73 -205 0
74 40 78 39 77 73 -208 0
74 40 78 39 77 73 -206 0
74 40 78 39 77 73 -207 0
74 40 78 77 41 73 -205 0
74 40 78 77 41 73 -208 0
74 40 78 77 41 73 -206 0
74 40 78 77 41 73 -207 0
74 78 3 77 1 73 -72 0
74 78 3 77 1 73 -76 0
74 78 3 77 1 73 -71 0
74 78 3 77 1 73 -75 0
74 78 3 77 73 4 -72 0
74 78 3 77 73 4 -76 0
74 78 3 77 73 4 -71 0
74 78 3 77 73 4 -75 0
74 78 51 77 52 73 -221 0
74 78 51 77 52 73 -219 0
74 78 51 77 52 73 -222 0
74 78 51 77 52 73 -220 0
74 78 51 77 73 54 -221 0
74 78 51 77 73 54 -219 0
74 78 51 77 73 54 -222 0
74 78 51 77 73 54 -220 0
74 78 28 77 29 73 -165 0
74 78 28 77 29 73 -167 0
74 78 28 77 29 73 -168 0
74 78 28 77 29 73 -166 0
74 78 38 77 36 73 -188 0
74 78 38 77 36 73 -187 0
74 78 38 77 36 73 -189 0
74 78 38 77 36 73 -190 0
74 78 56 77 58 73 -229 0
74 78 56 77 58 73 -230 0
74 78 56 77 58 73 -231 0
74 78 56 77 58 73 -232 0
74 78 19 77 21 73 -140 0
74 78 19 77 21 73 -139 0
74 78 19 77 21 73 -142 0
74 78 19 77 21 73 -141 0
74 78 65 77 63 73 -238 0
74 78 65 77 63 73 -237 0
74 78 65 77 63 73 -235 0
74 78 65 77 63 73 -236 0
74 78 8 77 7 73 -109 0
74 78 8 77 7 73 -112 0
74 78 8 77 7 73 -110 0
74 78 8 77 7 73 -111 0
74 78 39 77 41 73 -205 0
74 78 39 77 41 73 -208 0
74 78 39 77 41 73 -206 0
74 78 39 77 41 73 -207 0
74 78 77 1 73 4 -72 0
74 78 77 1 73 4 -76 0
74 78 77 1 73 4 -71 0
74 78 77 1 73 4 -75 0
74 78 77 52 73 54 -221 0
74 78 77 52 73 54 -219 0
74 78 77 52 73 54 -222 0
74 78 77 52 73 54 -220 0
6 49 3 51 1 52 -53 0
6 49 3 51 1 52 -48 0
6 49 3 51 1 52 -50 0
6 49 3 51 1 52 -47 0
6 49 3 51 1 4 -53 0
6 49 3 51 1 4 -48 0
6 49 3 51 1 4 -50 0
6 49 3 51 1 4 -47 0
6 49 3 51 52 54 -53 0
6 49 3 51 52 54 -48 0
6 49 3 51 52 54 -50 0
6 49 3 51 52 54 -47 0
6 49 3 51 4 54 -53 0
6 49 3 51 4 54 -48 0
6 49 3 51 4 54 -50 0
6 49 3 51 4 54 -47 0
6 49 3 1 52 4 -53 0
6 49 3 1 52 4 -48 0
6 49 3 1 52 4 -50 0
6 49 3 1 52 4 -47 0
6 49 3 1 4 54 -53 0
6 49 3 1 4 54 -48 0
6 49 3 1 4 54 -50 0
6 49 3 1 4 54 -47 0
6 49 51 1 52 54 -53 0
6 49 51 1 52 54 -48 0
6 49 51 1 52 54 -50 0
6 49 51 1 52 54 -47 0
6 49 51 52 4 54 -53 0
6 49 51 52 4 54 -48 0
6 49 51 52 4 54 -50 0
6 49 51 52 4 54 -47 0
6 49 1 52 4 54 -53 0
6 49 1 52 4 54 -48 0
6 49 1 52 4 54 -50 0
6 49 1 52 4 54 -47 0
6 26 3 28 1 4 -27 0
6 26 3 28 1 4 -24 0
6 26 3 28 1 4 -30 0
6 26 3 28 1 4 -25 0
6 26 3 1 29 4 -27 0
6 26 3 1 29 4 -24 0
6 26 3 1 29 4 -30 0
6 26 3 1 29 4 -25 0
6 33 3 38 1 4 -31 0
6 33 3 38 1 4 -32 0
6 33 3 38 1 4 -37 0
6 33 3 38 1 4 -34 0
6 33 3 1 36 4 -31 0
6 33 3 1 36 4 -32 0
6 33 3 1 36 4 -37 0
6 33 3 1 36 4 -34 0
6 57 3 56 1 4 -60 0
6 57 3 56 1 4 -62 0
6 57 3 56 1 4 -61 0
6 57 3 56 1 4 -59 0
6 57 3 1 58 4 -60 0
6 57 3 1 58 4 -62 0
6 57 3 1 58 4 -61 0
6 57 3 1 58 4 -59 0
6 15 3 19 1 4 -22 0
6 15 3 19 1 4 -17 0
6 15 3 19 1 4 -20 0
6 15 3 19 1 4 -18 0
6 15 3 1 21 4 -22 0
6 15 3 1 21 4 -17 0
6 15 3 1 21 4 -20 0
6 15 3 1 21 4 -18 0
6 70 3 65 1 4 -69 0
6 70 3 65 1 4 -66 0
6 70 3 65 1 4 -64 0
6 70 3 65 1 4 -67 0
6 70 3 1 63 4 -69 0
6 70 3 1 63 4 -66 0
6 70 3 1 63 4 -64 0
6 70 3 1 63 4 -67 0
6 9 3 8 1 4 -12 0
6 9 3 8 1 4 -11 0
6 9 3 8 1 4 -13 0
6 9 3 8 1 4 -10 0
6 9 3 1 7 4 -12 0
6 9 3 1 7 4 -11 0
6 9 3 1 7 4 -13 0
6 9 3 1 7 4 -10 0
6 40 3 39 1 4 -44 0
6 40 3 39 1 4 -43 0
6 40 3 39 1 4 -46 0
6 40 3 39 1 4 -45 0
6 40 3 1 41 4 -44 0
6 40 3 1 41 4 -43 0
6 40 3 1 41 4 -46 0
6 40 3 1 41 4 -45 0
6 78 3 77 1 4 -72 0
6 78 3 77 1 4 -76 0
6 78 3 77 1 4 -71 0
6 78 3 77 1 4 -75 0
6 78 3 1 73 4 -72 0
6 78 3 1 73 4 -76 0
6 78 3 1 73 4 -71 0
6 78 3 1 73 4 -75 0
6 3 51 1 52 4 -53 0
6 3 51 1 52 4 -48 0
6 3 51 1 52 4 -50 0
6 3 51 1 52 4 -47 0
6 3 51 1 4 54 -53 0
6 3 51 1 4 54 -48 0
6 3 51 1 4 54 -50 0
6 3 51 1 4 54 -47 0
6 3 28 1 29 4 -27 0
6 3 28 1 29 4 -24 0
6 3 28 1 29 4 -30 0
6 3 28 1 29 4 -25 0
6 3 38 1 36 4 -31 0
6 3 38 1 36 4 -32 0
6 3 38 1 36 4 -37 0
6 3 38 1 36 4 -34 0
6 3 56 1 58 4 -60 0
6 3 56 1 58 4 -62 0
6 3 56 1 58 4 -61 0
6 3 56 1 58 4 -59 0
6 3 19 1 21 4 -22 0
6 3 19 1 21 4 -17 0
6 3 19 1 21 4 -20 0
6 3 19 1 21 4 -18 0
6 3 65 1 63 4 -69 0
6 3 65 1 63 4 -66 0
6 3 65 1 63 4 -64 0
6 3 65 1 63 4 -67 0
6 3 8 1 7 4 -12 0
6 3 8 1 7 4 -11 0
6 3 8 1 7 4 -13 0
6 3 8 1 7 4 -10 0
6 3 39 1 41 4 -44 0
6 3 39 1 41 4 -43 0
6 3 39 1 41 4 -46 0
6 3 39 1 41 4 -45 0
6 3 77 1 73 4 -72 0
6 3 77 1 73 4 -76 0
6 3 77 1 73 4 -71 0
6 3 77 1 73 4 -75 0
6 3 1 52 4 54 -53 0
6 3 1 52 4 54 -48 0
6 3 1 52 4 54 -50 0
6 3 1 52 4 54 -47 0
49 26 51 28 52 54 -154 0
49 26 51 28 52 54 -156 0
49 26 51 28 52 54 -155 0
49 26 51 28 52 54 -153 0
49 26 51 52 29 54 -154 0
49 26 51 52 29 54 -156 0
49 26 51 52 29 54 -155 0
49 26 51 52 29 54 -153 0
49 33 51 38 52 54 -175 0
49 33 51 38 52 54 -178 0
49 33 51 38 52 54 -176 0
49 33 51 38 52 54 -177 0
49 33 51 52 36 54 -175 0
49 33 51 52 36 54 -178 0
49 33 51 52 36 54 -176 0
49 33 51 52 36 54 -177 0
49 57 51 56 52 54 -212 0
49 57 51 56 52 54 -214 0
49 57 51 56 52 54 -211 0
49 57 51 56 52 54 -213 0
49 57 51 52 58 54 -212 0
49 57 51 52 58 54 -214 0
49 57 51 52 58 54 -211 0
49 57 51 52 58 54 -213 0
49 15 51 19 52 54 -130 0
49 15 51 19 52 54 -128 0
49 15 51 19 52 54 -127 0
49 15 51 19 52 54 -129 0
49 15 51 52 21 54 -130 0
49 15 51 52 21 54 -128 0
49 15 51 52 21 54 -127 0
49 15 51 52 21 54 -129 0
49 70 51 65 52 54 -215 0
49 70 51 65 52 54 -216 0
49 70 51 65 52 54 -217 0
49 70 51 65 52 54 -218 0
49 70 51 52 63 54 -215 0
49 70 51 52 63 54 -216 0
49 70 51 52 63 54 -217 0
49 70 51 52 63 54 -218 0
49 9 51 8 52 54 -98 0
49 9 51 8 52 54 -97 0
49 9 51 8 52 54 -100 0
49 9 51 8 52 54 -99 0
49 9 51 52 7 54 -98 0
49 9 51 52 7 54 -97 0
49 9 51 52 7 54 -100 0
49 9 51 52 7 54 -99 0
49 40 51 39 52 54 -195 0
49 40 51 39 52 54 -194 0
49 40 51 39 52 54 -193 0
49 40 51 39 52 54 -196 0
49 40 51 52 41 54 -195 0
49 40 51 52 41 54 -194 0
49 40 51 52 41 54 -193 0
49 40 51 52 41 54 -196 0
49 78 51 77 52 54 -221 0
49 78 51 77 52 54 -219 0
49 78 51 77 52 54 -222 0
49 78 51 77 52 54 -220 0
49 78 51 52 73 54 -221 0
49 78 51 52 73 54 -219 0
49 78 51 52 73 54 -222 0
49 78 51 52 73 54 -220 0
49 3 51 1 52 54 -53 0
49 3 51 1 52 54 -48 0
49 3 51 1 52 54 -50 0
49 3 51 1 52 54 -47 0
49 3 51 52 4 54 -53 0
49 3 51 52 4 54 -48 0
49 3 51 52 4 54 -50 0
49 3 51 52 4 54 -47 0
49 51 28 52 29 54 -154 0
49 51 28 52 29 54 -156 0
49 51 28 52 29 54 -155 0
49 51 28 52 29 54 -153 0
49 51 38 52 36 54 -175 0
49 51 38 52 36 54 -178 0
49 51 38 52 36 54 -176 0
49 51 38 52 36 54 -177 0
49 51 56 52 58 54 -212 0
49 51 56 52 58 54 -214 0
49 51 56 52 58 54 -211 0
49 51 56 52 58 54 -213 0
49 51 19 52 21 54 -130 0
49 51 19 52 21 54 -128 0
49 51 19 52 21 54 -127 0
49 51 19 52 21 54 -129 0
49 51 65 52 63 54 -215 0
49 51 65 52 63 54 -216 0
49 51 65 52 63 54 -217 0
49 51 65 52 63 54 -218 0
49 51 8 52 7 54 -98 0
49 51 8 52 7 54 -97 0
49 51 8 52 7 54 -100 0
49 51 8 52 7 54 -99 0
49 51 39 52 41 54 -195 0
49 51 39 52 41 54 -194 0
49 51 39 52 41 54 -193 0
49 51 39 52 41 54 -196 0
49 51 77 52 73 54 -221 0
49 51 77 52 73 54 -219 0
49 51 77 52 73 54 -222 0
49 51 77 52 73 54 -220 0
49 51 1 52 4 54 -53 0
49 51 1 52 4 54 -48 0
49 51 1 52 4 54 -50 0
49 51 1 52 4 54 -47 0
26 33 28 38 29 36 -148 0
26 33 28 38 29 36 -146 0
26 33 28 38 29 36 -147 0
26 33 28 38 29 36 -145 0
26 57 28 56 29 58 -160 0
26 57 28 56 29 58 -157 0
26 57 28 56 29 58 -158 0
26 57 28 56 29 58 -159 0
26 15 28 19 29 21 -118 0
26 15 28 19 29 21 -117 0
26 15 28 19 29 21 -115 0
26 15 28 19 29 21 -116 0
26 70 28 65 29 63 -164 0
26 70 28 65 29 63 -163 0
26 70 28 65 29 63 -161 0
26 70 28 65 29 63 -162 0
26 9 28 8 29 7 -88 0
26 9 28 8 29 7 -85 0
26 9 28 8 29 7 -86 0
26 9 28 8 29 7 -87 0
26 40 28 39 29 41 -152 0
26 40 28 39 29 41 -150 0
26 40 28 39 29 41 -149 0
26 40 28 39 29 41 -151 0
26 78 28 77 29 73 -165 0
26 78 28 77 29 73 -167 0
26 78 28 77 29 73 -168 0
26 78 28 77 29 73 -166 0
26 3 28 1 29 4 -27 0
26 3 28 1 29 4 -24 0
26 3 28 1 29 4 -30 0
26 3 28 1 29 4 -25 0
26 51 28 52 29 54 -154 0
26 51 28 52 29 54 -156 0
26 51 28 52 29 54 -155 0
26 51 28 52 29 54 -153 0
33 57 38 56 36 58 -179 0
33 57 38 56 36 58 -181 0
33 57 38 56 36 58 -182 0
33 57 38 56 36 58 -180 0
33 15 38 19 36 21 -122 0
33 15 38 19 36 21 -119 0
33 15 38 19 36 21 -121 0
33 15 38 19 36 21 -120 0
33 70 38 65 36 63 -184 0
33 70 38 65 36 63 -183 0
33 70 38 65 36 63 -185 0
33 70 38 65 36 63 -186 0
33 9 38 8 36 7 -91 0
33 9 38 8 36 7 -89 0
33 9 38 8 36 7 -92 0
33 9 38 8 36 7 -90 0
33 40 38 39 36 41 -171 0
33 40 38 39 36 41 -173 0
33 40 38 39 36 41 -172 0
33 40 38 39 36 41 -174 0
33 78 38 77 36 73 -188 0
33 78 38 77 36 73 -187 0
33 78 38 77 36 73 -189 0
33 78 38 77 36 73 -190 0
33 3 38 1 36 4 -31 0
33 3 38 1 36 4 -32 0
33 3 38 1 36 4 -37 0
33 3 38 1 36 4 -34 0
33 51 38 52 36 54 -175 0
33 51 38 52 36 54 -178 0
33 51 38 52 36 54 -176 0
33 51 38 52 36 54 -177 0
57 15 56 19 58 21 -134 0
57 15 56 19 58 21 -132 0
57 15 56 19 58 21 -131 0
57 15 56 19 58 21 -133 0
57 70 56 65 58 63 -227 0
57 70 56 65 58 63 -226 0
57 70 56 65 58 63 -225 0
57 70 56 65 58 63 -228 0
57 9 56 8 58 7 -101 0
57 9 56 8 58 7 -102 0
57 9 56 8 58 7 -104 0
57 9 56 8 58 7 -103 0
57 40 56 39 58 41 -198 0
57 40 56 39 58 41 -200 0
57 40 56 39 58 41 -197 0
57 40 56 39 58 41 -199 0
57 78 56 77 58 73 -229 0
57 78 56 77 58 73 -230 0
57 78 56 77 58 73 -231 0
57 78 56 77 58 73 -232 0
57 3 56 1 58 4 -60 0
57 3 56 1 58 4 -62 0
57 3 56 1 58 4 -61 0
57 3 56 1 58 4 -59 0
57 51 56 52 58 54 -212 0
57 51 56 52 58 54 -214 0
57 51 56 52 58 54 -211 0
57 51 56 52 58 54 -213 0
15 70 19 65 21 63 -138 0
15 70 19 65 21 63 -136 0
15 70 19 65 21 63 -135 0
15 70 19 65 21 63 -137 0
15 9 19 8 21 7 -81 0
15 9 19 8 21 7 -84 0
15 9 19 8 21 7 -83 0
15 9 19 8 21 7 -82 0
15 40 19 39 21 41 -126 0
15 40 19 39 21 41 -124 0
15 40 19 39 21 41 -123 0
15 40 19 39 21 41 -125 0
15 78 19 77 21 73 -140 0
15 78 19 77 21 73 -139 0
15 78 19 77 21 73 -142 0
15 78 19 77 21 73 -141 0
15 3 19 1 21 4 -22 0
15 3 19 1 21 4 -17 0
15 3 19 1 21 4 -20 0
15 3 19 1 21 4 -18 0
15 51 19 52 21 54 -130 0
15 51 19 52 21 54 -128 0
15 51 19 52 21 54 -127 0
15 51 19 52 21 54 -129 0
70 9 65 8 63 7 -108 0
70 9 65 8 63 7 -105 0
70 9 65 8 63 7 -107 0
70 9 65 8 63 7 -106 0
70 40 65 39 63 41 -204 0
70 40 65 39 63 41 -201 0
70 40 65 39 63 41 -203 0
70 40 65 39 63 41 -202 0
70 78 65 77 63 73 -238 0
70 78 65 77 63 73 -237 0
70 78 65 77 63 73 -235 0
70 78 65 77 63 73 -236 0
70 3 65 1 63 4 -69 0
70 3 65 1 63 4 -66 0
70 3 65 1 63 4 -64 0
70 3 65 1 63 4 -67 0
70 51 65 52 63 54 -215 0
70 51 65 52 63 54 -216 0
70 51 65 52 63 54 -217 0
70 51 65 52 63 54 -218 0
9 40 8 39 7 41 -96 0
9 40 8 39 7 41 -94 0
9 40 8 39 7 41 -95 0
9 40 8 39 7 41 -93 0
9 78 8 77 7 73 -109 0
9 78 8 77 7 73 -112 0
9 78 8 77 7 73 -110 0
9 78 8 77 7 73 -111 0
9 3 8 1 7 4 -12 0
9 3 8 1 7 4 -11 0
9 3 8 1 7 4 -13 0
9 3 8 1 7 4 -10 0
9 51 8 52 7 54 -98 0
9 51 8 52 7 54 -97 0
9 51 8 52 7 54 -100 0
9 51 8 52 7 54 -99 0
40 78 39 77 41 73 -205 0
40 78 39 77 41 73 -208 0
40 78 39 77 41 73 -206 0
40 78 39 77 41 73 -207 0
40 3 39 1 41 4 -44 0
40 3 39 1 41 4 -43 0
40 3 39 1 41 4 -46 0
40 3 39 1 41 4 -45 0
40 51 39 52 41 54 -195 0
40 51 39 52 41 54 -194 0
40 51 39 52 41 54 -193 0
40 51 39 52 41 54 -196 0
78 3 77 1 73 4 -72 0
78 3 77 1 73 4 -76 0
78 3 77 1 73 4 -71 0
78 3 77 1 73 4 -75 0
78 51 77 52 73 54 -221 0
78 51 77 52 73 54 -219 0
78 51 77 52 73 54 -222 0
78 51 77 52 73 54 -220 0
3 51 1 52 4 54 -53 0
3 51 1 52 4 54 -48 0
3 51 1 52 4 54 -50 0
3 51 1 52 4 54 -47 0
23 35 26 33 28 38 29 -148 0
23 35 26 33 28 38 29 -146 0
23 35 26 33 28 38 29 -147 0
23 35 26 33 28 38 29 -145 0
23 35 26 33 28 38 36 -148 0
23 35 26 33 28 38 36 -146 0
23 35 26 33 28 38 36 -147 0
23 35 26 33 28 38 36 -145 0
23 35 26 33 28 29 36 -148 0
23 35 26 33 28 29 36 -146 0
23 35 26 33 28 29 36 -147 0
23 35 26 33 28 29 36 -145 0
23 35 26 33 38 29 36 -148 0
23 35 26 33 38 29 36 -146 0
23 35 26 33 38 29 36 -147 0
23 35 26 33 38 29 36 -145 0
23 35 26 28 38 29 36 -148 0
23 35 26 28 38 29 36 -146 0
23 35 26 28 38 29 36 -147 0
23 35 26 28 38 29 36 -145 0
23 35 33 28 38 29 36 -148 0
23 35 33 28 38 29 36 -146 0
23 35 33 28 38 29 36 -147 0
23 35 33 28 38 29 36 -145 0
23 55 26 57 28 56 29 -160 0
23 55 26 57 28 56 29 -157 0
23 55 26 57 28 56 29 -158 0
23 55 26 57 28 56 29 -159 0
23 55 26 57 28 56 58 -160 0
23 55 26 57 28 56 58 -157 0
23 55 26 57 28 56 58 -158 0
23 55 26 57 28 56 58 -159 0
23 55 26 57 28 29 58 -160 0
23 55 26 57 28 29 58 -157 0
23 55 26 57 28 29 58 -158 0
23 55 26 57 28 29 58 -159 0
23 55 26 57 56 29 58 -160 0
23 55 26 57 56 29 58 -157 0
23 55 26 57 56 29 58 -158 0
23 55 26 57 56 29 58 -159 0
23 55 26 28 56 29 58 -160 0
23 55 26 28 56 29 58 -157 0
23 55 26 28 56 29 58 -158 0
23 55 26 28 56 29 58 -159 0
23 55 57 28 56 29 58 -160 0
23 55 57 28 56 29 58 -157 0
23 55 57 28 56 29 58 -158 0
23 55 57 28 56 29 58 -159 0
23 16 26 15 28 19 29 -118 0
23 16 26 15 28 19 29 -117 0
23 16 26 15 28 19 29 -115 0
23 16 26 15 28 19 29 -116 0
23 16 26 15 28 19 21 -118 0
23 16 26 15 28 19 21 -117 0
23 16 26 15 28 19 21 -115 0
23 16 26 15 28 19 21 -116 0
23 16 26 15 28 29 21 -118 0
23 16 26 15 28 29 21 -117 0
23 16 26 15 28 29 21 -115 0
23 16 26 15 28 29 21 -116 0
23 16 26 15 19 29 21 -118 0
23 16 26 15 19 29 21 -117 0
23 16 26 15 19 29 21 -115 0
23 16 26 15 19 29 21 -116 0
23 16 26 28 19 29 21 -118 0
23 16 26 28 19 29 21 -117 0
23 16 26 28 19 29 21 -115 0
23 16 26 28 19 29 21 -116 0
23 16 15 28 19 29 21 -118 0
23 16 15 28 19 29 21 -117 0
23 16 15 28 19 29 21 -115 0
23 16 15 28 19 29 21 -116 0
23 68 26 70 28 65 29 -164 0
23 68 26 70 28 65 29 -163 0
23 68 26 70 28 65 29 -161 0
23 68 26 70 28 65 29 -162 0
23 68 26 70 28 65 63 -164 0
23 68 26 70 28 65 63 -163 0
23 68 26 70 28 65 63 -161 0
23 68 26 70 28 65 63 -162 0
23 68 26 70 28 29 63 -164 0
23 68 26 70 28 29 63 -163 0
23 68 26 70 28 29 63 -161 0
23 68 26 70 28 29 63 -162 0
23 68 26 70 65 29 63 -164 0
23 68 26 70 65 29 63 -163 0
23 68 26 70 65 29 63 -161 0
23 68 26 70 65 29 63 -162 0
23 68 26 28 65 29 63 -164 0
23 68 26 28 65 29 63 -163 0
23 68 26 28 65 29 63 -161 0
23 68 26 28 65 29 63 -162 0
23 68 70 28 65 29 63 -164 0
23 68 70 28 65 29 63 -163 0
23 68 70 28 65 29 63 -161 0
23 68 70 28 65 29 63 -162 0
23 14 26 9 28 8 29 -88 0
23 14 26 9 28 8 29 -85 0
23 14 26 9 28 8 29 -86 0
23 14 26 9 28 8 29 -87 0
23 14 26 9 28 8 7 -88 0
23 14 26 9 28 8 7 -85 0
23 14 26 9 28 8 7 -86 0
23 14 26 9 28 8 7 -87 0
23 14 26 9 28 29 7 -88 0
23 14 26 9 28 29 7 -85 0
23 14 26 9 28 29 7 -86 0
23 14 26 9 28 29 7 -87 0
23 14 26 9 8 29 7 -88 0
23 14 26 9 8 29 7 -85 0
23 14 26 9 8 29 7 -86 0
23 14 26 9 8 29 7 -87 0
23 14 26 28 8 29 7 -88 0
23 14 26 28 8 29 7 -85 0
23 14 26 28 8 29 7 -86 0
23 14 26 28 8 29 7 -87 0
23 14 9 28 8 29 7 -88 0
23 14 9 28 8 29 7 -85 0
23 14 9 28 8 29 7 -86 0
23 14 9 28 8 29 7 -87 0
23 42 26 40 28 39 29 -152 0
23 42 26 40 28 39 29 -150 0
23 42 26 40 28 39 29 -149 0
23 42 26 40 28 39 29 -151 0
23 42 26 40 28 39 41 -152 0
23 42 26 40 28 39 41 -150 0
23 42 26 40 28 39 41 -149 0
23 42 26 40 28 39 41 -151 0
23 42 26 40 28 29 41 -152 0
23 42 26 40 28 29 41 -150 0
23 42 26 40 28 29 41 -149 0
23 42 26 40 28 29 41 -151 0
23 42 26 40 39 29 41 -152 0
23 42 26 40 39 29 41 -150 0
23 42 26 40 39 29 41 -149 0
23 42 26 40 39 29 41 -151 0
23 42 26 28 39 29 41 -152 0
23 42 26 28 39 29 41 -150 0
23 42 26 28 39 29 41 -149 0
23 42 26 28 39 29 41 -151 0
23 42 40 28 39 29 41 -152 0
23 42 40 28 39 29 41 -150 0
23 42 40 28 39 29 41 -149 0
23 42 40 28 39 29 41 -151 0
23 74 26 78 28 77 29 -165 0
23 74 26 78 28 77 29 -167 0
23 74 26 78 28 77 29 -168 0
23 74 26 78 28 77 29 -166 0
23 74 26 78 28 77 73 -165 0
23 74 26 78 28 77 73 -167 0
23 74 26 78 28 77 73 -168 0
23 74 26 78 28 77 73 -166 0
23 74 26 78 28 29 73 -165 0
23 74 26 78 28 29 73 -167 0
23 74 26 78 28 29 73 -168 0
23 74 26 78 28 29 73 -166 0
23 74 26 78 77 29 73 -165 0
23 74 26 78 77 29 73 -167 0
23 74 26 78 77 29 73 -168 0
23 74 26 78 77 29 73 -166 0
23 74 26 28 77 29 73 -165 0
23 74 26 28 77 29 73 -167 0
23 74 26 28 77 29 73 -168 0
23 74 26 28 77 29 73 -166 0
23 74 78 28 77 29 73 -165 0
23 74 78 28 77 29 73 -167 0
23 74 78 28 77 29 73 -168 0
23 74 78 28 77 29 73 -166 0
23 6 26 3 28 1 29 -27 0
23 6 26 3 28 1 29 -24 0
23 6 26 3 28 1 29 -30 0
23 6 26 3 28 1 29 -25 0
23 6 26 3 28 1 4 -27 0
23 6 26 3 28 1 4 -24 0
23 6 26 3 28 1 4 -30 0
23 6 26 3 28 1 4 -25 0
23 6 26 3 28 29 4 -27 0
23 6 26 3 28 29 4 -24 0
23 6 26 3 28 29 4 -30 0
23 6 26 3 28 29 4 -25 0
23 6 26 3 1 29 4 -27 0
23 6 26 3 1 29 4 -24 0
23 6 26 3 1 29 4 -30 0
23 6 26 3 1 29 4 -25 0
23 6 26 28 1 29 4 -27 0
23 6 26 28 1 29 4 -24 0
23 6 26 28 1 29 4 -30 0
23 6 26 28 1 29 4 -25 0
23 6 3 28 1 29 4 -27 0
23 6 3 28 1 29 4 -24 0
23 6 3 28 1 29 4 -30 0
23 6 3 28 1 29 4 -25 0
23 49 26 51 28 52 29 -154 0
23 49 26 51 28 52 29 -156 0
23 49 26 51 28 52 29 -155 0
23 49 26 51 28 52 29 -153 0
23 49 26 51 28 52 54 -154 0
23 49 26 51 28 52 54 -156 0
23 49 26 51 28 52 54 -155 0
23 49 26 51 28 52 54 -153 0
23 49 26 51 28 29 54 -154 0
23 49 26 51 28 29 54 -156 0
23 49 26 51 28 29 54 -155 0
23 49 26 51 28 29 54 -153 0
23 49 26 51 52 29 54 -154 0
23 49 26 51 52 29 54 -156 0
23 49 26 51 52 29 54 -155 0
23 49 26 51 52 29 54 -153 0
23 49 26 28 52 29 54 -154 0
23 49 26 28 52 29 54 -156 0
23 49 26 28 52 29 54 -155 0
23 49 26 28 52 29 54 -153 0
23 49 51 28 52 29 54 -154 0
23 49 51 28 52 29 54 -156 0
23 49 51 28 52 29 54 -155 0
23 49 51 28 52 29 54 -153 0
23 26 33 28 38 29 36 -148 0
23 26 33 28 38 29 36 -146 0
23 26 33 28 38 29 36 -147 0
23 26 33 28 38 29 36 -145 0
23 26 57 28 56 29 58 -160 0
23 26 57 28 56 29 58 -157 0
23 26 57 28 56 29 58 -158 0
23 26 57 28 56 29 58 -159 0
23 26 15 28 19 29 21 -118 0
23 26 15 28 19 29 21 -117 0
23 26 15 28 19 29 21 -115 0
23 26 15 28 19 29 21 -116 0
23 26 70 28 65 29 63 -164 0
23 26 70 28 65 29 63 -163 0
23 26 70 28 65 29 63 -161 0
23 26 70 28 65 29 63 -162 0
23 26 9 28 8 29 7 -88 0
23 26 9 28 8 29 7 -85 0
23 26 9 28 8 29 7 -86 0
23 26 9 28 8 29 7 -87 0
23 26 40 28 39 29 41 -152 0
23 26 40 28 39 29 41 -150 0
23 26 40 28 39 29 41 -149 0
23 26 40 28 39 29 41 -151 0
23 26 78 28 77 29 73 -165 0
23 26 78 28 77 29 73 -167 0
23 26 78 28 77 29 73 -168 0
23 26 78 28 77 29 73 -166 0
23 26 3 28 1 29 4 -27 0
23 26 3 28 1 29 4 -24 0
23 26 3 28 1 29 4 -30 0
23 26 3 28 1 29 4 -25 0
23 26 51 28 52 29 54 -154 0
23 26 51 28 52 29 54 -156 0
23 26 51 28 52 29 54 -155 0
23 26 51 28 52 29 54 -153 0
35 55 33 57 38 56 36 -179 0
35 55 33 57 38 56 36 -181 0
35 55 33 57 38 56 36 -182 0
35 55 33 57 38 56 36 -180 0
35 55 33 57 38 56 58 -179 0
35 55 33 57 38 56 58 -181 0
35 55 33 57 38 56 58 -182 0
35 55 33 57 38 56 58 -180 0
35 55 33 57 38 36 58 -179 0
35 55 33 57 38 36 58 -181 0
35 55 33 57 38 36 58 -182 0
35 55 33 57 38 36 58 -180 0
35 55 33 57 56 36 58 -179 0
35 55 33 57 56 36 58 -181 0
35 55 33 57 56 36 58 -182 0
35 55 33 57 56 36 58 -180 0
35 55 33 38 56 36 58 -179 0
35 55 33 38 56 36 58 -181 0
35 55 33 38 56 36 58 -182 0
35 55 33 38 56 36 58 -180 0
35 55 57 38 56 36 58 -179 0
35 55 57 38 56 36 58 -181 0
35 55 57 38 56 36 58 -182 0
35 55 57 38 56 36 58 -180 0
35 16 33 15 38 19 36 -122 0
35 16 33 15 38 19 36 -119 0
35 16 33 15 38 19 36 -121 0
35 16 33 15 38 19 36 -120 0
35 16 33 15 38 19 21 -122 0
35 16 33 15 38 19 21 -119 0
35 16 33 15 38 19 21 -121 0
35 16 33 15 38 19 21 -120 0
35 16 33 15 38 36 21 -122 0
35 16 33 15 38 36 21 -119 0
35 16 33 15 38 36 21 -121 0
35 16 33 15 38 36 21 -120 0
35 16 33 15 19 36 21 -122 0
35 16 33 15 19 36 21 -119 0
35 16 33 15 19 36 21 -121 0
35 16 33 15 19 36 21 -120 0
35 16 33 38 19 36 21 -122 0
35 16 33 38 19 36 21 -119 0
35 16 33 38 19 36 21 -121 0
35 16 33 38 19 36 21 -120 0
35 16 15 38 19 36 21 -122 0
35 16 15 38 19 36 21 -119 0
35 16 15 38 19 36 21 -121 0
35 16 15 38 19 36 21 -120 0
35 68 33 70 38 65 36 -184 0
35 68 33 70 38 65 36 -183 0
35 68 33 70 38 65 36 -185 0
35 68 33 70 38 65 36 -186 0
35 68 33 70 38 65 63 -184 0
35 68 33 70 38 65 63 -183 0
35 68 33 70 38 65 63 -185 0
35 68 33 70 38 65 63 -186 0
35 68 33 70 38 36 63 -184 0
35 68 33 70 38 36 63 -183 0
35 68 33 70 38 36 63 -185 0
35 68 33 70 38 36 63 -186 0
35 68 33 70 65 36 63 -184 0
35 68 33 70 65 36 63 -183 0
35 68 33 70 65 36 63 -185 0
35 68 33 70 65 36 63 -186 0
35 68 33 38 65 36 63 -184 0
35 68 33 38 65 36 63 -183 0
35 68 33 38 65 36 63 -185 0
35 68 33 38 65 36 63 -186 0
35 68 70 38 65 36 63 -184 0
35 68 70 38 65 36 63 -183 0
35 68 70 38 65 36 63 -185 0
35 68 70 38 65 36 63 -186 0
35 14 33 9 38 8 36 -91 0
35 14 33 9 38 8 36 -89 0
35 14 33 9 38 8 36 -92 0
35 14 33 9 38 8 36 -90 0
35 14 33 9 38 8 7 -91 0
35 14 33 9 38 8 7 -89 0
35 14 33 9 38 8 7 -92 0
35 14 33 9 38 8 7 -90 0
35 14 33 9 38 36 7 -91 0
35 14 33 9 38 36 7 -89 0
35 14 33 9 38 36 7 -92 0
35 14 33 9 38 36 7 -90 0
35 14 33 9 8 36 7 -91 0
35 14 33 9 8 36 7 -89 0
35 14 33 9 8 36 7 -92 0
35 14 33 9 8 36 7 -90 0
35 14 33 38 8 36 7 -91 0
35 14 33 38 8 36 7 -89 0
35 14 33 38 8 36 7 -92 0
35 14 33 38 8 36 7 -90 0
35 14 9 38 8 36 7 -91 0
35 14 9 38 8 36 7 -89 0
35 14 9 38 8 36 7 -92 0
35 14 9 38 8 36 7 -90 0
35 42 33 40 38 39 36 -171 0
35 42 33 40 38 39 36 -173 0
35 42 33 40 38 39 36 -172 0
35 42 33 40 38 39 36 -174 0
35 42 33 40 38 39 41 -171 0
35 42 33 40 38 39 41 -173 0
35 42 33 40 38 39 41 -172 0
35 42 33 40 38 39 41 -174 0
35 42 33 40 38 36 41 -171 0
35 42 33 40 38 36 41 -173 0
35 42 33 40 38 36 41 -172 0
35 42 33 40 38 36 41 -174 0
35 42 33 40 39 36 41 -171 0
35 42 33 40 39 36 41 -173 0
35 42 33 40 39 36 41 -172 0
35 42 33 40 39 36 41 -174 0
35 42 33 38 39 36 41 -171 0
35 42 33 38 39 36 41 -173 0
35 42 33 38 39 36 41 -172 0
35 42 33 38 39 36 41 -174 0
35 42 40 38 39 36 41 -171 0
35 42 40 38 39 36 41 -173 0
35 42 40 38 39 36 41 -172 0
35 42 40 38 39 36 41 -174 0
35 74 33 78 38 77 36 -188 0
35 74 33 78 38 77 36 -187 0
35 74 33 78 38 77 36 -189 0
35 74 33 78 38 77 36 -190 0
35 74 33 78 38 77 73 -188 0
35 74 33 78 38 77 73 -187 0
35 74 33 78 38 77 73 -189 0
35 74 33 78 38 77 73 -190 0
35 74 33 78 38 36 73 -188 0
35 74 33 78 38 36 73 -187 0
35 74 33 78 38 36 73 -189 0
35 74 33 78 38 36 73 -190 0
35 74 33 78 77 36 73 -188 0
35 74 33 78 77 36 73 -187 0
35 74 33 78 77 36 73 -189 0
35 74 33 78 77 36 73 -190 0
35 74 33 38 77 36 73 -188 0
35 74 33 38 77 36 73 -187 0
35 74 33 38 77 36 73 -189 0
35 74 33 38 77 36 73 -190 0
35 74 78 38 77 36 73 -188 0
35 74 78 38 77 36 73 -187 0
35 74 78 38 77 36 73 -189 0
35 74 78 38 77 36 73 -190 0
35 6 33 3 38 1 36 -31 0
35 6 33 3 38 1 36 -32 0
35 6 33 3 38 1 36 -37 0
35 6 33 3 38 1 36 -34 0
35 6 33 3 38 1 4 -31 0
35 6 33 3 38 1 4 -32 0
35 6 33 3 38 1 4 -37 0
35 6 33 3 38 1 4 -34 0
35 6 33 3 38 36 4 -31 0
35 6 33 3 38 36 4 -32 0
35 6 33 3 38 36 4 -37 0
35 6 33 3 38 36 4 -34 0
35 6 33 3 1 36 4 -31 0
35 6 33 3 1 36 4 -32 0
35 6 33 3 1 36 4 -37 0
35 6 33 3 1 36 4 -34 0
35 6 33 38 1 36 4 -31 0
35 6 33 38 1 36 4 -32 0
35 6 33 38 1 36 4 -37 0
35 6 33 38 1 36 4 -34 0
35 6 3 38 1 36 4 -31 0
35 6 3 38 1 36 4 -32 0
35 6 3 38 1 36 4 -37 0
35 6 3 38 1 36 4 -34 0
35 49 33 51 38 52 36 -175 0
35 49 33 51 38 52 36 -178 0
35 49 33 51 38 52 36 -176 0
35 49 33 51 38 52 36 -177 0
35 49 33 51 38 52 54 -175 0
35 49 33 51 38 52 54 -178 0
35 49 33 51 38 52 54 -176 0
35 49 33 51 38 52 54 -177 0
35 49 33 51 38 36 54 -175 0
35 49 33 51 38 36 54 -178 0
35 49 33 51 38 36 54 -176 0
35 49 33 51 38 36 54 -177 0
35 49 33 51 52 36 54 -175 0
35 49 33 51 52 36 54 -178 0
35 49 33 51 52 36 54 -176 0
35 49 33 51 52 36 54 -177 0
35 49 33 38 52 36 54 -175 0
35 49 33 38 52 36 54 -178 0
35 49 33 38 52 36 54 -176 0
35 49 33 38 52 36 54 -177 0
35 49 51 38 52 36 54 -175 0
35 49 51 38 52 36 54 -178 0
35 49 51 38 52 36 54 -176 0
35 49 51 38 52 36 54 -177 0
35 26 33 28 38 29 36 -148 0
35 26 33 28 38 29 36 -146 0
35 26 33 28 38 29 36 -147 0
35 26 33 28 38 29 36 -145 0
35 33 57 38 56 36 58 -179 0
35 33 57 38 56 36 58 -181 0
35 33 57 38 56 36 58 -182 0
35 33 57 38 56 36 58 -180 0
35 33 15 38 19 36 21 -122 0
35 33 15 38 19 36 21 -119 0
35 33 15 38 19 36 21 -121 0
35 33 15 38 19 36 21 -120 0
35 33 70 38 65 36 63 -184 0
35 33 70 38 65 36 63 -183 0
35 33 70 38 65 36 63 -185 0
35 33 70 38 65 36 63 -186 0
35 33 9 38 8 36 7 -91 0
35 33 9 38 8 36 7 -89 0
35 33 9 38 8 36 7 -92 0
35 33 9 38 8 36 7 -90 0
35 33 40 38 39 36 41 -171 0
35 33 40 38 39 36 41 -173 0
35 33 40 38 39 36 41 -172 0
35 33 40 38 39 36 41 -174 0
35 33 78 38 77 36 73 -188 0
35 33 78 38 77 36 73 -187 0
35 33 78 38 77 36 73 -189 0
35 33 78 38 77 36 73 -190 0
35 33 3 38 1 36 4 -31 0
35 33 3 38 1 36 4 -32 0
35 33 3 38 1 36 4 -37 0
35 33 3 38 1 36 4 -34 0
35 33 51 38 52 36 54 -175 0
35 33 51 38 52 36 54 -178 0
35 33 51 38 52 36 54 -176 0
35 33 51 38 52 36 54 -177 0
55 16 57 15 56 19 58 -134 0
55 16 57 15 56 19 58 -132 0
55 16 57 15 56 19 58 -131 0
55 16 57 15 56 19 58 -133 0
55 16 57 15 56 19 21 -134 0
55 16 57 15 56 19 21 -132 0
55 16 57 15 56 19 21 -131 0
55 16 57 15 56 19 21 -133 0
55 16 57 15 56 58 21 -134 0
55 16 57 15 56 58 21 -132 0
55 16 57 15 56 58 21 -131 0
55 16 57 15 56 58 21 -133 0
55 16 57 15 19 58 21 -134 0
55 16 57 15 19 58 21 -132 0
55 16 57 15 19 58 21 -131 0
55 16 57 15 19 58 21 -133 0
55 16 57 56 19 58 21 -134 0
55 16 57 56 19 58 21 -132 0
55 16 57 56 19 58 21 -131 0
55 16 57 56 19 58 21 -133 0
55 16 15 56 19 58 21 -134 0
55 16 15 56 19 58 21 -132 0
55 16 15 56 19 58 21 -131 0
55 16 15 56 19 58 21 -133 0
55 68 57 70 56 65 58 -227 0
55 68 57 70 56 65 58 -226 0
55 68 57 70 56 65 58 -225 0
55 68 57 70 56 65 58 -228 0
55 68 57 70 56 65 63 -227 0
55 68 57 70 56 65 63 -226 0
55 68 57 70 56 65 63 -225 0
55 68 57 70 56 65 63 -228 0
55 68 57 70 56 58 63 -227 0
55 68 57 70 56 58 63 -226 0
55 68 57 70 56 58 63 -225 0
55 68 57 70 56 58 63 -228 0
55 68 57 70 65 58 63 -227 0
55 68 57 70 65 58 63 -226 0
55 68 57 70 65 58 63 -225 0
55 68 57 70 65 58 63 -228 0
55 68 57 56 65 58 63 -227 0
55 68 57 56 65 58 63 -226 0
55 68 57 56 65 58 63 -225 0
55 68 57 56 65 58 63 -228 0
55 68 70 56 65 58 63 -227 0
55 68 70 56 65 58 63 -226 0
55 68 70 56 65 58 63 -225 0
55 68 70 56 65 58 63 -228 0
55 14 57 9 56 8 58 -101 0
55 14 57 9 56 8 58 -102 0
55 14 57 9 56 8 58 -104 0
55 14 57 9 56 8 58 -103 0
55 14 57 9 56 8 7 -101 0
55 14 57 9 56 8 7 -102 0
55 14 57 9 56 8 7 -104 0
55 14 57 9 56 8 7 -103 0
55 14 57 9 56 58 7 -101 0
55 14 57 9 56 58 7 -102 0
55 14 57 9 56 58 7 -104 0
55 14 57 9 56 58 7 -103 0
55 14 57 9 8 58 7 -101 0
55 14 57 9 8 58 7 -102 0
55 14 57 9 8 58 7 -104 0
55 14 57 9 8 58 7 -103 0
55 14 57 56 8 58 7 -101 0
55 14 57 56 8 58 7 -102 0
55 14 57 56 8 58 7 -104 0
55 14 57 56 8 58 7 -103 0
55 14 9 56 8 58 7 -101 0
55 14 9 56 8 58 7 -102 0
55 14 9 56 8 58 7 -104 0
55 14 9 56 8 58 7 -103 0
55 42 57 40 56 39 58 -198 0
55 42 57 40 56 39 58 -200 0
55 42 57 40 56 39 58 -197 0
55 42 57 40 56 39 58 -199 0
55 42 57 40 56 39 41 -198 0
55 42 57 40 56 39 41 -200 0
55 42 57 40 56 39 41 -197 0
55 42 57 40 56 39 41 -199 0
55 42 57 40 56 58 41 -198 0
55 42 57 40 56 58 41 -200 0
55 42 57 40 56 58 41 -197 0
55 42 57 40 56 58 41 -199 0
55 42 57 40 39 58 41 -198 0
55 42 57 40 39 58 41 -200 0
55 42 57 40 39 58 41 -197 0
55 42 57 40 39 58 41 -199 0
55 42 57 56 39 58 41 -198 0
55 42 57 56 39 58 41 -200 0
55 42 57 56 39 58 41 -197 0
55 42 57 56 39 58 41 -199 0
55 42 40 56 39 58 41 -198 0
55 42 40 56 39 58 41 -200 0
55 42 40 56 39 58 41 -197 0
55 42 40 56 39 58 41 -199 0
55 74 57 78 56 77 58 -229 0
55 74 57 78 56 77 58 -230 0
55 74 57 78 56 77 58 -231 0
55 74 57 78 56 77 58 -232 0
55 74 57 78 56 77 73 -229 0
55 74 57 78 56 77 73 -230 0
55 74 57 78 56 77 73 -231 0
55 74 57 78 56 77 73 -232 0
55 74 57 78 56 58 73 -229 0
55 74 57 78 56 58 73 -230 0
55 74 57 78 56 58 73 -231 0
55 74 57 78 56 58 73 -232 0
55 74 57 78 77 58 73 -229 0
55 74 57 78 77 58 73 -230 0
55 74 57 78 77 58 73 -231 0
55 74 57 78 77 58 73 -232 0
55 74 57 56 77 58 73 -229 0
55 74 57 56 77 58 73 -230 0
55 74 57 56 77 58 73 -231 0
55 74 57 56 77 58 73 -232 0
55 74 78 56 77 58 73 -229 0
55 74 78 56 77 58 73 -230 0
55 74 78 56 77 58 73 -231 0
55 74 78 56 77 58 73 -232 0
55 6 57 3 56 1 58 -60 0
55 6 57 3 56 1 58 -62 0
55 6 57 3 56 1 58 -61 0
55 6 57 3 56 1 58 -59 0
55 6 57 3 56 1 4 -60 0
55 6 57 3 56 1 4 -62 0
55 6 57 3 56 1 4 -61 0
55 6 57 3 56 1 4 -59 0
55 6 57 3 56 58 4 -60 0
55 6 57 3 56 58 4 -62 0
55 6 57 3 56 58 4 -61 0
55 6 57 3 56 58 4 -59 0
55 6 57 3 1 58 4 -60 0
55 6 57 3 1 58 4 -62 0
55 6 57 3 1 58 4 -61 0
55 6 57 3 1 58 4 -59 0
55 6 57 56 1 58 4 -60 0
55 6 57 56 1 58 4 -62 0
55 6 57 56 1 58 4 -61 0
55 6 57 56 1 58 4 -59 0
55 6 3 56 1 58 4 -60 0
55 6 3 56 1 58 4 -62 0
55 6 3 56 1 58 4 -61 0
55 6 3 56 1 58 4 -59 0
55 49 57 51 56 52 58 -212 0
55 49 57 51 56 52 58 -214 0
55 49 57 51 56 52 58 -211 0
55 49 57 51 56 52 58 -213 0
55 49 57 51 56 52 54 -212 0
55 49 57 51 56 52 54 -214 0
55 49 57 51 56 52 54 -211 0
55 49 57 51 56 52 54 -213 0
55 49 57 51 56 58 54 -212 0
55 49 57 51 56 58 54 -214 0
55 49 57 51 56 58 54 -211 0
55 49 57 51 56 58 54 -213 0
55 49 57 51 52 58 54 -212 0
55 49 57 51 52 58 54 -214 0
55 49 57 51 52 58 54 -211 0
55 49 57 51 52 58 54 -213 0
55 49 57 56 52 58 54 -212 0
55 49 57 56 52 58 54 -214 0
55 49 57 56 52 58 54 -211 0
55 49 57 56 52 58 54 -213 0
55 49 51 56 52 58 54 -212 0
55 49 51 56 52 58 54 -214 0
55 49 51 56 52 58 54 -211 0
55 49 51 56 52 58 54 -213 0
55 26 57 28 56 29 58 -160 0
55 26 57 28 56 29 58 -157 0
55 26 57 28 56 29 58 -158 0
55 26 57 28 56 29 58 -159 0
55 33 57 38 56 36 58 -179 0
55 33 57 38 56 36 58 -181 0
55 33 57 38 56 36 58 -182 0
55 33 57 38 56 36 58 -180 0
55 57 15 56 19 58 21 -134 0
55 57 15 56 19 58 21 -132 0
55 57 15 56 19 58 21 -131 0
55 57 15 56 19 58 21 -133 0
55 57 70 56 65 58 63 -227 0
55 57 70 56 65 58 63 -226 0
55 57 70 56 65 58 63 -225 0
55 57 70 56 65 58 63 -228 0
55 57 9 56 8 58 7 -101 0
55 57 9 56 8 58 7 -102 0
55 57 9 56 8 58 7 -104 0
55 57 9 56 8 58 7 -103 0
55 57 40 56 39 58 41 -198 0
55 57 40 56 39 58 41 -200 0
55 57 40 56 39 58 41 -197 0
55 57 40 56 39 58 41 -199 0
55 57 78 56 77 58 73 -229 0
55 57 78 56 77 58 73 -230 0
55 57 78 56 77 58 73 -231 0
55 57 78 56 77 58 73 -232 0
55 57 3 56 1 58 4 -60 0
55 57 3 56 1 58 4 -62 0
55 57 3 56 1 58 4 -61 0
55 57 3 56 1 58 4 -59 0
55 57 51 56 52 58 54 -212 0
55 57 51 56 52 58 54 -214 0
55 57 51 56 52 58 54 -211 0
55 57 51 56 52 58 54 -213 0
16 68 15 70 19 65 21 -138 0
16 68 15 70 19 65 21 -136 0
16 68 15 70 19 65 21 -135 0
16 68 15 70 19 65 21 -137 0
16 68 15 70 19 65 63 -138 0
16 68 15 70 19 65 63 -136 0
16 68 15 70 19 65 63 -135 0
16 68 15 70 19 65 63 -137 0
16 68 15 70 19 21 63 -138 0
16 68 15 70 19 21 63 -136 0
16 68 15 70 19 21 63 -135 0
16 68 15 70 19 21 63 -137 0
16 68 15 70 65 21 63 -138 0
16 68 15 70 65 21 63 -136 0
16 68 15 70 65 21 63 -135 0
16 68 15 70 65 21 63 -137 0
16 68 15 19 65 21 63 -138 0
16 68 15 19 65 21 63 -136 0
16 68 15 19 65 21 63 -135 0
16 68 15 19 65 21 63 -137 0
16 68 70 19 65 21 63 -138 0
16 68 70 19 65 21 63 -136 0
16 68 70 19 65 21 63 -135 0
16 68 70 19 65 21 63 -137 0
16 14 15 9 19 8 21 -81 0
16 14 15 9 19 8 21 -84 0
16 14 15 9 19 8 21 -83 0
16 14 15 9 19 8 21 -82 0
16 14 15 9 19 8 7 -81 0
16 14 15 9 19 8 7 -84 0
16 14 15 9 19 8 7 -83 0
16 14 15 9 19 8 7 -82 0
16 14 15 9 19 21 7 -81 0
16 14 15 9 19 21 7 -84 0
16 14 15 9 19 21 7 -83 0
16 14 15 9 19 21 7 -82 0
16 14 15 9 8 21 7 -81 0
16 14 15 9 8 21 7 -84 0
16 14 15 9 8 21 7 -83 0
16 14 15 9 8 21 7 -82 0
16 14 15 19 8 21 7 -81 0
16 14 15 19 8 21 7 -84 0
16 14 15 19 8 21 7 -83 0
16 14 15 19 8 21 7 -82 0
16 14 9 19 8 21 7 -81 0
16 14 9 19 8 21 7 -84 0
16 14 9 19 8 21 7 -83 0
16 14 9 19 8 21 7 -82 0
16 42 15 40 19 39 21 -126 0
16 42 15 40 19 39 21 -124 0
16 42 15 40 19 39 21 -123 0
16 42 15 40 19 39 21 -125 0
16 42 15 40 19 39 41 -126 0
16 42 15 40 19 39 41 -124 0
16 42 15 40 19 39 41 -123 0
16 42 15 40 19 39 41 -125 0
16 42 15 40 19 21 41 -126 0
16 42 15 40 19 21 41 -124 0
16 42 15 40 19 21 41 -123 0
16 42 15 40 19 21 41 -125 0
16 42 15 40 39 21 41 -126 0
16 42 15 40 39 21 41 -124 0
16 42 15 40 39 21 41 -123 0
16 42 15 40 39 21 41 -125 0
16 42 15 19 39 21 41 -126 0
16 42 15 19 39 21 41 -124 0
16 42 15 19 39 21 41 -123 0
16 42 15 19 39 21 41 -125 0
16 42 40 19 39 21 41 -126 0
16 42 40 19 39 21 41 -124 0
16 42 40 19 39 21 41 -123 0
16 42 40 19 39 21 41 -125 0
16 74 15 78 19 77 21 -140 0
16 74 15 78 19 77 21 -139 0
16 74 15 78 19 77 21 -142 0
16 74 15 78 19 77 21 -141 0
16 74 15 78 19 77 73 -140 0
16 74 15 78 19 77 73 -139 0
16 74 15 78 19 77 73 -142 0
16 74 15 78 19 77 73 -141 0
16 74 15 78 19 21 73 -140 0
16 74 15 78 19 21 73 -139 0
16 74 15 78 19 21 73 -142 0
16 74 15 78 19 21 73 -141 0
16 74 15 78 77 21 73 -140 0
16 74 15 78 77 21 73 -139 0
16 74 15 78 77 21 73 -142 0
16 74 15 78 77 21 73 -141 0
16 74 15 19 77 21 73 -140 0
16 74 15 19 77 21 73 -139 0
16 74 15 19 77 21 73 -142 0
16 74 15 19 77 21 73 -141 0
16 74 78 19 77 21 73 -140 0
16 74 78 19 77 21 73 -139 0
16 74 78 19 77 21 73 -142 0
16 74 78 19 77 21 73 -141 0
16 6 15 3 19 1 21 -22 0
16 6 15 3 19 1 21 -17 0
16 6 15 3 19 1 21 -20 0
16 6 15 3 19 1 21 -18 0
16 6 15 3 19 1 4 -22 0
16 6 15 3 19 1 4 -17 0
16 6 15 3 19 1 4 -20 0
16 6 15 3 19 1 4 -18 0
16 6 15 3 19 21 4 -22 0
16 6 15 3 19 21 4 -17 0
16 6 15 3 19 21 4 -20 0
16 6 15 3 19 21 4 -18 0
16 6 15 3 1 21 4 -22 0
16 6 15 3 1 21 4 -17 0
16 6 15 3 1 21 4 -20 0
16 6 15 3 1 21 4 -18 0
16 6 15 19 1 21 4 -22 0
16 6 15 19 1 21 4 -17 0
16 6 15 19 1 21 4 -20 0
16 6 15 19 1 21 4 -18 0
16 6 3 19 1 21 4 -22 0
16 6 3 19 1 21 4 -17 0
16 6 3 19 1 21 4 -20 0
16 6 3 19 1 21 4 -18 0
16 49 15 51 19 52 21 -130 0
16 49 15 51 19 52 21 -128 0
16 49 15 51 19 52 21 -127 0
16 49 15 51 19 52 21 -129 0
16 49 15 51 19 52 54 -130 0
16 49 15 51 19 52 54 -128 0
16 49 15 51 19 52 54 -127 0
16 49 15 51 19 52 54 -129 0
16 49 15 51 19 21 54 -130 0
16 49 15 51 19 21 54 -128 0
16 49 15 51 19 21 54 -127 0
16 49 15 51 19 21 54 -129 0
16 49 15 51 52 21 54 -130 0
16 49 15 51 52 21 54 -128 0
16 49 15 51 52 21 54 -127 0
16 49 15 51 52 21 54 -129 0
16 49 15 19 52 21 54 -130 0
16 49 15 19 52 21 54 -128 0
16 49 15 19 52 21 54 -127 0
16 49 15 19 52 21 54 -129 0
16 49 51 19 52 21 54 -130 0
16 49 51 19 52 21 54 -128 0
16 49 51 19 52 21 54 -127 0
16 49 51 19 52 21 54 -129 0
16 26 15 28 19 29 21 -118 0
16 26 15 28 19 29 21 -117 0
16 26 15 28 19 29 21 -115 0
16 26 15 28 19 29 21 -116 0
16 33 15 38 19 36 21 -122 0
16 33 15 38 19 36 21 -119 0
16 33 15 38 19 36 21 -121 0
16 33 15 38 19 36 21 -120 0
16 57 15 56 19 58 21 -134 0
16 57 15 56 19 58 21 -132 0
16 57 15 56 19 58 21 -131 0
16 57 15 56 19 58 21 -133 0
16 15 70 19 65 21 63 -138 0
16 15 70 19 65 21 63 -136 0
16 15 70 19 65 21 63 -135 0
16 15 70 19 65 21 63 -137 0
16 15 9 19 8 21 7 -81 0
16 15 9 19 8 21 7 -84 0
16 15 9 19 8 21 7 -83 0
16 15 9 19 8 21 7 -82 0
16 15 40 19 39 21 41 -126 0
16 15 40 19 39 21 41 -124 0
16 15 40 19 39 21 41 -123 0
16 15 40 19 39 21 41 -125 0
16 15 78 19 77 21 73 -140 0
16 15 78 19 77 21 73 -139 0
16 15 78 19 77 21 73 -142 0
16 15 78 19 77 21 73 -141 0
16 15 3 19 1 21 4 -22 0
16 15 3 19 1 21 4 -17 0
16 15 3 19 1 21 4 -20 0
16 15 3 19 1 21 4 -18 0
16 15 51 19 52 21 54 -130 0
16 15 51 19 52 21 54 -128 0
16 15 51 19 52 21 54 -127 0
16 15 51 19 52 21 54 -129 0
68 14 70 9 65 8 63 -108 0
68 14 70 9 65 8 63 -105 0
68 14 70 9 65 8 63 -107 0
68 14 70 9 65 8 63 -106 0
68 14 70 9 65 8 7 -108 0
68 14 70 9 65 8 7 -105 0
68 14 70 9 65 8 7 -107 0
68 14 70 9 65 8 7 -106 0
68 14 70 9 65 63 7 -108 0
68 14 70 9 65 63 7 -105 0
68 14 70 9 65 63 7 -107 0
68 14 70 9 65 63 7 -106 0
68 14 70 9 8 63 7 -108 0
68 14 70 9 8 63 7 -105 0
68 14 70 9 8 63 7 -107 0
68 14 70 9 8 63 7 -106 0
68 14 70 65 8 63 7 -108 0
68 14 70 65 8 63 7 -105 0
68 14 70 65 8 63 7 -107 0
68 14 70 65 8 63 7 -106 0
68 14 9 65 8 63 7 -108 0
68 14 9 65 8 63 7 -105 0
68 14 9 65 8 63 7 -107 0
68 14 9 65 8 63 7 -106 0
68 42 70 40 65 39 63 -204 0
68 42 70 40 65 39 63 -201 0
68 42 70 40 65 39 63 -203 0
68 42 70 40 65 39 63 -202 0
68 42 70 40 65 39 41 -204 0
68 42 70 40 65 39 41 -201 0
68 42 70 40 65 39 41 -203 0
68 42 70 40 65 39 41 -202 0
68 42 70 40 65 63 41 -204 0
68 42 70 40 65 63 41 -201 0
68 42 70 40 65 63 41 -203 0
68 42 70 40 65 63 41 -202 0
68 42 70 40 39 63 41 -204 0
68 42 70 40 39 63 41 -201 0
68 42 70 40 39 63 41 -203 0
68 42 70 40 39 63 41 -202 0
68 42 70 65 39 63 41 -204 0
68 42 70 65 39 63 41 -201 0
68 42 70 65 39 63 41 -203 0
68 42 70 65 39 63 41 -202 0
68 42 40 65 39 63 41 -204 0
68 42 40 65 39 63 41 -201 0
68 42 40 65 39 63 41 -203 0
68 42 40 65 39 63 41 -202 0
68 74 70 78 65 77 63 -238 0
68 74 70 78 65 77 63 -237 0
68 74 70 78 65 77 63 -235 0
68 74 70 78 65 77 63 -236 0
68 74 70 78 65 77 73 -238 0
68 74 70 78 65 77 73 -237 0
68 74 70 78 65 77 73 -235 0
68 74 70 78 65 77 73 -236 0
68 74 70 78 65 63 73 -238 0
68 74 70 78 65 63 73 -237 0
68 74 70 78 65 63 73 -235 0
68 74 70 78 65 63 73 -236 0
68 74 70 78 77 63 73 -238 0
68 74 70 78 77 63 73 -237 0
68 74 70 78 77 63 73 -235 0
68 74 70 78 77 63 73 -236 0
68 74 70 65 77 63 73 -238 0
68 74 70 65 77 63 73 -237 0
68 74 70 65 77 63 73 -235 0
68 74 70 65 77 63 73 -236 0
68 74 78 65 77 63 73 -238 0
68 74 78 65 77 63 73 -237 0
68 74 78 65 77 63 73 -235 0
68 74 78 65 77 63 73 -236 0
68 6 70 3 65 1 63 -69 0
68 6 70 3 65 1 63 -66 0
68 6 70 3 65 1 63 -64 0
68 6 70 3 65 1 63 -67 0
68 6 70 3 65 1 4 -69 0
68 6 70 3 65 1 4 -66 0
68 6 70 3 65 1 4 -64 0
68 6 70 3 65 1 4 -67 0
68 6 70 3 65 63 4 -69 0
68 6 70 3 65 63 4 -66 0
68 6 70 3 65 63 4 -64 0
68 6 70 3 65 63 4 -67 0
68 6 70 3 1 63 4 -69 0
68 6 70 3 1 63 4 -66 0
68 6 70 3 1 63 4 -64 0
68 6 70 3 1 63 4 -67 0
68 6 70 65 1 63 4 -69 0
68 6 70 65 1 63 4 -66 0
68 6 70 65 1 63 4 -64 0
68 6 70 65 1 63 4 -67 0
68 6 3 65 1 63 4 -69 0
68 6 3 65 1 63 4 -66 0
68 6 3 65 1 63 4 -64 0
68 6 3 65 1 63 4 -67 0
68 49 70 51 65 52 63 -215 0
68 49 70 51 65 52 63 -216 0
68 49 70 51 65 52 63 -217 0
68 49 70 51 65 52 63 -218 0
68 49 70 51 65 52 54 -215 0
68 49 70 51 65 52 54 -216 0
68 49 70 51 65 52 54 -217 0
68 49 70 51 65 52 54 -218 0
68 49 70 51 65 63 54 -215 0
68 49 70 51 65 63 54 -216 0
68 49 70 51 65 63 54 -217 0
68 49 70 51 65 63 54 -218 0
68 49 70 51 52 63 54 -215 0
68 49 70 51 52 63 54 -216 0
68 49 70 51 52 63 54 -217 0
68 49 70 51 52 63 54 -218 0
68 49 70 65 52 63 54 -215 0
68 49 70 65 52 63 54 -216 0
68 49 70 65 52 63 54 -217 0
68 49 70 65 52 63 54 -218 0
68 49 51 65 52 63 54 -215 0
68 49 51 65 52 63 54 -216 0
68 49 51 65 52 63 54 -217 0
68 49 51 65 52 63 54 -218 0
68 26 70 28 65 29 63 -164 0
68 26 70 28 65 29 63 -163 0
68 26 70 28 65 29 63 -161 0
68 26 70 28 65 29 63 -162 0
68 33 70 38 65 36 63 -184 0
68 33 70 38 65 36 63 -183 0
68 33 70 38 65 36 63 -185 0
68 33 70 38 65 36 63 -186 0
68 57 70 56 65 58 63 -227 0
68 57 70 56 65 58 63 -226 0
68 57 70 56 65 58 63 -225 0
68 57 70 56 65 58 63 -228 0
68 15 70 19 65 21 63 -138 0
68 15 70 19 65 21 63 -136 0
68 15 70 19 65 21 63 -135 0
68 15 70 19 65 21 63 -137 0
68 70 9 65 8 63 7 -108 0
68 70 9 65 8 63 7 -105 0
68 70 9 65 8 63 7 -107 0
68 70 9 65 8 63 7 -106 0
68 70 40 65 39 63 41 -204 0
68 70 40 65 39 63 41 -201 0
68 70 40 65 39 63 41 -203 0
68 70 40 65 39 63 41 -202 0
68 70 78 65 77 63 73 -238 0
68 70 78 65 77 63 73 -237 0
68 70 78 65 77 63 73 -235 0
68 70 78 65 77 63 73 -236 0
68 70 3 65 1 63 4 -69 0
68 70 3 65 1 63 4 -66 0
68 70 3 65 1 63 4 -64 0
68 70 3 65 1 63 4 -67 0
68 70 51 65 52 63 54 -215 0
68 70 51 65 52 63 54 -216 0
68 70 51 65 52 63 54 -217 0
68 70 51 65 52 63 54 -218 0
14 42 9 40 8 39 7 -96 0
14 42 9 40 8 39 7 -94 0
14 42 9 40 8 39 7 -95 0
14 42 9 40 8 39 7 -93 0
14 42 9 40 8 39 41 -96 0
14 42 9 40 8 39 41 -94 0
14 42 9 40 8 39 41 -95 0
14 42 9 40 8 39 41 -93 0
14 42 9 40 8 7 41 -96 0
14 42 9 40 8 7 41 -94 0
14 42 9 40 8 7 41 -95 0
14 42 9 40 8 7 41 -93 0
14 42 9 40 39 7 41 -96 0
14 42 9 40 39 7 41 -94 0
14 42 9 40 39 7 41 -95 0
14 42 9 40 39 7 41 -93 0
14 42 9 8 39 7 41 -96 0
14 42 9 8 39 7 41 -94 0
14 42 9 8 39 7 41 -95 0
14 42 9 8 39 7 41 -93 0
14 42 40 8 39 7 41 -96 0
14 42 40 8 39 7 41 -94 0
14 42 40 8 39 7 41 -95 0
14 42 40 8 39 7 41 -93 0
14 74 9 78 8 77 7 -109 0
14 74 9 78 8 77 7 -112 0
14 74 9 78 8 77 7 -110 0
14 74 9 78 8 77 7 -111 0
14 74 9 78 8 77 73 -109 0
14 74 9 78 8 77 73 -112 0
14 74 9 78 8 77 73 -110 0
14 74 9 78 8 77 73 -111 0
14 74 9 78 8 7 73 -109 0
14 74 9 78 8 7 73 -112 0
14 74 9 78 8 7 73 -110 0
14 74 9 78 8 7 73 -111 0
14 74 9 78 77 7 73 -109 0
14 74 9 78 77 7 73 -112 0
14 74 9 78 77 7 73 -110 0
14 74 9 78 77 7 73 -111 0
14 74 9 8 77 7 73 -109 0
14 74 9 8 77 7 73 -112 0
14 74 9 8 77 7 73 -110 0
14 74 9 8 77 7 73 -111 0
14 74 78 8 77 7 73 -109 0
14 74 78 8 77 7 73 -112 0
14 74 78 8 77 7 73 -110 0
14 74 78 8 77 7 73 -111 0
14 6 9 3 8 1 7 -12 0
14 6 9 3 8 1 7 -11 0
14 6 9 3 8 1 7 -13 0
14 6 9 3 8 1 7 -10 0
14 6 9 3 8 1 4 -12 0
14 6 9 3 8 1 4 -11 0
14 6 9 3 8 1 4 -13 0
14 6 9 3 8 1 4 -10 0
14 6 9 3 8 7 4 -12 0
14 6 9 3 8 7 4 -11 0
14 6 9 3 8 7 4 -13 0
14 6 9 3 8 7 4 -10 0
14 6 9 3 1 7 4 -12 0
14 6 9 3 1 7 4 -11 0
14 6 9 3 1 7 4 -13 0
14 6 9 3 1 7 4 -10 0
14 6 9 8 1 7 4 -12 0
14 6 9 8 1 7 4 -11 0
14 6 9 8 1 7 4 -13 0
14 6 9 8 1 7 4 -10 0
14 6 3 8 1 7 4 -12 0
14 6 3 8 1 7 4 -11 0
14 6 3 8 1 7 4 -13 0
14 6 3 8 1 7 4 -10 0
14 49 9 51 8 52 7 -98 0
14 49 9 51 8 52 7 -97 0
14 49 9 51 8 52 7 -100 0
14 49 9 51 8 52 7 -99 0
14 49 9 51 8 52 54 -98 0
14 49 9 51 8 52 54 -97 0
14 49 9 51 8 52 54 -100 0
14 49 9 51 8 52 54 -99 0
14 49 9 51 8 7 54 -98 0
14 49 9 51 8 7 54 -97 0
14 49 9 51 8 7 54 -100 0
14 49 9 51 8 7 54 -99 0
14 49 9 51 52 7 54 -98 0
14 49 9 51 52 7 54 -97 0
14 49 9 51 52 7 54 -100 0
14 49 9 51 52 7 54 -99 0
14 49 9 8 52 7 54 -98 0
14 49 9 8 52 7 54 -97 0
14 49 9 8 52 7 54 -100 0
14 49 9 8 52 7 54 -99 0
14 49 51 8 52 7 54 -98 0
14 49 51 8 52 7 54 -97 0
14 49 51 8 52 7 54 -100 0
14 49 51 8 52 7 54 -99 0
14 26 9 28 8 29 7 -88 0
14 26 9 28 8 29 7 -85 0
14 26 9 28 8 29 7 -86 0
14 26 9 28 8 29 7 -87 0
14 33 9 38 8 36 7 -91 0
14 33 9 38 8 36 7 -89 0
14 33 9 38 8 36 7 -92 0
14 33 9 38 8 36 7 -90 0
14 57 9 56 8 58 7 -101 0
14 57 9 56 8 58 7 -102 0
14 57 9 56 8 58 7 -104 0
14 57 9 56 8 58 7 -103 0
14 15 9 19 8 21 7 -81 0
14 15 9 19 8 21 7 -84 0
14 15 9 19 8 21 7 -83 0
14 15 9 19 8 21 7 -82 0
14 70 9 65 8 63 7 -108 0
14 70 9 65 8 63 7 -105 0
14 70 9 65 8 63 7 -107 0
14 70 9 65 8 63 7 -106 0
14 9 40 8 39 7 41 -96 0
14 9 40 8 39 7 41 -94 0
14 9 40 8 39 7 41 -95 0
14 9 40 8 39 7 41 -93 0
14 9 78 8 77 7 73 -109 0
14 9 78 8 77 7 73 -112 0
14 9 78 8 77 7 73 -110 0
14 9 78 8 77 7 73 -111 0
14 9 3 8 1 7 4 -12 0
14 9 3 8 1 7 4 -11 0
14 9 3 8 1 7 4 -13 0
14 9 3 8 1 7 4 -10 0
14 9 51 8 52 7 54 -98 0
14 9 51 8 52 7 54 -97 0
14 9 51 8 52 7 54 -100 0
14 9 51 8 52 7 54 -99 0
42 74 40 78 39 77 41 -205 0
42 74 40 78 39 77 41 -208 0
42 74 40 78 39 77 41 -206 0
42 74 40 78 39 77 41 -207 0
42 74 40 78 39 77 73 -205 0
42 74 40 78 39 77 73 -208 0
42 74 40 78 39 77 73 -206 0
42 74 40 78 39 77 73 -207 0
42 74 40 78 39 41 73 -205 0
42 74 40 78 39 41 73 -208 0
42 74 40 78 39 41 73 -206 0
42 74 40 78 39 41 73 -207 0
42 74 40 78 77 41 73 -205 0
42 74 40 78 77 41 73 -208 0
42 74 40 78 77 41 73 -206 0
42 74 40 78 77 41 73 -207 0
42 74 40 39 77 41 73 -205 0
42 74 40 39 77 41 73 -208 0
42 74 40 39 77 41 73 -206 0
42 74 40 39 77 41 73 -207 0
42 74 78 39 77 41 73 -205 0
42 74 78 39 77 41 73 -208 0
42 74 78 39 77 41 73 -206 0
42 74 78 39 77 41 73 -207 0
42 6 40 3 39 1 41 -44 0
42 6 40 3 39 1 41 -43 0
42 6 40 3 39 1 41 -46 0
42 6 40 3 39 1 41 -45 0
42 6 40 3 39 1 4 -44 0
42 6 40 3 39 1 4 -43 0
42 6 40 3 39 1 4 -46 0
42 6 40 3 39 1 4 -45 0
42 6 40 3 39 41 4 -44 0
42 6 40 3 39 41 4 -43 0
42 6 40 3 39 41 4 -46 0
42 6 40 3 39 41 4 -45 0
42 6 40 3 1 41 4 -44 0
42 6 40 3 1 41 4 -43 0
42 6 40 3 1 41 4 -46 0
42 6 40 3 1 41 4 -45 0
42 6 40 39 1 41 4 -44 0
42 6 40 39 1 41 4 -43 0
42 6 40 39 1 41 4 -46 0
42 6 40 39 1 41 4 -45 0
42 6 3 39 1 41 4 -44 0
42 6 3 39 1 41 4 -43 0
42 6 3 39 1 41 4 -46 0
42 6 3 39 1 41 4 -45 0
42 49 40 51 39 52 41 -195 0
42 49 40 51 39 52 41 -194 0
42 49 40 51 39 52 41 -193 0
42 49 40 51 39 52 41 -196 0
42 49 40 51 39 52 54 -195 0
42 49 40 51 39 52 54 -194 0
42 49 40 51 39 52 54 -193 0
42 49 40 51 39 52 54 -196 0
42 49 40 51 39 41 54 -195 0
42 49 40 51 39 41 54 -194 0
42 49 40 51 39 41 54 -193 0
42 49 40 51 39 41 54 -196 0
42 49 40 51 52 41 54 -195 0
42 49 40 51 52 41 54 -194 0
42 49 40 51 52 41 54 -193 0
42 49 40 51 52 41 54 -196 0
42 49 40 39 52 41 54 -195 0
42 49 40 39 52 41 54 -194 0
42 49 40 39 52 41 54 -193 0
42 49 40 39 52 41 54 -196 0
42 49 51 39 52 41 54 -195 0
42 49 51 39 52 41 54 -194 0
42 49 51 39 52 41 54 -193 0
42 49 51 39 52 41 54 -196 0
42 26 40 28 39 29 41 -152 0
42 26 40 28 39 29 41 -150 0
42 26 40 28 39 29 41 -149 0
42 26 40 28 39 29 41 -151 0
42 33 40 38 39 36 41 -171 0
42 33 40 38 39 36 41 -173 0
42 33 40 38 39 36 41 -172 0
42 33 40 38 39 36 41 -174 0
42 57 40 56 39 58 41 -198 0
42 57 40 56 39 58 41 -200 0
42 57 40 56 39 58 41 -197 0
42 57 40 56 39 58 41 -199 0
42 15 40 19 39 21 41 -126 0
42 15 40 19 39 21 41 -124 0
42 15 40 19 39 21 41 -123 0
42 15 40 19 39 21 41 -125 0
42 70 40 65 39 63 41 -204 0
42 70 40 65 39 63 41 -201 0
42 70 40 65 39 63 41 -203 0
42 70 40 65 39 63 41 -202 0
42 9 40 8 39 7 41 -96 0
42 9 40 8 39 7 41 -94 0
42 9 40 8 39 7 41 -95 0
42 9 40 8 39 7 41 -93 0
42 40 78 39 77 41 73 -205 0
42 40 78 39 77 41 73 -208 0
42 40 78 39 77 41 73 -206 0
42 40 78 39 77 41 73 -207 0
42 40 3 39 1 41 4 -44 0
42 40 3 39 1 41 4 -43 0
42 40 3 39 1 41 4 -46 0
42 40 3 39 1 41 4 -45 0
42 40 51 39 52 41 54 -195 0
42 40 51 39 52 41 54 -194 0
42 40 51 39 52 41 54 -193 0
42 40 51 39 52 41 54 -196 0
74 6 78 3 77 1 73 -72 0
74 6 78 3 77 1 73 -76 0
74 6 78 3 77 1 73 -71 0
74 6 78 3 77 1 73 -75 0
74 6 78 3 77 1 4 -72 0
74 6 78 3 77 1 4 -76 0
74 6 78 3 77 1 4 -71 0
74 6 78 3 77 1 4 -75 0
74 6 78 3 77 73 4 -72 0
74 6 78 3 77 73 4 -76 0
74 6 78 3 77 73 4 -71 0
74 6 78 3 77 73 4 -75 0
74 6 78 3 1 73 4 -72 0
74 6 78 3 1 73 4 -76 0
74 6 78 3 1 73 4 -71 0
74 6 78 3 1 73 4 -75 0
74 6 78 77 1 73 4 -72 0
74 6 78 77 1 73 4 -76 0
74 6 78 77 1 73 4 -71 0
74 6 78 77 1 73 4 -75 0
74 6 3 77 1 73 4 -72 0
74 6 3 77 1 73 4 -76 0
74 6 3 77 1 73 4 -71 0
74 6 3 77 1 73 4 -75 0
74 49 78 51 77 52 73 -221 0
74 49 78 51 77 52 73 -219 0
74 49 78 51 77 52 73 -222 0
74 49 78 51 77 52 73 -220 0
74 49 78 51 77 52 54 -221 0
74 49 78 51 77 52 54 -219 0
74 49 78 51 77 52 54 -222 0
74 49 78 51 77 52 54 -220 0
74 49 78 51 77 73 54 -221 0
74 49 78 51 77 73 54 -219 0
74 49 78 51 77 73 54 -222 0
74 49 78 51 77 73 54 -220 0
74 49 78 51 52 73 54 -221 0
74 49 78 51 52 73 54 -219 0
74 49 78 51 52 73 54 -222 0
74 49 78 51 52 73 54 -220 0
74 49 78 77 52 73 54 -221 0
74 49 78 77 52 73 54 -219 0
74 49 78 77 52 73 54 -222 0
74 49 78 77 52 73 54 -220 0
74 49 51 77 52 73 54 -221 0
74 49 51 77 52 73 54 -219 0
74 49 51 77 52 73 54 -222 0
74 49 51 77 52 73 54 -220 0
74 26 78 28 77 29 73 -165 0
74 26 78 28 77 29 73 -167 0
74 26 78 28 77 29 73 -168 0
74 26 78 28 77 29 73 -166 0
74 33 78 38 77 36 73 -188 0
74 33 78 38 77 36 73 -187 0
74 33 78 38 77 36 73 -189 0
74 33 78 38 77 36 73 -190 0
74 57 78 56 77 58 73 -229 0
74 57 78 56 77 58 73 -230 0
74 57 78 56 77 58 73 -231 0
74 57 78 56 77 58 73 -232 0
74 15 78 19 77 21 73 -140 0
74 15 78 19 77 21 73 -139 0
74 15 78 19 77 21 73 -142 0
74 15 78 19 77 21 73 -141 0
74 70 78 65 77 63 73 -238 0
74 70 78 65 77 63 73 -237 0
74 70 78 65 77 63 73 -235 0
74 70 78 65 77 63 73 -236 0
74 9 78 8 77 7 73 -109 0
74 9 78 8 77 7 73 -112 0
74 9 78 8 77 7 73 -110 0
74 9 78 8 77 7 73 -111 0
74 40 78 39 77 41 73 -205 0
74 40 78 39 77 41 73 -208 0
74 40 78 39 77 41 73 -206 0
74 40 78 39 77 41 73 -207 0
74 78 3 77 1 73 4 -72 0
74 78 3 77 1 73 4 -76 0
74 78 3 77 1 73 4 -71 0
74 78 3 77 1 73 4 -75 0
74 78 51 77 52 73 54 -221 0
74 78 51 77 52 73 54 -219 0
74 78 51 77 52 73 54 -222 0
74 78 51 77 52 73 54 -220 0
6 49 3 51 1 52 4 -53 0
6 49 3 51 1 52 4 -48 0
6 49 3 51 1 52 4 -50 0
6 49 3 51 1 52 4 -47 0
6 49 3 51 1 52 54 -53 0
6 49 3 51 1 52 54 -48 0
6 49 3 51 1 52 54 -50 0
6 49 3 51 1 52 54 -47 0
6 49 3 51 1 4 54 -53 0
6 49 3 51 1 4 54 -48 0
6 49 3 51 1 4 54 -50 0
6 49 3 51 1 4 54 -47 0
6 49 3 51 52 4 54 -53 0
6 49 3 51 52 4 54 -48 0
6 49 3 51 52 4 54 -50 0
6 49 3 51 52 4 54 -47 0
6 49 3 1 52 4 54 -53 0
6 49 3 1 52 4 54 -48 0
6 49 3 1 52 4 54 -50 0
6 49 3 1 52 4 54 -47 0
6 49 51 1 52 4 54 -53 0
6 49 51 1 52 4 54 -48 0
6 49 51 1 52 4 54 -50 0
6 49 51 1 52 4 54 -47 0
6 26 3 28 1 29 4 -27 0
6 26 3 28 1 29 4 -24 0
6 26 3 28 1 29 4 -30 0
6 26 3 28 1 29 4 -25 0
6 33 3 38 1 36 4 -31 0
6 33 3 38 1 36 4 -32 0
6 33 3 38 1 36 4 -37 0
6 33 3 38 1 36 4 -34 0
6 57 3 56 1 58 4 -60 0
6 57 3 56 1 58 4 -62 0
6 57 3 56 1 58 4 -61 0
6 57 3 56 1 58 4 -59 0
6 15 3 19 1 21 4 -22 0
6 15 3 19 1 21 4 -17 0
6 15 3 19 1 21 4 -20 0
6 15 3 19 1 21 4 -18 0
6 70 3 65 1 63 4 -69 0
6 70 3 65 1 63 4 -66 0
6 70 3 65 1 63 4 -64 0
6 70 3 65 1 63 4 -67 0
6 9 3 8 1 7 4 -12 0
6 9 3 8 1 7 4 -11 0
6 9 3 8 1 7 4 -13 0
6 9 3 8 1 7 4 -10 0
6 40 3 39 1 41 4 -44 0
6 40 3 39 1 41 4 -43 0
6 40 3 39 1 41 4 -46 0
6 40 3 39 1 41 4 -45 0
6 78 3 77 1 73 4 -72 0
6 78 3 77 1 73 4 -76 0
6 78 3 77 1 73 4 -71 0
6 78 3 77 1 73 4 -75 0
6 3 51 1 52 4 54 -53 0
6 3 51 1 52 4 54 -48 0
6 3 51 1 52 4 54 -50 0
6 3 51 1 52 4 54 -47 0
49 26 51 28 52 29 54 -154 0
49 26 51 28 52 29 54 -156 0
49 26 51 28 52 29 54 -155 0
49 26 51 28 52 29 54 -153 0
49 33 51 38 52 36 54 -175 0
49 33 51 38 52 36 54 -178 0
49 33 51 38 52 36 54 -176 0
49 33 51 38 52 36 54 -177 0
49 57 51 56 52 58 54 -212 0
49 57 51 56 52 58 54 -214 0
49 57 51 56 52 58 54 -211 0
49 57 51 56 52 58 54 -213 0
49 15 51 19 52 21 54 -130 0
49 15 51 19 52 21 54 -128 0
49 15 51 19 52 21 54 -127 0
49 15 51 19 52 21 54 -129 0
49 70 51 65 52 63 54 -215 0
49 70 51 65 52 63 54 -216 0
49 70 51 65 52 63 54 -217 0
49 70 51 65 52 63 54 -218 0
49 9 51 8 52 7 54 -98 0
49 9 51 8 52 7 54 -97 0
49 9 51 8 52 7 54 -100 0
49 9 51 8 52 7 54 -99 0
49 40 51 39 52 41 54 -195 0
49 40 51 39 52 41 54 -194 0
49 40 51 39 52 41 54 -193 0
49 40 51 39 52 41 54 -196 0
49 78 51 77 52 73 54 -221 0
49 78 51 77 52 73 54 -219 0
49 78 51 77 52 73 54 -222 0
49 78 51 77 52 73 54 -220 0
49 3 51 1 52 4 54 -53 0
49 3 51 1 52 4 54 -48 0
49 3 51 1 52 4 54 -50 0
49 3 51 1 52 4 54 -47 0
23 35 26 33 28 38 29 36 -148 0
23 35 26 33 28 38 29 36 -146 0
23 35 26 33 28 38 29 36 -147 0
23 35 26 33 28 38 29 36 -145 0
23 55 26 57 28 56 29 58 -160 0
23 55 26 57 28 56 29 58 -157 0
23 55 26 57 28 56 29 58 -158 0
23 55 26 57 28 56 29 58 -159 0
23 16 26 15 28 19 29 21 -118 0
23 16 26 15 28 19 29 21 -117 0
23 16 26 15 28 19 29 21 -115 0
23 16 26 15 28 19 29 21 -116 0
23 68 26 70 28 65 29 63 -164 0
23 68 26 70 28 65 29 63 -163 0
23 68 26 70 28 65 29 63 -161 0
23 68 26 70 28 65 29 63 -162 0
23 14 26 9 28 8 29 7 -88 0
23 14 26 9 28 8 29 7 -85 0
23 14 26 9 28 8 29 7 -86 0
23 14 26 9 28 8 29 7 -87 0
23 42 26 40 28 39 29 41 -152 0
23 42 26 40 28 39 29 41 -150 0
23 42 26 40 28 39 29 41 -149 0
23 42 26 40 28 39 29 41 -151 0
23 74 26 78 28 77 29 73 -165 0
23 74 26 78 28 77 29 73 -167 0
23 74 26 78 28 77 29 73 -168 0
23 74 26 78 28 77 29 73 -166 0
23 6 26 3 28 1 29 4 -27 0
23 6 26 3 28 1 29 4 -24 0
23 6 26 3 28 1 29 4 -30 0
23 6 26 3 28 1 29 4 -25 0
23 49 26 51 28 52 29 54 -154 0
23 49 26 51 28 52 29 54 -156 0
23 49 26 51 28 52 29 54 -155 0
23 49 26 51 28 52 29 54 -153 0
35 55 33 57 38 56 36 58 -179 0
35 55 33 57 38 56 36 58 -181 0
35 55 33 57 38 56 36 58 -182 0
35 55 33 57 38 56 36 58 -180 0
35 16 33 15 38 19 36 21 -122 0
35 16 33 15 38 19 36 21 -119 0
35 16 33 15 38 19 36 21 -121 0
35 16 33 15 38 19 36 21 -120 0
35 68 33 70 38 65 36 63 -184 0
35 68 33 70 38 65 36 63 -183 0
35 68 33 70 38 65 36 63 -185 0
35 68 33 70 38 65 36 63 -186 0
35 14 33 9 38 8 36 7 -91 0
35 14 33 9 38 8 36 7 -89 0
35 14 33 9 38 8 36 7 -92 0
35 14 33 9 38 8 36 7 -90 0
35 42 33 40 38 39 36 41 -171 0
35 42 33 40 38 39 36 41 -173 0
35 42 33 40 38 39 36 41 -172 0
35 42 33 40 38 39 36 41 -174 0
35 74 33 78 38 77 36 73 -188 0
35 74 33 78 38 77 36 73 -187 0
35 74 33 78 38 77 36 73 -189 0
35 74 33 78 38 77 36 73 -190 0
35 6 33 3 38 1 36 4 -31 0
35 6 33 3 38 1 36 4 -32 0
35 6 33 3 38 1 36 4 -37 0
35 6 33 3 38 1 36 4 -34 0
35 49 33 51 38 52 36 54 -175 0
35 49 33 51 38 52 36 54 -178 0
35 49 33 51 38 52 36 54 -176 0
35 49 33 51 38 52 36 54 -177 0
55 16 57 15 56 19 58 21 -134 0
55 16 57 15 56 19 58 21 -132 0
55 16 57 15 56 19 58 21 -131 0
55 16 57 15 56 19 58 21 -133 0
55 68 57 70 56 65 58 63 -227 0
55 68 57 70 56 65 58 63 -226 0
55 68 57 70 56 65 58 63 -225 0
55 68 57 70 56 65 58 63 -228 0
55 14 57 9 56 8 58 7 -101 0
55 14 57 9 56 8 58 7 -102 0
55 14 57 9 56 8 58 7 -104 0
55 14 57 9 56 8 58 7 -103 0
55 42 57 40 56 39 58 41 -198 0
55 42 57 40 56 39 58 41 -200 0
55 42 57 40 56 39 58 41 -197 0
55 42 57 40 56 39 58 41 -199 0
55 74 57 78 56 77 58 73 -229 0
55 74 57 78 56 77 58 73 -230 0
55 74 57 78 56 77 58 73 -231 0
55 74 57 78 56 77 58 73 -232 0
55 6 57 3 56 1 58 4 -60 0
55 6 57 3 56 1 58 4 -62 0
55 6 57 3 56 1 58 4 -61 0
55 6 57 3 56 1 58 4 -59 0
55 49 57 51 56 52 58 54 -212 0
55 49 57 51 56 52 58 54 -214 0
55 49 57 51 56 52 58 54 -211 0
55 49 57 51 56 52 58 54 -213 0
16 68 15 70 19 65 21 63 -138 0
16 68 15 70 19 65 21 63 -136 0
16 68 15 70 19 65 21 63 -135 0
16 68 15 70 19 65 21 63 -137 0
16 14 15 9 19 8 21 7 -81 0
16 14 15 9 19 8 21 7 -84 0
16 14 15 9 19 8 21 7 -83 0
16 14 15 9 19 8 21 7 -82 0
16 42 15 40 19 39 21 41 -126 0
16 42 15 40 19 39 21 41 -124 0
16 42 15 40 19 39 21 41 -123 0
16 42 15 40 19 39 21 41 -125 0
16 74 15 78 19 77 21 73 -140 0
16 74 15 78 19 77 21 73 -139 0
16 74 15 78 19 77 21 73 -142 0
16 74 15 78 19 77 21 73 -141 0
16 6 15 3 19 1 21 4 -22 0
16 6 15 3 19 1 21 4 -17 0
16 6 15 3 19 1 21 4 -20 0
16 6 15 3 19 1 21 4 -18 0
16 49 15 51 19 52 21 54 -130 0
16 49 15 51 19 52 21 54 -128 0
16 49 15 51 19 52 21 54 -127 0
16 49 15 51 19 52 21 54 -129 0
68 14 70 9 65 8 63 7 -108 0
68 14 70 9 65 8 63 7 -105 0
68 14 70 9 65 8 63 7 -107 0
68 14 70 9 65 8 63 7 -106 0
68 42 70 40 65 39 63 41 -204 0
68 42 70 40 65 39 63 41 -201 0
68 42 70 40 65 39 63 41 -203 0
68 42 70 40 65 39 63 41 -202 0
68 74 70 78 65 77 63 73 -238 0
68 74 70 78 65 77 63 73 -237 0
68 74 70 78 65 77 63 73 -235 0
68 74 70 78 65 77 63 73 -236 0
68 6 70 3 65 1 63 4 -69 0
68 6 70 3 65 1 63 4 -66 0
68 6 70 3 65 1 63 4 -64 0
68 6 70 3 65 1 63 4 -67 0
68 49 70 51 65 52 63 54 -215 0
68 49 70 51 65 52 63 54 -216 0
68 49 70 51 65 52 63 54 -217 0
68 49 70 51 65 52 63 54 -218 0
14 42 9 40 8 39 7 41 -96 0
14 42 9 40 8 39 7 41 -94 0
14 42 9 40 8 39 7 41 -95 0
14 42 9 40 8 39 7 41 -93 0
14 74 9 78 8 77 7 73 -109 0
14 74 9 78 8 77 7 73 -112 0
14 74 9 78 8 77 7 73 -110 0
14 74 9 78 8 77 7 73 -111 0
14 6 9 3 8 1 7 4 -12 0
14 6 9 3 8 1 7 4 -11 0
14 6 9 3 8 1 7 4 -13 0
14 6 9 3 8 1 7 4 -10 0
14 49 9 51 8 52 7 54 -98 0
14 49 9 51 8 52 7 54 -97 0
14 49 9 51 8 52 7 54 -100 0
14 49 9 51 8 52 7 54 -99 0
42 74 40 78 39 77 41 73 -205 0
42 74 40 78 39 77 41 73 -208 0
42 74 40 78 39 77 41 73 -206 0
42 74 40 78 39 77 41 73 -207 0
42 6 40 3 39 1 41 4 -44 0
42 6 40 3 39 1 41 4 -43 0
42 6 40 3 39 1 41 4 -46 0
42 6 40 3 39 1 41 4 -45 0
42 49 40 51 39 52 41 54 -195 0
42 49 40 51 39 52 41 54 -194 0
42 49 40 51 39 52 41 54 -193 0
42 49 40 51 39 52 41 54 -196 0
74 6 78 3 77 1 73 4 -72 0
74 6 78 3 77 1 73 4 -76 0
74 6 78 3 77 1 73 4 -71 0
74 6 78 3 77 1 73 4 -75 0
74 49 78 51 77 52 73 54 -221 0
74 49 78 51 77 52 73 54 -219 0
74 49 78 51 77 52 73 54 -222 0
74 49 78 51 77 52 73 54 -220 0
6 49 3 51 1 52 4 54 -53 0
6 49 3 51 1 52 4 54 -48 0
6 49 3 51 1 52 4 54 -50 0
6 49 3 51 1 52 4 54 -47 0
143 148 160 118 164 88 152 165 27 154 0
146 170 179 122 184 91 171 188 31 175 0
157 181 224 134 227 101 198 229 60 212 0
117 119 132 114 138 81 126 140 22 130 0
163 183 226 136 233 108 204 238 69 215 0
85 89 102 84 105 79 96 109 12 98 0
150 173 200 124 201 94 192 205 44 195 0
167 187 230 139 237 112 208 239 72 221 0
24 32 62 17 66 11 43 76 2 53 0
156 178 214 128 216 97 194 219 48 210 0
144 147 158 115 161 86 149 168 30 155 0
145 169 182 121 185 92 172 189 37 176 0
159 180 223 131 225 104 197 231 61 211 0
116 120 133 113 135 83 123 142 20 127 0
162 186 228 137 234 107 203 235 64 217 0
87 90 103 82 106 80 95 110 13 100 0
151 174 199 125 202 93 191 206 46 193 0
166 190 232 141 236 111 207 240 71 222 0
25 34 59 18 67 10 45 75 5 50 0
153 177 213 129 218 99 196 220 47 209 0
