c U1(1) U2(1) U3(1) E2(1,1) E1(1,1) U4(1) U2(3) E1(1,3) E1(3,1) E2(3,1) U4(3) U3(3) E2(1,3) U1(3) U4(2) E2(1,2) U3(2) E1(2,1) U1(2) U2(2) E1(1,2) E2(2,1) E1(1,0) U3(0) U4(0) E2(1,0) E2(0,1) U2(0) E1(0,1) U1(0) E2(3,3) E1(3,3) E1(3,2) E1(2,3) E2(3,2) E2(2,3) E2(0,3) E1(3,0) E2(3,0) E1(0,3) E2(2,2) E1(2,2) E2(2,0) E1(0,2) E1(2,0) E2(0,2) E2(0,0) E1(0,0)
c 1 2 3 4 5 6 7 8 9 10 11 12 13 14 15 16 17 18 19 20 21 22 23 24 25 26 27 28 29 30 31 32 33 34 35 36 37 38 39 40 41 42 43 44 45 46 47 48
p cnf 48 968
-48 0
-5 0
-42 0
-32 0
-47 0
-4 0
-41 0
-31 0
48 -47 0
29 -26 0
44 -43 0
40 -39 0
23 -27 0
5 -4 0
21 -22 0
8 -10 0
45 -46 0
18 -16 0
42 -41 0
34 -35 0
38 -37 0
9 -13 0
33 -36 0
32 -31 0
47 -48 0
27 -23 0
46 -45 0
37 -38 0
26 -29 0
4 -5 0
16 -18 0
13 -9 0
43 -44 0
22 -21 0
41 -42 0
36 -33 0
39 -40 0
10 -8 0
35 -34 0
31 -32 0
-29 -23 0
-44 -45 0
-40 -38 0
-21 -18 0
-8 -9 0
-34 -33 0
-27 -26 0
-46 -43 0
-37 -39 0
-16 -22 0
-13 -10 0
-36 -35 0
-30 -28 0
-30 -24 0
-30 -25 0
-1 -2 0
-1 -3 0
-1 -6 0
-19 -20 0
-19 -17 0
-19 -15 0
-14 -7 0
-14 -12 0
-14 -11 0
-28 -24 0
-28 -25 0
-2 -3 0
-2 -6 0
-20 -17 0
-20 -15 0
-7 -12 0
-7 -11 0
-24 -25 0
-3 -6 0
-17 -15 0
-12 -11 0
48 29 44 40 0
23 5 21 8 0
45 18 42 34 0
38 9 33 32 0
47 27 46 37 0
26 4 16 13 0
43 22 41 36 0
39 10 35 31 0
30 28 24 25 0
1 2 3 6 0
19 20 17 15 0
14 7 12 11 0
30 28 24 -48 0
30 28 24 -47 0
30 28 25 -48 0
30 28 25 -47 0
30 24 25 -48 0
30 24 25 -47 0
1 2 3 -5 0
1 2 3 -4 0
1 2 6 -5 0
1 2 6 -4 0
1 3 6 -5 0
1 3 6 -4 0
19 20 17 -42 0
19 20 17 -41 0
19 20 15 -42 0
19 20 15 -41 0
19 17 15 -42 0
19 17 15 -41 0
14 7 12 -32 0
14 7 12 -31 0
14 7 11 -32 0
14 7 11 -31 0
14 12 11 -32 0
14 12 11 -31 0
28 24 25 -48 0
28 24 25 -47 0
2 3 6 -5 0
2 3 6 -4 0
20 17 15 -42 0
20 17 15 -41 0
7 12 11 -32 0
7 12 11 -31 0
30 28 24 25 -48 0
30 28 24 25 -29 0
30 28 24 25 -44 0
30 28 24 25 -40 0
30 28 24 25 -23 0
30 28 24 25 -45 0
30 28 24 25 -38 0
30 28 24 25 -47 0
30 28 24 25 -27 0
30 28 24 25 -46 0
30 28 24 25 -37 0
30 28 24 25 -26 0
30 28 24 25 -43 0
30 28 24 25 -39 0
1 2 3 6 -29 0
1 2 3 6 -23 0
1 2 3 6 -5 0
1 2 3 6 -21 0
1 2 3 6 -8 0
1 2 3 6 -18 0
1 2 3 6 -9 0
1 2 3 6 -27 0
1 2 3 6 -26 0
1 2 3 6 -4 0
1 2 3 6 -16 0
1 2 3 6 -13 0
1 2 3 6 -22 0
1 2 3 6 -10 0
19 20 17 15 -44 0
19 20 17 15 -21 0
19 20 17 15 -45 0
19 20 17 15 -18 0
19 20 17 15 -42 0
19 20 17 15 -34 0
19 20 17 15 -33 0
19 20 17 15 -46 0
19 20 17 15 -16 0
19 20 17 15 -43 0
19 20 17 15 -22 0
19 20 17 15 -41 0
19 20 17 15 -36 0
19 20 17 15 -35 0
14 7 12 11 -40 0
14 7 12 11 -8 0
14 7 12 11 -34 0
14 7 12 11 -38 0
14 7 12 11 -9 0
14 7 12 11 -33 0
14 7 12 11 -32 0
14 7 12 11 -37 0
14 7 12 11 -13 0
14 7 12 11 -36 0
14 7 12 11 -39 0
14 7 12 11 -10 0
14 7 12 11 -35 0
14 7 12 11 -31 0
30 1 28 24 25 -29 0
30 1 28 24 25 -23 0
30 1 28 24 25 -27 0
30 1 28 24 25 -26 0
30 1 2 3 6 -29 0
30 1 2 3 6 -23 0
30 1 2 3 6 -27 0
30 1 2 3 6 -26 0
30 19 28 24 25 -44 0
30 19 28 24 25 -45 0
30 19 28 24 25 -46 0
30 19 28 24 25 -43 0
30 19 20 17 15 -44 0
30 19 20 17 15 -45 0
30 19 20 17 15 -46 0
30 19 20 17 15 -43 0
30 14 28 24 25 -40 0
30 14 28 24 25 -38 0
30 14 28 24 25 -37 0
30 14 28 24 25 -39 0
30 14 7 12 11 -40 0
30 14 7 12 11 -38 0
30 14 7 12 11 -37 0
30 14 7 12 11 -39 0
30 28 2 24 25 -29 0
30 28 2 24 25 -23 0
30 28 2 24 25 -27 0
30 28 2 24 25 -26 0
30 28 20 24 25 -44 0
30 28 20 24 25 -45 0
30 28 20 24 25 -46 0
30 28 20 24 25 -43 0
30 28 7 24 25 -40 0
30 28 7 24 25 -38 0
30 28 7 24 25 -37 0
30 28 7 24 25 -39 0
30 28 24 3 25 -29 0
30 28 24 3 25 -23 0
30 28 24 3 25 -27 0
30 28 24 3 25 -26 0
30 28 24 17 25 -44 0
30 28 24 17 25 -45 0
30 28 24 17 25 -46 0
30 28 24 17 25 -43 0
30 28 24 12 25 -40 0
30 28 24 12 25 -38 0
30 28 24 12 25 -37 0
30 28 24 12 25 -39 0
30 28 24 25 6 -29 0
30 28 24 25 6 -23 0
30 28 24 25 6 -27 0
30 28 24 25 6 -26 0
30 28 24 25 15 -44 0
30 28 24 25 15 -45 0
30 28 24 25 15 -46 0
30 28 24 25 15 -43 0
30 28 24 25 11 -40 0
30 28 24 25 11 -38 0
30 28 24 25 11 -37 0
30 28 24 25 11 -39 0
1 19 2 3 6 -21 0
1 19 2 3 6 -18 0
1 19 2 3 6 -16 0
1 19 2 3 6 -22 0
1 19 20 17 15 -21 0
1 19 20 17 15 -18 0
1 19 20 17 15 -16 0
1 19 20 17 15 -22 0
1 14 2 3 6 -8 0
1 14 2 3 6 -9 0
1 14 2 3 6 -13 0
1 14 2 3 6 -10 0
1 14 7 12 11 -8 0
1 14 7 12 11 -9 0
1 14 7 12 11 -13 0
1 14 7 12 11 -10 0
1 28 2 3 6 -29 0
1 28 2 3 6 -23 0
1 28 2 3 6 -27 0
1 28 2 3 6 -26 0
1 2 20 3 6 -21 0
1 2 20 3 6 -18 0
1 2 20 3 6 -16 0
1 2 20 3 6 -22 0
1 2 7 3 6 -8 0
1 2 7 3 6 -9 0
1 2 7 3 6 -13 0
1 2 7 3 6 -10 0
1 2 24 3 6 -29 0
1 2 24 3 6 -23 0
1 2 24 3 6 -27 0
1 2 24 3 6 -26 0
1 2 3 17 6 -21 0
1 2 3 17 6 -18 0
1 2 3 17 6 -16 0
1 2 3 17 6 -22 0
1 2 3 12 6 -8 0
1 2 3 12 6 -9 0
1 2 3 12 6 -13 0
1 2 3 12 6 -10 0
1 2 3 25 6 -29 0
1 2 3 25 6 -23 0
1 2 3 25 6 -27 0
1 2 3 25 6 -26 0
1 2 3 6 15 -21 0
1 2 3 6 15 -18 0
1 2 3 6 15 -16 0
1 2 3 6 15 -22 0
1 2 3 6 11 -8 0
1 2 3 6 11 -9 0
1 2 3 6 11 -13 0
1 2 3 6 11 -10 0
19 14 20 17 15 -34 0
19 14 20 17 15 -33 0
19 14 20 17 15 -36 0
19 14 20 17 15 -35 0
19 14 7 12 11 -34 0
19 14 7 12 11 -33 0
19 14 7 12 11 -36 0
19 14 7 12 11 -35 0
19 28 20 17 15 -44 0
19 28 20 17 15 -45 0
19 28 20 17 15 -46 0
19 28 20 17 15 -43 0
19 2 20 17 15 -21 0
19 2 20 17 15 -18 0
19 2 20 17 15 -16 0
19 2 20 17 15 -22 0
19 20 7 17 15 -34 0
19 20 7 17 15 -33 0
19 20 7 17 15 -36 0
19 20 7 17 15 -35 0
19 20 24 17 15 -44 0
19 20 24 17 15 -45 0
19 20 24 17 15 -46 0
19 20 24 17 15 -43 0
19 20 3 17 15 -21 0
19 20 3 17 15 -18 0
19 20 3 17 15 -16 0
19 20 3 17 15 -22 0
19 20 17 12 15 -34 0
19 20 17 12 15 -33 0
19 20 17 12 15 -36 0
19 20 17 12 15 -35 0
19 20 17 25 15 -44 0
19 20 17 25 15 -45 0
19 20 17 25 15 -46 0
19 20 17 25 15 -43 0
19 20 17 6 15 -21 0
19 20 17 6 15 -18 0
19 20 17 6 15 -16 0
19 20 17 6 15 -22 0
19 20 17 15 11 -34 0
19 20 17 15 11 -33 0
19 20 17 15 11 -36 0
19 20 17 15 11 -35 0
14 28 7 12 11 -40 0
14 28 7 12 11 -38 0
14 28 7 12 11 -37 0
14 28 7 12 11 -39 0
14 2 7 12 11 -8 0
14 2 7 12 11 -9 0
14 2 7 12 11 -13 0
14 2 7 12 11 -10 0
14 20 7 12 11 -34 0
14 20 7 12 11 -33 0
14 20 7 12 11 -36 0
14 20 7 12 11 -35 0
14 7 24 12 11 -40 0
14 7 24 12 11 -38 0
14 7 24 12 11 -37 0
14 7 24 12 11 -39 0
14 7 3 12 11 -8 0
14 7 3 12 11 -9 0
14 7 3 12 11 -13 0
14 7 3 12 11 -10 0
14 7 17 12 11 -34 0
14 7 17 12 11 -33 0
14 7 17 12 11 -36 0
14 7 17 12 11 -35 0
14 7 12 25 11 -40 0
14 7 12 25 11 -38 0
14 7 12 25 11 -37 0
14 7 12 25 11 -39 0
14 7 12 6 11 -8 0
14 7 12 6 11 -9 0
14 7 12 6 11 -13 0
14 7 12 6 11 -10 0
14 7 12 15 11 -34 0
14 7 12 15 11 -33 0
14 7 12 15 11 -36 0
14 7 12 15 11 -35 0
30 1 28 2 24 3 -29 0
30 1 28 2 24 3 -23 0
30 1 28 2 24 3 -27 0
30 1 28 2 24 3 -26 0
30 1 28 2 24 25 -29 0
30 1 28 2 24 25 -23 0
30 1 28 2 24 25 -27 0
30 1 28 2 24 25 -26 0
30 1 28 2 3 6 -29 0
30 1 28 2 3 6 -23 0
30 1 28 2 3 6 -27 0
30 1 28 2 3 6 -26 0
30 1 28 2 25 6 -29 0
30 1 28 2 25 6 -23 0
30 1 28 2 25 6 -27 0
30 1 28 2 25 6 -26 0
30 1 28 24 3 25 -29 0
30 1 28 24 3 25 -23 0
30 1 28 24 3 25 -27 0
30 1 28 24 3 25 -26 0
30 1 28 24 25 6 -29 0
30 1 28 24 25 6 -23 0
30 1 28 24 25 6 -27 0
30 1 28 24 25 6 -26 0
30 1 2 24 3 6 -29 0
30 1 2 24 3 6 -23 0
30 1 2 24 3 6 -27 0
30 1 2 24 3 6 -26 0
30 1 2 3 25 6 -29 0
30 1 2 3 25 6 -23 0
30 1 2 3 25 6 -27 0
30 1 2 3 25 6 -26 0
30 1 24 3 25 6 -29 0
30 1 24 3 25 6 -23 0
30 1 24 3 25 6 -27 0
30 1 24 3 25 6 -26 0
30 19 28 20 24 17 -44 0
30 19 28 20 24 17 -45 0
30 19 28 20 24 17 -46 0
30 19 28 20 24 17 -43 0
30 19 28 20 24 25 -44 0
30 19 28 20 24 25 -45 0
30 19 28 20 24 25 -46 0
30 19 28 20 24 25 -43 0
30 19 28 20 17 15 -44 0
30 19 28 20 17 15 -45 0
30 19 28 20 17 15 -46 0
30 19 28 20 17 15 -43 0
30 19 28 20 25 15 -44 0
30 19 28 20 25 15 -45 0
30 19 28 20 25 15 -46 0
30 19 28 20 25 15 -43 0
30 19 28 24 17 25 -44 0
30 19 28 24 17 25 -45 0
30 19 28 24 17 25 -46 0
30 19 28 24 17 25 -43 0
30 19 28 24 25 15 -44 0
30 19 28 24 25 15 -45 0
30 19 28 24 25 15 -46 0
30 19 28 24 25 15 -43 0
30 19 20 24 17 15 -44 0
30 19 20 24 17 15 -45 0
30 19 20 24 17 15 -46 0
30 19 20 24 17 15 -43 0
30 19 20 17 25 15 -44 0
30 19 20 17 25 15 -45 0
30 19 20 17 25 15 -46 0
30 19 20 17 25 15 -43 0
30 19 24 17 25 15 -44 0
30 19 24 17 25 15 -45 0
30 19 24 17 25 15 -46 0
30 19 24 17 25 15 -43 0
30 14 28 7 24 12 -40 0
30 14 28 7 24 12 -38 0
30 14 28 7 24 12 -37 0
30 14 28 7 24 12 -39 0
30 14 28 7 24 25 -40 0
30 14 28 7 24 25 -38 0
30 14 28 7 24 25 -37 0
30 14 28 7 24 25 -39 0
30 14 28 7 12 11 -40 0
30 14 28 7 12 11 -38 0
30 14 28 7 12 11 -37 0
30 14 28 7 12 11 -39 0
30 14 28 7 25 11 -40 0
30 14 28 7 25 11 -38 0
30 14 28 7 25 11 -37 0
30 14 28 7 25 11 -39 0
30 14 28 24 12 25 -40 0
30 14 28 24 12 25 -38 0
30 14 28 24 12 25 -37 0
30 14 28 24 12 25 -39 0
30 14 28 24 25 11 -40 0
30 14 28 24 25 11 -38 0
30 14 28 24 25 11 -37 0
30 14 28 24 25 11 -39 0
30 14 7 24 12 11 -40 0
30 14 7 24 12 11 -38 0
30 14 7 24 12 11 -37 0
30 14 7 24 12 11 -39 0
30 14 7 12 25 11 -40 0
30 14 7 12 25 11 -38 0
30 14 7 12 25 11 -37 0
30 14 7 12 25 11 -39 0
30 14 24 12 25 11 -40 0
30 14 24 12 25 11 -38 0
30 14 24 12 25 11 -37 0
30 14 24 12 25 11 -39 0
30 28 2 24 3 25 -29 0
30 28 2 24 3 25 -23 0
30 28 2 24 3 25 -27 0
30 28 2 24 3 25 -26 0
30 28 2 24 25 6 -29 0
30 28 2 24 25 6 -23 0
30 28 2 24 25 6 -27 0
30 28 2 24 25 6 -26 0
30 28 20 24 17 25 -44 0
30 28 20 24 17 25 -45 0
30 28 20 24 17 25 -46 0
30 28 20 24 17 25 -43 0
30 28 20 24 25 15 -44 0
30 28 20 24 25 15 -45 0
30 28 20 24 25 15 -46 0
30 28 20 24 25 15 -43 0
30 28 7 24 12 25 -40 0
30 28 7 24 12 25 -38 0
30 28 7 24 12 25 -37 0
30 28 7 24 12 25 -39 0
30 28 7 24 25 11 -40 0
30 28 7 24 25 11 -38 0
30 28 7 24 25 11 -37 0
30 28 7 24 25 11 -39 0
30 28 24 3 25 6 -29 0
30 28 24 3 25 6 -23 0
30 28 24 3 25 6 -27 0
30 28 24 3 25 6 -26 0
30 28 24 17 25 15 -44 0
30 28 24 17 25 15 -45 0
30 28 24 17 25 15 -46 0
30 28 24 17 25 15 -43 0
30 28 24 12 25 11 -40 0
30 28 24 12 25 11 -38 0
30 28 24 12 25 11 -37 0
30 28 24 12 25 11 -39 0
1 19 2 20 3 17 -21 0
1 19 2 20 3 17 -18 0
1 19 2 20 3 17 -16 0
1 19 2 20 3 17 -22 0
1 19 2 20 3 6 -21 0
1 19 2 20 3 6 -18 0
1 19 2 20 3 6 -16 0
1 19 2 20 3 6 -22 0
1 19 2 20 17 15 -21 0
1 19 2 20 17 15 -18 0
1 19 2 20 17 15 -16 0
1 19 2 20 17 15 -22 0
1 19 2 20 6 15 -21 0
1 19 2 20 6 15 -18 0
1 19 2 20 6 15 -16 0
1 19 2 20 6 15 -22 0
1 19 2 3 17 6 -21 0
1 19 2 3 17 6 -18 0
1 19 2 3 17 6 -16 0
1 19 2 3 17 6 -22 0
1 19 2 3 6 15 -21 0
1 19 2 3 6 15 -18 0
1 19 2 3 6 15 -16 0
1 19 2 3 6 15 -22 0
1 19 20 3 17 15 -21 0
1 19 20 3 17 15 -18 0
1 19 20 3 17 15 -16 0
1 19 20 3 17 15 -22 0
1 19 20 17 6 15 -21 0
1 19 20 17 6 15 -18 0
1 19 20 17 6 15 -16 0
1 19 20 17 6 15 -22 0
1 19 3 17 6 15 -21 0
1 19 3 17 6 15 -18 0
1 19 3 17 6 15 -16 0
1 19 3 17 6 15 -22 0
1 14 2 7 3 12 -8 0
1 14 2 7 3 12 -9 0
1 14 2 7 3 12 -13 0
1 14 2 7 3 12 -10 0
1 14 2 7 3 6 -8 0
1 14 2 7 3 6 -9 0
1 14 2 7 3 6 -13 0
1 14 2 7 3 6 -10 0
1 14 2 7 12 11 -8 0
1 14 2 7 12 11 -9 0
1 14 2 7 12 11 -13 0
1 14 2 7 12 11 -10 0
1 14 2 7 6 11 -8 0
1 14 2 7 6 11 -9 0
1 14 2 7 6 11 -13 0
1 14 2 7 6 11 -10 0
1 14 2 3 12 6 -8 0
1 14 2 3 12 6 -9 0
1 14 2 3 12 6 -13 0
1 14 2 3 12 6 -10 0
1 14 2 3 6 11 -8 0
1 14 2 3 6 11 -9 0
1 14 2 3 6 11 -13 0
1 14 2 3 6 11 -10 0
1 14 7 3 12 11 -8 0
1 14 7 3 12 11 -9 0
1 14 7 3 12 11 -13 0
1 14 7 3 12 11 -10 0
1 14 7 12 6 11 -8 0
1 14 7 12 6 11 -9 0
1 14 7 12 6 11 -13 0
1 14 7 12 6 11 -10 0
1 14 3 12 6 11 -8 0
1 14 3 12 6 11 -9 0
1 14 3 12 6 11 -13 0
1 14 3 12 6 11 -10 0
1 28 2 24 3 6 -29 0
1 28 2 24 3 6 -23 0
1 28 2 24 3 6 -27 0
1 28 2 24 3 6 -26 0
1 28 2 3 25 6 -29 0
1 28 2 3 25 6 -23 0
1 28 2 3 25 6 -27 0
1 28 2 3 25 6 -26 0
1 2 20 3 17 6 -21 0
1 2 20 3 17 6 -18 0
1 2 20 3 17 6 -16 0
1 2 20 3 17 6 -22 0
1 2 20 3 6 15 -21 0
1 2 20 3 6 15 -18 0
1 2 20 3 6 15 -16 0
1 2 20 3 6 15 -22 0
1 2 7 3 12 6 -8 0
1 2 7 3 12 6 -9 0
1 2 7 3 12 6 -13 0
1 2 7 3 12 6 -10 0
1 2 7 3 6 11 -8 0
1 2 7 3 6 11 -9 0
1 2 7 3 6 11 -13 0
1 2 7 3 6 11 -10 0
1 2 24 3 25 6 -29 0
1 2 24 3 25 6 -23 0
1 2 24 3 25 6 -27 0
1 2 24 3 25 6 -26 0
1 2 3 17 6 15 -21 0
1 2 3 17 6 15 -18 0
1 2 3 17 6 15 -16 0
1 2 3 17 6 15 -22 0
1 2 3 12 6 11 -8 0
1 2 3 12 6 11 -9 0
1 2 3 12 6 11 -13 0
1 2 3 12 6 11 -10 0
19 14 20 7 17 12 -34 0
19 14 20 7 17 12 -33 0
19 14 20 7 17 12 -36 0
19 14 20 7 17 12 -35 0
19 14 20 7 17 15 -34 0
19 14 20 7 17 15 -33 0
19 14 20 7 17 15 -36 0
19 14 20 7 17 15 -35 0
19 14 20 7 12 11 -34 0
19 14 20 7 12 11 -33 0
19 14 20 7 12 11 -36 0
19 14 20 7 12 11 -35 0
19 14 20 7 15 11 -34 0
19 14 20 7 15 11 -33 0
19 14 20 7 15 11 -36 0
19 14 20 7 15 11 -35 0
19 14 20 17 12 15 -34 0
19 14 20 17 12 15 -33 0
19 14 20 17 12 15 -36 0
19 14 20 17 12 15 -35 0
19 14 20 17 15 11 -34 0
19 14 20 17 15 11 -33 0
19 14 20 17 15 11 -36 0
19 14 20 17 15 11 -35 0
19 14 7 17 12 11 -34 0
19 14 7 17 12 11 -33 0
19 14 7 17 12 11 -36 0
19 14 7 17 12 11 -35 0
19 14 7 12 15 11 -34 0
19 14 7 12 15 11 -33 0
19 14 7 12 15 11 -36 0
19 14 7 12 15 11 -35 0
19 14 17 12 15 11 -34 0
19 14 17 12 15 11 -33 0
19 14 17 12 15 11 -36 0
19 14 17 12 15 11 -35 0
19 28 20 24 17 15 -44 0
19 28 20 24 17 15 -45 0
19 28 20 24 17 15 -46 0
19 28 20 24 17 15 -43 0
19 28 20 17 25 15 -44 0
19 28 20 17 25 15 -45 0
19 28 20 17 25 15 -46 0
19 28 20 17 25 15 -43 0
19 2 20 3 17 15 -21 0
19 2 20 3 17 15 -18 0
19 2 20 3 17 15 -16 0
19 2 20 3 17 15 -22 0
19 2 20 17 6 15 -21 0
19 2 20 17 6 15 -18 0
19 2 20 17 6 15 -16 0
19 2 20 17 6 15 -22 0
19 20 7 17 12 15 -34 0
19 20 7 17 12 15 -33 0
19 20 7 17 12 15 -36 0
19 20 7 17 12 15 -35 0
19 20 7 17 15 11 -34 0
19 20 7 17 15 11 -33 0
19 20 7 17 15 11 -36 0
19 20 7 17 15 11 -35 0
19 20 24 17 25 15 -44 0
19 20 24 17 25 15 -45 0
19 20 24 17 25 15 -46 0
19 20 24 17 25 15 -43 0
19 20 3 17 6 15 -21 0
19 20 3 17 6 15 -18 0
19 20 3 17 6 15 -16 0
19 20 3 17 6 15 -22 0
19 20 17 12 15 11 -34 0
19 20 17 12 15 11 -33 0
19 20 17 12 15 11 -36 0
19 20 17 12 15 11 -35 0
14 28 7 24 12 11 -40 0
14 28 7 24 12 11 -38 0
14 28 7 24 12 11 -37 0
14 28 7 24 12 11 -39 0
14 28 7 12 25 11 -40 0
14 28 7 12 25 11 -38 0
14 28 7 12 25 11 -37 0
14 28 7 12 25 11 -39 0
14 2 7 3 12 11 -8 0
14 2 7 3 12 11 -9 0
14 2 7 3 12 11 -13 0
14 2 7 3 12 11 -10 0
14 2 7 12 6 11 -8 0
14 2 7 12 6 11 -9 0
14 2 7 12 6 11 -13 0
14 2 7 12 6 11 -10 0
14 20 7 17 12 11 -34 0
14 20 7 17 12 11 -33 0
14 20 7 17 12 11 -36 0
14 20 7 17 12 11 -35 0
14 20 7 12 15 11 -34 0
14 20 7 12 15 11 -33 0
14 20 7 12 15 11 -36 0
14 20 7 12 15 11 -35 0
14 7 24 12 25 11 -40 0
14 7 24 12 25 11 -38 0
14 7 24 12 25 11 -37 0
14 7 24 12 25 11 -39 0
14 7 3 12 6 11 -8 0
14 7 3 12 6 11 -9 0
14 7 3 12 6 11 -13 0
14 7 3 12 6 11 -10 0
14 7 17 12 15 11 -34 0
14 7 17 12 15 11 -33 0
14 7 17 12 15 11 -36 0
14 7 17 12 15 11 -35 0
28 2 24 3 25 6 -29 0
28 2 24 3 25 6 -23 0
28 2 24 3 25 6 -27 0
28 2 24 3 25 6 -26 0
28 20 24 17 25 15 -44 0
28 20 24 17 25 15 -45 0
28 20 24 17 25 15 -46 0
28 20 24 17 25 15 -43 0
28 7 24 12 25 11 -40 0
28 7 24 12 25 11 -38 0
28 7 24 12 25 11 -37 0
28 7 24 12 25 11 -39 0
2 20 3 17 6 15 -21 0
2 20 3 17 6 15 -18 0
2 20 3 17 6 15 -16 0
2 20 3 17 6 15 -22 0
2 7 3 12 6 11 -8 0
2 7 3 12 6 11 -9 0
2 7 3 12 6 11 -13 0
2 7 3 12 6 11 -10 0
20 7 17 12 15 11 -34 0
20 7 17 12 15 11 -33 0
20 7 17 12 15 11 -36 0
20 7 17 12 15 11 -35 0
30 1 28 2 24 3 25 -29 0
30 1 28 2 24 3 25 -23 0
30 1 28 2 24 3 25 -27 0
30 1 28 2 24 3 25 -26 0
30 1 28 2 24 3 6 -29 0
30 1 28 2 24 3 6 -23 0
30 1 28 2 24 3 6 -27 0
30 1 28 2 24 3 6 -26 0
30 1 28 2 24 25 6 -29 0
30 1 28 2 24 25 6 -23 0
30 1 28 2 24 25 6 -27 0
30 1 28 2 24 25 6 -26 0
30 1 28 2 3 25 6 -29 0
30 1 28 2 3 25 6 -23 0
30 1 28 2 3 25 6 -27 0
30 1 28 2 3 25 6 -26 0
30 1 28 24 3 25 6 -29 0
30 1 28 24 3 25 6 -23 0
30 1 28 24 3 25 6 -27 0
30 1 28 24 3 25 6 -26 0
30 1 2 24 3 25 6 -29 0
30 1 2 24 3 25 6 -23 0
30 1 2 24 3 25 6 -27 0
30 1 2 24 3 25 6 -26 0
30 19 28 20 24 17 25 -44 0
30 19 28 20 24 17 25 -45 0
30 19 28 20 24 17 25 -46 0
30 19 28 20 24 17 25 -43 0
30 19 28 20 24 17 15 -44 0
30 19 28 20 24 17 15 -45 0
30 19 28 20 24 17 15 -46 0
30 19 28 20 24 17 15 -43 0
30 19 28 20 24 25 15 -44 0
30 19 28 20 24 25 15 -45 0
30 19 28 20 24 25 15 -46 0
30 19 28 20 24 25 15 -43 0
30 19 28 20 17 25 15 -44 0
30 19 28 20 17 25 15 -45 0
30 19 28 20 17 25 15 -46 0
30 19 28 20 17 25 15 -43 0
30 19 28 24 17 25 15 -44 0
30 19 28 24 17 25 15 -45 0
30 19 28 24 17 25 15 -46 0
30 19 28 24 17 25 15 -43 0
30 19 20 24 17 25 15 -44 0
30 19 20 24 17 25 15 -45 0
30 19 20 24 17 25 15 -46 0
30 19 20 24 17 25 15 -43 0
30 14 28 7 24 12 25 -40 0
30 14 28 7 24 12 25 -38 0
30 14 28 7 24 12 25 -37 0
30 14 28 7 24 12 25 -39 0
30 14 28 7 24 12 11 -40 0
30 14 28 7 24 12 11 -38 0
30 14 28 7 24 12 11 -37 0
30 14 28 7 24 12 11 -39 0
30 14 28 7 24 25 11 -40 0
30 14 28 7 24 25 11 -38 0
30 14 28 7 24 25 11 -37 0
30 14 28 7 24 25 11 -39 0
30 14 28 7 12 25 11 -40 0
30 14 28 7 12 25 11 -38 0
30 14 28 7 12 25 11 -37 0
30 14 28 7 12 25 11 -39 0
30 14 28 24 12 25 11 -40 0
30 14 28 24 12 25 11 -38 0
30 14 28 24 12 25 11 -37 0
30 14 28 24 12 25 11 -39 0
30 14 7 24 12 25 11 -40 0
30 14 7 24 12 25 11 -38 0
30 14 7 24 12 25 11 -37 0
30 14 7 24 12 25 11 -39 0
30 28 2 24 3 25 6 -29 0
30 28 2 24 3 25 6 -23 0
30 28 2 24 3 25 6 -27 0
30 28 2 24 3 25 6 -26 0
30 28 20 24 17 25 15 -44 0
30 28 20 24 17 25 15 -45 0
30 28 20 24 17 25 15 -46 0
30 28 20 24 17 25 15 -43 0
30 28 7 24 12 25 11 -40 0
30 28 7 24 12 25 11 -38 0
30 28 7 24 12 25 11 -37 0
30 28 7 24 12 25 11 -39 0
1 19 2 20 3 17 6 -21 0
1 19 2 20 3 17 6 -18 0
1 19 2 20 3 17 6 -16 0
1 19 2 20 3 17 6 -22 0
1 19 2 20 3 17 15 -21 0
1 19 2 20 3 17 15 -18 0
1 19 2 20 3 17 15 -16 0
1 19 2 20 3 17 15 -22 0
1 19 2 20 3 6 15 -21 0
1 19 2 20 3 6 15 -18 0
1 19 2 20 3 6 15 -16 0
1 19 2 20 3 6 15 -22 0
1 19 2 20 17 6 15 -21 0
1 19 2 20 17 6 15 -18 0
1 19 2 20 17 6 15 -16 0
1 19 2 20 17 6 15 -22 0
1 19 2 3 17 6 15 -21 0
1 19 2 3 17 6 15 -18 0
1 19 2 3 17 6 15 -16 0
1 19 2 3 17 6 15 -22 0
1 19 20 3 17 6 15 -21 0
1 19 20 3 17 6 15 -18 0
1 19 20 3 17 6 15 -16 0
1 19 20 3 17 6 15 -22 0
1 14 2 7 3 12 6 -8 0
1 14 2 7 3 12 6 -9 0
1 14 2 7 3 12 6 -13 0
1 14 2 7 3 12 6 -10 0
1 14 2 7 3 12 11 -8 0
1 14 2 7 3 12 11 -9 0
1 14 2 7 3 12 11 -13 0
1 14 2 7 3 12 11 -10 0
1 14 2 7 3 6 11 -8 0
1 14 2 7 3 6 11 -9 0
1 14 2 7 3 6 11 -13 0
1 14 2 7 3 6 11 -10 0
1 14 2 7 12 6 11 -8 0
1 14 2 7 12 6 11 -9 0
1 14 2 7 12 6 11 -13 0
1 14 2 7 12 6 11 -10 0
1 14 2 3 12 6 11 -8 0
1 14 2 3 12 6 11 -9 0
1 14 2 3 12 6 11 -13 0
1 14 2 3 12 6 11 -10 0
1 14 7 3 12 6 11 -8 0
1 14 7 3 12 6 11 -9 0
1 14 7 3 12 6 11 -13 0
1 14 7 3 12 6 11 -10 0
1 28 2 24 3 25 6 -29 0
1 28 2 24 3 25 6 -23 0
1 28 2 24 3 25 6 -27 0
1 28 2 24 3 25 6 -26 0
1 2 20 3 17 6 15 -21 0
1 2 20 3 17 6 15 -18 0
1 2 20 3 17 6 15 -16 0
1 2 20 3 17 6 15 -22 0
1 2 7 3 12 6 11 -8 0
1 2 7 3 12 6 11 -9 0
1 2 7 3 12 6 11 -13 0
1 2 7 3 12 6 11 -10 0
19 14 20 7 17 12 15 -34 0
19 14 20 7 17 12 15 -33 0
19 14 20 7 17 12 15 -36 0
19 14 20 7 17 12 15 -35 0
19 14 20 7 17 12 11 -34 0
19 14 20 7 17 12 11 -33 0
19 14 20 7 17 12 11 -36 0
19 14 20 7 17 12 11 -35 0
19 14 20 7 17 15 11 -34 0
19 14 20 7 17 15 11 -33 0
19 14 20 7 17 15 11 -36 0
19 14 20 7 17 15 11 -35 0
19 14 20 7 12 15 11 -34 0
19 14 20 7 12 15 11 -33 0
19 14 20 7 12 15 11 -36 0
19 14 20 7 12 15 11 -35 0
19 14 20 17 12 15 11 -34 0
19 14 20 17 12 15 11 -33 0
19 14 20 17 12 15 11 -36 0
19 14 20 17 12 15 11 -35 0
19 14 7 17 12 15 11 -34 0
19 14 7 17 12 15 11 -33 0
19 14 7 17 12 15 11 -36 0
19 14 7 17 12 15 11 -35 0
19 28 20 24 17 25 15 -44 0
19 28 20 24 17 25 15 -45 0
19 28 20 24 17 25 15 -46 0
19 28 20 24 17 25 15 -43 0
19 2 20 3 17 6 15 -21 0
19 2 20 3 17 6 15 -18 0
19 2 20 3 17 6 15 -16 0
19 2 20 3 17 6 15 -22 0
19 20 7 17 12 15 11 -34 0
19 20 7 17 12 15 11 -33 0
19 20 7 17 12 15 11 -36 0
19 20 7 17 12 15 11 -35 0
14 28 7 24 12 25 11 -40 0
14 28 7 24 12 25 11 -38 0
14 28 7 24 12 25 11 -37 0
14 28 7 24 12 25 11 -39 0
14 2 7 3 12 6 11 -8 0
14 2 7 3 12 6 11 -9 0
14 2 7 3 12 6 11 -13 0
14 2 7 3 12 6 11 -10 0
14 20 7 17 12 15 11 -34 0
14 20 7 17 12 15 11 -33 0
14 20 7 17 12 15 11 -36 0
14 20 7 17 12 15 11 -35 0
30 1 28 2 24 3 25 6 -29 0
30 1 28 2 24 3 25 6 -23 0
30 1 28 2 24 3 25 6 -27 0
30 1 28 2 24 3 25 6 -26 0
30 19 28 20 24 17 25 15 -44 0
30 19 28 20 24 17 25 15 -45 0
30 19 28 20 24 17 25 15 -46 0
30 19 28 20 24 17 25 15 -43 0
30 14 28 7 24 12 25 11 -40 0
30 14 28 7 24 12 25 11 -38 0
30 14 28 7 24 12 25 11 -37 0
30 14 28 7 24 12 25 11 -39 0
1 19 2 20 3 17 6 15 -21 0
1 19 2 20 3 17 6 15 -18 0
1 19 2 20 3 17 6 15 -16 0
1 19 2 20 3 17 6 15 -22 0
1 14 2 7 3 12 6 11 -8 0
1 14 2 7 3 12 6 11 -9 0
1 14 2 7 3 12 6 11 -13 0
1 14 2 7 3 12 6 11 -10 0
19 14 20 7 17 12 15 11 -34 0
19 14 20 7 17 12 15 11 -33 0
19 14 20 7 17 12 15 11 -36 0
19 14 20 7 17 12 15 11 -35 0
