c E1(1,1) E2(1,1) U4(1) U1(1) U2(1) U3(1) U1(3) E1(3,1) U2(3) U4(3) E2(1,3) E1(1,3) U3(3) E2(3,1) U1(2) U4(2) E1(2,1) E2(2,1) U2(2) E1(1,2) E2(1,2) U3(2) U1(4) E2(1,4) E1(1,4) U3(4) U2(4) E1(4,1) E2(4,1) U4(4) U2(0) E1(1,0) E1(0,1) U4(0) E2(0,1) U1(0) E2(1,0) U3(0) E1(3,3) E2(3,3) E2(3,2) E1(3,2) E2(2,3) E1(2,3) E1(3,4) E2(4,3) E2(3,4) E1(4,3) E2(0,3) E2(3,0) E1(0,3) E1(3,0) E1(2,2) E2(2,2) E2(2,4) E2(4,2) E1(2,4) E1(4,2) E1(0,2) E2(2,0) E1(2,0) E2(0,2) E1(4,4) E2(4,4) E2(4,0) E1(4,0) E2(0,4) E1(0,4) E2(0,0) E1(0,0)
c 1 2 3 4 5 6 7 8 9 10 11 12 13 14 15 16 17 18 19 20 21 22 23 24 25 26 27 28 29 30 31 32 33 34 35 36 37 38 39 40 41 42 43 44 45 46 47 48 49 50 51 52 53 54 55 56 57 58 59 60 61 62 63 64 65 66 67 68 69 70
p cnf 70 1575
-70 0
-1 0
-53 0
-39 0
-63 0
-69 0
-2 0
-54 0
-40 0
-64 0
70 -69 0
33 -37 0
59 -60 0
51 -50 0
68 -65 0
32 -35 0
1 -2 0
20 -18 0
12 -14 0
25 -29 0
61 -62 0
17 -21 0
53 -54 0
44 -41 0
57 -56 0
52 -49 0
8 -11 0
42 -43 0
39 -40 0
45 -46 0
66 -67 0
28 -24 0
58 -55 0
48 -47 0
63 -64 0
69 -70 0
35 -32 0
62 -61 0
49 -52 0
67 -66 0
37 -33 0
2 -1 0
21 -17 0
11 -8 0
24 -28 0
60 -59 0
18 -20 0
54 -53 0
43 -42 0
55 -58 0
50 -51 0
14 -12 0
41 -44 0
40 -39 0
47 -48 0
65 -68 0
29 -25 0
56 -57 0
46 -45 0
64 -63 0
-33 -32 0
-59 -61 0
-51 -52 0
-68 -66 0
-20 -17 0
-12 -8 0
-25 -28 0
-44 -42 0
-57 -58 0
-45 -48 0
-35 -37 0
-62 -60 0
-49 -50 0
-67 -65 0
-21 -18 0
-11 -14 0
-24 -29 0
-43 -41 0
-55 -56 0
-47 -46 0
-36 -31 0
-36 -38 0
-36 -34 0
-4 -5 0
-4 -6 0
-4 -3 0
-15 -19 0
-15 -22 0
-15 -16 0
-7 -9 0
-7 -13 0
-7 -10 0
-23 -27 0
-23 -26 0
-23 -30 0
-31 -38 0
-31 -34 0
-5 -6 0
-5 -3 0
-19 -22 0
-19 -16 0
-9 -13 0
-9 -10 0
-27 -26 0
-27 -30 0
-38 -34 0
-6 -3 0
-22 -16 0
-13 -10 0
-26 -30 0
36 31 38 34 0
4 5 6 3 0
15 19 22 16 0
7 9 13 10 0
23 27 26 30 0
36 31 38 -70 0
36 31 38 -69 0
36 31 34 -70 0
36 31 34 -69 0
36 38 34 -70 0
36 38 34 -69 0
4 5 6 -1 0
4 5 6 -2 0
4 5 3 -1 0
4 5 3 -2 0
4 6 3 -1 0
4 6 3 -2 0
15 19 22 -53 0
15 19 22 -54 0
15 19 16 -53 0
15 19 16 -54 0
15 22 16 -53 0
15 22 16 -54 0
7 9 13 -39 0
7 9 13 -40 0
7 9 10 -39 0
7 9 10 -40 0
7 13 10 -39 0
7 13 10 -40 0
23 27 26 -63 0
23 27 26 -64 0
23 27 30 -63 0
23 27 30 -64 0
23 26 30 -63 0
23 26 30 -64 0
31 38 34 -70 0
31 38 34 -69 0
5 6 3 -1 0
5 6 3 -2 0
19 22 16 -53 0
19 22 16 -54 0
9 13 10 -39 0
9 13 10 -40 0
27 26 30 -63 0
27 26 30 -64 0
70 33 59 51 68 0
32 1 20 12 25 0
61 17 53 44 57 0
52 8 42 39 45 0
66 28 58 48 63 0
69 35 62 49 67 0
37 2 21 11 24 0
60 18 54 43 55 0
50 14 41 40 47 0
65 29 56 46 64 0
36 31 38 34 -70 0
36 31 38 34 -33 0
36 31 38 34 -59 0
36 31 38 34 -51 0
36 31 38 34 -68 0
36 31 38 34 -32 0
36 31 38 34 -61 0
36 31 38 34 -52 0
36 31 38 34 -66 0
36 31 38 34 -69 0
36 31 38 34 -35 0
36 31 38 34 -62 0
36 31 38 34 -49 0
36 31 38 34 -67 0
36 31 38 34 -37 0
36 31 38 34 -60 0
36 31 38 34 -50 0
36 31 38 34 -65 0
4 5 6 3 -33 0
4 5 6 3 -32 0
4 5 6 3 -1 0
4 5 6 3 -20 0
4 5 6 3 -12 0
4 5 6 3 -25 0
4 5 6 3 -17 0
4 5 6 3 -8 0
4 5 6 3 -28 0
4 5 6 3 -35 0
4 5 6 3 -37 0
4 5 6 3 -2 0
4 5 6 3 -21 0
4 5 6 3 -11 0
4 5 6 3 -24 0
4 5 6 3 -18 0
4 5 6 3 -14 0
4 5 6 3 -29 0
15 19 22 16 -59 0
15 19 22 16 -20 0
15 19 22 16 -61 0
15 19 22 16 -17 0
15 19 22 16 -53 0
15 19 22 16 -44 0
15 19 22 16 -57 0
15 19 22 16 -42 0
15 19 22 16 -58 0
15 19 22 16 -62 0
15 19 22 16 -21 0
15 19 22 16 -60 0
15 19 22 16 -18 0
15 19 22 16 -54 0
15 19 22 16 -43 0
15 19 22 16 -55 0
15 19 22 16 -41 0
15 19 22 16 -56 0
7 9 13 10 -51 0
7 9 13 10 -12 0
7 9 13 10 -44 0
7 9 13 10 -52 0
7 9 13 10 -8 0
7 9 13 10 -42 0
7 9 13 10 -39 0
7 9 13 10 -45 0
7 9 13 10 -48 0
7 9 13 10 -49 0
7 9 13 10 -11 0
7 9 13 10 -43 0
7 9 13 10 -50 0
7 9 13 10 -14 0
7 9 13 10 -41 0
7 9 13 10 -40 0
7 9 13 10 -47 0
7 9 13 10 -46 0
23 27 26 30 -68 0
23 27 26 30 -25 0
23 27 26 30 -57 0
23 27 26 30 -45 0
23 27 26 30 -66 0
23 27 26 30 -28 0
23 27 26 30 -58 0
23 27 26 30 -48 0
23 27 26 30 -63 0
23 27 26 30 -67 0
23 27 26 30 -24 0
23 27 26 30 -55 0
23 27 26 30 -47 0
23 27 26 30 -65 0
23 27 26 30 -29 0
23 27 26 30 -56 0
23 27 26 30 -46 0
23 27 26 30 -64 0
36 4 31 38 34 -33 0
36 4 31 38 34 -32 0
36 4 31 38 34 -35 0
36 4 31 38 34 -37 0
36 4 5 6 3 -33 0
36 4 5 6 3 -32 0
36 4 5 6 3 -35 0
36 4 5 6 3 -37 0
36 15 31 38 34 -59 0
36 15 31 38 34 -61 0
36 15 31 38 34 -62 0
36 15 31 38 34 -60 0
36 15 19 22 16 -59 0
36 15 19 22 16 -61 0
36 15 19 22 16 -62 0
36 15 19 22 16 -60 0
36 7 31 38 34 -51 0
36 7 31 38 34 -52 0
36 7 31 38 34 -49 0
36 7 31 38 34 -50 0
36 7 9 13 10 -51 0
36 7 9 13 10 -52 0
36 7 9 13 10 -49 0
36 7 9 13 10 -50 0
36 23 31 38 34 -68 0
36 23 31 38 34 -66 0
36 23 31 38 34 -67 0
36 23 31 38 34 -65 0
36 23 27 26 30 -68 0
36 23 27 26 30 -66 0
36 23 27 26 30 -67 0
36 23 27 26 30 -65 0
36 31 5 38 34 -33 0
36 31 5 38 34 -32 0
36 31 5 38 34 -35 0
36 31 5 38 34 -37 0
36 31 19 38 34 -59 0
36 31 19 38 34 -61 0
36 31 19 38 34 -62 0
36 31 19 38 34 -60 0
36 31 9 38 34 -51 0
36 31 9 38 34 -52 0
36 31 9 38 34 -49 0
36 31 9 38 34 -50 0
36 31 27 38 34 -68 0
36 31 27 38 34 -66 0
36 31 27 38 34 -67 0
36 31 27 38 34 -65 0
36 31 38 6 34 -33 0
36 31 38 6 34 -32 0
36 31 38 6 34 -35 0
36 31 38 6 34 -37 0
36 31 38 22 34 -59 0
36 31 38 22 34 -61 0
36 31 38 22 34 -62 0
36 31 38 22 34 -60 0
36 31 38 13 34 -51 0
36 31 38 13 34 -52 0
36 31 38 13 34 -49 0
36 31 38 13 34 -50 0
36 31 38 26 34 -68 0
36 31 38 26 34 -66 0
36 31 38 26 34 -67 0
36 31 38 26 34 -65 0
36 31 38 34 3 -33 0
36 31 38 34 3 -32 0
36 31 38 34 3 -35 0
36 31 38 34 3 -37 0
36 31 38 34 16 -59 0
36 31 38 34 16 -61 0
36 31 38 34 16 -62 0
36 31 38 34 16 -60 0
36 31 38 34 10 -51 0
36 31 38 34 10 -52 0
36 31 38 34 10 -49 0
36 31 38 34 10 -50 0
36 31 38 34 30 -68 0
36 31 38 34 30 -66 0
36 31 38 34 30 -67 0
36 31 38 34 30 -65 0
4 15 5 6 3 -20 0
4 15 5 6 3 -17 0
4 15 5 6 3 -21 0
4 15 5 6 3 -18 0
4 15 19 22 16 -20 0
4 15 19 22 16 -17 0
4 15 19 22 16 -21 0
4 15 19 22 16 -18 0
4 7 5 6 3 -12 0
4 7 5 6 3 -8 0
4 7 5 6 3 -11 0
4 7 5 6 3 -14 0
4 7 9 13 10 -12 0
4 7 9 13 10 -8 0
4 7 9 13 10 -11 0
4 7 9 13 10 -14 0
4 23 5 6 3 -25 0
4 23 5 6 3 -28 0
4 23 5 6 3 -24 0
4 23 5 6 3 -29 0
4 23 27 26 30 -25 0
4 23 27 26 30 -28 0
4 23 27 26 30 -24 0
4 23 27 26 30 -29 0
4 31 5 6 3 -33 0
4 31 5 6 3 -32 0
4 31 5 6 3 -35 0
4 31 5 6 3 -37 0
4 5 19 6 3 -20 0
4 5 19 6 3 -17 0
4 5 19 6 3 -21 0
4 5 19 6 3 -18 0
4 5 9 6 3 -12 0
4 5 9 6 3 -8 0
4 5 9 6 3 -11 0
4 5 9 6 3 -14 0
4 5 27 6 3 -25 0
4 5 27 6 3 -28 0
4 5 27 6 3 -24 0
4 5 27 6 3 -29 0
4 5 38 6 3 -33 0
4 5 38 6 3 -32 0
4 5 38 6 3 -35 0
4 5 38 6 3 -37 0
4 5 6 22 3 -20 0
4 5 6 22 3 -17 0
4 5 6 22 3 -21 0
4 5 6 22 3 -18 0
4 5 6 13 3 -12 0
4 5 6 13 3 -8 0
4 5 6 13 3 -11 0
4 5 6 13 3 -14 0
4 5 6 26 3 -25 0
4 5 6 26 3 -28 0
4 5 6 26 3 -24 0
4 5 6 26 3 -29 0
4 5 6 34 3 -33 0
4 5 6 34 3 -32 0
4 5 6 34 3 -35 0
4 5 6 34 3 -37 0
4 5 6 3 16 -20 0
4 5 6 3 16 -17 0
4 5 6 3 16 -21 0
4 5 6 3 16 -18 0
4 5 6 3 10 -12 0
4 5 6 3 10 -8 0
4 5 6 3 10 -11 0
4 5 6 3 10 -14 0
4 5 6 3 30 -25 0
4 5 6 3 30 -28 0
4 5 6 3 30 -24 0
4 5 6 3 30 -29 0
15 7 19 22 16 -44 0
15 7 19 22 16 -42 0
15 7 19 22 16 -43 0
15 7 19 22 16 -41 0
15 7 9 13 10 -44 0
15 7 9 13 10 -42 0
15 7 9 13 10 -43 0
15 7 9 13 10 -41 0
15 23 19 22 16 -57 0
15 23 19 22 16 -58 0
15 23 19 22 16 -55 0
15 23 19 22 16 -56 0
15 23 27 26 30 -57 0
15 23 27 26 30 -58 0
15 23 27 26 30 -55 0
15 23 27 26 30 -56 0
15 31 19 22 16 -59 0
15 31 19 22 16 -61 0
15 31 19 22 16 -62 0
15 31 19 22 16 -60 0
15 5 19 22 16 -20 0
15 5 19 22 16 -17 0
15 5 19 22 16 -21 0
15 5 19 22 16 -18 0
15 19 9 22 16 -44 0
15 19 9 22 16 -42 0
15 19 9 22 16 -43 0
15 19 9 22 16 -41 0
15 19 27 22 16 -57 0
15 19 27 22 16 -58 0
15 19 27 22 16 -55 0
15 19 27 22 16 -56 0
15 19 38 22 16 -59 0
15 19 38 22 16 -61 0
15 19 38 22 16 -62 0
15 19 38 22 16 -60 0
15 19 6 22 16 -20 0
15 19 6 22 16 -17 0
15 19 6 22 16 -21 0
15 19 6 22 16 -18 0
15 19 22 13 16 -44 0
15 19 22 13 16 -42 0
15 19 22 13 16 -43 0
15 19 22 13 16 -41 0
15 19 22 26 16 -57 0
15 19 22 26 16 -58 0
15 19 22 26 16 -55 0
15 19 22 26 16 -56 0
15 19 22 34 16 -59 0
15 19 22 34 16 -61 0
15 19 22 34 16 -62 0
15 19 22 34 16 -60 0
15 19 22 3 16 -20 0
15 19 22 3 16 -17 0
15 19 22 3 16 -21 0
15 19 22 3 16 -18 0
15 19 22 16 10 -44 0
15 19 22 16 10 -42 0
15 19 22 16 10 -43 0
15 19 22 16 10 -41 0
15 19 22 16 30 -57 0
15 19 22 16 30 -58 0
15 19 22 16 30 -55 0
15 19 22 16 30 -56 0
7 23 9 13 10 -45 0
7 23 9 13 10 -48 0
7 23 9 13 10 -47 0
7 23 9 13 10 -46 0
7 23 27 26 30 -45 0
7 23 27 26 30 -48 0
7 23 27 26 30 -47 0
7 23 27 26 30 -46 0
7 31 9 13 10 -51 0
7 31 9 13 10 -52 0
7 31 9 13 10 -49 0
7 31 9 13 10 -50 0
7 5 9 13 10 -12 0
7 5 9 13 10 -8 0
7 5 9 13 10 -11 0
7 5 9 13 10 -14 0
7 19 9 13 10 -44 0
7 19 9 13 10 -42 0
7 19 9 13 10 -43 0
7 19 9 13 10 -41 0
7 9 27 13 10 -45 0
7 9 27 13 10 -48 0
7 9 27 13 10 -47 0
7 9 27 13 10 -46 0
7 9 38 13 10 -51 0
7 9 38 13 10 -52 0
7 9 38 13 10 -49 0
7 9 38 13 10 -50 0
7 9 6 13 10 -12 0
7 9 6 13 10 -8 0
7 9 6 13 10 -11 0
7 9 6 13 10 -14 0
7 9 22 13 10 -44 0
7 9 22 13 10 -42 0
7 9 22 13 10 -43 0
7 9 22 13 10 -41 0
7 9 13 26 10 -45 0
7 9 13 26 10 -48 0
7 9 13 26 10 -47 0
7 9 13 26 10 -46 0
7 9 13 34 10 -51 0
7 9 13 34 10 -52 0
7 9 13 34 10 -49 0
7 9 13 34 10 -50 0
7 9 13 3 10 -12 0
7 9 13 3 10 -8 0
7 9 13 3 10 -11 0
7 9 13 3 10 -14 0
7 9 13 16 10 -44 0
7 9 13 16 10 -42 0
7 9 13 16 10 -43 0
7 9 13 16 10 -41 0
7 9 13 10 30 -45 0
7 9 13 10 30 -48 0
7 9 13 10 30 -47 0
7 9 13 10 30 -46 0
23 31 27 26 30 -68 0
23 31 27 26 30 -66 0
23 31 27 26 30 -67 0
23 31 27 26 30 -65 0
23 5 27 26 30 -25 0
23 5 27 26 30 -28 0
23 5 27 26 30 -24 0
23 5 27 26 30 -29 0
23 19 27 26 30 -57 0
23 19 27 26 30 -58 0
23 19 27 26 30 -55 0
23 19 27 26 30 -56 0
23 9 27 26 30 -45 0
23 9 27 26 30 -48 0
23 9 27 26 30 -47 0
23 9 27 26 30 -46 0
23 27 38 26 30 -68 0
23 27 38 26 30 -66 0
23 27 38 26 30 -67 0
23 27 38 26 30 -65 0
23 27 6 26 30 -25 0
23 27 6 26 30 -28 0
23 27 6 26 30 -24 0
23 27 6 26 30 -29 0
23 27 22 26 30 -57 0
23 27 22 26 30 -58 0
23 27 22 26 30 -55 0
23 27 22 26 30 -56 0
23 27 13 26 30 -45 0
23 27 13 26 30 -48 0
23 27 13 26 30 -47 0
23 27 13 26 30 -46 0
23 27 26 34 30 -68 0
23 27 26 34 30 -66 0
23 27 26 34 30 -67 0
23 27 26 34 30 -65 0
23 27 26 3 30 -25 0
23 27 26 3 30 -28 0
23 27 26 3 30 -24 0
23 27 26 3 30 -29 0
23 27 26 16 30 -57 0
23 27 26 16 30 -58 0
23 27 26 16 30 -55 0
23 27 26 16 30 -56 0
23 27 26 10 30 -45 0
23 27 26 10 30 -48 0
23 27 26 10 30 -47 0
23 27 26 10 30 -46 0
36 4 31 5 38 6 -33 0
36 4 31 5 38 6 -32 0
36 4 31 5 38 6 -35 0
36 4 31 5 38 6 -37 0
36 4 31 5 38 34 -33 0
36 4 31 5 38 34 -32 0
36 4 31 5 38 34 -35 0
36 4 31 5 38 34 -37 0
36 4 31 5 6 3 -33 0
36 4 31 5 6 3 -32 0
36 4 31 5 6 3 -35 0
36 4 31 5 6 3 -37 0
36 4 31 5 34 3 -33 0
36 4 31 5 34 3 -32 0
36 4 31 5 34 3 -35 0
36 4 31 5 34 3 -37 0
36 4 31 38 6 34 -33 0
36 4 31 38 6 34 -32 0
36 4 31 38 6 34 -35 0
36 4 31 38 6 34 -37 0
36 4 31 38 34 3 -33 0
36 4 31 38 34 3 -32 0
36 4 31 38 34 3 -35 0
36 4 31 38 34 3 -37 0
36 4 5 38 6 3 -33 0
36 4 5 38 6 3 -32 0
36 4 5 38 6 3 -35 0
36 4 5 38 6 3 -37 0
36 4 5 6 34 3 -33 0
36 4 5 6 34 3 -32 0
36 4 5 6 34 3 -35 0
36 4 5 6 34 3 -37 0
36 4 38 6 34 3 -33 0
36 4 38 6 34 3 -32 0
36 4 38 6 34 3 -35 0
36 4 38 6 34 3 -37 0
36 15 31 19 38 22 -59 0
36 15 31 19 38 22 -61 0
36 15 31 19 38 22 -62 0
36 15 31 19 38 22 -60 0
36 15 31 19 38 34 -59 0
36 15 31 19 38 34 -61 0
36 15 31 19 38 34 -62 0
36 15 31 19 38 34 -60 0
36 15 31 19 22 16 -59 0
36 15 31 19 22 16 -61 0
36 15 31 19 22 16 -62 0
36 15 31 19 22 16 -60 0
36 15 31 19 34 16 -59 0
36 15 31 19 34 16 -61 0
36 15 31 19 34 16 -62 0
36 15 31 19 34 16 -60 0
36 15 31 38 22 34 -59 0
36 15 31 38 22 34 -61 0
36 15 31 38 22 34 -62 0
36 15 31 38 22 34 -60 0
36 15 31 38 34 16 -59 0
36 15 31 38 34 16 -61 0
36 15 31 38 34 16 -62 0
36 15 31 38 34 16 -60 0
36 15 19 38 22 16 -59 0
36 15 19 38 22 16 -61 0
36 15 19 38 22 16 -62 0
36 15 19 38 22 16 -60 0
36 15 19 22 34 16 -59 0
36 15 19 22 34 16 -61 0
36 15 19 22 34 16 -62 0
36 15 19 22 34 16 -60 0
36 15 38 22 34 16 -59 0
36 15 38 22 34 16 -61 0
36 15 38 22 34 16 -62 0
36 15 38 22 34 16 -60 0
36 7 31 9 38 13 -51 0
36 7 31 9 38 13 -52 0
36 7 31 9 38 13 -49 0
36 7 31 9 38 13 -50 0
36 7 31 9 38 34 -51 0
36 7 31 9 38 34 -52 0
36 7 31 9 38 34 -49 0
36 7 31 9 38 34 -50 0
36 7 31 9 13 10 -51 0
36 7 31 9 13 10 -52 0
36 7 31 9 13 10 -49 0
36 7 31 9 13 10 -50 0
36 7 31 9 34 10 -51 0
36 7 31 9 34 10 -52 0
36 7 31 9 34 10 -49 0
36 7 31 9 34 10 -50 0
36 7 31 38 13 34 -51 0
36 7 31 38 13 34 -52 0
36 7 31 38 13 34 -49 0
36 7 31 38 13 34 -50 0
36 7 31 38 34 10 -51 0
36 7 31 38 34 10 -52 0
36 7 31 38 34 10 -49 0
36 7 31 38 34 10 -50 0
36 7 9 38 13 10 -51 0
36 7 9 38 13 10 -52 0
36 7 9 38 13 10 -49 0
36 7 9 38 13 10 -50 0
36 7 9 13 34 10 -51 0
36 7 9 13 34 10 -52 0
36 7 9 13 34 10 -49 0
36 7 9 13 34 10 -50 0
36 7 38 13 34 10 -51 0
36 7 38 13 34 10 -52 0
36 7 38 13 34 10 -49 0
36 7 38 13 34 10 -50 0
36 23 31 27 38 26 -68 0
36 23 31 27 38 26 -66 0
36 23 31 27 38 26 -67 0
36 23 31 27 38 26 -65 0
36 23 31 27 38 34 -68 0
36 23 31 27 38 34 -66 0
36 23 31 27 38 34 -67 0
36 23 31 27 38 34 -65 0
36 23 31 27 26 30 -68 0
36 23 31 27 26 30 -66 0
36 23 31 27 26 30 -67 0
36 23 31 27 26 30 -65 0
36 23 31 27 34 30 -68 0
36 23 31 27 34 30 -66 0
36 23 31 27 34 30 -67 0
36 23 31 27 34 30 -65 0
36 23 31 38 26 34 -68 0
36 23 31 38 26 34 -66 0
36 23 31 38 26 34 -67 0
36 23 31 38 26 34 -65 0
36 23 31 38 34 30 -68 0
36 23 31 38 34 30 -66 0
36 23 31 38 34 30 -67 0
36 23 31 38 34 30 -65 0
36 23 27 38 26 30 -68 0
36 23 27 38 26 30 -66 0
36 23 27 38 26 30 -67 0
36 23 27 38 26 30 -65 0
36 23 27 26 34 30 -68 0
36 23 27 26 34 30 -66 0
36 23 27 26 34 30 -67 0
36 23 27 26 34 30 -65 0
36 23 38 26 34 30 -68 0
36 23 38 26 34 30 -66 0
36 23 38 26 34 30 -67 0
36 23 38 26 34 30 -65 0
36 31 5 38 6 34 -33 0
36 31 5 38 6 34 -32 0
36 31 5 38 6 34 -35 0
36 31 5 38 6 34 -37 0
36 31 5 38 34 3 -33 0
36 31 5 38 34 3 -32 0
36 31 5 38 34 3 -35 0
36 31 5 38 34 3 -37 0
36 31 19 38 22 34 -59 0
36 31 19 38 22 34 -61 0
36 31 19 38 22 34 -62 0
36 31 19 38 22 34 -60 0
36 31 19 38 34 16 -59 0
36 31 19 38 34 16 -61 0
36 31 19 38 34 16 -62 0
36 31 19 38 34 16 -60 0
36 31 9 38 13 34 -51 0
36 31 9 38 13 34 -52 0
36 31 9 38 13 34 -49 0
36 31 9 38 13 34 -50 0
36 31 9 38 34 10 -51 0
36 31 9 38 34 10 -52 0
36 31 9 38 34 10 -49 0
36 31 9 38 34 10 -50 0
36 31 27 38 26 34 -68 0
36 31 27 38 26 34 -66 0
36 31 27 38 26 34 -67 0
36 31 27 38 26 34 -65 0
36 31 27 38 34 30 -68 0
36 31 27 38 34 30 -66 0
36 31 27 38 34 30 -67 0
36 31 27 38 34 30 -65 0
36 31 38 6 34 3 -33 0
36 31 38 6 34 3 -32 0
36 31 38 6 34 3 -35 0
36 31 38 6 34 3 -37 0
36 31 38 22 34 16 -59 0
36 31 38 22 34 16 -61 0
36 31 38 22 34 16 -62 0
36 31 38 22 34 16 -60 0
36 31 38 13 34 10 -51 0
36 31 38 13 34 10 -52 0
36 31 38 13 34 10 -49 0
36 31 38 13 34 10 -50 0
36 31 38 26 34 30 -68 0
36 31 38 26 34 30 -66 0
36 31 38 26 34 30 -67 0
36 31 38 26 34 30 -65 0
4 15 5 19 6 22 -20 0
4 15 5 19 6 22 -17 0
4 15 5 19 6 22 -21 0
4 15 5 19 6 22 -18 0
4 15 5 19 6 3 -20 0
4 15 5 19 6 3 -17 0
4 15 5 19 6 3 -21 0
4 15 5 19 6 3 -18 0
4 15 5 19 22 16 -20 0
4 15 5 19 22 16 -17 0
4 15 5 19 22 16 -21 0
4 15 5 19 22 16 -18 0
4 15 5 19 3 16 -20 0
4 15 5 19 3 16 -17 0
4 15 5 19 3 16 -21 0
4 15 5 19 3 16 -18 0
4 15 5 6 22 3 -20 0
4 15 5 6 22 3 -17 0
4 15 5 6 22 3 -21 0
4 15 5 6 22 3 -18 0
4 15 5 6 3 16 -20 0
4 15 5 6 3 16 -17 0
4 15 5 6 3 16 -21 0
4 15 5 6 3 16 -18 0
4 15 19 6 22 16 -20 0
4 15 19 6 22 16 -17 0
4 15 19 6 22 16 -21 0
4 15 19 6 22 16 -18 0
4 15 19 22 3 16 -20 0
4 15 19 22 3 16 -17 0
4 15 19 22 3 16 -21 0
4 15 19 22 3 16 -18 0
4 15 6 22 3 16 -20 0
4 15 6 22 3 16 -17 0
4 15 6 22 3 16 -21 0
4 15 6 22 3 16 -18 0
4 7 5 9 6 13 -12 0
4 7 5 9 6 13 -8 0
4 7 5 9 6 13 -11 0
4 7 5 9 6 13 -14 0
4 7 5 9 6 3 -12 0
4 7 5 9 6 3 -8 0
4 7 5 9 6 3 -11 0
4 7 5 9 6 3 -14 0
4 7 5 9 13 10 -12 0
4 7 5 9 13 10 -8 0
4 7 5 9 13 10 -11 0
4 7 5 9 13 10 -14 0
4 7 5 9 3 10 -12 0
4 7 5 9 3 10 -8 0
4 7 5 9 3 10 -11 0
4 7 5 9 3 10 -14 0
4 7 5 6 13 3 -12 0
4 7 5 6 13 3 -8 0
4 7 5 6 13 3 -11 0
4 7 5 6 13 3 -14 0
4 7 5 6 3 10 -12 0
4 7 5 6 3 10 -8 0
4 7 5 6 3 10 -11 0
4 7 5 6 3 10 -14 0
4 7 9 6 13 10 -12 0
4 7 9 6 13 10 -8 0
4 7 9 6 13 10 -11 0
4 7 9 6 13 10 -14 0
4 7 9 13 3 10 -12 0
4 7 9 13 3 10 -8 0
4 7 9 13 3 10 -11 0
4 7 9 13 3 10 -14 0
4 7 6 13 3 10 -12 0
4 7 6 13 3 10 -8 0
4 7 6 13 3 10 -11 0
4 7 6 13 3 10 -14 0
4 23 5 27 6 26 -25 0
4 23 5 27 6 26 -28 0
4 23 5 27 6 26 -24 0
4 23 5 27 6 26 -29 0
4 23 5 27 6 3 -25 0
4 23 5 27 6 3 -28 0
4 23 5 27 6 3 -24 0
4 23 5 27 6 3 -29 0
4 23 5 27 26 30 -25 0
4 23 5 27 26 30 -28 0
4 23 5 27 26 30 -24 0
4 23 5 27 26 30 -29 0
4 23 5 27 3 30 -25 0
4 23 5 27 3 30 -28 0
4 23 5 27 3 30 -24 0
4 23 5 27 3 30 -29 0
4 23 5 6 26 3 -25 0
4 23 5 6 26 3 -28 0
4 23 5 6 26 3 -24 0
4 23 5 6 26 3 -29 0
4 23 5 6 3 30 -25 0
4 23 5 6 3 30 -28 0
4 23 5 6 3 30 -24 0
4 23 5 6 3 30 -29 0
4 23 27 6 26 30 -25 0
4 23 27 6 26 30 -28 0
4 23 27 6 26 30 -24 0
4 23 27 6 26 30 -29 0
4 23 27 26 3 30 -25 0
4 23 27 26 3 30 -28 0
4 23 27 26 3 30 -24 0
4 23 27 26 3 30 -29 0
4 23 6 26 3 30 -25 0
4 23 6 26 3 30 -28 0
4 23 6 26 3 30 -24 0
4 23 6 26 3 30 -29 0
4 31 5 38 6 3 -33 0
4 31 5 38 6 3 -32 0
4 31 5 38 6 3 -35 0
4 31 5 38 6 3 -37 0
4 31 5 6 34 3 -33 0
4 31 5 6 34 3 -32 0
4 31 5 6 34 3 -35 0
4 31 5 6 34 3 -37 0
4 5 19 6 22 3 -20 0
4 5 19 6 22 3 -17 0
4 5 19 6 22 3 -21 0
4 5 19 6 22 3 -18 0
4 5 19 6 3 16 -20 0
4 5 19 6 3 16 -17 0
4 5 19 6 3 16 -21 0
4 5 19 6 3 16 -18 0
4 5 9 6 13 3 -12 0
4 5 9 6 13 3 -8 0
4 5 9 6 13 3 -11 0
4 5 9 6 13 3 -14 0
4 5 9 6 3 10 -12 0
4 5 9 6 3 10 -8 0
4 5 9 6 3 10 -11 0
4 5 9 6 3 10 -14 0
4 5 27 6 26 3 -25 0
4 5 27 6 26 3 -28 0
4 5 27 6 26 3 -24 0
4 5 27 6 26 3 -29 0
4 5 27 6 3 30 -25 0
4 5 27 6 3 30 -28 0
4 5 27 6 3 30 -24 0
4 5 27 6 3 30 -29 0
4 5 38 6 34 3 -33 0
4 5 38 6 34 3 -32 0
4 5 38 6 34 3 -35 0
4 5 38 6 34 3 -37 0
4 5 6 22 3 16 -20 0
4 5 6 22 3 16 -17 0
4 5 6 22 3 16 -21 0
4 5 6 22 3 16 -18 0
4 5 6 13 3 10 -12 0
4 5 6 13 3 10 -8 0
4 5 6 13 3 10 -11 0
4 5 6 13 3 10 -14 0
4 5 6 26 3 30 -25 0
4 5 6 26 3 30 -28 0
4 5 6 26 3 30 -24 0
4 5 6 26 3 30 -29 0
15 7 19 9 22 13 -44 0
15 7 19 9 22 13 -42 0
15 7 19 9 22 13 -43 0
15 7 19 9 22 13 -41 0
15 7 19 9 22 16 -44 0
15 7 19 9 22 16 -42 0
15 7 19 9 22 16 -43 0
15 7 19 9 22 16 -41 0
15 7 19 9 13 10 -44 0
15 7 19 9 13 10 -42 0
15 7 19 9 13 10 -43 0
15 7 19 9 13 10 -41 0
15 7 19 9 16 10 -44 0
15 7 19 9 16 10 -42 0
15 7 19 9 16 10 -43 0
15 7 19 9 16 10 -41 0
15 7 19 22 13 16 -44 0
15 7 19 22 13 16 -42 0
15 7 19 22 13 16 -43 0
15 7 19 22 13 16 -41 0
15 7 19 22 16 10 -44 0
15 7 19 22 16 10 -42 0
15 7 19 22 16 10 -43 0
15 7 19 22 16 10 -41 0
15 7 9 22 13 10 -44 0
15 7 9 22 13 10 -42 0
15 7 9 22 13 10 -43 0
15 7 9 22 13 10 -41 0
15 7 9 13 16 10 -44 0
15 7 9 13 16 10 -42 0
15 7 9 13 16 10 -43 0
15 7 9 13 16 10 -41 0
15 7 22 13 16 10 -44 0
15 7 22 13 16 10 -42 0
15 7 22 13 16 10 -43 0
15 7 22 13 16 10 -41 0
15 23 19 27 22 26 -57 0
15 23 19 27 22 26 -58 0
15 23 19 27 22 26 -55 0
15 23 19 27 22 26 -56 0
15 23 19 27 22 16 -57 0
15 23 19 27 22 16 -58 0
15 23 19 27 22 16 -55 0
15 23 19 27 22 16 -56 0
15 23 19 27 26 30 -57 0
15 23 19 27 26 30 -58 0
15 23 19 27 26 30 -55 0
15 23 19 27 26 30 -56 0
15 23 19 27 16 30 -57 0
15 23 19 27 16 30 -58 0
15 23 19 27 16 30 -55 0
15 23 19 27 16 30 -56 0
15 23 19 22 26 16 -57 0
15 23 19 22 26 16 -58 0
15 23 19 22 26 16 -55 0
15 23 19 22 26 16 -56 0
15 23 19 22 16 30 -57 0
15 23 19 22 16 30 -58 0
15 23 19 22 16 30 -55 0
15 23 19 22 16 30 -56 0
15 23 27 22 26 30 -57 0
15 23 27 22 26 30 -58 0
15 23 27 22 26 30 -55 0
15 23 27 22 26 30 -56 0
15 23 27 26 16 30 -57 0
15 23 27 26 16 30 -58 0
15 23 27 26 16 30 -55 0
15 23 27 26 16 30 -56 0
15 23 22 26 16 30 -57 0
15 23 22 26 16 30 -58 0
15 23 22 26 16 30 -55 0
15 23 22 26 16 30 -56 0
15 31 19 38 22 16 -59 0
15 31 19 38 22 16 -61 0
15 31 19 38 22 16 -62 0
15 31 19 38 22 16 -60 0
15 31 19 22 34 16 -59 0
15 31 19 22 34 16 -61 0
15 31 19 22 34 16 -62 0
15 31 19 22 34 16 -60 0
15 5 19 6 22 16 -20 0
15 5 19 6 22 16 -17 0
15 5 19 6 22 16 -21 0
15 5 19 6 22 16 -18 0
15 5 19 22 3 16 -20 0
15 5 19 22 3 16 -17 0
15 5 19 22 3 16 -21 0
15 5 19 22 3 16 -18 0
15 19 9 22 13 16 -44 0
15 19 9 22 13 16 -42 0
15 19 9 22 13 16 -43 0
15 19 9 22 13 16 -41 0
15 19 9 22 16 10 -44 0
15 19 9 22 16 10 -42 0
15 19 9 22 16 10 -43 0
15 19 9 22 16 10 -41 0
15 19 27 22 26 16 -57 0
15 19 27 22 26 16 -58 0
15 19 27 22 26 16 -55 0
15 19 27 22 26 16 -56 0
15 19 27 22 16 30 -57 0
15 19 27 22 16 30 -58 0
15 19 27 22 16 30 -55 0
15 19 27 22 16 30 -56 0
15 19 38 22 34 16 -59 0
15 19 38 22 34 16 -61 0
15 19 38 22 34 16 -62 0
15 19 38 22 34 16 -60 0
15 19 6 22 3 16 -20 0
15 19 6 22 3 16 -17 0
15 19 6 22 3 16 -21 0
15 19 6 22 3 16 -18 0
15 19 22 13 16 10 -44 0
15 19 22 13 16 10 -42 0
15 19 22 13 16 10 -43 0
15 19 22 13 16 10 -41 0
15 19 22 26 16 30 -57 0
15 19 22 26 16 30 -58 0
15 19 22 26 16 30 -55 0
15 19 22 26 16 30 -56 0
7 23 9 27 13 26 -45 0
7 23 9 27 13 26 -48 0
7 23 9 27 13 26 -47 0
7 23 9 27 13 26 -46 0
7 23 9 27 13 10 -45 0
7 23 9 27 13 10 -48 0
7 23 9 27 13 10 -47 0
7 23 9 27 13 10 -46 0
7 23 9 27 26 30 -45 0
7 23 9 27 26 30 -48 0
7 23 9 27 26 30 -47 0
7 23 9 27 26 30 -46 0
7 23 9 27 10 30 -45 0
7 23 9 27 10 30 -48 0
7 23 9 27 10 30 -47 0
7 23 9 27 10 30 -46 0
7 23 9 13 26 10 -45 0
7 23 9 13 26 10 -48 0
7 23 9 13 26 10 -47 0
7 23 9 13 26 10 -46 0
7 23 9 13 10 30 -45 0
7 23 9 13 10 30 -48 0
7 23 9 13 10 30 -47 0
7 23 9 13 10 30 -46 0
7 23 27 13 26 30 -45 0
7 23 27 13 26 30 -48 0
7 23 27 13 26 30 -47 0
7 23 27 13 26 30 -46 0
7 23 27 26 10 30 -45 0
7 23 27 26 10 30 -48 0
7 23 27 26 10 30 -47 0
7 23 27 26 10 30 -46 0
7 23 13 26 10 30 -45 0
7 23 13 26 10 30 -48 0
7 23 13 26 10 30 -47 0
7 23 13 26 10 30 -46 0
7 31 9 38 13 10 -51 0
7 31 9 38 13 10 -52 0
7 31 9 38 13 10 -49 0
7 31 9 38 13 10 -50 0
7 31 9 13 34 10 -51 0
7 31 9 13 34 10 -52 0
7 31 9 13 34 10 -49 0
7 31 9 13 34 10 -50 0
7 5 9 6 13 10 -12 0
7 5 9 6 13 10 -8 0
7 5 9 6 13 10 -11 0
7 5 9 6 13 10 -14 0
7 5 9 13 3 10 -12 0
7 5 9 13 3 10 -8 0
7 5 9 13 3 10 -11 0
7 5 9 13 3 10 -14 0
7 19 9 22 13 10 -44 0
7 19 9 22 13 10 -42 0
7 19 9 22 13 10 -43 0
7 19 9 22 13 10 -41 0
7 19 9 13 16 10 -44 0
7 19 9 13 16 10 -42 0
7 19 9 13 16 10 -43 0
7 19 9 13 16 10 -41 0
7 9 27 13 26 10 -45 0
7 9 27 13 26 10 -48 0
7 9 27 13 26 10 -47 0
7 9 27 13 26 10 -46 0
7 9 27 13 10 30 -45 0
7 9 27 13 10 30 -48 0
7 9 27 13 10 30 -47 0
7 9 27 13 10 30 -46 0
7 9 38 13 34 10 -51 0
7 9 38 13 34 10 -52 0
7 9 38 13 34 10 -49 0
7 9 38 13 34 10 -50 0
7 9 6 13 3 10 -12 0
7 9 6 13 3 10 -8 0
7 9 6 13 3 10 -11 0
7 9 6 13 3 10 -14 0
7 9 22 13 16 10 -44 0
7 9 22 13 16 10 -42 0
7 9 22 13 16 10 -43 0
7 9 22 13 16 10 -41 0
7 9 13 26 10 30 -45 0
7 9 13 26 10 30 -48 0
7 9 13 26 10 30 -47 0
7 9 13 26 10 30 -46 0
23 31 27 38 26 30 -68 0
23 31 27 38 26 30 -66 0
23 31 27 38 26 30 -67 0
23 31 27 38 26 30 -65 0
23 31 27 26 34 30 -68 0
23 31 27 26 34 30 -66 0
23 31 27 26 34 30 -67 0
23 31 27 26 34 30 -65 0
23 5 27 6 26 30 -25 0
23 5 27 6 26 30 -28 0
23 5 27 6 26 30 -24 0
23 5 27 6 26 30 -29 0
23 5 27 26 3 30 -25 0
23 5 27 26 3 30 -28 0
23 5 27 26 3 30 -24 0
23 5 27 26 3 30 -29 0
23 19 27 22 26 30 -57 0
23 19 27 22 26 30 -58 0
23 19 27 22 26 30 -55 0
23 19 27 22 26 30 -56 0
23 19 27 26 16 30 -57 0
23 19 27 26 16 30 -58 0
23 19 27 26 16 30 -55 0
23 19 27 26 16 30 -56 0
23 9 27 13 26 30 -45 0
23 9 27 13 26 30 -48 0
23 9 27 13 26 30 -47 0
23 9 27 13 26 30 -46 0
23 9 27 26 10 30 -45 0
23 9 27 26 10 30 -48 0
23 9 27 26 10 30 -47 0
23 9 27 26 10 30 -46 0
23 27 38 26 34 30 -68 0
23 27 38 26 34 30 -66 0
23 27 38 26 34 30 -67 0
23 27 38 26 34 30 -65 0
23 27 6 26 3 30 -25 0
23 27 6 26 3 30 -28 0
23 27 6 26 3 30 -24 0
23 27 6 26 3 30 -29 0
23 27 22 26 16 30 -57 0
23 27 22 26 16 30 -58 0
23 27 22 26 16 30 -55 0
23 27 22 26 16 30 -56 0
23 27 13 26 10 30 -45 0
23 27 13 26 10 30 -48 0
23 27 13 26 10 30 -47 0
23 27 13 26 10 30 -46 0
31 5 38 6 34 3 -33 0
31 5 38 6 34 3 -32 0
31 5 38 6 34 3 -35 0
31 5 38 6 34 3 -37 0
31 19 38 22 34 16 -59 0
31 19 38 22 34 16 -61 0
31 19 38 22 34 16 -62 0
31 19 38 22 34 16 -60 0
31 9 38 13 34 10 -51 0
31 9 38 13 34 10 -52 0
31 9 38 13 34 10 -49 0
31 9 38 13 34 10 -50 0
31 27 38 26 34 30 -68 0
31 27 38 26 34 30 -66 0
31 27 38 26 34 30 -67 0
31 27 38 26 34 30 -65 0
5 19 6 22 3 16 -20 0
5 19 6 22 3 16 -17 0
5 19 6 22 3 16 -21 0
5 19 6 22 3 16 -18 0
5 9 6 13 3 10 -12 0
5 9 6 13 3 10 -8 0
5 9 6 13 3 10 -11 0
5 9 6 13 3 10 -14 0
5 27 6 26 3 30 -25 0
5 27 6 26 3 30 -28 0
5 27 6 26 3 30 -24 0
5 27 6 26 3 30 -29 0
19 9 22 13 16 10 -44 0
19 9 22 13 16 10 -42 0
19 9 22 13 16 10 -43 0
19 9 22 13 16 10 -41 0
19 27 22 26 16 30 -57 0
19 27 22 26 16 30 -58 0
19 27 22 26 16 30 -55 0
19 27 22 26 16 30 -56 0
9 27 13 26 10 30 -45 0
9 27 13 26 10 30 -48 0
9 27 13 26 10 30 -47 0
9 27 13 26 10 30 -46 0
36 4 31 5 38 6 34 -33 0
36 4 31 5 38 6 34 -32 0
36 4 31 5 38 6 34 -35 0
36 4 31 5 38 6 34 -37 0
36 4 31 5 38 6 3 -33 0
36 4 31 5 38 6 3 -32 0
36 4 31 5 38 6 3 -35 0
36 4 31 5 38 6 3 -37 0
36 4 31 5 38 34 3 -33 0
36 4 31 5 38 34 3 -32 0
36 4 31 5 38 34 3 -35 0
36 4 31 5 38 34 3 -37 0
36 4 31 5 6 34 3 -33 0
36 4 31 5 6 34 3 -32 0
36 4 31 5 6 34 3 -35 0
36 4 31 5 6 34 3 -37 0
36 4 31 38 6 34 3 -33 0
36 4 31 38 6 34 3 -32 0
36 4 31 38 6 34 3 -35 0
36 4 31 38 6 34 3 -37 0
36 4 5 38 6 34 3 -33 0
36 4 5 38 6 34 3 -32 0
36 4 5 38 6 34 3 -35 0
36 4 5 38 6 34 3 -37 0
36 15 31 19 38 22 34 -59 0
36 15 31 19 38 22 34 -61 0
36 15 31 19 38 22 34 -62 0
36 15 31 19 38 22 34 -60 0
36 15 31 19 38 22 16 -59 0
36 15 31 19 38 22 16 -61 0
36 15 31 19 38 22 16 -62 0
36 15 31 19 38 22 16 -60 0
36 15 31 19 38 34 16 -59 0
36 15 31 19 38 34 16 -61 0
36 15 31 19 38 34 16 -62 0
36 15 31 19 38 34 16 -60 0
36 15 31 19 22 34 16 -59 0
36 15 31 19 22 34 16 -61 0
36 15 31 19 22 34 16 -62 0
36 15 31 19 22 34 16 -60 0
36 15 31 38 22 34 16 -59 0
36 15 31 38 22 34 16 -61 0
36 15 31 38 22 34 16 -62 0
36 15 31 38 22 34 16 -60 0
36 15 19 38 22 34 16 -59 0
36 15 19 38 22 34 16 -61 0
36 15 19 38 22 34 16 -62 0
36 15 19 38 22 34 16 -60 0
36 7 31 9 38 13 34 -51 0
36 7 31 9 38 13 34 -52 0
36 7 31 9 38 13 34 -49 0
36 7 31 9 38 13 34 -50 0
36 7 31 9 38 13 10 -51 0
36 7 31 9 38 13 10 -52 0
36 7 31 9 38 13 10 -49 0
36 7 31 9 38 13 10 -50 0
36 7 31 9 38 34 10 -51 0
36 7 31 9 38 34 10 -52 0
36 7 31 9 38 34 10 -49 0
36 7 31 9 38 34 10 -50 0
36 7 31 9 13 34 10 -51 0
36 7 31 9 13 34 10 -52 0
36 7 31 9 13 34 10 -49 0
36 7 31 9 13 34 10 -50 0
36 7 31 38 13 34 10 -51 0
36 7 31 38 13 34 10 -52 0
36 7 31 38 13 34 10 -49 0
36 7 31 38 13 34 10 -50 0
36 7 9 38 13 34 10 -51 0
36 7 9 38 13 34 10 -52 0
36 7 9 38 13 34 10 -49 0
36 7 9 38 13 34 10 -50 0
36 23 31 27 38 26 34 -68 0
36 23 31 27 38 26 34 -66 0
36 23 31 27 38 26 34 -67 0
36 23 31 27 38 26 34 -65 0
36 23 31 27 38 26 30 -68 0
36 23 31 27 38 26 30 -66 0
36 23 31 27 38 26 30 -67 0
36 23 31 27 38 26 30 -65 0
36 23 31 27 38 34 30 -68 0
36 23 31 27 38 34 30 -66 0
36 23 31 27 38 34 30 -67 0
36 23 31 27 38 34 30 -65 0
36 23 31 27 26 34 30 -68 0
36 23 31 27 26 34 30 -66 0
36 23 31 27 26 34 30 -67 0
36 23 31 27 26 34 30 -65 0
36 23 31 38 26 34 30 -68 0
36 23 31 38 26 34 30 -66 0
36 23 31 38 26 34 30 -67 0
36 23 31 38 26 34 30 -65 0
36 23 27 38 26 34 30 -68 0
36 23 27 38 26 34 30 -66 0
36 23 27 38 26 34 30 -67 0
36 23 27 38 26 34 30 -65 0
36 31 5 38 6 34 3 -33 0
36 31 5 38 6 34 3 -32 0
36 31 5 38 6 34 3 -35 0
36 31 5 38 6 34 3 -37 0
36 31 19 38 22 34 16 -59 0
36 31 19 38 22 34 16 -61 0
36 31 19 38 22 34 16 -62 0
36 31 19 38 22 34 16 -60 0
36 31 9 38 13 34 10 -51 0
36 31 9 38 13 34 10 -52 0
36 31 9 38 13 34 10 -49 0
36 31 9 38 13 34 10 -50 0
36 31 27 38 26 34 30 -68 0
36 31 27 38 26 34 30 -66 0
36 31 27 38 26 34 30 -67 0
36 31 27 38 26 34 30 -65 0
4 15 5 19 6 22 3 -20 0
4 15 5 19 6 22 3 -17 0
4 15 5 19 6 22 3 -21 0
4 15 5 19 6 22 3 -18 0
4 15 5 19 6 22 16 -20 0
4 15 5 19 6 22 16 -17 0
4 15 5 19 6 22 16 -21 0
4 15 5 19 6 22 16 -18 0
4 15 5 19 6 3 16 -20 0
4 15 5 19 6 3 16 -17 0
4 15 5 19 6 3 16 -21 0
4 15 5 19 6 3 16 -18 0
4 15 5 19 22 3 16 -20 0
4 15 5 19 22 3 16 -17 0
4 15 5 19 22 3 16 -21 0
4 15 5 19 22 3 16 -18 0
4 15 5 6 22 3 16 -20 0
4 15 5 6 22 3 16 -17 0
4 15 5 6 22 3 16 -21 0
4 15 5 6 22 3 16 -18 0
4 15 19 6 22 3 16 -20 0
4 15 19 6 22 3 16 -17 0
4 15 19 6 22 3 16 -21 0
4 15 19 6 22 3 16 -18 0
4 7 5 9 6 13 3 -12 0
4 7 5 9 6 13 3 -8 0
4 7 5 9 6 13 3 -11 0
4 7 5 9 6 13 3 -14 0
4 7 5 9 6 13 10 -12 0
4 7 5 9 6 13 10 -8 0
4 7 5 9 6 13 10 -11 0
4 7 5 9 6 13 10 -14 0
4 7 5 9 6 3 10 -12 0
4 7 5 9 6 3 10 -8 0
4 7 5 9 6 3 10 -11 0
4 7 5 9 6 3 10 -14 0
4 7 5 9 13 3 10 -12 0
4 7 5 9 13 3 10 -8 0
4 7 5 9 13 3 10 -11 0
4 7 5 9 13 3 10 -14 0
4 7 5 6 13 3 10 -12 0
4 7 5 6 13 3 10 -8 0
4 7 5 6 13 3 10 -11 0
4 7 5 6 13 3 10 -14 0
4 7 9 6 13 3 10 -12 0
4 7 9 6 13 3 10 -8 0
4 7 9 6 13 3 10 -11 0
4 7 9 6 13 3 10 -14 0
4 23 5 27 6 26 3 -25 0
4 23 5 27 6 26 3 -28 0
4 23 5 27 6 26 3 -24 0
4 23 5 27 6 26 3 -29 0
4 23 5 27 6 26 30 -25 0
4 23 5 27 6 26 30 -28 0
4 23 5 27 6 26 30 -24 0
4 23 5 27 6 26 30 -29 0
4 23 5 27 6 3 30 -25 0
4 23 5 27 6 3 30 -28 0
4 23 5 27 6 3 30 -24 0
4 23 5 27 6 3 30 -29 0
4 23 5 27 26 3 30 -25 0
4 23 5 27 26 3 30 -28 0
4 23 5 27 26 3 30 -24 0
4 23 5 27 26 3 30 -29 0
4 23 5 6 26 3 30 -25 0
4 23 5 6 26 3 30 -28 0
4 23 5 6 26 3 30 -24 0
4 23 5 6 26 3 30 -29 0
4 23 27 6 26 3 30 -25 0
4 23 27 6 26 3 30 -28 0
4 23 27 6 26 3 30 -24 0
4 23 27 6 26 3 30 -29 0
4 31 5 38 6 34 3 -33 0
4 31 5 38 6 34 3 -32 0
4 31 5 38 6 34 3 -35 0
4 31 5 38 6 34 3 -37 0
4 5 19 6 22 3 16 -20 0
4 5 19 6 22 3 16 -17 0
4 5 19 6 22 3 16 -21 0
4 5 19 6 22 3 16 -18 0
4 5 9 6 13 3 10 -12 0
4 5 9 6 13 3 10 -8 0
4 5 9 6 13 3 10 -11 0
4 5 9 6 13 3 10 -14 0
4 5 27 6 26 3 30 -25 0
4 5 27 6 26 3 30 -28 0
4 5 27 6 26 3 30 -24 0
4 5 27 6 26 3 30 -29 0
15 7 19 9 22 13 16 -44 0
15 7 19 9 22 13 16 -42 0
15 7 19 9 22 13 16 -43 0
15 7 19 9 22 13 16 -41 0
15 7 19 9 22 13 10 -44 0
15 7 19 9 22 13 10 -42 0
15 7 19 9 22 13 10 -43 0
15 7 19 9 22 13 10 -41 0
15 7 19 9 22 16 10 -44 0
15 7 19 9 22 16 10 -42 0
15 7 19 9 22 16 10 -43 0
15 7 19 9 22 16 10 -41 0
15 7 19 9 13 16 10 -44 0
15 7 19 9 13 16 10 -42 0
15 7 19 9 13 16 10 -43 0
15 7 19 9 13 16 10 -41 0
15 7 19 22 13 16 10 -44 0
15 7 19 22 13 16 10 -42 0
15 7 19 22 13 16 10 -43 0
15 7 19 22 13 16 10 -41 0
15 7 9 22 13 16 10 -44 0
15 7 9 22 13 16 10 -42 0
15 7 9 22 13 16 10 -43 0
15 7 9 22 13 16 10 -41 0
15 23 19 27 22 26 16 -57 0
15 23 19 27 22 26 16 -58 0
15 23 19 27 22 26 16 -55 0
15 23 19 27 22 26 16 -56 0
15 23 19 27 22 26 30 -57 0
15 23 19 27 22 26 30 -58 0
15 23 19 27 22 26 30 -55 0
15 23 19 27 22 26 30 -56 0
15 23 19 27 22 16 30 -57 0
15 23 19 27 22 16 30 -58 0
15 23 19 27 22 16 30 -55 0
15 23 19 27 22 16 30 -56 0
15 23 19 27 26 16 30 -57 0
15 23 19 27 26 16 30 -58 0
15 23 19 27 26 16 30 -55 0
15 23 19 27 26 16 30 -56 0
15 23 19 22 26 16 30 -57 0
15 23 19 22 26 16 30 -58 0
15 23 19 22 26 16 30 -55 0
15 23 19 22 26 16 30 -56 0
15 23 27 22 26 16 30 -57 0
15 23 27 22 26 16 30 -58 0
15 23 27 22 26 16 30 -55 0
15 23 27 22 26 16 30 -56 0
15 31 19 38 22 34 16 -59 0
15 31 19 38 22 34 16 -61 0
15 31 19 38 22 34 16 -62 0
15 31 19 38 22 34 16 -60 0
15 5 19 6 22 3 16 -20 0
15 5 19 6 22 3 16 -17 0
15 5 19 6 22 3 16 -21 0
15 5 19 6 22 3 16 -18 0
15 19 9 22 13 16 10 -44 0
15 19 9 22 13 16 10 -42 0
15 19 9 22 13 16 10 -43 0
15 19 9 22 13 16 10 -41 0
15 19 27 22 26 16 30 -57 0
15 19 27 22 26 16 30 -58 0
15 19 27 22 26 16 30 -55 0
15 19 27 22 26 16 30 -56 0
7 23 9 27 13 26 10 -45 0
7 23 9 27 13 26 10 -48 0
7 23 9 27 13 26 10 -47 0
7 23 9 27 13 26 10 -46 0
7 23 9 27 13 26 30 -45 0
7 23 9 27 13 26 30 -48 0
7 23 9 27 13 26 30 -47 0
7 23 9 27 13 26 30 -46 0
7 23 9 27 13 10 30 -45 0
7 23 9 27 13 10 30 -48 0
7 23 9 27 13 10 30 -47 0
7 23 9 27 13 10 30 -46 0
7 23 9 27 26 10 30 -45 0
7 23 9 27 26 10 30 -48 0
7 23 9 27 26 10 30 -47 0
7 23 9 27 26 10 30 -46 0
7 23 9 13 26 10 30 -45 0
7 23 9 13 26 10 30 -48 0
7 23 9 13 26 10 30 -47 0
7 23 9 13 26 10 30 -46 0
7 23 27 13 26 10 30 -45 0
7 23 27 13 26 10 30 -48 0
7 23 27 13 26 10 30 -47 0
7 23 27 13 26 10 30 -46 0
7 31 9 38 13 34 10 -51 0
7 31 9 38 13 34 10 -52 0
7 31 9 38 13 34 10 -49 0
7 31 9 38 13 34 10 -50 0
7 5 9 6 13 3 10 -12 0
7 5 9 6 13 3 10 -8 0
7 5 9 6 13 3 10 -11 0
7 5 9 6 13 3 10 -14 0
7 19 9 22 13 16 10 -44 0
7 19 9 22 13 16 10 -42 0
7 19 9 22 13 16 10 -43 0
7 19 9 22 13 16 10 -41 0
7 9 27 13 26 10 30 -45 0
7 9 27 13 26 10 30 -48 0
7 9 27 13 26 10 30 -47 0
7 9 27 13 26 10 30 -46 0
23 31 27 38 26 34 30 -68 0
23 31 27 38 26 34 30 -66 0
23 31 27 38 26 34 30 -67 0
23 31 27 38 26 34 30 -65 0
23 5 27 6 26 3 30 -25 0
23 5 27 6 26 3 30 -28 0
23 5 27 6 26 3 30 -24 0
23 5 27 6 26 3 30 -29 0
23 19 27 22 26 16 30 -57 0
23 19 27 22 26 16 30 -58 0
23 19 27 22 26 16 30 -55 0
23 19 27 22 26 16 30 -56 0
23 9 27 13 26 10 30 -45 0
23 9 27 13 26 10 30 -48 0
23 9 27 13 26 10 30 -47 0
23 9 27 13 26 10 30 -46 0
36 4 31 5 38 6 34 3 -33 0
36 4 31 5 38 6 34 3 -32 0
36 4 31 5 38 6 34 3 -35 0
36 4 31 5 38 6 34 3 -37 0
36 15 31 19 38 22 34 16 -59 0
36 15 31 19 38 22 34 16 -61 0
36 15 31 19 38 22 34 16 -62 0
36 15 31 19 38 22 34 16 -60 0
36 7 31 9 38 13 34 10 -51 0
36 7 31 9 38 13 34 10 -52 0
36 7 31 9 38 13 34 10 -49 0
36 7 31 9 38 13 34 10 -50 0
36 23 31 27 38 26 34 30 -68 0
36 23 31 27 38 26 34 30 -66 0
36 23 31 27 38 26 34 30 -67 0
36 23 31 27 38 26 34 30 -65 0
4 15 5 19 6 22 3 16 -20 0
4 15 5 19 6 22 3 16 -17 0
4 15 5 19 6 22 3 16 -21 0
4 15 5 19 6 22 3 16 -18 0
4 7 5 9 6 13 3 10 -12 0
4 7 5 9 6 13 3 10 -8 0
4 7 5 9 6 13 3 10 -11 0
4 7 5 9 6 13 3 10 -14 0
4 23 5 27 6 26 3 30 -25 0
4 23 5 27 6 26 3 30 -28 0
4 23 5 27 6 26 3 30 -24 0
4 23 5 27 6 26 3 30 -29 0
15 7 19 9 22 13 16 10 -44 0
15 7 19 9 22 13 16 10 -42 0
15 7 19 9 22 13 16 10 -43 0
15 7 19 9 22 13 16 10 -41 0
15 23 19 27 22 26 16 30 -57 0
15 23 19 27 22 26 16 30 -58 0
15 23 19 27 22 26 16 30 -55 0
15 23 19 27 22 26 16 30 -56 0
7 23 9 27 13 26 10 30 -45 0
7 23 9 27 13 26 10 30 -48 0
7 23 9 27 13 26 10 30 -47 0
7 23 9 27 13 26 10 30 -46 0
