c E1(2,2) U2(2) U4(2) U3(2) U1(2) E2(2,2) E1(2,5) U1(5) U3(5) U2(5) E1(5,2) E2(2,5) U4(5) E2(5,2) E2(4,2) U1(4) U2(4) E2(2,4) U4(4) E1(4,2) U3(4) E1(2,4) U1(1) U2(1) E1(1,2) E1(2,1) U4(1) E2(1,2) U3(1) E2(2,1) U2(0) E2(0,2) U3(0) E1(0,2) U1(0) U4(0) E2(2,0) E1(2,0) E2(3,2) U4(3) E1(3,2) E1(2,3) E2(2,3) U3(3) U1(3) U2(3) E1(5,5) E2(5,5) E2(5,4) E2(4,5) E1(4,5) E1(5,4) E2(5,1) E1(5,1) E2(1,5) E1(1,5) E2(5,0) E1(0,5) E2(0,5) E1(5,0) E1(3,5) E2(5,3) E2(3,5) E1(5,3) E1(4,4) E2(4,4) E2(4,1) E1(4,1) E1(1,4) E2(1,4) E2(4,0) E2(0,4) E1(0,4) E1(4,0) E1(3,4) E2(4,3) E2(3,4) E1(4,3) E2(1,1) E1(1,1) E2(0,1) E1(1,0) E2(1,0) E1(0,1) E1(1,3) E2(1,3) E1(3,1) E2(3,1) E1(0,0) E2(0,0) E1(3,0) E1(0,3) E2(0,3) E2(3,0) E1(3,3) E2(3,3)
c 1 2 3 4 5 6 7 8 9 10 11 12 13 14 15 16 17 18 19 20 21 22 23 24 25 26 27 28 29 30 31 32 33 34 35 36 37 38 39 40 41 42 43 44 45 46 47 48 49 50 51 52 53 54 55 56 57 58 59 60 61 62 63 64 65 66 67 68 69 70 71 72 73 74 75 76 77 78 79 80 81 82 83 84 85 86 87 88 89 90 91 92 93 94 95 96
p cnf 96 2328
-89 0
-80 0
-1 0
-95 0
-65 0
-47 0
-90 0
-79 0
-6 0
-96 0
-66 0
-48 0
89 -90 0
84 -83 0
34 -37 0
92 -94 0
73 -71 0
58 -57 0
82 -81 0
80 -79 0
25 -30 0
85 -88 0
69 -67 0
56 -53 0
38 -32 0
26 -28 0
1 -6 0
42 -39 0
22 -15 0
7 -14 0
91 -93 0
87 -86 0
41 -43 0
95 -96 0
75 -76 0
61 -62 0
74 -72 0
68 -70 0
20 -18 0
78 -77 0
65 -66 0
51 -49 0
60 -59 0
54 -55 0
11 -12 0
64 -63 0
52 -50 0
47 -48 0
90 -89 0
81 -82 0
32 -38 0
93 -91 0
72 -74 0
59 -60 0
83 -84 0
79 -80 0
28 -26 0
86 -87 0
70 -68 0
55 -54 0
37 -34 0
30 -25 0
6 -1 0
43 -41 0
18 -20 0
12 -11 0
94 -92 0
88 -85 0
39 -42 0
96 -95 0
77 -78 0
63 -64 0
71 -73 0
67 -69 0
15 -22 0
76 -75 0
66 -65 0
50 -52 0
57 -58 0
53 -56 0
14 -7 0
62 -61 0
49 -51 0
48 -47 0
-84 -82 0
-34 -38 0
-92 -91 0
-73 -74 0
-58 -60 0
-25 -26 0
-85 -87 0
-69 -68 0
-56 -54 0
-42 -41 0
-22 -20 0
-7 -11 0
-75 -78 0
-61 -64 0
-51 -52 0
-81 -83 0
-32 -37 0
-93 -94 0
-72 -71 0
-59 -57 0
-28 -30 0
-86 -88 0
-70 -67 0
-55 -53 0
-43 -39 0
-18 -15 0
-12 -14 0
-77 -76 0
-63 -62 0
-50 -49 0
-35 -31 0
-35 -33 0
-35 -36 0
-23 -24 0
-23 -29 0
-23 -27 0
-5 -2 0
-5 -4 0
-5 -3 0
-45 -46 0
-45 -44 0
-45 -40 0
-16 -17 0
-16 -21 0
-16 -19 0
-8 -10 0
-8 -9 0
-8 -13 0
-31 -33 0
-31 -36 0
-24 -29 0
-24 -27 0
-2 -4 0
-2 -3 0
-46 -44 0
-46 -40 0
-17 -21 0
-17 -19 0
-10 -9 0
-10 -13 0
-33 -36 0
-29 -27 0
-4 -3 0
-44 -40 0
-21 -19 0
-9 -13 0
35 31 33 36 0
23 24 29 27 0
5 2 4 3 0
45 46 44 40 0
16 17 21 19 0
8 10 9 13 0
35 31 33 -89 0
35 31 33 -90 0
35 31 36 -89 0
35 31 36 -90 0
35 33 36 -89 0
35 33 36 -90 0
23 24 29 -80 0
23 24 29 -79 0
23 24 27 -80 0
23 24 27 -79 0
23 29 27 -80 0
23 29 27 -79 0
5 2 4 -1 0
5 2 4 -6 0
5 2 3 -1 0
5 2 3 -6 0
5 4 3 -1 0
5 4 3 -6 0
45 46 44 -95 0
45 46 44 -96 0
45 46 40 -95 0
45 46 40 -96 0
45 44 40 -95 0
45 44 40 -96 0
16 17 21 -65 0
16 17 21 -66 0
16 17 19 -65 0
16 17 19 -66 0
16 21 19 -65 0
16 21 19 -66 0
8 10 9 -47 0
8 10 9 -48 0
8 10 13 -47 0
8 10 13 -48 0
8 9 13 -47 0
8 9 13 -48 0
31 33 36 -89 0
31 33 36 -90 0
24 29 27 -80 0
24 29 27 -79 0
2 4 3 -1 0
2 4 3 -6 0
46 44 40 -95 0
46 44 40 -96 0
17 21 19 -65 0
17 21 19 -66 0
10 9 13 -47 0
10 9 13 -48 0
35 31 33 36 -89 0
35 31 33 36 -84 0
35 31 33 36 -34 0
35 31 33 36 -92 0
35 31 33 36 -73 0
35 31 33 36 -58 0
35 31 33 36 -82 0
35 31 33 36 -38 0
35 31 33 36 -91 0
35 31 33 36 -74 0
35 31 33 36 -60 0
35 31 33 36 -90 0
35 31 33 36 -81 0
35 31 33 36 -32 0
35 31 33 36 -93 0
35 31 33 36 -72 0
35 31 33 36 -59 0
35 31 33 36 -83 0
35 31 33 36 -37 0
35 31 33 36 -94 0
35 31 33 36 -71 0
35 31 33 36 -57 0
23 24 29 27 -84 0
23 24 29 27 -82 0
23 24 29 27 -80 0
23 24 29 27 -25 0
23 24 29 27 -85 0
23 24 29 27 -69 0
23 24 29 27 -56 0
23 24 29 27 -26 0
23 24 29 27 -87 0
23 24 29 27 -68 0
23 24 29 27 -54 0
23 24 29 27 -81 0
23 24 29 27 -83 0
23 24 29 27 -79 0
23 24 29 27 -28 0
23 24 29 27 -86 0
23 24 29 27 -70 0
23 24 29 27 -55 0
23 24 29 27 -30 0
23 24 29 27 -88 0
23 24 29 27 -67 0
23 24 29 27 -53 0
5 2 4 3 -34 0
5 2 4 3 -25 0
5 2 4 3 -38 0
5 2 4 3 -26 0
5 2 4 3 -1 0
5 2 4 3 -42 0
5 2 4 3 -22 0
5 2 4 3 -7 0
5 2 4 3 -41 0
5 2 4 3 -20 0
5 2 4 3 -11 0
5 2 4 3 -32 0
5 2 4 3 -28 0
5 2 4 3 -37 0
5 2 4 3 -30 0
5 2 4 3 -6 0
5 2 4 3 -43 0
5 2 4 3 -18 0
5 2 4 3 -12 0
5 2 4 3 -39 0
5 2 4 3 -15 0
5 2 4 3 -14 0
45 46 44 40 -92 0
45 46 44 40 -85 0
45 46 44 40 -42 0
45 46 44 40 -91 0
45 46 44 40 -87 0
45 46 44 40 -41 0
45 46 44 40 -95 0
45 46 44 40 -75 0
45 46 44 40 -61 0
45 46 44 40 -78 0
45 46 44 40 -64 0
45 46 44 40 -93 0
45 46 44 40 -86 0
45 46 44 40 -43 0
45 46 44 40 -94 0
45 46 44 40 -88 0
45 46 44 40 -39 0
45 46 44 40 -96 0
45 46 44 40 -77 0
45 46 44 40 -63 0
45 46 44 40 -76 0
45 46 44 40 -62 0
16 17 21 19 -73 0
16 17 21 19 -69 0
16 17 21 19 -22 0
16 17 21 19 -75 0
16 17 21 19 -74 0
16 17 21 19 -68 0
16 17 21 19 -20 0
16 17 21 19 -78 0
16 17 21 19 -65 0
16 17 21 19 -51 0
16 17 21 19 -52 0
16 17 21 19 -72 0
16 17 21 19 -70 0
16 17 21 19 -18 0
16 17 21 19 -77 0
16 17 21 19 -71 0
16 17 21 19 -67 0
16 17 21 19 -15 0
16 17 21 19 -76 0
16 17 21 19 -66 0
16 17 21 19 -50 0
16 17 21 19 -49 0
8 10 9 13 -58 0
8 10 9 13 -56 0
8 10 9 13 -7 0
8 10 9 13 -61 0
8 10 9 13 -51 0
8 10 9 13 -60 0
8 10 9 13 -54 0
8 10 9 13 -11 0
8 10 9 13 -64 0
8 10 9 13 -52 0
8 10 9 13 -47 0
8 10 9 13 -59 0
8 10 9 13 -55 0
8 10 9 13 -12 0
8 10 9 13 -63 0
8 10 9 13 -50 0
8 10 9 13 -57 0
8 10 9 13 -53 0
8 10 9 13 -14 0
8 10 9 13 -62 0
8 10 9 13 -49 0
8 10 9 13 -48 0
89 84 34 92 73 58 0
82 80 25 85 69 56 0
38 26 1 42 22 7 0
91 87 41 95 75 61 0
74 68 20 78 65 51 0
60 54 11 64 52 47 0
90 81 32 93 72 59 0
83 79 28 86 70 55 0
37 30 6 43 18 12 0
94 88 39 96 77 63 0
71 67 15 76 66 50 0
57 53 14 62 49 48 0
35 23 31 33 36 -84 0
35 23 31 33 36 -82 0
35 23 31 33 36 -81 0
35 23 31 33 36 -83 0
35 23 24 29 27 -84 0
35 23 24 29 27 -82 0
35 23 24 29 27 -81 0
35 23 24 29 27 -83 0
35 5 31 33 36 -34 0
35 5 31 33 36 -38 0
35 5 31 33 36 -32 0
35 5 31 33 36 -37 0
35 5 2 4 3 -34 0
35 5 2 4 3 -38 0
35 5 2 4 3 -32 0
35 5 2 4 3 -37 0
35 45 31 33 36 -92 0
35 45 31 33 36 -91 0
35 45 31 33 36 -93 0
35 45 31 33 36 -94 0
35 45 46 44 40 -92 0
35 45 46 44 40 -91 0
35 45 46 44 40 -93 0
35 45 46 44 40 -94 0
35 16 31 33 36 -73 0
35 16 31 33 36 -74 0
35 16 31 33 36 -72 0
35 16 31 33 36 -71 0
35 16 17 21 19 -73 0
35 16 17 21 19 -74 0
35 16 17 21 19 -72 0
35 16 17 21 19 -71 0
35 8 31 33 36 -58 0
35 8 31 33 36 -60 0
35 8 31 33 36 -59 0
35 8 31 33 36 -57 0
35 8 10 9 13 -58 0
35 8 10 9 13 -60 0
35 8 10 9 13 -59 0
35 8 10 9 13 -57 0
35 31 24 33 36 -84 0
35 31 24 33 36 -82 0
35 31 24 33 36 -81 0
35 31 24 33 36 -83 0
35 31 2 33 36 -34 0
35 31 2 33 36 -38 0
35 31 2 33 36 -32 0
35 31 2 33 36 -37 0
35 31 46 33 36 -92 0
35 31 46 33 36 -91 0
35 31 46 33 36 -93 0
35 31 46 33 36 -94 0
35 31 17 33 36 -73 0
35 31 17 33 36 -74 0
35 31 17 33 36 -72 0
35 31 17 33 36 -71 0
35 31 10 33 36 -58 0
35 31 10 33 36 -60 0
35 31 10 33 36 -59 0
35 31 10 33 36 -57 0
35 31 33 29 36 -84 0
35 31 33 29 36 -82 0
35 31 33 29 36 -81 0
35 31 33 29 36 -83 0
35 31 33 4 36 -34 0
35 31 33 4 36 -38 0
35 31 33 4 36 -32 0
35 31 33 4 36 -37 0
35 31 33 44 36 -92 0
35 31 33 44 36 -91 0
35 31 33 44 36 -93 0
35 31 33 44 36 -94 0
35 31 33 21 36 -73 0
35 31 33 21 36 -74 0
35 31 33 21 36 -72 0
35 31 33 21 36 -71 0
35 31 33 9 36 -58 0
35 31 33 9 36 -60 0
35 31 33 9 36 -59 0
35 31 33 9 36 -57 0
35 31 33 36 27 -84 0
35 31 33 36 27 -82 0
35 31 33 36 27 -81 0
35 31 33 36 27 -83 0
35 31 33 36 3 -34 0
35 31 33 36 3 -38 0
35 31 33 36 3 -32 0
35 31 33 36 3 -37 0
35 31 33 36 40 -92 0
35 31 33 36 40 -91 0
35 31 33 36 40 -93 0
35 31 33 36 40 -94 0
35 31 33 36 19 -73 0
35 31 33 36 19 -74 0
35 31 33 36 19 -72 0
35 31 33 36 19 -71 0
35 31 33 36 13 -58 0
35 31 33 36 13 -60 0
35 31 33 36 13 -59 0
35 31 33 36 13 -57 0
23 5 24 29 27 -25 0
23 5 24 29 27 -26 0
23 5 24 29 27 -28 0
23 5 24 29 27 -30 0
23 5 2 4 3 -25 0
23 5 2 4 3 -26 0
23 5 2 4 3 -28 0
23 5 2 4 3 -30 0
23 45 24 29 27 -85 0
23 45 24 29 27 -87 0
23 45 24 29 27 -86 0
23 45 24 29 27 -88 0
23 45 46 44 40 -85 0
23 45 46 44 40 -87 0
23 45 46 44 40 -86 0
23 45 46 44 40 -88 0
23 16 24 29 27 -69 0
23 16 24 29 27 -68 0
23 16 24 29 27 -70 0
23 16 24 29 27 -67 0
23 16 17 21 19 -69 0
23 16 17 21 19 -68 0
23 16 17 21 19 -70 0
23 16 17 21 19 -67 0
23 8 24 29 27 -56 0
23 8 24 29 27 -54 0
23 8 24 29 27 -55 0
23 8 24 29 27 -53 0
23 8 10 9 13 -56 0
23 8 10 9 13 -54 0
23 8 10 9 13 -55 0
23 8 10 9 13 -53 0
23 31 24 29 27 -84 0
23 31 24 29 27 -82 0
23 31 24 29 27 -81 0
23 31 24 29 27 -83 0
23 24 2 29 27 -25 0
23 24 2 29 27 -26 0
23 24 2 29 27 -28 0
23 24 2 29 27 -30 0
23 24 46 29 27 -85 0
23 24 46 29 27 -87 0
23 24 46 29 27 -86 0
23 24 46 29 27 -88 0
23 24 17 29 27 -69 0
23 24 17 29 27 -68 0
23 24 17 29 27 -70 0
23 24 17 29 27 -67 0
23 24 10 29 27 -56 0
23 24 10 29 27 -54 0
23 24 10 29 27 -55 0
23 24 10 29 27 -53 0
23 24 33 29 27 -84 0
23 24 33 29 27 -82 0
23 24 33 29 27 -81 0
23 24 33 29 27 -83 0
23 24 29 4 27 -25 0
23 24 29 4 27 -26 0
23 24 29 4 27 -28 0
23 24 29 4 27 -30 0
23 24 29 44 27 -85 0
23 24 29 44 27 -87 0
23 24 29 44 27 -86 0
23 24 29 44 27 -88 0
23 24 29 21 27 -69 0
23 24 29 21 27 -68 0
23 24 29 21 27 -70 0
23 24 29 21 27 -67 0
23 24 29 9 27 -56 0
23 24 29 9 27 -54 0
23 24 29 9 27 -55 0
23 24 29 9 27 -53 0
23 24 29 36 27 -84 0
23 24 29 36 27 -82 0
23 24 29 36 27 -81 0
23 24 29 36 27 -83 0
23 24 29 27 3 -25 0
23 24 29 27 3 -26 0
23 24 29 27 3 -28 0
23 24 29 27 3 -30 0
23 24 29 27 40 -85 0
23 24 29 27 40 -87 0
23 24 29 27 40 -86 0
23 24 29 27 40 -88 0
23 24 29 27 19 -69 0
23 24 29 27 19 -68 0
23 24 29 27 19 -70 0
23 24 29 27 19 -67 0
23 24 29 27 13 -56 0
23 24 29 27 13 -54 0
23 24 29 27 13 -55 0
23 24 29 27 13 -53 0
5 45 2 4 3 -42 0
5 45 2 4 3 -41 0
5 45 2 4 3 -43 0
5 45 2 4 3 -39 0
5 45 46 44 40 -42 0
5 45 46 44 40 -41 0
5 45 46 44 40 -43 0
5 45 46 44 40 -39 0
5 16 2 4 3 -22 0
5 16 2 4 3 -20 0
5 16 2 4 3 -18 0
5 16 2 4 3 -15 0
5 16 17 21 19 -22 0
5 16 17 21 19 -20 0
5 16 17 21 19 -18 0
5 16 17 21 19 -15 0
5 8 2 4 3 -7 0
5 8 2 4 3 -11 0
5 8 2 4 3 -12 0
5 8 2 4 3 -14 0
5 8 10 9 13 -7 0
5 8 10 9 13 -11 0
5 8 10 9 13 -12 0
5 8 10 9 13 -14 0
5 31 2 4 3 -34 0
5 31 2 4 3 -38 0
5 31 2 4 3 -32 0
5 31 2 4 3 -37 0
5 24 2 4 3 -25 0
5 24 2 4 3 -26 0
5 24 2 4 3 -28 0
5 24 2 4 3 -30 0
5 2 46 4 3 -42 0
5 2 46 4 3 -41 0
5 2 46 4 3 -43 0
5 2 46 4 3 -39 0
5 2 17 4 3 -22 0
5 2 17 4 3 -20 0
5 2 17 4 3 -18 0
5 2 17 4 3 -15 0
5 2 10 4 3 -7 0
5 2 10 4 3 -11 0
5 2 10 4 3 -12 0
5 2 10 4 3 -14 0
5 2 33 4 3 -34 0
5 2 33 4 3 -38 0
5 2 33 4 3 -32 0
5 2 33 4 3 -37 0
5 2 29 4 3 -25 0
5 2 29 4 3 -26 0
5 2 29 4 3 -28 0
5 2 29 4 3 -30 0
5 2 4 44 3 -42 0
5 2 4 44 3 -41 0
5 2 4 44 3 -43 0
5 2 4 44 3 -39 0
5 2 4 21 3 -22 0
5 2 4 21 3 -20 0
5 2 4 21 3 -18 0
5 2 4 21 3 -15 0
5 2 4 9 3 -7 0
5 2 4 9 3 -11 0
5 2 4 9 3 -12 0
5 2 4 9 3 -14 0
5 2 4 36 3 -34 0
5 2 4 36 3 -38 0
5 2 4 36 3 -32 0
5 2 4 36 3 -37 0
5 2 4 27 3 -25 0
5 2 4 27 3 -26 0
5 2 4 27 3 -28 0
5 2 4 27 3 -30 0
5 2 4 3 40 -42 0
5 2 4 3 40 -41 0
5 2 4 3 40 -43 0
5 2 4 3 40 -39 0
5 2 4 3 19 -22 0
5 2 4 3 19 -20 0
5 2 4 3 19 -18 0
5 2 4 3 19 -15 0
5 2 4 3 13 -7 0
5 2 4 3 13 -11 0
5 2 4 3 13 -12 0
5 2 4 3 13 -14 0
45 16 46 44 40 -75 0
45 16 46 44 40 -78 0
45 16 46 44 40 -77 0
45 16 46 44 40 -76 0
45 16 17 21 19 -75 0
45 16 17 21 19 -78 0
45 16 17 21 19 -77 0
45 16 17 21 19 -76 0
45 8 46 44 40 -61 0
45 8 46 44 40 -64 0
45 8 46 44 40 -63 0
45 8 46 44 40 -62 0
45 8 10 9 13 -61 0
45 8 10 9 13 -64 0
45 8 10 9 13 -63 0
45 8 10 9 13 -62 0
45 31 46 44 40 -92 0
45 31 46 44 40 -91 0
45 31 46 44 40 -93 0
45 31 46 44 40 -94 0
45 24 46 44 40 -85 0
45 24 46 44 40 -87 0
45 24 46 44 40 -86 0
45 24 46 44 40 -88 0
45 2 46 44 40 -42 0
45 2 46 44 40 -41 0
45 2 46 44 40 -43 0
45 2 46 44 40 -39 0
45 46 17 44 40 -75 0
45 46 17 44 40 -78 0
45 46 17 44 40 -77 0
45 46 17 44 40 -76 0
45 46 10 44 40 -61 0
45 46 10 44 40 -64 0
45 46 10 44 40 -63 0
45 46 10 44 40 -62 0
45 46 33 44 40 -92 0
45 46 33 44 40 -91 0
45 46 33 44 40 -93 0
45 46 33 44 40 -94 0
45 46 29 44 40 -85 0
45 46 29 44 40 -87 0
45 46 29 44 40 -86 0
45 46 29 44 40 -88 0
45 46 4 44 40 -42 0
45 46 4 44 40 -41 0
45 46 4 44 40 -43 0
45 46 4 44 40 -39 0
45 46 44 21 40 -75 0
45 46 44 21 40 -78 0
45 46 44 21 40 -77 0
45 46 44 21 40 -76 0
45 46 44 9 40 -61 0
45 46 44 9 40 -64 0
45 46 44 9 40 -63 0
45 46 44 9 40 -62 0
45 46 44 36 40 -92 0
45 46 44 36 40 -91 0
45 46 44 36 40 -93 0
45 46 44 36 40 -94 0
45 46 44 27 40 -85 0
45 46 44 27 40 -87 0
45 46 44 27 40 -86 0
45 46 44 27 40 -88 0
45 46 44 3 40 -42 0
45 46 44 3 40 -41 0
45 46 44 3 40 -43 0
45 46 44 3 40 -39 0
45 46 44 40 19 -75 0
45 46 44 40 19 -78 0
45 46 44 40 19 -77 0
45 46 44 40 19 -76 0
45 46 44 40 13 -61 0
45 46 44 40 13 -64 0
45 46 44 40 13 -63 0
45 46 44 40 13 -62 0
16 8 17 21 19 -51 0
16 8 17 21 19 -52 0
16 8 17 21 19 -50 0
16 8 17 21 19 -49 0
16 8 10 9 13 -51 0
16 8 10 9 13 -52 0
16 8 10 9 13 -50 0
16 8 10 9 13 -49 0
16 31 17 21 19 -73 0
16 31 17 21 19 -74 0
16 31 17 21 19 -72 0
16 31 17 21 19 -71 0
16 24 17 21 19 -69 0
16 24 17 21 19 -68 0
16 24 17 21 19 -70 0
16 24 17 21 19 -67 0
16 2 17 21 19 -22 0
16 2 17 21 19 -20 0
16 2 17 21 19 -18 0
16 2 17 21 19 -15 0
16 46 17 21 19 -75 0
16 46 17 21 19 -78 0
16 46 17 21 19 -77 0
16 46 17 21 19 -76 0
16 17 10 21 19 -51 0
16 17 10 21 19 -52 0
16 17 10 21 19 -50 0
16 17 10 21 19 -49 0
16 17 33 21 19 -73 0
16 17 33 21 19 -74 0
16 17 33 21 19 -72 0
16 17 33 21 19 -71 0
16 17 29 21 19 -69 0
16 17 29 21 19 -68 0
16 17 29 21 19 -70 0
16 17 29 21 19 -67 0
16 17 4 21 19 -22 0
16 17 4 21 19 -20 0
16 17 4 21 19 -18 0
16 17 4 21 19 -15 0
16 17 44 21 19 -75 0
16 17 44 21 19 -78 0
16 17 44 21 19 -77 0
16 17 44 21 19 -76 0
16 17 21 9 19 -51 0
16 17 21 9 19 -52 0
16 17 21 9 19 -50 0
16 17 21 9 19 -49 0
16 17 21 36 19 -73 0
16 17 21 36 19 -74 0
16 17 21 36 19 -72 0
16 17 21 36 19 -71 0
16 17 21 27 19 -69 0
16 17 21 27 19 -68 0
16 17 21 27 19 -70 0
16 17 21 27 19 -67 0
16 17 21 3 19 -22 0
16 17 21 3 19 -20 0
16 17 21 3 19 -18 0
16 17 21 3 19 -15 0
16 17 21 40 19 -75 0
16 17 21 40 19 -78 0
16 17 21 40 19 -77 0
16 17 21 40 19 -76 0
16 17 21 19 13 -51 0
16 17 21 19 13 -52 0
16 17 21 19 13 -50 0
16 17 21 19 13 -49 0
8 31 10 9 13 -58 0
8 31 10 9 13 -60 0
8 31 10 9 13 -59 0
8 31 10 9 13 -57 0
8 24 10 9 13 -56 0
8 24 10 9 13 -54 0
8 24 10 9 13 -55 0
8 24 10 9 13 -53 0
8 2 10 9 13 -7 0
8 2 10 9 13 -11 0
8 2 10 9 13 -12 0
8 2 10 9 13 -14 0
8 46 10 9 13 -61 0
8 46 10 9 13 -64 0
8 46 10 9 13 -63 0
8 46 10 9 13 -62 0
8 17 10 9 13 -51 0
8 17 10 9 13 -52 0
8 17 10 9 13 -50 0
8 17 10 9 13 -49 0
8 10 33 9 13 -58 0
8 10 33 9 13 -60 0
8 10 33 9 13 -59 0
8 10 33 9 13 -57 0
8 10 29 9 13 -56 0
8 10 29 9 13 -54 0
8 10 29 9 13 -55 0
8 10 29 9 13 -53 0
8 10 4 9 13 -7 0
8 10 4 9 13 -11 0
8 10 4 9 13 -12 0
8 10 4 9 13 -14 0
8 10 44 9 13 -61 0
8 10 44 9 13 -64 0
8 10 44 9 13 -63 0
8 10 44 9 13 -62 0
8 10 21 9 13 -51 0
8 10 21 9 13 -52 0
8 10 21 9 13 -50 0
8 10 21 9 13 -49 0
8 10 9 36 13 -58 0
8 10 9 36 13 -60 0
8 10 9 36 13 -59 0
8 10 9 36 13 -57 0
8 10 9 27 13 -56 0
8 10 9 27 13 -54 0
8 10 9 27 13 -55 0
8 10 9 27 13 -53 0
8 10 9 3 13 -7 0
8 10 9 3 13 -11 0
8 10 9 3 13 -12 0
8 10 9 3 13 -14 0
8 10 9 40 13 -61 0
8 10 9 40 13 -64 0
8 10 9 40 13 -63 0
8 10 9 40 13 -62 0
8 10 9 19 13 -51 0
8 10 9 19 13 -52 0
8 10 9 19 13 -50 0
8 10 9 19 13 -49 0
35 23 31 24 33 29 -84 0
35 23 31 24 33 29 -82 0
35 23 31 24 33 29 -81 0
35 23 31 24 33 29 -83 0
35 23 31 24 33 36 -84 0
35 23 31 24 33 36 -82 0
35 23 31 24 33 36 -81 0
35 23 31 24 33 36 -83 0
35 23 31 24 29 27 -84 0
35 23 31 24 29 27 -82 0
35 23 31 24 29 27 -81 0
35 23 31 24 29 27 -83 0
35 23 31 24 36 27 -84 0
35 23 31 24 36 27 -82 0
35 23 31 24 36 27 -81 0
35 23 31 24 36 27 -83 0
35 23 31 33 29 36 -84 0
35 23 31 33 29 36 -82 0
35 23 31 33 29 36 -81 0
35 23 31 33 29 36 -83 0
35 23 31 33 36 27 -84 0
35 23 31 33 36 27 -82 0
35 23 31 33 36 27 -81 0
35 23 31 33 36 27 -83 0
35 23 24 33 29 27 -84 0
35 23 24 33 29 27 -82 0
35 23 24 33 29 27 -81 0
35 23 24 33 29 27 -83 0
35 23 24 29 36 27 -84 0
35 23 24 29 36 27 -82 0
35 23 24 29 36 27 -81 0
35 23 24 29 36 27 -83 0
35 23 33 29 36 27 -84 0
35 23 33 29 36 27 -82 0
35 23 33 29 36 27 -81 0
35 23 33 29 36 27 -83 0
35 5 31 2 33 4 -34 0
35 5 31 2 33 4 -38 0
35 5 31 2 33 4 -32 0
35 5 31 2 33 4 -37 0
35 5 31 2 33 36 -34 0
35 5 31 2 33 36 -38 0
35 5 31 2 33 36 -32 0
35 5 31 2 33 36 -37 0
35 5 31 2 4 3 -34 0
35 5 31 2 4 3 -38 0
35 5 31 2 4 3 -32 0
35 5 31 2 4 3 -37 0
35 5 31 2 36 3 -34 0
35 5 31 2 36 3 -38 0
35 5 31 2 36 3 -32 0
35 5 31 2 36 3 -37 0
35 5 31 33 4 36 -34 0
35 5 31 33 4 36 -38 0
35 5 31 33 4 36 -32 0
35 5 31 33 4 36 -37 0
35 5 31 33 36 3 -34 0
35 5 31 33 36 3 -38 0
35 5 31 33 36 3 -32 0
35 5 31 33 36 3 -37 0
35 5 2 33 4 3 -34 0
35 5 2 33 4 3 -38 0
35 5 2 33 4 3 -32 0
35 5 2 33 4 3 -37 0
35 5 2 4 36 3 -34 0
35 5 2 4 36 3 -38 0
35 5 2 4 36 3 -32 0
35 5 2 4 36 3 -37 0
35 5 33 4 36 3 -34 0
35 5 33 4 36 3 -38 0
35 5 33 4 36 3 -32 0
35 5 33 4 36 3 -37 0
35 45 31 46 33 44 -92 0
35 45 31 46 33 44 -91 0
35 45 31 46 33 44 -93 0
35 45 31 46 33 44 -94 0
35 45 31 46 33 36 -92 0
35 45 31 46 33 36 -91 0
35 45 31 46 33 36 -93 0
35 45 31 46 33 36 -94 0
35 45 31 46 44 40 -92 0
35 45 31 46 44 40 -91 0
35 45 31 46 44 40 -93 0
35 45 31 46 44 40 -94 0
35 45 31 46 36 40 -92 0
35 45 31 46 36 40 -91 0
35 45 31 46 36 40 -93 0
35 45 31 46 36 40 -94 0
35 45 31 33 44 36 -92 0
35 45 31 33 44 36 -91 0
35 45 31 33 44 36 -93 0
35 45 31 33 44 36 -94 0
35 45 31 33 36 40 -92 0
35 45 31 33 36 40 -91 0
35 45 31 33 36 40 -93 0
35 45 31 33 36 40 -94 0
35 45 46 33 44 40 -92 0
35 45 46 33 44 40 -91 0
35 45 46 33 44 40 -93 0
35 45 46 33 44 40 -94 0
35 45 46 44 36 40 -92 0
35 45 46 44 36 40 -91 0
35 45 46 44 36 40 -93 0
35 45 46 44 36 40 -94 0
35 45 33 44 36 40 -92 0
35 45 33 44 36 40 -91 0
35 45 33 44 36 40 -93 0
35 45 33 44 36 40 -94 0
35 16 31 17 33 21 -73 0
35 16 31 17 33 21 -74 0
35 16 31 17 33 21 -72 0
35 16 31 17 33 21 -71 0
35 16 31 17 33 36 -73 0
35 16 31 17 33 36 -74 0
35 16 31 17 33 36 -72 0
35 16 31 17 33 36 -71 0
35 16 31 17 21 19 -73 0
35 16 31 17 21 19 -74 0
35 16 31 17 21 19 -72 0
35 16 31 17 21 19 -71 0
35 16 31 17 36 19 -73 0
35 16 31 17 36 19 -74 0
35 16 31 17 36 19 -72 0
35 16 31 17 36 19 -71 0
35 16 31 33 21 36 -73 0
35 16 31 33 21 36 -74 0
35 16 31 33 21 36 -72 0
35 16 31 33 21 36 -71 0
35 16 31 33 36 19 -73 0
35 16 31 33 36 19 -74 0
35 16 31 33 36 19 -72 0
35 16 31 33 36 19 -71 0
35 16 17 33 21 19 -73 0
35 16 17 33 21 19 -74 0
35 16 17 33 21 19 -72 0
35 16 17 33 21 19 -71 0
35 16 17 21 36 19 -73 0
35 16 17 21 36 19 -74 0
35 16 17 21 36 19 -72 0
35 16 17 21 36 19 -71 0
35 16 33 21 36 19 -73 0
35 16 33 21 36 19 -74 0
35 16 33 21 36 19 -72 0
35 16 33 21 36 19 -71 0
35 8 31 10 33 9 -58 0
35 8 31 10 33 9 -60 0
35 8 31 10 33 9 -59 0
35 8 31 10 33 9 -57 0
35 8 31 10 33 36 -58 0
35 8 31 10 33 36 -60 0
35 8 31 10 33 36 -59 0
35 8 31 10 33 36 -57 0
35 8 31 10 9 13 -58 0
35 8 31 10 9 13 -60 0
35 8 31 10 9 13 -59 0
35 8 31 10 9 13 -57 0
35 8 31 10 36 13 -58 0
35 8 31 10 36 13 -60 0
35 8 31 10 36 13 -59 0
35 8 31 10 36 13 -57 0
35 8 31 33 9 36 -58 0
35 8 31 33 9 36 -60 0
35 8 31 33 9 36 -59 0
35 8 31 33 9 36 -57 0
35 8 31 33 36 13 -58 0
35 8 31 33 36 13 -60 0
35 8 31 33 36 13 -59 0
35 8 31 33 36 13 -57 0
35 8 10 33 9 13 -58 0
35 8 10 33 9 13 -60 0
35 8 10 33 9 13 -59 0
35 8 10 33 9 13 -57 0
35 8 10 9 36 13 -58 0
35 8 10 9 36 13 -60 0
35 8 10 9 36 13 -59 0
35 8 10 9 36 13 -57 0
35 8 33 9 36 13 -58 0
35 8 33 9 36 13 -60 0
35 8 33 9 36 13 -59 0
35 8 33 9 36 13 -57 0
35 31 24 33 29 36 -84 0
35 31 24 33 29 36 -82 0
35 31 24 33 29 36 -81 0
35 31 24 33 29 36 -83 0
35 31 24 33 36 27 -84 0
35 31 24 33 36 27 -82 0
35 31 24 33 36 27 -81 0
35 31 24 33 36 27 -83 0
35 31 2 33 4 36 -34 0
35 31 2 33 4 36 -38 0
35 31 2 33 4 36 -32 0
35 31 2 33 4 36 -37 0
35 31 2 33 36 3 -34 0
35 31 2 33 36 3 -38 0
35 31 2 33 36 3 -32 0
35 31 2 33 36 3 -37 0
35 31 46 33 44 36 -92 0
35 31 46 33 44 36 -91 0
35 31 46 33 44 36 -93 0
35 31 46 33 44 36 -94 0
35 31 46 33 36 40 -92 0
35 31 46 33 36 40 -91 0
35 31 46 33 36 40 -93 0
35 31 46 33 36 40 -94 0
35 31 17 33 21 36 -73 0
35 31 17 33 21 36 -74 0
35 31 17 33 21 36 -72 0
35 31 17 33 21 36 -71 0
35 31 17 33 36 19 -73 0
35 31 17 33 36 19 -74 0
35 31 17 33 36 19 -72 0
35 31 17 33 36 19 -71 0
35 31 10 33 9 36 -58 0
35 31 10 33 9 36 -60 0
35 31 10 33 9 36 -59 0
35 31 10 33 9 36 -57 0
35 31 10 33 36 13 -58 0
35 31 10 33 36 13 -60 0
35 31 10 33 36 13 -59 0
35 31 10 33 36 13 -57 0
35 31 33 29 36 27 -84 0
35 31 33 29 36 27 -82 0
35 31 33 29 36 27 -81 0
35 31 33 29 36 27 -83 0
35 31 33 4 36 3 -34 0
35 31 33 4 36 3 -38 0
35 31 33 4 36 3 -32 0
35 31 33 4 36 3 -37 0
35 31 33 44 36 40 -92 0
35 31 33 44 36 40 -91 0
35 31 33 44 36 40 -93 0
35 31 33 44 36 40 -94 0
35 31 33 21 36 19 -73 0
35 31 33 21 36 19 -74 0
35 31 33 21 36 19 -72 0
35 31 33 21 36 19 -71 0
35 31 33 9 36 13 -58 0
35 31 33 9 36 13 -60 0
35 31 33 9 36 13 -59 0
35 31 33 9 36 13 -57 0
23 5 24 2 29 4 -25 0
23 5 24 2 29 4 -26 0
23 5 24 2 29 4 -28 0
23 5 24 2 29 4 -30 0
23 5 24 2 29 27 -25 0
23 5 24 2 29 27 -26 0
23 5 24 2 29 27 -28 0
23 5 24 2 29 27 -30 0
23 5 24 2 4 3 -25 0
23 5 24 2 4 3 -26 0
23 5 24 2 4 3 -28 0
23 5 24 2 4 3 -30 0
23 5 24 2 27 3 -25 0
23 5 24 2 27 3 -26 0
23 5 24 2 27 3 -28 0
23 5 24 2 27 3 -30 0
23 5 24 29 4 27 -25 0
23 5 24 29 4 27 -26 0
23 5 24 29 4 27 -28 0
23 5 24 29 4 27 -30 0
23 5 24 29 27 3 -25 0
23 5 24 29 27 3 -26 0
23 5 24 29 27 3 -28 0
23 5 24 29 27 3 -30 0
23 5 2 29 4 3 -25 0
23 5 2 29 4 3 -26 0
23 5 2 29 4 3 -28 0
23 5 2 29 4 3 -30 0
23 5 2 4 27 3 -25 0
23 5 2 4 27 3 -26 0
23 5 2 4 27 3 -28 0
23 5 2 4 27 3 -30 0
23 5 29 4 27 3 -25 0
23 5 29 4 27 3 -26 0
23 5 29 4 27 3 -28 0
23 5 29 4 27 3 -30 0
23 45 24 46 29 44 -85 0
23 45 24 46 29 44 -87 0
23 45 24 46 29 44 -86 0
23 45 24 46 29 44 -88 0
23 45 24 46 29 27 -85 0
23 45 24 46 29 27 -87 0
23 45 24 46 29 27 -86 0
23 45 24 46 29 27 -88 0
23 45 24 46 44 40 -85 0
23 45 24 46 44 40 -87 0
23 45 24 46 44 40 -86 0
23 45 24 46 44 40 -88 0
23 45 24 46 27 40 -85 0
23 45 24 46 27 40 -87 0
23 45 24 46 27 40 -86 0
23 45 24 46 27 40 -88 0
23 45 24 29 44 27 -85 0
23 45 24 29 44 27 -87 0
23 45 24 29 44 27 -86 0
23 45 24 29 44 27 -88 0
23 45 24 29 27 40 -85 0
23 45 24 29 27 40 -87 0
23 45 24 29 27 40 -86 0
23 45 24 29 27 40 -88 0
23 45 46 29 44 40 -85 0
23 45 46 29 44 40 -87 0
23 45 46 29 44 40 -86 0
23 45 46 29 44 40 -88 0
23 45 46 44 27 40 -85 0
23 45 46 44 27 40 -87 0
23 45 46 44 27 40 -86 0
23 45 46 44 27 40 -88 0
23 45 29 44 27 40 -85 0
23 45 29 44 27 40 -87 0
23 45 29 44 27 40 -86 0
23 45 29 44 27 40 -88 0
23 16 24 17 29 21 -69 0
23 16 24 17 29 21 -68 0
23 16 24 17 29 21 -70 0
23 16 24 17 29 21 -67 0
23 16 24 17 29 27 -69 0
23 16 24 17 29 27 -68 0
23 16 24 17 29 27 -70 0
23 16 24 17 29 27 -67 0
23 16 24 17 21 19 -69 0
23 16 24 17 21 19 -68 0
23 16 24 17 21 19 -70 0
23 16 24 17 21 19 -67 0
23 16 24 17 27 19 -69 0
23 16 24 17 27 19 -68 0
23 16 24 17 27 19 -70 0
23 16 24 17 27 19 -67 0
23 16 24 29 21 27 -69 0
23 16 24 29 21 27 -68 0
23 16 24 29 21 27 -70 0
23 16 24 29 21 27 -67 0
23 16 24 29 27 19 -69 0
23 16 24 29 27 19 -68 0
23 16 24 29 27 19 -70 0
23 16 24 29 27 19 -67 0
23 16 17 29 21 19 -69 0
23 16 17 29 21 19 -68 0
23 16 17 29 21 19 -70 0
23 16 17 29 21 19 -67 0
23 16 17 21 27 19 -69 0
23 16 17 21 27 19 -68 0
23 16 17 21 27 19 -70 0
23 16 17 21 27 19 -67 0
23 16 29 21 27 19 -69 0
23 16 29 21 27 19 -68 0
23 16 29 21 27 19 -70 0
23 16 29 21 27 19 -67 0
23 8 24 10 29 9 -56 0
23 8 24 10 29 9 -54 0
23 8 24 10 29 9 -55 0
23 8 24 10 29 9 -53 0
23 8 24 10 29 27 -56 0
23 8 24 10 29 27 -54 0
23 8 24 10 29 27 -55 0
23 8 24 10 29 27 -53 0
23 8 24 10 9 13 -56 0
23 8 24 10 9 13 -54 0
23 8 24 10 9 13 -55 0
23 8 24 10 9 13 -53 0
23 8 24 10 27 13 -56 0
23 8 24 10 27 13 -54 0
23 8 24 10 27 13 -55 0
23 8 24 10 27 13 -53 0
23 8 24 29 9 27 -56 0
23 8 24 29 9 27 -54 0
23 8 24 29 9 27 -55 0
23 8 24 29 9 27 -53 0
23 8 24 29 27 13 -56 0
23 8 24 29 27 13 -54 0
23 8 24 29 27 13 -55 0
23 8 24 29 27 13 -53 0
23 8 10 29 9 13 -56 0
23 8 10 29 9 13 -54 0
23 8 10 29 9 13 -55 0
23 8 10 29 9 13 -53 0
23 8 10 9 27 13 -56 0
23 8 10 9 27 13 -54 0
23 8 10 9 27 13 -55 0
23 8 10 9 27 13 -53 0
23 8 29 9 27 13 -56 0
23 8 29 9 27 13 -54 0
23 8 29 9 27 13 -55 0
23 8 29 9 27 13 -53 0
23 31 24 33 29 27 -84 0
23 31 24 33 29 27 -82 0
23 31 24 33 29 27 -81 0
23 31 24 33 29 27 -83 0
23 31 24 29 36 27 -84 0
23 31 24 29 36 27 -82 0
23 31 24 29 36 27 -81 0
23 31 24 29 36 27 -83 0
23 24 2 29 4 27 -25 0
23 24 2 29 4 27 -26 0
23 24 2 29 4 27 -28 0
23 24 2 29 4 27 -30 0
23 24 2 29 27 3 -25 0
23 24 2 29 27 3 -26 0
23 24 2 29 27 3 -28 0
23 24 2 29 27 3 -30 0
23 24 46 29 44 27 -85 0
23 24 46 29 44 27 -87 0
23 24 46 29 44 27 -86 0
23 24 46 29 44 27 -88 0
23 24 46 29 27 40 -85 0
23 24 46 29 27 40 -87 0
23 24 46 29 27 40 -86 0
23 24 46 29 27 40 -88 0
23 24 17 29 21 27 -69 0
23 24 17 29 21 27 -68 0
23 24 17 29 21 27 -70 0
23 24 17 29 21 27 -67 0
23 24 17 29 27 19 -69 0
23 24 17 29 27 19 -68 0
23 24 17 29 27 19 -70 0
23 24 17 29 27 19 -67 0
23 24 10 29 9 27 -56 0
23 24 10 29 9 27 -54 0
23 24 10 29 9 27 -55 0
23 24 10 29 9 27 -53 0
23 24 10 29 27 13 -56 0
23 24 10 29 27 13 -54 0
23 24 10 29 27 13 -55 0
23 24 10 29 27 13 -53 0
23 24 33 29 36 27 -84 0
23 24 33 29 36 27 -82 0
23 24 33 29 36 27 -81 0
23 24 33 29 36 27 -83 0
23 24 29 4 27 3 -25 0
23 24 29 4 27 3 -26 0
23 24 29 4 27 3 -28 0
23 24 29 4 27 3 -30 0
23 24 29 44 27 40 -85 0
23 24 29 44 27 40 -87 0
23 24 29 44 27 40 -86 0
23 24 29 44 27 40 -88 0
23 24 29 21 27 19 -69 0
23 24 29 21 27 19 -68 0
23 24 29 21 27 19 -70 0
23 24 29 21 27 19 -67 0
23 24 29 9 27 13 -56 0
23 24 29 9 27 13 -54 0
23 24 29 9 27 13 -55 0
23 24 29 9 27 13 -53 0
5 45 2 46 4 44 -42 0
5 45 2 46 4 44 -41 0
5 45 2 46 4 44 -43 0
5 45 2 46 4 44 -39 0
5 45 2 46 4 3 -42 0
5 45 2 46 4 3 -41 0
5 45 2 46 4 3 -43 0
5 45 2 46 4 3 -39 0
5 45 2 46 44 40 -42 0
5 45 2 46 44 40 -41 0
5 45 2 46 44 40 -43 0
5 45 2 46 44 40 -39 0
5 45 2 46 3 40 -42 0
5 45 2 46 3 40 -41 0
5 45 2 46 3 40 -43 0
5 45 2 46 3 40 -39 0
5 45 2 4 44 3 -42 0
5 45 2 4 44 3 -41 0
5 45 2 4 44 3 -43 0
5 45 2 4 44 3 -39 0
5 45 2 4 3 40 -42 0
5 45 2 4 3 40 -41 0
5 45 2 4 3 40 -43 0
5 45 2 4 3 40 -39 0
5 45 46 4 44 40 -42 0
5 45 46 4 44 40 -41 0
5 45 46 4 44 40 -43 0
5 45 46 4 44 40 -39 0
5 45 46 44 3 40 -42 0
5 45 46 44 3 40 -41 0
5 45 46 44 3 40 -43 0
5 45 46 44 3 40 -39 0
5 45 4 44 3 40 -42 0
5 45 4 44 3 40 -41 0
5 45 4 44 3 40 -43 0
5 45 4 44 3 40 -39 0
5 16 2 17 4 21 -22 0
5 16 2 17 4 21 -20 0
5 16 2 17 4 21 -18 0
5 16 2 17 4 21 -15 0
5 16 2 17 4 3 -22 0
5 16 2 17 4 3 -20 0
5 16 2 17 4 3 -18 0
5 16 2 17 4 3 -15 0
5 16 2 17 21 19 -22 0
5 16 2 17 21 19 -20 0
5 16 2 17 21 19 -18 0
5 16 2 17 21 19 -15 0
5 16 2 17 3 19 -22 0
5 16 2 17 3 19 -20 0
5 16 2 17 3 19 -18 0
5 16 2 17 3 19 -15 0
5 16 2 4 21 3 -22 0
5 16 2 4 21 3 -20 0
5 16 2 4 21 3 -18 0
5 16 2 4 21 3 -15 0
5 16 2 4 3 19 -22 0
5 16 2 4 3 19 -20 0
5 16 2 4 3 19 -18 0
5 16 2 4 3 19 -15 0
5 16 17 4 21 19 -22 0
5 16 17 4 21 19 -20 0
5 16 17 4 21 19 -18 0
5 16 17 4 21 19 -15 0
5 16 17 21 3 19 -22 0
5 16 17 21 3 19 -20 0
5 16 17 21 3 19 -18 0
5 16 17 21 3 19 -15 0
5 16 4 21 3 19 -22 0
5 16 4 21 3 19 -20 0
5 16 4 21 3 19 -18 0
5 16 4 21 3 19 -15 0
5 8 2 10 4 9 -7 0
5 8 2 10 4 9 -11 0
5 8 2 10 4 9 -12 0
5 8 2 10 4 9 -14 0
5 8 2 10 4 3 -7 0
5 8 2 10 4 3 -11 0
5 8 2 10 4 3 -12 0
5 8 2 10 4 3 -14 0
5 8 2 10 9 13 -7 0
5 8 2 10 9 13 -11 0
5 8 2 10 9 13 -12 0
5 8 2 10 9 13 -14 0
5 8 2 10 3 13 -7 0
5 8 2 10 3 13 -11 0
5 8 2 10 3 13 -12 0
5 8 2 10 3 13 -14 0
5 8 2 4 9 3 -7 0
5 8 2 4 9 3 -11 0
5 8 2 4 9 3 -12 0
5 8 2 4 9 3 -14 0
5 8 2 4 3 13 -7 0
5 8 2 4 3 13 -11 0
5 8 2 4 3 13 -12 0
5 8 2 4 3 13 -14 0
5 8 10 4 9 13 -7 0
5 8 10 4 9 13 -11 0
5 8 10 4 9 13 -12 0
5 8 10 4 9 13 -14 0
5 8 10 9 3 13 -7 0
5 8 10 9 3 13 -11 0
5 8 10 9 3 13 -12 0
5 8 10 9 3 13 -14 0
5 8 4 9 3 13 -7 0
5 8 4 9 3 13 -11 0
5 8 4 9 3 13 -12 0
5 8 4 9 3 13 -14 0
5 31 2 33 4 3 -34 0
5 31 2 33 4 3 -38 0
5 31 2 33 4 3 -32 0
5 31 2 33 4 3 -37 0
5 31 2 4 36 3 -34 0
5 31 2 4 36 3 -38 0
5 31 2 4 36 3 -32 0
5 31 2 4 36 3 -37 0
5 24 2 29 4 3 -25 0
5 24 2 29 4 3 -26 0
5 24 2 29 4 3 -28 0
5 24 2 29 4 3 -30 0
5 24 2 4 27 3 -25 0
5 24 2 4 27 3 -26 0
5 24 2 4 27 3 -28 0
5 24 2 4 27 3 -30 0
5 2 46 4 44 3 -42 0
5 2 46 4 44 3 -41 0
5 2 46 4 44 3 -43 0
5 2 46 4 44 3 -39 0
5 2 46 4 3 40 -42 0
5 2 46 4 3 40 -41 0
5 2 46 4 3 40 -43 0
5 2 46 4 3 40 -39 0
5 2 17 4 21 3 -22 0
5 2 17 4 21 3 -20 0
5 2 17 4 21 3 -18 0
5 2 17 4 21 3 -15 0
5 2 17 4 3 19 -22 0
5 2 17 4 3 19 -20 0
5 2 17 4 3 19 -18 0
5 2 17 4 3 19 -15 0
5 2 10 4 9 3 -7 0
5 2 10 4 9 3 -11 0
5 2 10 4 9 3 -12 0
5 2 10 4 9 3 -14 0
5 2 10 4 3 13 -7 0
5 2 10 4 3 13 -11 0
5 2 10 4 3 13 -12 0
5 2 10 4 3 13 -14 0
5 2 33 4 36 3 -34 0
5 2 33 4 36 3 -38 0
5 2 33 4 36 3 -32 0
5 2 33 4 36 3 -37 0
5 2 29 4 27 3 -25 0
5 2 29 4 27 3 -26 0
5 2 29 4 27 3 -28 0
5 2 29 4 27 3 -30 0
5 2 4 44 3 40 -42 0
5 2 4 44 3 40 -41 0
5 2 4 44 3 40 -43 0
5 2 4 44 3 40 -39 0
5 2 4 21 3 19 -22 0
5 2 4 21 3 19 -20 0
5 2 4 21 3 19 -18 0
5 2 4 21 3 19 -15 0
5 2 4 9 3 13 -7 0
5 2 4 9 3 13 -11 0
5 2 4 9 3 13 -12 0
5 2 4 9 3 13 -14 0
45 16 46 17 44 21 -75 0
45 16 46 17 44 21 -78 0
45 16 46 17 44 21 -77 0
45 16 46 17 44 21 -76 0
45 16 46 17 44 40 -75 0
45 16 46 17 44 40 -78 0
45 16 46 17 44 40 -77 0
45 16 46 17 44 40 -76 0
45 16 46 17 21 19 -75 0
45 16 46 17 21 19 -78 0
45 16 46 17 21 19 -77 0
45 16 46 17 21 19 -76 0
45 16 46 17 40 19 -75 0
45 16 46 17 40 19 -78 0
45 16 46 17 40 19 -77 0
45 16 46 17 40 19 -76 0
45 16 46 44 21 40 -75 0
45 16 46 44 21 40 -78 0
45 16 46 44 21 40 -77 0
45 16 46 44 21 40 -76 0
45 16 46 44 40 19 -75 0
45 16 46 44 40 19 -78 0
45 16 46 44 40 19 -77 0
45 16 46 44 40 19 -76 0
45 16 17 44 21 19 -75 0
45 16 17 44 21 19 -78 0
45 16 17 44 21 19 -77 0
45 16 17 44 21 19 -76 0
45 16 17 21 40 19 -75 0
45 16 17 21 40 19 -78 0
45 16 17 21 40 19 -77 0
45 16 17 21 40 19 -76 0
45 16 44 21 40 19 -75 0
45 16 44 21 40 19 -78 0
45 16 44 21 40 19 -77 0
45 16 44 21 40 19 -76 0
45 8 46 10 44 9 -61 0
45 8 46 10 44 9 -64 0
45 8 46 10 44 9 -63 0
45 8 46 10 44 9 -62 0
45 8 46 10 44 40 -61 0
45 8 46 10 44 40 -64 0
45 8 46 10 44 40 -63 0
45 8 46 10 44 40 -62 0
45 8 46 10 9 13 -61 0
45 8 46 10 9 13 -64 0
45 8 46 10 9 13 -63 0
45 8 46 10 9 13 -62 0
45 8 46 10 40 13 -61 0
45 8 46 10 40 13 -64 0
45 8 46 10 40 13 -63 0
45 8 46 10 40 13 -62 0
45 8 46 44 9 40 -61 0
45 8 46 44 9 40 -64 0
45 8 46 44 9 40 -63 0
45 8 46 44 9 40 -62 0
45 8 46 44 40 13 -61 0
45 8 46 44 40 13 -64 0
45 8 46 44 40 13 -63 0
45 8 46 44 40 13 -62 0
45 8 10 44 9 13 -61 0
45 8 10 44 9 13 -64 0
45 8 10 44 9 13 -63 0
45 8 10 44 9 13 -62 0
45 8 10 9 40 13 -61 0
45 8 10 9 40 13 -64 0
45 8 10 9 40 13 -63 0
45 8 10 9 40 13 -62 0
45 8 44 9 40 13 -61 0
45 8 44 9 40 13 -64 0
45 8 44 9 40 13 -63 0
45 8 44 9 40 13 -62 0
45 31 46 33 44 40 -92 0
45 31 46 33 44 40 -91 0
45 31 46 33 44 40 -93 0
45 31 46 33 44 40 -94 0
45 31 46 44 36 40 -92 0
45 31 46 44 36 40 -91 0
45 31 46 44 36 40 -93 0
45 31 46 44 36 40 -94 0
45 24 46 29 44 40 -85 0
45 24 46 29 44 40 -87 0
45 24 46 29 44 40 -86 0
45 24 46 29 44 40 -88 0
45 24 46 44 27 40 -85 0
45 24 46 44 27 40 -87 0
45 24 46 44 27 40 -86 0
45 24 46 44 27 40 -88 0
45 2 46 4 44 40 -42 0
45 2 46 4 44 40 -41 0
45 2 46 4 44 40 -43 0
45 2 46 4 44 40 -39 0
45 2 46 44 3 40 -42 0
45 2 46 44 3 40 -41 0
45 2 46 44 3 40 -43 0
45 2 46 44 3 40 -39 0
45 46 17 44 21 40 -75 0
45 46 17 44 21 40 -78 0
45 46 17 44 21 40 -77 0
45 46 17 44 21 40 -76 0
45 46 17 44 40 19 -75 0
45 46 17 44 40 19 -78 0
45 46 17 44 40 19 -77 0
45 46 17 44 40 19 -76 0
45 46 10 44 9 40 -61 0
45 46 10 44 9 40 -64 0
45 46 10 44 9 40 -63 0
45 46 10 44 9 40 -62 0
45 46 10 44 40 13 -61 0
45 46 10 44 40 13 -64 0
45 46 10 44 40 13 -63 0
45 46 10 44 40 13 -62 0
45 46 33 44 36 40 -92 0
45 46 33 44 36 40 -91 0
45 46 33 44 36 40 -93 0
45 46 33 44 36 40 -94 0
45 46 29 44 27 40 -85 0
45 46 29 44 27 40 -87 0
45 46 29 44 27 40 -86 0
45 46 29 44 27 40 -88 0
45 46 4 44 3 40 -42 0
45 46 4 44 3 40 -41 0
45 46 4 44 3 40 -43 0
45 46 4 44 3 40 -39 0
45 46 44 21 40 19 -75 0
45 46 44 21 40 19 -78 0
45 46 44 21 40 19 -77 0
45 46 44 21 40 19 -76 0
45 46 44 9 40 13 -61 0
45 46 44 9 40 13 -64 0
45 46 44 9 40 13 -63 0
45 46 44 9 40 13 -62 0
16 8 17 10 21 9 -51 0
16 8 17 10 21 9 -52 0
16 8 17 10 21 9 -50 0
16 8 17 10 21 9 -49 0
16 8 17 10 21 19 -51 0
16 8 17 10 21 19 -52 0
16 8 17 10 21 19 -50 0
16 8 17 10 21 19 -49 0
16 8 17 10 9 13 -51 0
16 8 17 10 9 13 -52 0
16 8 17 10 9 13 -50 0
16 8 17 10 9 13 -49 0
16 8 17 10 19 13 -51 0
16 8 17 10 19 13 -52 0
16 8 17 10 19 13 -50 0
16 8 17 10 19 13 -49 0
16 8 17 21 9 19 -51 0
16 8 17 21 9 19 -52 0
16 8 17 21 9 19 -50 0
16 8 17 21 9 19 -49 0
16 8 17 21 19 13 -51 0
16 8 17 21 19 13 -52 0
16 8 17 21 19 13 -50 0
16 8 17 21 19 13 -49 0
16 8 10 21 9 13 -51 0
16 8 10 21 9 13 -52 0
16 8 10 21 9 13 -50 0
16 8 10 21 9 13 -49 0
16 8 10 9 19 13 -51 0
16 8 10 9 19 13 -52 0
16 8 10 9 19 13 -50 0
16 8 10 9 19 13 -49 0
16 8 21 9 19 13 -51 0
16 8 21 9 19 13 -52 0
16 8 21 9 19 13 -50 0
16 8 21 9 19 13 -49 0
16 31 17 33 21 19 -73 0
16 31 17 33 21 19 -74 0
16 31 17 33 21 19 -72 0
16 31 17 33 21 19 -71 0
16 31 17 21 36 19 -73 0
16 31 17 21 36 19 -74 0
16 31 17 21 36 19 -72 0
16 31 17 21 36 19 -71 0
16 24 17 29 21 19 -69 0
16 24 17 29 21 19 -68 0
16 24 17 29 21 19 -70 0
16 24 17 29 21 19 -67 0
16 24 17 21 27 19 -69 0
16 24 17 21 27 19 -68 0
16 24 17 21 27 19 -70 0
16 24 17 21 27 19 -67 0
16 2 17 4 21 19 -22 0
16 2 17 4 21 19 -20 0
16 2 17 4 21 19 -18 0
16 2 17 4 21 19 -15 0
16 2 17 21 3 19 -22 0
16 2 17 21 3 19 -20 0
16 2 17 21 3 19 -18 0
16 2 17 21 3 19 -15 0
16 46 17 44 21 19 -75 0
16 46 17 44 21 19 -78 0
16 46 17 44 21 19 -77 0
16 46 17 44 21 19 -76 0
16 46 17 21 40 19 -75 0
16 46 17 21 40 19 -78 0
16 46 17 21 40 19 -77 0
16 46 17 21 40 19 -76 0
16 17 10 21 9 19 -51 0
16 17 10 21 9 19 -52 0
16 17 10 21 9 19 -50 0
16 17 10 21 9 19 -49 0
16 17 10 21 19 13 -51 0
16 17 10 21 19 13 -52 0
16 17 10 21 19 13 -50 0
16 17 10 21 19 13 -49 0
16 17 33 21 36 19 -73 0
16 17 33 21 36 19 -74 0
16 17 33 21 36 19 -72 0
16 17 33 21 36 19 -71 0
16 17 29 21 27 19 -69 0
16 17 29 21 27 19 -68 0
16 17 29 21 27 19 -70 0
16 17 29 21 27 19 -67 0
16 17 4 21 3 19 -22 0
16 17 4 21 3 19 -20 0
16 17 4 21 3 19 -18 0
16 17 4 21 3 19 -15 0
16 17 44 21 40 19 -75 0
16 17 44 21 40 19 -78 0
16 17 44 21 40 19 -77 0
16 17 44 21 40 19 -76 0
16 17 21 9 19 13 -51 0
16 17 21 9 19 13 -52 0
16 17 21 9 19 13 -50 0
16 17 21 9 19 13 -49 0
8 31 10 33 9 13 -58 0
8 31 10 33 9 13 -60 0
8 31 10 33 9 13 -59 0
8 31 10 33 9 13 -57 0
8 31 10 9 36 13 -58 0
8 31 10 9 36 13 -60 0
8 31 10 9 36 13 -59 0
8 31 10 9 36 13 -57 0
8 24 10 29 9 13 -56 0
8 24 10 29 9 13 -54 0
8 24 10 29 9 13 -55 0
8 24 10 29 9 13 -53 0
8 24 10 9 27 13 -56 0
8 24 10 9 27 13 -54 0
8 24 10 9 27 13 -55 0
8 24 10 9 27 13 -53 0
8 2 10 4 9 13 -7 0
8 2 10 4 9 13 -11 0
8 2 10 4 9 13 -12 0
8 2 10 4 9 13 -14 0
8 2 10 9 3 13 -7 0
8 2 10 9 3 13 -11 0
8 2 10 9 3 13 -12 0
8 2 10 9 3 13 -14 0
8 46 10 44 9 13 -61 0
8 46 10 44 9 13 -64 0
8 46 10 44 9 13 -63 0
8 46 10 44 9 13 -62 0
8 46 10 9 40 13 -61 0
8 46 10 9 40 13 -64 0
8 46 10 9 40 13 -63 0
8 46 10 9 40 13 -62 0
8 17 10 21 9 13 -51 0
8 17 10 21 9 13 -52 0
8 17 10 21 9 13 -50 0
8 17 10 21 9 13 -49 0
8 17 10 9 19 13 -51 0
8 17 10 9 19 13 -52 0
8 17 10 9 19 13 -50 0
8 17 10 9 19 13 -49 0
8 10 33 9 36 13 -58 0
8 10 33 9 36 13 -60 0
8 10 33 9 36 13 -59 0
8 10 33 9 36 13 -57 0
8 10 29 9 27 13 -56 0
8 10 29 9 27 13 -54 0
8 10 29 9 27 13 -55 0
8 10 29 9 27 13 -53 0
8 10 4 9 3 13 -7 0
8 10 4 9 3 13 -11 0
8 10 4 9 3 13 -12 0
8 10 4 9 3 13 -14 0
8 10 44 9 40 13 -61 0
8 10 44 9 40 13 -64 0
8 10 44 9 40 13 -63 0
8 10 44 9 40 13 -62 0
8 10 21 9 19 13 -51 0
8 10 21 9 19 13 -52 0
8 10 21 9 19 13 -50 0
8 10 21 9 19 13 -49 0
31 24 33 29 36 27 -84 0
31 24 33 29 36 27 -82 0
31 24 33 29 36 27 -81 0
31 24 33 29 36 27 -83 0
31 2 33 4 36 3 -34 0
31 2 33 4 36 3 -38 0
31 2 33 4 36 3 -32 0
31 2 33 4 36 3 -37 0
31 46 33 44 36 40 -92 0
31 46 33 44 36 40 -91 0
31 46 33 44 36 40 -93 0
31 46 33 44 36 40 -94 0
31 17 33 21 36 19 -73 0
31 17 33 21 36 19 -74 0
31 17 33 21 36 19 -72 0
31 17 33 21 36 19 -71 0
31 10 33 9 36 13 -58 0
31 10 33 9 36 13 -60 0
31 10 33 9 36 13 -59 0
31 10 33 9 36 13 -57 0
24 2 29 4 27 3 -25 0
24 2 29 4 27 3 -26 0
24 2 29 4 27 3 -28 0
24 2 29 4 27 3 -30 0
24 46 29 44 27 40 -85 0
24 46 29 44 27 40 -87 0
24 46 29 44 27 40 -86 0
24 46 29 44 27 40 -88 0
24 17 29 21 27 19 -69 0
24 17 29 21 27 19 -68 0
24 17 29 21 27 19 -70 0
24 17 29 21 27 19 -67 0
24 10 29 9 27 13 -56 0
24 10 29 9 27 13 -54 0
24 10 29 9 27 13 -55 0
24 10 29 9 27 13 -53 0
2 46 4 44 3 40 -42 0
2 46 4 44 3 40 -41 0
2 46 4 44 3 40 -43 0
2 46 4 44 3 40 -39 0
2 17 4 21 3 19 -22 0
2 17 4 21 3 19 -20 0
2 17 4 21 3 19 -18 0
2 17 4 21 3 19 -15 0
2 10 4 9 3 13 -7 0
2 10 4 9 3 13 -11 0
2 10 4 9 3 13 -12 0
2 10 4 9 3 13 -14 0
46 17 44 21 40 19 -75 0
46 17 44 21 40 19 -78 0
46 17 44 21 40 19 -77 0
46 17 44 21 40 19 -76 0
46 10 44 9 40 13 -61 0
46 10 44 9 40 13 -64 0
46 10 44 9 40 13 -63 0
46 10 44 9 40 13 -62 0
17 10 21 9 19 13 -51 0
17 10 21 9 19 13 -52 0
17 10 21 9 19 13 -50 0
17 10 21 9 19 13 -49 0
35 23 31 24 33 29 36 -84 0
35 23 31 24 33 29 36 -82 0
35 23 31 24 33 29 36 -81 0
35 23 31 24 33 29 36 -83 0
35 23 31 24 33 29 27 -84 0
35 23 31 24 33 29 27 -82 0
35 23 31 24 33 29 27 -81 0
35 23 31 24 33 29 27 -83 0
35 23 31 24 33 36 27 -84 0
35 23 31 24 33 36 27 -82 0
35 23 31 24 33 36 27 -81 0
35 23 31 24 33 36 27 -83 0
35 23 31 24 29 36 27 -84 0
35 23 31 24 29 36 27 -82 0
35 23 31 24 29 36 27 -81 0
35 23 31 24 29 36 27 -83 0
35 23 31 33 29 36 27 -84 0
35 23 31 33 29 36 27 -82 0
35 23 31 33 29 36 27 -81 0
35 23 31 33 29 36 27 -83 0
35 23 24 33 29 36 27 -84 0
35 23 24 33 29 36 27 -82 0
35 23 24 33 29 36 27 -81 0
35 23 24 33 29 36 27 -83 0
35 5 31 2 33 4 36 -34 0
35 5 31 2 33 4 36 -38 0
35 5 31 2 33 4 36 -32 0
35 5 31 2 33 4 36 -37 0
35 5 31 2 33 4 3 -34 0
35 5 31 2 33 4 3 -38 0
35 5 31 2 33 4 3 -32 0
35 5 31 2 33 4 3 -37 0
35 5 31 2 33 36 3 -34 0
35 5 31 2 33 36 3 -38 0
35 5 31 2 33 36 3 -32 0
35 5 31 2 33 36 3 -37 0
35 5 31 2 4 36 3 -34 0
35 5 31 2 4 36 3 -38 0
35 5 31 2 4 36 3 -32 0
35 5 31 2 4 36 3 -37 0
35 5 31 33 4 36 3 -34 0
35 5 31 33 4 36 3 -38 0
35 5 31 33 4 36 3 -32 0
35 5 31 33 4 36 3 -37 0
35 5 2 33 4 36 3 -34 0
35 5 2 33 4 36 3 -38 0
35 5 2 33 4 36 3 -32 0
35 5 2 33 4 36 3 -37 0
35 45 31 46 33 44 36 -92 0
35 45 31 46 33 44 36 -91 0
35 45 31 46 33 44 36 -93 0
35 45 31 46 33 44 36 -94 0
35 45 31 46 33 44 40 -92 0
35 45 31 46 33 44 40 -91 0
35 45 31 46 33 44 40 -93 0
35 45 31 46 33 44 40 -94 0
35 45 31 46 33 36 40 -92 0
35 45 31 46 33 36 40 -91 0
35 45 31 46 33 36 40 -93 0
35 45 31 46 33 36 40 -94 0
35 45 31 46 44 36 40 -92 0
35 45 31 46 44 36 40 -91 0
35 45 31 46 44 36 40 -93 0
35 45 31 46 44 36 40 -94 0
35 45 31 33 44 36 40 -92 0
35 45 31 33 44 36 40 -91 0
35 45 31 33 44 36 40 -93 0
35 45 31 33 44 36 40 -94 0
35 45 46 33 44 36 40 -92 0
35 45 46 33 44 36 40 -91 0
35 45 46 33 44 36 40 -93 0
35 45 46 33 44 36 40 -94 0
35 16 31 17 33 21 36 -73 0
35 16 31 17 33 21 36 -74 0
35 16 31 17 33 21 36 -72 0
35 16 31 17 33 21 36 -71 0
35 16 31 17 33 21 19 -73 0
35 16 31 17 33 21 19 -74 0
35 16 31 17 33 21 19 -72 0
35 16 31 17 33 21 19 -71 0
35 16 31 17 33 36 19 -73 0
35 16 31 17 33 36 19 -74 0
35 16 31 17 33 36 19 -72 0
35 16 31 17 33 36 19 -71 0
35 16 31 17 21 36 19 -73 0
35 16 31 17 21 36 19 -74 0
35 16 31 17 21 36 19 -72 0
35 16 31 17 21 36 19 -71 0
35 16 31 33 21 36 19 -73 0
35 16 31 33 21 36 19 -74 0
35 16 31 33 21 36 19 -72 0
35 16 31 33 21 36 19 -71 0
35 16 17 33 21 36 19 -73 0
35 16 17 33 21 36 19 -74 0
35 16 17 33 21 36 19 -72 0
35 16 17 33 21 36 19 -71 0
35 8 31 10 33 9 36 -58 0
35 8 31 10 33 9 36 -60 0
35 8 31 10 33 9 36 -59 0
35 8 31 10 33 9 36 -57 0
35 8 31 10 33 9 13 -58 0
35 8 31 10 33 9 13 -60 0
35 8 31 10 33 9 13 -59 0
35 8 31 10 33 9 13 -57 0
35 8 31 10 33 36 13 -58 0
35 8 31 10 33 36 13 -60 0
35 8 31 10 33 36 13 -59 0
35 8 31 10 33 36 13 -57 0
35 8 31 10 9 36 13 -58 0
35 8 31 10 9 36 13 -60 0
35 8 31 10 9 36 13 -59 0
35 8 31 10 9 36 13 -57 0
35 8 31 33 9 36 13 -58 0
35 8 31 33 9 36 13 -60 0
35 8 31 33 9 36 13 -59 0
35 8 31 33 9 36 13 -57 0
35 8 10 33 9 36 13 -58 0
35 8 10 33 9 36 13 -60 0
35 8 10 33 9 36 13 -59 0
35 8 10 33 9 36 13 -57 0
35 31 24 33 29 36 27 -84 0
35 31 24 33 29 36 27 -82 0
35 31 24 33 29 36 27 -81 0
35 31 24 33 29 36 27 -83 0
35 31 2 33 4 36 3 -34 0
35 31 2 33 4 36 3 -38 0
35 31 2 33 4 36 3 -32 0
35 31 2 33 4 36 3 -37 0
35 31 46 33 44 36 40 -92 0
35 31 46 33 44 36 40 -91 0
35 31 46 33 44 36 40 -93 0
35 31 46 33 44 36 40 -94 0
35 31 17 33 21 36 19 -73 0
35 31 17 33 21 36 19 -74 0
35 31 17 33 21 36 19 -72 0
35 31 17 33 21 36 19 -71 0
35 31 10 33 9 36 13 -58 0
35 31 10 33 9 36 13 -60 0
35 31 10 33 9 36 13 -59 0
35 31 10 33 9 36 13 -57 0
23 5 24 2 29 4 27 -25 0
23 5 24 2 29 4 27 -26 0
23 5 24 2 29 4 27 -28 0
23 5 24 2 29 4 27 -30 0
23 5 24 2 29 4 3 -25 0
23 5 24 2 29 4 3 -26 0
23 5 24 2 29 4 3 -28 0
23 5 24 2 29 4 3 -30 0
23 5 24 2 29 27 3 -25 0
23 5 24 2 29 27 3 -26 0
23 5 24 2 29 27 3 -28 0
23 5 24 2 29 27 3 -30 0
23 5 24 2 4 27 3 -25 0
23 5 24 2 4 27 3 -26 0
23 5 24 2 4 27 3 -28 0
23 5 24 2 4 27 3 -30 0
23 5 24 29 4 27 3 -25 0
23 5 24 29 4 27 3 -26 0
23 5 24 29 4 27 3 -28 0
23 5 24 29 4 27 3 -30 0
23 5 2 29 4 27 3 -25 0
23 5 2 29 4 27 3 -26 0
23 5 2 29 4 27 3 -28 0
23 5 2 29 4 27 3 -30 0
23 45 24 46 29 44 27 -85 0
23 45 24 46 29 44 27 -87 0
23 45 24 46 29 44 27 -86 0
23 45 24 46 29 44 27 -88 0
23 45 24 46 29 44 40 -85 0
23 45 24 46 29 44 40 -87 0
23 45 24 46 29 44 40 -86 0
23 45 24 46 29 44 40 -88 0
23 45 24 46 29 27 40 -85 0
23 45 24 46 29 27 40 -87 0
23 45 24 46 29 27 40 -86 0
23 45 24 46 29 27 40 -88 0
23 45 24 46 44 27 40 -85 0
23 45 24 46 44 27 40 -87 0
23 45 24 46 44 27 40 -86 0
23 45 24 46 44 27 40 -88 0
23 45 24 29 44 27 40 -85 0
23 45 24 29 44 27 40 -87 0
23 45 24 29 44 27 40 -86 0
23 45 24 29 44 27 40 -88 0
23 45 46 29 44 27 40 -85 0
23 45 46 29 44 27 40 -87 0
23 45 46 29 44 27 40 -86 0
23 45 46 29 44 27 40 -88 0
23 16 24 17 29 21 27 -69 0
23 16 24 17 29 21 27 -68 0
23 16 24 17 29 21 27 -70 0
23 16 24 17 29 21 27 -67 0
23 16 24 17 29 21 19 -69 0
23 16 24 17 29 21 19 -68 0
23 16 24 17 29 21 19 -70 0
23 16 24 17 29 21 19 -67 0
23 16 24 17 29 27 19 -69 0
23 16 24 17 29 27 19 -68 0
23 16 24 17 29 27 19 -70 0
23 16 24 17 29 27 19 -67 0
23 16 24 17 21 27 19 -69 0
23 16 24 17 21 27 19 -68 0
23 16 24 17 21 27 19 -70 0
23 16 24 17 21 27 19 -67 0
23 16 24 29 21 27 19 -69 0
23 16 24 29 21 27 19 -68 0
23 16 24 29 21 27 19 -70 0
23 16 24 29 21 27 19 -67 0
23 16 17 29 21 27 19 -69 0
23 16 17 29 21 27 19 -68 0
23 16 17 29 21 27 19 -70 0
23 16 17 29 21 27 19 -67 0
23 8 24 10 29 9 27 -56 0
23 8 24 10 29 9 27 -54 0
23 8 24 10 29 9 27 -55 0
23 8 24 10 29 9 27 -53 0
23 8 24 10 29 9 13 -56 0
23 8 24 10 29 9 13 -54 0
23 8 24 10 29 9 13 -55 0
23 8 24 10 29 9 13 -53 0
23 8 24 10 29 27 13 -56 0
23 8 24 10 29 27 13 -54 0
23 8 24 10 29 27 13 -55 0
23 8 24 10 29 27 13 -53 0
23 8 24 10 9 27 13 -56 0
23 8 24 10 9 27 13 -54 0
23 8 24 10 9 27 13 -55 0
23 8 24 10 9 27 13 -53 0
23 8 24 29 9 27 13 -56 0
23 8 24 29 9 27 13 -54 0
23 8 24 29 9 27 13 -55 0
23 8 24 29 9 27 13 -53 0
23 8 10 29 9 27 13 -56 0
23 8 10 29 9 27 13 -54 0
23 8 10 29 9 27 13 -55 0
23 8 10 29 9 27 13 -53 0
23 31 24 33 29 36 27 -84 0
23 31 24 33 29 36 27 -82 0
23 31 24 33 29 36 27 -81 0
23 31 24 33 29 36 27 -83 0
23 24 2 29 4 27 3 -25 0
23 24 2 29 4 27 3 -26 0
23 24 2 29 4 27 3 -28 0
23 24 2 29 4 27 3 -30 0
23 24 46 29 44 27 40 -85 0
23 24 46 29 44 27 40 -87 0
23 24 46 29 44 27 40 -86 0
23 24 46 29 44 27 40 -88 0
23 24 17 29 21 27 19 -69 0
23 24 17 29 21 27 19 -68 0
23 24 17 29 21 27 19 -70 0
23 24 17 29 21 27 19 -67 0
23 24 10 29 9 27 13 -56 0
23 24 10 29 9 27 13 -54 0
23 24 10 29 9 27 13 -55 0
23 24 10 29 9 27 13 -53 0
5 45 2 46 4 44 3 -42 0
5 45 2 46 4 44 3 -41 0
5 45 2 46 4 44 3 -43 0
5 45 2 46 4 44 3 -39 0
5 45 2 46 4 44 40 -42 0
5 45 2 46 4 44 40 -41 0
5 45 2 46 4 44 40 -43 0
5 45 2 46 4 44 40 -39 0
5 45 2 46 4 3 40 -42 0
5 45 2 46 4 3 40 -41 0
5 45 2 46 4 3 40 -43 0
5 45 2 46 4 3 40 -39 0
5 45 2 46 44 3 40 -42 0
5 45 2 46 44 3 40 -41 0
5 45 2 46 44 3 40 -43 0
5 45 2 46 44 3 40 -39 0
5 45 2 4 44 3 40 -42 0
5 45 2 4 44 3 40 -41 0
5 45 2 4 44 3 40 -43 0
5 45 2 4 44 3 40 -39 0
5 45 46 4 44 3 40 -42 0
5 45 46 4 44 3 40 -41 0
5 45 46 4 44 3 40 -43 0
5 45 46 4 44 3 40 -39 0
5 16 2 17 4 21 3 -22 0
5 16 2 17 4 21 3 -20 0
5 16 2 17 4 21 3 -18 0
5 16 2 17 4 21 3 -15 0
5 16 2 17 4 21 19 -22 0
5 16 2 17 4 21 19 -20 0
5 16 2 17 4 21 19 -18 0
5 16 2 17 4 21 19 -15 0
5 16 2 17 4 3 19 -22 0
5 16 2 17 4 3 19 -20 0
5 16 2 17 4 3 19 -18 0
5 16 2 17 4 3 19 -15 0
5 16 2 17 21 3 19 -22 0
5 16 2 17 21 3 19 -20 0
5 16 2 17 21 3 19 -18 0
5 16 2 17 21 3 19 -15 0
5 16 2 4 21 3 19 -22 0
5 16 2 4 21 3 19 -20 0
5 16 2 4 21 3 19 -18 0
5 16 2 4 21 3 19 -15 0
5 16 17 4 21 3 19 -22 0
5 16 17 4 21 3 19 -20 0
5 16 17 4 21 3 19 -18 0
5 16 17 4 21 3 19 -15 0
5 8 2 10 4 9 3 -7 0
5 8 2 10 4 9 3 -11 0
5 8 2 10 4 9 3 -12 0
5 8 2 10 4 9 3 -14 0
5 8 2 10 4 9 13 -7 0
5 8 2 10 4 9 13 -11 0
5 8 2 10 4 9 13 -12 0
5 8 2 10 4 9 13 -14 0
5 8 2 10 4 3 13 -7 0
5 8 2 10 4 3 13 -11 0
5 8 2 10 4 3 13 -12 0
5 8 2 10 4 3 13 -14 0
5 8 2 10 9 3 13 -7 0
5 8 2 10 9 3 13 -11 0
5 8 2 10 9 3 13 -12 0
5 8 2 10 9 3 13 -14 0
5 8 2 4 9 3 13 -7 0
5 8 2 4 9 3 13 -11 0
5 8 2 4 9 3 13 -12 0
5 8 2 4 9 3 13 -14 0
5 8 10 4 9 3 13 -7 0
5 8 10 4 9 3 13 -11 0
5 8 10 4 9 3 13 -12 0
5 8 10 4 9 3 13 -14 0
5 31 2 33 4 36 3 -34 0
5 31 2 33 4 36 3 -38 0
5 31 2 33 4 36 3 -32 0
5 31 2 33 4 36 3 -37 0
5 24 2 29 4 27 3 -25 0
5 24 2 29 4 27 3 -26 0
5 24 2 29 4 27 3 -28 0
5 24 2 29 4 27 3 -30 0
5 2 46 4 44 3 40 -42 0
5 2 46 4 44 3 40 -41 0
5 2 46 4 44 3 40 -43 0
5 2 46 4 44 3 40 -39 0
5 2 17 4 21 3 19 -22 0
5 2 17 4 21 3 19 -20 0
5 2 17 4 21 3 19 -18 0
5 2 17 4 21 3 19 -15 0
5 2 10 4 9 3 13 -7 0
5 2 10 4 9 3 13 -11 0
5 2 10 4 9 3 13 -12 0
5 2 10 4 9 3 13 -14 0
45 16 46 17 44 21 40 -75 0
45 16 46 17 44 21 40 -78 0
45 16 46 17 44 21 40 -77 0
45 16 46 17 44 21 40 -76 0
45 16 46 17 44 21 19 -75 0
45 16 46 17 44 21 19 -78 0
45 16 46 17 44 21 19 -77 0
45 16 46 17 44 21 19 -76 0
45 16 46 17 44 40 19 -75 0
45 16 46 17 44 40 19 -78 0
45 16 46 17 44 40 19 -77 0
45 16 46 17 44 40 19 -76 0
45 16 46 17 21 40 19 -75 0
45 16 46 17 21 40 19 -78 0
45 16 46 17 21 40 19 -77 0
45 16 46 17 21 40 19 -76 0
45 16 46 44 21 40 19 -75 0
45 16 46 44 21 40 19 -78 0
45 16 46 44 21 40 19 -77 0
45 16 46 44 21 40 19 -76 0
45 16 17 44 21 40 19 -75 0
45 16 17 44 21 40 19 -78 0
45 16 17 44 21 40 19 -77 0
45 16 17 44 21 40 19 -76 0
45 8 46 10 44 9 40 -61 0
45 8 46 10 44 9 40 -64 0
45 8 46 10 44 9 40 -63 0
45 8 46 10 44 9 40 -62 0
45 8 46 10 44 9 13 -61 0
45 8 46 10 44 9 13 -64 0
45 8 46 10 44 9 13 -63 0
45 8 46 10 44 9 13 -62 0
45 8 46 10 44 40 13 -61 0
45 8 46 10 44 40 13 -64 0
45 8 46 10 44 40 13 -63 0
45 8 46 10 44 40 13 -62 0
45 8 46 10 9 40 13 -61 0
45 8 46 10 9 40 13 -64 0
45 8 46 10 9 40 13 -63 0
45 8 46 10 9 40 13 -62 0
45 8 46 44 9 40 13 -61 0
45 8 46 44 9 40 13 -64 0
45 8 46 44 9 40 13 -63 0
45 8 46 44 9 40 13 -62 0
45 8 10 44 9 40 13 -61 0
45 8 10 44 9 40 13 -64 0
45 8 10 44 9 40 13 -63 0
45 8 10 44 9 40 13 -62 0
45 31 46 33 44 36 40 -92 0
45 31 46 33 44 36 40 -91 0
45 31 46 33 44 36 40 -93 0
45 31 46 33 44 36 40 -94 0
45 24 46 29 44 27 40 -85 0
45 24 46 29 44 27 40 -87 0
45 24 46 29 44 27 40 -86 0
45 24 46 29 44 27 40 -88 0
45 2 46 4 44 3 40 -42 0
45 2 46 4 44 3 40 -41 0
45 2 46 4 44 3 40 -43 0
45 2 46 4 44 3 40 -39 0
45 46 17 44 21 40 19 -75 0
45 46 17 44 21 40 19 -78 0
45 46 17 44 21 40 19 -77 0
45 46 17 44 21 40 19 -76 0
45 46 10 44 9 40 13 -61 0
45 46 10 44 9 40 13 -64 0
45 46 10 44 9 40 13 -63 0
45 46 10 44 9 40 13 -62 0
16 8 17 10 21 9 19 -51 0
16 8 17 10 21 9 19 -52 0
16 8 17 10 21 9 19 -50 0
16 8 17 10 21 9 19 -49 0
16 8 17 10 21 9 13 -51 0
16 8 17 10 21 9 13 -52 0
16 8 17 10 21 9 13 -50 0
16 8 17 10 21 9 13 -49 0
16 8 17 10 21 19 13 -51 0
16 8 17 10 21 19 13 -52 0
16 8 17 10 21 19 13 -50 0
16 8 17 10 21 19 13 -49 0
16 8 17 10 9 19 13 -51 0
16 8 17 10 9 19 13 -52 0
16 8 17 10 9 19 13 -50 0
16 8 17 10 9 19 13 -49 0
16 8 17 21 9 19 13 -51 0
16 8 17 21 9 19 13 -52 0
16 8 17 21 9 19 13 -50 0
16 8 17 21 9 19 13 -49 0
16 8 10 21 9 19 13 -51 0
16 8 10 21 9 19 13 -52 0
16 8 10 21 9 19 13 -50 0
16 8 10 21 9 19 13 -49 0
16 31 17 33 21 36 19 -73 0
16 31 17 33 21 36 19 -74 0
16 31 17 33 21 36 19 -72 0
16 31 17 33 21 36 19 -71 0
16 24 17 29 21 27 19 -69 0
16 24 17 29 21 27 19 -68 0
16 24 17 29 21 27 19 -70 0
16 24 17 29 21 27 19 -67 0
16 2 17 4 21 3 19 -22 0
16 2 17 4 21 3 19 -20 0
16 2 17 4 21 3 19 -18 0
16 2 17 4 21 3 19 -15 0
16 46 17 44 21 40 19 -75 0
16 46 17 44 21 40 19 -78 0
16 46 17 44 21 40 19 -77 0
16 46 17 44 21 40 19 -76 0
16 17 10 21 9 19 13 -51 0
16 17 10 21 9 19 13 -52 0
16 17 10 21 9 19 13 -50 0
16 17 10 21 9 19 13 -49 0
8 31 10 33 9 36 13 -58 0
8 31 10 33 9 36 13 -60 0
8 31 10 33 9 36 13 -59 0
8 31 10 33 9 36 13 -57 0
8 24 10 29 9 27 13 -56 0
8 24 10 29 9 27 13 -54 0
8 24 10 29 9 27 13 -55 0
8 24 10 29 9 27 13 -53 0
8 2 10 4 9 3 13 -7 0
8 2 10 4 9 3 13 -11 0
8 2 10 4 9 3 13 -12 0
8 2 10 4 9 3 13 -14 0
8 46 10 44 9 40 13 -61 0
8 46 10 44 9 40 13 -64 0
8 46 10 44 9 40 13 -63 0
8 46 10 44 9 40 13 -62 0
8 17 10 21 9 19 13 -51 0
8 17 10 21 9 19 13 -52 0
8 17 10 21 9 19 13 -50 0
8 17 10 21 9 19 13 -49 0
35 23 31 24 33 29 36 27 -84 0
35 23 31 24 33 29 36 27 -82 0
35 23 31 24 33 29 36 27 -81 0
35 23 31 24 33 29 36 27 -83 0
35 5 31 2 33 4 36 3 -34 0
35 5 31 2 33 4 36 3 -38 0
35 5 31 2 33 4 36 3 -32 0
35 5 31 2 33 4 36 3 -37 0
35 45 31 46 33 44 36 40 -92 0
35 45 31 46 33 44 36 40 -91 0
35 45 31 46 33 44 36 40 -93 0
35 45 31 46 33 44 36 40 -94 0
35 16 31 17 33 21 36 19 -73 0
35 16 31 17 33 21 36 19 -74 0
35 16 31 17 33 21 36 19 -72 0
35 16 31 17 33 21 36 19 -71 0
35 8 31 10 33 9 36 13 -58 0
35 8 31 10 33 9 36 13 -60 0
35 8 31 10 33 9 36 13 -59 0
35 8 31 10 33 9 36 13 -57 0
23 5 24 2 29 4 27 3 -25 0
23 5 24 2 29 4 27 3 -26 0
23 5 24 2 29 4 27 3 -28 0
23 5 24 2 29 4 27 3 -30 0
23 45 24 46 29 44 27 40 -85 0
23 45 24 46 29 44 27 40 -87 0
23 45 24 46 29 44 27 40 -86 0
23 45 24 46 29 44 27 40 -88 0
23 16 24 17 29 21 27 19 -69 0
23 16 24 17 29 21 27 19 -68 0
23 16 24 17 29 21 27 19 -70 0
23 16 24 17 29 21 27 19 -67 0
23 8 24 10 29 9 27 13 -56 0
23 8 24 10 29 9 27 13 -54 0
23 8 24 10 29 9 27 13 -55 0
23 8 24 10 29 9 27 13 -53 0
5 45 2 46 4 44 3 40 -42 0
5 45 2 46 4 44 3 40 -41 0
5 45 2 46 4 44 3 40 -43 0
5 45 2 46 4 44 3 40 -39 0
5 16 2 17 4 21 3 19 -22 0
5 16 2 17 4 21 3 19 -20 0
5 16 2 17 4 21 3 19 -18 0
5 16 2 17 4 21 3 19 -15 0
5 8 2 10 4 9 3 13 -7 0
5 8 2 10 4 9 3 13 -11 0
5 8 2 10 4 9 3 13 -12 0
5 8 2 10 4 9 3 13 -14 0
45 16 46 17 44 21 40 19 -75 0
45 16 46 17 44 21 40 19 -78 0
45 16 46 17 44 21 40 19 -77 0
45 16 46 17 44 21 40 19 -76 0
45 8 46 10 44 9 40 13 -61 0
45 8 46 10 44 9 40 13 -64 0
45 8 46 10 44 9 40 13 -63 0
45 8 46 10 44 9 40 13 -62 0
16 8 17 10 21 9 19 13 -51 0
16 8 17 10 21 9 19 13 -52 0
16 8 17 10 21 9 19 13 -50 0
16 8 17 10 21 9 19 13 -49 0
