c U4(0) U2(0) E2(0,0) U1(0) U3(0) E1(0,0) E1(0,2) U2(2) E1(2,0) E2(0,2) U1(2) E2(2,0) U4(2) U3(2) U1(5) U2(5) U4(5) E2(0,5) U3(5) E1(0,5) E2(5,0) E1(5,0) E2(0,1) E2(1,0) U1(1) U2(1) U3(1) E1(0,1) U4(1) E1(1,0) E2(3,0) E2(0,3) U1(3) U3(3) E1(0,3) U4(3) U2(3) E1(3,0) E2(0,4) U2(4) E2(4,0) E1(0,4) U3(4) U1(4) E1(4,0) U4(4) U4(6) U2(6) U3(6) E1(6,0) E1(0,6) U1(6) E2(0,6) E2(6,0) E2(2,2) E1(2,2) E1(5,2) E2(2,5) E1(2,5) E2(5,2) E2(2,1) E1(1,2) E2(1,2) E1(2,1) E1(3,2) E2(2,3) E2(3,2) E1(2,3) E1(2,4) E2(4,2) E2(2,4) E1(4,2) E1(2,6) E1(6,2) E2(6,2) E2(2,6) E2(5,5) E1(5,5) E2(5,1) E2(1,5) E1(5,1) E1(1,5) E1(5,3) E2(5,3) E2(3,5) E1(3,5) E1(4,5) E2(5,4) E2(4,5) E1(5,4) E1(6,5) E1(5,6) E2(6,5) E2(5,6) E1(1,1) E2(1,1) E2(1,3) E2(3,1) E1(1,3) E1(3,1) E2(1,4) E1(1,4) E1(4,1) E2(4,1) E1(1,6) E2(6,1) E2(1,6) E1(6,1) E1(3,3) E2(3,3) E1(4,3) E2(3,4) E2(4,3) E1(3,4) E2(6,3) E1(6,3) E1(3,6) E2(3,6) E2(4,4) E1(4,4) E2(4,6) E2(6,4) E1(4,6) E1(6,4) E2(6,6) E1(6,6)
c 1 2 3 4 5 6 7 8 9 10 11 12 13 14 15 16 17 18 19 20 21 22 23 24 25 26 27 28 29 30 31 32 33 34 35 36 37 38 39 40 41 42 43 44 45 46 47 48 49 50 51 52 53 54 55 56 57 58 59 60 61 62 63 64 65 66 67 68 69 70 71 72 73 74 75 76 77 78 79 80 81 82 83 84 85 86 87 88 89 90 91 92 93 94 95 96 97 98 99 100 101 102 103 104 105 106 107 108 109 110 111 112 113 114 115 116 117 118 119 120 121 122 123 124 125 126
p cnf 126 3227
-6 0
-95 0
-56 0
-109 0
-120 0
-78 0
-126 0
-3 0
-96 0
-55 0
-110 0
-119 0
-77 0
-125 0
6 -3 0
28 -24 0
7 -12 0
35 -31 0
42 -41 0
20 -21 0
51 -54 0
30 -23 0
95 -96 0
62 -61 0
99 -98 0
102 -104 0
82 -79 0
105 -106 0
9 -10 0
64 -63 0
56 -55 0
68 -67 0
69 -70 0
59 -60 0
73 -75 0
38 -32 0
100 -97 0
65 -66 0
109 -110 0
114 -113 0
86 -84 0
117 -115 0
45 -39 0
103 -101 0
72 -71 0
111 -112 0
120 -119 0
87 -88 0
123 -122 0
22 -18 0
81 -80 0
57 -58 0
83 -85 0
90 -89 0
78 -77 0
92 -93 0
50 -53 0
108 -107 0
74 -76 0
116 -118 0
124 -121 0
91 -94 0
126 -125 0
3 -6 0
23 -30 0
10 -9 0
32 -38 0
39 -45 0
18 -22 0
53 -50 0
24 -28 0
96 -95 0
63 -64 0
97 -100 0
101 -103 0
80 -81 0
107 -108 0
12 -7 0
61 -62 0
55 -56 0
66 -65 0
71 -72 0
58 -57 0
76 -74 0
31 -35 0
98 -99 0
67 -68 0
110 -109 0
112 -111 0
85 -83 0
118 -116 0
41 -42 0
104 -102 0
70 -69 0
113 -114 0
119 -120 0
89 -90 0
121 -124 0
21 -20 0
79 -82 0
60 -59 0
84 -86 0
88 -87 0
77 -78 0
94 -91 0
54 -51 0
106 -105 0
75 -73 0
115 -117 0
122 -123 0
93 -92 0
125 -126 0
-28 -30 0
-7 -9 0
-35 -38 0
-42 -45 0
-20 -22 0
-51 -50 0
-62 -64 0
-99 -100 0
-102 -103 0
-82 -81 0
-105 -108 0
-68 -65 0
-69 -72 0
-59 -57 0
-73 -74 0
-114 -111 0
-86 -83 0
-117 -116 0
-87 -90 0
-123 -124 0
-92 -91 0
-23 -24 0
-10 -12 0
-32 -31 0
-39 -41 0
-18 -21 0
-53 -54 0
-63 -61 0
-97 -98 0
-101 -104 0
-80 -79 0
-107 -106 0
-66 -67 0
-71 -70 0
-58 -60 0
-76 -75 0
-112 -113 0
-85 -84 0
-118 -115 0
-89 -88 0
-121 -122 0
-94 -93 0
-4 -2 0
-4 -5 0
-4 -1 0
-25 -26 0
-25 -27 0
-25 -29 0
-11 -8 0
-11 -14 0
-11 -13 0
-33 -37 0
-33 -34 0
-33 -36 0
-44 -40 0
-44 -43 0
-44 -46 0
-15 -16 0
-15 -19 0
-15 -17 0
-52 -48 0
-52 -49 0
-52 -47 0
-2 -5 0
-2 -1 0
-26 -27 0
-26 -29 0
-8 -14 0
-8 -13 0
-37 -34 0
-37 -36 0
-40 -43 0
-40 -46 0
-16 -19 0
-16 -17 0
-48 -49 0
-48 -47 0
-5 -1 0
-27 -29 0
-14 -13 0
-34 -36 0
-43 -46 0
-19 -17 0
-49 -47 0
4 2 5 1 0
25 26 27 29 0
11 8 14 13 0
33 37 34 36 0
44 40 43 46 0
15 16 19 17 0
52 48 49 47 0
4 2 5 -6 0
4 2 5 -3 0
4 2 1 -6 0
4 2 1 -3 0
4 5 1 -6 0
4 5 1 -3 0
25 26 27 -95 0
25 26 27 -96 0
25 26 29 -95 0
25 26 29 -96 0
25 27 29 -95 0
25 27 29 -96 0
11 8 14 -56 0
11 8 14 -55 0
11 8 13 -56 0
11 8 13 -55 0
11 14 13 -56 0
11 14 13 -55 0
33 37 34 -109 0
33 37 34 -110 0
33 37 36 -109 0
33 37 36 -110 0
33 34 36 -109 0
33 34 36 -110 0
44 40 43 -120 0
44 40 43 -119 0
44 40 46 -120 0
44 40 46 -119 0
44 43 46 -120 0
44 43 46 -119 0
15 16 19 -78 0
15 16 19 -77 0
15 16 17 -78 0
15 16 17 -77 0
15 19 17 -78 0
15 19 17 -77 0
52 48 49 -126 0
52 48 49 -125 0
52 48 47 -126 0
52 48 47 -125 0
52 49 47 -126 0
52 49 47 -125 0
2 5 1 -6 0
2 5 1 -3 0
26 27 29 -95 0
26 27 29 -96 0
8 14 13 -56 0
8 14 13 -55 0
37 34 36 -109 0
37 34 36 -110 0
40 43 46 -120 0
40 43 46 -119 0
16 19 17 -78 0
16 19 17 -77 0
48 49 47 -126 0
48 49 47 -125 0
4 2 5 1 -6 0
4 2 5 1 -28 0
4 2 5 1 -7 0
4 2 5 1 -35 0
4 2 5 1 -42 0
4 2 5 1 -20 0
4 2 5 1 -51 0
4 2 5 1 -30 0
4 2 5 1 -9 0
4 2 5 1 -38 0
4 2 5 1 -45 0
4 2 5 1 -22 0
4 2 5 1 -50 0
4 2 5 1 -3 0
4 2 5 1 -23 0
4 2 5 1 -10 0
4 2 5 1 -32 0
4 2 5 1 -39 0
4 2 5 1 -18 0
4 2 5 1 -53 0
4 2 5 1 -24 0
4 2 5 1 -12 0
4 2 5 1 -31 0
4 2 5 1 -41 0
4 2 5 1 -21 0
4 2 5 1 -54 0
25 26 27 29 -28 0
25 26 27 29 -30 0
25 26 27 29 -95 0
25 26 27 29 -62 0
25 26 27 29 -99 0
25 26 27 29 -102 0
25 26 27 29 -82 0
25 26 27 29 -105 0
25 26 27 29 -64 0
25 26 27 29 -100 0
25 26 27 29 -103 0
25 26 27 29 -81 0
25 26 27 29 -108 0
25 26 27 29 -23 0
25 26 27 29 -24 0
25 26 27 29 -96 0
25 26 27 29 -63 0
25 26 27 29 -97 0
25 26 27 29 -101 0
25 26 27 29 -80 0
25 26 27 29 -107 0
25 26 27 29 -61 0
25 26 27 29 -98 0
25 26 27 29 -104 0
25 26 27 29 -79 0
25 26 27 29 -106 0
11 8 14 13 -7 0
11 8 14 13 -62 0
11 8 14 13 -9 0
11 8 14 13 -64 0
11 8 14 13 -56 0
11 8 14 13 -68 0
11 8 14 13 -69 0
11 8 14 13 -59 0
11 8 14 13 -73 0
11 8 14 13 -65 0
11 8 14 13 -72 0
11 8 14 13 -57 0
11 8 14 13 -74 0
11 8 14 13 -10 0
11 8 14 13 -63 0
11 8 14 13 -12 0
11 8 14 13 -61 0
11 8 14 13 -55 0
11 8 14 13 -66 0
11 8 14 13 -71 0
11 8 14 13 -58 0
11 8 14 13 -76 0
11 8 14 13 -67 0
11 8 14 13 -70 0
11 8 14 13 -60 0
11 8 14 13 -75 0
33 37 34 36 -35 0
33 37 34 36 -99 0
33 37 34 36 -68 0
33 37 34 36 -38 0
33 37 34 36 -100 0
33 37 34 36 -65 0
33 37 34 36 -109 0
33 37 34 36 -114 0
33 37 34 36 -86 0
33 37 34 36 -117 0
33 37 34 36 -111 0
33 37 34 36 -83 0
33 37 34 36 -116 0
33 37 34 36 -32 0
33 37 34 36 -97 0
33 37 34 36 -66 0
33 37 34 36 -31 0
33 37 34 36 -98 0
33 37 34 36 -67 0
33 37 34 36 -110 0
33 37 34 36 -112 0
33 37 34 36 -85 0
33 37 34 36 -118 0
33 37 34 36 -113 0
33 37 34 36 -84 0
33 37 34 36 -115 0
44 40 43 46 -42 0
44 40 43 46 -102 0
44 40 43 46 -69 0
44 40 43 46 -114 0
44 40 43 46 -45 0
44 40 43 46 -103 0
44 40 43 46 -72 0
44 40 43 46 -111 0
44 40 43 46 -120 0
44 40 43 46 -87 0
44 40 43 46 -123 0
44 40 43 46 -90 0
44 40 43 46 -124 0
44 40 43 46 -39 0
44 40 43 46 -101 0
44 40 43 46 -71 0
44 40 43 46 -112 0
44 40 43 46 -41 0
44 40 43 46 -104 0
44 40 43 46 -70 0
44 40 43 46 -113 0
44 40 43 46 -119 0
44 40 43 46 -89 0
44 40 43 46 -121 0
44 40 43 46 -88 0
44 40 43 46 -122 0
15 16 19 17 -20 0
15 16 19 17 -82 0
15 16 19 17 -59 0
15 16 19 17 -86 0
15 16 19 17 -87 0
15 16 19 17 -22 0
15 16 19 17 -81 0
15 16 19 17 -57 0
15 16 19 17 -83 0
15 16 19 17 -90 0
15 16 19 17 -78 0
15 16 19 17 -92 0
15 16 19 17 -91 0
15 16 19 17 -18 0
15 16 19 17 -80 0
15 16 19 17 -58 0
15 16 19 17 -85 0
15 16 19 17 -89 0
15 16 19 17 -21 0
15 16 19 17 -79 0
15 16 19 17 -60 0
15 16 19 17 -84 0
15 16 19 17 -88 0
15 16 19 17 -77 0
15 16 19 17 -94 0
15 16 19 17 -93 0
52 48 49 47 -51 0
52 48 49 47 -105 0
52 48 49 47 -73 0
52 48 49 47 -117 0
52 48 49 47 -123 0
52 48 49 47 -92 0
52 48 49 47 -50 0
52 48 49 47 -108 0
52 48 49 47 -74 0
52 48 49 47 -116 0
52 48 49 47 -124 0
52 48 49 47 -91 0
52 48 49 47 -126 0
52 48 49 47 -53 0
52 48 49 47 -107 0
52 48 49 47 -76 0
52 48 49 47 -118 0
52 48 49 47 -121 0
52 48 49 47 -94 0
52 48 49 47 -54 0
52 48 49 47 -106 0
52 48 49 47 -75 0
52 48 49 47 -115 0
52 48 49 47 -122 0
52 48 49 47 -93 0
52 48 49 47 -125 0
4 25 2 5 1 -28 0
4 25 2 5 1 -30 0
4 25 2 5 1 -23 0
4 25 2 5 1 -24 0
4 25 26 27 29 -28 0
4 25 26 27 29 -30 0
4 25 26 27 29 -23 0
4 25 26 27 29 -24 0
4 11 2 5 1 -7 0
4 11 2 5 1 -9 0
4 11 2 5 1 -10 0
4 11 2 5 1 -12 0
4 11 8 14 13 -7 0
4 11 8 14 13 -9 0
4 11 8 14 13 -10 0
4 11 8 14 13 -12 0
4 33 2 5 1 -35 0
4 33 2 5 1 -38 0
4 33 2 5 1 -32 0
4 33 2 5 1 -31 0
4 33 37 34 36 -35 0
4 33 37 34 36 -38 0
4 33 37 34 36 -32 0
4 33 37 34 36 -31 0
4 44 2 5 1 -42 0
4 44 2 5 1 -45 0
4 44 2 5 1 -39 0
4 44 2 5 1 -41 0
4 44 40 43 46 -42 0
4 44 40 43 46 -45 0
4 44 40 43 46 -39 0
4 44 40 43 46 -41 0
4 15 2 5 1 -20 0
4 15 2 5 1 -22 0
4 15 2 5 1 -18 0
4 15 2 5 1 -21 0
4 15 16 19 17 -20 0
4 15 16 19 17 -22 0
4 15 16 19 17 -18 0
4 15 16 19 17 -21 0
4 52 2 5 1 -51 0
4 52 2 5 1 -50 0
4 52 2 5 1 -53 0
4 52 2 5 1 -54 0
4 52 48 49 47 -51 0
4 52 48 49 47 -50 0
4 52 48 49 47 -53 0
4 52 48 49 47 -54 0
4 2 26 5 1 -28 0
4 2 26 5 1 -30 0
4 2 26 5 1 -23 0
4 2 26 5 1 -24 0
4 2 8 5 1 -7 0
4 2 8 5 1 -9 0
4 2 8 5 1 -10 0
4 2 8 5 1 -12 0
4 2 37 5 1 -35 0
4 2 37 5 1 -38 0
4 2 37 5 1 -32 0
4 2 37 5 1 -31 0
4 2 40 5 1 -42 0
4 2 40 5 1 -45 0
4 2 40 5 1 -39 0
4 2 40 5 1 -41 0
4 2 16 5 1 -20 0
4 2 16 5 1 -22 0
4 2 16 5 1 -18 0
4 2 16 5 1 -21 0
4 2 48 5 1 -51 0
4 2 48 5 1 -50 0
4 2 48 5 1 -53 0
4 2 48 5 1 -54 0
4 2 5 27 1 -28 0
4 2 5 27 1 -30 0
4 2 5 27 1 -23 0
4 2 5 27 1 -24 0
4 2 5 14 1 -7 0
4 2 5 14 1 -9 0
4 2 5 14 1 -10 0
4 2 5 14 1 -12 0
4 2 5 34 1 -35 0
4 2 5 34 1 -38 0
4 2 5 34 1 -32 0
4 2 5 34 1 -31 0
4 2 5 43 1 -42 0
4 2 5 43 1 -45 0
4 2 5 43 1 -39 0
4 2 5 43 1 -41 0
4 2 5 19 1 -20 0
4 2 5 19 1 -22 0
4 2 5 19 1 -18 0
4 2 5 19 1 -21 0
4 2 5 49 1 -51 0
4 2 5 49 1 -50 0
4 2 5 49 1 -53 0
4 2 5 49 1 -54 0
4 2 5 1 29 -28 0
4 2 5 1 29 -30 0
4 2 5 1 29 -23 0
4 2 5 1 29 -24 0
4 2 5 1 13 -7 0
4 2 5 1 13 -9 0
4 2 5 1 13 -10 0
4 2 5 1 13 -12 0
4 2 5 1 36 -35 0
4 2 5 1 36 -38 0
4 2 5 1 36 -32 0
4 2 5 1 36 -31 0
4 2 5 1 46 -42 0
4 2 5 1 46 -45 0
4 2 5 1 46 -39 0
4 2 5 1 46 -41 0
4 2 5 1 17 -20 0
4 2 5 1 17 -22 0
4 2 5 1 17 -18 0
4 2 5 1 17 -21 0
4 2 5 1 47 -51 0
4 2 5 1 47 -50 0
4 2 5 1 47 -53 0
4 2 5 1 47 -54 0
25 11 26 27 29 -62 0
25 11 26 27 29 -64 0
25 11 26 27 29 -63 0
25 11 26 27 29 -61 0
25 11 8 14 13 -62 0
25 11 8 14 13 -64 0
25 11 8 14 13 -63 0
25 11 8 14 13 -61 0
25 33 26 27 29 -99 0
25 33 26 27 29 -100 0
25 33 26 27 29 -97 0
25 33 26 27 29 -98 0
25 33 37 34 36 -99 0
25 33 37 34 36 -100 0
25 33 37 34 36 -97 0
25 33 37 34 36 -98 0
25 44 26 27 29 -102 0
25 44 26 27 29 -103 0
25 44 26 27 29 -101 0
25 44 26 27 29 -104 0
25 44 40 43 46 -102 0
25 44 40 43 46 -103 0
25 44 40 43 46 -101 0
25 44 40 43 46 -104 0
25 15 26 27 29 -82 0
25 15 26 27 29 -81 0
25 15 26 27 29 -80 0
25 15 26 27 29 -79 0
25 15 16 19 17 -82 0
25 15 16 19 17 -81 0
25 15 16 19 17 -80 0
25 15 16 19 17 -79 0
25 52 26 27 29 -105 0
25 52 26 27 29 -108 0
25 52 26 27 29 -107 0
25 52 26 27 29 -106 0
25 52 48 49 47 -105 0
25 52 48 49 47 -108 0
25 52 48 49 47 -107 0
25 52 48 49 47 -106 0
25 2 26 27 29 -28 0
25 2 26 27 29 -30 0
25 2 26 27 29 -23 0
25 2 26 27 29 -24 0
25 26 8 27 29 -62 0
25 26 8 27 29 -64 0
25 26 8 27 29 -63 0
25 26 8 27 29 -61 0
25 26 37 27 29 -99 0
25 26 37 27 29 -100 0
25 26 37 27 29 -97 0
25 26 37 27 29 -98 0
25 26 40 27 29 -102 0
25 26 40 27 29 -103 0
25 26 40 27 29 -101 0
25 26 40 27 29 -104 0
25 26 16 27 29 -82 0
25 26 16 27 29 -81 0
25 26 16 27 29 -80 0
25 26 16 27 29 -79 0
25 26 48 27 29 -105 0
25 26 48 27 29 -108 0
25 26 48 27 29 -107 0
25 26 48 27 29 -106 0
25 26 5 27 29 -28 0
25 26 5 27 29 -30 0
25 26 5 27 29 -23 0
25 26 5 27 29 -24 0
25 26 27 14 29 -62 0
25 26 27 14 29 -64 0
25 26 27 14 29 -63 0
25 26 27 14 29 -61 0
25 26 27 34 29 -99 0
25 26 27 34 29 -100 0
25 26 27 34 29 -97 0
25 26 27 34 29 -98 0
25 26 27 43 29 -102 0
25 26 27 43 29 -103 0
25 26 27 43 29 -101 0
25 26 27 43 29 -104 0
25 26 27 19 29 -82 0
25 26 27 19 29 -81 0
25 26 27 19 29 -80 0
25 26 27 19 29 -79 0
25 26 27 49 29 -105 0
25 26 27 49 29 -108 0
25 26 27 49 29 -107 0
25 26 27 49 29 -106 0
25 26 27 1 29 -28 0
25 26 27 1 29 -30 0
25 26 27 1 29 -23 0
25 26 27 1 29 -24 0
25 26 27 29 13 -62 0
25 26 27 29 13 -64 0
25 26 27 29 13 -63 0
25 26 27 29 13 -61 0
25 26 27 29 36 -99 0
25 26 27 29 36 -100 0
25 26 27 29 36 -97 0
25 26 27 29 36 -98 0
25 26 27 29 46 -102 0
25 26 27 29 46 -103 0
25 26 27 29 46 -101 0
25 26 27 29 46 -104 0
25 26 27 29 17 -82 0
25 26 27 29 17 -81 0
25 26 27 29 17 -80 0
25 26 27 29 17 -79 0
25 26 27 29 47 -105 0
25 26 27 29 47 -108 0
25 26 27 29 47 -107 0
25 26 27 29 47 -106 0
11 33 8 14 13 -68 0
11 33 8 14 13 -65 0
11 33 8 14 13 -66 0
11 33 8 14 13 -67 0
11 33 37 34 36 -68 0
11 33 37 34 36 -65 0
11 33 37 34 36 -66 0
11 33 37 34 36 -67 0
11 44 8 14 13 -69 0
11 44 8 14 13 -72 0
11 44 8 14 13 -71 0
11 44 8 14 13 -70 0
11 44 40 43 46 -69 0
11 44 40 43 46 -72 0
11 44 40 43 46 -71 0
11 44 40 43 46 -70 0
11 15 8 14 13 -59 0
11 15 8 14 13 -57 0
11 15 8 14 13 -58 0
11 15 8 14 13 -60 0
11 15 16 19 17 -59 0
11 15 16 19 17 -57 0
11 15 16 19 17 -58 0
11 15 16 19 17 -60 0
11 52 8 14 13 -73 0
11 52 8 14 13 -74 0
11 52 8 14 13 -76 0
11 52 8 14 13 -75 0
11 52 48 49 47 -73 0
11 52 48 49 47 -74 0
11 52 48 49 47 -76 0
11 52 48 49 47 -75 0
11 2 8 14 13 -7 0
11 2 8 14 13 -9 0
11 2 8 14 13 -10 0
11 2 8 14 13 -12 0
11 26 8 14 13 -62 0
11 26 8 14 13 -64 0
11 26 8 14 13 -63 0
11 26 8 14 13 -61 0
11 8 37 14 13 -68 0
11 8 37 14 13 -65 0
11 8 37 14 13 -66 0
11 8 37 14 13 -67 0
11 8 40 14 13 -69 0
11 8 40 14 13 -72 0
11 8 40 14 13 -71 0
11 8 40 14 13 -70 0
11 8 16 14 13 -59 0
11 8 16 14 13 -57 0
11 8 16 14 13 -58 0
11 8 16 14 13 -60 0
11 8 48 14 13 -73 0
11 8 48 14 13 -74 0
11 8 48 14 13 -76 0
11 8 48 14 13 -75 0
11 8 5 14 13 -7 0
11 8 5 14 13 -9 0
11 8 5 14 13 -10 0
11 8 5 14 13 -12 0
11 8 27 14 13 -62 0
11 8 27 14 13 -64 0
11 8 27 14 13 -63 0
11 8 27 14 13 -61 0
11 8 14 34 13 -68 0
11 8 14 34 13 -65 0
11 8 14 34 13 -66 0
11 8 14 34 13 -67 0
11 8 14 43 13 -69 0
11 8 14 43 13 -72 0
11 8 14 43 13 -71 0
11 8 14 43 13 -70 0
11 8 14 19 13 -59 0
11 8 14 19 13 -57 0
11 8 14 19 13 -58 0
11 8 14 19 13 -60 0
11 8 14 49 13 -73 0
11 8 14 49 13 -74 0
11 8 14 49 13 -76 0
11 8 14 49 13 -75 0
11 8 14 1 13 -7 0
11 8 14 1 13 -9 0
11 8 14 1 13 -10 0
11 8 14 1 13 -12 0
11 8 14 29 13 -62 0
11 8 14 29 13 -64 0
11 8 14 29 13 -63 0
11 8 14 29 13 -61 0
11 8 14 13 36 -68 0
11 8 14 13 36 -65 0
11 8 14 13 36 -66 0
11 8 14 13 36 -67 0
11 8 14 13 46 -69 0
11 8 14 13 46 -72 0
11 8 14 13 46 -71 0
11 8 14 13 46 -70 0
11 8 14 13 17 -59 0
11 8 14 13 17 -57 0
11 8 14 13 17 -58 0
11 8 14 13 17 -60 0
11 8 14 13 47 -73 0
11 8 14 13 47 -74 0
11 8 14 13 47 -76 0
11 8 14 13 47 -75 0
33 44 37 34 36 -114 0
33 44 37 34 36 -111 0
33 44 37 34 36 -112 0
33 44 37 34 36 -113 0
33 44 40 43 46 -114 0
33 44 40 43 46 -111 0
33 44 40 43 46 -112 0
33 44 40 43 46 -113 0
33 15 37 34 36 -86 0
33 15 37 34 36 -83 0
33 15 37 34 36 -85 0
33 15 37 34 36 -84 0
33 15 16 19 17 -86 0
33 15 16 19 17 -83 0
33 15 16 19 17 -85 0
33 15 16 19 17 -84 0
33 52 37 34 36 -117 0
33 52 37 34 36 -116 0
33 52 37 34 36 -118 0
33 52 37 34 36 -115 0
33 52 48 49 47 -117 0
33 52 48 49 47 -116 0
33 52 48 49 47 -118 0
33 52 48 49 47 -115 0
33 2 37 34 36 -35 0
33 2 37 34 36 -38 0
33 2 37 34 36 -32 0
33 2 37 34 36 -31 0
33 26 37 34 36 -99 0
33 26 37 34 36 -100 0
33 26 37 34 36 -97 0
33 26 37 34 36 -98 0
33 8 37 34 36 -68 0
33 8 37 34 36 -65 0
33 8 37 34 36 -66 0
33 8 37 34 36 -67 0
33 37 40 34 36 -114 0
33 37 40 34 36 -111 0
33 37 40 34 36 -112 0
33 37 40 34 36 -113 0
33 37 16 34 36 -86 0
33 37 16 34 36 -83 0
33 37 16 34 36 -85 0
33 37 16 34 36 -84 0
33 37 48 34 36 -117 0
33 37 48 34 36 -116 0
33 37 48 34 36 -118 0
33 37 48 34 36 -115 0
33 37 5 34 36 -35 0
33 37 5 34 36 -38 0
33 37 5 34 36 -32 0
33 37 5 34 36 -31 0
33 37 27 34 36 -99 0
33 37 27 34 36 -100 0
33 37 27 34 36 -97 0
33 37 27 34 36 -98 0
33 37 14 34 36 -68 0
33 37 14 34 36 -65 0
33 37 14 34 36 -66 0
33 37 14 34 36 -67 0
33 37 34 43 36 -114 0
33 37 34 43 36 -111 0
33 37 34 43 36 -112 0
33 37 34 43 36 -113 0
33 37 34 19 36 -86 0
33 37 34 19 36 -83 0
33 37 34 19 36 -85 0
33 37 34 19 36 -84 0
33 37 34 49 36 -117 0
33 37 34 49 36 -116 0
33 37 34 49 36 -118 0
33 37 34 49 36 -115 0
33 37 34 1 36 -35 0
33 37 34 1 36 -38 0
33 37 34 1 36 -32 0
33 37 34 1 36 -31 0
33 37 34 29 36 -99 0
33 37 34 29 36 -100 0
33 37 34 29 36 -97 0
33 37 34 29 36 -98 0
33 37 34 13 36 -68 0
33 37 34 13 36 -65 0
33 37 34 13 36 -66 0
33 37 34 13 36 -67 0
33 37 34 36 46 -114 0
33 37 34 36 46 -111 0
33 37 34 36 46 -112 0
33 37 34 36 46 -113 0
33 37 34 36 17 -86 0
33 37 34 36 17 -83 0
33 37 34 36 17 -85 0
33 37 34 36 17 -84 0
33 37 34 36 47 -117 0
33 37 34 36 47 -116 0
33 37 34 36 47 -118 0
33 37 34 36 47 -115 0
44 15 40 43 46 -87 0
44 15 40 43 46 -90 0
44 15 40 43 46 -89 0
44 15 40 43 46 -88 0
44 15 16 19 17 -87 0
44 15 16 19 17 -90 0
44 15 16 19 17 -89 0
44 15 16 19 17 -88 0
44 52 40 43 46 -123 0
44 52 40 43 46 -124 0
44 52 40 43 46 -121 0
44 52 40 43 46 -122 0
44 52 48 49 47 -123 0
44 52 48 49 47 -124 0
44 52 48 49 47 -121 0
44 52 48 49 47 -122 0
44 2 40 43 46 -42 0
44 2 40 43 46 -45 0
44 2 40 43 46 -39 0
44 2 40 43 46 -41 0
44 26 40 43 46 -102 0
44 26 40 43 46 -103 0
44 26 40 43 46 -101 0
44 26 40 43 46 -104 0
44 8 40 43 46 -69 0
44 8 40 43 46 -72 0
44 8 40 43 46 -71 0
44 8 40 43 46 -70 0
44 37 40 43 46 -114 0
44 37 40 43 46 -111 0
44 37 40 43 46 -112 0
44 37 40 43 46 -113 0
44 40 16 43 46 -87 0
44 40 16 43 46 -90 0
44 40 16 43 46 -89 0
44 40 16 43 46 -88 0
44 40 48 43 46 -123 0
44 40 48 43 46 -124 0
44 40 48 43 46 -121 0
44 40 48 43 46 -122 0
44 40 5 43 46 -42 0
44 40 5 43 46 -45 0
44 40 5 43 46 -39 0
44 40 5 43 46 -41 0
44 40 27 43 46 -102 0
44 40 27 43 46 -103 0
44 40 27 43 46 -101 0
44 40 27 43 46 -104 0
44 40 14 43 46 -69 0
44 40 14 43 46 -72 0
44 40 14 43 46 -71 0
44 40 14 43 46 -70 0
44 40 34 43 46 -114 0
44 40 34 43 46 -111 0
44 40 34 43 46 -112 0
44 40 34 43 46 -113 0
44 40 43 19 46 -87 0
44 40 43 19 46 -90 0
44 40 43 19 46 -89 0
44 40 43 19 46 -88 0
44 40 43 49 46 -123 0
44 40 43 49 46 -124 0
44 40 43 49 46 -121 0
44 40 43 49 46 -122 0
44 40 43 1 46 -42 0
44 40 43 1 46 -45 0
44 40 43 1 46 -39 0
44 40 43 1 46 -41 0
44 40 43 29 46 -102 0
44 40 43 29 46 -103 0
44 40 43 29 46 -101 0
44 40 43 29 46 -104 0
44 40 43 13 46 -69 0
44 40 43 13 46 -72 0
44 40 43 13 46 -71 0
44 40 43 13 46 -70 0
44 40 43 36 46 -114 0
44 40 43 36 46 -111 0
44 40 43 36 46 -112 0
44 40 43 36 46 -113 0
44 40 43 46 17 -87 0
44 40 43 46 17 -90 0
44 40 43 46 17 -89 0
44 40 43 46 17 -88 0
44 40 43 46 47 -123 0
44 40 43 46 47 -124 0
44 40 43 46 47 -121 0
44 40 43 46 47 -122 0
15 52 16 19 17 -92 0
15 52 16 19 17 -91 0
15 52 16 19 17 -94 0
15 52 16 19 17 -93 0
15 52 48 49 47 -92 0
15 52 48 49 47 -91 0
15 52 48 49 47 -94 0
15 52 48 49 47 -93 0
15 2 16 19 17 -20 0
15 2 16 19 17 -22 0
15 2 16 19 17 -18 0
15 2 16 19 17 -21 0
15 26 16 19 17 -82 0
15 26 16 19 17 -81 0
15 26 16 19 17 -80 0
15 26 16 19 17 -79 0
15 8 16 19 17 -59 0
15 8 16 19 17 -57 0
15 8 16 19 17 -58 0
15 8 16 19 17 -60 0
15 37 16 19 17 -86 0
15 37 16 19 17 -83 0
15 37 16 19 17 -85 0
15 37 16 19 17 -84 0
15 40 16 19 17 -87 0
15 40 16 19 17 -90 0
15 40 16 19 17 -89 0
15 40 16 19 17 -88 0
15 16 48 19 17 -92 0
15 16 48 19 17 -91 0
15 16 48 19 17 -94 0
15 16 48 19 17 -93 0
15 16 5 19 17 -20 0
15 16 5 19 17 -22 0
15 16 5 19 17 -18 0
15 16 5 19 17 -21 0
15 16 27 19 17 -82 0
15 16 27 19 17 -81 0
15 16 27 19 17 -80 0
15 16 27 19 17 -79 0
15 16 14 19 17 -59 0
15 16 14 19 17 -57 0
15 16 14 19 17 -58 0
15 16 14 19 17 -60 0
15 16 34 19 17 -86 0
15 16 34 19 17 -83 0
15 16 34 19 17 -85 0
15 16 34 19 17 -84 0
15 16 43 19 17 -87 0
15 16 43 19 17 -90 0
15 16 43 19 17 -89 0
15 16 43 19 17 -88 0
15 16 19 49 17 -92 0
15 16 19 49 17 -91 0
15 16 19 49 17 -94 0
15 16 19 49 17 -93 0
15 16 19 1 17 -20 0
15 16 19 1 17 -22 0
15 16 19 1 17 -18 0
15 16 19 1 17 -21 0
15 16 19 29 17 -82 0
15 16 19 29 17 -81 0
15 16 19 29 17 -80 0
15 16 19 29 17 -79 0
15 16 19 13 17 -59 0
15 16 19 13 17 -57 0
15 16 19 13 17 -58 0
15 16 19 13 17 -60 0
15 16 19 36 17 -86 0
15 16 19 36 17 -83 0
15 16 19 36 17 -85 0
15 16 19 36 17 -84 0
15 16 19 46 17 -87 0
15 16 19 46 17 -90 0
15 16 19 46 17 -89 0
15 16 19 46 17 -88 0
15 16 19 17 47 -92 0
15 16 19 17 47 -91 0
15 16 19 17 47 -94 0
15 16 19 17 47 -93 0
52 2 48 49 47 -51 0
52 2 48 49 47 -50 0
52 2 48 49 47 -53 0
52 2 48 49 47 -54 0
52 26 48 49 47 -105 0
52 26 48 49 47 -108 0
52 26 48 49 47 -107 0
52 26 48 49 47 -106 0
52 8 48 49 47 -73 0
52 8 48 49 47 -74 0
52 8 48 49 47 -76 0
52 8 48 49 47 -75 0
52 37 48 49 47 -117 0
52 37 48 49 47 -116 0
52 37 48 49 47 -118 0
52 37 48 49 47 -115 0
52 40 48 49 47 -123 0
52 40 48 49 47 -124 0
52 40 48 49 47 -121 0
52 40 48 49 47 -122 0
52 16 48 49 47 -92 0
52 16 48 49 47 -91 0
52 16 48 49 47 -94 0
52 16 48 49 47 -93 0
52 48 5 49 47 -51 0
52 48 5 49 47 -50 0
52 48 5 49 47 -53 0
52 48 5 49 47 -54 0
52 48 27 49 47 -105 0
52 48 27 49 47 -108 0
52 48 27 49 47 -107 0
52 48 27 49 47 -106 0
52 48 14 49 47 -73 0
52 48 14 49 47 -74 0
52 48 14 49 47 -76 0
52 48 14 49 47 -75 0
52 48 34 49 47 -117 0
52 48 34 49 47 -116 0
52 48 34 49 47 -118 0
52 48 34 49 47 -115 0
52 48 43 49 47 -123 0
52 48 43 49 47 -124 0
52 48 43 49 47 -121 0
52 48 43 49 47 -122 0
52 48 19 49 47 -92 0
52 48 19 49 47 -91 0
52 48 19 49 47 -94 0
52 48 19 49 47 -93 0
52 48 49 1 47 -51 0
52 48 49 1 47 -50 0
52 48 49 1 47 -53 0
52 48 49 1 47 -54 0
52 48 49 29 47 -105 0
52 48 49 29 47 -108 0
52 48 49 29 47 -107 0
52 48 49 29 47 -106 0
52 48 49 13 47 -73 0
52 48 49 13 47 -74 0
52 48 49 13 47 -76 0
52 48 49 13 47 -75 0
52 48 49 36 47 -117 0
52 48 49 36 47 -116 0
52 48 49 36 47 -118 0
52 48 49 36 47 -115 0
52 48 49 46 47 -123 0
52 48 49 46 47 -124 0
52 48 49 46 47 -121 0
52 48 49 46 47 -122 0
52 48 49 17 47 -92 0
52 48 49 17 47 -91 0
52 48 49 17 47 -94 0
52 48 49 17 47 -93 0
6 28 7 35 42 20 51 0
30 95 62 99 102 82 105 0
9 64 56 68 69 59 73 0
38 100 65 109 114 86 117 0
45 103 72 111 120 87 123 0
22 81 57 83 90 78 92 0
50 108 74 116 124 91 126 0
3 23 10 32 39 18 53 0
24 96 63 97 101 80 107 0
12 61 55 66 71 58 76 0
31 98 67 110 112 85 118 0
41 104 70 113 119 89 121 0
21 79 60 84 88 77 94 0
54 106 75 115 122 93 125 0
4 25 2 26 5 27 -28 0
4 25 2 26 5 27 -30 0
4 25 2 26 5 27 -23 0
4 25 2 26 5 27 -24 0
4 25 2 26 5 1 -28 0
4 25 2 26 5 1 -30 0
4 25 2 26 5 1 -23 0
4 25 2 26 5 1 -24 0
4 25 2 26 27 29 -28 0
4 25 2 26 27 29 -30 0
4 25 2 26 27 29 -23 0
4 25 2 26 27 29 -24 0
4 25 2 26 1 29 -28 0
4 25 2 26 1 29 -30 0
4 25 2 26 1 29 -23 0
4 25 2 26 1 29 -24 0
4 25 2 5 27 1 -28 0
4 25 2 5 27 1 -30 0
4 25 2 5 27 1 -23 0
4 25 2 5 27 1 -24 0
4 25 2 5 1 29 -28 0
4 25 2 5 1 29 -30 0
4 25 2 5 1 29 -23 0
4 25 2 5 1 29 -24 0
4 25 26 5 27 29 -28 0
4 25 26 5 27 29 -30 0
4 25 26 5 27 29 -23 0
4 25 26 5 27 29 -24 0
4 25 26 27 1 29 -28 0
4 25 26 27 1 29 -30 0
4 25 26 27 1 29 -23 0
4 25 26 27 1 29 -24 0
4 25 5 27 1 29 -28 0
4 25 5 27 1 29 -30 0
4 25 5 27 1 29 -23 0
4 25 5 27 1 29 -24 0
4 11 2 8 5 14 -7 0
4 11 2 8 5 14 -9 0
4 11 2 8 5 14 -10 0
4 11 2 8 5 14 -12 0
4 11 2 8 5 1 -7 0
4 11 2 8 5 1 -9 0
4 11 2 8 5 1 -10 0
4 11 2 8 5 1 -12 0
4 11 2 8 14 13 -7 0
4 11 2 8 14 13 -9 0
4 11 2 8 14 13 -10 0
4 11 2 8 14 13 -12 0
4 11 2 8 1 13 -7 0
4 11 2 8 1 13 -9 0
4 11 2 8 1 13 -10 0
4 11 2 8 1 13 -12 0
4 11 2 5 14 1 -7 0
4 11 2 5 14 1 -9 0
4 11 2 5 14 1 -10 0
4 11 2 5 14 1 -12 0
4 11 2 5 1 13 -7 0
4 11 2 5 1 13 -9 0
4 11 2 5 1 13 -10 0
4 11 2 5 1 13 -12 0
4 11 8 5 14 13 -7 0
4 11 8 5 14 13 -9 0
4 11 8 5 14 13 -10 0
4 11 8 5 14 13 -12 0
4 11 8 14 1 13 -7 0
4 11 8 14 1 13 -9 0
4 11 8 14 1 13 -10 0
4 11 8 14 1 13 -12 0
4 11 5 14 1 13 -7 0
4 11 5 14 1 13 -9 0
4 11 5 14 1 13 -10 0
4 11 5 14 1 13 -12 0
4 33 2 37 5 34 -35 0
4 33 2 37 5 34 -38 0
4 33 2 37 5 34 -32 0
4 33 2 37 5 34 -31 0
4 33 2 37 5 1 -35 0
4 33 2 37 5 1 -38 0
4 33 2 37 5 1 -32 0
4 33 2 37 5 1 -31 0
4 33 2 37 34 36 -35 0
4 33 2 37 34 36 -38 0
4 33 2 37 34 36 -32 0
4 33 2 37 34 36 -31 0
4 33 2 37 1 36 -35 0
4 33 2 37 1 36 -38 0
4 33 2 37 1 36 -32 0
4 33 2 37 1 36 -31 0
4 33 2 5 34 1 -35 0
4 33 2 5 34 1 -38 0
4 33 2 5 34 1 -32 0
4 33 2 5 34 1 -31 0
4 33 2 5 1 36 -35 0
4 33 2 5 1 36 -38 0
4 33 2 5 1 36 -32 0
4 33 2 5 1 36 -31 0
4 33 37 5 34 36 -35 0
4 33 37 5 34 36 -38 0
4 33 37 5 34 36 -32 0
4 33 37 5 34 36 -31 0
4 33 37 34 1 36 -35 0
4 33 37 34 1 36 -38 0
4 33 37 34 1 36 -32 0
4 33 37 34 1 36 -31 0
4 33 5 34 1 36 -35 0
4 33 5 34 1 36 -38 0
4 33 5 34 1 36 -32 0
4 33 5 34 1 36 -31 0
4 44 2 40 5 43 -42 0
4 44 2 40 5 43 -45 0
4 44 2 40 5 43 -39 0
4 44 2 40 5 43 -41 0
4 44 2 40 5 1 -42 0
4 44 2 40 5 1 -45 0
4 44 2 40 5 1 -39 0
4 44 2 40 5 1 -41 0
4 44 2 40 43 46 -42 0
4 44 2 40 43 46 -45 0
4 44 2 40 43 46 -39 0
4 44 2 40 43 46 -41 0
4 44 2 40 1 46 -42 0
4 44 2 40 1 46 -45 0
4 44 2 40 1 46 -39 0
4 44 2 40 1 46 -41 0
4 44 2 5 43 1 -42 0
4 44 2 5 43 1 -45 0
4 44 2 5 43 1 -39 0
4 44 2 5 43 1 -41 0
4 44 2 5 1 46 -42 0
4 44 2 5 1 46 -45 0
4 44 2 5 1 46 -39 0
4 44 2 5 1 46 -41 0
4 44 40 5 43 46 -42 0
4 44 40 5 43 46 -45 0
4 44 40 5 43 46 -39 0
4 44 40 5 43 46 -41 0
4 44 40 43 1 46 -42 0
4 44 40 43 1 46 -45 0
4 44 40 43 1 46 -39 0
4 44 40 43 1 46 -41 0
4 44 5 43 1 46 -42 0
4 44 5 43 1 46 -45 0
4 44 5 43 1 46 -39 0
4 44 5 43 1 46 -41 0
4 15 2 16 5 19 -20 0
4 15 2 16 5 19 -22 0
4 15 2 16 5 19 -18 0
4 15 2 16 5 19 -21 0
4 15 2 16 5 1 -20 0
4 15 2 16 5 1 -22 0
4 15 2 16 5 1 -18 0
4 15 2 16 5 1 -21 0
4 15 2 16 19 17 -20 0
4 15 2 16 19 17 -22 0
4 15 2 16 19 17 -18 0
4 15 2 16 19 17 -21 0
4 15 2 16 1 17 -20 0
4 15 2 16 1 17 -22 0
4 15 2 16 1 17 -18 0
4 15 2 16 1 17 -21 0
4 15 2 5 19 1 -20 0
4 15 2 5 19 1 -22 0
4 15 2 5 19 1 -18 0
4 15 2 5 19 1 -21 0
4 15 2 5 1 17 -20 0
4 15 2 5 1 17 -22 0
4 15 2 5 1 17 -18 0
4 15 2 5 1 17 -21 0
4 15 16 5 19 17 -20 0
4 15 16 5 19 17 -22 0
4 15 16 5 19 17 -18 0
4 15 16 5 19 17 -21 0
4 15 16 19 1 17 -20 0
4 15 16 19 1 17 -22 0
4 15 16 19 1 17 -18 0
4 15 16 19 1 17 -21 0
4 15 5 19 1 17 -20 0
4 15 5 19 1 17 -22 0
4 15 5 19 1 17 -18 0
4 15 5 19 1 17 -21 0
4 52 2 48 5 49 -51 0
4 52 2 48 5 49 -50 0
4 52 2 48 5 49 -53 0
4 52 2 48 5 49 -54 0
4 52 2 48 5 1 -51 0
4 52 2 48 5 1 -50 0
4 52 2 48 5 1 -53 0
4 52 2 48 5 1 -54 0
4 52 2 48 49 47 -51 0
4 52 2 48 49 47 -50 0
4 52 2 48 49 47 -53 0
4 52 2 48 49 47 -54 0
4 52 2 48 1 47 -51 0
4 52 2 48 1 47 -50 0
4 52 2 48 1 47 -53 0
4 52 2 48 1 47 -54 0
4 52 2 5 49 1 -51 0
4 52 2 5 49 1 -50 0
4 52 2 5 49 1 -53 0
4 52 2 5 49 1 -54 0
4 52 2 5 1 47 -51 0
4 52 2 5 1 47 -50 0
4 52 2 5 1 47 -53 0
4 52 2 5 1 47 -54 0
4 52 48 5 49 47 -51 0
4 52 48 5 49 47 -50 0
4 52 48 5 49 47 -53 0
4 52 48 5 49 47 -54 0
4 52 48 49 1 47 -51 0
4 52 48 49 1 47 -50 0
4 52 48 49 1 47 -53 0
4 52 48 49 1 47 -54 0
4 52 5 49 1 47 -51 0
4 52 5 49 1 47 -50 0
4 52 5 49 1 47 -53 0
4 52 5 49 1 47 -54 0
4 2 26 5 27 1 -28 0
4 2 26 5 27 1 -30 0
4 2 26 5 27 1 -23 0
4 2 26 5 27 1 -24 0
4 2 26 5 1 29 -28 0
4 2 26 5 1 29 -30 0
4 2 26 5 1 29 -23 0
4 2 26 5 1 29 -24 0
4 2 8 5 14 1 -7 0
4 2 8 5 14 1 -9 0
4 2 8 5 14 1 -10 0
4 2 8 5 14 1 -12 0
4 2 8 5 1 13 -7 0
4 2 8 5 1 13 -9 0
4 2 8 5 1 13 -10 0
4 2 8 5 1 13 -12 0
4 2 37 5 34 1 -35 0
4 2 37 5 34 1 -38 0
4 2 37 5 34 1 -32 0
4 2 37 5 34 1 -31 0
4 2 37 5 1 36 -35 0
4 2 37 5 1 36 -38 0
4 2 37 5 1 36 -32 0
4 2 37 5 1 36 -31 0
4 2 40 5 43 1 -42 0
4 2 40 5 43 1 -45 0
4 2 40 5 43 1 -39 0
4 2 40 5 43 1 -41 0
4 2 40 5 1 46 -42 0
4 2 40 5 1 46 -45 0
4 2 40 5 1 46 -39 0
4 2 40 5 1 46 -41 0
4 2 16 5 19 1 -20 0
4 2 16 5 19 1 -22 0
4 2 16 5 19 1 -18 0
4 2 16 5 19 1 -21 0
4 2 16 5 1 17 -20 0
4 2 16 5 1 17 -22 0
4 2 16 5 1 17 -18 0
4 2 16 5 1 17 -21 0
4 2 48 5 49 1 -51 0
4 2 48 5 49 1 -50 0
4 2 48 5 49 1 -53 0
4 2 48 5 49 1 -54 0
4 2 48 5 1 47 -51 0
4 2 48 5 1 47 -50 0
4 2 48 5 1 47 -53 0
4 2 48 5 1 47 -54 0
4 2 5 27 1 29 -28 0
4 2 5 27 1 29 -30 0
4 2 5 27 1 29 -23 0
4 2 5 27 1 29 -24 0
4 2 5 14 1 13 -7 0
4 2 5 14 1 13 -9 0
4 2 5 14 1 13 -10 0
4 2 5 14 1 13 -12 0
4 2 5 34 1 36 -35 0
4 2 5 34 1 36 -38 0
4 2 5 34 1 36 -32 0
4 2 5 34 1 36 -31 0
4 2 5 43 1 46 -42 0
4 2 5 43 1 46 -45 0
4 2 5 43 1 46 -39 0
4 2 5 43 1 46 -41 0
4 2 5 19 1 17 -20 0
4 2 5 19 1 17 -22 0
4 2 5 19 1 17 -18 0
4 2 5 19 1 17 -21 0
4 2 5 49 1 47 -51 0
4 2 5 49 1 47 -50 0
4 2 5 49 1 47 -53 0
4 2 5 49 1 47 -54 0
25 11 26 8 27 14 -62 0
25 11 26 8 27 14 -64 0
25 11 26 8 27 14 -63 0
25 11 26 8 27 14 -61 0
25 11 26 8 27 29 -62 0
25 11 26 8 27 29 -64 0
25 11 26 8 27 29 -63 0
25 11 26 8 27 29 -61 0
25 11 26 8 14 13 -62 0
25 11 26 8 14 13 -64 0
25 11 26 8 14 13 -63 0
25 11 26 8 14 13 -61 0
25 11 26 8 29 13 -62 0
25 11 26 8 29 13 -64 0
25 11 26 8 29 13 -63 0
25 11 26 8 29 13 -61 0
25 11 26 27 14 29 -62 0
25 11 26 27 14 29 -64 0
25 11 26 27 14 29 -63 0
25 11 26 27 14 29 -61 0
25 11 26 27 29 13 -62 0
25 11 26 27 29 13 -64 0
25 11 26 27 29 13 -63 0
25 11 26 27 29 13 -61 0
25 11 8 27 14 13 -62 0
25 11 8 27 14 13 -64 0
25 11 8 27 14 13 -63 0
25 11 8 27 14 13 -61 0
25 11 8 14 29 13 -62 0
25 11 8 14 29 13 -64 0
25 11 8 14 29 13 -63 0
25 11 8 14 29 13 -61 0
25 11 27 14 29 13 -62 0
25 11 27 14 29 13 -64 0
25 11 27 14 29 13 -63 0
25 11 27 14 29 13 -61 0
25 33 26 37 27 34 -99 0
25 33 26 37 27 34 -100 0
25 33 26 37 27 34 -97 0
25 33 26 37 27 34 -98 0
25 33 26 37 27 29 -99 0
25 33 26 37 27 29 -100 0
25 33 26 37 27 29 -97 0
25 33 26 37 27 29 -98 0
25 33 26 37 34 36 -99 0
25 33 26 37 34 36 -100 0
25 33 26 37 34 36 -97 0
25 33 26 37 34 36 -98 0
25 33 26 37 29 36 -99 0
25 33 26 37 29 36 -100 0
25 33 26 37 29 36 -97 0
25 33 26 37 29 36 -98 0
25 33 26 27 34 29 -99 0
25 33 26 27 34 29 -100 0
25 33 26 27 34 29 -97 0
25 33 26 27 34 29 -98 0
25 33 26 27 29 36 -99 0
25 33 26 27 29 36 -100 0
25 33 26 27 29 36 -97 0
25 33 26 27 29 36 -98 0
25 33 37 27 34 36 -99 0
25 33 37 27 34 36 -100 0
25 33 37 27 34 36 -97 0
25 33 37 27 34 36 -98 0
25 33 37 34 29 36 -99 0
25 33 37 34 29 36 -100 0
25 33 37 34 29 36 -97 0
25 33 37 34 29 36 -98 0
25 33 27 34 29 36 -99 0
25 33 27 34 29 36 -100 0
25 33 27 34 29 36 -97 0
25 33 27 34 29 36 -98 0
25 44 26 40 27 43 -102 0
25 44 26 40 27 43 -103 0
25 44 26 40 27 43 -101 0
25 44 26 40 27 43 -104 0
25 44 26 40 27 29 -102 0
25 44 26 40 27 29 -103 0
25 44 26 40 27 29 -101 0
25 44 26 40 27 29 -104 0
25 44 26 40 43 46 -102 0
25 44 26 40 43 46 -103 0
25 44 26 40 43 46 -101 0
25 44 26 40 43 46 -104 0
25 44 26 40 29 46 -102 0
25 44 26 40 29 46 -103 0
25 44 26 40 29 46 -101 0
25 44 26 40 29 46 -104 0
25 44 26 27 43 29 -102 0
25 44 26 27 43 29 -103 0
25 44 26 27 43 29 -101 0
25 44 26 27 43 29 -104 0
25 44 26 27 29 46 -102 0
25 44 26 27 29 46 -103 0
25 44 26 27 29 46 -101 0
25 44 26 27 29 46 -104 0
25 44 40 27 43 46 -102 0
25 44 40 27 43 46 -103 0
25 44 40 27 43 46 -101 0
25 44 40 27 43 46 -104 0
25 44 40 43 29 46 -102 0
25 44 40 43 29 46 -103 0
25 44 40 43 29 46 -101 0
25 44 40 43 29 46 -104 0
25 44 27 43 29 46 -102 0
25 44 27 43 29 46 -103 0
25 44 27 43 29 46 -101 0
25 44 27 43 29 46 -104 0
25 15 26 16 27 19 -82 0
25 15 26 16 27 19 -81 0
25 15 26 16 27 19 -80 0
25 15 26 16 27 19 -79 0
25 15 26 16 27 29 -82 0
25 15 26 16 27 29 -81 0
25 15 26 16 27 29 -80 0
25 15 26 16 27 29 -79 0
25 15 26 16 19 17 -82 0
25 15 26 16 19 17 -81 0
25 15 26 16 19 17 -80 0
25 15 26 16 19 17 -79 0
25 15 26 16 29 17 -82 0
25 15 26 16 29 17 -81 0
25 15 26 16 29 17 -80 0
25 15 26 16 29 17 -79 0
25 15 26 27 19 29 -82 0
25 15 26 27 19 29 -81 0
25 15 26 27 19 29 -80 0
25 15 26 27 19 29 -79 0
25 15 26 27 29 17 -82 0
25 15 26 27 29 17 -81 0
25 15 26 27 29 17 -80 0
25 15 26 27 29 17 -79 0
25 15 16 27 19 17 -82 0
25 15 16 27 19 17 -81 0
25 15 16 27 19 17 -80 0
25 15 16 27 19 17 -79 0
25 15 16 19 29 17 -82 0
25 15 16 19 29 17 -81 0
25 15 16 19 29 17 -80 0
25 15 16 19 29 17 -79 0
25 15 27 19 29 17 -82 0
25 15 27 19 29 17 -81 0
25 15 27 19 29 17 -80 0
25 15 27 19 29 17 -79 0
25 52 26 48 27 49 -105 0
25 52 26 48 27 49 -108 0
25 52 26 48 27 49 -107 0
25 52 26 48 27 49 -106 0
25 52 26 48 27 29 -105 0
25 52 26 48 27 29 -108 0
25 52 26 48 27 29 -107 0
25 52 26 48 27 29 -106 0
25 52 26 48 49 47 -105 0
25 52 26 48 49 47 -108 0
25 52 26 48 49 47 -107 0
25 52 26 48 49 47 -106 0
25 52 26 48 29 47 -105 0
25 52 26 48 29 47 -108 0
25 52 26 48 29 47 -107 0
25 52 26 48 29 47 -106 0
25 52 26 27 49 29 -105 0
25 52 26 27 49 29 -108 0
25 52 26 27 49 29 -107 0
25 52 26 27 49 29 -106 0
25 52 26 27 29 47 -105 0
25 52 26 27 29 47 -108 0
25 52 26 27 29 47 -107 0
25 52 26 27 29 47 -106 0
25 52 48 27 49 47 -105 0
25 52 48 27 49 47 -108 0
25 52 48 27 49 47 -107 0
25 52 48 27 49 47 -106 0
25 52 48 49 29 47 -105 0
25 52 48 49 29 47 -108 0
25 52 48 49 29 47 -107 0
25 52 48 49 29 47 -106 0
25 52 27 49 29 47 -105 0
25 52 27 49 29 47 -108 0
25 52 27 49 29 47 -107 0
25 52 27 49 29 47 -106 0
25 2 26 5 27 29 -28 0
25 2 26 5 27 29 -30 0
25 2 26 5 27 29 -23 0
25 2 26 5 27 29 -24 0
25 2 26 27 1 29 -28 0
25 2 26 27 1 29 -30 0
25 2 26 27 1 29 -23 0
25 2 26 27 1 29 -24 0
25 26 8 27 14 29 -62 0
25 26 8 27 14 29 -64 0
25 26 8 27 14 29 -63 0
25 26 8 27 14 29 -61 0
25 26 8 27 29 13 -62 0
25 26 8 27 29 13 -64 0
25 26 8 27 29 13 -63 0
25 26 8 27 29 13 -61 0
25 26 37 27 34 29 -99 0
25 26 37 27 34 29 -100 0
25 26 37 27 34 29 -97 0
25 26 37 27 34 29 -98 0
25 26 37 27 29 36 -99 0
25 26 37 27 29 36 -100 0
25 26 37 27 29 36 -97 0
25 26 37 27 29 36 -98 0
25 26 40 27 43 29 -102 0
25 26 40 27 43 29 -103 0
25 26 40 27 43 29 -101 0
25 26 40 27 43 29 -104 0
25 26 40 27 29 46 -102 0
25 26 40 27 29 46 -103 0
25 26 40 27 29 46 -101 0
25 26 40 27 29 46 -104 0
25 26 16 27 19 29 -82 0
25 26 16 27 19 29 -81 0
25 26 16 27 19 29 -80 0
25 26 16 27 19 29 -79 0
25 26 16 27 29 17 -82 0
25 26 16 27 29 17 -81 0
25 26 16 27 29 17 -80 0
25 26 16 27 29 17 -79 0
25 26 48 27 49 29 -105 0
25 26 48 27 49 29 -108 0
25 26 48 27 49 29 -107 0
25 26 48 27 49 29 -106 0
25 26 48 27 29 47 -105 0
25 26 48 27 29 47 -108 0
25 26 48 27 29 47 -107 0
25 26 48 27 29 47 -106 0
25 26 5 27 1 29 -28 0
25 26 5 27 1 29 -30 0
25 26 5 27 1 29 -23 0
25 26 5 27 1 29 -24 0
25 26 27 14 29 13 -62 0
25 26 27 14 29 13 -64 0
25 26 27 14 29 13 -63 0
25 26 27 14 29 13 -61 0
25 26 27 34 29 36 -99 0
25 26 27 34 29 36 -100 0
25 26 27 34 29 36 -97 0
25 26 27 34 29 36 -98 0
25 26 27 43 29 46 -102 0
25 26 27 43 29 46 -103 0
25 26 27 43 29 46 -101 0
25 26 27 43 29 46 -104 0
25 26 27 19 29 17 -82 0
25 26 27 19 29 17 -81 0
25 26 27 19 29 17 -80 0
25 26 27 19 29 17 -79 0
25 26 27 49 29 47 -105 0
25 26 27 49 29 47 -108 0
25 26 27 49 29 47 -107 0
25 26 27 49 29 47 -106 0
11 33 8 37 14 34 -68 0
11 33 8 37 14 34 -65 0
11 33 8 37 14 34 -66 0
11 33 8 37 14 34 -67 0
11 33 8 37 14 13 -68 0
11 33 8 37 14 13 -65 0
11 33 8 37 14 13 -66 0
11 33 8 37 14 13 -67 0
11 33 8 37 34 36 -68 0
11 33 8 37 34 36 -65 0
11 33 8 37 34 36 -66 0
11 33 8 37 34 36 -67 0
11 33 8 37 13 36 -68 0
11 33 8 37 13 36 -65 0
11 33 8 37 13 36 -66 0
11 33 8 37 13 36 -67 0
11 33 8 14 34 13 -68 0
11 33 8 14 34 13 -65 0
11 33 8 14 34 13 -66 0
11 33 8 14 34 13 -67 0
11 33 8 14 13 36 -68 0
11 33 8 14 13 36 -65 0
11 33 8 14 13 36 -66 0
11 33 8 14 13 36 -67 0
11 33 37 14 34 36 -68 0
11 33 37 14 34 36 -65 0
11 33 37 14 34 36 -66 0
11 33 37 14 34 36 -67 0
11 33 37 34 13 36 -68 0
11 33 37 34 13 36 -65 0
11 33 37 34 13 36 -66 0
11 33 37 34 13 36 -67 0
11 33 14 34 13 36 -68 0
11 33 14 34 13 36 -65 0
11 33 14 34 13 36 -66 0
11 33 14 34 13 36 -67 0
11 44 8 40 14 43 -69 0
11 44 8 40 14 43 -72 0
11 44 8 40 14 43 -71 0
11 44 8 40 14 43 -70 0
11 44 8 40 14 13 -69 0
11 44 8 40 14 13 -72 0
11 44 8 40 14 13 -71 0
11 44 8 40 14 13 -70 0
11 44 8 40 43 46 -69 0
11 44 8 40 43 46 -72 0
11 44 8 40 43 46 -71 0
11 44 8 40 43 46 -70 0
11 44 8 40 13 46 -69 0
11 44 8 40 13 46 -72 0
11 44 8 40 13 46 -71 0
11 44 8 40 13 46 -70 0
11 44 8 14 43 13 -69 0
11 44 8 14 43 13 -72 0
11 44 8 14 43 13 -71 0
11 44 8 14 43 13 -70 0
11 44 8 14 13 46 -69 0
11 44 8 14 13 46 -72 0
11 44 8 14 13 46 -71 0
11 44 8 14 13 46 -70 0
11 44 40 14 43 46 -69 0
11 44 40 14 43 46 -72 0
11 44 40 14 43 46 -71 0
11 44 40 14 43 46 -70 0
11 44 40 43 13 46 -69 0
11 44 40 43 13 46 -72 0
11 44 40 43 13 46 -71 0
11 44 40 43 13 46 -70 0
11 44 14 43 13 46 -69 0
11 44 14 43 13 46 -72 0
11 44 14 43 13 46 -71 0
11 44 14 43 13 46 -70 0
11 15 8 16 14 19 -59 0
11 15 8 16 14 19 -57 0
11 15 8 16 14 19 -58 0
11 15 8 16 14 19 -60 0
11 15 8 16 14 13 -59 0
11 15 8 16 14 13 -57 0
11 15 8 16 14 13 -58 0
11 15 8 16 14 13 -60 0
11 15 8 16 19 17 -59 0
11 15 8 16 19 17 -57 0
11 15 8 16 19 17 -58 0
11 15 8 16 19 17 -60 0
11 15 8 16 13 17 -59 0
11 15 8 16 13 17 -57 0
11 15 8 16 13 17 -58 0
11 15 8 16 13 17 -60 0
11 15 8 14 19 13 -59 0
11 15 8 14 19 13 -57 0
11 15 8 14 19 13 -58 0
11 15 8 14 19 13 -60 0
11 15 8 14 13 17 -59 0
11 15 8 14 13 17 -57 0
11 15 8 14 13 17 -58 0
11 15 8 14 13 17 -60 0
11 15 16 14 19 17 -59 0
11 15 16 14 19 17 -57 0
11 15 16 14 19 17 -58 0
11 15 16 14 19 17 -60 0
11 15 16 19 13 17 -59 0
11 15 16 19 13 17 -57 0
11 15 16 19 13 17 -58 0
11 15 16 19 13 17 -60 0
11 15 14 19 13 17 -59 0
11 15 14 19 13 17 -57 0
11 15 14 19 13 17 -58 0
11 15 14 19 13 17 -60 0
11 52 8 48 14 49 -73 0
11 52 8 48 14 49 -74 0
11 52 8 48 14 49 -76 0
11 52 8 48 14 49 -75 0
11 52 8 48 14 13 -73 0
11 52 8 48 14 13 -74 0
11 52 8 48 14 13 -76 0
11 52 8 48 14 13 -75 0
11 52 8 48 49 47 -73 0
11 52 8 48 49 47 -74 0
11 52 8 48 49 47 -76 0
11 52 8 48 49 47 -75 0
11 52 8 48 13 47 -73 0
11 52 8 48 13 47 -74 0
11 52 8 48 13 47 -76 0
11 52 8 48 13 47 -75 0
11 52 8 14 49 13 -73 0
11 52 8 14 49 13 -74 0
11 52 8 14 49 13 -76 0
11 52 8 14 49 13 -75 0
11 52 8 14 13 47 -73 0
11 52 8 14 13 47 -74 0
11 52 8 14 13 47 -76 0
11 52 8 14 13 47 -75 0
11 52 48 14 49 47 -73 0
11 52 48 14 49 47 -74 0
11 52 48 14 49 47 -76 0
11 52 48 14 49 47 -75 0
11 52 48 49 13 47 -73 0
11 52 48 49 13 47 -74 0
11 52 48 49 13 47 -76 0
11 52 48 49 13 47 -75 0
11 52 14 49 13 47 -73 0
11 52 14 49 13 47 -74 0
11 52 14 49 13 47 -76 0
11 52 14 49 13 47 -75 0
11 2 8 5 14 13 -7 0
11 2 8 5 14 13 -9 0
11 2 8 5 14 13 -10 0
11 2 8 5 14 13 -12 0
11 2 8 14 1 13 -7 0
11 2 8 14 1 13 -9 0
11 2 8 14 1 13 -10 0
11 2 8 14 1 13 -12 0
11 26 8 27 14 13 -62 0
11 26 8 27 14 13 -64 0
11 26 8 27 14 13 -63 0
11 26 8 27 14 13 -61 0
11 26 8 14 29 13 -62 0
11 26 8 14 29 13 -64 0
11 26 8 14 29 13 -63 0
11 26 8 14 29 13 -61 0
11 8 37 14 34 13 -68 0
11 8 37 14 34 13 -65 0
11 8 37 14 34 13 -66 0
11 8 37 14 34 13 -67 0
11 8 37 14 13 36 -68 0
11 8 37 14 13 36 -65 0
11 8 37 14 13 36 -66 0
11 8 37 14 13 36 -67 0
11 8 40 14 43 13 -69 0
11 8 40 14 43 13 -72 0
11 8 40 14 43 13 -71 0
11 8 40 14 43 13 -70 0
11 8 40 14 13 46 -69 0
11 8 40 14 13 46 -72 0
11 8 40 14 13 46 -71 0
11 8 40 14 13 46 -70 0
11 8 16 14 19 13 -59 0
11 8 16 14 19 13 -57 0
11 8 16 14 19 13 -58 0
11 8 16 14 19 13 -60 0
11 8 16 14 13 17 -59 0
11 8 16 14 13 17 -57 0
11 8 16 14 13 17 -58 0
11 8 16 14 13 17 -60 0
11 8 48 14 49 13 -73 0
11 8 48 14 49 13 -74 0
11 8 48 14 49 13 -76 0
11 8 48 14 49 13 -75 0
11 8 48 14 13 47 -73 0
11 8 48 14 13 47 -74 0
11 8 48 14 13 47 -76 0
11 8 48 14 13 47 -75 0
11 8 5 14 1 13 -7 0
11 8 5 14 1 13 -9 0
11 8 5 14 1 13 -10 0
11 8 5 14 1 13 -12 0
11 8 27 14 29 13 -62 0
11 8 27 14 29 13 -64 0
11 8 27 14 29 13 -63 0
11 8 27 14 29 13 -61 0
11 8 14 34 13 36 -68 0
11 8 14 34 13 36 -65 0
11 8 14 34 13 36 -66 0
11 8 14 34 13 36 -67 0
11 8 14 43 13 46 -69 0
11 8 14 43 13 46 -72 0
11 8 14 43 13 46 -71 0
11 8 14 43 13 46 -70 0
11 8 14 19 13 17 -59 0
11 8 14 19 13 17 -57 0
11 8 14 19 13 17 -58 0
11 8 14 19 13 17 -60 0
11 8 14 49 13 47 -73 0
11 8 14 49 13 47 -74 0
11 8 14 49 13 47 -76 0
11 8 14 49 13 47 -75 0
33 44 37 40 34 43 -114 0
33 44 37 40 34 43 -111 0
33 44 37 40 34 43 -112 0
33 44 37 40 34 43 -113 0
33 44 37 40 34 36 -114 0
33 44 37 40 34 36 -111 0
33 44 37 40 34 36 -112 0
33 44 37 40 34 36 -113 0
33 44 37 40 43 46 -114 0
33 44 37 40 43 46 -111 0
33 44 37 40 43 46 -112 0
33 44 37 40 43 46 -113 0
33 44 37 40 36 46 -114 0
33 44 37 40 36 46 -111 0
33 44 37 40 36 46 -112 0
33 44 37 40 36 46 -113 0
33 44 37 34 43 36 -114 0
33 44 37 34 43 36 -111 0
33 44 37 34 43 36 -112 0
33 44 37 34 43 36 -113 0
33 44 37 34 36 46 -114 0
33 44 37 34 36 46 -111 0
33 44 37 34 36 46 -112 0
33 44 37 34 36 46 -113 0
33 44 40 34 43 46 -114 0
33 44 40 34 43 46 -111 0
33 44 40 34 43 46 -112 0
33 44 40 34 43 46 -113 0
33 44 40 43 36 46 -114 0
33 44 40 43 36 46 -111 0
33 44 40 43 36 46 -112 0
33 44 40 43 36 46 -113 0
33 44 34 43 36 46 -114 0
33 44 34 43 36 46 -111 0
33 44 34 43 36 46 -112 0
33 44 34 43 36 46 -113 0
33 15 37 16 34 19 -86 0
33 15 37 16 34 19 -83 0
33 15 37 16 34 19 -85 0
33 15 37 16 34 19 -84 0
33 15 37 16 34 36 -86 0
33 15 37 16 34 36 -83 0
33 15 37 16 34 36 -85 0
33 15 37 16 34 36 -84 0
33 15 37 16 19 17 -86 0
33 15 37 16 19 17 -83 0
33 15 37 16 19 17 -85 0
33 15 37 16 19 17 -84 0
33 15 37 16 36 17 -86 0
33 15 37 16 36 17 -83 0
33 15 37 16 36 17 -85 0
33 15 37 16 36 17 -84 0
33 15 37 34 19 36 -86 0
33 15 37 34 19 36 -83 0
33 15 37 34 19 36 -85 0
33 15 37 34 19 36 -84 0
33 15 37 34 36 17 -86 0
33 15 37 34 36 17 -83 0
33 15 37 34 36 17 -85 0
33 15 37 34 36 17 -84 0
33 15 16 34 19 17 -86 0
33 15 16 34 19 17 -83 0
33 15 16 34 19 17 -85 0
33 15 16 34 19 17 -84 0
33 15 16 19 36 17 -86 0
33 15 16 19 36 17 -83 0
33 15 16 19 36 17 -85 0
33 15 16 19 36 17 -84 0
33 15 34 19 36 17 -86 0
33 15 34 19 36 17 -83 0
33 15 34 19 36 17 -85 0
33 15 34 19 36 17 -84 0
33 52 37 48 34 49 -117 0
33 52 37 48 34 49 -116 0
33 52 37 48 34 49 -118 0
33 52 37 48 34 49 -115 0
33 52 37 48 34 36 -117 0
33 52 37 48 34 36 -116 0
33 52 37 48 34 36 -118 0
33 52 37 48 34 36 -115 0
33 52 37 48 49 47 -117 0
33 52 37 48 49 47 -116 0
33 52 37 48 49 47 -118 0
33 52 37 48 49 47 -115 0
33 52 37 48 36 47 -117 0
33 52 37 48 36 47 -116 0
33 52 37 48 36 47 -118 0
33 52 37 48 36 47 -115 0
33 52 37 34 49 36 -117 0
33 52 37 34 49 36 -116 0
33 52 37 34 49 36 -118 0
33 52 37 34 49 36 -115 0
33 52 37 34 36 47 -117 0
33 52 37 34 36 47 -116 0
33 52 37 34 36 47 -118 0
33 52 37 34 36 47 -115 0
33 52 48 34 49 47 -117 0
33 52 48 34 49 47 -116 0
33 52 48 34 49 47 -118 0
33 52 48 34 49 47 -115 0
33 52 48 49 36 47 -117 0
33 52 48 49 36 47 -116 0
33 52 48 49 36 47 -118 0
33 52 48 49 36 47 -115 0
33 52 34 49 36 47 -117 0
33 52 34 49 36 47 -116 0
33 52 34 49 36 47 -118 0
33 52 34 49 36 47 -115 0
33 2 37 5 34 36 -35 0
33 2 37 5 34 36 -38 0
33 2 37 5 34 36 -32 0
33 2 37 5 34 36 -31 0
33 2 37 34 1 36 -35 0
33 2 37 34 1 36 -38 0
33 2 37 34 1 36 -32 0
33 2 37 34 1 36 -31 0
33 26 37 27 34 36 -99 0
33 26 37 27 34 36 -100 0
33 26 37 27 34 36 -97 0
33 26 37 27 34 36 -98 0
33 26 37 34 29 36 -99 0
33 26 37 34 29 36 -100 0
33 26 37 34 29 36 -97 0
33 26 37 34 29 36 -98 0
33 8 37 14 34 36 -68 0
33 8 37 14 34 36 -65 0
33 8 37 14 34 36 -66 0
33 8 37 14 34 36 -67 0
33 8 37 34 13 36 -68 0
33 8 37 34 13 36 -65 0
33 8 37 34 13 36 -66 0
33 8 37 34 13 36 -67 0
33 37 40 34 43 36 -114 0
33 37 40 34 43 36 -111 0
33 37 40 34 43 36 -112 0
33 37 40 34 43 36 -113 0
33 37 40 34 36 46 -114 0
33 37 40 34 36 46 -111 0
33 37 40 34 36 46 -112 0
33 37 40 34 36 46 -113 0
33 37 16 34 19 36 -86 0
33 37 16 34 19 36 -83 0
33 37 16 34 19 36 -85 0
33 37 16 34 19 36 -84 0
33 37 16 34 36 17 -86 0
33 37 16 34 36 17 -83 0
33 37 16 34 36 17 -85 0
33 37 16 34 36 17 -84 0
33 37 48 34 49 36 -117 0
33 37 48 34 49 36 -116 0
33 37 48 34 49 36 -118 0
33 37 48 34 49 36 -115 0
33 37 48 34 36 47 -117 0
33 37 48 34 36 47 -116 0
33 37 48 34 36 47 -118 0
33 37 48 34 36 47 -115 0
33 37 5 34 1 36 -35 0
33 37 5 34 1 36 -38 0
33 37 5 34 1 36 -32 0
33 37 5 34 1 36 -31 0
33 37 27 34 29 36 -99 0
33 37 27 34 29 36 -100 0
33 37 27 34 29 36 -97 0
33 37 27 34 29 36 -98 0
33 37 14 34 13 36 -68 0
33 37 14 34 13 36 -65 0
33 37 14 34 13 36 -66 0
33 37 14 34 13 36 -67 0
33 37 34 43 36 46 -114 0
33 37 34 43 36 46 -111 0
33 37 34 43 36 46 -112 0
33 37 34 43 36 46 -113 0
33 37 34 19 36 17 -86 0
33 37 34 19 36 17 -83 0
33 37 34 19 36 17 -85 0
33 37 34 19 36 17 -84 0
33 37 34 49 36 47 -117 0
33 37 34 49 36 47 -116 0
33 37 34 49 36 47 -118 0
33 37 34 49 36 47 -115 0
44 15 40 16 43 19 -87 0
44 15 40 16 43 19 -90 0
44 15 40 16 43 19 -89 0
44 15 40 16 43 19 -88 0
44 15 40 16 43 46 -87 0
44 15 40 16 43 46 -90 0
44 15 40 16 43 46 -89 0
44 15 40 16 43 46 -88 0
44 15 40 16 19 17 -87 0
44 15 40 16 19 17 -90 0
44 15 40 16 19 17 -89 0
44 15 40 16 19 17 -88 0
44 15 40 16 46 17 -87 0
44 15 40 16 46 17 -90 0
44 15 40 16 46 17 -89 0
44 15 40 16 46 17 -88 0
44 15 40 43 19 46 -87 0
44 15 40 43 19 46 -90 0
44 15 40 43 19 46 -89 0
44 15 40 43 19 46 -88 0
44 15 40 43 46 17 -87 0
44 15 40 43 46 17 -90 0
44 15 40 43 46 17 -89 0
44 15 40 43 46 17 -88 0
44 15 16 43 19 17 -87 0
44 15 16 43 19 17 -90 0
44 15 16 43 19 17 -89 0
44 15 16 43 19 17 -88 0
44 15 16 19 46 17 -87 0
44 15 16 19 46 17 -90 0
44 15 16 19 46 17 -89 0
44 15 16 19 46 17 -88 0
44 15 43 19 46 17 -87 0
44 15 43 19 46 17 -90 0
44 15 43 19 46 17 -89 0
44 15 43 19 46 17 -88 0
44 52 40 48 43 49 -123 0
44 52 40 48 43 49 -124 0
44 52 40 48 43 49 -121 0
44 52 40 48 43 49 -122 0
44 52 40 48 43 46 -123 0
44 52 40 48 43 46 -124 0
44 52 40 48 43 46 -121 0
44 52 40 48 43 46 -122 0
44 52 40 48 49 47 -123 0
44 52 40 48 49 47 -124 0
44 52 40 48 49 47 -121 0
44 52 40 48 49 47 -122 0
44 52 40 48 46 47 -123 0
44 52 40 48 46 47 -124 0
44 52 40 48 46 47 -121 0
44 52 40 48 46 47 -122 0
44 52 40 43 49 46 -123 0
44 52 40 43 49 46 -124 0
44 52 40 43 49 46 -121 0
44 52 40 43 49 46 -122 0
44 52 40 43 46 47 -123 0
44 52 40 43 46 47 -124 0
44 52 40 43 46 47 -121 0
44 52 40 43 46 47 -122 0
44 52 48 43 49 47 -123 0
44 52 48 43 49 47 -124 0
44 52 48 43 49 47 -121 0
44 52 48 43 49 47 -122 0
44 52 48 49 46 47 -123 0
44 52 48 49 46 47 -124 0
44 52 48 49 46 47 -121 0
44 52 48 49 46 47 -122 0
44 52 43 49 46 47 -123 0
44 52 43 49 46 47 -124 0
44 52 43 49 46 47 -121 0
44 52 43 49 46 47 -122 0
44 2 40 5 43 46 -42 0
44 2 40 5 43 46 -45 0
44 2 40 5 43 46 -39 0
44 2 40 5 43 46 -41 0
44 2 40 43 1 46 -42 0
44 2 40 43 1 46 -45 0
44 2 40 43 1 46 -39 0
44 2 40 43 1 46 -41 0
44 26 40 27 43 46 -102 0
44 26 40 27 43 46 -103 0
44 26 40 27 43 46 -101 0
44 26 40 27 43 46 -104 0
44 26 40 43 29 46 -102 0
44 26 40 43 29 46 -103 0
44 26 40 43 29 46 -101 0
44 26 40 43 29 46 -104 0
44 8 40 14 43 46 -69 0
44 8 40 14 43 46 -72 0
44 8 40 14 43 46 -71 0
44 8 40 14 43 46 -70 0
44 8 40 43 13 46 -69 0
44 8 40 43 13 46 -72 0
44 8 40 43 13 46 -71 0
44 8 40 43 13 46 -70 0
44 37 40 34 43 46 -114 0
44 37 40 34 43 46 -111 0
44 37 40 34 43 46 -112 0
44 37 40 34 43 46 -113 0
44 37 40 43 36 46 -114 0
44 37 40 43 36 46 -111 0
44 37 40 43 36 46 -112 0
44 37 40 43 36 46 -113 0
44 40 16 43 19 46 -87 0
44 40 16 43 19 46 -90 0
44 40 16 43 19 46 -89 0
44 40 16 43 19 46 -88 0
44 40 16 43 46 17 -87 0
44 40 16 43 46 17 -90 0
44 40 16 43 46 17 -89 0
44 40 16 43 46 17 -88 0
44 40 48 43 49 46 -123 0
44 40 48 43 49 46 -124 0
44 40 48 43 49 46 -121 0
44 40 48 43 49 46 -122 0
44 40 48 43 46 47 -123 0
44 40 48 43 46 47 -124 0
44 40 48 43 46 47 -121 0
44 40 48 43 46 47 -122 0
44 40 5 43 1 46 -42 0
44 40 5 43 1 46 -45 0
44 40 5 43 1 46 -39 0
44 40 5 43 1 46 -41 0
44 40 27 43 29 46 -102 0
44 40 27 43 29 46 -103 0
44 40 27 43 29 46 -101 0
44 40 27 43 29 46 -104 0
44 40 14 43 13 46 -69 0
44 40 14 43 13 46 -72 0
44 40 14 43 13 46 -71 0
44 40 14 43 13 46 -70 0
44 40 34 43 36 46 -114 0
44 40 34 43 36 46 -111 0
44 40 34 43 36 46 -112 0
44 40 34 43 36 46 -113 0
44 40 43 19 46 17 -87 0
44 40 43 19 46 17 -90 0
44 40 43 19 46 17 -89 0
44 40 43 19 46 17 -88 0
44 40 43 49 46 47 -123 0
44 40 43 49 46 47 -124 0
44 40 43 49 46 47 -121 0
44 40 43 49 46 47 -122 0
15 52 16 48 19 49 -92 0
15 52 16 48 19 49 -91 0
15 52 16 48 19 49 -94 0
15 52 16 48 19 49 -93 0
15 52 16 48 19 17 -92 0
15 52 16 48 19 17 -91 0
15 52 16 48 19 17 -94 0
15 52 16 48 19 17 -93 0
15 52 16 48 49 47 -92 0
15 52 16 48 49 47 -91 0
15 52 16 48 49 47 -94 0
15 52 16 48 49 47 -93 0
15 52 16 48 17 47 -92 0
15 52 16 48 17 47 -91 0
15 52 16 48 17 47 -94 0
15 52 16 48 17 47 -93 0
15 52 16 19 49 17 -92 0
15 52 16 19 49 17 -91 0
15 52 16 19 49 17 -94 0
15 52 16 19 49 17 -93 0
15 52 16 19 17 47 -92 0
15 52 16 19 17 47 -91 0
15 52 16 19 17 47 -94 0
15 52 16 19 17 47 -93 0
15 52 48 19 49 47 -92 0
15 52 48 19 49 47 -91 0
15 52 48 19 49 47 -94 0
15 52 48 19 49 47 -93 0
15 52 48 49 17 47 -92 0
15 52 48 49 17 47 -91 0
15 52 48 49 17 47 -94 0
15 52 48 49 17 47 -93 0
15 52 19 49 17 47 -92 0
15 52 19 49 17 47 -91 0
15 52 19 49 17 47 -94 0
15 52 19 49 17 47 -93 0
15 2 16 5 19 17 -20 0
15 2 16 5 19 17 -22 0
15 2 16 5 19 17 -18 0
15 2 16 5 19 17 -21 0
15 2 16 19 1 17 -20 0
15 2 16 19 1 17 -22 0
15 2 16 19 1 17 -18 0
15 2 16 19 1 17 -21 0
15 26 16 27 19 17 -82 0
15 26 16 27 19 17 -81 0
15 26 16 27 19 17 -80 0
15 26 16 27 19 17 -79 0
15 26 16 19 29 17 -82 0
15 26 16 19 29 17 -81 0
15 26 16 19 29 17 -80 0
15 26 16 19 29 17 -79 0
15 8 16 14 19 17 -59 0
15 8 16 14 19 17 -57 0
15 8 16 14 19 17 -58 0
15 8 16 14 19 17 -60 0
15 8 16 19 13 17 -59 0
15 8 16 19 13 17 -57 0
15 8 16 19 13 17 -58 0
15 8 16 19 13 17 -60 0
15 37 16 34 19 17 -86 0
15 37 16 34 19 17 -83 0
15 37 16 34 19 17 -85 0
15 37 16 34 19 17 -84 0
15 37 16 19 36 17 -86 0
15 37 16 19 36 17 -83 0
15 37 16 19 36 17 -85 0
15 37 16 19 36 17 -84 0
15 40 16 43 19 17 -87 0
15 40 16 43 19 17 -90 0
15 40 16 43 19 17 -89 0
15 40 16 43 19 17 -88 0
15 40 16 19 46 17 -87 0
15 40 16 19 46 17 -90 0
15 40 16 19 46 17 -89 0
15 40 16 19 46 17 -88 0
15 16 48 19 49 17 -92 0
15 16 48 19 49 17 -91 0
15 16 48 19 49 17 -94 0
15 16 48 19 49 17 -93 0
15 16 48 19 17 47 -92 0
15 16 48 19 17 47 -91 0
15 16 48 19 17 47 -94 0
15 16 48 19 17 47 -93 0
15 16 5 19 1 17 -20 0
15 16 5 19 1 17 -22 0
15 16 5 19 1 17 -18 0
15 16 5 19 1 17 -21 0
15 16 27 19 29 17 -82 0
15 16 27 19 29 17 -81 0
15 16 27 19 29 17 -80 0
15 16 27 19 29 17 -79 0
15 16 14 19 13 17 -59 0
15 16 14 19 13 17 -57 0
15 16 14 19 13 17 -58 0
15 16 14 19 13 17 -60 0
15 16 34 19 36 17 -86 0
15 16 34 19 36 17 -83 0
15 16 34 19 36 17 -85 0
15 16 34 19 36 17 -84 0
15 16 43 19 46 17 -87 0
15 16 43 19 46 17 -90 0
15 16 43 19 46 17 -89 0
15 16 43 19 46 17 -88 0
15 16 19 49 17 47 -92 0
15 16 19 49 17 47 -91 0
15 16 19 49 17 47 -94 0
15 16 19 49 17 47 -93 0
52 2 48 5 49 47 -51 0
52 2 48 5 49 47 -50 0
52 2 48 5 49 47 -53 0
52 2 48 5 49 47 -54 0
52 2 48 49 1 47 -51 0
52 2 48 49 1 47 -50 0
52 2 48 49 1 47 -53 0
52 2 48 49 1 47 -54 0
52 26 48 27 49 47 -105 0
52 26 48 27 49 47 -108 0
52 26 48 27 49 47 -107 0
52 26 48 27 49 47 -106 0
52 26 48 49 29 47 -105 0
52 26 48 49 29 47 -108 0
52 26 48 49 29 47 -107 0
52 26 48 49 29 47 -106 0
52 8 48 14 49 47 -73 0
52 8 48 14 49 47 -74 0
52 8 48 14 49 47 -76 0
52 8 48 14 49 47 -75 0
52 8 48 49 13 47 -73 0
52 8 48 49 13 47 -74 0
52 8 48 49 13 47 -76 0
52 8 48 49 13 47 -75 0
52 37 48 34 49 47 -117 0
52 37 48 34 49 47 -116 0
52 37 48 34 49 47 -118 0
52 37 48 34 49 47 -115 0
52 37 48 49 36 47 -117 0
52 37 48 49 36 47 -116 0
52 37 48 49 36 47 -118 0
52 37 48 49 36 47 -115 0
52 40 48 43 49 47 -123 0
52 40 48 43 49 47 -124 0
52 40 48 43 49 47 -121 0
52 40 48 43 49 47 -122 0
52 40 48 49 46 47 -123 0
52 40 48 49 46 47 -124 0
52 40 48 49 46 47 -121 0
52 40 48 49 46 47 -122 0
52 16 48 19 49 47 -92 0
52 16 48 19 49 47 -91 0
52 16 48 19 49 47 -94 0
52 16 48 19 49 47 -93 0
52 16 48 49 17 47 -92 0
52 16 48 49 17 47 -91 0
52 16 48 49 17 47 -94 0
52 16 48 49 17 47 -93 0
52 48 5 49 1 47 -51 0
52 48 5 49 1 47 -50 0
52 48 5 49 1 47 -53 0
52 48 5 49 1 47 -54 0
52 48 27 49 29 47 -105 0
52 48 27 49 29 47 -108 0
52 48 27 49 29 47 -107 0
52 48 27 49 29 47 -106 0
52 48 14 49 13 47 -73 0
52 48 14 49 13 47 -74 0
52 48 14 49 13 47 -76 0
52 48 14 49 13 47 -75 0
52 48 34 49 36 47 -117 0
52 48 34 49 36 47 -116 0
52 48 34 49 36 47 -118 0
52 48 34 49 36 47 -115 0
52 48 43 49 46 47 -123 0
52 48 43 49 46 47 -124 0
52 48 43 49 46 47 -121 0
52 48 43 49 46 47 -122 0
52 48 19 49 17 47 -92 0
52 48 19 49 17 47 -91 0
52 48 19 49 17 47 -94 0
52 48 19 49 17 47 -93 0
2 26 5 27 1 29 -28 0
2 26 5 27 1 29 -30 0
2 26 5 27 1 29 -23 0
2 26 5 27 1 29 -24 0
2 8 5 14 1 13 -7 0
2 8 5 14 1 13 -9 0
2 8 5 14 1 13 -10 0
2 8 5 14 1 13 -12 0
2 37 5 34 1 36 -35 0
2 37 5 34 1 36 -38 0
2 37 5 34 1 36 -32 0
2 37 5 34 1 36 -31 0
2 40 5 43 1 46 -42 0
2 40 5 43 1 46 -45 0
2 40 5 43 1 46 -39 0
2 40 5 43 1 46 -41 0
2 16 5 19 1 17 -20 0
2 16 5 19 1 17 -22 0
2 16 5 19 1 17 -18 0
2 16 5 19 1 17 -21 0
2 48 5 49 1 47 -51 0
2 48 5 49 1 47 -50 0
2 48 5 49 1 47 -53 0
2 48 5 49 1 47 -54 0
26 8 27 14 29 13 -62 0
26 8 27 14 29 13 -64 0
26 8 27 14 29 13 -63 0
26 8 27 14 29 13 -61 0
26 37 27 34 29 36 -99 0
26 37 27 34 29 36 -100 0
26 37 27 34 29 36 -97 0
26 37 27 34 29 36 -98 0
26 40 27 43 29 46 -102 0
26 40 27 43 29 46 -103 0
26 40 27 43 29 46 -101 0
26 40 27 43 29 46 -104 0
26 16 27 19 29 17 -82 0
26 16 27 19 29 17 -81 0
26 16 27 19 29 17 -80 0
26 16 27 19 29 17 -79 0
26 48 27 49 29 47 -105 0
26 48 27 49 29 47 -108 0
26 48 27 49 29 47 -107 0
26 48 27 49 29 47 -106 0
8 37 14 34 13 36 -68 0
8 37 14 34 13 36 -65 0
8 37 14 34 13 36 -66 0
8 37 14 34 13 36 -67 0
8 40 14 43 13 46 -69 0
8 40 14 43 13 46 -72 0
8 40 14 43 13 46 -71 0
8 40 14 43 13 46 -70 0
8 16 14 19 13 17 -59 0
8 16 14 19 13 17 -57 0
8 16 14 19 13 17 -58 0
8 16 14 19 13 17 -60 0
8 48 14 49 13 47 -73 0
8 48 14 49 13 47 -74 0
8 48 14 49 13 47 -76 0
8 48 14 49 13 47 -75 0
37 40 34 43 36 46 -114 0
37 40 34 43 36 46 -111 0
37 40 34 43 36 46 -112 0
37 40 34 43 36 46 -113 0
37 16 34 19 36 17 -86 0
37 16 34 19 36 17 -83 0
37 16 34 19 36 17 -85 0
37 16 34 19 36 17 -84 0
37 48 34 49 36 47 -117 0
37 48 34 49 36 47 -116 0
37 48 34 49 36 47 -118 0
37 48 34 49 36 47 -115 0
40 16 43 19 46 17 -87 0
40 16 43 19 46 17 -90 0
40 16 43 19 46 17 -89 0
40 16 43 19 46 17 -88 0
40 48 43 49 46 47 -123 0
40 48 43 49 46 47 -124 0
40 48 43 49 46 47 -121 0
40 48 43 49 46 47 -122 0
16 48 19 49 17 47 -92 0
16 48 19 49 17 47 -91 0
16 48 19 49 17 47 -94 0
16 48 19 49 17 47 -93 0
4 25 2 26 5 27 1 -28 0
4 25 2 26 5 27 1 -30 0
4 25 2 26 5 27 1 -23 0
4 25 2 26 5 27 1 -24 0
4 25 2 26 5 27 29 -28 0
4 25 2 26 5 27 29 -30 0
4 25 2 26 5 27 29 -23 0
4 25 2 26 5 27 29 -24 0
4 25 2 26 5 1 29 -28 0
4 25 2 26 5 1 29 -30 0
4 25 2 26 5 1 29 -23 0
4 25 2 26 5 1 29 -24 0
4 25 2 26 27 1 29 -28 0
4 25 2 26 27 1 29 -30 0
4 25 2 26 27 1 29 -23 0
4 25 2 26 27 1 29 -24 0
4 25 2 5 27 1 29 -28 0
4 25 2 5 27 1 29 -30 0
4 25 2 5 27 1 29 -23 0
4 25 2 5 27 1 29 -24 0
4 25 26 5 27 1 29 -28 0
4 25 26 5 27 1 29 -30 0
4 25 26 5 27 1 29 -23 0
4 25 26 5 27 1 29 -24 0
4 11 2 8 5 14 1 -7 0
4 11 2 8 5 14 1 -9 0
4 11 2 8 5 14 1 -10 0
4 11 2 8 5 14 1 -12 0
4 11 2 8 5 14 13 -7 0
4 11 2 8 5 14 13 -9 0
4 11 2 8 5 14 13 -10 0
4 11 2 8 5 14 13 -12 0
4 11 2 8 5 1 13 -7 0
4 11 2 8 5 1 13 -9 0
4 11 2 8 5 1 13 -10 0
4 11 2 8 5 1 13 -12 0
4 11 2 8 14 1 13 -7 0
4 11 2 8 14 1 13 -9 0
4 11 2 8 14 1 13 -10 0
4 11 2 8 14 1 13 -12 0
4 11 2 5 14 1 13 -7 0
4 11 2 5 14 1 13 -9 0
4 11 2 5 14 1 13 -10 0
4 11 2 5 14 1 13 -12 0
4 11 8 5 14 1 13 -7 0
4 11 8 5 14 1 13 -9 0
4 11 8 5 14 1 13 -10 0
4 11 8 5 14 1 13 -12 0
4 33 2 37 5 34 1 -35 0
4 33 2 37 5 34 1 -38 0
4 33 2 37 5 34 1 -32 0
4 33 2 37 5 34 1 -31 0
4 33 2 37 5 34 36 -35 0
4 33 2 37 5 34 36 -38 0
4 33 2 37 5 34 36 -32 0
4 33 2 37 5 34 36 -31 0
4 33 2 37 5 1 36 -35 0
4 33 2 37 5 1 36 -38 0
4 33 2 37 5 1 36 -32 0
4 33 2 37 5 1 36 -31 0
4 33 2 37 34 1 36 -35 0
4 33 2 37 34 1 36 -38 0
4 33 2 37 34 1 36 -32 0
4 33 2 37 34 1 36 -31 0
4 33 2 5 34 1 36 -35 0
4 33 2 5 34 1 36 -38 0
4 33 2 5 34 1 36 -32 0
4 33 2 5 34 1 36 -31 0
4 33 37 5 34 1 36 -35 0
4 33 37 5 34 1 36 -38 0
4 33 37 5 34 1 36 -32 0
4 33 37 5 34 1 36 -31 0
4 44 2 40 5 43 1 -42 0
4 44 2 40 5 43 1 -45 0
4 44 2 40 5 43 1 -39 0
4 44 2 40 5 43 1 -41 0
4 44 2 40 5 43 46 -42 0
4 44 2 40 5 43 46 -45 0
4 44 2 40 5 43 46 -39 0
4 44 2 40 5 43 46 -41 0
4 44 2 40 5 1 46 -42 0
4 44 2 40 5 1 46 -45 0
4 44 2 40 5 1 46 -39 0
4 44 2 40 5 1 46 -41 0
4 44 2 40 43 1 46 -42 0
4 44 2 40 43 1 46 -45 0
4 44 2 40 43 1 46 -39 0
4 44 2 40 43 1 46 -41 0
4 44 2 5 43 1 46 -42 0
4 44 2 5 43 1 46 -45 0
4 44 2 5 43 1 46 -39 0
4 44 2 5 43 1 46 -41 0
4 44 40 5 43 1 46 -42 0
4 44 40 5 43 1 46 -45 0
4 44 40 5 43 1 46 -39 0
4 44 40 5 43 1 46 -41 0
4 15 2 16 5 19 1 -20 0
4 15 2 16 5 19 1 -22 0
4 15 2 16 5 19 1 -18 0
4 15 2 16 5 19 1 -21 0
4 15 2 16 5 19 17 -20 0
4 15 2 16 5 19 17 -22 0
4 15 2 16 5 19 17 -18 0
4 15 2 16 5 19 17 -21 0
4 15 2 16 5 1 17 -20 0
4 15 2 16 5 1 17 -22 0
4 15 2 16 5 1 17 -18 0
4 15 2 16 5 1 17 -21 0
4 15 2 16 19 1 17 -20 0
4 15 2 16 19 1 17 -22 0
4 15 2 16 19 1 17 -18 0
4 15 2 16 19 1 17 -21 0
4 15 2 5 19 1 17 -20 0
4 15 2 5 19 1 17 -22 0
4 15 2 5 19 1 17 -18 0
4 15 2 5 19 1 17 -21 0
4 15 16 5 19 1 17 -20 0
4 15 16 5 19 1 17 -22 0
4 15 16 5 19 1 17 -18 0
4 15 16 5 19 1 17 -21 0
4 52 2 48 5 49 1 -51 0
4 52 2 48 5 49 1 -50 0
4 52 2 48 5 49 1 -53 0
4 52 2 48 5 49 1 -54 0
4 52 2 48 5 49 47 -51 0
4 52 2 48 5 49 47 -50 0
4 52 2 48 5 49 47 -53 0
4 52 2 48 5 49 47 -54 0
4 52 2 48 5 1 47 -51 0
4 52 2 48 5 1 47 -50 0
4 52 2 48 5 1 47 -53 0
4 52 2 48 5 1 47 -54 0
4 52 2 48 49 1 47 -51 0
4 52 2 48 49 1 47 -50 0
4 52 2 48 49 1 47 -53 0
4 52 2 48 49 1 47 -54 0
4 52 2 5 49 1 47 -51 0
4 52 2 5 49 1 47 -50 0
4 52 2 5 49 1 47 -53 0
4 52 2 5 49 1 47 -54 0
4 52 48 5 49 1 47 -51 0
4 52 48 5 49 1 47 -50 0
4 52 48 5 49 1 47 -53 0
4 52 48 5 49 1 47 -54 0
4 2 26 5 27 1 29 -28 0
4 2 26 5 27 1 29 -30 0
4 2 26 5 27 1 29 -23 0
4 2 26 5 27 1 29 -24 0
4 2 8 5 14 1 13 -7 0
4 2 8 5 14 1 13 -9 0
4 2 8 5 14 1 13 -10 0
4 2 8 5 14 1 13 -12 0
4 2 37 5 34 1 36 -35 0
4 2 37 5 34 1 36 -38 0
4 2 37 5 34 1 36 -32 0
4 2 37 5 34 1 36 -31 0
4 2 40 5 43 1 46 -42 0
4 2 40 5 43 1 46 -45 0
4 2 40 5 43 1 46 -39 0
4 2 40 5 43 1 46 -41 0
4 2 16 5 19 1 17 -20 0
4 2 16 5 19 1 17 -22 0
4 2 16 5 19 1 17 -18 0
4 2 16 5 19 1 17 -21 0
4 2 48 5 49 1 47 -51 0
4 2 48 5 49 1 47 -50 0
4 2 48 5 49 1 47 -53 0
4 2 48 5 49 1 47 -54 0
25 11 26 8 27 14 29 -62 0
25 11 26 8 27 14 29 -64 0
25 11 26 8 27 14 29 -63 0
25 11 26 8 27 14 29 -61 0
25 11 26 8 27 14 13 -62 0
25 11 26 8 27 14 13 -64 0
25 11 26 8 27 14 13 -63 0
25 11 26 8 27 14 13 -61 0
25 11 26 8 27 29 13 -62 0
25 11 26 8 27 29 13 -64 0
25 11 26 8 27 29 13 -63 0
25 11 26 8 27 29 13 -61 0
25 11 26 8 14 29 13 -62 0
25 11 26 8 14 29 13 -64 0
25 11 26 8 14 29 13 -63 0
25 11 26 8 14 29 13 -61 0
25 11 26 27 14 29 13 -62 0
25 11 26 27 14 29 13 -64 0
25 11 26 27 14 29 13 -63 0
25 11 26 27 14 29 13 -61 0
25 11 8 27 14 29 13 -62 0
25 11 8 27 14 29 13 -64 0
25 11 8 27 14 29 13 -63 0
25 11 8 27 14 29 13 -61 0
25 33 26 37 27 34 29 -99 0
25 33 26 37 27 34 29 -100 0
25 33 26 37 27 34 29 -97 0
25 33 26 37 27 34 29 -98 0
25 33 26 37 27 34 36 -99 0
25 33 26 37 27 34 36 -100 0
25 33 26 37 27 34 36 -97 0
25 33 26 37 27 34 36 -98 0
25 33 26 37 27 29 36 -99 0
25 33 26 37 27 29 36 -100 0
25 33 26 37 27 29 36 -97 0
25 33 26 37 27 29 36 -98 0
25 33 26 37 34 29 36 -99 0
25 33 26 37 34 29 36 -100 0
25 33 26 37 34 29 36 -97 0
25 33 26 37 34 29 36 -98 0
25 33 26 27 34 29 36 -99 0
25 33 26 27 34 29 36 -100 0
25 33 26 27 34 29 36 -97 0
25 33 26 27 34 29 36 -98 0
25 33 37 27 34 29 36 -99 0
25 33 37 27 34 29 36 -100 0
25 33 37 27 34 29 36 -97 0
25 33 37 27 34 29 36 -98 0
25 44 26 40 27 43 29 -102 0
25 44 26 40 27 43 29 -103 0
25 44 26 40 27 43 29 -101 0
25 44 26 40 27 43 29 -104 0
25 44 26 40 27 43 46 -102 0
25 44 26 40 27 43 46 -103 0
25 44 26 40 27 43 46 -101 0
25 44 26 40 27 43 46 -104 0
25 44 26 40 27 29 46 -102 0
25 44 26 40 27 29 46 -103 0
25 44 26 40 27 29 46 -101 0
25 44 26 40 27 29 46 -104 0
25 44 26 40 43 29 46 -102 0
25 44 26 40 43 29 46 -103 0
25 44 26 40 43 29 46 -101 0
25 44 26 40 43 29 46 -104 0
25 44 26 27 43 29 46 -102 0
25 44 26 27 43 29 46 -103 0
25 44 26 27 43 29 46 -101 0
25 44 26 27 43 29 46 -104 0
25 44 40 27 43 29 46 -102 0
25 44 40 27 43 29 46 -103 0
25 44 40 27 43 29 46 -101 0
25 44 40 27 43 29 46 -104 0
25 15 26 16 27 19 29 -82 0
25 15 26 16 27 19 29 -81 0
25 15 26 16 27 19 29 -80 0
25 15 26 16 27 19 29 -79 0
25 15 26 16 27 19 17 -82 0
25 15 26 16 27 19 17 -81 0
25 15 26 16 27 19 17 -80 0
25 15 26 16 27 19 17 -79 0
25 15 26 16 27 29 17 -82 0
25 15 26 16 27 29 17 -81 0
25 15 26 16 27 29 17 -80 0
25 15 26 16 27 29 17 -79 0
25 15 26 16 19 29 17 -82 0
25 15 26 16 19 29 17 -81 0
25 15 26 16 19 29 17 -80 0
25 15 26 16 19 29 17 -79 0
25 15 26 27 19 29 17 -82 0
25 15 26 27 19 29 17 -81 0
25 15 26 27 19 29 17 -80 0
25 15 26 27 19 29 17 -79 0
25 15 16 27 19 29 17 -82 0
25 15 16 27 19 29 17 -81 0
25 15 16 27 19 29 17 -80 0
25 15 16 27 19 29 17 -79 0
25 52 26 48 27 49 29 -105 0
25 52 26 48 27 49 29 -108 0
25 52 26 48 27 49 29 -107 0
25 52 26 48 27 49 29 -106 0
25 52 26 48 27 49 47 -105 0
25 52 26 48 27 49 47 -108 0
25 52 26 48 27 49 47 -107 0
25 52 26 48 27 49 47 -106 0
25 52 26 48 27 29 47 -105 0
25 52 26 48 27 29 47 -108 0
25 52 26 48 27 29 47 -107 0
25 52 26 48 27 29 47 -106 0
25 52 26 48 49 29 47 -105 0
25 52 26 48 49 29 47 -108 0
25 52 26 48 49 29 47 -107 0
25 52 26 48 49 29 47 -106 0
25 52 26 27 49 29 47 -105 0
25 52 26 27 49 29 47 -108 0
25 52 26 27 49 29 47 -107 0
25 52 26 27 49 29 47 -106 0
25 52 48 27 49 29 47 -105 0
25 52 48 27 49 29 47 -108 0
25 52 48 27 49 29 47 -107 0
25 52 48 27 49 29 47 -106 0
25 2 26 5 27 1 29 -28 0
25 2 26 5 27 1 29 -30 0
25 2 26 5 27 1 29 -23 0
25 2 26 5 27 1 29 -24 0
25 26 8 27 14 29 13 -62 0
25 26 8 27 14 29 13 -64 0
25 26 8 27 14 29 13 -63 0
25 26 8 27 14 29 13 -61 0
25 26 37 27 34 29 36 -99 0
25 26 37 27 34 29 36 -100 0
25 26 37 27 34 29 36 -97 0
25 26 37 27 34 29 36 -98 0
25 26 40 27 43 29 46 -102 0
25 26 40 27 43 29 46 -103 0
25 26 40 27 43 29 46 -101 0
25 26 40 27 43 29 46 -104 0
25 26 16 27 19 29 17 -82 0
25 26 16 27 19 29 17 -81 0
25 26 16 27 19 29 17 -80 0
25 26 16 27 19 29 17 -79 0
25 26 48 27 49 29 47 -105 0
25 26 48 27 49 29 47 -108 0
25 26 48 27 49 29 47 -107 0
25 26 48 27 49 29 47 -106 0
11 33 8 37 14 34 13 -68 0
11 33 8 37 14 34 13 -65 0
11 33 8 37 14 34 13 -66 0
11 33 8 37 14 34 13 -67 0
11 33 8 37 14 34 36 -68 0
11 33 8 37 14 34 36 -65 0
11 33 8 37 14 34 36 -66 0
11 33 8 37 14 34 36 -67 0
11 33 8 37 14 13 36 -68 0
11 33 8 37 14 13 36 -65 0
11 33 8 37 14 13 36 -66 0
11 33 8 37 14 13 36 -67 0
11 33 8 37 34 13 36 -68 0
11 33 8 37 34 13 36 -65 0
11 33 8 37 34 13 36 -66 0
11 33 8 37 34 13 36 -67 0
11 33 8 14 34 13 36 -68 0
11 33 8 14 34 13 36 -65 0
11 33 8 14 34 13 36 -66 0
11 33 8 14 34 13 36 -67 0
11 33 37 14 34 13 36 -68 0
11 33 37 14 34 13 36 -65 0
11 33 37 14 34 13 36 -66 0
11 33 37 14 34 13 36 -67 0
11 44 8 40 14 43 13 -69 0
11 44 8 40 14 43 13 -72 0
11 44 8 40 14 43 13 -71 0
11 44 8 40 14 43 13 -70 0
11 44 8 40 14 43 46 -69 0
11 44 8 40 14 43 46 -72 0
11 44 8 40 14 43 46 -71 0
11 44 8 40 14 43 46 -70 0
11 44 8 40 14 13 46 -69 0
11 44 8 40 14 13 46 -72 0
11 44 8 40 14 13 46 -71 0
11 44 8 40 14 13 46 -70 0
11 44 8 40 43 13 46 -69 0
11 44 8 40 43 13 46 -72 0
11 44 8 40 43 13 46 -71 0
11 44 8 40 43 13 46 -70 0
11 44 8 14 43 13 46 -69 0
11 44 8 14 43 13 46 -72 0
11 44 8 14 43 13 46 -71 0
11 44 8 14 43 13 46 -70 0
11 44 40 14 43 13 46 -69 0
11 44 40 14 43 13 46 -72 0
11 44 40 14 43 13 46 -71 0
11 44 40 14 43 13 46 -70 0
11 15 8 16 14 19 13 -59 0
11 15 8 16 14 19 13 -57 0
11 15 8 16 14 19 13 -58 0
11 15 8 16 14 19 13 -60 0
11 15 8 16 14 19 17 -59 0
11 15 8 16 14 19 17 -57 0
11 15 8 16 14 19 17 -58 0
11 15 8 16 14 19 17 -60 0
11 15 8 16 14 13 17 -59 0
11 15 8 16 14 13 17 -57 0
11 15 8 16 14 13 17 -58 0
11 15 8 16 14 13 17 -60 0
11 15 8 16 19 13 17 -59 0
11 15 8 16 19 13 17 -57 0
11 15 8 16 19 13 17 -58 0
11 15 8 16 19 13 17 -60 0
11 15 8 14 19 13 17 -59 0
11 15 8 14 19 13 17 -57 0
11 15 8 14 19 13 17 -58 0
11 15 8 14 19 13 17 -60 0
11 15 16 14 19 13 17 -59 0
11 15 16 14 19 13 17 -57 0
11 15 16 14 19 13 17 -58 0
11 15 16 14 19 13 17 -60 0
11 52 8 48 14 49 13 -73 0
11 52 8 48 14 49 13 -74 0
11 52 8 48 14 49 13 -76 0
11 52 8 48 14 49 13 -75 0
11 52 8 48 14 49 47 -73 0
11 52 8 48 14 49 47 -74 0
11 52 8 48 14 49 47 -76 0
11 52 8 48 14 49 47 -75 0
11 52 8 48 14 13 47 -73 0
11 52 8 48 14 13 47 -74 0
11 52 8 48 14 13 47 -76 0
11 52 8 48 14 13 47 -75 0
11 52 8 48 49 13 47 -73 0
11 52 8 48 49 13 47 -74 0
11 52 8 48 49 13 47 -76 0
11 52 8 48 49 13 47 -75 0
11 52 8 14 49 13 47 -73 0
11 52 8 14 49 13 47 -74 0
11 52 8 14 49 13 47 -76 0
11 52 8 14 49 13 47 -75 0
11 52 48 14 49 13 47 -73 0
11 52 48 14 49 13 47 -74 0
11 52 48 14 49 13 47 -76 0
11 52 48 14 49 13 47 -75 0
11 2 8 5 14 1 13 -7 0
11 2 8 5 14 1 13 -9 0
11 2 8 5 14 1 13 -10 0
11 2 8 5 14 1 13 -12 0
11 26 8 27 14 29 13 -62 0
11 26 8 27 14 29 13 -64 0
11 26 8 27 14 29 13 -63 0
11 26 8 27 14 29 13 -61 0
11 8 37 14 34 13 36 -68 0
11 8 37 14 34 13 36 -65 0
11 8 37 14 34 13 36 -66 0
11 8 37 14 34 13 36 -67 0
11 8 40 14 43 13 46 -69 0
11 8 40 14 43 13 46 -72 0
11 8 40 14 43 13 46 -71 0
11 8 40 14 43 13 46 -70 0
11 8 16 14 19 13 17 -59 0
11 8 16 14 19 13 17 -57 0
11 8 16 14 19 13 17 -58 0
11 8 16 14 19 13 17 -60 0
11 8 48 14 49 13 47 -73 0
11 8 48 14 49 13 47 -74 0
11 8 48 14 49 13 47 -76 0
11 8 48 14 49 13 47 -75 0
33 44 37 40 34 43 36 -114 0
33 44 37 40 34 43 36 -111 0
33 44 37 40 34 43 36 -112 0
33 44 37 40 34 43 36 -113 0
33 44 37 40 34 43 46 -114 0
33 44 37 40 34 43 46 -111 0
33 44 37 40 34 43 46 -112 0
33 44 37 40 34 43 46 -113 0
33 44 37 40 34 36 46 -114 0
33 44 37 40 34 36 46 -111 0
33 44 37 40 34 36 46 -112 0
33 44 37 40 34 36 46 -113 0
33 44 37 40 43 36 46 -114 0
33 44 37 40 43 36 46 -111 0
33 44 37 40 43 36 46 -112 0
33 44 37 40 43 36 46 -113 0
33 44 37 34 43 36 46 -114 0
33 44 37 34 43 36 46 -111 0
33 44 37 34 43 36 46 -112 0
33 44 37 34 43 36 46 -113 0
33 44 40 34 43 36 46 -114 0
33 44 40 34 43 36 46 -111 0
33 44 40 34 43 36 46 -112 0
33 44 40 34 43 36 46 -113 0
33 15 37 16 34 19 36 -86 0
33 15 37 16 34 19 36 -83 0
33 15 37 16 34 19 36 -85 0
33 15 37 16 34 19 36 -84 0
33 15 37 16 34 19 17 -86 0
33 15 37 16 34 19 17 -83 0
33 15 37 16 34 19 17 -85 0
33 15 37 16 34 19 17 -84 0
33 15 37 16 34 36 17 -86 0
33 15 37 16 34 36 17 -83 0
33 15 37 16 34 36 17 -85 0
33 15 37 16 34 36 17 -84 0
33 15 37 16 19 36 17 -86 0
33 15 37 16 19 36 17 -83 0
33 15 37 16 19 36 17 -85 0
33 15 37 16 19 36 17 -84 0
33 15 37 34 19 36 17 -86 0
33 15 37 34 19 36 17 -83 0
33 15 37 34 19 36 17 -85 0
33 15 37 34 19 36 17 -84 0
33 15 16 34 19 36 17 -86 0
33 15 16 34 19 36 17 -83 0
33 15 16 34 19 36 17 -85 0
33 15 16 34 19 36 17 -84 0
33 52 37 48 34 49 36 -117 0
33 52 37 48 34 49 36 -116 0
33 52 37 48 34 49 36 -118 0
33 52 37 48 34 49 36 -115 0
33 52 37 48 34 49 47 -117 0
33 52 37 48 34 49 47 -116 0
33 52 37 48 34 49 47 -118 0
33 52 37 48 34 49 47 -115 0
33 52 37 48 34 36 47 -117 0
33 52 37 48 34 36 47 -116 0
33 52 37 48 34 36 47 -118 0
33 52 37 48 34 36 47 -115 0
33 52 37 48 49 36 47 -117 0
33 52 37 48 49 36 47 -116 0
33 52 37 48 49 36 47 -118 0
33 52 37 48 49 36 47 -115 0
33 52 37 34 49 36 47 -117 0
33 52 37 34 49 36 47 -116 0
33 52 37 34 49 36 47 -118 0
33 52 37 34 49 36 47 -115 0
33 52 48 34 49 36 47 -117 0
33 52 48 34 49 36 47 -116 0
33 52 48 34 49 36 47 -118 0
33 52 48 34 49 36 47 -115 0
33 2 37 5 34 1 36 -35 0
33 2 37 5 34 1 36 -38 0
33 2 37 5 34 1 36 -32 0
33 2 37 5 34 1 36 -31 0
33 26 37 27 34 29 36 -99 0
33 26 37 27 34 29 36 -100 0
33 26 37 27 34 29 36 -97 0
33 26 37 27 34 29 36 -98 0
33 8 37 14 34 13 36 -68 0
33 8 37 14 34 13 36 -65 0
33 8 37 14 34 13 36 -66 0
33 8 37 14 34 13 36 -67 0
33 37 40 34 43 36 46 -114 0
33 37 40 34 43 36 46 -111 0
33 37 40 34 43 36 46 -112 0
33 37 40 34 43 36 46 -113 0
33 37 16 34 19 36 17 -86 0
33 37 16 34 19 36 17 -83 0
33 37 16 34 19 36 17 -85 0
33 37 16 34 19 36 17 -84 0
33 37 48 34 49 36 47 -117 0
33 37 48 34 49 36 47 -116 0
33 37 48 34 49 36 47 -118 0
33 37 48 34 49 36 47 -115 0
44 15 40 16 43 19 46 -87 0
44 15 40 16 43 19 46 -90 0
44 15 40 16 43 19 46 -89 0
44 15 40 16 43 19 46 -88 0
44 15 40 16 43 19 17 -87 0
44 15 40 16 43 19 17 -90 0
44 15 40 16 43 19 17 -89 0
44 15 40 16 43 19 17 -88 0
44 15 40 16 43 46 17 -87 0
44 15 40 16 43 46 17 -90 0
44 15 40 16 43 46 17 -89 0
44 15 40 16 43 46 17 -88 0
44 15 40 16 19 46 17 -87 0
44 15 40 16 19 46 17 -90 0
44 15 40 16 19 46 17 -89 0
44 15 40 16 19 46 17 -88 0
44 15 40 43 19 46 17 -87 0
44 15 40 43 19 46 17 -90 0
44 15 40 43 19 46 17 -89 0
44 15 40 43 19 46 17 -88 0
44 15 16 43 19 46 17 -87 0
44 15 16 43 19 46 17 -90 0
44 15 16 43 19 46 17 -89 0
44 15 16 43 19 46 17 -88 0
44 52 40 48 43 49 46 -123 0
44 52 40 48 43 49 46 -124 0
44 52 40 48 43 49 46 -121 0
44 52 40 48 43 49 46 -122 0
44 52 40 48 43 49 47 -123 0
44 52 40 48 43 49 47 -124 0
44 52 40 48 43 49 47 -121 0
44 52 40 48 43 49 47 -122 0
44 52 40 48 43 46 47 -123 0
44 52 40 48 43 46 47 -124 0
44 52 40 48 43 46 47 -121 0
44 52 40 48 43 46 47 -122 0
44 52 40 48 49 46 47 -123 0
44 52 40 48 49 46 47 -124 0
44 52 40 48 49 46 47 -121 0
44 52 40 48 49 46 47 -122 0
44 52 40 43 49 46 47 -123 0
44 52 40 43 49 46 47 -124 0
44 52 40 43 49 46 47 -121 0
44 52 40 43 49 46 47 -122 0
44 52 48 43 49 46 47 -123 0
44 52 48 43 49 46 47 -124 0
44 52 48 43 49 46 47 -121 0
44 52 48 43 49 46 47 -122 0
44 2 40 5 43 1 46 -42 0
44 2 40 5 43 1 46 -45 0
44 2 40 5 43 1 46 -39 0
44 2 40 5 43 1 46 -41 0
44 26 40 27 43 29 46 -102 0
44 26 40 27 43 29 46 -103 0
44 26 40 27 43 29 46 -101 0
44 26 40 27 43 29 46 -104 0
44 8 40 14 43 13 46 -69 0
44 8 40 14 43 13 46 -72 0
44 8 40 14 43 13 46 -71 0
44 8 40 14 43 13 46 -70 0
44 37 40 34 43 36 46 -114 0
44 37 40 34 43 36 46 -111 0
44 37 40 34 43 36 46 -112 0
44 37 40 34 43 36 46 -113 0
44 40 16 43 19 46 17 -87 0
44 40 16 43 19 46 17 -90 0
44 40 16 43 19 46 17 -89 0
44 40 16 43 19 46 17 -88 0
44 40 48 43 49 46 47 -123 0
44 40 48 43 49 46 47 -124 0
44 40 48 43 49 46 47 -121 0
44 40 48 43 49 46 47 -122 0
15 52 16 48 19 49 17 -92 0
15 52 16 48 19 49 17 -91 0
15 52 16 48 19 49 17 -94 0
15 52 16 48 19 49 17 -93 0
15 52 16 48 19 49 47 -92 0
15 52 16 48 19 49 47 -91 0
15 52 16 48 19 49 47 -94 0
15 52 16 48 19 49 47 -93 0
15 52 16 48 19 17 47 -92 0
15 52 16 48 19 17 47 -91 0
15 52 16 48 19 17 47 -94 0
15 52 16 48 19 17 47 -93 0
15 52 16 48 49 17 47 -92 0
15 52 16 48 49 17 47 -91 0
15 52 16 48 49 17 47 -94 0
15 52 16 48 49 17 47 -93 0
15 52 16 19 49 17 47 -92 0
15 52 16 19 49 17 47 -91 0
15 52 16 19 49 17 47 -94 0
15 52 16 19 49 17 47 -93 0
15 52 48 19 49 17 47 -92 0
15 52 48 19 49 17 47 -91 0
15 52 48 19 49 17 47 -94 0
15 52 48 19 49 17 47 -93 0
15 2 16 5 19 1 17 -20 0
15 2 16 5 19 1 17 -22 0
15 2 16 5 19 1 17 -18 0
15 2 16 5 19 1 17 -21 0
15 26 16 27 19 29 17 -82 0
15 26 16 27 19 29 17 -81 0
15 26 16 27 19 29 17 -80 0
15 26 16 27 19 29 17 -79 0
15 8 16 14 19 13 17 -59 0
15 8 16 14 19 13 17 -57 0
15 8 16 14 19 13 17 -58 0
15 8 16 14 19 13 17 -60 0
15 37 16 34 19 36 17 -86 0
15 37 16 34 19 36 17 -83 0
15 37 16 34 19 36 17 -85 0
15 37 16 34 19 36 17 -84 0
15 40 16 43 19 46 17 -87 0
15 40 16 43 19 46 17 -90 0
15 40 16 43 19 46 17 -89 0
15 40 16 43 19 46 17 -88 0
15 16 48 19 49 17 47 -92 0
15 16 48 19 49 17 47 -91 0
15 16 48 19 49 17 47 -94 0
15 16 48 19 49 17 47 -93 0
52 2 48 5 49 1 47 -51 0
52 2 48 5 49 1 47 -50 0
52 2 48 5 49 1 47 -53 0
52 2 48 5 49 1 47 -54 0
52 26 48 27 49 29 47 -105 0
52 26 48 27 49 29 47 -108 0
52 26 48 27 49 29 47 -107 0
52 26 48 27 49 29 47 -106 0
52 8 48 14 49 13 47 -73 0
52 8 48 14 49 13 47 -74 0
52 8 48 14 49 13 47 -76 0
52 8 48 14 49 13 47 -75 0
52 37 48 34 49 36 47 -117 0
52 37 48 34 49 36 47 -116 0
52 37 48 34 49 36 47 -118 0
52 37 48 34 49 36 47 -115 0
52 40 48 43 49 46 47 -123 0
52 40 48 43 49 46 47 -124 0
52 40 48 43 49 46 47 -121 0
52 40 48 43 49 46 47 -122 0
52 16 48 19 49 17 47 -92 0
52 16 48 19 49 17 47 -91 0
52 16 48 19 49 17 47 -94 0
52 16 48 19 49 17 47 -93 0
4 25 2 26 5 27 1 29 -28 0
4 25 2 26 5 27 1 29 -30 0
4 25 2 26 5 27 1 29 -23 0
4 25 2 26 5 27 1 29 -24 0
4 11 2 8 5 14 1 13 -7 0
4 11 2 8 5 14 1 13 -9 0
4 11 2 8 5 14 1 13 -10 0
4 11 2 8 5 14 1 13 -12 0
4 33 2 37 5 34 1 36 -35 0
4 33 2 37 5 34 1 36 -38 0
4 33 2 37 5 34 1 36 -32 0
4 33 2 37 5 34 1 36 -31 0
4 44 2 40 5 43 1 46 -42 0
4 44 2 40 5 43 1 46 -45 0
4 44 2 40 5 43 1 46 -39 0
4 44 2 40 5 43 1 46 -41 0
4 15 2 16 5 19 1 17 -20 0
4 15 2 16 5 19 1 17 -22 0
4 15 2 16 5 19 1 17 -18 0
4 15 2 16 5 19 1 17 -21 0
4 52 2 48 5 49 1 47 -51 0
4 52 2 48 5 49 1 47 -50 0
4 52 2 48 5 49 1 47 -53 0
4 52 2 48 5 49 1 47 -54 0
25 11 26 8 27 14 29 13 -62 0
25 11 26 8 27 14 29 13 -64 0
25 11 26 8 27 14 29 13 -63 0
25 11 26 8 27 14 29 13 -61 0
25 33 26 37 27 34 29 36 -99 0
25 33 26 37 27 34 29 36 -100 0
25 33 26 37 27 34 29 36 -97 0
25 33 26 37 27 34 29 36 -98 0
25 44 26 40 27 43 29 46 -102 0
25 44 26 40 27 43 29 46 -103 0
25 44 26 40 27 43 29 46 -101 0
25 44 26 40 27 43 29 46 -104 0
25 15 26 16 27 19 29 17 -82 0
25 15 26 16 27 19 29 17 -81 0
25 15 26 16 27 19 29 17 -80 0
25 15 26 16 27 19 29 17 -79 0
25 52 26 48 27 49 29 47 -105 0
25 52 26 48 27 49 29 47 -108 0
25 52 26 48 27 49 29 47 -107 0
25 52 26 48 27 49 29 47 -106 0
11 33 8 37 14 34 13 36 -68 0
11 33 8 37 14 34 13 36 -65 0
11 33 8 37 14 34 13 36 -66 0
11 33 8 37 14 34 13 36 -67 0
11 44 8 40 14 43 13 46 -69 0
11 44 8 40 14 43 13 46 -72 0
11 44 8 40 14 43 13 46 -71 0
11 44 8 40 14 43 13 46 -70 0
11 15 8 16 14 19 13 17 -59 0
11 15 8 16 14 19 13 17 -57 0
11 15 8 16 14 19 13 17 -58 0
11 15 8 16 14 19 13 17 -60 0
11 52 8 48 14 49 13 47 -73 0
11 52 8 48 14 49 13 47 -74 0
11 52 8 48 14 49 13 47 -76 0
11 52 8 48 14 49 13 47 -75 0
33 44 37 40 34 43 36 46 -114 0
33 44 37 40 34 43 36 46 -111 0
33 44 37 40 34 43 36 46 -112 0
33 44 37 40 34 43 36 46 -113 0
33 15 37 16 34 19 36 17 -86 0
33 15 37 16 34 19 36 17 -83 0
33 15 37 16 34 19 36 17 -85 0
33 15 37 16 34 19 36 17 -84 0
33 52 37 48 34 49 36 47 -117 0
33 52 37 48 34 49 36 47 -116 0
33 52 37 48 34 49 36 47 -118 0
33 52 37 48 34 49 36 47 -115 0
44 15 40 16 43 19 46 17 -87 0
44 15 40 16 43 19 46 17 -90 0
44 15 40 16 43 19 46 17 -89 0
44 15 40 16 43 19 46 17 -88 0
44 52 40 48 43 49 46 47 -123 0
44 52 40 48 43 49 46 47 -124 0
44 52 40 48 43 49 46 47 -121 0
44 52 40 48 43 49 46 47 -122 0
15 52 16 48 19 49 17 47 -92 0
15 52 16 48 19 49 17 47 -91 0
15 52 16 48 19 49 17 47 -94 0
15 52 16 48 19 49 17 47 -93 0
