c E1(6,6) U3(6) U1(6) E2(6,6) U2(6) U4(6) E1(0,6) U3(0) U4(0) U1(0) E2(0,6) E1(6,0) E2(6,0) U2(0) U2(4) U1(4) E1(4,6) E2(4,6) E1(6,4) E2(6,4) U4(4) U3(4) U2(2) E1(6,2) E1(2,6) E2(2,6) E2(6,2) U4(2) U1(2) U3(2) E1(7,6) E2(7,6) U4(7) E1(6,7) U3(7) U2(7) U1(7) E2(6,7) U2(1) E1(6,1) E1(1,6) E2(6,1) E2(1,6) U4(1) U1(1) U3(1) E2(6,3) U2(3) E1(3,6) U3(3) E1(6,3) E2(3,6) U1(3) U4(3) U2(5) U3(5) E1(6,5) E2(6,5) U4(5) U1(5) E1(5,6) E2(5,6) E2(0,0) E1(0,0) E1(4,0) E2(4,0) E2(0,4) E1(0,4) E2(0,2) E2(2,0) E1(2,0) E1(0,2) E2(7,0) E1(7,0) E1(0,7) E2(0,7) E1(1,0) E2(1,0) E2(0,1) E1(0,1) E2(0,3) E1(3,0) E2(3,0) E1(0,3) E2(5,0) E1(5,0) E1(0,5) E2(0,5) E2(4,4) E1(4,4) E1(4,2) E2(4,2) E1(2,4) E2(2,4) E2(4,7) E1(7,4) E1(4,7) E2(7,4) E2(1,4) E1(4,1) E1(1,4) E2(4,1) E2(3,4) E1(3,4) E1(4,3) E2(4,3) E1(4,5) E1(5,4) E2(4,5) E2(5,4) E1(2,2) E2(2,2) E1(2,7) E2(2,7) E2(7,2) E1(7,2) E2(1,2) E2(2,1) E1(2,1) E1(1,2) E2(2,3) E2(3,2) E1(2,3) E1(3,2) E2(2,5) E2(5,2) E1(5,2) E1(2,5) E1(7,7) E2(7,7) E1(1,7) E1(7,1) E2(1,7) E2(7,1) E1(7,3) E2(3,7) E1(3,7) E2(7,3) E1(7,5) E2(5,7) E1(5,7) E2(7,5) E2(1,1) E1(1,1) E1(1,3) E2(1,3) E2(3,1) E1(3,1) E2(1,5) E1(1,5) E2(5,1) E1(5,1) E2(3,3) E1(3,3) E1(5,3) E2(5,3) E1(3,5) E2(3,5) E1(5,5) E2(5,5)
c 1 2 3 4 5 6 7 8 9 10 11 12 13 14 15 16 17 18 19 20 21 22 23 24 25 26 27 28 29 30 31 32 33 34 35 36 37 38 39 40 41 42 43 44 45 46 47 48 49 50 51 52 53 54 55 56 57 58 59 60 61 62 63 64 65 66 67 68 69 70 71 72 73 74 75 76 77 78 79 80 81 82 83 84 85 86 87 88 89 90 91 92 93 94 95 96 97 98 99 100 101 102 103 104 105 106 107 108 109 110 111 112 113 114 115 116 117 118 119 120 121 122 123 124 125 126 127 128 129 130 131 132 133 134 135 136 137 138 139 140 141 142 143 144 145 146 147 148 149 150 151 152 153 154 155 156 157 158 159 160
p cnf 160 4272
-64 0
-144 0
-111 0
-154 0
-90 0
-159 0
-1 0
-129 0
-63 0
-143 0
-112 0
-153 0
-89 0
-160 0
-4 0
-130 0
64 -63 0
80 -78 0
72 -70 0
84 -83 0
68 -66 0
87 -85 0
7 -13 0
75 -73 0
77 -79 0
144 -143 0
120 -118 0
145 -147 0
101 -102 0
150 -151 0
41 -42 0
131 -134 0
71 -69 0
119 -117 0
111 -112 0
123 -122 0
93 -92 0
128 -126 0
25 -27 0
113 -115 0
82 -81 0
148 -146 0
124 -121 0
154 -153 0
104 -106 0
157 -156 0
49 -47 0
137 -138 0
65 -67 0
100 -99 0
91 -94 0
105 -103 0
90 -89 0
107 -110 0
17 -20 0
97 -98 0
86 -88 0
152 -149 0
127 -125 0
155 -158 0
108 -109 0
159 -160 0
61 -58 0
141 -142 0
12 -11 0
40 -43 0
24 -26 0
51 -52 0
19 -18 0
57 -62 0
1 -4 0
34 -32 0
74 -76 0
132 -133 0
116 -114 0
135 -136 0
96 -95 0
139 -140 0
31 -38 0
129 -130 0
63 -64 0
79 -77 0
69 -71 0
81 -82 0
67 -65 0
88 -86 0
11 -12 0
76 -74 0
78 -80 0
143 -144 0
117 -119 0
146 -148 0
99 -100 0
149 -152 0
43 -40 0
133 -132 0
70 -72 0
118 -120 0
112 -111 0
121 -124 0
94 -91 0
125 -127 0
26 -24 0
114 -116 0
83 -84 0
147 -145 0
122 -123 0
153 -154 0
103 -105 0
158 -155 0
52 -51 0
136 -135 0
66 -68 0
102 -101 0
92 -93 0
106 -104 0
89 -90 0
109 -108 0
18 -19 0
95 -96 0
85 -87 0
151 -150 0
126 -128 0
156 -157 0
110 -107 0
160 -159 0
62 -57 0
140 -139 0
13 -7 0
42 -41 0
27 -25 0
47 -49 0
20 -17 0
58 -61 0
4 -1 0
38 -31 0
73 -75 0
134 -131 0
115 -113 0
138 -137 0
98 -97 0
142 -141 0
32 -34 0
130 -129 0
-80 -77 0
-72 -71 0
-84 -82 0
-68 -65 0
-87 -86 0
-7 -12 0
-75 -74 0
-120 -119 0
-145 -148 0
-101 -100 0
-150 -152 0
-41 -40 0
-131 -132 0
-123 -124 0
-93 -91 0
-128 -127 0
-25 -24 0
-113 -116 0
-104 -105 0
-157 -155 0
-49 -51 0
-137 -135 0
-107 -108 0
-17 -19 0
-97 -96 0
-61 -57 0
-141 -139 0
-34 -31 0
-79 -78 0
-69 -70 0
-81 -83 0
-67 -66 0
-88 -85 0
-11 -13 0
-76 -73 0
-117 -118 0
-146 -147 0
-99 -102 0
-149 -151 0
-43 -42 0
-133 -134 0
-121 -122 0
-94 -92 0
-125 -126 0
-26 -27 0
-114 -115 0
-103 -106 0
-158 -156 0
-52 -47 0
-136 -138 0
-109 -110 0
-18 -20 0
-95 -98 0
-62 -58 0
-140 -142 0
-38 -32 0
-10 -14 0
-10 -8 0
-10 -9 0
-45 -39 0
-45 -46 0
-45 -44 0
-29 -23 0
-29 -30 0
-29 -28 0
-53 -48 0
-53 -50 0
-53 -54 0
-16 -15 0
-16 -22 0
-16 -21 0
-60 -55 0
-60 -56 0
-60 -59 0
-3 -5 0
-3 -2 0
-3 -6 0
-37 -36 0
-37 -35 0
-37 -33 0
-14 -8 0
-14 -9 0
-39 -46 0
-39 -44 0
-23 -30 0
-23 -28 0
-48 -50 0
-48 -54 0
-15 -22 0
-15 -21 0
-55 -56 0
-55 -59 0
-5 -2 0
-5 -6 0
-36 -35 0
-36 -33 0
-8 -9 0
-46 -44 0
-30 -28 0
-50 -54 0
-22 -21 0
-56 -59 0
-2 -6 0
-35 -33 0
10 14 8 9 0
45 39 46 44 0
29 23 30 28 0
53 48 50 54 0
16 15 22 21 0
60 55 56 59 0
3 5 2 6 0
37 36 35 33 0
10 14 8 -64 0
10 14 8 -63 0
10 14 9 -64 0
10 14 9 -63 0
10 8 9 -64 0
10 8 9 -63 0
45 39 46 -144 0
45 39 46 -143 0
45 39 44 -144 0
45 39 44 -143 0
45 46 44 -144 0
45 46 44 -143 0
29 23 30 -111 0
29 23 30 -112 0
29 23 28 -111 0
29 23 28 -112 0
29 30 28 -111 0
29 30 28 -112 0
53 48 50 -154 0
53 48 50 -153 0
53 48 54 -154 0
53 48 54 -153 0
53 50 54 -154 0
53 50 54 -153 0
16 15 22 -90 0
16 15 22 -89 0
16 15 21 -90 0
16 15 21 -89 0
16 22 21 -90 0
16 22 21 -89 0
60 55 56 -159 0
60 55 56 -160 0
60 55 59 -159 0
60 55 59 -160 0
60 56 59 -159 0
60 56 59 -160 0
3 5 2 -1 0
3 5 2 -4 0
3 5 6 -1 0
3 5 6 -4 0
3 2 6 -1 0
3 2 6 -4 0
37 36 35 -129 0
37 36 35 -130 0
37 36 33 -129 0
37 36 33 -130 0
37 35 33 -129 0
37 35 33 -130 0
14 8 9 -64 0
14 8 9 -63 0
39 46 44 -144 0
39 46 44 -143 0
23 30 28 -111 0
23 30 28 -112 0
48 50 54 -154 0
48 50 54 -153 0
15 22 21 -90 0
15 22 21 -89 0
55 56 59 -159 0
55 56 59 -160 0
5 2 6 -1 0
5 2 6 -4 0
36 35 33 -129 0
36 35 33 -130 0
10 14 8 9 -64 0
10 14 8 9 -80 0
10 14 8 9 -72 0
10 14 8 9 -84 0
10 14 8 9 -68 0
10 14 8 9 -87 0
10 14 8 9 -7 0
10 14 8 9 -75 0
10 14 8 9 -77 0
10 14 8 9 -71 0
10 14 8 9 -82 0
10 14 8 9 -65 0
10 14 8 9 -86 0
10 14 8 9 -12 0
10 14 8 9 -74 0
10 14 8 9 -63 0
10 14 8 9 -79 0
10 14 8 9 -69 0
10 14 8 9 -81 0
10 14 8 9 -67 0
10 14 8 9 -88 0
10 14 8 9 -11 0
10 14 8 9 -76 0
10 14 8 9 -78 0
10 14 8 9 -70 0
10 14 8 9 -83 0
10 14 8 9 -66 0
10 14 8 9 -85 0
10 14 8 9 -13 0
10 14 8 9 -73 0
45 39 46 44 -80 0
45 39 46 44 -77 0
45 39 46 44 -144 0
45 39 46 44 -120 0
45 39 46 44 -145 0
45 39 46 44 -101 0
45 39 46 44 -150 0
45 39 46 44 -41 0
45 39 46 44 -131 0
45 39 46 44 -119 0
45 39 46 44 -148 0
45 39 46 44 -100 0
45 39 46 44 -152 0
45 39 46 44 -40 0
45 39 46 44 -132 0
45 39 46 44 -79 0
45 39 46 44 -78 0
45 39 46 44 -143 0
45 39 46 44 -117 0
45 39 46 44 -146 0
45 39 46 44 -99 0
45 39 46 44 -149 0
45 39 46 44 -43 0
45 39 46 44 -133 0
45 39 46 44 -118 0
45 39 46 44 -147 0
45 39 46 44 -102 0
45 39 46 44 -151 0
45 39 46 44 -42 0
45 39 46 44 -134 0
29 23 30 28 -72 0
29 23 30 28 -120 0
29 23 30 28 -71 0
29 23 30 28 -119 0
29 23 30 28 -111 0
29 23 30 28 -123 0
29 23 30 28 -93 0
29 23 30 28 -128 0
29 23 30 28 -25 0
29 23 30 28 -113 0
29 23 30 28 -124 0
29 23 30 28 -91 0
29 23 30 28 -127 0
29 23 30 28 -24 0
29 23 30 28 -116 0
29 23 30 28 -69 0
29 23 30 28 -117 0
29 23 30 28 -70 0
29 23 30 28 -118 0
29 23 30 28 -112 0
29 23 30 28 -121 0
29 23 30 28 -94 0
29 23 30 28 -125 0
29 23 30 28 -26 0
29 23 30 28 -114 0
29 23 30 28 -122 0
29 23 30 28 -92 0
29 23 30 28 -126 0
29 23 30 28 -27 0
29 23 30 28 -115 0
53 48 50 54 -84 0
53 48 50 54 -145 0
53 48 50 54 -123 0
53 48 50 54 -82 0
53 48 50 54 -148 0
53 48 50 54 -124 0
53 48 50 54 -154 0
53 48 50 54 -104 0
53 48 50 54 -157 0
53 48 50 54 -49 0
53 48 50 54 -137 0
53 48 50 54 -105 0
53 48 50 54 -155 0
53 48 50 54 -51 0
53 48 50 54 -135 0
53 48 50 54 -81 0
53 48 50 54 -146 0
53 48 50 54 -121 0
53 48 50 54 -83 0
53 48 50 54 -147 0
53 48 50 54 -122 0
53 48 50 54 -153 0
53 48 50 54 -103 0
53 48 50 54 -158 0
53 48 50 54 -52 0
53 48 50 54 -136 0
53 48 50 54 -106 0
53 48 50 54 -156 0
53 48 50 54 -47 0
53 48 50 54 -138 0
16 15 22 21 -68 0
16 15 22 21 -101 0
16 15 22 21 -93 0
16 15 22 21 -104 0
16 15 22 21 -65 0
16 15 22 21 -100 0
16 15 22 21 -91 0
16 15 22 21 -105 0
16 15 22 21 -90 0
16 15 22 21 -107 0
16 15 22 21 -17 0
16 15 22 21 -97 0
16 15 22 21 -108 0
16 15 22 21 -19 0
16 15 22 21 -96 0
16 15 22 21 -67 0
16 15 22 21 -99 0
16 15 22 21 -94 0
16 15 22 21 -103 0
16 15 22 21 -66 0
16 15 22 21 -102 0
16 15 22 21 -92 0
16 15 22 21 -106 0
16 15 22 21 -89 0
16 15 22 21 -109 0
16 15 22 21 -18 0
16 15 22 21 -95 0
16 15 22 21 -110 0
16 15 22 21 -20 0
16 15 22 21 -98 0
60 55 56 59 -87 0
60 55 56 59 -150 0
60 55 56 59 -128 0
60 55 56 59 -157 0
60 55 56 59 -107 0
60 55 56 59 -86 0
60 55 56 59 -152 0
60 55 56 59 -127 0
60 55 56 59 -155 0
60 55 56 59 -108 0
60 55 56 59 -159 0
60 55 56 59 -61 0
60 55 56 59 -141 0
60 55 56 59 -57 0
60 55 56 59 -139 0
60 55 56 59 -88 0
60 55 56 59 -149 0
60 55 56 59 -125 0
60 55 56 59 -158 0
60 55 56 59 -109 0
60 55 56 59 -85 0
60 55 56 59 -151 0
60 55 56 59 -126 0
60 55 56 59 -156 0
60 55 56 59 -110 0
60 55 56 59 -160 0
60 55 56 59 -62 0
60 55 56 59 -140 0
60 55 56 59 -58 0
60 55 56 59 -142 0
3 5 2 6 -7 0
3 5 2 6 -41 0
3 5 2 6 -25 0
3 5 2 6 -49 0
3 5 2 6 -17 0
3 5 2 6 -61 0
3 5 2 6 -12 0
3 5 2 6 -40 0
3 5 2 6 -24 0
3 5 2 6 -51 0
3 5 2 6 -19 0
3 5 2 6 -57 0
3 5 2 6 -1 0
3 5 2 6 -34 0
3 5 2 6 -31 0
3 5 2 6 -11 0
3 5 2 6 -43 0
3 5 2 6 -26 0
3 5 2 6 -52 0
3 5 2 6 -18 0
3 5 2 6 -62 0
3 5 2 6 -13 0
3 5 2 6 -42 0
3 5 2 6 -27 0
3 5 2 6 -47 0
3 5 2 6 -20 0
3 5 2 6 -58 0
3 5 2 6 -4 0
3 5 2 6 -38 0
3 5 2 6 -32 0
37 36 35 33 -75 0
37 36 35 33 -131 0
37 36 35 33 -113 0
37 36 35 33 -137 0
37 36 35 33 -97 0
37 36 35 33 -141 0
37 36 35 33 -34 0
37 36 35 33 -74 0
37 36 35 33 -132 0
37 36 35 33 -116 0
37 36 35 33 -135 0
37 36 35 33 -96 0
37 36 35 33 -139 0
37 36 35 33 -31 0
37 36 35 33 -129 0
37 36 35 33 -76 0
37 36 35 33 -133 0
37 36 35 33 -114 0
37 36 35 33 -136 0
37 36 35 33 -95 0
37 36 35 33 -140 0
37 36 35 33 -38 0
37 36 35 33 -73 0
37 36 35 33 -134 0
37 36 35 33 -115 0
37 36 35 33 -138 0
37 36 35 33 -98 0
37 36 35 33 -142 0
37 36 35 33 -32 0
37 36 35 33 -130 0
10 45 14 8 9 -80 0
10 45 14 8 9 -77 0
10 45 14 8 9 -79 0
10 45 14 8 9 -78 0
10 45 39 46 44 -80 0
10 45 39 46 44 -77 0
10 45 39 46 44 -79 0
10 45 39 46 44 -78 0
10 29 14 8 9 -72 0
10 29 14 8 9 -71 0
10 29 14 8 9 -69 0
10 29 14 8 9 -70 0
10 29 23 30 28 -72 0
10 29 23 30 28 -71 0
10 29 23 30 28 -69 0
10 29 23 30 28 -70 0
10 53 14 8 9 -84 0
10 53 14 8 9 -82 0
10 53 14 8 9 -81 0
10 53 14 8 9 -83 0
10 53 48 50 54 -84 0
10 53 48 50 54 -82 0
10 53 48 50 54 -81 0
10 53 48 50 54 -83 0
10 16 14 8 9 -68 0
10 16 14 8 9 -65 0
10 16 14 8 9 -67 0
10 16 14 8 9 -66 0
10 16 15 22 21 -68 0
10 16 15 22 21 -65 0
10 16 15 22 21 -67 0
10 16 15 22 21 -66 0
10 60 14 8 9 -87 0
10 60 14 8 9 -86 0
10 60 14 8 9 -88 0
10 60 14 8 9 -85 0
10 60 55 56 59 -87 0
10 60 55 56 59 -86 0
10 60 55 56 59 -88 0
10 60 55 56 59 -85 0
10 3 14 8 9 -7 0
10 3 14 8 9 -12 0
10 3 14 8 9 -11 0
10 3 14 8 9 -13 0
10 3 5 2 6 -7 0
10 3 5 2 6 -12 0
10 3 5 2 6 -11 0
10 3 5 2 6 -13 0
10 37 14 8 9 -75 0
10 37 14 8 9 -74 0
10 37 14 8 9 -76 0
10 37 14 8 9 -73 0
10 37 36 35 33 -75 0
10 37 36 35 33 -74 0
10 37 36 35 33 -76 0
10 37 36 35 33 -73 0
10 14 39 8 9 -80 0
10 14 39 8 9 -77 0
10 14 39 8 9 -79 0
10 14 39 8 9 -78 0
10 14 23 8 9 -72 0
10 14 23 8 9 -71 0
10 14 23 8 9 -69 0
10 14 23 8 9 -70 0
10 14 48 8 9 -84 0
10 14 48 8 9 -82 0
10 14 48 8 9 -81 0
10 14 48 8 9 -83 0
10 14 15 8 9 -68 0
10 14 15 8 9 -65 0
10 14 15 8 9 -67 0
10 14 15 8 9 -66 0
10 14 55 8 9 -87 0
10 14 55 8 9 -86 0
10 14 55 8 9 -88 0
10 14 55 8 9 -85 0
10 14 5 8 9 -7 0
10 14 5 8 9 -12 0
10 14 5 8 9 -11 0
10 14 5 8 9 -13 0
10 14 36 8 9 -75 0
10 14 36 8 9 -74 0
10 14 36 8 9 -76 0
10 14 36 8 9 -73 0
10 14 8 46 9 -80 0
10 14 8 46 9 -77 0
10 14 8 46 9 -79 0
10 14 8 46 9 -78 0
10 14 8 30 9 -72 0
10 14 8 30 9 -71 0
10 14 8 30 9 -69 0
10 14 8 30 9 -70 0
10 14 8 50 9 -84 0
10 14 8 50 9 -82 0
10 14 8 50 9 -81 0
10 14 8 50 9 -83 0
10 14 8 22 9 -68 0
10 14 8 22 9 -65 0
10 14 8 22 9 -67 0
10 14 8 22 9 -66 0
10 14 8 56 9 -87 0
10 14 8 56 9 -86 0
10 14 8 56 9 -88 0
10 14 8 56 9 -85 0
10 14 8 2 9 -7 0
10 14 8 2 9 -12 0
10 14 8 2 9 -11 0
10 14 8 2 9 -13 0
10 14 8 35 9 -75 0
10 14 8 35 9 -74 0
10 14 8 35 9 -76 0
10 14 8 35 9 -73 0
10 14 8 9 44 -80 0
10 14 8 9 44 -77 0
10 14 8 9 44 -79 0
10 14 8 9 44 -78 0
10 14 8 9 28 -72 0
10 14 8 9 28 -71 0
10 14 8 9 28 -69 0
10 14 8 9 28 -70 0
10 14 8 9 54 -84 0
10 14 8 9 54 -82 0
10 14 8 9 54 -81 0
10 14 8 9 54 -83 0
10 14 8 9 21 -68 0
10 14 8 9 21 -65 0
10 14 8 9 21 -67 0
10 14 8 9 21 -66 0
10 14 8 9 59 -87 0
10 14 8 9 59 -86 0
10 14 8 9 59 -88 0
10 14 8 9 59 -85 0
10 14 8 9 6 -7 0
10 14 8 9 6 -12 0
10 14 8 9 6 -11 0
10 14 8 9 6 -13 0
10 14 8 9 33 -75 0
10 14 8 9 33 -74 0
10 14 8 9 33 -76 0
10 14 8 9 33 -73 0
45 29 39 46 44 -120 0
45 29 39 46 44 -119 0
45 29 39 46 44 -117 0
45 29 39 46 44 -118 0
45 29 23 30 28 -120 0
45 29 23 30 28 -119 0
45 29 23 30 28 -117 0
45 29 23 30 28 -118 0
45 53 39 46 44 -145 0
45 53 39 46 44 -148 0
45 53 39 46 44 -146 0
45 53 39 46 44 -147 0
45 53 48 50 54 -145 0
45 53 48 50 54 -148 0
45 53 48 50 54 -146 0
45 53 48 50 54 -147 0
45 16 39 46 44 -101 0
45 16 39 46 44 -100 0
45 16 39 46 44 -99 0
45 16 39 46 44 -102 0
45 16 15 22 21 -101 0
45 16 15 22 21 -100 0
45 16 15 22 21 -99 0
45 16 15 22 21 -102 0
45 60 39 46 44 -150 0
45 60 39 46 44 -152 0
45 60 39 46 44 -149 0
45 60 39 46 44 -151 0
45 60 55 56 59 -150 0
45 60 55 56 59 -152 0
45 60 55 56 59 -149 0
45 60 55 56 59 -151 0
45 3 39 46 44 -41 0
45 3 39 46 44 -40 0
45 3 39 46 44 -43 0
45 3 39 46 44 -42 0
45 3 5 2 6 -41 0
45 3 5 2 6 -40 0
45 3 5 2 6 -43 0
45 3 5 2 6 -42 0
45 37 39 46 44 -131 0
45 37 39 46 44 -132 0
45 37 39 46 44 -133 0
45 37 39 46 44 -134 0
45 37 36 35 33 -131 0
45 37 36 35 33 -132 0
45 37 36 35 33 -133 0
45 37 36 35 33 -134 0
45 14 39 46 44 -80 0
45 14 39 46 44 -77 0
45 14 39 46 44 -79 0
45 14 39 46 44 -78 0
45 39 23 46 44 -120 0
45 39 23 46 44 -119 0
45 39 23 46 44 -117 0
45 39 23 46 44 -118 0
45 39 48 46 44 -145 0
45 39 48 46 44 -148 0
45 39 48 46 44 -146 0
45 39 48 46 44 -147 0
45 39 15 46 44 -101 0
45 39 15 46 44 -100 0
45 39 15 46 44 -99 0
45 39 15 46 44 -102 0
45 39 55 46 44 -150 0
45 39 55 46 44 -152 0
45 39 55 46 44 -149 0
45 39 55 46 44 -151 0
45 39 5 46 44 -41 0
45 39 5 46 44 -40 0
45 39 5 46 44 -43 0
45 39 5 46 44 -42 0
45 39 36 46 44 -131 0
45 39 36 46 44 -132 0
45 39 36 46 44 -133 0
45 39 36 46 44 -134 0
45 39 8 46 44 -80 0
45 39 8 46 44 -77 0
45 39 8 46 44 -79 0
45 39 8 46 44 -78 0
45 39 46 30 44 -120 0
45 39 46 30 44 -119 0
45 39 46 30 44 -117 0
45 39 46 30 44 -118 0
45 39 46 50 44 -145 0
45 39 46 50 44 -148 0
45 39 46 50 44 -146 0
45 39 46 50 44 -147 0
45 39 46 22 44 -101 0
45 39 46 22 44 -100 0
45 39 46 22 44 -99 0
45 39 46 22 44 -102 0
45 39 46 56 44 -150 0
45 39 46 56 44 -152 0
45 39 46 56 44 -149 0
45 39 46 56 44 -151 0
45 39 46 2 44 -41 0
45 39 46 2 44 -40 0
45 39 46 2 44 -43 0
45 39 46 2 44 -42 0
45 39 46 35 44 -131 0
45 39 46 35 44 -132 0
45 39 46 35 44 -133 0
45 39 46 35 44 -134 0
45 39 46 9 44 -80 0
45 39 46 9 44 -77 0
45 39 46 9 44 -79 0
45 39 46 9 44 -78 0
45 39 46 44 28 -120 0
45 39 46 44 28 -119 0
45 39 46 44 28 -117 0
45 39 46 44 28 -118 0
45 39 46 44 54 -145 0
45 39 46 44 54 -148 0
45 39 46 44 54 -146 0
45 39 46 44 54 -147 0
45 39 46 44 21 -101 0
45 39 46 44 21 -100 0
45 39 46 44 21 -99 0
45 39 46 44 21 -102 0
45 39 46 44 59 -150 0
45 39 46 44 59 -152 0
45 39 46 44 59 -149 0
45 39 46 44 59 -151 0
45 39 46 44 6 -41 0
45 39 46 44 6 -40 0
45 39 46 44 6 -43 0
45 39 46 44 6 -42 0
45 39 46 44 33 -131 0
45 39 46 44 33 -132 0
45 39 46 44 33 -133 0
45 39 46 44 33 -134 0
29 53 23 30 28 -123 0
29 53 23 30 28 -124 0
29 53 23 30 28 -121 0
29 53 23 30 28 -122 0
29 53 48 50 54 -123 0
29 53 48 50 54 -124 0
29 53 48 50 54 -121 0
29 53 48 50 54 -122 0
29 16 23 30 28 -93 0
29 16 23 30 28 -91 0
29 16 23 30 28 -94 0
29 16 23 30 28 -92 0
29 16 15 22 21 -93 0
29 16 15 22 21 -91 0
29 16 15 22 21 -94 0
29 16 15 22 21 -92 0
29 60 23 30 28 -128 0
29 60 23 30 28 -127 0
29 60 23 30 28 -125 0
29 60 23 30 28 -126 0
29 60 55 56 59 -128 0
29 60 55 56 59 -127 0
29 60 55 56 59 -125 0
29 60 55 56 59 -126 0
29 3 23 30 28 -25 0
29 3 23 30 28 -24 0
29 3 23 30 28 -26 0
29 3 23 30 28 -27 0
29 3 5 2 6 -25 0
29 3 5 2 6 -24 0
29 3 5 2 6 -26 0
29 3 5 2 6 -27 0
29 37 23 30 28 -113 0
29 37 23 30 28 -116 0
29 37 23 30 28 -114 0
29 37 23 30 28 -115 0
29 37 36 35 33 -113 0
29 37 36 35 33 -116 0
29 37 36 35 33 -114 0
29 37 36 35 33 -115 0
29 14 23 30 28 -72 0
29 14 23 30 28 -71 0
29 14 23 30 28 -69 0
29 14 23 30 28 -70 0
29 39 23 30 28 -120 0
29 39 23 30 28 -119 0
29 39 23 30 28 -117 0
29 39 23 30 28 -118 0
29 23 48 30 28 -123 0
29 23 48 30 28 -124 0
29 23 48 30 28 -121 0
29 23 48 30 28 -122 0
29 23 15 30 28 -93 0
29 23 15 30 28 -91 0
29 23 15 30 28 -94 0
29 23 15 30 28 -92 0
29 23 55 30 28 -128 0
29 23 55 30 28 -127 0
29 23 55 30 28 -125 0
29 23 55 30 28 -126 0
29 23 5 30 28 -25 0
29 23 5 30 28 -24 0
29 23 5 30 28 -26 0
29 23 5 30 28 -27 0
29 23 36 30 28 -113 0
29 23 36 30 28 -116 0
29 23 36 30 28 -114 0
29 23 36 30 28 -115 0
29 23 8 30 28 -72 0
29 23 8 30 28 -71 0
29 23 8 30 28 -69 0
29 23 8 30 28 -70 0
29 23 46 30 28 -120 0
29 23 46 30 28 -119 0
29 23 46 30 28 -117 0
29 23 46 30 28 -118 0
29 23 30 50 28 -123 0
29 23 30 50 28 -124 0
29 23 30 50 28 -121 0
29 23 30 50 28 -122 0
29 23 30 22 28 -93 0
29 23 30 22 28 -91 0
29 23 30 22 28 -94 0
29 23 30 22 28 -92 0
29 23 30 56 28 -128 0
29 23 30 56 28 -127 0
29 23 30 56 28 -125 0
29 23 30 56 28 -126 0
29 23 30 2 28 -25 0
29 23 30 2 28 -24 0
29 23 30 2 28 -26 0
29 23 30 2 28 -27 0
29 23 30 35 28 -113 0
29 23 30 35 28 -116 0
29 23 30 35 28 -114 0
29 23 30 35 28 -115 0
29 23 30 9 28 -72 0
29 23 30 9 28 -71 0
29 23 30 9 28 -69 0
29 23 30 9 28 -70 0
29 23 30 44 28 -120 0
29 23 30 44 28 -119 0
29 23 30 44 28 -117 0
29 23 30 44 28 -118 0
29 23 30 28 54 -123 0
29 23 30 28 54 -124 0
29 23 30 28 54 -121 0
29 23 30 28 54 -122 0
29 23 30 28 21 -93 0
29 23 30 28 21 -91 0
29 23 30 28 21 -94 0
29 23 30 28 21 -92 0
29 23 30 28 59 -128 0
29 23 30 28 59 -127 0
29 23 30 28 59 -125 0
29 23 30 28 59 -126 0
29 23 30 28 6 -25 0
29 23 30 28 6 -24 0
29 23 30 28 6 -26 0
29 23 30 28 6 -27 0
29 23 30 28 33 -113 0
29 23 30 28 33 -116 0
29 23 30 28 33 -114 0
29 23 30 28 33 -115 0
53 16 48 50 54 -104 0
53 16 48 50 54 -105 0
53 16 48 50 54 -103 0
53 16 48 50 54 -106 0
53 16 15 22 21 -104 0
53 16 15 22 21 -105 0
53 16 15 22 21 -103 0
53 16 15 22 21 -106 0
53 60 48 50 54 -157 0
53 60 48 50 54 -155 0
53 60 48 50 54 -158 0
53 60 48 50 54 -156 0
53 60 55 56 59 -157 0
53 60 55 56 59 -155 0
53 60 55 56 59 -158 0
53 60 55 56 59 -156 0
53 3 48 50 54 -49 0
53 3 48 50 54 -51 0
53 3 48 50 54 -52 0
53 3 48 50 54 -47 0
53 3 5 2 6 -49 0
53 3 5 2 6 -51 0
53 3 5 2 6 -52 0
53 3 5 2 6 -47 0
53 37 48 50 54 -137 0
53 37 48 50 54 -135 0
53 37 48 50 54 -136 0
53 37 48 50 54 -138 0
53 37 36 35 33 -137 0
53 37 36 35 33 -135 0
53 37 36 35 33 -136 0
53 37 36 35 33 -138 0
53 14 48 50 54 -84 0
53 14 48 50 54 -82 0
53 14 48 50 54 -81 0
53 14 48 50 54 -83 0
53 39 48 50 54 -145 0
53 39 48 50 54 -148 0
53 39 48 50 54 -146 0
53 39 48 50 54 -147 0
53 23 48 50 54 -123 0
53 23 48 50 54 -124 0
53 23 48 50 54 -121 0
53 23 48 50 54 -122 0
53 48 15 50 54 -104 0
53 48 15 50 54 -105 0
53 48 15 50 54 -103 0
53 48 15 50 54 -106 0
53 48 55 50 54 -157 0
53 48 55 50 54 -155 0
53 48 55 50 54 -158 0
53 48 55 50 54 -156 0
53 48 5 50 54 -49 0
53 48 5 50 54 -51 0
53 48 5 50 54 -52 0
53 48 5 50 54 -47 0
53 48 36 50 54 -137 0
53 48 36 50 54 -135 0
53 48 36 50 54 -136 0
53 48 36 50 54 -138 0
53 48 8 50 54 -84 0
53 48 8 50 54 -82 0
53 48 8 50 54 -81 0
53 48 8 50 54 -83 0
53 48 46 50 54 -145 0
53 48 46 50 54 -148 0
53 48 46 50 54 -146 0
53 48 46 50 54 -147 0
53 48 30 50 54 -123 0
53 48 30 50 54 -124 0
53 48 30 50 54 -121 0
53 48 30 50 54 -122 0
53 48 50 22 54 -104 0
53 48 50 22 54 -105 0
53 48 50 22 54 -103 0
53 48 50 22 54 -106 0
53 48 50 56 54 -157 0
53 48 50 56 54 -155 0
53 48 50 56 54 -158 0
53 48 50 56 54 -156 0
53 48 50 2 54 -49 0
53 48 50 2 54 -51 0
53 48 50 2 54 -52 0
53 48 50 2 54 -47 0
53 48 50 35 54 -137 0
53 48 50 35 54 -135 0
53 48 50 35 54 -136 0
53 48 50 35 54 -138 0
53 48 50 9 54 -84 0
53 48 50 9 54 -82 0
53 48 50 9 54 -81 0
53 48 50 9 54 -83 0
53 48 50 44 54 -145 0
53 48 50 44 54 -148 0
53 48 50 44 54 -146 0
53 48 50 44 54 -147 0
53 48 50 28 54 -123 0
53 48 50 28 54 -124 0
53 48 50 28 54 -121 0
53 48 50 28 54 -122 0
53 48 50 54 21 -104 0
53 48 50 54 21 -105 0
53 48 50 54 21 -103 0
53 48 50 54 21 -106 0
53 48 50 54 59 -157 0
53 48 50 54 59 -155 0
53 48 50 54 59 -158 0
53 48 50 54 59 -156 0
53 48 50 54 6 -49 0
53 48 50 54 6 -51 0
53 48 50 54 6 -52 0
53 48 50 54 6 -47 0
53 48 50 54 33 -137 0
53 48 50 54 33 -135 0
53 48 50 54 33 -136 0
53 48 50 54 33 -138 0
16 60 15 22 21 -107 0
16 60 15 22 21 -108 0
16 60 15 22 21 -109 0
16 60 15 22 21 -110 0
16 60 55 56 59 -107 0
16 60 55 56 59 -108 0
16 60 55 56 59 -109 0
16 60 55 56 59 -110 0
16 3 15 22 21 -17 0
16 3 15 22 21 -19 0
16 3 15 22 21 -18 0
16 3 15 22 21 -20 0
16 3 5 2 6 -17 0
16 3 5 2 6 -19 0
16 3 5 2 6 -18 0
16 3 5 2 6 -20 0
16 37 15 22 21 -97 0
16 37 15 22 21 -96 0
16 37 15 22 21 -95 0
16 37 15 22 21 -98 0
16 37 36 35 33 -97 0
16 37 36 35 33 -96 0
16 37 36 35 33 -95 0
16 37 36 35 33 -98 0
16 14 15 22 21 -68 0
16 14 15 22 21 -65 0
16 14 15 22 21 -67 0
16 14 15 22 21 -66 0
16 39 15 22 21 -101 0
16 39 15 22 21 -100 0
16 39 15 22 21 -99 0
16 39 15 22 21 -102 0
16 23 15 22 21 -93 0
16 23 15 22 21 -91 0
16 23 15 22 21 -94 0
16 23 15 22 21 -92 0
16 48 15 22 21 -104 0
16 48 15 22 21 -105 0
16 48 15 22 21 -103 0
16 48 15 22 21 -106 0
16 15 55 22 21 -107 0
16 15 55 22 21 -108 0
16 15 55 22 21 -109 0
16 15 55 22 21 -110 0
16 15 5 22 21 -17 0
16 15 5 22 21 -19 0
16 15 5 22 21 -18 0
16 15 5 22 21 -20 0
16 15 36 22 21 -97 0
16 15 36 22 21 -96 0
16 15 36 22 21 -95 0
16 15 36 22 21 -98 0
16 15 8 22 21 -68 0
16 15 8 22 21 -65 0
16 15 8 22 21 -67 0
16 15 8 22 21 -66 0
16 15 46 22 21 -101 0
16 15 46 22 21 -100 0
16 15 46 22 21 -99 0
16 15 46 22 21 -102 0
16 15 30 22 21 -93 0
16 15 30 22 21 -91 0
16 15 30 22 21 -94 0
16 15 30 22 21 -92 0
16 15 50 22 21 -104 0
16 15 50 22 21 -105 0
16 15 50 22 21 -103 0
16 15 50 22 21 -106 0
16 15 22 56 21 -107 0
16 15 22 56 21 -108 0
16 15 22 56 21 -109 0
16 15 22 56 21 -110 0
16 15 22 2 21 -17 0
16 15 22 2 21 -19 0
16 15 22 2 21 -18 0
16 15 22 2 21 -20 0
16 15 22 35 21 -97 0
16 15 22 35 21 -96 0
16 15 22 35 21 -95 0
16 15 22 35 21 -98 0
16 15 22 9 21 -68 0
16 15 22 9 21 -65 0
16 15 22 9 21 -67 0
16 15 22 9 21 -66 0
16 15 22 44 21 -101 0
16 15 22 44 21 -100 0
16 15 22 44 21 -99 0
16 15 22 44 21 -102 0
16 15 22 28 21 -93 0
16 15 22 28 21 -91 0
16 15 22 28 21 -94 0
16 15 22 28 21 -92 0
16 15 22 54 21 -104 0
16 15 22 54 21 -105 0
16 15 22 54 21 -103 0
16 15 22 54 21 -106 0
16 15 22 21 59 -107 0
16 15 22 21 59 -108 0
16 15 22 21 59 -109 0
16 15 22 21 59 -110 0
16 15 22 21 6 -17 0
16 15 22 21 6 -19 0
16 15 22 21 6 -18 0
16 15 22 21 6 -20 0
16 15 22 21 33 -97 0
16 15 22 21 33 -96 0
16 15 22 21 33 -95 0
16 15 22 21 33 -98 0
60 3 55 56 59 -61 0
60 3 55 56 59 -57 0
60 3 55 56 59 -62 0
60 3 55 56 59 -58 0
60 3 5 2 6 -61 0
60 3 5 2 6 -57 0
60 3 5 2 6 -62 0
60 3 5 2 6 -58 0
60 37 55 56 59 -141 0
60 37 55 56 59 -139 0
60 37 55 56 59 -140 0
60 37 55 56 59 -142 0
60 37 36 35 33 -141 0
60 37 36 35 33 -139 0
60 37 36 35 33 -140 0
60 37 36 35 33 -142 0
60 14 55 56 59 -87 0
60 14 55 56 59 -86 0
60 14 55 56 59 -88 0
60 14 55 56 59 -85 0
60 39 55 56 59 -150 0
60 39 55 56 59 -152 0
60 39 55 56 59 -149 0
60 39 55 56 59 -151 0
60 23 55 56 59 -128 0
60 23 55 56 59 -127 0
60 23 55 56 59 -125 0
60 23 55 56 59 -126 0
60 48 55 56 59 -157 0
60 48 55 56 59 -155 0
60 48 55 56 59 -158 0
60 48 55 56 59 -156 0
60 15 55 56 59 -107 0
60 15 55 56 59 -108 0
60 15 55 56 59 -109 0
60 15 55 56 59 -110 0
60 55 5 56 59 -61 0
60 55 5 56 59 -57 0
60 55 5 56 59 -62 0
60 55 5 56 59 -58 0
60 55 36 56 59 -141 0
60 55 36 56 59 -139 0
60 55 36 56 59 -140 0
60 55 36 56 59 -142 0
60 55 8 56 59 -87 0
60 55 8 56 59 -86 0
60 55 8 56 59 -88 0
60 55 8 56 59 -85 0
60 55 46 56 59 -150 0
60 55 46 56 59 -152 0
60 55 46 56 59 -149 0
60 55 46 56 59 -151 0
60 55 30 56 59 -128 0
60 55 30 56 59 -127 0
60 55 30 56 59 -125 0
60 55 30 56 59 -126 0
60 55 50 56 59 -157 0
60 55 50 56 59 -155 0
60 55 50 56 59 -158 0
60 55 50 56 59 -156 0
60 55 22 56 59 -107 0
60 55 22 56 59 -108 0
60 55 22 56 59 -109 0
60 55 22 56 59 -110 0
60 55 56 2 59 -61 0
60 55 56 2 59 -57 0
60 55 56 2 59 -62 0
60 55 56 2 59 -58 0
60 55 56 35 59 -141 0
60 55 56 35 59 -139 0
60 55 56 35 59 -140 0
60 55 56 35 59 -142 0
60 55 56 9 59 -87 0
60 55 56 9 59 -86 0
60 55 56 9 59 -88 0
60 55 56 9 59 -85 0
60 55 56 44 59 -150 0
60 55 56 44 59 -152 0
60 55 56 44 59 -149 0
60 55 56 44 59 -151 0
60 55 56 28 59 -128 0
60 55 56 28 59 -127 0
60 55 56 28 59 -125 0
60 55 56 28 59 -126 0
60 55 56 54 59 -157 0
60 55 56 54 59 -155 0
60 55 56 54 59 -158 0
60 55 56 54 59 -156 0
60 55 56 21 59 -107 0
60 55 56 21 59 -108 0
60 55 56 21 59 -109 0
60 55 56 21 59 -110 0
60 55 56 59 6 -61 0
60 55 56 59 6 -57 0
60 55 56 59 6 -62 0
60 55 56 59 6 -58 0
60 55 56 59 33 -141 0
60 55 56 59 33 -139 0
60 55 56 59 33 -140 0
60 55 56 59 33 -142 0
3 37 5 2 6 -34 0
3 37 5 2 6 -31 0
3 37 5 2 6 -38 0
3 37 5 2 6 -32 0
3 37 36 35 33 -34 0
3 37 36 35 33 -31 0
3 37 36 35 33 -38 0
3 37 36 35 33 -32 0
3 14 5 2 6 -7 0
3 14 5 2 6 -12 0
3 14 5 2 6 -11 0
3 14 5 2 6 -13 0
3 39 5 2 6 -41 0
3 39 5 2 6 -40 0
3 39 5 2 6 -43 0
3 39 5 2 6 -42 0
3 23 5 2 6 -25 0
3 23 5 2 6 -24 0
3 23 5 2 6 -26 0
3 23 5 2 6 -27 0
3 48 5 2 6 -49 0
3 48 5 2 6 -51 0
3 48 5 2 6 -52 0
3 48 5 2 6 -47 0
3 15 5 2 6 -17 0
3 15 5 2 6 -19 0
3 15 5 2 6 -18 0
3 15 5 2 6 -20 0
3 55 5 2 6 -61 0
3 55 5 2 6 -57 0
3 55 5 2 6 -62 0
3 55 5 2 6 -58 0
3 5 36 2 6 -34 0
3 5 36 2 6 -31 0
3 5 36 2 6 -38 0
3 5 36 2 6 -32 0
3 5 8 2 6 -7 0
3 5 8 2 6 -12 0
3 5 8 2 6 -11 0
3 5 8 2 6 -13 0
3 5 46 2 6 -41 0
3 5 46 2 6 -40 0
3 5 46 2 6 -43 0
3 5 46 2 6 -42 0
3 5 30 2 6 -25 0
3 5 30 2 6 -24 0
3 5 30 2 6 -26 0
3 5 30 2 6 -27 0
3 5 50 2 6 -49 0
3 5 50 2 6 -51 0
3 5 50 2 6 -52 0
3 5 50 2 6 -47 0
3 5 22 2 6 -17 0
3 5 22 2 6 -19 0
3 5 22 2 6 -18 0
3 5 22 2 6 -20 0
3 5 56 2 6 -61 0
3 5 56 2 6 -57 0
3 5 56 2 6 -62 0
3 5 56 2 6 -58 0
3 5 2 35 6 -34 0
3 5 2 35 6 -31 0
3 5 2 35 6 -38 0
3 5 2 35 6 -32 0
3 5 2 9 6 -7 0
3 5 2 9 6 -12 0
3 5 2 9 6 -11 0
3 5 2 9 6 -13 0
3 5 2 44 6 -41 0
3 5 2 44 6 -40 0
3 5 2 44 6 -43 0
3 5 2 44 6 -42 0
3 5 2 28 6 -25 0
3 5 2 28 6 -24 0
3 5 2 28 6 -26 0
3 5 2 28 6 -27 0
3 5 2 54 6 -49 0
3 5 2 54 6 -51 0
3 5 2 54 6 -52 0
3 5 2 54 6 -47 0
3 5 2 21 6 -17 0
3 5 2 21 6 -19 0
3 5 2 21 6 -18 0
3 5 2 21 6 -20 0
3 5 2 59 6 -61 0
3 5 2 59 6 -57 0
3 5 2 59 6 -62 0
3 5 2 59 6 -58 0
3 5 2 6 33 -34 0
3 5 2 6 33 -31 0
3 5 2 6 33 -38 0
3 5 2 6 33 -32 0
37 14 36 35 33 -75 0
37 14 36 35 33 -74 0
37 14 36 35 33 -76 0
37 14 36 35 33 -73 0
37 39 36 35 33 -131 0
37 39 36 35 33 -132 0
37 39 36 35 33 -133 0
37 39 36 35 33 -134 0
37 23 36 35 33 -113 0
37 23 36 35 33 -116 0
37 23 36 35 33 -114 0
37 23 36 35 33 -115 0
37 48 36 35 33 -137 0
37 48 36 35 33 -135 0
37 48 36 35 33 -136 0
37 48 36 35 33 -138 0
37 15 36 35 33 -97 0
37 15 36 35 33 -96 0
37 15 36 35 33 -95 0
37 15 36 35 33 -98 0
37 55 36 35 33 -141 0
37 55 36 35 33 -139 0
37 55 36 35 33 -140 0
37 55 36 35 33 -142 0
37 5 36 35 33 -34 0
37 5 36 35 33 -31 0
37 5 36 35 33 -38 0
37 5 36 35 33 -32 0
37 36 8 35 33 -75 0
37 36 8 35 33 -74 0
37 36 8 35 33 -76 0
37 36 8 35 33 -73 0
37 36 46 35 33 -131 0
37 36 46 35 33 -132 0
37 36 46 35 33 -133 0
37 36 46 35 33 -134 0
37 36 30 35 33 -113 0
37 36 30 35 33 -116 0
37 36 30 35 33 -114 0
37 36 30 35 33 -115 0
37 36 50 35 33 -137 0
37 36 50 35 33 -135 0
37 36 50 35 33 -136 0
37 36 50 35 33 -138 0
37 36 22 35 33 -97 0
37 36 22 35 33 -96 0
37 36 22 35 33 -95 0
37 36 22 35 33 -98 0
37 36 56 35 33 -141 0
37 36 56 35 33 -139 0
37 36 56 35 33 -140 0
37 36 56 35 33 -142 0
37 36 2 35 33 -34 0
37 36 2 35 33 -31 0
37 36 2 35 33 -38 0
37 36 2 35 33 -32 0
37 36 35 9 33 -75 0
37 36 35 9 33 -74 0
37 36 35 9 33 -76 0
37 36 35 9 33 -73 0
37 36 35 44 33 -131 0
37 36 35 44 33 -132 0
37 36 35 44 33 -133 0
37 36 35 44 33 -134 0
37 36 35 28 33 -113 0
37 36 35 28 33 -116 0
37 36 35 28 33 -114 0
37 36 35 28 33 -115 0
37 36 35 54 33 -137 0
37 36 35 54 33 -135 0
37 36 35 54 33 -136 0
37 36 35 54 33 -138 0
37 36 35 21 33 -97 0
37 36 35 21 33 -96 0
37 36 35 21 33 -95 0
37 36 35 21 33 -98 0
37 36 35 59 33 -141 0
37 36 35 59 33 -139 0
37 36 35 59 33 -140 0
37 36 35 59 33 -142 0
37 36 35 6 33 -34 0
37 36 35 6 33 -31 0
37 36 35 6 33 -38 0
37 36 35 6 33 -32 0
10 45 14 39 8 46 -80 0
10 45 14 39 8 46 -77 0
10 45 14 39 8 46 -79 0
10 45 14 39 8 46 -78 0
10 45 14 39 8 9 -80 0
10 45 14 39 8 9 -77 0
10 45 14 39 8 9 -79 0
10 45 14 39 8 9 -78 0
10 45 14 39 46 44 -80 0
10 45 14 39 46 44 -77 0
10 45 14 39 46 44 -79 0
10 45 14 39 46 44 -78 0
10 45 14 39 9 44 -80 0
10 45 14 39 9 44 -77 0
10 45 14 39 9 44 -79 0
10 45 14 39 9 44 -78 0
10 45 14 8 46 9 -80 0
10 45 14 8 46 9 -77 0
10 45 14 8 46 9 -79 0
10 45 14 8 46 9 -78 0
10 45 14 8 9 44 -80 0
10 45 14 8 9 44 -77 0
10 45 14 8 9 44 -79 0
10 45 14 8 9 44 -78 0
10 45 39 8 46 44 -80 0
10 45 39 8 46 44 -77 0
10 45 39 8 46 44 -79 0
10 45 39 8 46 44 -78 0
10 45 39 46 9 44 -80 0
10 45 39 46 9 44 -77 0
10 45 39 46 9 44 -79 0
10 45 39 46 9 44 -78 0
10 45 8 46 9 44 -80 0
10 45 8 46 9 44 -77 0
10 45 8 46 9 44 -79 0
10 45 8 46 9 44 -78 0
10 29 14 23 8 30 -72 0
10 29 14 23 8 30 -71 0
10 29 14 23 8 30 -69 0
10 29 14 23 8 30 -70 0
10 29 14 23 8 9 -72 0
10 29 14 23 8 9 -71 0
10 29 14 23 8 9 -69 0
10 29 14 23 8 9 -70 0
10 29 14 23 30 28 -72 0
10 29 14 23 30 28 -71 0
10 29 14 23 30 28 -69 0
10 29 14 23 30 28 -70 0
10 29 14 23 9 28 -72 0
10 29 14 23 9 28 -71 0
10 29 14 23 9 28 -69 0
10 29 14 23 9 28 -70 0
10 29 14 8 30 9 -72 0
10 29 14 8 30 9 -71 0
10 29 14 8 30 9 -69 0
10 29 14 8 30 9 -70 0
10 29 14 8 9 28 -72 0
10 29 14 8 9 28 -71 0
10 29 14 8 9 28 -69 0
10 29 14 8 9 28 -70 0
10 29 23 8 30 28 -72 0
10 29 23 8 30 28 -71 0
10 29 23 8 30 28 -69 0
10 29 23 8 30 28 -70 0
10 29 23 30 9 28 -72 0
10 29 23 30 9 28 -71 0
10 29 23 30 9 28 -69 0
10 29 23 30 9 28 -70 0
10 29 8 30 9 28 -72 0
10 29 8 30 9 28 -71 0
10 29 8 30 9 28 -69 0
10 29 8 30 9 28 -70 0
10 53 14 48 8 50 -84 0
10 53 14 48 8 50 -82 0
10 53 14 48 8 50 -81 0
10 53 14 48 8 50 -83 0
10 53 14 48 8 9 -84 0
10 53 14 48 8 9 -82 0
10 53 14 48 8 9 -81 0
10 53 14 48 8 9 -83 0
10 53 14 48 50 54 -84 0
10 53 14 48 50 54 -82 0
10 53 14 48 50 54 -81 0
10 53 14 48 50 54 -83 0
10 53 14 48 9 54 -84 0
10 53 14 48 9 54 -82 0
10 53 14 48 9 54 -81 0
10 53 14 48 9 54 -83 0
10 53 14 8 50 9 -84 0
10 53 14 8 50 9 -82 0
10 53 14 8 50 9 -81 0
10 53 14 8 50 9 -83 0
10 53 14 8 9 54 -84 0
10 53 14 8 9 54 -82 0
10 53 14 8 9 54 -81 0
10 53 14 8 9 54 -83 0
10 53 48 8 50 54 -84 0
10 53 48 8 50 54 -82 0
10 53 48 8 50 54 -81 0
10 53 48 8 50 54 -83 0
10 53 48 50 9 54 -84 0
10 53 48 50 9 54 -82 0
10 53 48 50 9 54 -81 0
10 53 48 50 9 54 -83 0
10 53 8 50 9 54 -84 0
10 53 8 50 9 54 -82 0
10 53 8 50 9 54 -81 0
10 53 8 50 9 54 -83 0
10 16 14 15 8 22 -68 0
10 16 14 15 8 22 -65 0
10 16 14 15 8 22 -67 0
10 16 14 15 8 22 -66 0
10 16 14 15 8 9 -68 0
10 16 14 15 8 9 -65 0
10 16 14 15 8 9 -67 0
10 16 14 15 8 9 -66 0
10 16 14 15 22 21 -68 0
10 16 14 15 22 21 -65 0
10 16 14 15 22 21 -67 0
10 16 14 15 22 21 -66 0
10 16 14 15 9 21 -68 0
10 16 14 15 9 21 -65 0
10 16 14 15 9 21 -67 0
10 16 14 15 9 21 -66 0
10 16 14 8 22 9 -68 0
10 16 14 8 22 9 -65 0
10 16 14 8 22 9 -67 0
10 16 14 8 22 9 -66 0
10 16 14 8 9 21 -68 0
10 16 14 8 9 21 -65 0
10 16 14 8 9 21 -67 0
10 16 14 8 9 21 -66 0
10 16 15 8 22 21 -68 0
10 16 15 8 22 21 -65 0
10 16 15 8 22 21 -67 0
10 16 15 8 22 21 -66 0
10 16 15 22 9 21 -68 0
10 16 15 22 9 21 -65 0
10 16 15 22 9 21 -67 0
10 16 15 22 9 21 -66 0
10 16 8 22 9 21 -68 0
10 16 8 22 9 21 -65 0
10 16 8 22 9 21 -67 0
10 16 8 22 9 21 -66 0
10 60 14 55 8 56 -87 0
10 60 14 55 8 56 -86 0
10 60 14 55 8 56 -88 0
10 60 14 55 8 56 -85 0
10 60 14 55 8 9 -87 0
10 60 14 55 8 9 -86 0
10 60 14 55 8 9 -88 0
10 60 14 55 8 9 -85 0
10 60 14 55 56 59 -87 0
10 60 14 55 56 59 -86 0
10 60 14 55 56 59 -88 0
10 60 14 55 56 59 -85 0
10 60 14 55 9 59 -87 0
10 60 14 55 9 59 -86 0
10 60 14 55 9 59 -88 0
10 60 14 55 9 59 -85 0
10 60 14 8 56 9 -87 0
10 60 14 8 56 9 -86 0
10 60 14 8 56 9 -88 0
10 60 14 8 56 9 -85 0
10 60 14 8 9 59 -87 0
10 60 14 8 9 59 -86 0
10 60 14 8 9 59 -88 0
10 60 14 8 9 59 -85 0
10 60 55 8 56 59 -87 0
10 60 55 8 56 59 -86 0
10 60 55 8 56 59 -88 0
10 60 55 8 56 59 -85 0
10 60 55 56 9 59 -87 0
10 60 55 56 9 59 -86 0
10 60 55 56 9 59 -88 0
10 60 55 56 9 59 -85 0
10 60 8 56 9 59 -87 0
10 60 8 56 9 59 -86 0
10 60 8 56 9 59 -88 0
10 60 8 56 9 59 -85 0
10 3 14 5 8 2 -7 0
10 3 14 5 8 2 -12 0
10 3 14 5 8 2 -11 0
10 3 14 5 8 2 -13 0
10 3 14 5 8 9 -7 0
10 3 14 5 8 9 -12 0
10 3 14 5 8 9 -11 0
10 3 14 5 8 9 -13 0
10 3 14 5 2 6 -7 0
10 3 14 5 2 6 -12 0
10 3 14 5 2 6 -11 0
10 3 14 5 2 6 -13 0
10 3 14 5 9 6 -7 0
10 3 14 5 9 6 -12 0
10 3 14 5 9 6 -11 0
10 3 14 5 9 6 -13 0
10 3 14 8 2 9 -7 0
10 3 14 8 2 9 -12 0
10 3 14 8 2 9 -11 0
10 3 14 8 2 9 -13 0
10 3 14 8 9 6 -7 0
10 3 14 8 9 6 -12 0
10 3 14 8 9 6 -11 0
10 3 14 8 9 6 -13 0
10 3 5 8 2 6 -7 0
10 3 5 8 2 6 -12 0
10 3 5 8 2 6 -11 0
10 3 5 8 2 6 -13 0
10 3 5 2 9 6 -7 0
10 3 5 2 9 6 -12 0
10 3 5 2 9 6 -11 0
10 3 5 2 9 6 -13 0
10 3 8 2 9 6 -7 0
10 3 8 2 9 6 -12 0
10 3 8 2 9 6 -11 0
10 3 8 2 9 6 -13 0
10 37 14 36 8 35 -75 0
10 37 14 36 8 35 -74 0
10 37 14 36 8 35 -76 0
10 37 14 36 8 35 -73 0
10 37 14 36 8 9 -75 0
10 37 14 36 8 9 -74 0
10 37 14 36 8 9 -76 0
10 37 14 36 8 9 -73 0
10 37 14 36 35 33 -75 0
10 37 14 36 35 33 -74 0
10 37 14 36 35 33 -76 0
10 37 14 36 35 33 -73 0
10 37 14 36 9 33 -75 0
10 37 14 36 9 33 -74 0
10 37 14 36 9 33 -76 0
10 37 14 36 9 33 -73 0
10 37 14 8 35 9 -75 0
10 37 14 8 35 9 -74 0
10 37 14 8 35 9 -76 0
10 37 14 8 35 9 -73 0
10 37 14 8 9 33 -75 0
10 37 14 8 9 33 -74 0
10 37 14 8 9 33 -76 0
10 37 14 8 9 33 -73 0
10 37 36 8 35 33 -75 0
10 37 36 8 35 33 -74 0
10 37 36 8 35 33 -76 0
10 37 36 8 35 33 -73 0
10 37 36 35 9 33 -75 0
10 37 36 35 9 33 -74 0
10 37 36 35 9 33 -76 0
10 37 36 35 9 33 -73 0
10 37 8 35 9 33 -75 0
10 37 8 35 9 33 -74 0
10 37 8 35 9 33 -76 0
10 37 8 35 9 33 -73 0
10 14 39 8 46 9 -80 0
10 14 39 8 46 9 -77 0
10 14 39 8 46 9 -79 0
10 14 39 8 46 9 -78 0
10 14 39 8 9 44 -80 0
10 14 39 8 9 44 -77 0
10 14 39 8 9 44 -79 0
10 14 39 8 9 44 -78 0
10 14 23 8 30 9 -72 0
10 14 23 8 30 9 -71 0
10 14 23 8 30 9 -69 0
10 14 23 8 30 9 -70 0
10 14 23 8 9 28 -72 0
10 14 23 8 9 28 -71 0
10 14 23 8 9 28 -69 0
10 14 23 8 9 28 -70 0
10 14 48 8 50 9 -84 0
10 14 48 8 50 9 -82 0
10 14 48 8 50 9 -81 0
10 14 48 8 50 9 -83 0
10 14 48 8 9 54 -84 0
10 14 48 8 9 54 -82 0
10 14 48 8 9 54 -81 0
10 14 48 8 9 54 -83 0
10 14 15 8 22 9 -68 0
10 14 15 8 22 9 -65 0
10 14 15 8 22 9 -67 0
10 14 15 8 22 9 -66 0
10 14 15 8 9 21 -68 0
10 14 15 8 9 21 -65 0
10 14 15 8 9 21 -67 0
10 14 15 8 9 21 -66 0
10 14 55 8 56 9 -87 0
10 14 55 8 56 9 -86 0
10 14 55 8 56 9 -88 0
10 14 55 8 56 9 -85 0
10 14 55 8 9 59 -87 0
10 14 55 8 9 59 -86 0
10 14 55 8 9 59 -88 0
10 14 55 8 9 59 -85 0
10 14 5 8 2 9 -7 0
10 14 5 8 2 9 -12 0
10 14 5 8 2 9 -11 0
10 14 5 8 2 9 -13 0
10 14 5 8 9 6 -7 0
10 14 5 8 9 6 -12 0
10 14 5 8 9 6 -11 0
10 14 5 8 9 6 -13 0
10 14 36 8 35 9 -75 0
10 14 36 8 35 9 -74 0
10 14 36 8 35 9 -76 0
10 14 36 8 35 9 -73 0
10 14 36 8 9 33 -75 0
10 14 36 8 9 33 -74 0
10 14 36 8 9 33 -76 0
10 14 36 8 9 33 -73 0
10 14 8 46 9 44 -80 0
10 14 8 46 9 44 -77 0
10 14 8 46 9 44 -79 0
10 14 8 46 9 44 -78 0
10 14 8 30 9 28 -72 0
10 14 8 30 9 28 -71 0
10 14 8 30 9 28 -69 0
10 14 8 30 9 28 -70 0
10 14 8 50 9 54 -84 0
10 14 8 50 9 54 -82 0
10 14 8 50 9 54 -81 0
10 14 8 50 9 54 -83 0
10 14 8 22 9 21 -68 0
10 14 8 22 9 21 -65 0
10 14 8 22 9 21 -67 0
10 14 8 22 9 21 -66 0
10 14 8 56 9 59 -87 0
10 14 8 56 9 59 -86 0
10 14 8 56 9 59 -88 0
10 14 8 56 9 59 -85 0
10 14 8 2 9 6 -7 0
10 14 8 2 9 6 -12 0
10 14 8 2 9 6 -11 0
10 14 8 2 9 6 -13 0
10 14 8 35 9 33 -75 0
10 14 8 35 9 33 -74 0
10 14 8 35 9 33 -76 0
10 14 8 35 9 33 -73 0
45 29 39 23 46 30 -120 0
45 29 39 23 46 30 -119 0
45 29 39 23 46 30 -117 0
45 29 39 23 46 30 -118 0
45 29 39 23 46 44 -120 0
45 29 39 23 46 44 -119 0
45 29 39 23 46 44 -117 0
45 29 39 23 46 44 -118 0
45 29 39 23 30 28 -120 0
45 29 39 23 30 28 -119 0
45 29 39 23 30 28 -117 0
45 29 39 23 30 28 -118 0
45 29 39 23 44 28 -120 0
45 29 39 23 44 28 -119 0
45 29 39 23 44 28 -117 0
45 29 39 23 44 28 -118 0
45 29 39 46 30 44 -120 0
45 29 39 46 30 44 -119 0
45 29 39 46 30 44 -117 0
45 29 39 46 30 44 -118 0
45 29 39 46 44 28 -120 0
45 29 39 46 44 28 -119 0
45 29 39 46 44 28 -117 0
45 29 39 46 44 28 -118 0
45 29 23 46 30 28 -120 0
45 29 23 46 30 28 -119 0
45 29 23 46 30 28 -117 0
45 29 23 46 30 28 -118 0
45 29 23 30 44 28 -120 0
45 29 23 30 44 28 -119 0
45 29 23 30 44 28 -117 0
45 29 23 30 44 28 -118 0
45 29 46 30 44 28 -120 0
45 29 46 30 44 28 -119 0
45 29 46 30 44 28 -117 0
45 29 46 30 44 28 -118 0
45 53 39 48 46 50 -145 0
45 53 39 48 46 50 -148 0
45 53 39 48 46 50 -146 0
45 53 39 48 46 50 -147 0
45 53 39 48 46 44 -145 0
45 53 39 48 46 44 -148 0
45 53 39 48 46 44 -146 0
45 53 39 48 46 44 -147 0
45 53 39 48 50 54 -145 0
45 53 39 48 50 54 -148 0
45 53 39 48 50 54 -146 0
45 53 39 48 50 54 -147 0
45 53 39 48 44 54 -145 0
45 53 39 48 44 54 -148 0
45 53 39 48 44 54 -146 0
45 53 39 48 44 54 -147 0
45 53 39 46 50 44 -145 0
45 53 39 46 50 44 -148 0
45 53 39 46 50 44 -146 0
45 53 39 46 50 44 -147 0
45 53 39 46 44 54 -145 0
45 53 39 46 44 54 -148 0
45 53 39 46 44 54 -146 0
45 53 39 46 44 54 -147 0
45 53 48 46 50 54 -145 0
45 53 48 46 50 54 -148 0
45 53 48 46 50 54 -146 0
45 53 48 46 50 54 -147 0
45 53 48 50 44 54 -145 0
45 53 48 50 44 54 -148 0
45 53 48 50 44 54 -146 0
45 53 48 50 44 54 -147 0
45 53 46 50 44 54 -145 0
45 53 46 50 44 54 -148 0
45 53 46 50 44 54 -146 0
45 53 46 50 44 54 -147 0
45 16 39 15 46 22 -101 0
45 16 39 15 46 22 -100 0
45 16 39 15 46 22 -99 0
45 16 39 15 46 22 -102 0
45 16 39 15 46 44 -101 0
45 16 39 15 46 44 -100 0
45 16 39 15 46 44 -99 0
45 16 39 15 46 44 -102 0
45 16 39 15 22 21 -101 0
45 16 39 15 22 21 -100 0
45 16 39 15 22 21 -99 0
45 16 39 15 22 21 -102 0
45 16 39 15 44 21 -101 0
45 16 39 15 44 21 -100 0
45 16 39 15 44 21 -99 0
45 16 39 15 44 21 -102 0
45 16 39 46 22 44 -101 0
45 16 39 46 22 44 -100 0
45 16 39 46 22 44 -99 0
45 16 39 46 22 44 -102 0
45 16 39 46 44 21 -101 0
45 16 39 46 44 21 -100 0
45 16 39 46 44 21 -99 0
45 16 39 46 44 21 -102 0
45 16 15 46 22 21 -101 0
45 16 15 46 22 21 -100 0
45 16 15 46 22 21 -99 0
45 16 15 46 22 21 -102 0
45 16 15 22 44 21 -101 0
45 16 15 22 44 21 -100 0
45 16 15 22 44 21 -99 0
45 16 15 22 44 21 -102 0
45 16 46 22 44 21 -101 0
45 16 46 22 44 21 -100 0
45 16 46 22 44 21 -99 0
45 16 46 22 44 21 -102 0
45 60 39 55 46 56 -150 0
45 60 39 55 46 56 -152 0
45 60 39 55 46 56 -149 0
45 60 39 55 46 56 -151 0
45 60 39 55 46 44 -150 0
45 60 39 55 46 44 -152 0
45 60 39 55 46 44 -149 0
45 60 39 55 46 44 -151 0
45 60 39 55 56 59 -150 0
45 60 39 55 56 59 -152 0
45 60 39 55 56 59 -149 0
45 60 39 55 56 59 -151 0
45 60 39 55 44 59 -150 0
45 60 39 55 44 59 -152 0
45 60 39 55 44 59 -149 0
45 60 39 55 44 59 -151 0
45 60 39 46 56 44 -150 0
45 60 39 46 56 44 -152 0
45 60 39 46 56 44 -149 0
45 60 39 46 56 44 -151 0
45 60 39 46 44 59 -150 0
45 60 39 46 44 59 -152 0
45 60 39 46 44 59 -149 0
45 60 39 46 44 59 -151 0
45 60 55 46 56 59 -150 0
45 60 55 46 56 59 -152 0
45 60 55 46 56 59 -149 0
45 60 55 46 56 59 -151 0
45 60 55 56 44 59 -150 0
45 60 55 56 44 59 -152 0
45 60 55 56 44 59 -149 0
45 60 55 56 44 59 -151 0
45 60 46 56 44 59 -150 0
45 60 46 56 44 59 -152 0
45 60 46 56 44 59 -149 0
45 60 46 56 44 59 -151 0
45 3 39 5 46 2 -41 0
45 3 39 5 46 2 -40 0
45 3 39 5 46 2 -43 0
45 3 39 5 46 2 -42 0
45 3 39 5 46 44 -41 0
45 3 39 5 46 44 -40 0
45 3 39 5 46 44 -43 0
45 3 39 5 46 44 -42 0
45 3 39 5 2 6 -41 0
45 3 39 5 2 6 -40 0
45 3 39 5 2 6 -43 0
45 3 39 5 2 6 -42 0
45 3 39 5 44 6 -41 0
45 3 39 5 44 6 -40 0
45 3 39 5 44 6 -43 0
45 3 39 5 44 6 -42 0
45 3 39 46 2 44 -41 0
45 3 39 46 2 44 -40 0
45 3 39 46 2 44 -43 0
45 3 39 46 2 44 -42 0
45 3 39 46 44 6 -41 0
45 3 39 46 44 6 -40 0
45 3 39 46 44 6 -43 0
45 3 39 46 44 6 -42 0
45 3 5 46 2 6 -41 0
45 3 5 46 2 6 -40 0
45 3 5 46 2 6 -43 0
45 3 5 46 2 6 -42 0
45 3 5 2 44 6 -41 0
45 3 5 2 44 6 -40 0
45 3 5 2 44 6 -43 0
45 3 5 2 44 6 -42 0
45 3 46 2 44 6 -41 0
45 3 46 2 44 6 -40 0
45 3 46 2 44 6 -43 0
45 3 46 2 44 6 -42 0
45 37 39 36 46 35 -131 0
45 37 39 36 46 35 -132 0
45 37 39 36 46 35 -133 0
45 37 39 36 46 35 -134 0
45 37 39 36 46 44 -131 0
45 37 39 36 46 44 -132 0
45 37 39 36 46 44 -133 0
45 37 39 36 46 44 -134 0
45 37 39 36 35 33 -131 0
45 37 39 36 35 33 -132 0
45 37 39 36 35 33 -133 0
45 37 39 36 35 33 -134 0
45 37 39 36 44 33 -131 0
45 37 39 36 44 33 -132 0
45 37 39 36 44 33 -133 0
45 37 39 36 44 33 -134 0
45 37 39 46 35 44 -131 0
45 37 39 46 35 44 -132 0
45 37 39 46 35 44 -133 0
45 37 39 46 35 44 -134 0
45 37 39 46 44 33 -131 0
45 37 39 46 44 33 -132 0
45 37 39 46 44 33 -133 0
45 37 39 46 44 33 -134 0
45 37 36 46 35 33 -131 0
45 37 36 46 35 33 -132 0
45 37 36 46 35 33 -133 0
45 37 36 46 35 33 -134 0
45 37 36 35 44 33 -131 0
45 37 36 35 44 33 -132 0
45 37 36 35 44 33 -133 0
45 37 36 35 44 33 -134 0
45 37 46 35 44 33 -131 0
45 37 46 35 44 33 -132 0
45 37 46 35 44 33 -133 0
45 37 46 35 44 33 -134 0
45 14 39 8 46 44 -80 0
45 14 39 8 46 44 -77 0
45 14 39 8 46 44 -79 0
45 14 39 8 46 44 -78 0
45 14 39 46 9 44 -80 0
45 14 39 46 9 44 -77 0
45 14 39 46 9 44 -79 0
45 14 39 46 9 44 -78 0
45 39 23 46 30 44 -120 0
45 39 23 46 30 44 -119 0
45 39 23 46 30 44 -117 0
45 39 23 46 30 44 -118 0
45 39 23 46 44 28 -120 0
45 39 23 46 44 28 -119 0
45 39 23 46 44 28 -117 0
45 39 23 46 44 28 -118 0
45 39 48 46 50 44 -145 0
45 39 48 46 50 44 -148 0
45 39 48 46 50 44 -146 0
45 39 48 46 50 44 -147 0
45 39 48 46 44 54 -145 0
45 39 48 46 44 54 -148 0
45 39 48 46 44 54 -146 0
45 39 48 46 44 54 -147 0
45 39 15 46 22 44 -101 0
45 39 15 46 22 44 -100 0
45 39 15 46 22 44 -99 0
45 39 15 46 22 44 -102 0
45 39 15 46 44 21 -101 0
45 39 15 46 44 21 -100 0
45 39 15 46 44 21 -99 0
45 39 15 46 44 21 -102 0
45 39 55 46 56 44 -150 0
45 39 55 46 56 44 -152 0
45 39 55 46 56 44 -149 0
45 39 55 46 56 44 -151 0
45 39 55 46 44 59 -150 0
45 39 55 46 44 59 -152 0
45 39 55 46 44 59 -149 0
45 39 55 46 44 59 -151 0
45 39 5 46 2 44 -41 0
45 39 5 46 2 44 -40 0
45 39 5 46 2 44 -43 0
45 39 5 46 2 44 -42 0
45 39 5 46 44 6 -41 0
45 39 5 46 44 6 -40 0
45 39 5 46 44 6 -43 0
45 39 5 46 44 6 -42 0
45 39 36 46 35 44 -131 0
45 39 36 46 35 44 -132 0
45 39 36 46 35 44 -133 0
45 39 36 46 35 44 -134 0
45 39 36 46 44 33 -131 0
45 39 36 46 44 33 -132 0
45 39 36 46 44 33 -133 0
45 39 36 46 44 33 -134 0
45 39 8 46 9 44 -80 0
45 39 8 46 9 44 -77 0
45 39 8 46 9 44 -79 0
45 39 8 46 9 44 -78 0
45 39 46 30 44 28 -120 0
45 39 46 30 44 28 -119 0
45 39 46 30 44 28 -117 0
45 39 46 30 44 28 -118 0
45 39 46 50 44 54 -145 0
45 39 46 50 44 54 -148 0
45 39 46 50 44 54 -146 0
45 39 46 50 44 54 -147 0
45 39 46 22 44 21 -101 0
45 39 46 22 44 21 -100 0
45 39 46 22 44 21 -99 0
45 39 46 22 44 21 -102 0
45 39 46 56 44 59 -150 0
45 39 46 56 44 59 -152 0
45 39 46 56 44 59 -149 0
45 39 46 56 44 59 -151 0
45 39 46 2 44 6 -41 0
45 39 46 2 44 6 -40 0
45 39 46 2 44 6 -43 0
45 39 46 2 44 6 -42 0
45 39 46 35 44 33 -131 0
45 39 46 35 44 33 -132 0
45 39 46 35 44 33 -133 0
45 39 46 35 44 33 -134 0
29 53 23 48 30 50 -123 0
29 53 23 48 30 50 -124 0
29 53 23 48 30 50 -121 0
29 53 23 48 30 50 -122 0
29 53 23 48 30 28 -123 0
29 53 23 48 30 28 -124 0
29 53 23 48 30 28 -121 0
29 53 23 48 30 28 -122 0
29 53 23 48 50 54 -123 0
29 53 23 48 50 54 -124 0
29 53 23 48 50 54 -121 0
29 53 23 48 50 54 -122 0
29 53 23 48 28 54 -123 0
29 53 23 48 28 54 -124 0
29 53 23 48 28 54 -121 0
29 53 23 48 28 54 -122 0
29 53 23 30 50 28 -123 0
29 53 23 30 50 28 -124 0
29 53 23 30 50 28 -121 0
29 53 23 30 50 28 -122 0
29 53 23 30 28 54 -123 0
29 53 23 30 28 54 -124 0
29 53 23 30 28 54 -121 0
29 53 23 30 28 54 -122 0
29 53 48 30 50 54 -123 0
29 53 48 30 50 54 -124 0
29 53 48 30 50 54 -121 0
29 53 48 30 50 54 -122 0
29 53 48 50 28 54 -123 0
29 53 48 50 28 54 -124 0
29 53 48 50 28 54 -121 0
29 53 48 50 28 54 -122 0
29 53 30 50 28 54 -123 0
29 53 30 50 28 54 -124 0
29 53 30 50 28 54 -121 0
29 53 30 50 28 54 -122 0
29 16 23 15 30 22 -93 0
29 16 23 15 30 22 -91 0
29 16 23 15 30 22 -94 0
29 16 23 15 30 22 -92 0
29 16 23 15 30 28 -93 0
29 16 23 15 30 28 -91 0
29 16 23 15 30 28 -94 0
29 16 23 15 30 28 -92 0
29 16 23 15 22 21 -93 0
29 16 23 15 22 21 -91 0
29 16 23 15 22 21 -94 0
29 16 23 15 22 21 -92 0
29 16 23 15 28 21 -93 0
29 16 23 15 28 21 -91 0
29 16 23 15 28 21 -94 0
29 16 23 15 28 21 -92 0
29 16 23 30 22 28 -93 0
29 16 23 30 22 28 -91 0
29 16 23 30 22 28 -94 0
29 16 23 30 22 28 -92 0
29 16 23 30 28 21 -93 0
29 16 23 30 28 21 -91 0
29 16 23 30 28 21 -94 0
29 16 23 30 28 21 -92 0
29 16 15 30 22 21 -93 0
29 16 15 30 22 21 -91 0
29 16 15 30 22 21 -94 0
29 16 15 30 22 21 -92 0
29 16 15 22 28 21 -93 0
29 16 15 22 28 21 -91 0
29 16 15 22 28 21 -94 0
29 16 15 22 28 21 -92 0
29 16 30 22 28 21 -93 0
29 16 30 22 28 21 -91 0
29 16 30 22 28 21 -94 0
29 16 30 22 28 21 -92 0
29 60 23 55 30 56 -128 0
29 60 23 55 30 56 -127 0
29 60 23 55 30 56 -125 0
29 60 23 55 30 56 -126 0
29 60 23 55 30 28 -128 0
29 60 23 55 30 28 -127 0
29 60 23 55 30 28 -125 0
29 60 23 55 30 28 -126 0
29 60 23 55 56 59 -128 0
29 60 23 55 56 59 -127 0
29 60 23 55 56 59 -125 0
29 60 23 55 56 59 -126 0
29 60 23 55 28 59 -128 0
29 60 23 55 28 59 -127 0
29 60 23 55 28 59 -125 0
29 60 23 55 28 59 -126 0
29 60 23 30 56 28 -128 0
29 60 23 30 56 28 -127 0
29 60 23 30 56 28 -125 0
29 60 23 30 56 28 -126 0
29 60 23 30 28 59 -128 0
29 60 23 30 28 59 -127 0
29 60 23 30 28 59 -125 0
29 60 23 30 28 59 -126 0
29 60 55 30 56 59 -128 0
29 60 55 30 56 59 -127 0
29 60 55 30 56 59 -125 0
29 60 55 30 56 59 -126 0
29 60 55 56 28 59 -128 0
29 60 55 56 28 59 -127 0
29 60 55 56 28 59 -125 0
29 60 55 56 28 59 -126 0
29 60 30 56 28 59 -128 0
29 60 30 56 28 59 -127 0
29 60 30 56 28 59 -125 0
29 60 30 56 28 59 -126 0
29 3 23 5 30 2 -25 0
29 3 23 5 30 2 -24 0
29 3 23 5 30 2 -26 0
29 3 23 5 30 2 -27 0
29 3 23 5 30 28 -25 0
29 3 23 5 30 28 -24 0
29 3 23 5 30 28 -26 0
29 3 23 5 30 28 -27 0
29 3 23 5 2 6 -25 0
29 3 23 5 2 6 -24 0
29 3 23 5 2 6 -26 0
29 3 23 5 2 6 -27 0
29 3 23 5 28 6 -25 0
29 3 23 5 28 6 -24 0
29 3 23 5 28 6 -26 0
29 3 23 5 28 6 -27 0
29 3 23 30 2 28 -25 0
29 3 23 30 2 28 -24 0
29 3 23 30 2 28 -26 0
29 3 23 30 2 28 -27 0
29 3 23 30 28 6 -25 0
29 3 23 30 28 6 -24 0
29 3 23 30 28 6 -26 0
29 3 23 30 28 6 -27 0
29 3 5 30 2 6 -25 0
29 3 5 30 2 6 -24 0
29 3 5 30 2 6 -26 0
29 3 5 30 2 6 -27 0
29 3 5 2 28 6 -25 0
29 3 5 2 28 6 -24 0
29 3 5 2 28 6 -26 0
29 3 5 2 28 6 -27 0
29 3 30 2 28 6 -25 0
29 3 30 2 28 6 -24 0
29 3 30 2 28 6 -26 0
29 3 30 2 28 6 -27 0
29 37 23 36 30 35 -113 0
29 37 23 36 30 35 -116 0
29 37 23 36 30 35 -114 0
29 37 23 36 30 35 -115 0
29 37 23 36 30 28 -113 0
29 37 23 36 30 28 -116 0
29 37 23 36 30 28 -114 0
29 37 23 36 30 28 -115 0
29 37 23 36 35 33 -113 0
29 37 23 36 35 33 -116 0
29 37 23 36 35 33 -114 0
29 37 23 36 35 33 -115 0
29 37 23 36 28 33 -113 0
29 37 23 36 28 33 -116 0
29 37 23 36 28 33 -114 0
29 37 23 36 28 33 -115 0
29 37 23 30 35 28 -113 0
29 37 23 30 35 28 -116 0
29 37 23 30 35 28 -114 0
29 37 23 30 35 28 -115 0
29 37 23 30 28 33 -113 0
29 37 23 30 28 33 -116 0
29 37 23 30 28 33 -114 0
29 37 23 30 28 33 -115 0
29 37 36 30 35 33 -113 0
29 37 36 30 35 33 -116 0
29 37 36 30 35 33 -114 0
29 37 36 30 35 33 -115 0
29 37 36 35 28 33 -113 0
29 37 36 35 28 33 -116 0
29 37 36 35 28 33 -114 0
29 37 36 35 28 33 -115 0
29 37 30 35 28 33 -113 0
29 37 30 35 28 33 -116 0
29 37 30 35 28 33 -114 0
29 37 30 35 28 33 -115 0
29 14 23 8 30 28 -72 0
29 14 23 8 30 28 -71 0
29 14 23 8 30 28 -69 0
29 14 23 8 30 28 -70 0
29 14 23 30 9 28 -72 0
29 14 23 30 9 28 -71 0
29 14 23 30 9 28 -69 0
29 14 23 30 9 28 -70 0
29 39 23 46 30 28 -120 0
29 39 23 46 30 28 -119 0
29 39 23 46 30 28 -117 0
29 39 23 46 30 28 -118 0
29 39 23 30 44 28 -120 0
29 39 23 30 44 28 -119 0
29 39 23 30 44 28 -117 0
29 39 23 30 44 28 -118 0
29 23 48 30 50 28 -123 0
29 23 48 30 50 28 -124 0
29 23 48 30 50 28 -121 0
29 23 48 30 50 28 -122 0
29 23 48 30 28 54 -123 0
29 23 48 30 28 54 -124 0
29 23 48 30 28 54 -121 0
29 23 48 30 28 54 -122 0
29 23 15 30 22 28 -93 0
29 23 15 30 22 28 -91 0
29 23 15 30 22 28 -94 0
29 23 15 30 22 28 -92 0
29 23 15 30 28 21 -93 0
29 23 15 30 28 21 -91 0
29 23 15 30 28 21 -94 0
29 23 15 30 28 21 -92 0
29 23 55 30 56 28 -128 0
29 23 55 30 56 28 -127 0
29 23 55 30 56 28 -125 0
29 23 55 30 56 28 -126 0
29 23 55 30 28 59 -128 0
29 23 55 30 28 59 -127 0
29 23 55 30 28 59 -125 0
29 23 55 30 28 59 -126 0
29 23 5 30 2 28 -25 0
29 23 5 30 2 28 -24 0
29 23 5 30 2 28 -26 0
29 23 5 30 2 28 -27 0
29 23 5 30 28 6 -25 0
29 23 5 30 28 6 -24 0
29 23 5 30 28 6 -26 0
29 23 5 30 28 6 -27 0
29 23 36 30 35 28 -113 0
29 23 36 30 35 28 -116 0
29 23 36 30 35 28 -114 0
29 23 36 30 35 28 -115 0
29 23 36 30 28 33 -113 0
29 23 36 30 28 33 -116 0
29 23 36 30 28 33 -114 0
29 23 36 30 28 33 -115 0
29 23 8 30 9 28 -72 0
29 23 8 30 9 28 -71 0
29 23 8 30 9 28 -69 0
29 23 8 30 9 28 -70 0
29 23 46 30 44 28 -120 0
29 23 46 30 44 28 -119 0
29 23 46 30 44 28 -117 0
29 23 46 30 44 28 -118 0
29 23 30 50 28 54 -123 0
29 23 30 50 28 54 -124 0
29 23 30 50 28 54 -121 0
29 23 30 50 28 54 -122 0
29 23 30 22 28 21 -93 0
29 23 30 22 28 21 -91 0
29 23 30 22 28 21 -94 0
29 23 30 22 28 21 -92 0
29 23 30 56 28 59 -128 0
29 23 30 56 28 59 -127 0
29 23 30 56 28 59 -125 0
29 23 30 56 28 59 -126 0
29 23 30 2 28 6 -25 0
29 23 30 2 28 6 -24 0
29 23 30 2 28 6 -26 0
29 23 30 2 28 6 -27 0
29 23 30 35 28 33 -113 0
29 23 30 35 28 33 -116 0
29 23 30 35 28 33 -114 0
29 23 30 35 28 33 -115 0
53 16 48 15 50 22 -104 0
53 16 48 15 50 22 -105 0
53 16 48 15 50 22 -103 0
53 16 48 15 50 22 -106 0
53 16 48 15 50 54 -104 0
53 16 48 15 50 54 -105 0
53 16 48 15 50 54 -103 0
53 16 48 15 50 54 -106 0
53 16 48 15 22 21 -104 0
53 16 48 15 22 21 -105 0
53 16 48 15 22 21 -103 0
53 16 48 15 22 21 -106 0
53 16 48 15 54 21 -104 0
53 16 48 15 54 21 -105 0
53 16 48 15 54 21 -103 0
53 16 48 15 54 21 -106 0
53 16 48 50 22 54 -104 0
53 16 48 50 22 54 -105 0
53 16 48 50 22 54 -103 0
53 16 48 50 22 54 -106 0
53 16 48 50 54 21 -104 0
53 16 48 50 54 21 -105 0
53 16 48 50 54 21 -103 0
53 16 48 50 54 21 -106 0
53 16 15 50 22 21 -104 0
53 16 15 50 22 21 -105 0
53 16 15 50 22 21 -103 0
53 16 15 50 22 21 -106 0
53 16 15 22 54 21 -104 0
53 16 15 22 54 21 -105 0
53 16 15 22 54 21 -103 0
53 16 15 22 54 21 -106 0
53 16 50 22 54 21 -104 0
53 16 50 22 54 21 -105 0
53 16 50 22 54 21 -103 0
53 16 50 22 54 21 -106 0
53 60 48 55 50 56 -157 0
53 60 48 55 50 56 -155 0
53 60 48 55 50 56 -158 0
53 60 48 55 50 56 -156 0
53 60 48 55 50 54 -157 0
53 60 48 55 50 54 -155 0
53 60 48 55 50 54 -158 0
53 60 48 55 50 54 -156 0
53 60 48 55 56 59 -157 0
53 60 48 55 56 59 -155 0
53 60 48 55 56 59 -158 0
53 60 48 55 56 59 -156 0
53 60 48 55 54 59 -157 0
53 60 48 55 54 59 -155 0
53 60 48 55 54 59 -158 0
53 60 48 55 54 59 -156 0
53 60 48 50 56 54 -157 0
53 60 48 50 56 54 -155 0
53 60 48 50 56 54 -158 0
53 60 48 50 56 54 -156 0
53 60 48 50 54 59 -157 0
53 60 48 50 54 59 -155 0
53 60 48 50 54 59 -158 0
53 60 48 50 54 59 -156 0
53 60 55 50 56 59 -157 0
53 60 55 50 56 59 -155 0
53 60 55 50 56 59 -158 0
53 60 55 50 56 59 -156 0
53 60 55 56 54 59 -157 0
53 60 55 56 54 59 -155 0
53 60 55 56 54 59 -158 0
53 60 55 56 54 59 -156 0
53 60 50 56 54 59 -157 0
53 60 50 56 54 59 -155 0
53 60 50 56 54 59 -158 0
53 60 50 56 54 59 -156 0
53 3 48 5 50 2 -49 0
53 3 48 5 50 2 -51 0
53 3 48 5 50 2 -52 0
53 3 48 5 50 2 -47 0
53 3 48 5 50 54 -49 0
53 3 48 5 50 54 -51 0
53 3 48 5 50 54 -52 0
53 3 48 5 50 54 -47 0
53 3 48 5 2 6 -49 0
53 3 48 5 2 6 -51 0
53 3 48 5 2 6 -52 0
53 3 48 5 2 6 -47 0
53 3 48 5 54 6 -49 0
53 3 48 5 54 6 -51 0
53 3 48 5 54 6 -52 0
53 3 48 5 54 6 -47 0
53 3 48 50 2 54 -49 0
53 3 48 50 2 54 -51 0
53 3 48 50 2 54 -52 0
53 3 48 50 2 54 -47 0
53 3 48 50 54 6 -49 0
53 3 48 50 54 6 -51 0
53 3 48 50 54 6 -52 0
53 3 48 50 54 6 -47 0
53 3 5 50 2 6 -49 0
53 3 5 50 2 6 -51 0
53 3 5 50 2 6 -52 0
53 3 5 50 2 6 -47 0
53 3 5 2 54 6 -49 0
53 3 5 2 54 6 -51 0
53 3 5 2 54 6 -52 0
53 3 5 2 54 6 -47 0
53 3 50 2 54 6 -49 0
53 3 50 2 54 6 -51 0
53 3 50 2 54 6 -52 0
53 3 50 2 54 6 -47 0
53 37 48 36 50 35 -137 0
53 37 48 36 50 35 -135 0
53 37 48 36 50 35 -136 0
53 37 48 36 50 35 -138 0
53 37 48 36 50 54 -137 0
53 37 48 36 50 54 -135 0
53 37 48 36 50 54 -136 0
53 37 48 36 50 54 -138 0
53 37 48 36 35 33 -137 0
53 37 48 36 35 33 -135 0
53 37 48 36 35 33 -136 0
53 37 48 36 35 33 -138 0
53 37 48 36 54 33 -137 0
53 37 48 36 54 33 -135 0
53 37 48 36 54 33 -136 0
53 37 48 36 54 33 -138 0
53 37 48 50 35 54 -137 0
53 37 48 50 35 54 -135 0
53 37 48 50 35 54 -136 0
53 37 48 50 35 54 -138 0
53 37 48 50 54 33 -137 0
53 37 48 50 54 33 -135 0
53 37 48 50 54 33 -136 0
53 37 48 50 54 33 -138 0
53 37 36 50 35 33 -137 0
53 37 36 50 35 33 -135 0
53 37 36 50 35 33 -136 0
53 37 36 50 35 33 -138 0
53 37 36 35 54 33 -137 0
53 37 36 35 54 33 -135 0
53 37 36 35 54 33 -136 0
53 37 36 35 54 33 -138 0
53 37 50 35 54 33 -137 0
53 37 50 35 54 33 -135 0
53 37 50 35 54 33 -136 0
53 37 50 35 54 33 -138 0
53 14 48 8 50 54 -84 0
53 14 48 8 50 54 -82 0
53 14 48 8 50 54 -81 0
53 14 48 8 50 54 -83 0
53 14 48 50 9 54 -84 0
53 14 48 50 9 54 -82 0
53 14 48 50 9 54 -81 0
53 14 48 50 9 54 -83 0
53 39 48 46 50 54 -145 0
53 39 48 46 50 54 -148 0
53 39 48 46 50 54 -146 0
53 39 48 46 50 54 -147 0
53 39 48 50 44 54 -145 0
53 39 48 50 44 54 -148 0
53 39 48 50 44 54 -146 0
53 39 48 50 44 54 -147 0
53 23 48 30 50 54 -123 0
53 23 48 30 50 54 -124 0
53 23 48 30 50 54 -121 0
53 23 48 30 50 54 -122 0
53 23 48 50 28 54 -123 0
53 23 48 50 28 54 -124 0
53 23 48 50 28 54 -121 0
53 23 48 50 28 54 -122 0
53 48 15 50 22 54 -104 0
53 48 15 50 22 54 -105 0
53 48 15 50 22 54 -103 0
53 48 15 50 22 54 -106 0
53 48 15 50 54 21 -104 0
53 48 15 50 54 21 -105 0
53 48 15 50 54 21 -103 0
53 48 15 50 54 21 -106 0
53 48 55 50 56 54 -157 0
53 48 55 50 56 54 -155 0
53 48 55 50 56 54 -158 0
53 48 55 50 56 54 -156 0
53 48 55 50 54 59 -157 0
53 48 55 50 54 59 -155 0
53 48 55 50 54 59 -158 0
53 48 55 50 54 59 -156 0
53 48 5 50 2 54 -49 0
53 48 5 50 2 54 -51 0
53 48 5 50 2 54 -52 0
53 48 5 50 2 54 -47 0
53 48 5 50 54 6 -49 0
53 48 5 50 54 6 -51 0
53 48 5 50 54 6 -52 0
53 48 5 50 54 6 -47 0
53 48 36 50 35 54 -137 0
53 48 36 50 35 54 -135 0
53 48 36 50 35 54 -136 0
53 48 36 50 35 54 -138 0
53 48 36 50 54 33 -137 0
53 48 36 50 54 33 -135 0
53 48 36 50 54 33 -136 0
53 48 36 50 54 33 -138 0
53 48 8 50 9 54 -84 0
53 48 8 50 9 54 -82 0
53 48 8 50 9 54 -81 0
53 48 8 50 9 54 -83 0
53 48 46 50 44 54 -145 0
53 48 46 50 44 54 -148 0
53 48 46 50 44 54 -146 0
53 48 46 50 44 54 -147 0
53 48 30 50 28 54 -123 0
53 48 30 50 28 54 -124 0
53 48 30 50 28 54 -121 0
53 48 30 50 28 54 -122 0
53 48 50 22 54 21 -104 0
53 48 50 22 54 21 -105 0
53 48 50 22 54 21 -103 0
53 48 50 22 54 21 -106 0
53 48 50 56 54 59 -157 0
53 48 50 56 54 59 -155 0
53 48 50 56 54 59 -158 0
53 48 50 56 54 59 -156 0
53 48 50 2 54 6 -49 0
53 48 50 2 54 6 -51 0
53 48 50 2 54 6 -52 0
53 48 50 2 54 6 -47 0
53 48 50 35 54 33 -137 0
53 48 50 35 54 33 -135 0
53 48 50 35 54 33 -136 0
53 48 50 35 54 33 -138 0
16 60 15 55 22 56 -107 0
16 60 15 55 22 56 -108 0
16 60 15 55 22 56 -109 0
16 60 15 55 22 56 -110 0
16 60 15 55 22 21 -107 0
16 60 15 55 22 21 -108 0
16 60 15 55 22 21 -109 0
16 60 15 55 22 21 -110 0
16 60 15 55 56 59 -107 0
16 60 15 55 56 59 -108 0
16 60 15 55 56 59 -109 0
16 60 15 55 56 59 -110 0
16 60 15 55 21 59 -107 0
16 60 15 55 21 59 -108 0
16 60 15 55 21 59 -109 0
16 60 15 55 21 59 -110 0
16 60 15 22 56 21 -107 0
16 60 15 22 56 21 -108 0
16 60 15 22 56 21 -109 0
16 60 15 22 56 21 -110 0
16 60 15 22 21 59 -107 0
16 60 15 22 21 59 -108 0
16 60 15 22 21 59 -109 0
16 60 15 22 21 59 -110 0
16 60 55 22 56 59 -107 0
16 60 55 22 56 59 -108 0
16 60 55 22 56 59 -109 0
16 60 55 22 56 59 -110 0
16 60 55 56 21 59 -107 0
16 60 55 56 21 59 -108 0
16 60 55 56 21 59 -109 0
16 60 55 56 21 59 -110 0
16 60 22 56 21 59 -107 0
16 60 22 56 21 59 -108 0
16 60 22 56 21 59 -109 0
16 60 22 56 21 59 -110 0
16 3 15 5 22 2 -17 0
16 3 15 5 22 2 -19 0
16 3 15 5 22 2 -18 0
16 3 15 5 22 2 -20 0
16 3 15 5 22 21 -17 0
16 3 15 5 22 21 -19 0
16 3 15 5 22 21 -18 0
16 3 15 5 22 21 -20 0
16 3 15 5 2 6 -17 0
16 3 15 5 2 6 -19 0
16 3 15 5 2 6 -18 0
16 3 15 5 2 6 -20 0
16 3 15 5 21 6 -17 0
16 3 15 5 21 6 -19 0
16 3 15 5 21 6 -18 0
16 3 15 5 21 6 -20 0
16 3 15 22 2 21 -17 0
16 3 15 22 2 21 -19 0
16 3 15 22 2 21 -18 0
16 3 15 22 2 21 -20 0
16 3 15 22 21 6 -17 0
16 3 15 22 21 6 -19 0
16 3 15 22 21 6 -18 0
16 3 15 22 21 6 -20 0
16 3 5 22 2 6 -17 0
16 3 5 22 2 6 -19 0
16 3 5 22 2 6 -18 0
16 3 5 22 2 6 -20 0
16 3 5 2 21 6 -17 0
16 3 5 2 21 6 -19 0
16 3 5 2 21 6 -18 0
16 3 5 2 21 6 -20 0
16 3 22 2 21 6 -17 0
16 3 22 2 21 6 -19 0
16 3 22 2 21 6 -18 0
16 3 22 2 21 6 -20 0
16 37 15 36 22 35 -97 0
16 37 15 36 22 35 -96 0
16 37 15 36 22 35 -95 0
16 37 15 36 22 35 -98 0
16 37 15 36 22 21 -97 0
16 37 15 36 22 21 -96 0
16 37 15 36 22 21 -95 0
16 37 15 36 22 21 -98 0
16 37 15 36 35 33 -97 0
16 37 15 36 35 33 -96 0
16 37 15 36 35 33 -95 0
16 37 15 36 35 33 -98 0
16 37 15 36 21 33 -97 0
16 37 15 36 21 33 -96 0
16 37 15 36 21 33 -95 0
16 37 15 36 21 33 -98 0
16 37 15 22 35 21 -97 0
16 37 15 22 35 21 -96 0
16 37 15 22 35 21 -95 0
16 37 15 22 35 21 -98 0
16 37 15 22 21 33 -97 0
16 37 15 22 21 33 -96 0
16 37 15 22 21 33 -95 0
16 37 15 22 21 33 -98 0
16 37 36 22 35 33 -97 0
16 37 36 22 35 33 -96 0
16 37 36 22 35 33 -95 0
16 37 36 22 35 33 -98 0
16 37 36 35 21 33 -97 0
16 37 36 35 21 33 -96 0
16 37 36 35 21 33 -95 0
16 37 36 35 21 33 -98 0
16 37 22 35 21 33 -97 0
16 37 22 35 21 33 -96 0
16 37 22 35 21 33 -95 0
16 37 22 35 21 33 -98 0
16 14 15 8 22 21 -68 0
16 14 15 8 22 21 -65 0
16 14 15 8 22 21 -67 0
16 14 15 8 22 21 -66 0
16 14 15 22 9 21 -68 0
16 14 15 22 9 21 -65 0
16 14 15 22 9 21 -67 0
16 14 15 22 9 21 -66 0
16 39 15 46 22 21 -101 0
16 39 15 46 22 21 -100 0
16 39 15 46 22 21 -99 0
16 39 15 46 22 21 -102 0
16 39 15 22 44 21 -101 0
16 39 15 22 44 21 -100 0
16 39 15 22 44 21 -99 0
16 39 15 22 44 21 -102 0
16 23 15 30 22 21 -93 0
16 23 15 30 22 21 -91 0
16 23 15 30 22 21 -94 0
16 23 15 30 22 21 -92 0
16 23 15 22 28 21 -93 0
16 23 15 22 28 21 -91 0
16 23 15 22 28 21 -94 0
16 23 15 22 28 21 -92 0
16 48 15 50 22 21 -104 0
16 48 15 50 22 21 -105 0
16 48 15 50 22 21 -103 0
16 48 15 50 22 21 -106 0
16 48 15 22 54 21 -104 0
16 48 15 22 54 21 -105 0
16 48 15 22 54 21 -103 0
16 48 15 22 54 21 -106 0
16 15 55 22 56 21 -107 0
16 15 55 22 56 21 -108 0
16 15 55 22 56 21 -109 0
16 15 55 22 56 21 -110 0
16 15 55 22 21 59 -107 0
16 15 55 22 21 59 -108 0
16 15 55 22 21 59 -109 0
16 15 55 22 21 59 -110 0
16 15 5 22 2 21 -17 0
16 15 5 22 2 21 -19 0
16 15 5 22 2 21 -18 0
16 15 5 22 2 21 -20 0
16 15 5 22 21 6 -17 0
16 15 5 22 21 6 -19 0
16 15 5 22 21 6 -18 0
16 15 5 22 21 6 -20 0
16 15 36 22 35 21 -97 0
16 15 36 22 35 21 -96 0
16 15 36 22 35 21 -95 0
16 15 36 22 35 21 -98 0
16 15 36 22 21 33 -97 0
16 15 36 22 21 33 -96 0
16 15 36 22 21 33 -95 0
16 15 36 22 21 33 -98 0
16 15 8 22 9 21 -68 0
16 15 8 22 9 21 -65 0
16 15 8 22 9 21 -67 0
16 15 8 22 9 21 -66 0
16 15 46 22 44 21 -101 0
16 15 46 22 44 21 -100 0
16 15 46 22 44 21 -99 0
16 15 46 22 44 21 -102 0
16 15 30 22 28 21 -93 0
16 15 30 22 28 21 -91 0
16 15 30 22 28 21 -94 0
16 15 30 22 28 21 -92 0
16 15 50 22 54 21 -104 0
16 15 50 22 54 21 -105 0
16 15 50 22 54 21 -103 0
16 15 50 22 54 21 -106 0
16 15 22 56 21 59 -107 0
16 15 22 56 21 59 -108 0
16 15 22 56 21 59 -109 0
16 15 22 56 21 59 -110 0
16 15 22 2 21 6 -17 0
16 15 22 2 21 6 -19 0
16 15 22 2 21 6 -18 0
16 15 22 2 21 6 -20 0
16 15 22 35 21 33 -97 0
16 15 22 35 21 33 -96 0
16 15 22 35 21 33 -95 0
16 15 22 35 21 33 -98 0
60 3 55 5 56 2 -61 0
60 3 55 5 56 2 -57 0
60 3 55 5 56 2 -62 0
60 3 55 5 56 2 -58 0
60 3 55 5 56 59 -61 0
60 3 55 5 56 59 -57 0
60 3 55 5 56 59 -62 0
60 3 55 5 56 59 -58 0
60 3 55 5 2 6 -61 0
60 3 55 5 2 6 -57 0
60 3 55 5 2 6 -62 0
60 3 55 5 2 6 -58 0
60 3 55 5 59 6 -61 0
60 3 55 5 59 6 -57 0
60 3 55 5 59 6 -62 0
60 3 55 5 59 6 -58 0
60 3 55 56 2 59 -61 0
60 3 55 56 2 59 -57 0
60 3 55 56 2 59 -62 0
60 3 55 56 2 59 -58 0
60 3 55 56 59 6 -61 0
60 3 55 56 59 6 -57 0
60 3 55 56 59 6 -62 0
60 3 55 56 59 6 -58 0
60 3 5 56 2 6 -61 0
60 3 5 56 2 6 -57 0
60 3 5 56 2 6 -62 0
60 3 5 56 2 6 -58 0
60 3 5 2 59 6 -61 0
60 3 5 2 59 6 -57 0
60 3 5 2 59 6 -62 0
60 3 5 2 59 6 -58 0
60 3 56 2 59 6 -61 0
60 3 56 2 59 6 -57 0
60 3 56 2 59 6 -62 0
60 3 56 2 59 6 -58 0
60 37 55 36 56 35 -141 0
60 37 55 36 56 35 -139 0
60 37 55 36 56 35 -140 0
60 37 55 36 56 35 -142 0
60 37 55 36 56 59 -141 0
60 37 55 36 56 59 -139 0
60 37 55 36 56 59 -140 0
60 37 55 36 56 59 -142 0
60 37 55 36 35 33 -141 0
60 37 55 36 35 33 -139 0
60 37 55 36 35 33 -140 0
60 37 55 36 35 33 -142 0
60 37 55 36 59 33 -141 0
60 37 55 36 59 33 -139 0
60 37 55 36 59 33 -140 0
60 37 55 36 59 33 -142 0
60 37 55 56 35 59 -141 0
60 37 55 56 35 59 -139 0
60 37 55 56 35 59 -140 0
60 37 55 56 35 59 -142 0
60 37 55 56 59 33 -141 0
60 37 55 56 59 33 -139 0
60 37 55 56 59 33 -140 0
60 37 55 56 59 33 -142 0
60 37 36 56 35 33 -141 0
60 37 36 56 35 33 -139 0
60 37 36 56 35 33 -140 0
60 37 36 56 35 33 -142 0
60 37 36 35 59 33 -141 0
60 37 36 35 59 33 -139 0
60 37 36 35 59 33 -140 0
60 37 36 35 59 33 -142 0
60 37 56 35 59 33 -141 0
60 37 56 35 59 33 -139 0
60 37 56 35 59 33 -140 0
60 37 56 35 59 33 -142 0
60 14 55 8 56 59 -87 0
60 14 55 8 56 59 -86 0
60 14 55 8 56 59 -88 0
60 14 55 8 56 59 -85 0
60 14 55 56 9 59 -87 0
60 14 55 56 9 59 -86 0
60 14 55 56 9 59 -88 0
60 14 55 56 9 59 -85 0
60 39 55 46 56 59 -150 0
60 39 55 46 56 59 -152 0
60 39 55 46 56 59 -149 0
60 39 55 46 56 59 -151 0
60 39 55 56 44 59 -150 0
60 39 55 56 44 59 -152 0
60 39 55 56 44 59 -149 0
60 39 55 56 44 59 -151 0
60 23 55 30 56 59 -128 0
60 23 55 30 56 59 -127 0
60 23 55 30 56 59 -125 0
60 23 55 30 56 59 -126 0
60 23 55 56 28 59 -128 0
60 23 55 56 28 59 -127 0
60 23 55 56 28 59 -125 0
60 23 55 56 28 59 -126 0
60 48 55 50 56 59 -157 0
60 48 55 50 56 59 -155 0
60 48 55 50 56 59 -158 0
60 48 55 50 56 59 -156 0
60 48 55 56 54 59 -157 0
60 48 55 56 54 59 -155 0
60 48 55 56 54 59 -158 0
60 48 55 56 54 59 -156 0
60 15 55 22 56 59 -107 0
60 15 55 22 56 59 -108 0
60 15 55 22 56 59 -109 0
60 15 55 22 56 59 -110 0
60 15 55 56 21 59 -107 0
60 15 55 56 21 59 -108 0
60 15 55 56 21 59 -109 0
60 15 55 56 21 59 -110 0
60 55 5 56 2 59 -61 0
60 55 5 56 2 59 -57 0
60 55 5 56 2 59 -62 0
60 55 5 56 2 59 -58 0
60 55 5 56 59 6 -61 0
60 55 5 56 59 6 -57 0
60 55 5 56 59 6 -62 0
60 55 5 56 59 6 -58 0
60 55 36 56 35 59 -141 0
60 55 36 56 35 59 -139 0
60 55 36 56 35 59 -140 0
60 55 36 56 35 59 -142 0
60 55 36 56 59 33 -141 0
60 55 36 56 59 33 -139 0
60 55 36 56 59 33 -140 0
60 55 36 56 59 33 -142 0
60 55 8 56 9 59 -87 0
60 55 8 56 9 59 -86 0
60 55 8 56 9 59 -88 0
60 55 8 56 9 59 -85 0
60 55 46 56 44 59 -150 0
60 55 46 56 44 59 -152 0
60 55 46 56 44 59 -149 0
60 55 46 56 44 59 -151 0
60 55 30 56 28 59 -128 0
60 55 30 56 28 59 -127 0
60 55 30 56 28 59 -125 0
60 55 30 56 28 59 -126 0
60 55 50 56 54 59 -157 0
60 55 50 56 54 59 -155 0
60 55 50 56 54 59 -158 0
60 55 50 56 54 59 -156 0
60 55 22 56 21 59 -107 0
60 55 22 56 21 59 -108 0
60 55 22 56 21 59 -109 0
60 55 22 56 21 59 -110 0
60 55 56 2 59 6 -61 0
60 55 56 2 59 6 -57 0
60 55 56 2 59 6 -62 0
60 55 56 2 59 6 -58 0
60 55 56 35 59 33 -141 0
60 55 56 35 59 33 -139 0
60 55 56 35 59 33 -140 0
60 55 56 35 59 33 -142 0
3 37 5 36 2 35 -34 0
3 37 5 36 2 35 -31 0
3 37 5 36 2 35 -38 0
3 37 5 36 2 35 -32 0
3 37 5 36 2 6 -34 0
3 37 5 36 2 6 -31 0
3 37 5 36 2 6 -38 0
3 37 5 36 2 6 -32 0
3 37 5 36 35 33 -34 0
3 37 5 36 35 33 -31 0
3 37 5 36 35 33 -38 0
3 37 5 36 35 33 -32 0
3 37 5 36 6 33 -34 0
3 37 5 36 6 33 -31 0
3 37 5 36 6 33 -38 0
3 37 5 36 6 33 -32 0
3 37 5 2 35 6 -34 0
3 37 5 2 35 6 -31 0
3 37 5 2 35 6 -38 0
3 37 5 2 35 6 -32 0
3 37 5 2 6 33 -34 0
3 37 5 2 6 33 -31 0
3 37 5 2 6 33 -38 0
3 37 5 2 6 33 -32 0
3 37 36 2 35 33 -34 0
3 37 36 2 35 33 -31 0
3 37 36 2 35 33 -38 0
3 37 36 2 35 33 -32 0
3 37 36 35 6 33 -34 0
3 37 36 35 6 33 -31 0
3 37 36 35 6 33 -38 0
3 37 36 35 6 33 -32 0
3 37 2 35 6 33 -34 0
3 37 2 35 6 33 -31 0
3 37 2 35 6 33 -38 0
3 37 2 35 6 33 -32 0
3 14 5 8 2 6 -7 0
3 14 5 8 2 6 -12 0
3 14 5 8 2 6 -11 0
3 14 5 8 2 6 -13 0
3 14 5 2 9 6 -7 0
3 14 5 2 9 6 -12 0
3 14 5 2 9 6 -11 0
3 14 5 2 9 6 -13 0
3 39 5 46 2 6 -41 0
3 39 5 46 2 6 -40 0
3 39 5 46 2 6 -43 0
3 39 5 46 2 6 -42 0
3 39 5 2 44 6 -41 0
3 39 5 2 44 6 -40 0
3 39 5 2 44 6 -43 0
3 39 5 2 44 6 -42 0
3 23 5 30 2 6 -25 0
3 23 5 30 2 6 -24 0
3 23 5 30 2 6 -26 0
3 23 5 30 2 6 -27 0
3 23 5 2 28 6 -25 0
3 23 5 2 28 6 -24 0
3 23 5 2 28 6 -26 0
3 23 5 2 28 6 -27 0
3 48 5 50 2 6 -49 0
3 48 5 50 2 6 -51 0
3 48 5 50 2 6 -52 0
3 48 5 50 2 6 -47 0
3 48 5 2 54 6 -49 0
3 48 5 2 54 6 -51 0
3 48 5 2 54 6 -52 0
3 48 5 2 54 6 -47 0
3 15 5 22 2 6 -17 0
3 15 5 22 2 6 -19 0
3 15 5 22 2 6 -18 0
3 15 5 22 2 6 -20 0
3 15 5 2 21 6 -17 0
3 15 5 2 21 6 -19 0
3 15 5 2 21 6 -18 0
3 15 5 2 21 6 -20 0
3 55 5 56 2 6 -61 0
3 55 5 56 2 6 -57 0
3 55 5 56 2 6 -62 0
3 55 5 56 2 6 -58 0
3 55 5 2 59 6 -61 0
3 55 5 2 59 6 -57 0
3 55 5 2 59 6 -62 0
3 55 5 2 59 6 -58 0
3 5 36 2 35 6 -34 0
3 5 36 2 35 6 -31 0
3 5 36 2 35 6 -38 0
3 5 36 2 35 6 -32 0
3 5 36 2 6 33 -34 0
3 5 36 2 6 33 -31 0
3 5 36 2 6 33 -38 0
3 5 36 2 6 33 -32 0
3 5 8 2 9 6 -7 0
3 5 8 2 9 6 -12 0
3 5 8 2 9 6 -11 0
3 5 8 2 9 6 -13 0
3 5 46 2 44 6 -41 0
3 5 46 2 44 6 -40 0
3 5 46 2 44 6 -43 0
3 5 46 2 44 6 -42 0
3 5 30 2 28 6 -25 0
3 5 30 2 28 6 -24 0
3 5 30 2 28 6 -26 0
3 5 30 2 28 6 -27 0
3 5 50 2 54 6 -49 0
3 5 50 2 54 6 -51 0
3 5 50 2 54 6 -52 0
3 5 50 2 54 6 -47 0
3 5 22 2 21 6 -17 0
3 5 22 2 21 6 -19 0
3 5 22 2 21 6 -18 0
3 5 22 2 21 6 -20 0
3 5 56 2 59 6 -61 0
3 5 56 2 59 6 -57 0
3 5 56 2 59 6 -62 0
3 5 56 2 59 6 -58 0
3 5 2 35 6 33 -34 0
3 5 2 35 6 33 -31 0
3 5 2 35 6 33 -38 0
3 5 2 35 6 33 -32 0
37 14 36 8 35 33 -75 0
37 14 36 8 35 33 -74 0
37 14 36 8 35 33 -76 0
37 14 36 8 35 33 -73 0
37 14 36 35 9 33 -75 0
37 14 36 35 9 33 -74 0
37 14 36 35 9 33 -76 0
37 14 36 35 9 33 -73 0
37 39 36 46 35 33 -131 0
37 39 36 46 35 33 -132 0
37 39 36 46 35 33 -133 0
37 39 36 46 35 33 -134 0
37 39 36 35 44 33 -131 0
37 39 36 35 44 33 -132 0
37 39 36 35 44 33 -133 0
37 39 36 35 44 33 -134 0
37 23 36 30 35 33 -113 0
37 23 36 30 35 33 -116 0
37 23 36 30 35 33 -114 0
37 23 36 30 35 33 -115 0
37 23 36 35 28 33 -113 0
37 23 36 35 28 33 -116 0
37 23 36 35 28 33 -114 0
37 23 36 35 28 33 -115 0
37 48 36 50 35 33 -137 0
37 48 36 50 35 33 -135 0
37 48 36 50 35 33 -136 0
37 48 36 50 35 33 -138 0
37 48 36 35 54 33 -137 0
37 48 36 35 54 33 -135 0
37 48 36 35 54 33 -136 0
37 48 36 35 54 33 -138 0
37 15 36 22 35 33 -97 0
37 15 36 22 35 33 -96 0
37 15 36 22 35 33 -95 0
37 15 36 22 35 33 -98 0
37 15 36 35 21 33 -97 0
37 15 36 35 21 33 -96 0
37 15 36 35 21 33 -95 0
37 15 36 35 21 33 -98 0
37 55 36 56 35 33 -141 0
37 55 36 56 35 33 -139 0
37 55 36 56 35 33 -140 0
37 55 36 56 35 33 -142 0
37 55 36 35 59 33 -141 0
37 55 36 35 59 33 -139 0
37 55 36 35 59 33 -140 0
37 55 36 35 59 33 -142 0
37 5 36 2 35 33 -34 0
37 5 36 2 35 33 -31 0
37 5 36 2 35 33 -38 0
37 5 36 2 35 33 -32 0
37 5 36 35 6 33 -34 0
37 5 36 35 6 33 -31 0
37 5 36 35 6 33 -38 0
37 5 36 35 6 33 -32 0
37 36 8 35 9 33 -75 0
37 36 8 35 9 33 -74 0
37 36 8 35 9 33 -76 0
37 36 8 35 9 33 -73 0
37 36 46 35 44 33 -131 0
37 36 46 35 44 33 -132 0
37 36 46 35 44 33 -133 0
37 36 46 35 44 33 -134 0
37 36 30 35 28 33 -113 0
37 36 30 35 28 33 -116 0
37 36 30 35 28 33 -114 0
37 36 30 35 28 33 -115 0
37 36 50 35 54 33 -137 0
37 36 50 35 54 33 -135 0
37 36 50 35 54 33 -136 0
37 36 50 35 54 33 -138 0
37 36 22 35 21 33 -97 0
37 36 22 35 21 33 -96 0
37 36 22 35 21 33 -95 0
37 36 22 35 21 33 -98 0
37 36 56 35 59 33 -141 0
37 36 56 35 59 33 -139 0
37 36 56 35 59 33 -140 0
37 36 56 35 59 33 -142 0
37 36 2 35 6 33 -34 0
37 36 2 35 6 33 -31 0
37 36 2 35 6 33 -38 0
37 36 2 35 6 33 -32 0
14 39 8 46 9 44 -80 0
14 39 8 46 9 44 -77 0
14 39 8 46 9 44 -79 0
14 39 8 46 9 44 -78 0
14 23 8 30 9 28 -72 0
14 23 8 30 9 28 -71 0
14 23 8 30 9 28 -69 0
14 23 8 30 9 28 -70 0
14 48 8 50 9 54 -84 0
14 48 8 50 9 54 -82 0
14 48 8 50 9 54 -81 0
14 48 8 50 9 54 -83 0
14 15 8 22 9 21 -68 0
14 15 8 22 9 21 -65 0
14 15 8 22 9 21 -67 0
14 15 8 22 9 21 -66 0
14 55 8 56 9 59 -87 0
14 55 8 56 9 59 -86 0
14 55 8 56 9 59 -88 0
14 55 8 56 9 59 -85 0
14 5 8 2 9 6 -7 0
14 5 8 2 9 6 -12 0
14 5 8 2 9 6 -11 0
14 5 8 2 9 6 -13 0
14 36 8 35 9 33 -75 0
14 36 8 35 9 33 -74 0
14 36 8 35 9 33 -76 0
14 36 8 35 9 33 -73 0
39 23 46 30 44 28 -120 0
39 23 46 30 44 28 -119 0
39 23 46 30 44 28 -117 0
39 23 46 30 44 28 -118 0
39 48 46 50 44 54 -145 0
39 48 46 50 44 54 -148 0
39 48 46 50 44 54 -146 0
39 48 46 50 44 54 -147 0
39 15 46 22 44 21 -101 0
39 15 46 22 44 21 -100 0
39 15 46 22 44 21 -99 0
39 15 46 22 44 21 -102 0
39 55 46 56 44 59 -150 0
39 55 46 56 44 59 -152 0
39 55 46 56 44 59 -149 0
39 55 46 56 44 59 -151 0
39 5 46 2 44 6 -41 0
39 5 46 2 44 6 -40 0
39 5 46 2 44 6 -43 0
39 5 46 2 44 6 -42 0
39 36 46 35 44 33 -131 0
39 36 46 35 44 33 -132 0
39 36 46 35 44 33 -133 0
39 36 46 35 44 33 -134 0
23 48 30 50 28 54 -123 0
23 48 30 50 28 54 -124 0
23 48 30 50 28 54 -121 0
23 48 30 50 28 54 -122 0
23 15 30 22 28 21 -93 0
23 15 30 22 28 21 -91 0
23 15 30 22 28 21 -94 0
23 15 30 22 28 21 -92 0
23 55 30 56 28 59 -128 0
23 55 30 56 28 59 -127 0
23 55 30 56 28 59 -125 0
23 55 30 56 28 59 -126 0
23 5 30 2 28 6 -25 0
23 5 30 2 28 6 -24 0
23 5 30 2 28 6 -26 0
23 5 30 2 28 6 -27 0
23 36 30 35 28 33 -113 0
23 36 30 35 28 33 -116 0
23 36 30 35 28 33 -114 0
23 36 30 35 28 33 -115 0
48 15 50 22 54 21 -104 0
48 15 50 22 54 21 -105 0
48 15 50 22 54 21 -103 0
48 15 50 22 54 21 -106 0
48 55 50 56 54 59 -157 0
48 55 50 56 54 59 -155 0
48 55 50 56 54 59 -158 0
48 55 50 56 54 59 -156 0
48 5 50 2 54 6 -49 0
48 5 50 2 54 6 -51 0
48 5 50 2 54 6 -52 0
48 5 50 2 54 6 -47 0
48 36 50 35 54 33 -137 0
48 36 50 35 54 33 -135 0
48 36 50 35 54 33 -136 0
48 36 50 35 54 33 -138 0
15 55 22 56 21 59 -107 0
15 55 22 56 21 59 -108 0
15 55 22 56 21 59 -109 0
15 55 22 56 21 59 -110 0
15 5 22 2 21 6 -17 0
15 5 22 2 21 6 -19 0
15 5 22 2 21 6 -18 0
15 5 22 2 21 6 -20 0
15 36 22 35 21 33 -97 0
15 36 22 35 21 33 -96 0
15 36 22 35 21 33 -95 0
15 36 22 35 21 33 -98 0
55 5 56 2 59 6 -61 0
55 5 56 2 59 6 -57 0
55 5 56 2 59 6 -62 0
55 5 56 2 59 6 -58 0
55 36 56 35 59 33 -141 0
55 36 56 35 59 33 -139 0
55 36 56 35 59 33 -140 0
55 36 56 35 59 33 -142 0
5 36 2 35 6 33 -34 0
5 36 2 35 6 33 -31 0
5 36 2 35 6 33 -38 0
5 36 2 35 6 33 -32 0
64 80 72 84 68 87 7 75 0
77 144 120 145 101 150 41 131 0
71 119 111 123 93 128 25 113 0
82 148 124 154 104 157 49 137 0
65 100 91 105 90 107 17 97 0
86 152 127 155 108 159 61 141 0
12 40 24 51 19 57 1 34 0
74 132 116 135 96 139 31 129 0
63 79 69 81 67 88 11 76 0
78 143 117 146 99 149 43 133 0
70 118 112 121 94 125 26 114 0
83 147 122 153 103 158 52 136 0
66 102 92 106 89 109 18 95 0
85 151 126 156 110 160 62 140 0
13 42 27 47 20 58 4 38 0
73 134 115 138 98 142 32 130 0
10 45 14 39 8 46 9 -80 0
10 45 14 39 8 46 9 -77 0
10 45 14 39 8 46 9 -79 0
10 45 14 39 8 46 9 -78 0
10 45 14 39 8 46 44 -80 0
10 45 14 39 8 46 44 -77 0
10 45 14 39 8 46 44 -79 0
10 45 14 39 8 46 44 -78 0
10 45 14 39 8 9 44 -80 0
10 45 14 39 8 9 44 -77 0
10 45 14 39 8 9 44 -79 0
10 45 14 39 8 9 44 -78 0
10 45 14 39 46 9 44 -80 0
10 45 14 39 46 9 44 -77 0
10 45 14 39 46 9 44 -79 0
10 45 14 39 46 9 44 -78 0
10 45 14 8 46 9 44 -80 0
10 45 14 8 46 9 44 -77 0
10 45 14 8 46 9 44 -79 0
10 45 14 8 46 9 44 -78 0
10 45 39 8 46 9 44 -80 0
10 45 39 8 46 9 44 -77 0
10 45 39 8 46 9 44 -79 0
10 45 39 8 46 9 44 -78 0
10 29 14 23 8 30 9 -72 0
10 29 14 23 8 30 9 -71 0
10 29 14 23 8 30 9 -69 0
10 29 14 23 8 30 9 -70 0
10 29 14 23 8 30 28 -72 0
10 29 14 23 8 30 28 -71 0
10 29 14 23 8 30 28 -69 0
10 29 14 23 8 30 28 -70 0
10 29 14 23 8 9 28 -72 0
10 29 14 23 8 9 28 -71 0
10 29 14 23 8 9 28 -69 0
10 29 14 23 8 9 28 -70 0
10 29 14 23 30 9 28 -72 0
10 29 14 23 30 9 28 -71 0
10 29 14 23 30 9 28 -69 0
10 29 14 23 30 9 28 -70 0
10 29 14 8 30 9 28 -72 0
10 29 14 8 30 9 28 -71 0
10 29 14 8 30 9 28 -69 0
10 29 14 8 30 9 28 -70 0
10 29 23 8 30 9 28 -72 0
10 29 23 8 30 9 28 -71 0
10 29 23 8 30 9 28 -69 0
10 29 23 8 30 9 28 -70 0
10 53 14 48 8 50 9 -84 0
10 53 14 48 8 50 9 -82 0
10 53 14 48 8 50 9 -81 0
10 53 14 48 8 50 9 -83 0
10 53 14 48 8 50 54 -84 0
10 53 14 48 8 50 54 -82 0
10 53 14 48 8 50 54 -81 0
10 53 14 48 8 50 54 -83 0
10 53 14 48 8 9 54 -84 0
10 53 14 48 8 9 54 -82 0
10 53 14 48 8 9 54 -81 0
10 53 14 48 8 9 54 -83 0
10 53 14 48 50 9 54 -84 0
10 53 14 48 50 9 54 -82 0
10 53 14 48 50 9 54 -81 0
10 53 14 48 50 9 54 -83 0
10 53 14 8 50 9 54 -84 0
10 53 14 8 50 9 54 -82 0
10 53 14 8 50 9 54 -81 0
10 53 14 8 50 9 54 -83 0
10 53 48 8 50 9 54 -84 0
10 53 48 8 50 9 54 -82 0
10 53 48 8 50 9 54 -81 0
10 53 48 8 50 9 54 -83 0
10 16 14 15 8 22 9 -68 0
10 16 14 15 8 22 9 -65 0
10 16 14 15 8 22 9 -67 0
10 16 14 15 8 22 9 -66 0
10 16 14 15 8 22 21 -68 0
10 16 14 15 8 22 21 -65 0
10 16 14 15 8 22 21 -67 0
10 16 14 15 8 22 21 -66 0
10 16 14 15 8 9 21 -68 0
10 16 14 15 8 9 21 -65 0
10 16 14 15 8 9 21 -67 0
10 16 14 15 8 9 21 -66 0
10 16 14 15 22 9 21 -68 0
10 16 14 15 22 9 21 -65 0
10 16 14 15 22 9 21 -67 0
10 16 14 15 22 9 21 -66 0
10 16 14 8 22 9 21 -68 0
10 16 14 8 22 9 21 -65 0
10 16 14 8 22 9 21 -67 0
10 16 14 8 22 9 21 -66 0
10 16 15 8 22 9 21 -68 0
10 16 15 8 22 9 21 -65 0
10 16 15 8 22 9 21 -67 0
10 16 15 8 22 9 21 -66 0
10 60 14 55 8 56 9 -87 0
10 60 14 55 8 56 9 -86 0
10 60 14 55 8 56 9 -88 0
10 60 14 55 8 56 9 -85 0
10 60 14 55 8 56 59 -87 0
10 60 14 55 8 56 59 -86 0
10 60 14 55 8 56 59 -88 0
10 60 14 55 8 56 59 -85 0
10 60 14 55 8 9 59 -87 0
10 60 14 55 8 9 59 -86 0
10 60 14 55 8 9 59 -88 0
10 60 14 55 8 9 59 -85 0
10 60 14 55 56 9 59 -87 0
10 60 14 55 56 9 59 -86 0
10 60 14 55 56 9 59 -88 0
10 60 14 55 56 9 59 -85 0
10 60 14 8 56 9 59 -87 0
10 60 14 8 56 9 59 -86 0
10 60 14 8 56 9 59 -88 0
10 60 14 8 56 9 59 -85 0
10 60 55 8 56 9 59 -87 0
10 60 55 8 56 9 59 -86 0
10 60 55 8 56 9 59 -88 0
10 60 55 8 56 9 59 -85 0
10 3 14 5 8 2 9 -7 0
10 3 14 5 8 2 9 -12 0
10 3 14 5 8 2 9 -11 0
10 3 14 5 8 2 9 -13 0
10 3 14 5 8 2 6 -7 0
10 3 14 5 8 2 6 -12 0
10 3 14 5 8 2 6 -11 0
10 3 14 5 8 2 6 -13 0
10 3 14 5 8 9 6 -7 0
10 3 14 5 8 9 6 -12 0
10 3 14 5 8 9 6 -11 0
10 3 14 5 8 9 6 -13 0
10 3 14 5 2 9 6 -7 0
10 3 14 5 2 9 6 -12 0
10 3 14 5 2 9 6 -11 0
10 3 14 5 2 9 6 -13 0
10 3 14 8 2 9 6 -7 0
10 3 14 8 2 9 6 -12 0
10 3 14 8 2 9 6 -11 0
10 3 14 8 2 9 6 -13 0
10 3 5 8 2 9 6 -7 0
10 3 5 8 2 9 6 -12 0
10 3 5 8 2 9 6 -11 0
10 3 5 8 2 9 6 -13 0
10 37 14 36 8 35 9 -75 0
10 37 14 36 8 35 9 -74 0
10 37 14 36 8 35 9 -76 0
10 37 14 36 8 35 9 -73 0
10 37 14 36 8 35 33 -75 0
10 37 14 36 8 35 33 -74 0
10 37 14 36 8 35 33 -76 0
10 37 14 36 8 35 33 -73 0
10 37 14 36 8 9 33 -75 0
10 37 14 36 8 9 33 -74 0
10 37 14 36 8 9 33 -76 0
10 37 14 36 8 9 33 -73 0
10 37 14 36 35 9 33 -75 0
10 37 14 36 35 9 33 -74 0
10 37 14 36 35 9 33 -76 0
10 37 14 36 35 9 33 -73 0
10 37 14 8 35 9 33 -75 0
10 37 14 8 35 9 33 -74 0
10 37 14 8 35 9 33 -76 0
10 37 14 8 35 9 33 -73 0
10 37 36 8 35 9 33 -75 0
10 37 36 8 35 9 33 -74 0
10 37 36 8 35 9 33 -76 0
10 37 36 8 35 9 33 -73 0
10 14 39 8 46 9 44 -80 0
10 14 39 8 46 9 44 -77 0
10 14 39 8 46 9 44 -79 0
10 14 39 8 46 9 44 -78 0
10 14 23 8 30 9 28 -72 0
10 14 23 8 30 9 28 -71 0
10 14 23 8 30 9 28 -69 0
10 14 23 8 30 9 28 -70 0
10 14 48 8 50 9 54 -84 0
10 14 48 8 50 9 54 -82 0
10 14 48 8 50 9 54 -81 0
10 14 48 8 50 9 54 -83 0
10 14 15 8 22 9 21 -68 0
10 14 15 8 22 9 21 -65 0
10 14 15 8 22 9 21 -67 0
10 14 15 8 22 9 21 -66 0
10 14 55 8 56 9 59 -87 0
10 14 55 8 56 9 59 -86 0
10 14 55 8 56 9 59 -88 0
10 14 55 8 56 9 59 -85 0
10 14 5 8 2 9 6 -7 0
10 14 5 8 2 9 6 -12 0
10 14 5 8 2 9 6 -11 0
10 14 5 8 2 9 6 -13 0
10 14 36 8 35 9 33 -75 0
10 14 36 8 35 9 33 -74 0
10 14 36 8 35 9 33 -76 0
10 14 36 8 35 9 33 -73 0
45 29 39 23 46 30 44 -120 0
45 29 39 23 46 30 44 -119 0
45 29 39 23 46 30 44 -117 0
45 29 39 23 46 30 44 -118 0
45 29 39 23 46 30 28 -120 0
45 29 39 23 46 30 28 -119 0
45 29 39 23 46 30 28 -117 0
45 29 39 23 46 30 28 -118 0
45 29 39 23 46 44 28 -120 0
45 29 39 23 46 44 28 -119 0
45 29 39 23 46 44 28 -117 0
45 29 39 23 46 44 28 -118 0
45 29 39 23 30 44 28 -120 0
45 29 39 23 30 44 28 -119 0
45 29 39 23 30 44 28 -117 0
45 29 39 23 30 44 28 -118 0
45 29 39 46 30 44 28 -120 0
45 29 39 46 30 44 28 -119 0
45 29 39 46 30 44 28 -117 0
45 29 39 46 30 44 28 -118 0
45 29 23 46 30 44 28 -120 0
45 29 23 46 30 44 28 -119 0
45 29 23 46 30 44 28 -117 0
45 29 23 46 30 44 28 -118 0
45 53 39 48 46 50 44 -145 0
45 53 39 48 46 50 44 -148 0
45 53 39 48 46 50 44 -146 0
45 53 39 48 46 50 44 -147 0
45 53 39 48 46 50 54 -145 0
45 53 39 48 46 50 54 -148 0
45 53 39 48 46 50 54 -146 0
45 53 39 48 46 50 54 -147 0
45 53 39 48 46 44 54 -145 0
45 53 39 48 46 44 54 -148 0
45 53 39 48 46 44 54 -146 0
45 53 39 48 46 44 54 -147 0
45 53 39 48 50 44 54 -145 0
45 53 39 48 50 44 54 -148 0
45 53 39 48 50 44 54 -146 0
45 53 39 48 50 44 54 -147 0
45 53 39 46 50 44 54 -145 0
45 53 39 46 50 44 54 -148 0
45 53 39 46 50 44 54 -146 0
45 53 39 46 50 44 54 -147 0
45 53 48 46 50 44 54 -145 0
45 53 48 46 50 44 54 -148 0
45 53 48 46 50 44 54 -146 0
45 53 48 46 50 44 54 -147 0
45 16 39 15 46 22 44 -101 0
45 16 39 15 46 22 44 -100 0
45 16 39 15 46 22 44 -99 0
45 16 39 15 46 22 44 -102 0
45 16 39 15 46 22 21 -101 0
45 16 39 15 46 22 21 -100 0
45 16 39 15 46 22 21 -99 0
45 16 39 15 46 22 21 -102 0
45 16 39 15 46 44 21 -101 0
45 16 39 15 46 44 21 -100 0
45 16 39 15 46 44 21 -99 0
45 16 39 15 46 44 21 -102 0
45 16 39 15 22 44 21 -101 0
45 16 39 15 22 44 21 -100 0
45 16 39 15 22 44 21 -99 0
45 16 39 15 22 44 21 -102 0
45 16 39 46 22 44 21 -101 0
45 16 39 46 22 44 21 -100 0
45 16 39 46 22 44 21 -99 0
45 16 39 46 22 44 21 -102 0
45 16 15 46 22 44 21 -101 0
45 16 15 46 22 44 21 -100 0
45 16 15 46 22 44 21 -99 0
45 16 15 46 22 44 21 -102 0
45 60 39 55 46 56 44 -150 0
45 60 39 55 46 56 44 -152 0
45 60 39 55 46 56 44 -149 0
45 60 39 55 46 56 44 -151 0
45 60 39 55 46 56 59 -150 0
45 60 39 55 46 56 59 -152 0
45 60 39 55 46 56 59 -149 0
45 60 39 55 46 56 59 -151 0
45 60 39 55 46 44 59 -150 0
45 60 39 55 46 44 59 -152 0
45 60 39 55 46 44 59 -149 0
45 60 39 55 46 44 59 -151 0
45 60 39 55 56 44 59 -150 0
45 60 39 55 56 44 59 -152 0
45 60 39 55 56 44 59 -149 0
45 60 39 55 56 44 59 -151 0
45 60 39 46 56 44 59 -150 0
45 60 39 46 56 44 59 -152 0
45 60 39 46 56 44 59 -149 0
45 60 39 46 56 44 59 -151 0
45 60 55 46 56 44 59 -150 0
45 60 55 46 56 44 59 -152 0
45 60 55 46 56 44 59 -149 0
45 60 55 46 56 44 59 -151 0
45 3 39 5 46 2 44 -41 0
45 3 39 5 46 2 44 -40 0
45 3 39 5 46 2 44 -43 0
45 3 39 5 46 2 44 -42 0
45 3 39 5 46 2 6 -41 0
45 3 39 5 46 2 6 -40 0
45 3 39 5 46 2 6 -43 0
45 3 39 5 46 2 6 -42 0
45 3 39 5 46 44 6 -41 0
45 3 39 5 46 44 6 -40 0
45 3 39 5 46 44 6 -43 0
45 3 39 5 46 44 6 -42 0
45 3 39 5 2 44 6 -41 0
45 3 39 5 2 44 6 -40 0
45 3 39 5 2 44 6 -43 0
45 3 39 5 2 44 6 -42 0
45 3 39 46 2 44 6 -41 0
45 3 39 46 2 44 6 -40 0
45 3 39 46 2 44 6 -43 0
45 3 39 46 2 44 6 -42 0
45 3 5 46 2 44 6 -41 0
45 3 5 46 2 44 6 -40 0
45 3 5 46 2 44 6 -43 0
45 3 5 46 2 44 6 -42 0
45 37 39 36 46 35 44 -131 0
45 37 39 36 46 35 44 -132 0
45 37 39 36 46 35 44 -133 0
45 37 39 36 46 35 44 -134 0
45 37 39 36 46 35 33 -131 0
45 37 39 36 46 35 33 -132 0
45 37 39 36 46 35 33 -133 0
45 37 39 36 46 35 33 -134 0
45 37 39 36 46 44 33 -131 0
45 37 39 36 46 44 33 -132 0
45 37 39 36 46 44 33 -133 0
45 37 39 36 46 44 33 -134 0
45 37 39 36 35 44 33 -131 0
45 37 39 36 35 44 33 -132 0
45 37 39 36 35 44 33 -133 0
45 37 39 36 35 44 33 -134 0
45 37 39 46 35 44 33 -131 0
45 37 39 46 35 44 33 -132 0
45 37 39 46 35 44 33 -133 0
45 37 39 46 35 44 33 -134 0
45 37 36 46 35 44 33 -131 0
45 37 36 46 35 44 33 -132 0
45 37 36 46 35 44 33 -133 0
45 37 36 46 35 44 33 -134 0
45 14 39 8 46 9 44 -80 0
45 14 39 8 46 9 44 -77 0
45 14 39 8 46 9 44 -79 0
45 14 39 8 46 9 44 -78 0
45 39 23 46 30 44 28 -120 0
45 39 23 46 30 44 28 -119 0
45 39 23 46 30 44 28 -117 0
45 39 23 46 30 44 28 -118 0
45 39 48 46 50 44 54 -145 0
45 39 48 46 50 44 54 -148 0
45 39 48 46 50 44 54 -146 0
45 39 48 46 50 44 54 -147 0
45 39 15 46 22 44 21 -101 0
45 39 15 46 22 44 21 -100 0
45 39 15 46 22 44 21 -99 0
45 39 15 46 22 44 21 -102 0
45 39 55 46 56 44 59 -150 0
45 39 55 46 56 44 59 -152 0
45 39 55 46 56 44 59 -149 0
45 39 55 46 56 44 59 -151 0
45 39 5 46 2 44 6 -41 0
45 39 5 46 2 44 6 -40 0
45 39 5 46 2 44 6 -43 0
45 39 5 46 2 44 6 -42 0
45 39 36 46 35 44 33 -131 0
45 39 36 46 35 44 33 -132 0
45 39 36 46 35 44 33 -133 0
45 39 36 46 35 44 33 -134 0
29 53 23 48 30 50 28 -123 0
29 53 23 48 30 50 28 -124 0
29 53 23 48 30 50 28 -121 0
29 53 23 48 30 50 28 -122 0
29 53 23 48 30 50 54 -123 0
29 53 23 48 30 50 54 -124 0
29 53 23 48 30 50 54 -121 0
29 53 23 48 30 50 54 -122 0
29 53 23 48 30 28 54 -123 0
29 53 23 48 30 28 54 -124 0
29 53 23 48 30 28 54 -121 0
29 53 23 48 30 28 54 -122 0
29 53 23 48 50 28 54 -123 0
29 53 23 48 50 28 54 -124 0
29 53 23 48 50 28 54 -121 0
29 53 23 48 50 28 54 -122 0
29 53 23 30 50 28 54 -123 0
29 53 23 30 50 28 54 -124 0
29 53 23 30 50 28 54 -121 0
29 53 23 30 50 28 54 -122 0
29 53 48 30 50 28 54 -123 0
29 53 48 30 50 28 54 -124 0
29 53 48 30 50 28 54 -121 0
29 53 48 30 50 28 54 -122 0
29 16 23 15 30 22 28 -93 0
29 16 23 15 30 22 28 -91 0
29 16 23 15 30 22 28 -94 0
29 16 23 15 30 22 28 -92 0
29 16 23 15 30 22 21 -93 0
29 16 23 15 30 22 21 -91 0
29 16 23 15 30 22 21 -94 0
29 16 23 15 30 22 21 -92 0
29 16 23 15 30 28 21 -93 0
29 16 23 15 30 28 21 -91 0
29 16 23 15 30 28 21 -94 0
29 16 23 15 30 28 21 -92 0
29 16 23 15 22 28 21 -93 0
29 16 23 15 22 28 21 -91 0
29 16 23 15 22 28 21 -94 0
29 16 23 15 22 28 21 -92 0
29 16 23 30 22 28 21 -93 0
29 16 23 30 22 28 21 -91 0
29 16 23 30 22 28 21 -94 0
29 16 23 30 22 28 21 -92 0
29 16 15 30 22 28 21 -93 0
29 16 15 30 22 28 21 -91 0
29 16 15 30 22 28 21 -94 0
29 16 15 30 22 28 21 -92 0
29 60 23 55 30 56 28 -128 0
29 60 23 55 30 56 28 -127 0
29 60 23 55 30 56 28 -125 0
29 60 23 55 30 56 28 -126 0
29 60 23 55 30 56 59 -128 0
29 60 23 55 30 56 59 -127 0
29 60 23 55 30 56 59 -125 0
29 60 23 55 30 56 59 -126 0
29 60 23 55 30 28 59 -128 0
29 60 23 55 30 28 59 -127 0
29 60 23 55 30 28 59 -125 0
29 60 23 55 30 28 59 -126 0
29 60 23 55 56 28 59 -128 0
29 60 23 55 56 28 59 -127 0
29 60 23 55 56 28 59 -125 0
29 60 23 55 56 28 59 -126 0
29 60 23 30 56 28 59 -128 0
29 60 23 30 56 28 59 -127 0
29 60 23 30 56 28 59 -125 0
29 60 23 30 56 28 59 -126 0
29 60 55 30 56 28 59 -128 0
29 60 55 30 56 28 59 -127 0
29 60 55 30 56 28 59 -125 0
29 60 55 30 56 28 59 -126 0
29 3 23 5 30 2 28 -25 0
29 3 23 5 30 2 28 -24 0
29 3 23 5 30 2 28 -26 0
29 3 23 5 30 2 28 -27 0
29 3 23 5 30 2 6 -25 0
29 3 23 5 30 2 6 -24 0
29 3 23 5 30 2 6 -26 0
29 3 23 5 30 2 6 -27 0
29 3 23 5 30 28 6 -25 0
29 3 23 5 30 28 6 -24 0
29 3 23 5 30 28 6 -26 0
29 3 23 5 30 28 6 -27 0
29 3 23 5 2 28 6 -25 0
29 3 23 5 2 28 6 -24 0
29 3 23 5 2 28 6 -26 0
29 3 23 5 2 28 6 -27 0
29 3 23 30 2 28 6 -25 0
29 3 23 30 2 28 6 -24 0
29 3 23 30 2 28 6 -26 0
29 3 23 30 2 28 6 -27 0
29 3 5 30 2 28 6 -25 0
29 3 5 30 2 28 6 -24 0
29 3 5 30 2 28 6 -26 0
29 3 5 30 2 28 6 -27 0
29 37 23 36 30 35 28 -113 0
29 37 23 36 30 35 28 -116 0
29 37 23 36 30 35 28 -114 0
29 37 23 36 30 35 28 -115 0
29 37 23 36 30 35 33 -113 0
29 37 23 36 30 35 33 -116 0
29 37 23 36 30 35 33 -114 0
29 37 23 36 30 35 33 -115 0
29 37 23 36 30 28 33 -113 0
29 37 23 36 30 28 33 -116 0
29 37 23 36 30 28 33 -114 0
29 37 23 36 30 28 33 -115 0
29 37 23 36 35 28 33 -113 0
29 37 23 36 35 28 33 -116 0
29 37 23 36 35 28 33 -114 0
29 37 23 36 35 28 33 -115 0
29 37 23 30 35 28 33 -113 0
29 37 23 30 35 28 33 -116 0
29 37 23 30 35 28 33 -114 0
29 37 23 30 35 28 33 -115 0
29 37 36 30 35 28 33 -113 0
29 37 36 30 35 28 33 -116 0
29 37 36 30 35 28 33 -114 0
29 37 36 30 35 28 33 -115 0
29 14 23 8 30 9 28 -72 0
29 14 23 8 30 9 28 -71 0
29 14 23 8 30 9 28 -69 0
29 14 23 8 30 9 28 -70 0
29 39 23 46 30 44 28 -120 0
29 39 23 46 30 44 28 -119 0
29 39 23 46 30 44 28 -117 0
29 39 23 46 30 44 28 -118 0
29 23 48 30 50 28 54 -123 0
29 23 48 30 50 28 54 -124 0
29 23 48 30 50 28 54 -121 0
29 23 48 30 50 28 54 -122 0
29 23 15 30 22 28 21 -93 0
29 23 15 30 22 28 21 -91 0
29 23 15 30 22 28 21 -94 0
29 23 15 30 22 28 21 -92 0
29 23 55 30 56 28 59 -128 0
29 23 55 30 56 28 59 -127 0
29 23 55 30 56 28 59 -125 0
29 23 55 30 56 28 59 -126 0
29 23 5 30 2 28 6 -25 0
29 23 5 30 2 28 6 -24 0
29 23 5 30 2 28 6 -26 0
29 23 5 30 2 28 6 -27 0
29 23 36 30 35 28 33 -113 0
29 23 36 30 35 28 33 -116 0
29 23 36 30 35 28 33 -114 0
29 23 36 30 35 28 33 -115 0
53 16 48 15 50 22 54 -104 0
53 16 48 15 50 22 54 -105 0
53 16 48 15 50 22 54 -103 0
53 16 48 15 50 22 54 -106 0
53 16 48 15 50 22 21 -104 0
53 16 48 15 50 22 21 -105 0
53 16 48 15 50 22 21 -103 0
53 16 48 15 50 22 21 -106 0
53 16 48 15 50 54 21 -104 0
53 16 48 15 50 54 21 -105 0
53 16 48 15 50 54 21 -103 0
53 16 48 15 50 54 21 -106 0
53 16 48 15 22 54 21 -104 0
53 16 48 15 22 54 21 -105 0
53 16 48 15 22 54 21 -103 0
53 16 48 15 22 54 21 -106 0
53 16 48 50 22 54 21 -104 0
53 16 48 50 22 54 21 -105 0
53 16 48 50 22 54 21 -103 0
53 16 48 50 22 54 21 -106 0
53 16 15 50 22 54 21 -104 0
53 16 15 50 22 54 21 -105 0
53 16 15 50 22 54 21 -103 0
53 16 15 50 22 54 21 -106 0
53 60 48 55 50 56 54 -157 0
53 60 48 55 50 56 54 -155 0
53 60 48 55 50 56 54 -158 0
53 60 48 55 50 56 54 -156 0
53 60 48 55 50 56 59 -157 0
53 60 48 55 50 56 59 -155 0
53 60 48 55 50 56 59 -158 0
53 60 48 55 50 56 59 -156 0
53 60 48 55 50 54 59 -157 0
53 60 48 55 50 54 59 -155 0
53 60 48 55 50 54 59 -158 0
53 60 48 55 50 54 59 -156 0
53 60 48 55 56 54 59 -157 0
53 60 48 55 56 54 59 -155 0
53 60 48 55 56 54 59 -158 0
53 60 48 55 56 54 59 -156 0
53 60 48 50 56 54 59 -157 0
53 60 48 50 56 54 59 -155 0
53 60 48 50 56 54 59 -158 0
53 60 48 50 56 54 59 -156 0
53 60 55 50 56 54 59 -157 0
53 60 55 50 56 54 59 -155 0
53 60 55 50 56 54 59 -158 0
53 60 55 50 56 54 59 -156 0
53 3 48 5 50 2 54 -49 0
53 3 48 5 50 2 54 -51 0
53 3 48 5 50 2 54 -52 0
53 3 48 5 50 2 54 -47 0
53 3 48 5 50 2 6 -49 0
53 3 48 5 50 2 6 -51 0
53 3 48 5 50 2 6 -52 0
53 3 48 5 50 2 6 -47 0
53 3 48 5 50 54 6 -49 0
53 3 48 5 50 54 6 -51 0
53 3 48 5 50 54 6 -52 0
53 3 48 5 50 54 6 -47 0
53 3 48 5 2 54 6 -49 0
53 3 48 5 2 54 6 -51 0
53 3 48 5 2 54 6 -52 0
53 3 48 5 2 54 6 -47 0
53 3 48 50 2 54 6 -49 0
53 3 48 50 2 54 6 -51 0
53 3 48 50 2 54 6 -52 0
53 3 48 50 2 54 6 -47 0
53 3 5 50 2 54 6 -49 0
53 3 5 50 2 54 6 -51 0
53 3 5 50 2 54 6 -52 0
53 3 5 50 2 54 6 -47 0
53 37 48 36 50 35 54 -137 0
53 37 48 36 50 35 54 -135 0
53 37 48 36 50 35 54 -136 0
53 37 48 36 50 35 54 -138 0
53 37 48 36 50 35 33 -137 0
53 37 48 36 50 35 33 -135 0
53 37 48 36 50 35 33 -136 0
53 37 48 36 50 35 33 -138 0
53 37 48 36 50 54 33 -137 0
53 37 48 36 50 54 33 -135 0
53 37 48 36 50 54 33 -136 0
53 37 48 36 50 54 33 -138 0
53 37 48 36 35 54 33 -137 0
53 37 48 36 35 54 33 -135 0
53 37 48 36 35 54 33 -136 0
53 37 48 36 35 54 33 -138 0
53 37 48 50 35 54 33 -137 0
53 37 48 50 35 54 33 -135 0
53 37 48 50 35 54 33 -136 0
53 37 48 50 35 54 33 -138 0
53 37 36 50 35 54 33 -137 0
53 37 36 50 35 54 33 -135 0
53 37 36 50 35 54 33 -136 0
53 37 36 50 35 54 33 -138 0
53 14 48 8 50 9 54 -84 0
53 14 48 8 50 9 54 -82 0
53 14 48 8 50 9 54 -81 0
53 14 48 8 50 9 54 -83 0
53 39 48 46 50 44 54 -145 0
53 39 48 46 50 44 54 -148 0
53 39 48 46 50 44 54 -146 0
53 39 48 46 50 44 54 -147 0
53 23 48 30 50 28 54 -123 0
53 23 48 30 50 28 54 -124 0
53 23 48 30 50 28 54 -121 0
53 23 48 30 50 28 54 -122 0
53 48 15 50 22 54 21 -104 0
53 48 15 50 22 54 21 -105 0
53 48 15 50 22 54 21 -103 0
53 48 15 50 22 54 21 -106 0
53 48 55 50 56 54 59 -157 0
53 48 55 50 56 54 59 -155 0
53 48 55 50 56 54 59 -158 0
53 48 55 50 56 54 59 -156 0
53 48 5 50 2 54 6 -49 0
53 48 5 50 2 54 6 -51 0
53 48 5 50 2 54 6 -52 0
53 48 5 50 2 54 6 -47 0
53 48 36 50 35 54 33 -137 0
53 48 36 50 35 54 33 -135 0
53 48 36 50 35 54 33 -136 0
53 48 36 50 35 54 33 -138 0
16 60 15 55 22 56 21 -107 0
16 60 15 55 22 56 21 -108 0
16 60 15 55 22 56 21 -109 0
16 60 15 55 22 56 21 -110 0
16 60 15 55 22 56 59 -107 0
16 60 15 55 22 56 59 -108 0
16 60 15 55 22 56 59 -109 0
16 60 15 55 22 56 59 -110 0
16 60 15 55 22 21 59 -107 0
16 60 15 55 22 21 59 -108 0
16 60 15 55 22 21 59 -109 0
16 60 15 55 22 21 59 -110 0
16 60 15 55 56 21 59 -107 0
16 60 15 55 56 21 59 -108 0
16 60 15 55 56 21 59 -109 0
16 60 15 55 56 21 59 -110 0
16 60 15 22 56 21 59 -107 0
16 60 15 22 56 21 59 -108 0
16 60 15 22 56 21 59 -109 0
16 60 15 22 56 21 59 -110 0
16 60 55 22 56 21 59 -107 0
16 60 55 22 56 21 59 -108 0
16 60 55 22 56 21 59 -109 0
16 60 55 22 56 21 59 -110 0
16 3 15 5 22 2 21 -17 0
16 3 15 5 22 2 21 -19 0
16 3 15 5 22 2 21 -18 0
16 3 15 5 22 2 21 -20 0
16 3 15 5 22 2 6 -17 0
16 3 15 5 22 2 6 -19 0
16 3 15 5 22 2 6 -18 0
16 3 15 5 22 2 6 -20 0
16 3 15 5 22 21 6 -17 0
16 3 15 5 22 21 6 -19 0
16 3 15 5 22 21 6 -18 0
16 3 15 5 22 21 6 -20 0
16 3 15 5 2 21 6 -17 0
16 3 15 5 2 21 6 -19 0
16 3 15 5 2 21 6 -18 0
16 3 15 5 2 21 6 -20 0
16 3 15 22 2 21 6 -17 0
16 3 15 22 2 21 6 -19 0
16 3 15 22 2 21 6 -18 0
16 3 15 22 2 21 6 -20 0
16 3 5 22 2 21 6 -17 0
16 3 5 22 2 21 6 -19 0
16 3 5 22 2 21 6 -18 0
16 3 5 22 2 21 6 -20 0
16 37 15 36 22 35 21 -97 0
16 37 15 36 22 35 21 -96 0
16 37 15 36 22 35 21 -95 0
16 37 15 36 22 35 21 -98 0
16 37 15 36 22 35 33 -97 0
16 37 15 36 22 35 33 -96 0
16 37 15 36 22 35 33 -95 0
16 37 15 36 22 35 33 -98 0
16 37 15 36 22 21 33 -97 0
16 37 15 36 22 21 33 -96 0
16 37 15 36 22 21 33 -95 0
16 37 15 36 22 21 33 -98 0
16 37 15 36 35 21 33 -97 0
16 37 15 36 35 21 33 -96 0
16 37 15 36 35 21 33 -95 0
16 37 15 36 35 21 33 -98 0
16 37 15 22 35 21 33 -97 0
16 37 15 22 35 21 33 -96 0
16 37 15 22 35 21 33 -95 0
16 37 15 22 35 21 33 -98 0
16 37 36 22 35 21 33 -97 0
16 37 36 22 35 21 33 -96 0
16 37 36 22 35 21 33 -95 0
16 37 36 22 35 21 33 -98 0
16 14 15 8 22 9 21 -68 0
16 14 15 8 22 9 21 -65 0
16 14 15 8 22 9 21 -67 0
16 14 15 8 22 9 21 -66 0
16 39 15 46 22 44 21 -101 0
16 39 15 46 22 44 21 -100 0
16 39 15 46 22 44 21 -99 0
16 39 15 46 22 44 21 -102 0
16 23 15 30 22 28 21 -93 0
16 23 15 30 22 28 21 -91 0
16 23 15 30 22 28 21 -94 0
16 23 15 30 22 28 21 -92 0
16 48 15 50 22 54 21 -104 0
16 48 15 50 22 54 21 -105 0
16 48 15 50 22 54 21 -103 0
16 48 15 50 22 54 21 -106 0
16 15 55 22 56 21 59 -107 0
16 15 55 22 56 21 59 -108 0
16 15 55 22 56 21 59 -109 0
16 15 55 22 56 21 59 -110 0
16 15 5 22 2 21 6 -17 0
16 15 5 22 2 21 6 -19 0
16 15 5 22 2 21 6 -18 0
16 15 5 22 2 21 6 -20 0
16 15 36 22 35 21 33 -97 0
16 15 36 22 35 21 33 -96 0
16 15 36 22 35 21 33 -95 0
16 15 36 22 35 21 33 -98 0
60 3 55 5 56 2 59 -61 0
60 3 55 5 56 2 59 -57 0
60 3 55 5 56 2 59 -62 0
60 3 55 5 56 2 59 -58 0
60 3 55 5 56 2 6 -61 0
60 3 55 5 56 2 6 -57 0
60 3 55 5 56 2 6 -62 0
60 3 55 5 56 2 6 -58 0
60 3 55 5 56 59 6 -61 0
60 3 55 5 56 59 6 -57 0
60 3 55 5 56 59 6 -62 0
60 3 55 5 56 59 6 -58 0
60 3 55 5 2 59 6 -61 0
60 3 55 5 2 59 6 -57 0
60 3 55 5 2 59 6 -62 0
60 3 55 5 2 59 6 -58 0
60 3 55 56 2 59 6 -61 0
60 3 55 56 2 59 6 -57 0
60 3 55 56 2 59 6 -62 0
60 3 55 56 2 59 6 -58 0
60 3 5 56 2 59 6 -61 0
60 3 5 56 2 59 6 -57 0
60 3 5 56 2 59 6 -62 0
60 3 5 56 2 59 6 -58 0
60 37 55 36 56 35 59 -141 0
60 37 55 36 56 35 59 -139 0
60 37 55 36 56 35 59 -140 0
60 37 55 36 56 35 59 -142 0
60 37 55 36 56 35 33 -141 0
60 37 55 36 56 35 33 -139 0
60 37 55 36 56 35 33 -140 0
60 37 55 36 56 35 33 -142 0
60 37 55 36 56 59 33 -141 0
60 37 55 36 56 59 33 -139 0
60 37 55 36 56 59 33 -140 0
60 37 55 36 56 59 33 -142 0
60 37 55 36 35 59 33 -141 0
60 37 55 36 35 59 33 -139 0
60 37 55 36 35 59 33 -140 0
60 37 55 36 35 59 33 -142 0
60 37 55 56 35 59 33 -141 0
60 37 55 56 35 59 33 -139 0
60 37 55 56 35 59 33 -140 0
60 37 55 56 35 59 33 -142 0
60 37 36 56 35 59 33 -141 0
60 37 36 56 35 59 33 -139 0
60 37 36 56 35 59 33 -140 0
60 37 36 56 35 59 33 -142 0
60 14 55 8 56 9 59 -87 0
60 14 55 8 56 9 59 -86 0
60 14 55 8 56 9 59 -88 0
60 14 55 8 56 9 59 -85 0
60 39 55 46 56 44 59 -150 0
60 39 55 46 56 44 59 -152 0
60 39 55 46 56 44 59 -149 0
60 39 55 46 56 44 59 -151 0
60 23 55 30 56 28 59 -128 0
60 23 55 30 56 28 59 -127 0
60 23 55 30 56 28 59 -125 0
60 23 55 30 56 28 59 -126 0
60 48 55 50 56 54 59 -157 0
60 48 55 50 56 54 59 -155 0
60 48 55 50 56 54 59 -158 0
60 48 55 50 56 54 59 -156 0
60 15 55 22 56 21 59 -107 0
60 15 55 22 56 21 59 -108 0
60 15 55 22 56 21 59 -109 0
60 15 55 22 56 21 59 -110 0
60 55 5 56 2 59 6 -61 0
60 55 5 56 2 59 6 -57 0
60 55 5 56 2 59 6 -62 0
60 55 5 56 2 59 6 -58 0
60 55 36 56 35 59 33 -141 0
60 55 36 56 35 59 33 -139 0
60 55 36 56 35 59 33 -140 0
60 55 36 56 35 59 33 -142 0
3 37 5 36 2 35 6 -34 0
3 37 5 36 2 35 6 -31 0
3 37 5 36 2 35 6 -38 0
3 37 5 36 2 35 6 -32 0
3 37 5 36 2 35 33 -34 0
3 37 5 36 2 35 33 -31 0
3 37 5 36 2 35 33 -38 0
3 37 5 36 2 35 33 -32 0
3 37 5 36 2 6 33 -34 0
3 37 5 36 2 6 33 -31 0
3 37 5 36 2 6 33 -38 0
3 37 5 36 2 6 33 -32 0
3 37 5 36 35 6 33 -34 0
3 37 5 36 35 6 33 -31 0
3 37 5 36 35 6 33 -38 0
3 37 5 36 35 6 33 -32 0
3 37 5 2 35 6 33 -34 0
3 37 5 2 35 6 33 -31 0
3 37 5 2 35 6 33 -38 0
3 37 5 2 35 6 33 -32 0
3 37 36 2 35 6 33 -34 0
3 37 36 2 35 6 33 -31 0
3 37 36 2 35 6 33 -38 0
3 37 36 2 35 6 33 -32 0
3 14 5 8 2 9 6 -7 0
3 14 5 8 2 9 6 -12 0
3 14 5 8 2 9 6 -11 0
3 14 5 8 2 9 6 -13 0
3 39 5 46 2 44 6 -41 0
3 39 5 46 2 44 6 -40 0
3 39 5 46 2 44 6 -43 0
3 39 5 46 2 44 6 -42 0
3 23 5 30 2 28 6 -25 0
3 23 5 30 2 28 6 -24 0
3 23 5 30 2 28 6 -26 0
3 23 5 30 2 28 6 -27 0
3 48 5 50 2 54 6 -49 0
3 48 5 50 2 54 6 -51 0
3 48 5 50 2 54 6 -52 0
3 48 5 50 2 54 6 -47 0
3 15 5 22 2 21 6 -17 0
3 15 5 22 2 21 6 -19 0
3 15 5 22 2 21 6 -18 0
3 15 5 22 2 21 6 -20 0
3 55 5 56 2 59 6 -61 0
3 55 5 56 2 59 6 -57 0
3 55 5 56 2 59 6 -62 0
3 55 5 56 2 59 6 -58 0
3 5 36 2 35 6 33 -34 0
3 5 36 2 35 6 33 -31 0
3 5 36 2 35 6 33 -38 0
3 5 36 2 35 6 33 -32 0
37 14 36 8 35 9 33 -75 0
37 14 36 8 35 9 33 -74 0
37 14 36 8 35 9 33 -76 0
37 14 36 8 35 9 33 -73 0
37 39 36 46 35 44 33 -131 0
37 39 36 46 35 44 33 -132 0
37 39 36 46 35 44 33 -133 0
37 39 36 46 35 44 33 -134 0
37 23 36 30 35 28 33 -113 0
37 23 36 30 35 28 33 -116 0
37 23 36 30 35 28 33 -114 0
37 23 36 30 35 28 33 -115 0
37 48 36 50 35 54 33 -137 0
37 48 36 50 35 54 33 -135 0
37 48 36 50 35 54 33 -136 0
37 48 36 50 35 54 33 -138 0
37 15 36 22 35 21 33 -97 0
37 15 36 22 35 21 33 -96 0
37 15 36 22 35 21 33 -95 0
37 15 36 22 35 21 33 -98 0
37 55 36 56 35 59 33 -141 0
37 55 36 56 35 59 33 -139 0
37 55 36 56 35 59 33 -140 0
37 55 36 56 35 59 33 -142 0
37 5 36 2 35 6 33 -34 0
37 5 36 2 35 6 33 -31 0
37 5 36 2 35 6 33 -38 0
37 5 36 2 35 6 33 -32 0
10 45 14 39 8 46 9 44 -80 0
10 45 14 39 8 46 9 44 -77 0
10 45 14 39 8 46 9 44 -79 0
10 45 14 39 8 46 9 44 -78 0
10 29 14 23 8 30 9 28 -72 0
10 29 14 23 8 30 9 28 -71 0
10 29 14 23 8 30 9 28 -69 0
10 29 14 23 8 30 9 28 -70 0
10 53 14 48 8 50 9 54 -84 0
10 53 14 48 8 50 9 54 -82 0
10 53 14 48 8 50 9 54 -81 0
10 53 14 48 8 50 9 54 -83 0
10 16 14 15 8 22 9 21 -68 0
10 16 14 15 8 22 9 21 -65 0
10 16 14 15 8 22 9 21 -67 0
10 16 14 15 8 22 9 21 -66 0
10 60 14 55 8 56 9 59 -87 0
10 60 14 55 8 56 9 59 -86 0
10 60 14 55 8 56 9 59 -88 0
10 60 14 55 8 56 9 59 -85 0
10 3 14 5 8 2 9 6 -7 0
10 3 14 5 8 2 9 6 -12 0
10 3 14 5 8 2 9 6 -11 0
10 3 14 5 8 2 9 6 -13 0
10 37 14 36 8 35 9 33 -75 0
10 37 14 36 8 35 9 33 -74 0
10 37 14 36 8 35 9 33 -76 0
10 37 14 36 8 35 9 33 -73 0
45 29 39 23 46 30 44 28 -120 0
45 29 39 23 46 30 44 28 -119 0
45 29 39 23 46 30 44 28 -117 0
45 29 39 23 46 30 44 28 -118 0
45 53 39 48 46 50 44 54 -145 0
45 53 39 48 46 50 44 54 -148 0
45 53 39 48 46 50 44 54 -146 0
45 53 39 48 46 50 44 54 -147 0
45 16 39 15 46 22 44 21 -101 0
45 16 39 15 46 22 44 21 -100 0
45 16 39 15 46 22 44 21 -99 0
45 16 39 15 46 22 44 21 -102 0
45 60 39 55 46 56 44 59 -150 0
45 60 39 55 46 56 44 59 -152 0
45 60 39 55 46 56 44 59 -149 0
45 60 39 55 46 56 44 59 -151 0
45 3 39 5 46 2 44 6 -41 0
45 3 39 5 46 2 44 6 -40 0
45 3 39 5 46 2 44 6 -43 0
45 3 39 5 46 2 44 6 -42 0
45 37 39 36 46 35 44 33 -131 0
45 37 39 36 46 35 44 33 -132 0
45 37 39 36 46 35 44 33 -133 0
45 37 39 36 46 35 44 33 -134 0
29 53 23 48 30 50 28 54 -123 0
29 53 23 48 30 50 28 54 -124 0
29 53 23 48 30 50 28 54 -121 0
29 53 23 48 30 50 28 54 -122 0
29 16 23 15 30 22 28 21 -93 0
29 16 23 15 30 22 28 21 -91 0
29 16 23 15 30 22 28 21 -94 0
29 16 23 15 30 22 28 21 -92 0
29 60 23 55 30 56 28 59 -128 0
29 60 23 55 30 56 28 59 -127 0
29 60 23 55 30 56 28 59 -125 0
29 60 23 55 30 56 28 59 -126 0
29 3 23 5 30 2 28 6 -25 0
29 3 23 5 30 2 28 6 -24 0
29 3 23 5 30 2 28 6 -26 0
29 3 23 5 30 2 28 6 -27 0
29 37 23 36 30 35 28 33 -113 0
29 37 23 36 30 35 28 33 -116 0
29 37 23 36 30 35 28 33 -114 0
29 37 23 36 30 35 28 33 -115 0
53 16 48 15 50 22 54 21 -104 0
53 16 48 15 50 22 54 21 -105 0
53 16 48 15 50 22 54 21 -103 0
53 16 48 15 50 22 54 21 -106 0
53 60 48 55 50 56 54 59 -157 0
53 60 48 55 50 56 54 59 -155 0
53 60 48 55 50 56 54 59 -158 0
53 60 48 55 50 56 54 59 -156 0
53 3 48 5 50 2 54 6 -49 0
53 3 48 5 50 2 54 6 -51 0
53 3 48 5 50 2 54 6 -52 0
53 3 48 5 50 2 54 6 -47 0
53 37 48 36 50 35 54 33 -137 0
53 37 48 36 50 35 54 33 -135 0
53 37 48 36 50 35 54 33 -136 0
53 37 48 36 50 35 54 33 -138 0
16 60 15 55 22 56 21 59 -107 0
16 60 15 55 22 56 21 59 -108 0
16 60 15 55 22 56 21 59 -109 0
16 60 15 55 22 56 21 59 -110 0
16 3 15 5 22 2 21 6 -17 0
16 3 15 5 22 2 21 6 -19 0
16 3 15 5 22 2 21 6 -18 0
16 3 15 5 22 2 21 6 -20 0
16 37 15 36 22 35 21 33 -97 0
16 37 15 36 22 35 21 33 -96 0
16 37 15 36 22 35 21 33 -95 0
16 37 15 36 22 35 21 33 -98 0
60 3 55 5 56 2 59 6 -61 0
60 3 55 5 56 2 59 6 -57 0
60 3 55 5 56 2 59 6 -62 0
60 3 55 5 56 2 59 6 -58 0
60 37 55 36 56 35 59 33 -141 0
60 37 55 36 56 35 59 33 -139 0
60 37 55 36 56 35 59 33 -140 0
60 37 55 36 56 35 59 33 -142 0
3 37 5 36 2 35 6 33 -34 0
3 37 5 36 2 35 6 33 -31 0
3 37 5 36 2 35 6 33 -38 0
3 37 5 36 2 35 6 33 -32 0
