c U2(1) U4(1) U1(1) E1(1,1) E2(1,1) U3(1) E1(5,1) E2(5,1) U4(5) U3(5) U2(5) E2(1,5) E1(1,5) U1(5) U2(3) E1(1,3) E2(1,3) U4(3) U3(3) U1(3) E1(3,1) E2(3,1) E2(2,1) U1(2) E1(2,1) U4(2) E1(1,2) U2(2) U3(2) E2(1,2) E1(1,8) U3(8) U4(8) E2(8,1) E2(1,8) U1(8) U2(8) E1(8,1) U3(0) E1(0,1) E2(1,0) E1(1,0) E2(0,1) U4(0) U1(0) U2(0) U1(4) E2(1,4) U4(4) E2(4,1) E1(4,1) U2(4) E1(1,4) U3(4) E2(6,1) U3(6) E1(6,1) E1(1,6) U4(6) U1(6) E2(1,6) U2(6) U1(7) E2(7,1) E2(1,7) U4(7) E1(7,1) E1(1,7) U2(7) U3(7) E1(5,5) E2(5,5) E2(5,3) E1(5,3) E2(3,5) E1(3,5) E2(2,5) E1(2,5) E2(5,2) E1(5,2) E2(5,8) E1(8,5) E1(5,8) E2(8,5) E2(5,0) E1(0,5) E1(5,0) E2(0,5) E2(4,5) E1(4,5) E1(5,4) E2(5,4) E1(6,5) E2(5,6) E1(5,6) E2(6,5) E2(7,5) E2(5,7) E1(5,7) E1(7,5) E2(3,3) E1(3,3) E2(3,2) E1(3,2) E2(2,3) E1(2,3) E2(8,3) E1(8,3) E2(3,8) E1(3,8) E2(0,3) E1(3,0) E2(3,0) E1(0,3) E2(3,4) E1(4,3) E1(3,4) E2(4,3) E1(6,3) E2(3,6) E1(3,6) E2(6,3) E2(7,3) E1(7,3) E1(3,7) E2(3,7) E1(2,2) E2(2,2) E2(2,8) E1(2,8) E2(8,2) E1(8,2) E2(2,0) E1(0,2) E1(2,0) E2(0,2) E1(2,4) E2(2,4) E1(4,2) E2(4,2) E1(2,6) E2(2,6) E2(6,2) E1(6,2) E1(2,7) E2(2,7) E1(7,2) E2(7,2) E1(8,8) E2(8,8) E1(0,8) E2(8,0) E2(0,8) E1(8,0) E2(4,8) E1(8,4) E2(8,4) E1(4,8) E2(6,8) E1(6,8) E2(8,6) E1(8,6) E1(8,7) E2(7,8) E2(8,7) E1(7,8) E2(0,0) E1(0,0) E2(4,0) E1(0,4) E2(0,4) E1(4,0) E1(0,6) E1(6,0) E2(6,0) E2(0,6) E1(7,0) E1(0,7) E2(7,0) E2(0,7) E1(4,4) E2(4,4) E2(4,6) E1(4,6) E2(6,4) E1(6,4) E2(7,4) E2(4,7) E1(7,4) E1(4,7) E2(6,6) E1(6,6) E2(6,7) E2(7,6) E1(7,6) E1(6,7) E1(7,7) E2(7,7)
c 1 2 3 4 5 6 7 8 9 10 11 12 13 14 15 16 17 18 19 20 21 22 23 24 25 26 27 28 29 30 31 32 33 34 35 36 37 38 39 40 41 42 43 44 45 46 47 48 49 50 51 52 53 54 55 56 57 58 59 60 61 62 63 64 65 66 67 68 69 70 71 72 73 74 75 76 77 78 79 80 81 82 83 84 85 86 87 88 89 90 91 92 93 94 95 96 97 98 99 100 101 102 103 104 105 106 107 108 109 110 111 112 113 114 115 116 117 118 119 120 121 122 123 124 125 126 127 128 129 130 131 132 133 134 135 136 137 138 139 140 141 142 143 144 145 146 147 148 149 150 151 152 153 154 155 156 157 158 159 160 161 162 163 164 165 166 167 168 169 170 171 172 173 174 175 176 177 178 179 180 181 182 183 184 185 186 187 188 189 190 191 192 193 194 195 196 197 198
p cnf 198 5463
-168 0
-4 0
-127 0
-102 0
-181 0
-71 0
-192 0
-197 0
-149 0
-167 0
-5 0
-128 0
-101 0
-182 0
-72 0
-191 0
-198 0
-150 0
168 -167 0
40 -41 0
134 -133 0
114 -113 0
170 -169 0
86 -85 0
173 -175 0
178 -179 0
151 -152 0
42 -43 0
4 -5 0
27 -23 0
16 -22 0
53 -50 0
13 -8 0
58 -55 0
68 -64 0
31 -34 0
135 -136 0
25 -30 0
127 -128 0
106 -103 0
137 -140 0
78 -79 0
141 -143 0
145 -148 0
130 -131 0
112 -111 0
21 -17 0
104 -105 0
102 -101 0
117 -118 0
76 -73 0
121 -122 0
125 -123 0
110 -107 0
172 -171 0
51 -48 0
139 -138 0
116 -115 0
181 -182 0
90 -92 0
184 -185 0
190 -187 0
158 -157 0
87 -88 0
7 -12 0
80 -77 0
74 -75 0
91 -89 0
71 -72 0
95 -96 0
99 -97 0
83 -84 0
174 -176 0
57 -61 0
144 -142 0
119 -120 0
186 -183 0
93 -94 0
192 -191 0
196 -194 0
160 -161 0
177 -180 0
67 -65 0
147 -146 0
124 -126 0
189 -188 0
100 -98 0
195 -193 0
197 -198 0
166 -165 0
154 -153 0
38 -35 0
132 -129 0
108 -109 0
156 -155 0
82 -81 0
162 -159 0
163 -164 0
149 -150 0
167 -168 0
43 -42 0
136 -135 0
111 -112 0
171 -172 0
88 -87 0
176 -174 0
180 -177 0
153 -154 0
41 -40 0
5 -4 0
30 -25 0
17 -21 0
48 -51 0
12 -7 0
61 -57 0
65 -67 0
35 -38 0
133 -134 0
23 -27 0
128 -127 0
105 -104 0
138 -139 0
77 -80 0
142 -144 0
146 -147 0
129 -132 0
113 -114 0
22 -16 0
103 -106 0
101 -102 0
115 -116 0
75 -74 0
120 -119 0
126 -124 0
109 -108 0
169 -170 0
50 -53 0
140 -137 0
118 -117 0
182 -181 0
89 -91 0
183 -186 0
188 -189 0
155 -156 0
85 -86 0
8 -13 0
79 -78 0
73 -76 0
92 -90 0
72 -71 0
94 -93 0
98 -100 0
81 -82 0
175 -173 0
55 -58 0
143 -141 0
122 -121 0
185 -184 0
96 -95 0
191 -192 0
193 -195 0
159 -162 0
179 -178 0
64 -68 0
148 -145 0
123 -125 0
187 -190 0
97 -99 0
194 -196 0
198 -197 0
164 -163 0
152 -151 0
34 -31 0
131 -130 0
107 -110 0
157 -158 0
84 -83 0
161 -160 0
165 -166 0
150 -149 0
-40 -42 0
-134 -135 0
-114 -112 0
-170 -172 0
-86 -87 0
-173 -174 0
-178 -177 0
-151 -154 0
-27 -25 0
-16 -21 0
-53 -51 0
-13 -7 0
-58 -57 0
-68 -67 0
-31 -38 0
-106 -104 0
-137 -139 0
-78 -80 0
-141 -144 0
-145 -147 0
-130 -132 0
-117 -116 0
-76 -74 0
-121 -119 0
-125 -124 0
-110 -108 0
-90 -91 0
-184 -186 0
-190 -189 0
-158 -156 0
-95 -93 0
-99 -100 0
-83 -82 0
-196 -195 0
-160 -162 0
-166 -163 0
-43 -41 0
-136 -133 0
-111 -113 0
-171 -169 0
-88 -85 0
-176 -175 0
-180 -179 0
-153 -152 0
-30 -23 0
-17 -22 0
-48 -50 0
-12 -8 0
-61 -55 0
-65 -64 0
-35 -34 0
-105 -103 0
-138 -140 0
-77 -79 0
-142 -143 0
-146 -148 0
-129 -131 0
-115 -118 0
-75 -73 0
-120 -122 0
-126 -123 0
-109 -107 0
-89 -92 0
-183 -185 0
-188 -187 0
-155 -157 0
-94 -96 0
-98 -97 0
-81 -84 0
-193 -194 0
-159 -161 0
-164 -165 0
-45 -46 0
-45 -39 0
-45 -44 0
-3 -1 0
-3 -6 0
-3 -2 0
-24 -28 0
-24 -29 0
-24 -26 0
-20 -15 0
-20 -19 0
-20 -18 0
-47 -52 0
-47 -54 0
-47 -49 0
-14 -11 0
-14 -10 0
-14 -9 0
-60 -62 0
-60 -56 0
-60 -59 0
-63 -69 0
-63 -70 0
-63 -66 0
-36 -37 0
-36 -32 0
-36 -33 0
-46 -39 0
-46 -44 0
-1 -6 0
-1 -2 0
-28 -29 0
-28 -26 0
-15 -19 0
-15 -18 0
-52 -54 0
-52 -49 0
-11 -10 0
-11 -9 0
-62 -56 0
-62 -59 0
-69 -70 0
-69 -66 0
-37 -32 0
-37 -33 0
-39 -44 0
-6 -2 0
-29 -26 0
-19 -18 0
-54 -49 0
-10 -9 0
-56 -59 0
-70 -66 0
-32 -33 0
45 46 39 44 0
3 1 6 2 0
24 28 29 26 0
20 15 19 18 0
47 52 54 49 0
14 11 10 9 0
60 62 56 59 0
63 69 70 66 0
36 37 32 33 0
45 46 39 -168 0
45 46 39 -167 0
45 46 44 -168 0
45 46 44 -167 0
45 39 44 -168 0
45 39 44 -167 0
3 1 6 -4 0
3 1 6 -5 0
3 1 2 -4 0
3 1 2 -5 0
3 6 2 -4 0
3 6 2 -5 0
24 28 29 -127 0
24 28 29 -128 0
24 28 26 -127 0
24 28 26 -128 0
24 29 26 -127 0
24 29 26 -128 0
20 15 19 -102 0
20 15 19 -101 0
20 15 18 -102 0
20 15 18 -101 0
20 19 18 -102 0
20 19 18 -101 0
47 52 54 -181 0
47 52 54 -182 0
47 52 49 -181 0
47 52 49 -182 0
47 54 49 -181 0
47 54 49 -182 0
14 11 10 -71 0
14 11 10 -72 0
14 11 9 -71 0
14 11 9 -72 0
14 10 9 -71 0
14 10 9 -72 0
60 62 56 -192 0
60 62 56 -191 0
60 62 59 -192 0
60 62 59 -191 0
60 56 59 -192 0
60 56 59 -191 0
63 69 70 -197 0
63 69 70 -198 0
63 69 66 -197 0
63 69 66 -198 0
63 70 66 -197 0
63 70 66 -198 0
36 37 32 -149 0
36 37 32 -150 0
36 37 33 -149 0
36 37 33 -150 0
36 32 33 -149 0
36 32 33 -150 0
46 39 44 -168 0
46 39 44 -167 0
1 6 2 -4 0
1 6 2 -5 0
28 29 26 -127 0
28 29 26 -128 0
15 19 18 -102 0
15 19 18 -101 0
52 54 49 -181 0
52 54 49 -182 0
11 10 9 -71 0
11 10 9 -72 0
62 56 59 -192 0
62 56 59 -191 0
69 70 66 -197 0
69 70 66 -198 0
37 32 33 -149 0
37 32 33 -150 0
45 46 39 44 -168 0
45 46 39 44 -40 0
45 46 39 44 -134 0
45 46 39 44 -114 0
45 46 39 44 -170 0
45 46 39 44 -86 0
45 46 39 44 -173 0
45 46 39 44 -178 0
45 46 39 44 -151 0
45 46 39 44 -42 0
45 46 39 44 -135 0
45 46 39 44 -112 0
45 46 39 44 -172 0
45 46 39 44 -87 0
45 46 39 44 -174 0
45 46 39 44 -177 0
45 46 39 44 -154 0
45 46 39 44 -167 0
45 46 39 44 -43 0
45 46 39 44 -136 0
45 46 39 44 -111 0
45 46 39 44 -171 0
45 46 39 44 -88 0
45 46 39 44 -176 0
45 46 39 44 -180 0
45 46 39 44 -153 0
45 46 39 44 -41 0
45 46 39 44 -133 0
45 46 39 44 -113 0
45 46 39 44 -169 0
45 46 39 44 -85 0
45 46 39 44 -175 0
45 46 39 44 -179 0
45 46 39 44 -152 0
3 1 6 2 -40 0
3 1 6 2 -42 0
3 1 6 2 -4 0
3 1 6 2 -27 0
3 1 6 2 -16 0
3 1 6 2 -53 0
3 1 6 2 -13 0
3 1 6 2 -58 0
3 1 6 2 -68 0
3 1 6 2 -31 0
3 1 6 2 -25 0
3 1 6 2 -21 0
3 1 6 2 -51 0
3 1 6 2 -7 0
3 1 6 2 -57 0
3 1 6 2 -67 0
3 1 6 2 -38 0
3 1 6 2 -43 0
3 1 6 2 -41 0
3 1 6 2 -5 0
3 1 6 2 -30 0
3 1 6 2 -17 0
3 1 6 2 -48 0
3 1 6 2 -12 0
3 1 6 2 -61 0
3 1 6 2 -65 0
3 1 6 2 -35 0
3 1 6 2 -23 0
3 1 6 2 -22 0
3 1 6 2 -50 0
3 1 6 2 -8 0
3 1 6 2 -55 0
3 1 6 2 -64 0
3 1 6 2 -34 0
24 28 29 26 -134 0
24 28 29 26 -27 0
24 28 29 26 -135 0
24 28 29 26 -25 0
24 28 29 26 -127 0
24 28 29 26 -106 0
24 28 29 26 -137 0
24 28 29 26 -78 0
24 28 29 26 -141 0
24 28 29 26 -145 0
24 28 29 26 -130 0
24 28 29 26 -104 0
24 28 29 26 -139 0
24 28 29 26 -80 0
24 28 29 26 -144 0
24 28 29 26 -147 0
24 28 29 26 -132 0
24 28 29 26 -136 0
24 28 29 26 -30 0
24 28 29 26 -133 0
24 28 29 26 -23 0
24 28 29 26 -128 0
24 28 29 26 -105 0
24 28 29 26 -138 0
24 28 29 26 -77 0
24 28 29 26 -142 0
24 28 29 26 -146 0
24 28 29 26 -129 0
24 28 29 26 -103 0
24 28 29 26 -140 0
24 28 29 26 -79 0
24 28 29 26 -143 0
24 28 29 26 -148 0
24 28 29 26 -131 0
20 15 19 18 -114 0
20 15 19 18 -16 0
20 15 19 18 -106 0
20 15 19 18 -112 0
20 15 19 18 -21 0
20 15 19 18 -104 0
20 15 19 18 -102 0
20 15 19 18 -117 0
20 15 19 18 -76 0
20 15 19 18 -121 0
20 15 19 18 -125 0
20 15 19 18 -110 0
20 15 19 18 -116 0
20 15 19 18 -74 0
20 15 19 18 -119 0
20 15 19 18 -124 0
20 15 19 18 -108 0
20 15 19 18 -111 0
20 15 19 18 -17 0
20 15 19 18 -105 0
20 15 19 18 -113 0
20 15 19 18 -22 0
20 15 19 18 -103 0
20 15 19 18 -101 0
20 15 19 18 -115 0
20 15 19 18 -75 0
20 15 19 18 -120 0
20 15 19 18 -126 0
20 15 19 18 -109 0
20 15 19 18 -118 0
20 15 19 18 -73 0
20 15 19 18 -122 0
20 15 19 18 -123 0
20 15 19 18 -107 0
47 52 54 49 -170 0
47 52 54 49 -53 0
47 52 54 49 -137 0
47 52 54 49 -117 0
47 52 54 49 -172 0
47 52 54 49 -51 0
47 52 54 49 -139 0
47 52 54 49 -116 0
47 52 54 49 -181 0
47 52 54 49 -90 0
47 52 54 49 -184 0
47 52 54 49 -190 0
47 52 54 49 -158 0
47 52 54 49 -91 0
47 52 54 49 -186 0
47 52 54 49 -189 0
47 52 54 49 -156 0
47 52 54 49 -171 0
47 52 54 49 -48 0
47 52 54 49 -138 0
47 52 54 49 -115 0
47 52 54 49 -169 0
47 52 54 49 -50 0
47 52 54 49 -140 0
47 52 54 49 -118 0
47 52 54 49 -182 0
47 52 54 49 -89 0
47 52 54 49 -183 0
47 52 54 49 -188 0
47 52 54 49 -155 0
47 52 54 49 -92 0
47 52 54 49 -185 0
47 52 54 49 -187 0
47 52 54 49 -157 0
14 11 10 9 -86 0
14 11 10 9 -13 0
14 11 10 9 -78 0
14 11 10 9 -76 0
14 11 10 9 -90 0
14 11 10 9 -87 0
14 11 10 9 -7 0
14 11 10 9 -80 0
14 11 10 9 -74 0
14 11 10 9 -91 0
14 11 10 9 -71 0
14 11 10 9 -95 0
14 11 10 9 -99 0
14 11 10 9 -83 0
14 11 10 9 -93 0
14 11 10 9 -100 0
14 11 10 9 -82 0
14 11 10 9 -88 0
14 11 10 9 -12 0
14 11 10 9 -77 0
14 11 10 9 -75 0
14 11 10 9 -89 0
14 11 10 9 -85 0
14 11 10 9 -8 0
14 11 10 9 -79 0
14 11 10 9 -73 0
14 11 10 9 -92 0
14 11 10 9 -72 0
14 11 10 9 -94 0
14 11 10 9 -98 0
14 11 10 9 -81 0
14 11 10 9 -96 0
14 11 10 9 -97 0
14 11 10 9 -84 0
60 62 56 59 -173 0
60 62 56 59 -58 0
60 62 56 59 -141 0
60 62 56 59 -121 0
60 62 56 59 -184 0
60 62 56 59 -95 0
60 62 56 59 -174 0
60 62 56 59 -57 0
60 62 56 59 -144 0
60 62 56 59 -119 0
60 62 56 59 -186 0
60 62 56 59 -93 0
60 62 56 59 -192 0
60 62 56 59 -196 0
60 62 56 59 -160 0
60 62 56 59 -195 0
60 62 56 59 -162 0
60 62 56 59 -176 0
60 62 56 59 -61 0
60 62 56 59 -142 0
60 62 56 59 -120 0
60 62 56 59 -183 0
60 62 56 59 -94 0
60 62 56 59 -175 0
60 62 56 59 -55 0
60 62 56 59 -143 0
60 62 56 59 -122 0
60 62 56 59 -185 0
60 62 56 59 -96 0
60 62 56 59 -191 0
60 62 56 59 -193 0
60 62 56 59 -159 0
60 62 56 59 -194 0
60 62 56 59 -161 0
63 69 70 66 -178 0
63 69 70 66 -68 0
63 69 70 66 -145 0
63 69 70 66 -125 0
63 69 70 66 -190 0
63 69 70 66 -99 0
63 69 70 66 -196 0
63 69 70 66 -177 0
63 69 70 66 -67 0
63 69 70 66 -147 0
63 69 70 66 -124 0
63 69 70 66 -189 0
63 69 70 66 -100 0
63 69 70 66 -195 0
63 69 70 66 -197 0
63 69 70 66 -166 0
63 69 70 66 -163 0
63 69 70 66 -180 0
63 69 70 66 -65 0
63 69 70 66 -146 0
63 69 70 66 -126 0
63 69 70 66 -188 0
63 69 70 66 -98 0
63 69 70 66 -193 0
63 69 70 66 -179 0
63 69 70 66 -64 0
63 69 70 66 -148 0
63 69 70 66 -123 0
63 69 70 66 -187 0
63 69 70 66 -97 0
63 69 70 66 -194 0
63 69 70 66 -198 0
63 69 70 66 -164 0
63 69 70 66 -165 0
36 37 32 33 -151 0
36 37 32 33 -31 0
36 37 32 33 -130 0
36 37 32 33 -110 0
36 37 32 33 -158 0
36 37 32 33 -83 0
36 37 32 33 -160 0
36 37 32 33 -166 0
36 37 32 33 -154 0
36 37 32 33 -38 0
36 37 32 33 -132 0
36 37 32 33 -108 0
36 37 32 33 -156 0
36 37 32 33 -82 0
36 37 32 33 -162 0
36 37 32 33 -163 0
36 37 32 33 -149 0
36 37 32 33 -153 0
36 37 32 33 -35 0
36 37 32 33 -129 0
36 37 32 33 -109 0
36 37 32 33 -155 0
36 37 32 33 -81 0
36 37 32 33 -159 0
36 37 32 33 -164 0
36 37 32 33 -152 0
36 37 32 33 -34 0
36 37 32 33 -131 0
36 37 32 33 -107 0
36 37 32 33 -157 0
36 37 32 33 -84 0
36 37 32 33 -161 0
36 37 32 33 -165 0
36 37 32 33 -150 0
45 3 46 39 44 -40 0
45 3 46 39 44 -42 0
45 3 46 39 44 -43 0
45 3 46 39 44 -41 0
45 3 1 6 2 -40 0
45 3 1 6 2 -42 0
45 3 1 6 2 -43 0
45 3 1 6 2 -41 0
45 24 46 39 44 -134 0
45 24 46 39 44 -135 0
45 24 46 39 44 -136 0
45 24 46 39 44 -133 0
45 24 28 29 26 -134 0
45 24 28 29 26 -135 0
45 24 28 29 26 -136 0
45 24 28 29 26 -133 0
45 20 46 39 44 -114 0
45 20 46 39 44 -112 0
45 20 46 39 44 -111 0
45 20 46 39 44 -113 0
45 20 15 19 18 -114 0
45 20 15 19 18 -112 0
45 20 15 19 18 -111 0
45 20 15 19 18 -113 0
45 47 46 39 44 -170 0
45 47 46 39 44 -172 0
45 47 46 39 44 -171 0
45 47 46 39 44 -169 0
45 47 52 54 49 -170 0
45 47 52 54 49 -172 0
45 47 52 54 49 -171 0
45 47 52 54 49 -169 0
45 14 46 39 44 -86 0
45 14 46 39 44 -87 0
45 14 46 39 44 -88 0
45 14 46 39 44 -85 0
45 14 11 10 9 -86 0
45 14 11 10 9 -87 0
45 14 11 10 9 -88 0
45 14 11 10 9 -85 0
45 60 46 39 44 -173 0
45 60 46 39 44 -174 0
45 60 46 39 44 -176 0
45 60 46 39 44 -175 0
45 60 62 56 59 -173 0
45 60 62 56 59 -174 0
45 60 62 56 59 -176 0
45 60 62 56 59 -175 0
45 63 46 39 44 -178 0
45 63 46 39 44 -177 0
45 63 46 39 44 -180 0
45 63 46 39 44 -179 0
45 63 69 70 66 -178 0
45 63 69 70 66 -177 0
45 63 69 70 66 -180 0
45 63 69 70 66 -179 0
45 36 46 39 44 -151 0
45 36 46 39 44 -154 0
45 36 46 39 44 -153 0
45 36 46 39 44 -152 0
45 36 37 32 33 -151 0
45 36 37 32 33 -154 0
45 36 37 32 33 -153 0
45 36 37 32 33 -152 0
45 46 1 39 44 -40 0
45 46 1 39 44 -42 0
45 46 1 39 44 -43 0
45 46 1 39 44 -41 0
45 46 28 39 44 -134 0
45 46 28 39 44 -135 0
45 46 28 39 44 -136 0
45 46 28 39 44 -133 0
45 46 15 39 44 -114 0
45 46 15 39 44 -112 0
45 46 15 39 44 -111 0
45 46 15 39 44 -113 0
45 46 52 39 44 -170 0
45 46 52 39 44 -172 0
45 46 52 39 44 -171 0
45 46 52 39 44 -169 0
45 46 11 39 44 -86 0
45 46 11 39 44 -87 0
45 46 11 39 44 -88 0
45 46 11 39 44 -85 0
45 46 62 39 44 -173 0
45 46 62 39 44 -174 0
45 46 62 39 44 -176 0
45 46 62 39 44 -175 0
45 46 69 39 44 -178 0
45 46 69 39 44 -177 0
45 46 69 39 44 -180 0
45 46 69 39 44 -179 0
45 46 37 39 44 -151 0
45 46 37 39 44 -154 0
45 46 37 39 44 -153 0
45 46 37 39 44 -152 0
45 46 39 6 44 -40 0
45 46 39 6 44 -42 0
45 46 39 6 44 -43 0
45 46 39 6 44 -41 0
45 46 39 29 44 -134 0
45 46 39 29 44 -135 0
45 46 39 29 44 -136 0
45 46 39 29 44 -133 0
45 46 39 19 44 -114 0
45 46 39 19 44 -112 0
45 46 39 19 44 -111 0
45 46 39 19 44 -113 0
45 46 39 54 44 -170 0
45 46 39 54 44 -172 0
45 46 39 54 44 -171 0
45 46 39 54 44 -169 0
45 46 39 10 44 -86 0
45 46 39 10 44 -87 0
45 46 39 10 44 -88 0
45 46 39 10 44 -85 0
45 46 39 56 44 -173 0
45 46 39 56 44 -174 0
45 46 39 56 44 -176 0
45 46 39 56 44 -175 0
45 46 39 70 44 -178 0
45 46 39 70 44 -177 0
45 46 39 70 44 -180 0
45 46 39 70 44 -179 0
45 46 39 32 44 -151 0
45 46 39 32 44 -154 0
45 46 39 32 44 -153 0
45 46 39 32 44 -152 0
45 46 39 44 2 -40 0
45 46 39 44 2 -42 0
45 46 39 44 2 -43 0
45 46 39 44 2 -41 0
45 46 39 44 26 -134 0
45 46 39 44 26 -135 0
45 46 39 44 26 -136 0
45 46 39 44 26 -133 0
45 46 39 44 18 -114 0
45 46 39 44 18 -112 0
45 46 39 44 18 -111 0
45 46 39 44 18 -113 0
45 46 39 44 49 -170 0
45 46 39 44 49 -172 0
45 46 39 44 49 -171 0
45 46 39 44 49 -169 0
45 46 39 44 9 -86 0
45 46 39 44 9 -87 0
45 46 39 44 9 -88 0
45 46 39 44 9 -85 0
45 46 39 44 59 -173 0
45 46 39 44 59 -174 0
45 46 39 44 59 -176 0
45 46 39 44 59 -175 0
45 46 39 44 66 -178 0
45 46 39 44 66 -177 0
45 46 39 44 66 -180 0
45 46 39 44 66 -179 0
45 46 39 44 33 -151 0
45 46 39 44 33 -154 0
45 46 39 44 33 -153 0
45 46 39 44 33 -152 0
3 24 1 6 2 -27 0
3 24 1 6 2 -25 0
3 24 1 6 2 -30 0
3 24 1 6 2 -23 0
3 24 28 29 26 -27 0
3 24 28 29 26 -25 0
3 24 28 29 26 -30 0
3 24 28 29 26 -23 0
3 20 1 6 2 -16 0
3 20 1 6 2 -21 0
3 20 1 6 2 -17 0
3 20 1 6 2 -22 0
3 20 15 19 18 -16 0
3 20 15 19 18 -21 0
3 20 15 19 18 -17 0
3 20 15 19 18 -22 0
3 47 1 6 2 -53 0
3 47 1 6 2 -51 0
3 47 1 6 2 -48 0
3 47 1 6 2 -50 0
3 47 52 54 49 -53 0
3 47 52 54 49 -51 0
3 47 52 54 49 -48 0
3 47 52 54 49 -50 0
3 14 1 6 2 -13 0
3 14 1 6 2 -7 0
3 14 1 6 2 -12 0
3 14 1 6 2 -8 0
3 14 11 10 9 -13 0
3 14 11 10 9 -7 0
3 14 11 10 9 -12 0
3 14 11 10 9 -8 0
3 60 1 6 2 -58 0
3 60 1 6 2 -57 0
3 60 1 6 2 -61 0
3 60 1 6 2 -55 0
3 60 62 56 59 -58 0
3 60 62 56 59 -57 0
3 60 62 56 59 -61 0
3 60 62 56 59 -55 0
3 63 1 6 2 -68 0
3 63 1 6 2 -67 0
3 63 1 6 2 -65 0
3 63 1 6 2 -64 0
3 63 69 70 66 -68 0
3 63 69 70 66 -67 0
3 63 69 70 66 -65 0
3 63 69 70 66 -64 0
3 36 1 6 2 -31 0
3 36 1 6 2 -38 0
3 36 1 6 2 -35 0
3 36 1 6 2 -34 0
3 36 37 32 33 -31 0
3 36 37 32 33 -38 0
3 36 37 32 33 -35 0
3 36 37 32 33 -34 0
3 46 1 6 2 -40 0
3 46 1 6 2 -42 0
3 46 1 6 2 -43 0
3 46 1 6 2 -41 0
3 1 28 6 2 -27 0
3 1 28 6 2 -25 0
3 1 28 6 2 -30 0
3 1 28 6 2 -23 0
3 1 15 6 2 -16 0
3 1 15 6 2 -21 0
3 1 15 6 2 -17 0
3 1 15 6 2 -22 0
3 1 52 6 2 -53 0
3 1 52 6 2 -51 0
3 1 52 6 2 -48 0
3 1 52 6 2 -50 0
3 1 11 6 2 -13 0
3 1 11 6 2 -7 0
3 1 11 6 2 -12 0
3 1 11 6 2 -8 0
3 1 62 6 2 -58 0
3 1 62 6 2 -57 0
3 1 62 6 2 -61 0
3 1 62 6 2 -55 0
3 1 69 6 2 -68 0
3 1 69 6 2 -67 0
3 1 69 6 2 -65 0
3 1 69 6 2 -64 0
3 1 37 6 2 -31 0
3 1 37 6 2 -38 0
3 1 37 6 2 -35 0
3 1 37 6 2 -34 0
3 1 39 6 2 -40 0
3 1 39 6 2 -42 0
3 1 39 6 2 -43 0
3 1 39 6 2 -41 0
3 1 6 29 2 -27 0
3 1 6 29 2 -25 0
3 1 6 29 2 -30 0
3 1 6 29 2 -23 0
3 1 6 19 2 -16 0
3 1 6 19 2 -21 0
3 1 6 19 2 -17 0
3 1 6 19 2 -22 0
3 1 6 54 2 -53 0
3 1 6 54 2 -51 0
3 1 6 54 2 -48 0
3 1 6 54 2 -50 0
3 1 6 10 2 -13 0
3 1 6 10 2 -7 0
3 1 6 10 2 -12 0
3 1 6 10 2 -8 0
3 1 6 56 2 -58 0
3 1 6 56 2 -57 0
3 1 6 56 2 -61 0
3 1 6 56 2 -55 0
3 1 6 70 2 -68 0
3 1 6 70 2 -67 0
3 1 6 70 2 -65 0
3 1 6 70 2 -64 0
3 1 6 32 2 -31 0
3 1 6 32 2 -38 0
3 1 6 32 2 -35 0
3 1 6 32 2 -34 0
3 1 6 44 2 -40 0
3 1 6 44 2 -42 0
3 1 6 44 2 -43 0
3 1 6 44 2 -41 0
3 1 6 2 26 -27 0
3 1 6 2 26 -25 0
3 1 6 2 26 -30 0
3 1 6 2 26 -23 0
3 1 6 2 18 -16 0
3 1 6 2 18 -21 0
3 1 6 2 18 -17 0
3 1 6 2 18 -22 0
3 1 6 2 49 -53 0
3 1 6 2 49 -51 0
3 1 6 2 49 -48 0
3 1 6 2 49 -50 0
3 1 6 2 9 -13 0
3 1 6 2 9 -7 0
3 1 6 2 9 -12 0
3 1 6 2 9 -8 0
3 1 6 2 59 -58 0
3 1 6 2 59 -57 0
3 1 6 2 59 -61 0
3 1 6 2 59 -55 0
3 1 6 2 66 -68 0
3 1 6 2 66 -67 0
3 1 6 2 66 -65 0
3 1 6 2 66 -64 0
3 1 6 2 33 -31 0
3 1 6 2 33 -38 0
3 1 6 2 33 -35 0
3 1 6 2 33 -34 0
24 20 28 29 26 -106 0
24 20 28 29 26 -104 0
24 20 28 29 26 -105 0
24 20 28 29 26 -103 0
24 20 15 19 18 -106 0
24 20 15 19 18 -104 0
24 20 15 19 18 -105 0
24 20 15 19 18 -103 0
24 47 28 29 26 -137 0
24 47 28 29 26 -139 0
24 47 28 29 26 -138 0
24 47 28 29 26 -140 0
24 47 52 54 49 -137 0
24 47 52 54 49 -139 0
24 47 52 54 49 -138 0
24 47 52 54 49 -140 0
24 14 28 29 26 -78 0
24 14 28 29 26 -80 0
24 14 28 29 26 -77 0
24 14 28 29 26 -79 0
24 14 11 10 9 -78 0
24 14 11 10 9 -80 0
24 14 11 10 9 -77 0
24 14 11 10 9 -79 0
24 60 28 29 26 -141 0
24 60 28 29 26 -144 0
24 60 28 29 26 -142 0
24 60 28 29 26 -143 0
24 60 62 56 59 -141 0
24 60 62 56 59 -144 0
24 60 62 56 59 -142 0
24 60 62 56 59 -143 0
24 63 28 29 26 -145 0
24 63 28 29 26 -147 0
24 63 28 29 26 -146 0
24 63 28 29 26 -148 0
24 63 69 70 66 -145 0
24 63 69 70 66 -147 0
24 63 69 70 66 -146 0
24 63 69 70 66 -148 0
24 36 28 29 26 -130 0
24 36 28 29 26 -132 0
24 36 28 29 26 -129 0
24 36 28 29 26 -131 0
24 36 37 32 33 -130 0
24 36 37 32 33 -132 0
24 36 37 32 33 -129 0
24 36 37 32 33 -131 0
24 46 28 29 26 -134 0
24 46 28 29 26 -135 0
24 46 28 29 26 -136 0
24 46 28 29 26 -133 0
24 1 28 29 26 -27 0
24 1 28 29 26 -25 0
24 1 28 29 26 -30 0
24 1 28 29 26 -23 0
24 28 15 29 26 -106 0
24 28 15 29 26 -104 0
24 28 15 29 26 -105 0
24 28 15 29 26 -103 0
24 28 52 29 26 -137 0
24 28 52 29 26 -139 0
24 28 52 29 26 -138 0
24 28 52 29 26 -140 0
24 28 11 29 26 -78 0
24 28 11 29 26 -80 0
24 28 11 29 26 -77 0
24 28 11 29 26 -79 0
24 28 62 29 26 -141 0
24 28 62 29 26 -144 0
24 28 62 29 26 -142 0
24 28 62 29 26 -143 0
24 28 69 29 26 -145 0
24 28 69 29 26 -147 0
24 28 69 29 26 -146 0
24 28 69 29 26 -148 0
24 28 37 29 26 -130 0
24 28 37 29 26 -132 0
24 28 37 29 26 -129 0
24 28 37 29 26 -131 0
24 28 39 29 26 -134 0
24 28 39 29 26 -135 0
24 28 39 29 26 -136 0
24 28 39 29 26 -133 0
24 28 6 29 26 -27 0
24 28 6 29 26 -25 0
24 28 6 29 26 -30 0
24 28 6 29 26 -23 0
24 28 29 19 26 -106 0
24 28 29 19 26 -104 0
24 28 29 19 26 -105 0
24 28 29 19 26 -103 0
24 28 29 54 26 -137 0
24 28 29 54 26 -139 0
24 28 29 54 26 -138 0
24 28 29 54 26 -140 0
24 28 29 10 26 -78 0
24 28 29 10 26 -80 0
24 28 29 10 26 -77 0
24 28 29 10 26 -79 0
24 28 29 56 26 -141 0
24 28 29 56 26 -144 0
24 28 29 56 26 -142 0
24 28 29 56 26 -143 0
24 28 29 70 26 -145 0
24 28 29 70 26 -147 0
24 28 29 70 26 -146 0
24 28 29 70 26 -148 0
24 28 29 32 26 -130 0
24 28 29 32 26 -132 0
24 28 29 32 26 -129 0
24 28 29 32 26 -131 0
24 28 29 44 26 -134 0
24 28 29 44 26 -135 0
24 28 29 44 26 -136 0
24 28 29 44 26 -133 0
24 28 29 2 26 -27 0
24 28 29 2 26 -25 0
24 28 29 2 26 -30 0
24 28 29 2 26 -23 0
24 28 29 26 18 -106 0
24 28 29 26 18 -104 0
24 28 29 26 18 -105 0
24 28 29 26 18 -103 0
24 28 29 26 49 -137 0
24 28 29 26 49 -139 0
24 28 29 26 49 -138 0
24 28 29 26 49 -140 0
24 28 29 26 9 -78 0
24 28 29 26 9 -80 0
24 28 29 26 9 -77 0
24 28 29 26 9 -79 0
24 28 29 26 59 -141 0
24 28 29 26 59 -144 0
24 28 29 26 59 -142 0
24 28 29 26 59 -143 0
24 28 29 26 66 -145 0
24 28 29 26 66 -147 0
24 28 29 26 66 -146 0
24 28 29 26 66 -148 0
24 28 29 26 33 -130 0
24 28 29 26 33 -132 0
24 28 29 26 33 -129 0
24 28 29 26 33 -131 0
20 47 15 19 18 -117 0
20 47 15 19 18 -116 0
20 47 15 19 18 -115 0
20 47 15 19 18 -118 0
20 47 52 54 49 -117 0
20 47 52 54 49 -116 0
20 47 52 54 49 -115 0
20 47 52 54 49 -118 0
20 14 15 19 18 -76 0
20 14 15 19 18 -74 0
20 14 15 19 18 -75 0
20 14 15 19 18 -73 0
20 14 11 10 9 -76 0
20 14 11 10 9 -74 0
20 14 11 10 9 -75 0
20 14 11 10 9 -73 0
20 60 15 19 18 -121 0
20 60 15 19 18 -119 0
20 60 15 19 18 -120 0
20 60 15 19 18 -122 0
20 60 62 56 59 -121 0
20 60 62 56 59 -119 0
20 60 62 56 59 -120 0
20 60 62 56 59 -122 0
20 63 15 19 18 -125 0
20 63 15 19 18 -124 0
20 63 15 19 18 -126 0
20 63 15 19 18 -123 0
20 63 69 70 66 -125 0
20 63 69 70 66 -124 0
20 63 69 70 66 -126 0
20 63 69 70 66 -123 0
20 36 15 19 18 -110 0
20 36 15 19 18 -108 0
20 36 15 19 18 -109 0
20 36 15 19 18 -107 0
20 36 37 32 33 -110 0
20 36 37 32 33 -108 0
20 36 37 32 33 -109 0
20 36 37 32 33 -107 0
20 46 15 19 18 -114 0
20 46 15 19 18 -112 0
20 46 15 19 18 -111 0
20 46 15 19 18 -113 0
20 1 15 19 18 -16 0
20 1 15 19 18 -21 0
20 1 15 19 18 -17 0
20 1 15 19 18 -22 0
20 28 15 19 18 -106 0
20 28 15 19 18 -104 0
20 28 15 19 18 -105 0
20 28 15 19 18 -103 0
20 15 52 19 18 -117 0
20 15 52 19 18 -116 0
20 15 52 19 18 -115 0
20 15 52 19 18 -118 0
20 15 11 19 18 -76 0
20 15 11 19 18 -74 0
20 15 11 19 18 -75 0
20 15 11 19 18 -73 0
20 15 62 19 18 -121 0
20 15 62 19 18 -119 0
20 15 62 19 18 -120 0
20 15 62 19 18 -122 0
20 15 69 19 18 -125 0
20 15 69 19 18 -124 0
20 15 69 19 18 -126 0
20 15 69 19 18 -123 0
20 15 37 19 18 -110 0
20 15 37 19 18 -108 0
20 15 37 19 18 -109 0
20 15 37 19 18 -107 0
20 15 39 19 18 -114 0
20 15 39 19 18 -112 0
20 15 39 19 18 -111 0
20 15 39 19 18 -113 0
20 15 6 19 18 -16 0
20 15 6 19 18 -21 0
20 15 6 19 18 -17 0
20 15 6 19 18 -22 0
20 15 29 19 18 -106 0
20 15 29 19 18 -104 0
20 15 29 19 18 -105 0
20 15 29 19 18 -103 0
20 15 19 54 18 -117 0
20 15 19 54 18 -116 0
20 15 19 54 18 -115 0
20 15 19 54 18 -118 0
20 15 19 10 18 -76 0
20 15 19 10 18 -74 0
20 15 19 10 18 -75 0
20 15 19 10 18 -73 0
20 15 19 56 18 -121 0
20 15 19 56 18 -119 0
20 15 19 56 18 -120 0
20 15 19 56 18 -122 0
20 15 19 70 18 -125 0
20 15 19 70 18 -124 0
20 15 19 70 18 -126 0
20 15 19 70 18 -123 0
20 15 19 32 18 -110 0
20 15 19 32 18 -108 0
20 15 19 32 18 -109 0
20 15 19 32 18 -107 0
20 15 19 44 18 -114 0
20 15 19 44 18 -112 0
20 15 19 44 18 -111 0
20 15 19 44 18 -113 0
20 15 19 2 18 -16 0
20 15 19 2 18 -21 0
20 15 19 2 18 -17 0
20 15 19 2 18 -22 0
20 15 19 26 18 -106 0
20 15 19 26 18 -104 0
20 15 19 26 18 -105 0
20 15 19 26 18 -103 0
20 15 19 18 49 -117 0
20 15 19 18 49 -116 0
20 15 19 18 49 -115 0
20 15 19 18 49 -118 0
20 15 19 18 9 -76 0
20 15 19 18 9 -74 0
20 15 19 18 9 -75 0
20 15 19 18 9 -73 0
20 15 19 18 59 -121 0
20 15 19 18 59 -119 0
20 15 19 18 59 -120 0
20 15 19 18 59 -122 0
20 15 19 18 66 -125 0
20 15 19 18 66 -124 0
20 15 19 18 66 -126 0
20 15 19 18 66 -123 0
20 15 19 18 33 -110 0
20 15 19 18 33 -108 0
20 15 19 18 33 -109 0
20 15 19 18 33 -107 0
47 14 52 54 49 -90 0
47 14 52 54 49 -91 0
47 14 52 54 49 -89 0
47 14 52 54 49 -92 0
47 14 11 10 9 -90 0
47 14 11 10 9 -91 0
47 14 11 10 9 -89 0
47 14 11 10 9 -92 0
47 60 52 54 49 -184 0
47 60 52 54 49 -186 0
47 60 52 54 49 -183 0
47 60 52 54 49 -185 0
47 60 62 56 59 -184 0
47 60 62 56 59 -186 0
47 60 62 56 59 -183 0
47 60 62 56 59 -185 0
47 63 52 54 49 -190 0
47 63 52 54 49 -189 0
47 63 52 54 49 -188 0
47 63 52 54 49 -187 0
47 63 69 70 66 -190 0
47 63 69 70 66 -189 0
47 63 69 70 66 -188 0
47 63 69 70 66 -187 0
47 36 52 54 49 -158 0
47 36 52 54 49 -156 0
47 36 52 54 49 -155 0
47 36 52 54 49 -157 0
47 36 37 32 33 -158 0
47 36 37 32 33 -156 0
47 36 37 32 33 -155 0
47 36 37 32 33 -157 0
47 46 52 54 49 -170 0
47 46 52 54 49 -172 0
47 46 52 54 49 -171 0
47 46 52 54 49 -169 0
47 1 52 54 49 -53 0
47 1 52 54 49 -51 0
47 1 52 54 49 -48 0
47 1 52 54 49 -50 0
47 28 52 54 49 -137 0
47 28 52 54 49 -139 0
47 28 52 54 49 -138 0
47 28 52 54 49 -140 0
47 15 52 54 49 -117 0
47 15 52 54 49 -116 0
47 15 52 54 49 -115 0
47 15 52 54 49 -118 0
47 52 11 54 49 -90 0
47 52 11 54 49 -91 0
47 52 11 54 49 -89 0
47 52 11 54 49 -92 0
47 52 62 54 49 -184 0
47 52 62 54 49 -186 0
47 52 62 54 49 -183 0
47 52 62 54 49 -185 0
47 52 69 54 49 -190 0
47 52 69 54 49 -189 0
47 52 69 54 49 -188 0
47 52 69 54 49 -187 0
47 52 37 54 49 -158 0
47 52 37 54 49 -156 0
47 52 37 54 49 -155 0
47 52 37 54 49 -157 0
47 52 39 54 49 -170 0
47 52 39 54 49 -172 0
47 52 39 54 49 -171 0
47 52 39 54 49 -169 0
47 52 6 54 49 -53 0
47 52 6 54 49 -51 0
47 52 6 54 49 -48 0
47 52 6 54 49 -50 0
47 52 29 54 49 -137 0
47 52 29 54 49 -139 0
47 52 29 54 49 -138 0
47 52 29 54 49 -140 0
47 52 19 54 49 -117 0
47 52 19 54 49 -116 0
47 52 19 54 49 -115 0
47 52 19 54 49 -118 0
47 52 54 10 49 -90 0
47 52 54 10 49 -91 0
47 52 54 10 49 -89 0
47 52 54 10 49 -92 0
47 52 54 56 49 -184 0
47 52 54 56 49 -186 0
47 52 54 56 49 -183 0
47 52 54 56 49 -185 0
47 52 54 70 49 -190 0
47 52 54 70 49 -189 0
47 52 54 70 49 -188 0
47 52 54 70 49 -187 0
47 52 54 32 49 -158 0
47 52 54 32 49 -156 0
47 52 54 32 49 -155 0
47 52 54 32 49 -157 0
47 52 54 44 49 -170 0
47 52 54 44 49 -172 0
47 52 54 44 49 -171 0
47 52 54 44 49 -169 0
47 52 54 2 49 -53 0
47 52 54 2 49 -51 0
47 52 54 2 49 -48 0
47 52 54 2 49 -50 0
47 52 54 26 49 -137 0
47 52 54 26 49 -139 0
47 52 54 26 49 -138 0
47 52 54 26 49 -140 0
47 52 54 18 49 -117 0
47 52 54 18 49 -116 0
47 52 54 18 49 -115 0
47 52 54 18 49 -118 0
47 52 54 49 9 -90 0
47 52 54 49 9 -91 0
47 52 54 49 9 -89 0
47 52 54 49 9 -92 0
47 52 54 49 59 -184 0
47 52 54 49 59 -186 0
47 52 54 49 59 -183 0
47 52 54 49 59 -185 0
47 52 54 49 66 -190 0
47 52 54 49 66 -189 0
47 52 54 49 66 -188 0
47 52 54 49 66 -187 0
47 52 54 49 33 -158 0
47 52 54 49 33 -156 0
47 52 54 49 33 -155 0
47 52 54 49 33 -157 0
14 60 11 10 9 -95 0
14 60 11 10 9 -93 0
14 60 11 10 9 -94 0
14 60 11 10 9 -96 0
14 60 62 56 59 -95 0
14 60 62 56 59 -93 0
14 60 62 56 59 -94 0
14 60 62 56 59 -96 0
14 63 11 10 9 -99 0
14 63 11 10 9 -100 0
14 63 11 10 9 -98 0
14 63 11 10 9 -97 0
14 63 69 70 66 -99 0
14 63 69 70 66 -100 0
14 63 69 70 66 -98 0
14 63 69 70 66 -97 0
14 36 11 10 9 -83 0
14 36 11 10 9 -82 0
14 36 11 10 9 -81 0
14 36 11 10 9 -84 0
14 36 37 32 33 -83 0
14 36 37 32 33 -82 0
14 36 37 32 33 -81 0
14 36 37 32 33 -84 0
14 46 11 10 9 -86 0
14 46 11 10 9 -87 0
14 46 11 10 9 -88 0
14 46 11 10 9 -85 0
14 1 11 10 9 -13 0
14 1 11 10 9 -7 0
14 1 11 10 9 -12 0
14 1 11 10 9 -8 0
14 28 11 10 9 -78 0
14 28 11 10 9 -80 0
14 28 11 10 9 -77 0
14 28 11 10 9 -79 0
14 15 11 10 9 -76 0
14 15 11 10 9 -74 0
14 15 11 10 9 -75 0
14 15 11 10 9 -73 0
14 52 11 10 9 -90 0
14 52 11 10 9 -91 0
14 52 11 10 9 -89 0
14 52 11 10 9 -92 0
14 11 62 10 9 -95 0
14 11 62 10 9 -93 0
14 11 62 10 9 -94 0
14 11 62 10 9 -96 0
14 11 69 10 9 -99 0
14 11 69 10 9 -100 0
14 11 69 10 9 -98 0
14 11 69 10 9 -97 0
14 11 37 10 9 -83 0
14 11 37 10 9 -82 0
14 11 37 10 9 -81 0
14 11 37 10 9 -84 0
14 11 39 10 9 -86 0
14 11 39 10 9 -87 0
14 11 39 10 9 -88 0
14 11 39 10 9 -85 0
14 11 6 10 9 -13 0
14 11 6 10 9 -7 0
14 11 6 10 9 -12 0
14 11 6 10 9 -8 0
14 11 29 10 9 -78 0
14 11 29 10 9 -80 0
14 11 29 10 9 -77 0
14 11 29 10 9 -79 0
14 11 19 10 9 -76 0
14 11 19 10 9 -74 0
14 11 19 10 9 -75 0
14 11 19 10 9 -73 0
14 11 54 10 9 -90 0
14 11 54 10 9 -91 0
14 11 54 10 9 -89 0
14 11 54 10 9 -92 0
14 11 10 56 9 -95 0
14 11 10 56 9 -93 0
14 11 10 56 9 -94 0
14 11 10 56 9 -96 0
14 11 10 70 9 -99 0
14 11 10 70 9 -100 0
14 11 10 70 9 -98 0
14 11 10 70 9 -97 0
14 11 10 32 9 -83 0
14 11 10 32 9 -82 0
14 11 10 32 9 -81 0
14 11 10 32 9 -84 0
14 11 10 44 9 -86 0
14 11 10 44 9 -87 0
14 11 10 44 9 -88 0
14 11 10 44 9 -85 0
14 11 10 2 9 -13 0
14 11 10 2 9 -7 0
14 11 10 2 9 -12 0
14 11 10 2 9 -8 0
14 11 10 26 9 -78 0
14 11 10 26 9 -80 0
14 11 10 26 9 -77 0
14 11 10 26 9 -79 0
14 11 10 18 9 -76 0
14 11 10 18 9 -74 0
14 11 10 18 9 -75 0
14 11 10 18 9 -73 0
14 11 10 49 9 -90 0
14 11 10 49 9 -91 0
14 11 10 49 9 -89 0
14 11 10 49 9 -92 0
14 11 10 9 59 -95 0
14 11 10 9 59 -93 0
14 11 10 9 59 -94 0
14 11 10 9 59 -96 0
14 11 10 9 66 -99 0
14 11 10 9 66 -100 0
14 11 10 9 66 -98 0
14 11 10 9 66 -97 0
14 11 10 9 33 -83 0
14 11 10 9 33 -82 0
14 11 10 9 33 -81 0
14 11 10 9 33 -84 0
60 63 62 56 59 -196 0
60 63 62 56 59 -195 0
60 63 62 56 59 -193 0
60 63 62 56 59 -194 0
60 63 69 70 66 -196 0
60 63 69 70 66 -195 0
60 63 69 70 66 -193 0
60 63 69 70 66 -194 0
60 36 62 56 59 -160 0
60 36 62 56 59 -162 0
60 36 62 56 59 -159 0
60 36 62 56 59 -161 0
60 36 37 32 33 -160 0
60 36 37 32 33 -162 0
60 36 37 32 33 -159 0
60 36 37 32 33 -161 0
60 46 62 56 59 -173 0
60 46 62 56 59 -174 0
60 46 62 56 59 -176 0
60 46 62 56 59 -175 0
60 1 62 56 59 -58 0
60 1 62 56 59 -57 0
60 1 62 56 59 -61 0
60 1 62 56 59 -55 0
60 28 62 56 59 -141 0
60 28 62 56 59 -144 0
60 28 62 56 59 -142 0
60 28 62 56 59 -143 0
60 15 62 56 59 -121 0
60 15 62 56 59 -119 0
60 15 62 56 59 -120 0
60 15 62 56 59 -122 0
60 52 62 56 59 -184 0
60 52 62 56 59 -186 0
60 52 62 56 59 -183 0
60 52 62 56 59 -185 0
60 11 62 56 59 -95 0
60 11 62 56 59 -93 0
60 11 62 56 59 -94 0
60 11 62 56 59 -96 0
60 62 69 56 59 -196 0
60 62 69 56 59 -195 0
60 62 69 56 59 -193 0
60 62 69 56 59 -194 0
60 62 37 56 59 -160 0
60 62 37 56 59 -162 0
60 62 37 56 59 -159 0
60 62 37 56 59 -161 0
60 62 39 56 59 -173 0
60 62 39 56 59 -174 0
60 62 39 56 59 -176 0
60 62 39 56 59 -175 0
60 62 6 56 59 -58 0
60 62 6 56 59 -57 0
60 62 6 56 59 -61 0
60 62 6 56 59 -55 0
60 62 29 56 59 -141 0
60 62 29 56 59 -144 0
60 62 29 56 59 -142 0
60 62 29 56 59 -143 0
60 62 19 56 59 -121 0
60 62 19 56 59 -119 0
60 62 19 56 59 -120 0
60 62 19 56 59 -122 0
60 62 54 56 59 -184 0
60 62 54 56 59 -186 0
60 62 54 56 59 -183 0
60 62 54 56 59 -185 0
60 62 10 56 59 -95 0
60 62 10 56 59 -93 0
60 62 10 56 59 -94 0
60 62 10 56 59 -96 0
60 62 56 70 59 -196 0
60 62 56 70 59 -195 0
60 62 56 70 59 -193 0
60 62 56 70 59 -194 0
60 62 56 32 59 -160 0
60 62 56 32 59 -162 0
60 62 56 32 59 -159 0
60 62 56 32 59 -161 0
60 62 56 44 59 -173 0
60 62 56 44 59 -174 0
60 62 56 44 59 -176 0
60 62 56 44 59 -175 0
60 62 56 2 59 -58 0
60 62 56 2 59 -57 0
60 62 56 2 59 -61 0
60 62 56 2 59 -55 0
60 62 56 26 59 -141 0
60 62 56 26 59 -144 0
60 62 56 26 59 -142 0
60 62 56 26 59 -143 0
60 62 56 18 59 -121 0
60 62 56 18 59 -119 0
60 62 56 18 59 -120 0
60 62 56 18 59 -122 0
60 62 56 49 59 -184 0
60 62 56 49 59 -186 0
60 62 56 49 59 -183 0
60 62 56 49 59 -185 0
60 62 56 9 59 -95 0
60 62 56 9 59 -93 0
60 62 56 9 59 -94 0
60 62 56 9 59 -96 0
60 62 56 59 66 -196 0
60 62 56 59 66 -195 0
60 62 56 59 66 -193 0
60 62 56 59 66 -194 0
60 62 56 59 33 -160 0
60 62 56 59 33 -162 0
60 62 56 59 33 -159 0
60 62 56 59 33 -161 0
63 36 69 70 66 -166 0
63 36 69 70 66 -163 0
63 36 69 70 66 -164 0
63 36 69 70 66 -165 0
63 36 37 32 33 -166 0
63 36 37 32 33 -163 0
63 36 37 32 33 -164 0
63 36 37 32 33 -165 0
63 46 69 70 66 -178 0
63 46 69 70 66 -177 0
63 46 69 70 66 -180 0
63 46 69 70 66 -179 0
63 1 69 70 66 -68 0
63 1 69 70 66 -67 0
63 1 69 70 66 -65 0
63 1 69 70 66 -64 0
63 28 69 70 66 -145 0
63 28 69 70 66 -147 0
63 28 69 70 66 -146 0
63 28 69 70 66 -148 0
63 15 69 70 66 -125 0
63 15 69 70 66 -124 0
63 15 69 70 66 -126 0
63 15 69 70 66 -123 0
63 52 69 70 66 -190 0
63 52 69 70 66 -189 0
63 52 69 70 66 -188 0
63 52 69 70 66 -187 0
63 11 69 70 66 -99 0
63 11 69 70 66 -100 0
63 11 69 70 66 -98 0
63 11 69 70 66 -97 0
63 62 69 70 66 -196 0
63 62 69 70 66 -195 0
63 62 69 70 66 -193 0
63 62 69 70 66 -194 0
63 69 37 70 66 -166 0
63 69 37 70 66 -163 0
63 69 37 70 66 -164 0
63 69 37 70 66 -165 0
63 69 39 70 66 -178 0
63 69 39 70 66 -177 0
63 69 39 70 66 -180 0
63 69 39 70 66 -179 0
63 69 6 70 66 -68 0
63 69 6 70 66 -67 0
63 69 6 70 66 -65 0
63 69 6 70 66 -64 0
63 69 29 70 66 -145 0
63 69 29 70 66 -147 0
63 69 29 70 66 -146 0
63 69 29 70 66 -148 0
63 69 19 70 66 -125 0
63 69 19 70 66 -124 0
63 69 19 70 66 -126 0
63 69 19 70 66 -123 0
63 69 54 70 66 -190 0
63 69 54 70 66 -189 0
63 69 54 70 66 -188 0
63 69 54 70 66 -187 0
63 69 10 70 66 -99 0
63 69 10 70 66 -100 0
63 69 10 70 66 -98 0
63 69 10 70 66 -97 0
63 69 56 70 66 -196 0
63 69 56 70 66 -195 0
63 69 56 70 66 -193 0
63 69 56 70 66 -194 0
63 69 70 32 66 -166 0
63 69 70 32 66 -163 0
63 69 70 32 66 -164 0
63 69 70 32 66 -165 0
63 69 70 44 66 -178 0
63 69 70 44 66 -177 0
63 69 70 44 66 -180 0
63 69 70 44 66 -179 0
63 69 70 2 66 -68 0
63 69 70 2 66 -67 0
63 69 70 2 66 -65 0
63 69 70 2 66 -64 0
63 69 70 26 66 -145 0
63 69 70 26 66 -147 0
63 69 70 26 66 -146 0
63 69 70 26 66 -148 0
63 69 70 18 66 -125 0
63 69 70 18 66 -124 0
63 69 70 18 66 -126 0
63 69 70 18 66 -123 0
63 69 70 49 66 -190 0
63 69 70 49 66 -189 0
63 69 70 49 66 -188 0
63 69 70 49 66 -187 0
63 69 70 9 66 -99 0
63 69 70 9 66 -100 0
63 69 70 9 66 -98 0
63 69 70 9 66 -97 0
63 69 70 59 66 -196 0
63 69 70 59 66 -195 0
63 69 70 59 66 -193 0
63 69 70 59 66 -194 0
63 69 70 66 33 -166 0
63 69 70 66 33 -163 0
63 69 70 66 33 -164 0
63 69 70 66 33 -165 0
36 46 37 32 33 -151 0
36 46 37 32 33 -154 0
36 46 37 32 33 -153 0
36 46 37 32 33 -152 0
36 1 37 32 33 -31 0
36 1 37 32 33 -38 0
36 1 37 32 33 -35 0
36 1 37 32 33 -34 0
36 28 37 32 33 -130 0
36 28 37 32 33 -132 0
36 28 37 32 33 -129 0
36 28 37 32 33 -131 0
36 15 37 32 33 -110 0
36 15 37 32 33 -108 0
36 15 37 32 33 -109 0
36 15 37 32 33 -107 0
36 52 37 32 33 -158 0
36 52 37 32 33 -156 0
36 52 37 32 33 -155 0
36 52 37 32 33 -157 0
36 11 37 32 33 -83 0
36 11 37 32 33 -82 0
36 11 37 32 33 -81 0
36 11 37 32 33 -84 0
36 62 37 32 33 -160 0
36 62 37 32 33 -162 0
36 62 37 32 33 -159 0
36 62 37 32 33 -161 0
36 69 37 32 33 -166 0
36 69 37 32 33 -163 0
36 69 37 32 33 -164 0
36 69 37 32 33 -165 0
36 37 39 32 33 -151 0
36 37 39 32 33 -154 0
36 37 39 32 33 -153 0
36 37 39 32 33 -152 0
36 37 6 32 33 -31 0
36 37 6 32 33 -38 0
36 37 6 32 33 -35 0
36 37 6 32 33 -34 0
36 37 29 32 33 -130 0
36 37 29 32 33 -132 0
36 37 29 32 33 -129 0
36 37 29 32 33 -131 0
36 37 19 32 33 -110 0
36 37 19 32 33 -108 0
36 37 19 32 33 -109 0
36 37 19 32 33 -107 0
36 37 54 32 33 -158 0
36 37 54 32 33 -156 0
36 37 54 32 33 -155 0
36 37 54 32 33 -157 0
36 37 10 32 33 -83 0
36 37 10 32 33 -82 0
36 37 10 32 33 -81 0
36 37 10 32 33 -84 0
36 37 56 32 33 -160 0
36 37 56 32 33 -162 0
36 37 56 32 33 -159 0
36 37 56 32 33 -161 0
36 37 70 32 33 -166 0
36 37 70 32 33 -163 0
36 37 70 32 33 -164 0
36 37 70 32 33 -165 0
36 37 32 44 33 -151 0
36 37 32 44 33 -154 0
36 37 32 44 33 -153 0
36 37 32 44 33 -152 0
36 37 32 2 33 -31 0
36 37 32 2 33 -38 0
36 37 32 2 33 -35 0
36 37 32 2 33 -34 0
36 37 32 26 33 -130 0
36 37 32 26 33 -132 0
36 37 32 26 33 -129 0
36 37 32 26 33 -131 0
36 37 32 18 33 -110 0
36 37 32 18 33 -108 0
36 37 32 18 33 -109 0
36 37 32 18 33 -107 0
36 37 32 49 33 -158 0
36 37 32 49 33 -156 0
36 37 32 49 33 -155 0
36 37 32 49 33 -157 0
36 37 32 9 33 -83 0
36 37 32 9 33 -82 0
36 37 32 9 33 -81 0
36 37 32 9 33 -84 0
36 37 32 59 33 -160 0
36 37 32 59 33 -162 0
36 37 32 59 33 -159 0
36 37 32 59 33 -161 0
36 37 32 66 33 -166 0
36 37 32 66 33 -163 0
36 37 32 66 33 -164 0
36 37 32 66 33 -165 0
45 3 46 1 39 6 -40 0
45 3 46 1 39 6 -42 0
45 3 46 1 39 6 -43 0
45 3 46 1 39 6 -41 0
45 3 46 1 39 44 -40 0
45 3 46 1 39 44 -42 0
45 3 46 1 39 44 -43 0
45 3 46 1 39 44 -41 0
45 3 46 1 6 2 -40 0
45 3 46 1 6 2 -42 0
45 3 46 1 6 2 -43 0
45 3 46 1 6 2 -41 0
45 3 46 1 44 2 -40 0
45 3 46 1 44 2 -42 0
45 3 46 1 44 2 -43 0
45 3 46 1 44 2 -41 0
45 3 46 39 6 44 -40 0
45 3 46 39 6 44 -42 0
45 3 46 39 6 44 -43 0
45 3 46 39 6 44 -41 0
45 3 46 39 44 2 -40 0
45 3 46 39 44 2 -42 0
45 3 46 39 44 2 -43 0
45 3 46 39 44 2 -41 0
45 3 1 39 6 2 -40 0
45 3 1 39 6 2 -42 0
45 3 1 39 6 2 -43 0
45 3 1 39 6 2 -41 0
45 3 1 6 44 2 -40 0
45 3 1 6 44 2 -42 0
45 3 1 6 44 2 -43 0
45 3 1 6 44 2 -41 0
45 3 39 6 44 2 -40 0
45 3 39 6 44 2 -42 0
45 3 39 6 44 2 -43 0
45 3 39 6 44 2 -41 0
45 24 46 28 39 29 -134 0
45 24 46 28 39 29 -135 0
45 24 46 28 39 29 -136 0
45 24 46 28 39 29 -133 0
45 24 46 28 39 44 -134 0
45 24 46 28 39 44 -135 0
45 24 46 28 39 44 -136 0
45 24 46 28 39 44 -133 0
45 24 46 28 29 26 -134 0
45 24 46 28 29 26 -135 0
45 24 46 28 29 26 -136 0
45 24 46 28 29 26 -133 0
45 24 46 28 44 26 -134 0
45 24 46 28 44 26 -135 0
45 24 46 28 44 26 -136 0
45 24 46 28 44 26 -133 0
45 24 46 39 29 44 -134 0
45 24 46 39 29 44 -135 0
45 24 46 39 29 44 -136 0
45 24 46 39 29 44 -133 0
45 24 46 39 44 26 -134 0
45 24 46 39 44 26 -135 0
45 24 46 39 44 26 -136 0
45 24 46 39 44 26 -133 0
45 24 28 39 29 26 -134 0
45 24 28 39 29 26 -135 0
45 24 28 39 29 26 -136 0
45 24 28 39 29 26 -133 0
45 24 28 29 44 26 -134 0
45 24 28 29 44 26 -135 0
45 24 28 29 44 26 -136 0
45 24 28 29 44 26 -133 0
45 24 39 29 44 26 -134 0
45 24 39 29 44 26 -135 0
45 24 39 29 44 26 -136 0
45 24 39 29 44 26 -133 0
45 20 46 15 39 19 -114 0
45 20 46 15 39 19 -112 0
45 20 46 15 39 19 -111 0
45 20 46 15 39 19 -113 0
45 20 46 15 39 44 -114 0
45 20 46 15 39 44 -112 0
45 20 46 15 39 44 -111 0
45 20 46 15 39 44 -113 0
45 20 46 15 19 18 -114 0
45 20 46 15 19 18 -112 0
45 20 46 15 19 18 -111 0
45 20 46 15 19 18 -113 0
45 20 46 15 44 18 -114 0
45 20 46 15 44 18 -112 0
45 20 46 15 44 18 -111 0
45 20 46 15 44 18 -113 0
45 20 46 39 19 44 -114 0
45 20 46 39 19 44 -112 0
45 20 46 39 19 44 -111 0
45 20 46 39 19 44 -113 0
45 20 46 39 44 18 -114 0
45 20 46 39 44 18 -112 0
45 20 46 39 44 18 -111 0
45 20 46 39 44 18 -113 0
45 20 15 39 19 18 -114 0
45 20 15 39 19 18 -112 0
45 20 15 39 19 18 -111 0
45 20 15 39 19 18 -113 0
45 20 15 19 44 18 -114 0
45 20 15 19 44 18 -112 0
45 20 15 19 44 18 -111 0
45 20 15 19 44 18 -113 0
45 20 39 19 44 18 -114 0
45 20 39 19 44 18 -112 0
45 20 39 19 44 18 -111 0
45 20 39 19 44 18 -113 0
45 47 46 52 39 54 -170 0
45 47 46 52 39 54 -172 0
45 47 46 52 39 54 -171 0
45 47 46 52 39 54 -169 0
45 47 46 52 39 44 -170 0
45 47 46 52 39 44 -172 0
45 47 46 52 39 44 -171 0
45 47 46 52 39 44 -169 0
45 47 46 52 54 49 -170 0
45 47 46 52 54 49 -172 0
45 47 46 52 54 49 -171 0
45 47 46 52 54 49 -169 0
45 47 46 52 44 49 -170 0
45 47 46 52 44 49 -172 0
45 47 46 52 44 49 -171 0
45 47 46 52 44 49 -169 0
45 47 46 39 54 44 -170 0
45 47 46 39 54 44 -172 0
45 47 46 39 54 44 -171 0
45 47 46 39 54 44 -169 0
45 47 46 39 44 49 -170 0
45 47 46 39 44 49 -172 0
45 47 46 39 44 49 -171 0
45 47 46 39 44 49 -169 0
45 47 52 39 54 49 -170 0
45 47 52 39 54 49 -172 0
45 47 52 39 54 49 -171 0
45 47 52 39 54 49 -169 0
45 47 52 54 44 49 -170 0
45 47 52 54 44 49 -172 0
45 47 52 54 44 49 -171 0
45 47 52 54 44 49 -169 0
45 47 39 54 44 49 -170 0
45 47 39 54 44 49 -172 0
45 47 39 54 44 49 -171 0
45 47 39 54 44 49 -169 0
45 14 46 11 39 10 -86 0
45 14 46 11 39 10 -87 0
45 14 46 11 39 10 -88 0
45 14 46 11 39 10 -85 0
45 14 46 11 39 44 -86 0
45 14 46 11 39 44 -87 0
45 14 46 11 39 44 -88 0
45 14 46 11 39 44 -85 0
45 14 46 11 10 9 -86 0
45 14 46 11 10 9 -87 0
45 14 46 11 10 9 -88 0
45 14 46 11 10 9 -85 0
45 14 46 11 44 9 -86 0
45 14 46 11 44 9 -87 0
45 14 46 11 44 9 -88 0
45 14 46 11 44 9 -85 0
45 14 46 39 10 44 -86 0
45 14 46 39 10 44 -87 0
45 14 46 39 10 44 -88 0
45 14 46 39 10 44 -85 0
45 14 46 39 44 9 -86 0
45 14 46 39 44 9 -87 0
45 14 46 39 44 9 -88 0
45 14 46 39 44 9 -85 0
45 14 11 39 10 9 -86 0
45 14 11 39 10 9 -87 0
45 14 11 39 10 9 -88 0
45 14 11 39 10 9 -85 0
45 14 11 10 44 9 -86 0
45 14 11 10 44 9 -87 0
45 14 11 10 44 9 -88 0
45 14 11 10 44 9 -85 0
45 14 39 10 44 9 -86 0
45 14 39 10 44 9 -87 0
45 14 39 10 44 9 -88 0
45 14 39 10 44 9 -85 0
45 60 46 62 39 56 -173 0
45 60 46 62 39 56 -174 0
45 60 46 62 39 56 -176 0
45 60 46 62 39 56 -175 0
45 60 46 62 39 44 -173 0
45 60 46 62 39 44 -174 0
45 60 46 62 39 44 -176 0
45 60 46 62 39 44 -175 0
45 60 46 62 56 59 -173 0
45 60 46 62 56 59 -174 0
45 60 46 62 56 59 -176 0
45 60 46 62 56 59 -175 0
45 60 46 62 44 59 -173 0
45 60 46 62 44 59 -174 0
45 60 46 62 44 59 -176 0
45 60 46 62 44 59 -175 0
45 60 46 39 56 44 -173 0
45 60 46 39 56 44 -174 0
45 60 46 39 56 44 -176 0
45 60 46 39 56 44 -175 0
45 60 46 39 44 59 -173 0
45 60 46 39 44 59 -174 0
45 60 46 39 44 59 -176 0
45 60 46 39 44 59 -175 0
45 60 62 39 56 59 -173 0
45 60 62 39 56 59 -174 0
45 60 62 39 56 59 -176 0
45 60 62 39 56 59 -175 0
45 60 62 56 44 59 -173 0
45 60 62 56 44 59 -174 0
45 60 62 56 44 59 -176 0
45 60 62 56 44 59 -175 0
45 60 39 56 44 59 -173 0
45 60 39 56 44 59 -174 0
45 60 39 56 44 59 -176 0
45 60 39 56 44 59 -175 0
45 63 46 69 39 70 -178 0
45 63 46 69 39 70 -177 0
45 63 46 69 39 70 -180 0
45 63 46 69 39 70 -179 0
45 63 46 69 39 44 -178 0
45 63 46 69 39 44 -177 0
45 63 46 69 39 44 -180 0
45 63 46 69 39 44 -179 0
45 63 46 69 70 66 -178 0
45 63 46 69 70 66 -177 0
45 63 46 69 70 66 -180 0
45 63 46 69 70 66 -179 0
45 63 46 69 44 66 -178 0
45 63 46 69 44 66 -177 0
45 63 46 69 44 66 -180 0
45 63 46 69 44 66 -179 0
45 63 46 39 70 44 -178 0
45 63 46 39 70 44 -177 0
45 63 46 39 70 44 -180 0
45 63 46 39 70 44 -179 0
45 63 46 39 44 66 -178 0
45 63 46 39 44 66 -177 0
45 63 46 39 44 66 -180 0
45 63 46 39 44 66 -179 0
45 63 69 39 70 66 -178 0
45 63 69 39 70 66 -177 0
45 63 69 39 70 66 -180 0
45 63 69 39 70 66 -179 0
45 63 69 70 44 66 -178 0
45 63 69 70 44 66 -177 0
45 63 69 70 44 66 -180 0
45 63 69 70 44 66 -179 0
45 63 39 70 44 66 -178 0
45 63 39 70 44 66 -177 0
45 63 39 70 44 66 -180 0
45 63 39 70 44 66 -179 0
45 36 46 37 39 32 -151 0
45 36 46 37 39 32 -154 0
45 36 46 37 39 32 -153 0
45 36 46 37 39 32 -152 0
45 36 46 37 39 44 -151 0
45 36 46 37 39 44 -154 0
45 36 46 37 39 44 -153 0
45 36 46 37 39 44 -152 0
45 36 46 37 32 33 -151 0
45 36 46 37 32 33 -154 0
45 36 46 37 32 33 -153 0
45 36 46 37 32 33 -152 0
45 36 46 37 44 33 -151 0
45 36 46 37 44 33 -154 0
45 36 46 37 44 33 -153 0
45 36 46 37 44 33 -152 0
45 36 46 39 32 44 -151 0
45 36 46 39 32 44 -154 0
45 36 46 39 32 44 -153 0
45 36 46 39 32 44 -152 0
45 36 46 39 44 33 -151 0
45 36 46 39 44 33 -154 0
45 36 46 39 44 33 -153 0
45 36 46 39 44 33 -152 0
45 36 37 39 32 33 -151 0
45 36 37 39 32 33 -154 0
45 36 37 39 32 33 -153 0
45 36 37 39 32 33 -152 0
45 36 37 32 44 33 -151 0
45 36 37 32 44 33 -154 0
45 36 37 32 44 33 -153 0
45 36 37 32 44 33 -152 0
45 36 39 32 44 33 -151 0
45 36 39 32 44 33 -154 0
45 36 39 32 44 33 -153 0
45 36 39 32 44 33 -152 0
45 46 1 39 6 44 -40 0
45 46 1 39 6 44 -42 0
45 46 1 39 6 44 -43 0
45 46 1 39 6 44 -41 0
45 46 1 39 44 2 -40 0
45 46 1 39 44 2 -42 0
45 46 1 39 44 2 -43 0
45 46 1 39 44 2 -41 0
45 46 28 39 29 44 -134 0
45 46 28 39 29 44 -135 0
45 46 28 39 29 44 -136 0
45 46 28 39 29 44 -133 0
45 46 28 39 44 26 -134 0
45 46 28 39 44 26 -135 0
45 46 28 39 44 26 -136 0
45 46 28 39 44 26 -133 0
45 46 15 39 19 44 -114 0
45 46 15 39 19 44 -112 0
45 46 15 39 19 44 -111 0
45 46 15 39 19 44 -113 0
45 46 15 39 44 18 -114 0
45 46 15 39 44 18 -112 0
45 46 15 39 44 18 -111 0
45 46 15 39 44 18 -113 0
45 46 52 39 54 44 -170 0
45 46 52 39 54 44 -172 0
45 46 52 39 54 44 -171 0
45 46 52 39 54 44 -169 0
45 46 52 39 44 49 -170 0
45 46 52 39 44 49 -172 0
45 46 52 39 44 49 -171 0
45 46 52 39 44 49 -169 0
45 46 11 39 10 44 -86 0
45 46 11 39 10 44 -87 0
45 46 11 39 10 44 -88 0
45 46 11 39 10 44 -85 0
45 46 11 39 44 9 -86 0
45 46 11 39 44 9 -87 0
45 46 11 39 44 9 -88 0
45 46 11 39 44 9 -85 0
45 46 62 39 56 44 -173 0
45 46 62 39 56 44 -174 0
45 46 62 39 56 44 -176 0
45 46 62 39 56 44 -175 0
45 46 62 39 44 59 -173 0
45 46 62 39 44 59 -174 0
45 46 62 39 44 59 -176 0
45 46 62 39 44 59 -175 0
45 46 69 39 70 44 -178 0
45 46 69 39 70 44 -177 0
45 46 69 39 70 44 -180 0
45 46 69 39 70 44 -179 0
45 46 69 39 44 66 -178 0
45 46 69 39 44 66 -177 0
45 46 69 39 44 66 -180 0
45 46 69 39 44 66 -179 0
45 46 37 39 32 44 -151 0
45 46 37 39 32 44 -154 0
45 46 37 39 32 44 -153 0
45 46 37 39 32 44 -152 0
45 46 37 39 44 33 -151 0
45 46 37 39 44 33 -154 0
45 46 37 39 44 33 -153 0
45 46 37 39 44 33 -152 0
45 46 39 6 44 2 -40 0
45 46 39 6 44 2 -42 0
45 46 39 6 44 2 -43 0
45 46 39 6 44 2 -41 0
45 46 39 29 44 26 -134 0
45 46 39 29 44 26 -135 0
45 46 39 29 44 26 -136 0
45 46 39 29 44 26 -133 0
45 46 39 19 44 18 -114 0
45 46 39 19 44 18 -112 0
45 46 39 19 44 18 -111 0
45 46 39 19 44 18 -113 0
45 46 39 54 44 49 -170 0
45 46 39 54 44 49 -172 0
45 46 39 54 44 49 -171 0
45 46 39 54 44 49 -169 0
45 46 39 10 44 9 -86 0
45 46 39 10 44 9 -87 0
45 46 39 10 44 9 -88 0
45 46 39 10 44 9 -85 0
45 46 39 56 44 59 -173 0
45 46 39 56 44 59 -174 0
45 46 39 56 44 59 -176 0
45 46 39 56 44 59 -175 0
45 46 39 70 44 66 -178 0
45 46 39 70 44 66 -177 0
45 46 39 70 44 66 -180 0
45 46 39 70 44 66 -179 0
45 46 39 32 44 33 -151 0
45 46 39 32 44 33 -154 0
45 46 39 32 44 33 -153 0
45 46 39 32 44 33 -152 0
3 24 1 28 6 29 -27 0
3 24 1 28 6 29 -25 0
3 24 1 28 6 29 -30 0
3 24 1 28 6 29 -23 0
3 24 1 28 6 2 -27 0
3 24 1 28 6 2 -25 0
3 24 1 28 6 2 -30 0
3 24 1 28 6 2 -23 0
3 24 1 28 29 26 -27 0
3 24 1 28 29 26 -25 0
3 24 1 28 29 26 -30 0
3 24 1 28 29 26 -23 0
3 24 1 28 2 26 -27 0
3 24 1 28 2 26 -25 0
3 24 1 28 2 26 -30 0
3 24 1 28 2 26 -23 0
3 24 1 6 29 2 -27 0
3 24 1 6 29 2 -25 0
3 24 1 6 29 2 -30 0
3 24 1 6 29 2 -23 0
3 24 1 6 2 26 -27 0
3 24 1 6 2 26 -25 0
3 24 1 6 2 26 -30 0
3 24 1 6 2 26 -23 0
3 24 28 6 29 26 -27 0
3 24 28 6 29 26 -25 0
3 24 28 6 29 26 -30 0
3 24 28 6 29 26 -23 0
3 24 28 29 2 26 -27 0
3 24 28 29 2 26 -25 0
3 24 28 29 2 26 -30 0
3 24 28 29 2 26 -23 0
3 24 6 29 2 26 -27 0
3 24 6 29 2 26 -25 0
3 24 6 29 2 26 -30 0
3 24 6 29 2 26 -23 0
3 20 1 15 6 19 -16 0
3 20 1 15 6 19 -21 0
3 20 1 15 6 19 -17 0
3 20 1 15 6 19 -22 0
3 20 1 15 6 2 -16 0
3 20 1 15 6 2 -21 0
3 20 1 15 6 2 -17 0
3 20 1 15 6 2 -22 0
3 20 1 15 19 18 -16 0
3 20 1 15 19 18 -21 0
3 20 1 15 19 18 -17 0
3 20 1 15 19 18 -22 0
3 20 1 15 2 18 -16 0
3 20 1 15 2 18 -21 0
3 20 1 15 2 18 -17 0
3 20 1 15 2 18 -22 0
3 20 1 6 19 2 -16 0
3 20 1 6 19 2 -21 0
3 20 1 6 19 2 -17 0
3 20 1 6 19 2 -22 0
3 20 1 6 2 18 -16 0
3 20 1 6 2 18 -21 0
3 20 1 6 2 18 -17 0
3 20 1 6 2 18 -22 0
3 20 15 6 19 18 -16 0
3 20 15 6 19 18 -21 0
3 20 15 6 19 18 -17 0
3 20 15 6 19 18 -22 0
3 20 15 19 2 18 -16 0
3 20 15 19 2 18 -21 0
3 20 15 19 2 18 -17 0
3 20 15 19 2 18 -22 0
3 20 6 19 2 18 -16 0
3 20 6 19 2 18 -21 0
3 20 6 19 2 18 -17 0
3 20 6 19 2 18 -22 0
3 47 1 52 6 54 -53 0
3 47 1 52 6 54 -51 0
3 47 1 52 6 54 -48 0
3 47 1 52 6 54 -50 0
3 47 1 52 6 2 -53 0
3 47 1 52 6 2 -51 0
3 47 1 52 6 2 -48 0
3 47 1 52 6 2 -50 0
3 47 1 52 54 49 -53 0
3 47 1 52 54 49 -51 0
3 47 1 52 54 49 -48 0
3 47 1 52 54 49 -50 0
3 47 1 52 2 49 -53 0
3 47 1 52 2 49 -51 0
3 47 1 52 2 49 -48 0
3 47 1 52 2 49 -50 0
3 47 1 6 54 2 -53 0
3 47 1 6 54 2 -51 0
3 47 1 6 54 2 -48 0
3 47 1 6 54 2 -50 0
3 47 1 6 2 49 -53 0
3 47 1 6 2 49 -51 0
3 47 1 6 2 49 -48 0
3 47 1 6 2 49 -50 0
3 47 52 6 54 49 -53 0
3 47 52 6 54 49 -51 0
3 47 52 6 54 49 -48 0
3 47 52 6 54 49 -50 0
3 47 52 54 2 49 -53 0
3 47 52 54 2 49 -51 0
3 47 52 54 2 49 -48 0
3 47 52 54 2 49 -50 0
3 47 6 54 2 49 -53 0
3 47 6 54 2 49 -51 0
3 47 6 54 2 49 -48 0
3 47 6 54 2 49 -50 0
3 14 1 11 6 10 -13 0
3 14 1 11 6 10 -7 0
3 14 1 11 6 10 -12 0
3 14 1 11 6 10 -8 0
3 14 1 11 6 2 -13 0
3 14 1 11 6 2 -7 0
3 14 1 11 6 2 -12 0
3 14 1 11 6 2 -8 0
3 14 1 11 10 9 -13 0
3 14 1 11 10 9 -7 0
3 14 1 11 10 9 -12 0
3 14 1 11 10 9 -8 0
3 14 1 11 2 9 -13 0
3 14 1 11 2 9 -7 0
3 14 1 11 2 9 -12 0
3 14 1 11 2 9 -8 0
3 14 1 6 10 2 -13 0
3 14 1 6 10 2 -7 0
3 14 1 6 10 2 -12 0
3 14 1 6 10 2 -8 0
3 14 1 6 2 9 -13 0
3 14 1 6 2 9 -7 0
3 14 1 6 2 9 -12 0
3 14 1 6 2 9 -8 0
3 14 11 6 10 9 -13 0
3 14 11 6 10 9 -7 0
3 14 11 6 10 9 -12 0
3 14 11 6 10 9 -8 0
3 14 11 10 2 9 -13 0
3 14 11 10 2 9 -7 0
3 14 11 10 2 9 -12 0
3 14 11 10 2 9 -8 0
3 14 6 10 2 9 -13 0
3 14 6 10 2 9 -7 0
3 14 6 10 2 9 -12 0
3 14 6 10 2 9 -8 0
3 60 1 62 6 56 -58 0
3 60 1 62 6 56 -57 0
3 60 1 62 6 56 -61 0
3 60 1 62 6 56 -55 0
3 60 1 62 6 2 -58 0
3 60 1 62 6 2 -57 0
3 60 1 62 6 2 -61 0
3 60 1 62 6 2 -55 0
3 60 1 62 56 59 -58 0
3 60 1 62 56 59 -57 0
3 60 1 62 56 59 -61 0
3 60 1 62 56 59 -55 0
3 60 1 62 2 59 -58 0
3 60 1 62 2 59 -57 0
3 60 1 62 2 59 -61 0
3 60 1 62 2 59 -55 0
3 60 1 6 56 2 -58 0
3 60 1 6 56 2 -57 0
3 60 1 6 56 2 -61 0
3 60 1 6 56 2 -55 0
3 60 1 6 2 59 -58 0
3 60 1 6 2 59 -57 0
3 60 1 6 2 59 -61 0
3 60 1 6 2 59 -55 0
3 60 62 6 56 59 -58 0
3 60 62 6 56 59 -57 0
3 60 62 6 56 59 -61 0
3 60 62 6 56 59 -55 0
3 60 62 56 2 59 -58 0
3 60 62 56 2 59 -57 0
3 60 62 56 2 59 -61 0
3 60 62 56 2 59 -55 0
3 60 6 56 2 59 -58 0
3 60 6 56 2 59 -57 0
3 60 6 56 2 59 -61 0
3 60 6 56 2 59 -55 0
3 63 1 69 6 70 -68 0
3 63 1 69 6 70 -67 0
3 63 1 69 6 70 -65 0
3 63 1 69 6 70 -64 0
3 63 1 69 6 2 -68 0
3 63 1 69 6 2 -67 0
3 63 1 69 6 2 -65 0
3 63 1 69 6 2 -64 0
3 63 1 69 70 66 -68 0
3 63 1 69 70 66 -67 0
3 63 1 69 70 66 -65 0
3 63 1 69 70 66 -64 0
3 63 1 69 2 66 -68 0
3 63 1 69 2 66 -67 0
3 63 1 69 2 66 -65 0
3 63 1 69 2 66 -64 0
3 63 1 6 70 2 -68 0
3 63 1 6 70 2 -67 0
3 63 1 6 70 2 -65 0
3 63 1 6 70 2 -64 0
3 63 1 6 2 66 -68 0
3 63 1 6 2 66 -67 0
3 63 1 6 2 66 -65 0
3 63 1 6 2 66 -64 0
3 63 69 6 70 66 -68 0
3 63 69 6 70 66 -67 0
3 63 69 6 70 66 -65 0
3 63 69 6 70 66 -64 0
3 63 69 70 2 66 -68 0
3 63 69 70 2 66 -67 0
3 63 69 70 2 66 -65 0
3 63 69 70 2 66 -64 0
3 63 6 70 2 66 -68 0
3 63 6 70 2 66 -67 0
3 63 6 70 2 66 -65 0
3 63 6 70 2 66 -64 0
3 36 1 37 6 32 -31 0
3 36 1 37 6 32 -38 0
3 36 1 37 6 32 -35 0
3 36 1 37 6 32 -34 0
3 36 1 37 6 2 -31 0
3 36 1 37 6 2 -38 0
3 36 1 37 6 2 -35 0
3 36 1 37 6 2 -34 0
3 36 1 37 32 33 -31 0
3 36 1 37 32 33 -38 0
3 36 1 37 32 33 -35 0
3 36 1 37 32 33 -34 0
3 36 1 37 2 33 -31 0
3 36 1 37 2 33 -38 0
3 36 1 37 2 33 -35 0
3 36 1 37 2 33 -34 0
3 36 1 6 32 2 -31 0
3 36 1 6 32 2 -38 0
3 36 1 6 32 2 -35 0
3 36 1 6 32 2 -34 0
3 36 1 6 2 33 -31 0
3 36 1 6 2 33 -38 0
3 36 1 6 2 33 -35 0
3 36 1 6 2 33 -34 0
3 36 37 6 32 33 -31 0
3 36 37 6 32 33 -38 0
3 36 37 6 32 33 -35 0
3 36 37 6 32 33 -34 0
3 36 37 32 2 33 -31 0
3 36 37 32 2 33 -38 0
3 36 37 32 2 33 -35 0
3 36 37 32 2 33 -34 0
3 36 6 32 2 33 -31 0
3 36 6 32 2 33 -38 0
3 36 6 32 2 33 -35 0
3 36 6 32 2 33 -34 0
3 46 1 39 6 2 -40 0
3 46 1 39 6 2 -42 0
3 46 1 39 6 2 -43 0
3 46 1 39 6 2 -41 0
3 46 1 6 44 2 -40 0
3 46 1 6 44 2 -42 0
3 46 1 6 44 2 -43 0
3 46 1 6 44 2 -41 0
3 1 28 6 29 2 -27 0
3 1 28 6 29 2 -25 0
3 1 28 6 29 2 -30 0
3 1 28 6 29 2 -23 0
3 1 28 6 2 26 -27 0
3 1 28 6 2 26 -25 0
3 1 28 6 2 26 -30 0
3 1 28 6 2 26 -23 0
3 1 15 6 19 2 -16 0
3 1 15 6 19 2 -21 0
3 1 15 6 19 2 -17 0
3 1 15 6 19 2 -22 0
3 1 15 6 2 18 -16 0
3 1 15 6 2 18 -21 0
3 1 15 6 2 18 -17 0
3 1 15 6 2 18 -22 0
3 1 52 6 54 2 -53 0
3 1 52 6 54 2 -51 0
3 1 52 6 54 2 -48 0
3 1 52 6 54 2 -50 0
3 1 52 6 2 49 -53 0
3 1 52 6 2 49 -51 0
3 1 52 6 2 49 -48 0
3 1 52 6 2 49 -50 0
3 1 11 6 10 2 -13 0
3 1 11 6 10 2 -7 0
3 1 11 6 10 2 -12 0
3 1 11 6 10 2 -8 0
3 1 11 6 2 9 -13 0
3 1 11 6 2 9 -7 0
3 1 11 6 2 9 -12 0
3 1 11 6 2 9 -8 0
3 1 62 6 56 2 -58 0
3 1 62 6 56 2 -57 0
3 1 62 6 56 2 -61 0
3 1 62 6 56 2 -55 0
3 1 62 6 2 59 -58 0
3 1 62 6 2 59 -57 0
3 1 62 6 2 59 -61 0
3 1 62 6 2 59 -55 0
3 1 69 6 70 2 -68 0
3 1 69 6 70 2 -67 0
3 1 69 6 70 2 -65 0
3 1 69 6 70 2 -64 0
3 1 69 6 2 66 -68 0
3 1 69 6 2 66 -67 0
3 1 69 6 2 66 -65 0
3 1 69 6 2 66 -64 0
3 1 37 6 32 2 -31 0
3 1 37 6 32 2 -38 0
3 1 37 6 32 2 -35 0
3 1 37 6 32 2 -34 0
3 1 37 6 2 33 -31 0
3 1 37 6 2 33 -38 0
3 1 37 6 2 33 -35 0
3 1 37 6 2 33 -34 0
3 1 39 6 44 2 -40 0
3 1 39 6 44 2 -42 0
3 1 39 6 44 2 -43 0
3 1 39 6 44 2 -41 0
3 1 6 29 2 26 -27 0
3 1 6 29 2 26 -25 0
3 1 6 29 2 26 -30 0
3 1 6 29 2 26 -23 0
3 1 6 19 2 18 -16 0
3 1 6 19 2 18 -21 0
3 1 6 19 2 18 -17 0
3 1 6 19 2 18 -22 0
3 1 6 54 2 49 -53 0
3 1 6 54 2 49 -51 0
3 1 6 54 2 49 -48 0
3 1 6 54 2 49 -50 0
3 1 6 10 2 9 -13 0
3 1 6 10 2 9 -7 0
3 1 6 10 2 9 -12 0
3 1 6 10 2 9 -8 0
3 1 6 56 2 59 -58 0
3 1 6 56 2 59 -57 0
3 1 6 56 2 59 -61 0
3 1 6 56 2 59 -55 0
3 1 6 70 2 66 -68 0
3 1 6 70 2 66 -67 0
3 1 6 70 2 66 -65 0
3 1 6 70 2 66 -64 0
3 1 6 32 2 33 -31 0
3 1 6 32 2 33 -38 0
3 1 6 32 2 33 -35 0
3 1 6 32 2 33 -34 0
24 20 28 15 29 19 -106 0
24 20 28 15 29 19 -104 0
24 20 28 15 29 19 -105 0
24 20 28 15 29 19 -103 0
24 20 28 15 29 26 -106 0
24 20 28 15 29 26 -104 0
24 20 28 15 29 26 -105 0
24 20 28 15 29 26 -103 0
24 20 28 15 19 18 -106 0
24 20 28 15 19 18 -104 0
24 20 28 15 19 18 -105 0
24 20 28 15 19 18 -103 0
24 20 28 15 26 18 -106 0
24 20 28 15 26 18 -104 0
24 20 28 15 26 18 -105 0
24 20 28 15 26 18 -103 0
24 20 28 29 19 26 -106 0
24 20 28 29 19 26 -104 0
24 20 28 29 19 26 -105 0
24 20 28 29 19 26 -103 0
24 20 28 29 26 18 -106 0
24 20 28 29 26 18 -104 0
24 20 28 29 26 18 -105 0
24 20 28 29 26 18 -103 0
24 20 15 29 19 18 -106 0
24 20 15 29 19 18 -104 0
24 20 15 29 19 18 -105 0
24 20 15 29 19 18 -103 0
24 20 15 19 26 18 -106 0
24 20 15 19 26 18 -104 0
24 20 15 19 26 18 -105 0
24 20 15 19 26 18 -103 0
24 20 29 19 26 18 -106 0
24 20 29 19 26 18 -104 0
24 20 29 19 26 18 -105 0
24 20 29 19 26 18 -103 0
24 47 28 52 29 54 -137 0
24 47 28 52 29 54 -139 0
24 47 28 52 29 54 -138 0
24 47 28 52 29 54 -140 0
24 47 28 52 29 26 -137 0
24 47 28 52 29 26 -139 0
24 47 28 52 29 26 -138 0
24 47 28 52 29 26 -140 0
24 47 28 52 54 49 -137 0
24 47 28 52 54 49 -139 0
24 47 28 52 54 49 -138 0
24 47 28 52 54 49 -140 0
24 47 28 52 26 49 -137 0
24 47 28 52 26 49 -139 0
24 47 28 52 26 49 -138 0
24 47 28 52 26 49 -140 0
24 47 28 29 54 26 -137 0
24 47 28 29 54 26 -139 0
24 47 28 29 54 26 -138 0
24 47 28 29 54 26 -140 0
24 47 28 29 26 49 -137 0
24 47 28 29 26 49 -139 0
24 47 28 29 26 49 -138 0
24 47 28 29 26 49 -140 0
24 47 52 29 54 49 -137 0
24 47 52 29 54 49 -139 0
24 47 52 29 54 49 -138 0
24 47 52 29 54 49 -140 0
24 47 52 54 26 49 -137 0
24 47 52 54 26 49 -139 0
24 47 52 54 26 49 -138 0
24 47 52 54 26 49 -140 0
24 47 29 54 26 49 -137 0
24 47 29 54 26 49 -139 0
24 47 29 54 26 49 -138 0
24 47 29 54 26 49 -140 0
24 14 28 11 29 10 -78 0
24 14 28 11 29 10 -80 0
24 14 28 11 29 10 -77 0
24 14 28 11 29 10 -79 0
24 14 28 11 29 26 -78 0
24 14 28 11 29 26 -80 0
24 14 28 11 29 26 -77 0
24 14 28 11 29 26 -79 0
24 14 28 11 10 9 -78 0
24 14 28 11 10 9 -80 0
24 14 28 11 10 9 -77 0
24 14 28 11 10 9 -79 0
24 14 28 11 26 9 -78 0
24 14 28 11 26 9 -80 0
24 14 28 11 26 9 -77 0
24 14 28 11 26 9 -79 0
24 14 28 29 10 26 -78 0
24 14 28 29 10 26 -80 0
24 14 28 29 10 26 -77 0
24 14 28 29 10 26 -79 0
24 14 28 29 26 9 -78 0
24 14 28 29 26 9 -80 0
24 14 28 29 26 9 -77 0
24 14 28 29 26 9 -79 0
24 14 11 29 10 9 -78 0
24 14 11 29 10 9 -80 0
24 14 11 29 10 9 -77 0
24 14 11 29 10 9 -79 0
24 14 11 10 26 9 -78 0
24 14 11 10 26 9 -80 0
24 14 11 10 26 9 -77 0
24 14 11 10 26 9 -79 0
24 14 29 10 26 9 -78 0
24 14 29 10 26 9 -80 0
24 14 29 10 26 9 -77 0
24 14 29 10 26 9 -79 0
24 60 28 62 29 56 -141 0
24 60 28 62 29 56 -144 0
24 60 28 62 29 56 -142 0
24 60 28 62 29 56 -143 0
24 60 28 62 29 26 -141 0
24 60 28 62 29 26 -144 0
24 60 28 62 29 26 -142 0
24 60 28 62 29 26 -143 0
24 60 28 62 56 59 -141 0
24 60 28 62 56 59 -144 0
24 60 28 62 56 59 -142 0
24 60 28 62 56 59 -143 0
24 60 28 62 26 59 -141 0
24 60 28 62 26 59 -144 0
24 60 28 62 26 59 -142 0
24 60 28 62 26 59 -143 0
24 60 28 29 56 26 -141 0
24 60 28 29 56 26 -144 0
24 60 28 29 56 26 -142 0
24 60 28 29 56 26 -143 0
24 60 28 29 26 59 -141 0
24 60 28 29 26 59 -144 0
24 60 28 29 26 59 -142 0
24 60 28 29 26 59 -143 0
24 60 62 29 56 59 -141 0
24 60 62 29 56 59 -144 0
24 60 62 29 56 59 -142 0
24 60 62 29 56 59 -143 0
24 60 62 56 26 59 -141 0
24 60 62 56 26 59 -144 0
24 60 62 56 26 59 -142 0
24 60 62 56 26 59 -143 0
24 60 29 56 26 59 -141 0
24 60 29 56 26 59 -144 0
24 60 29 56 26 59 -142 0
24 60 29 56 26 59 -143 0
24 63 28 69 29 70 -145 0
24 63 28 69 29 70 -147 0
24 63 28 69 29 70 -146 0
24 63 28 69 29 70 -148 0
24 63 28 69 29 26 -145 0
24 63 28 69 29 26 -147 0
24 63 28 69 29 26 -146 0
24 63 28 69 29 26 -148 0
24 63 28 69 70 66 -145 0
24 63 28 69 70 66 -147 0
24 63 28 69 70 66 -146 0
24 63 28 69 70 66 -148 0
24 63 28 69 26 66 -145 0
24 63 28 69 26 66 -147 0
24 63 28 69 26 66 -146 0
24 63 28 69 26 66 -148 0
24 63 28 29 70 26 -145 0
24 63 28 29 70 26 -147 0
24 63 28 29 70 26 -146 0
24 63 28 29 70 26 -148 0
24 63 28 29 26 66 -145 0
24 63 28 29 26 66 -147 0
24 63 28 29 26 66 -146 0
24 63 28 29 26 66 -148 0
24 63 69 29 70 66 -145 0
24 63 69 29 70 66 -147 0
24 63 69 29 70 66 -146 0
24 63 69 29 70 66 -148 0
24 63 69 70 26 66 -145 0
24 63 69 70 26 66 -147 0
24 63 69 70 26 66 -146 0
24 63 69 70 26 66 -148 0
24 63 29 70 26 66 -145 0
24 63 29 70 26 66 -147 0
24 63 29 70 26 66 -146 0
24 63 29 70 26 66 -148 0
24 36 28 37 29 32 -130 0
24 36 28 37 29 32 -132 0
24 36 28 37 29 32 -129 0
24 36 28 37 29 32 -131 0
24 36 28 37 29 26 -130 0
24 36 28 37 29 26 -132 0
24 36 28 37 29 26 -129 0
24 36 28 37 29 26 -131 0
24 36 28 37 32 33 -130 0
24 36 28 37 32 33 -132 0
24 36 28 37 32 33 -129 0
24 36 28 37 32 33 -131 0
24 36 28 37 26 33 -130 0
24 36 28 37 26 33 -132 0
24 36 28 37 26 33 -129 0
24 36 28 37 26 33 -131 0
24 36 28 29 32 26 -130 0
24 36 28 29 32 26 -132 0
24 36 28 29 32 26 -129 0
24 36 28 29 32 26 -131 0
24 36 28 29 26 33 -130 0
24 36 28 29 26 33 -132 0
24 36 28 29 26 33 -129 0
24 36 28 29 26 33 -131 0
24 36 37 29 32 33 -130 0
24 36 37 29 32 33 -132 0
24 36 37 29 32 33 -129 0
24 36 37 29 32 33 -131 0
24 36 37 32 26 33 -130 0
24 36 37 32 26 33 -132 0
24 36 37 32 26 33 -129 0
24 36 37 32 26 33 -131 0
24 36 29 32 26 33 -130 0
24 36 29 32 26 33 -132 0
24 36 29 32 26 33 -129 0
24 36 29 32 26 33 -131 0
24 46 28 39 29 26 -134 0
24 46 28 39 29 26 -135 0
24 46 28 39 29 26 -136 0
24 46 28 39 29 26 -133 0
24 46 28 29 44 26 -134 0
24 46 28 29 44 26 -135 0
24 46 28 29 44 26 -136 0
24 46 28 29 44 26 -133 0
24 1 28 6 29 26 -27 0
24 1 28 6 29 26 -25 0
24 1 28 6 29 26 -30 0
24 1 28 6 29 26 -23 0
24 1 28 29 2 26 -27 0
24 1 28 29 2 26 -25 0
24 1 28 29 2 26 -30 0
24 1 28 29 2 26 -23 0
24 28 15 29 19 26 -106 0
24 28 15 29 19 26 -104 0
24 28 15 29 19 26 -105 0
24 28 15 29 19 26 -103 0
24 28 15 29 26 18 -106 0
24 28 15 29 26 18 -104 0
24 28 15 29 26 18 -105 0
24 28 15 29 26 18 -103 0
24 28 52 29 54 26 -137 0
24 28 52 29 54 26 -139 0
24 28 52 29 54 26 -138 0
24 28 52 29 54 26 -140 0
24 28 52 29 26 49 -137 0
24 28 52 29 26 49 -139 0
24 28 52 29 26 49 -138 0
24 28 52 29 26 49 -140 0
24 28 11 29 10 26 -78 0
24 28 11 29 10 26 -80 0
24 28 11 29 10 26 -77 0
24 28 11 29 10 26 -79 0
24 28 11 29 26 9 -78 0
24 28 11 29 26 9 -80 0
24 28 11 29 26 9 -77 0
24 28 11 29 26 9 -79 0
24 28 62 29 56 26 -141 0
24 28 62 29 56 26 -144 0
24 28 62 29 56 26 -142 0
24 28 62 29 56 26 -143 0
24 28 62 29 26 59 -141 0
24 28 62 29 26 59 -144 0
24 28 62 29 26 59 -142 0
24 28 62 29 26 59 -143 0
24 28 69 29 70 26 -145 0
24 28 69 29 70 26 -147 0
24 28 69 29 70 26 -146 0
24 28 69 29 70 26 -148 0
24 28 69 29 26 66 -145 0
24 28 69 29 26 66 -147 0
24 28 69 29 26 66 -146 0
24 28 69 29 26 66 -148 0
24 28 37 29 32 26 -130 0
24 28 37 29 32 26 -132 0
24 28 37 29 32 26 -129 0
24 28 37 29 32 26 -131 0
24 28 37 29 26 33 -130 0
24 28 37 29 26 33 -132 0
24 28 37 29 26 33 -129 0
24 28 37 29 26 33 -131 0
24 28 39 29 44 26 -134 0
24 28 39 29 44 26 -135 0
24 28 39 29 44 26 -136 0
24 28 39 29 44 26 -133 0
24 28 6 29 2 26 -27 0
24 28 6 29 2 26 -25 0
24 28 6 29 2 26 -30 0
24 28 6 29 2 26 -23 0
24 28 29 19 26 18 -106 0
24 28 29 19 26 18 -104 0
24 28 29 19 26 18 -105 0
24 28 29 19 26 18 -103 0
24 28 29 54 26 49 -137 0
24 28 29 54 26 49 -139 0
24 28 29 54 26 49 -138 0
24 28 29 54 26 49 -140 0
24 28 29 10 26 9 -78 0
24 28 29 10 26 9 -80 0
24 28 29 10 26 9 -77 0
24 28 29 10 26 9 -79 0
24 28 29 56 26 59 -141 0
24 28 29 56 26 59 -144 0
24 28 29 56 26 59 -142 0
24 28 29 56 26 59 -143 0
24 28 29 70 26 66 -145 0
24 28 29 70 26 66 -147 0
24 28 29 70 26 66 -146 0
24 28 29 70 26 66 -148 0
24 28 29 32 26 33 -130 0
24 28 29 32 26 33 -132 0
24 28 29 32 26 33 -129 0
24 28 29 32 26 33 -131 0
20 47 15 52 19 54 -117 0
20 47 15 52 19 54 -116 0
20 47 15 52 19 54 -115 0
20 47 15 52 19 54 -118 0
20 47 15 52 19 18 -117 0
20 47 15 52 19 18 -116 0
20 47 15 52 19 18 -115 0
20 47 15 52 19 18 -118 0
20 47 15 52 54 49 -117 0
20 47 15 52 54 49 -116 0
20 47 15 52 54 49 -115 0
20 47 15 52 54 49 -118 0
20 47 15 52 18 49 -117 0
20 47 15 52 18 49 -116 0
20 47 15 52 18 49 -115 0
20 47 15 52 18 49 -118 0
20 47 15 19 54 18 -117 0
20 47 15 19 54 18 -116 0
20 47 15 19 54 18 -115 0
20 47 15 19 54 18 -118 0
20 47 15 19 18 49 -117 0
20 47 15 19 18 49 -116 0
20 47 15 19 18 49 -115 0
20 47 15 19 18 49 -118 0
20 47 52 19 54 49 -117 0
20 47 52 19 54 49 -116 0
20 47 52 19 54 49 -115 0
20 47 52 19 54 49 -118 0
20 47 52 54 18 49 -117 0
20 47 52 54 18 49 -116 0
20 47 52 54 18 49 -115 0
20 47 52 54 18 49 -118 0
20 47 19 54 18 49 -117 0
20 47 19 54 18 49 -116 0
20 47 19 54 18 49 -115 0
20 47 19 54 18 49 -118 0
20 14 15 11 19 10 -76 0
20 14 15 11 19 10 -74 0
20 14 15 11 19 10 -75 0
20 14 15 11 19 10 -73 0
20 14 15 11 19 18 -76 0
20 14 15 11 19 18 -74 0
20 14 15 11 19 18 -75 0
20 14 15 11 19 18 -73 0
20 14 15 11 10 9 -76 0
20 14 15 11 10 9 -74 0
20 14 15 11 10 9 -75 0
20 14 15 11 10 9 -73 0
20 14 15 11 18 9 -76 0
20 14 15 11 18 9 -74 0
20 14 15 11 18 9 -75 0
20 14 15 11 18 9 -73 0
20 14 15 19 10 18 -76 0
20 14 15 19 10 18 -74 0
20 14 15 19 10 18 -75 0
20 14 15 19 10 18 -73 0
20 14 15 19 18 9 -76 0
20 14 15 19 18 9 -74 0
20 14 15 19 18 9 -75 0
20 14 15 19 18 9 -73 0
20 14 11 19 10 9 -76 0
20 14 11 19 10 9 -74 0
20 14 11 19 10 9 -75 0
20 14 11 19 10 9 -73 0
20 14 11 10 18 9 -76 0
20 14 11 10 18 9 -74 0
20 14 11 10 18 9 -75 0
20 14 11 10 18 9 -73 0
20 14 19 10 18 9 -76 0
20 14 19 10 18 9 -74 0
20 14 19 10 18 9 -75 0
20 14 19 10 18 9 -73 0
20 60 15 62 19 56 -121 0
20 60 15 62 19 56 -119 0
20 60 15 62 19 56 -120 0
20 60 15 62 19 56 -122 0
20 60 15 62 19 18 -121 0
20 60 15 62 19 18 -119 0
20 60 15 62 19 18 -120 0
20 60 15 62 19 18 -122 0
20 60 15 62 56 59 -121 0
20 60 15 62 56 59 -119 0
20 60 15 62 56 59 -120 0
20 60 15 62 56 59 -122 0
20 60 15 62 18 59 -121 0
20 60 15 62 18 59 -119 0
20 60 15 62 18 59 -120 0
20 60 15 62 18 59 -122 0
20 60 15 19 56 18 -121 0
20 60 15 19 56 18 -119 0
20 60 15 19 56 18 -120 0
20 60 15 19 56 18 -122 0
20 60 15 19 18 59 -121 0
20 60 15 19 18 59 -119 0
20 60 15 19 18 59 -120 0
20 60 15 19 18 59 -122 0
20 60 62 19 56 59 -121 0
20 60 62 19 56 59 -119 0
20 60 62 19 56 59 -120 0
20 60 62 19 56 59 -122 0
20 60 62 56 18 59 -121 0
20 60 62 56 18 59 -119 0
20 60 62 56 18 59 -120 0
20 60 62 56 18 59 -122 0
20 60 19 56 18 59 -121 0
20 60 19 56 18 59 -119 0
20 60 19 56 18 59 -120 0
20 60 19 56 18 59 -122 0
20 63 15 69 19 70 -125 0
20 63 15 69 19 70 -124 0
20 63 15 69 19 70 -126 0
20 63 15 69 19 70 -123 0
20 63 15 69 19 18 -125 0
20 63 15 69 19 18 -124 0
20 63 15 69 19 18 -126 0
20 63 15 69 19 18 -123 0
20 63 15 69 70 66 -125 0
20 63 15 69 70 66 -124 0
20 63 15 69 70 66 -126 0
20 63 15 69 70 66 -123 0
20 63 15 69 18 66 -125 0
20 63 15 69 18 66 -124 0
20 63 15 69 18 66 -126 0
20 63 15 69 18 66 -123 0
20 63 15 19 70 18 -125 0
20 63 15 19 70 18 -124 0
20 63 15 19 70 18 -126 0
20 63 15 19 70 18 -123 0
20 63 15 19 18 66 -125 0
20 63 15 19 18 66 -124 0
20 63 15 19 18 66 -126 0
20 63 15 19 18 66 -123 0
20 63 69 19 70 66 -125 0
20 63 69 19 70 66 -124 0
20 63 69 19 70 66 -126 0
20 63 69 19 70 66 -123 0
20 63 69 70 18 66 -125 0
20 63 69 70 18 66 -124 0
20 63 69 70 18 66 -126 0
20 63 69 70 18 66 -123 0
20 63 19 70 18 66 -125 0
20 63 19 70 18 66 -124 0
20 63 19 70 18 66 -126 0
20 63 19 70 18 66 -123 0
20 36 15 37 19 32 -110 0
20 36 15 37 19 32 -108 0
20 36 15 37 19 32 -109 0
20 36 15 37 19 32 -107 0
20 36 15 37 19 18 -110 0
20 36 15 37 19 18 -108 0
20 36 15 37 19 18 -109 0
20 36 15 37 19 18 -107 0
20 36 15 37 32 33 -110 0
20 36 15 37 32 33 -108 0
20 36 15 37 32 33 -109 0
20 36 15 37 32 33 -107 0
20 36 15 37 18 33 -110 0
20 36 15 37 18 33 -108 0
20 36 15 37 18 33 -109 0
20 36 15 37 18 33 -107 0
20 36 15 19 32 18 -110 0
20 36 15 19 32 18 -108 0
20 36 15 19 32 18 -109 0
20 36 15 19 32 18 -107 0
20 36 15 19 18 33 -110 0
20 36 15 19 18 33 -108 0
20 36 15 19 18 33 -109 0
20 36 15 19 18 33 -107 0
20 36 37 19 32 33 -110 0
20 36 37 19 32 33 -108 0
20 36 37 19 32 33 -109 0
20 36 37 19 32 33 -107 0
20 36 37 32 18 33 -110 0
20 36 37 32 18 33 -108 0
20 36 37 32 18 33 -109 0
20 36 37 32 18 33 -107 0
20 36 19 32 18 33 -110 0
20 36 19 32 18 33 -108 0
20 36 19 32 18 33 -109 0
20 36 19 32 18 33 -107 0
20 46 15 39 19 18 -114 0
20 46 15 39 19 18 -112 0
20 46 15 39 19 18 -111 0
20 46 15 39 19 18 -113 0
20 46 15 19 44 18 -114 0
20 46 15 19 44 18 -112 0
20 46 15 19 44 18 -111 0
20 46 15 19 44 18 -113 0
20 1 15 6 19 18 -16 0
20 1 15 6 19 18 -21 0
20 1 15 6 19 18 -17 0
20 1 15 6 19 18 -22 0
20 1 15 19 2 18 -16 0
20 1 15 19 2 18 -21 0
20 1 15 19 2 18 -17 0
20 1 15 19 2 18 -22 0
20 28 15 29 19 18 -106 0
20 28 15 29 19 18 -104 0
20 28 15 29 19 18 -105 0
20 28 15 29 19 18 -103 0
20 28 15 19 26 18 -106 0
20 28 15 19 26 18 -104 0
20 28 15 19 26 18 -105 0
20 28 15 19 26 18 -103 0
20 15 52 19 54 18 -117 0
20 15 52 19 54 18 -116 0
20 15 52 19 54 18 -115 0
20 15 52 19 54 18 -118 0
20 15 52 19 18 49 -117 0
20 15 52 19 18 49 -116 0
20 15 52 19 18 49 -115 0
20 15 52 19 18 49 -118 0
20 15 11 19 10 18 -76 0
20 15 11 19 10 18 -74 0
20 15 11 19 10 18 -75 0
20 15 11 19 10 18 -73 0
20 15 11 19 18 9 -76 0
20 15 11 19 18 9 -74 0
20 15 11 19 18 9 -75 0
20 15 11 19 18 9 -73 0
20 15 62 19 56 18 -121 0
20 15 62 19 56 18 -119 0
20 15 62 19 56 18 -120 0
20 15 62 19 56 18 -122 0
20 15 62 19 18 59 -121 0
20 15 62 19 18 59 -119 0
20 15 62 19 18 59 -120 0
20 15 62 19 18 59 -122 0
20 15 69 19 70 18 -125 0
20 15 69 19 70 18 -124 0
20 15 69 19 70 18 -126 0
20 15 69 19 70 18 -123 0
20 15 69 19 18 66 -125 0
20 15 69 19 18 66 -124 0
20 15 69 19 18 66 -126 0
20 15 69 19 18 66 -123 0
20 15 37 19 32 18 -110 0
20 15 37 19 32 18 -108 0
20 15 37 19 32 18 -109 0
20 15 37 19 32 18 -107 0
20 15 37 19 18 33 -110 0
20 15 37 19 18 33 -108 0
20 15 37 19 18 33 -109 0
20 15 37 19 18 33 -107 0
20 15 39 19 44 18 -114 0
20 15 39 19 44 18 -112 0
20 15 39 19 44 18 -111 0
20 15 39 19 44 18 -113 0
20 15 6 19 2 18 -16 0
20 15 6 19 2 18 -21 0
20 15 6 19 2 18 -17 0
20 15 6 19 2 18 -22 0
20 15 29 19 26 18 -106 0
20 15 29 19 26 18 -104 0
20 15 29 19 26 18 -105 0
20 15 29 19 26 18 -103 0
20 15 19 54 18 49 -117 0
20 15 19 54 18 49 -116 0
20 15 19 54 18 49 -115 0
20 15 19 54 18 49 -118 0
20 15 19 10 18 9 -76 0
20 15 19 10 18 9 -74 0
20 15 19 10 18 9 -75 0
20 15 19 10 18 9 -73 0
20 15 19 56 18 59 -121 0
20 15 19 56 18 59 -119 0
20 15 19 56 18 59 -120 0
20 15 19 56 18 59 -122 0
20 15 19 70 18 66 -125 0
20 15 19 70 18 66 -124 0
20 15 19 70 18 66 -126 0
20 15 19 70 18 66 -123 0
20 15 19 32 18 33 -110 0
20 15 19 32 18 33 -108 0
20 15 19 32 18 33 -109 0
20 15 19 32 18 33 -107 0
47 14 52 11 54 10 -90 0
47 14 52 11 54 10 -91 0
47 14 52 11 54 10 -89 0
47 14 52 11 54 10 -92 0
47 14 52 11 54 49 -90 0
47 14 52 11 54 49 -91 0
47 14 52 11 54 49 -89 0
47 14 52 11 54 49 -92 0
47 14 52 11 10 9 -90 0
47 14 52 11 10 9 -91 0
47 14 52 11 10 9 -89 0
47 14 52 11 10 9 -92 0
47 14 52 11 49 9 -90 0
47 14 52 11 49 9 -91 0
47 14 52 11 49 9 -89 0
47 14 52 11 49 9 -92 0
47 14 52 54 10 49 -90 0
47 14 52 54 10 49 -91 0
47 14 52 54 10 49 -89 0
47 14 52 54 10 49 -92 0
47 14 52 54 49 9 -90 0
47 14 52 54 49 9 -91 0
47 14 52 54 49 9 -89 0
47 14 52 54 49 9 -92 0
47 14 11 54 10 9 -90 0
47 14 11 54 10 9 -91 0
47 14 11 54 10 9 -89 0
47 14 11 54 10 9 -92 0
47 14 11 10 49 9 -90 0
47 14 11 10 49 9 -91 0
47 14 11 10 49 9 -89 0
47 14 11 10 49 9 -92 0
47 14 54 10 49 9 -90 0
47 14 54 10 49 9 -91 0
47 14 54 10 49 9 -89 0
47 14 54 10 49 9 -92 0
47 60 52 62 54 56 -184 0
47 60 52 62 54 56 -186 0
47 60 52 62 54 56 -183 0
47 60 52 62 54 56 -185 0
47 60 52 62 54 49 -184 0
47 60 52 62 54 49 -186 0
47 60 52 62 54 49 -183 0
47 60 52 62 54 49 -185 0
47 60 52 62 56 59 -184 0
47 60 52 62 56 59 -186 0
47 60 52 62 56 59 -183 0
47 60 52 62 56 59 -185 0
47 60 52 62 49 59 -184 0
47 60 52 62 49 59 -186 0
47 60 52 62 49 59 -183 0
47 60 52 62 49 59 -185 0
47 60 52 54 56 49 -184 0
47 60 52 54 56 49 -186 0
47 60 52 54 56 49 -183 0
47 60 52 54 56 49 -185 0
47 60 52 54 49 59 -184 0
47 60 52 54 49 59 -186 0
47 60 52 54 49 59 -183 0
47 60 52 54 49 59 -185 0
47 60 62 54 56 59 -184 0
47 60 62 54 56 59 -186 0
47 60 62 54 56 59 -183 0
47 60 62 54 56 59 -185 0
47 60 62 56 49 59 -184 0
47 60 62 56 49 59 -186 0
47 60 62 56 49 59 -183 0
47 60 62 56 49 59 -185 0
47 60 54 56 49 59 -184 0
47 60 54 56 49 59 -186 0
47 60 54 56 49 59 -183 0
47 60 54 56 49 59 -185 0
47 63 52 69 54 70 -190 0
47 63 52 69 54 70 -189 0
47 63 52 69 54 70 -188 0
47 63 52 69 54 70 -187 0
47 63 52 69 54 49 -190 0
47 63 52 69 54 49 -189 0
47 63 52 69 54 49 -188 0
47 63 52 69 54 49 -187 0
47 63 52 69 70 66 -190 0
47 63 52 69 70 66 -189 0
47 63 52 69 70 66 -188 0
47 63 52 69 70 66 -187 0
47 63 52 69 49 66 -190 0
47 63 52 69 49 66 -189 0
47 63 52 69 49 66 -188 0
47 63 52 69 49 66 -187 0
47 63 52 54 70 49 -190 0
47 63 52 54 70 49 -189 0
47 63 52 54 70 49 -188 0
47 63 52 54 70 49 -187 0
47 63 52 54 49 66 -190 0
47 63 52 54 49 66 -189 0
47 63 52 54 49 66 -188 0
47 63 52 54 49 66 -187 0
47 63 69 54 70 66 -190 0
47 63 69 54 70 66 -189 0
47 63 69 54 70 66 -188 0
47 63 69 54 70 66 -187 0
47 63 69 70 49 66 -190 0
47 63 69 70 49 66 -189 0
47 63 69 70 49 66 -188 0
47 63 69 70 49 66 -187 0
47 63 54 70 49 66 -190 0
47 63 54 70 49 66 -189 0
47 63 54 70 49 66 -188 0
47 63 54 70 49 66 -187 0
47 36 52 37 54 32 -158 0
47 36 52 37 54 32 -156 0
47 36 52 37 54 32 -155 0
47 36 52 37 54 32 -157 0
47 36 52 37 54 49 -158 0
47 36 52 37 54 49 -156 0
47 36 52 37 54 49 -155 0
47 36 52 37 54 49 -157 0
47 36 52 37 32 33 -158 0
47 36 52 37 32 33 -156 0
47 36 52 37 32 33 -155 0
47 36 52 37 32 33 -157 0
47 36 52 37 49 33 -158 0
47 36 52 37 49 33 -156 0
47 36 52 37 49 33 -155 0
47 36 52 37 49 33 -157 0
47 36 52 54 32 49 -158 0
47 36 52 54 32 49 -156 0
47 36 52 54 32 49 -155 0
47 36 52 54 32 49 -157 0
47 36 52 54 49 33 -158 0
47 36 52 54 49 33 -156 0
47 36 52 54 49 33 -155 0
47 36 52 54 49 33 -157 0
47 36 37 54 32 33 -158 0
47 36 37 54 32 33 -156 0
47 36 37 54 32 33 -155 0
47 36 37 54 32 33 -157 0
47 36 37 32 49 33 -158 0
47 36 37 32 49 33 -156 0
47 36 37 32 49 33 -155 0
47 36 37 32 49 33 -157 0
47 36 54 32 49 33 -158 0
47 36 54 32 49 33 -156 0
47 36 54 32 49 33 -155 0
47 36 54 32 49 33 -157 0
47 46 52 39 54 49 -170 0
47 46 52 39 54 49 -172 0
47 46 52 39 54 49 -171 0
47 46 52 39 54 49 -169 0
47 46 52 54 44 49 -170 0
47 46 52 54 44 49 -172 0
47 46 52 54 44 49 -171 0
47 46 52 54 44 49 -169 0
47 1 52 6 54 49 -53 0
47 1 52 6 54 49 -51 0
47 1 52 6 54 49 -48 0
47 1 52 6 54 49 -50 0
47 1 52 54 2 49 -53 0
47 1 52 54 2 49 -51 0
47 1 52 54 2 49 -48 0
47 1 52 54 2 49 -50 0
47 28 52 29 54 49 -137 0
47 28 52 29 54 49 -139 0
47 28 52 29 54 49 -138 0
47 28 52 29 54 49 -140 0
47 28 52 54 26 49 -137 0
47 28 52 54 26 49 -139 0
47 28 52 54 26 49 -138 0
47 28 52 54 26 49 -140 0
47 15 52 19 54 49 -117 0
47 15 52 19 54 49 -116 0
47 15 52 19 54 49 -115 0
47 15 52 19 54 49 -118 0
47 15 52 54 18 49 -117 0
47 15 52 54 18 49 -116 0
47 15 52 54 18 49 -115 0
47 15 52 54 18 49 -118 0
47 52 11 54 10 49 -90 0
47 52 11 54 10 49 -91 0
47 52 11 54 10 49 -89 0
47 52 11 54 10 49 -92 0
47 52 11 54 49 9 -90 0
47 52 11 54 49 9 -91 0
47 52 11 54 49 9 -89 0
47 52 11 54 49 9 -92 0
47 52 62 54 56 49 -184 0
47 52 62 54 56 49 -186 0
47 52 62 54 56 49 -183 0
47 52 62 54 56 49 -185 0
47 52 62 54 49 59 -184 0
47 52 62 54 49 59 -186 0
47 52 62 54 49 59 -183 0
47 52 62 54 49 59 -185 0
47 52 69 54 70 49 -190 0
47 52 69 54 70 49 -189 0
47 52 69 54 70 49 -188 0
47 52 69 54 70 49 -187 0
47 52 69 54 49 66 -190 0
47 52 69 54 49 66 -189 0
47 52 69 54 49 66 -188 0
47 52 69 54 49 66 -187 0
47 52 37 54 32 49 -158 0
47 52 37 54 32 49 -156 0
47 52 37 54 32 49 -155 0
47 52 37 54 32 49 -157 0
47 52 37 54 49 33 -158 0
47 52 37 54 49 33 -156 0
47 52 37 54 49 33 -155 0
47 52 37 54 49 33 -157 0
47 52 39 54 44 49 -170 0
47 52 39 54 44 49 -172 0
47 52 39 54 44 49 -171 0
47 52 39 54 44 49 -169 0
47 52 6 54 2 49 -53 0
47 52 6 54 2 49 -51 0
47 52 6 54 2 49 -48 0
47 52 6 54 2 49 -50 0
47 52 29 54 26 49 -137 0
47 52 29 54 26 49 -139 0
47 52 29 54 26 49 -138 0
47 52 29 54 26 49 -140 0
47 52 19 54 18 49 -117 0
47 52 19 54 18 49 -116 0
47 52 19 54 18 49 -115 0
47 52 19 54 18 49 -118 0
47 52 54 10 49 9 -90 0
47 52 54 10 49 9 -91 0
47 52 54 10 49 9 -89 0
47 52 54 10 49 9 -92 0
47 52 54 56 49 59 -184 0
47 52 54 56 49 59 -186 0
47 52 54 56 49 59 -183 0
47 52 54 56 49 59 -185 0
47 52 54 70 49 66 -190 0
47 52 54 70 49 66 -189 0
47 52 54 70 49 66 -188 0
47 52 54 70 49 66 -187 0
47 52 54 32 49 33 -158 0
47 52 54 32 49 33 -156 0
47 52 54 32 49 33 -155 0
47 52 54 32 49 33 -157 0
14 60 11 62 10 56 -95 0
14 60 11 62 10 56 -93 0
14 60 11 62 10 56 -94 0
14 60 11 62 10 56 -96 0
14 60 11 62 10 9 -95 0
14 60 11 62 10 9 -93 0
14 60 11 62 10 9 -94 0
14 60 11 62 10 9 -96 0
14 60 11 62 56 59 -95 0
14 60 11 62 56 59 -93 0
14 60 11 62 56 59 -94 0
14 60 11 62 56 59 -96 0
14 60 11 62 9 59 -95 0
14 60 11 62 9 59 -93 0
14 60 11 62 9 59 -94 0
14 60 11 62 9 59 -96 0
14 60 11 10 56 9 -95 0
14 60 11 10 56 9 -93 0
14 60 11 10 56 9 -94 0
14 60 11 10 56 9 -96 0
14 60 11 10 9 59 -95 0
14 60 11 10 9 59 -93 0
14 60 11 10 9 59 -94 0
14 60 11 10 9 59 -96 0
14 60 62 10 56 59 -95 0
14 60 62 10 56 59 -93 0
14 60 62 10 56 59 -94 0
14 60 62 10 56 59 -96 0
14 60 62 56 9 59 -95 0
14 60 62 56 9 59 -93 0
14 60 62 56 9 59 -94 0
14 60 62 56 9 59 -96 0
14 60 10 56 9 59 -95 0
14 60 10 56 9 59 -93 0
14 60 10 56 9 59 -94 0
14 60 10 56 9 59 -96 0
14 63 11 69 10 70 -99 0
14 63 11 69 10 70 -100 0
14 63 11 69 10 70 -98 0
14 63 11 69 10 70 -97 0
14 63 11 69 10 9 -99 0
14 63 11 69 10 9 -100 0
14 63 11 69 10 9 -98 0
14 63 11 69 10 9 -97 0
14 63 11 69 70 66 -99 0
14 63 11 69 70 66 -100 0
14 63 11 69 70 66 -98 0
14 63 11 69 70 66 -97 0
14 63 11 69 9 66 -99 0
14 63 11 69 9 66 -100 0
14 63 11 69 9 66 -98 0
14 63 11 69 9 66 -97 0
14 63 11 10 70 9 -99 0
14 63 11 10 70 9 -100 0
14 63 11 10 70 9 -98 0
14 63 11 10 70 9 -97 0
14 63 11 10 9 66 -99 0
14 63 11 10 9 66 -100 0
14 63 11 10 9 66 -98 0
14 63 11 10 9 66 -97 0
14 63 69 10 70 66 -99 0
14 63 69 10 70 66 -100 0
14 63 69 10 70 66 -98 0
14 63 69 10 70 66 -97 0
14 63 69 70 9 66 -99 0
14 63 69 70 9 66 -100 0
14 63 69 70 9 66 -98 0
14 63 69 70 9 66 -97 0
14 63 10 70 9 66 -99 0
14 63 10 70 9 66 -100 0
14 63 10 70 9 66 -98 0
14 63 10 70 9 66 -97 0
14 36 11 37 10 32 -83 0
14 36 11 37 10 32 -82 0
14 36 11 37 10 32 -81 0
14 36 11 37 10 32 -84 0
14 36 11 37 10 9 -83 0
14 36 11 37 10 9 -82 0
14 36 11 37 10 9 -81 0
14 36 11 37 10 9 -84 0
14 36 11 37 32 33 -83 0
14 36 11 37 32 33 -82 0
14 36 11 37 32 33 -81 0
14 36 11 37 32 33 -84 0
14 36 11 37 9 33 -83 0
14 36 11 37 9 33 -82 0
14 36 11 37 9 33 -81 0
14 36 11 37 9 33 -84 0
14 36 11 10 32 9 -83 0
14 36 11 10 32 9 -82 0
14 36 11 10 32 9 -81 0
14 36 11 10 32 9 -84 0
14 36 11 10 9 33 -83 0
14 36 11 10 9 33 -82 0
14 36 11 10 9 33 -81 0
14 36 11 10 9 33 -84 0
14 36 37 10 32 33 -83 0
14 36 37 10 32 33 -82 0
14 36 37 10 32 33 -81 0
14 36 37 10 32 33 -84 0
14 36 37 32 9 33 -83 0
14 36 37 32 9 33 -82 0
14 36 37 32 9 33 -81 0
14 36 37 32 9 33 -84 0
14 36 10 32 9 33 -83 0
14 36 10 32 9 33 -82 0
14 36 10 32 9 33 -81 0
14 36 10 32 9 33 -84 0
14 46 11 39 10 9 -86 0
14 46 11 39 10 9 -87 0
14 46 11 39 10 9 -88 0
14 46 11 39 10 9 -85 0
14 46 11 10 44 9 -86 0
14 46 11 10 44 9 -87 0
14 46 11 10 44 9 -88 0
14 46 11 10 44 9 -85 0
14 1 11 6 10 9 -13 0
14 1 11 6 10 9 -7 0
14 1 11 6 10 9 -12 0
14 1 11 6 10 9 -8 0
14 1 11 10 2 9 -13 0
14 1 11 10 2 9 -7 0
14 1 11 10 2 9 -12 0
14 1 11 10 2 9 -8 0
14 28 11 29 10 9 -78 0
14 28 11 29 10 9 -80 0
14 28 11 29 10 9 -77 0
14 28 11 29 10 9 -79 0
14 28 11 10 26 9 -78 0
14 28 11 10 26 9 -80 0
14 28 11 10 26 9 -77 0
14 28 11 10 26 9 -79 0
14 15 11 19 10 9 -76 0
14 15 11 19 10 9 -74 0
14 15 11 19 10 9 -75 0
14 15 11 19 10 9 -73 0
14 15 11 10 18 9 -76 0
14 15 11 10 18 9 -74 0
14 15 11 10 18 9 -75 0
14 15 11 10 18 9 -73 0
14 52 11 54 10 9 -90 0
14 52 11 54 10 9 -91 0
14 52 11 54 10 9 -89 0
14 52 11 54 10 9 -92 0
14 52 11 10 49 9 -90 0
14 52 11 10 49 9 -91 0
14 52 11 10 49 9 -89 0
14 52 11 10 49 9 -92 0
14 11 62 10 56 9 -95 0
14 11 62 10 56 9 -93 0
14 11 62 10 56 9 -94 0
14 11 62 10 56 9 -96 0
14 11 62 10 9 59 -95 0
14 11 62 10 9 59 -93 0
14 11 62 10 9 59 -94 0
14 11 62 10 9 59 -96 0
14 11 69 10 70 9 -99 0
14 11 69 10 70 9 -100 0
14 11 69 10 70 9 -98 0
14 11 69 10 70 9 -97 0
14 11 69 10 9 66 -99 0
14 11 69 10 9 66 -100 0
14 11 69 10 9 66 -98 0
14 11 69 10 9 66 -97 0
14 11 37 10 32 9 -83 0
14 11 37 10 32 9 -82 0
14 11 37 10 32 9 -81 0
14 11 37 10 32 9 -84 0
14 11 37 10 9 33 -83 0
14 11 37 10 9 33 -82 0
14 11 37 10 9 33 -81 0
14 11 37 10 9 33 -84 0
14 11 39 10 44 9 -86 0
14 11 39 10 44 9 -87 0
14 11 39 10 44 9 -88 0
14 11 39 10 44 9 -85 0
14 11 6 10 2 9 -13 0
14 11 6 10 2 9 -7 0
14 11 6 10 2 9 -12 0
14 11 6 10 2 9 -8 0
14 11 29 10 26 9 -78 0
14 11 29 10 26 9 -80 0
14 11 29 10 26 9 -77 0
14 11 29 10 26 9 -79 0
14 11 19 10 18 9 -76 0
14 11 19 10 18 9 -74 0
14 11 19 10 18 9 -75 0
14 11 19 10 18 9 -73 0
14 11 54 10 49 9 -90 0
14 11 54 10 49 9 -91 0
14 11 54 10 49 9 -89 0
14 11 54 10 49 9 -92 0
14 11 10 56 9 59 -95 0
14 11 10 56 9 59 -93 0
14 11 10 56 9 59 -94 0
14 11 10 56 9 59 -96 0
14 11 10 70 9 66 -99 0
14 11 10 70 9 66 -100 0
14 11 10 70 9 66 -98 0
14 11 10 70 9 66 -97 0
14 11 10 32 9 33 -83 0
14 11 10 32 9 33 -82 0
14 11 10 32 9 33 -81 0
14 11 10 32 9 33 -84 0
60 63 62 69 56 70 -196 0
60 63 62 69 56 70 -195 0
60 63 62 69 56 70 -193 0
60 63 62 69 56 70 -194 0
60 63 62 69 56 59 -196 0
60 63 62 69 56 59 -195 0
60 63 62 69 56 59 -193 0
60 63 62 69 56 59 -194 0
60 63 62 69 70 66 -196 0
60 63 62 69 70 66 -195 0
60 63 62 69 70 66 -193 0
60 63 62 69 70 66 -194 0
60 63 62 69 59 66 -196 0
60 63 62 69 59 66 -195 0
60 63 62 69 59 66 -193 0
60 63 62 69 59 66 -194 0
60 63 62 56 70 59 -196 0
60 63 62 56 70 59 -195 0
60 63 62 56 70 59 -193 0
60 63 62 56 70 59 -194 0
60 63 62 56 59 66 -196 0
60 63 62 56 59 66 -195 0
60 63 62 56 59 66 -193 0
60 63 62 56 59 66 -194 0
60 63 69 56 70 66 -196 0
60 63 69 56 70 66 -195 0
60 63 69 56 70 66 -193 0
60 63 69 56 70 66 -194 0
60 63 69 70 59 66 -196 0
60 63 69 70 59 66 -195 0
60 63 69 70 59 66 -193 0
60 63 69 70 59 66 -194 0
60 63 56 70 59 66 -196 0
60 63 56 70 59 66 -195 0
60 63 56 70 59 66 -193 0
60 63 56 70 59 66 -194 0
60 36 62 37 56 32 -160 0
60 36 62 37 56 32 -162 0
60 36 62 37 56 32 -159 0
60 36 62 37 56 32 -161 0
60 36 62 37 56 59 -160 0
60 36 62 37 56 59 -162 0
60 36 62 37 56 59 -159 0
60 36 62 37 56 59 -161 0
60 36 62 37 32 33 -160 0
60 36 62 37 32 33 -162 0
60 36 62 37 32 33 -159 0
60 36 62 37 32 33 -161 0
60 36 62 37 59 33 -160 0
60 36 62 37 59 33 -162 0
60 36 62 37 59 33 -159 0
60 36 62 37 59 33 -161 0
60 36 62 56 32 59 -160 0
60 36 62 56 32 59 -162 0
60 36 62 56 32 59 -159 0
60 36 62 56 32 59 -161 0
60 36 62 56 59 33 -160 0
60 36 62 56 59 33 -162 0
60 36 62 56 59 33 -159 0
60 36 62 56 59 33 -161 0
60 36 37 56 32 33 -160 0
60 36 37 56 32 33 -162 0
60 36 37 56 32 33 -159 0
60 36 37 56 32 33 -161 0
60 36 37 32 59 33 -160 0
60 36 37 32 59 33 -162 0
60 36 37 32 59 33 -159 0
60 36 37 32 59 33 -161 0
60 36 56 32 59 33 -160 0
60 36 56 32 59 33 -162 0
60 36 56 32 59 33 -159 0
60 36 56 32 59 33 -161 0
60 46 62 39 56 59 -173 0
60 46 62 39 56 59 -174 0
60 46 62 39 56 59 -176 0
60 46 62 39 56 59 -175 0
60 46 62 56 44 59 -173 0
60 46 62 56 44 59 -174 0
60 46 62 56 44 59 -176 0
60 46 62 56 44 59 -175 0
60 1 62 6 56 59 -58 0
60 1 62 6 56 59 -57 0
60 1 62 6 56 59 -61 0
60 1 62 6 56 59 -55 0
60 1 62 56 2 59 -58 0
60 1 62 56 2 59 -57 0
60 1 62 56 2 59 -61 0
60 1 62 56 2 59 -55 0
60 28 62 29 56 59 -141 0
60 28 62 29 56 59 -144 0
60 28 62 29 56 59 -142 0
60 28 62 29 56 59 -143 0
60 28 62 56 26 59 -141 0
60 28 62 56 26 59 -144 0
60 28 62 56 26 59 -142 0
60 28 62 56 26 59 -143 0
60 15 62 19 56 59 -121 0
60 15 62 19 56 59 -119 0
60 15 62 19 56 59 -120 0
60 15 62 19 56 59 -122 0
60 15 62 56 18 59 -121 0
60 15 62 56 18 59 -119 0
60 15 62 56 18 59 -120 0
60 15 62 56 18 59 -122 0
60 52 62 54 56 59 -184 0
60 52 62 54 56 59 -186 0
60 52 62 54 56 59 -183 0
60 52 62 54 56 59 -185 0
60 52 62 56 49 59 -184 0
60 52 62 56 49 59 -186 0
60 52 62 56 49 59 -183 0
60 52 62 56 49 59 -185 0
60 11 62 10 56 59 -95 0
60 11 62 10 56 59 -93 0
60 11 62 10 56 59 -94 0
60 11 62 10 56 59 -96 0
60 11 62 56 9 59 -95 0
60 11 62 56 9 59 -93 0
60 11 62 56 9 59 -94 0
60 11 62 56 9 59 -96 0
60 62 69 56 70 59 -196 0
60 62 69 56 70 59 -195 0
60 62 69 56 70 59 -193 0
60 62 69 56 70 59 -194 0
60 62 69 56 59 66 -196 0
60 62 69 56 59 66 -195 0
60 62 69 56 59 66 -193 0
60 62 69 56 59 66 -194 0
60 62 37 56 32 59 -160 0
60 62 37 56 32 59 -162 0
60 62 37 56 32 59 -159 0
60 62 37 56 32 59 -161 0
60 62 37 56 59 33 -160 0
60 62 37 56 59 33 -162 0
60 62 37 56 59 33 -159 0
60 62 37 56 59 33 -161 0
60 62 39 56 44 59 -173 0
60 62 39 56 44 59 -174 0
60 62 39 56 44 59 -176 0
60 62 39 56 44 59 -175 0
60 62 6 56 2 59 -58 0
60 62 6 56 2 59 -57 0
60 62 6 56 2 59 -61 0
60 62 6 56 2 59 -55 0
60 62 29 56 26 59 -141 0
60 62 29 56 26 59 -144 0
60 62 29 56 26 59 -142 0
60 62 29 56 26 59 -143 0
60 62 19 56 18 59 -121 0
60 62 19 56 18 59 -119 0
60 62 19 56 18 59 -120 0
60 62 19 56 18 59 -122 0
60 62 54 56 49 59 -184 0
60 62 54 56 49 59 -186 0
60 62 54 56 49 59 -183 0
60 62 54 56 49 59 -185 0
60 62 10 56 9 59 -95 0
60 62 10 56 9 59 -93 0
60 62 10 56 9 59 -94 0
60 62 10 56 9 59 -96 0
60 62 56 70 59 66 -196 0
60 62 56 70 59 66 -195 0
60 62 56 70 59 66 -193 0
60 62 56 70 59 66 -194 0
60 62 56 32 59 33 -160 0
60 62 56 32 59 33 -162 0
60 62 56 32 59 33 -159 0
60 62 56 32 59 33 -161 0
63 36 69 37 70 32 -166 0
63 36 69 37 70 32 -163 0
63 36 69 37 70 32 -164 0
63 36 69 37 70 32 -165 0
63 36 69 37 70 66 -166 0
63 36 69 37 70 66 -163 0
63 36 69 37 70 66 -164 0
63 36 69 37 70 66 -165 0
63 36 69 37 32 33 -166 0
63 36 69 37 32 33 -163 0
63 36 69 37 32 33 -164 0
63 36 69 37 32 33 -165 0
63 36 69 37 66 33 -166 0
63 36 69 37 66 33 -163 0
63 36 69 37 66 33 -164 0
63 36 69 37 66 33 -165 0
63 36 69 70 32 66 -166 0
63 36 69 70 32 66 -163 0
63 36 69 70 32 66 -164 0
63 36 69 70 32 66 -165 0
63 36 69 70 66 33 -166 0
63 36 69 70 66 33 -163 0
63 36 69 70 66 33 -164 0
63 36 69 70 66 33 -165 0
63 36 37 70 32 33 -166 0
63 36 37 70 32 33 -163 0
63 36 37 70 32 33 -164 0
63 36 37 70 32 33 -165 0
63 36 37 32 66 33 -166 0
63 36 37 32 66 33 -163 0
63 36 37 32 66 33 -164 0
63 36 37 32 66 33 -165 0
63 36 70 32 66 33 -166 0
63 36 70 32 66 33 -163 0
63 36 70 32 66 33 -164 0
63 36 70 32 66 33 -165 0
63 46 69 39 70 66 -178 0
63 46 69 39 70 66 -177 0
63 46 69 39 70 66 -180 0
63 46 69 39 70 66 -179 0
63 46 69 70 44 66 -178 0
63 46 69 70 44 66 -177 0
63 46 69 70 44 66 -180 0
63 46 69 70 44 66 -179 0
63 1 69 6 70 66 -68 0
63 1 69 6 70 66 -67 0
63 1 69 6 70 66 -65 0
63 1 69 6 70 66 -64 0
63 1 69 70 2 66 -68 0
63 1 69 70 2 66 -67 0
63 1 69 70 2 66 -65 0
63 1 69 70 2 66 -64 0
63 28 69 29 70 66 -145 0
63 28 69 29 70 66 -147 0
63 28 69 29 70 66 -146 0
63 28 69 29 70 66 -148 0
63 28 69 70 26 66 -145 0
63 28 69 70 26 66 -147 0
63 28 69 70 26 66 -146 0
63 28 69 70 26 66 -148 0
63 15 69 19 70 66 -125 0
63 15 69 19 70 66 -124 0
63 15 69 19 70 66 -126 0
63 15 69 19 70 66 -123 0
63 15 69 70 18 66 -125 0
63 15 69 70 18 66 -124 0
63 15 69 70 18 66 -126 0
63 15 69 70 18 66 -123 0
63 52 69 54 70 66 -190 0
63 52 69 54 70 66 -189 0
63 52 69 54 70 66 -188 0
63 52 69 54 70 66 -187 0
63 52 69 70 49 66 -190 0
63 52 69 70 49 66 -189 0
63 52 69 70 49 66 -188 0
63 52 69 70 49 66 -187 0
63 11 69 10 70 66 -99 0
63 11 69 10 70 66 -100 0
63 11 69 10 70 66 -98 0
63 11 69 10 70 66 -97 0
63 11 69 70 9 66 -99 0
63 11 69 70 9 66 -100 0
63 11 69 70 9 66 -98 0
63 11 69 70 9 66 -97 0
63 62 69 56 70 66 -196 0
63 62 69 56 70 66 -195 0
63 62 69 56 70 66 -193 0
63 62 69 56 70 66 -194 0
63 62 69 70 59 66 -196 0
63 62 69 70 59 66 -195 0
63 62 69 70 59 66 -193 0
63 62 69 70 59 66 -194 0
63 69 37 70 32 66 -166 0
63 69 37 70 32 66 -163 0
63 69 37 70 32 66 -164 0
63 69 37 70 32 66 -165 0
63 69 37 70 66 33 -166 0
63 69 37 70 66 33 -163 0
63 69 37 70 66 33 -164 0
63 69 37 70 66 33 -165 0
63 69 39 70 44 66 -178 0
63 69 39 70 44 66 -177 0
63 69 39 70 44 66 -180 0
63 69 39 70 44 66 -179 0
63 69 6 70 2 66 -68 0
63 69 6 70 2 66 -67 0
63 69 6 70 2 66 -65 0
63 69 6 70 2 66 -64 0
63 69 29 70 26 66 -145 0
63 69 29 70 26 66 -147 0
63 69 29 70 26 66 -146 0
63 69 29 70 26 66 -148 0
63 69 19 70 18 66 -125 0
63 69 19 70 18 66 -124 0
63 69 19 70 18 66 -126 0
63 69 19 70 18 66 -123 0
63 69 54 70 49 66 -190 0
63 69 54 70 49 66 -189 0
63 69 54 70 49 66 -188 0
63 69 54 70 49 66 -187 0
63 69 10 70 9 66 -99 0
63 69 10 70 9 66 -100 0
63 69 10 70 9 66 -98 0
63 69 10 70 9 66 -97 0
63 69 56 70 59 66 -196 0
63 69 56 70 59 66 -195 0
63 69 56 70 59 66 -193 0
63 69 56 70 59 66 -194 0
63 69 70 32 66 33 -166 0
63 69 70 32 66 33 -163 0
63 69 70 32 66 33 -164 0
63 69 70 32 66 33 -165 0
36 46 37 39 32 33 -151 0
36 46 37 39 32 33 -154 0
36 46 37 39 32 33 -153 0
36 46 37 39 32 33 -152 0
36 46 37 32 44 33 -151 0
36 46 37 32 44 33 -154 0
36 46 37 32 44 33 -153 0
36 46 37 32 44 33 -152 0
36 1 37 6 32 33 -31 0
36 1 37 6 32 33 -38 0
36 1 37 6 32 33 -35 0
36 1 37 6 32 33 -34 0
36 1 37 32 2 33 -31 0
36 1 37 32 2 33 -38 0
36 1 37 32 2 33 -35 0
36 1 37 32 2 33 -34 0
36 28 37 29 32 33 -130 0
36 28 37 29 32 33 -132 0
36 28 37 29 32 33 -129 0
36 28 37 29 32 33 -131 0
36 28 37 32 26 33 -130 0
36 28 37 32 26 33 -132 0
36 28 37 32 26 33 -129 0
36 28 37 32 26 33 -131 0
36 15 37 19 32 33 -110 0
36 15 37 19 32 33 -108 0
36 15 37 19 32 33 -109 0
36 15 37 19 32 33 -107 0
36 15 37 32 18 33 -110 0
36 15 37 32 18 33 -108 0
36 15 37 32 18 33 -109 0
36 15 37 32 18 33 -107 0
36 52 37 54 32 33 -158 0
36 52 37 54 32 33 -156 0
36 52 37 54 32 33 -155 0
36 52 37 54 32 33 -157 0
36 52 37 32 49 33 -158 0
36 52 37 32 49 33 -156 0
36 52 37 32 49 33 -155 0
36 52 37 32 49 33 -157 0
36 11 37 10 32 33 -83 0
36 11 37 10 32 33 -82 0
36 11 37 10 32 33 -81 0
36 11 37 10 32 33 -84 0
36 11 37 32 9 33 -83 0
36 11 37 32 9 33 -82 0
36 11 37 32 9 33 -81 0
36 11 37 32 9 33 -84 0
36 62 37 56 32 33 -160 0
36 62 37 56 32 33 -162 0
36 62 37 56 32 33 -159 0
36 62 37 56 32 33 -161 0
36 62 37 32 59 33 -160 0
36 62 37 32 59 33 -162 0
36 62 37 32 59 33 -159 0
36 62 37 32 59 33 -161 0
36 69 37 70 32 33 -166 0
36 69 37 70 32 33 -163 0
36 69 37 70 32 33 -164 0
36 69 37 70 32 33 -165 0
36 69 37 32 66 33 -166 0
36 69 37 32 66 33 -163 0
36 69 37 32 66 33 -164 0
36 69 37 32 66 33 -165 0
36 37 39 32 44 33 -151 0
36 37 39 32 44 33 -154 0
36 37 39 32 44 33 -153 0
36 37 39 32 44 33 -152 0
36 37 6 32 2 33 -31 0
36 37 6 32 2 33 -38 0
36 37 6 32 2 33 -35 0
36 37 6 32 2 33 -34 0
36 37 29 32 26 33 -130 0
36 37 29 32 26 33 -132 0
36 37 29 32 26 33 -129 0
36 37 29 32 26 33 -131 0
36 37 19 32 18 33 -110 0
36 37 19 32 18 33 -108 0
36 37 19 32 18 33 -109 0
36 37 19 32 18 33 -107 0
36 37 54 32 49 33 -158 0
36 37 54 32 49 33 -156 0
36 37 54 32 49 33 -155 0
36 37 54 32 49 33 -157 0
36 37 10 32 9 33 -83 0
36 37 10 32 9 33 -82 0
36 37 10 32 9 33 -81 0
36 37 10 32 9 33 -84 0
36 37 56 32 59 33 -160 0
36 37 56 32 59 33 -162 0
36 37 56 32 59 33 -159 0
36 37 56 32 59 33 -161 0
36 37 70 32 66 33 -166 0
36 37 70 32 66 33 -163 0
36 37 70 32 66 33 -164 0
36 37 70 32 66 33 -165 0
46 1 39 6 44 2 -40 0
46 1 39 6 44 2 -42 0
46 1 39 6 44 2 -43 0
46 1 39 6 44 2 -41 0
46 28 39 29 44 26 -134 0
46 28 39 29 44 26 -135 0
46 28 39 29 44 26 -136 0
46 28 39 29 44 26 -133 0
46 15 39 19 44 18 -114 0
46 15 39 19 44 18 -112 0
46 15 39 19 44 18 -111 0
46 15 39 19 44 18 -113 0
46 52 39 54 44 49 -170 0
46 52 39 54 44 49 -172 0
46 52 39 54 44 49 -171 0
46 52 39 54 44 49 -169 0
46 11 39 10 44 9 -86 0
46 11 39 10 44 9 -87 0
46 11 39 10 44 9 -88 0
46 11 39 10 44 9 -85 0
46 62 39 56 44 59 -173 0
46 62 39 56 44 59 -174 0
46 62 39 56 44 59 -176 0
46 62 39 56 44 59 -175 0
46 69 39 70 44 66 -178 0
46 69 39 70 44 66 -177 0
46 69 39 70 44 66 -180 0
46 69 39 70 44 66 -179 0
46 37 39 32 44 33 -151 0
46 37 39 32 44 33 -154 0
46 37 39 32 44 33 -153 0
46 37 39 32 44 33 -152 0
1 28 6 29 2 26 -27 0
1 28 6 29 2 26 -25 0
1 28 6 29 2 26 -30 0
1 28 6 29 2 26 -23 0
1 15 6 19 2 18 -16 0
1 15 6 19 2 18 -21 0
1 15 6 19 2 18 -17 0
1 15 6 19 2 18 -22 0
1 52 6 54 2 49 -53 0
1 52 6 54 2 49 -51 0
1 52 6 54 2 49 -48 0
1 52 6 54 2 49 -50 0
1 11 6 10 2 9 -13 0
1 11 6 10 2 9 -7 0
1 11 6 10 2 9 -12 0
1 11 6 10 2 9 -8 0
1 62 6 56 2 59 -58 0
1 62 6 56 2 59 -57 0
1 62 6 56 2 59 -61 0
1 62 6 56 2 59 -55 0
1 69 6 70 2 66 -68 0
1 69 6 70 2 66 -67 0
1 69 6 70 2 66 -65 0
1 69 6 70 2 66 -64 0
1 37 6 32 2 33 -31 0
1 37 6 32 2 33 -38 0
1 37 6 32 2 33 -35 0
1 37 6 32 2 33 -34 0
28 15 29 19 26 18 -106 0
28 15 29 19 26 18 -104 0
28 15 29 19 26 18 -105 0
28 15 29 19 26 18 -103 0
28 52 29 54 26 49 -137 0
28 52 29 54 26 49 -139 0
28 52 29 54 26 49 -138 0
28 52 29 54 26 49 -140 0
28 11 29 10 26 9 -78 0
28 11 29 10 26 9 -80 0
28 11 29 10 26 9 -77 0
28 11 29 10 26 9 -79 0
28 62 29 56 26 59 -141 0
28 62 29 56 26 59 -144 0
28 62 29 56 26 59 -142 0
28 62 29 56 26 59 -143 0
28 69 29 70 26 66 -145 0
28 69 29 70 26 66 -147 0
28 69 29 70 26 66 -146 0
28 69 29 70 26 66 -148 0
28 37 29 32 26 33 -130 0
28 37 29 32 26 33 -132 0
28 37 29 32 26 33 -129 0
28 37 29 32 26 33 -131 0
15 52 19 54 18 49 -117 0
15 52 19 54 18 49 -116 0
15 52 19 54 18 49 -115 0
15 52 19 54 18 49 -118 0
15 11 19 10 18 9 -76 0
15 11 19 10 18 9 -74 0
15 11 19 10 18 9 -75 0
15 11 19 10 18 9 -73 0
15 62 19 56 18 59 -121 0
15 62 19 56 18 59 -119 0
15 62 19 56 18 59 -120 0
15 62 19 56 18 59 -122 0
15 69 19 70 18 66 -125 0
15 69 19 70 18 66 -124 0
15 69 19 70 18 66 -126 0
15 69 19 70 18 66 -123 0
15 37 19 32 18 33 -110 0
15 37 19 32 18 33 -108 0
15 37 19 32 18 33 -109 0
15 37 19 32 18 33 -107 0
52 11 54 10 49 9 -90 0
52 11 54 10 49 9 -91 0
52 11 54 10 49 9 -89 0
52 11 54 10 49 9 -92 0
52 62 54 56 49 59 -184 0
52 62 54 56 49 59 -186 0
52 62 54 56 49 59 -183 0
52 62 54 56 49 59 -185 0
52 69 54 70 49 66 -190 0
52 69 54 70 49 66 -189 0
52 69 54 70 49 66 -188 0
52 69 54 70 49 66 -187 0
52 37 54 32 49 33 -158 0
52 37 54 32 49 33 -156 0
52 37 54 32 49 33 -155 0
52 37 54 32 49 33 -157 0
11 62 10 56 9 59 -95 0
11 62 10 56 9 59 -93 0
11 62 10 56 9 59 -94 0
11 62 10 56 9 59 -96 0
11 69 10 70 9 66 -99 0
11 69 10 70 9 66 -100 0
11 69 10 70 9 66 -98 0
11 69 10 70 9 66 -97 0
11 37 10 32 9 33 -83 0
11 37 10 32 9 33 -82 0
11 37 10 32 9 33 -81 0
11 37 10 32 9 33 -84 0
62 69 56 70 59 66 -196 0
62 69 56 70 59 66 -195 0
62 69 56 70 59 66 -193 0
62 69 56 70 59 66 -194 0
62 37 56 32 59 33 -160 0
62 37 56 32 59 33 -162 0
62 37 56 32 59 33 -159 0
62 37 56 32 59 33 -161 0
69 37 70 32 66 33 -166 0
69 37 70 32 66 33 -163 0
69 37 70 32 66 33 -164 0
69 37 70 32 66 33 -165 0
45 3 46 1 39 6 44 -40 0
45 3 46 1 39 6 44 -42 0
45 3 46 1 39 6 44 -43 0
45 3 46 1 39 6 44 -41 0
45 3 46 1 39 6 2 -40 0
45 3 46 1 39 6 2 -42 0
45 3 46 1 39 6 2 -43 0
45 3 46 1 39 6 2 -41 0
45 3 46 1 39 44 2 -40 0
45 3 46 1 39 44 2 -42 0
45 3 46 1 39 44 2 -43 0
45 3 46 1 39 44 2 -41 0
45 3 46 1 6 44 2 -40 0
45 3 46 1 6 44 2 -42 0
45 3 46 1 6 44 2 -43 0
45 3 46 1 6 44 2 -41 0
45 3 46 39 6 44 2 -40 0
45 3 46 39 6 44 2 -42 0
45 3 46 39 6 44 2 -43 0
45 3 46 39 6 44 2 -41 0
45 3 1 39 6 44 2 -40 0
45 3 1 39 6 44 2 -42 0
45 3 1 39 6 44 2 -43 0
45 3 1 39 6 44 2 -41 0
45 24 46 28 39 29 44 -134 0
45 24 46 28 39 29 44 -135 0
45 24 46 28 39 29 44 -136 0
45 24 46 28 39 29 44 -133 0
45 24 46 28 39 29 26 -134 0
45 24 46 28 39 29 26 -135 0
45 24 46 28 39 29 26 -136 0
45 24 46 28 39 29 26 -133 0
45 24 46 28 39 44 26 -134 0
45 24 46 28 39 44 26 -135 0
45 24 46 28 39 44 26 -136 0
45 24 46 28 39 44 26 -133 0
45 24 46 28 29 44 26 -134 0
45 24 46 28 29 44 26 -135 0
45 24 46 28 29 44 26 -136 0
45 24 46 28 29 44 26 -133 0
45 24 46 39 29 44 26 -134 0
45 24 46 39 29 44 26 -135 0
45 24 46 39 29 44 26 -136 0
45 24 46 39 29 44 26 -133 0
45 24 28 39 29 44 26 -134 0
45 24 28 39 29 44 26 -135 0
45 24 28 39 29 44 26 -136 0
45 24 28 39 29 44 26 -133 0
45 20 46 15 39 19 44 -114 0
45 20 46 15 39 19 44 -112 0
45 20 46 15 39 19 44 -111 0
45 20 46 15 39 19 44 -113 0
45 20 46 15 39 19 18 -114 0
45 20 46 15 39 19 18 -112 0
45 20 46 15 39 19 18 -111 0
45 20 46 15 39 19 18 -113 0
45 20 46 15 39 44 18 -114 0
45 20 46 15 39 44 18 -112 0
45 20 46 15 39 44 18 -111 0
45 20 46 15 39 44 18 -113 0
45 20 46 15 19 44 18 -114 0
45 20 46 15 19 44 18 -112 0
45 20 46 15 19 44 18 -111 0
45 20 46 15 19 44 18 -113 0
45 20 46 39 19 44 18 -114 0
45 20 46 39 19 44 18 -112 0
45 20 46 39 19 44 18 -111 0
45 20 46 39 19 44 18 -113 0
45 20 15 39 19 44 18 -114 0
45 20 15 39 19 44 18 -112 0
45 20 15 39 19 44 18 -111 0
45 20 15 39 19 44 18 -113 0
45 47 46 52 39 54 44 -170 0
45 47 46 52 39 54 44 -172 0
45 47 46 52 39 54 44 -171 0
45 47 46 52 39 54 44 -169 0
45 47 46 52 39 54 49 -170 0
45 47 46 52 39 54 49 -172 0
45 47 46 52 39 54 49 -171 0
45 47 46 52 39 54 49 -169 0
45 47 46 52 39 44 49 -170 0
45 47 46 52 39 44 49 -172 0
45 47 46 52 39 44 49 -171 0
45 47 46 52 39 44 49 -169 0
45 47 46 52 54 44 49 -170 0
45 47 46 52 54 44 49 -172 0
45 47 46 52 54 44 49 -171 0
45 47 46 52 54 44 49 -169 0
45 47 46 39 54 44 49 -170 0
45 47 46 39 54 44 49 -172 0
45 47 46 39 54 44 49 -171 0
45 47 46 39 54 44 49 -169 0
45 47 52 39 54 44 49 -170 0
45 47 52 39 54 44 49 -172 0
45 47 52 39 54 44 49 -171 0
45 47 52 39 54 44 49 -169 0
45 14 46 11 39 10 44 -86 0
45 14 46 11 39 10 44 -87 0
45 14 46 11 39 10 44 -88 0
45 14 46 11 39 10 44 -85 0
45 14 46 11 39 10 9 -86 0
45 14 46 11 39 10 9 -87 0
45 14 46 11 39 10 9 -88 0
45 14 46 11 39 10 9 -85 0
45 14 46 11 39 44 9 -86 0
45 14 46 11 39 44 9 -87 0
45 14 46 11 39 44 9 -88 0
45 14 46 11 39 44 9 -85 0
45 14 46 11 10 44 9 -86 0
45 14 46 11 10 44 9 -87 0
45 14 46 11 10 44 9 -88 0
45 14 46 11 10 44 9 -85 0
45 14 46 39 10 44 9 -86 0
45 14 46 39 10 44 9 -87 0
45 14 46 39 10 44 9 -88 0
45 14 46 39 10 44 9 -85 0
45 14 11 39 10 44 9 -86 0
45 14 11 39 10 44 9 -87 0
45 14 11 39 10 44 9 -88 0
45 14 11 39 10 44 9 -85 0
45 60 46 62 39 56 44 -173 0
45 60 46 62 39 56 44 -174 0
45 60 46 62 39 56 44 -176 0
45 60 46 62 39 56 44 -175 0
45 60 46 62 39 56 59 -173 0
45 60 46 62 39 56 59 -174 0
45 60 46 62 39 56 59 -176 0
45 60 46 62 39 56 59 -175 0
45 60 46 62 39 44 59 -173 0
45 60 46 62 39 44 59 -174 0
45 60 46 62 39 44 59 -176 0
45 60 46 62 39 44 59 -175 0
45 60 46 62 56 44 59 -173 0
45 60 46 62 56 44 59 -174 0
45 60 46 62 56 44 59 -176 0
45 60 46 62 56 44 59 -175 0
45 60 46 39 56 44 59 -173 0
45 60 46 39 56 44 59 -174 0
45 60 46 39 56 44 59 -176 0
45 60 46 39 56 44 59 -175 0
45 60 62 39 56 44 59 -173 0
45 60 62 39 56 44 59 -174 0
45 60 62 39 56 44 59 -176 0
45 60 62 39 56 44 59 -175 0
45 63 46 69 39 70 44 -178 0
45 63 46 69 39 70 44 -177 0
45 63 46 69 39 70 44 -180 0
45 63 46 69 39 70 44 -179 0
45 63 46 69 39 70 66 -178 0
45 63 46 69 39 70 66 -177 0
45 63 46 69 39 70 66 -180 0
45 63 46 69 39 70 66 -179 0
45 63 46 69 39 44 66 -178 0
45 63 46 69 39 44 66 -177 0
45 63 46 69 39 44 66 -180 0
45 63 46 69 39 44 66 -179 0
45 63 46 69 70 44 66 -178 0
45 63 46 69 70 44 66 -177 0
45 63 46 69 70 44 66 -180 0
45 63 46 69 70 44 66 -179 0
45 63 46 39 70 44 66 -178 0
45 63 46 39 70 44 66 -177 0
45 63 46 39 70 44 66 -180 0
45 63 46 39 70 44 66 -179 0
45 63 69 39 70 44 66 -178 0
45 63 69 39 70 44 66 -177 0
45 63 69 39 70 44 66 -180 0
45 63 69 39 70 44 66 -179 0
45 36 46 37 39 32 44 -151 0
45 36 46 37 39 32 44 -154 0
45 36 46 37 39 32 44 -153 0
45 36 46 37 39 32 44 -152 0
45 36 46 37 39 32 33 -151 0
45 36 46 37 39 32 33 -154 0
45 36 46 37 39 32 33 -153 0
45 36 46 37 39 32 33 -152 0
45 36 46 37 39 44 33 -151 0
45 36 46 37 39 44 33 -154 0
45 36 46 37 39 44 33 -153 0
45 36 46 37 39 44 33 -152 0
45 36 46 37 32 44 33 -151 0
45 36 46 37 32 44 33 -154 0
45 36 46 37 32 44 33 -153 0
45 36 46 37 32 44 33 -152 0
45 36 46 39 32 44 33 -151 0
45 36 46 39 32 44 33 -154 0
45 36 46 39 32 44 33 -153 0
45 36 46 39 32 44 33 -152 0
45 36 37 39 32 44 33 -151 0
45 36 37 39 32 44 33 -154 0
45 36 37 39 32 44 33 -153 0
45 36 37 39 32 44 33 -152 0
45 46 1 39 6 44 2 -40 0
45 46 1 39 6 44 2 -42 0
45 46 1 39 6 44 2 -43 0
45 46 1 39 6 44 2 -41 0
45 46 28 39 29 44 26 -134 0
45 46 28 39 29 44 26 -135 0
45 46 28 39 29 44 26 -136 0
45 46 28 39 29 44 26 -133 0
45 46 15 39 19 44 18 -114 0
45 46 15 39 19 44 18 -112 0
45 46 15 39 19 44 18 -111 0
45 46 15 39 19 44 18 -113 0
45 46 52 39 54 44 49 -170 0
45 46 52 39 54 44 49 -172 0
45 46 52 39 54 44 49 -171 0
45 46 52 39 54 44 49 -169 0
45 46 11 39 10 44 9 -86 0
45 46 11 39 10 44 9 -87 0
45 46 11 39 10 44 9 -88 0
45 46 11 39 10 44 9 -85 0
45 46 62 39 56 44 59 -173 0
45 46 62 39 56 44 59 -174 0
45 46 62 39 56 44 59 -176 0
45 46 62 39 56 44 59 -175 0
45 46 69 39 70 44 66 -178 0
45 46 69 39 70 44 66 -177 0
45 46 69 39 70 44 66 -180 0
45 46 69 39 70 44 66 -179 0
45 46 37 39 32 44 33 -151 0
45 46 37 39 32 44 33 -154 0
45 46 37 39 32 44 33 -153 0
45 46 37 39 32 44 33 -152 0
3 24 1 28 6 29 2 -27 0
3 24 1 28 6 29 2 -25 0
3 24 1 28 6 29 2 -30 0
3 24 1 28 6 29 2 -23 0
3 24 1 28 6 29 26 -27 0
3 24 1 28 6 29 26 -25 0
3 24 1 28 6 29 26 -30 0
3 24 1 28 6 29 26 -23 0
3 24 1 28 6 2 26 -27 0
3 24 1 28 6 2 26 -25 0
3 24 1 28 6 2 26 -30 0
3 24 1 28 6 2 26 -23 0
3 24 1 28 29 2 26 -27 0
3 24 1 28 29 2 26 -25 0
3 24 1 28 29 2 26 -30 0
3 24 1 28 29 2 26 -23 0
3 24 1 6 29 2 26 -27 0
3 24 1 6 29 2 26 -25 0
3 24 1 6 29 2 26 -30 0
3 24 1 6 29 2 26 -23 0
3 24 28 6 29 2 26 -27 0
3 24 28 6 29 2 26 -25 0
3 24 28 6 29 2 26 -30 0
3 24 28 6 29 2 26 -23 0
3 20 1 15 6 19 2 -16 0
3 20 1 15 6 19 2 -21 0
3 20 1 15 6 19 2 -17 0
3 20 1 15 6 19 2 -22 0
3 20 1 15 6 19 18 -16 0
3 20 1 15 6 19 18 -21 0
3 20 1 15 6 19 18 -17 0
3 20 1 15 6 19 18 -22 0
3 20 1 15 6 2 18 -16 0
3 20 1 15 6 2 18 -21 0
3 20 1 15 6 2 18 -17 0
3 20 1 15 6 2 18 -22 0
3 20 1 15 19 2 18 -16 0
3 20 1 15 19 2 18 -21 0
3 20 1 15 19 2 18 -17 0
3 20 1 15 19 2 18 -22 0
3 20 1 6 19 2 18 -16 0
3 20 1 6 19 2 18 -21 0
3 20 1 6 19 2 18 -17 0
3 20 1 6 19 2 18 -22 0
3 20 15 6 19 2 18 -16 0
3 20 15 6 19 2 18 -21 0
3 20 15 6 19 2 18 -17 0
3 20 15 6 19 2 18 -22 0
3 47 1 52 6 54 2 -53 0
3 47 1 52 6 54 2 -51 0
3 47 1 52 6 54 2 -48 0
3 47 1 52 6 54 2 -50 0
3 47 1 52 6 54 49 -53 0
3 47 1 52 6 54 49 -51 0
3 47 1 52 6 54 49 -48 0
3 47 1 52 6 54 49 -50 0
3 47 1 52 6 2 49 -53 0
3 47 1 52 6 2 49 -51 0
3 47 1 52 6 2 49 -48 0
3 47 1 52 6 2 49 -50 0
3 47 1 52 54 2 49 -53 0
3 47 1 52 54 2 49 -51 0
3 47 1 52 54 2 49 -48 0
3 47 1 52 54 2 49 -50 0
3 47 1 6 54 2 49 -53 0
3 47 1 6 54 2 49 -51 0
3 47 1 6 54 2 49 -48 0
3 47 1 6 54 2 49 -50 0
3 47 52 6 54 2 49 -53 0
3 47 52 6 54 2 49 -51 0
3 47 52 6 54 2 49 -48 0
3 47 52 6 54 2 49 -50 0
3 14 1 11 6 10 2 -13 0
3 14 1 11 6 10 2 -7 0
3 14 1 11 6 10 2 -12 0
3 14 1 11 6 10 2 -8 0
3 14 1 11 6 10 9 -13 0
3 14 1 11 6 10 9 -7 0
3 14 1 11 6 10 9 -12 0
3 14 1 11 6 10 9 -8 0
3 14 1 11 6 2 9 -13 0
3 14 1 11 6 2 9 -7 0
3 14 1 11 6 2 9 -12 0
3 14 1 11 6 2 9 -8 0
3 14 1 11 10 2 9 -13 0
3 14 1 11 10 2 9 -7 0
3 14 1 11 10 2 9 -12 0
3 14 1 11 10 2 9 -8 0
3 14 1 6 10 2 9 -13 0
3 14 1 6 10 2 9 -7 0
3 14 1 6 10 2 9 -12 0
3 14 1 6 10 2 9 -8 0
3 14 11 6 10 2 9 -13 0
3 14 11 6 10 2 9 -7 0
3 14 11 6 10 2 9 -12 0
3 14 11 6 10 2 9 -8 0
3 60 1 62 6 56 2 -58 0
3 60 1 62 6 56 2 -57 0
3 60 1 62 6 56 2 -61 0
3 60 1 62 6 56 2 -55 0
3 60 1 62 6 56 59 -58 0
3 60 1 62 6 56 59 -57 0
3 60 1 62 6 56 59 -61 0
3 60 1 62 6 56 59 -55 0
3 60 1 62 6 2 59 -58 0
3 60 1 62 6 2 59 -57 0
3 60 1 62 6 2 59 -61 0
3 60 1 62 6 2 59 -55 0
3 60 1 62 56 2 59 -58 0
3 60 1 62 56 2 59 -57 0
3 60 1 62 56 2 59 -61 0
3 60 1 62 56 2 59 -55 0
3 60 1 6 56 2 59 -58 0
3 60 1 6 56 2 59 -57 0
3 60 1 6 56 2 59 -61 0
3 60 1 6 56 2 59 -55 0
3 60 62 6 56 2 59 -58 0
3 60 62 6 56 2 59 -57 0
3 60 62 6 56 2 59 -61 0
3 60 62 6 56 2 59 -55 0
3 63 1 69 6 70 2 -68 0
3 63 1 69 6 70 2 -67 0
3 63 1 69 6 70 2 -65 0
3 63 1 69 6 70 2 -64 0
3 63 1 69 6 70 66 -68 0
3 63 1 69 6 70 66 -67 0
3 63 1 69 6 70 66 -65 0
3 63 1 69 6 70 66 -64 0
3 63 1 69 6 2 66 -68 0
3 63 1 69 6 2 66 -67 0
3 63 1 69 6 2 66 -65 0
3 63 1 69 6 2 66 -64 0
3 63 1 69 70 2 66 -68 0
3 63 1 69 70 2 66 -67 0
3 63 1 69 70 2 66 -65 0
3 63 1 69 70 2 66 -64 0
3 63 1 6 70 2 66 -68 0
3 63 1 6 70 2 66 -67 0
3 63 1 6 70 2 66 -65 0
3 63 1 6 70 2 66 -64 0
3 63 69 6 70 2 66 -68 0
3 63 69 6 70 2 66 -67 0
3 63 69 6 70 2 66 -65 0
3 63 69 6 70 2 66 -64 0
3 36 1 37 6 32 2 -31 0
3 36 1 37 6 32 2 -38 0
3 36 1 37 6 32 2 -35 0
3 36 1 37 6 32 2 -34 0
3 36 1 37 6 32 33 -31 0
3 36 1 37 6 32 33 -38 0
3 36 1 37 6 32 33 -35 0
3 36 1 37 6 32 33 -34 0
3 36 1 37 6 2 33 -31 0
3 36 1 37 6 2 33 -38 0
3 36 1 37 6 2 33 -35 0
3 36 1 37 6 2 33 -34 0
3 36 1 37 32 2 33 -31 0
3 36 1 37 32 2 33 -38 0
3 36 1 37 32 2 33 -35 0
3 36 1 37 32 2 33 -34 0
3 36 1 6 32 2 33 -31 0
3 36 1 6 32 2 33 -38 0
3 36 1 6 32 2 33 -35 0
3 36 1 6 32 2 33 -34 0
3 36 37 6 32 2 33 -31 0
3 36 37 6 32 2 33 -38 0
3 36 37 6 32 2 33 -35 0
3 36 37 6 32 2 33 -34 0
3 46 1 39 6 44 2 -40 0
3 46 1 39 6 44 2 -42 0
3 46 1 39 6 44 2 -43 0
3 46 1 39 6 44 2 -41 0
3 1 28 6 29 2 26 -27 0
3 1 28 6 29 2 26 -25 0
3 1 28 6 29 2 26 -30 0
3 1 28 6 29 2 26 -23 0
3 1 15 6 19 2 18 -16 0
3 1 15 6 19 2 18 -21 0
3 1 15 6 19 2 18 -17 0
3 1 15 6 19 2 18 -22 0
3 1 52 6 54 2 49 -53 0
3 1 52 6 54 2 49 -51 0
3 1 52 6 54 2 49 -48 0
3 1 52 6 54 2 49 -50 0
3 1 11 6 10 2 9 -13 0
3 1 11 6 10 2 9 -7 0
3 1 11 6 10 2 9 -12 0
3 1 11 6 10 2 9 -8 0
3 1 62 6 56 2 59 -58 0
3 1 62 6 56 2 59 -57 0
3 1 62 6 56 2 59 -61 0
3 1 62 6 56 2 59 -55 0
3 1 69 6 70 2 66 -68 0
3 1 69 6 70 2 66 -67 0
3 1 69 6 70 2 66 -65 0
3 1 69 6 70 2 66 -64 0
3 1 37 6 32 2 33 -31 0
3 1 37 6 32 2 33 -38 0
3 1 37 6 32 2 33 -35 0
3 1 37 6 32 2 33 -34 0
24 20 28 15 29 19 26 -106 0
24 20 28 15 29 19 26 -104 0
24 20 28 15 29 19 26 -105 0
24 20 28 15 29 19 26 -103 0
24 20 28 15 29 19 18 -106 0
24 20 28 15 29 19 18 -104 0
24 20 28 15 29 19 18 -105 0
24 20 28 15 29 19 18 -103 0
24 20 28 15 29 26 18 -106 0
24 20 28 15 29 26 18 -104 0
24 20 28 15 29 26 18 -105 0
24 20 28 15 29 26 18 -103 0
24 20 28 15 19 26 18 -106 0
24 20 28 15 19 26 18 -104 0
24 20 28 15 19 26 18 -105 0
24 20 28 15 19 26 18 -103 0
24 20 28 29 19 26 18 -106 0
24 20 28 29 19 26 18 -104 0
24 20 28 29 19 26 18 -105 0
24 20 28 29 19 26 18 -103 0
24 20 15 29 19 26 18 -106 0
24 20 15 29 19 26 18 -104 0
24 20 15 29 19 26 18 -105 0
24 20 15 29 19 26 18 -103 0
24 47 28 52 29 54 26 -137 0
24 47 28 52 29 54 26 -139 0
24 47 28 52 29 54 26 -138 0
24 47 28 52 29 54 26 -140 0
24 47 28 52 29 54 49 -137 0
24 47 28 52 29 54 49 -139 0
24 47 28 52 29 54 49 -138 0
24 47 28 52 29 54 49 -140 0
24 47 28 52 29 26 49 -137 0
24 47 28 52 29 26 49 -139 0
24 47 28 52 29 26 49 -138 0
24 47 28 52 29 26 49 -140 0
24 47 28 52 54 26 49 -137 0
24 47 28 52 54 26 49 -139 0
24 47 28 52 54 26 49 -138 0
24 47 28 52 54 26 49 -140 0
24 47 28 29 54 26 49 -137 0
24 47 28 29 54 26 49 -139 0
24 47 28 29 54 26 49 -138 0
24 47 28 29 54 26 49 -140 0
24 47 52 29 54 26 49 -137 0
24 47 52 29 54 26 49 -139 0
24 47 52 29 54 26 49 -138 0
24 47 52 29 54 26 49 -140 0
24 14 28 11 29 10 26 -78 0
24 14 28 11 29 10 26 -80 0
24 14 28 11 29 10 26 -77 0
24 14 28 11 29 10 26 -79 0
24 14 28 11 29 10 9 -78 0
24 14 28 11 29 10 9 -80 0
24 14 28 11 29 10 9 -77 0
24 14 28 11 29 10 9 -79 0
24 14 28 11 29 26 9 -78 0
24 14 28 11 29 26 9 -80 0
24 14 28 11 29 26 9 -77 0
24 14 28 11 29 26 9 -79 0
24 14 28 11 10 26 9 -78 0
24 14 28 11 10 26 9 -80 0
24 14 28 11 10 26 9 -77 0
24 14 28 11 10 26 9 -79 0
24 14 28 29 10 26 9 -78 0
24 14 28 29 10 26 9 -80 0
24 14 28 29 10 26 9 -77 0
24 14 28 29 10 26 9 -79 0
24 14 11 29 10 26 9 -78 0
24 14 11 29 10 26 9 -80 0
24 14 11 29 10 26 9 -77 0
24 14 11 29 10 26 9 -79 0
24 60 28 62 29 56 26 -141 0
24 60 28 62 29 56 26 -144 0
24 60 28 62 29 56 26 -142 0
24 60 28 62 29 56 26 -143 0
24 60 28 62 29 56 59 -141 0
24 60 28 62 29 56 59 -144 0
24 60 28 62 29 56 59 -142 0
24 60 28 62 29 56 59 -143 0
24 60 28 62 29 26 59 -141 0
24 60 28 62 29 26 59 -144 0
24 60 28 62 29 26 59 -142 0
24 60 28 62 29 26 59 -143 0
24 60 28 62 56 26 59 -141 0
24 60 28 62 56 26 59 -144 0
24 60 28 62 56 26 59 -142 0
24 60 28 62 56 26 59 -143 0
24 60 28 29 56 26 59 -141 0
24 60 28 29 56 26 59 -144 0
24 60 28 29 56 26 59 -142 0
24 60 28 29 56 26 59 -143 0
24 60 62 29 56 26 59 -141 0
24 60 62 29 56 26 59 -144 0
24 60 62 29 56 26 59 -142 0
24 60 62 29 56 26 59 -143 0
24 63 28 69 29 70 26 -145 0
24 63 28 69 29 70 26 -147 0
24 63 28 69 29 70 26 -146 0
24 63 28 69 29 70 26 -148 0
24 63 28 69 29 70 66 -145 0
24 63 28 69 29 70 66 -147 0
24 63 28 69 29 70 66 -146 0
24 63 28 69 29 70 66 -148 0
24 63 28 69 29 26 66 -145 0
24 63 28 69 29 26 66 -147 0
24 63 28 69 29 26 66 -146 0
24 63 28 69 29 26 66 -148 0
24 63 28 69 70 26 66 -145 0
24 63 28 69 70 26 66 -147 0
24 63 28 69 70 26 66 -146 0
24 63 28 69 70 26 66 -148 0
24 63 28 29 70 26 66 -145 0
24 63 28 29 70 26 66 -147 0
24 63 28 29 70 26 66 -146 0
24 63 28 29 70 26 66 -148 0
24 63 69 29 70 26 66 -145 0
24 63 69 29 70 26 66 -147 0
24 63 69 29 70 26 66 -146 0
24 63 69 29 70 26 66 -148 0
24 36 28 37 29 32 26 -130 0
24 36 28 37 29 32 26 -132 0
24 36 28 37 29 32 26 -129 0
24 36 28 37 29 32 26 -131 0
24 36 28 37 29 32 33 -130 0
24 36 28 37 29 32 33 -132 0
24 36 28 37 29 32 33 -129 0
24 36 28 37 29 32 33 -131 0
24 36 28 37 29 26 33 -130 0
24 36 28 37 29 26 33 -132 0
24 36 28 37 29 26 33 -129 0
24 36 28 37 29 26 33 -131 0
24 36 28 37 32 26 33 -130 0
24 36 28 37 32 26 33 -132 0
24 36 28 37 32 26 33 -129 0
24 36 28 37 32 26 33 -131 0
24 36 28 29 32 26 33 -130 0
24 36 28 29 32 26 33 -132 0
24 36 28 29 32 26 33 -129 0
24 36 28 29 32 26 33 -131 0
24 36 37 29 32 26 33 -130 0
24 36 37 29 32 26 33 -132 0
24 36 37 29 32 26 33 -129 0
24 36 37 29 32 26 33 -131 0
24 46 28 39 29 44 26 -134 0
24 46 28 39 29 44 26 -135 0
24 46 28 39 29 44 26 -136 0
24 46 28 39 29 44 26 -133 0
24 1 28 6 29 2 26 -27 0
24 1 28 6 29 2 26 -25 0
24 1 28 6 29 2 26 -30 0
24 1 28 6 29 2 26 -23 0
24 28 15 29 19 26 18 -106 0
24 28 15 29 19 26 18 -104 0
24 28 15 29 19 26 18 -105 0
24 28 15 29 19 26 18 -103 0
24 28 52 29 54 26 49 -137 0
24 28 52 29 54 26 49 -139 0
24 28 52 29 54 26 49 -138 0
24 28 52 29 54 26 49 -140 0
24 28 11 29 10 26 9 -78 0
24 28 11 29 10 26 9 -80 0
24 28 11 29 10 26 9 -77 0
24 28 11 29 10 26 9 -79 0
24 28 62 29 56 26 59 -141 0
24 28 62 29 56 26 59 -144 0
24 28 62 29 56 26 59 -142 0
24 28 62 29 56 26 59 -143 0
24 28 69 29 70 26 66 -145 0
24 28 69 29 70 26 66 -147 0
24 28 69 29 70 26 66 -146 0
24 28 69 29 70 26 66 -148 0
24 28 37 29 32 26 33 -130 0
24 28 37 29 32 26 33 -132 0
24 28 37 29 32 26 33 -129 0
24 28 37 29 32 26 33 -131 0
20 47 15 52 19 54 18 -117 0
20 47 15 52 19 54 18 -116 0
20 47 15 52 19 54 18 -115 0
20 47 15 52 19 54 18 -118 0
20 47 15 52 19 54 49 -117 0
20 47 15 52 19 54 49 -116 0
20 47 15 52 19 54 49 -115 0
20 47 15 52 19 54 49 -118 0
20 47 15 52 19 18 49 -117 0
20 47 15 52 19 18 49 -116 0
20 47 15 52 19 18 49 -115 0
20 47 15 52 19 18 49 -118 0
20 47 15 52 54 18 49 -117 0
20 47 15 52 54 18 49 -116 0
20 47 15 52 54 18 49 -115 0
20 47 15 52 54 18 49 -118 0
20 47 15 19 54 18 49 -117 0
20 47 15 19 54 18 49 -116 0
20 47 15 19 54 18 49 -115 0
20 47 15 19 54 18 49 -118 0
20 47 52 19 54 18 49 -117 0
20 47 52 19 54 18 49 -116 0
20 47 52 19 54 18 49 -115 0
20 47 52 19 54 18 49 -118 0
20 14 15 11 19 10 18 -76 0
20 14 15 11 19 10 18 -74 0
20 14 15 11 19 10 18 -75 0
20 14 15 11 19 10 18 -73 0
20 14 15 11 19 10 9 -76 0
20 14 15 11 19 10 9 -74 0
20 14 15 11 19 10 9 -75 0
20 14 15 11 19 10 9 -73 0
20 14 15 11 19 18 9 -76 0
20 14 15 11 19 18 9 -74 0
20 14 15 11 19 18 9 -75 0
20 14 15 11 19 18 9 -73 0
20 14 15 11 10 18 9 -76 0
20 14 15 11 10 18 9 -74 0
20 14 15 11 10 18 9 -75 0
20 14 15 11 10 18 9 -73 0
20 14 15 19 10 18 9 -76 0
20 14 15 19 10 18 9 -74 0
20 14 15 19 10 18 9 -75 0
20 14 15 19 10 18 9 -73 0
20 14 11 19 10 18 9 -76 0
20 14 11 19 10 18 9 -74 0
20 14 11 19 10 18 9 -75 0
20 14 11 19 10 18 9 -73 0
20 60 15 62 19 56 18 -121 0
20 60 15 62 19 56 18 -119 0
20 60 15 62 19 56 18 -120 0
20 60 15 62 19 56 18 -122 0
20 60 15 62 19 56 59 -121 0
20 60 15 62 19 56 59 -119 0
20 60 15 62 19 56 59 -120 0
20 60 15 62 19 56 59 -122 0
20 60 15 62 19 18 59 -121 0
20 60 15 62 19 18 59 -119 0
20 60 15 62 19 18 59 -120 0
20 60 15 62 19 18 59 -122 0
20 60 15 62 56 18 59 -121 0
20 60 15 62 56 18 59 -119 0
20 60 15 62 56 18 59 -120 0
20 60 15 62 56 18 59 -122 0
20 60 15 19 56 18 59 -121 0
20 60 15 19 56 18 59 -119 0
20 60 15 19 56 18 59 -120 0
20 60 15 19 56 18 59 -122 0
20 60 62 19 56 18 59 -121 0
20 60 62 19 56 18 59 -119 0
20 60 62 19 56 18 59 -120 0
20 60 62 19 56 18 59 -122 0
20 63 15 69 19 70 18 -125 0
20 63 15 69 19 70 18 -124 0
20 63 15 69 19 70 18 -126 0
20 63 15 69 19 70 18 -123 0
20 63 15 69 19 70 66 -125 0
20 63 15 69 19 70 66 -124 0
20 63 15 69 19 70 66 -126 0
20 63 15 69 19 70 66 -123 0
20 63 15 69 19 18 66 -125 0
20 63 15 69 19 18 66 -124 0
20 63 15 69 19 18 66 -126 0
20 63 15 69 19 18 66 -123 0
20 63 15 69 70 18 66 -125 0
20 63 15 69 70 18 66 -124 0
20 63 15 69 70 18 66 -126 0
20 63 15 69 70 18 66 -123 0
20 63 15 19 70 18 66 -125 0
20 63 15 19 70 18 66 -124 0
20 63 15 19 70 18 66 -126 0
20 63 15 19 70 18 66 -123 0
20 63 69 19 70 18 66 -125 0
20 63 69 19 70 18 66 -124 0
20 63 69 19 70 18 66 -126 0
20 63 69 19 70 18 66 -123 0
20 36 15 37 19 32 18 -110 0
20 36 15 37 19 32 18 -108 0
20 36 15 37 19 32 18 -109 0
20 36 15 37 19 32 18 -107 0
20 36 15 37 19 32 33 -110 0
20 36 15 37 19 32 33 -108 0
20 36 15 37 19 32 33 -109 0
20 36 15 37 19 32 33 -107 0
20 36 15 37 19 18 33 -110 0
20 36 15 37 19 18 33 -108 0
20 36 15 37 19 18 33 -109 0
20 36 15 37 19 18 33 -107 0
20 36 15 37 32 18 33 -110 0
20 36 15 37 32 18 33 -108 0
20 36 15 37 32 18 33 -109 0
20 36 15 37 32 18 33 -107 0
20 36 15 19 32 18 33 -110 0
20 36 15 19 32 18 33 -108 0
20 36 15 19 32 18 33 -109 0
20 36 15 19 32 18 33 -107 0
20 36 37 19 32 18 33 -110 0
20 36 37 19 32 18 33 -108 0
20 36 37 19 32 18 33 -109 0
20 36 37 19 32 18 33 -107 0
20 46 15 39 19 44 18 -114 0
20 46 15 39 19 44 18 -112 0
20 46 15 39 19 44 18 -111 0
20 46 15 39 19 44 18 -113 0
20 1 15 6 19 2 18 -16 0
20 1 15 6 19 2 18 -21 0
20 1 15 6 19 2 18 -17 0
20 1 15 6 19 2 18 -22 0
20 28 15 29 19 26 18 -106 0
20 28 15 29 19 26 18 -104 0
20 28 15 29 19 26 18 -105 0
20 28 15 29 19 26 18 -103 0
20 15 52 19 54 18 49 -117 0
20 15 52 19 54 18 49 -116 0
20 15 52 19 54 18 49 -115 0
20 15 52 19 54 18 49 -118 0
20 15 11 19 10 18 9 -76 0
20 15 11 19 10 18 9 -74 0
20 15 11 19 10 18 9 -75 0
20 15 11 19 10 18 9 -73 0
20 15 62 19 56 18 59 -121 0
20 15 62 19 56 18 59 -119 0
20 15 62 19 56 18 59 -120 0
20 15 62 19 56 18 59 -122 0
20 15 69 19 70 18 66 -125 0
20 15 69 19 70 18 66 -124 0
20 15 69 19 70 18 66 -126 0
20 15 69 19 70 18 66 -123 0
20 15 37 19 32 18 33 -110 0
20 15 37 19 32 18 33 -108 0
20 15 37 19 32 18 33 -109 0
20 15 37 19 32 18 33 -107 0
47 14 52 11 54 10 49 -90 0
47 14 52 11 54 10 49 -91 0
47 14 52 11 54 10 49 -89 0
47 14 52 11 54 10 49 -92 0
47 14 52 11 54 10 9 -90 0
47 14 52 11 54 10 9 -91 0
47 14 52 11 54 10 9 -89 0
47 14 52 11 54 10 9 -92 0
47 14 52 11 54 49 9 -90 0
47 14 52 11 54 49 9 -91 0
47 14 52 11 54 49 9 -89 0
47 14 52 11 54 49 9 -92 0
47 14 52 11 10 49 9 -90 0
47 14 52 11 10 49 9 -91 0
47 14 52 11 10 49 9 -89 0
47 14 52 11 10 49 9 -92 0
47 14 52 54 10 49 9 -90 0
47 14 52 54 10 49 9 -91 0
47 14 52 54 10 49 9 -89 0
47 14 52 54 10 49 9 -92 0
47 14 11 54 10 49 9 -90 0
47 14 11 54 10 49 9 -91 0
47 14 11 54 10 49 9 -89 0
47 14 11 54 10 49 9 -92 0
47 60 52 62 54 56 49 -184 0
47 60 52 62 54 56 49 -186 0
47 60 52 62 54 56 49 -183 0
47 60 52 62 54 56 49 -185 0
47 60 52 62 54 56 59 -184 0
47 60 52 62 54 56 59 -186 0
47 60 52 62 54 56 59 -183 0
47 60 52 62 54 56 59 -185 0
47 60 52 62 54 49 59 -184 0
47 60 52 62 54 49 59 -186 0
47 60 52 62 54 49 59 -183 0
47 60 52 62 54 49 59 -185 0
47 60 52 62 56 49 59 -184 0
47 60 52 62 56 49 59 -186 0
47 60 52 62 56 49 59 -183 0
47 60 52 62 56 49 59 -185 0
47 60 52 54 56 49 59 -184 0
47 60 52 54 56 49 59 -186 0
47 60 52 54 56 49 59 -183 0
47 60 52 54 56 49 59 -185 0
47 60 62 54 56 49 59 -184 0
47 60 62 54 56 49 59 -186 0
47 60 62 54 56 49 59 -183 0
47 60 62 54 56 49 59 -185 0
47 63 52 69 54 70 49 -190 0
47 63 52 69 54 70 49 -189 0
47 63 52 69 54 70 49 -188 0
47 63 52 69 54 70 49 -187 0
47 63 52 69 54 70 66 -190 0
47 63 52 69 54 70 66 -189 0
47 63 52 69 54 70 66 -188 0
47 63 52 69 54 70 66 -187 0
47 63 52 69 54 49 66 -190 0
47 63 52 69 54 49 66 -189 0
47 63 52 69 54 49 66 -188 0
47 63 52 69 54 49 66 -187 0
47 63 52 69 70 49 66 -190 0
47 63 52 69 70 49 66 -189 0
47 63 52 69 70 49 66 -188 0
47 63 52 69 70 49 66 -187 0
47 63 52 54 70 49 66 -190 0
47 63 52 54 70 49 66 -189 0
47 63 52 54 70 49 66 -188 0
47 63 52 54 70 49 66 -187 0
47 63 69 54 70 49 66 -190 0
47 63 69 54 70 49 66 -189 0
47 63 69 54 70 49 66 -188 0
47 63 69 54 70 49 66 -187 0
47 36 52 37 54 32 49 -158 0
47 36 52 37 54 32 49 -156 0
47 36 52 37 54 32 49 -155 0
47 36 52 37 54 32 49 -157 0
47 36 52 37 54 32 33 -158 0
47 36 52 37 54 32 33 -156 0
47 36 52 37 54 32 33 -155 0
47 36 52 37 54 32 33 -157 0
47 36 52 37 54 49 33 -158 0
47 36 52 37 54 49 33 -156 0
47 36 52 37 54 49 33 -155 0
47 36 52 37 54 49 33 -157 0
47 36 52 37 32 49 33 -158 0
47 36 52 37 32 49 33 -156 0
47 36 52 37 32 49 33 -155 0
47 36 52 37 32 49 33 -157 0
47 36 52 54 32 49 33 -158 0
47 36 52 54 32 49 33 -156 0
47 36 52 54 32 49 33 -155 0
47 36 52 54 32 49 33 -157 0
47 36 37 54 32 49 33 -158 0
47 36 37 54 32 49 33 -156 0
47 36 37 54 32 49 33 -155 0
47 36 37 54 32 49 33 -157 0
47 46 52 39 54 44 49 -170 0
47 46 52 39 54 44 49 -172 0
47 46 52 39 54 44 49 -171 0
47 46 52 39 54 44 49 -169 0
47 1 52 6 54 2 49 -53 0
47 1 52 6 54 2 49 -51 0
47 1 52 6 54 2 49 -48 0
47 1 52 6 54 2 49 -50 0
47 28 52 29 54 26 49 -137 0
47 28 52 29 54 26 49 -139 0
47 28 52 29 54 26 49 -138 0
47 28 52 29 54 26 49 -140 0
47 15 52 19 54 18 49 -117 0
47 15 52 19 54 18 49 -116 0
47 15 52 19 54 18 49 -115 0
47 15 52 19 54 18 49 -118 0
47 52 11 54 10 49 9 -90 0
47 52 11 54 10 49 9 -91 0
47 52 11 54 10 49 9 -89 0
47 52 11 54 10 49 9 -92 0
47 52 62 54 56 49 59 -184 0
47 52 62 54 56 49 59 -186 0
47 52 62 54 56 49 59 -183 0
47 52 62 54 56 49 59 -185 0
47 52 69 54 70 49 66 -190 0
47 52 69 54 70 49 66 -189 0
47 52 69 54 70 49 66 -188 0
47 52 69 54 70 49 66 -187 0
47 52 37 54 32 49 33 -158 0
47 52 37 54 32 49 33 -156 0
47 52 37 54 32 49 33 -155 0
47 52 37 54 32 49 33 -157 0
14 60 11 62 10 56 9 -95 0
14 60 11 62 10 56 9 -93 0
14 60 11 62 10 56 9 -94 0
14 60 11 62 10 56 9 -96 0
14 60 11 62 10 56 59 -95 0
14 60 11 62 10 56 59 -93 0
14 60 11 62 10 56 59 -94 0
14 60 11 62 10 56 59 -96 0
14 60 11 62 10 9 59 -95 0
14 60 11 62 10 9 59 -93 0
14 60 11 62 10 9 59 -94 0
14 60 11 62 10 9 59 -96 0
14 60 11 62 56 9 59 -95 0
14 60 11 62 56 9 59 -93 0
14 60 11 62 56 9 59 -94 0
14 60 11 62 56 9 59 -96 0
14 60 11 10 56 9 59 -95 0
14 60 11 10 56 9 59 -93 0
14 60 11 10 56 9 59 -94 0
14 60 11 10 56 9 59 -96 0
14 60 62 10 56 9 59 -95 0
14 60 62 10 56 9 59 -93 0
14 60 62 10 56 9 59 -94 0
14 60 62 10 56 9 59 -96 0
14 63 11 69 10 70 9 -99 0
14 63 11 69 10 70 9 -100 0
14 63 11 69 10 70 9 -98 0
14 63 11 69 10 70 9 -97 0
14 63 11 69 10 70 66 -99 0
14 63 11 69 10 70 66 -100 0
14 63 11 69 10 70 66 -98 0
14 63 11 69 10 70 66 -97 0
14 63 11 69 10 9 66 -99 0
14 63 11 69 10 9 66 -100 0
14 63 11 69 10 9 66 -98 0
14 63 11 69 10 9 66 -97 0
14 63 11 69 70 9 66 -99 0
14 63 11 69 70 9 66 -100 0
14 63 11 69 70 9 66 -98 0
14 63 11 69 70 9 66 -97 0
14 63 11 10 70 9 66 -99 0
14 63 11 10 70 9 66 -100 0
14 63 11 10 70 9 66 -98 0
14 63 11 10 70 9 66 -97 0
14 63 69 10 70 9 66 -99 0
14 63 69 10 70 9 66 -100 0
14 63 69 10 70 9 66 -98 0
14 63 69 10 70 9 66 -97 0
14 36 11 37 10 32 9 -83 0
14 36 11 37 10 32 9 -82 0
14 36 11 37 10 32 9 -81 0
14 36 11 37 10 32 9 -84 0
14 36 11 37 10 32 33 -83 0
14 36 11 37 10 32 33 -82 0
14 36 11 37 10 32 33 -81 0
14 36 11 37 10 32 33 -84 0
14 36 11 37 10 9 33 -83 0
14 36 11 37 10 9 33 -82 0
14 36 11 37 10 9 33 -81 0
14 36 11 37 10 9 33 -84 0
14 36 11 37 32 9 33 -83 0
14 36 11 37 32 9 33 -82 0
14 36 11 37 32 9 33 -81 0
14 36 11 37 32 9 33 -84 0
14 36 11 10 32 9 33 -83 0
14 36 11 10 32 9 33 -82 0
14 36 11 10 32 9 33 -81 0
14 36 11 10 32 9 33 -84 0
14 36 37 10 32 9 33 -83 0
14 36 37 10 32 9 33 -82 0
14 36 37 10 32 9 33 -81 0
14 36 37 10 32 9 33 -84 0
14 46 11 39 10 44 9 -86 0
14 46 11 39 10 44 9 -87 0
14 46 11 39 10 44 9 -88 0
14 46 11 39 10 44 9 -85 0
14 1 11 6 10 2 9 -13 0
14 1 11 6 10 2 9 -7 0
14 1 11 6 10 2 9 -12 0
14 1 11 6 10 2 9 -8 0
14 28 11 29 10 26 9 -78 0
14 28 11 29 10 26 9 -80 0
14 28 11 29 10 26 9 -77 0
14 28 11 29 10 26 9 -79 0
14 15 11 19 10 18 9 -76 0
14 15 11 19 10 18 9 -74 0
14 15 11 19 10 18 9 -75 0
14 15 11 19 10 18 9 -73 0
14 52 11 54 10 49 9 -90 0
14 52 11 54 10 49 9 -91 0
14 52 11 54 10 49 9 -89 0
14 52 11 54 10 49 9 -92 0
14 11 62 10 56 9 59 -95 0
14 11 62 10 56 9 59 -93 0
14 11 62 10 56 9 59 -94 0
14 11 62 10 56 9 59 -96 0
14 11 69 10 70 9 66 -99 0
14 11 69 10 70 9 66 -100 0
14 11 69 10 70 9 66 -98 0
14 11 69 10 70 9 66 -97 0
14 11 37 10 32 9 33 -83 0
14 11 37 10 32 9 33 -82 0
14 11 37 10 32 9 33 -81 0
14 11 37 10 32 9 33 -84 0
60 63 62 69 56 70 59 -196 0
60 63 62 69 56 70 59 -195 0
60 63 62 69 56 70 59 -193 0
60 63 62 69 56 70 59 -194 0
60 63 62 69 56 70 66 -196 0
60 63 62 69 56 70 66 -195 0
60 63 62 69 56 70 66 -193 0
60 63 62 69 56 70 66 -194 0
60 63 62 69 56 59 66 -196 0
60 63 62 69 56 59 66 -195 0
60 63 62 69 56 59 66 -193 0
60 63 62 69 56 59 66 -194 0
60 63 62 69 70 59 66 -196 0
60 63 62 69 70 59 66 -195 0
60 63 62 69 70 59 66 -193 0
60 63 62 69 70 59 66 -194 0
60 63 62 56 70 59 66 -196 0
60 63 62 56 70 59 66 -195 0
60 63 62 56 70 59 66 -193 0
60 63 62 56 70 59 66 -194 0
60 63 69 56 70 59 66 -196 0
60 63 69 56 70 59 66 -195 0
60 63 69 56 70 59 66 -193 0
60 63 69 56 70 59 66 -194 0
60 36 62 37 56 32 59 -160 0
60 36 62 37 56 32 59 -162 0
60 36 62 37 56 32 59 -159 0
60 36 62 37 56 32 59 -161 0
60 36 62 37 56 32 33 -160 0
60 36 62 37 56 32 33 -162 0
60 36 62 37 56 32 33 -159 0
60 36 62 37 56 32 33 -161 0
60 36 62 37 56 59 33 -160 0
60 36 62 37 56 59 33 -162 0
60 36 62 37 56 59 33 -159 0
60 36 62 37 56 59 33 -161 0
60 36 62 37 32 59 33 -160 0
60 36 62 37 32 59 33 -162 0
60 36 62 37 32 59 33 -159 0
60 36 62 37 32 59 33 -161 0
60 36 62 56 32 59 33 -160 0
60 36 62 56 32 59 33 -162 0
60 36 62 56 32 59 33 -159 0
60 36 62 56 32 59 33 -161 0
60 36 37 56 32 59 33 -160 0
60 36 37 56 32 59 33 -162 0
60 36 37 56 32 59 33 -159 0
60 36 37 56 32 59 33 -161 0
60 46 62 39 56 44 59 -173 0
60 46 62 39 56 44 59 -174 0
60 46 62 39 56 44 59 -176 0
60 46 62 39 56 44 59 -175 0
60 1 62 6 56 2 59 -58 0
60 1 62 6 56 2 59 -57 0
60 1 62 6 56 2 59 -61 0
60 1 62 6 56 2 59 -55 0
60 28 62 29 56 26 59 -141 0
60 28 62 29 56 26 59 -144 0
60 28 62 29 56 26 59 -142 0
60 28 62 29 56 26 59 -143 0
60 15 62 19 56 18 59 -121 0
60 15 62 19 56 18 59 -119 0
60 15 62 19 56 18 59 -120 0
60 15 62 19 56 18 59 -122 0
60 52 62 54 56 49 59 -184 0
60 52 62 54 56 49 59 -186 0
60 52 62 54 56 49 59 -183 0
60 52 62 54 56 49 59 -185 0
60 11 62 10 56 9 59 -95 0
60 11 62 10 56 9 59 -93 0
60 11 62 10 56 9 59 -94 0
60 11 62 10 56 9 59 -96 0
60 62 69 56 70 59 66 -196 0
60 62 69 56 70 59 66 -195 0
60 62 69 56 70 59 66 -193 0
60 62 69 56 70 59 66 -194 0
60 62 37 56 32 59 33 -160 0
60 62 37 56 32 59 33 -162 0
60 62 37 56 32 59 33 -159 0
60 62 37 56 32 59 33 -161 0
63 36 69 37 70 32 66 -166 0
63 36 69 37 70 32 66 -163 0
63 36 69 37 70 32 66 -164 0
63 36 69 37 70 32 66 -165 0
63 36 69 37 70 32 33 -166 0
63 36 69 37 70 32 33 -163 0
63 36 69 37 70 32 33 -164 0
63 36 69 37 70 32 33 -165 0
63 36 69 37 70 66 33 -166 0
63 36 69 37 70 66 33 -163 0
63 36 69 37 70 66 33 -164 0
63 36 69 37 70 66 33 -165 0
63 36 69 37 32 66 33 -166 0
63 36 69 37 32 66 33 -163 0
63 36 69 37 32 66 33 -164 0
63 36 69 37 32 66 33 -165 0
63 36 69 70 32 66 33 -166 0
63 36 69 70 32 66 33 -163 0
63 36 69 70 32 66 33 -164 0
63 36 69 70 32 66 33 -165 0
63 36 37 70 32 66 33 -166 0
63 36 37 70 32 66 33 -163 0
63 36 37 70 32 66 33 -164 0
63 36 37 70 32 66 33 -165 0
63 46 69 39 70 44 66 -178 0
63 46 69 39 70 44 66 -177 0
63 46 69 39 70 44 66 -180 0
63 46 69 39 70 44 66 -179 0
63 1 69 6 70 2 66 -68 0
63 1 69 6 70 2 66 -67 0
63 1 69 6 70 2 66 -65 0
63 1 69 6 70 2 66 -64 0
63 28 69 29 70 26 66 -145 0
63 28 69 29 70 26 66 -147 0
63 28 69 29 70 26 66 -146 0
63 28 69 29 70 26 66 -148 0
63 15 69 19 70 18 66 -125 0
63 15 69 19 70 18 66 -124 0
63 15 69 19 70 18 66 -126 0
63 15 69 19 70 18 66 -123 0
63 52 69 54 70 49 66 -190 0
63 52 69 54 70 49 66 -189 0
63 52 69 54 70 49 66 -188 0
63 52 69 54 70 49 66 -187 0
63 11 69 10 70 9 66 -99 0
63 11 69 10 70 9 66 -100 0
63 11 69 10 70 9 66 -98 0
63 11 69 10 70 9 66 -97 0
63 62 69 56 70 59 66 -196 0
63 62 69 56 70 59 66 -195 0
63 62 69 56 70 59 66 -193 0
63 62 69 56 70 59 66 -194 0
63 69 37 70 32 66 33 -166 0
63 69 37 70 32 66 33 -163 0
63 69 37 70 32 66 33 -164 0
63 69 37 70 32 66 33 -165 0
36 46 37 39 32 44 33 -151 0
36 46 37 39 32 44 33 -154 0
36 46 37 39 32 44 33 -153 0
36 46 37 39 32 44 33 -152 0
36 1 37 6 32 2 33 -31 0
36 1 37 6 32 2 33 -38 0
36 1 37 6 32 2 33 -35 0
36 1 37 6 32 2 33 -34 0
36 28 37 29 32 26 33 -130 0
36 28 37 29 32 26 33 -132 0
36 28 37 29 32 26 33 -129 0
36 28 37 29 32 26 33 -131 0
36 15 37 19 32 18 33 -110 0
36 15 37 19 32 18 33 -108 0
36 15 37 19 32 18 33 -109 0
36 15 37 19 32 18 33 -107 0
36 52 37 54 32 49 33 -158 0
36 52 37 54 32 49 33 -156 0
36 52 37 54 32 49 33 -155 0
36 52 37 54 32 49 33 -157 0
36 11 37 10 32 9 33 -83 0
36 11 37 10 32 9 33 -82 0
36 11 37 10 32 9 33 -81 0
36 11 37 10 32 9 33 -84 0
36 62 37 56 32 59 33 -160 0
36 62 37 56 32 59 33 -162 0
36 62 37 56 32 59 33 -159 0
36 62 37 56 32 59 33 -161 0
36 69 37 70 32 66 33 -166 0
36 69 37 70 32 66 33 -163 0
36 69 37 70 32 66 33 -164 0
36 69 37 70 32 66 33 -165 0
168 40 134 114 170 86 173 178 151 0
42 4 27 16 53 13 58 68 31 0
135 25 127 106 137 78 141 145 130 0
112 21 104 102 117 76 121 125 110 0
172 51 139 116 181 90 184 190 158 0
87 7 80 74 91 71 95 99 83 0
174 57 144 119 186 93 192 196 160 0
177 67 147 124 189 100 195 197 166 0
154 38 132 108 156 82 162 163 149 0
167 43 136 111 171 88 176 180 153 0
41 5 30 17 48 12 61 65 35 0
133 23 128 105 138 77 142 146 129 0
113 22 103 101 115 75 120 126 109 0
169 50 140 118 182 89 183 188 155 0
85 8 79 73 92 72 94 98 81 0
175 55 143 122 185 96 191 193 159 0
179 64 148 123 187 97 194 198 164 0
152 34 131 107 157 84 161 165 150 0
45 3 46 1 39 6 44 2 -40 0
45 3 46 1 39 6 44 2 -42 0
45 3 46 1 39 6 44 2 -43 0
45 3 46 1 39 6 44 2 -41 0
45 24 46 28 39 29 44 26 -134 0
45 24 46 28 39 29 44 26 -135 0
45 24 46 28 39 29 44 26 -136 0
45 24 46 28 39 29 44 26 -133 0
45 20 46 15 39 19 44 18 -114 0
45 20 46 15 39 19 44 18 -112 0
45 20 46 15 39 19 44 18 -111 0
45 20 46 15 39 19 44 18 -113 0
45 47 46 52 39 54 44 49 -170 0
45 47 46 52 39 54 44 49 -172 0
45 47 46 52 39 54 44 49 -171 0
45 47 46 52 39 54 44 49 -169 0
45 14 46 11 39 10 44 9 -86 0
45 14 46 11 39 10 44 9 -87 0
45 14 46 11 39 10 44 9 -88 0
45 14 46 11 39 10 44 9 -85 0
45 60 46 62 39 56 44 59 -173 0
45 60 46 62 39 56 44 59 -174 0
45 60 46 62 39 56 44 59 -176 0
45 60 46 62 39 56 44 59 -175 0
45 63 46 69 39 70 44 66 -178 0
45 63 46 69 39 70 44 66 -177 0
45 63 46 69 39 70 44 66 -180 0
45 63 46 69 39 70 44 66 -179 0
45 36 46 37 39 32 44 33 -151 0
45 36 46 37 39 32 44 33 -154 0
45 36 46 37 39 32 44 33 -153 0
45 36 46 37 39 32 44 33 -152 0
3 24 1 28 6 29 2 26 -27 0
3 24 1 28 6 29 2 26 -25 0
3 24 1 28 6 29 2 26 -30 0
3 24 1 28 6 29 2 26 -23 0
3 20 1 15 6 19 2 18 -16 0
3 20 1 15 6 19 2 18 -21 0
3 20 1 15 6 19 2 18 -17 0
3 20 1 15 6 19 2 18 -22 0
3 47 1 52 6 54 2 49 -53 0
3 47 1 52 6 54 2 49 -51 0
3 47 1 52 6 54 2 49 -48 0
3 47 1 52 6 54 2 49 -50 0
3 14 1 11 6 10 2 9 -13 0
3 14 1 11 6 10 2 9 -7 0
3 14 1 11 6 10 2 9 -12 0
3 14 1 11 6 10 2 9 -8 0
3 60 1 62 6 56 2 59 -58 0
3 60 1 62 6 56 2 59 -57 0
3 60 1 62 6 56 2 59 -61 0
3 60 1 62 6 56 2 59 -55 0
3 63 1 69 6 70 2 66 -68 0
3 63 1 69 6 70 2 66 -67 0
3 63 1 69 6 70 2 66 -65 0
3 63 1 69 6 70 2 66 -64 0
3 36 1 37 6 32 2 33 -31 0
3 36 1 37 6 32 2 33 -38 0
3 36 1 37 6 32 2 33 -35 0
3 36 1 37 6 32 2 33 -34 0
24 20 28 15 29 19 26 18 -106 0
24 20 28 15 29 19 26 18 -104 0
24 20 28 15 29 19 26 18 -105 0
24 20 28 15 29 19 26 18 -103 0
24 47 28 52 29 54 26 49 -137 0
24 47 28 52 29 54 26 49 -139 0
24 47 28 52 29 54 26 49 -138 0
24 47 28 52 29 54 26 49 -140 0
24 14 28 11 29 10 26 9 -78 0
24 14 28 11 29 10 26 9 -80 0
24 14 28 11 29 10 26 9 -77 0
24 14 28 11 29 10 26 9 -79 0
24 60 28 62 29 56 26 59 -141 0
24 60 28 62 29 56 26 59 -144 0
24 60 28 62 29 56 26 59 -142 0
24 60 28 62 29 56 26 59 -143 0
24 63 28 69 29 70 26 66 -145 0
24 63 28 69 29 70 26 66 -147 0
24 63 28 69 29 70 26 66 -146 0
24 63 28 69 29 70 26 66 -148 0
24 36 28 37 29 32 26 33 -130 0
24 36 28 37 29 32 26 33 -132 0
24 36 28 37 29 32 26 33 -129 0
24 36 28 37 29 32 26 33 -131 0
20 47 15 52 19 54 18 49 -117 0
20 47 15 52 19 54 18 49 -116 0
20 47 15 52 19 54 18 49 -115 0
20 47 15 52 19 54 18 49 -118 0
20 14 15 11 19 10 18 9 -76 0
20 14 15 11 19 10 18 9 -74 0
20 14 15 11 19 10 18 9 -75 0
20 14 15 11 19 10 18 9 -73 0
20 60 15 62 19 56 18 59 -121 0
20 60 15 62 19 56 18 59 -119 0
20 60 15 62 19 56 18 59 -120 0
20 60 15 62 19 56 18 59 -122 0
20 63 15 69 19 70 18 66 -125 0
20 63 15 69 19 70 18 66 -124 0
20 63 15 69 19 70 18 66 -126 0
20 63 15 69 19 70 18 66 -123 0
20 36 15 37 19 32 18 33 -110 0
20 36 15 37 19 32 18 33 -108 0
20 36 15 37 19 32 18 33 -109 0
20 36 15 37 19 32 18 33 -107 0
47 14 52 11 54 10 49 9 -90 0
47 14 52 11 54 10 49 9 -91 0
47 14 52 11 54 10 49 9 -89 0
47 14 52 11 54 10 49 9 -92 0
47 60 52 62 54 56 49 59 -184 0
47 60 52 62 54 56 49 59 -186 0
47 60 52 62 54 56 49 59 -183 0
47 60 52 62 54 56 49 59 -185 0
47 63 52 69 54 70 49 66 -190 0
47 63 52 69 54 70 49 66 -189 0
47 63 52 69 54 70 49 66 -188 0
47 63 52 69 54 70 49 66 -187 0
47 36 52 37 54 32 49 33 -158 0
47 36 52 37 54 32 49 33 -156 0
47 36 52 37 54 32 49 33 -155 0
47 36 52 37 54 32 49 33 -157 0
14 60 11 62 10 56 9 59 -95 0
14 60 11 62 10 56 9 59 -93 0
14 60 11 62 10 56 9 59 -94 0
14 60 11 62 10 56 9 59 -96 0
14 63 11 69 10 70 9 66 -99 0
14 63 11 69 10 70 9 66 -100 0
14 63 11 69 10 70 9 66 -98 0
14 63 11 69 10 70 9 66 -97 0
14 36 11 37 10 32 9 33 -83 0
14 36 11 37 10 32 9 33 -82 0
14 36 11 37 10 32 9 33 -81 0
14 36 11 37 10 32 9 33 -84 0
60 63 62 69 56 70 59 66 -196 0
60 63 62 69 56 70 59 66 -195 0
60 63 62 69 56 70 59 66 -193 0
60 63 62 69 56 70 59 66 -194 0
60 36 62 37 56 32 59 33 -160 0
60 36 62 37 56 32 59 33 -162 0
60 36 62 37 56 32 59 33 -159 0
60 36 62 37 56 32 59 33 -161 0
63 36 69 37 70 32 66 33 -166 0
63 36 69 37 70 32 66 33 -163 0
63 36 69 37 70 32 66 33 -164 0
63 36 69 37 70 32 66 33 -165 0
