c E1(1,1) E2(1,1) E3(1,1) E1(8,1) E1(8,8) E3(1,8) E3(8,1) E3(8,8) E2(8,1) E2(1,8) E1(1,8) E2(8,8) E2(9,1) E3(9,1) E3(1,9) E1(9,1) E2(1,9) E3(9,9) E1(1,9) E2(9,9) E1(9,9) E2(0,0) E2(1,0) E2(0,1) E3(1,0) E1(0,1) E1(1,0) E1(0,0) E3(0,1) E3(0,0) E2(1,6) E3(6,1) E3(6,6) E2(6,6) E2(6,1) E1(1,6) E1(6,1) E1(6,6) E3(1,6) E3(2,1) E2(1,2) E1(1,2) E3(1,2) E3(2,2) E2(2,1) E1(2,1) E2(2,2) E1(2,2) E1(7,7) E3(1,7) E3(7,1) E2(1,7) E2(7,1) E3(7,7) E1(7,1) E1(1,7) E2(7,7) E1(4,4) E2(4,1) E2(1,4) E3(1,4) E1(4,1) E3(4,4) E3(4,1) E2(4,4) E1(1,4) E2(1,5) E3(1,5) E2(5,1) E1(1,5) E1(5,5) E1(5,1) E3(5,5) E2(5,5) E3(5,1) E2(3,1) E2(1,3) E3(3,3) E1(3,1) E1(1,3) E2(3,3) E3(3,1) E1(3,3) E3(1,3) E2(9,8) E3(8,9) E1(9,8) E2(8,9) E3(9,8) E1(8,9) E2(0,8) E1(0,8) E2(8,0) E3(8,0) E1(8,0) E3(0,8) E2(6,8) E1(6,8) E2(8,6) E3(8,6) E3(6,8) E1(8,6) E3(2,8) E2(8,2) E2(2,8) E1(8,2) E1(2,8) E3(8,2) E2(7,8) E1(7,8) E3(8,7) E3(7,8) E2(8,7) E1(8,7) E2(4,8) E1(8,4) E1(4,8) E2(8,4) E3(8,4) E3(4,8) E1(8,5) E2(5,8) E2(8,5) E1(5,8) E3(8,5) E3(5,8) E3(8,3) E2(8,3) E2(3,8) E3(3,8) E1(3,8) E1(8,3) E1(0,9) E1(9,0) E3(0,9) E3(9,0) E2(9,0) E2(0,9) E3(9,6) E1(9,6) E1(6,9) E2(6,9) E3(6,9) E2(9,6) E2(2,9) E1(2,9) E1(9,2) E3(9,2) E3(2,9) E2(9,2) E3(7,9) E2(9,7) E3(9,7) E2(7,9) E1(7,9) E1(9,7) E1(9,4) E3(4,9) E2(4,9) E2(9,4) E3(9,4) E1(4,9) E1(5,9) E3(5,9) E1(9,5) E2(5,9) E2(9,5) E3(9,5) E3(3,9) E2(9,3) E3(9,3) E2(3,9) E1(3,9) E1(9,3) E2(6,0) E1(6,0) E3(6,0) E2(0,6) E3(0,6) E1(0,6) E3(2,0) E1(0,2) E2(2,0) E3(0,2) E2(0,2) E1(2,0) E2(7,0) E3(0,7) E2(0,7) E3(7,0) E1(7,0) E1(0,7) E1(0,4) E3(4,0) E3(0,4) E2(4,0) E2(0,4) E1(4,0) E2(5,0) E3(0,5) E1(5,0) E2(0,5) E3(5,0) E1(0,5) E3(0,3) E2(0,3) E2(3,0) E1(3,0) E1(0,3) E3(3,0) E2(6,2) E1(6,2) E1(2,6) E3(6,2) E2(2,6) E3(2,6) E2(7,6) E1(7,6) E3(6,7) E3(7,6) E2(6,7) E1(6,7) E1(6,4) E3(4,6) E2(6,4) E3(6,4) E2(4,6) E1(4,6) E3(6,5) E1(6,5) E1(5,6) E2(6,5) E3(5,6) E2(5,6) E1(3,6) E3(6,3) E3(3,6) E2(6,3) E2(3,6) E1(6,3) E2(2,7) E3(7,2) E1(2,7) E2(7,2) E3(2,7) E1(7,2) E1(4,2) E3(2,4) E3(4,2) E2(2,4) E1(2,4) E2(4,2) E1(2,5) E2(5,2) E1(5,2) E2(2,5) E3(5,2) E3(2,5) E1(3,2) E3(2,3) E2(3,2) E2(2,3) E3(3,2) E1(2,3) E1(7,4) E3(4,7) E2(7,4) E3(7,4) E2(4,7) E1(4,7) E2(5,7) E1(7,5) E1(5,7) E2(7,5) E3(7,5) E3(5,7) E1(3,7) E3(7,3) E1(7,3) E2(7,3) E3(3,7) E2(3,7) E3(4,5) E2(5,4) E1(4,5) E1(5,4) E2(4,5) E3(5,4) E2(4,3) E3(4,3) E1(3,4) E3(3,4) E2(3,4) E1(4,3) E1(3,5) E3(5,3) E2(5,3) E2(3,5) E3(3,5) E1(5,3)
c 1 2 3 4 5 6 7 8 9 10 11 12 13 14 15 16 17 18 19 20 21 22 23 24 25 26 27 28 29 30 31 32 33 34 35 36 37 38 39 40 41 42 43 44 45 46 47 48 49 50 51 52 53 54 55 56 57 58 59 60 61 62 63 64 65 66 67 68 69 70 71 72 73 74 75 76 77 78 79 80 81 82 83 84 85 86 87 88 89 90 91 92 93 94 95 96 97 98 99 100 101 102 103 104 105 106 107 108 109 110 111 112 113 114 115 116 117 118 119 120 121 122 123 124 125 126 127 128 129 130 131 132 133 134 135 136 137 138 139 140 141 142 143 144 145 146 147 148 149 150 151 152 153 154 155 156 157 158 159 160 161 162 163 164 165 166 167 168 169 170 171 172 173 174 175 176 177 178 179 180 181 182 183 184 185 186 187 188 189 190 191 192 193 194 195 196 197 198 199 200 201 202 203 204 205 206 207 208 209 210 211 212 213 214 215 216 217 218 219 220 221 222 223 224 225 226 227 228 229 230 231 232 233 234 235 236 237 238 239 240 241 242 243 244 245 246 247 248 249 250 251 252 253 254 255 256 257 258 259 260 261 262 263 264 265 266 267 268 269 270 271 272 273 274 275 276 277 278 279 280 281 282 283 284 285 286 287 288 289 290 291 292 293 294 295 296 297 298 299 300
p cnf 300 650
-28 0
-1 0
-48 0
-83 0
-58 0
-71 0
-38 0
-49 0
-5 0
-21 0
-22 0
-2 0
-47 0
-81 0
-65 0
-74 0
-34 0
-57 0
-12 0
-20 0
-30 0
-3 0
-44 0
-78 0
-63 0
-73 0
-33 0
-54 0
-8 0
-18 0
28 -28 0
26 -27 0
182 -186 0
209 -208 0
193 -198 0
204 -201 0
180 -176 0
192 -191 0
92 -95 0
133 -134 0
27 -26 0
1 -1 0
42 -46 0
80 -79 0
66 -62 0
70 -72 0
36 -37 0
56 -55 0
11 -4 0
19 -16 0
186 -182 0
46 -42 0
48 -48 0
264 -259 0
251 -247 0
253 -255 0
213 -212 0
243 -246 0
107 -106 0
146 -147 0
208 -209 0
79 -80 0
259 -264 0
83 -83 0
291 -294 0
295 -300 0
235 -240 0
277 -279 0
131 -132 0
173 -174 0
198 -193 0
62 -66 0
247 -251 0
294 -291 0
58 -58 0
285 -286 0
228 -223 0
270 -265 0
117 -116 0
162 -157 0
201 -204 0
72 -70 0
255 -253 0
300 -295 0
286 -285 0
71 -71 0
231 -230 0
273 -272 0
124 -121 0
163 -165 0
176 -180 0
37 -36 0
212 -213 0
240 -235 0
223 -228 0
230 -231 0
38 -38 0
222 -218 0
98 -102 0
141 -140 0
191 -192 0
55 -56 0
246 -243 0
279 -277 0
265 -270 0
272 -273 0
218 -222 0
49 -49 0
110 -114 0
155 -156 0
95 -92 0
4 -11 0
106 -107 0
132 -131 0
116 -117 0
121 -124 0
102 -98 0
114 -110 0
5 -5 0
90 -87 0
134 -133 0
16 -19 0
147 -146 0
174 -173 0
157 -162 0
165 -163 0
140 -141 0
156 -155 0
87 -90 0
21 -21 0
22 -22 0
24 -23 0
185 -183 0
206 -207 0
197 -196 0
202 -199 0
178 -175 0
189 -187 0
91 -93 0
138 -137 0
23 -24 0
2 -2 0
41 -45 0
77 -76 0
60 -59 0
67 -69 0
31 -35 0
52 -53 0
10 -9 0
17 -13 0
183 -185 0
45 -41 0
47 -47 0
262 -261 0
250 -252 0
256 -254 0
215 -211 0
241 -244 0
105 -104 0
145 -150 0
207 -206 0
76 -77 0
261 -262 0
81 -81 0
293 -289 0
298 -297 0
239 -238 0
282 -280 0
129 -128 0
172 -170 0
196 -197 0
59 -60 0
252 -250 0
289 -293 0
65 -65 0
287 -284 0
227 -225 0
269 -267 0
115 -118 0
159 -160 0
199 -202 0
69 -67 0
254 -256 0
297 -298 0
284 -287 0
74 -74 0
234 -232 0
271 -274 0
122 -123 0
166 -167 0
175 -178 0
35 -31 0
211 -215 0
238 -239 0
225 -227 0
232 -234 0
34 -34 0
221 -217 0
97 -99 0
142 -144 0
187 -189 0
53 -52 0
244 -241 0
280 -282 0
267 -269 0
274 -271 0
217 -221 0
57 -57 0
109 -113 0
154 -152 0
93 -91 0
9 -10 0
104 -105 0
128 -129 0
118 -115 0
123 -122 0
99 -97 0
113 -109 0
12 -12 0
88 -85 0
137 -138 0
13 -17 0
150 -145 0
170 -172 0
160 -159 0
167 -166 0
144 -142 0
152 -154 0
85 -88 0
20 -20 0
30 -30 0
29 -25 0
184 -181 0
205 -210 0
195 -194 0
200 -203 0
179 -177 0
188 -190 0
96 -94 0
135 -136 0
25 -29 0
3 -3 0
43 -40 0
84 -82 0
61 -64 0
68 -75 0
39 -32 0
50 -51 0
6 -7 0
15 -14 0
181 -184 0
40 -43 0
44 -44 0
260 -263 0
248 -249 0
258 -257 0
216 -214 0
245 -242 0
103 -108 0
149 -148 0
210 -205 0
82 -84 0
263 -260 0
78 -78 0
292 -290 0
299 -296 0
237 -236 0
281 -278 0
130 -127 0
169 -171 0
194 -195 0
64 -61 0
249 -248 0
290 -292 0
63 -63 0
283 -288 0
224 -226 0
266 -268 0
120 -119 0
158 -161 0
203 -200 0
75 -68 0
257 -258 0
296 -299 0
288 -283 0
73 -73 0
233 -229 0
276 -275 0
126 -125 0
164 -168 0
177 -179 0
32 -39 0
214 -216 0
236 -237 0
226 -224 0
229 -233 0
33 -33 0
219 -220 0
101 -100 0
143 -139 0
190 -188 0
51 -50 0
242 -245 0
278 -281 0
268 -266 0
275 -276 0
220 -219 0
54 -54 0
112 -111 0
151 -153 0
94 -96 0
7 -6 0
108 -103 0
127 -130 0
119 -120 0
125 -126 0
100 -101 0
111 -112 0
8 -8 0
86 -89 0
136 -135 0
14 -15 0
148 -149 0
171 -169 0
161 -158 0
168 -164 0
139 -143 0
153 -151 0
89 -86 0
18 -18 0
-28 -22 0
-28 -30 0
-26 -24 0
-26 -29 0
-182 -185 0
-182 -184 0
-209 -206 0
-209 -205 0
-193 -197 0
-193 -195 0
-204 -202 0
-204 -200 0
-180 -178 0
-180 -179 0
-192 -189 0
-192 -188 0
-92 -91 0
-92 -96 0
-133 -138 0
-133 -135 0
-27 -23 0
-27 -25 0
-1 -2 0
-1 -3 0
-42 -41 0
-42 -43 0
-80 -77 0
-80 -84 0
-66 -60 0
-66 -61 0
-70 -67 0
-70 -68 0
-36 -31 0
-36 -39 0
-56 -52 0
-56 -50 0
-11 -10 0
-11 -6 0
-19 -17 0
-19 -15 0
-186 -183 0
-186 -181 0
-46 -45 0
-46 -40 0
-48 -47 0
-48 -44 0
-264 -262 0
-264 -260 0
-251 -250 0
-251 -248 0
-253 -256 0
-253 -258 0
-213 -215 0
-213 -216 0
-243 -241 0
-243 -245 0
-107 -105 0
-107 -103 0
-146 -145 0
-146 -149 0
-208 -207 0
-208 -210 0
-79 -76 0
-79 -82 0
-259 -261 0
-259 -263 0
-83 -81 0
-83 -78 0
-291 -293 0
-291 -292 0
-295 -298 0
-295 -299 0
-235 -239 0
-235 -237 0
-277 -282 0
-277 -281 0
-131 -129 0
-131 -130 0
-173 -172 0
-173 -169 0
-198 -196 0
-198 -194 0
-62 -59 0
-62 -64 0
-247 -252 0
-247 -249 0
-294 -289 0
-294 -290 0
-58 -65 0
-58 -63 0
-285 -287 0
-285 -283 0
-228 -227 0
-228 -224 0
-270 -269 0
-270 -266 0
-117 -115 0
-117 -120 0
-162 -159 0
-162 -158 0
-201 -199 0
-201 -203 0
-72 -69 0
-72 -75 0
-255 -254 0
-255 -257 0
-300 -297 0
-300 -296 0
-286 -284 0
-286 -288 0
-71 -74 0
-71 -73 0
-231 -234 0
-231 -233 0
-273 -271 0
-273 -276 0
-124 -122 0
-124 -126 0
-163 -166 0
-163 -164 0
-176 -175 0
-176 -177 0
-37 -35 0
-37 -32 0
-212 -211 0
-212 -214 0
-240 -238 0
-240 -236 0
-223 -225 0
-223 -226 0
-230 -232 0
-230 -229 0
-38 -34 0
-38 -33 0
-222 -221 0
-222 -219 0
-98 -97 0
-98 -101 0
-141 -142 0
-141 -143 0
-191 -187 0
-191 -190 0
-55 -53 0
-55 -51 0
-246 -244 0
-246 -242 0
-279 -280 0
-279 -278 0
-265 -267 0
-265 -268 0
-272 -274 0
-272 -275 0
-218 -217 0
-218 -220 0
-49 -57 0
-49 -54 0
-110 -109 0
-110 -112 0
-155 -154 0
-155 -151 0
-95 -93 0
-95 -94 0
-4 -9 0
-4 -7 0
-106 -104 0
-106 -108 0
-132 -128 0
-132 -127 0
-116 -118 0
-116 -119 0
-121 -123 0
-121 -125 0
-102 -99 0
-102 -100 0
-114 -113 0
-114 -111 0
-5 -12 0
-5 -8 0
-90 -88 0
-90 -86 0
-134 -137 0
-134 -136 0
-16 -13 0
-16 -14 0
-147 -150 0
-147 -148 0
-174 -170 0
-174 -171 0
-157 -160 0
-157 -161 0
-165 -167 0
-165 -168 0
-140 -144 0
-140 -139 0
-156 -152 0
-156 -153 0
-87 -85 0
-87 -89 0
-21 -20 0
-21 -18 0
-22 -30 0
-24 -29 0
-185 -184 0
-206 -205 0
-197 -195 0
-202 -200 0
-178 -179 0
-189 -188 0
-91 -96 0
-138 -135 0
-23 -25 0
-2 -3 0
-41 -43 0
-77 -84 0
-60 -61 0
-67 -68 0
-31 -39 0
-52 -50 0
-10 -6 0
-17 -15 0
-183 -181 0
-45 -40 0
-47 -44 0
-262 -260 0
-250 -248 0
-256 -258 0
-215 -216 0
-241 -245 0
-105 -103 0
-145 -149 0
-207 -210 0
-76 -82 0
-261 -263 0
-81 -78 0
-293 -292 0
-298 -299 0
-239 -237 0
-282 -281 0
-129 -130 0
-172 -169 0
-196 -194 0
-59 -64 0
-252 -249 0
-289 -290 0
-65 -63 0
-287 -283 0
-227 -224 0
-269 -266 0
-115 -120 0
-159 -158 0
-199 -203 0
-69 -75 0
-254 -257 0
-297 -296 0
-284 -288 0
-74 -73 0
-234 -233 0
-271 -276 0
-122 -126 0
-166 -164 0
-175 -177 0
-35 -32 0
-211 -214 0
-238 -236 0
-225 -226 0
-232 -229 0
-34 -33 0
-221 -219 0
-97 -101 0
-142 -143 0
-187 -190 0
-53 -51 0
-244 -242 0
-280 -278 0
-267 -268 0
-274 -275 0
-217 -220 0
-57 -54 0
-109 -112 0
-154 -151 0
-93 -94 0
-9 -7 0
-104 -108 0
-128 -127 0
-118 -119 0
-123 -125 0
-99 -100 0
-113 -111 0
-12 -8 0
-88 -86 0
-137 -136 0
-13 -14 0
-150 -148 0
-170 -171 0
-160 -161 0
-167 -168 0
-144 -139 0
-152 -153 0
-85 -89 0
-20 -18 0
28 26 182 209 193 204 180 192 92 133 0
27 1 42 80 66 70 36 56 11 19 0
186 46 48 264 251 253 213 243 107 146 0
208 79 259 83 291 295 235 277 131 173 0
198 62 247 294 58 285 228 270 117 162 0
201 72 255 300 286 71 231 273 124 163 0
176 37 212 240 223 230 38 222 98 141 0
191 55 246 279 265 272 218 49 110 155 0
95 4 106 132 116 121 102 114 5 90 0
134 16 147 174 157 165 140 156 87 21 0
22 24 185 206 197 202 178 189 91 138 0
23 2 41 77 60 67 31 52 10 17 0
183 45 47 262 250 256 215 241 105 145 0
207 76 261 81 293 298 239 282 129 172 0
196 59 252 289 65 287 227 269 115 159 0
199 69 254 297 284 74 234 271 122 166 0
175 35 211 238 225 232 34 221 97 142 0
187 53 244 280 267 274 217 57 109 154 0
93 9 104 128 118 123 99 113 12 88 0
137 13 150 170 160 167 144 152 85 20 0
