c E3(2,2) E2(2,2) E1(2,2) E2(2,7) E1(7,2) E3(7,7) E1(2,7) E2(7,7) E1(7,7) E3(7,2) E3(2,7) E2(7,2) E3(10,10) E2(2,10) E1(10,2) E2(10,10) E1(10,10) E1(2,10) E3(2,10) E2(10,2) E3(10,2) E3(0,2) E2(2,0) E1(0,2) E3(2,0) E2(0,2) E1(2,0) E1(0,0) E2(0,0) E3(0,0) E2(8,8) E2(8,2) E2(2,8) E3(2,8) E1(8,8) E1(2,8) E3(8,8) E1(8,2) E3(8,2) E1(2,3) E1(3,2) E3(3,2) E3(3,3) E2(3,2) E2(3,3) E2(2,3) E3(2,3) E1(3,3) E2(5,2) E3(5,2) E3(2,5) E2(5,5) E1(5,2) E2(2,5) E3(5,5) E1(2,5) E1(5,5) E2(2,1) E2(1,2) E1(1,1) E3(1,2) E3(2,1) E2(1,1) E1(1,2) E1(2,1) E3(1,1) E3(2,9) E2(9,2) E3(9,2) E2(9,9) E1(2,9) E2(2,9) E3(9,9) E1(9,2) E1(9,9) E3(2,6) E3(6,6) E2(2,6) E2(6,6) E2(6,2) E1(6,6) E1(2,6) E3(6,2) E1(6,2) E2(2,4) E3(2,4) E1(4,2) E1(4,4) E3(4,2) E2(4,4) E3(4,4) E2(4,2) E1(2,4) E2(7,10) E3(7,10) E2(10,7) E1(10,7) E3(10,7) E1(7,10) E1(7,0) E3(0,7) E2(0,7) E2(7,0) E3(7,0) E1(0,7) E2(7,8) E2(8,7) E3(7,8) E1(8,7) E1(7,8) E3(8,7) E1(3,7) E3(3,7) E2(7,3) E3(7,3) E1(7,3) E2(3,7) E1(5,7) E2(5,7) E1(7,5) E3(5,7) E2(7,5) E3(7,5) E1(1,7) E3(7,1) E1(7,1) E2(7,1) E2(1,7) E3(1,7) E1(7,9) E1(9,7) E2(9,7) E3(7,9) E3(9,7) E2(7,9) E1(7,6) E1(6,7) E3(7,6) E2(7,6) E2(6,7) E3(6,7) E3(4,7) E1(7,4) E2(7,4) E3(7,4) E2(4,7) E1(4,7) E3(10,0) E1(10,0) E3(0,10) E2(0,10) E1(0,10) E2(10,0) E1(10,8) E1(8,10) E3(10,8) E2(8,10) E3(8,10) E2(10,8) E1(3,10) E3(3,10) E1(10,3) E2(3,10) E2(10,3) E3(10,3) E1(10,5) E3(5,10) E2(5,10) E2(10,5) E3(10,5) E1(5,10) E1(10,1) E2(10,1) E3(10,1) E3(1,10) E2(1,10) E1(1,10) E3(10,9) E1(10,9) E2(10,9) E2(9,10) E3(9,10) E1(9,10) E3(10,6) E2(6,10) E1(6,10) E2(10,6) E3(6,10) E1(10,6) E2(10,4) E1(10,4) E3(4,10) E3(10,4) E1(4,10) E2(4,10) E3(8,0) E1(0,8) E2(8,0) E2(0,8) E3(0,8) E1(8,0) E1(0,3) E2(0,3) E2(3,0) E3(0,3) E3(3,0) E1(3,0) E2(0,5) E3(0,5) E1(5,0) E1(0,5) E2(5,0) E3(5,0) E3(1,0) E1(0,1) E2(1,0) E3(0,1) E2(0,1) E1(1,0) E2(9,0) E2(0,9) E3(9,0) E1(0,9) E1(9,0) E3(0,9) E2(0,6) E2(6,0) E3(0,6) E3(6,0) E1(0,6) E1(6,0) E3(0,4) E1(4,0) E1(0,4) E2(0,4) E2(4,0) E3(4,0) E2(8,3) E3(8,3) E1(8,3) E2(3,8) E3(3,8) E1(3,8) E3(5,8) E1(8,5) E1(5,8) E2(8,5) E3(8,5) E2(5,8) E1(1,8) E1(8,1) E2(1,8) E3(8,1) E3(1,8) E2(8,1) E1(8,9) E3(9,8) E2(9,8) E1(9,8) E3(8,9) E2(8,9) E1(8,6) E2(8,6) E2(6,8) E3(6,8) E3(8,6) E1(6,8) E1(8,4) E2(8,4) E1(4,8) E3(8,4) E2(4,8) E3(4,8) E3(5,3) E1(3,5) E1(5,3) E2(3,5) E3(3,5) E2(5,3) E2(1,3) E2(3,1) E1(3,1) E3(1,3) E1(1,3) E3(3,1) E1(3,9) E2(9,3) E3(9,3) E3(3,9) E1(9,3) E2(3,9) E2(6,3) E3(6,3) E3(3,6) E2(3,6) E1(3,6) E1(6,3) E1(4,3) E3(3,4) E2(3,4) E2(4,3) E3(4,3) E1(3,4) E2(1,5) E2(5,1) E3(1,5) E1(5,1) E3(5,1) E1(1,5) E1(5,9) E2(9,5) E1(9,5) E3(5,9) E2(5,9) E3(9,5) E3(5,6) E1(6,5) E1(5,6) E2(5,6) E2(6,5) E3(6,5) E2(4,5) E3(5,4) E1(5,4) E1(4,5) E2(5,4) E3(4,5) E2(1,9) E3(1,9) E1(9,1) E2(9,1) E3(9,1) E1(1,9) E2(1,6) E3(6,1) E1(6,1) E2(6,1) E3(1,6) E1(1,6) E1(1,4) E2(4,1) E2(1,4) E3(1,4) E3(4,1) E1(4,1) E2(9,6) E3(9,6) E2(6,9) E3(6,9) E1(9,6) E1(6,9) E1(9,4) E3(4,9) E1(4,9) E2(9,4) E3(9,4) E2(4,9) E2(4,6) E2(6,4) E1(4,6) E3(4,6) E3(6,4) E1(6,4)
c 1 2 3 4 5 6 7 8 9 10 11 12 13 14 15 16 17 18 19 20 21 22 23 24 25 26 27 28 29 30 31 32 33 34 35 36 37 38 39 40 41 42 43 44 45 46 47 48 49 50 51 52 53 54 55 56 57 58 59 60 61 62 63 64 65 66 67 68 69 70 71 72 73 74 75 76 77 78 79 80 81 82 83 84 85 86 87 88 89 90 91 92 93 94 95 96 97 98 99 100 101 102 103 104 105 106 107 108 109 110 111 112 113 114 115 116 117 118 119 120 121 122 123 124 125 126 127 128 129 130 131 132 133 134 135 136 137 138 139 140 141 142 143 144 145 146 147 148 149 150 151 152 153 154 155 156 157 158 159 160 161 162 163 164 165 166 167 168 169 170 171 172 173 174 175 176 177 178 179 180 181 182 183 184 185 186 187 188 189 190 191 192 193 194 195 196 197 198 199 200 201 202 203 204 205 206 207 208 209 210 211 212 213 214 215 216 217 218 219 220 221 222 223 224 225 226 227 228 229 230 231 232 233 234 235 236 237 238 239 240 241 242 243 244 245 246 247 248 249 250 251 252 253 254 255 256 257 258 259 260 261 262 263 264 265 266 267 268 269 270 271 272 273 274 275 276 277 278 279 280 281 282 283 284 285 286 287 288 289 290 291 292 293 294 295 296 297 298 299 300 301 302 303 304 305 306 307 308 309 310 311 312 313 314 315 316 317 318 319 320 321 322 323 324 325 326 327 328 329 330 331 332 333 334 335 336 337 338 339 340 341 342 343 344 345 346 347 348 349 350 351 352 353 354 355 356 357 358 359 360 361 362 363
p cnf 363 781
-28 0
-60 0
-17 0
-3 0
-48 0
-88 0
-57 0
-81 0
-9 0
-35 0
-75 0
-29 0
-63 0
-16 0
-2 0
-45 0
-90 0
-52 0
-79 0
-8 0
-31 0
-70 0
-30 0
-66 0
-13 0
-1 0
-43 0
-91 0
-55 0
-77 0
-6 0
-37 0
-73 0
28 -28 0
215 -219 0
152 -149 0
24 -27 0
202 -207 0
234 -233 0
211 -210 0
230 -231 0
105 -100 0
197 -201 0
223 -224 0
219 -215 0
60 -60 0
177 -172 0
64 -65 0
284 -282 0
340 -345 0
309 -307 0
339 -336 0
124 -126 0
250 -251 0
333 -330 0
149 -152 0
172 -177 0
17 -17 0
15 -18 0
162 -160 0
191 -194 0
166 -171 0
189 -186 0
97 -99 0
154 -155 0
179 -183 0
27 -24 0
65 -64 0
18 -15 0
3 -3 0
40 -41 0
93 -87 0
56 -53 0
82 -84 0
7 -5 0
36 -38 0
71 -74 0
207 -202 0
282 -284 0
160 -162 0
41 -40 0
48 -48 0
303 -298 0
275 -276 0
296 -297 0
112 -116 0
243 -240 0
286 -290 0
233 -234 0
345 -340 0
194 -191 0
87 -93 0
298 -303 0
88 -88 0
325 -324 0
360 -363 0
147 -143 0
270 -268 0
354 -352 0
210 -211 0
307 -309 0
171 -166 0
53 -56 0
276 -275 0
324 -325 0
57 -57 0
318 -317 0
118 -120 0
246 -245 0
310 -312 0
231 -230 0
336 -339 0
186 -189 0
84 -82 0
297 -296 0
363 -360 0
317 -318 0
81 -81 0
137 -136 0
267 -262 0
351 -350 0
100 -105 0
126 -124 0
99 -97 0
5 -7 0
116 -112 0
143 -147 0
120 -118 0
136 -137 0
9 -9 0
110 -109 0
130 -131 0
201 -197 0
251 -250 0
155 -154 0
38 -36 0
240 -243 0
268 -270 0
245 -246 0
262 -267 0
109 -110 0
35 -35 0
256 -259 0
224 -223 0
330 -333 0
183 -179 0
74 -71 0
290 -286 0
352 -354 0
312 -310 0
350 -351 0
131 -130 0
259 -256 0
75 -75 0
29 -29 0
218 -216 0
151 -153 0
26 -23 0
203 -204 0
235 -236 0
208 -212 0
226 -227 0
102 -103 0
199 -198 0
221 -220 0
216 -218 0
63 -63 0
176 -173 0
59 -58 0
280 -281 0
342 -341 0
304 -305 0
334 -337 0
128 -127 0
252 -255 0
328 -331 0
153 -151 0
173 -176 0
16 -16 0
20 -14 0
164 -163 0
190 -195 0
169 -168 0
187 -185 0
96 -94 0
159 -157 0
180 -181 0
23 -26 0
58 -59 0
14 -20 0
2 -2 0
46 -44 0
85 -92 0
54 -49 0
78 -80 0
4 -12 0
33 -32 0
72 -68 0
204 -203 0
281 -280 0
163 -164 0
44 -46 0
45 -45 0
300 -301 0
277 -279 0
295 -292 0
117 -114 0
241 -238 0
291 -287 0
236 -235 0
341 -342 0
195 -190 0
92 -85 0
301 -300 0
90 -90 0
322 -326 0
358 -359 0
146 -144 0
272 -269 0
357 -355 0
212 -208 0
305 -304 0
168 -169 0
49 -54 0
279 -277 0
326 -322 0
52 -52 0
319 -320 0
119 -122 0
249 -247 0
314 -311 0
227 -226 0
337 -334 0
185 -187 0
80 -78 0
292 -295 0
359 -358 0
320 -319 0
79 -79 0
140 -139 0
264 -263 0
348 -346 0
103 -102 0
127 -128 0
94 -96 0
12 -4 0
114 -117 0
144 -146 0
122 -119 0
139 -140 0
8 -8 0
106 -107 0
135 -132 0
198 -199 0
255 -252 0
157 -159 0
32 -33 0
238 -241 0
269 -272 0
247 -249 0
263 -264 0
107 -106 0
31 -31 0
261 -258 0
220 -221 0
331 -328 0
181 -180 0
68 -72 0
287 -291 0
355 -357 0
311 -314 0
346 -348 0
132 -135 0
258 -261 0
70 -70 0
30 -30 0
217 -214 0
150 -148 0
22 -25 0
205 -206 0
232 -237 0
209 -213 0
228 -229 0
101 -104 0
200 -196 0
225 -222 0
214 -217 0
66 -66 0
175 -174 0
61 -62 0
283 -285 0
343 -344 0
306 -308 0
338 -335 0
129 -125 0
254 -253 0
329 -332 0
148 -150 0
174 -175 0
13 -13 0
21 -19 0
165 -161 0
193 -192 0
170 -167 0
184 -188 0
98 -95 0
156 -158 0
178 -182 0
25 -22 0
62 -61 0
19 -21 0
1 -1 0
47 -42 0
86 -89 0
51 -50 0
76 -83 0
11 -10 0
34 -39 0
67 -69 0
206 -205 0
285 -283 0
161 -165 0
42 -47 0
43 -43 0
299 -302 0
278 -274 0
294 -293 0
113 -115 0
242 -239 0
289 -288 0
237 -232 0
344 -343 0
192 -193 0
89 -86 0
302 -299 0
91 -91 0
327 -323 0
361 -362 0
142 -145 0
273 -271 0
353 -356 0
213 -209 0
308 -306 0
167 -170 0
50 -51 0
274 -278 0
323 -327 0
55 -55 0
316 -321 0
121 -123 0
244 -248 0
313 -315 0
229 -228 0
335 -338 0
188 -184 0
83 -76 0
293 -294 0
362 -361 0
321 -316 0
77 -77 0
141 -138 0
265 -266 0
349 -347 0
104 -101 0
125 -129 0
95 -98 0
10 -11 0
115 -113 0
145 -142 0
123 -121 0
138 -141 0
6 -6 0
108 -111 0
133 -134 0
196 -200 0
253 -254 0
158 -156 0
39 -34 0
239 -242 0
271 -273 0
248 -244 0
266 -265 0
111 -108 0
37 -37 0
260 -257 0
222 -225 0
332 -329 0
182 -178 0
69 -67 0
288 -289 0
356 -353 0
315 -313 0
347 -349 0
134 -133 0
257 -260 0
73 -73 0
-28 -29 0
-28 -30 0
-215 -218 0
-215 -217 0
-152 -151 0
-152 -150 0
-24 -26 0
-24 -22 0
-202 -203 0
-202 -205 0
-234 -235 0
-234 -232 0
-211 -208 0
-211 -209 0
-230 -226 0
-230 -228 0
-105 -102 0
-105 -101 0
-197 -199 0
-197 -200 0
-223 -221 0
-223 -225 0
-219 -216 0
-219 -214 0
-60 -63 0
-60 -66 0
-177 -176 0
-177 -175 0
-64 -59 0
-64 -61 0
-284 -280 0
-284 -283 0
-340 -342 0
-340 -343 0
-309 -304 0
-309 -306 0
-339 -334 0
-339 -338 0
-124 -128 0
-124 -129 0
-250 -252 0
-250 -254 0
-333 -328 0
-333 -329 0
-149 -153 0
-149 -148 0
-172 -173 0
-172 -174 0
-17 -16 0
-17 -13 0
-15 -20 0
-15 -21 0
-162 -164 0
-162 -165 0
-191 -190 0
-191 -193 0
-166 -169 0
-166 -170 0
-189 -187 0
-189 -184 0
-97 -96 0
-97 -98 0
-154 -159 0
-154 -156 0
-179 -180 0
-179 -178 0
-27 -23 0
-27 -25 0
-65 -58 0
-65 -62 0
-18 -14 0
-18 -19 0
-3 -2 0
-3 -1 0
-40 -46 0
-40 -47 0
-93 -85 0
-93 -86 0
-56 -54 0
-56 -51 0
-82 -78 0
-82 -76 0
-7 -4 0
-7 -11 0
-36 -33 0
-36 -34 0
-71 -72 0
-71 -67 0
-207 -204 0
-207 -206 0
-282 -281 0
-282 -285 0
-160 -163 0
-160 -161 0
-41 -44 0
-41 -42 0
-48 -45 0
-48 -43 0
-303 -300 0
-303 -299 0
-275 -277 0
-275 -278 0
-296 -295 0
-296 -294 0
-112 -117 0
-112 -113 0
-243 -241 0
-243 -242 0
-286 -291 0
-286 -289 0
-233 -236 0
-233 -237 0
-345 -341 0
-345 -344 0
-194 -195 0
-194 -192 0
-87 -92 0
-87 -89 0
-298 -301 0
-298 -302 0
-88 -90 0
-88 -91 0
-325 -322 0
-325 -327 0
-360 -358 0
-360 -361 0
-147 -146 0
-147 -142 0
-270 -272 0
-270 -273 0
-354 -357 0
-354 -353 0
-210 -212 0
-210 -213 0
-307 -305 0
-307 -308 0
-171 -168 0
-171 -167 0
-53 -49 0
-53 -50 0
-276 -279 0
-276 -274 0
-324 -326 0
-324 -323 0
-57 -52 0
-57 -55 0
-318 -319 0
-318 -316 0
-118 -119 0
-118 -121 0
-246 -249 0
-246 -244 0
-310 -314 0
-310 -313 0
-231 -227 0
-231 -229 0
-336 -337 0
-336 -335 0
-186 -185 0
-186 -188 0
-84 -80 0
-84 -83 0
-297 -292 0
-297 -293 0
-363 -359 0
-363 -362 0
-317 -320 0
-317 -321 0
-81 -79 0
-81 -77 0
-137 -140 0
-137 -141 0
-267 -264 0
-267 -265 0
-351 -348 0
-351 -349 0
-100 -103 0
-100 -104 0
-126 -127 0
-126 -125 0
-99 -94 0
-99 -95 0
-5 -12 0
-5 -10 0
-116 -114 0
-116 -115 0
-143 -144 0
-143 -145 0
-120 -122 0
-120 -123 0
-136 -139 0
-136 -138 0
-9 -8 0
-9 -6 0
-110 -106 0
-110 -108 0
-130 -135 0
-130 -133 0
-201 -198 0
-201 -196 0
-251 -255 0
-251 -253 0
-155 -157 0
-155 -158 0
-38 -32 0
-38 -39 0
-240 -238 0
-240 -239 0
-268 -269 0
-268 -271 0
-245 -247 0
-245 -248 0
-262 -263 0
-262 -266 0
-109 -107 0
-109 -111 0
-35 -31 0
-35 -37 0
-256 -261 0
-256 -260 0
-224 -220 0
-224 -222 0
-330 -331 0
-330 -332 0
-183 -181 0
-183 -182 0
-74 -68 0
-74 -69 0
-290 -287 0
-290 -288 0
-352 -355 0
-352 -356 0
-312 -311 0
-312 -315 0
-350 -346 0
-350 -347 0
-131 -132 0
-131 -134 0
-259 -258 0
-259 -257 0
-75 -70 0
-75 -73 0
-29 -30 0
-218 -217 0
-151 -150 0
-26 -22 0
-203 -205 0
-235 -232 0
-208 -209 0
-226 -228 0
-102 -101 0
-199 -200 0
-221 -225 0
-216 -214 0
-63 -66 0
-176 -175 0
-59 -61 0
-280 -283 0
-342 -343 0
-304 -306 0
-334 -338 0
-128 -129 0
-252 -254 0
-328 -329 0
-153 -148 0
-173 -174 0
-16 -13 0
-20 -21 0
-164 -165 0
-190 -193 0
-169 -170 0
-187 -184 0
-96 -98 0
-159 -156 0
-180 -178 0
-23 -25 0
-58 -62 0
-14 -19 0
-2 -1 0
-46 -47 0
-85 -86 0
-54 -51 0
-78 -76 0
-4 -11 0
-33 -34 0
-72 -67 0
-204 -206 0
-281 -285 0
-163 -161 0
-44 -42 0
-45 -43 0
-300 -299 0
-277 -278 0
-295 -294 0
-117 -113 0
-241 -242 0
-291 -289 0
-236 -237 0
-341 -344 0
-195 -192 0
-92 -89 0
-301 -302 0
-90 -91 0
-322 -327 0
-358 -361 0
-146 -142 0
-272 -273 0
-357 -353 0
-212 -213 0
-305 -308 0
-168 -167 0
-49 -50 0
-279 -274 0
-326 -323 0
-52 -55 0
-319 -316 0
-119 -121 0
-249 -244 0
-314 -313 0
-227 -229 0
-337 -335 0
-185 -188 0
-80 -83 0
-292 -293 0
-359 -362 0
-320 -321 0
-79 -77 0
-140 -141 0
-264 -265 0
-348 -349 0
-103 -104 0
-127 -125 0
-94 -95 0
-12 -10 0
-114 -115 0
-144 -145 0
-122 -123 0
-139 -138 0
-8 -6 0
-106 -108 0
-135 -133 0
-198 -196 0
-255 -253 0
-157 -158 0
-32 -39 0
-238 -239 0
-269 -271 0
-247 -248 0
-263 -266 0
-107 -111 0
-31 -37 0
-261 -260 0
-220 -222 0
-331 -332 0
-181 -182 0
-68 -69 0
-287 -288 0
-355 -356 0
-311 -315 0
-346 -347 0
-132 -134 0
-258 -257 0
-70 -73 0
28 215 152 24 202 234 211 230 105 197 223 0
219 60 177 64 284 340 309 339 124 250 333 0
149 172 17 15 162 191 166 189 97 154 179 0
27 65 18 3 40 93 56 82 7 36 71 0
207 282 160 41 48 303 275 296 112 243 286 0
233 345 194 87 298 88 325 360 147 270 354 0
210 307 171 53 276 324 57 318 118 246 310 0
231 336 186 84 297 363 317 81 137 267 351 0
100 126 99 5 116 143 120 136 9 110 130 0
201 251 155 38 240 268 245 262 109 35 256 0
224 330 183 74 290 352 312 350 131 259 75 0
29 218 151 26 203 235 208 226 102 199 221 0
216 63 176 59 280 342 304 334 128 252 328 0
153 173 16 20 164 190 169 187 96 159 180 0
23 58 14 2 46 85 54 78 4 33 72 0
204 281 163 44 45 300 277 295 117 241 291 0
236 341 195 92 301 90 322 358 146 272 357 0
212 305 168 49 279 326 52 319 119 249 314 0
227 337 185 80 292 359 320 79 140 264 348 0
103 127 94 12 114 144 122 139 8 106 135 0
198 255 157 32 238 269 247 263 107 31 261 0
220 331 181 68 287 355 311 346 132 258 70 0
