c E2(1,1) E3(1,1) E1(1,1) E1(2,1) E1(2,2) E2(2,1) E3(2,2) E2(2,2) E1(1,2) E3(1,2) E2(1,2) E3(2,1) E1(0,0) E3(0,0) E1(1,0) E3(0,1) E3(1,0) E2(0,1) E2(0,0) E2(1,0) E1(0,1) E3(3,3) E1(1,3) E2(3,1) E1(3,1) E3(1,3) E3(3,1) E2(1,3) E1(3,3) E2(3,3) E3(1,4) E3(4,4) E1(4,4) E2(4,4) E2(4,1) E1(4,1) E1(1,4) E3(4,1) E2(1,4) E1(0,2) E3(0,2) E2(2,0) E1(2,0) E2(0,2) E3(2,0) E1(3,2) E2(2,3) E3(3,2) E3(2,3) E2(3,2) E1(2,3) E2(2,4) E1(4,2) E2(4,2) E3(4,2) E1(2,4) E3(2,4) E3(0,3) E1(3,0) E3(3,0) E2(3,0) E2(0,3) E1(0,3) E1(4,0) E2(0,4) E2(4,0) E3(4,0) E1(0,4) E3(0,4) E2(4,3) E1(4,3) E2(3,4) E3(4,3) E1(3,4) E3(3,4)
c 1 2 3 4 5 6 7 8 9 10 11 12 13 14 15 16 17 18 19 20 21 22 23 24 25 26 27 28 29 30 31 32 33 34 35 36 37 38 39 40 41 42 43 44 45 46 47 48 49 50 51 52 53 54 55 56 57 58 59 60 61 62 63 64 65 66 67 68 69 70 71 72 73 74 75
p cnf 75 175
-13 0
-3 0
-5 0
-29 0
-33 0
-19 0
-1 0
-8 0
-30 0
-34 0
-14 0
-2 0
-7 0
-22 0
-32 0
13 -13 0
21 -15 0
40 -43 0
63 -59 0
68 -64 0
15 -21 0
3 -3 0
9 -4 0
23 -25 0
37 -36 0
43 -40 0
4 -9 0
5 -5 0
51 -46 0
56 -53 0
59 -63 0
25 -23 0
46 -51 0
29 -29 0
74 -71 0
64 -68 0
36 -37 0
53 -56 0
71 -74 0
33 -33 0
19 -19 0
18 -20 0
44 -42 0
62 -61 0
65 -66 0
20 -18 0
1 -1 0
11 -6 0
28 -24 0
39 -35 0
42 -44 0
6 -11 0
8 -8 0
47 -50 0
52 -54 0
61 -62 0
24 -28 0
50 -47 0
30 -30 0
72 -70 0
66 -65 0
35 -39 0
54 -52 0
70 -72 0
34 -34 0
14 -14 0
16 -17 0
41 -45 0
58 -60 0
69 -67 0
17 -16 0
2 -2 0
10 -12 0
26 -27 0
31 -38 0
45 -41 0
12 -10 0
7 -7 0
49 -48 0
57 -55 0
60 -58 0
27 -26 0
48 -49 0
22 -22 0
75 -73 0
67 -69 0
38 -31 0
55 -57 0
73 -75 0
32 -32 0
-13 -19 0
-13 -14 0
-21 -18 0
-21 -16 0
-40 -44 0
-40 -41 0
-63 -62 0
-63 -58 0
-68 -65 0
-68 -69 0
-15 -20 0
-15 -17 0
-3 -1 0
-3 -2 0
-9 -11 0
-9 -10 0
-23 -28 0
-23 -26 0
-37 -39 0
-37 -31 0
-43 -42 0
-43 -45 0
-4 -6 0
-4 -12 0
-5 -8 0
-5 -7 0
-51 -47 0
-51 -49 0
-56 -52 0
-56 -57 0
-59 -61 0
-59 -60 0
-25 -24 0
-25 -27 0
-46 -50 0
-46 -48 0
-29 -30 0
-29 -22 0
-74 -72 0
-74 -75 0
-64 -66 0
-64 -67 0
-36 -35 0
-36 -38 0
-53 -54 0
-53 -55 0
-71 -70 0
-71 -73 0
-33 -34 0
-33 -32 0
-19 -14 0
-18 -16 0
-44 -41 0
-62 -58 0
-65 -69 0
-20 -17 0
-1 -2 0
-11 -10 0
-28 -26 0
-39 -31 0
-42 -45 0
-6 -12 0
-8 -7 0
-47 -49 0
-52 -57 0
-61 -60 0
-24 -27 0
-50 -48 0
-30 -22 0
-72 -75 0
-66 -67 0
-35 -38 0
-54 -55 0
-70 -73 0
-34 -32 0
13 21 40 63 68 0
15 3 9 23 37 0
43 4 5 51 56 0
59 25 46 29 74 0
64 36 53 71 33 0
19 18 44 62 65 0
20 1 11 28 39 0
42 6 8 47 52 0
61 24 50 30 72 0
66 35 54 70 34 0
