c E3(5,5) E2(5,5) E1(5,5) E1(5,3) E2(5,3) E3(3,3) E1(3,3) E3(3,5) E3(5,3) E2(3,3) E2(3,5) E1(3,5) E2(5,1) E3(1,1) E1(1,1) E1(5,1) E3(1,5) E2(1,1) E3(5,1) E1(1,5) E2(1,5) E3(4,4) E2(4,4) E3(4,5) E3(5,4) E2(4,5) E1(4,5) E1(5,4) E2(5,4) E1(4,4) E3(5,0) E2(5,0) E1(0,0) E3(0,5) E3(0,0) E1(0,5) E1(5,0) E2(0,5) E2(0,0) E3(2,5) E2(5,2) E2(2,5) E3(2,2) E1(2,5) E2(2,2) E1(2,2) E1(5,2) E3(5,2) E2(1,3) E3(1,3) E1(3,1) E1(1,3) E3(3,1) E2(3,1) E3(3,4) E1(3,4) E1(4,3) E3(4,3) E2(4,3) E2(3,4) E1(3,0) E2(3,0) E3(0,3) E2(0,3) E3(3,0) E1(0,3) E3(3,2) E2(3,2) E1(3,2) E2(2,3) E1(2,3) E3(2,3) E1(4,1) E2(1,4) E1(1,4) E3(1,4) E3(4,1) E2(4,1) E3(1,0) E1(1,0) E1(0,1) E2(1,0) E3(0,1) E2(0,1) E2(2,1) E1(2,1) E2(1,2) E1(1,2) E3(1,2) E3(2,1) E2(4,0) E3(4,0) E3(0,4) E1(0,4) E2(0,4) E1(4,0) E3(2,4) E2(2,4) E3(4,2) E2(4,2) E1(4,2) E1(2,4) E3(0,2) E2(0,2) E2(2,0) E1(0,2) E3(2,0) E1(2,0)
c 1 2 3 4 5 6 7 8 9 10 11 12 13 14 15 16 17 18 19 20 21 22 23 24 25 26 27 28 29 30 31 32 33 34 35 36 37 38 39 40 41 42 43 44 45 46 47 48 49 50 51 52 53 54 55 56 57 58 59 60 61 62 63 64 65 66 67 68 69 70 71 72 73 74 75 76 77 78 79 80 81 82 83 84 85 86 87 88 89 90 91 92 93 94 95 96 97 98 99 100 101 102 103 104 105 106 107 108
p cnf 108 246
-33 0
-15 0
-46 0
-7 0
-30 0
-3 0
-39 0
-18 0
-45 0
-10 0
-23 0
-2 0
-35 0
-14 0
-43 0
-6 0
-22 0
-1 0
33 -33 0
81 -80 0
106 -108 0
66 -61 0
94 -96 0
36 -37 0
80 -81 0
15 -15 0
88 -86 0
52 -51 0
75 -73 0
20 -16 0
108 -106 0
86 -88 0
46 -46 0
71 -69 0
102 -101 0
44 -47 0
61 -66 0
51 -52 0
69 -71 0
7 -7 0
56 -57 0
12 -4 0
96 -94 0
73 -75 0
101 -102 0
57 -56 0
30 -30 0
27 -28 0
37 -36 0
16 -20 0
47 -44 0
4 -12 0
28 -27 0
3 -3 0
39 -39 0
84 -82 0
104 -105 0
64 -62 0
95 -91 0
38 -32 0
82 -84 0
18 -18 0
87 -85 0
49 -54 0
74 -78 0
21 -13 0
105 -104 0
85 -87 0
45 -45 0
70 -68 0
98 -100 0
42 -41 0
62 -64 0
54 -49 0
68 -70 0
10 -10 0
60 -59 0
11 -5 0
91 -95 0
78 -74 0
100 -98 0
59 -60 0
23 -23 0
26 -29 0
32 -38 0
13 -21 0
41 -42 0
5 -11 0
29 -26 0
2 -2 0
35 -35 0
83 -79 0
103 -107 0
63 -65 0
93 -92 0
34 -31 0
79 -83 0
14 -14 0
89 -90 0
50 -53 0
76 -77 0
17 -19 0
107 -103 0
90 -89 0
43 -43 0
72 -67 0
97 -99 0
40 -48 0
65 -63 0
53 -50 0
67 -72 0
6 -6 0
55 -58 0
8 -9 0
92 -93 0
77 -76 0
99 -97 0
58 -55 0
22 -22 0
24 -25 0
31 -34 0
19 -17 0
48 -40 0
9 -8 0
25 -24 0
1 -1 0
-33 -39 0
-33 -35 0
-81 -84 0
-81 -83 0
-106 -104 0
-106 -103 0
-66 -64 0
-66 -63 0
-94 -95 0
-94 -93 0
-36 -38 0
-36 -34 0
-80 -82 0
-80 -79 0
-15 -18 0
-15 -14 0
-88 -87 0
-88 -89 0
-52 -49 0
-52 -50 0
-75 -74 0
-75 -76 0
-20 -21 0
-20 -17 0
-108 -105 0
-108 -107 0
-86 -85 0
-86 -90 0
-46 -45 0
-46 -43 0
-71 -70 0
-71 -72 0
-102 -98 0
-102 -97 0
-44 -42 0
-44 -40 0
-61 -62 0
-61 -65 0
-51 -54 0
-51 -53 0
-69 -68 0
-69 -67 0
-7 -10 0
-7 -6 0
-56 -60 0
-56 -55 0
-12 -11 0
-12 -8 0
-96 -91 0
-96 -92 0
-73 -78 0
-73 -77 0
-101 -100 0
-101 -99 0
-57 -59 0
-57 -58 0
-30 -23 0
-30 -22 0
-27 -26 0
-27 -24 0
-37 -32 0
-37 -31 0
-16 -13 0
-16 -19 0
-47 -41 0
-47 -48 0
-4 -5 0
-4 -9 0
-28 -29 0
-28 -25 0
-3 -2 0
-3 -1 0
-39 -35 0
-84 -83 0
-104 -103 0
-64 -63 0
-95 -93 0
-38 -34 0
-82 -79 0
-18 -14 0
-87 -89 0
-49 -50 0
-74 -76 0
-21 -17 0
-105 -107 0
-85 -90 0
-45 -43 0
-70 -72 0
-98 -97 0
-42 -40 0
-62 -65 0
-54 -53 0
-68 -67 0
-10 -6 0
-60 -55 0
-11 -8 0
-91 -92 0
-78 -77 0
-100 -99 0
-59 -58 0
-23 -22 0
-26 -24 0
-32 -31 0
-13 -19 0
-41 -48 0
-5 -9 0
-29 -25 0
-2 -1 0
33 81 106 66 94 36 0
80 15 88 52 75 20 0
108 86 46 71 102 44 0
61 51 69 7 56 12 0
96 73 101 57 30 27 0
37 16 47 4 28 3 0
39 84 104 64 95 38 0
82 18 87 49 74 21 0
105 85 45 70 98 42 0
62 54 68 10 60 11 0
91 78 100 59 23 26 0
32 13 41 5 29 2 0
