c E2(5,5) E1(5,5) E3(5,5) E1(5,6) E3(5,6) E2(6,5) E1(6,5) E3(6,5) E2(6,6) E2(5,6) E1(6,6) E3(6,6) E2(3,5) E3(3,5) E3(5,3) E1(3,5) E2(3,3) E2(5,3) E3(3,3) E1(3,3) E1(5,3) E2(5,2) E3(5,2) E1(2,5) E2(2,2) E3(2,2) E1(5,2) E2(2,5) E1(2,2) E3(2,5) E3(4,4) E3(4,5) E2(4,5) E1(4,4) E3(5,4) E1(4,5) E1(5,4) E2(4,4) E2(5,4) E1(1,1) E3(1,5) E2(5,1) E2(1,5) E1(1,5) E1(5,1) E2(1,1) E3(1,1) E3(5,1) E3(5,0) E3(0,0) E2(0,0) E3(0,5) E1(5,0) E1(0,0) E2(0,5) E1(0,5) E2(5,0) E3(3,6) E2(6,3) E2(3,6) E1(3,6) E1(6,3) E3(6,3) E1(6,2) E3(2,6) E2(2,6) E1(2,6) E3(6,2) E2(6,2) E1(6,4) E3(4,6) E2(4,6) E1(4,6) E2(6,4) E3(6,4) E2(6,1) E1(6,1) E3(6,1) E2(1,6) E1(1,6) E3(1,6) E2(6,0) E3(0,6) E3(6,0) E1(6,0) E2(0,6) E1(0,6) E3(3,2) E3(2,3) E2(3,2) E1(3,2) E2(2,3) E1(2,3) E1(3,4) E2(4,3) E1(4,3) E3(4,3) E2(3,4) E3(3,4) E3(1,3) E2(1,3) E1(1,3) E2(3,1) E1(3,1) E3(3,1) E3(3,0) E2(3,0) E2(0,3) E3(0,3) E1(0,3) E1(3,0) E3(2,4) E3(4,2) E2(2,4) E1(2,4) E2(4,2) E1(4,2) E3(1,2) E3(2,1) E1(1,2) E1(2,1) E2(2,1) E2(1,2) E3(0,2) E1(2,0) E1(0,2) E2(0,2) E2(2,0) E3(2,0) E2(4,1) E1(4,1) E3(4,1) E2(1,4) E1(1,4) E3(1,4) E2(4,0) E1(0,4) E1(4,0) E2(0,4) E3(0,4) E3(4,0) E2(1,0) E3(1,0) E3(0,1) E1(1,0) E2(0,1) E1(0,1)
c 1 2 3 4 5 6 7 8 9 10 11 12 13 14 15 16 17 18 19 20 21 22 23 24 25 26 27 28 29 30 31 32 33 34 35 36 37 38 39 40 41 42 43 44 45 46 47 48 49 50 51 52 53 54 55 56 57 58 59 60 61 62 63 64 65 66 67 68 69 70 71 72 73 74 75 76 77 78 79 80 81 82 83 84 85 86 87 88 89 90 91 92 93 94 95 96 97 98 99 100 101 102 103 104 105 106 107 108 109 110 111 112 113 114 115 116 117 118 119 120 121 122 123 124 125 126 127 128 129 130 131 132 133 134 135 136 137 138 139 140 141 142 143 144 145 146 147
p cnf 147 329
-54 0
-40 0
-29 0
-20 0
-34 0
-2 0
-11 0
-51 0
-46 0
-25 0
-17 0
-38 0
-1 0
-9 0
-50 0
-47 0
-26 0
-19 0
-31 0
-3 0
-12 0
54 -54 0
147 -145 0
126 -125 0
110 -111 0
137 -138 0
56 -53 0
87 -85 0
145 -147 0
40 -40 0
120 -121 0
102 -104 0
134 -131 0
44 -45 0
80 -77 0
125 -126 0
121 -120 0
29 -29 0
93 -91 0
115 -117 0
24 -27 0
67 -64 0
111 -110 0
104 -102 0
91 -93 0
20 -20 0
94 -96 0
16 -21 0
61 -62 0
138 -137 0
131 -134 0
117 -115 0
96 -94 0
34 -34 0
36 -37 0
73 -70 0
53 -56 0
45 -44 0
27 -24 0
21 -16 0
37 -36 0
2 -2 0
4 -7 0
85 -87 0
77 -80 0
64 -67 0
62 -61 0
70 -73 0
7 -4 0
11 -11 0
51 -51 0
146 -142 0
127 -128 0
108 -107 0
139 -136 0
55 -57 0
86 -82 0
142 -146 0
46 -46 0
123 -122 0
101 -103 0
133 -130 0
43 -42 0
79 -76 0
128 -127 0
122 -123 0
25 -25 0
92 -90 0
114 -116 0
28 -22 0
66 -69 0
107 -108 0
103 -101 0
90 -92 0
17 -17 0
98 -95 0
13 -18 0
60 -59 0
136 -139 0
130 -133 0
116 -114 0
95 -98 0
38 -38 0
33 -39 0
72 -74 0
57 -55 0
42 -43 0
22 -28 0
18 -13 0
39 -33 0
1 -1 0
10 -6 0
82 -86 0
76 -79 0
69 -66 0
59 -60 0
74 -72 0
6 -10 0
9 -9 0
50 -50 0
144 -143 0
124 -129 0
109 -106 0
140 -141 0
52 -49 0
83 -84 0
143 -144 0
47 -47 0
118 -119 0
100 -105 0
135 -132 0
41 -48 0
81 -78 0
129 -124 0
119 -118 0
26 -26 0
89 -88 0
112 -113 0
30 -23 0
65 -68 0
106 -109 0
105 -100 0
88 -89 0
19 -19 0
99 -97 0
14 -15 0
58 -63 0
141 -140 0
132 -135 0
113 -112 0
97 -99 0
31 -31 0
32 -35 0
71 -75 0
49 -52 0
48 -41 0
23 -30 0
15 -14 0
35 -32 0
3 -3 0
5 -8 0
84 -83 0
78 -81 0
68 -65 0
63 -58 0
75 -71 0
8 -5 0
12 -12 0
-54 -51 0
-54 -50 0
-147 -146 0
-147 -144 0
-126 -127 0
-126 -124 0
-110 -108 0
-110 -109 0
-137 -139 0
-137 -140 0
-56 -55 0
-56 -52 0
-87 -86 0
-87 -83 0
-145 -142 0
-145 -143 0
-40 -46 0
-40 -47 0
-120 -123 0
-120 -118 0
-102 -101 0
-102 -100 0
-134 -133 0
-134 -135 0
-44 -43 0
-44 -41 0
-80 -79 0
-80 -81 0
-125 -128 0
-125 -129 0
-121 -122 0
-121 -119 0
-29 -25 0
-29 -26 0
-93 -92 0
-93 -89 0
-115 -114 0
-115 -112 0
-24 -28 0
-24 -30 0
-67 -66 0
-67 -65 0
-111 -107 0
-111 -106 0
-104 -103 0
-104 -105 0
-91 -90 0
-91 -88 0
-20 -17 0
-20 -19 0
-94 -98 0
-94 -99 0
-16 -13 0
-16 -14 0
-61 -60 0
-61 -58 0
-138 -136 0
-138 -141 0
-131 -130 0
-131 -132 0
-117 -116 0
-117 -113 0
-96 -95 0
-96 -97 0
-34 -38 0
-34 -31 0
-36 -33 0
-36 -32 0
-73 -72 0
-73 -71 0
-53 -57 0
-53 -49 0
-45 -42 0
-45 -48 0
-27 -22 0
-27 -23 0
-21 -18 0
-21 -15 0
-37 -39 0
-37 -35 0
-2 -1 0
-2 -3 0
-4 -10 0
-4 -5 0
-85 -82 0
-85 -84 0
-77 -76 0
-77 -78 0
-64 -69 0
-64 -68 0
-62 -59 0
-62 -63 0
-70 -74 0
-70 -75 0
-7 -6 0
-7 -8 0
-11 -9 0
-11 -12 0
-51 -50 0
-146 -144 0
-127 -124 0
-108 -109 0
-139 -140 0
-55 -52 0
-86 -83 0
-142 -143 0
-46 -47 0
-123 -118 0
-101 -100 0
-133 -135 0
-43 -41 0
-79 -81 0
-128 -129 0
-122 -119 0
-25 -26 0
-92 -89 0
-114 -112 0
-28 -30 0
-66 -65 0
-107 -106 0
-103 -105 0
-90 -88 0
-17 -19 0
-98 -99 0
-13 -14 0
-60 -58 0
-136 -141 0
-130 -132 0
-116 -113 0
-95 -97 0
-38 -31 0
-33 -32 0
-72 -71 0
-57 -49 0
-42 -48 0
-22 -23 0
-18 -15 0
-39 -35 0
-1 -3 0
-10 -5 0
-82 -84 0
-76 -78 0
-69 -68 0
-59 -63 0
-74 -75 0
-6 -8 0
-9 -12 0
54 147 126 110 137 56 87 0
145 40 120 102 134 44 80 0
125 121 29 93 115 24 67 0
111 104 91 20 94 16 61 0
138 131 117 96 34 36 73 0
53 45 27 21 37 2 4 0
85 77 64 62 70 7 11 0
51 146 127 108 139 55 86 0
142 46 123 101 133 43 79 0
128 122 25 92 114 28 66 0
107 103 90 17 98 13 60 0
136 130 116 95 38 33 72 0
57 42 22 18 39 1 10 0
82 76 69 59 74 6 9 0
