c E2(6,6) E3(6,6) E1(6,6) E2(4,4) E3(4,6) E1(4,4) E1(4,6) E3(6,4) E2(4,6) E1(6,4) E3(4,4) E2(6,4) E3(2,6) E3(6,2) E3(2,2) E1(6,2) E2(2,6) E1(2,2) E2(6,2) E2(2,2) E1(2,6) E2(0,6) E2(0,0) E2(6,0) E3(6,0) E1(6,0) E3(0,0) E1(0,0) E3(0,6) E1(0,6) E3(6,3) E2(6,3) E1(6,3) E3(3,3) E2(3,6) E1(3,3) E2(3,3) E3(3,6) E1(3,6) E1(6,7) E2(7,7) E2(7,6) E1(7,7) E3(7,7) E2(6,7) E3(7,6) E1(7,6) E3(6,7) E3(5,5) E1(6,5) E3(5,6) E1(5,5) E1(5,6) E2(6,5) E2(5,5) E3(6,5) E2(5,6) E3(1,1) E1(1,1) E3(1,6) E1(6,1) E2(1,1) E1(1,6) E2(6,1) E3(6,1) E2(1,6) E3(4,2) E1(4,2) E2(4,2) E3(2,4) E1(2,4) E2(2,4) E1(4,0) E1(0,4) E2(0,4) E2(4,0) E3(4,0) E3(0,4) E2(4,3) E2(3,4) E3(3,4) E3(4,3) E1(3,4) E1(4,3) E3(7,4) E1(7,4) E3(4,7) E1(4,7) E2(4,7) E2(7,4) E2(5,4) E3(5,4) E3(4,5) E1(5,4) E1(4,5) E2(4,5) E3(1,4) E3(4,1) E1(1,4) E2(4,1) E1(4,1) E2(1,4) E3(2,0) E1(2,0) E3(0,2) E2(2,0) E1(0,2) E2(0,2) E2(3,2) E3(2,3) E1(2,3) E2(2,3) E3(3,2) E1(3,2) E3(2,7) E1(2,7) E3(7,2) E1(7,2) E2(2,7) E2(7,2) E2(2,5) E3(5,2) E2(5,2) E3(2,5) E1(5,2) E1(2,5) E2(1,2) E2(2,1) E3(2,1) E3(1,2) E1(2,1) E1(1,2) E3(0,3) E1(0,3) E3(3,0) E1(3,0) E2(0,3) E2(3,0) E3(0,7) E1(0,7) E2(0,7) E3(7,0) E1(7,0) E2(7,0) E3(0,5) E2(0,5) E3(5,0) E1(5,0) E2(5,0) E1(0,5) E1(1,0) E2(0,1) E3(0,1) E1(0,1) E2(1,0) E3(1,0) E2(7,3) E3(7,3) E3(3,7) E1(3,7) E2(3,7) E1(7,3) E3(5,3) E1(5,3) E3(3,5) E1(3,5) E2(3,5) E2(5,3) E1(3,1) E2(3,1) E3(1,3) E1(1,3) E2(1,3) E3(3,1) E2(5,7) E3(5,7) E2(7,5) E3(7,5) E1(5,7) E1(7,5) E1(1,7) E2(1,7) E1(7,1) E2(7,1) E3(1,7) E3(7,1) E2(5,1) E3(1,5) E1(1,5) E2(1,5) E3(5,1) E1(5,1)
c 1 2 3 4 5 6 7 8 9 10 11 12 13 14 15 16 17 18 19 20 21 22 23 24 25 26 27 28 29 30 31 32 33 34 35 36 37 38 39 40 41 42 43 44 45 46 47 48 49 50 51 52 53 54 55 56 57 58 59 60 61 62 63 64 65 66 67 68 69 70 71 72 73 74 75 76 77 78 79 80 81 82 83 84 85 86 87 88 89 90 91 92 93 94 95 96 97 98 99 100 101 102 103 104 105 106 107 108 109 110 111 112 113 114 115 116 117 118 119 120 121 122 123 124 125 126 127 128 129 130 131 132 133 134 135 136 137 138 139 140 141 142 143 144 145 146 147 148 149 150 151 152 153 154 155 156 157 158 159 160 161 162 163 164 165 166 167 168 169 170 171 172 173 174 175 176 177 178 179 180 181 182 183 184 185 186 187 188 189 190 191 192
p cnf 192 424
-28 0
-59 0
-18 0
-36 0
-6 0
-52 0
-3 0
-43 0
-23 0
-62 0
-20 0
-37 0
-4 0
-55 0
-1 0
-41 0
-27 0
-58 0
-15 0
-34 0
-11 0
-49 0
-2 0
-44 0
28 -28 0
154 -151 0
107 -104 0
134 -136 0
74 -73 0
150 -148 0
30 -26 0
140 -143 0
151 -154 0
59 -59 0
132 -131 0
172 -169 0
99 -101 0
189 -192 0
63 -61 0
181 -183 0
104 -107 0
131 -132 0
18 -18 0
111 -114 0
71 -68 0
126 -125 0
21 -16 0
116 -118 0
136 -134 0
169 -172 0
114 -111 0
36 -36 0
83 -84 0
166 -164 0
39 -33 0
160 -162 0
73 -74 0
101 -99 0
68 -71 0
84 -83 0
6 -6 0
95 -94 0
7 -10 0
88 -86 0
148 -150 0
192 -189 0
125 -126 0
164 -166 0
94 -95 0
52 -52 0
53 -50 0
179 -180 0
26 -30 0
61 -63 0
16 -21 0
33 -39 0
10 -7 0
50 -53 0
3 -3 0
40 -47 0
143 -140 0
183 -181 0
118 -116 0
162 -160 0
86 -88 0
180 -179 0
47 -40 0
43 -43 0
23 -23 0
152 -155 0
108 -106 0
137 -138 0
75 -76 0
146 -149 0
22 -24 0
141 -144 0
155 -152 0
62 -62 0
127 -128 0
173 -170 0
102 -100 0
190 -187 0
66 -64 0
182 -184 0
106 -108 0
128 -127 0
20 -20 0
112 -109 0
72 -69 0
121 -123 0
17 -19 0
119 -120 0
138 -137 0
170 -173 0
109 -112 0
37 -37 0
80 -79 0
167 -168 0
35 -32 0
161 -157 0
76 -75 0
100 -102 0
69 -72 0
79 -80 0
4 -4 0
96 -91 0
9 -12 0
89 -90 0
149 -146 0
187 -190 0
123 -121 0
168 -167 0
91 -96 0
55 -55 0
57 -54 0
175 -177 0
24 -22 0
64 -66 0
19 -17 0
32 -35 0
12 -9 0
54 -57 0
1 -1 0
45 -42 0
144 -141 0
184 -182 0
120 -119 0
157 -161 0
90 -89 0
177 -175 0
42 -45 0
41 -41 0
27 -27 0
153 -156 0
105 -103 0
133 -135 0
78 -77 0
145 -147 0
29 -25 0
139 -142 0
156 -153 0
58 -58 0
130 -129 0
171 -174 0
97 -98 0
188 -191 0
60 -65 0
185 -186 0
103 -105 0
129 -130 0
15 -15 0
110 -113 0
70 -67 0
124 -122 0
13 -14 0
115 -117 0
135 -133 0
174 -171 0
113 -110 0
34 -34 0
81 -82 0
165 -163 0
38 -31 0
159 -158 0
77 -78 0
98 -97 0
67 -70 0
82 -81 0
11 -11 0
93 -92 0
5 -8 0
87 -85 0
147 -145 0
191 -188 0
122 -124 0
163 -165 0
92 -93 0
49 -49 0
51 -56 0
176 -178 0
25 -29 0
65 -60 0
14 -13 0
31 -38 0
8 -5 0
56 -51 0
2 -2 0
48 -46 0
142 -139 0
186 -185 0
117 -115 0
158 -159 0
85 -87 0
178 -176 0
46 -48 0
44 -44 0
-28 -23 0
-28 -27 0
-154 -152 0
-154 -153 0
-107 -108 0
-107 -105 0
-134 -137 0
-134 -133 0
-74 -75 0
-74 -78 0
-150 -146 0
-150 -145 0
-30 -22 0
-30 -29 0
-140 -141 0
-140 -139 0
-151 -155 0
-151 -156 0
-59 -62 0
-59 -58 0
-132 -127 0
-132 -130 0
-172 -173 0
-172 -171 0
-99 -102 0
-99 -97 0
-189 -190 0
-189 -188 0
-63 -66 0
-63 -60 0
-181 -182 0
-181 -185 0
-104 -106 0
-104 -103 0
-131 -128 0
-131 -129 0
-18 -20 0
-18 -15 0
-111 -112 0
-111 -110 0
-71 -72 0
-71 -70 0
-126 -121 0
-126 -124 0
-21 -17 0
-21 -13 0
-116 -119 0
-116 -115 0
-136 -138 0
-136 -135 0
-169 -170 0
-169 -174 0
-114 -109 0
-114 -113 0
-36 -37 0
-36 -34 0
-83 -80 0
-83 -81 0
-166 -167 0
-166 -165 0
-39 -35 0
-39 -38 0
-160 -161 0
-160 -159 0
-73 -76 0
-73 -77 0
-101 -100 0
-101 -98 0
-68 -69 0
-68 -67 0
-84 -79 0
-84 -82 0
-6 -4 0
-6 -11 0
-95 -96 0
-95 -93 0
-7 -9 0
-7 -5 0
-88 -89 0
-88 -87 0
-148 -149 0
-148 -147 0
-192 -187 0
-192 -191 0
-125 -123 0
-125 -122 0
-164 -168 0
-164 -163 0
-94 -91 0
-94 -92 0
-52 -55 0
-52 -49 0
-53 -57 0
-53 -51 0
-179 -175 0
-179 -176 0
-26 -24 0
-26 -25 0
-61 -64 0
-61 -65 0
-16 -19 0
-16 -14 0
-33 -32 0
-33 -31 0
-10 -12 0
-10 -8 0
-50 -54 0
-50 -56 0
-3 -1 0
-3 -2 0
-40 -45 0
-40 -48 0
-143 -144 0
-143 -142 0
-183 -184 0
-183 -186 0
-118 -120 0
-118 -117 0
-162 -157 0
-162 -158 0
-86 -90 0
-86 -85 0
-180 -177 0
-180 -178 0
-47 -42 0
-47 -46 0
-43 -41 0
-43 -44 0
-23 -27 0
-152 -153 0
-108 -105 0
-137 -133 0
-75 -78 0
-146 -145 0
-22 -29 0
-141 -139 0
-155 -156 0
-62 -58 0
-127 -130 0
-173 -171 0
-102 -97 0
-190 -188 0
-66 -60 0
-182 -185 0
-106 -103 0
-128 -129 0
-20 -15 0
-112 -110 0
-72 -70 0
-121 -124 0
-17 -13 0
-119 -115 0
-138 -135 0
-170 -174 0
-109 -113 0
-37 -34 0
-80 -81 0
-167 -165 0
-35 -38 0
-161 -159 0
-76 -77 0
-100 -98 0
-69 -67 0
-79 -82 0
-4 -11 0
-96 -93 0
-9 -5 0
-89 -87 0
-149 -147 0
-187 -191 0
-123 -122 0
-168 -163 0
-91 -92 0
-55 -49 0
-57 -51 0
-175 -176 0
-24 -25 0
-64 -65 0
-19 -14 0
-32 -31 0
-12 -8 0
-54 -56 0
-1 -2 0
-45 -48 0
-144 -142 0
-184 -186 0
-120 -117 0
-157 -158 0
-90 -85 0
-177 -178 0
-42 -46 0
-41 -44 0
28 154 107 134 74 150 30 140 0
151 59 132 172 99 189 63 181 0
104 131 18 111 71 126 21 116 0
136 169 114 36 83 166 39 160 0
73 101 68 84 6 95 7 88 0
148 192 125 164 94 52 53 179 0
26 61 16 33 10 50 3 40 0
143 183 118 162 86 180 47 43 0
23 152 108 137 75 146 22 141 0
155 62 127 173 102 190 66 182 0
106 128 20 112 72 121 17 119 0
138 170 109 37 80 167 35 161 0
76 100 69 79 4 96 9 89 0
149 187 123 168 91 55 57 175 0
24 64 19 32 12 54 1 45 0
144 184 120 157 90 177 42 41 0
