c E2(3,3) E3(3,3) E1(3,3) E3(4,4) E1(4,4) E3(3,4) E2(4,4) E2(4,3) E3(4,3) E1(3,4) E2(3,4) E1(4,3) E2(3,7) E1(7,3) E3(3,7) E1(3,7) E3(7,3) E3(7,7) E2(7,3) E2(7,7) E1(7,7) E1(3,1) E2(3,1) E3(1,1) E2(1,3) E3(3,1) E3(1,3) E2(1,1) E1(1,3) E1(1,1) E3(0,3) E3(0,0) E2(3,0) E1(3,0) E2(0,3) E1(0,0) E1(0,3) E2(0,0) E3(3,0) E2(5,5) E3(3,5) E1(3,5) E2(5,3) E3(5,3) E1(5,5) E1(5,3) E2(3,5) E3(5,5) E2(8,3) E3(3,8) E1(3,8) E3(8,3) E1(8,3) E2(3,8) E2(8,8) E3(8,8) E1(8,8) E3(6,6) E1(6,6) E2(3,6) E2(6,3) E2(6,6) E3(3,6) E1(3,6) E3(6,3) E1(6,3) E3(3,2) E3(2,2) E2(3,2) E1(3,2) E2(2,2) E2(2,3) E3(2,3) E1(2,3) E1(2,2) E1(7,4) E3(7,4) E2(4,7) E2(7,4) E3(4,7) E1(4,7) E3(4,1) E1(4,1) E3(1,4) E1(1,4) E2(4,1) E2(1,4) E3(0,4) E1(0,4) E2(0,4) E3(4,0) E1(4,0) E2(4,0) E3(5,4) E1(5,4) E2(4,5) E2(5,4) E3(4,5) E1(4,5) E3(8,4) E1(8,4) E2(4,8) E2(8,4) E3(4,8) E1(4,8) E3(6,4) E2(4,6) E1(6,4) E2(6,4) E3(4,6) E1(4,6) E1(2,4) E2(4,2) E3(2,4) E3(4,2) E1(4,2) E2(2,4) E3(7,1) E1(7,1) E3(1,7) E1(1,7) E2(7,1) E2(1,7) E2(7,0) E3(0,7) E2(0,7) E3(7,0) E1(0,7) E1(7,0) E2(5,7) E2(7,5) E3(5,7) E3(7,5) E1(7,5) E1(5,7) E2(8,7) E3(7,8) E1(7,8) E2(7,8) E3(8,7) E1(8,7) E1(6,7) E1(7,6) E2(6,7) E3(7,6) E2(7,6) E3(6,7) E3(2,7) E2(2,7) E1(2,7) E3(7,2) E1(7,2) E2(7,2) E1(0,1) E3(1,0) E1(1,0) E2(1,0) E2(0,1) E3(0,1) E2(1,5) E1(1,5) E3(5,1) E1(5,1) E2(5,1) E3(1,5) E3(1,8) E1(1,8) E1(8,1) E3(8,1) E2(8,1) E2(1,8) E3(6,1) E2(6,1) E3(1,6) E1(1,6) E1(6,1) E2(1,6) E3(2,1) E1(2,1) E3(1,2) E1(1,2) E2(1,2) E2(2,1) E3(0,5) E1(0,5) E2(0,5) E2(5,0) E3(5,0) E1(5,0) E3(0,8) E1(0,8) E3(8,0) E1(8,0) E2(8,0) E2(0,8) E2(6,0) E3(0,6) E1(0,6) E3(6,0) E2(0,6) E1(6,0) E3(2,0) E1(2,0) E3(0,2) E1(0,2) E2(2,0) E2(0,2) E1(8,5) E2(5,8) E2(8,5) E3(5,8) E1(5,8) E3(8,5) E2(6,5) E3(6,5) E1(6,5) E2(5,6) E3(5,6) E1(5,6) E1(5,2) E2(5,2) E3(2,5) E1(2,5) E3(5,2) E2(2,5) E2(6,8) E1(6,8) E3(8,6) E1(8,6) E2(8,6) E3(6,8) E3(8,2) E1(8,2) E2(2,8) E2(8,2) E3(2,8) E1(2,8) E3(2,6) E2(2,6) E2(6,2) E1(2,6) E3(6,2) E1(6,2)
c 1 2 3 4 5 6 7 8 9 10 11 12 13 14 15 16 17 18 19 20 21 22 23 24 25 26 27 28 29 30 31 32 33 34 35 36 37 38 39 40 41 42 43 44 45 46 47 48 49 50 51 52 53 54 55 56 57 58 59 60 61 62 63 64 65 66 67 68 69 70 71 72 73 74 75 76 77 78 79 80 81 82 83 84 85 86 87 88 89 90 91 92 93 94 95 96 97 98 99 100 101 102 103 104 105 106 107 108 109 110 111 112 113 114 115 116 117 118 119 120 121 122 123 124 125 126 127 128 129 130 131 132 133 134 135 136 137 138 139 140 141 142 143 144 145 146 147 148 149 150 151 152 153 154 155 156 157 158 159 160 161 162 163 164 165 166 167 168 169 170 171 172 173 174 175 176 177 178 179 180 181 182 183 184 185 186 187 188 189 190 191 192 193 194 195 196 197 198 199 200 201 202 203 204 205 206 207 208 209 210 211 212 213 214 215 216 217 218 219 220 221 222 223 224 225 226 227 228 229 230 231 232 233 234 235 236 237 238 239 240 241 242 243
p cnf 243 531
-36 0
-30 0
-75 0
-3 0
-5 0
-45 0
-59 0
-21 0
-57 0
-38 0
-28 0
-71 0
-1 0
-7 0
-40 0
-62 0
-20 0
-55 0
-32 0
-24 0
-68 0
-2 0
-4 0
-48 0
-58 0
-18 0
-56 0
36 -36 0
154 -156 0
205 -203 0
37 -34 0
89 -92 0
185 -189 0
198 -201 0
128 -129 0
191 -193 0
156 -154 0
30 -30 0
181 -179 0
29 -22 0
85 -83 0
161 -163 0
175 -176 0
121 -119 0
167 -168 0
203 -205 0
179 -181 0
75 -75 0
74 -70 0
112 -116 0
223 -220 0
241 -243 0
150 -152 0
237 -233 0
34 -37 0
22 -29 0
70 -74 0
3 -3 0
10 -12 0
42 -46 0
64 -66 0
16 -14 0
51 -53 0
92 -89 0
83 -85 0
116 -112 0
12 -10 0
5 -5 0
99 -95 0
111 -108 0
81 -76 0
105 -101 0
189 -185 0
163 -161 0
220 -223 0
46 -42 0
95 -99 0
45 -45 0
219 -216 0
135 -134 0
212 -208 0
201 -198 0
176 -175 0
243 -241 0
66 -64 0
108 -111 0
216 -219 0
59 -59 0
142 -143 0
227 -229 0
129 -128 0
119 -121 0
152 -150 0
14 -16 0
76 -81 0
134 -135 0
143 -142 0
21 -21 0
138 -141 0
193 -191 0
168 -167 0
233 -237 0
53 -51 0
101 -105 0
208 -212 0
229 -227 0
141 -138 0
57 -57 0
38 -38 0
158 -157 0
207 -206 0
35 -33 0
90 -93 0
186 -187 0
200 -196 0
126 -124 0
195 -194 0
157 -158 0
28 -28 0
182 -183 0
25 -23 0
87 -86 0
160 -164 0
177 -173 0
123 -122 0
171 -170 0
206 -207 0
183 -182 0
71 -71 0
72 -69 0
117 -113 0
225 -221 0
239 -240 0
149 -153 0
234 -235 0
33 -35 0
23 -25 0
69 -72 0
1 -1 0
11 -8 0
47 -43 0
60 -61 0
13 -19 0
54 -49 0
93 -90 0
86 -87 0
113 -117 0
8 -11 0
7 -7 0
96 -97 0
107 -109 0
78 -79 0
102 -103 0
187 -186 0
164 -160 0
221 -225 0
43 -47 0
97 -96 0
40 -40 0
217 -214 0
130 -131 0
209 -210 0
196 -200 0
173 -177 0
240 -239 0
61 -60 0
109 -107 0
214 -217 0
62 -62 0
144 -146 0
226 -230 0
124 -126 0
122 -123 0
153 -149 0
19 -13 0
79 -78 0
131 -130 0
146 -144 0
20 -20 0
139 -136 0
194 -195 0
170 -171 0
235 -234 0
49 -54 0
103 -102 0
210 -209 0
230 -226 0
136 -139 0
55 -55 0
32 -32 0
159 -155 0
204 -202 0
31 -39 0
88 -91 0
184 -188 0
197 -199 0
125 -127 0
190 -192 0
155 -159 0
24 -24 0
180 -178 0
27 -26 0
84 -82 0
165 -162 0
174 -172 0
120 -118 0
166 -169 0
202 -204 0
178 -180 0
68 -68 0
73 -67 0
114 -115 0
222 -224 0
238 -242 0
148 -151 0
236 -232 0
39 -31 0
26 -27 0
67 -73 0
2 -2 0
6 -9 0
41 -44 0
63 -65 0
15 -17 0
50 -52 0
91 -88 0
82 -84 0
115 -114 0
9 -6 0
4 -4 0
98 -94 0
110 -106 0
80 -77 0
104 -100 0
188 -184 0
162 -165 0
224 -222 0
44 -41 0
94 -98 0
48 -48 0
218 -215 0
132 -133 0
211 -213 0
199 -197 0
172 -174 0
242 -238 0
65 -63 0
106 -110 0
215 -218 0
58 -58 0
147 -145 0
231 -228 0
127 -125 0
118 -120 0
151 -148 0
17 -15 0
77 -80 0
133 -132 0
145 -147 0
18 -18 0
137 -140 0
192 -190 0
169 -166 0
232 -236 0
52 -50 0
100 -104 0
213 -211 0
228 -231 0
140 -137 0
56 -56 0
-36 -38 0
-36 -32 0
-154 -158 0
-154 -159 0
-205 -207 0
-205 -204 0
-37 -35 0
-37 -31 0
-89 -90 0
-89 -88 0
-185 -186 0
-185 -184 0
-198 -200 0
-198 -197 0
-128 -126 0
-128 -125 0
-191 -195 0
-191 -190 0
-156 -157 0
-156 -155 0
-30 -28 0
-30 -24 0
-181 -182 0
-181 -180 0
-29 -25 0
-29 -27 0
-85 -87 0
-85 -84 0
-161 -160 0
-161 -165 0
-175 -177 0
-175 -174 0
-121 -123 0
-121 -120 0
-167 -171 0
-167 -166 0
-203 -206 0
-203 -202 0
-179 -183 0
-179 -178 0
-75 -71 0
-75 -68 0
-74 -72 0
-74 -73 0
-112 -117 0
-112 -114 0
-223 -225 0
-223 -222 0
-241 -239 0
-241 -238 0
-150 -149 0
-150 -148 0
-237 -234 0
-237 -236 0
-34 -33 0
-34 -39 0
-22 -23 0
-22 -26 0
-70 -69 0
-70 -67 0
-3 -1 0
-3 -2 0
-10 -11 0
-10 -6 0
-42 -47 0
-42 -41 0
-64 -60 0
-64 -63 0
-16 -13 0
-16 -15 0
-51 -54 0
-51 -50 0
-92 -93 0
-92 -91 0
-83 -86 0
-83 -82 0
-116 -113 0
-116 -115 0
-12 -8 0
-12 -9 0
-5 -7 0
-5 -4 0
-99 -96 0
-99 -98 0
-111 -107 0
-111 -110 0
-81 -78 0
-81 -80 0
-105 -102 0
-105 -104 0
-189 -187 0
-189 -188 0
-163 -164 0
-163 -162 0
-220 -221 0
-220 -224 0
-46 -43 0
-46 -44 0
-95 -97 0
-95 -94 0
-45 -40 0
-45 -48 0
-219 -217 0
-219 -218 0
-135 -130 0
-135 -132 0
-212 -209 0
-212 -211 0
-201 -196 0
-201 -199 0
-176 -173 0
-176 -172 0
-243 -240 0
-243 -242 0
-66 -61 0
-66 -65 0
-108 -109 0
-108 -106 0
-216 -214 0
-216 -215 0
-59 -62 0
-59 -58 0
-142 -144 0
-142 -147 0
-227 -226 0
-227 -231 0
-129 -124 0
-129 -127 0
-119 -122 0
-119 -118 0
-152 -153 0
-152 -151 0
-14 -19 0
-14 -17 0
-76 -79 0
-76 -77 0
-134 -131 0
-134 -133 0
-143 -146 0
-143 -145 0
-21 -20 0
-21 -18 0
-138 -139 0
-138 -137 0
-193 -194 0
-193 -192 0
-168 -170 0
-168 -169 0
-233 -235 0
-233 -232 0
-53 -49 0
-53 -52 0
-101 -103 0
-101 -100 0
-208 -210 0
-208 -213 0
-229 -230 0
-229 -228 0
-141 -136 0
-141 -140 0
-57 -55 0
-57 -56 0
-38 -32 0
-158 -159 0
-207 -204 0
-35 -31 0
-90 -88 0
-186 -184 0
-200 -197 0
-126 -125 0
-195 -190 0
-157 -155 0
-28 -24 0
-182 -180 0
-25 -27 0
-87 -84 0
-160 -165 0
-177 -174 0
-123 -120 0
-171 -166 0
-206 -202 0
-183 -178 0
-71 -68 0
-72 -73 0
-117 -114 0
-225 -222 0
-239 -238 0
-149 -148 0
-234 -236 0
-33 -39 0
-23 -26 0
-69 -67 0
-1 -2 0
-11 -6 0
-47 -41 0
-60 -63 0
-13 -15 0
-54 -50 0
-93 -91 0
-86 -82 0
-113 -115 0
-8 -9 0
-7 -4 0
-96 -98 0
-107 -110 0
-78 -80 0
-102 -104 0
-187 -188 0
-164 -162 0
-221 -224 0
-43 -44 0
-97 -94 0
-40 -48 0
-217 -218 0
-130 -132 0
-209 -211 0
-196 -199 0
-173 -172 0
-240 -242 0
-61 -65 0
-109 -106 0
-214 -215 0
-62 -58 0
-144 -147 0
-226 -231 0
-124 -127 0
-122 -118 0
-153 -151 0
-19 -17 0
-79 -77 0
-131 -133 0
-146 -145 0
-20 -18 0
-139 -137 0
-194 -192 0
-170 -169 0
-235 -232 0
-49 -52 0
-103 -100 0
-210 -213 0
-230 -228 0
-136 -140 0
-55 -56 0
36 154 205 37 89 185 198 128 191 0
156 30 181 29 85 161 175 121 167 0
203 179 75 74 112 223 241 150 237 0
34 22 70 3 10 42 64 16 51 0
92 83 116 12 5 99 111 81 105 0
189 163 220 46 95 45 219 135 212 0
201 176 243 66 108 216 59 142 227 0
129 119 152 14 76 134 143 21 138 0
193 168 233 53 101 208 229 141 57 0
38 158 207 35 90 186 200 126 195 0
157 28 182 25 87 160 177 123 171 0
206 183 71 72 117 225 239 149 234 0
33 23 69 1 11 47 60 13 54 0
93 86 113 8 7 96 107 78 102 0
187 164 221 43 97 40 217 130 209 0
196 173 240 61 109 214 62 144 226 0
124 122 153 19 79 131 146 20 139 0
194 170 235 49 103 210 230 136 55 0
