c E2(5,5) E1(5,5) E1(1,5) E2(5,1) E2(1,1) E1(5,1) E2(1,5) E1(1,1) E2(8,5) E2(8,8) E1(8,5) E1(5,8) E1(8,8) E2(5,8) E2(5,3) E1(3,3) E1(3,5) E1(5,3) E2(3,3) E2(3,5) E2(5,2) E2(2,5) E2(2,2) E1(2,5) E1(2,2) E1(5,2) E1(7,7) E2(5,7) E2(7,5) E1(7,5) E2(7,7) E1(5,7) E2(6,5) E2(6,6) E2(5,6) E1(6,5) E1(6,6) E1(5,6) E2(5,0) E1(5,0) E2(0,5) E1(0,5) E1(0,0) E2(0,0) E2(9,5) E1(9,9) E2(9,9) E1(5,9) E2(5,9) E1(9,5) E2(4,4) E1(4,5) E1(4,4) E2(5,4) E1(5,4) E2(4,5) E2(8,1) E1(1,8) E1(8,1) E2(1,8) E1(3,1) E2(1,3) E2(3,1) E1(1,3) E2(1,2) E2(2,1) E1(2,1) E1(1,2) E1(1,7) E2(7,1) E2(1,7) E1(7,1) E2(1,6) E1(6,1) E1(1,6) E2(6,1) E2(1,0) E1(0,1) E1(1,0) E2(0,1) E2(9,1) E1(9,1) E2(1,9) E1(1,9) E1(4,1) E2(1,4) E1(1,4) E2(4,1) E2(3,8) E1(8,3) E2(8,3) E1(3,8) E1(2,8) E2(2,8) E2(8,2) E1(8,2) E2(8,7) E2(7,8) E1(7,8) E1(8,7) E2(6,8) E2(8,6) E1(6,8) E1(8,6) E2(8,0) E1(0,8) E1(8,0) E2(0,8) E2(8,9) E1(8,9) E2(9,8) E1(9,8) E1(8,4) E1(4,8) E2(4,8) E2(8,4) E2(2,3) E1(3,2) E2(3,2) E1(2,3) E2(7,3) E1(3,7) E2(3,7) E1(7,3) E2(3,6) E1(6,3) E1(3,6) E2(6,3) E1(0,3) E2(3,0) E2(0,3) E1(3,0) E1(3,9) E1(9,3) E2(3,9) E2(9,3) E2(3,4) E2(4,3) E1(3,4) E1(4,3) E1(2,7) E1(7,2) E2(7,2) E2(2,7) E2(6,2) E1(2,6) E2(2,6) E1(6,2) E1(2,0) E2(2,0) E1(0,2) E2(0,2) E1(9,2) E2(9,2) E2(2,9) E1(2,9) E1(2,4) E2(4,2) E1(4,2) E2(2,4) E1(7,6) E1(6,7) E2(7,6) E2(6,7) E1(0,7) E2(7,0) E2(0,7) E1(7,0) E1(7,9) E2(7,9) E1(9,7) E2(9,7) E1(7,4) E1(4,7) E2(4,7) E2(7,4) E2(0,6) E1(0,6) E1(6,0) E2(6,0) E2(6,9) E2(9,6) E1(6,9) E1(9,6) E2(4,6) E1(6,4) E1(4,6) E2(6,4) E2(0,9) E1(0,9) E1(9,0) E2(9,0) E2(0,4) E1(0,4) E2(4,0) E1(4,0) E1(9,4) E1(4,9) E2(9,4) E2(4,9)
c 1 2 3 4 5 6 7 8 9 10 11 12 13 14 15 16 17 18 19 20 21 22 23 24 25 26 27 28 29 30 31 32 33 34 35 36 37 38 39 40 41 42 43 44 45 46 47 48 49 50 51 52 53 54 55 56 57 58 59 60 61 62 63 64 65 66 67 68 69 70 71 72 73 74 75 76 77 78 79 80 81 82 83 84 85 86 87 88 89 90 91 92 93 94 95 96 97 98 99 100 101 102 103 104 105 106 107 108 109 110 111 112 113 114 115 116 117 118 119 120 121 122 123 124 125 126 127 128 129 130 131 132 133 134 135 136 137 138 139 140 141 142 143 144 145 146 147 148 149 150 151 152 153 154 155 156 157 158 159 160 161 162 163 164 165 166 167 168 169 170 171 172 173 174 175 176 177 178 179 180 181 182 183 184 185 186 187 188 189 190 191 192 193 194 195 196 197 198 199 200
p cnf 200 340
-43 0
-8 0
-25 0
-16 0
-53 0
-2 0
-37 0
-27 0
-13 0
-46 0
-44 0
-5 0
-23 0
-19 0
-51 0
-1 0
-34 0
-31 0
-10 0
-47 0
43 -43 0
78 -79 0
151 -149 0
129 -132 0
194 -196 0
42 -40 0
178 -179 0
165 -168 0
106 -107 0
190 -191 0
79 -78 0
8 -8 0
68 -67 0
64 -61 0
87 -85 0
3 -6 0
75 -74 0
69 -72 0
58 -59 0
84 -82 0
149 -151 0
67 -68 0
25 -25 0
120 -118 0
157 -159 0
24 -26 0
146 -148 0
141 -142 0
93 -96 0
156 -153 0
132 -129 0
61 -64 0
118 -120 0
16 -16 0
139 -140 0
17 -18 0
127 -126 0
122 -124 0
92 -90 0
133 -134 0
196 -194 0
85 -87 0
159 -157 0
140 -139 0
53 -53 0
52 -55 0
187 -186 0
174 -173 0
114 -113 0
198 -197 0
40 -42 0
6 -3 0
26 -24 0
18 -17 0
55 -52 0
2 -2 0
38 -36 0
32 -30 0
12 -11 0
48 -50 0
179 -178 0
74 -75 0
148 -146 0
126 -127 0
186 -187 0
36 -38 0
37 -37 0
162 -161 0
103 -104 0
183 -184 0
168 -165 0
72 -69 0
142 -141 0
124 -122 0
173 -174 0
30 -32 0
161 -162 0
27 -27 0
99 -100 0
169 -171 0
107 -106 0
59 -58 0
96 -93 0
90 -92 0
113 -114 0
11 -12 0
104 -103 0
100 -99 0
13 -13 0
110 -112 0
191 -190 0
82 -84 0
153 -156 0
134 -133 0
197 -198 0
50 -48 0
184 -183 0
171 -169 0
112 -110 0
46 -46 0
44 -44 0
80 -77 0
152 -150 0
131 -130 0
193 -195 0
41 -39 0
177 -180 0
167 -166 0
108 -105 0
189 -192 0
77 -80 0
5 -5 0
65 -66 0
62 -63 0
86 -88 0
7 -4 0
73 -76 0
71 -70 0
60 -57 0
83 -81 0
150 -152 0
66 -65 0
23 -23 0
117 -119 0
160 -158 0
22 -21 0
147 -145 0
144 -143 0
94 -95 0
155 -154 0
130 -131 0
63 -62 0
119 -117 0
19 -19 0
137 -138 0
20 -15 0
125 -128 0
123 -121 0
89 -91 0
135 -136 0
195 -193 0
88 -86 0
158 -160 0
138 -137 0
51 -51 0
56 -54 0
185 -188 0
175 -176 0
115 -116 0
200 -199 0
39 -41 0
4 -7 0
21 -22 0
15 -20 0
54 -56 0
1 -1 0
35 -33 0
28 -29 0
14 -9 0
49 -45 0
180 -177 0
76 -73 0
145 -147 0
128 -125 0
188 -185 0
33 -35 0
34 -34 0
164 -163 0
101 -102 0
181 -182 0
166 -167 0
70 -71 0
143 -144 0
121 -123 0
176 -175 0
29 -28 0
163 -164 0
31 -31 0
98 -97 0
170 -172 0
105 -108 0
57 -60 0
95 -94 0
91 -89 0
116 -115 0
9 -14 0
102 -101 0
97 -98 0
10 -10 0
109 -111 0
192 -189 0
81 -83 0
154 -155 0
136 -135 0
199 -200 0
45 -49 0
182 -181 0
172 -170 0
111 -109 0
47 -47 0
-43 -44 0
-78 -80 0
-151 -152 0
-129 -131 0
-194 -193 0
-42 -41 0
-178 -177 0
-165 -167 0
-106 -108 0
-190 -189 0
-79 -77 0
-8 -5 0
-68 -65 0
-64 -62 0
-87 -86 0
-3 -7 0
-75 -73 0
-69 -71 0
-58 -60 0
-84 -83 0
-149 -150 0
-67 -66 0
-25 -23 0
-120 -117 0
-157 -160 0
-24 -22 0
-146 -147 0
-141 -144 0
-93 -94 0
-156 -155 0
-132 -130 0
-61 -63 0
-118 -119 0
-16 -19 0
-139 -137 0
-17 -20 0
-127 -125 0
-122 -123 0
-92 -89 0
-133 -135 0
-196 -195 0
-85 -88 0
-159 -158 0
-140 -138 0
-53 -51 0
-52 -56 0
-187 -185 0
-174 -175 0
-114 -115 0
-198 -200 0
-40 -39 0
-6 -4 0
-26 -21 0
-18 -15 0
-55 -54 0
-2 -1 0
-38 -35 0
-32 -28 0
-12 -14 0
-48 -49 0
-179 -180 0
-74 -76 0
-148 -145 0
-126 -128 0
-186 -188 0
-36 -33 0
-37 -34 0
-162 -164 0
-103 -101 0
-183 -181 0
-168 -166 0
-72 -70 0
-142 -143 0
-124 -121 0
-173 -176 0
-30 -29 0
-161 -163 0
-27 -31 0
-99 -98 0
-169 -170 0
-107 -105 0
-59 -57 0
-96 -95 0
-90 -91 0
-113 -116 0
-11 -9 0
-104 -102 0
-100 -97 0
-13 -10 0
-110 -109 0
-191 -192 0
-82 -81 0
-153 -154 0
-134 -136 0
-197 -199 0
-50 -45 0
-184 -182 0
-171 -172 0
-112 -111 0
-46 -47 0
43 78 151 129 194 42 178 165 106 190 0
79 8 68 64 87 3 75 69 58 84 0
149 67 25 120 157 24 146 141 93 156 0
132 61 118 16 139 17 127 122 92 133 0
196 85 159 140 53 52 187 174 114 198 0
40 6 26 18 55 2 38 32 12 48 0
179 74 148 126 186 36 37 162 103 183 0
168 72 142 124 173 30 161 27 99 169 0
107 59 96 90 113 11 104 100 13 110 0
191 82 153 134 197 50 184 171 112 46 0
44 80 152 131 193 41 177 167 108 189 0
77 5 65 62 86 7 73 71 60 83 0
150 66 23 117 160 22 147 144 94 155 0
130 63 119 19 137 20 125 123 89 135 0
195 88 158 138 51 56 185 175 115 200 0
39 4 21 15 54 1 35 28 14 49 0
180 76 145 128 188 33 34 164 101 181 0
166 70 143 121 176 29 163 31 98 170 0
105 57 95 91 116 9 102 97 10 109 0
192 81 154 136 199 45 182 172 111 47 0
