c E2(10,10) E1(10,10) E2(2,2) E1(2,2) E2(2,10) E1(10,2) E1(2,10) E2(10,2) E1(4,10) E2(10,4) E2(4,4) E1(4,4) E1(10,4) E2(4,10) E2(10,6) E1(6,10) E1(10,6) E2(6,10) E2(6,6) E1(6,6) E2(3,10) E2(10,3) E1(10,3) E1(3,3) E1(3,10) E2(3,3) E1(0,10) E1(0,0) E2(0,0) E2(10,0) E2(0,10) E1(10,0) E1(9,10) E2(9,10) E2(9,9) E1(10,9) E1(9,9) E2(10,9) E2(5,5) E1(5,10) E1(5,5) E1(10,5) E2(10,5) E2(5,10) E2(1,10) E1(1,1) E2(1,1) E1(1,10) E1(10,1) E2(10,1) E2(7,7) E2(7,10) E2(10,7) E1(7,7) E1(7,10) E1(10,7) E1(8,10) E2(8,8) E1(10,8) E1(8,8) E2(8,10) E2(10,8) E1(4,2) E2(4,2) E1(2,4) E2(2,4) E2(6,2) E1(2,6) E2(2,6) E1(6,2) E1(2,3) E1(3,2) E2(3,2) E2(2,3) E2(0,2) E1(0,2) E2(2,0) E1(2,0) E1(9,2) E2(2,9) E1(2,9) E2(9,2) E1(5,2) E2(2,5) E2(5,2) E1(2,5) E1(2,1) E2(2,1) E1(1,2) E2(1,2) E2(7,2) E1(7,2) E1(2,7) E2(2,7) E2(2,8) E2(8,2) E1(2,8) E1(8,2) E1(6,4) E2(6,4) E1(4,6) E2(4,6) E2(3,4) E1(3,4) E1(4,3) E2(4,3) E2(4,0) E1(0,4) E1(4,0) E2(0,4) E2(9,4) E1(9,4) E1(4,9) E2(4,9) E2(5,4) E1(5,4) E1(4,5) E2(4,5) E2(4,1) E1(4,1) E2(1,4) E1(1,4) E1(4,7) E2(4,7) E2(7,4) E1(7,4) E1(4,8) E2(4,8) E1(8,4) E2(8,4) E2(3,6) E2(6,3) E1(3,6) E1(6,3) E2(0,6) E2(6,0) E1(0,6) E1(6,0) E2(9,6) E1(9,6) E2(6,9) E1(6,9) E2(5,6) E1(5,6) E2(6,5) E1(6,5) E1(1,6) E1(6,1) E2(1,6) E2(6,1) E1(6,7) E1(7,6) E2(6,7) E2(7,6) E2(6,8) E1(6,8) E2(8,6) E1(8,6) E2(3,0) E2(0,3) E1(0,3) E1(3,0) E2(3,9) E1(3,9) E2(9,3) E1(9,3) E2(3,5) E2(5,3) E1(5,3) E1(3,5) E1(3,1) E2(1,3) E1(1,3) E2(3,1) E2(3,7) E2(7,3) E1(3,7) E1(7,3) E2(8,3) E1(8,3) E2(3,8) E1(3,8) E2(0,9) E2(9,0) E1(0,9) E1(9,0) E1(0,5) E1(5,0) E2(5,0) E2(0,5) E2(0,1) E2(1,0) E1(1,0) E1(0,1) E2(0,7) E2(7,0) E1(7,0) E1(0,7) E2(0,8) E1(8,0) E2(8,0) E1(0,8) E2(9,5) E1(5,9) E1(9,5) E2(5,9) E2(1,9) E1(9,1) E1(1,9) E2(9,1) E1(7,9) E2(7,9) E1(9,7) E2(9,7) E1(8,9) E2(8,9) E1(9,8) E2(9,8) E2(5,1) E1(5,1) E2(1,5) E1(1,5) E2(7,5) E1(7,5) E2(5,7) E1(5,7) E1(5,8) E2(8,5) E1(8,5) E2(5,8) E1(1,7) E2(7,1) E1(7,1) E2(1,7) E1(1,8) E2(8,1) E1(8,1) E2(1,8) E2(8,7) E2(7,8) E1(8,7) E1(7,8)
c 1 2 3 4 5 6 7 8 9 10 11 12 13 14 15 16 17 18 19 20 21 22 23 24 25 26 27 28 29 30 31 32 33 34 35 36 37 38 39 40 41 42 43 44 45 46 47 48 49 50 51 52 53 54 55 56 57 58 59 60 61 62 63 64 65 66 67 68 69 70 71 72 73 74 75 76 77 78 79 80 81 82 83 84 85 86 87 88 89 90 91 92 93 94 95 96 97 98 99 100 101 102 103 104 105 106 107 108 109 110 111 112 113 114 115 116 117 118 119 120 121 122 123 124 125 126 127 128 129 130 131 132 133 134 135 136 137 138 139 140 141 142 143 144 145 146 147 148 149 150 151 152 153 154 155 156 157 158 159 160 161 162 163 164 165 166 167 168 169 170 171 172 173 174 175 176 177 178 179 180 181 182 183 184 185 186 187 188 189 190 191 192 193 194 195 196 197 198 199 200 201 202 203 204 205 206 207 208 209 210 211 212 213 214 215 216 217 218 219 220 221 222 223 224 225 226 227 228 229 230 231 232 233 234 235 236 237 238 239 240 241 242
p cnf 242 407
-28 0
-46 0
-2 0
-4 0
-24 0
-12 0
-41 0
-20 0
-54 0
-60 0
-37 0
-29 0
-47 0
-1 0
-3 0
-26 0
-11 0
-39 0
-19 0
-51 0
-58 0
-35 0
28 -28 0
194 -193 0
27 -32 0
76 -78 0
161 -162 0
108 -109 0
187 -188 0
137 -138 0
198 -197 0
202 -200 0
185 -186 0
193 -194 0
46 -46 0
48 -49 0
89 -87 0
173 -171 0
122 -120 0
222 -220 0
147 -148 0
231 -233 0
235 -237 0
209 -208 0
32 -27 0
49 -48 0
2 -2 0
6 -7 0
23 -25 0
13 -9 0
42 -40 0
17 -16 0
56 -55 0
59 -57 0
36 -33 0
78 -76 0
87 -89 0
7 -6 0
4 -4 0
71 -72 0
65 -63 0
86 -83 0
68 -70 0
93 -92 0
97 -98 0
81 -79 0
162 -161 0
171 -173 0
25 -23 0
72 -71 0
24 -24 0
104 -105 0
170 -169 0
133 -134 0
177 -178 0
182 -180 0
164 -166 0
109 -108 0
120 -122 0
9 -13 0
63 -65 0
105 -104 0
12 -12 0
117 -116 0
101 -99 0
123 -126 0
127 -129 0
113 -112 0
188 -187 0
220 -222 0
40 -42 0
83 -86 0
169 -170 0
116 -117 0
41 -41 0
144 -146 0
226 -224 0
227 -229 0
204 -205 0
138 -137 0
148 -147 0
16 -17 0
70 -68 0
134 -133 0
99 -101 0
146 -144 0
20 -20 0
151 -152 0
156 -158 0
142 -140 0
197 -198 0
233 -231 0
55 -56 0
92 -93 0
178 -177 0
126 -123 0
224 -226 0
152 -151 0
54 -54 0
242 -241 0
211 -213 0
200 -202 0
237 -235 0
57 -59 0
98 -97 0
180 -182 0
129 -127 0
229 -227 0
158 -156 0
241 -242 0
60 -60 0
215 -217 0
186 -185 0
208 -209 0
33 -36 0
79 -81 0
166 -164 0
112 -113 0
205 -204 0
140 -142 0
213 -211 0
217 -215 0
37 -37 0
29 -29 0
191 -192 0
31 -30 0
75 -77 0
160 -159 0
110 -107 0
190 -189 0
135 -136 0
195 -196 0
199 -201 0
183 -184 0
192 -191 0
47 -47 0
45 -50 0
90 -88 0
172 -174 0
121 -119 0
221 -219 0
149 -150 0
234 -232 0
238 -236 0
207 -210 0
30 -31 0
50 -45 0
1 -1 0
8 -5 0
22 -21 0
10 -14 0
43 -44 0
15 -18 0
53 -52 0
62 -61 0
38 -34 0
77 -75 0
88 -90 0
5 -8 0
3 -3 0
74 -73 0
66 -64 0
84 -85 0
69 -67 0
94 -91 0
95 -96 0
80 -82 0
159 -160 0
174 -172 0
21 -22 0
73 -74 0
26 -26 0
103 -106 0
167 -168 0
131 -132 0
175 -176 0
181 -179 0
163 -165 0
107 -110 0
119 -121 0
14 -10 0
64 -66 0
106 -103 0
11 -11 0
118 -115 0
102 -100 0
124 -125 0
128 -130 0
114 -111 0
189 -190 0
219 -221 0
44 -43 0
85 -84 0
168 -167 0
115 -118 0
39 -39 0
143 -145 0
225 -223 0
230 -228 0
206 -203 0
136 -135 0
150 -149 0
18 -15 0
67 -69 0
132 -131 0
100 -102 0
145 -143 0
19 -19 0
153 -154 0
155 -157 0
141 -139 0
196 -195 0
232 -234 0
52 -53 0
91 -94 0
176 -175 0
125 -124 0
223 -225 0
154 -153 0
51 -51 0
240 -239 0
212 -214 0
201 -199 0
236 -238 0
61 -62 0
96 -95 0
179 -181 0
130 -128 0
228 -230 0
157 -155 0
239 -240 0
58 -58 0
216 -218 0
184 -183 0
210 -207 0
34 -38 0
82 -80 0
165 -163 0
111 -114 0
203 -206 0
139 -141 0
214 -212 0
218 -216 0
35 -35 0
-28 -29 0
-194 -191 0
-27 -31 0
-76 -75 0
-161 -160 0
-108 -110 0
-187 -190 0
-137 -135 0
-198 -195 0
-202 -199 0
-185 -183 0
-193 -192 0
-46 -47 0
-48 -45 0
-89 -90 0
-173 -172 0
-122 -121 0
-222 -221 0
-147 -149 0
-231 -234 0
-235 -238 0
-209 -207 0
-32 -30 0
-49 -50 0
-2 -1 0
-6 -8 0
-23 -22 0
-13 -10 0
-42 -43 0
-17 -15 0
-56 -53 0
-59 -62 0
-36 -38 0
-78 -77 0
-87 -88 0
-7 -5 0
-4 -3 0
-71 -74 0
-65 -66 0
-86 -84 0
-68 -69 0
-93 -94 0
-97 -95 0
-81 -80 0
-162 -159 0
-171 -174 0
-25 -21 0
-72 -73 0
-24 -26 0
-104 -103 0
-170 -167 0
-133 -131 0
-177 -175 0
-182 -181 0
-164 -163 0
-109 -107 0
-120 -119 0
-9 -14 0
-63 -64 0
-105 -106 0
-12 -11 0
-117 -118 0
-101 -102 0
-123 -124 0
-127 -128 0
-113 -114 0
-188 -189 0
-220 -219 0
-40 -44 0
-83 -85 0
-169 -168 0
-116 -115 0
-41 -39 0
-144 -143 0
-226 -225 0
-227 -230 0
-204 -206 0
-138 -136 0
-148 -150 0
-16 -18 0
-70 -67 0
-134 -132 0
-99 -100 0
-146 -145 0
-20 -19 0
-151 -153 0
-156 -155 0
-142 -141 0
-197 -196 0
-233 -232 0
-55 -52 0
-92 -91 0
-178 -176 0
-126 -125 0
-224 -223 0
-152 -154 0
-54 -51 0
-242 -240 0
-211 -212 0
-200 -201 0
-237 -236 0
-57 -61 0
-98 -96 0
-180 -179 0
-129 -130 0
-229 -228 0
-158 -157 0
-241 -239 0
-60 -58 0
-215 -216 0
-186 -184 0
-208 -210 0
-33 -34 0
-79 -82 0
-166 -165 0
-112 -111 0
-205 -203 0
-140 -139 0
-213 -214 0
-217 -218 0
-37 -35 0
28 194 27 76 161 108 187 137 198 202 185 0
193 46 48 89 173 122 222 147 231 235 209 0
32 49 2 6 23 13 42 17 56 59 36 0
78 87 7 4 71 65 86 68 93 97 81 0
162 171 25 72 24 104 170 133 177 182 164 0
109 120 9 63 105 12 117 101 123 127 113 0
188 220 40 83 169 116 41 144 226 227 204 0
138 148 16 70 134 99 146 20 151 156 142 0
197 233 55 92 178 126 224 152 54 242 211 0
200 237 57 98 180 129 229 158 241 60 215 0
186 208 33 79 166 112 205 140 213 217 37 0
29 191 31 75 160 110 190 135 195 199 183 0
192 47 45 90 172 121 221 149 234 238 207 0
30 50 1 8 22 10 43 15 53 62 38 0
77 88 5 3 74 66 84 69 94 95 80 0
159 174 21 73 26 103 167 131 175 181 163 0
107 119 14 64 106 11 118 102 124 128 114 0
189 219 44 85 168 115 39 143 225 230 206 0
136 150 18 67 132 100 145 19 153 155 141 0
196 232 52 91 176 125 223 154 51 240 212 0
201 236 61 96 179 130 228 157 239 58 216 0
184 210 34 82 165 111 203 139 214 218 35 0
