c E1(0,0) E2(0,0) E2(0,7) E2(7,7) E1(7,0) E2(7,0) E1(0,7) E1(7,7) E2(0,9) E2(9,9) E2(9,0) E1(0,9) E1(9,9) E1(9,0) E2(3,3) E2(3,0) E1(0,3) E1(3,3) E1(3,0) E2(0,3) E1(11,11) E1(11,0) E2(11,0) E2(11,11) E1(0,11) E2(0,11) E1(6,6) E1(6,0) E2(0,6) E2(6,6) E2(6,0) E1(0,6) E2(4,0) E1(0,4) E1(4,4) E2(0,4) E2(4,4) E1(4,0) E1(0,8) E2(8,0) E2(8,8) E1(8,0) E2(0,8) E1(8,8) E1(2,2) E1(0,2) E2(0,2) E2(2,0) E2(2,2) E1(2,0) E2(1,1) E2(0,1) E1(1,0) E1(0,1) E1(1,1) E2(1,0) E2(0,10) E2(10,0) E1(10,10) E1(0,10) E1(10,0) E2(10,10) E2(5,5) E2(0,5) E1(5,0) E1(5,5) E2(5,0) E1(0,5) E2(9,7) E1(7,9) E2(7,9) E1(9,7) E1(3,7) E1(7,3) E2(3,7) E2(7,3) E2(11,7) E1(11,7) E1(7,11) E2(7,11) E2(7,6) E1(6,7) E2(6,7) E1(7,6) E1(4,7) E1(7,4) E2(7,4) E2(4,7) E1(7,8) E2(7,8) E2(8,7) E1(8,7) E2(7,2) E1(2,7) E1(7,2) E2(2,7) E1(1,7) E2(1,7) E1(7,1) E2(7,1) E1(7,10) E2(10,7) E1(10,7) E2(7,10) E2(7,5) E1(5,7) E1(7,5) E2(5,7) E1(9,3) E2(9,3) E2(3,9) E1(3,9) E1(11,9) E1(9,11) E2(11,9) E2(9,11) E2(9,6) E2(6,9) E1(6,9) E1(9,6) E1(9,4) E1(4,9) E2(9,4) E2(4,9) E2(9,8) E2(8,9) E1(8,9) E1(9,8) E1(2,9) E1(9,2) E2(9,2) E2(2,9) E1(9,1) E2(9,1) E1(1,9) E2(1,9) E1(10,9) E1(9,10) E2(10,9) E2(9,10) E2(5,9) E1(9,5) E2(9,5) E1(5,9) E1(3,11) E1(11,3) E2(3,11) E2(11,3) E2(6,3) E2(3,6) E1(6,3) E1(3,6) E2(3,4) E1(3,4) E1(4,3) E2(4,3) E1(3,8) E1(8,3) E2(8,3) E2(3,8) E1(3,2) E2(2,3) E1(2,3) E2(3,2) E2(3,1) E2(1,3) E1(3,1) E1(1,3) E1(3,10) E2(3,10) E1(10,3) E2(10,3) E2(5,3) E2(3,5) E1(5,3) E1(3,5) E1(11,6) E2(11,6) E1(6,11) E2(6,11) E1(11,4) E1(4,11) E2(11,4) E2(4,11) E2(8,11) E1(8,11) E2(11,8) E1(11,8) E2(2,11) E1(2,11) E1(11,2) E2(11,2) E2(11,1) E1(1,11) E2(1,11) E1(11,1) E2(10,11) E2(11,10) E1(11,10) E1(10,11) E1(11,5) E2(11,5) E1(5,11) E2(5,11) E1(4,6) E2(6,4) E1(6,4) E2(4,6) E2(8,6) E1(8,6) E1(6,8) E2(6,8) E2(2,6) E1(6,2) E1(2,6) E2(6,2) E2(1,6) E1(6,1) E1(1,6) E2(6,1) E2(10,6) E1(6,10) E2(6,10) E1(10,6) E1(6,5) E2(5,6) E2(6,5) E1(5,6) E1(8,4) E1(4,8) E2(4,8) E2(8,4) E1(2,4) E1(4,2) E2(4,2) E2(2,4) E2(4,1) E1(1,4) E2(1,4) E1(4,1) E1(10,4) E1(4,10) E2(10,4) E2(4,10) E1(5,4) E1(4,5) E2(4,5) E2(5,4) E2(8,2) E1(2,8) E1(8,2) E2(2,8) E2(8,1) E1(8,1) E1(1,8) E2(1,8) E2(8,10) E1(10,8) E2(10,8) E1(8,10) E2(5,8) E1(8,5) E1(5,8) E2(8,5) E1(2,1) E2(2,1) E1(1,2) E2(1,2) E2(10,2) E2(2,10) E1(10,2) E1(2,10) E1(5,2) E2(2,5) E2(5,2) E1(2,5) E1(10,1) E1(1,10) E2(10,1) E2(1,10) E2(1,5) E1(1,5) E1(5,1) E2(5,1) E1(10,5) E1(5,10) E2(10,5) E2(5,10)
c 1 2 3 4 5 6 7 8 9 10 11 12 13 14 15 16 17 18 19 20 21 22 23 24 25 26 27 28 29 30 31 32 33 34 35 36 37 38 39 40 41 42 43 44 45 46 47 48 49 50 51 52 53 54 55 56 57 58 59 60 61 62 63 64 65 66 67 68 69 70 71 72 73 74 75 76 77 78 79 80 81 82 83 84 85 86 87 88 89 90 91 92 93 94 95 96 97 98 99 100 101 102 103 104 105 106 107 108 109 110 111 112 113 114 115 116 117 118 119 120 121 122 123 124 125 126 127 128 129 130 131 132 133 134 135 136 137 138 139 140 141 142 143 144 145 146 147 148 149 150 151 152 153 154 155 156 157 158 159 160 161 162 163 164 165 166 167 168 169 170 171 172 173 174 175 176 177 178 179 180 181 182 183 184 185 186 187 188 189 190 191 192 193 194 195 196 197 198 199 200 201 202 203 204 205 206 207 208 209 210 211 212 213 214 215 216 217 218 219 220 221 222 223 224 225 226 227 228 229 230 231 232 233 234 235 236 237 238 239 240 241 242 243 244 245 246 247 248 249 250 251 252 253 254 255 256 257 258 259 260 261 262 263 264 265 266 267 268 269 270 271 272 273 274 275 276 277 278 279 280 281 282 283 284 285 286 287 288
p cnf 288 480
-1 0
-55 0
-59 0
-21 0
-45 0
-18 0
-35 0
-66 0
-27 0
-8 0
-44 0
-13 0
-2 0
-51 0
-62 0
-24 0
-49 0
-15 0
-37 0
-63 0
-30 0
-4 0
-41 0
-10 0
1 -1 0
54 -53 0
60 -61 0
25 -22 0
46 -50 0
17 -19 0
34 -38 0
68 -65 0
32 -28 0
7 -5 0
39 -42 0
12 -14 0
53 -54 0
55 -55 0
278 -277 0
194 -196 0
267 -265 0
168 -167 0
238 -240 0
282 -283 0
219 -218 0
97 -99 0
255 -254 0
135 -133 0
61 -60 0
277 -278 0
59 -59 0
200 -199 0
271 -272 0
171 -169 0
241 -242 0
285 -286 0
224 -222 0
103 -101 0
258 -260 0
137 -138 0
22 -25 0
196 -194 0
199 -200 0
21 -21 0
191 -190 0
146 -145 0
181 -182 0
201 -203 0
177 -179 0
78 -79 0
188 -186 0
113 -114 0
50 -46 0
265 -267 0
272 -271 0
190 -191 0
45 -45 0
163 -161 0
233 -234 0
276 -273 0
215 -214 0
94 -95 0
250 -251 0
129 -130 0
19 -17 0
167 -168 0
169 -171 0
145 -146 0
161 -163 0
18 -18 0
154 -155 0
176 -175 0
152 -151 0
73 -74 0
157 -158 0
112 -109 0
38 -34 0
240 -238 0
242 -241 0
182 -181 0
234 -233 0
155 -154 0
35 -35 0
246 -245 0
205 -207 0
85 -86 0
230 -229 0
122 -121 0
65 -68 0
283 -282 0
286 -285 0
203 -201 0
273 -276 0
175 -176 0
245 -246 0
66 -66 0
228 -225 0
106 -107 0
263 -262 0
144 -142 0
28 -32 0
218 -219 0
222 -224 0
179 -177 0
214 -215 0
151 -152 0
207 -205 0
225 -228 0
27 -27 0
82 -84 0
211 -210 0
119 -120 0
5 -7 0
99 -97 0
101 -103 0
79 -78 0
95 -94 0
74 -73 0
86 -85 0
107 -106 0
84 -82 0
8 -8 0
89 -92 0
70 -72 0
42 -39 0
254 -255 0
260 -258 0
186 -188 0
251 -250 0
158 -157 0
229 -230 0
262 -263 0
210 -211 0
92 -89 0
44 -44 0
127 -128 0
14 -12 0
133 -135 0
138 -137 0
114 -113 0
130 -129 0
109 -112 0
121 -122 0
142 -144 0
120 -119 0
72 -70 0
128 -127 0
13 -13 0
2 -2 0
52 -56 0
57 -58 0
26 -23 0
47 -48 0
20 -16 0
36 -33 0
64 -67 0
29 -31 0
3 -6 0
43 -40 0
9 -11 0
56 -52 0
51 -51 0
280 -279 0
195 -193 0
268 -266 0
166 -165 0
239 -237 0
281 -284 0
217 -220 0
98 -100 0
256 -253 0
136 -134 0
58 -57 0
279 -280 0
62 -62 0
197 -198 0
269 -270 0
172 -170 0
243 -244 0
287 -288 0
221 -223 0
102 -104 0
259 -257 0
139 -140 0
23 -26 0
193 -195 0
198 -197 0
24 -24 0
192 -189 0
148 -147 0
183 -184 0
202 -204 0
178 -180 0
77 -80 0
187 -185 0
115 -116 0
48 -47 0
266 -268 0
270 -269 0
189 -192 0
49 -49 0
162 -164 0
236 -235 0
274 -275 0
213 -216 0
96 -93 0
252 -249 0
132 -131 0
16 -20 0
165 -166 0
170 -172 0
147 -148 0
164 -162 0
15 -15 0
153 -156 0
174 -173 0
150 -149 0
75 -76 0
160 -159 0
111 -110 0
33 -36 0
237 -239 0
244 -243 0
184 -183 0
235 -236 0
156 -153 0
37 -37 0
247 -248 0
208 -206 0
88 -87 0
231 -232 0
124 -123 0
67 -64 0
284 -281 0
288 -287 0
204 -202 0
275 -274 0
173 -174 0
248 -247 0
63 -63 0
226 -227 0
108 -105 0
261 -264 0
141 -143 0
31 -29 0
220 -217 0
223 -221 0
180 -178 0
216 -213 0
149 -150 0
206 -208 0
227 -226 0
30 -30 0
83 -81 0
212 -209 0
118 -117 0
6 -3 0
100 -98 0
104 -102 0
80 -77 0
93 -96 0
76 -75 0
87 -88 0
105 -108 0
81 -83 0
4 -4 0
90 -91 0
71 -69 0
40 -43 0
253 -256 0
257 -259 0
185 -187 0
249 -252 0
159 -160 0
232 -231 0
264 -261 0
209 -212 0
91 -90 0
41 -41 0
126 -125 0
11 -9 0
134 -136 0
140 -139 0
116 -115 0
131 -132 0
110 -111 0
123 -124 0
143 -141 0
117 -118 0
69 -71 0
125 -126 0
10 -10 0
-1 -2 0
-54 -52 0
-60 -57 0
-25 -26 0
-46 -47 0
-17 -20 0
-34 -36 0
-68 -64 0
-32 -29 0
-7 -3 0
-39 -43 0
-12 -9 0
-53 -56 0
-55 -51 0
-278 -280 0
-194 -195 0
-267 -268 0
-168 -166 0
-238 -239 0
-282 -281 0
-219 -217 0
-97 -98 0
-255 -256 0
-135 -136 0
-61 -58 0
-277 -279 0
-59 -62 0
-200 -197 0
-271 -269 0
-171 -172 0
-241 -243 0
-285 -287 0
-224 -221 0
-103 -102 0
-258 -259 0
-137 -139 0
-22 -23 0
-196 -193 0
-199 -198 0
-21 -24 0
-191 -192 0
-146 -148 0
-181 -183 0
-201 -202 0
-177 -178 0
-78 -77 0
-188 -187 0
-113 -115 0
-50 -48 0
-265 -266 0
-272 -270 0
-190 -189 0
-45 -49 0
-163 -162 0
-233 -236 0
-276 -274 0
-215 -213 0
-94 -96 0
-250 -252 0
-129 -132 0
-19 -16 0
-167 -165 0
-169 -170 0
-145 -147 0
-161 -164 0
-18 -15 0
-154 -153 0
-176 -174 0
-152 -150 0
-73 -75 0
-157 -160 0
-112 -111 0
-38 -33 0
-240 -237 0
-242 -244 0
-182 -184 0
-234 -235 0
-155 -156 0
-35 -37 0
-246 -247 0
-205 -208 0
-85 -88 0
-230 -231 0
-122 -124 0
-65 -67 0
-283 -284 0
-286 -288 0
-203 -204 0
-273 -275 0
-175 -173 0
-245 -248 0
-66 -63 0
-228 -226 0
-106 -108 0
-263 -261 0
-144 -141 0
-28 -31 0
-218 -220 0
-222 -223 0
-179 -180 0
-214 -216 0
-151 -149 0
-207 -206 0
-225 -227 0
-27 -30 0
-82 -83 0
-211 -212 0
-119 -118 0
-5 -6 0
-99 -100 0
-101 -104 0
-79 -80 0
-95 -93 0
-74 -76 0
-86 -87 0
-107 -105 0
-84 -81 0
-8 -4 0
-89 -90 0
-70 -71 0
-42 -40 0
-254 -253 0
-260 -257 0
-186 -185 0
-251 -249 0
-158 -159 0
-229 -232 0
-262 -264 0
-210 -209 0
-92 -91 0
-44 -41 0
-127 -126 0
-14 -11 0
-133 -134 0
-138 -140 0
-114 -116 0
-130 -131 0
-109 -110 0
-121 -123 0
-142 -143 0
-120 -117 0
-72 -69 0
-128 -125 0
-13 -10 0
1 54 60 25 46 17 34 68 32 7 39 12 0
53 55 278 194 267 168 238 282 219 97 255 135 0
61 277 59 200 271 171 241 285 224 103 258 137 0
22 196 199 21 191 146 181 201 177 78 188 113 0
50 265 272 190 45 163 233 276 215 94 250 129 0
19 167 169 145 161 18 154 176 152 73 157 112 0
38 240 242 182 234 155 35 246 205 85 230 122 0
65 283 286 203 273 175 245 66 228 106 263 144 0
28 218 222 179 214 151 207 225 27 82 211 119 0
5 99 101 79 95 74 86 107 84 8 89 70 0
42 254 260 186 251 158 229 262 210 92 44 127 0
14 133 138 114 130 109 121 142 120 72 128 13 0
2 52 57 26 47 20 36 64 29 3 43 9 0
56 51 280 195 268 166 239 281 217 98 256 136 0
58 279 62 197 269 172 243 287 221 102 259 139 0
23 193 198 24 192 148 183 202 178 77 187 115 0
48 266 270 189 49 162 236 274 213 96 252 132 0
16 165 170 147 164 15 153 174 150 75 160 111 0
33 237 244 184 235 156 37 247 208 88 231 124 0
67 284 288 204 275 173 248 63 226 108 261 141 0
31 220 223 180 216 149 206 227 30 83 212 118 0
6 100 104 80 93 76 87 105 81 4 90 71 0
40 253 257 185 249 159 232 264 209 91 41 126 0
11 134 140 116 131 110 123 143 117 69 125 10 0
