c E2(4,4) E1(4,4) E1(0,4) E1(0,0) E1(4,0) E2(4,0) E2(0,0) E2(0,4) E2(4,2) E1(2,2) E1(2,4) E1(4,2) E2(2,2) E2(2,4) E2(5,4) E2(5,5) E1(5,5) E1(5,4) E1(4,5) E2(4,5) E2(6,6) E1(6,4) E2(6,4) E2(4,6) E1(4,6) E1(6,6) E1(4,3) E2(3,3) E2(4,3) E1(3,4) E1(3,3) E2(3,4) E1(12,4) E2(4,12) E1(12,12) E2(12,4) E2(12,12) E1(4,12) E1(4,7) E1(7,4) E1(7,7) E2(7,4) E2(7,7) E2(4,7) E1(8,8) E2(8,8) E2(4,8) E2(8,4) E1(4,8) E1(8,4) E2(1,4) E2(4,1) E2(1,1) E1(1,1) E1(1,4) E1(4,1) E2(9,4) E2(4,9) E2(9,9) E1(4,9) E1(9,4) E1(9,9) E1(4,11) E1(11,11) E1(11,4) E2(11,4) E2(11,11) E2(4,11) E2(10,4) E2(10,10) E1(4,10) E1(10,10) E2(4,10) E1(10,4) E1(0,2) E2(2,0) E1(2,0) E2(0,2) E2(5,0) E1(0,5) E1(5,0) E2(0,5) E2(6,0) E1(0,6) E2(0,6) E1(6,0) E2(3,0) E1(0,3) E1(3,0) E2(0,3) E2(12,0) E2(0,12) E1(0,12) E1(12,0) E2(0,7) E1(0,7) E1(7,0) E2(7,0) E1(8,0) E1(0,8) E2(0,8) E2(8,0) E1(0,1) E2(1,0) E1(1,0) E2(0,1) E1(0,9) E2(9,0) E1(9,0) E2(0,9) E2(11,0) E1(11,0) E1(0,11) E2(0,11) E2(10,0) E1(0,10) E2(0,10) E1(10,0) E1(5,2) E2(2,5) E2(5,2) E1(2,5) E2(6,2) E1(6,2) E2(2,6) E1(2,6) E2(3,2) E1(3,2) E1(2,3) E2(2,3) E2(12,2) E1(2,12) E2(2,12) E1(12,2) E2(7,2) E2(2,7) E1(7,2) E1(2,7) E1(2,8) E2(8,2) E2(2,8) E1(8,2) E2(1,2) E1(1,2) E1(2,1) E2(2,1) E1(9,2) E2(9,2) E2(2,9) E1(2,9) E1(2,11) E2(11,2) E1(11,2) E2(2,11) E2(10,2) E1(10,2) E1(2,10) E2(2,10) E2(5,6) E1(5,6) E1(6,5) E2(6,5) E1(3,5) E2(3,5) E2(5,3) E1(5,3) E2(12,5) E1(5,12) E1(12,5) E2(5,12) E2(7,5) E2(5,7) E1(7,5) E1(5,7) E2(5,8) E1(8,5) E2(8,5) E1(5,8) E2(5,1) E1(1,5) E1(5,1) E2(1,5) E2(5,9) E2(9,5) E1(5,9) E1(9,5) E2(11,5) E2(5,11) E1(11,5) E1(5,11) E1(10,5) E2(10,5) E2(5,10) E1(5,10) E1(6,3) E2(6,3) E2(3,6) E1(3,6) E1(12,6) E2(6,12) E1(6,12) E2(12,6) E2(7,6) E1(7,6) E1(6,7) E2(6,7) E2(6,8) E1(8,6) E1(6,8) E2(8,6) E2(1,6) E1(6,1) E2(6,1) E1(1,6) E1(6,9) E2(6,9) E2(9,6) E1(9,6) E2(6,11) E2(11,6) E1(11,6) E1(6,11) E1(10,6) E2(10,6) E1(6,10) E2(6,10) E1(12,3) E1(3,12) E2(12,3) E2(3,12) E2(7,3) E1(7,3) E2(3,7) E1(3,7) E1(8,3) E2(3,8) E2(8,3) E1(3,8) E2(1,3) E2(3,1) E1(1,3) E1(3,1) E2(9,3) E1(9,3) E2(3,9) E1(3,9) E2(3,11) E1(3,11) E2(11,3) E1(11,3) E1(10,3) E2(10,3) E2(3,10) E1(3,10) E1(7,12) E1(12,7) E2(12,7) E2(7,12) E2(8,12) E1(8,12) E2(12,8) E1(12,8) E2(1,12) E1(12,1) E1(1,12) E2(12,1) E1(12,9) E2(9,12) E2(12,9) E1(9,12) E2(11,12) E1(11,12) E1(12,11) E2(12,11) E1(10,12) E2(10,12) E1(12,10) E2(12,10) E2(7,8) E1(8,7) E1(7,8) E2(8,7) E2(1,7) E2(7,1) E1(1,7) E1(7,1) E1(7,9) E2(7,9) E1(9,7) E2(9,7) E2(11,7) E2(7,11) E1(11,7) E1(7,11) E1(10,7) E1(7,10) E2(7,10) E2(10,7) E1(1,8) E2(8,1) E1(8,1) E2(1,8) E2(9,8) E2(8,9) E1(9,8) E1(8,9) E1(11,8) E1(8,11) E2(11,8) E2(8,11) E1(8,10) E2(10,8) E2(8,10) E1(10,8) E2(1,9) E1(9,1) E1(1,9) E2(9,1) E1(11,1) E2(11,1) E2(1,11) E1(1,11) E2(1,10) E2(10,1) E1(1,10) E1(10,1) E2(9,11) E2(11,9) E1(11,9) E1(9,11) E2(9,10) E1(10,9) E2(10,9) E1(9,10) E1(11,10) E2(10,11) E2(11,10) E1(10,11)
c 1 2 3 4 5 6 7 8 9 10 11 12 13 14 15 16 17 18 19 20 21 22 23 24 25 26 27 28 29 30 31 32 33 34 35 36 37 38 39 40 41 42 43 44 45 46 47 48 49 50 51 52 53 54 55 56 57 58 59 60 61 62 63 64 65 66 67 68 69 70 71 72 73 74 75 76 77 78 79 80 81 82 83 84 85 86 87 88 89 90 91 92 93 94 95 96 97 98 99 100 101 102 103 104 105 106 107 108 109 110 111 112 113 114 115 116 117 118 119 120 121 122 123 124 125 126 127 128 129 130 131 132 133 134 135 136 137 138 139 140 141 142 143 144 145 146 147 148 149 150 151 152 153 154 155 156 157 158 159 160 161 162 163 164 165 166 167 168 169 170 171 172 173 174 175 176 177 178 179 180 181 182 183 184 185 186 187 188 189 190 191 192 193 194 195 196 197 198 199 200 201 202 203 204 205 206 207 208 209 210 211 212 213 214 215 216 217 218 219 220 221 222 223 224 225 226 227 228 229 230 231 232 233 234 235 236 237 238 239 240 241 242 243 244 245 246 247 248 249 250 251 252 253 254 255 256 257 258 259 260 261 262 263 264 265 266 267 268 269 270 271 272 273 274 275 276 277 278 279 280 281 282 283 284 285 286 287 288 289 290 291 292 293 294 295 296 297 298 299 300 301 302 303 304 305 306 307 308 309 310 311 312 313 314 315 316 317 318 319 320 321 322 323 324 325 326 327 328 329 330 331 332 333 334 335 336 337 338
p cnf 338 559
-4 0
-54 0
-72 0
-64 0
-35 0
-10 0
-31 0
-2 0
-17 0
-26 0
-41 0
-45 0
-62 0
-7 0
-53 0
-70 0
-67 0
-37 0
-13 0
-28 0
-1 0
-16 0
-21 0
-43 0
-46 0
-59 0
4 -4 0
103 -105 0
116 -118 0
113 -112 0
93 -94 0
75 -77 0
88 -89 0
3 -5 0
80 -81 0
84 -86 0
96 -97 0
100 -99 0
107 -109 0
105 -103 0
54 -54 0
325 -326 0
322 -319 0
265 -264 0
144 -145 0
241 -242 0
55 -56 0
180 -181 0
214 -212 0
285 -286 0
299 -301 0
317 -316 0
118 -116 0
326 -325 0
72 -72 0
338 -335 0
275 -277 0
156 -157 0
251 -254 0
74 -71 0
191 -194 0
223 -225 0
295 -296 0
314 -311 0
332 -334 0
112 -113 0
319 -322 0
335 -338 0
64 -64 0
272 -273 0
153 -151 0
250 -248 0
65 -63 0
189 -190 0
221 -222 0
293 -294 0
307 -308 0
329 -330 0
94 -93 0
264 -265 0
277 -275 0
273 -272 0
35 -35 0
134 -132 0
227 -228 0
33 -38 0
169 -168 0
199 -201 0
256 -255 0
262 -260 0
267 -270 0
77 -75 0
145 -144 0
157 -156 0
151 -153 0
132 -134 0
10 -10 0
129 -128 0
11 -12 0
122 -119 0
126 -124 0
138 -137 0
139 -142 0
150 -147 0
89 -88 0
242 -241 0
254 -251 0
248 -250 0
228 -227 0
128 -129 0
31 -31 0
30 -27 0
163 -166 0
198 -195 0
234 -232 0
238 -235 0
246 -244 0
5 -3 0
56 -55 0
71 -74 0
63 -65 0
38 -33 0
12 -11 0
27 -30 0
2 -2 0
19 -18 0
25 -22 0
39 -40 0
49 -50 0
60 -61 0
81 -80 0
181 -180 0
194 -191 0
190 -189 0
168 -169 0
119 -122 0
166 -163 0
18 -19 0
17 -17 0
160 -161 0
174 -173 0
178 -176 0
185 -186 0
86 -84 0
212 -214 0
225 -223 0
222 -221 0
201 -199 0
124 -126 0
195 -198 0
22 -25 0
161 -160 0
26 -26 0
205 -204 0
209 -208 0
215 -218 0
97 -96 0
286 -285 0
296 -295 0
294 -293 0
255 -256 0
137 -138 0
232 -234 0
40 -39 0
173 -174 0
204 -205 0
41 -41 0
281 -280 0
287 -289 0
99 -100 0
301 -299 0
311 -314 0
308 -307 0
260 -262 0
142 -139 0
235 -238 0
50 -49 0
176 -178 0
208 -209 0
280 -281 0
45 -45 0
306 -305 0
109 -107 0
316 -317 0
334 -332 0
330 -329 0
270 -267 0
147 -150 0
244 -246 0
61 -60 0
186 -185 0
218 -215 0
289 -287 0
305 -306 0
62 -62 0
7 -7 0
106 -104 0
117 -115 0
114 -111 0
92 -91 0
78 -76 0
90 -87 0
8 -6 0
82 -79 0
85 -83 0
95 -98 0
101 -102 0
110 -108 0
104 -106 0
53 -53 0
323 -324 0
321 -320 0
263 -266 0
143 -146 0
239 -240 0
51 -52 0
182 -179 0
211 -213 0
283 -284 0
302 -300 0
315 -318 0
115 -117 0
324 -323 0
70 -70 0
336 -337 0
276 -278 0
155 -158 0
252 -253 0
69 -73 0
192 -193 0
224 -226 0
298 -297 0
312 -313 0
333 -331 0
111 -114 0
320 -321 0
337 -336 0
67 -67 0
271 -274 0
152 -154 0
249 -247 0
66 -68 0
187 -188 0
220 -219 0
291 -292 0
309 -310 0
328 -327 0
91 -92 0
266 -263 0
278 -276 0
274 -271 0
37 -37 0
131 -133 0
229 -230 0
36 -34 0
167 -170 0
202 -200 0
257 -258 0
261 -259 0
269 -268 0
76 -78 0
146 -143 0
158 -155 0
154 -152 0
133 -131 0
13 -13 0
130 -127 0
14 -9 0
120 -121 0
125 -123 0
136 -135 0
141 -140 0
149 -148 0
87 -90 0
240 -239 0
253 -252 0
247 -249 0
230 -229 0
127 -130 0
28 -28 0
32 -29 0
164 -165 0
197 -196 0
233 -231 0
236 -237 0
245 -243 0
6 -8 0
52 -51 0
73 -69 0
68 -66 0
34 -36 0
9 -14 0
29 -32 0
1 -1 0
20 -15 0
24 -23 0
44 -42 0
47 -48 0
58 -57 0
79 -82 0
179 -182 0
193 -192 0
188 -187 0
170 -167 0
121 -120 0
165 -164 0
15 -20 0
16 -16 0
159 -162 0
172 -171 0
175 -177 0
183 -184 0
83 -85 0
213 -211 0
226 -224 0
219 -220 0
200 -202 0
123 -125 0
196 -197 0
23 -24 0
162 -159 0
21 -21 0
206 -203 0
207 -210 0
216 -217 0
98 -95 0
284 -283 0
297 -298 0
292 -291 0
258 -257 0
135 -136 0
231 -233 0
42 -44 0
171 -172 0
203 -206 0
43 -43 0
279 -282 0
288 -290 0
102 -101 0
300 -302 0
313 -312 0
310 -309 0
259 -261 0
140 -141 0
237 -236 0
48 -47 0
177 -175 0
210 -207 0
282 -279 0
46 -46 0
304 -303 0
108 -110 0
318 -315 0
331 -333 0
327 -328 0
268 -269 0
148 -149 0
243 -245 0
57 -58 0
184 -183 0
217 -216 0
290 -288 0
303 -304 0
59 -59 0
-4 -7 0
-103 -106 0
-116 -117 0
-113 -114 0
-93 -92 0
-75 -78 0
-88 -90 0
-3 -8 0
-80 -82 0
-84 -85 0
-96 -95 0
-100 -101 0
-107 -110 0
-105 -104 0
-54 -53 0
-325 -323 0
-322 -321 0
-265 -263 0
-144 -143 0
-241 -239 0
-55 -51 0
-180 -182 0
-214 -211 0
-285 -283 0
-299 -302 0
-317 -315 0
-118 -115 0
-326 -324 0
-72 -70 0
-338 -336 0
-275 -276 0
-156 -155 0
-251 -252 0
-74 -69 0
-191 -192 0
-223 -224 0
-295 -298 0
-314 -312 0
-332 -333 0
-112 -111 0
-319 -320 0
-335 -337 0
-64 -67 0
-272 -271 0
-153 -152 0
-250 -249 0
-65 -66 0
-189 -187 0
-221 -220 0
-293 -291 0
-307 -309 0
-329 -328 0
-94 -91 0
-264 -266 0
-277 -278 0
-273 -274 0
-35 -37 0
-134 -131 0
-227 -229 0
-33 -36 0
-169 -167 0
-199 -202 0
-256 -257 0
-262 -261 0
-267 -269 0
-77 -76 0
-145 -146 0
-157 -158 0
-151 -154 0
-132 -133 0
-10 -13 0
-129 -130 0
-11 -14 0
-122 -120 0
-126 -125 0
-138 -136 0
-139 -141 0
-150 -149 0
-89 -87 0
-242 -240 0
-254 -253 0
-248 -247 0
-228 -230 0
-128 -127 0
-31 -28 0
-30 -32 0
-163 -164 0
-198 -197 0
-234 -233 0
-238 -236 0
-246 -245 0
-5 -6 0
-56 -52 0
-71 -73 0
-63 -68 0
-38 -34 0
-12 -9 0
-27 -29 0
-2 -1 0
-19 -20 0
-25 -24 0
-39 -44 0
-49 -47 0
-60 -58 0
-81 -79 0
-181 -179 0
-194 -193 0
-190 -188 0
-168 -170 0
-119 -121 0
-166 -165 0
-18 -15 0
-17 -16 0
-160 -159 0
-174 -172 0
-178 -175 0
-185 -183 0
-86 -83 0
-212 -213 0
-225 -226 0
-222 -219 0
-201 -200 0
-124 -123 0
-195 -196 0
-22 -23 0
-161 -162 0
-26 -21 0
-205 -206 0
-209 -207 0
-215 -216 0
-97 -98 0
-286 -284 0
-296 -297 0
-294 -292 0
-255 -258 0
-137 -135 0
-232 -231 0
-40 -42 0
-173 -171 0
-204 -203 0
-41 -43 0
-281 -279 0
-287 -288 0
-99 -102 0
-301 -300 0
-311 -313 0
-308 -310 0
-260 -259 0
-142 -140 0
-235 -237 0
-50 -48 0
-176 -177 0
-208 -210 0
-280 -282 0
-45 -46 0
-306 -304 0
-109 -108 0
-316 -318 0
-334 -331 0
-330 -327 0
-270 -268 0
-147 -148 0
-244 -243 0
-61 -57 0
-186 -184 0
-218 -217 0
-289 -290 0
-305 -303 0
-62 -59 0
4 103 116 113 93 75 88 3 80 84 96 100 107 0
105 54 325 322 265 144 241 55 180 214 285 299 317 0
118 326 72 338 275 156 251 74 191 223 295 314 332 0
112 319 335 64 272 153 250 65 189 221 293 307 329 0
94 264 277 273 35 134 227 33 169 199 256 262 267 0
77 145 157 151 132 10 129 11 122 126 138 139 150 0
89 242 254 248 228 128 31 30 163 198 234 238 246 0
5 56 71 63 38 12 27 2 19 25 39 49 60 0
81 181 194 190 168 119 166 18 17 160 174 178 185 0
86 212 225 222 201 124 195 22 161 26 205 209 215 0
97 286 296 294 255 137 232 40 173 204 41 281 287 0
99 301 311 308 260 142 235 50 176 208 280 45 306 0
109 316 334 330 270 147 244 61 186 218 289 305 62 0
7 106 117 114 92 78 90 8 82 85 95 101 110 0
104 53 323 321 263 143 239 51 182 211 283 302 315 0
115 324 70 336 276 155 252 69 192 224 298 312 333 0
111 320 337 67 271 152 249 66 187 220 291 309 328 0
91 266 278 274 37 131 229 36 167 202 257 261 269 0
76 146 158 154 133 13 130 14 120 125 136 141 149 0
87 240 253 247 230 127 28 32 164 197 233 236 245 0
6 52 73 68 34 9 29 1 20 24 44 47 58 0
79 179 193 188 170 121 165 15 16 159 172 175 183 0
83 213 226 219 200 123 196 23 162 21 206 207 216 0
98 284 297 292 258 135 231 42 171 203 43 279 288 0
102 300 313 310 259 140 237 48 177 210 282 46 304 0
108 318 331 327 268 148 243 57 184 217 290 303 59 0
