c E1(9,9) E2(9,9) E2(9,12) E1(12,9) E1(9,12) E2(12,12) E1(12,12) E2(12,9) E2(11,9) E2(9,11) E1(11,11) E1(11,9) E1(9,11) E2(11,11) E2(9,10) E2(10,10) E1(9,10) E2(10,9) E1(10,10) E1(10,9) E2(13,13) E1(13,9) E1(13,13) E2(9,13) E1(9,13) E2(13,9) E2(0,0) E2(0,9) E1(0,0) E1(9,0) E2(9,0) E1(0,9) E1(9,7) E2(7,9) E1(7,9) E2(7,7) E2(9,7) E1(7,7) E2(9,6) E2(6,9) E1(6,9) E2(6,6) E1(9,6) E1(6,6) E2(9,8) E1(9,8) E1(8,8) E1(8,9) E2(8,9) E2(8,8) E2(5,5) E1(9,5) E1(5,5) E2(9,5) E2(5,9) E1(5,9) E2(2,2) E2(2,9) E2(9,2) E1(2,2) E1(2,9) E1(9,2) E2(9,4) E2(4,9) E2(4,4) E1(9,4) E1(4,9) E1(4,4) E1(1,1) E1(1,9) E2(9,1) E2(1,1) E1(9,1) E2(1,9) E2(3,3) E1(9,3) E1(3,3) E2(3,9) E1(3,9) E2(9,3) E2(12,11) E1(11,12) E1(12,11) E2(11,12) E1(10,12) E2(12,10) E2(10,12) E1(12,10) E2(12,13) E1(12,13) E2(13,12) E1(13,12) E2(0,12) E2(12,0) E1(12,0) E1(0,12) E2(12,7) E2(7,12) E1(12,7) E1(7,12) E2(6,12) E2(12,6) E1(12,6) E1(6,12) E2(8,12) E1(8,12) E2(12,8) E1(12,8) E2(12,5) E2(5,12) E1(12,5) E1(5,12) E2(2,12) E1(2,12) E1(12,2) E2(12,2) E1(12,4) E2(12,4) E2(4,12) E1(4,12) E1(1,12) E2(12,1) E2(1,12) E1(12,1) E1(12,3) E2(3,12) E1(3,12) E2(12,3) E1(11,10) E2(10,11) E1(10,11) E2(11,10) E2(13,11) E1(11,13) E2(11,13) E1(13,11) E2(11,0) E2(0,11) E1(11,0) E1(0,11) E1(11,7) E1(7,11) E2(11,7) E2(7,11) E1(6,11) E2(11,6) E1(11,6) E2(6,11) E1(11,8) E1(8,11) E2(11,8) E2(8,11) E2(5,11) E2(11,5) E1(5,11) E1(11,5) E1(11,2) E2(2,11) E2(11,2) E1(2,11) E2(11,4) E1(11,4) E1(4,11) E2(4,11) E1(11,1) E2(1,11) E1(1,11) E2(11,1) E1(11,3) E2(11,3) E2(3,11) E1(3,11) E1(13,10) E1(10,13) E2(13,10) E2(10,13) E1(0,10) E1(10,0) E2(0,10) E2(10,0) E1(7,10) E1(10,7) E2(7,10) E2(10,7) E2(6,10) E1(6,10) E1(10,6) E2(10,6) E2(8,10) E1(10,8) E1(8,10) E2(10,8) E1(5,10) E2(5,10) E1(10,5) E2(10,5) E2(2,10) E1(2,10) E2(10,2) E1(10,2) E1(4,10) E2(4,10) E2(10,4) E1(10,4) E1(10,1) E2(10,1) E2(1,10) E1(1,10) E2(10,3) E2(3,10) E1(10,3) E1(3,10) E2(13,0) E2(0,13) E1(0,13) E1(13,0) E1(7,13) E2(7,13) E2(13,7) E1(13,7) E2(13,6) E1(6,13) E2(6,13) E1(13,6) E1(13,8) E1(8,13) E2(8,13) E2(13,8) E1(5,13) E2(13,5) E1(13,5) E2(5,13) E2(2,13) E1(13,2) E2(13,2) E1(2,13) E2(13,4) E1(13,4) E2(4,13) E1(4,13) E1(13,1) E1(1,13) E2(13,1) E2(1,13) E2(13,3) E1(13,3) E2(3,13) E1(3,13) E1(0,7) E2(7,0) E1(7,0) E2(0,7) E2(0,6) E2(6,0) E1(6,0) E1(0,6) E1(8,0) E2(0,8) E1(0,8) E2(8,0) E1(5,0) E1(0,5) E2(0,5) E2(5,0) E1(0,2) E2(0,2) E1(2,0) E2(2,0) E1(4,0) E2(0,4) E1(0,4) E2(4,0) E2(1,0) E2(0,1) E1(0,1) E1(1,0) E2(0,3) E1(3,0) E1(0,3) E2(3,0) E2(7,6) E2(6,7) E1(6,7) E1(7,6) E1(8,7) E2(7,8) E1(7,8) E2(8,7) E2(5,7) E1(5,7) E2(7,5) E1(7,5) E1(7,2) E2(7,2) E1(2,7) E2(2,7) E2(4,7) E1(4,7) E2(7,4) E1(7,4) E1(1,7) E2(7,1) E2(1,7) E1(7,1) E2(7,3) E1(3,7) E1(7,3) E2(3,7) E1(6,8) E1(8,6) E2(6,8) E2(8,6) E1(6,5) E2(5,6) E1(5,6) E2(6,5) E2(2,6) E2(6,2) E1(2,6) E1(6,2) E1(6,4) E2(6,4) E2(4,6) E1(4,6) E1(1,6) E2(1,6) E2(6,1) E1(6,1) E1(3,6) E2(6,3) E1(6,3) E2(3,6) E2(5,8) E2(8,5) E1(8,5) E1(5,8) E2(8,2) E1(8,2) E1(2,8) E2(2,8) E2(8,4) E2(4,8) E1(8,4) E1(4,8) E2(8,1) E2(1,8) E1(8,1) E1(1,8) E2(3,8) E1(3,8) E2(8,3) E1(8,3) E1(5,2) E2(5,2) E1(2,5) E2(2,5) E1(5,4) E1(4,5) E2(5,4) E2(4,5) E2(5,1) E1(5,1) E1(1,5) E2(1,5) E1(3,5) E2(5,3) E1(5,3) E2(3,5) E2(4,2) E2(2,4) E1(2,4) E1(4,2) E1(1,2) E2(2,1) E1(2,1) E2(1,2) E1(2,3) E1(3,2) E2(3,2) E2(2,3) E1(1,4) E1(4,1) E2(1,4) E2(4,1) E1(4,3) E2(3,4) E1(3,4) E2(4,3) E2(3,1) E2(1,3) E1(1,3) E1(3,1)
c 1 2 3 4 5 6 7 8 9 10 11 12 13 14 15 16 17 18 19 20 21 22 23 24 25 26 27 28 29 30 31 32 33 34 35 36 37 38 39 40 41 42 43 44 45 46 47 48 49 50 51 52 53 54 55 56 57 58 59 60 61 62 63 64 65 66 67 68 69 70 71 72 73 74 75 76 77 78 79 80 81 82 83 84 85 86 87 88 89 90 91 92 93 94 95 96 97 98 99 100 101 102 103 104 105 106 107 108 109 110 111 112 113 114 115 116 117 118 119 120 121 122 123 124 125 126 127 128 129 130 131 132 133 134 135 136 137 138 139 140 141 142 143 144 145 146 147 148 149 150 151 152 153 154 155 156 157 158 159 160 161 162 163 164 165 166 167 168 169 170 171 172 173 174 175 176 177 178 179 180 181 182 183 184 185 186 187 188 189 190 191 192 193 194 195 196 197 198 199 200 201 202 203 204 205 206 207 208 209 210 211 212 213 214 215 216 217 218 219 220 221 222 223 224 225 226 227 228 229 230 231 232 233 234 235 236 237 238 239 240 241 242 243 244 245 246 247 248 249 250 251 252 253 254 255 256 257 258 259 260 261 262 263 264 265 266 267 268 269 270 271 272 273 274 275 276 277 278 279 280 281 282 283 284 285 286 287 288 289 290 291 292 293 294 295 296 297 298 299 300 301 302 303 304 305 306 307 308 309 310 311 312 313 314 315 316 317 318 319 320 321 322 323 324 325 326 327 328 329 330 331 332 333 334 335 336 337 338 339 340 341 342 343 344 345 346 347 348 349 350 351 352 353 354 355 356 357 358 359 360 361 362 363 364 365 366 367 368 369 370 371 372 373 374 375 376 377 378 379 380 381 382 383 384 385 386 387 388 389 390 391 392
p cnf 392 644
-29 0
-69 0
-19 0
-11 0
-7 0
-23 0
-60 0
-77 0
-68 0
-53 0
-44 0
-38 0
-47 0
-1 0
-27 0
-72 0
-16 0
-14 0
-6 0
-21 0
-57 0
-75 0
-65 0
-51 0
-42 0
-36 0
-50 0
-2 0
29 -29 0
275 -276 0
177 -178 0
140 -139 0
96 -95 0
215 -216 0
265 -267 0
279 -278 0
271 -269 0
262 -261 0
256 -255 0
249 -251 0
259 -257 0
32 -30 0
276 -275 0
69 -69 0
208 -205 0
167 -165 0
121 -124 0
242 -241 0
373 -375 0
391 -392 0
381 -382 0
363 -362 0
325 -328 0
301 -304 0
348 -347 0
70 -73 0
178 -177 0
205 -208 0
19 -19 0
131 -129 0
85 -88 0
174 -173 0
200 -198 0
211 -212 0
204 -201 0
195 -193 0
187 -186 0
182 -181 0
190 -191 0
20 -17 0
139 -140 0
165 -167 0
129 -131 0
11 -11 0
82 -83 0
134 -136 0
157 -160 0
169 -172 0
162 -163 0
156 -155 0
147 -145 0
141 -142 0
149 -150 0
12 -13 0
95 -96 0
124 -121 0
88 -85 0
83 -82 0
7 -7 0
90 -92 0
115 -114 0
125 -127 0
117 -120 0
111 -112 0
103 -104 0
99 -100 0
108 -106 0
4 -5 0
216 -215 0
241 -242 0
173 -174 0
136 -134 0
92 -90 0
23 -23 0
234 -236 0
246 -248 0
238 -240 0
231 -229 0
224 -222 0
220 -217 0
225 -226 0
22 -25 0
267 -265 0
375 -373 0
198 -200 0
160 -157 0
114 -115 0
236 -234 0
60 -60 0
377 -378 0
371 -372 0
355 -353 0
319 -320 0
295 -293 0
339 -338 0
61 -62 0
278 -279 0
392 -391 0
212 -211 0
172 -169 0
127 -125 0
248 -246 0
378 -377 0
77 -77 0
387 -385 0
365 -367 0
329 -331 0
306 -307 0
350 -352 0
79 -76 0
269 -271 0
382 -381 0
201 -204 0
163 -162 0
120 -117 0
240 -238 0
372 -371 0
385 -387 0
68 -68 0
358 -357 0
324 -321 0
298 -300 0
344 -343 0
67 -66 0
261 -262 0
362 -363 0
193 -195 0
155 -156 0
112 -111 0
229 -231 0
353 -355 0
367 -365 0
357 -358 0
53 -53 0
315 -313 0
290 -292 0
336 -335 0
56 -52 0
255 -256 0
328 -325 0
186 -187 0
145 -147 0
104 -103 0
222 -224 0
320 -319 0
331 -329 0
321 -324 0
313 -315 0
44 -44 0
283 -284 0
309 -310 0
41 -43 0
251 -249 0
304 -301 0
181 -182 0
142 -141 0
100 -99 0
217 -220 0
293 -295 0
307 -306 0
300 -298 0
292 -290 0
284 -283 0
38 -38 0
287 -285 0
35 -33 0
257 -259 0
347 -348 0
191 -190 0
150 -149 0
106 -108 0
226 -225 0
338 -339 0
352 -350 0
343 -344 0
335 -336 0
310 -309 0
285 -287 0
47 -47 0
48 -46 0
30 -32 0
73 -70 0
17 -20 0
13 -12 0
5 -4 0
25 -22 0
62 -61 0
76 -79 0
66 -67 0
52 -56 0
43 -41 0
33 -35 0
46 -48 0
1 -1 0
27 -27 0
274 -273 0
179 -180 0
138 -137 0
93 -94 0
214 -213 0
266 -268 0
277 -280 0
270 -272 0
263 -264 0
253 -254 0
252 -250 0
258 -260 0
28 -31 0
273 -274 0
72 -72 0
207 -206 0
166 -168 0
123 -122 0
244 -243 0
376 -374 0
390 -389 0
383 -384 0
364 -361 0
326 -327 0
303 -302 0
346 -345 0
74 -71 0
180 -179 0
206 -207 0
16 -16 0
130 -132 0
87 -86 0
176 -175 0
199 -197 0
209 -210 0
203 -202 0
196 -194 0
188 -185 0
184 -183 0
192 -189 0
18 -15 0
137 -138 0
168 -166 0
132 -130 0
14 -14 0
84 -81 0
135 -133 0
159 -158 0
170 -171 0
161 -164 0
154 -153 0
146 -148 0
143 -144 0
151 -152 0
9 -10 0
94 -93 0
122 -123 0
86 -87 0
81 -84 0
6 -6 0
89 -91 0
116 -113 0
128 -126 0
118 -119 0
109 -110 0
102 -101 0
97 -98 0
107 -105 0
8 -3 0
213 -214 0
243 -244 0
175 -176 0
133 -135 0
91 -89 0
21 -21 0
235 -233 0
245 -247 0
237 -239 0
230 -232 0
221 -223 0
219 -218 0
228 -227 0
26 -24 0
268 -266 0
374 -376 0
197 -199 0
158 -159 0
113 -116 0
233 -235 0
57 -57 0
380 -379 0
370 -369 0
356 -354 0
317 -318 0
296 -294 0
340 -337 0
58 -59 0
280 -277 0
389 -390 0
210 -209 0
171 -170 0
126 -128 0
247 -245 0
379 -380 0
75 -75 0
386 -388 0
368 -366 0
332 -330 0
308 -305 0
349 -351 0
78 -80 0
272 -270 0
384 -383 0
202 -203 0
164 -161 0
119 -118 0
239 -237 0
369 -370 0
388 -386 0
65 -65 0
360 -359 0
323 -322 0
297 -299 0
342 -341 0
64 -63 0
264 -263 0
361 -364 0
194 -196 0
153 -154 0
110 -109 0
232 -230 0
354 -356 0
366 -368 0
359 -360 0
51 -51 0
314 -316 0
289 -291 0
333 -334 0
55 -54 0
254 -253 0
327 -326 0
185 -188 0
148 -146 0
101 -102 0
223 -221 0
318 -317 0
330 -332 0
322 -323 0
316 -314 0
42 -42 0
282 -281 0
311 -312 0
40 -39 0
250 -252 0
302 -303 0
183 -184 0
144 -143 0
98 -97 0
218 -219 0
294 -296 0
305 -308 0
299 -297 0
291 -289 0
281 -282 0
36 -36 0
286 -288 0
34 -37 0
260 -258 0
345 -346 0
189 -192 0
152 -151 0
105 -107 0
227 -228 0
337 -340 0
351 -349 0
341 -342 0
334 -333 0
312 -311 0
288 -286 0
50 -50 0
49 -45 0
31 -28 0
71 -74 0
15 -18 0
10 -9 0
3 -8 0
24 -26 0
59 -58 0
80 -78 0
63 -64 0
54 -55 0
39 -40 0
37 -34 0
45 -49 0
2 -2 0
-29 -27 0
-275 -274 0
-177 -179 0
-140 -138 0
-96 -93 0
-215 -214 0
-265 -266 0
-279 -277 0
-271 -270 0
-262 -263 0
-256 -253 0
-249 -252 0
-259 -258 0
-32 -28 0
-276 -273 0
-69 -72 0
-208 -207 0
-167 -166 0
-121 -123 0
-242 -244 0
-373 -376 0
-391 -390 0
-381 -383 0
-363 -364 0
-325 -326 0
-301 -303 0
-348 -346 0
-70 -74 0
-178 -180 0
-205 -206 0
-19 -16 0
-131 -130 0
-85 -87 0
-174 -176 0
-200 -199 0
-211 -209 0
-204 -203 0
-195 -196 0
-187 -188 0
-182 -184 0
-190 -192 0
-20 -18 0
-139 -137 0
-165 -168 0
-129 -132 0
-11 -14 0
-82 -84 0
-134 -135 0
-157 -159 0
-169 -170 0
-162 -161 0
-156 -154 0
-147 -146 0
-141 -143 0
-149 -151 0
-12 -9 0
-95 -94 0
-124 -122 0
-88 -86 0
-83 -81 0
-7 -6 0
-90 -89 0
-115 -116 0
-125 -128 0
-117 -118 0
-111 -109 0
-103 -102 0
-99 -97 0
-108 -107 0
-4 -8 0
-216 -213 0
-241 -243 0
-173 -175 0
-136 -133 0
-92 -91 0
-23 -21 0
-234 -235 0
-246 -245 0
-238 -237 0
-231 -230 0
-224 -221 0
-220 -219 0
-225 -228 0
-22 -26 0
-267 -268 0
-375 -374 0
-198 -197 0
-160 -158 0
-114 -113 0
-236 -233 0
-60 -57 0
-377 -380 0
-371 -370 0
-355 -356 0
-319 -317 0
-295 -296 0
-339 -340 0
-61 -58 0
-278 -280 0
-392 -389 0
-212 -210 0
-172 -171 0
-127 -126 0
-248 -247 0
-378 -379 0
-77 -75 0
-387 -386 0
-365 -368 0
-329 -332 0
-306 -308 0
-350 -349 0
-79 -78 0
-269 -272 0
-382 -384 0
-201 -202 0
-163 -164 0
-120 -119 0
-240 -239 0
-372 -369 0
-385 -388 0
-68 -65 0
-358 -360 0
-324 -323 0
-298 -297 0
-344 -342 0
-67 -64 0
-261 -264 0
-362 -361 0
-193 -194 0
-155 -153 0
-112 -110 0
-229 -232 0
-353 -354 0
-367 -366 0
-357 -359 0
-53 -51 0
-315 -314 0
-290 -289 0
-336 -333 0
-56 -55 0
-255 -254 0
-328 -327 0
-186 -185 0
-145 -148 0
-104 -101 0
-222 -223 0
-320 -318 0
-331 -330 0
-321 -322 0
-313 -316 0
-44 -42 0
-283 -282 0
-309 -311 0
-41 -40 0
-251 -250 0
-304 -302 0
-181 -183 0
-142 -144 0
-100 -98 0
-217 -218 0
-293 -294 0
-307 -305 0
-300 -299 0
-292 -291 0
-284 -281 0
-38 -36 0
-287 -286 0
-35 -34 0
-257 -260 0
-347 -345 0
-191 -189 0
-150 -152 0
-106 -105 0
-226 -227 0
-338 -337 0
-352 -351 0
-343 -341 0
-335 -334 0
-310 -312 0
-285 -288 0
-47 -50 0
-48 -49 0
-30 -31 0
-73 -71 0
-17 -15 0
-13 -10 0
-5 -3 0
-25 -24 0
-62 -59 0
-76 -80 0
-66 -63 0
-52 -54 0
-43 -39 0
-33 -37 0
-46 -45 0
-1 -2 0
29 275 177 140 96 215 265 279 271 262 256 249 259 32 0
276 69 208 167 121 242 373 391 381 363 325 301 348 70 0
178 205 19 131 85 174 200 211 204 195 187 182 190 20 0
139 165 129 11 82 134 157 169 162 156 147 141 149 12 0
95 124 88 83 7 90 115 125 117 111 103 99 108 4 0
216 241 173 136 92 23 234 246 238 231 224 220 225 22 0
267 375 198 160 114 236 60 377 371 355 319 295 339 61 0
278 392 212 172 127 248 378 77 387 365 329 306 350 79 0
269 382 201 163 120 240 372 385 68 358 324 298 344 67 0
261 362 193 155 112 229 353 367 357 53 315 290 336 56 0
255 328 186 145 104 222 320 331 321 313 44 283 309 41 0
251 304 181 142 100 217 293 307 300 292 284 38 287 35 0
257 347 191 150 106 226 338 352 343 335 310 285 47 48 0
30 73 17 13 5 25 62 76 66 52 43 33 46 1 0
27 274 179 138 93 214 266 277 270 263 253 252 258 28 0
273 72 207 166 123 244 376 390 383 364 326 303 346 74 0
180 206 16 130 87 176 199 209 203 196 188 184 192 18 0
137 168 132 14 84 135 159 170 161 154 146 143 151 9 0
94 122 86 81 6 89 116 128 118 109 102 97 107 8 0
213 243 175 133 91 21 235 245 237 230 221 219 228 26 0
268 374 197 158 113 233 57 380 370 356 317 296 340 58 0
280 389 210 171 126 247 379 75 386 368 332 308 349 78 0
272 384 202 164 119 239 369 388 65 360 323 297 342 64 0
264 361 194 153 110 232 354 366 359 51 314 289 333 55 0
254 327 185 148 101 223 318 330 322 316 42 282 311 40 0
250 302 183 144 98 218 294 305 299 291 281 36 286 34 0
260 345 189 152 105 227 337 351 341 334 312 288 50 49 0
31 71 15 10 3 24 59 80 63 54 39 37 45 2 0
