c E2(1,1) E1(1,1) E2(4,1) E1(1,4) E2(1,4) E1(4,4) E2(4,4) E1(4,1) E1(2,1) E2(2,2) E1(1,2) E2(2,1) E1(2,2) E2(1,2) E2(0,1) E2(0,0) E1(1,0) E2(1,0) E1(0,1) E1(0,0) E2(3,3) E1(3,3) E1(3,1) E1(1,3) E2(3,1) E2(1,3) E1(2,4) E2(4,2) E1(4,2) E2(2,4) E1(0,4) E2(4,0) E2(0,4) E1(4,0) E1(4,3) E1(3,4) E2(4,3) E2(3,4) E2(0,2) E1(2,0) E1(0,2) E2(2,0) E2(3,2) E2(2,3) E1(2,3) E1(3,2) E1(0,3) E2(3,0) E1(3,0) E2(0,3)
c 1 2 3 4 5 6 7 8 9 10 11 12 13 14 15 16 17 18 19 20 21 22 23 24 25 26 27 28 29 30 31 32 33 34 35 36 37 38 39 40 41 42 43 44 45 46 47 48 49 50
p cnf 50 95
-20 0
-2 0
-13 0
-22 0
-6 0
-16 0
-1 0
-10 0
-21 0
-7 0
20 -20 0
19 -17 0
41 -40 0
47 -49 0
31 -34 0
17 -19 0
2 -2 0
11 -9 0
24 -23 0
4 -8 0
40 -41 0
9 -11 0
13 -13 0
45 -46 0
27 -29 0
49 -47 0
23 -24 0
46 -45 0
22 -22 0
36 -35 0
34 -31 0
8 -4 0
29 -27 0
35 -36 0
6 -6 0
16 -16 0
15 -18 0
39 -42 0
50 -48 0
33 -32 0
18 -15 0
1 -1 0
14 -12 0
26 -25 0
5 -3 0
42 -39 0
12 -14 0
10 -10 0
44 -43 0
30 -28 0
48 -50 0
25 -26 0
43 -44 0
21 -21 0
38 -37 0
32 -33 0
3 -5 0
28 -30 0
37 -38 0
7 -7 0
-20 -16 0
-19 -15 0
-41 -39 0
-47 -50 0
-31 -33 0
-17 -18 0
-2 -1 0
-11 -14 0
-24 -26 0
-4 -5 0
-40 -42 0
-9 -12 0
-13 -10 0
-45 -44 0
-27 -30 0
-49 -48 0
-23 -25 0
-46 -43 0
-22 -21 0
-36 -38 0
-34 -32 0
-8 -3 0
-29 -28 0
-35 -37 0
-6 -7 0
20 19 41 47 31 0
17 2 11 24 4 0
40 9 13 45 27 0
49 23 46 22 36 0
34 8 29 35 6 0
16 15 39 50 33 0
18 1 14 26 5 0
42 12 10 44 30 0
48 25 43 21 38 0
32 3 28 37 7 0
