c E1(2,2) E2(2,2) E2(5,2) E2(5,5) E2(2,5) E1(5,5) E1(5,2) E1(2,5) E1(4,2) E1(4,4) E2(2,4) E2(4,4) E2(4,2) E1(2,4) E2(3,3) E2(3,2) E1(3,2) E1(3,3) E2(2,3) E1(2,3) E1(2,1) E1(1,1) E2(2,1) E2(1,2) E1(1,2) E2(1,1) E2(0,2) E1(0,2) E2(2,0) E1(2,0) E1(0,0) E2(0,0) E2(5,4) E1(4,5) E1(5,4) E2(4,5) E2(3,5) E1(5,3) E2(5,3) E1(3,5) E1(5,1) E1(1,5) E2(1,5) E2(5,1) E1(0,5) E1(5,0) E2(0,5) E2(5,0) E1(4,3) E2(3,4) E2(4,3) E1(3,4) E2(4,1) E1(1,4) E2(1,4) E1(4,1) E1(0,4) E2(4,0) E1(4,0) E2(0,4) E1(1,3) E2(3,1) E1(3,1) E2(1,3) E1(3,0) E2(3,0) E1(0,3) E2(0,3) E2(0,1) E1(0,1) E2(1,0) E1(1,0)
c 1 2 3 4 5 6 7 8 9 10 11 12 13 14 15 16 17 18 19 20 21 22 23 24 25 26 27 28 29 30 31 32 33 34 35 36 37 38 39 40 41 42 43 44 45 46 47 48 49 50 51 52 53 54 55 56 57 58 59 60 61 62 63 64 65 66 67 68 69 70 71 72
p cnf 72 132
-31 0
-22 0
-1 0
-18 0
-10 0
-6 0
-32 0
-26 0
-2 0
-15 0
-12 0
-4 0
31 -31 0
70 -72 0
28 -30 0
67 -65 0
57 -59 0
45 -46 0
72 -70 0
22 -22 0
25 -21 0
61 -63 0
54 -56 0
42 -41 0
30 -28 0
21 -25 0
1 -1 0
20 -17 0
14 -9 0
8 -7 0
65 -67 0
63 -61 0
17 -20 0
18 -18 0
52 -49 0
40 -38 0
59 -57 0
56 -54 0
9 -14 0
49 -52 0
10 -10 0
34 -35 0
46 -45 0
41 -42 0
7 -8 0
38 -40 0
35 -34 0
6 -6 0
32 -32 0
69 -71 0
27 -29 0
68 -66 0
60 -58 0
47 -48 0
71 -69 0
26 -26 0
24 -23 0
64 -62 0
55 -53 0
43 -44 0
29 -27 0
23 -24 0
2 -2 0
19 -16 0
11 -13 0
5 -3 0
66 -68 0
62 -64 0
16 -19 0
15 -15 0
50 -51 0
37 -39 0
58 -60 0
53 -55 0
13 -11 0
51 -50 0
12 -12 0
36 -33 0
48 -47 0
44 -43 0
3 -5 0
39 -37 0
33 -36 0
4 -4 0
-31 -32 0
-70 -69 0
-28 -27 0
-67 -68 0
-57 -60 0
-45 -47 0
-72 -71 0
-22 -26 0
-25 -24 0
-61 -64 0
-54 -55 0
-42 -43 0
-30 -29 0
-21 -23 0
-1 -2 0
-20 -19 0
-14 -11 0
-8 -5 0
-65 -66 0
-63 -62 0
-17 -16 0
-18 -15 0
-52 -50 0
-40 -37 0
-59 -58 0
-56 -53 0
-9 -13 0
-49 -51 0
-10 -12 0
-34 -36 0
-46 -48 0
-41 -44 0
-7 -3 0
-38 -39 0
-35 -33 0
-6 -4 0
31 70 28 67 57 45 0
72 22 25 61 54 42 0
30 21 1 20 14 8 0
65 63 17 18 52 40 0
59 56 9 49 10 34 0
46 41 7 38 35 6 0
32 69 27 68 60 47 0
71 26 24 64 55 43 0
29 23 2 19 11 5 0
66 62 16 15 50 37 0
58 53 13 51 12 36 0
48 44 3 39 33 4 0
