c E1(4,4) E2(4,4) E2(5,5) E2(5,4) E2(4,5) E1(5,4) E1(4,5) E1(5,5) E2(4,3) E1(3,3) E1(3,4) E1(4,3) E2(3,4) E2(3,3) E2(2,2) E2(2,4) E2(4,2) E1(2,2) E1(2,4) E1(4,2) E1(6,6) E2(4,6) E2(6,4) E2(6,6) E1(4,6) E1(6,4) E1(0,0) E1(4,0) E2(0,0) E1(0,4) E2(4,0) E2(0,4) E1(1,4) E2(4,1) E2(1,1) E1(4,1) E2(1,4) E1(1,1) E2(3,5) E1(5,3) E1(3,5) E2(5,3) E1(5,2) E2(2,5) E2(5,2) E1(2,5) E1(5,6) E2(5,6) E2(6,5) E1(6,5) E1(5,0) E2(0,5) E2(5,0) E1(0,5) E1(5,1) E1(1,5) E2(1,5) E2(5,1) E1(3,2) E2(2,3) E2(3,2) E1(2,3) E1(3,6) E2(3,6) E1(6,3) E2(6,3) E2(3,0) E1(0,3) E1(3,0) E2(0,3) E1(1,3) E2(1,3) E2(3,1) E1(3,1) E2(6,2) E1(2,6) E2(2,6) E1(6,2) E2(2,0) E1(0,2) E1(2,0) E2(0,2) E2(1,2) E2(2,1) E1(1,2) E1(2,1) E1(0,6) E1(6,0) E2(0,6) E2(6,0) E1(6,1) E2(1,6) E2(6,1) E1(1,6) E1(0,1) E1(1,0) E2(1,0) E2(0,1)
c 1 2 3 4 5 6 7 8 9 10 11 12 13 14 15 16 17 18 19 20 21 22 23 24 25 26 27 28 29 30 31 32 33 34 35 36 37 38 39 40 41 42 43 44 45 46 47 48 49 50 51 52 53 54 55 56 57 58 59 60 61 62 63 64 65 66 67 68 69 70 71 72 73 74 75 76 77 78 79 80 81 82 83 84 85 86 87 88 89 90 91 92 93 94 95 96 97 98
p cnf 98 175
-27 0
-38 0
-18 0
-10 0
-1 0
-8 0
-21 0
-29 0
-35 0
-15 0
-14 0
-2 0
-3 0
-24 0
27 -27 0
95 -96 0
80 -81 0
68 -69 0
30 -28 0
54 -51 0
87 -88 0
96 -95 0
38 -38 0
85 -86 0
71 -74 0
33 -36 0
56 -55 0
94 -91 0
81 -80 0
86 -85 0
18 -18 0
62 -59 0
19 -20 0
46 -43 0
76 -78 0
69 -68 0
74 -71 0
59 -62 0
10 -10 0
11 -12 0
41 -40 0
63 -65 0
28 -30 0
36 -33 0
20 -19 0
12 -11 0
1 -1 0
7 -6 0
25 -26 0
51 -54 0
55 -56 0
43 -46 0
40 -41 0
6 -7 0
8 -8 0
47 -50 0
88 -87 0
91 -94 0
78 -76 0
65 -63 0
26 -25 0
50 -47 0
21 -21 0
29 -29 0
98 -97 0
82 -79 0
70 -67 0
32 -31 0
52 -53 0
89 -90 0
97 -98 0
35 -35 0
83 -84 0
72 -73 0
37 -34 0
57 -58 0
92 -93 0
79 -82 0
84 -83 0
15 -15 0
60 -61 0
16 -17 0
44 -45 0
77 -75 0
67 -70 0
73 -72 0
61 -60 0
14 -14 0
13 -9 0
39 -42 0
64 -66 0
31 -32 0
34 -37 0
17 -16 0
9 -13 0
2 -2 0
5 -4 0
22 -23 0
53 -52 0
58 -57 0
45 -44 0
42 -39 0
4 -5 0
3 -3 0
48 -49 0
90 -89 0
93 -92 0
75 -77 0
66 -64 0
23 -22 0
49 -48 0
24 -24 0
-27 -29 0
-95 -98 0
-80 -82 0
-68 -70 0
-30 -32 0
-54 -52 0
-87 -89 0
-96 -97 0
-38 -35 0
-85 -83 0
-71 -72 0
-33 -37 0
-56 -57 0
-94 -92 0
-81 -79 0
-86 -84 0
-18 -15 0
-62 -60 0
-19 -16 0
-46 -44 0
-76 -77 0
-69 -67 0
-74 -73 0
-59 -61 0
-10 -14 0
-11 -13 0
-41 -39 0
-63 -64 0
-28 -31 0
-36 -34 0
-20 -17 0
-12 -9 0
-1 -2 0
-7 -5 0
-25 -22 0
-51 -53 0
-55 -58 0
-43 -45 0
-40 -42 0
-6 -4 0
-8 -3 0
-47 -48 0
-88 -90 0
-91 -93 0
-78 -75 0
-65 -66 0
-26 -23 0
-50 -49 0
-21 -24 0
27 95 80 68 30 54 87 0
96 38 85 71 33 56 94 0
81 86 18 62 19 46 76 0
69 74 59 10 11 41 63 0
28 36 20 12 1 7 25 0
51 55 43 40 6 8 47 0
88 91 78 65 26 50 21 0
29 98 82 70 32 52 89 0
97 35 83 72 37 57 92 0
79 84 15 60 16 44 77 0
67 73 61 14 13 39 64 0
31 34 17 9 2 5 22 0
53 58 45 42 4 3 48 0
90 93 75 66 23 49 24 0
