c E2(3,3) E1(3,3) E1(3,1) E2(1,1) E2(1,3) E2(3,1) E1(1,3) E1(1,1) E1(5,5) E1(3,5) E2(5,3) E2(5,5) E1(5,3) E2(3,5) E2(3,4) E1(4,4) E2(4,4) E2(4,3) E1(3,4) E1(4,3) E2(3,2) E1(3,2) E1(2,2) E1(2,3) E2(2,2) E2(2,3) E2(3,0) E2(0,0) E1(0,3) E1(0,0) E2(0,3) E1(3,0) E2(7,7) E2(7,3) E1(7,7) E2(3,7) E1(3,7) E1(7,3) E1(3,6) E2(3,6) E1(6,3) E2(6,3) E1(6,6) E2(6,6) E2(1,5) E1(1,5) E2(5,1) E1(5,1) E2(1,4) E1(4,1) E2(4,1) E1(1,4) E1(1,2) E1(2,1) E2(1,2) E2(2,1) E2(1,0) E2(0,1) E1(1,0) E1(0,1) E1(1,7) E2(7,1) E1(7,1) E2(1,7) E2(1,6) E1(6,1) E2(6,1) E1(1,6) E1(4,5) E2(4,5) E2(5,4) E1(5,4) E2(2,5) E1(5,2) E1(2,5) E2(5,2) E2(5,0) E2(0,5) E1(0,5) E1(5,0) E1(5,7) E2(7,5) E1(7,5) E2(5,7) E1(5,6) E1(6,5) E2(5,6) E2(6,5) E2(4,2) E1(4,2) E1(2,4) E2(2,4) E1(4,0) E2(4,0) E1(0,4) E2(0,4) E2(4,7) E1(7,4) E1(4,7) E2(7,4) E2(6,4) E2(4,6) E1(4,6) E1(6,4) E2(0,2) E2(2,0) E1(2,0) E1(0,2) E2(7,2) E1(7,2) E1(2,7) E2(2,7) E1(6,2) E2(6,2) E2(2,6) E1(2,6) E1(0,7) E1(7,0) E2(0,7) E2(7,0) E1(6,0) E1(0,6) E2(0,6) E2(6,0) E2(6,7) E1(6,7) E2(7,6) E1(7,6)
c 1 2 3 4 5 6 7 8 9 10 11 12 13 14 15 16 17 18 19 20 21 22 23 24 25 26 27 28 29 30 31 32 33 34 35 36 37 38 39 40 41 42 43 44 45 46 47 48 49 50 51 52 53 54 55 56 57 58 59 60 61 62 63 64 65 66 67 68 69 70 71 72 73 74 75 76 77 78 79 80 81 82 83 84 85 86 87 88 89 90 91 92 93 94 95 96 97 98 99 100 101 102 103 104 105 106 107 108 109 110 111 112 113 114 115 116 117 118 119 120 121 122 123 124 125 126 127 128
p cnf 128 224
-30 0
-8 0
-23 0
-2 0
-16 0
-9 0
-43 0
-35 0
-28 0
-4 0
-25 0
-1 0
-17 0
-12 0
-44 0
-33 0
30 -30 0
60 -59 0
108 -107 0
29 -32 0
95 -93 0
79 -80 0
122 -121 0
117 -118 0
59 -60 0
8 -8 0
53 -54 0
7 -3 0
52 -50 0
46 -48 0
68 -66 0
61 -63 0
107 -108 0
54 -53 0
23 -23 0
24 -22 0
91 -90 0
75 -74 0
116 -113 0
111 -110 0
32 -29 0
3 -7 0
22 -24 0
2 -2 0
19 -20 0
10 -13 0
39 -41 0
37 -38 0
93 -95 0
50 -52 0
90 -91 0
20 -19 0
16 -16 0
69 -72 0
103 -104 0
99 -98 0
80 -79 0
48 -46 0
74 -75 0
13 -10 0
72 -69 0
9 -9 0
85 -86 0
81 -83 0
121 -122 0
66 -68 0
113 -116 0
41 -39 0
104 -103 0
86 -85 0
43 -43 0
126 -128 0
118 -117 0
63 -61 0
110 -111 0
38 -37 0
98 -99 0
83 -81 0
128 -126 0
35 -35 0
28 -28 0
58 -57 0
105 -106 0
31 -27 0
96 -94 0
78 -77 0
123 -124 0
119 -120 0
57 -58 0
4 -4 0
55 -56 0
5 -6 0
49 -51 0
45 -47 0
65 -67 0
64 -62 0
106 -105 0
56 -55 0
25 -25 0
26 -21 0
92 -89 0
73 -76 0
115 -114 0
112 -109 0
27 -31 0
6 -5 0
21 -26 0
1 -1 0
15 -18 0
14 -11 0
40 -42 0
36 -34 0
94 -96 0
51 -49 0
89 -92 0
18 -15 0
17 -17 0
70 -71 0
102 -101 0
97 -100 0
77 -78 0
47 -45 0
76 -73 0
11 -14 0
71 -70 0
12 -12 0
87 -88 0
84 -82 0
124 -123 0
67 -65 0
114 -115 0
42 -40 0
101 -102 0
88 -87 0
44 -44 0
125 -127 0
120 -119 0
62 -64 0
109 -112 0
34 -36 0
100 -97 0
82 -84 0
127 -125 0
33 -33 0
-30 -28 0
-60 -58 0
-108 -105 0
-29 -31 0
-95 -96 0
-79 -78 0
-122 -123 0
-117 -119 0
-59 -57 0
-8 -4 0
-53 -55 0
-7 -5 0
-52 -49 0
-46 -45 0
-68 -65 0
-61 -64 0
-107 -106 0
-54 -56 0
-23 -25 0
-24 -26 0
-91 -92 0
-75 -73 0
-116 -115 0
-111 -112 0
-32 -27 0
-3 -6 0
-22 -21 0
-2 -1 0
-19 -15 0
-10 -14 0
-39 -40 0
-37 -36 0
-93 -94 0
-50 -51 0
-90 -89 0
-20 -18 0
-16 -17 0
-69 -70 0
-103 -102 0
-99 -97 0
-80 -77 0
-48 -47 0
-74 -76 0
-13 -11 0
-72 -71 0
-9 -12 0
-85 -87 0
-81 -84 0
-121 -124 0
-66 -67 0
-113 -114 0
-41 -42 0
-104 -101 0
-86 -88 0
-43 -44 0
-126 -125 0
-118 -120 0
-63 -62 0
-110 -109 0
-38 -34 0
-98 -100 0
-83 -82 0
-128 -127 0
-35 -33 0
30 60 108 29 95 79 122 117 0
59 8 53 7 52 46 68 61 0
107 54 23 24 91 75 116 111 0
32 3 22 2 19 10 39 37 0
93 50 90 20 16 69 103 99 0
80 48 74 13 72 9 85 81 0
121 66 113 41 104 86 43 126 0
118 63 110 38 98 83 128 35 0
28 58 105 31 96 78 123 119 0
57 4 55 5 49 45 65 64 0
106 56 25 26 92 73 115 112 0
27 6 21 1 15 14 40 36 0
94 51 89 18 17 70 102 97 0
77 47 76 11 71 12 87 84 0
124 67 114 42 101 88 44 125 0
120 62 109 34 100 82 127 33 0
