c E1(7,7) E2(7,7) E1(7,2) E1(2,7) E1(2,2) E2(7,2) E2(2,7) E2(2,2) E1(3,7) E2(3,7) E1(3,3) E1(7,3) E2(7,3) E2(3,3) E2(0,0) E1(0,7) E2(0,7) E1(7,0) E1(0,0) E2(7,0) E1(7,1) E2(7,1) E2(1,7) E2(1,1) E1(1,1) E1(1,7) E2(7,5) E1(7,5) E2(5,7) E1(5,5) E2(5,5) E1(5,7) E2(7,8) E1(8,7) E2(8,7) E1(8,8) E2(8,8) E1(7,8) E2(4,7) E1(4,7) E1(4,4) E2(4,4) E2(7,4) E1(7,4) E1(7,6) E1(6,6) E2(7,6) E1(6,7) E2(6,6) E2(6,7) E1(3,2) E2(3,2) E2(2,3) E1(2,3) E1(2,0) E2(2,0) E1(0,2) E2(0,2) E1(2,1) E2(2,1) E1(1,2) E2(1,2) E2(2,5) E1(5,2) E1(2,5) E2(5,2) E2(2,8) E1(8,2) E1(2,8) E2(8,2) E2(4,2) E1(4,2) E1(2,4) E2(2,4) E2(2,6) E1(2,6) E1(6,2) E2(6,2) E2(3,0) E1(0,3) E1(3,0) E2(0,3) E1(3,1) E2(1,3) E1(1,3) E2(3,1) E1(5,3) E2(3,5) E2(5,3) E1(3,5) E2(8,3) E1(8,3) E1(3,8) E2(3,8) E1(3,4) E1(4,3) E2(4,3) E2(3,4) E1(6,3) E1(3,6) E2(3,6) E2(6,3) E1(1,0) E2(0,1) E2(1,0) E1(0,1) E2(5,0) E1(0,5) E2(0,5) E1(5,0) E2(0,8) E1(8,0) E2(8,0) E1(0,8) E1(0,4) E2(0,4) E2(4,0) E1(4,0) E1(0,6) E2(0,6) E1(6,0) E2(6,0) E1(1,5) E2(5,1) E1(5,1) E2(1,5) E1(1,8) E2(8,1) E1(8,1) E2(1,8) E1(4,1) E2(4,1) E1(1,4) E2(1,4) E1(6,1) E2(1,6) E1(1,6) E2(6,1) E2(8,5) E2(5,8) E1(5,8) E1(8,5) E1(4,5) E1(5,4) E2(4,5) E2(5,4) E1(5,6) E2(5,6) E1(6,5) E2(6,5) E1(4,8) E2(4,8) E1(8,4) E2(8,4) E1(8,6) E1(6,8) E2(8,6) E2(6,8) E2(6,4) E1(4,6) E2(4,6) E1(6,4)
c 1 2 3 4 5 6 7 8 9 10 11 12 13 14 15 16 17 18 19 20 21 22 23 24 25 26 27 28 29 30 31 32 33 34 35 36 37 38 39 40 41 42 43 44 45 46 47 48 49 50 51 52 53 54 55 56 57 58 59 60 61 62 63 64 65 66 67 68 69 70 71 72 73 74 75 76 77 78 79 80 81 82 83 84 85 86 87 88 89 90 91 92 93 94 95 96 97 98 99 100 101 102 103 104 105 106 107 108 109 110 111 112 113 114 115 116 117 118 119 120 121 122 123 124 125 126 127 128 129 130 131 132 133 134 135 136 137 138 139 140 141 142 143 144 145 146 147 148 149 150 151 152 153 154 155 156 157 158 159 160 161 162
p cnf 162 279
-19 0
-25 0
-5 0
-11 0
-41 0
-30 0
-46 0
-1 0
-36 0
-15 0
-24 0
-8 0
-14 0
-42 0
-31 0
-49 0
-2 0
-37 0
19 -19 0
106 -103 0
57 -55 0
80 -81 0
115 -118 0
108 -110 0
119 -121 0
16 -18 0
114 -112 0
103 -106 0
25 -25 0
61 -59 0
85 -83 0
133 -131 0
123 -125 0
137 -135 0
26 -21 0
127 -129 0
55 -57 0
59 -61 0
5 -5 0
54 -51 0
73 -72 0
65 -64 0
76 -77 0
4 -3 0
69 -68 0
81 -80 0
83 -85 0
51 -54 0
11 -11 0
95 -96 0
90 -87 0
100 -99 0
9 -12 0
93 -92 0
118 -115 0
131 -133 0
72 -73 0
96 -95 0
41 -41 0
143 -144 0
160 -162 0
40 -44 0
151 -153 0
110 -108 0
125 -123 0
64 -65 0
87 -90 0
144 -143 0
30 -30 0
147 -149 0
32 -28 0
141 -142 0
121 -119 0
135 -137 0
77 -76 0
99 -100 0
162 -160 0
149 -147 0
46 -46 0
48 -45 0
156 -155 0
18 -16 0
21 -26 0
3 -4 0
12 -9 0
44 -40 0
28 -32 0
45 -48 0
1 -1 0
38 -34 0
112 -114 0
129 -127 0
68 -69 0
92 -93 0
153 -151 0
142 -141 0
155 -156 0
34 -38 0
36 -36 0
15 -15 0
104 -105 0
58 -56 0
82 -79 0
116 -117 0
109 -107 0
120 -122 0
17 -20 0
111 -113 0
105 -104 0
24 -24 0
62 -60 0
84 -86 0
134 -132 0
126 -124 0
136 -138 0
23 -22 0
130 -128 0
56 -58 0
60 -62 0
8 -8 0
53 -52 0
74 -71 0
63 -66 0
75 -78 0
7 -6 0
67 -70 0
79 -82 0
86 -84 0
52 -53 0
14 -14 0
98 -97 0
88 -89 0
101 -102 0
10 -13 0
94 -91 0
117 -116 0
132 -134 0
71 -74 0
97 -98 0
42 -42 0
145 -146 0
161 -159 0
39 -43 0
152 -154 0
107 -109 0
124 -126 0
66 -63 0
89 -88 0
146 -145 0
31 -31 0
148 -150 0
29 -27 0
140 -139 0
122 -120 0
138 -136 0
78 -75 0
102 -101 0
159 -161 0
150 -148 0
49 -49 0
50 -47 0
158 -157 0
20 -17 0
22 -23 0
6 -7 0
13 -10 0
43 -39 0
27 -29 0
47 -50 0
2 -2 0
33 -35 0
113 -111 0
128 -130 0
70 -67 0
91 -94 0
154 -152 0
139 -140 0
157 -158 0
35 -33 0
37 -37 0
-19 -15 0
-106 -104 0
-57 -58 0
-80 -82 0
-115 -116 0
-108 -109 0
-119 -120 0
-16 -17 0
-114 -111 0
-103 -105 0
-25 -24 0
-61 -62 0
-85 -84 0
-133 -134 0
-123 -126 0
-137 -136 0
-26 -23 0
-127 -130 0
-55 -56 0
-59 -60 0
-5 -8 0
-54 -53 0
-73 -74 0
-65 -63 0
-76 -75 0
-4 -7 0
-69 -67 0
-81 -79 0
-83 -86 0
-51 -52 0
-11 -14 0
-95 -98 0
-90 -88 0
-100 -101 0
-9 -10 0
-93 -94 0
-118 -117 0
-131 -132 0
-72 -71 0
-96 -97 0
-41 -42 0
-143 -145 0
-160 -161 0
-40 -39 0
-151 -152 0
-110 -107 0
-125 -124 0
-64 -66 0
-87 -89 0
-144 -146 0
-30 -31 0
-147 -148 0
-32 -29 0
-141 -140 0
-121 -122 0
-135 -138 0
-77 -78 0
-99 -102 0
-162 -159 0
-149 -150 0
-46 -49 0
-48 -50 0
-156 -158 0
-18 -20 0
-21 -22 0
-3 -6 0
-12 -13 0
-44 -43 0
-28 -27 0
-45 -47 0
-1 -2 0
-38 -33 0
-112 -113 0
-129 -128 0
-68 -70 0
-92 -91 0
-153 -154 0
-142 -139 0
-155 -157 0
-34 -35 0
-36 -37 0
19 106 57 80 115 108 119 16 114 0
103 25 61 85 133 123 137 26 127 0
55 59 5 54 73 65 76 4 69 0
81 83 51 11 95 90 100 9 93 0
118 131 72 96 41 143 160 40 151 0
110 125 64 87 144 30 147 32 141 0
121 135 77 99 162 149 46 48 156 0
18 21 3 12 44 28 45 1 38 0
112 129 68 92 153 142 155 34 36 0
15 104 58 82 116 109 120 17 111 0
105 24 62 84 134 126 136 23 130 0
56 60 8 53 74 63 75 7 67 0
79 86 52 14 98 88 101 10 94 0
117 132 71 97 42 145 161 39 152 0
107 124 66 89 146 31 148 29 140 0
122 138 78 102 159 150 49 50 158 0
20 22 6 13 43 27 47 2 33 0
113 128 70 91 154 139 157 35 37 0
