c E(5,5) E(6,6) E(5,6) E(6,5) E(8,5) E(8,8) E(5,8) E(2,2) E(2,5) E(5,2) E(5,4) E(4,5) E(4,4) E(5,7) E(7,5) E(7,7) E(5,0) E(0,0) E(0,5) E(9,5) E(5,9) E(9,9) E(1,5) E(1,1) E(5,1) E(3,5) E(3,3) E(5,3) E(6,8) E(8,6) E(6,2) E(2,6) E(4,6) E(6,4) E(7,6) E(6,7) E(0,6) E(6,0) E(6,9) E(9,6) E(1,6) E(6,1) E(3,6) E(6,3) E(8,2) E(2,8) E(4,8) E(8,4) E(7,8) E(8,7) E(0,8) E(8,0) E(8,9) E(9,8) E(8,1) E(1,8) E(3,8) E(8,3) E(2,4) E(4,2) E(2,7) E(7,2) E(2,0) E(0,2) E(2,9) E(9,2) E(1,2) E(2,1) E(3,2) E(2,3) E(4,7) E(7,4) E(4,0) E(0,4) E(9,4) E(4,9) E(1,4) E(4,1) E(3,4) E(4,3) E(0,7) E(7,0) E(7,9) E(9,7) E(1,7) E(7,1) E(3,7) E(7,3) E(0,9) E(9,0) E(0,1) E(1,0) E(0,3) E(3,0) E(1,9) E(9,1) E(9,3) E(3,9) E(3,1) E(1,3)
c 1 2 3 4 5 6 7 8 9 10 11 12 13 14 15 16 17 18 19 20 21 22 23 24 25 26 27 28 29 30 31 32 33 34 35 36 37 38 39 40 41 42 43 44 45 46 47 48 49 50 51 52 53 54 55 56 57 58 59 60 61 62 63 64 65 66 67 68 69 70 71 72 73 74 75 76 77 78 79 80 81 82 83 84 85 86 87 88 89 90 91 92 93 94 95 96 97 98 99 100
p cnf 100 120
-18 0
-24 0
-8 0
-27 0
-13 0
-1 0
-2 0
-16 0
-6 0
-22 0
18 -18 0
91 -92 0
64 -63 0
93 -94 0
74 -73 0
19 -17 0
37 -38 0
81 -82 0
51 -52 0
89 -90 0
92 -91 0
24 -24 0
67 -68 0
100 -99 0
77 -78 0
23 -25 0
41 -42 0
85 -86 0
56 -55 0
95 -96 0
63 -64 0
68 -67 0
8 -8 0
70 -69 0
59 -60 0
9 -10 0
32 -31 0
61 -62 0
46 -45 0
65 -66 0
94 -93 0
99 -100 0
69 -70 0
27 -27 0
79 -80 0
26 -28 0
43 -44 0
87 -88 0
57 -58 0
98 -97 0
73 -74 0
78 -77 0
60 -59 0
80 -79 0
13 -13 0
12 -11 0
33 -34 0
71 -72 0
47 -48 0
76 -75 0
17 -19 0
25 -23 0
10 -9 0
28 -26 0
11 -12 0
1 -1 0
3 -4 0
14 -15 0
7 -5 0
21 -20 0
38 -37 0
42 -41 0
31 -32 0
44 -43 0
34 -33 0
4 -3 0
2 -2 0
36 -35 0
29 -30 0
39 -40 0
82 -81 0
86 -85 0
62 -61 0
88 -87 0
72 -71 0
15 -14 0
35 -36 0
16 -16 0
49 -50 0
83 -84 0
52 -51 0
55 -56 0
45 -46 0
58 -57 0
48 -47 0
5 -7 0
30 -29 0
50 -49 0
6 -6 0
53 -54 0
90 -89 0
96 -95 0
66 -65 0
97 -98 0
75 -76 0
20 -21 0
40 -39 0
84 -83 0
54 -53 0
22 -22 0
18 91 64 93 74 19 37 81 51 89 0
92 24 67 100 77 23 41 85 56 95 0
63 68 8 70 59 9 32 61 46 65 0
94 99 69 27 79 26 43 87 57 98 0
73 78 60 80 13 12 33 71 47 76 0
17 25 10 28 11 1 3 14 7 21 0
38 42 31 44 34 4 2 36 29 39 0
82 86 62 88 72 15 35 16 49 83 0
52 55 45 58 48 5 30 50 6 53 0
90 96 66 97 75 20 40 84 54 22 0
