c E(9,9) E(9,3) E(3,9) E(3,3) E(6,6) E(9,6) E(6,9) E(9,0) E(0,0) E(0,9) E(1,1) E(1,9) E(9,1) E(10,10) E(9,10) E(10,9) E(7,9) E(7,7) E(9,7) E(5,5) E(5,9) E(9,5) E(9,4) E(4,9) E(4,4) E(9,8) E(8,9) E(8,8) E(2,2) E(9,2) E(2,9) E(3,6) E(6,3) E(3,0) E(0,3) E(1,3) E(3,1) E(3,10) E(10,3) E(3,7) E(7,3) E(5,3) E(3,5) E(3,4) E(4,3) E(8,3) E(3,8) E(2,3) E(3,2) E(0,6) E(6,0) E(1,6) E(6,1) E(6,10) E(10,6) E(7,6) E(6,7) E(6,5) E(5,6) E(4,6) E(6,4) E(8,6) E(6,8) E(6,2) E(2,6) E(0,1) E(1,0) E(0,10) E(10,0) E(0,7) E(7,0) E(0,5) E(5,0) E(0,4) E(4,0) E(0,8) E(8,0) E(2,0) E(0,2) E(10,1) E(1,10) E(7,1) E(1,7) E(1,5) E(5,1) E(1,4) E(4,1) E(8,1) E(1,8) E(2,1) E(1,2) E(10,7) E(7,10) E(5,10) E(10,5) E(4,10) E(10,4) E(10,8) E(8,10) E(10,2) E(2,10) E(5,7) E(7,5) E(4,7) E(7,4) E(7,8) E(8,7) E(2,7) E(7,2) E(5,4) E(4,5) E(5,8) E(8,5) E(5,2) E(2,5) E(4,8) E(8,4) E(2,4) E(4,2) E(2,8) E(8,2)
c 1 2 3 4 5 6 7 8 9 10 11 12 13 14 15 16 17 18 19 20 21 22 23 24 25 26 27 28 29 30 31 32 33 34 35 36 37 38 39 40 41 42 43 44 45 46 47 48 49 50 51 52 53 54 55 56 57 58 59 60 61 62 63 64 65 66 67 68 69 70 71 72 73 74 75 76 77 78 79 80 81 82 83 84 85 86 87 88 89 90 91 92 93 94 95 96 97 98 99 100 101 102 103 104 105 106 107 108 109 110 111 112 113 114 115 116 117 118 119 120 121
p cnf 121 143
-9 0
-11 0
-14 0
-29 0
-4 0
-25 0
-20 0
-5 0
-18 0
-28 0
-1 0
9 -9 0
66 -67 0
68 -69 0
79 -78 0
35 -34 0
74 -75 0
72 -73 0
50 -51 0
70 -71 0
76 -77 0
10 -8 0
67 -66 0
11 -11 0
81 -80 0
91 -90 0
36 -37 0
86 -87 0
84 -85 0
52 -53 0
83 -82 0
89 -88 0
12 -13 0
69 -68 0
80 -81 0
14 -14 0
100 -101 0
39 -38 0
97 -96 0
95 -94 0
55 -54 0
92 -93 0
98 -99 0
16 -15 0
78 -79 0
90 -91 0
101 -100 0
29 -29 0
48 -49 0
118 -119 0
115 -114 0
65 -64 0
108 -109 0
120 -121 0
31 -30 0
34 -35 0
37 -36 0
38 -39 0
49 -48 0
4 -4 0
44 -45 0
43 -42 0
32 -33 0
40 -41 0
47 -46 0
3 -2 0
75 -74 0
87 -86 0
96 -97 0
119 -118 0
45 -44 0
25 -25 0
111 -110 0
60 -61 0
104 -105 0
116 -117 0
24 -23 0
73 -72 0
85 -84 0
94 -95 0
114 -115 0
42 -43 0
110 -111 0
20 -20 0
59 -58 0
102 -103 0
112 -113 0
21 -22 0
51 -50 0
53 -52 0
54 -55 0
64 -65 0
33 -32 0
61 -60 0
58 -59 0
5 -5 0
57 -56 0
63 -62 0
7 -6 0
71 -70 0
82 -83 0
93 -92 0
109 -108 0
41 -40 0
105 -104 0
103 -102 0
56 -57 0
18 -18 0
106 -107 0
17 -19 0
77 -76 0
88 -89 0
99 -98 0
121 -120 0
46 -47 0
117 -116 0
113 -112 0
62 -63 0
107 -106 0
28 -28 0
27 -26 0
8 -10 0
13 -12 0
15 -16 0
30 -31 0
2 -3 0
23 -24 0
22 -21 0
6 -7 0
19 -17 0
26 -27 0
1 -1 0
9 66 68 79 35 74 72 50 70 76 10 0
67 11 81 91 36 86 84 52 83 89 12 0
69 80 14 100 39 97 95 55 92 98 16 0
78 90 101 29 48 118 115 65 108 120 31 0
34 37 38 49 4 44 43 32 40 47 3 0
75 87 96 119 45 25 111 60 104 116 24 0
73 85 94 114 42 110 20 59 102 112 21 0
51 53 54 64 33 61 58 5 57 63 7 0
71 82 93 109 41 105 103 56 18 106 17 0
77 88 99 121 46 117 113 62 107 28 27 0
8 13 15 30 2 23 22 6 19 26 1 0
