c E(5,5) E(2,5) E(2,2) E(5,2) E(11,5) E(5,11) E(11,11) E(5,8) E(8,8) E(8,5) E(6,5) E(6,6) E(5,6) E(9,9) E(9,5) E(5,9) E(0,5) E(5,0) E(0,0) E(7,7) E(5,7) E(7,5) E(10,5) E(5,10) E(10,10) E(5,3) E(3,5) E(3,3) E(4,5) E(5,4) E(4,4) E(1,5) E(5,1) E(1,1) E(2,11) E(11,2) E(8,2) E(2,8) E(6,2) E(2,6) E(2,9) E(9,2) E(2,0) E(0,2) E(2,7) E(7,2) E(2,10) E(10,2) E(3,2) E(2,3) E(2,4) E(4,2) E(2,1) E(1,2) E(11,8) E(8,11) E(6,11) E(11,6) E(9,11) E(11,9) E(0,11) E(11,0) E(11,7) E(7,11) E(10,11) E(11,10) E(11,3) E(3,11) E(11,4) E(4,11) E(11,1) E(1,11) E(6,8) E(8,6) E(8,9) E(9,8) E(0,8) E(8,0) E(8,7) E(7,8) E(8,10) E(10,8) E(3,8) E(8,3) E(8,4) E(4,8) E(1,8) E(8,1) E(9,6) E(6,9) E(6,0) E(0,6) E(6,7) E(7,6) E(6,10) E(10,6) E(6,3) E(3,6) E(4,6) E(6,4) E(1,6) E(6,1) E(9,0) E(0,9) E(9,7) E(7,9) E(10,9) E(9,10) E(9,3) E(3,9) E(4,9) E(9,4) E(1,9) E(9,1) E(0,7) E(7,0) E(10,0) E(0,10) E(0,3) E(3,0) E(0,4) E(4,0) E(0,1) E(1,0) E(7,10) E(10,7) E(7,3) E(3,7) E(4,7) E(7,4) E(7,1) E(1,7) E(10,3) E(3,10) E(10,4) E(4,10) E(10,1) E(1,10) E(3,4) E(4,3) E(1,3) E(3,1) E(1,4) E(4,1)
c 1 2 3 4 5 6 7 8 9 10 11 12 13 14 15 16 17 18 19 20 21 22 23 24 25 26 27 28 29 30 31 32 33 34 35 36 37 38 39 40 41 42 43 44 45 46 47 48 49 50 51 52 53 54 55 56 57 58 59 60 61 62 63 64 65 66 67 68 69 70 71 72 73 74 75 76 77 78 79 80 81 82 83 84 85 86 87 88 89 90 91 92 93 94 95 96 97 98 99 100 101 102 103 104 105 106 107 108 109 110 111 112 113 114 115 116 117 118 119 120 121 122 123 124 125 126 127 128 129 130 131 132 133 134 135 136 137 138 139 140 141 142 143 144
p cnf 144 168
-19 0
-34 0
-25 0
-7 0
-3 0
-28 0
-31 0
-1 0
-12 0
-20 0
-9 0
-14 0
19 -19 0
123 -124 0
118 -117 0
61 -62 0
44 -43 0
119 -120 0
121 -122 0
17 -18 0
92 -91 0
115 -116 0
77 -78 0
104 -103 0
124 -123 0
34 -34 0
138 -137 0
72 -71 0
54 -53 0
141 -142 0
143 -144 0
32 -33 0
101 -102 0
132 -131 0
87 -88 0
113 -114 0
117 -118 0
137 -138 0
25 -25 0
65 -66 0
48 -47 0
133 -134 0
135 -136 0
23 -24 0
96 -95 0
126 -125 0
82 -81 0
107 -108 0
62 -61 0
71 -72 0
66 -65 0
7 -7 0
36 -35 0
67 -68 0
69 -70 0
5 -6 0
58 -57 0
63 -64 0
55 -56 0
60 -59 0
43 -44 0
53 -54 0
47 -48 0
35 -36 0
3 -3 0
50 -49 0
51 -52 0
2 -4 0
40 -39 0
45 -46 0
38 -37 0
41 -42 0
120 -119 0
142 -141 0
134 -133 0
68 -67 0
49 -50 0
28 -28 0
139 -140 0
27 -26 0
98 -97 0
128 -127 0
83 -84 0
110 -109 0
122 -121 0
144 -143 0
136 -135 0
70 -69 0
52 -51 0
140 -139 0
31 -31 0
29 -30 0
99 -100 0
129 -130 0
86 -85 0
111 -112 0
18 -17 0
33 -32 0
24 -23 0
6 -5 0
4 -2 0
26 -27 0
30 -29 0
1 -1 0
13 -11 0
21 -22 0
8 -10 0
16 -15 0
91 -92 0
102 -101 0
95 -96 0
57 -58 0
39 -40 0
97 -98 0
100 -99 0
11 -13 0
12 -12 0
93 -94 0
73 -74 0
90 -89 0
116 -115 0
131 -132 0
125 -126 0
64 -63 0
46 -45 0
127 -128 0
130 -129 0
22 -21 0
94 -93 0
20 -20 0
80 -79 0
106 -105 0
78 -77 0
88 -87 0
81 -82 0
56 -55 0
37 -38 0
84 -83 0
85 -86 0
10 -8 0
74 -73 0
79 -80 0
9 -9 0
75 -76 0
103 -104 0
114 -113 0
108 -107 0
59 -60 0
42 -41 0
109 -110 0
112 -111 0
15 -16 0
89 -90 0
105 -106 0
76 -75 0
14 -14 0
19 123 118 61 44 119 121 17 92 115 77 104 0
124 34 138 72 54 141 143 32 101 132 87 113 0
117 137 25 65 48 133 135 23 96 126 82 107 0
62 71 66 7 36 67 69 5 58 63 55 60 0
43 53 47 35 3 50 51 2 40 45 38 41 0
120 142 134 68 49 28 139 27 98 128 83 110 0
122 144 136 70 52 140 31 29 99 129 86 111 0
18 33 24 6 4 26 30 1 13 21 8 16 0
91 102 95 57 39 97 100 11 12 93 73 90 0
116 131 125 64 46 127 130 22 94 20 80 106 0
78 88 81 56 37 84 85 10 74 79 9 75 0
103 114 108 59 42 109 112 15 89 105 76 14 0
