c E(12,12) E(1,1) E(1,12) E(12,1) E(12,3) E(3,12) E(3,3) E(12,11) E(11,11) E(11,12) E(2,12) E(2,2) E(12,2) E(12,6) E(6,12) E(6,6) E(5,12) E(5,5) E(12,5) E(10,10) E(10,12) E(12,10) E(12,4) E(4,4) E(4,12) E(7,12) E(7,7) E(12,7) E(8,12) E(8,8) E(12,8) E(12,0) E(0,0) E(0,12) E(12,9) E(9,9) E(9,12) E(3,1) E(1,3) E(1,11) E(11,1) E(1,2) E(2,1) E(1,6) E(6,1) E(5,1) E(1,5) E(1,10) E(10,1) E(4,1) E(1,4) E(7,1) E(1,7) E(8,1) E(1,8) E(1,0) E(0,1) E(9,1) E(1,9) E(11,3) E(3,11) E(3,2) E(2,3) E(3,6) E(6,3) E(5,3) E(3,5) E(10,3) E(3,10) E(3,4) E(4,3) E(7,3) E(3,7) E(3,8) E(8,3) E(3,0) E(0,3) E(3,9) E(9,3) E(2,11) E(11,2) E(11,6) E(6,11) E(11,5) E(5,11) E(11,10) E(10,11) E(11,4) E(4,11) E(11,7) E(7,11) E(11,8) E(8,11) E(11,0) E(0,11) E(11,9) E(9,11) E(2,6) E(6,2) E(2,5) E(5,2) E(2,10) E(10,2) E(4,2) E(2,4) E(2,7) E(7,2) E(2,8) E(8,2) E(2,0) E(0,2) E(9,2) E(2,9) E(6,5) E(5,6) E(6,10) E(10,6) E(4,6) E(6,4) E(7,6) E(6,7) E(6,8) E(8,6) E(6,0) E(0,6) E(6,9) E(9,6) E(5,10) E(10,5) E(4,5) E(5,4) E(5,7) E(7,5) E(5,8) E(8,5) E(0,5) E(5,0) E(5,9) E(9,5) E(10,4) E(4,10) E(10,7) E(7,10) E(8,10) E(10,8) E(10,0) E(0,10) E(9,10) E(10,9) E(4,7) E(7,4) E(4,8) E(8,4) E(0,4) E(4,0) E(9,4) E(4,9) E(7,8) E(8,7) E(0,7) E(7,0) E(9,7) E(7,9) E(8,0) E(0,8) E(8,9) E(9,8) E(0,9) E(9,0)
c 1 2 3 4 5 6 7 8 9 10 11 12 13 14 15 16 17 18 19 20 21 22 23 24 25 26 27 28 29 30 31 32 33 34 35 36 37 38 39 40 41 42 43 44 45 46 47 48 49 50 51 52 53 54 55 56 57 58 59 60 61 62 63 64 65 66 67 68 69 70 71 72 73 74 75 76 77 78 79 80 81 82 83 84 85 86 87 88 89 90 91 92 93 94 95 96 97 98 99 100 101 102 103 104 105 106 107 108 109 110 111 112 113 114 115 116 117 118 119 120 121 122 123 124 125 126 127 128 129 130 131 132 133 134 135 136 137 138 139 140 141 142 143 144 145 146 147 148 149 150 151 152 153 154 155 156 157 158 159 160 161 162 163 164 165 166 167 168 169
p cnf 169 195
-33 0
-2 0
-20 0
-9 0
-1 0
-12 0
-7 0
-24 0
-18 0
-16 0
-27 0
-30 0
-36 0
33 -33 0
57 -56 0
147 -146 0
95 -94 0
34 -32 0
111 -110 0
77 -76 0
154 -155 0
136 -137 0
125 -124 0
160 -161 0
165 -164 0
168 -169 0
56 -57 0
2 -2 0
48 -49 0
40 -41 0
3 -4 0
42 -43 0
39 -38 0
51 -50 0
47 -46 0
44 -45 0
53 -52 0
55 -54 0
59 -58 0
146 -147 0
49 -48 0
20 -20 0
87 -86 0
21 -22 0
103 -102 0
68 -69 0
140 -141 0
129 -128 0
117 -116 0
142 -143 0
145 -144 0
149 -148 0
94 -95 0
41 -40 0
86 -87 0
9 -9 0
10 -8 0
81 -80 0
60 -61 0
88 -89 0
84 -85 0
82 -83 0
90 -91 0
92 -93 0
96 -97 0
32 -34 0
4 -3 0
22 -21 0
8 -10 0
1 -1 0
13 -11 0
5 -6 0
23 -25 0
19 -17 0
14 -15 0
28 -26 0
31 -29 0
35 -37 0
110 -111 0
43 -42 0
102 -103 0
80 -81 0
11 -13 0
12 -12 0
63 -62 0
105 -104 0
100 -101 0
98 -99 0
106 -107 0
108 -109 0
113 -112 0
76 -77 0
38 -39 0
69 -68 0
61 -60 0
6 -5 0
62 -63 0
7 -7 0
70 -71 0
67 -66 0
64 -65 0
73 -72 0
74 -75 0
78 -79 0
155 -154 0
50 -51 0
141 -140 0
89 -88 0
25 -23 0
104 -105 0
71 -70 0
24 -24 0
130 -131 0
118 -119 0
150 -151 0
152 -153 0
157 -156 0
137 -136 0
46 -47 0
128 -129 0
85 -84 0
17 -19 0
101 -100 0
66 -67 0
131 -130 0
18 -18 0
115 -114 0
132 -133 0
134 -135 0
138 -139 0
124 -125 0
45 -44 0
116 -117 0
83 -82 0
15 -14 0
99 -98 0
65 -64 0
119 -118 0
114 -115 0
16 -16 0
121 -120 0
122 -123 0
126 -127 0
161 -160 0
52 -53 0
143 -142 0
91 -90 0
26 -28 0
107 -106 0
72 -73 0
151 -150 0
133 -132 0
120 -121 0
27 -27 0
158 -159 0
163 -162 0
164 -165 0
54 -55 0
144 -145 0
93 -92 0
29 -31 0
109 -108 0
75 -74 0
153 -152 0
135 -134 0
123 -122 0
159 -158 0
30 -30 0
166 -167 0
169 -168 0
58 -59 0
148 -149 0
97 -96 0
37 -35 0
112 -113 0
79 -78 0
156 -157 0
139 -138 0
127 -126 0
162 -163 0
167 -166 0
36 -36 0
33 57 147 95 34 111 77 154 136 125 160 165 168 0
56 2 48 40 3 42 39 51 47 44 53 55 59 0
146 49 20 87 21 103 68 140 129 117 142 145 149 0
94 41 86 9 10 81 60 88 84 82 90 92 96 0
32 4 22 8 1 13 5 23 19 14 28 31 35 0
110 43 102 80 11 12 63 105 100 98 106 108 113 0
76 38 69 61 6 62 7 70 67 64 73 74 78 0
155 50 141 89 25 104 71 24 130 118 150 152 157 0
137 46 128 85 17 101 66 131 18 115 132 134 138 0
124 45 116 83 15 99 65 119 114 16 121 122 126 0
161 52 143 91 26 107 72 151 133 120 27 158 163 0
164 54 144 93 29 109 75 153 135 123 159 30 166 0
169 58 148 97 37 112 79 156 139 127 162 167 36 0
