c E(11,11) E(2,11) E(11,2) E(2,2) E(11,8) E(8,11) E(8,8) E(11,7) E(7,7) E(7,11) E(1,1) E(11,1) E(1,11) E(4,11) E(11,4) E(4,4) E(11,5) E(5,5) E(5,11) E(12,12) E(12,11) E(11,12) E(13,11) E(13,13) E(11,13) E(3,11) E(3,3) E(11,3) E(10,11) E(11,10) E(10,10) E(9,9) E(11,9) E(9,11) E(6,6) E(11,6) E(6,11) E(0,0) E(11,0) E(0,11) E(2,8) E(8,2) E(2,7) E(7,2) E(2,1) E(1,2) E(2,4) E(4,2) E(5,2) E(2,5) E(12,2) E(2,12) E(13,2) E(2,13) E(3,2) E(2,3) E(10,2) E(2,10) E(2,9) E(9,2) E(6,2) E(2,6) E(0,2) E(2,0) E(8,7) E(7,8) E(8,1) E(1,8) E(8,4) E(4,8) E(8,5) E(5,8) E(12,8) E(8,12) E(13,8) E(8,13) E(8,3) E(3,8) E(8,10) E(10,8) E(9,8) E(8,9) E(8,6) E(6,8) E(0,8) E(8,0) E(1,7) E(7,1) E(4,7) E(7,4) E(5,7) E(7,5) E(12,7) E(7,12) E(7,13) E(13,7) E(3,7) E(7,3) E(10,7) E(7,10) E(7,9) E(9,7) E(7,6) E(6,7) E(7,0) E(0,7) E(4,1) E(1,4) E(1,5) E(5,1) E(1,12) E(12,1) E(1,13) E(13,1) E(1,3) E(3,1) E(1,10) E(10,1) E(1,9) E(9,1) E(6,1) E(1,6) E(0,1) E(1,0) E(5,4) E(4,5) E(12,4) E(4,12) E(13,4) E(4,13) E(4,3) E(3,4) E(10,4) E(4,10) E(9,4) E(4,9) E(4,6) E(6,4) E(0,4) E(4,0) E(5,12) E(12,5) E(13,5) E(5,13) E(3,5) E(5,3) E(10,5) E(5,10) E(5,9) E(9,5) E(5,6) E(6,5) E(0,5) E(5,0) E(12,13) E(13,12) E(3,12) E(12,3) E(10,12) E(12,10) E(9,12) E(12,9) E(6,12) E(12,6) E(0,12) E(12,0) E(13,3) E(3,13) E(10,13) E(13,10) E(9,13) E(13,9) E(13,6) E(6,13) E(0,13) E(13,0) E(3,10) E(10,3) E(9,3) E(3,9) E(3,6) E(6,3) E(3,0) E(0,3) E(9,10) E(10,9) E(10,6) E(6,10) E(10,0) E(0,10) E(9,6) E(6,9) E(9,0) E(0,9) E(6,0) E(0,6)
c 1 2 3 4 5 6 7 8 9 10 11 12 13 14 15 16 17 18 19 20 21 22 23 24 25 26 27 28 29 30 31 32 33 34 35 36 37 38 39 40 41 42 43 44 45 46 47 48 49 50 51 52 53 54 55 56 57 58 59 60 61 62 63 64 65 66 67 68 69 70 71 72 73 74 75 76 77 78 79 80 81 82 83 84 85 86 87 88 89 90 91 92 93 94 95 96 97 98 99 100 101 102 103 104 105 106 107 108 109 110 111 112 113 114 115 116 117 118 119 120 121 122 123 124 125 126 127 128 129 130 131 132 133 134 135 136 137 138 139 140 141 142 143 144 145 146 147 148 149 150 151 152 153 154 155 156 157 158 159 160 161 162 163 164 165 166 167 168 169 170 171 172 173 174 175 176 177 178 179 180 181 182 183 184 185 186 187 188 189 190 191 192 193 194 195 196
p cnf 196 224
-38 0
-11 0
-31 0
-1 0
-20 0
-24 0
-4 0
-27 0
-16 0
-18 0
-35 0
-9 0
-7 0
-32 0
38 -38 0
123 -124 0
190 -189 0
40 -39 0
165 -166 0
175 -176 0
63 -64 0
184 -183 0
139 -140 0
153 -154 0
196 -195 0
106 -105 0
85 -86 0
194 -193 0
124 -123 0
11 -11 0
117 -118 0
13 -12 0
111 -112 0
113 -114 0
46 -45 0
115 -116 0
108 -107 0
109 -110 0
122 -121 0
87 -88 0
68 -67 0
119 -120 0
189 -190 0
118 -117 0
31 -31 0
29 -30 0
159 -160 0
169 -170 0
57 -58 0
178 -177 0
133 -134 0
147 -148 0
187 -188 0
99 -100 0
80 -79 0
186 -185 0
39 -40 0
12 -13 0
30 -29 0
1 -1 0
22 -21 0
25 -23 0
3 -2 0
28 -26 0
15 -14 0
17 -19 0
36 -37 0
8 -10 0
5 -6 0
33 -34 0
166 -165 0
112 -111 0
160 -159 0
21 -22 0
20 -20 0
155 -156 0
51 -52 0
158 -157 0
127 -128 0
142 -141 0
164 -163 0
93 -94 0
73 -74 0
162 -161 0
176 -175 0
114 -113 0
170 -169 0
23 -25 0
156 -155 0
24 -24 0
53 -54 0
167 -168 0
129 -130 0
143 -144 0
173 -174 0
96 -95 0
75 -76 0
172 -171 0
64 -63 0
45 -46 0
58 -57 0
2 -3 0
52 -51 0
54 -53 0
4 -4 0
56 -55 0
47 -48 0
50 -49 0
62 -61 0
43 -44 0
41 -42 0
59 -60 0
183 -184 0
116 -115 0
177 -178 0
26 -28 0
157 -158 0
168 -167 0
55 -56 0
27 -27 0
132 -131 0
145 -146 0
181 -182 0
97 -98 0
78 -77 0
180 -179 0
140 -139 0
107 -108 0
134 -133 0
14 -15 0
128 -127 0
130 -129 0
48 -47 0
131 -132 0
16 -16 0
126 -125 0
137 -138 0
89 -90 0
70 -69 0
136 -135 0
154 -153 0
110 -109 0
148 -147 0
19 -17 0
141 -142 0
144 -143 0
49 -50 0
146 -145 0
125 -126 0
18 -18 0
151 -152 0
91 -92 0
72 -71 0
149 -150 0
195 -196 0
121 -122 0
188 -187 0
37 -36 0
163 -164 0
174 -173 0
61 -62 0
182 -181 0
138 -137 0
152 -151 0
35 -35 0
104 -103 0
84 -83 0
192 -191 0
105 -106 0
88 -87 0
100 -99 0
10 -8 0
94 -93 0
95 -96 0
44 -43 0
98 -97 0
90 -89 0
92 -91 0
103 -104 0
9 -9 0
66 -65 0
101 -102 0
86 -85 0
67 -68 0
79 -80 0
6 -5 0
74 -73 0
76 -75 0
42 -41 0
77 -78 0
69 -70 0
71 -72 0
83 -84 0
65 -66 0
7 -7 0
82 -81 0
193 -194 0
120 -119 0
185 -186 0
34 -33 0
161 -162 0
171 -172 0
60 -59 0
179 -180 0
135 -136 0
150 -149 0
191 -192 0
102 -101 0
81 -82 0
32 -32 0
38 123 190 40 165 175 63 184 139 153 196 106 85 194 0
124 11 117 13 111 113 46 115 108 109 122 87 68 119 0
189 118 31 29 159 169 57 178 133 147 187 99 80 186 0
39 12 30 1 22 25 3 28 15 17 36 8 5 33 0
166 112 160 21 20 155 51 158 127 142 164 93 73 162 0
176 114 170 23 156 24 53 167 129 143 173 96 75 172 0
64 45 58 2 52 54 4 56 47 50 62 43 41 59 0
183 116 177 26 157 168 55 27 132 145 181 97 78 180 0
140 107 134 14 128 130 48 131 16 126 137 89 70 136 0
154 110 148 19 141 144 49 146 125 18 151 91 72 149 0
195 121 188 37 163 174 61 182 138 152 35 104 84 192 0
105 88 100 10 94 95 44 98 90 92 103 9 66 101 0
86 67 79 6 74 76 42 77 69 71 83 65 7 82 0
193 120 185 34 161 171 60 179 135 150 191 102 81 32 0
