c E(10,10) E(5,10) E(5,5) E(10,5) E(14,10) E(14,14) E(10,14) E(10,7) E(7,7) E(7,10) E(13,13) E(10,13) E(13,10) E(10,3) E(3,3) E(3,10) E(10,0) E(0,10) E(0,0) E(6,6) E(6,10) E(10,6) E(10,1) E(1,1) E(1,10) E(11,10) E(11,11) E(10,11) E(2,10) E(2,2) E(10,2) E(12,12) E(12,10) E(10,12) E(4,10) E(4,4) E(10,4) E(9,10) E(9,9) E(10,9) E(10,8) E(8,8) E(8,10) E(5,14) E(14,5) E(5,7) E(7,5) E(13,5) E(5,13) E(5,3) E(3,5) E(0,5) E(5,0) E(5,6) E(6,5) E(1,5) E(5,1) E(5,11) E(11,5) E(5,2) E(2,5) E(12,5) E(5,12) E(5,4) E(4,5) E(9,5) E(5,9) E(8,5) E(5,8) E(7,14) E(14,7) E(13,14) E(14,13) E(14,3) E(3,14) E(0,14) E(14,0) E(14,6) E(6,14) E(1,14) E(14,1) E(14,11) E(11,14) E(2,14) E(14,2) E(14,12) E(12,14) E(14,4) E(4,14) E(14,9) E(9,14) E(8,14) E(14,8) E(13,7) E(7,13) E(3,7) E(7,3) E(0,7) E(7,0) E(6,7) E(7,6) E(7,1) E(1,7) E(7,11) E(11,7) E(7,2) E(2,7) E(7,12) E(12,7) E(4,7) E(7,4) E(7,9) E(9,7) E(7,8) E(8,7) E(3,13) E(13,3) E(13,0) E(0,13) E(6,13) E(13,6) E(13,1) E(1,13) E(11,13) E(13,11) E(2,13) E(13,2) E(12,13) E(13,12) E(13,4) E(4,13) E(9,13) E(13,9) E(13,8) E(8,13) E(0,3) E(3,0) E(6,3) E(3,6) E(3,1) E(1,3) E(3,11) E(11,3) E(2,3) E(3,2) E(12,3) E(3,12) E(3,4) E(4,3) E(3,9) E(9,3) E(3,8) E(8,3) E(0,6) E(6,0) E(1,0) E(0,1) E(0,11) E(11,0) E(0,2) E(2,0) E(0,12) E(12,0) E(0,4) E(4,0) E(0,9) E(9,0) E(8,0) E(0,8) E(6,1) E(1,6) E(6,11) E(11,6) E(2,6) E(6,2) E(6,12) E(12,6) E(4,6) E(6,4) E(6,9) E(9,6) E(6,8) E(8,6) E(11,1) E(1,11) E(2,1) E(1,2) E(12,1) E(1,12) E(4,1) E(1,4) E(9,1) E(1,9) E(1,8) E(8,1) E(11,2) E(2,11) E(12,11) E(11,12) E(11,4) E(4,11) E(9,11) E(11,9) E(8,11) E(11,8) E(12,2) E(2,12) E(4,2) E(2,4) E(9,2) E(2,9) E(2,8) E(8,2) E(12,4) E(4,12) E(9,12) E(12,9) E(8,12) E(12,8) E(9,4) E(4,9) E(8,4) E(4,8) E(8,9) E(9,8)
c 1 2 3 4 5 6 7 8 9 10 11 12 13 14 15 16 17 18 19 20 21 22 23 24 25 26 27 28 29 30 31 32 33 34 35 36 37 38 39 40 41 42 43 44 45 46 47 48 49 50 51 52 53 54 55 56 57 58 59 60 61 62 63 64 65 66 67 68 69 70 71 72 73 74 75 76 77 78 79 80 81 82 83 84 85 86 87 88 89 90 91 92 93 94 95 96 97 98 99 100 101 102 103 104 105 106 107 108 109 110 111 112 113 114 115 116 117 118 119 120 121 122 123 124 125 126 127 128 129 130 131 132 133 134 135 136 137 138 139 140 141 142 143 144 145 146 147 148 149 150 151 152 153 154 155 156 157 158 159 160 161 162 163 164 165 166 167 168 169 170 171 172 173 174 175 176 177 178 179 180 181 182 183 184 185 186 187 188 189 190 191 192 193 194 195 196 197 198 199 200 201 202 203 204 205 206 207 208 209 210 211 212 213 214 215 216 217 218 219 220 221 222 223 224 225
p cnf 225 255
-19 0
-24 0
-1 0
-27 0
-32 0
-11 0
-6 0
-30 0
-15 0
-36 0
-3 0
-20 0
-9 0
-42 0
-39 0
19 -19 0
157 -156 0
18 -17 0
158 -159 0
162 -163 0
119 -118 0
76 -77 0
160 -161 0
136 -137 0
164 -165 0
52 -53 0
154 -155 0
98 -99 0
169 -168 0
166 -167 0
156 -157 0
24 -24 0
25 -23 0
185 -184 0
189 -188 0
123 -122 0
80 -81 0
187 -186 0
141 -140 0
191 -190 0
56 -57 0
171 -170 0
103 -102 0
194 -195 0
193 -192 0
17 -18 0
23 -25 0
1 -1 0
28 -26 0
34 -33 0
12 -13 0
7 -5 0
31 -29 0
14 -16 0
37 -35 0
4 -2 0
22 -21 0
8 -10 0
41 -43 0
40 -38 0
159 -158 0
184 -185 0
26 -28 0
27 -27 0
199 -198 0
124 -125 0
83 -82 0
196 -197 0
143 -142 0
200 -201 0
59 -58 0
173 -172 0
105 -104 0
205 -204 0
203 -202 0
163 -162 0
188 -189 0
33 -34 0
198 -199 0
32 -32 0
128 -129 0
87 -86 0
206 -207 0
146 -147 0
214 -215 0
62 -63 0
177 -176 0
109 -108 0
219 -218 0
217 -216 0
118 -119 0
122 -123 0
13 -12 0
125 -124 0
129 -128 0
11 -11 0
72 -73 0
127 -126 0
117 -116 0
130 -131 0
48 -49 0
121 -120 0
94 -95 0
134 -135 0
133 -132 0
77 -76 0
81 -80 0
5 -7 0
82 -83 0
86 -87 0
73 -72 0
6 -6 0
85 -84 0
74 -75 0
88 -89 0
45 -44 0
78 -79 0
71 -70 0
93 -92 0
90 -91 0
161 -160 0
186 -187 0
29 -31 0
197 -196 0
207 -206 0
126 -127 0
84 -85 0
30 -30 0
144 -145 0
209 -208 0
61 -60 0
174 -175 0
107 -106 0
212 -213 0
211 -210 0
137 -136 0
140 -141 0
16 -14 0
142 -143 0
147 -146 0
116 -117 0
75 -74 0
145 -144 0
15 -15 0
148 -149 0
51 -50 0
139 -138 0
96 -97 0
152 -153 0
150 -151 0
165 -164 0
190 -191 0
35 -37 0
201 -200 0
215 -214 0
131 -130 0
89 -88 0
208 -209 0
149 -148 0
36 -36 0
65 -64 0
178 -179 0
110 -111 0
223 -222 0
221 -220 0
53 -52 0
57 -56 0
2 -4 0
58 -59 0
63 -62 0
49 -48 0
44 -45 0
60 -61 0
50 -51 0
64 -65 0
3 -3 0
54 -55 0
46 -47 0
69 -68 0
67 -66 0
155 -154 0
170 -171 0
21 -22 0
172 -173 0
176 -177 0
120 -121 0
79 -78 0
175 -174 0
138 -139 0
179 -178 0
55 -54 0
20 -20 0
100 -101 0
182 -183 0
180 -181 0
99 -98 0
102 -103 0
10 -8 0
104 -105 0
108 -109 0
95 -94 0
70 -71 0
106 -107 0
97 -96 0
111 -110 0
47 -46 0
101 -100 0
9 -9 0
114 -115 0
112 -113 0
168 -169 0
195 -194 0
43 -41 0
204 -205 0
218 -219 0
135 -134 0
92 -93 0
213 -212 0
153 -152 0
222 -223 0
68 -69 0
183 -182 0
115 -114 0
42 -42 0
224 -225 0
167 -166 0
192 -193 0
38 -40 0
202 -203 0
216 -217 0
132 -133 0
91 -90 0
210 -211 0
151 -150 0
220 -221 0
66 -67 0
181 -180 0
113 -112 0
225 -224 0
39 -39 0
19 157 18 158 162 119 76 160 136 164 52 154 98 169 166 0
156 24 25 185 189 123 80 187 141 191 56 171 103 194 193 0
17 23 1 28 34 12 7 31 14 37 4 22 8 41 40 0
159 184 26 27 199 124 83 196 143 200 59 173 105 205 203 0
163 188 33 198 32 128 87 206 146 214 62 177 109 219 217 0
118 122 13 125 129 11 72 127 117 130 48 121 94 134 133 0
77 81 5 82 86 73 6 85 74 88 45 78 71 93 90 0
161 186 29 197 207 126 84 30 144 209 61 174 107 212 211 0
137 140 16 142 147 116 75 145 15 148 51 139 96 152 150 0
165 190 35 201 215 131 89 208 149 36 65 178 110 223 221 0
53 57 2 58 63 49 44 60 50 64 3 54 46 69 67 0
155 170 21 172 176 120 79 175 138 179 55 20 100 182 180 0
99 102 10 104 108 95 70 106 97 111 47 101 9 114 112 0
168 195 43 204 218 135 92 213 153 222 68 183 115 42 224 0
167 192 38 202 216 132 91 210 151 220 66 181 113 225 39 0
