c E(15,15) E(15,10) E(10,15) E(10,10) E(2,15) E(15,2) E(2,2) E(12,15) E(15,12) E(12,12) E(6,15) E(15,6) E(6,6) E(15,3) E(3,15) E(3,3) E(15,5) E(5,5) E(5,15) E(4,4) E(4,15) E(15,4) E(14,14) E(15,14) E(14,15) E(11,15) E(15,11) E(11,11) E(15,0) E(0,15) E(0,0) E(13,15) E(15,13) E(13,13) E(8,8) E(8,15) E(15,8) E(15,1) E(1,1) E(1,15) E(7,15) E(15,7) E(7,7) E(9,9) E(15,9) E(9,15) E(2,10) E(10,2) E(12,10) E(10,12) E(6,10) E(10,6) E(3,10) E(10,3) E(5,10) E(10,5) E(4,10) E(10,4) E(10,14) E(14,10) E(10,11) E(11,10) E(0,10) E(10,0) E(10,13) E(13,10) E(8,10) E(10,8) E(1,10) E(10,1) E(10,7) E(7,10) E(10,9) E(9,10) E(2,12) E(12,2) E(6,2) E(2,6) E(2,3) E(3,2) E(2,5) E(5,2) E(2,4) E(4,2) E(2,14) E(14,2) E(2,11) E(11,2) E(0,2) E(2,0) E(13,2) E(2,13) E(8,2) E(2,8) E(1,2) E(2,1) E(7,2) E(2,7) E(2,9) E(9,2) E(6,12) E(12,6) E(12,3) E(3,12) E(5,12) E(12,5) E(4,12) E(12,4) E(12,14) E(14,12) E(12,11) E(11,12) E(12,0) E(0,12) E(12,13) E(13,12) E(8,12) E(12,8) E(12,1) E(1,12) E(12,7) E(7,12) E(12,9) E(9,12) E(3,6) E(6,3) E(5,6) E(6,5) E(6,4) E(4,6) E(14,6) E(6,14) E(11,6) E(6,11) E(0,6) E(6,0) E(13,6) E(6,13) E(8,6) E(6,8) E(1,6) E(6,1) E(7,6) E(6,7) E(6,9) E(9,6) E(5,3) E(3,5) E(4,3) E(3,4) E(3,14) E(14,3) E(3,11) E(11,3) E(0,3) E(3,0) E(3,13) E(13,3) E(3,8) E(8,3) E(1,3) E(3,1) E(3,7) E(7,3) E(9,3) E(3,9) E(5,4) E(4,5) E(5,14) E(14,5) E(5,11) E(11,5) E(0,5) E(5,0) E(5,13) E(13,5) E(8,5) E(5,8) E(1,5) E(5,1) E(7,5) E(5,7) E(5,9) E(9,5) E(14,4) E(4,14) E(4,11) E(11,4) E(4,0) E(0,4) E(4,13) E(13,4) E(4,8) E(8,4) E(4,1) E(1,4) E(4,7) E(7,4) E(9,4) E(4,9) E(14,11) E(11,14) E(0,14) E(14,0) E(14,13) E(13,14) E(14,8) E(8,14) E(14,1) E(1,14) E(7,14) E(14,7) E(14,9) E(9,14) E(11,0) E(0,11) E(11,13) E(13,11) E(11,8) E(8,11) E(1,11) E(11,1) E(11,7) E(7,11) E(9,11) E(11,9) E(0,13) E(13,0) E(8,0) E(0,8) E(1,0) E(0,1) E(0,7) E(7,0) E(9,0) E(0,9) E(8,13) E(13,8) E(13,1) E(1,13) E(13,7) E(7,13) E(13,9) E(9,13) E(8,1) E(1,8) E(7,8) E(8,7) E(9,8) E(8,9) E(7,1) E(1,7) E(1,9) E(9,1) E(7,9) E(9,7)
c 1 2 3 4 5 6 7 8 9 10 11 12 13 14 15 16 17 18 19 20 21 22 23 24 25 26 27 28 29 30 31 32 33 34 35 36 37 38 39 40 41 42 43 44 45 46 47 48 49 50 51 52 53 54 55 56 57 58 59 60 61 62 63 64 65 66 67 68 69 70 71 72 73 74 75 76 77 78 79 80 81 82 83 84 85 86 87 88 89 90 91 92 93 94 95 96 97 98 99 100 101 102 103 104 105 106 107 108 109 110 111 112 113 114 115 116 117 118 119 120 121 122 123 124 125 126 127 128 129 130 131 132 133 134 135 136 137 138 139 140 141 142 143 144 145 146 147 148 149 150 151 152 153 154 155 156 157 158 159 160 161 162 163 164 165 166 167 168 169 170 171 172 173 174 175 176 177 178 179 180 181 182 183 184 185 186 187 188 189 190 191 192 193 194 195 196 197 198 199 200 201 202 203 204 205 206 207 208 209 210 211 212 213 214 215 216 217 218 219 220 221 222 223 224 225 226 227 228 229 230 231 232 233 234 235 236 237 238 239 240 241 242 243 244 245 246 247 248 249 250 251 252 253 254 255 256
p cnf 256 288
-31 0
-39 0
-4 0
-28 0
-10 0
-34 0
-23 0
-1 0
-7 0
-16 0
-20 0
-18 0
-13 0
-43 0
-35 0
-44 0
31 -31 0
232 -231 0
63 -64 0
216 -215 0
114 -113 0
227 -228 0
203 -204 0
30 -29 0
89 -90 0
155 -156 0
190 -189 0
173 -174 0
135 -136 0
233 -234 0
230 -229 0
236 -235 0
231 -232 0
39 -39 0
69 -70 0
221 -222 0
120 -119 0
240 -239 0
210 -209 0
40 -38 0
95 -96 0
161 -162 0
196 -195 0
179 -180 0
141 -142 0
252 -251 0
246 -245 0
253 -254 0
64 -63 0
70 -69 0
4 -4 0
61 -62 0
50 -49 0
65 -66 0
59 -60 0
3 -2 0
48 -47 0
54 -53 0
58 -57 0
56 -55 0
52 -51 0
71 -72 0
68 -67 0
73 -74 0
215 -216 0
222 -221 0
62 -61 0
28 -28 0
112 -111 0
217 -218 0
202 -201 0
26 -27 0
88 -87 0
154 -153 0
188 -187 0
172 -171 0
133 -134 0
223 -224 0
219 -220 0
226 -225 0
113 -114 0
119 -120 0
49 -50 0
111 -112 0
10 -10 0
115 -116 0
109 -110 0
8 -9 0
76 -75 0
103 -104 0
108 -107 0
106 -105 0
102 -101 0
121 -122 0
118 -117 0
123 -124 0
228 -227 0
239 -240 0
66 -65 0
218 -217 0
116 -115 0
34 -34 0
206 -205 0
32 -33 0
91 -92 0
158 -157 0
192 -191 0
176 -175 0
137 -138 0
241 -242 0
238 -237 0
243 -244 0
204 -203 0
209 -210 0
60 -59 0
201 -202 0
110 -109 0
205 -206 0
23 -23 0
25 -24 0
86 -85 0
152 -151 0
185 -186 0
170 -169 0
131 -132 0
212 -211 0
207 -208 0
213 -214 0
29 -30 0
38 -40 0
2 -3 0
27 -26 0
9 -8 0
33 -32 0
24 -25 0
1 -1 0
6 -5 0
14 -15 0
22 -21 0
17 -19 0
12 -11 0
42 -41 0
37 -36 0
45 -46 0
90 -89 0
96 -95 0
47 -48 0
87 -88 0
75 -76 0
92 -91 0
85 -86 0
5 -6 0
7 -7 0
79 -80 0
83 -84 0
81 -82 0
78 -77 0
98 -97 0
94 -93 0
99 -100 0
156 -155 0
162 -161 0
53 -54 0
153 -154 0
104 -103 0
157 -158 0
151 -152 0
15 -14 0
80 -79 0
16 -16 0
150 -149 0
148 -147 0
125 -126 0
163 -164 0
159 -160 0
166 -165 0
189 -190 0
195 -196 0
57 -58 0
187 -188 0
107 -108 0
191 -192 0
186 -185 0
21 -22 0
84 -83 0
149 -150 0
20 -20 0
168 -167 0
130 -129 0
197 -198 0
193 -194 0
200 -199 0
174 -173 0
180 -179 0
55 -56 0
171 -172 0
105 -106 0
175 -176 0
169 -170 0
19 -17 0
82 -81 0
147 -148 0
167 -168 0
18 -18 0
127 -128 0
182 -181 0
178 -177 0
183 -184 0
136 -135 0
142 -141 0
51 -52 0
134 -133 0
101 -102 0
138 -137 0
132 -131 0
11 -12 0
77 -78 0
126 -125 0
129 -130 0
128 -127 0
13 -13 0
144 -143 0
140 -139 0
145 -146 0
234 -233 0
251 -252 0
72 -71 0
224 -223 0
122 -121 0
242 -241 0
211 -212 0
41 -42 0
97 -98 0
164 -163 0
198 -197 0
181 -182 0
143 -144 0
43 -43 0
247 -248 0
255 -256 0
229 -230 0
245 -246 0
67 -68 0
220 -219 0
117 -118 0
237 -238 0
208 -207 0
36 -37 0
93 -94 0
160 -159 0
194 -193 0
177 -178 0
139 -140 0
248 -247 0
35 -35 0
250 -249 0
235 -236 0
254 -253 0
74 -73 0
225 -226 0
124 -123 0
244 -243 0
214 -213 0
46 -45 0
100 -99 0
165 -166 0
199 -200 0
184 -183 0
146 -145 0
256 -255 0
249 -250 0
44 -44 0
31 232 63 216 114 227 203 30 89 155 190 173 135 233 230 236 0
231 39 69 221 120 240 210 40 95 161 196 179 141 252 246 253 0
64 70 4 61 50 65 59 3 48 54 58 56 52 71 68 73 0
215 222 62 28 112 217 202 26 88 154 188 172 133 223 219 226 0
113 119 49 111 10 115 109 8 76 103 108 106 102 121 118 123 0
228 239 66 218 116 34 206 32 91 158 192 176 137 241 238 243 0
204 209 60 201 110 205 23 25 86 152 185 170 131 212 207 213 0
29 38 2 27 9 33 24 1 6 14 22 17 12 42 37 45 0
90 96 47 87 75 92 85 5 7 79 83 81 78 98 94 99 0
156 162 53 153 104 157 151 15 80 16 150 148 125 163 159 166 0
189 195 57 187 107 191 186 21 84 149 20 168 130 197 193 200 0
174 180 55 171 105 175 169 19 82 147 167 18 127 182 178 183 0
136 142 51 134 101 138 132 11 77 126 129 128 13 144 140 145 0
234 251 72 224 122 242 211 41 97 164 198 181 143 43 247 255 0
229 245 67 220 117 237 208 36 93 160 194 177 139 248 35 250 0
235 254 74 225 124 244 214 46 100 165 199 184 146 256 249 44 0
