c E(1,1) E(4,4) E(1,4) E(4,1) E(7,1) E(7,7) E(1,7) E(10,10) E(10,1) E(1,10) E(1,5) E(5,1) E(5,5) E(12,1) E(1,12) E(12,12) E(3,3) E(1,3) E(3,1) E(13,13) E(13,1) E(1,13) E(15,1) E(1,15) E(15,15) E(0,0) E(1,0) E(0,1) E(16,16) E(16,1) E(1,16) E(6,1) E(1,6) E(6,6) E(9,1) E(1,9) E(9,9) E(8,8) E(8,1) E(1,8) E(11,11) E(11,1) E(1,11) E(2,1) E(1,2) E(2,2) E(1,14) E(14,1) E(14,14) E(4,7) E(7,4) E(10,4) E(4,10) E(4,5) E(5,4) E(4,12) E(12,4) E(3,4) E(4,3) E(4,13) E(13,4) E(15,4) E(4,15) E(4,0) E(0,4) E(4,16) E(16,4) E(4,6) E(6,4) E(9,4) E(4,9) E(8,4) E(4,8) E(4,11) E(11,4) E(4,2) E(2,4) E(14,4) E(4,14) E(7,10) E(10,7) E(5,7) E(7,5) E(12,7) E(7,12) E(3,7) E(7,3) E(13,7) E(7,13) E(15,7) E(7,15) E(7,0) E(0,7) E(16,7) E(7,16) E(6,7) E(7,6) E(9,7) E(7,9) E(8,7) E(7,8) E(11,7) E(7,11) E(2,7) E(7,2) E(7,14) E(14,7) E(10,5) E(5,10) E(12,10) E(10,12) E(3,10) E(10,3) E(13,10) E(10,13) E(10,15) E(15,10) E(10,0) E(0,10) E(16,10) E(10,16) E(6,10) E(10,6) E(9,10) E(10,9) E(8,10) E(10,8) E(10,11) E(11,10) E(10,2) E(2,10) E(14,10) E(10,14) E(12,5) E(5,12) E(3,5) E(5,3) E(13,5) E(5,13) E(15,5) E(5,15) E(0,5) E(5,0) E(5,16) E(16,5) E(5,6) E(6,5) E(5,9) E(9,5) E(8,5) E(5,8) E(11,5) E(5,11) E(5,2) E(2,5) E(5,14) E(14,5) E(3,12) E(12,3) E(12,13) E(13,12) E(15,12) E(12,15) E(12,0) E(0,12) E(12,16) E(16,12) E(12,6) E(6,12) E(9,12) E(12,9) E(12,8) E(8,12) E(12,11) E(11,12) E(2,12) E(12,2) E(14,12) E(12,14) E(13,3) E(3,13) E(15,3) E(3,15) E(3,0) E(0,3) E(16,3) E(3,16) E(3,6) E(6,3) E(9,3) E(3,9) E(8,3) E(3,8) E(11,3) E(3,11) E(3,2) E(2,3) E(3,14) E(14,3) E(15,13) E(13,15) E(13,0) E(0,13) E(16,13) E(13,16) E(6,13) E(13,6) E(9,13) E(13,9) E(8,13) E(13,8) E(13,11) E(11,13) E(2,13) E(13,2) E(13,14) E(14,13) E(0,15) E(15,0) E(15,16) E(16,15) E(15,6) E(6,15) E(15,9) E(9,15) E(15,8) E(8,15) E(15,11) E(11,15) E(2,15) E(15,2) E(14,15) E(15,14) E(0,16) E(16,0) E(0,6) E(6,0) E(0,9) E(9,0) E(0,8) E(8,0) E(11,0) E(0,11) E(2,0) E(0,2) E(0,14) E(14,0) E(16,6) E(6,16) E(16,9) E(9,16) E(8,16) E(16,8) E(16,11) E(11,16) E(16,2) E(2,16) E(16,14) E(14,16) E(9,6) E(6,9) E(8,6) E(6,8) E(11,6) E(6,11) E(6,2) E(2,6) E(6,14) E(14,6) E(9,8) E(8,9) E(11,9) E(9,11) E(9,2) E(2,9) E(9,14) E(14,9) E(8,11) E(11,8) E(8,2) E(2,8) E(8,14) E(14,8) E(2,11) E(11,2) E(11,14) E(14,11) E(2,14) E(14,2)
c 1 2 3 4 5 6 7 8 9 10 11 12 13 14 15 16 17 18 19 20 21 22 23 24 25 26 27 28 29 30 31 32 33 34 35 36 37 38 39 40 41 42 43 44 45 46 47 48 49 50 51 52 53 54 55 56 57 58 59 60 61 62 63 64 65 66 67 68 69 70 71 72 73 74 75 76 77 78 79 80 81 82 83 84 85 86 87 88 89 90 91 92 93 94 95 96 97 98 99 100 101 102 103 104 105 106 107 108 109 110 111 112 113 114 115 116 117 118 119 120 121 122 123 124 125 126 127 128 129 130 131 132 133 134 135 136 137 138 139 140 141 142 143 144 145 146 147 148 149 150 151 152 153 154 155 156 157 158 159 160 161 162 163 164 165 166 167 168 169 170 171 172 173 174 175 176 177 178 179 180 181 182 183 184 185 186 187 188 189 190 191 192 193 194 195 196 197 198 199 200 201 202 203 204 205 206 207 208 209 210 211 212 213 214 215 216 217 218 219 220 221 222 223 224 225 226 227 228 229 230 231 232 233 234 235 236 237 238 239 240 241 242 243 244 245 246 247 248 249 250 251 252 253 254 255 256 257 258 259 260 261 262 263 264 265 266 267 268 269 270 271 272 273 274 275 276 277 278 279 280 281 282 283 284 285 286 287 288 289
p cnf 289 323
-26 0
-1 0
-8 0
-41 0
-16 0
-20 0
-49 0
-25 0
-29 0
-46 0
-17 0
-2 0
-13 0
-34 0
-6 0
-38 0
-37 0
26 -26 0
28 -27 0
119 -118 0
243 -242 0
165 -164 0
203 -202 0
246 -247 0
218 -219 0
234 -235 0
245 -244 0
185 -184 0
65 -64 0
142 -143 0
236 -237 0
93 -92 0
240 -241 0
238 -239 0
27 -28 0
1 -1 0
10 -9 0
43 -42 0
15 -14 0
22 -21 0
47 -48 0
24 -23 0
31 -30 0
45 -44 0
18 -19 0
3 -4 0
11 -12 0
33 -32 0
7 -5 0
40 -39 0
36 -35 0
118 -119 0
9 -10 0
8 -8 0
128 -129 0
111 -110 0
115 -114 0
133 -132 0
116 -117 0
121 -120 0
130 -131 0
113 -112 0
52 -53 0
108 -109 0
123 -122 0
81 -80 0
127 -126 0
125 -124 0
242 -243 0
42 -43 0
129 -128 0
41 -41 0
175 -174 0
213 -212 0
286 -287 0
229 -228 0
255 -254 0
285 -284 0
194 -195 0
75 -74 0
152 -153 0
264 -265 0
102 -103 0
279 -278 0
272 -273 0
164 -165 0
14 -15 0
110 -111 0
174 -175 0
16 -16 0
160 -161 0
179 -178 0
163 -162 0
166 -167 0
177 -176 0
159 -158 0
57 -56 0
134 -135 0
168 -169 0
84 -85 0
172 -173 0
171 -170 0
202 -203 0
21 -22 0
114 -115 0
212 -213 0
161 -160 0
20 -20 0
216 -217 0
201 -200 0
205 -204 0
215 -214 0
180 -181 0
61 -60 0
138 -139 0
207 -206 0
88 -89 0
211 -210 0
209 -208 0
247 -246 0
48 -47 0
132 -133 0
287 -286 0
178 -179 0
217 -216 0
49 -49 0
232 -233 0
259 -258 0
289 -288 0
199 -198 0
78 -79 0
157 -156 0
269 -268 0
107 -106 0
283 -282 0
277 -276 0
219 -218 0
23 -24 0
117 -116 0
228 -229 0
162 -163 0
200 -201 0
233 -232 0
25 -25 0
220 -221 0
231 -230 0
182 -183 0
62 -63 0
140 -141 0
222 -223 0
90 -91 0
226 -227 0
224 -225 0
235 -234 0
30 -31 0
120 -121 0
254 -255 0
167 -166 0
204 -205 0
258 -259 0
221 -220 0
29 -29 0
256 -257 0
186 -187 0
67 -66 0
145 -144 0
248 -249 0
94 -95 0
253 -252 0
250 -251 0
244 -245 0
44 -45 0
131 -130 0
284 -285 0
176 -177 0
214 -215 0
288 -289 0
230 -231 0
257 -256 0
46 -46 0
197 -196 0
77 -76 0
155 -154 0
267 -266 0
104 -105 0
281 -280 0
275 -274 0
184 -185 0
19 -18 0
112 -113 0
195 -194 0
158 -159 0
181 -180 0
198 -199 0
183 -182 0
187 -186 0
196 -197 0
17 -17 0
58 -59 0
136 -137 0
188 -189 0
86 -87 0
193 -192 0
191 -190 0
64 -65 0
4 -3 0
53 -52 0
74 -75 0
56 -57 0
60 -61 0
79 -78 0
63 -62 0
66 -67 0
76 -77 0
59 -58 0
2 -2 0
54 -55 0
68 -69 0
50 -51 0
73 -72 0
71 -70 0
143 -142 0
12 -11 0
109 -108 0
153 -152 0
135 -134 0
139 -138 0
156 -157 0
141 -140 0
144 -145 0
154 -155 0
137 -136 0
55 -54 0
13 -13 0
146 -147 0
82 -83 0
151 -150 0
148 -149 0
237 -236 0
32 -33 0
122 -123 0
265 -264 0
169 -168 0
206 -207 0
268 -269 0
223 -222 0
249 -248 0
266 -267 0
189 -188 0
69 -68 0
147 -146 0
34 -34 0
96 -97 0
263 -262 0
261 -260 0
92 -93 0
5 -7 0
80 -81 0
103 -102 0
85 -84 0
89 -88 0
106 -107 0
91 -90 0
95 -94 0
105 -104 0
87 -86 0
51 -50 0
83 -82 0
97 -96 0
6 -6 0
101 -100 0
99 -98 0
241 -240 0
39 -40 0
126 -127 0
278 -279 0
173 -172 0
210 -211 0
282 -283 0
227 -226 0
252 -253 0
280 -281 0
192 -193 0
72 -73 0
150 -151 0
262 -263 0
100 -101 0
38 -38 0
271 -270 0
239 -238 0
35 -36 0
124 -125 0
273 -272 0
170 -171 0
208 -209 0
276 -277 0
225 -224 0
251 -250 0
274 -275 0
190 -191 0
70 -71 0
149 -148 0
260 -261 0
98 -99 0
270 -271 0
37 -37 0
26 28 119 243 165 203 246 218 234 245 185 65 142 236 93 240 238 0
27 1 10 43 15 22 47 24 31 45 18 3 11 33 7 40 36 0
118 9 8 128 111 115 133 116 121 130 113 52 108 123 81 127 125 0
242 42 129 41 175 213 286 229 255 285 194 75 152 264 102 279 272 0
164 14 110 174 16 160 179 163 166 177 159 57 134 168 84 172 171 0
202 21 114 212 161 20 216 201 205 215 180 61 138 207 88 211 209 0
247 48 132 287 178 217 49 232 259 289 199 78 157 269 107 283 277 0
219 23 117 228 162 200 233 25 220 231 182 62 140 222 90 226 224 0
235 30 120 254 167 204 258 221 29 256 186 67 145 248 94 253 250 0
244 44 131 284 176 214 288 230 257 46 197 77 155 267 104 281 275 0
184 19 112 195 158 181 198 183 187 196 17 58 136 188 86 193 191 0
64 4 53 74 56 60 79 63 66 76 59 2 54 68 50 73 71 0
143 12 109 153 135 139 156 141 144 154 137 55 13 146 82 151 148 0
237 32 122 265 169 206 268 223 249 266 189 69 147 34 96 263 261 0
92 5 80 103 85 89 106 91 95 105 87 51 83 97 6 101 99 0
241 39 126 278 173 210 282 227 252 280 192 72 150 262 100 38 271 0
239 35 124 273 170 208 276 225 251 274 190 70 149 260 98 270 37 0
