c E(12,12) E(13,12) E(13,13) E(12,13) E(12,7) E(7,12) E(7,7) E(17,17) E(17,12) E(12,17) E(12,10) E(10,10) E(10,12) E(12,0) E(0,12) E(0,0) E(2,12) E(2,2) E(12,2) E(12,14) E(14,14) E(14,12) E(8,12) E(12,8) E(8,8) E(9,9) E(9,12) E(12,9) E(11,11) E(11,12) E(12,11) E(12,3) E(3,3) E(3,12) E(16,12) E(12,16) E(16,16) E(6,6) E(6,12) E(12,6) E(12,15) E(15,12) E(15,15) E(5,12) E(5,5) E(12,5) E(1,1) E(1,12) E(12,1) E(12,4) E(4,12) E(4,4) E(13,7) E(7,13) E(13,17) E(17,13) E(10,13) E(13,10) E(13,0) E(0,13) E(13,2) E(2,13) E(13,14) E(14,13) E(8,13) E(13,8) E(9,13) E(13,9) E(13,11) E(11,13) E(3,13) E(13,3) E(13,16) E(16,13) E(13,6) E(6,13) E(13,15) E(15,13) E(5,13) E(13,5) E(1,13) E(13,1) E(13,4) E(4,13) E(17,7) E(7,17) E(7,10) E(10,7) E(0,7) E(7,0) E(7,2) E(2,7) E(14,7) E(7,14) E(7,8) E(8,7) E(9,7) E(7,9) E(11,7) E(7,11) E(7,3) E(3,7) E(7,16) E(16,7) E(7,6) E(6,7) E(7,15) E(15,7) E(5,7) E(7,5) E(1,7) E(7,1) E(4,7) E(7,4) E(17,10) E(10,17) E(0,17) E(17,0) E(17,2) E(2,17) E(17,14) E(14,17) E(8,17) E(17,8) E(17,9) E(9,17) E(17,11) E(11,17) E(3,17) E(17,3) E(16,17) E(17,16) E(17,6) E(6,17) E(15,17) E(17,15) E(17,5) E(5,17) E(17,1) E(1,17) E(4,17) E(17,4) E(0,10) E(10,0) E(10,2) E(2,10) E(14,10) E(10,14) E(10,8) E(8,10) E(10,9) E(9,10) E(11,10) E(10,11) E(3,10) E(10,3) E(16,10) E(10,16) E(10,6) E(6,10) E(15,10) E(10,15) E(5,10) E(10,5) E(10,1) E(1,10) E(10,4) E(4,10) E(2,0) E(0,2) E(14,0) E(0,14) E(8,0) E(0,8) E(9,0) E(0,9) E(0,11) E(11,0) E(3,0) E(0,3) E(16,0) E(0,16) E(6,0) E(0,6) E(15,0) E(0,15) E(0,5) E(5,0) E(0,1) E(1,0) E(0,4) E(4,0) E(2,14) E(14,2) E(8,2) E(2,8) E(9,2) E(2,9) E(2,11) E(11,2) E(2,3) E(3,2) E(16,2) E(2,16) E(6,2) E(2,6) E(15,2) E(2,15) E(2,5) E(5,2) E(2,1) E(1,2) E(4,2) E(2,4) E(14,8) E(8,14) E(9,14) E(14,9) E(14,11) E(11,14) E(14,3) E(3,14) E(14,16) E(16,14) E(14,6) E(6,14) E(14,15) E(15,14) E(5,14) E(14,5) E(1,14) E(14,1) E(4,14) E(14,4) E(9,8) E(8,9) E(8,11) E(11,8) E(8,3) E(3,8) E(16,8) E(8,16) E(6,8) E(8,6) E(15,8) E(8,15) E(5,8) E(8,5) E(8,1) E(1,8) E(8,4) E(4,8) E(9,11) E(11,9) E(3,9) E(9,3) E(16,9) E(9,16) E(6,9) E(9,6) E(9,15) E(15,9) E(9,5) E(5,9) E(1,9) E(9,1) E(4,9) E(9,4) E(3,11) E(11,3) E(16,11) E(11,16) E(11,6) E(6,11) E(11,15) E(15,11) E(11,5) E(5,11) E(11,1) E(1,11) E(11,4) E(4,11) E(16,3) E(3,16) E(6,3) E(3,6) E(3,15) E(15,3) E(5,3) E(3,5) E(3,1) E(1,3) E(3,4) E(4,3) E(16,6) E(6,16) E(15,16) E(16,15) E(5,16) E(16,5) E(16,1) E(1,16) E(4,16) E(16,4) E(15,6) E(6,15) E(6,5) E(5,6) E(6,1) E(1,6) E(6,4) E(4,6) E(5,15) E(15,5) E(1,15) E(15,1) E(15,4) E(4,15) E(5,1) E(1,5) E(5,4) E(4,5) E(4,1) E(1,4)
c 1 2 3 4 5 6 7 8 9 10 11 12 13 14 15 16 17 18 19 20 21 22 23 24 25 26 27 28 29 30 31 32 33 34 35 36 37 38 39 40 41 42 43 44 45 46 47 48 49 50 51 52 53 54 55 56 57 58 59 60 61 62 63 64 65 66 67 68 69 70 71 72 73 74 75 76 77 78 79 80 81 82 83 84 85 86 87 88 89 90 91 92 93 94 95 96 97 98 99 100 101 102 103 104 105 106 107 108 109 110 111 112 113 114 115 116 117 118 119 120 121 122 123 124 125 126 127 128 129 130 131 132 133 134 135 136 137 138 139 140 141 142 143 144 145 146 147 148 149 150 151 152 153 154 155 156 157 158 159 160 161 162 163 164 165 166 167 168 169 170 171 172 173 174 175 176 177 178 179 180 181 182 183 184 185 186 187 188 189 190 191 192 193 194 195 196 197 198 199 200 201 202 203 204 205 206 207 208 209 210 211 212 213 214 215 216 217 218 219 220 221 222 223 224 225 226 227 228 229 230 231 232 233 234 235 236 237 238 239 240 241 242 243 244 245 246 247 248 249 250 251 252 253 254 255 256 257 258 259 260 261 262 263 264 265 266 267 268 269 270 271 272 273 274 275 276 277 278 279 280 281 282 283 284 285 286 287 288 289 290 291 292 293 294 295 296 297 298 299 300 301 302 303 304 305 306 307 308 309 310 311 312 313 314 315 316 317 318 319 320 321 322 323 324
p cnf 324 360
-16 0
-47 0
-12 0
-29 0
-1 0
-3 0
-21 0
-43 0
-37 0
-8 0
-18 0
-33 0
-52 0
-45 0
-38 0
-7 0
-25 0
-26 0
16 -16 0
189 -190 0
143 -144 0
177 -178 0
15 -14 0
60 -59 0
172 -171 0
186 -185 0
182 -181 0
117 -118 0
170 -169 0
180 -179 0
191 -192 0
187 -188 0
184 -183 0
89 -90 0
174 -173 0
176 -175 0
190 -189 0
47 -47 0
166 -165 0
280 -279 0
48 -49 0
81 -82 0
231 -232 0
315 -316 0
302 -301 0
140 -139 0
212 -211 0
292 -291 0
324 -323 0
320 -319 0
310 -309 0
111 -112 0
250 -249 0
265 -266 0
144 -143 0
165 -166 0
12 -12 0
154 -153 0
13 -11 0
57 -58 0
148 -147 0
162 -161 0
158 -157 0
116 -115 0
145 -146 0
156 -155 0
167 -168 0
164 -163 0
159 -160 0
88 -87 0
149 -150 0
151 -152 0
178 -177 0
279 -280 0
153 -154 0
29 -29 0
30 -31 0
70 -69 0
220 -219 0
275 -276 0
272 -271 0
128 -127 0
200 -199 0
270 -269 0
281 -282 0
277 -278 0
273 -274 0
99 -100 0
238 -237 0
254 -253 0
14 -15 0
49 -48 0
11 -13 0
31 -30 0
1 -1 0
4 -2 0
20 -22 0
41 -42 0
36 -35 0
10 -9 0
19 -17 0
32 -34 0
50 -51 0
46 -44 0
40 -39 0
5 -6 0
24 -23 0
28 -27 0
59 -60 0
82 -81 0
58 -57 0
69 -70 0
2 -4 0
3 -3 0
63 -64 0
77 -78 0
73 -74 0
55 -56 0
61 -62 0
72 -71 0
83 -84 0
80 -79 0
75 -76 0
53 -54 0
66 -65 0
68 -67 0
171 -172 0
232 -231 0
147 -148 0
219 -220 0
22 -20 0
64 -63 0
21 -21 0
227 -228 0
223 -224 0
122 -121 0
194 -193 0
221 -222 0
234 -233 0
230 -229 0
225 -226 0
93 -94 0
215 -216 0
218 -217 0
185 -186 0
316 -315 0
161 -162 0
276 -275 0
42 -41 0
78 -77 0
228 -227 0
43 -43 0
297 -298 0
135 -136 0
207 -208 0
288 -287 0
317 -318 0
314 -313 0
305 -306 0
108 -107 0
245 -246 0
262 -261 0
181 -182 0
301 -302 0
157 -158 0
271 -272 0
35 -36 0
74 -73 0
224 -223 0
298 -297 0
37 -37 0
131 -132 0
203 -204 0
283 -284 0
304 -303 0
300 -299 0
295 -296 0
104 -103 0
241 -242 0
257 -258 0
118 -117 0
139 -140 0
115 -116 0
127 -128 0
9 -10 0
56 -55 0
121 -122 0
136 -135 0
132 -131 0
8 -8 0
119 -120 0
130 -129 0
142 -141 0
137 -138 0
133 -134 0
85 -86 0
124 -123 0
125 -126 0
169 -170 0
211 -212 0
146 -145 0
199 -200 0
17 -19 0
62 -61 0
193 -194 0
208 -207 0
204 -203 0
120 -119 0
18 -18 0
201 -202 0
214 -213 0
209 -210 0
206 -205 0
92 -91 0
196 -195 0
198 -197 0
179 -180 0
291 -292 0
155 -156 0
269 -270 0
34 -32 0
71 -72 0
222 -221 0
287 -288 0
284 -283 0
129 -130 0
202 -201 0
33 -33 0
293 -294 0
290 -289 0
286 -285 0
102 -101 0
240 -239 0
255 -256 0
192 -191 0
323 -324 0
168 -167 0
282 -281 0
51 -50 0
84 -83 0
233 -234 0
318 -317 0
303 -304 0
141 -142 0
213 -214 0
294 -293 0
52 -52 0
322 -321 0
312 -311 0
113 -114 0
252 -251 0
267 -268 0
188 -187 0
319 -320 0
163 -164 0
278 -277 0
44 -46 0
79 -80 0
229 -230 0
313 -314 0
299 -300 0
138 -137 0
210 -209 0
289 -290 0
321 -322 0
45 -45 0
308 -307 0
109 -110 0
247 -248 0
264 -263 0
183 -184 0
309 -310 0
160 -159 0
274 -273 0
39 -40 0
76 -75 0
226 -225 0
306 -305 0
296 -295 0
134 -133 0
205 -206 0
285 -286 0
311 -312 0
307 -308 0
38 -38 0
106 -105 0
243 -244 0
259 -260 0
90 -89 0
112 -111 0
87 -88 0
100 -99 0
6 -5 0
54 -53 0
94 -93 0
107 -108 0
103 -104 0
86 -85 0
91 -92 0
101 -102 0
114 -113 0
110 -109 0
105 -106 0
7 -7 0
95 -96 0
98 -97 0
173 -174 0
249 -250 0
150 -149 0
237 -238 0
23 -24 0
65 -66 0
216 -215 0
246 -245 0
242 -241 0
123 -124 0
195 -196 0
239 -240 0
251 -252 0
248 -247 0
244 -243 0
96 -95 0
25 -25 0
236 -235 0
175 -176 0
266 -265 0
152 -151 0
253 -254 0
27 -28 0
67 -68 0
217 -218 0
261 -262 0
258 -257 0
126 -125 0
197 -198 0
256 -255 0
268 -267 0
263 -264 0
260 -259 0
97 -98 0
235 -236 0
26 -26 0
16 189 143 177 15 60 172 186 182 117 170 180 191 187 184 89 174 176 0
190 47 166 280 48 81 231 315 302 140 212 292 324 320 310 111 250 265 0
144 165 12 154 13 57 148 162 158 116 145 156 167 164 159 88 149 151 0
178 279 153 29 30 70 220 275 272 128 200 270 281 277 273 99 238 254 0
14 49 11 31 1 4 20 41 36 10 19 32 50 46 40 5 24 28 0
59 82 58 69 2 3 63 77 73 55 61 72 83 80 75 53 66 68 0
171 232 147 219 22 64 21 227 223 122 194 221 234 230 225 93 215 218 0
185 316 161 276 42 78 228 43 297 135 207 288 317 314 305 108 245 262 0
181 301 157 271 35 74 224 298 37 131 203 283 304 300 295 104 241 257 0
118 139 115 127 9 56 121 136 132 8 119 130 142 137 133 85 124 125 0
169 211 146 199 17 62 193 208 204 120 18 201 214 209 206 92 196 198 0
179 291 155 269 34 71 222 287 284 129 202 33 293 290 286 102 240 255 0
192 323 168 282 51 84 233 318 303 141 213 294 52 322 312 113 252 267 0
188 319 163 278 44 79 229 313 299 138 210 289 321 45 308 109 247 264 0
183 309 160 274 39 76 226 306 296 134 205 285 311 307 38 106 243 259 0
90 112 87 100 6 54 94 107 103 86 91 101 114 110 105 7 95 98 0
173 249 150 237 23 65 216 246 242 123 195 239 251 248 244 96 25 236 0
175 266 152 253 27 67 217 261 258 126 197 256 268 263 260 97 235 26 0
