c E(2,2) E(15,2) E(15,15) E(2,15) E(12,2) E(2,12) E(12,12) E(2,8) E(8,8) E(8,2) E(7,7) E(7,2) E(2,7) E(1,2) E(2,1) E(1,1) E(17,2) E(2,17) E(17,17) E(14,14) E(2,14) E(14,2) E(0,2) E(2,0) E(0,0) E(2,10) E(10,10) E(10,2) E(3,2) E(2,3) E(3,3) E(13,2) E(2,13) E(13,13) E(4,4) E(4,2) E(2,4) E(9,9) E(9,2) E(2,9) E(6,6) E(6,2) E(2,6) E(16,2) E(2,16) E(16,16) E(11,2) E(11,11) E(2,11) E(18,18) E(18,2) E(2,18) E(5,5) E(2,5) E(5,2) E(12,15) E(15,12) E(8,15) E(15,8) E(15,7) E(7,15) E(1,15) E(15,1) E(17,15) E(15,17) E(14,15) E(15,14) E(0,15) E(15,0) E(10,15) E(15,10) E(15,3) E(3,15) E(15,13) E(13,15) E(4,15) E(15,4) E(9,15) E(15,9) E(6,15) E(15,6) E(16,15) E(15,16) E(15,11) E(11,15) E(18,15) E(15,18) E(5,15) E(15,5) E(8,12) E(12,8) E(7,12) E(12,7) E(12,1) E(1,12) E(12,17) E(17,12) E(12,14) E(14,12) E(12,0) E(0,12) E(12,10) E(10,12) E(12,3) E(3,12) E(12,13) E(13,12) E(12,4) E(4,12) E(12,9) E(9,12) E(12,6) E(6,12) E(16,12) E(12,16) E(12,11) E(11,12) E(18,12) E(12,18) E(5,12) E(12,5) E(8,7) E(7,8) E(1,8) E(8,1) E(17,8) E(8,17) E(14,8) E(8,14) E(8,0) E(0,8) E(10,8) E(8,10) E(8,3) E(3,8) E(8,13) E(13,8) E(4,8) E(8,4) E(9,8) E(8,9) E(6,8) E(8,6) E(16,8) E(8,16) E(8,11) E(11,8) E(8,18) E(18,8) E(5,8) E(8,5) E(1,7) E(7,1) E(17,7) E(7,17) E(14,7) E(7,14) E(7,0) E(0,7) E(10,7) E(7,10) E(3,7) E(7,3) E(13,7) E(7,13) E(4,7) E(7,4) E(9,7) E(7,9) E(7,6) E(6,7) E(7,16) E(16,7) E(7,11) E(11,7) E(7,18) E(18,7) E(5,7) E(7,5) E(1,17) E(17,1) E(1,14) E(14,1) E(1,0) E(0,1) E(10,1) E(1,10) E(1,3) E(3,1) E(1,13) E(13,1) E(1,4) E(4,1) E(9,1) E(1,9) E(1,6) E(6,1) E(16,1) E(1,16) E(11,1) E(1,11) E(18,1) E(1,18) E(5,1) E(1,5) E(14,17) E(17,14) E(17,0) E(0,17) E(10,17) E(17,10) E(3,17) E(17,3) E(13,17) E(17,13) E(4,17) E(17,4) E(9,17) E(17,9) E(6,17) E(17,6) E(16,17) E(17,16) E(17,11) E(11,17) E(17,18) E(18,17) E(5,17) E(17,5) E(14,0) E(0,14) E(14,10) E(10,14) E(3,14) E(14,3) E(14,13) E(13,14) E(14,4) E(4,14) E(9,14) E(14,9) E(6,14) E(14,6) E(16,14) E(14,16) E(14,11) E(11,14) E(18,14) E(14,18) E(5,14) E(14,5) E(10,0) E(0,10) E(0,3) E(3,0) E(0,13) E(13,0) E(4,0) E(0,4) E(9,0) E(0,9) E(0,6) E(6,0) E(0,16) E(16,0) E(0,11) E(11,0) E(18,0) E(0,18) E(0,5) E(5,0) E(3,10) E(10,3) E(10,13) E(13,10) E(10,4) E(4,10) E(10,9) E(9,10) E(10,6) E(6,10) E(10,16) E(16,10) E(10,11) E(11,10) E(10,18) E(18,10) E(5,10) E(10,5) E(3,13) E(13,3) E(3,4) E(4,3) E(9,3) E(3,9) E(3,6) E(6,3) E(16,3) E(3,16) E(11,3) E(3,11) E(18,3) E(3,18) E(3,5) E(5,3) E(4,13) E(13,4) E(9,13) E(13,9) E(6,13) E(13,6) E(13,16) E(16,13) E(11,13) E(13,11) E(13,18) E(18,13) E(5,13) E(13,5) E(9,4) E(4,9) E(6,4) E(4,6) E(16,4) E(4,16) E(4,11) E(11,4) E(18,4) E(4,18) E(5,4) E(4,5) E(9,6) E(6,9) E(16,9) E(9,16) E(9,11) E(11,9) E(9,18) E(18,9) E(5,9) E(9,5) E(6,16) E(16,6) E(6,11) E(11,6) E(6,18) E(18,6) E(5,6) E(6,5) E(16,11) E(11,16) E(18,16) E(16,18) E(16,5) E(5,16) E(11,18) E(18,11) E(11,5) E(5,11) E(5,18) E(18,5)
c 1 2 3 4 5 6 7 8 9 10 11 12 13 14 15 16 17 18 19 20 21 22 23 24 25 26 27 28 29 30 31 32 33 34 35 36 37 38 39 40 41 42 43 44 45 46 47 48 49 50 51 52 53 54 55 56 57 58 59 60 61 62 63 64 65 66 67 68 69 70 71 72 73 74 75 76 77 78 79 80 81 82 83 84 85 86 87 88 89 90 91 92 93 94 95 96 97 98 99 100 101 102 103 104 105 106 107 108 109 110 111 112 113 114 115 116 117 118 119 120 121 122 123 124 125 126 127 128 129 130 131 132 133 134 135 136 137 138 139 140 141 142 143 144 145 146 147 148 149 150 151 152 153 154 155 156 157 158 159 160 161 162 163 164 165 166 167 168 169 170 171 172 173 174 175 176 177 178 179 180 181 182 183 184 185 186 187 188 189 190 191 192 193 194 195 196 197 198 199 200 201 202 203 204 205 206 207 208 209 210 211 212 213 214 215 216 217 218 219 220 221 222 223 224 225 226 227 228 229 230 231 232 233 234 235 236 237 238 239 240 241 242 243 244 245 246 247 248 249 250 251 252 253 254 255 256 257 258 259 260 261 262 263 264 265 266 267 268 269 270 271 272 273 274 275 276 277 278 279 280 281 282 283 284 285 286 287 288 289 290 291 292 293 294 295 296 297 298 299 300 301 302 303 304 305 306 307 308 309 310 311 312 313 314 315 316 317 318 319 320 321 322 323 324 325 326 327 328 329 330 331 332 333 334 335 336 337 338 339 340 341 342 343 344 345 346 347 348 349 350 351 352 353 354 355 356 357 358 359 360 361
p cnf 361 399
-25 0
-16 0
-27 0
-48 0
-7 0
-34 0
-20 0
-3 0
-46 0
-19 0
-50 0
-1 0
-31 0
-35 0
-53 0
-41 0
-11 0
-9 0
-38 0
25 -25 0
185 -184 0
253 -252 0
266 -267 0
101 -100 0
256 -257 0
231 -230 0
68 -69 0
264 -265 0
209 -208 0
269 -268 0
23 -24 0
254 -255 0
259 -258 0
270 -271 0
262 -263 0
159 -158 0
131 -130 0
261 -260 0
184 -185 0
16 -16 0
187 -186 0
201 -200 0
95 -94 0
190 -191 0
182 -183 0
62 -63 0
199 -198 0
180 -181 0
203 -202 0
14 -15 0
188 -189 0
192 -193 0
205 -204 0
196 -197 0
152 -153 0
124 -125 0
195 -194 0
252 -253 0
186 -187 0
27 -27 0
284 -285 0
103 -102 0
274 -275 0
233 -232 0
70 -71 0
282 -283 0
210 -211 0
286 -287 0
28 -26 0
273 -272 0
276 -277 0
289 -288 0
280 -281 0
160 -161 0
132 -133 0
278 -279 0
267 -266 0
200 -201 0
285 -284 0
48 -48 0
117 -116 0
314 -315 0
247 -246 0
85 -84 0
351 -350 0
225 -224 0
356 -357 0
47 -49 0
300 -301 0
327 -326 0
358 -359 0
345 -344 0
175 -174 0
147 -146 0
337 -336 0
100 -101 0
94 -95 0
102 -103 0
116 -117 0
7 -7 0
106 -107 0
98 -99 0
56 -57 0
115 -114 0
96 -97 0
119 -118 0
5 -6 0
104 -105 0
108 -109 0
121 -120 0
112 -113 0
93 -92 0
91 -90 0
110 -111 0
257 -256 0
191 -190 0
275 -274 0
315 -314 0
107 -106 0
34 -34 0
237 -236 0
75 -74 0
312 -313 0
214 -215 0
316 -317 0
32 -33 0
291 -290 0
307 -306 0
319 -318 0
311 -310 0
164 -165 0
137 -136 0
309 -308 0
230 -231 0
183 -182 0
232 -233 0
246 -247 0
99 -98 0
236 -237 0
20 -20 0
66 -67 0
245 -244 0
206 -207 0
249 -248 0
22 -21 0
235 -234 0
238 -239 0
251 -250 0
243 -242 0
156 -157 0
128 -129 0
241 -240 0
69 -68 0
63 -62 0
71 -70 0
84 -85 0
57 -56 0
74 -75 0
67 -66 0
3 -3 0
83 -82 0
65 -64 0
87 -86 0
2 -4 0
72 -73 0
77 -76 0
89 -88 0
81 -80 0
60 -61 0
59 -58 0
79 -78 0
265 -264 0
198 -199 0
283 -282 0
350 -351 0
114 -115 0
313 -312 0
244 -245 0
82 -83 0
46 -46 0
222 -223 0
353 -352 0
44 -45 0
298 -299 0
324 -325 0
354 -355 0
343 -342 0
173 -172 0
144 -145 0
334 -335 0
208 -209 0
181 -180 0
211 -210 0
224 -225 0
97 -96 0
215 -214 0
207 -206 0
64 -65 0
223 -222 0
19 -19 0
226 -227 0
17 -18 0
213 -212 0
217 -216 0
229 -228 0
221 -220 0
154 -155 0
126 -127 0
219 -218 0
268 -269 0
202 -203 0
287 -286 0
357 -356 0
118 -119 0
317 -316 0
248 -249 0
86 -87 0
352 -353 0
227 -226 0
50 -50 0
51 -52 0
302 -303 0
328 -329 0
361 -360 0
347 -346 0
177 -176 0
149 -148 0
339 -338 0
24 -23 0
15 -14 0
26 -28 0
49 -47 0
6 -5 0
33 -32 0
21 -22 0
4 -2 0
45 -44 0
18 -17 0
52 -51 0
1 -1 0
30 -29 0
37 -36 0
54 -55 0
43 -42 0
13 -12 0
8 -10 0
40 -39 0
255 -254 0
189 -188 0
272 -273 0
301 -300 0
105 -104 0
290 -291 0
234 -235 0
73 -72 0
299 -298 0
212 -213 0
303 -302 0
29 -30 0
31 -31 0
292 -293 0
304 -305 0
296 -297 0
162 -163 0
135 -134 0
295 -294 0
258 -259 0
193 -192 0
277 -276 0
326 -327 0
109 -108 0
306 -307 0
239 -238 0
76 -77 0
325 -324 0
216 -217 0
329 -328 0
36 -37 0
293 -292 0
35 -35 0
331 -330 0
323 -322 0
166 -167 0
138 -139 0
321 -320 0
271 -270 0
204 -205 0
288 -289 0
359 -358 0
120 -121 0
318 -319 0
250 -251 0
88 -89 0
355 -354 0
228 -229 0
360 -361 0
55 -54 0
305 -304 0
330 -331 0
53 -53 0
348 -349 0
178 -179 0
150 -151 0
340 -341 0
263 -262 0
197 -196 0
281 -280 0
344 -345 0
113 -112 0
310 -311 0
242 -243 0
80 -81 0
342 -343 0
220 -221 0
346 -347 0
42 -43 0
297 -296 0
322 -323 0
349 -348 0
41 -41 0
171 -170 0
142 -143 0
333 -332 0
158 -159 0
153 -152 0
161 -160 0
174 -175 0
92 -93 0
165 -164 0
157 -156 0
61 -60 0
172 -173 0
155 -154 0
176 -177 0
12 -13 0
163 -162 0
167 -166 0
179 -178 0
170 -171 0
11 -11 0
123 -122 0
169 -168 0
130 -131 0
125 -124 0
133 -132 0
146 -147 0
90 -91 0
136 -137 0
129 -128 0
58 -59 0
145 -144 0
127 -126 0
148 -149 0
10 -8 0
134 -135 0
139 -138 0
151 -150 0
143 -142 0
122 -123 0
9 -9 0
141 -140 0
260 -261 0
194 -195 0
279 -278 0
336 -337 0
111 -110 0
308 -309 0
240 -241 0
78 -79 0
335 -334 0
218 -219 0
338 -339 0
39 -40 0
294 -295 0
320 -321 0
341 -340 0
332 -333 0
168 -169 0
140 -141 0
38 -38 0
25 185 253 266 101 256 231 68 264 209 269 23 254 259 270 262 159 131 261 0
184 16 187 201 95 190 182 62 199 180 203 14 188 192 205 196 152 124 195 0
252 186 27 284 103 274 233 70 282 210 286 28 273 276 289 280 160 132 278 0
267 200 285 48 117 314 247 85 351 225 356 47 300 327 358 345 175 147 337 0
100 94 102 116 7 106 98 56 115 96 119 5 104 108 121 112 93 91 110 0
257 191 275 315 107 34 237 75 312 214 316 32 291 307 319 311 164 137 309 0
230 183 232 246 99 236 20 66 245 206 249 22 235 238 251 243 156 128 241 0
69 63 71 84 57 74 67 3 83 65 87 2 72 77 89 81 60 59 79 0
265 198 283 350 114 313 244 82 46 222 353 44 298 324 354 343 173 144 334 0
208 181 211 224 97 215 207 64 223 19 226 17 213 217 229 221 154 126 219 0
268 202 287 357 118 317 248 86 352 227 50 51 302 328 361 347 177 149 339 0
24 15 26 49 6 33 21 4 45 18 52 1 30 37 54 43 13 8 40 0
255 189 272 301 105 290 234 73 299 212 303 29 31 292 304 296 162 135 295 0
258 193 277 326 109 306 239 76 325 216 329 36 293 35 331 323 166 138 321 0
271 204 288 359 120 318 250 88 355 228 360 55 305 330 53 348 178 150 340 0
263 197 281 344 113 310 242 80 342 220 346 42 297 322 349 41 171 142 333 0
158 153 161 174 92 165 157 61 172 155 176 12 163 167 179 170 11 123 169 0
130 125 133 146 90 136 129 58 145 127 148 10 134 139 151 143 122 9 141 0
260 194 279 336 111 308 240 78 335 218 338 39 294 320 341 332 168 140 38 0
