c E(17,17) E(17,5) E(5,17) E(5,5) E(2,2) E(2,17) E(17,2) E(17,10) E(10,17) E(10,10) E(14,14) E(17,14) E(14,17) E(1,17) E(17,1) E(1,1) E(0,17) E(0,0) E(17,0) E(17,3) E(3,17) E(3,3) E(12,17) E(12,12) E(17,12) E(4,17) E(4,4) E(17,4) E(15,15) E(17,15) E(15,17) E(17,18) E(18,17) E(18,18) E(11,17) E(17,11) E(11,11) E(6,6) E(17,6) E(6,17) E(16,17) E(17,16) E(16,16) E(17,19) E(19,19) E(19,17) E(9,17) E(17,9) E(9,9) E(7,17) E(17,7) E(7,7) E(17,8) E(8,17) E(8,8) E(13,17) E(13,13) E(17,13) E(5,2) E(2,5) E(5,10) E(10,5) E(5,14) E(14,5) E(1,5) E(5,1) E(5,0) E(0,5) E(3,5) E(5,3) E(12,5) E(5,12) E(5,4) E(4,5) E(15,5) E(5,15) E(18,5) E(5,18) E(11,5) E(5,11) E(6,5) E(5,6) E(16,5) E(5,16) E(5,19) E(19,5) E(5,9) E(9,5) E(7,5) E(5,7) E(8,5) E(5,8) E(5,13) E(13,5) E(10,2) E(2,10) E(2,14) E(14,2) E(1,2) E(2,1) E(0,2) E(2,0) E(2,3) E(3,2) E(2,12) E(12,2) E(2,4) E(4,2) E(15,2) E(2,15) E(18,2) E(2,18) E(2,11) E(11,2) E(6,2) E(2,6) E(2,16) E(16,2) E(2,19) E(19,2) E(9,2) E(2,9) E(7,2) E(2,7) E(2,8) E(8,2) E(13,2) E(2,13) E(14,10) E(10,14) E(10,1) E(1,10) E(10,0) E(0,10) E(10,3) E(3,10) E(12,10) E(10,12) E(4,10) E(10,4) E(15,10) E(10,15) E(10,18) E(18,10) E(11,10) E(10,11) E(10,6) E(6,10) E(16,10) E(10,16) E(10,19) E(19,10) E(9,10) E(10,9) E(10,7) E(7,10) E(8,10) E(10,8) E(13,10) E(10,13) E(14,1) E(1,14) E(0,14) E(14,0) E(3,14) E(14,3) E(12,14) E(14,12) E(14,4) E(4,14) E(14,15) E(15,14) E(18,14) E(14,18) E(11,14) E(14,11) E(6,14) E(14,6) E(16,14) E(14,16) E(19,14) E(14,19) E(14,9) E(9,14) E(7,14) E(14,7) E(14,8) E(8,14) E(13,14) E(14,13) E(1,0) E(0,1) E(1,3) E(3,1) E(12,1) E(1,12) E(1,4) E(4,1) E(15,1) E(1,15) E(1,18) E(18,1) E(11,1) E(1,11) E(1,6) E(6,1) E(16,1) E(1,16) E(1,19) E(19,1) E(1,9) E(9,1) E(1,7) E(7,1) E(1,8) E(8,1) E(1,13) E(13,1) E(0,3) E(3,0) E(12,0) E(0,12) E(0,4) E(4,0) E(0,15) E(15,0) E(18,0) E(0,18) E(11,0) E(0,11) E(6,0) E(0,6) E(16,0) E(0,16) E(0,19) E(19,0) E(0,9) E(9,0) E(7,0) E(0,7) E(8,0) E(0,8) E(13,0) E(0,13) E(12,3) E(3,12) E(4,3) E(3,4) E(15,3) E(3,15) E(18,3) E(3,18) E(3,11) E(11,3) E(6,3) E(3,6) E(16,3) E(3,16) E(19,3) E(3,19) E(3,9) E(9,3) E(7,3) E(3,7) E(3,8) E(8,3) E(3,13) E(13,3) E(4,12) E(12,4) E(12,15) E(15,12) E(12,18) E(18,12) E(12,11) E(11,12) E(6,12) E(12,6) E(12,16) E(16,12) E(19,12) E(12,19) E(9,12) E(12,9) E(12,7) E(7,12) E(12,8) E(8,12) E(12,13) E(13,12) E(15,4) E(4,15) E(4,18) E(18,4) E(4,11) E(11,4) E(4,6) E(6,4) E(16,4) E(4,16) E(19,4) E(4,19) E(4,9) E(9,4) E(7,4) E(4,7) E(4,8) E(8,4) E(13,4) E(4,13) E(15,18) E(18,15) E(11,15) E(15,11) E(15,6) E(6,15) E(15,16) E(16,15) E(19,15) E(15,19) E(15,9) E(9,15) E(15,7) E(7,15) E(8,15) E(15,8) E(13,15) E(15,13) E(18,11) E(11,18) E(6,18) E(18,6) E(16,18) E(18,16) E(19,18) E(18,19) E(9,18) E(18,9) E(18,7) E(7,18) E(8,18) E(18,8) E(13,18) E(18,13) E(6,11) E(11,6) E(16,11) E(11,16) E(11,19) E(19,11) E(9,11) E(11,9) E(7,11) E(11,7) E(11,8) E(8,11) E(11,13) E(13,11) E(16,6) E(6,16) E(19,6) E(6,19) E(9,6) E(6,9) E(6,7) E(7,6) E(6,8) E(8,6) E(13,6) E(6,13) E(19,16) E(16,19) E(16,9) E(9,16) E(16,7) E(7,16) E(16,8) E(8,16) E(16,13) E(13,16) E(19,9) E(9,19) E(7,19) E(19,7) E(19,8) E(8,19) E(19,13) E(13,19) E(7,9) E(9,7) E(9,8) E(8,9) E(9,13) E(13,9) E(8,7) E(7,8) E(7,13) E(13,7) E(8,13) E(13,8)
c 1 2 3 4 5 6 7 8 9 10 11 12 13 14 15 16 17 18 19 20 21 22 23 24 25 26 27 28 29 30 31 32 33 34 35 36 37 38 39 40 41 42 43 44 45 46 47 48 49 50 51 52 53 54 55 56 57 58 59 60 61 62 63 64 65 66 67 68 69 70 71 72 73 74 75 76 77 78 79 80 81 82 83 84 85 86 87 88 89 90 91 92 93 94 95 96 97 98 99 100 101 102 103 104 105 106 107 108 109 110 111 112 113 114 115 116 117 118 119 120 121 122 123 124 125 126 127 128 129 130 131 132 133 134 135 136 137 138 139 140 141 142 143 144 145 146 147 148 149 150 151 152 153 154 155 156 157 158 159 160 161 162 163 164 165 166 167 168 169 170 171 172 173 174 175 176 177 178 179 180 181 182 183 184 185 186 187 188 189 190 191 192 193 194 195 196 197 198 199 200 201 202 203 204 205 206 207 208 209 210 211 212 213 214 215 216 217 218 219 220 221 222 223 224 225 226 227 228 229 230 231 232 233 234 235 236 237 238 239 240 241 242 243 244 245 246 247 248 249 250 251 252 253 254 255 256 257 258 259 260 261 262 263 264 265 266 267 268 269 270 271 272 273 274 275 276 277 278 279 280 281 282 283 284 285 286 287 288 289 290 291 292 293 294 295 296 297 298 299 300 301 302 303 304 305 306 307 308 309 310 311 312 313 314 315 316 317 318 319 320 321 322 323 324 325 326 327 328 329 330 331 332 333 334 335 336 337 338 339 340 341 342 343 344 345 346 347 348 349 350 351 352 353 354 355 356 357 358 359 360 361 362 363 364 365 366 367 368 369 370 371 372 373 374 375 376 377 378 379 380 381 382 383 384 385 386 387 388 389 390 391 392 393 394 395 396 397 398 399 400
p cnf 400 440
-18 0
-16 0
-10 0
-37 0
-24 0
-57 0
-11 0
-29 0
-43 0
-1 0
-34 0
-45 0
-5 0
-22 0
-27 0
-4 0
-38 0
-52 0
-55 0
-49 0
18 -18 0
192 -191 0
134 -133 0
230 -229 0
222 -221 0
244 -243 0
163 -164 0
225 -226 0
234 -233 0
17 -19 0
228 -227 0
235 -236 0
101 -102 0
219 -220 0
223 -224 0
68 -67 0
232 -231 0
240 -239 0
242 -241 0
237 -238 0
191 -192 0
16 -16 0
132 -131 0
204 -203 0
196 -195 0
217 -218 0
162 -161 0
200 -199 0
208 -207 0
14 -15 0
201 -202 0
209 -210 0
99 -100 0
193 -194 0
197 -198 0
65 -66 0
205 -206 0
213 -214 0
215 -216 0
211 -212 0
133 -134 0
131 -132 0
10 -10 0
146 -145 0
138 -137 0
160 -159 0
130 -129 0
142 -141 0
150 -149 0
9 -8 0
143 -144 0
151 -152 0
95 -96 0
135 -136 0
140 -139 0
62 -61 0
147 -148 0
155 -156 0
158 -157 0
154 -153 0
229 -230 0
203 -204 0
145 -146 0
37 -37 0
276 -275 0
357 -358 0
175 -176 0
313 -314 0
348 -347 0
35 -36 0
330 -329 0
349 -350 0
114 -113 0
254 -253 0
296 -295 0
79 -80 0
346 -345 0
354 -353 0
355 -356 0
352 -351 0
221 -222 0
195 -196 0
137 -138 0
275 -276 0
24 -24 0
289 -290 0
167 -168 0
271 -272 0
279 -280 0
23 -25 0
273 -274 0
282 -281 0
106 -105 0
245 -246 0
270 -269 0
71 -72 0
278 -277 0
285 -286 0
287 -288 0
284 -283 0
243 -244 0
218 -217 0
159 -160 0
358 -357 0
290 -289 0
57 -57 0
189 -190 0
327 -328 0
380 -379 0
56 -58 0
343 -344 0
388 -387 0
127 -128 0
268 -267 0
309 -310 0
94 -93 0
369 -370 0
398 -397 0
400 -399 0
394 -393 0
164 -163 0
161 -162 0
129 -130 0
176 -175 0
168 -167 0
190 -189 0
11 -11 0
171 -172 0
180 -179 0
13 -12 0
174 -173 0
182 -181 0
98 -97 0
166 -165 0
169 -170 0
64 -63 0
178 -177 0
186 -185 0
187 -188 0
183 -184 0
226 -225 0
199 -200 0
141 -142 0
314 -313 0
272 -271 0
328 -327 0
172 -171 0
29 -29 0
317 -318 0
31 -30 0
311 -312 0
320 -319 0
109 -110 0
249 -250 0
291 -292 0
75 -76 0
315 -316 0
323 -324 0
326 -325 0
321 -322 0
233 -234 0
207 -208 0
149 -150 0
347 -348 0
280 -279 0
379 -380 0
179 -180 0
318 -317 0
43 -43 0
41 -42 0
333 -334 0
372 -371 0
118 -117 0
257 -258 0
299 -300 0
83 -84 0
359 -360 0
375 -376 0
377 -378 0
373 -374 0
19 -17 0
15 -14 0
8 -9 0
36 -35 0
25 -23 0
58 -56 0
12 -13 0
30 -31 0
42 -41 0
1 -1 0
32 -33 0
44 -46 0
7 -6 0
20 -21 0
28 -26 0
2 -3 0
39 -40 0
51 -50 0
53 -54 0
48 -47 0
227 -228 0
202 -201 0
144 -143 0
329 -330 0
274 -273 0
344 -343 0
173 -174 0
312 -311 0
334 -333 0
33 -32 0
34 -34 0
336 -335 0
111 -112 0
251 -252 0
294 -293 0
77 -78 0
332 -331 0
339 -340 0
342 -341 0
338 -337 0
236 -235 0
210 -209 0
152 -151 0
350 -349 0
281 -282 0
387 -388 0
181 -182 0
319 -320 0
371 -372 0
46 -44 0
335 -336 0
45 -45 0
120 -119 0
259 -260 0
301 -302 0
86 -85 0
361 -362 0
384 -383 0
385 -386 0
381 -382 0
102 -101 0
100 -99 0
96 -95 0
113 -114 0
105 -106 0
128 -127 0
97 -98 0
110 -109 0
117 -118 0
6 -7 0
112 -111 0
119 -120 0
5 -5 0
103 -104 0
107 -108 0
60 -59 0
116 -115 0
124 -123 0
125 -126 0
122 -121 0
220 -219 0
194 -193 0
136 -135 0
253 -254 0
246 -245 0
267 -268 0
165 -166 0
250 -249 0
258 -257 0
21 -20 0
252 -251 0
260 -259 0
104 -103 0
22 -22 0
248 -247 0
69 -70 0
256 -255 0
264 -263 0
265 -266 0
261 -262 0
224 -223 0
198 -197 0
139 -140 0
295 -296 0
269 -270 0
310 -309 0
170 -169 0
292 -291 0
300 -299 0
26 -28 0
293 -294 0
302 -301 0
108 -107 0
247 -248 0
27 -27 0
74 -73 0
297 -298 0
306 -305 0
307 -308 0
303 -304 0
67 -68 0
66 -65 0
61 -62 0
80 -79 0
72 -71 0
93 -94 0
63 -64 0
76 -75 0
84 -83 0
3 -2 0
78 -77 0
85 -86 0
59 -60 0
70 -69 0
73 -74 0
4 -4 0
82 -81 0
90 -89 0
92 -91 0
87 -88 0
231 -232 0
206 -205 0
148 -147 0
345 -346 0
277 -278 0
370 -369 0
177 -178 0
316 -315 0
360 -359 0
40 -39 0
331 -332 0
362 -361 0
115 -116 0
255 -256 0
298 -297 0
81 -82 0
38 -38 0
365 -366 0
367 -368 0
364 -363 0
239 -240 0
214 -213 0
156 -155 0
353 -354 0
286 -285 0
397 -398 0
185 -186 0
324 -323 0
376 -375 0
50 -51 0
340 -339 0
383 -384 0
123 -124 0
263 -264 0
305 -306 0
89 -90 0
366 -365 0
52 -52 0
396 -395 0
389 -390 0
241 -242 0
216 -215 0
157 -158 0
356 -355 0
288 -287 0
399 -400 0
188 -187 0
325 -326 0
378 -377 0
54 -53 0
341 -342 0
386 -385 0
126 -125 0
266 -265 0
308 -307 0
91 -92 0
368 -367 0
395 -396 0
55 -55 0
392 -391 0
238 -237 0
212 -211 0
153 -154 0
351 -352 0
283 -284 0
393 -394 0
184 -183 0
322 -321 0
374 -373 0
47 -48 0
337 -338 0
382 -381 0
121 -122 0
262 -261 0
304 -303 0
88 -87 0
363 -364 0
390 -389 0
391 -392 0
49 -49 0
18 192 134 230 222 244 163 225 234 17 228 235 101 219 223 68 232 240 242 237 0
191 16 132 204 196 217 162 200 208 14 201 209 99 193 197 65 205 213 215 211 0
133 131 10 146 138 160 130 142 150 9 143 151 95 135 140 62 147 155 158 154 0
229 203 145 37 276 357 175 313 348 35 330 349 114 254 296 79 346 354 355 352 0
221 195 137 275 24 289 167 271 279 23 273 282 106 245 270 71 278 285 287 284 0
243 218 159 358 290 57 189 327 380 56 343 388 127 268 309 94 369 398 400 394 0
164 161 129 176 168 190 11 171 180 13 174 182 98 166 169 64 178 186 187 183 0
226 199 141 314 272 328 172 29 317 31 311 320 109 249 291 75 315 323 326 321 0
233 207 149 347 280 379 179 318 43 41 333 372 118 257 299 83 359 375 377 373 0
19 15 8 36 25 58 12 30 42 1 32 44 7 20 28 2 39 51 53 48 0
227 202 144 329 274 344 173 312 334 33 34 336 111 251 294 77 332 339 342 338 0
236 210 152 350 281 387 181 319 371 46 335 45 120 259 301 86 361 384 385 381 0
102 100 96 113 105 128 97 110 117 6 112 119 5 103 107 60 116 124 125 122 0
220 194 136 253 246 267 165 250 258 21 252 260 104 22 248 69 256 264 265 261 0
224 198 139 295 269 310 170 292 300 26 293 302 108 247 27 74 297 306 307 303 0
67 66 61 80 72 93 63 76 84 3 78 85 59 70 73 4 82 90 92 87 0
231 206 148 345 277 370 177 316 360 40 331 362 115 255 298 81 38 365 367 364 0
239 214 156 353 286 397 185 324 376 50 340 383 123 263 305 89 366 52 396 389 0
241 216 157 356 288 399 188 325 378 54 341 386 126 266 308 91 368 395 55 392 0
238 212 153 351 283 393 184 322 374 47 337 382 121 262 304 88 363 390 391 49 0
