c E(2,2) E(1,1) E(1,2) E(2,1) E(3,3) E(3,2) E(2,3) E(2,0) E(0,0) E(0,2) E(4,2) E(4,4) E(2,4) E(1,3) E(3,1) E(0,1) E(1,0) E(4,1) E(1,4) E(3,0) E(0,3) E(3,4) E(4,3) E(4,0) E(0,4)
c 1 2 3 4 5 6 7 8 9 10 11 12 13 14 15 16 17 18 19 20 21 22 23 24 25
p cnf 25 35
-9 0
-2 0
-1 0
-5 0
-12 0
9 -9 0
16 -17 0
10 -8 0
21 -20 0
25 -24 0
17 -16 0
2 -2 0
3 -4 0
14 -15 0
19 -18 0
8 -10 0
4 -3 0
1 -1 0
7 -6 0
13 -11 0
20 -21 0
15 -14 0
6 -7 0
5 -5 0
22 -23 0
24 -25 0
18 -19 0
11 -13 0
23 -22 0
12 -12 0
9 16 10 21 25 0
17 2 3 14 19 0
8 4 1 7 13 0
20 15 6 5 22 0
24 18 11 23 12 0
