c E(0,0) E(1,0) E(0,1) E(1,1) E(0,4) E(4,4) E(4,0) E(2,2) E(0,2) E(2,0) E(5,5) E(0,5) E(5,0) E(3,3) E(0,3) E(3,0) E(4,1) E(1,4) E(2,1) E(1,2) E(5,1) E(1,5) E(3,1) E(1,3) E(2,4) E(4,2) E(4,5) E(5,4) E(3,4) E(4,3) E(2,5) E(5,2) E(3,2) E(2,3) E(3,5) E(5,3)
c 1 2 3 4 5 6 7 8 9 10 11 12 13 14 15 16 17 18 19 20 21 22 23 24 25 26 27 28 29 30 31 32 33 34 35 36
p cnf 36 48
-1 0
-4 0
-8 0
-14 0
-6 0
-11 0
1 -1 0
3 -2 0
9 -10 0
15 -16 0
5 -7 0
12 -13 0
2 -3 0
4 -4 0
20 -19 0
24 -23 0
18 -17 0
22 -21 0
10 -9 0
19 -20 0
8 -8 0
34 -33 0
25 -26 0
31 -32 0
16 -15 0
23 -24 0
33 -34 0
14 -14 0
29 -30 0
35 -36 0
7 -5 0
17 -18 0
26 -25 0
30 -29 0
6 -6 0
27 -28 0
13 -12 0
21 -22 0
32 -31 0
36 -35 0
28 -27 0
11 -11 0
1 3 9 15 5 12 0
2 4 20 24 18 22 0
10 19 8 34 25 31 0
16 23 33 14 29 35 0
7 17 26 30 6 27 0
13 21 32 36 28 11 0
