c E(4,4) E(5,5) E(5,4) E(4,5) E(2,4) E(4,2) E(2,2) E(4,1) E(1,1) E(1,4) E(3,4) E(3,3) E(4,3) E(4,0) E(0,0) E(0,4) E(6,4) E(6,6) E(4,6) E(5,2) E(2,5) E(1,5) E(5,1) E(3,5) E(5,3) E(0,5) E(5,0) E(5,6) E(6,5) E(2,1) E(1,2) E(2,3) E(3,2) E(2,0) E(0,2) E(6,2) E(2,6) E(1,3) E(3,1) E(1,0) E(0,1) E(6,1) E(1,6) E(0,3) E(3,0) E(3,6) E(6,3) E(6,0) E(0,6)
c 1 2 3 4 5 6 7 8 9 10 11 12 13 14 15 16 17 18 19 20 21 22 23 24 25 26 27 28 29 30 31 32 33 34 35 36 37 38 39 40 41 42 43 44 45 46 47 48 49
p cnf 49 63
-15 0
-9 0
-7 0
-12 0
-1 0
-2 0
-18 0
15 -15 0
41 -40 0
35 -34 0
44 -45 0
16 -14 0
26 -27 0
49 -48 0
40 -41 0
9 -9 0
31 -30 0
38 -39 0
10 -8 0
22 -23 0
43 -42 0
34 -35 0
30 -31 0
7 -7 0
32 -33 0
5 -6 0
21 -20 0
37 -36 0
45 -44 0
39 -38 0
33 -32 0
12 -12 0
11 -13 0
24 -25 0
46 -47 0
14 -16 0
8 -10 0
6 -5 0
13 -11 0
1 -1 0
4 -3 0
19 -17 0
27 -26 0
23 -22 0
20 -21 0
25 -24 0
3 -4 0
2 -2 0
28 -29 0
48 -49 0
42 -43 0
36 -37 0
47 -46 0
17 -19 0
29 -28 0
18 -18 0
15 41 35 44 16 26 49 0
40 9 31 38 10 22 43 0
34 30 7 32 5 21 37 0
45 39 33 12 11 24 46 0
14 8 6 13 1 4 19 0
27 23 20 25 3 2 28 0
48 42 36 47 17 29 18 0
