c E(3,3) E(6,3) E(6,6) E(3,6) E(3,1) E(1,3) E(1,1) E(3,5) E(5,5) E(5,3) E(4,3) E(4,4) E(3,4) E(2,2) E(3,2) E(2,3) E(3,0) E(0,0) E(0,3) E(7,3) E(7,7) E(3,7) E(1,6) E(6,1) E(5,6) E(6,5) E(4,6) E(6,4) E(6,2) E(2,6) E(6,0) E(0,6) E(6,7) E(7,6) E(5,1) E(1,5) E(4,1) E(1,4) E(1,2) E(2,1) E(1,0) E(0,1) E(7,1) E(1,7) E(5,4) E(4,5) E(2,5) E(5,2) E(5,0) E(0,5) E(5,7) E(7,5) E(2,4) E(4,2) E(0,4) E(4,0) E(4,7) E(7,4) E(0,2) E(2,0) E(2,7) E(7,2) E(7,0) E(0,7)
c 1 2 3 4 5 6 7 8 9 10 11 12 13 14 15 16 17 18 19 20 21 22 23 24 25 26 27 28 29 30 31 32 33 34 35 36 37 38 39 40 41 42 43 44 45 46 47 48 49 50 51 52 53 54 55 56 57 58 59 60 61 62 63 64
p cnf 64 80
-18 0
-7 0
-14 0
-1 0
-12 0
-9 0
-3 0
-21 0
18 -18 0
42 -41 0
59 -60 0
19 -17 0
55 -56 0
50 -49 0
32 -31 0
64 -63 0
41 -42 0
7 -7 0
39 -40 0
6 -5 0
38 -37 0
36 -35 0
23 -24 0
44 -43 0
60 -59 0
40 -39 0
14 -14 0
16 -15 0
53 -54 0
47 -48 0
30 -29 0
61 -62 0
17 -19 0
5 -6 0
15 -16 0
1 -1 0
13 -11 0
8 -10 0
4 -2 0
22 -20 0
56 -55 0
37 -38 0
54 -53 0
11 -13 0
12 -12 0
46 -45 0
27 -28 0
57 -58 0
49 -50 0
35 -36 0
48 -47 0
10 -8 0
45 -46 0
9 -9 0
25 -26 0
51 -52 0
31 -32 0
24 -23 0
29 -30 0
2 -4 0
28 -27 0
26 -25 0
3 -3 0
33 -34 0
63 -64 0
43 -44 0
62 -61 0
20 -22 0
58 -57 0
52 -51 0
34 -33 0
21 -21 0
18 42 59 19 55 50 32 64 0
41 7 39 6 38 36 23 44 0
60 40 14 16 53 47 30 61 0
17 5 15 1 13 8 4 22 0
56 37 54 11 12 46 27 57 0
49 35 48 10 45 9 25 51 0
31 24 29 2 28 26 3 33 0
63 43 62 20 58 52 34 21 0
