c E(8,8) E(6,8) E(6,6) E(8,6) E(8,4) E(4,8) E(4,4) E(8,1) E(1,8) E(1,1) E(0,0) E(8,0) E(0,8) E(5,5) E(5,8) E(8,5) E(3,3) E(3,8) E(8,3) E(8,2) E(2,2) E(2,8) E(8,7) E(7,8) E(7,7) E(6,4) E(4,6) E(1,6) E(6,1) E(0,6) E(6,0) E(6,5) E(5,6) E(6,3) E(3,6) E(6,2) E(2,6) E(6,7) E(7,6) E(4,1) E(1,4) E(4,0) E(0,4) E(5,4) E(4,5) E(4,3) E(3,4) E(4,2) E(2,4) E(4,7) E(7,4) E(0,1) E(1,0) E(1,5) E(5,1) E(1,3) E(3,1) E(2,1) E(1,2) E(7,1) E(1,7) E(0,5) E(5,0) E(3,0) E(0,3) E(0,2) E(2,0) E(7,0) E(0,7) E(3,5) E(5,3) E(5,2) E(2,5) E(5,7) E(7,5) E(3,2) E(2,3) E(7,3) E(3,7) E(7,2) E(2,7)
c 1 2 3 4 5 6 7 8 9 10 11 12 13 14 15 16 17 18 19 20 21 22 23 24 25 26 27 28 29 30 31 32 33 34 35 36 37 38 39 40 41 42 43 44 45 46 47 48 49 50 51 52 53 54 55 56 57 58 59 60 61 62 63 64 65 66 67 68 69 70 71 72 73 74 75 76 77 78 79 80 81
p cnf 81 99
-11 0
-10 0
-21 0
-17 0
-7 0
-14 0
-3 0
-25 0
-1 0
11 -11 0
52 -53 0
66 -67 0
65 -64 0
43 -42 0
62 -63 0
30 -31 0
69 -68 0
13 -12 0
53 -52 0
10 -10 0
59 -58 0
56 -57 0
41 -40 0
54 -55 0
28 -29 0
61 -60 0
9 -8 0
67 -66 0
58 -59 0
21 -21 0
77 -76 0
49 -48 0
73 -72 0
37 -36 0
81 -80 0
22 -20 0
64 -65 0
57 -56 0
76 -77 0
17 -17 0
47 -46 0
70 -71 0
35 -34 0
79 -78 0
18 -19 0
42 -43 0
40 -41 0
48 -49 0
46 -47 0
7 -7 0
45 -44 0
27 -26 0
50 -51 0
6 -5 0
63 -62 0
55 -54 0
72 -73 0
71 -70 0
44 -45 0
14 -14 0
33 -32 0
74 -75 0
15 -16 0
31 -30 0
29 -28 0
36 -37 0
34 -35 0
26 -27 0
32 -33 0
3 -3 0
38 -39 0
2 -4 0
68 -69 0
60 -61 0
80 -81 0
78 -79 0
51 -50 0
75 -74 0
39 -38 0
25 -25 0
24 -23 0
12 -13 0
8 -9 0
20 -22 0
19 -18 0
5 -6 0
16 -15 0
4 -2 0
23 -24 0
1 -1 0
11 52 66 65 43 62 30 69 13 0
53 10 59 56 41 54 28 61 9 0
67 58 21 77 49 73 37 81 22 0
64 57 76 17 47 70 35 79 18 0
42 40 48 46 7 45 27 50 6 0
63 55 72 71 44 14 33 74 15 0
31 29 36 34 26 32 3 38 2 0
68 60 80 78 51 75 39 25 24 0
12 8 20 19 5 16 4 23 1 0
