c U3(9) U2(9) E2(9,9) U1(9) U4(9) E1(9,9) E1(1,9) E1(9,1) E2(1,9) U1(1) E2(9,1) U4(1) U2(1) U3(1) U1(5) E1(5,9) E2(5,9) U4(5) E1(9,5) U3(5) U2(5) E2(9,5) U1(2) E1(9,2) U4(2) U2(2) E2(2,9) E1(2,9) E2(9,2) U3(2) E1(0,9) E2(0,9) U4(0) U3(0) E1(9,0) E2(9,0) U1(0) U2(0) E1(6,9) E1(9,6) U4(6) U3(6) E2(6,9) E2(9,6) U2(6) U1(6) U1(4) U2(4) E2(9,4) U4(4) E1(4,9) E2(4,9) E1(9,4) U3(4) U4(3) U3(3) U1(3) E1(9,3) U2(3) E2(9,3) E2(3,9) E1(3,9) U4(8) E1(8,9) E2(8,9) E1(9,8) U3(8) U1(8) U2(8) E2(9,8) E2(9,7) U2(7) U3(7) E2(7,9) U1(7) E1(7,9) E1(9,7) U4(7) E2(1,1) E1(1,1) E1(1,5) E2(1,5) E1(5,1) E2(5,1) E2(1,2) E1(2,1) E1(1,2) E2(2,1) E1(0,1) E2(0,1) E1(1,0) E2(1,0) E1(1,6) E2(1,6) E2(6,1) E1(6,1) E1(4,1) E2(4,1) E1(1,4) E2(1,4) E1(3,1) E1(1,3) E2(1,3) E2(3,1) E2(8,1) E2(1,8) E1(1,8) E1(8,1) E1(1,7) E1(7,1) E2(7,1) E2(1,7) E1(5,5) E2(5,5) E1(2,5) E1(5,2) E2(2,5) E2(5,2) E1(0,5) E1(5,0) E2(0,5) E2(5,0) E1(5,6) E2(5,6) E1(6,5) E2(6,5) E2(4,5) E1(4,5) E1(5,4) E2(5,4) E1(3,5) E2(5,3) E2(3,5) E1(5,3) E1(8,5) E1(5,8) E2(5,8) E2(8,5) E2(7,5) E1(5,7) E1(7,5) E2(5,7) E1(2,2) E2(2,2) E1(2,0) E2(0,2) E2(2,0) E1(0,2) E2(2,6) E2(6,2) E1(2,6) E1(6,2) E1(4,2) E2(4,2) E1(2,4) E2(2,4) E1(3,2) E2(3,2) E1(2,3) E2(2,3) E1(2,8) E2(2,8) E1(8,2) E2(8,2) E2(2,7) E1(7,2) E1(2,7) E2(7,2) E2(0,0) E1(0,0) E1(6,0) E2(6,0) E1(0,6) E2(0,6) E2(4,0) E1(0,4) E2(0,4) E1(4,0) E1(0,3) E2(3,0) E2(0,3) E1(3,0) E1(0,8) E1(8,0) E2(0,8) E2(8,0) E2(7,0) E1(0,7) E2(0,7) E1(7,0) E1(6,6) E2(6,6) E1(6,4) E2(6,4) E1(4,6) E2(4,6) E2(3,6) E1(6,3) E2(6,3) E1(3,6) E1(8,6) E1(6,8) E2(8,6) E2(6,8) E2(7,6) E1(6,7) E1(7,6) E2(6,7) E1(4,4) E2(4,4) E1(3,4) E2(3,4) E2(4,3) E1(4,3) E2(4,8) E1(8,4) E1(4,8) E2(8,4) E1(4,7) E1(7,4) E2(4,7) E2(7,4) E1(3,3) E2(3,3) E1(8,3) E2(8,3) E1(3,8) E2(3,8) E1(7,3) E1(3,7) E2(7,3) E2(3,7) E2(8,8) E1(8,8) E1(8,7) E2(8,7) E1(7,8) E2(7,8) E1(7,7) E2(7,7)
c 1 2 3 4 5 6 7 8 9 10 11 12 13 14 15 16 17 18 19 20 21 22 23 24 25 26 27 28 29 30 31 32 33 34 35 36 37 38 39 40 41 42 43 44 45 46 47 48 49 50 51 52 53 54 55 56 57 58 59 60 61 62 63 64 65 66 67 68 69 70 71 72 73 74 75 76 77 78 79 80 81 82 83 84 85 86 87 88 89 90 91 92 93 94 95 96 97 98 99 100 101 102 103 104 105 106 107 108 109 110 111 112 113 114 115 116 117 118 119 120 121 122 123 124 125 126 127 128 129 130 131 132 133 134 135 136 137 138 139 140 141 142 143 144 145 146 147 148 149 150 151 152 153 154 155 156 157 158 159 160 161 162 163 164 165 166 167 168 169 170 171 172 173 174 175 176 177 178 179 180 181 182 183 184 185 186 187 188 189 190 191 192 193 194 195 196 197 198 199 200 201 202 203 204 205 206 207 208 209 210 211 212 213 214 215 216 217 218 219 220 221 222 223 224 225 226 227 228 229 230 231 232 233 234 235 236 237 238 239 240
p cnf 240 6680
-170 -169 0
-89 -90 0
-89 -92 0
-148 -146 0
-148 -147 0
-179 -181 0
-179 -180 0
-176 -177 0
-176 -175 0
-119 -121 0
-119 -122 0
-173 -174 0
-173 -172 0
-188 -189 0
-188 -187 0
-183 -185 0
-183 -186 0
-31 -32 0
-31 -36 0
-91 -90 0
-91 -92 0
-80 -79 0
-87 -85 0
-87 -88 0
-102 -103 0
-102 -104 0
-99 -100 0
-99 -98 0
-81 -82 0
-81 -84 0
-93 -94 0
-93 -95 0
-109 -112 0
-109 -111 0
-107 -106 0
-107 -105 0
-7 -9 0
-7 -11 0
-145 -146 0
-145 -147 0
-86 -85 0
-86 -88 0
-143 -144 0
-159 -160 0
-159 -158 0
-155 -156 0
-155 -154 0
-115 -117 0
-115 -118 0
-151 -149 0
-151 -150 0
-167 -165 0
-167 -168 0
-161 -162 0
-161 -164 0
-28 -27 0
-28 -29 0
-182 -181 0
-182 -180 0
-101 -103 0
-101 -104 0
-157 -160 0
-157 -158 0
-223 -224 0
-211 -212 0
-211 -213 0
-131 -133 0
-131 -132 0
-200 -197 0
-200 -199 0
-230 -232 0
-230 -231 0
-227 -228 0
-227 -226 0
-62 -61 0
-62 -60 0
-178 -177 0
-178 -175 0
-97 -100 0
-97 -98 0
-153 -156 0
-153 -154 0
-214 -212 0
-214 -213 0
-209 -210 0
-128 -127 0
-128 -130 0
-195 -196 0
-195 -194 0
-219 -221 0
-219 -222 0
-217 -215 0
-217 -218 0
-51 -52 0
-51 -49 0
-120 -121 0
-120 -122 0
-83 -82 0
-83 -84 0
-116 -117 0
-116 -118 0
-134 -133 0
-134 -132 0
-129 -127 0
-129 -130 0
-113 -114 0
-123 -124 0
-123 -126 0
-140 -142 0
-140 -139 0
-136 -137 0
-136 -138 0
-16 -17 0
-16 -22 0
-171 -174 0
-171 -172 0
-96 -94 0
-96 -95 0
-152 -149 0
-152 -150 0
-198 -197 0
-198 -199 0
-193 -196 0
-193 -194 0
-125 -124 0
-125 -126 0
-191 -192 0
-206 -208 0
-206 -205 0
-202 -204 0
-202 -203 0
-39 -43 0
-39 -44 0
-190 -189 0
-190 -187 0
-110 -112 0
-110 -111 0
-166 -165 0
-166 -168 0
-229 -232 0
-229 -231 0
-220 -221 0
-220 -222 0
-141 -142 0
-141 -139 0
-207 -208 0
-207 -205 0
-239 -240 0
-237 -238 0
-237 -236 0
-76 -74 0
-76 -71 0
-184 -185 0
-184 -186 0
-108 -106 0
-108 -105 0
-163 -162 0
-163 -164 0
-225 -228 0
-225 -226 0
-216 -215 0
-216 -218 0
-135 -137 0
-135 -138 0
-201 -204 0
-201 -203 0
-235 -238 0
-235 -236 0
-234 -233 0
-64 -65 0
-64 -70 0
-35 -32 0
-35 -36 0
-8 -9 0
-8 -11 0
-24 -27 0
-24 -29 0
-58 -61 0
-58 -60 0
-53 -52 0
-53 -49 0
-19 -17 0
-19 -22 0
-40 -43 0
-40 -44 0
-77 -74 0
-77 -71 0
-66 -65 0
-66 -70 0
-6 -3 0
-37 -38 0
-37 -34 0
-37 -33 0
-10 -13 0
-10 -14 0
-10 -12 0
-23 -26 0
-23 -30 0
-23 -25 0
-57 -59 0
-57 -56 0
-57 -55 0
-47 -48 0
-47 -54 0
-47 -50 0
-15 -21 0
-15 -20 0
-15 -18 0
-46 -45 0
-46 -42 0
-46 -41 0
-75 -72 0
-75 -73 0
-75 -78 0
-68 -69 0
-68 -67 0
-68 -63 0
-4 -2 0
-4 -1 0
-4 -5 0
-38 -34 0
-38 -33 0
-13 -14 0
-13 -12 0
-26 -30 0
-26 -25 0
-59 -56 0
-59 -55 0
-48 -54 0
-48 -50 0
-21 -20 0
-21 -18 0
-45 -42 0
-45 -41 0
-72 -73 0
-72 -78 0
-69 -67 0
-69 -63 0
-2 -1 0
-2 -5 0
-34 -33 0
-14 -12 0
-30 -25 0
-56 -55 0
-54 -50 0
-20 -18 0
-42 -41 0
-73 -78 0
-67 -63 0
-1 -5 0
37 38 34 33 0
10 13 14 12 0
23 26 30 25 0
57 59 56 55 0
47 48 54 50 0
15 21 20 18 0
46 45 42 41 0
75 72 73 78 0
68 69 67 63 0
4 2 1 5 0
37 38 34 -170 0
37 38 34 -169 0
37 38 33 -170 0
37 38 33 -169 0
37 34 33 -170 0
37 34 33 -169 0
10 13 14 -80 0
10 13 14 -79 0
10 13 12 -80 0
10 13 12 -79 0
10 14 12 -80 0
10 14 12 -79 0
23 26 30 -143 0
23 26 30 -144 0
23 26 25 -143 0
23 26 25 -144 0
23 30 25 -143 0
23 30 25 -144 0
57 59 56 -223 0
57 59 56 -224 0
57 59 55 -223 0
57 59 55 -224 0
57 56 55 -223 0
57 56 55 -224 0
47 48 54 -209 0
47 48 54 -210 0
47 48 50 -209 0
47 48 50 -210 0
47 54 50 -209 0
47 54 50 -210 0
15 21 20 -113 0
15 21 20 -114 0
15 21 18 -113 0
15 21 18 -114 0
15 20 18 -113 0
15 20 18 -114 0
46 45 42 -191 0
46 45 42 -192 0
46 45 41 -191 0
46 45 41 -192 0
46 42 41 -191 0
46 42 41 -192 0
75 72 73 -239 0
75 72 73 -240 0
75 72 78 -239 0
75 72 78 -240 0
75 73 78 -239 0
75 73 78 -240 0
68 69 67 -234 0
68 69 67 -233 0
68 69 63 -234 0
68 69 63 -233 0
68 67 63 -234 0
68 67 63 -233 0
4 2 1 -6 0
4 2 1 -3 0
4 2 5 -6 0
4 2 5 -3 0
4 1 5 -6 0
4 1 5 -3 0
38 34 33 -170 0
38 34 33 -169 0
13 14 12 -80 0
13 14 12 -79 0
26 30 25 -143 0
26 30 25 -144 0
59 56 55 -223 0
59 56 55 -224 0
48 54 50 -209 0
48 54 50 -210 0
21 20 18 -113 0
21 20 18 -114 0
45 42 41 -191 0
45 42 41 -192 0
72 73 78 -239 0
72 73 78 -240 0
69 67 63 -234 0
69 67 63 -233 0
2 1 5 -6 0
2 1 5 -3 0
37 38 34 33 -170 0
37 38 34 33 -89 0
37 38 34 33 -148 0
37 38 34 33 -179 0
37 38 34 33 -176 0
37 38 34 33 -119 0
37 38 34 33 -173 0
37 38 34 33 -188 0
37 38 34 33 -183 0
37 38 34 33 -31 0
37 38 34 33 -91 0
37 38 34 33 -145 0
37 38 34 33 -182 0
37 38 34 33 -178 0
37 38 34 33 -120 0
37 38 34 33 -171 0
37 38 34 33 -190 0
37 38 34 33 -184 0
37 38 34 33 -35 0
37 38 34 33 -169 0
37 38 34 33 -90 0
37 38 34 33 -146 0
37 38 34 33 -181 0
37 38 34 33 -177 0
37 38 34 33 -121 0
37 38 34 33 -174 0
37 38 34 33 -189 0
37 38 34 33 -185 0
37 38 34 33 -32 0
37 38 34 33 -92 0
37 38 34 33 -147 0
37 38 34 33 -180 0
37 38 34 33 -175 0
37 38 34 33 -122 0
37 38 34 33 -172 0
37 38 34 33 -187 0
37 38 34 33 -186 0
37 38 34 33 -36 0
10 13 14 12 -89 0
10 13 14 12 -91 0
10 13 14 12 -80 0
10 13 14 12 -87 0
10 13 14 12 -102 0
10 13 14 12 -99 0
10 13 14 12 -81 0
10 13 14 12 -93 0
10 13 14 12 -109 0
10 13 14 12 -107 0
10 13 14 12 -7 0
10 13 14 12 -86 0
10 13 14 12 -101 0
10 13 14 12 -97 0
10 13 14 12 -83 0
10 13 14 12 -96 0
10 13 14 12 -110 0
10 13 14 12 -108 0
10 13 14 12 -8 0
10 13 14 12 -90 0
10 13 14 12 -92 0
10 13 14 12 -79 0
10 13 14 12 -85 0
10 13 14 12 -103 0
10 13 14 12 -100 0
10 13 14 12 -82 0
10 13 14 12 -94 0
10 13 14 12 -112 0
10 13 14 12 -106 0
10 13 14 12 -9 0
10 13 14 12 -88 0
10 13 14 12 -104 0
10 13 14 12 -98 0
10 13 14 12 -84 0
10 13 14 12 -95 0
10 13 14 12 -111 0
10 13 14 12 -105 0
10 13 14 12 -11 0
23 26 30 25 -148 0
23 26 30 25 -87 0
23 26 30 25 -145 0
23 26 30 25 -86 0
23 26 30 25 -143 0
23 26 30 25 -159 0
23 26 30 25 -155 0
23 26 30 25 -115 0
23 26 30 25 -151 0
23 26 30 25 -167 0
23 26 30 25 -161 0
23 26 30 25 -28 0
23 26 30 25 -157 0
23 26 30 25 -153 0
23 26 30 25 -116 0
23 26 30 25 -152 0
23 26 30 25 -166 0
23 26 30 25 -163 0
23 26 30 25 -24 0
23 26 30 25 -146 0
23 26 30 25 -85 0
23 26 30 25 -147 0
23 26 30 25 -88 0
23 26 30 25 -144 0
23 26 30 25 -160 0
23 26 30 25 -156 0
23 26 30 25 -117 0
23 26 30 25 -149 0
23 26 30 25 -165 0
23 26 30 25 -162 0
23 26 30 25 -27 0
23 26 30 25 -158 0
23 26 30 25 -154 0
23 26 30 25 -118 0
23 26 30 25 -150 0
23 26 30 25 -168 0
23 26 30 25 -164 0
23 26 30 25 -29 0
57 59 56 55 -179 0
57 59 56 55 -102 0
57 59 56 55 -159 0
57 59 56 55 -182 0
57 59 56 55 -101 0
57 59 56 55 -157 0
57 59 56 55 -223 0
57 59 56 55 -211 0
57 59 56 55 -131 0
57 59 56 55 -200 0
57 59 56 55 -230 0
57 59 56 55 -227 0
57 59 56 55 -62 0
57 59 56 55 -214 0
57 59 56 55 -134 0
57 59 56 55 -198 0
57 59 56 55 -229 0
57 59 56 55 -225 0
57 59 56 55 -58 0
57 59 56 55 -181 0
57 59 56 55 -103 0
57 59 56 55 -160 0
57 59 56 55 -180 0
57 59 56 55 -104 0
57 59 56 55 -158 0
57 59 56 55 -224 0
57 59 56 55 -212 0
57 59 56 55 -133 0
57 59 56 55 -197 0
57 59 56 55 -232 0
57 59 56 55 -228 0
57 59 56 55 -61 0
57 59 56 55 -213 0
57 59 56 55 -132 0
57 59 56 55 -199 0
57 59 56 55 -231 0
57 59 56 55 -226 0
57 59 56 55 -60 0
47 48 54 50 -176 0
47 48 54 50 -99 0
47 48 54 50 -155 0
47 48 54 50 -211 0
47 48 54 50 -178 0
47 48 54 50 -97 0
47 48 54 50 -153 0
47 48 54 50 -214 0
47 48 54 50 -209 0
47 48 54 50 -128 0
47 48 54 50 -195 0
47 48 54 50 -219 0
47 48 54 50 -217 0
47 48 54 50 -51 0
47 48 54 50 -129 0
47 48 54 50 -193 0
47 48 54 50 -220 0
47 48 54 50 -216 0
47 48 54 50 -53 0
47 48 54 50 -177 0
47 48 54 50 -100 0
47 48 54 50 -156 0
47 48 54 50 -212 0
47 48 54 50 -175 0
47 48 54 50 -98 0
47 48 54 50 -154 0
47 48 54 50 -213 0
47 48 54 50 -210 0
47 48 54 50 -127 0
47 48 54 50 -196 0
47 48 54 50 -221 0
47 48 54 50 -215 0
47 48 54 50 -52 0
47 48 54 50 -130 0
47 48 54 50 -194 0
47 48 54 50 -222 0
47 48 54 50 -218 0
47 48 54 50 -49 0
15 21 20 18 -119 0
15 21 20 18 -81 0
15 21 20 18 -115 0
15 21 20 18 -131 0
15 21 20 18 -128 0
15 21 20 18 -120 0
15 21 20 18 -83 0
15 21 20 18 -116 0
15 21 20 18 -134 0
15 21 20 18 -129 0
15 21 20 18 -113 0
15 21 20 18 -123 0
15 21 20 18 -140 0
15 21 20 18 -136 0
15 21 20 18 -16 0
15 21 20 18 -125 0
15 21 20 18 -141 0
15 21 20 18 -135 0
15 21 20 18 -19 0
15 21 20 18 -121 0
15 21 20 18 -82 0
15 21 20 18 -117 0
15 21 20 18 -133 0
15 21 20 18 -127 0
15 21 20 18 -122 0
15 21 20 18 -84 0
15 21 20 18 -118 0
15 21 20 18 -132 0
15 21 20 18 -130 0
15 21 20 18 -114 0
15 21 20 18 -124 0
15 21 20 18 -142 0
15 21 20 18 -137 0
15 21 20 18 -17 0
15 21 20 18 -126 0
15 21 20 18 -139 0
15 21 20 18 -138 0
15 21 20 18 -22 0
46 45 42 41 -173 0
46 45 42 41 -93 0
46 45 42 41 -151 0
46 45 42 41 -200 0
46 45 42 41 -195 0
46 45 42 41 -123 0
46 45 42 41 -171 0
46 45 42 41 -96 0
46 45 42 41 -152 0
46 45 42 41 -198 0
46 45 42 41 -193 0
46 45 42 41 -125 0
46 45 42 41 -191 0
46 45 42 41 -206 0
46 45 42 41 -202 0
46 45 42 41 -39 0
46 45 42 41 -207 0
46 45 42 41 -201 0
46 45 42 41 -40 0
46 45 42 41 -174 0
46 45 42 41 -94 0
46 45 42 41 -149 0
46 45 42 41 -197 0
46 45 42 41 -196 0
46 45 42 41 -124 0
46 45 42 41 -172 0
46 45 42 41 -95 0
46 45 42 41 -150 0
46 45 42 41 -199 0
46 45 42 41 -194 0
46 45 42 41 -126 0
46 45 42 41 -192 0
46 45 42 41 -208 0
46 45 42 41 -204 0
46 45 42 41 -43 0
46 45 42 41 -205 0
46 45 42 41 -203 0
46 45 42 41 -44 0
75 72 73 78 -188 0
75 72 73 78 -109 0
75 72 73 78 -167 0
75 72 73 78 -230 0
75 72 73 78 -219 0
75 72 73 78 -140 0
75 72 73 78 -206 0
75 72 73 78 -190 0
75 72 73 78 -110 0
75 72 73 78 -166 0
75 72 73 78 -229 0
75 72 73 78 -220 0
75 72 73 78 -141 0
75 72 73 78 -207 0
75 72 73 78 -239 0
75 72 73 78 -237 0
75 72 73 78 -76 0
75 72 73 78 -235 0
75 72 73 78 -77 0
75 72 73 78 -189 0
75 72 73 78 -112 0
75 72 73 78 -165 0
75 72 73 78 -232 0
75 72 73 78 -221 0
75 72 73 78 -142 0
75 72 73 78 -208 0
75 72 73 78 -187 0
75 72 73 78 -111 0
75 72 73 78 -168 0
75 72 73 78 -231 0
75 72 73 78 -222 0
75 72 73 78 -139 0
75 72 73 78 -205 0
75 72 73 78 -240 0
75 72 73 78 -238 0
75 72 73 78 -74 0
75 72 73 78 -236 0
75 72 73 78 -71 0
68 69 67 63 -183 0
68 69 67 63 -107 0
68 69 67 63 -161 0
68 69 67 63 -227 0
68 69 67 63 -217 0
68 69 67 63 -136 0
68 69 67 63 -202 0
68 69 67 63 -237 0
68 69 67 63 -184 0
68 69 67 63 -108 0
68 69 67 63 -163 0
68 69 67 63 -225 0
68 69 67 63 -216 0
68 69 67 63 -135 0
68 69 67 63 -201 0
68 69 67 63 -235 0
68 69 67 63 -234 0
68 69 67 63 -64 0
68 69 67 63 -66 0
68 69 67 63 -185 0
68 69 67 63 -106 0
68 69 67 63 -162 0
68 69 67 63 -228 0
68 69 67 63 -215 0
68 69 67 63 -137 0
68 69 67 63 -204 0
68 69 67 63 -238 0
68 69 67 63 -186 0
68 69 67 63 -105 0
68 69 67 63 -164 0
68 69 67 63 -226 0
68 69 67 63 -218 0
68 69 67 63 -138 0
68 69 67 63 -203 0
68 69 67 63 -236 0
68 69 67 63 -233 0
68 69 67 63 -65 0
68 69 67 63 -70 0
4 2 1 5 -31 0
4 2 1 5 -7 0
4 2 1 5 -28 0
4 2 1 5 -62 0
4 2 1 5 -51 0
4 2 1 5 -16 0
4 2 1 5 -39 0
4 2 1 5 -76 0
4 2 1 5 -64 0
4 2 1 5 -35 0
4 2 1 5 -8 0
4 2 1 5 -24 0
4 2 1 5 -58 0
4 2 1 5 -53 0
4 2 1 5 -19 0
4 2 1 5 -40 0
4 2 1 5 -77 0
4 2 1 5 -66 0
4 2 1 5 -6 0
4 2 1 5 -32 0
4 2 1 5 -9 0
4 2 1 5 -27 0
4 2 1 5 -61 0
4 2 1 5 -52 0
4 2 1 5 -17 0
4 2 1 5 -43 0
4 2 1 5 -74 0
4 2 1 5 -65 0
4 2 1 5 -36 0
4 2 1 5 -11 0
4 2 1 5 -29 0
4 2 1 5 -60 0
4 2 1 5 -49 0
4 2 1 5 -22 0
4 2 1 5 -44 0
4 2 1 5 -71 0
4 2 1 5 -70 0
4 2 1 5 -3 0
37 10 38 34 33 -89 0
37 10 38 34 33 -91 0
37 10 38 34 33 -90 0
37 10 38 34 33 -92 0
37 10 13 14 12 -89 0
37 10 13 14 12 -91 0
37 10 13 14 12 -90 0
37 10 13 14 12 -92 0
37 23 38 34 33 -148 0
37 23 38 34 33 -145 0
37 23 38 34 33 -146 0
37 23 38 34 33 -147 0
37 23 26 30 25 -148 0
37 23 26 30 25 -145 0
37 23 26 30 25 -146 0
37 23 26 30 25 -147 0
37 57 38 34 33 -179 0
37 57 38 34 33 -182 0
37 57 38 34 33 -181 0
37 57 38 34 33 -180 0
37 57 59 56 55 -179 0
37 57 59 56 55 -182 0
37 57 59 56 55 -181 0
37 57 59 56 55 -180 0
37 47 38 34 33 -176 0
37 47 38 34 33 -178 0
37 47 38 34 33 -177 0
37 47 38 34 33 -175 0
37 47 48 54 50 -176 0
37 47 48 54 50 -178 0
37 47 48 54 50 -177 0
37 47 48 54 50 -175 0
37 15 38 34 33 -119 0
37 15 38 34 33 -120 0
37 15 38 34 33 -121 0
37 15 38 34 33 -122 0
37 15 21 20 18 -119 0
37 15 21 20 18 -120 0
37 15 21 20 18 -121 0
37 15 21 20 18 -122 0
37 46 38 34 33 -173 0
37 46 38 34 33 -171 0
37 46 38 34 33 -174 0
37 46 38 34 33 -172 0
37 46 45 42 41 -173 0
37 46 45 42 41 -171 0
37 46 45 42 41 -174 0
37 46 45 42 41 -172 0
37 75 38 34 33 -188 0
37 75 38 34 33 -190 0
37 75 38 34 33 -189 0
37 75 38 34 33 -187 0
37 75 72 73 78 -188 0
37 75 72 73 78 -190 0
37 75 72 73 78 -189 0
37 75 72 73 78 -187 0
37 68 38 34 33 -183 0
37 68 38 34 33 -184 0
37 68 38 34 33 -185 0
37 68 38 34 33 -186 0
37 68 69 67 63 -183 0
37 68 69 67 63 -184 0
37 68 69 67 63 -185 0
37 68 69 67 63 -186 0
37 4 38 34 33 -31 0
37 4 38 34 33 -35 0
37 4 38 34 33 -32 0
37 4 38 34 33 -36 0
37 4 2 1 5 -31 0
37 4 2 1 5 -35 0
37 4 2 1 5 -32 0
37 4 2 1 5 -36 0
37 38 13 34 33 -89 0
37 38 13 34 33 -91 0
37 38 13 34 33 -90 0
37 38 13 34 33 -92 0
37 38 26 34 33 -148 0
37 38 26 34 33 -145 0
37 38 26 34 33 -146 0
37 38 26 34 33 -147 0
37 38 59 34 33 -179 0
37 38 59 34 33 -182 0
37 38 59 34 33 -181 0
37 38 59 34 33 -180 0
37 38 48 34 33 -176 0
37 38 48 34 33 -178 0
37 38 48 34 33 -177 0
37 38 48 34 33 -175 0
37 38 21 34 33 -119 0
37 38 21 34 33 -120 0
37 38 21 34 33 -121 0
37 38 21 34 33 -122 0
37 38 45 34 33 -173 0
37 38 45 34 33 -171 0
37 38 45 34 33 -174 0
37 38 45 34 33 -172 0
37 38 72 34 33 -188 0
37 38 72 34 33 -190 0
37 38 72 34 33 -189 0
37 38 72 34 33 -187 0
37 38 69 34 33 -183 0
37 38 69 34 33 -184 0
37 38 69 34 33 -185 0
37 38 69 34 33 -186 0
37 38 2 34 33 -31 0
37 38 2 34 33 -35 0
37 38 2 34 33 -32 0
37 38 2 34 33 -36 0
37 38 34 14 33 -89 0
37 38 34 14 33 -91 0
37 38 34 14 33 -90 0
37 38 34 14 33 -92 0
37 38 34 30 33 -148 0
37 38 34 30 33 -145 0
37 38 34 30 33 -146 0
37 38 34 30 33 -147 0
37 38 34 56 33 -179 0
37 38 34 56 33 -182 0
37 38 34 56 33 -181 0
37 38 34 56 33 -180 0
37 38 34 54 33 -176 0
37 38 34 54 33 -178 0
37 38 34 54 33 -177 0
37 38 34 54 33 -175 0
37 38 34 20 33 -119 0
37 38 34 20 33 -120 0
37 38 34 20 33 -121 0
37 38 34 20 33 -122 0
37 38 34 42 33 -173 0
37 38 34 42 33 -171 0
37 38 34 42 33 -174 0
37 38 34 42 33 -172 0
37 38 34 73 33 -188 0
37 38 34 73 33 -190 0
37 38 34 73 33 -189 0
37 38 34 73 33 -187 0
37 38 34 67 33 -183 0
37 38 34 67 33 -184 0
37 38 34 67 33 -185 0
37 38 34 67 33 -186 0
37 38 34 1 33 -31 0
37 38 34 1 33 -35 0
37 38 34 1 33 -32 0
37 38 34 1 33 -36 0
37 38 34 33 12 -89 0
37 38 34 33 12 -91 0
37 38 34 33 12 -90 0
37 38 34 33 12 -92 0
37 38 34 33 25 -148 0
37 38 34 33 25 -145 0
37 38 34 33 25 -146 0
37 38 34 33 25 -147 0
37 38 34 33 55 -179 0
37 38 34 33 55 -182 0
37 38 34 33 55 -181 0
37 38 34 33 55 -180 0
37 38 34 33 50 -176 0
37 38 34 33 50 -178 0
37 38 34 33 50 -177 0
37 38 34 33 50 -175 0
37 38 34 33 18 -119 0
37 38 34 33 18 -120 0
37 38 34 33 18 -121 0
37 38 34 33 18 -122 0
37 38 34 33 41 -173 0
37 38 34 33 41 -171 0
37 38 34 33 41 -174 0
37 38 34 33 41 -172 0
37 38 34 33 78 -188 0
37 38 34 33 78 -190 0
37 38 34 33 78 -189 0
37 38 34 33 78 -187 0
37 38 34 33 63 -183 0
37 38 34 33 63 -184 0
37 38 34 33 63 -185 0
37 38 34 33 63 -186 0
37 38 34 33 5 -31 0
37 38 34 33 5 -35 0
37 38 34 33 5 -32 0
37 38 34 33 5 -36 0
10 23 13 14 12 -87 0
10 23 13 14 12 -86 0
10 23 13 14 12 -85 0
10 23 13 14 12 -88 0
10 23 26 30 25 -87 0
10 23 26 30 25 -86 0
10 23 26 30 25 -85 0
10 23 26 30 25 -88 0
10 57 13 14 12 -102 0
10 57 13 14 12 -101 0
10 57 13 14 12 -103 0
10 57 13 14 12 -104 0
10 57 59 56 55 -102 0
10 57 59 56 55 -101 0
10 57 59 56 55 -103 0
10 57 59 56 55 -104 0
10 47 13 14 12 -99 0
10 47 13 14 12 -97 0
10 47 13 14 12 -100 0
10 47 13 14 12 -98 0
10 47 48 54 50 -99 0
10 47 48 54 50 -97 0
10 47 48 54 50 -100 0
10 47 48 54 50 -98 0
10 15 13 14 12 -81 0
10 15 13 14 12 -83 0
10 15 13 14 12 -82 0
10 15 13 14 12 -84 0
10 15 21 20 18 -81 0
10 15 21 20 18 -83 0
10 15 21 20 18 -82 0
10 15 21 20 18 -84 0
10 46 13 14 12 -93 0
10 46 13 14 12 -96 0
10 46 13 14 12 -94 0
10 46 13 14 12 -95 0
10 46 45 42 41 -93 0
10 46 45 42 41 -96 0
10 46 45 42 41 -94 0
10 46 45 42 41 -95 0
10 75 13 14 12 -109 0
10 75 13 14 12 -110 0
10 75 13 14 12 -112 0
10 75 13 14 12 -111 0
10 75 72 73 78 -109 0
10 75 72 73 78 -110 0
10 75 72 73 78 -112 0
10 75 72 73 78 -111 0
10 68 13 14 12 -107 0
10 68 13 14 12 -108 0
10 68 13 14 12 -106 0
10 68 13 14 12 -105 0
10 68 69 67 63 -107 0
10 68 69 67 63 -108 0
10 68 69 67 63 -106 0
10 68 69 67 63 -105 0
10 4 13 14 12 -7 0
10 4 13 14 12 -8 0
10 4 13 14 12 -9 0
10 4 13 14 12 -11 0
10 4 2 1 5 -7 0
10 4 2 1 5 -8 0
10 4 2 1 5 -9 0
10 4 2 1 5 -11 0
10 38 13 14 12 -89 0
10 38 13 14 12 -91 0
10 38 13 14 12 -90 0
10 38 13 14 12 -92 0
10 13 26 14 12 -87 0
10 13 26 14 12 -86 0
10 13 26 14 12 -85 0
10 13 26 14 12 -88 0
10 13 59 14 12 -102 0
10 13 59 14 12 -101 0
10 13 59 14 12 -103 0
10 13 59 14 12 -104 0
10 13 48 14 12 -99 0
10 13 48 14 12 -97 0
10 13 48 14 12 -100 0
10 13 48 14 12 -98 0
10 13 21 14 12 -81 0
10 13 21 14 12 -83 0
10 13 21 14 12 -82 0
10 13 21 14 12 -84 0
10 13 45 14 12 -93 0
10 13 45 14 12 -96 0
10 13 45 14 12 -94 0
10 13 45 14 12 -95 0
10 13 72 14 12 -109 0
10 13 72 14 12 -110 0
10 13 72 14 12 -112 0
10 13 72 14 12 -111 0
10 13 69 14 12 -107 0
10 13 69 14 12 -108 0
10 13 69 14 12 -106 0
10 13 69 14 12 -105 0
10 13 2 14 12 -7 0
10 13 2 14 12 -8 0
10 13 2 14 12 -9 0
10 13 2 14 12 -11 0
10 13 34 14 12 -89 0
10 13 34 14 12 -91 0
10 13 34 14 12 -90 0
10 13 34 14 12 -92 0
10 13 14 30 12 -87 0
10 13 14 30 12 -86 0
10 13 14 30 12 -85 0
10 13 14 30 12 -88 0
10 13 14 56 12 -102 0
10 13 14 56 12 -101 0
10 13 14 56 12 -103 0
10 13 14 56 12 -104 0
10 13 14 54 12 -99 0
10 13 14 54 12 -97 0
10 13 14 54 12 -100 0
10 13 14 54 12 -98 0
10 13 14 20 12 -81 0
10 13 14 20 12 -83 0
10 13 14 20 12 -82 0
10 13 14 20 12 -84 0
10 13 14 42 12 -93 0
10 13 14 42 12 -96 0
10 13 14 42 12 -94 0
10 13 14 42 12 -95 0
10 13 14 73 12 -109 0
10 13 14 73 12 -110 0
10 13 14 73 12 -112 0
10 13 14 73 12 -111 0
10 13 14 67 12 -107 0
10 13 14 67 12 -108 0
10 13 14 67 12 -106 0
10 13 14 67 12 -105 0
10 13 14 1 12 -7 0
10 13 14 1 12 -8 0
10 13 14 1 12 -9 0
10 13 14 1 12 -11 0
10 13 14 33 12 -89 0
10 13 14 33 12 -91 0
10 13 14 33 12 -90 0
10 13 14 33 12 -92 0
10 13 14 12 25 -87 0
10 13 14 12 25 -86 0
10 13 14 12 25 -85 0
10 13 14 12 25 -88 0
10 13 14 12 55 -102 0
10 13 14 12 55 -101 0
10 13 14 12 55 -103 0
10 13 14 12 55 -104 0
10 13 14 12 50 -99 0
10 13 14 12 50 -97 0
10 13 14 12 50 -100 0
10 13 14 12 50 -98 0
10 13 14 12 18 -81 0
10 13 14 12 18 -83 0
10 13 14 12 18 -82 0
10 13 14 12 18 -84 0
10 13 14 12 41 -93 0
10 13 14 12 41 -96 0
10 13 14 12 41 -94 0
10 13 14 12 41 -95 0
10 13 14 12 78 -109 0
10 13 14 12 78 -110 0
10 13 14 12 78 -112 0
10 13 14 12 78 -111 0
10 13 14 12 63 -107 0
10 13 14 12 63 -108 0
10 13 14 12 63 -106 0
10 13 14 12 63 -105 0
10 13 14 12 5 -7 0
10 13 14 12 5 -8 0
10 13 14 12 5 -9 0
10 13 14 12 5 -11 0
23 57 26 30 25 -159 0
23 57 26 30 25 -157 0
23 57 26 30 25 -160 0
23 57 26 30 25 -158 0
23 57 59 56 55 -159 0
23 57 59 56 55 -157 0
23 57 59 56 55 -160 0
23 57 59 56 55 -158 0
23 47 26 30 25 -155 0
23 47 26 30 25 -153 0
23 47 26 30 25 -156 0
23 47 26 30 25 -154 0
23 47 48 54 50 -155 0
23 47 48 54 50 -153 0
23 47 48 54 50 -156 0
23 47 48 54 50 -154 0
23 15 26 30 25 -115 0
23 15 26 30 25 -116 0
23 15 26 30 25 -117 0
23 15 26 30 25 -118 0
23 15 21 20 18 -115 0
23 15 21 20 18 -116 0
23 15 21 20 18 -117 0
23 15 21 20 18 -118 0
23 46 26 30 25 -151 0
23 46 26 30 25 -152 0
23 46 26 30 25 -149 0
23 46 26 30 25 -150 0
23 46 45 42 41 -151 0
23 46 45 42 41 -152 0
23 46 45 42 41 -149 0
23 46 45 42 41 -150 0
23 75 26 30 25 -167 0
23 75 26 30 25 -166 0
23 75 26 30 25 -165 0
23 75 26 30 25 -168 0
23 75 72 73 78 -167 0
23 75 72 73 78 -166 0
23 75 72 73 78 -165 0
23 75 72 73 78 -168 0
23 68 26 30 25 -161 0
23 68 26 30 25 -163 0
23 68 26 30 25 -162 0
23 68 26 30 25 -164 0
23 68 69 67 63 -161 0
23 68 69 67 63 -163 0
23 68 69 67 63 -162 0
23 68 69 67 63 -164 0
23 4 26 30 25 -28 0
23 4 26 30 25 -24 0
23 4 26 30 25 -27 0
23 4 26 30 25 -29 0
23 4 2 1 5 -28 0
23 4 2 1 5 -24 0
23 4 2 1 5 -27 0
23 4 2 1 5 -29 0
23 38 26 30 25 -148 0
23 38 26 30 25 -145 0
23 38 26 30 25 -146 0
23 38 26 30 25 -147 0
23 13 26 30 25 -87 0
23 13 26 30 25 -86 0
23 13 26 30 25 -85 0
23 13 26 30 25 -88 0
23 26 59 30 25 -159 0
23 26 59 30 25 -157 0
23 26 59 30 25 -160 0
23 26 59 30 25 -158 0
23 26 48 30 25 -155 0
23 26 48 30 25 -153 0
23 26 48 30 25 -156 0
23 26 48 30 25 -154 0
23 26 21 30 25 -115 0
23 26 21 30 25 -116 0
23 26 21 30 25 -117 0
23 26 21 30 25 -118 0
23 26 45 30 25 -151 0
23 26 45 30 25 -152 0
23 26 45 30 25 -149 0
23 26 45 30 25 -150 0
23 26 72 30 25 -167 0
23 26 72 30 25 -166 0
23 26 72 30 25 -165 0
23 26 72 30 25 -168 0
23 26 69 30 25 -161 0
23 26 69 30 25 -163 0
23 26 69 30 25 -162 0
23 26 69 30 25 -164 0
23 26 2 30 25 -28 0
23 26 2 30 25 -24 0
23 26 2 30 25 -27 0
23 26 2 30 25 -29 0
23 26 34 30 25 -148 0
23 26 34 30 25 -145 0
23 26 34 30 25 -146 0
23 26 34 30 25 -147 0
23 26 14 30 25 -87 0
23 26 14 30 25 -86 0
23 26 14 30 25 -85 0
23 26 14 30 25 -88 0
23 26 30 56 25 -159 0
23 26 30 56 25 -157 0
23 26 30 56 25 -160 0
23 26 30 56 25 -158 0
23 26 30 54 25 -155 0
23 26 30 54 25 -153 0
23 26 30 54 25 -156 0
23 26 30 54 25 -154 0
23 26 30 20 25 -115 0
23 26 30 20 25 -116 0
23 26 30 20 25 -117 0
23 26 30 20 25 -118 0
23 26 30 42 25 -151 0
23 26 30 42 25 -152 0
23 26 30 42 25 -149 0
23 26 30 42 25 -150 0
23 26 30 73 25 -167 0
23 26 30 73 25 -166 0
23 26 30 73 25 -165 0
23 26 30 73 25 -168 0
23 26 30 67 25 -161 0
23 26 30 67 25 -163 0
23 26 30 67 25 -162 0
23 26 30 67 25 -164 0
23 26 30 1 25 -28 0
23 26 30 1 25 -24 0
23 26 30 1 25 -27 0
23 26 30 1 25 -29 0
23 26 30 33 25 -148 0
23 26 30 33 25 -145 0
23 26 30 33 25 -146 0
23 26 30 33 25 -147 0
23 26 30 12 25 -87 0
23 26 30 12 25 -86 0
23 26 30 12 25 -85 0
23 26 30 12 25 -88 0
23 26 30 25 55 -159 0
23 26 30 25 55 -157 0
23 26 30 25 55 -160 0
23 26 30 25 55 -158 0
23 26 30 25 50 -155 0
23 26 30 25 50 -153 0
23 26 30 25 50 -156 0
23 26 30 25 50 -154 0
23 26 30 25 18 -115 0
23 26 30 25 18 -116 0
23 26 30 25 18 -117 0
23 26 30 25 18 -118 0
23 26 30 25 41 -151 0
23 26 30 25 41 -152 0
23 26 30 25 41 -149 0
23 26 30 25 41 -150 0
23 26 30 25 78 -167 0
23 26 30 25 78 -166 0
23 26 30 25 78 -165 0
23 26 30 25 78 -168 0
23 26 30 25 63 -161 0
23 26 30 25 63 -163 0
23 26 30 25 63 -162 0
23 26 30 25 63 -164 0
23 26 30 25 5 -28 0
23 26 30 25 5 -24 0
23 26 30 25 5 -27 0
23 26 30 25 5 -29 0
57 47 59 56 55 -211 0
57 47 59 56 55 -214 0
57 47 59 56 55 -212 0
57 47 59 56 55 -213 0
57 47 48 54 50 -211 0
57 47 48 54 50 -214 0
57 47 48 54 50 -212 0
57 47 48 54 50 -213 0
57 15 59 56 55 -131 0
57 15 59 56 55 -134 0
57 15 59 56 55 -133 0
57 15 59 56 55 -132 0
57 15 21 20 18 -131 0
57 15 21 20 18 -134 0
57 15 21 20 18 -133 0
57 15 21 20 18 -132 0
57 46 59 56 55 -200 0
57 46 59 56 55 -198 0
57 46 59 56 55 -197 0
57 46 59 56 55 -199 0
57 46 45 42 41 -200 0
57 46 45 42 41 -198 0
57 46 45 42 41 -197 0
57 46 45 42 41 -199 0
57 75 59 56 55 -230 0
57 75 59 56 55 -229 0
57 75 59 56 55 -232 0
57 75 59 56 55 -231 0
57 75 72 73 78 -230 0
57 75 72 73 78 -229 0
57 75 72 73 78 -232 0
57 75 72 73 78 -231 0
57 68 59 56 55 -227 0
57 68 59 56 55 -225 0
57 68 59 56 55 -228 0
57 68 59 56 55 -226 0
57 68 69 67 63 -227 0
57 68 69 67 63 -225 0
57 68 69 67 63 -228 0
57 68 69 67 63 -226 0
57 4 59 56 55 -62 0
57 4 59 56 55 -58 0
57 4 59 56 55 -61 0
57 4 59 56 55 -60 0
57 4 2 1 5 -62 0
57 4 2 1 5 -58 0
57 4 2 1 5 -61 0
57 4 2 1 5 -60 0
57 38 59 56 55 -179 0
57 38 59 56 55 -182 0
57 38 59 56 55 -181 0
57 38 59 56 55 -180 0
57 13 59 56 55 -102 0
57 13 59 56 55 -101 0
57 13 59 56 55 -103 0
57 13 59 56 55 -104 0
57 26 59 56 55 -159 0
57 26 59 56 55 -157 0
57 26 59 56 55 -160 0
57 26 59 56 55 -158 0
57 59 48 56 55 -211 0
57 59 48 56 55 -214 0
57 59 48 56 55 -212 0
57 59 48 56 55 -213 0
57 59 21 56 55 -131 0
57 59 21 56 55 -134 0
57 59 21 56 55 -133 0
57 59 21 56 55 -132 0
57 59 45 56 55 -200 0
57 59 45 56 55 -198 0
57 59 45 56 55 -197 0
57 59 45 56 55 -199 0
57 59 72 56 55 -230 0
57 59 72 56 55 -229 0
57 59 72 56 55 -232 0
57 59 72 56 55 -231 0
57 59 69 56 55 -227 0
57 59 69 56 55 -225 0
57 59 69 56 55 -228 0
57 59 69 56 55 -226 0
57 59 2 56 55 -62 0
57 59 2 56 55 -58 0
57 59 2 56 55 -61 0
57 59 2 56 55 -60 0
57 59 34 56 55 -179 0
57 59 34 56 55 -182 0
57 59 34 56 55 -181 0
57 59 34 56 55 -180 0
57 59 14 56 55 -102 0
57 59 14 56 55 -101 0
57 59 14 56 55 -103 0
57 59 14 56 55 -104 0
57 59 30 56 55 -159 0
57 59 30 56 55 -157 0
57 59 30 56 55 -160 0
57 59 30 56 55 -158 0
57 59 56 54 55 -211 0
57 59 56 54 55 -214 0
57 59 56 54 55 -212 0
57 59 56 54 55 -213 0
57 59 56 20 55 -131 0
57 59 56 20 55 -134 0
57 59 56 20 55 -133 0
57 59 56 20 55 -132 0
57 59 56 42 55 -200 0
57 59 56 42 55 -198 0
57 59 56 42 55 -197 0
57 59 56 42 55 -199 0
57 59 56 73 55 -230 0
57 59 56 73 55 -229 0
57 59 56 73 55 -232 0
57 59 56 73 55 -231 0
57 59 56 67 55 -227 0
57 59 56 67 55 -225 0
57 59 56 67 55 -228 0
57 59 56 67 55 -226 0
57 59 56 1 55 -62 0
57 59 56 1 55 -58 0
57 59 56 1 55 -61 0
57 59 56 1 55 -60 0
57 59 56 33 55 -179 0
57 59 56 33 55 -182 0
57 59 56 33 55 -181 0
57 59 56 33 55 -180 0
57 59 56 12 55 -102 0
57 59 56 12 55 -101 0
57 59 56 12 55 -103 0
57 59 56 12 55 -104 0
57 59 56 25 55 -159 0
57 59 56 25 55 -157 0
57 59 56 25 55 -160 0
57 59 56 25 55 -158 0
57 59 56 55 50 -211 0
57 59 56 55 50 -214 0
57 59 56 55 50 -212 0
57 59 56 55 50 -213 0
57 59 56 55 18 -131 0
57 59 56 55 18 -134 0
57 59 56 55 18 -133 0
57 59 56 55 18 -132 0
57 59 56 55 41 -200 0
57 59 56 55 41 -198 0
57 59 56 55 41 -197 0
57 59 56 55 41 -199 0
57 59 56 55 78 -230 0
57 59 56 55 78 -229 0
57 59 56 55 78 -232 0
57 59 56 55 78 -231 0
57 59 56 55 63 -227 0
57 59 56 55 63 -225 0
57 59 56 55 63 -228 0
57 59 56 55 63 -226 0
57 59 56 55 5 -62 0
57 59 56 55 5 -58 0
57 59 56 55 5 -61 0
57 59 56 55 5 -60 0
47 15 48 54 50 -128 0
47 15 48 54 50 -129 0
47 15 48 54 50 -127 0
47 15 48 54 50 -130 0
47 15 21 20 18 -128 0
47 15 21 20 18 -129 0
47 15 21 20 18 -127 0
47 15 21 20 18 -130 0
47 46 48 54 50 -195 0
47 46 48 54 50 -193 0
47 46 48 54 50 -196 0
47 46 48 54 50 -194 0
47 46 45 42 41 -195 0
47 46 45 42 41 -193 0
47 46 45 42 41 -196 0
47 46 45 42 41 -194 0
47 75 48 54 50 -219 0
47 75 48 54 50 -220 0
47 75 48 54 50 -221 0
47 75 48 54 50 -222 0
47 75 72 73 78 -219 0
47 75 72 73 78 -220 0
47 75 72 73 78 -221 0
47 75 72 73 78 -222 0
47 68 48 54 50 -217 0
47 68 48 54 50 -216 0
47 68 48 54 50 -215 0
47 68 48 54 50 -218 0
47 68 69 67 63 -217 0
47 68 69 67 63 -216 0
47 68 69 67 63 -215 0
47 68 69 67 63 -218 0
47 4 48 54 50 -51 0
47 4 48 54 50 -53 0
47 4 48 54 50 -52 0
47 4 48 54 50 -49 0
47 4 2 1 5 -51 0
47 4 2 1 5 -53 0
47 4 2 1 5 -52 0
47 4 2 1 5 -49 0
47 38 48 54 50 -176 0
47 38 48 54 50 -178 0
47 38 48 54 50 -177 0
47 38 48 54 50 -175 0
47 13 48 54 50 -99 0
47 13 48 54 50 -97 0
47 13 48 54 50 -100 0
47 13 48 54 50 -98 0
47 26 48 54 50 -155 0
47 26 48 54 50 -153 0
47 26 48 54 50 -156 0
47 26 48 54 50 -154 0
47 59 48 54 50 -211 0
47 59 48 54 50 -214 0
47 59 48 54 50 -212 0
47 59 48 54 50 -213 0
47 48 21 54 50 -128 0
47 48 21 54 50 -129 0
47 48 21 54 50 -127 0
47 48 21 54 50 -130 0
47 48 45 54 50 -195 0
47 48 45 54 50 -193 0
47 48 45 54 50 -196 0
47 48 45 54 50 -194 0
47 48 72 54 50 -219 0
47 48 72 54 50 -220 0
47 48 72 54 50 -221 0
47 48 72 54 50 -222 0
47 48 69 54 50 -217 0
47 48 69 54 50 -216 0
47 48 69 54 50 -215 0
47 48 69 54 50 -218 0
47 48 2 54 50 -51 0
47 48 2 54 50 -53 0
47 48 2 54 50 -52 0
47 48 2 54 50 -49 0
47 48 34 54 50 -176 0
47 48 34 54 50 -178 0
47 48 34 54 50 -177 0
47 48 34 54 50 -175 0
47 48 14 54 50 -99 0
47 48 14 54 50 -97 0
47 48 14 54 50 -100 0
47 48 14 54 50 -98 0
47 48 30 54 50 -155 0
47 48 30 54 50 -153 0
47 48 30 54 50 -156 0
47 48 30 54 50 -154 0
47 48 56 54 50 -211 0
47 48 56 54 50 -214 0
47 48 56 54 50 -212 0
47 48 56 54 50 -213 0
47 48 54 20 50 -128 0
47 48 54 20 50 -129 0
47 48 54 20 50 -127 0
47 48 54 20 50 -130 0
47 48 54 42 50 -195 0
47 48 54 42 50 -193 0
47 48 54 42 50 -196 0
47 48 54 42 50 -194 0
47 48 54 73 50 -219 0
47 48 54 73 50 -220 0
47 48 54 73 50 -221 0
47 48 54 73 50 -222 0
47 48 54 67 50 -217 0
47 48 54 67 50 -216 0
47 48 54 67 50 -215 0
47 48 54 67 50 -218 0
47 48 54 1 50 -51 0
47 48 54 1 50 -53 0
47 48 54 1 50 -52 0
47 48 54 1 50 -49 0
47 48 54 33 50 -176 0
47 48 54 33 50 -178 0
47 48 54 33 50 -177 0
47 48 54 33 50 -175 0
47 48 54 12 50 -99 0
47 48 54 12 50 -97 0
47 48 54 12 50 -100 0
47 48 54 12 50 -98 0
47 48 54 25 50 -155 0
47 48 54 25 50 -153 0
47 48 54 25 50 -156 0
47 48 54 25 50 -154 0
47 48 54 55 50 -211 0
47 48 54 55 50 -214 0
47 48 54 55 50 -212 0
47 48 54 55 50 -213 0
47 48 54 50 18 -128 0
47 48 54 50 18 -129 0
47 48 54 50 18 -127 0
47 48 54 50 18 -130 0
47 48 54 50 41 -195 0
47 48 54 50 41 -193 0
47 48 54 50 41 -196 0
47 48 54 50 41 -194 0
47 48 54 50 78 -219 0
47 48 54 50 78 -220 0
47 48 54 50 78 -221 0
47 48 54 50 78 -222 0
47 48 54 50 63 -217 0
47 48 54 50 63 -216 0
47 48 54 50 63 -215 0
47 48 54 50 63 -218 0
47 48 54 50 5 -51 0
47 48 54 50 5 -53 0
47 48 54 50 5 -52 0
47 48 54 50 5 -49 0
15 46 21 20 18 -123 0
15 46 21 20 18 -125 0
15 46 21 20 18 -124 0
15 46 21 20 18 -126 0
15 46 45 42 41 -123 0
15 46 45 42 41 -125 0
15 46 45 42 41 -124 0
15 46 45 42 41 -126 0
15 75 21 20 18 -140 0
15 75 21 20 18 -141 0
15 75 21 20 18 -142 0
15 75 21 20 18 -139 0
15 75 72 73 78 -140 0
15 75 72 73 78 -141 0
15 75 72 73 78 -142 0
15 75 72 73 78 -139 0
15 68 21 20 18 -136 0
15 68 21 20 18 -135 0
15 68 21 20 18 -137 0
15 68 21 20 18 -138 0
15 68 69 67 63 -136 0
15 68 69 67 63 -135 0
15 68 69 67 63 -137 0
15 68 69 67 63 -138 0
15 4 21 20 18 -16 0
15 4 21 20 18 -19 0
15 4 21 20 18 -17 0
15 4 21 20 18 -22 0
15 4 2 1 5 -16 0
15 4 2 1 5 -19 0
15 4 2 1 5 -17 0
15 4 2 1 5 -22 0
15 38 21 20 18 -119 0
15 38 21 20 18 -120 0
15 38 21 20 18 -121 0
15 38 21 20 18 -122 0
15 13 21 20 18 -81 0
15 13 21 20 18 -83 0
15 13 21 20 18 -82 0
15 13 21 20 18 -84 0
15 26 21 20 18 -115 0
15 26 21 20 18 -116 0
15 26 21 20 18 -117 0
15 26 21 20 18 -118 0
15 59 21 20 18 -131 0
15 59 21 20 18 -134 0
15 59 21 20 18 -133 0
15 59 21 20 18 -132 0
15 48 21 20 18 -128 0
15 48 21 20 18 -129 0
15 48 21 20 18 -127 0
15 48 21 20 18 -130 0
15 21 45 20 18 -123 0
15 21 45 20 18 -125 0
15 21 45 20 18 -124 0
15 21 45 20 18 -126 0
15 21 72 20 18 -140 0
15 21 72 20 18 -141 0
15 21 72 20 18 -142 0
15 21 72 20 18 -139 0
15 21 69 20 18 -136 0
15 21 69 20 18 -135 0
15 21 69 20 18 -137 0
15 21 69 20 18 -138 0
15 21 2 20 18 -16 0
15 21 2 20 18 -19 0
15 21 2 20 18 -17 0
15 21 2 20 18 -22 0
15 21 34 20 18 -119 0
15 21 34 20 18 -120 0
15 21 34 20 18 -121 0
15 21 34 20 18 -122 0
15 21 14 20 18 -81 0
15 21 14 20 18 -83 0
15 21 14 20 18 -82 0
15 21 14 20 18 -84 0
15 21 30 20 18 -115 0
15 21 30 20 18 -116 0
15 21 30 20 18 -117 0
15 21 30 20 18 -118 0
15 21 56 20 18 -131 0
15 21 56 20 18 -134 0
15 21 56 20 18 -133 0
15 21 56 20 18 -132 0
15 21 54 20 18 -128 0
15 21 54 20 18 -129 0
15 21 54 20 18 -127 0
15 21 54 20 18 -130 0
15 21 20 42 18 -123 0
15 21 20 42 18 -125 0
15 21 20 42 18 -124 0
15 21 20 42 18 -126 0
15 21 20 73 18 -140 0
15 21 20 73 18 -141 0
15 21 20 73 18 -142 0
15 21 20 73 18 -139 0
15 21 20 67 18 -136 0
15 21 20 67 18 -135 0
15 21 20 67 18 -137 0
15 21 20 67 18 -138 0
15 21 20 1 18 -16 0
15 21 20 1 18 -19 0
15 21 20 1 18 -17 0
15 21 20 1 18 -22 0
15 21 20 33 18 -119 0
15 21 20 33 18 -120 0
15 21 20 33 18 -121 0
15 21 20 33 18 -122 0
15 21 20 12 18 -81 0
15 21 20 12 18 -83 0
15 21 20 12 18 -82 0
15 21 20 12 18 -84 0
15 21 20 25 18 -115 0
15 21 20 25 18 -116 0
15 21 20 25 18 -117 0
15 21 20 25 18 -118 0
15 21 20 55 18 -131 0
15 21 20 55 18 -134 0
15 21 20 55 18 -133 0
15 21 20 55 18 -132 0
15 21 20 50 18 -128 0
15 21 20 50 18 -129 0
15 21 20 50 18 -127 0
15 21 20 50 18 -130 0
15 21 20 18 41 -123 0
15 21 20 18 41 -125 0
15 21 20 18 41 -124 0
15 21 20 18 41 -126 0
15 21 20 18 78 -140 0
15 21 20 18 78 -141 0
15 21 20 18 78 -142 0
15 21 20 18 78 -139 0
15 21 20 18 63 -136 0
15 21 20 18 63 -135 0
15 21 20 18 63 -137 0
15 21 20 18 63 -138 0
15 21 20 18 5 -16 0
15 21 20 18 5 -19 0
15 21 20 18 5 -17 0
15 21 20 18 5 -22 0
46 75 45 42 41 -206 0
46 75 45 42 41 -207 0
46 75 45 42 41 -208 0
46 75 45 42 41 -205 0
46 75 72 73 78 -206 0
46 75 72 73 78 -207 0
46 75 72 73 78 -208 0
46 75 72 73 78 -205 0
46 68 45 42 41 -202 0
46 68 45 42 41 -201 0
46 68 45 42 41 -204 0
46 68 45 42 41 -203 0
46 68 69 67 63 -202 0
46 68 69 67 63 -201 0
46 68 69 67 63 -204 0
46 68 69 67 63 -203 0
46 4 45 42 41 -39 0
46 4 45 42 41 -40 0
46 4 45 42 41 -43 0
46 4 45 42 41 -44 0
46 4 2 1 5 -39 0
46 4 2 1 5 -40 0
46 4 2 1 5 -43 0
46 4 2 1 5 -44 0
46 38 45 42 41 -173 0
46 38 45 42 41 -171 0
46 38 45 42 41 -174 0
46 38 45 42 41 -172 0
46 13 45 42 41 -93 0
46 13 45 42 41 -96 0
46 13 45 42 41 -94 0
46 13 45 42 41 -95 0
46 26 45 42 41 -151 0
46 26 45 42 41 -152 0
46 26 45 42 41 -149 0
46 26 45 42 41 -150 0
46 59 45 42 41 -200 0
46 59 45 42 41 -198 0
46 59 45 42 41 -197 0
46 59 45 42 41 -199 0
46 48 45 42 41 -195 0
46 48 45 42 41 -193 0
46 48 45 42 41 -196 0
46 48 45 42 41 -194 0
46 21 45 42 41 -123 0
46 21 45 42 41 -125 0
46 21 45 42 41 -124 0
46 21 45 42 41 -126 0
46 45 72 42 41 -206 0
46 45 72 42 41 -207 0
46 45 72 42 41 -208 0
46 45 72 42 41 -205 0
46 45 69 42 41 -202 0
46 45 69 42 41 -201 0
46 45 69 42 41 -204 0
46 45 69 42 41 -203 0
46 45 2 42 41 -39 0
46 45 2 42 41 -40 0
46 45 2 42 41 -43 0
46 45 2 42 41 -44 0
46 45 34 42 41 -173 0
46 45 34 42 41 -171 0
46 45 34 42 41 -174 0
46 45 34 42 41 -172 0
46 45 14 42 41 -93 0
46 45 14 42 41 -96 0
46 45 14 42 41 -94 0
46 45 14 42 41 -95 0
46 45 30 42 41 -151 0
46 45 30 42 41 -152 0
46 45 30 42 41 -149 0
46 45 30 42 41 -150 0
46 45 56 42 41 -200 0
46 45 56 42 41 -198 0
46 45 56 42 41 -197 0
46 45 56 42 41 -199 0
46 45 54 42 41 -195 0
46 45 54 42 41 -193 0
46 45 54 42 41 -196 0
46 45 54 42 41 -194 0
46 45 20 42 41 -123 0
46 45 20 42 41 -125 0
46 45 20 42 41 -124 0
46 45 20 42 41 -126 0
46 45 42 73 41 -206 0
46 45 42 73 41 -207 0
46 45 42 73 41 -208 0
46 45 42 73 41 -205 0
46 45 42 67 41 -202 0
46 45 42 67 41 -201 0
46 45 42 67 41 -204 0
46 45 42 67 41 -203 0
46 45 42 1 41 -39 0
46 45 42 1 41 -40 0
46 45 42 1 41 -43 0
46 45 42 1 41 -44 0
46 45 42 33 41 -173 0
46 45 42 33 41 -171 0
46 45 42 33 41 -174 0
46 45 42 33 41 -172 0
46 45 42 12 41 -93 0
46 45 42 12 41 -96 0
46 45 42 12 41 -94 0
46 45 42 12 41 -95 0
46 45 42 25 41 -151 0
46 45 42 25 41 -152 0
46 45 42 25 41 -149 0
46 45 42 25 41 -150 0
46 45 42 55 41 -200 0
46 45 42 55 41 -198 0
46 45 42 55 41 -197 0
46 45 42 55 41 -199 0
46 45 42 50 41 -195 0
46 45 42 50 41 -193 0
46 45 42 50 41 -196 0
46 45 42 50 41 -194 0
46 45 42 18 41 -123 0
46 45 42 18 41 -125 0
46 45 42 18 41 -124 0
46 45 42 18 41 -126 0
46 45 42 41 78 -206 0
46 45 42 41 78 -207 0
46 45 42 41 78 -208 0
46 45 42 41 78 -205 0
46 45 42 41 63 -202 0
46 45 42 41 63 -201 0
46 45 42 41 63 -204 0
46 45 42 41 63 -203 0
46 45 42 41 5 -39 0
46 45 42 41 5 -40 0
46 45 42 41 5 -43 0
46 45 42 41 5 -44 0
75 68 72 73 78 -237 0
75 68 72 73 78 -235 0
75 68 72 73 78 -238 0
75 68 72 73 78 -236 0
75 68 69 67 63 -237 0
75 68 69 67 63 -235 0
75 68 69 67 63 -238 0
75 68 69 67 63 -236 0
75 4 72 73 78 -76 0
75 4 72 73 78 -77 0
75 4 72 73 78 -74 0
75 4 72 73 78 -71 0
75 4 2 1 5 -76 0
75 4 2 1 5 -77 0
75 4 2 1 5 -74 0
75 4 2 1 5 -71 0
75 38 72 73 78 -188 0
75 38 72 73 78 -190 0
75 38 72 73 78 -189 0
75 38 72 73 78 -187 0
75 13 72 73 78 -109 0
75 13 72 73 78 -110 0
75 13 72 73 78 -112 0
75 13 72 73 78 -111 0
75 26 72 73 78 -167 0
75 26 72 73 78 -166 0
75 26 72 73 78 -165 0
75 26 72 73 78 -168 0
75 59 72 73 78 -230 0
75 59 72 73 78 -229 0
75 59 72 73 78 -232 0
75 59 72 73 78 -231 0
75 48 72 73 78 -219 0
75 48 72 73 78 -220 0
75 48 72 73 78 -221 0
75 48 72 73 78 -222 0
75 21 72 73 78 -140 0
75 21 72 73 78 -141 0
75 21 72 73 78 -142 0
75 21 72 73 78 -139 0
75 45 72 73 78 -206 0
75 45 72 73 78 -207 0
75 45 72 73 78 -208 0
75 45 72 73 78 -205 0
75 72 69 73 78 -237 0
75 72 69 73 78 -235 0
75 72 69 73 78 -238 0
75 72 69 73 78 -236 0
75 72 2 73 78 -76 0
75 72 2 73 78 -77 0
75 72 2 73 78 -74 0
75 72 2 73 78 -71 0
75 72 34 73 78 -188 0
75 72 34 73 78 -190 0
75 72 34 73 78 -189 0
75 72 34 73 78 -187 0
75 72 14 73 78 -109 0
75 72 14 73 78 -110 0
75 72 14 73 78 -112 0
75 72 14 73 78 -111 0
75 72 30 73 78 -167 0
75 72 30 73 78 -166 0
75 72 30 73 78 -165 0
75 72 30 73 78 -168 0
75 72 56 73 78 -230 0
75 72 56 73 78 -229 0
75 72 56 73 78 -232 0
75 72 56 73 78 -231 0
75 72 54 73 78 -219 0
75 72 54 73 78 -220 0
75 72 54 73 78 -221 0
75 72 54 73 78 -222 0
75 72 20 73 78 -140 0
75 72 20 73 78 -141 0
75 72 20 73 78 -142 0
75 72 20 73 78 -139 0
75 72 42 73 78 -206 0
75 72 42 73 78 -207 0
75 72 42 73 78 -208 0
75 72 42 73 78 -205 0
75 72 73 67 78 -237 0
75 72 73 67 78 -235 0
75 72 73 67 78 -238 0
75 72 73 67 78 -236 0
75 72 73 1 78 -76 0
75 72 73 1 78 -77 0
75 72 73 1 78 -74 0
75 72 73 1 78 -71 0
75 72 73 33 78 -188 0
75 72 73 33 78 -190 0
75 72 73 33 78 -189 0
75 72 73 33 78 -187 0
75 72 73 12 78 -109 0
75 72 73 12 78 -110 0
75 72 73 12 78 -112 0
75 72 73 12 78 -111 0
75 72 73 25 78 -167 0
75 72 73 25 78 -166 0
75 72 73 25 78 -165 0
75 72 73 25 78 -168 0
75 72 73 55 78 -230 0
75 72 73 55 78 -229 0
75 72 73 55 78 -232 0
75 72 73 55 78 -231 0
75 72 73 50 78 -219 0
75 72 73 50 78 -220 0
75 72 73 50 78 -221 0
75 72 73 50 78 -222 0
75 72 73 18 78 -140 0
75 72 73 18 78 -141 0
75 72 73 18 78 -142 0
75 72 73 18 78 -139 0
75 72 73 41 78 -206 0
75 72 73 41 78 -207 0
75 72 73 41 78 -208 0
75 72 73 41 78 -205 0
75 72 73 78 63 -237 0
75 72 73 78 63 -235 0
75 72 73 78 63 -238 0
75 72 73 78 63 -236 0
75 72 73 78 5 -76 0
75 72 73 78 5 -77 0
75 72 73 78 5 -74 0
75 72 73 78 5 -71 0
68 4 69 67 63 -64 0
68 4 69 67 63 -66 0
68 4 69 67 63 -65 0
68 4 69 67 63 -70 0
68 4 2 1 5 -64 0
68 4 2 1 5 -66 0
68 4 2 1 5 -65 0
68 4 2 1 5 -70 0
68 38 69 67 63 -183 0
68 38 69 67 63 -184 0
68 38 69 67 63 -185 0
68 38 69 67 63 -186 0
68 13 69 67 63 -107 0
68 13 69 67 63 -108 0
68 13 69 67 63 -106 0
68 13 69 67 63 -105 0
68 26 69 67 63 -161 0
68 26 69 67 63 -163 0
68 26 69 67 63 -162 0
68 26 69 67 63 -164 0
68 59 69 67 63 -227 0
68 59 69 67 63 -225 0
68 59 69 67 63 -228 0
68 59 69 67 63 -226 0
68 48 69 67 63 -217 0
68 48 69 67 63 -216 0
68 48 69 67 63 -215 0
68 48 69 67 63 -218 0
68 21 69 67 63 -136 0
68 21 69 67 63 -135 0
68 21 69 67 63 -137 0
68 21 69 67 63 -138 0
68 45 69 67 63 -202 0
68 45 69 67 63 -201 0
68 45 69 67 63 -204 0
68 45 69 67 63 -203 0
68 72 69 67 63 -237 0
68 72 69 67 63 -235 0
68 72 69 67 63 -238 0
68 72 69 67 63 -236 0
68 69 2 67 63 -64 0
68 69 2 67 63 -66 0
68 69 2 67 63 -65 0
68 69 2 67 63 -70 0
68 69 34 67 63 -183 0
68 69 34 67 63 -184 0
68 69 34 67 63 -185 0
68 69 34 67 63 -186 0
68 69 14 67 63 -107 0
68 69 14 67 63 -108 0
68 69 14 67 63 -106 0
68 69 14 67 63 -105 0
68 69 30 67 63 -161 0
68 69 30 67 63 -163 0
68 69 30 67 63 -162 0
68 69 30 67 63 -164 0
68 69 56 67 63 -227 0
68 69 56 67 63 -225 0
68 69 56 67 63 -228 0
68 69 56 67 63 -226 0
68 69 54 67 63 -217 0
68 69 54 67 63 -216 0
68 69 54 67 63 -215 0
68 69 54 67 63 -218 0
68 69 20 67 63 -136 0
68 69 20 67 63 -135 0
68 69 20 67 63 -137 0
68 69 20 67 63 -138 0
68 69 42 67 63 -202 0
68 69 42 67 63 -201 0
68 69 42 67 63 -204 0
68 69 42 67 63 -203 0
68 69 73 67 63 -237 0
68 69 73 67 63 -235 0
68 69 73 67 63 -238 0
68 69 73 67 63 -236 0
68 69 67 1 63 -64 0
68 69 67 1 63 -66 0
68 69 67 1 63 -65 0
68 69 67 1 63 -70 0
68 69 67 33 63 -183 0
68 69 67 33 63 -184 0
68 69 67 33 63 -185 0
68 69 67 33 63 -186 0
68 69 67 12 63 -107 0
68 69 67 12 63 -108 0
68 69 67 12 63 -106 0
68 69 67 12 63 -105 0
68 69 67 25 63 -161 0
68 69 67 25 63 -163 0
68 69 67 25 63 -162 0
68 69 67 25 63 -164 0
68 69 67 55 63 -227 0
68 69 67 55 63 -225 0
68 69 67 55 63 -228 0
68 69 67 55 63 -226 0
68 69 67 50 63 -217 0
68 69 67 50 63 -216 0
68 69 67 50 63 -215 0
68 69 67 50 63 -218 0
68 69 67 18 63 -136 0
68 69 67 18 63 -135 0
68 69 67 18 63 -137 0
68 69 67 18 63 -138 0
68 69 67 41 63 -202 0
68 69 67 41 63 -201 0
68 69 67 41 63 -204 0
68 69 67 41 63 -203 0
68 69 67 78 63 -237 0
68 69 67 78 63 -235 0
68 69 67 78 63 -238 0
68 69 67 78 63 -236 0
68 69 67 63 5 -64 0
68 69 67 63 5 -66 0
68 69 67 63 5 -65 0
68 69 67 63 5 -70 0
4 38 2 1 5 -31 0
4 38 2 1 5 -35 0
4 38 2 1 5 -32 0
4 38 2 1 5 -36 0
4 13 2 1 5 -7 0
4 13 2 1 5 -8 0
4 13 2 1 5 -9 0
4 13 2 1 5 -11 0
4 26 2 1 5 -28 0
4 26 2 1 5 -24 0
4 26 2 1 5 -27 0
4 26 2 1 5 -29 0
4 59 2 1 5 -62 0
4 59 2 1 5 -58 0
4 59 2 1 5 -61 0
4 59 2 1 5 -60 0
4 48 2 1 5 -51 0
4 48 2 1 5 -53 0
4 48 2 1 5 -52 0
4 48 2 1 5 -49 0
4 21 2 1 5 -16 0
4 21 2 1 5 -19 0
4 21 2 1 5 -17 0
4 21 2 1 5 -22 0
4 45 2 1 5 -39 0
4 45 2 1 5 -40 0
4 45 2 1 5 -43 0
4 45 2 1 5 -44 0
4 72 2 1 5 -76 0
4 72 2 1 5 -77 0
4 72 2 1 5 -74 0
4 72 2 1 5 -71 0
4 69 2 1 5 -64 0
4 69 2 1 5 -66 0
4 69 2 1 5 -65 0
4 69 2 1 5 -70 0
4 2 34 1 5 -31 0
4 2 34 1 5 -35 0
4 2 34 1 5 -32 0
4 2 34 1 5 -36 0
4 2 14 1 5 -7 0
4 2 14 1 5 -8 0
4 2 14 1 5 -9 0
4 2 14 1 5 -11 0
4 2 30 1 5 -28 0
4 2 30 1 5 -24 0
4 2 30 1 5 -27 0
4 2 30 1 5 -29 0
4 2 56 1 5 -62 0
4 2 56 1 5 -58 0
4 2 56 1 5 -61 0
4 2 56 1 5 -60 0
4 2 54 1 5 -51 0
4 2 54 1 5 -53 0
4 2 54 1 5 -52 0
4 2 54 1 5 -49 0
4 2 20 1 5 -16 0
4 2 20 1 5 -19 0
4 2 20 1 5 -17 0
4 2 20 1 5 -22 0
4 2 42 1 5 -39 0
4 2 42 1 5 -40 0
4 2 42 1 5 -43 0
4 2 42 1 5 -44 0
4 2 73 1 5 -76 0
4 2 73 1 5 -77 0
4 2 73 1 5 -74 0
4 2 73 1 5 -71 0
4 2 67 1 5 -64 0
4 2 67 1 5 -66 0
4 2 67 1 5 -65 0
4 2 67 1 5 -70 0
4 2 1 33 5 -31 0
4 2 1 33 5 -35 0
4 2 1 33 5 -32 0
4 2 1 33 5 -36 0
4 2 1 12 5 -7 0
4 2 1 12 5 -8 0
4 2 1 12 5 -9 0
4 2 1 12 5 -11 0
4 2 1 25 5 -28 0
4 2 1 25 5 -24 0
4 2 1 25 5 -27 0
4 2 1 25 5 -29 0
4 2 1 55 5 -62 0
4 2 1 55 5 -58 0
4 2 1 55 5 -61 0
4 2 1 55 5 -60 0
4 2 1 50 5 -51 0
4 2 1 50 5 -53 0
4 2 1 50 5 -52 0
4 2 1 50 5 -49 0
4 2 1 18 5 -16 0
4 2 1 18 5 -19 0
4 2 1 18 5 -17 0
4 2 1 18 5 -22 0
4 2 1 41 5 -39 0
4 2 1 41 5 -40 0
4 2 1 41 5 -43 0
4 2 1 41 5 -44 0
4 2 1 78 5 -76 0
4 2 1 78 5 -77 0
4 2 1 78 5 -74 0
4 2 1 78 5 -71 0
4 2 1 63 5 -64 0
4 2 1 63 5 -66 0
4 2 1 63 5 -65 0
4 2 1 63 5 -70 0
37 10 38 13 34 14 -89 0
37 10 38 13 34 14 -91 0
37 10 38 13 34 14 -90 0
37 10 38 13 34 14 -92 0
37 10 38 13 34 33 -89 0
37 10 38 13 34 33 -91 0
37 10 38 13 34 33 -90 0
37 10 38 13 34 33 -92 0
37 10 38 13 14 12 -89 0
37 10 38 13 14 12 -91 0
37 10 38 13 14 12 -90 0
37 10 38 13 14 12 -92 0
37 10 38 13 33 12 -89 0
37 10 38 13 33 12 -91 0
37 10 38 13 33 12 -90 0
37 10 38 13 33 12 -92 0
37 10 38 34 14 33 -89 0
37 10 38 34 14 33 -91 0
37 10 38 34 14 33 -90 0
37 10 38 34 14 33 -92 0
37 10 38 34 33 12 -89 0
37 10 38 34 33 12 -91 0
37 10 38 34 33 12 -90 0
37 10 38 34 33 12 -92 0
37 10 13 34 14 12 -89 0
37 10 13 34 14 12 -91 0
37 10 13 34 14 12 -90 0
37 10 13 34 14 12 -92 0
37 10 13 14 33 12 -89 0
37 10 13 14 33 12 -91 0
37 10 13 14 33 12 -90 0
37 10 13 14 33 12 -92 0
37 10 34 14 33 12 -89 0
37 10 34 14 33 12 -91 0
37 10 34 14 33 12 -90 0
37 10 34 14 33 12 -92 0
37 23 38 26 34 30 -148 0
37 23 38 26 34 30 -145 0
37 23 38 26 34 30 -146 0
37 23 38 26 34 30 -147 0
37 23 38 26 34 33 -148 0
37 23 38 26 34 33 -145 0
37 23 38 26 34 33 -146 0
37 23 38 26 34 33 -147 0
37 23 38 26 30 25 -148 0
37 23 38 26 30 25 -145 0
37 23 38 26 30 25 -146 0
37 23 38 26 30 25 -147 0
37 23 38 26 33 25 -148 0
37 23 38 26 33 25 -145 0
37 23 38 26 33 25 -146 0
37 23 38 26 33 25 -147 0
37 23 38 34 30 33 -148 0
37 23 38 34 30 33 -145 0
37 23 38 34 30 33 -146 0
37 23 38 34 30 33 -147 0
37 23 38 34 33 25 -148 0
37 23 38 34 33 25 -145 0
37 23 38 34 33 25 -146 0
37 23 38 34 33 25 -147 0
37 23 26 34 30 25 -148 0
37 23 26 34 30 25 -145 0
37 23 26 34 30 25 -146 0
37 23 26 34 30 25 -147 0
37 23 26 30 33 25 -148 0
37 23 26 30 33 25 -145 0
37 23 26 30 33 25 -146 0
37 23 26 30 33 25 -147 0
37 23 34 30 33 25 -148 0
37 23 34 30 33 25 -145 0
37 23 34 30 33 25 -146 0
37 23 34 30 33 25 -147 0
37 57 38 59 34 56 -179 0
37 57 38 59 34 56 -182 0
37 57 38 59 34 56 -181 0
37 57 38 59 34 56 -180 0
37 57 38 59 34 33 -179 0
37 57 38 59 34 33 -182 0
37 57 38 59 34 33 -181 0
37 57 38 59 34 33 -180 0
37 57 38 59 56 55 -179 0
37 57 38 59 56 55 -182 0
37 57 38 59 56 55 -181 0
37 57 38 59 56 55 -180 0
37 57 38 59 33 55 -179 0
37 57 38 59 33 55 -182 0
37 57 38 59 33 55 -181 0
37 57 38 59 33 55 -180 0
37 57 38 34 56 33 -179 0
37 57 38 34 56 33 -182 0
37 57 38 34 56 33 -181 0
37 57 38 34 56 33 -180 0
37 57 38 34 33 55 -179 0
37 57 38 34 33 55 -182 0
37 57 38 34 33 55 -181 0
37 57 38 34 33 55 -180 0
37 57 59 34 56 55 -179 0
37 57 59 34 56 55 -182 0
37 57 59 34 56 55 -181 0
37 57 59 34 56 55 -180 0
37 57 59 56 33 55 -179 0
37 57 59 56 33 55 -182 0
37 57 59 56 33 55 -181 0
37 57 59 56 33 55 -180 0
37 57 34 56 33 55 -179 0
37 57 34 56 33 55 -182 0
37 57 34 56 33 55 -181 0
37 57 34 56 33 55 -180 0
37 47 38 48 34 54 -176 0
37 47 38 48 34 54 -178 0
37 47 38 48 34 54 -177 0
37 47 38 48 34 54 -175 0
37 47 38 48 34 33 -176 0
37 47 38 48 34 33 -178 0
37 47 38 48 34 33 -177 0
37 47 38 48 34 33 -175 0
37 47 38 48 54 50 -176 0
37 47 38 48 54 50 -178 0
37 47 38 48 54 50 -177 0
37 47 38 48 54 50 -175 0
37 47 38 48 33 50 -176 0
37 47 38 48 33 50 -178 0
37 47 38 48 33 50 -177 0
37 47 38 48 33 50 -175 0
37 47 38 34 54 33 -176 0
37 47 38 34 54 33 -178 0
37 47 38 34 54 33 -177 0
37 47 38 34 54 33 -175 0
37 47 38 34 33 50 -176 0
37 47 38 34 33 50 -178 0
37 47 38 34 33 50 -177 0
37 47 38 34 33 50 -175 0
37 47 48 34 54 50 -176 0
37 47 48 34 54 50 -178 0
37 47 48 34 54 50 -177 0
37 47 48 34 54 50 -175 0
37 47 48 54 33 50 -176 0
37 47 48 54 33 50 -178 0
37 47 48 54 33 50 -177 0
37 47 48 54 33 50 -175 0
37 47 34 54 33 50 -176 0
37 47 34 54 33 50 -178 0
37 47 34 54 33 50 -177 0
37 47 34 54 33 50 -175 0
37 15 38 21 34 20 -119 0
37 15 38 21 34 20 -120 0
37 15 38 21 34 20 -121 0
37 15 38 21 34 20 -122 0
37 15 38 21 34 33 -119 0
37 15 38 21 34 33 -120 0
37 15 38 21 34 33 -121 0
37 15 38 21 34 33 -122 0
37 15 38 21 20 18 -119 0
37 15 38 21 20 18 -120 0
37 15 38 21 20 18 -121 0
37 15 38 21 20 18 -122 0
37 15 38 21 33 18 -119 0
37 15 38 21 33 18 -120 0
37 15 38 21 33 18 -121 0
37 15 38 21 33 18 -122 0
37 15 38 34 20 33 -119 0
37 15 38 34 20 33 -120 0
37 15 38 34 20 33 -121 0
37 15 38 34 20 33 -122 0
37 15 38 34 33 18 -119 0
37 15 38 34 33 18 -120 0
37 15 38 34 33 18 -121 0
37 15 38 34 33 18 -122 0
37 15 21 34 20 18 -119 0
37 15 21 34 20 18 -120 0
37 15 21 34 20 18 -121 0
37 15 21 34 20 18 -122 0
37 15 21 20 33 18 -119 0
37 15 21 20 33 18 -120 0
37 15 21 20 33 18 -121 0
37 15 21 20 33 18 -122 0
37 15 34 20 33 18 -119 0
37 15 34 20 33 18 -120 0
37 15 34 20 33 18 -121 0
37 15 34 20 33 18 -122 0
37 46 38 45 34 42 -173 0
37 46 38 45 34 42 -171 0
37 46 38 45 34 42 -174 0
37 46 38 45 34 42 -172 0
37 46 38 45 34 33 -173 0
37 46 38 45 34 33 -171 0
37 46 38 45 34 33 -174 0
37 46 38 45 34 33 -172 0
37 46 38 45 42 41 -173 0
37 46 38 45 42 41 -171 0
37 46 38 45 42 41 -174 0
37 46 38 45 42 41 -172 0
37 46 38 45 33 41 -173 0
37 46 38 45 33 41 -171 0
37 46 38 45 33 41 -174 0
37 46 38 45 33 41 -172 0
37 46 38 34 42 33 -173 0
37 46 38 34 42 33 -171 0
37 46 38 34 42 33 -174 0
37 46 38 34 42 33 -172 0
37 46 38 34 33 41 -173 0
37 46 38 34 33 41 -171 0
37 46 38 34 33 41 -174 0
37 46 38 34 33 41 -172 0
37 46 45 34 42 41 -173 0
37 46 45 34 42 41 -171 0
37 46 45 34 42 41 -174 0
37 46 45 34 42 41 -172 0
37 46 45 42 33 41 -173 0
37 46 45 42 33 41 -171 0
37 46 45 42 33 41 -174 0
37 46 45 42 33 41 -172 0
37 46 34 42 33 41 -173 0
37 46 34 42 33 41 -171 0
37 46 34 42 33 41 -174 0
37 46 34 42 33 41 -172 0
37 75 38 72 34 73 -188 0
37 75 38 72 34 73 -190 0
37 75 38 72 34 73 -189 0
37 75 38 72 34 73 -187 0
37 75 38 72 34 33 -188 0
37 75 38 72 34 33 -190 0
37 75 38 72 34 33 -189 0
37 75 38 72 34 33 -187 0
37 75 38 72 73 78 -188 0
37 75 38 72 73 78 -190 0
37 75 38 72 73 78 -189 0
37 75 38 72 73 78 -187 0
37 75 38 72 33 78 -188 0
37 75 38 72 33 78 -190 0
37 75 38 72 33 78 -189 0
37 75 38 72 33 78 -187 0
37 75 38 34 73 33 -188 0
37 75 38 34 73 33 -190 0
37 75 38 34 73 33 -189 0
37 75 38 34 73 33 -187 0
37 75 38 34 33 78 -188 0
37 75 38 34 33 78 -190 0
37 75 38 34 33 78 -189 0
37 75 38 34 33 78 -187 0
37 75 72 34 73 78 -188 0
37 75 72 34 73 78 -190 0
37 75 72 34 73 78 -189 0
37 75 72 34 73 78 -187 0
37 75 72 73 33 78 -188 0
37 75 72 73 33 78 -190 0
37 75 72 73 33 78 -189 0
37 75 72 73 33 78 -187 0
37 75 34 73 33 78 -188 0
37 75 34 73 33 78 -190 0
37 75 34 73 33 78 -189 0
37 75 34 73 33 78 -187 0
37 68 38 69 34 67 -183 0
37 68 38 69 34 67 -184 0
37 68 38 69 34 67 -185 0
37 68 38 69 34 67 -186 0
37 68 38 69 34 33 -183 0
37 68 38 69 34 33 -184 0
37 68 38 69 34 33 -185 0
37 68 38 69 34 33 -186 0
37 68 38 69 67 63 -183 0
37 68 38 69 67 63 -184 0
37 68 38 69 67 63 -185 0
37 68 38 69 67 63 -186 0
37 68 38 69 33 63 -183 0
37 68 38 69 33 63 -184 0
37 68 38 69 33 63 -185 0
37 68 38 69 33 63 -186 0
37 68 38 34 67 33 -183 0
37 68 38 34 67 33 -184 0
37 68 38 34 67 33 -185 0
37 68 38 34 67 33 -186 0
37 68 38 34 33 63 -183 0
37 68 38 34 33 63 -184 0
37 68 38 34 33 63 -185 0
37 68 38 34 33 63 -186 0
37 68 69 34 67 63 -183 0
37 68 69 34 67 63 -184 0
37 68 69 34 67 63 -185 0
37 68 69 34 67 63 -186 0
37 68 69 67 33 63 -183 0
37 68 69 67 33 63 -184 0
37 68 69 67 33 63 -185 0
37 68 69 67 33 63 -186 0
37 68 34 67 33 63 -183 0
37 68 34 67 33 63 -184 0
37 68 34 67 33 63 -185 0
37 68 34 67 33 63 -186 0
37 4 38 2 34 1 -31 0
37 4 38 2 34 1 -35 0
37 4 38 2 34 1 -32 0
37 4 38 2 34 1 -36 0
37 4 38 2 34 33 -31 0
37 4 38 2 34 33 -35 0
37 4 38 2 34 33 -32 0
37 4 38 2 34 33 -36 0
37 4 38 2 1 5 -31 0
37 4 38 2 1 5 -35 0
37 4 38 2 1 5 -32 0
37 4 38 2 1 5 -36 0
37 4 38 2 33 5 -31 0
37 4 38 2 33 5 -35 0
37 4 38 2 33 5 -32 0
37 4 38 2 33 5 -36 0
37 4 38 34 1 33 -31 0
37 4 38 34 1 33 -35 0
37 4 38 34 1 33 -32 0
37 4 38 34 1 33 -36 0
37 4 38 34 33 5 -31 0
37 4 38 34 33 5 -35 0
37 4 38 34 33 5 -32 0
37 4 38 34 33 5 -36 0
37 4 2 34 1 5 -31 0
37 4 2 34 1 5 -35 0
37 4 2 34 1 5 -32 0
37 4 2 34 1 5 -36 0
37 4 2 1 33 5 -31 0
37 4 2 1 33 5 -35 0
37 4 2 1 33 5 -32 0
37 4 2 1 33 5 -36 0
37 4 34 1 33 5 -31 0
37 4 34 1 33 5 -35 0
37 4 34 1 33 5 -32 0
37 4 34 1 33 5 -36 0
37 38 13 34 14 33 -89 0
37 38 13 34 14 33 -91 0
37 38 13 34 14 33 -90 0
37 38 13 34 14 33 -92 0
37 38 13 34 33 12 -89 0
37 38 13 34 33 12 -91 0
37 38 13 34 33 12 -90 0
37 38 13 34 33 12 -92 0
37 38 26 34 30 33 -148 0
37 38 26 34 30 33 -145 0
37 38 26 34 30 33 -146 0
37 38 26 34 30 33 -147 0
37 38 26 34 33 25 -148 0
37 38 26 34 33 25 -145 0
37 38 26 34 33 25 -146 0
37 38 26 34 33 25 -147 0
37 38 59 34 56 33 -179 0
37 38 59 34 56 33 -182 0
37 38 59 34 56 33 -181 0
37 38 59 34 56 33 -180 0
37 38 59 34 33 55 -179 0
37 38 59 34 33 55 -182 0
37 38 59 34 33 55 -181 0
37 38 59 34 33 55 -180 0
37 38 48 34 54 33 -176 0
37 38 48 34 54 33 -178 0
37 38 48 34 54 33 -177 0
37 38 48 34 54 33 -175 0
37 38 48 34 33 50 -176 0
37 38 48 34 33 50 -178 0
37 38 48 34 33 50 -177 0
37 38 48 34 33 50 -175 0
37 38 21 34 20 33 -119 0
37 38 21 34 20 33 -120 0
37 38 21 34 20 33 -121 0
37 38 21 34 20 33 -122 0
37 38 21 34 33 18 -119 0
37 38 21 34 33 18 -120 0
37 38 21 34 33 18 -121 0
37 38 21 34 33 18 -122 0
37 38 45 34 42 33 -173 0
37 38 45 34 42 33 -171 0
37 38 45 34 42 33 -174 0
37 38 45 34 42 33 -172 0
37 38 45 34 33 41 -173 0
37 38 45 34 33 41 -171 0
37 38 45 34 33 41 -174 0
37 38 45 34 33 41 -172 0
37 38 72 34 73 33 -188 0
37 38 72 34 73 33 -190 0
37 38 72 34 73 33 -189 0
37 38 72 34 73 33 -187 0
37 38 72 34 33 78 -188 0
37 38 72 34 33 78 -190 0
37 38 72 34 33 78 -189 0
37 38 72 34 33 78 -187 0
37 38 69 34 67 33 -183 0
37 38 69 34 67 33 -184 0
37 38 69 34 67 33 -185 0
37 38 69 34 67 33 -186 0
37 38 69 34 33 63 -183 0
37 38 69 34 33 63 -184 0
37 38 69 34 33 63 -185 0
37 38 69 34 33 63 -186 0
37 38 2 34 1 33 -31 0
37 38 2 34 1 33 -35 0
37 38 2 34 1 33 -32 0
37 38 2 34 1 33 -36 0
37 38 2 34 33 5 -31 0
37 38 2 34 33 5 -35 0
37 38 2 34 33 5 -32 0
37 38 2 34 33 5 -36 0
37 38 34 14 33 12 -89 0
37 38 34 14 33 12 -91 0
37 38 34 14 33 12 -90 0
37 38 34 14 33 12 -92 0
37 38 34 30 33 25 -148 0
37 38 34 30 33 25 -145 0
37 38 34 30 33 25 -146 0
37 38 34 30 33 25 -147 0
37 38 34 56 33 55 -179 0
37 38 34 56 33 55 -182 0
37 38 34 56 33 55 -181 0
37 38 34 56 33 55 -180 0
37 38 34 54 33 50 -176 0
37 38 34 54 33 50 -178 0
37 38 34 54 33 50 -177 0
37 38 34 54 33 50 -175 0
37 38 34 20 33 18 -119 0
37 38 34 20 33 18 -120 0
37 38 34 20 33 18 -121 0
37 38 34 20 33 18 -122 0
37 38 34 42 33 41 -173 0
37 38 34 42 33 41 -171 0
37 38 34 42 33 41 -174 0
37 38 34 42 33 41 -172 0
37 38 34 73 33 78 -188 0
37 38 34 73 33 78 -190 0
37 38 34 73 33 78 -189 0
37 38 34 73 33 78 -187 0
37 38 34 67 33 63 -183 0
37 38 34 67 33 63 -184 0
37 38 34 67 33 63 -185 0
37 38 34 67 33 63 -186 0
37 38 34 1 33 5 -31 0
37 38 34 1 33 5 -35 0
37 38 34 1 33 5 -32 0
37 38 34 1 33 5 -36 0
10 23 13 26 14 30 -87 0
10 23 13 26 14 30 -86 0
10 23 13 26 14 30 -85 0
10 23 13 26 14 30 -88 0
10 23 13 26 14 12 -87 0
10 23 13 26 14 12 -86 0
10 23 13 26 14 12 -85 0
10 23 13 26 14 12 -88 0
10 23 13 26 30 25 -87 0
10 23 13 26 30 25 -86 0
10 23 13 26 30 25 -85 0
10 23 13 26 30 25 -88 0
10 23 13 26 12 25 -87 0
10 23 13 26 12 25 -86 0
10 23 13 26 12 25 -85 0
10 23 13 26 12 25 -88 0
10 23 13 14 30 12 -87 0
10 23 13 14 30 12 -86 0
10 23 13 14 30 12 -85 0
10 23 13 14 30 12 -88 0
10 23 13 14 12 25 -87 0
10 23 13 14 12 25 -86 0
10 23 13 14 12 25 -85 0
10 23 13 14 12 25 -88 0
10 23 26 14 30 25 -87 0
10 23 26 14 30 25 -86 0
10 23 26 14 30 25 -85 0
10 23 26 14 30 25 -88 0
10 23 26 30 12 25 -87 0
10 23 26 30 12 25 -86 0
10 23 26 30 12 25 -85 0
10 23 26 30 12 25 -88 0
10 23 14 30 12 25 -87 0
10 23 14 30 12 25 -86 0
10 23 14 30 12 25 -85 0
10 23 14 30 12 25 -88 0
10 57 13 59 14 56 -102 0
10 57 13 59 14 56 -101 0
10 57 13 59 14 56 -103 0
10 57 13 59 14 56 -104 0
10 57 13 59 14 12 -102 0
10 57 13 59 14 12 -101 0
10 57 13 59 14 12 -103 0
10 57 13 59 14 12 -104 0
10 57 13 59 56 55 -102 0
10 57 13 59 56 55 -101 0
10 57 13 59 56 55 -103 0
10 57 13 59 56 55 -104 0
10 57 13 59 12 55 -102 0
10 57 13 59 12 55 -101 0
10 57 13 59 12 55 -103 0
10 57 13 59 12 55 -104 0
10 57 13 14 56 12 -102 0
10 57 13 14 56 12 -101 0
10 57 13 14 56 12 -103 0
10 57 13 14 56 12 -104 0
10 57 13 14 12 55 -102 0
10 57 13 14 12 55 -101 0
10 57 13 14 12 55 -103 0
10 57 13 14 12 55 -104 0
10 57 59 14 56 55 -102 0
10 57 59 14 56 55 -101 0
10 57 59 14 56 55 -103 0
10 57 59 14 56 55 -104 0
10 57 59 56 12 55 -102 0
10 57 59 56 12 55 -101 0
10 57 59 56 12 55 -103 0
10 57 59 56 12 55 -104 0
10 57 14 56 12 55 -102 0
10 57 14 56 12 55 -101 0
10 57 14 56 12 55 -103 0
10 57 14 56 12 55 -104 0
10 47 13 48 14 54 -99 0
10 47 13 48 14 54 -97 0
10 47 13 48 14 54 -100 0
10 47 13 48 14 54 -98 0
10 47 13 48 14 12 -99 0
10 47 13 48 14 12 -97 0
10 47 13 48 14 12 -100 0
10 47 13 48 14 12 -98 0
10 47 13 48 54 50 -99 0
10 47 13 48 54 50 -97 0
10 47 13 48 54 50 -100 0
10 47 13 48 54 50 -98 0
10 47 13 48 12 50 -99 0
10 47 13 48 12 50 -97 0
10 47 13 48 12 50 -100 0
10 47 13 48 12 50 -98 0
10 47 13 14 54 12 -99 0
10 47 13 14 54 12 -97 0
10 47 13 14 54 12 -100 0
10 47 13 14 54 12 -98 0
10 47 13 14 12 50 -99 0
10 47 13 14 12 50 -97 0
10 47 13 14 12 50 -100 0
10 47 13 14 12 50 -98 0
10 47 48 14 54 50 -99 0
10 47 48 14 54 50 -97 0
10 47 48 14 54 50 -100 0
10 47 48 14 54 50 -98 0
10 47 48 54 12 50 -99 0
10 47 48 54 12 50 -97 0
10 47 48 54 12 50 -100 0
10 47 48 54 12 50 -98 0
10 47 14 54 12 50 -99 0
10 47 14 54 12 50 -97 0
10 47 14 54 12 50 -100 0
10 47 14 54 12 50 -98 0
10 15 13 21 14 20 -81 0
10 15 13 21 14 20 -83 0
10 15 13 21 14 20 -82 0
10 15 13 21 14 20 -84 0
10 15 13 21 14 12 -81 0
10 15 13 21 14 12 -83 0
10 15 13 21 14 12 -82 0
10 15 13 21 14 12 -84 0
10 15 13 21 20 18 -81 0
10 15 13 21 20 18 -83 0
10 15 13 21 20 18 -82 0
10 15 13 21 20 18 -84 0
10 15 13 21 12 18 -81 0
10 15 13 21 12 18 -83 0
10 15 13 21 12 18 -82 0
10 15 13 21 12 18 -84 0
10 15 13 14 20 12 -81 0
10 15 13 14 20 12 -83 0
10 15 13 14 20 12 -82 0
10 15 13 14 20 12 -84 0
10 15 13 14 12 18 -81 0
10 15 13 14 12 18 -83 0
10 15 13 14 12 18 -82 0
10 15 13 14 12 18 -84 0
10 15 21 14 20 18 -81 0
10 15 21 14 20 18 -83 0
10 15 21 14 20 18 -82 0
10 15 21 14 20 18 -84 0
10 15 21 20 12 18 -81 0
10 15 21 20 12 18 -83 0
10 15 21 20 12 18 -82 0
10 15 21 20 12 18 -84 0
10 15 14 20 12 18 -81 0
10 15 14 20 12 18 -83 0
10 15 14 20 12 18 -82 0
10 15 14 20 12 18 -84 0
10 46 13 45 14 42 -93 0
10 46 13 45 14 42 -96 0
10 46 13 45 14 42 -94 0
10 46 13 45 14 42 -95 0
10 46 13 45 14 12 -93 0
10 46 13 45 14 12 -96 0
10 46 13 45 14 12 -94 0
10 46 13 45 14 12 -95 0
10 46 13 45 42 41 -93 0
10 46 13 45 42 41 -96 0
10 46 13 45 42 41 -94 0
10 46 13 45 42 41 -95 0
10 46 13 45 12 41 -93 0
10 46 13 45 12 41 -96 0
10 46 13 45 12 41 -94 0
10 46 13 45 12 41 -95 0
10 46 13 14 42 12 -93 0
10 46 13 14 42 12 -96 0
10 46 13 14 42 12 -94 0
10 46 13 14 42 12 -95 0
10 46 13 14 12 41 -93 0
10 46 13 14 12 41 -96 0
10 46 13 14 12 41 -94 0
10 46 13 14 12 41 -95 0
10 46 45 14 42 41 -93 0
10 46 45 14 42 41 -96 0
10 46 45 14 42 41 -94 0
10 46 45 14 42 41 -95 0
10 46 45 42 12 41 -93 0
10 46 45 42 12 41 -96 0
10 46 45 42 12 41 -94 0
10 46 45 42 12 41 -95 0
10 46 14 42 12 41 -93 0
10 46 14 42 12 41 -96 0
10 46 14 42 12 41 -94 0
10 46 14 42 12 41 -95 0
10 75 13 72 14 73 -109 0
10 75 13 72 14 73 -110 0
10 75 13 72 14 73 -112 0
10 75 13 72 14 73 -111 0
10 75 13 72 14 12 -109 0
10 75 13 72 14 12 -110 0
10 75 13 72 14 12 -112 0
10 75 13 72 14 12 -111 0
10 75 13 72 73 78 -109 0
10 75 13 72 73 78 -110 0
10 75 13 72 73 78 -112 0
10 75 13 72 73 78 -111 0
10 75 13 72 12 78 -109 0
10 75 13 72 12 78 -110 0
10 75 13 72 12 78 -112 0
10 75 13 72 12 78 -111 0
10 75 13 14 73 12 -109 0
10 75 13 14 73 12 -110 0
10 75 13 14 73 12 -112 0
10 75 13 14 73 12 -111 0
10 75 13 14 12 78 -109 0
10 75 13 14 12 78 -110 0
10 75 13 14 12 78 -112 0
10 75 13 14 12 78 -111 0
10 75 72 14 73 78 -109 0
10 75 72 14 73 78 -110 0
10 75 72 14 73 78 -112 0
10 75 72 14 73 78 -111 0
10 75 72 73 12 78 -109 0
10 75 72 73 12 78 -110 0
10 75 72 73 12 78 -112 0
10 75 72 73 12 78 -111 0
10 75 14 73 12 78 -109 0
10 75 14 73 12 78 -110 0
10 75 14 73 12 78 -112 0
10 75 14 73 12 78 -111 0
10 68 13 69 14 67 -107 0
10 68 13 69 14 67 -108 0
10 68 13 69 14 67 -106 0
10 68 13 69 14 67 -105 0
10 68 13 69 14 12 -107 0
10 68 13 69 14 12 -108 0
10 68 13 69 14 12 -106 0
10 68 13 69 14 12 -105 0
10 68 13 69 67 63 -107 0
10 68 13 69 67 63 -108 0
10 68 13 69 67 63 -106 0
10 68 13 69 67 63 -105 0
10 68 13 69 12 63 -107 0
10 68 13 69 12 63 -108 0
10 68 13 69 12 63 -106 0
10 68 13 69 12 63 -105 0
10 68 13 14 67 12 -107 0
10 68 13 14 67 12 -108 0
10 68 13 14 67 12 -106 0
10 68 13 14 67 12 -105 0
10 68 13 14 12 63 -107 0
10 68 13 14 12 63 -108 0
10 68 13 14 12 63 -106 0
10 68 13 14 12 63 -105 0
10 68 69 14 67 63 -107 0
10 68 69 14 67 63 -108 0
10 68 69 14 67 63 -106 0
10 68 69 14 67 63 -105 0
10 68 69 67 12 63 -107 0
10 68 69 67 12 63 -108 0
10 68 69 67 12 63 -106 0
10 68 69 67 12 63 -105 0
10 68 14 67 12 63 -107 0
10 68 14 67 12 63 -108 0
10 68 14 67 12 63 -106 0
10 68 14 67 12 63 -105 0
10 4 13 2 14 1 -7 0
10 4 13 2 14 1 -8 0
10 4 13 2 14 1 -9 0
10 4 13 2 14 1 -11 0
10 4 13 2 14 12 -7 0
10 4 13 2 14 12 -8 0
10 4 13 2 14 12 -9 0
10 4 13 2 14 12 -11 0
10 4 13 2 1 5 -7 0
10 4 13 2 1 5 -8 0
10 4 13 2 1 5 -9 0
10 4 13 2 1 5 -11 0
10 4 13 2 12 5 -7 0
10 4 13 2 12 5 -8 0
10 4 13 2 12 5 -9 0
10 4 13 2 12 5 -11 0
10 4 13 14 1 12 -7 0
10 4 13 14 1 12 -8 0
10 4 13 14 1 12 -9 0
10 4 13 14 1 12 -11 0
10 4 13 14 12 5 -7 0
10 4 13 14 12 5 -8 0
10 4 13 14 12 5 -9 0
10 4 13 14 12 5 -11 0
10 4 2 14 1 5 -7 0
10 4 2 14 1 5 -8 0
10 4 2 14 1 5 -9 0
10 4 2 14 1 5 -11 0
10 4 2 1 12 5 -7 0
10 4 2 1 12 5 -8 0
10 4 2 1 12 5 -9 0
10 4 2 1 12 5 -11 0
10 4 14 1 12 5 -7 0
10 4 14 1 12 5 -8 0
10 4 14 1 12 5 -9 0
10 4 14 1 12 5 -11 0
10 38 13 34 14 12 -89 0
10 38 13 34 14 12 -91 0
10 38 13 34 14 12 -90 0
10 38 13 34 14 12 -92 0
10 38 13 14 33 12 -89 0
10 38 13 14 33 12 -91 0
10 38 13 14 33 12 -90 0
10 38 13 14 33 12 -92 0
10 13 26 14 30 12 -87 0
10 13 26 14 30 12 -86 0
10 13 26 14 30 12 -85 0
10 13 26 14 30 12 -88 0
10 13 26 14 12 25 -87 0
10 13 26 14 12 25 -86 0
10 13 26 14 12 25 -85 0
10 13 26 14 12 25 -88 0
10 13 59 14 56 12 -102 0
10 13 59 14 56 12 -101 0
10 13 59 14 56 12 -103 0
10 13 59 14 56 12 -104 0
10 13 59 14 12 55 -102 0
10 13 59 14 12 55 -101 0
10 13 59 14 12 55 -103 0
10 13 59 14 12 55 -104 0
10 13 48 14 54 12 -99 0
10 13 48 14 54 12 -97 0
10 13 48 14 54 12 -100 0
10 13 48 14 54 12 -98 0
10 13 48 14 12 50 -99 0
10 13 48 14 12 50 -97 0
10 13 48 14 12 50 -100 0
10 13 48 14 12 50 -98 0
10 13 21 14 20 12 -81 0
10 13 21 14 20 12 -83 0
10 13 21 14 20 12 -82 0
10 13 21 14 20 12 -84 0
10 13 21 14 12 18 -81 0
10 13 21 14 12 18 -83 0
10 13 21 14 12 18 -82 0
10 13 21 14 12 18 -84 0
10 13 45 14 42 12 -93 0
10 13 45 14 42 12 -96 0
10 13 45 14 42 12 -94 0
10 13 45 14 42 12 -95 0
10 13 45 14 12 41 -93 0
10 13 45 14 12 41 -96 0
10 13 45 14 12 41 -94 0
10 13 45 14 12 41 -95 0
10 13 72 14 73 12 -109 0
10 13 72 14 73 12 -110 0
10 13 72 14 73 12 -112 0
10 13 72 14 73 12 -111 0
10 13 72 14 12 78 -109 0
10 13 72 14 12 78 -110 0
10 13 72 14 12 78 -112 0
10 13 72 14 12 78 -111 0
10 13 69 14 67 12 -107 0
10 13 69 14 67 12 -108 0
10 13 69 14 67 12 -106 0
10 13 69 14 67 12 -105 0
10 13 69 14 12 63 -107 0
10 13 69 14 12 63 -108 0
10 13 69 14 12 63 -106 0
10 13 69 14 12 63 -105 0
10 13 2 14 1 12 -7 0
10 13 2 14 1 12 -8 0
10 13 2 14 1 12 -9 0
10 13 2 14 1 12 -11 0
10 13 2 14 12 5 -7 0
10 13 2 14 12 5 -8 0
10 13 2 14 12 5 -9 0
10 13 2 14 12 5 -11 0
10 13 34 14 33 12 -89 0
10 13 34 14 33 12 -91 0
10 13 34 14 33 12 -90 0
10 13 34 14 33 12 -92 0
10 13 14 30 12 25 -87 0
10 13 14 30 12 25 -86 0
10 13 14 30 12 25 -85 0
10 13 14 30 12 25 -88 0
10 13 14 56 12 55 -102 0
10 13 14 56 12 55 -101 0
10 13 14 56 12 55 -103 0
10 13 14 56 12 55 -104 0
10 13 14 54 12 50 -99 0
10 13 14 54 12 50 -97 0
10 13 14 54 12 50 -100 0
10 13 14 54 12 50 -98 0
10 13 14 20 12 18 -81 0
10 13 14 20 12 18 -83 0
10 13 14 20 12 18 -82 0
10 13 14 20 12 18 -84 0
10 13 14 42 12 41 -93 0
10 13 14 42 12 41 -96 0
10 13 14 42 12 41 -94 0
10 13 14 42 12 41 -95 0
10 13 14 73 12 78 -109 0
10 13 14 73 12 78 -110 0
10 13 14 73 12 78 -112 0
10 13 14 73 12 78 -111 0
10 13 14 67 12 63 -107 0
10 13 14 67 12 63 -108 0
10 13 14 67 12 63 -106 0
10 13 14 67 12 63 -105 0
10 13 14 1 12 5 -7 0
10 13 14 1 12 5 -8 0
10 13 14 1 12 5 -9 0
10 13 14 1 12 5 -11 0
23 57 26 59 30 56 -159 0
23 57 26 59 30 56 -157 0
23 57 26 59 30 56 -160 0
23 57 26 59 30 56 -158 0
23 57 26 59 30 25 -159 0
23 57 26 59 30 25 -157 0
23 57 26 59 30 25 -160 0
23 57 26 59 30 25 -158 0
23 57 26 59 56 55 -159 0
23 57 26 59 56 55 -157 0
23 57 26 59 56 55 -160 0
23 57 26 59 56 55 -158 0
23 57 26 59 25 55 -159 0
23 57 26 59 25 55 -157 0
23 57 26 59 25 55 -160 0
23 57 26 59 25 55 -158 0
23 57 26 30 56 25 -159 0
23 57 26 30 56 25 -157 0
23 57 26 30 56 25 -160 0
23 57 26 30 56 25 -158 0
23 57 26 30 25 55 -159 0
23 57 26 30 25 55 -157 0
23 57 26 30 25 55 -160 0
23 57 26 30 25 55 -158 0
23 57 59 30 56 55 -159 0
23 57 59 30 56 55 -157 0
23 57 59 30 56 55 -160 0
23 57 59 30 56 55 -158 0
23 57 59 56 25 55 -159 0
23 57 59 56 25 55 -157 0
23 57 59 56 25 55 -160 0
23 57 59 56 25 55 -158 0
23 57 30 56 25 55 -159 0
23 57 30 56 25 55 -157 0
23 57 30 56 25 55 -160 0
23 57 30 56 25 55 -158 0
23 47 26 48 30 54 -155 0
23 47 26 48 30 54 -153 0
23 47 26 48 30 54 -156 0
23 47 26 48 30 54 -154 0
23 47 26 48 30 25 -155 0
23 47 26 48 30 25 -153 0
23 47 26 48 30 25 -156 0
23 47 26 48 30 25 -154 0
23 47 26 48 54 50 -155 0
23 47 26 48 54 50 -153 0
23 47 26 48 54 50 -156 0
23 47 26 48 54 50 -154 0
23 47 26 48 25 50 -155 0
23 47 26 48 25 50 -153 0
23 47 26 48 25 50 -156 0
23 47 26 48 25 50 -154 0
23 47 26 30 54 25 -155 0
23 47 26 30 54 25 -153 0
23 47 26 30 54 25 -156 0
23 47 26 30 54 25 -154 0
23 47 26 30 25 50 -155 0
23 47 26 30 25 50 -153 0
23 47 26 30 25 50 -156 0
23 47 26 30 25 50 -154 0
23 47 48 30 54 50 -155 0
23 47 48 30 54 50 -153 0
23 47 48 30 54 50 -156 0
23 47 48 30 54 50 -154 0
23 47 48 54 25 50 -155 0
23 47 48 54 25 50 -153 0
23 47 48 54 25 50 -156 0
23 47 48 54 25 50 -154 0
23 47 30 54 25 50 -155 0
23 47 30 54 25 50 -153 0
23 47 30 54 25 50 -156 0
23 47 30 54 25 50 -154 0
23 15 26 21 30 20 -115 0
23 15 26 21 30 20 -116 0
23 15 26 21 30 20 -117 0
23 15 26 21 30 20 -118 0
23 15 26 21 30 25 -115 0
23 15 26 21 30 25 -116 0
23 15 26 21 30 25 -117 0
23 15 26 21 30 25 -118 0
23 15 26 21 20 18 -115 0
23 15 26 21 20 18 -116 0
23 15 26 21 20 18 -117 0
23 15 26 21 20 18 -118 0
23 15 26 21 25 18 -115 0
23 15 26 21 25 18 -116 0
23 15 26 21 25 18 -117 0
23 15 26 21 25 18 -118 0
23 15 26 30 20 25 -115 0
23 15 26 30 20 25 -116 0
23 15 26 30 20 25 -117 0
23 15 26 30 20 25 -118 0
23 15 26 30 25 18 -115 0
23 15 26 30 25 18 -116 0
23 15 26 30 25 18 -117 0
23 15 26 30 25 18 -118 0
23 15 21 30 20 18 -115 0
23 15 21 30 20 18 -116 0
23 15 21 30 20 18 -117 0
23 15 21 30 20 18 -118 0
23 15 21 20 25 18 -115 0
23 15 21 20 25 18 -116 0
23 15 21 20 25 18 -117 0
23 15 21 20 25 18 -118 0
23 15 30 20 25 18 -115 0
23 15 30 20 25 18 -116 0
23 15 30 20 25 18 -117 0
23 15 30 20 25 18 -118 0
23 46 26 45 30 42 -151 0
23 46 26 45 30 42 -152 0
23 46 26 45 30 42 -149 0
23 46 26 45 30 42 -150 0
23 46 26 45 30 25 -151 0
23 46 26 45 30 25 -152 0
23 46 26 45 30 25 -149 0
23 46 26 45 30 25 -150 0
23 46 26 45 42 41 -151 0
23 46 26 45 42 41 -152 0
23 46 26 45 42 41 -149 0
23 46 26 45 42 41 -150 0
23 46 26 45 25 41 -151 0
23 46 26 45 25 41 -152 0
23 46 26 45 25 41 -149 0
23 46 26 45 25 41 -150 0
23 46 26 30 42 25 -151 0
23 46 26 30 42 25 -152 0
23 46 26 30 42 25 -149 0
23 46 26 30 42 25 -150 0
23 46 26 30 25 41 -151 0
23 46 26 30 25 41 -152 0
23 46 26 30 25 41 -149 0
23 46 26 30 25 41 -150 0
23 46 45 30 42 41 -151 0
23 46 45 30 42 41 -152 0
23 46 45 30 42 41 -149 0
23 46 45 30 42 41 -150 0
23 46 45 42 25 41 -151 0
23 46 45 42 25 41 -152 0
23 46 45 42 25 41 -149 0
23 46 45 42 25 41 -150 0
23 46 30 42 25 41 -151 0
23 46 30 42 25 41 -152 0
23 46 30 42 25 41 -149 0
23 46 30 42 25 41 -150 0
23 75 26 72 30 73 -167 0
23 75 26 72 30 73 -166 0
23 75 26 72 30 73 -165 0
23 75 26 72 30 73 -168 0
23 75 26 72 30 25 -167 0
23 75 26 72 30 25 -166 0
23 75 26 72 30 25 -165 0
23 75 26 72 30 25 -168 0
23 75 26 72 73 78 -167 0
23 75 26 72 73 78 -166 0
23 75 26 72 73 78 -165 0
23 75 26 72 73 78 -168 0
23 75 26 72 25 78 -167 0
23 75 26 72 25 78 -166 0
23 75 26 72 25 78 -165 0
23 75 26 72 25 78 -168 0
23 75 26 30 73 25 -167 0
23 75 26 30 73 25 -166 0
23 75 26 30 73 25 -165 0
23 75 26 30 73 25 -168 0
23 75 26 30 25 78 -167 0
23 75 26 30 25 78 -166 0
23 75 26 30 25 78 -165 0
23 75 26 30 25 78 -168 0
23 75 72 30 73 78 -167 0
23 75 72 30 73 78 -166 0
23 75 72 30 73 78 -165 0
23 75 72 30 73 78 -168 0
23 75 72 73 25 78 -167 0
23 75 72 73 25 78 -166 0
23 75 72 73 25 78 -165 0
23 75 72 73 25 78 -168 0
23 75 30 73 25 78 -167 0
23 75 30 73 25 78 -166 0
23 75 30 73 25 78 -165 0
23 75 30 73 25 78 -168 0
23 68 26 69 30 67 -161 0
23 68 26 69 30 67 -163 0
23 68 26 69 30 67 -162 0
23 68 26 69 30 67 -164 0
23 68 26 69 30 25 -161 0
23 68 26 69 30 25 -163 0
23 68 26 69 30 25 -162 0
23 68 26 69 30 25 -164 0
23 68 26 69 67 63 -161 0
23 68 26 69 67 63 -163 0
23 68 26 69 67 63 -162 0
23 68 26 69 67 63 -164 0
23 68 26 69 25 63 -161 0
23 68 26 69 25 63 -163 0
23 68 26 69 25 63 -162 0
23 68 26 69 25 63 -164 0
23 68 26 30 67 25 -161 0
23 68 26 30 67 25 -163 0
23 68 26 30 67 25 -162 0
23 68 26 30 67 25 -164 0
23 68 26 30 25 63 -161 0
23 68 26 30 25 63 -163 0
23 68 26 30 25 63 -162 0
23 68 26 30 25 63 -164 0
23 68 69 30 67 63 -161 0
23 68 69 30 67 63 -163 0
23 68 69 30 67 63 -162 0
23 68 69 30 67 63 -164 0
23 68 69 67 25 63 -161 0
23 68 69 67 25 63 -163 0
23 68 69 67 25 63 -162 0
23 68 69 67 25 63 -164 0
23 68 30 67 25 63 -161 0
23 68 30 67 25 63 -163 0
23 68 30 67 25 63 -162 0
23 68 30 67 25 63 -164 0
23 4 26 2 30 1 -28 0
23 4 26 2 30 1 -24 0
23 4 26 2 30 1 -27 0
23 4 26 2 30 1 -29 0
23 4 26 2 30 25 -28 0
23 4 26 2 30 25 -24 0
23 4 26 2 30 25 -27 0
23 4 26 2 30 25 -29 0
23 4 26 2 1 5 -28 0
23 4 26 2 1 5 -24 0
23 4 26 2 1 5 -27 0
23 4 26 2 1 5 -29 0
23 4 26 2 25 5 -28 0
23 4 26 2 25 5 -24 0
23 4 26 2 25 5 -27 0
23 4 26 2 25 5 -29 0
23 4 26 30 1 25 -28 0
23 4 26 30 1 25 -24 0
23 4 26 30 1 25 -27 0
23 4 26 30 1 25 -29 0
23 4 26 30 25 5 -28 0
23 4 26 30 25 5 -24 0
23 4 26 30 25 5 -27 0
23 4 26 30 25 5 -29 0
23 4 2 30 1 5 -28 0
23 4 2 30 1 5 -24 0
23 4 2 30 1 5 -27 0
23 4 2 30 1 5 -29 0
23 4 2 1 25 5 -28 0
23 4 2 1 25 5 -24 0
23 4 2 1 25 5 -27 0
23 4 2 1 25 5 -29 0
23 4 30 1 25 5 -28 0
23 4 30 1 25 5 -24 0
23 4 30 1 25 5 -27 0
23 4 30 1 25 5 -29 0
23 38 26 34 30 25 -148 0
23 38 26 34 30 25 -145 0
23 38 26 34 30 25 -146 0
23 38 26 34 30 25 -147 0
23 38 26 30 33 25 -148 0
23 38 26 30 33 25 -145 0
23 38 26 30 33 25 -146 0
23 38 26 30 33 25 -147 0
23 13 26 14 30 25 -87 0
23 13 26 14 30 25 -86 0
23 13 26 14 30 25 -85 0
23 13 26 14 30 25 -88 0
23 13 26 30 12 25 -87 0
23 13 26 30 12 25 -86 0
23 13 26 30 12 25 -85 0
23 13 26 30 12 25 -88 0
23 26 59 30 56 25 -159 0
23 26 59 30 56 25 -157 0
23 26 59 30 56 25 -160 0
23 26 59 30 56 25 -158 0
23 26 59 30 25 55 -159 0
23 26 59 30 25 55 -157 0
23 26 59 30 25 55 -160 0
23 26 59 30 25 55 -158 0
23 26 48 30 54 25 -155 0
23 26 48 30 54 25 -153 0
23 26 48 30 54 25 -156 0
23 26 48 30 54 25 -154 0
23 26 48 30 25 50 -155 0
23 26 48 30 25 50 -153 0
23 26 48 30 25 50 -156 0
23 26 48 30 25 50 -154 0
23 26 21 30 20 25 -115 0
23 26 21 30 20 25 -116 0
23 26 21 30 20 25 -117 0
23 26 21 30 20 25 -118 0
23 26 21 30 25 18 -115 0
23 26 21 30 25 18 -116 0
23 26 21 30 25 18 -117 0
23 26 21 30 25 18 -118 0
23 26 45 30 42 25 -151 0
23 26 45 30 42 25 -152 0
23 26 45 30 42 25 -149 0
23 26 45 30 42 25 -150 0
23 26 45 30 25 41 -151 0
23 26 45 30 25 41 -152 0
23 26 45 30 25 41 -149 0
23 26 45 30 25 41 -150 0
23 26 72 30 73 25 -167 0
23 26 72 30 73 25 -166 0
23 26 72 30 73 25 -165 0
23 26 72 30 73 25 -168 0
23 26 72 30 25 78 -167 0
23 26 72 30 25 78 -166 0
23 26 72 30 25 78 -165 0
23 26 72 30 25 78 -168 0
23 26 69 30 67 25 -161 0
23 26 69 30 67 25 -163 0
23 26 69 30 67 25 -162 0
23 26 69 30 67 25 -164 0
23 26 69 30 25 63 -161 0
23 26 69 30 25 63 -163 0
23 26 69 30 25 63 -162 0
23 26 69 30 25 63 -164 0
23 26 2 30 1 25 -28 0
23 26 2 30 1 25 -24 0
23 26 2 30 1 25 -27 0
23 26 2 30 1 25 -29 0
23 26 2 30 25 5 -28 0
23 26 2 30 25 5 -24 0
23 26 2 30 25 5 -27 0
23 26 2 30 25 5 -29 0
23 26 34 30 33 25 -148 0
23 26 34 30 33 25 -145 0
23 26 34 30 33 25 -146 0
23 26 34 30 33 25 -147 0
23 26 14 30 12 25 -87 0
23 26 14 30 12 25 -86 0
23 26 14 30 12 25 -85 0
23 26 14 30 12 25 -88 0
23 26 30 56 25 55 -159 0
23 26 30 56 25 55 -157 0
23 26 30 56 25 55 -160 0
23 26 30 56 25 55 -158 0
23 26 30 54 25 50 -155 0
23 26 30 54 25 50 -153 0
23 26 30 54 25 50 -156 0
23 26 30 54 25 50 -154 0
23 26 30 20 25 18 -115 0
23 26 30 20 25 18 -116 0
23 26 30 20 25 18 -117 0
23 26 30 20 25 18 -118 0
23 26 30 42 25 41 -151 0
23 26 30 42 25 41 -152 0
23 26 30 42 25 41 -149 0
23 26 30 42 25 41 -150 0
23 26 30 73 25 78 -167 0
23 26 30 73 25 78 -166 0
23 26 30 73 25 78 -165 0
23 26 30 73 25 78 -168 0
23 26 30 67 25 63 -161 0
23 26 30 67 25 63 -163 0
23 26 30 67 25 63 -162 0
23 26 30 67 25 63 -164 0
23 26 30 1 25 5 -28 0
23 26 30 1 25 5 -24 0
23 26 30 1 25 5 -27 0
23 26 30 1 25 5 -29 0
57 47 59 48 56 54 -211 0
57 47 59 48 56 54 -214 0
57 47 59 48 56 54 -212 0
57 47 59 48 56 54 -213 0
57 47 59 48 56 55 -211 0
57 47 59 48 56 55 -214 0
57 47 59 48 56 55 -212 0
57 47 59 48 56 55 -213 0
57 47 59 48 54 50 -211 0
57 47 59 48 54 50 -214 0
57 47 59 48 54 50 -212 0
57 47 59 48 54 50 -213 0
57 47 59 48 55 50 -211 0
57 47 59 48 55 50 -214 0
57 47 59 48 55 50 -212 0
57 47 59 48 55 50 -213 0
57 47 59 56 54 55 -211 0
57 47 59 56 54 55 -214 0
57 47 59 56 54 55 -212 0
57 47 59 56 54 55 -213 0
57 47 59 56 55 50 -211 0
57 47 59 56 55 50 -214 0
57 47 59 56 55 50 -212 0
57 47 59 56 55 50 -213 0
57 47 48 56 54 50 -211 0
57 47 48 56 54 50 -214 0
57 47 48 56 54 50 -212 0
57 47 48 56 54 50 -213 0
57 47 48 54 55 50 -211 0
57 47 48 54 55 50 -214 0
57 47 48 54 55 50 -212 0
57 47 48 54 55 50 -213 0
57 47 56 54 55 50 -211 0
57 47 56 54 55 50 -214 0
57 47 56 54 55 50 -212 0
57 47 56 54 55 50 -213 0
57 15 59 21 56 20 -131 0
57 15 59 21 56 20 -134 0
57 15 59 21 56 20 -133 0
57 15 59 21 56 20 -132 0
57 15 59 21 56 55 -131 0
57 15 59 21 56 55 -134 0
57 15 59 21 56 55 -133 0
57 15 59 21 56 55 -132 0
57 15 59 21 20 18 -131 0
57 15 59 21 20 18 -134 0
57 15 59 21 20 18 -133 0
57 15 59 21 20 18 -132 0
57 15 59 21 55 18 -131 0
57 15 59 21 55 18 -134 0
57 15 59 21 55 18 -133 0
57 15 59 21 55 18 -132 0
57 15 59 56 20 55 -131 0
57 15 59 56 20 55 -134 0
57 15 59 56 20 55 -133 0
57 15 59 56 20 55 -132 0
57 15 59 56 55 18 -131 0
57 15 59 56 55 18 -134 0
57 15 59 56 55 18 -133 0
57 15 59 56 55 18 -132 0
57 15 21 56 20 18 -131 0
57 15 21 56 20 18 -134 0
57 15 21 56 20 18 -133 0
57 15 21 56 20 18 -132 0
57 15 21 20 55 18 -131 0
57 15 21 20 55 18 -134 0
57 15 21 20 55 18 -133 0
57 15 21 20 55 18 -132 0
57 15 56 20 55 18 -131 0
57 15 56 20 55 18 -134 0
57 15 56 20 55 18 -133 0
57 15 56 20 55 18 -132 0
57 46 59 45 56 42 -200 0
57 46 59 45 56 42 -198 0
57 46 59 45 56 42 -197 0
57 46 59 45 56 42 -199 0
57 46 59 45 56 55 -200 0
57 46 59 45 56 55 -198 0
57 46 59 45 56 55 -197 0
57 46 59 45 56 55 -199 0
57 46 59 45 42 41 -200 0
57 46 59 45 42 41 -198 0
57 46 59 45 42 41 -197 0
57 46 59 45 42 41 -199 0
57 46 59 45 55 41 -200 0
57 46 59 45 55 41 -198 0
57 46 59 45 55 41 -197 0
57 46 59 45 55 41 -199 0
57 46 59 56 42 55 -200 0
57 46 59 56 42 55 -198 0
57 46 59 56 42 55 -197 0
57 46 59 56 42 55 -199 0
57 46 59 56 55 41 -200 0
57 46 59 56 55 41 -198 0
57 46 59 56 55 41 -197 0
57 46 59 56 55 41 -199 0
57 46 45 56 42 41 -200 0
57 46 45 56 42 41 -198 0
57 46 45 56 42 41 -197 0
57 46 45 56 42 41 -199 0
57 46 45 42 55 41 -200 0
57 46 45 42 55 41 -198 0
57 46 45 42 55 41 -197 0
57 46 45 42 55 41 -199 0
57 46 56 42 55 41 -200 0
57 46 56 42 55 41 -198 0
57 46 56 42 55 41 -197 0
57 46 56 42 55 41 -199 0
57 75 59 72 56 73 -230 0
57 75 59 72 56 73 -229 0
57 75 59 72 56 73 -232 0
57 75 59 72 56 73 -231 0
57 75 59 72 56 55 -230 0
57 75 59 72 56 55 -229 0
57 75 59 72 56 55 -232 0
57 75 59 72 56 55 -231 0
57 75 59 72 73 78 -230 0
57 75 59 72 73 78 -229 0
57 75 59 72 73 78 -232 0
57 75 59 72 73 78 -231 0
57 75 59 72 55 78 -230 0
57 75 59 72 55 78 -229 0
57 75 59 72 55 78 -232 0
57 75 59 72 55 78 -231 0
57 75 59 56 73 55 -230 0
57 75 59 56 73 55 -229 0
57 75 59 56 73 55 -232 0
57 75 59 56 73 55 -231 0
57 75 59 56 55 78 -230 0
57 75 59 56 55 78 -229 0
57 75 59 56 55 78 -232 0
57 75 59 56 55 78 -231 0
57 75 72 56 73 78 -230 0
57 75 72 56 73 78 -229 0
57 75 72 56 73 78 -232 0
57 75 72 56 73 78 -231 0
57 75 72 73 55 78 -230 0
57 75 72 73 55 78 -229 0
57 75 72 73 55 78 -232 0
57 75 72 73 55 78 -231 0
57 75 56 73 55 78 -230 0
57 75 56 73 55 78 -229 0
57 75 56 73 55 78 -232 0
57 75 56 73 55 78 -231 0
57 68 59 69 56 67 -227 0
57 68 59 69 56 67 -225 0
57 68 59 69 56 67 -228 0
57 68 59 69 56 67 -226 0
57 68 59 69 56 55 -227 0
57 68 59 69 56 55 -225 0
57 68 59 69 56 55 -228 0
57 68 59 69 56 55 -226 0
57 68 59 69 67 63 -227 0
57 68 59 69 67 63 -225 0
57 68 59 69 67 63 -228 0
57 68 59 69 67 63 -226 0
57 68 59 69 55 63 -227 0
57 68 59 69 55 63 -225 0
57 68 59 69 55 63 -228 0
57 68 59 69 55 63 -226 0
57 68 59 56 67 55 -227 0
57 68 59 56 67 55 -225 0
57 68 59 56 67 55 -228 0
57 68 59 56 67 55 -226 0
57 68 59 56 55 63 -227 0
57 68 59 56 55 63 -225 0
57 68 59 56 55 63 -228 0
57 68 59 56 55 63 -226 0
57 68 69 56 67 63 -227 0
57 68 69 56 67 63 -225 0
57 68 69 56 67 63 -228 0
57 68 69 56 67 63 -226 0
57 68 69 67 55 63 -227 0
57 68 69 67 55 63 -225 0
57 68 69 67 55 63 -228 0
57 68 69 67 55 63 -226 0
57 68 56 67 55 63 -227 0
57 68 56 67 55 63 -225 0
57 68 56 67 55 63 -228 0
57 68 56 67 55 63 -226 0
57 4 59 2 56 1 -62 0
57 4 59 2 56 1 -58 0
57 4 59 2 56 1 -61 0
57 4 59 2 56 1 -60 0
57 4 59 2 56 55 -62 0
57 4 59 2 56 55 -58 0
57 4 59 2 56 55 -61 0
57 4 59 2 56 55 -60 0
57 4 59 2 1 5 -62 0
57 4 59 2 1 5 -58 0
57 4 59 2 1 5 -61 0
57 4 59 2 1 5 -60 0
57 4 59 2 55 5 -62 0
57 4 59 2 55 5 -58 0
57 4 59 2 55 5 -61 0
57 4 59 2 55 5 -60 0
57 4 59 56 1 55 -62 0
57 4 59 56 1 55 -58 0
57 4 59 56 1 55 -61 0
57 4 59 56 1 55 -60 0
57 4 59 56 55 5 -62 0
57 4 59 56 55 5 -58 0
57 4 59 56 55 5 -61 0
57 4 59 56 55 5 -60 0
57 4 2 56 1 5 -62 0
57 4 2 56 1 5 -58 0
57 4 2 56 1 5 -61 0
57 4 2 56 1 5 -60 0
57 4 2 1 55 5 -62 0
57 4 2 1 55 5 -58 0
57 4 2 1 55 5 -61 0
57 4 2 1 55 5 -60 0
57 4 56 1 55 5 -62 0
57 4 56 1 55 5 -58 0
57 4 56 1 55 5 -61 0
57 4 56 1 55 5 -60 0
57 38 59 34 56 55 -179 0
57 38 59 34 56 55 -182 0
57 38 59 34 56 55 -181 0
57 38 59 34 56 55 -180 0
57 38 59 56 33 55 -179 0
57 38 59 56 33 55 -182 0
57 38 59 56 33 55 -181 0
57 38 59 56 33 55 -180 0
57 13 59 14 56 55 -102 0
57 13 59 14 56 55 -101 0
57 13 59 14 56 55 -103 0
57 13 59 14 56 55 -104 0
57 13 59 56 12 55 -102 0
57 13 59 56 12 55 -101 0
57 13 59 56 12 55 -103 0
57 13 59 56 12 55 -104 0
57 26 59 30 56 55 -159 0
57 26 59 30 56 55 -157 0
57 26 59 30 56 55 -160 0
57 26 59 30 56 55 -158 0
57 26 59 56 25 55 -159 0
57 26 59 56 25 55 -157 0
57 26 59 56 25 55 -160 0
57 26 59 56 25 55 -158 0
57 59 48 56 54 55 -211 0
57 59 48 56 54 55 -214 0
57 59 48 56 54 55 -212 0
57 59 48 56 54 55 -213 0
57 59 48 56 55 50 -211 0
57 59 48 56 55 50 -214 0
57 59 48 56 55 50 -212 0
57 59 48 56 55 50 -213 0
57 59 21 56 20 55 -131 0
57 59 21 56 20 55 -134 0
57 59 21 56 20 55 -133 0
57 59 21 56 20 55 -132 0
57 59 21 56 55 18 -131 0
57 59 21 56 55 18 -134 0
57 59 21 56 55 18 -133 0
57 59 21 56 55 18 -132 0
57 59 45 56 42 55 -200 0
57 59 45 56 42 55 -198 0
57 59 45 56 42 55 -197 0
57 59 45 56 42 55 -199 0
57 59 45 56 55 41 -200 0
57 59 45 56 55 41 -198 0
57 59 45 56 55 41 -197 0
57 59 45 56 55 41 -199 0
57 59 72 56 73 55 -230 0
57 59 72 56 73 55 -229 0
57 59 72 56 73 55 -232 0
57 59 72 56 73 55 -231 0
57 59 72 56 55 78 -230 0
57 59 72 56 55 78 -229 0
57 59 72 56 55 78 -232 0
57 59 72 56 55 78 -231 0
57 59 69 56 67 55 -227 0
57 59 69 56 67 55 -225 0
57 59 69 56 67 55 -228 0
57 59 69 56 67 55 -226 0
57 59 69 56 55 63 -227 0
57 59 69 56 55 63 -225 0
57 59 69 56 55 63 -228 0
57 59 69 56 55 63 -226 0
57 59 2 56 1 55 -62 0
57 59 2 56 1 55 -58 0
57 59 2 56 1 55 -61 0
57 59 2 56 1 55 -60 0
57 59 2 56 55 5 -62 0
57 59 2 56 55 5 -58 0
57 59 2 56 55 5 -61 0
57 59 2 56 55 5 -60 0
57 59 34 56 33 55 -179 0
57 59 34 56 33 55 -182 0
57 59 34 56 33 55 -181 0
57 59 34 56 33 55 -180 0
57 59 14 56 12 55 -102 0
57 59 14 56 12 55 -101 0
57 59 14 56 12 55 -103 0
57 59 14 56 12 55 -104 0
57 59 30 56 25 55 -159 0
57 59 30 56 25 55 -157 0
57 59 30 56 25 55 -160 0
57 59 30 56 25 55 -158 0
57 59 56 54 55 50 -211 0
57 59 56 54 55 50 -214 0
57 59 56 54 55 50 -212 0
57 59 56 54 55 50 -213 0
57 59 56 20 55 18 -131 0
57 59 56 20 55 18 -134 0
57 59 56 20 55 18 -133 0
57 59 56 20 55 18 -132 0
57 59 56 42 55 41 -200 0
57 59 56 42 55 41 -198 0
57 59 56 42 55 41 -197 0
57 59 56 42 55 41 -199 0
57 59 56 73 55 78 -230 0
57 59 56 73 55 78 -229 0
57 59 56 73 55 78 -232 0
57 59 56 73 55 78 -231 0
57 59 56 67 55 63 -227 0
57 59 56 67 55 63 -225 0
57 59 56 67 55 63 -228 0
57 59 56 67 55 63 -226 0
57 59 56 1 55 5 -62 0
57 59 56 1 55 5 -58 0
57 59 56 1 55 5 -61 0
57 59 56 1 55 5 -60 0
47 15 48 21 54 20 -128 0
47 15 48 21 54 20 -129 0
47 15 48 21 54 20 -127 0
47 15 48 21 54 20 -130 0
47 15 48 21 54 50 -128 0
47 15 48 21 54 50 -129 0
47 15 48 21 54 50 -127 0
47 15 48 21 54 50 -130 0
47 15 48 21 20 18 -128 0
47 15 48 21 20 18 -129 0
47 15 48 21 20 18 -127 0
47 15 48 21 20 18 -130 0
47 15 48 21 50 18 -128 0
47 15 48 21 50 18 -129 0
47 15 48 21 50 18 -127 0
47 15 48 21 50 18 -130 0
47 15 48 54 20 50 -128 0
47 15 48 54 20 50 -129 0
47 15 48 54 20 50 -127 0
47 15 48 54 20 50 -130 0
47 15 48 54 50 18 -128 0
47 15 48 54 50 18 -129 0
47 15 48 54 50 18 -127 0
47 15 48 54 50 18 -130 0
47 15 21 54 20 18 -128 0
47 15 21 54 20 18 -129 0
47 15 21 54 20 18 -127 0
47 15 21 54 20 18 -130 0
47 15 21 20 50 18 -128 0
47 15 21 20 50 18 -129 0
47 15 21 20 50 18 -127 0
47 15 21 20 50 18 -130 0
47 15 54 20 50 18 -128 0
47 15 54 20 50 18 -129 0
47 15 54 20 50 18 -127 0
47 15 54 20 50 18 -130 0
47 46 48 45 54 42 -195 0
47 46 48 45 54 42 -193 0
47 46 48 45 54 42 -196 0
47 46 48 45 54 42 -194 0
47 46 48 45 54 50 -195 0
47 46 48 45 54 50 -193 0
47 46 48 45 54 50 -196 0
47 46 48 45 54 50 -194 0
47 46 48 45 42 41 -195 0
47 46 48 45 42 41 -193 0
47 46 48 45 42 41 -196 0
47 46 48 45 42 41 -194 0
47 46 48 45 50 41 -195 0
47 46 48 45 50 41 -193 0
47 46 48 45 50 41 -196 0
47 46 48 45 50 41 -194 0
47 46 48 54 42 50 -195 0
47 46 48 54 42 50 -193 0
47 46 48 54 42 50 -196 0
47 46 48 54 42 50 -194 0
47 46 48 54 50 41 -195 0
47 46 48 54 50 41 -193 0
47 46 48 54 50 41 -196 0
47 46 48 54 50 41 -194 0
47 46 45 54 42 41 -195 0
47 46 45 54 42 41 -193 0
47 46 45 54 42 41 -196 0
47 46 45 54 42 41 -194 0
47 46 45 42 50 41 -195 0
47 46 45 42 50 41 -193 0
47 46 45 42 50 41 -196 0
47 46 45 42 50 41 -194 0
47 46 54 42 50 41 -195 0
47 46 54 42 50 41 -193 0
47 46 54 42 50 41 -196 0
47 46 54 42 50 41 -194 0
47 75 48 72 54 73 -219 0
47 75 48 72 54 73 -220 0
47 75 48 72 54 73 -221 0
47 75 48 72 54 73 -222 0
47 75 48 72 54 50 -219 0
47 75 48 72 54 50 -220 0
47 75 48 72 54 50 -221 0
47 75 48 72 54 50 -222 0
47 75 48 72 73 78 -219 0
47 75 48 72 73 78 -220 0
47 75 48 72 73 78 -221 0
47 75 48 72 73 78 -222 0
47 75 48 72 50 78 -219 0
47 75 48 72 50 78 -220 0
47 75 48 72 50 78 -221 0
47 75 48 72 50 78 -222 0
47 75 48 54 73 50 -219 0
47 75 48 54 73 50 -220 0
47 75 48 54 73 50 -221 0
47 75 48 54 73 50 -222 0
47 75 48 54 50 78 -219 0
47 75 48 54 50 78 -220 0
47 75 48 54 50 78 -221 0
47 75 48 54 50 78 -222 0
47 75 72 54 73 78 -219 0
47 75 72 54 73 78 -220 0
47 75 72 54 73 78 -221 0
47 75 72 54 73 78 -222 0
47 75 72 73 50 78 -219 0
47 75 72 73 50 78 -220 0
47 75 72 73 50 78 -221 0
47 75 72 73 50 78 -222 0
47 75 54 73 50 78 -219 0
47 75 54 73 50 78 -220 0
47 75 54 73 50 78 -221 0
47 75 54 73 50 78 -222 0
47 68 48 69 54 67 -217 0
47 68 48 69 54 67 -216 0
47 68 48 69 54 67 -215 0
47 68 48 69 54 67 -218 0
47 68 48 69 54 50 -217 0
47 68 48 69 54 50 -216 0
47 68 48 69 54 50 -215 0
47 68 48 69 54 50 -218 0
47 68 48 69 67 63 -217 0
47 68 48 69 67 63 -216 0
47 68 48 69 67 63 -215 0
47 68 48 69 67 63 -218 0
47 68 48 69 50 63 -217 0
47 68 48 69 50 63 -216 0
47 68 48 69 50 63 -215 0
47 68 48 69 50 63 -218 0
47 68 48 54 67 50 -217 0
47 68 48 54 67 50 -216 0
47 68 48 54 67 50 -215 0
47 68 48 54 67 50 -218 0
47 68 48 54 50 63 -217 0
47 68 48 54 50 63 -216 0
47 68 48 54 50 63 -215 0
47 68 48 54 50 63 -218 0
47 68 69 54 67 63 -217 0
47 68 69 54 67 63 -216 0
47 68 69 54 67 63 -215 0
47 68 69 54 67 63 -218 0
47 68 69 67 50 63 -217 0
47 68 69 67 50 63 -216 0
47 68 69 67 50 63 -215 0
47 68 69 67 50 63 -218 0
47 68 54 67 50 63 -217 0
47 68 54 67 50 63 -216 0
47 68 54 67 50 63 -215 0
47 68 54 67 50 63 -218 0
47 4 48 2 54 1 -51 0
47 4 48 2 54 1 -53 0
47 4 48 2 54 1 -52 0
47 4 48 2 54 1 -49 0
47 4 48 2 54 50 -51 0
47 4 48 2 54 50 -53 0
47 4 48 2 54 50 -52 0
47 4 48 2 54 50 -49 0
47 4 48 2 1 5 -51 0
47 4 48 2 1 5 -53 0
47 4 48 2 1 5 -52 0
47 4 48 2 1 5 -49 0
47 4 48 2 50 5 -51 0
47 4 48 2 50 5 -53 0
47 4 48 2 50 5 -52 0
47 4 48 2 50 5 -49 0
47 4 48 54 1 50 -51 0
47 4 48 54 1 50 -53 0
47 4 48 54 1 50 -52 0
47 4 48 54 1 50 -49 0
47 4 48 54 50 5 -51 0
47 4 48 54 50 5 -53 0
47 4 48 54 50 5 -52 0
47 4 48 54 50 5 -49 0
47 4 2 54 1 5 -51 0
47 4 2 54 1 5 -53 0
47 4 2 54 1 5 -52 0
47 4 2 54 1 5 -49 0
47 4 2 1 50 5 -51 0
47 4 2 1 50 5 -53 0
47 4 2 1 50 5 -52 0
47 4 2 1 50 5 -49 0
47 4 54 1 50 5 -51 0
47 4 54 1 50 5 -53 0
47 4 54 1 50 5 -52 0
47 4 54 1 50 5 -49 0
47 38 48 34 54 50 -176 0
47 38 48 34 54 50 -178 0
47 38 48 34 54 50 -177 0
47 38 48 34 54 50 -175 0
47 38 48 54 33 50 -176 0
47 38 48 54 33 50 -178 0
47 38 48 54 33 50 -177 0
47 38 48 54 33 50 -175 0
47 13 48 14 54 50 -99 0
47 13 48 14 54 50 -97 0
47 13 48 14 54 50 -100 0
47 13 48 14 54 50 -98 0
47 13 48 54 12 50 -99 0
47 13 48 54 12 50 -97 0
47 13 48 54 12 50 -100 0
47 13 48 54 12 50 -98 0
47 26 48 30 54 50 -155 0
47 26 48 30 54 50 -153 0
47 26 48 30 54 50 -156 0
47 26 48 30 54 50 -154 0
47 26 48 54 25 50 -155 0
47 26 48 54 25 50 -153 0
47 26 48 54 25 50 -156 0
47 26 48 54 25 50 -154 0
47 59 48 56 54 50 -211 0
47 59 48 56 54 50 -214 0
47 59 48 56 54 50 -212 0
47 59 48 56 54 50 -213 0
47 59 48 54 55 50 -211 0
47 59 48 54 55 50 -214 0
47 59 48 54 55 50 -212 0
47 59 48 54 55 50 -213 0
47 48 21 54 20 50 -128 0
47 48 21 54 20 50 -129 0
47 48 21 54 20 50 -127 0
47 48 21 54 20 50 -130 0
47 48 21 54 50 18 -128 0
47 48 21 54 50 18 -129 0
47 48 21 54 50 18 -127 0
47 48 21 54 50 18 -130 0
47 48 45 54 42 50 -195 0
47 48 45 54 42 50 -193 0
47 48 45 54 42 50 -196 0
47 48 45 54 42 50 -194 0
47 48 45 54 50 41 -195 0
47 48 45 54 50 41 -193 0
47 48 45 54 50 41 -196 0
47 48 45 54 50 41 -194 0
47 48 72 54 73 50 -219 0
47 48 72 54 73 50 -220 0
47 48 72 54 73 50 -221 0
47 48 72 54 73 50 -222 0
47 48 72 54 50 78 -219 0
47 48 72 54 50 78 -220 0
47 48 72 54 50 78 -221 0
47 48 72 54 50 78 -222 0
47 48 69 54 67 50 -217 0
47 48 69 54 67 50 -216 0
47 48 69 54 67 50 -215 0
47 48 69 54 67 50 -218 0
47 48 69 54 50 63 -217 0
47 48 69 54 50 63 -216 0
47 48 69 54 50 63 -215 0
47 48 69 54 50 63 -218 0
47 48 2 54 1 50 -51 0
47 48 2 54 1 50 -53 0
47 48 2 54 1 50 -52 0
47 48 2 54 1 50 -49 0
47 48 2 54 50 5 -51 0
47 48 2 54 50 5 -53 0
47 48 2 54 50 5 -52 0
47 48 2 54 50 5 -49 0
47 48 34 54 33 50 -176 0
47 48 34 54 33 50 -178 0
47 48 34 54 33 50 -177 0
47 48 34 54 33 50 -175 0
47 48 14 54 12 50 -99 0
47 48 14 54 12 50 -97 0
47 48 14 54 12 50 -100 0
47 48 14 54 12 50 -98 0
47 48 30 54 25 50 -155 0
47 48 30 54 25 50 -153 0
47 48 30 54 25 50 -156 0
47 48 30 54 25 50 -154 0
47 48 56 54 55 50 -211 0
47 48 56 54 55 50 -214 0
47 48 56 54 55 50 -212 0
47 48 56 54 55 50 -213 0
47 48 54 20 50 18 -128 0
47 48 54 20 50 18 -129 0
47 48 54 20 50 18 -127 0
47 48 54 20 50 18 -130 0
47 48 54 42 50 41 -195 0
47 48 54 42 50 41 -193 0
47 48 54 42 50 41 -196 0
47 48 54 42 50 41 -194 0
47 48 54 73 50 78 -219 0
47 48 54 73 50 78 -220 0
47 48 54 73 50 78 -221 0
47 48 54 73 50 78 -222 0
47 48 54 67 50 63 -217 0
47 48 54 67 50 63 -216 0
47 48 54 67 50 63 -215 0
47 48 54 67 50 63 -218 0
47 48 54 1 50 5 -51 0
47 48 54 1 50 5 -53 0
47 48 54 1 50 5 -52 0
47 48 54 1 50 5 -49 0
15 46 21 45 20 42 -123 0
15 46 21 45 20 42 -125 0
15 46 21 45 20 42 -124 0
15 46 21 45 20 42 -126 0
15 46 21 45 20 18 -123 0
15 46 21 45 20 18 -125 0
15 46 21 45 20 18 -124 0
15 46 21 45 20 18 -126 0
15 46 21 45 42 41 -123 0
15 46 21 45 42 41 -125 0
15 46 21 45 42 41 -124 0
15 46 21 45 42 41 -126 0
15 46 21 45 18 41 -123 0
15 46 21 45 18 41 -125 0
15 46 21 45 18 41 -124 0
15 46 21 45 18 41 -126 0
15 46 21 20 42 18 -123 0
15 46 21 20 42 18 -125 0
15 46 21 20 42 18 -124 0
15 46 21 20 42 18 -126 0
15 46 21 20 18 41 -123 0
15 46 21 20 18 41 -125 0
15 46 21 20 18 41 -124 0
15 46 21 20 18 41 -126 0
15 46 45 20 42 41 -123 0
15 46 45 20 42 41 -125 0
15 46 45 20 42 41 -124 0
15 46 45 20 42 41 -126 0
15 46 45 42 18 41 -123 0
15 46 45 42 18 41 -125 0
15 46 45 42 18 41 -124 0
15 46 45 42 18 41 -126 0
15 46 20 42 18 41 -123 0
15 46 20 42 18 41 -125 0
15 46 20 42 18 41 -124 0
15 46 20 42 18 41 -126 0
15 75 21 72 20 73 -140 0
15 75 21 72 20 73 -141 0
15 75 21 72 20 73 -142 0
15 75 21 72 20 73 -139 0
15 75 21 72 20 18 -140 0
15 75 21 72 20 18 -141 0
15 75 21 72 20 18 -142 0
15 75 21 72 20 18 -139 0
15 75 21 72 73 78 -140 0
15 75 21 72 73 78 -141 0
15 75 21 72 73 78 -142 0
15 75 21 72 73 78 -139 0
15 75 21 72 18 78 -140 0
15 75 21 72 18 78 -141 0
15 75 21 72 18 78 -142 0
15 75 21 72 18 78 -139 0
15 75 21 20 73 18 -140 0
15 75 21 20 73 18 -141 0
15 75 21 20 73 18 -142 0
15 75 21 20 73 18 -139 0
15 75 21 20 18 78 -140 0
15 75 21 20 18 78 -141 0
15 75 21 20 18 78 -142 0
15 75 21 20 18 78 -139 0
15 75 72 20 73 78 -140 0
15 75 72 20 73 78 -141 0
15 75 72 20 73 78 -142 0
15 75 72 20 73 78 -139 0
15 75 72 73 18 78 -140 0
15 75 72 73 18 78 -141 0
15 75 72 73 18 78 -142 0
15 75 72 73 18 78 -139 0
15 75 20 73 18 78 -140 0
15 75 20 73 18 78 -141 0
15 75 20 73 18 78 -142 0
15 75 20 73 18 78 -139 0
15 68 21 69 20 67 -136 0
15 68 21 69 20 67 -135 0
15 68 21 69 20 67 -137 0
15 68 21 69 20 67 -138 0
15 68 21 69 20 18 -136 0
15 68 21 69 20 18 -135 0
15 68 21 69 20 18 -137 0
15 68 21 69 20 18 -138 0
15 68 21 69 67 63 -136 0
15 68 21 69 67 63 -135 0
15 68 21 69 67 63 -137 0
15 68 21 69 67 63 -138 0
15 68 21 69 18 63 -136 0
15 68 21 69 18 63 -135 0
15 68 21 69 18 63 -137 0
15 68 21 69 18 63 -138 0
15 68 21 20 67 18 -136 0
15 68 21 20 67 18 -135 0
15 68 21 20 67 18 -137 0
15 68 21 20 67 18 -138 0
15 68 21 20 18 63 -136 0
15 68 21 20 18 63 -135 0
15 68 21 20 18 63 -137 0
15 68 21 20 18 63 -138 0
15 68 69 20 67 63 -136 0
15 68 69 20 67 63 -135 0
15 68 69 20 67 63 -137 0
15 68 69 20 67 63 -138 0
15 68 69 67 18 63 -136 0
15 68 69 67 18 63 -135 0
15 68 69 67 18 63 -137 0
15 68 69 67 18 63 -138 0
15 68 20 67 18 63 -136 0
15 68 20 67 18 63 -135 0
15 68 20 67 18 63 -137 0
15 68 20 67 18 63 -138 0
15 4 21 2 20 1 -16 0
15 4 21 2 20 1 -19 0
15 4 21 2 20 1 -17 0
15 4 21 2 20 1 -22 0
15 4 21 2 20 18 -16 0
15 4 21 2 20 18 -19 0
15 4 21 2 20 18 -17 0
15 4 21 2 20 18 -22 0
15 4 21 2 1 5 -16 0
15 4 21 2 1 5 -19 0
15 4 21 2 1 5 -17 0
15 4 21 2 1 5 -22 0
15 4 21 2 18 5 -16 0
15 4 21 2 18 5 -19 0
15 4 21 2 18 5 -17 0
15 4 21 2 18 5 -22 0
15 4 21 20 1 18 -16 0
15 4 21 20 1 18 -19 0
15 4 21 20 1 18 -17 0
15 4 21 20 1 18 -22 0
15 4 21 20 18 5 -16 0
15 4 21 20 18 5 -19 0
15 4 21 20 18 5 -17 0
15 4 21 20 18 5 -22 0
15 4 2 20 1 5 -16 0
15 4 2 20 1 5 -19 0
15 4 2 20 1 5 -17 0
15 4 2 20 1 5 -22 0
15 4 2 1 18 5 -16 0
15 4 2 1 18 5 -19 0
15 4 2 1 18 5 -17 0
15 4 2 1 18 5 -22 0
15 4 20 1 18 5 -16 0
15 4 20 1 18 5 -19 0
15 4 20 1 18 5 -17 0
15 4 20 1 18 5 -22 0
15 38 21 34 20 18 -119 0
15 38 21 34 20 18 -120 0
15 38 21 34 20 18 -121 0
15 38 21 34 20 18 -122 0
15 38 21 20 33 18 -119 0
15 38 21 20 33 18 -120 0
15 38 21 20 33 18 -121 0
15 38 21 20 33 18 -122 0
15 13 21 14 20 18 -81 0
15 13 21 14 20 18 -83 0
15 13 21 14 20 18 -82 0
15 13 21 14 20 18 -84 0
15 13 21 20 12 18 -81 0
15 13 21 20 12 18 -83 0
15 13 21 20 12 18 -82 0
15 13 21 20 12 18 -84 0
15 26 21 30 20 18 -115 0
15 26 21 30 20 18 -116 0
15 26 21 30 20 18 -117 0
15 26 21 30 20 18 -118 0
15 26 21 20 25 18 -115 0
15 26 21 20 25 18 -116 0
15 26 21 20 25 18 -117 0
15 26 21 20 25 18 -118 0
15 59 21 56 20 18 -131 0
15 59 21 56 20 18 -134 0
15 59 21 56 20 18 -133 0
15 59 21 56 20 18 -132 0
15 59 21 20 55 18 -131 0
15 59 21 20 55 18 -134 0
15 59 21 20 55 18 -133 0
15 59 21 20 55 18 -132 0
15 48 21 54 20 18 -128 0
15 48 21 54 20 18 -129 0
15 48 21 54 20 18 -127 0
15 48 21 54 20 18 -130 0
15 48 21 20 50 18 -128 0
15 48 21 20 50 18 -129 0
15 48 21 20 50 18 -127 0
15 48 21 20 50 18 -130 0
15 21 45 20 42 18 -123 0
15 21 45 20 42 18 -125 0
15 21 45 20 42 18 -124 0
15 21 45 20 42 18 -126 0
15 21 45 20 18 41 -123 0
15 21 45 20 18 41 -125 0
15 21 45 20 18 41 -124 0
15 21 45 20 18 41 -126 0
15 21 72 20 73 18 -140 0
15 21 72 20 73 18 -141 0
15 21 72 20 73 18 -142 0
15 21 72 20 73 18 -139 0
15 21 72 20 18 78 -140 0
15 21 72 20 18 78 -141 0
15 21 72 20 18 78 -142 0
15 21 72 20 18 78 -139 0
15 21 69 20 67 18 -136 0
15 21 69 20 67 18 -135 0
15 21 69 20 67 18 -137 0
15 21 69 20 67 18 -138 0
15 21 69 20 18 63 -136 0
15 21 69 20 18 63 -135 0
15 21 69 20 18 63 -137 0
15 21 69 20 18 63 -138 0
15 21 2 20 1 18 -16 0
15 21 2 20 1 18 -19 0
15 21 2 20 1 18 -17 0
15 21 2 20 1 18 -22 0
15 21 2 20 18 5 -16 0
15 21 2 20 18 5 -19 0
15 21 2 20 18 5 -17 0
15 21 2 20 18 5 -22 0
15 21 34 20 33 18 -119 0
15 21 34 20 33 18 -120 0
15 21 34 20 33 18 -121 0
15 21 34 20 33 18 -122 0
15 21 14 20 12 18 -81 0
15 21 14 20 12 18 -83 0
15 21 14 20 12 18 -82 0
15 21 14 20 12 18 -84 0
15 21 30 20 25 18 -115 0
15 21 30 20 25 18 -116 0
15 21 30 20 25 18 -117 0
15 21 30 20 25 18 -118 0
15 21 56 20 55 18 -131 0
15 21 56 20 55 18 -134 0
15 21 56 20 55 18 -133 0
15 21 56 20 55 18 -132 0
15 21 54 20 50 18 -128 0
15 21 54 20 50 18 -129 0
15 21 54 20 50 18 -127 0
15 21 54 20 50 18 -130 0
15 21 20 42 18 41 -123 0
15 21 20 42 18 41 -125 0
15 21 20 42 18 41 -124 0
15 21 20 42 18 41 -126 0
15 21 20 73 18 78 -140 0
15 21 20 73 18 78 -141 0
15 21 20 73 18 78 -142 0
15 21 20 73 18 78 -139 0
15 21 20 67 18 63 -136 0
15 21 20 67 18 63 -135 0
15 21 20 67 18 63 -137 0
15 21 20 67 18 63 -138 0
15 21 20 1 18 5 -16 0
15 21 20 1 18 5 -19 0
15 21 20 1 18 5 -17 0
15 21 20 1 18 5 -22 0
46 75 45 72 42 73 -206 0
46 75 45 72 42 73 -207 0
46 75 45 72 42 73 -208 0
46 75 45 72 42 73 -205 0
46 75 45 72 42 41 -206 0
46 75 45 72 42 41 -207 0
46 75 45 72 42 41 -208 0
46 75 45 72 42 41 -205 0
46 75 45 72 73 78 -206 0
46 75 45 72 73 78 -207 0
46 75 45 72 73 78 -208 0
46 75 45 72 73 78 -205 0
46 75 45 72 41 78 -206 0
46 75 45 72 41 78 -207 0
46 75 45 72 41 78 -208 0
46 75 45 72 41 78 -205 0
46 75 45 42 73 41 -206 0
46 75 45 42 73 41 -207 0
46 75 45 42 73 41 -208 0
46 75 45 42 73 41 -205 0
46 75 45 42 41 78 -206 0
46 75 45 42 41 78 -207 0
46 75 45 42 41 78 -208 0
46 75 45 42 41 78 -205 0
46 75 72 42 73 78 -206 0
46 75 72 42 73 78 -207 0
46 75 72 42 73 78 -208 0
46 75 72 42 73 78 -205 0
46 75 72 73 41 78 -206 0
46 75 72 73 41 78 -207 0
46 75 72 73 41 78 -208 0
46 75 72 73 41 78 -205 0
46 75 42 73 41 78 -206 0
46 75 42 73 41 78 -207 0
46 75 42 73 41 78 -208 0
46 75 42 73 41 78 -205 0
46 68 45 69 42 67 -202 0
46 68 45 69 42 67 -201 0
46 68 45 69 42 67 -204 0
46 68 45 69 42 67 -203 0
46 68 45 69 42 41 -202 0
46 68 45 69 42 41 -201 0
46 68 45 69 42 41 -204 0
46 68 45 69 42 41 -203 0
46 68 45 69 67 63 -202 0
46 68 45 69 67 63 -201 0
46 68 45 69 67 63 -204 0
46 68 45 69 67 63 -203 0
46 68 45 69 41 63 -202 0
46 68 45 69 41 63 -201 0
46 68 45 69 41 63 -204 0
46 68 45 69 41 63 -203 0
46 68 45 42 67 41 -202 0
46 68 45 42 67 41 -201 0
46 68 45 42 67 41 -204 0
46 68 45 42 67 41 -203 0
46 68 45 42 41 63 -202 0
46 68 45 42 41 63 -201 0
46 68 45 42 41 63 -204 0
46 68 45 42 41 63 -203 0
46 68 69 42 67 63 -202 0
46 68 69 42 67 63 -201 0
46 68 69 42 67 63 -204 0
46 68 69 42 67 63 -203 0
46 68 69 67 41 63 -202 0
46 68 69 67 41 63 -201 0
46 68 69 67 41 63 -204 0
46 68 69 67 41 63 -203 0
46 68 42 67 41 63 -202 0
46 68 42 67 41 63 -201 0
46 68 42 67 41 63 -204 0
46 68 42 67 41 63 -203 0
46 4 45 2 42 1 -39 0
46 4 45 2 42 1 -40 0
46 4 45 2 42 1 -43 0
46 4 45 2 42 1 -44 0
46 4 45 2 42 41 -39 0
46 4 45 2 42 41 -40 0
46 4 45 2 42 41 -43 0
46 4 45 2 42 41 -44 0
46 4 45 2 1 5 -39 0
46 4 45 2 1 5 -40 0
46 4 45 2 1 5 -43 0
46 4 45 2 1 5 -44 0
46 4 45 2 41 5 -39 0
46 4 45 2 41 5 -40 0
46 4 45 2 41 5 -43 0
46 4 45 2 41 5 -44 0
46 4 45 42 1 41 -39 0
46 4 45 42 1 41 -40 0
46 4 45 42 1 41 -43 0
46 4 45 42 1 41 -44 0
46 4 45 42 41 5 -39 0
46 4 45 42 41 5 -40 0
46 4 45 42 41 5 -43 0
46 4 45 42 41 5 -44 0
46 4 2 42 1 5 -39 0
46 4 2 42 1 5 -40 0
46 4 2 42 1 5 -43 0
46 4 2 42 1 5 -44 0
46 4 2 1 41 5 -39 0
46 4 2 1 41 5 -40 0
46 4 2 1 41 5 -43 0
46 4 2 1 41 5 -44 0
46 4 42 1 41 5 -39 0
46 4 42 1 41 5 -40 0
46 4 42 1 41 5 -43 0
46 4 42 1 41 5 -44 0
46 38 45 34 42 41 -173 0
46 38 45 34 42 41 -171 0
46 38 45 34 42 41 -174 0
46 38 45 34 42 41 -172 0
46 38 45 42 33 41 -173 0
46 38 45 42 33 41 -171 0
46 38 45 42 33 41 -174 0
46 38 45 42 33 41 -172 0
46 13 45 14 42 41 -93 0
46 13 45 14 42 41 -96 0
46 13 45 14 42 41 -94 0
46 13 45 14 42 41 -95 0
46 13 45 42 12 41 -93 0
46 13 45 42 12 41 -96 0
46 13 45 42 12 41 -94 0
46 13 45 42 12 41 -95 0
46 26 45 30 42 41 -151 0
46 26 45 30 42 41 -152 0
46 26 45 30 42 41 -149 0
46 26 45 30 42 41 -150 0
46 26 45 42 25 41 -151 0
46 26 45 42 25 41 -152 0
46 26 45 42 25 41 -149 0
46 26 45 42 25 41 -150 0
46 59 45 56 42 41 -200 0
46 59 45 56 42 41 -198 0
46 59 45 56 42 41 -197 0
46 59 45 56 42 41 -199 0
46 59 45 42 55 41 -200 0
46 59 45 42 55 41 -198 0
46 59 45 42 55 41 -197 0
46 59 45 42 55 41 -199 0
46 48 45 54 42 41 -195 0
46 48 45 54 42 41 -193 0
46 48 45 54 42 41 -196 0
46 48 45 54 42 41 -194 0
46 48 45 42 50 41 -195 0
46 48 45 42 50 41 -193 0
46 48 45 42 50 41 -196 0
46 48 45 42 50 41 -194 0
46 21 45 20 42 41 -123 0
46 21 45 20 42 41 -125 0
46 21 45 20 42 41 -124 0
46 21 45 20 42 41 -126 0
46 21 45 42 18 41 -123 0
46 21 45 42 18 41 -125 0
46 21 45 42 18 41 -124 0
46 21 45 42 18 41 -126 0
46 45 72 42 73 41 -206 0
46 45 72 42 73 41 -207 0
46 45 72 42 73 41 -208 0
46 45 72 42 73 41 -205 0
46 45 72 42 41 78 -206 0
46 45 72 42 41 78 -207 0
46 45 72 42 41 78 -208 0
46 45 72 42 41 78 -205 0
46 45 69 42 67 41 -202 0
46 45 69 42 67 41 -201 0
46 45 69 42 67 41 -204 0
46 45 69 42 67 41 -203 0
46 45 69 42 41 63 -202 0
46 45 69 42 41 63 -201 0
46 45 69 42 41 63 -204 0
46 45 69 42 41 63 -203 0
46 45 2 42 1 41 -39 0
46 45 2 42 1 41 -40 0
46 45 2 42 1 41 -43 0
46 45 2 42 1 41 -44 0
46 45 2 42 41 5 -39 0
46 45 2 42 41 5 -40 0
46 45 2 42 41 5 -43 0
46 45 2 42 41 5 -44 0
46 45 34 42 33 41 -173 0
46 45 34 42 33 41 -171 0
46 45 34 42 33 41 -174 0
46 45 34 42 33 41 -172 0
46 45 14 42 12 41 -93 0
46 45 14 42 12 41 -96 0
46 45 14 42 12 41 -94 0
46 45 14 42 12 41 -95 0
46 45 30 42 25 41 -151 0
46 45 30 42 25 41 -152 0
46 45 30 42 25 41 -149 0
46 45 30 42 25 41 -150 0
46 45 56 42 55 41 -200 0
46 45 56 42 55 41 -198 0
46 45 56 42 55 41 -197 0
46 45 56 42 55 41 -199 0
46 45 54 42 50 41 -195 0
46 45 54 42 50 41 -193 0
46 45 54 42 50 41 -196 0
46 45 54 42 50 41 -194 0
46 45 20 42 18 41 -123 0
46 45 20 42 18 41 -125 0
46 45 20 42 18 41 -124 0
46 45 20 42 18 41 -126 0
46 45 42 73 41 78 -206 0
46 45 42 73 41 78 -207 0
46 45 42 73 41 78 -208 0
46 45 42 73 41 78 -205 0
46 45 42 67 41 63 -202 0
46 45 42 67 41 63 -201 0
46 45 42 67 41 63 -204 0
46 45 42 67 41 63 -203 0
46 45 42 1 41 5 -39 0
46 45 42 1 41 5 -40 0
46 45 42 1 41 5 -43 0
46 45 42 1 41 5 -44 0
75 68 72 69 73 67 -237 0
75 68 72 69 73 67 -235 0
75 68 72 69 73 67 -238 0
75 68 72 69 73 67 -236 0
75 68 72 69 73 78 -237 0
75 68 72 69 73 78 -235 0
75 68 72 69 73 78 -238 0
75 68 72 69 73 78 -236 0
75 68 72 69 67 63 -237 0
75 68 72 69 67 63 -235 0
75 68 72 69 67 63 -238 0
75 68 72 69 67 63 -236 0
75 68 72 69 78 63 -237 0
75 68 72 69 78 63 -235 0
75 68 72 69 78 63 -238 0
75 68 72 69 78 63 -236 0
75 68 72 73 67 78 -237 0
75 68 72 73 67 78 -235 0
75 68 72 73 67 78 -238 0
75 68 72 73 67 78 -236 0
75 68 72 73 78 63 -237 0
75 68 72 73 78 63 -235 0
75 68 72 73 78 63 -238 0
75 68 72 73 78 63 -236 0
75 68 69 73 67 63 -237 0
75 68 69 73 67 63 -235 0
75 68 69 73 67 63 -238 0
75 68 69 73 67 63 -236 0
75 68 69 67 78 63 -237 0
75 68 69 67 78 63 -235 0
75 68 69 67 78 63 -238 0
75 68 69 67 78 63 -236 0
75 68 73 67 78 63 -237 0
75 68 73 67 78 63 -235 0
75 68 73 67 78 63 -238 0
75 68 73 67 78 63 -236 0
75 4 72 2 73 1 -76 0
75 4 72 2 73 1 -77 0
75 4 72 2 73 1 -74 0
75 4 72 2 73 1 -71 0
75 4 72 2 73 78 -76 0
75 4 72 2 73 78 -77 0
75 4 72 2 73 78 -74 0
75 4 72 2 73 78 -71 0
75 4 72 2 1 5 -76 0
75 4 72 2 1 5 -77 0
75 4 72 2 1 5 -74 0
75 4 72 2 1 5 -71 0
75 4 72 2 78 5 -76 0
75 4 72 2 78 5 -77 0
75 4 72 2 78 5 -74 0
75 4 72 2 78 5 -71 0
75 4 72 73 1 78 -76 0
75 4 72 73 1 78 -77 0
75 4 72 73 1 78 -74 0
75 4 72 73 1 78 -71 0
75 4 72 73 78 5 -76 0
75 4 72 73 78 5 -77 0
75 4 72 73 78 5 -74 0
75 4 72 73 78 5 -71 0
75 4 2 73 1 5 -76 0
75 4 2 73 1 5 -77 0
75 4 2 73 1 5 -74 0
75 4 2 73 1 5 -71 0
75 4 2 1 78 5 -76 0
75 4 2 1 78 5 -77 0
75 4 2 1 78 5 -74 0
75 4 2 1 78 5 -71 0
75 4 73 1 78 5 -76 0
75 4 73 1 78 5 -77 0
75 4 73 1 78 5 -74 0
75 4 73 1 78 5 -71 0
75 38 72 34 73 78 -188 0
75 38 72 34 73 78 -190 0
75 38 72 34 73 78 -189 0
75 38 72 34 73 78 -187 0
75 38 72 73 33 78 -188 0
75 38 72 73 33 78 -190 0
75 38 72 73 33 78 -189 0
75 38 72 73 33 78 -187 0
75 13 72 14 73 78 -109 0
75 13 72 14 73 78 -110 0
75 13 72 14 73 78 -112 0
75 13 72 14 73 78 -111 0
75 13 72 73 12 78 -109 0
75 13 72 73 12 78 -110 0
75 13 72 73 12 78 -112 0
75 13 72 73 12 78 -111 0
75 26 72 30 73 78 -167 0
75 26 72 30 73 78 -166 0
75 26 72 30 73 78 -165 0
75 26 72 30 73 78 -168 0
75 26 72 73 25 78 -167 0
75 26 72 73 25 78 -166 0
75 26 72 73 25 78 -165 0
75 26 72 73 25 78 -168 0
75 59 72 56 73 78 -230 0
75 59 72 56 73 78 -229 0
75 59 72 56 73 78 -232 0
75 59 72 56 73 78 -231 0
75 59 72 73 55 78 -230 0
75 59 72 73 55 78 -229 0
75 59 72 73 55 78 -232 0
75 59 72 73 55 78 -231 0
75 48 72 54 73 78 -219 0
75 48 72 54 73 78 -220 0
75 48 72 54 73 78 -221 0
75 48 72 54 73 78 -222 0
75 48 72 73 50 78 -219 0
75 48 72 73 50 78 -220 0
75 48 72 73 50 78 -221 0
75 48 72 73 50 78 -222 0
75 21 72 20 73 78 -140 0
75 21 72 20 73 78 -141 0
75 21 72 20 73 78 -142 0
75 21 72 20 73 78 -139 0
75 21 72 73 18 78 -140 0
75 21 72 73 18 78 -141 0
75 21 72 73 18 78 -142 0
75 21 72 73 18 78 -139 0
75 45 72 42 73 78 -206 0
75 45 72 42 73 78 -207 0
75 45 72 42 73 78 -208 0
75 45 72 42 73 78 -205 0
75 45 72 73 41 78 -206 0
75 45 72 73 41 78 -207 0
75 45 72 73 41 78 -208 0
75 45 72 73 41 78 -205 0
75 72 69 73 67 78 -237 0
75 72 69 73 67 78 -235 0
75 72 69 73 67 78 -238 0
75 72 69 73 67 78 -236 0
75 72 69 73 78 63 -237 0
75 72 69 73 78 63 -235 0
75 72 69 73 78 63 -238 0
75 72 69 73 78 63 -236 0
75 72 2 73 1 78 -76 0
75 72 2 73 1 78 -77 0
75 72 2 73 1 78 -74 0
75 72 2 73 1 78 -71 0
75 72 2 73 78 5 -76 0
75 72 2 73 78 5 -77 0
75 72 2 73 78 5 -74 0
75 72 2 73 78 5 -71 0
75 72 34 73 33 78 -188 0
75 72 34 73 33 78 -190 0
75 72 34 73 33 78 -189 0
75 72 34 73 33 78 -187 0
75 72 14 73 12 78 -109 0
75 72 14 73 12 78 -110 0
75 72 14 73 12 78 -112 0
75 72 14 73 12 78 -111 0
75 72 30 73 25 78 -167 0
75 72 30 73 25 78 -166 0
75 72 30 73 25 78 -165 0
75 72 30 73 25 78 -168 0
75 72 56 73 55 78 -230 0
75 72 56 73 55 78 -229 0
75 72 56 73 55 78 -232 0
75 72 56 73 55 78 -231 0
75 72 54 73 50 78 -219 0
75 72 54 73 50 78 -220 0
75 72 54 73 50 78 -221 0
75 72 54 73 50 78 -222 0
75 72 20 73 18 78 -140 0
75 72 20 73 18 78 -141 0
75 72 20 73 18 78 -142 0
75 72 20 73 18 78 -139 0
75 72 42 73 41 78 -206 0
75 72 42 73 41 78 -207 0
75 72 42 73 41 78 -208 0
75 72 42 73 41 78 -205 0
75 72 73 67 78 63 -237 0
75 72 73 67 78 63 -235 0
75 72 73 67 78 63 -238 0
75 72 73 67 78 63 -236 0
75 72 73 1 78 5 -76 0
75 72 73 1 78 5 -77 0
75 72 73 1 78 5 -74 0
75 72 73 1 78 5 -71 0
68 4 69 2 67 1 -64 0
68 4 69 2 67 1 -66 0
68 4 69 2 67 1 -65 0
68 4 69 2 67 1 -70 0
68 4 69 2 67 63 -64 0
68 4 69 2 67 63 -66 0
68 4 69 2 67 63 -65 0
68 4 69 2 67 63 -70 0
68 4 69 2 1 5 -64 0
68 4 69 2 1 5 -66 0
68 4 69 2 1 5 -65 0
68 4 69 2 1 5 -70 0
68 4 69 2 63 5 -64 0
68 4 69 2 63 5 -66 0
68 4 69 2 63 5 -65 0
68 4 69 2 63 5 -70 0
68 4 69 67 1 63 -64 0
68 4 69 67 1 63 -66 0
68 4 69 67 1 63 -65 0
68 4 69 67 1 63 -70 0
68 4 69 67 63 5 -64 0
68 4 69 67 63 5 -66 0
68 4 69 67 63 5 -65 0
68 4 69 67 63 5 -70 0
68 4 2 67 1 5 -64 0
68 4 2 67 1 5 -66 0
68 4 2 67 1 5 -65 0
68 4 2 67 1 5 -70 0
68 4 2 1 63 5 -64 0
68 4 2 1 63 5 -66 0
68 4 2 1 63 5 -65 0
68 4 2 1 63 5 -70 0
68 4 67 1 63 5 -64 0
68 4 67 1 63 5 -66 0
68 4 67 1 63 5 -65 0
68 4 67 1 63 5 -70 0
68 38 69 34 67 63 -183 0
68 38 69 34 67 63 -184 0
68 38 69 34 67 63 -185 0
68 38 69 34 67 63 -186 0
68 38 69 67 33 63 -183 0
68 38 69 67 33 63 -184 0
68 38 69 67 33 63 -185 0
68 38 69 67 33 63 -186 0
68 13 69 14 67 63 -107 0
68 13 69 14 67 63 -108 0
68 13 69 14 67 63 -106 0
68 13 69 14 67 63 -105 0
68 13 69 67 12 63 -107 0
68 13 69 67 12 63 -108 0
68 13 69 67 12 63 -106 0
68 13 69 67 12 63 -105 0
68 26 69 30 67 63 -161 0
68 26 69 30 67 63 -163 0
68 26 69 30 67 63 -162 0
68 26 69 30 67 63 -164 0
68 26 69 67 25 63 -161 0
68 26 69 67 25 63 -163 0
68 26 69 67 25 63 -162 0
68 26 69 67 25 63 -164 0
68 59 69 56 67 63 -227 0
68 59 69 56 67 63 -225 0
68 59 69 56 67 63 -228 0
68 59 69 56 67 63 -226 0
68 59 69 67 55 63 -227 0
68 59 69 67 55 63 -225 0
68 59 69 67 55 63 -228 0
68 59 69 67 55 63 -226 0
68 48 69 54 67 63 -217 0
68 48 69 54 67 63 -216 0
68 48 69 54 67 63 -215 0
68 48 69 54 67 63 -218 0
68 48 69 67 50 63 -217 0
68 48 69 67 50 63 -216 0
68 48 69 67 50 63 -215 0
68 48 69 67 50 63 -218 0
68 21 69 20 67 63 -136 0
68 21 69 20 67 63 -135 0
68 21 69 20 67 63 -137 0
68 21 69 20 67 63 -138 0
68 21 69 67 18 63 -136 0
68 21 69 67 18 63 -135 0
68 21 69 67 18 63 -137 0
68 21 69 67 18 63 -138 0
68 45 69 42 67 63 -202 0
68 45 69 42 67 63 -201 0
68 45 69 42 67 63 -204 0
68 45 69 42 67 63 -203 0
68 45 69 67 41 63 -202 0
68 45 69 67 41 63 -201 0
68 45 69 67 41 63 -204 0
68 45 69 67 41 63 -203 0
68 72 69 73 67 63 -237 0
68 72 69 73 67 63 -235 0
68 72 69 73 67 63 -238 0
68 72 69 73 67 63 -236 0
68 72 69 67 78 63 -237 0
68 72 69 67 78 63 -235 0
68 72 69 67 78 63 -238 0
68 72 69 67 78 63 -236 0
68 69 2 67 1 63 -64 0
68 69 2 67 1 63 -66 0
68 69 2 67 1 63 -65 0
68 69 2 67 1 63 -70 0
68 69 2 67 63 5 -64 0
68 69 2 67 63 5 -66 0
68 69 2 67 63 5 -65 0
68 69 2 67 63 5 -70 0
68 69 34 67 33 63 -183 0
68 69 34 67 33 63 -184 0
68 69 34 67 33 63 -185 0
68 69 34 67 33 63 -186 0
68 69 14 67 12 63 -107 0
68 69 14 67 12 63 -108 0
68 69 14 67 12 63 -106 0
68 69 14 67 12 63 -105 0
68 69 30 67 25 63 -161 0
68 69 30 67 25 63 -163 0
68 69 30 67 25 63 -162 0
68 69 30 67 25 63 -164 0
68 69 56 67 55 63 -227 0
68 69 56 67 55 63 -225 0
68 69 56 67 55 63 -228 0
68 69 56 67 55 63 -226 0
68 69 54 67 50 63 -217 0
68 69 54 67 50 63 -216 0
68 69 54 67 50 63 -215 0
68 69 54 67 50 63 -218 0
68 69 20 67 18 63 -136 0
68 69 20 67 18 63 -135 0
68 69 20 67 18 63 -137 0
68 69 20 67 18 63 -138 0
68 69 42 67 41 63 -202 0
68 69 42 67 41 63 -201 0
68 69 42 67 41 63 -204 0
68 69 42 67 41 63 -203 0
68 69 73 67 78 63 -237 0
68 69 73 67 78 63 -235 0
68 69 73 67 78 63 -238 0
68 69 73 67 78 63 -236 0
68 69 67 1 63 5 -64 0
68 69 67 1 63 5 -66 0
68 69 67 1 63 5 -65 0
68 69 67 1 63 5 -70 0
4 38 2 34 1 5 -31 0
4 38 2 34 1 5 -35 0
4 38 2 34 1 5 -32 0
4 38 2 34 1 5 -36 0
4 38 2 1 33 5 -31 0
4 38 2 1 33 5 -35 0
4 38 2 1 33 5 -32 0
4 38 2 1 33 5 -36 0
4 13 2 14 1 5 -7 0
4 13 2 14 1 5 -8 0
4 13 2 14 1 5 -9 0
4 13 2 14 1 5 -11 0
4 13 2 1 12 5 -7 0
4 13 2 1 12 5 -8 0
4 13 2 1 12 5 -9 0
4 13 2 1 12 5 -11 0
4 26 2 30 1 5 -28 0
4 26 2 30 1 5 -24 0
4 26 2 30 1 5 -27 0
4 26 2 30 1 5 -29 0
4 26 2 1 25 5 -28 0
4 26 2 1 25 5 -24 0
4 26 2 1 25 5 -27 0
4 26 2 1 25 5 -29 0
4 59 2 56 1 5 -62 0
4 59 2 56 1 5 -58 0
4 59 2 56 1 5 -61 0
4 59 2 56 1 5 -60 0
4 59 2 1 55 5 -62 0
4 59 2 1 55 5 -58 0
4 59 2 1 55 5 -61 0
4 59 2 1 55 5 -60 0
4 48 2 54 1 5 -51 0
4 48 2 54 1 5 -53 0
4 48 2 54 1 5 -52 0
4 48 2 54 1 5 -49 0
4 48 2 1 50 5 -51 0
4 48 2 1 50 5 -53 0
4 48 2 1 50 5 -52 0
4 48 2 1 50 5 -49 0
4 21 2 20 1 5 -16 0
4 21 2 20 1 5 -19 0
4 21 2 20 1 5 -17 0
4 21 2 20 1 5 -22 0
4 21 2 1 18 5 -16 0
4 21 2 1 18 5 -19 0
4 21 2 1 18 5 -17 0
4 21 2 1 18 5 -22 0
4 45 2 42 1 5 -39 0
4 45 2 42 1 5 -40 0
4 45 2 42 1 5 -43 0
4 45 2 42 1 5 -44 0
4 45 2 1 41 5 -39 0
4 45 2 1 41 5 -40 0
4 45 2 1 41 5 -43 0
4 45 2 1 41 5 -44 0
4 72 2 73 1 5 -76 0
4 72 2 73 1 5 -77 0
4 72 2 73 1 5 -74 0
4 72 2 73 1 5 -71 0
4 72 2 1 78 5 -76 0
4 72 2 1 78 5 -77 0
4 72 2 1 78 5 -74 0
4 72 2 1 78 5 -71 0
4 69 2 67 1 5 -64 0
4 69 2 67 1 5 -66 0
4 69 2 67 1 5 -65 0
4 69 2 67 1 5 -70 0
4 69 2 1 63 5 -64 0
4 69 2 1 63 5 -66 0
4 69 2 1 63 5 -65 0
4 69 2 1 63 5 -70 0
4 2 34 1 33 5 -31 0
4 2 34 1 33 5 -35 0
4 2 34 1 33 5 -32 0
4 2 34 1 33 5 -36 0
4 2 14 1 12 5 -7 0
4 2 14 1 12 5 -8 0
4 2 14 1 12 5 -9 0
4 2 14 1 12 5 -11 0
4 2 30 1 25 5 -28 0
4 2 30 1 25 5 -24 0
4 2 30 1 25 5 -27 0
4 2 30 1 25 5 -29 0
4 2 56 1 55 5 -62 0
4 2 56 1 55 5 -58 0
4 2 56 1 55 5 -61 0
4 2 56 1 55 5 -60 0
4 2 54 1 50 5 -51 0
4 2 54 1 50 5 -53 0
4 2 54 1 50 5 -52 0
4 2 54 1 50 5 -49 0
4 2 20 1 18 5 -16 0
4 2 20 1 18 5 -19 0
4 2 20 1 18 5 -17 0
4 2 20 1 18 5 -22 0
4 2 42 1 41 5 -39 0
4 2 42 1 41 5 -40 0
4 2 42 1 41 5 -43 0
4 2 42 1 41 5 -44 0
4 2 73 1 78 5 -76 0
4 2 73 1 78 5 -77 0
4 2 73 1 78 5 -74 0
4 2 73 1 78 5 -71 0
4 2 67 1 63 5 -64 0
4 2 67 1 63 5 -66 0
4 2 67 1 63 5 -65 0
4 2 67 1 63 5 -70 0
38 13 34 14 33 12 -89 0
38 13 34 14 33 12 -91 0
38 13 34 14 33 12 -90 0
38 13 34 14 33 12 -92 0
38 26 34 30 33 25 -148 0
38 26 34 30 33 25 -145 0
38 26 34 30 33 25 -146 0
38 26 34 30 33 25 -147 0
38 59 34 56 33 55 -179 0
38 59 34 56 33 55 -182 0
38 59 34 56 33 55 -181 0
38 59 34 56 33 55 -180 0
38 48 34 54 33 50 -176 0
38 48 34 54 33 50 -178 0
38 48 34 54 33 50 -177 0
38 48 34 54 33 50 -175 0
38 21 34 20 33 18 -119 0
38 21 34 20 33 18 -120 0
38 21 34 20 33 18 -121 0
38 21 34 20 33 18 -122 0
38 45 34 42 33 41 -173 0
38 45 34 42 33 41 -171 0
38 45 34 42 33 41 -174 0
38 45 34 42 33 41 -172 0
38 72 34 73 33 78 -188 0
38 72 34 73 33 78 -190 0
38 72 34 73 33 78 -189 0
38 72 34 73 33 78 -187 0
38 69 34 67 33 63 -183 0
38 69 34 67 33 63 -184 0
38 69 34 67 33 63 -185 0
38 69 34 67 33 63 -186 0
38 2 34 1 33 5 -31 0
38 2 34 1 33 5 -35 0
38 2 34 1 33 5 -32 0
38 2 34 1 33 5 -36 0
13 26 14 30 12 25 -87 0
13 26 14 30 12 25 -86 0
13 26 14 30 12 25 -85 0
13 26 14 30 12 25 -88 0
13 59 14 56 12 55 -102 0
13 59 14 56 12 55 -101 0
13 59 14 56 12 55 -103 0
13 59 14 56 12 55 -104 0
13 48 14 54 12 50 -99 0
13 48 14 54 12 50 -97 0
13 48 14 54 12 50 -100 0
13 48 14 54 12 50 -98 0
13 21 14 20 12 18 -81 0
13 21 14 20 12 18 -83 0
13 21 14 20 12 18 -82 0
13 21 14 20 12 18 -84 0
13 45 14 42 12 41 -93 0
13 45 14 42 12 41 -96 0
13 45 14 42 12 41 -94 0
13 45 14 42 12 41 -95 0
13 72 14 73 12 78 -109 0
13 72 14 73 12 78 -110 0
13 72 14 73 12 78 -112 0
13 72 14 73 12 78 -111 0
13 69 14 67 12 63 -107 0
13 69 14 67 12 63 -108 0
13 69 14 67 12 63 -106 0
13 69 14 67 12 63 -105 0
13 2 14 1 12 5 -7 0
13 2 14 1 12 5 -8 0
13 2 14 1 12 5 -9 0
13 2 14 1 12 5 -11 0
26 59 30 56 25 55 -159 0
26 59 30 56 25 55 -157 0
26 59 30 56 25 55 -160 0
26 59 30 56 25 55 -158 0
26 48 30 54 25 50 -155 0
26 48 30 54 25 50 -153 0
26 48 30 54 25 50 -156 0
26 48 30 54 25 50 -154 0
26 21 30 20 25 18 -115 0
26 21 30 20 25 18 -116 0
26 21 30 20 25 18 -117 0
26 21 30 20 25 18 -118 0
26 45 30 42 25 41 -151 0
26 45 30 42 25 41 -152 0
26 45 30 42 25 41 -149 0
26 45 30 42 25 41 -150 0
26 72 30 73 25 78 -167 0
26 72 30 73 25 78 -166 0
26 72 30 73 25 78 -165 0
26 72 30 73 25 78 -168 0
26 69 30 67 25 63 -161 0
26 69 30 67 25 63 -163 0
26 69 30 67 25 63 -162 0
26 69 30 67 25 63 -164 0
26 2 30 1 25 5 -28 0
26 2 30 1 25 5 -24 0
26 2 30 1 25 5 -27 0
26 2 30 1 25 5 -29 0
59 48 56 54 55 50 -211 0
59 48 56 54 55 50 -214 0
59 48 56 54 55 50 -212 0
59 48 56 54 55 50 -213 0
59 21 56 20 55 18 -131 0
59 21 56 20 55 18 -134 0
59 21 56 20 55 18 -133 0
59 21 56 20 55 18 -132 0
59 45 56 42 55 41 -200 0
59 45 56 42 55 41 -198 0
59 45 56 42 55 41 -197 0
59 45 56 42 55 41 -199 0
59 72 56 73 55 78 -230 0
59 72 56 73 55 78 -229 0
59 72 56 73 55 78 -232 0
59 72 56 73 55 78 -231 0
59 69 56 67 55 63 -227 0
59 69 56 67 55 63 -225 0
59 69 56 67 55 63 -228 0
59 69 56 67 55 63 -226 0
59 2 56 1 55 5 -62 0
59 2 56 1 55 5 -58 0
59 2 56 1 55 5 -61 0
59 2 56 1 55 5 -60 0
48 21 54 20 50 18 -128 0
48 21 54 20 50 18 -129 0
48 21 54 20 50 18 -127 0
48 21 54 20 50 18 -130 0
48 45 54 42 50 41 -195 0
48 45 54 42 50 41 -193 0
48 45 54 42 50 41 -196 0
48 45 54 42 50 41 -194 0
48 72 54 73 50 78 -219 0
48 72 54 73 50 78 -220 0
48 72 54 73 50 78 -221 0
48 72 54 73 50 78 -222 0
48 69 54 67 50 63 -217 0
48 69 54 67 50 63 -216 0
48 69 54 67 50 63 -215 0
48 69 54 67 50 63 -218 0
48 2 54 1 50 5 -51 0
48 2 54 1 50 5 -53 0
48 2 54 1 50 5 -52 0
48 2 54 1 50 5 -49 0
21 45 20 42 18 41 -123 0
21 45 20 42 18 41 -125 0
21 45 20 42 18 41 -124 0
21 45 20 42 18 41 -126 0
21 72 20 73 18 78 -140 0
21 72 20 73 18 78 -141 0
21 72 20 73 18 78 -142 0
21 72 20 73 18 78 -139 0
21 69 20 67 18 63 -136 0
21 69 20 67 18 63 -135 0
21 69 20 67 18 63 -137 0
21 69 20 67 18 63 -138 0
21 2 20 1 18 5 -16 0
21 2 20 1 18 5 -19 0
21 2 20 1 18 5 -17 0
21 2 20 1 18 5 -22 0
45 72 42 73 41 78 -206 0
45 72 42 73 41 78 -207 0
45 72 42 73 41 78 -208 0
45 72 42 73 41 78 -205 0
45 69 42 67 41 63 -202 0
45 69 42 67 41 63 -201 0
45 69 42 67 41 63 -204 0
45 69 42 67 41 63 -203 0
45 2 42 1 41 5 -39 0
45 2 42 1 41 5 -40 0
45 2 42 1 41 5 -43 0
45 2 42 1 41 5 -44 0
72 69 73 67 78 63 -237 0
72 69 73 67 78 63 -235 0
72 69 73 67 78 63 -238 0
72 69 73 67 78 63 -236 0
72 2 73 1 78 5 -76 0
72 2 73 1 78 5 -77 0
72 2 73 1 78 5 -74 0
72 2 73 1 78 5 -71 0
69 2 67 1 63 5 -64 0
69 2 67 1 63 5 -66 0
69 2 67 1 63 5 -65 0
69 2 67 1 63 5 -70 0
37 10 38 13 34 14 33 -89 0
37 10 38 13 34 14 33 -91 0
37 10 38 13 34 14 33 -90 0
37 10 38 13 34 14 33 -92 0
37 10 38 13 34 14 12 -89 0
37 10 38 13 34 14 12 -91 0
37 10 38 13 34 14 12 -90 0
37 10 38 13 34 14 12 -92 0
37 10 38 13 34 33 12 -89 0
37 10 38 13 34 33 12 -91 0
37 10 38 13 34 33 12 -90 0
37 10 38 13 34 33 12 -92 0
37 10 38 13 14 33 12 -89 0
37 10 38 13 14 33 12 -91 0
37 10 38 13 14 33 12 -90 0
37 10 38 13 14 33 12 -92 0
37 10 38 34 14 33 12 -89 0
37 10 38 34 14 33 12 -91 0
37 10 38 34 14 33 12 -90 0
37 10 38 34 14 33 12 -92 0
37 10 13 34 14 33 12 -89 0
37 10 13 34 14 33 12 -91 0
37 10 13 34 14 33 12 -90 0
37 10 13 34 14 33 12 -92 0
37 23 38 26 34 30 33 -148 0
37 23 38 26 34 30 33 -145 0
37 23 38 26 34 30 33 -146 0
37 23 38 26 34 30 33 -147 0
37 23 38 26 34 30 25 -148 0
37 23 38 26 34 30 25 -145 0
37 23 38 26 34 30 25 -146 0
37 23 38 26 34 30 25 -147 0
37 23 38 26 34 33 25 -148 0
37 23 38 26 34 33 25 -145 0
37 23 38 26 34 33 25 -146 0
37 23 38 26 34 33 25 -147 0
37 23 38 26 30 33 25 -148 0
37 23 38 26 30 33 25 -145 0
37 23 38 26 30 33 25 -146 0
37 23 38 26 30 33 25 -147 0
37 23 38 34 30 33 25 -148 0
37 23 38 34 30 33 25 -145 0
37 23 38 34 30 33 25 -146 0
37 23 38 34 30 33 25 -147 0
37 23 26 34 30 33 25 -148 0
37 23 26 34 30 33 25 -145 0
37 23 26 34 30 33 25 -146 0
37 23 26 34 30 33 25 -147 0
37 57 38 59 34 56 33 -179 0
37 57 38 59 34 56 33 -182 0
37 57 38 59 34 56 33 -181 0
37 57 38 59 34 56 33 -180 0
37 57 38 59 34 56 55 -179 0
37 57 38 59 34 56 55 -182 0
37 57 38 59 34 56 55 -181 0
37 57 38 59 34 56 55 -180 0
37 57 38 59 34 33 55 -179 0
37 57 38 59 34 33 55 -182 0
37 57 38 59 34 33 55 -181 0
37 57 38 59 34 33 55 -180 0
37 57 38 59 56 33 55 -179 0
37 57 38 59 56 33 55 -182 0
37 57 38 59 56 33 55 -181 0
37 57 38 59 56 33 55 -180 0
37 57 38 34 56 33 55 -179 0
37 57 38 34 56 33 55 -182 0
37 57 38 34 56 33 55 -181 0
37 57 38 34 56 33 55 -180 0
37 57 59 34 56 33 55 -179 0
37 57 59 34 56 33 55 -182 0
37 57 59 34 56 33 55 -181 0
37 57 59 34 56 33 55 -180 0
37 47 38 48 34 54 33 -176 0
37 47 38 48 34 54 33 -178 0
37 47 38 48 34 54 33 -177 0
37 47 38 48 34 54 33 -175 0
37 47 38 48 34 54 50 -176 0
37 47 38 48 34 54 50 -178 0
37 47 38 48 34 54 50 -177 0
37 47 38 48 34 54 50 -175 0
37 47 38 48 34 33 50 -176 0
37 47 38 48 34 33 50 -178 0
37 47 38 48 34 33 50 -177 0
37 47 38 48 34 33 50 -175 0
37 47 38 48 54 33 50 -176 0
37 47 38 48 54 33 50 -178 0
37 47 38 48 54 33 50 -177 0
37 47 38 48 54 33 50 -175 0
37 47 38 34 54 33 50 -176 0
37 47 38 34 54 33 50 -178 0
37 47 38 34 54 33 50 -177 0
37 47 38 34 54 33 50 -175 0
37 47 48 34 54 33 50 -176 0
37 47 48 34 54 33 50 -178 0
37 47 48 34 54 33 50 -177 0
37 47 48 34 54 33 50 -175 0
37 15 38 21 34 20 33 -119 0
37 15 38 21 34 20 33 -120 0
37 15 38 21 34 20 33 -121 0
37 15 38 21 34 20 33 -122 0
37 15 38 21 34 20 18 -119 0
37 15 38 21 34 20 18 -120 0
37 15 38 21 34 20 18 -121 0
37 15 38 21 34 20 18 -122 0
37 15 38 21 34 33 18 -119 0
37 15 38 21 34 33 18 -120 0
37 15 38 21 34 33 18 -121 0
37 15 38 21 34 33 18 -122 0
37 15 38 21 20 33 18 -119 0
37 15 38 21 20 33 18 -120 0
37 15 38 21 20 33 18 -121 0
37 15 38 21 20 33 18 -122 0
37 15 38 34 20 33 18 -119 0
37 15 38 34 20 33 18 -120 0
37 15 38 34 20 33 18 -121 0
37 15 38 34 20 33 18 -122 0
37 15 21 34 20 33 18 -119 0
37 15 21 34 20 33 18 -120 0
37 15 21 34 20 33 18 -121 0
37 15 21 34 20 33 18 -122 0
37 46 38 45 34 42 33 -173 0
37 46 38 45 34 42 33 -171 0
37 46 38 45 34 42 33 -174 0
37 46 38 45 34 42 33 -172 0
37 46 38 45 34 42 41 -173 0
37 46 38 45 34 42 41 -171 0
37 46 38 45 34 42 41 -174 0
37 46 38 45 34 42 41 -172 0
37 46 38 45 34 33 41 -173 0
37 46 38 45 34 33 41 -171 0
37 46 38 45 34 33 41 -174 0
37 46 38 45 34 33 41 -172 0
37 46 38 45 42 33 41 -173 0
37 46 38 45 42 33 41 -171 0
37 46 38 45 42 33 41 -174 0
37 46 38 45 42 33 41 -172 0
37 46 38 34 42 33 41 -173 0
37 46 38 34 42 33 41 -171 0
37 46 38 34 42 33 41 -174 0
37 46 38 34 42 33 41 -172 0
37 46 45 34 42 33 41 -173 0
37 46 45 34 42 33 41 -171 0
37 46 45 34 42 33 41 -174 0
37 46 45 34 42 33 41 -172 0
37 75 38 72 34 73 33 -188 0
37 75 38 72 34 73 33 -190 0
37 75 38 72 34 73 33 -189 0
37 75 38 72 34 73 33 -187 0
37 75 38 72 34 73 78 -188 0
37 75 38 72 34 73 78 -190 0
37 75 38 72 34 73 78 -189 0
37 75 38 72 34 73 78 -187 0
37 75 38 72 34 33 78 -188 0
37 75 38 72 34 33 78 -190 0
37 75 38 72 34 33 78 -189 0
37 75 38 72 34 33 78 -187 0
37 75 38 72 73 33 78 -188 0
37 75 38 72 73 33 78 -190 0
37 75 38 72 73 33 78 -189 0
37 75 38 72 73 33 78 -187 0
37 75 38 34 73 33 78 -188 0
37 75 38 34 73 33 78 -190 0
37 75 38 34 73 33 78 -189 0
37 75 38 34 73 33 78 -187 0
37 75 72 34 73 33 78 -188 0
37 75 72 34 73 33 78 -190 0
37 75 72 34 73 33 78 -189 0
37 75 72 34 73 33 78 -187 0
37 68 38 69 34 67 33 -183 0
37 68 38 69 34 67 33 -184 0
37 68 38 69 34 67 33 -185 0
37 68 38 69 34 67 33 -186 0
37 68 38 69 34 67 63 -183 0
37 68 38 69 34 67 63 -184 0
37 68 38 69 34 67 63 -185 0
37 68 38 69 34 67 63 -186 0
37 68 38 69 34 33 63 -183 0
37 68 38 69 34 33 63 -184 0
37 68 38 69 34 33 63 -185 0
37 68 38 69 34 33 63 -186 0
37 68 38 69 67 33 63 -183 0
37 68 38 69 67 33 63 -184 0
37 68 38 69 67 33 63 -185 0
37 68 38 69 67 33 63 -186 0
37 68 38 34 67 33 63 -183 0
37 68 38 34 67 33 63 -184 0
37 68 38 34 67 33 63 -185 0
37 68 38 34 67 33 63 -186 0
37 68 69 34 67 33 63 -183 0
37 68 69 34 67 33 63 -184 0
37 68 69 34 67 33 63 -185 0
37 68 69 34 67 33 63 -186 0
37 4 38 2 34 1 33 -31 0
37 4 38 2 34 1 33 -35 0
37 4 38 2 34 1 33 -32 0
37 4 38 2 34 1 33 -36 0
37 4 38 2 34 1 5 -31 0
37 4 38 2 34 1 5 -35 0
37 4 38 2 34 1 5 -32 0
37 4 38 2 34 1 5 -36 0
37 4 38 2 34 33 5 -31 0
37 4 38 2 34 33 5 -35 0
37 4 38 2 34 33 5 -32 0
37 4 38 2 34 33 5 -36 0
37 4 38 2 1 33 5 -31 0
37 4 38 2 1 33 5 -35 0
37 4 38 2 1 33 5 -32 0
37 4 38 2 1 33 5 -36 0
37 4 38 34 1 33 5 -31 0
37 4 38 34 1 33 5 -35 0
37 4 38 34 1 33 5 -32 0
37 4 38 34 1 33 5 -36 0
37 4 2 34 1 33 5 -31 0
37 4 2 34 1 33 5 -35 0
37 4 2 34 1 33 5 -32 0
37 4 2 34 1 33 5 -36 0
37 38 13 34 14 33 12 -89 0
37 38 13 34 14 33 12 -91 0
37 38 13 34 14 33 12 -90 0
37 38 13 34 14 33 12 -92 0
37 38 26 34 30 33 25 -148 0
37 38 26 34 30 33 25 -145 0
37 38 26 34 30 33 25 -146 0
37 38 26 34 30 33 25 -147 0
37 38 59 34 56 33 55 -179 0
37 38 59 34 56 33 55 -182 0
37 38 59 34 56 33 55 -181 0
37 38 59 34 56 33 55 -180 0
37 38 48 34 54 33 50 -176 0
37 38 48 34 54 33 50 -178 0
37 38 48 34 54 33 50 -177 0
37 38 48 34 54 33 50 -175 0
37 38 21 34 20 33 18 -119 0
37 38 21 34 20 33 18 -120 0
37 38 21 34 20 33 18 -121 0
37 38 21 34 20 33 18 -122 0
37 38 45 34 42 33 41 -173 0
37 38 45 34 42 33 41 -171 0
37 38 45 34 42 33 41 -174 0
37 38 45 34 42 33 41 -172 0
37 38 72 34 73 33 78 -188 0
37 38 72 34 73 33 78 -190 0
37 38 72 34 73 33 78 -189 0
37 38 72 34 73 33 78 -187 0
37 38 69 34 67 33 63 -183 0
37 38 69 34 67 33 63 -184 0
37 38 69 34 67 33 63 -185 0
37 38 69 34 67 33 63 -186 0
37 38 2 34 1 33 5 -31 0
37 38 2 34 1 33 5 -35 0
37 38 2 34 1 33 5 -32 0
37 38 2 34 1 33 5 -36 0
10 23 13 26 14 30 12 -87 0
10 23 13 26 14 30 12 -86 0
10 23 13 26 14 30 12 -85 0
10 23 13 26 14 30 12 -88 0
10 23 13 26 14 30 25 -87 0
10 23 13 26 14 30 25 -86 0
10 23 13 26 14 30 25 -85 0
10 23 13 26 14 30 25 -88 0
10 23 13 26 14 12 25 -87 0
10 23 13 26 14 12 25 -86 0
10 23 13 26 14 12 25 -85 0
10 23 13 26 14 12 25 -88 0
10 23 13 26 30 12 25 -87 0
10 23 13 26 30 12 25 -86 0
10 23 13 26 30 12 25 -85 0
10 23 13 26 30 12 25 -88 0
10 23 13 14 30 12 25 -87 0
10 23 13 14 30 12 25 -86 0
10 23 13 14 30 12 25 -85 0
10 23 13 14 30 12 25 -88 0
10 23 26 14 30 12 25 -87 0
10 23 26 14 30 12 25 -86 0
10 23 26 14 30 12 25 -85 0
10 23 26 14 30 12 25 -88 0
10 57 13 59 14 56 12 -102 0
10 57 13 59 14 56 12 -101 0
10 57 13 59 14 56 12 -103 0
10 57 13 59 14 56 12 -104 0
10 57 13 59 14 56 55 -102 0
10 57 13 59 14 56 55 -101 0
10 57 13 59 14 56 55 -103 0
10 57 13 59 14 56 55 -104 0
10 57 13 59 14 12 55 -102 0
10 57 13 59 14 12 55 -101 0
10 57 13 59 14 12 55 -103 0
10 57 13 59 14 12 55 -104 0
10 57 13 59 56 12 55 -102 0
10 57 13 59 56 12 55 -101 0
10 57 13 59 56 12 55 -103 0
10 57 13 59 56 12 55 -104 0
10 57 13 14 56 12 55 -102 0
10 57 13 14 56 12 55 -101 0
10 57 13 14 56 12 55 -103 0
10 57 13 14 56 12 55 -104 0
10 57 59 14 56 12 55 -102 0
10 57 59 14 56 12 55 -101 0
10 57 59 14 56 12 55 -103 0
10 57 59 14 56 12 55 -104 0
10 47 13 48 14 54 12 -99 0
10 47 13 48 14 54 12 -97 0
10 47 13 48 14 54 12 -100 0
10 47 13 48 14 54 12 -98 0
10 47 13 48 14 54 50 -99 0
10 47 13 48 14 54 50 -97 0
10 47 13 48 14 54 50 -100 0
10 47 13 48 14 54 50 -98 0
10 47 13 48 14 12 50 -99 0
10 47 13 48 14 12 50 -97 0
10 47 13 48 14 12 50 -100 0
10 47 13 48 14 12 50 -98 0
10 47 13 48 54 12 50 -99 0
10 47 13 48 54 12 50 -97 0
10 47 13 48 54 12 50 -100 0
10 47 13 48 54 12 50 -98 0
10 47 13 14 54 12 50 -99 0
10 47 13 14 54 12 50 -97 0
10 47 13 14 54 12 50 -100 0
10 47 13 14 54 12 50 -98 0
10 47 48 14 54 12 50 -99 0
10 47 48 14 54 12 50 -97 0
10 47 48 14 54 12 50 -100 0
10 47 48 14 54 12 50 -98 0
10 15 13 21 14 20 12 -81 0
10 15 13 21 14 20 12 -83 0
10 15 13 21 14 20 12 -82 0
10 15 13 21 14 20 12 -84 0
10 15 13 21 14 20 18 -81 0
10 15 13 21 14 20 18 -83 0
10 15 13 21 14 20 18 -82 0
10 15 13 21 14 20 18 -84 0
10 15 13 21 14 12 18 -81 0
10 15 13 21 14 12 18 -83 0
10 15 13 21 14 12 18 -82 0
10 15 13 21 14 12 18 -84 0
10 15 13 21 20 12 18 -81 0
10 15 13 21 20 12 18 -83 0
10 15 13 21 20 12 18 -82 0
10 15 13 21 20 12 18 -84 0
10 15 13 14 20 12 18 -81 0
10 15 13 14 20 12 18 -83 0
10 15 13 14 20 12 18 -82 0
10 15 13 14 20 12 18 -84 0
10 15 21 14 20 12 18 -81 0
10 15 21 14 20 12 18 -83 0
10 15 21 14 20 12 18 -82 0
10 15 21 14 20 12 18 -84 0
10 46 13 45 14 42 12 -93 0
10 46 13 45 14 42 12 -96 0
10 46 13 45 14 42 12 -94 0
10 46 13 45 14 42 12 -95 0
10 46 13 45 14 42 41 -93 0
10 46 13 45 14 42 41 -96 0
10 46 13 45 14 42 41 -94 0
10 46 13 45 14 42 41 -95 0
10 46 13 45 14 12 41 -93 0
10 46 13 45 14 12 41 -96 0
10 46 13 45 14 12 41 -94 0
10 46 13 45 14 12 41 -95 0
10 46 13 45 42 12 41 -93 0
10 46 13 45 42 12 41 -96 0
10 46 13 45 42 12 41 -94 0
10 46 13 45 42 12 41 -95 0
10 46 13 14 42 12 41 -93 0
10 46 13 14 42 12 41 -96 0
10 46 13 14 42 12 41 -94 0
10 46 13 14 42 12 41 -95 0
10 46 45 14 42 12 41 -93 0
10 46 45 14 42 12 41 -96 0
10 46 45 14 42 12 41 -94 0
10 46 45 14 42 12 41 -95 0
10 75 13 72 14 73 12 -109 0
10 75 13 72 14 73 12 -110 0
10 75 13 72 14 73 12 -112 0
10 75 13 72 14 73 12 -111 0
10 75 13 72 14 73 78 -109 0
10 75 13 72 14 73 78 -110 0
10 75 13 72 14 73 78 -112 0
10 75 13 72 14 73 78 -111 0
10 75 13 72 14 12 78 -109 0
10 75 13 72 14 12 78 -110 0
10 75 13 72 14 12 78 -112 0
10 75 13 72 14 12 78 -111 0
10 75 13 72 73 12 78 -109 0
10 75 13 72 73 12 78 -110 0
10 75 13 72 73 12 78 -112 0
10 75 13 72 73 12 78 -111 0
10 75 13 14 73 12 78 -109 0
10 75 13 14 73 12 78 -110 0
10 75 13 14 73 12 78 -112 0
10 75 13 14 73 12 78 -111 0
10 75 72 14 73 12 78 -109 0
10 75 72 14 73 12 78 -110 0
10 75 72 14 73 12 78 -112 0
10 75 72 14 73 12 78 -111 0
10 68 13 69 14 67 12 -107 0
10 68 13 69 14 67 12 -108 0
10 68 13 69 14 67 12 -106 0
10 68 13 69 14 67 12 -105 0
10 68 13 69 14 67 63 -107 0
10 68 13 69 14 67 63 -108 0
10 68 13 69 14 67 63 -106 0
10 68 13 69 14 67 63 -105 0
10 68 13 69 14 12 63 -107 0
10 68 13 69 14 12 63 -108 0
10 68 13 69 14 12 63 -106 0
10 68 13 69 14 12 63 -105 0
10 68 13 69 67 12 63 -107 0
10 68 13 69 67 12 63 -108 0
10 68 13 69 67 12 63 -106 0
10 68 13 69 67 12 63 -105 0
10 68 13 14 67 12 63 -107 0
10 68 13 14 67 12 63 -108 0
10 68 13 14 67 12 63 -106 0
10 68 13 14 67 12 63 -105 0
10 68 69 14 67 12 63 -107 0
10 68 69 14 67 12 63 -108 0
10 68 69 14 67 12 63 -106 0
10 68 69 14 67 12 63 -105 0
10 4 13 2 14 1 12 -7 0
10 4 13 2 14 1 12 -8 0
10 4 13 2 14 1 12 -9 0
10 4 13 2 14 1 12 -11 0
10 4 13 2 14 1 5 -7 0
10 4 13 2 14 1 5 -8 0
10 4 13 2 14 1 5 -9 0
10 4 13 2 14 1 5 -11 0
10 4 13 2 14 12 5 -7 0
10 4 13 2 14 12 5 -8 0
10 4 13 2 14 12 5 -9 0
10 4 13 2 14 12 5 -11 0
10 4 13 2 1 12 5 -7 0
10 4 13 2 1 12 5 -8 0
10 4 13 2 1 12 5 -9 0
10 4 13 2 1 12 5 -11 0
10 4 13 14 1 12 5 -7 0
10 4 13 14 1 12 5 -8 0
10 4 13 14 1 12 5 -9 0
10 4 13 14 1 12 5 -11 0
10 4 2 14 1 12 5 -7 0
10 4 2 14 1 12 5 -8 0
10 4 2 14 1 12 5 -9 0
10 4 2 14 1 12 5 -11 0
10 38 13 34 14 33 12 -89 0
10 38 13 34 14 33 12 -91 0
10 38 13 34 14 33 12 -90 0
10 38 13 34 14 33 12 -92 0
10 13 26 14 30 12 25 -87 0
10 13 26 14 30 12 25 -86 0
10 13 26 14 30 12 25 -85 0
10 13 26 14 30 12 25 -88 0
10 13 59 14 56 12 55 -102 0
10 13 59 14 56 12 55 -101 0
10 13 59 14 56 12 55 -103 0
10 13 59 14 56 12 55 -104 0
10 13 48 14 54 12 50 -99 0
10 13 48 14 54 12 50 -97 0
10 13 48 14 54 12 50 -100 0
10 13 48 14 54 12 50 -98 0
10 13 21 14 20 12 18 -81 0
10 13 21 14 20 12 18 -83 0
10 13 21 14 20 12 18 -82 0
10 13 21 14 20 12 18 -84 0
10 13 45 14 42 12 41 -93 0
10 13 45 14 42 12 41 -96 0
10 13 45 14 42 12 41 -94 0
10 13 45 14 42 12 41 -95 0
10 13 72 14 73 12 78 -109 0
10 13 72 14 73 12 78 -110 0
10 13 72 14 73 12 78 -112 0
10 13 72 14 73 12 78 -111 0
10 13 69 14 67 12 63 -107 0
10 13 69 14 67 12 63 -108 0
10 13 69 14 67 12 63 -106 0
10 13 69 14 67 12 63 -105 0
10 13 2 14 1 12 5 -7 0
10 13 2 14 1 12 5 -8 0
10 13 2 14 1 12 5 -9 0
10 13 2 14 1 12 5 -11 0
23 57 26 59 30 56 25 -159 0
23 57 26 59 30 56 25 -157 0
23 57 26 59 30 56 25 -160 0
23 57 26 59 30 56 25 -158 0
23 57 26 59 30 56 55 -159 0
23 57 26 59 30 56 55 -157 0
23 57 26 59 30 56 55 -160 0
23 57 26 59 30 56 55 -158 0
23 57 26 59 30 25 55 -159 0
23 57 26 59 30 25 55 -157 0
23 57 26 59 30 25 55 -160 0
23 57 26 59 30 25 55 -158 0
23 57 26 59 56 25 55 -159 0
23 57 26 59 56 25 55 -157 0
23 57 26 59 56 25 55 -160 0
23 57 26 59 56 25 55 -158 0
23 57 26 30 56 25 55 -159 0
23 57 26 30 56 25 55 -157 0
23 57 26 30 56 25 55 -160 0
23 57 26 30 56 25 55 -158 0
23 57 59 30 56 25 55 -159 0
23 57 59 30 56 25 55 -157 0
23 57 59 30 56 25 55 -160 0
23 57 59 30 56 25 55 -158 0
23 47 26 48 30 54 25 -155 0
23 47 26 48 30 54 25 -153 0
23 47 26 48 30 54 25 -156 0
23 47 26 48 30 54 25 -154 0
23 47 26 48 30 54 50 -155 0
23 47 26 48 30 54 50 -153 0
23 47 26 48 30 54 50 -156 0
23 47 26 48 30 54 50 -154 0
23 47 26 48 30 25 50 -155 0
23 47 26 48 30 25 50 -153 0
23 47 26 48 30 25 50 -156 0
23 47 26 48 30 25 50 -154 0
23 47 26 48 54 25 50 -155 0
23 47 26 48 54 25 50 -153 0
23 47 26 48 54 25 50 -156 0
23 47 26 48 54 25 50 -154 0
23 47 26 30 54 25 50 -155 0
23 47 26 30 54 25 50 -153 0
23 47 26 30 54 25 50 -156 0
23 47 26 30 54 25 50 -154 0
23 47 48 30 54 25 50 -155 0
23 47 48 30 54 25 50 -153 0
23 47 48 30 54 25 50 -156 0
23 47 48 30 54 25 50 -154 0
23 15 26 21 30 20 25 -115 0
23 15 26 21 30 20 25 -116 0
23 15 26 21 30 20 25 -117 0
23 15 26 21 30 20 25 -118 0
23 15 26 21 30 20 18 -115 0
23 15 26 21 30 20 18 -116 0
23 15 26 21 30 20 18 -117 0
23 15 26 21 30 20 18 -118 0
23 15 26 21 30 25 18 -115 0
23 15 26 21 30 25 18 -116 0
23 15 26 21 30 25 18 -117 0
23 15 26 21 30 25 18 -118 0
23 15 26 21 20 25 18 -115 0
23 15 26 21 20 25 18 -116 0
23 15 26 21 20 25 18 -117 0
23 15 26 21 20 25 18 -118 0
23 15 26 30 20 25 18 -115 0
23 15 26 30 20 25 18 -116 0
23 15 26 30 20 25 18 -117 0
23 15 26 30 20 25 18 -118 0
23 15 21 30 20 25 18 -115 0
23 15 21 30 20 25 18 -116 0
23 15 21 30 20 25 18 -117 0
23 15 21 30 20 25 18 -118 0
23 46 26 45 30 42 25 -151 0
23 46 26 45 30 42 25 -152 0
23 46 26 45 30 42 25 -149 0
23 46 26 45 30 42 25 -150 0
23 46 26 45 30 42 41 -151 0
23 46 26 45 30 42 41 -152 0
23 46 26 45 30 42 41 -149 0
23 46 26 45 30 42 41 -150 0
23 46 26 45 30 25 41 -151 0
23 46 26 45 30 25 41 -152 0
23 46 26 45 30 25 41 -149 0
23 46 26 45 30 25 41 -150 0
23 46 26 45 42 25 41 -151 0
23 46 26 45 42 25 41 -152 0
23 46 26 45 42 25 41 -149 0
23 46 26 45 42 25 41 -150 0
23 46 26 30 42 25 41 -151 0
23 46 26 30 42 25 41 -152 0
23 46 26 30 42 25 41 -149 0
23 46 26 30 42 25 41 -150 0
23 46 45 30 42 25 41 -151 0
23 46 45 30 42 25 41 -152 0
23 46 45 30 42 25 41 -149 0
23 46 45 30 42 25 41 -150 0
23 75 26 72 30 73 25 -167 0
23 75 26 72 30 73 25 -166 0
23 75 26 72 30 73 25 -165 0
23 75 26 72 30 73 25 -168 0
23 75 26 72 30 73 78 -167 0
23 75 26 72 30 73 78 -166 0
23 75 26 72 30 73 78 -165 0
23 75 26 72 30 73 78 -168 0
23 75 26 72 30 25 78 -167 0
23 75 26 72 30 25 78 -166 0
23 75 26 72 30 25 78 -165 0
23 75 26 72 30 25 78 -168 0
23 75 26 72 73 25 78 -167 0
23 75 26 72 73 25 78 -166 0
23 75 26 72 73 25 78 -165 0
23 75 26 72 73 25 78 -168 0
23 75 26 30 73 25 78 -167 0
23 75 26 30 73 25 78 -166 0
23 75 26 30 73 25 78 -165 0
23 75 26 30 73 25 78 -168 0
23 75 72 30 73 25 78 -167 0
23 75 72 30 73 25 78 -166 0
23 75 72 30 73 25 78 -165 0
23 75 72 30 73 25 78 -168 0
23 68 26 69 30 67 25 -161 0
23 68 26 69 30 67 25 -163 0
23 68 26 69 30 67 25 -162 0
23 68 26 69 30 67 25 -164 0
23 68 26 69 30 67 63 -161 0
23 68 26 69 30 67 63 -163 0
23 68 26 69 30 67 63 -162 0
23 68 26 69 30 67 63 -164 0
23 68 26 69 30 25 63 -161 0
23 68 26 69 30 25 63 -163 0
23 68 26 69 30 25 63 -162 0
23 68 26 69 30 25 63 -164 0
23 68 26 69 67 25 63 -161 0
23 68 26 69 67 25 63 -163 0
23 68 26 69 67 25 63 -162 0
23 68 26 69 67 25 63 -164 0
23 68 26 30 67 25 63 -161 0
23 68 26 30 67 25 63 -163 0
23 68 26 30 67 25 63 -162 0
23 68 26 30 67 25 63 -164 0
23 68 69 30 67 25 63 -161 0
23 68 69 30 67 25 63 -163 0
23 68 69 30 67 25 63 -162 0
23 68 69 30 67 25 63 -164 0
23 4 26 2 30 1 25 -28 0
23 4 26 2 30 1 25 -24 0
23 4 26 2 30 1 25 -27 0
23 4 26 2 30 1 25 -29 0
23 4 26 2 30 1 5 -28 0
23 4 26 2 30 1 5 -24 0
23 4 26 2 30 1 5 -27 0
23 4 26 2 30 1 5 -29 0
23 4 26 2 30 25 5 -28 0
23 4 26 2 30 25 5 -24 0
23 4 26 2 30 25 5 -27 0
23 4 26 2 30 25 5 -29 0
23 4 26 2 1 25 5 -28 0
23 4 26 2 1 25 5 -24 0
23 4 26 2 1 25 5 -27 0
23 4 26 2 1 25 5 -29 0
23 4 26 30 1 25 5 -28 0
23 4 26 30 1 25 5 -24 0
23 4 26 30 1 25 5 -27 0
23 4 26 30 1 25 5 -29 0
23 4 2 30 1 25 5 -28 0
23 4 2 30 1 25 5 -24 0
23 4 2 30 1 25 5 -27 0
23 4 2 30 1 25 5 -29 0
23 38 26 34 30 33 25 -148 0
23 38 26 34 30 33 25 -145 0
23 38 26 34 30 33 25 -146 0
23 38 26 34 30 33 25 -147 0
23 13 26 14 30 12 25 -87 0
23 13 26 14 30 12 25 -86 0
23 13 26 14 30 12 25 -85 0
23 13 26 14 30 12 25 -88 0
23 26 59 30 56 25 55 -159 0
23 26 59 30 56 25 55 -157 0
23 26 59 30 56 25 55 -160 0
23 26 59 30 56 25 55 -158 0
23 26 48 30 54 25 50 -155 0
23 26 48 30 54 25 50 -153 0
23 26 48 30 54 25 50 -156 0
23 26 48 30 54 25 50 -154 0
23 26 21 30 20 25 18 -115 0
23 26 21 30 20 25 18 -116 0
23 26 21 30 20 25 18 -117 0
23 26 21 30 20 25 18 -118 0
23 26 45 30 42 25 41 -151 0
23 26 45 30 42 25 41 -152 0
23 26 45 30 42 25 41 -149 0
23 26 45 30 42 25 41 -150 0
23 26 72 30 73 25 78 -167 0
23 26 72 30 73 25 78 -166 0
23 26 72 30 73 25 78 -165 0
23 26 72 30 73 25 78 -168 0
23 26 69 30 67 25 63 -161 0
23 26 69 30 67 25 63 -163 0
23 26 69 30 67 25 63 -162 0
23 26 69 30 67 25 63 -164 0
23 26 2 30 1 25 5 -28 0
23 26 2 30 1 25 5 -24 0
23 26 2 30 1 25 5 -27 0
23 26 2 30 1 25 5 -29 0
57 47 59 48 56 54 55 -211 0
57 47 59 48 56 54 55 -214 0
57 47 59 48 56 54 55 -212 0
57 47 59 48 56 54 55 -213 0
57 47 59 48 56 54 50 -211 0
57 47 59 48 56 54 50 -214 0
57 47 59 48 56 54 50 -212 0
57 47 59 48 56 54 50 -213 0
57 47 59 48 56 55 50 -211 0
57 47 59 48 56 55 50 -214 0
57 47 59 48 56 55 50 -212 0
57 47 59 48 56 55 50 -213 0
57 47 59 48 54 55 50 -211 0
57 47 59 48 54 55 50 -214 0
57 47 59 48 54 55 50 -212 0
57 47 59 48 54 55 50 -213 0
57 47 59 56 54 55 50 -211 0
57 47 59 56 54 55 50 -214 0
57 47 59 56 54 55 50 -212 0
57 47 59 56 54 55 50 -213 0
57 47 48 56 54 55 50 -211 0
57 47 48 56 54 55 50 -214 0
57 47 48 56 54 55 50 -212 0
57 47 48 56 54 55 50 -213 0
57 15 59 21 56 20 55 -131 0
57 15 59 21 56 20 55 -134 0
57 15 59 21 56 20 55 -133 0
57 15 59 21 56 20 55 -132 0
57 15 59 21 56 20 18 -131 0
57 15 59 21 56 20 18 -134 0
57 15 59 21 56 20 18 -133 0
57 15 59 21 56 20 18 -132 0
57 15 59 21 56 55 18 -131 0
57 15 59 21 56 55 18 -134 0
57 15 59 21 56 55 18 -133 0
57 15 59 21 56 55 18 -132 0
57 15 59 21 20 55 18 -131 0
57 15 59 21 20 55 18 -134 0
57 15 59 21 20 55 18 -133 0
57 15 59 21 20 55 18 -132 0
57 15 59 56 20 55 18 -131 0
57 15 59 56 20 55 18 -134 0
57 15 59 56 20 55 18 -133 0
57 15 59 56 20 55 18 -132 0
57 15 21 56 20 55 18 -131 0
57 15 21 56 20 55 18 -134 0
57 15 21 56 20 55 18 -133 0
57 15 21 56 20 55 18 -132 0
57 46 59 45 56 42 55 -200 0
57 46 59 45 56 42 55 -198 0
57 46 59 45 56 42 55 -197 0
57 46 59 45 56 42 55 -199 0
57 46 59 45 56 42 41 -200 0
57 46 59 45 56 42 41 -198 0
57 46 59 45 56 42 41 -197 0
57 46 59 45 56 42 41 -199 0
57 46 59 45 56 55 41 -200 0
57 46 59 45 56 55 41 -198 0
57 46 59 45 56 55 41 -197 0
57 46 59 45 56 55 41 -199 0
57 46 59 45 42 55 41 -200 0
57 46 59 45 42 55 41 -198 0
57 46 59 45 42 55 41 -197 0
57 46 59 45 42 55 41 -199 0
57 46 59 56 42 55 41 -200 0
57 46 59 56 42 55 41 -198 0
57 46 59 56 42 55 41 -197 0
57 46 59 56 42 55 41 -199 0
57 46 45 56 42 55 41 -200 0
57 46 45 56 42 55 41 -198 0
57 46 45 56 42 55 41 -197 0
57 46 45 56 42 55 41 -199 0
57 75 59 72 56 73 55 -230 0
57 75 59 72 56 73 55 -229 0
57 75 59 72 56 73 55 -232 0
57 75 59 72 56 73 55 -231 0
57 75 59 72 56 73 78 -230 0
57 75 59 72 56 73 78 -229 0
57 75 59 72 56 73 78 -232 0
57 75 59 72 56 73 78 -231 0
57 75 59 72 56 55 78 -230 0
57 75 59 72 56 55 78 -229 0
57 75 59 72 56 55 78 -232 0
57 75 59 72 56 55 78 -231 0
57 75 59 72 73 55 78 -230 0
57 75 59 72 73 55 78 -229 0
57 75 59 72 73 55 78 -232 0
57 75 59 72 73 55 78 -231 0
57 75 59 56 73 55 78 -230 0
57 75 59 56 73 55 78 -229 0
57 75 59 56 73 55 78 -232 0
57 75 59 56 73 55 78 -231 0
57 75 72 56 73 55 78 -230 0
57 75 72 56 73 55 78 -229 0
57 75 72 56 73 55 78 -232 0
57 75 72 56 73 55 78 -231 0
57 68 59 69 56 67 55 -227 0
57 68 59 69 56 67 55 -225 0
57 68 59 69 56 67 55 -228 0
57 68 59 69 56 67 55 -226 0
57 68 59 69 56 67 63 -227 0
57 68 59 69 56 67 63 -225 0
57 68 59 69 56 67 63 -228 0
57 68 59 69 56 67 63 -226 0
57 68 59 69 56 55 63 -227 0
57 68 59 69 56 55 63 -225 0
57 68 59 69 56 55 63 -228 0
57 68 59 69 56 55 63 -226 0
57 68 59 69 67 55 63 -227 0
57 68 59 69 67 55 63 -225 0
57 68 59 69 67 55 63 -228 0
57 68 59 69 67 55 63 -226 0
57 68 59 56 67 55 63 -227 0
57 68 59 56 67 55 63 -225 0
57 68 59 56 67 55 63 -228 0
57 68 59 56 67 55 63 -226 0
57 68 69 56 67 55 63 -227 0
57 68 69 56 67 55 63 -225 0
57 68 69 56 67 55 63 -228 0
57 68 69 56 67 55 63 -226 0
57 4 59 2 56 1 55 -62 0
57 4 59 2 56 1 55 -58 0
57 4 59 2 56 1 55 -61 0
57 4 59 2 56 1 55 -60 0
57 4 59 2 56 1 5 -62 0
57 4 59 2 56 1 5 -58 0
57 4 59 2 56 1 5 -61 0
57 4 59 2 56 1 5 -60 0
57 4 59 2 56 55 5 -62 0
57 4 59 2 56 55 5 -58 0
57 4 59 2 56 55 5 -61 0
57 4 59 2 56 55 5 -60 0
57 4 59 2 1 55 5 -62 0
57 4 59 2 1 55 5 -58 0
57 4 59 2 1 55 5 -61 0
57 4 59 2 1 55 5 -60 0
57 4 59 56 1 55 5 -62 0
57 4 59 56 1 55 5 -58 0
57 4 59 56 1 55 5 -61 0
57 4 59 56 1 55 5 -60 0
57 4 2 56 1 55 5 -62 0
57 4 2 56 1 55 5 -58 0
57 4 2 56 1 55 5 -61 0
57 4 2 56 1 55 5 -60 0
57 38 59 34 56 33 55 -179 0
57 38 59 34 56 33 55 -182 0
57 38 59 34 56 33 55 -181 0
57 38 59 34 56 33 55 -180 0
57 13 59 14 56 12 55 -102 0
57 13 59 14 56 12 55 -101 0
57 13 59 14 56 12 55 -103 0
57 13 59 14 56 12 55 -104 0
57 26 59 30 56 25 55 -159 0
57 26 59 30 56 25 55 -157 0
57 26 59 30 56 25 55 -160 0
57 26 59 30 56 25 55 -158 0
57 59 48 56 54 55 50 -211 0
57 59 48 56 54 55 50 -214 0
57 59 48 56 54 55 50 -212 0
57 59 48 56 54 55 50 -213 0
57 59 21 56 20 55 18 -131 0
57 59 21 56 20 55 18 -134 0
57 59 21 56 20 55 18 -133 0
57 59 21 56 20 55 18 -132 0
57 59 45 56 42 55 41 -200 0
57 59 45 56 42 55 41 -198 0
57 59 45 56 42 55 41 -197 0
57 59 45 56 42 55 41 -199 0
57 59 72 56 73 55 78 -230 0
57 59 72 56 73 55 78 -229 0
57 59 72 56 73 55 78 -232 0
57 59 72 56 73 55 78 -231 0
57 59 69 56 67 55 63 -227 0
57 59 69 56 67 55 63 -225 0
57 59 69 56 67 55 63 -228 0
57 59 69 56 67 55 63 -226 0
57 59 2 56 1 55 5 -62 0
57 59 2 56 1 55 5 -58 0
57 59 2 56 1 55 5 -61 0
57 59 2 56 1 55 5 -60 0
47 15 48 21 54 20 50 -128 0
47 15 48 21 54 20 50 -129 0
47 15 48 21 54 20 50 -127 0
47 15 48 21 54 20 50 -130 0
47 15 48 21 54 20 18 -128 0
47 15 48 21 54 20 18 -129 0
47 15 48 21 54 20 18 -127 0
47 15 48 21 54 20 18 -130 0
47 15 48 21 54 50 18 -128 0
47 15 48 21 54 50 18 -129 0
47 15 48 21 54 50 18 -127 0
47 15 48 21 54 50 18 -130 0
47 15 48 21 20 50 18 -128 0
47 15 48 21 20 50 18 -129 0
47 15 48 21 20 50 18 -127 0
47 15 48 21 20 50 18 -130 0
47 15 48 54 20 50 18 -128 0
47 15 48 54 20 50 18 -129 0
47 15 48 54 20 50 18 -127 0
47 15 48 54 20 50 18 -130 0
47 15 21 54 20 50 18 -128 0
47 15 21 54 20 50 18 -129 0
47 15 21 54 20 50 18 -127 0
47 15 21 54 20 50 18 -130 0
47 46 48 45 54 42 50 -195 0
47 46 48 45 54 42 50 -193 0
47 46 48 45 54 42 50 -196 0
47 46 48 45 54 42 50 -194 0
47 46 48 45 54 42 41 -195 0
47 46 48 45 54 42 41 -193 0
47 46 48 45 54 42 41 -196 0
47 46 48 45 54 42 41 -194 0
47 46 48 45 54 50 41 -195 0
47 46 48 45 54 50 41 -193 0
47 46 48 45 54 50 41 -196 0
47 46 48 45 54 50 41 -194 0
47 46 48 45 42 50 41 -195 0
47 46 48 45 42 50 41 -193 0
47 46 48 45 42 50 41 -196 0
47 46 48 45 42 50 41 -194 0
47 46 48 54 42 50 41 -195 0
47 46 48 54 42 50 41 -193 0
47 46 48 54 42 50 41 -196 0
47 46 48 54 42 50 41 -194 0
47 46 45 54 42 50 41 -195 0
47 46 45 54 42 50 41 -193 0
47 46 45 54 42 50 41 -196 0
47 46 45 54 42 50 41 -194 0
47 75 48 72 54 73 50 -219 0
47 75 48 72 54 73 50 -220 0
47 75 48 72 54 73 50 -221 0
47 75 48 72 54 73 50 -222 0
47 75 48 72 54 73 78 -219 0
47 75 48 72 54 73 78 -220 0
47 75 48 72 54 73 78 -221 0
47 75 48 72 54 73 78 -222 0
47 75 48 72 54 50 78 -219 0
47 75 48 72 54 50 78 -220 0
47 75 48 72 54 50 78 -221 0
47 75 48 72 54 50 78 -222 0
47 75 48 72 73 50 78 -219 0
47 75 48 72 73 50 78 -220 0
47 75 48 72 73 50 78 -221 0
47 75 48 72 73 50 78 -222 0
47 75 48 54 73 50 78 -219 0
47 75 48 54 73 50 78 -220 0
47 75 48 54 73 50 78 -221 0
47 75 48 54 73 50 78 -222 0
47 75 72 54 73 50 78 -219 0
47 75 72 54 73 50 78 -220 0
47 75 72 54 73 50 78 -221 0
47 75 72 54 73 50 78 -222 0
47 68 48 69 54 67 50 -217 0
47 68 48 69 54 67 50 -216 0
47 68 48 69 54 67 50 -215 0
47 68 48 69 54 67 50 -218 0
47 68 48 69 54 67 63 -217 0
47 68 48 69 54 67 63 -216 0
47 68 48 69 54 67 63 -215 0
47 68 48 69 54 67 63 -218 0
47 68 48 69 54 50 63 -217 0
47 68 48 69 54 50 63 -216 0
47 68 48 69 54 50 63 -215 0
47 68 48 69 54 50 63 -218 0
47 68 48 69 67 50 63 -217 0
47 68 48 69 67 50 63 -216 0
47 68 48 69 67 50 63 -215 0
47 68 48 69 67 50 63 -218 0
47 68 48 54 67 50 63 -217 0
47 68 48 54 67 50 63 -216 0
47 68 48 54 67 50 63 -215 0
47 68 48 54 67 50 63 -218 0
47 68 69 54 67 50 63 -217 0
47 68 69 54 67 50 63 -216 0
47 68 69 54 67 50 63 -215 0
47 68 69 54 67 50 63 -218 0
47 4 48 2 54 1 50 -51 0
47 4 48 2 54 1 50 -53 0
47 4 48 2 54 1 50 -52 0
47 4 48 2 54 1 50 -49 0
47 4 48 2 54 1 5 -51 0
47 4 48 2 54 1 5 -53 0
47 4 48 2 54 1 5 -52 0
47 4 48 2 54 1 5 -49 0
47 4 48 2 54 50 5 -51 0
47 4 48 2 54 50 5 -53 0
47 4 48 2 54 50 5 -52 0
47 4 48 2 54 50 5 -49 0
47 4 48 2 1 50 5 -51 0
47 4 48 2 1 50 5 -53 0
47 4 48 2 1 50 5 -52 0
47 4 48 2 1 50 5 -49 0
47 4 48 54 1 50 5 -51 0
47 4 48 54 1 50 5 -53 0
47 4 48 54 1 50 5 -52 0
47 4 48 54 1 50 5 -49 0
47 4 2 54 1 50 5 -51 0
47 4 2 54 1 50 5 -53 0
47 4 2 54 1 50 5 -52 0
47 4 2 54 1 50 5 -49 0
47 38 48 34 54 33 50 -176 0
47 38 48 34 54 33 50 -178 0
47 38 48 34 54 33 50 -177 0
47 38 48 34 54 33 50 -175 0
47 13 48 14 54 12 50 -99 0
47 13 48 14 54 12 50 -97 0
47 13 48 14 54 12 50 -100 0
47 13 48 14 54 12 50 -98 0
47 26 48 30 54 25 50 -155 0
47 26 48 30 54 25 50 -153 0
47 26 48 30 54 25 50 -156 0
47 26 48 30 54 25 50 -154 0
47 59 48 56 54 55 50 -211 0
47 59 48 56 54 55 50 -214 0
47 59 48 56 54 55 50 -212 0
47 59 48 56 54 55 50 -213 0
47 48 21 54 20 50 18 -128 0
47 48 21 54 20 50 18 -129 0
47 48 21 54 20 50 18 -127 0
47 48 21 54 20 50 18 -130 0
47 48 45 54 42 50 41 -195 0
47 48 45 54 42 50 41 -193 0
47 48 45 54 42 50 41 -196 0
47 48 45 54 42 50 41 -194 0
47 48 72 54 73 50 78 -219 0
47 48 72 54 73 50 78 -220 0
47 48 72 54 73 50 78 -221 0
47 48 72 54 73 50 78 -222 0
47 48 69 54 67 50 63 -217 0
47 48 69 54 67 50 63 -216 0
47 48 69 54 67 50 63 -215 0
47 48 69 54 67 50 63 -218 0
47 48 2 54 1 50 5 -51 0
47 48 2 54 1 50 5 -53 0
47 48 2 54 1 50 5 -52 0
47 48 2 54 1 50 5 -49 0
15 46 21 45 20 42 18 -123 0
15 46 21 45 20 42 18 -125 0
15 46 21 45 20 42 18 -124 0
15 46 21 45 20 42 18 -126 0
15 46 21 45 20 42 41 -123 0
15 46 21 45 20 42 41 -125 0
15 46 21 45 20 42 41 -124 0
15 46 21 45 20 42 41 -126 0
15 46 21 45 20 18 41 -123 0
15 46 21 45 20 18 41 -125 0
15 46 21 45 20 18 41 -124 0
15 46 21 45 20 18 41 -126 0
15 46 21 45 42 18 41 -123 0
15 46 21 45 42 18 41 -125 0
15 46 21 45 42 18 41 -124 0
15 46 21 45 42 18 41 -126 0
15 46 21 20 42 18 41 -123 0
15 46 21 20 42 18 41 -125 0
15 46 21 20 42 18 41 -124 0
15 46 21 20 42 18 41 -126 0
15 46 45 20 42 18 41 -123 0
15 46 45 20 42 18 41 -125 0
15 46 45 20 42 18 41 -124 0
15 46 45 20 42 18 41 -126 0
15 75 21 72 20 73 18 -140 0
15 75 21 72 20 73 18 -141 0
15 75 21 72 20 73 18 -142 0
15 75 21 72 20 73 18 -139 0
15 75 21 72 20 73 78 -140 0
15 75 21 72 20 73 78 -141 0
15 75 21 72 20 73 78 -142 0
15 75 21 72 20 73 78 -139 0
15 75 21 72 20 18 78 -140 0
15 75 21 72 20 18 78 -141 0
15 75 21 72 20 18 78 -142 0
15 75 21 72 20 18 78 -139 0
15 75 21 72 73 18 78 -140 0
15 75 21 72 73 18 78 -141 0
15 75 21 72 73 18 78 -142 0
15 75 21 72 73 18 78 -139 0
15 75 21 20 73 18 78 -140 0
15 75 21 20 73 18 78 -141 0
15 75 21 20 73 18 78 -142 0
15 75 21 20 73 18 78 -139 0
15 75 72 20 73 18 78 -140 0
15 75 72 20 73 18 78 -141 0
15 75 72 20 73 18 78 -142 0
15 75 72 20 73 18 78 -139 0
15 68 21 69 20 67 18 -136 0
15 68 21 69 20 67 18 -135 0
15 68 21 69 20 67 18 -137 0
15 68 21 69 20 67 18 -138 0
15 68 21 69 20 67 63 -136 0
15 68 21 69 20 67 63 -135 0
15 68 21 69 20 67 63 -137 0
15 68 21 69 20 67 63 -138 0
15 68 21 69 20 18 63 -136 0
15 68 21 69 20 18 63 -135 0
15 68 21 69 20 18 63 -137 0
15 68 21 69 20 18 63 -138 0
15 68 21 69 67 18 63 -136 0
15 68 21 69 67 18 63 -135 0
15 68 21 69 67 18 63 -137 0
15 68 21 69 67 18 63 -138 0
15 68 21 20 67 18 63 -136 0
15 68 21 20 67 18 63 -135 0
15 68 21 20 67 18 63 -137 0
15 68 21 20 67 18 63 -138 0
15 68 69 20 67 18 63 -136 0
15 68 69 20 67 18 63 -135 0
15 68 69 20 67 18 63 -137 0
15 68 69 20 67 18 63 -138 0
15 4 21 2 20 1 18 -16 0
15 4 21 2 20 1 18 -19 0
15 4 21 2 20 1 18 -17 0
15 4 21 2 20 1 18 -22 0
15 4 21 2 20 1 5 -16 0
15 4 21 2 20 1 5 -19 0
15 4 21 2 20 1 5 -17 0
15 4 21 2 20 1 5 -22 0
15 4 21 2 20 18 5 -16 0
15 4 21 2 20 18 5 -19 0
15 4 21 2 20 18 5 -17 0
15 4 21 2 20 18 5 -22 0
15 4 21 2 1 18 5 -16 0
15 4 21 2 1 18 5 -19 0
15 4 21 2 1 18 5 -17 0
15 4 21 2 1 18 5 -22 0
15 4 21 20 1 18 5 -16 0
15 4 21 20 1 18 5 -19 0
15 4 21 20 1 18 5 -17 0
15 4 21 20 1 18 5 -22 0
15 4 2 20 1 18 5 -16 0
15 4 2 20 1 18 5 -19 0
15 4 2 20 1 18 5 -17 0
15 4 2 20 1 18 5 -22 0
15 38 21 34 20 33 18 -119 0
15 38 21 34 20 33 18 -120 0
15 38 21 34 20 33 18 -121 0
15 38 21 34 20 33 18 -122 0
15 13 21 14 20 12 18 -81 0
15 13 21 14 20 12 18 -83 0
15 13 21 14 20 12 18 -82 0
15 13 21 14 20 12 18 -84 0
15 26 21 30 20 25 18 -115 0
15 26 21 30 20 25 18 -116 0
15 26 21 30 20 25 18 -117 0
15 26 21 30 20 25 18 -118 0
15 59 21 56 20 55 18 -131 0
15 59 21 56 20 55 18 -134 0
15 59 21 56 20 55 18 -133 0
15 59 21 56 20 55 18 -132 0
15 48 21 54 20 50 18 -128 0
15 48 21 54 20 50 18 -129 0
15 48 21 54 20 50 18 -127 0
15 48 21 54 20 50 18 -130 0
15 21 45 20 42 18 41 -123 0
15 21 45 20 42 18 41 -125 0
15 21 45 20 42 18 41 -124 0
15 21 45 20 42 18 41 -126 0
15 21 72 20 73 18 78 -140 0
15 21 72 20 73 18 78 -141 0
15 21 72 20 73 18 78 -142 0
15 21 72 20 73 18 78 -139 0
15 21 69 20 67 18 63 -136 0
15 21 69 20 67 18 63 -135 0
15 21 69 20 67 18 63 -137 0
15 21 69 20 67 18 63 -138 0
15 21 2 20 1 18 5 -16 0
15 21 2 20 1 18 5 -19 0
15 21 2 20 1 18 5 -17 0
15 21 2 20 1 18 5 -22 0
46 75 45 72 42 73 41 -206 0
46 75 45 72 42 73 41 -207 0
46 75 45 72 42 73 41 -208 0
46 75 45 72 42 73 41 -205 0
46 75 45 72 42 73 78 -206 0
46 75 45 72 42 73 78 -207 0
46 75 45 72 42 73 78 -208 0
46 75 45 72 42 73 78 -205 0
46 75 45 72 42 41 78 -206 0
46 75 45 72 42 41 78 -207 0
46 75 45 72 42 41 78 -208 0
46 75 45 72 42 41 78 -205 0
46 75 45 72 73 41 78 -206 0
46 75 45 72 73 41 78 -207 0
46 75 45 72 73 41 78 -208 0
46 75 45 72 73 41 78 -205 0
46 75 45 42 73 41 78 -206 0
46 75 45 42 73 41 78 -207 0
46 75 45 42 73 41 78 -208 0
46 75 45 42 73 41 78 -205 0
46 75 72 42 73 41 78 -206 0
46 75 72 42 73 41 78 -207 0
46 75 72 42 73 41 78 -208 0
46 75 72 42 73 41 78 -205 0
46 68 45 69 42 67 41 -202 0
46 68 45 69 42 67 41 -201 0
46 68 45 69 42 67 41 -204 0
46 68 45 69 42 67 41 -203 0
46 68 45 69 42 67 63 -202 0
46 68 45 69 42 67 63 -201 0
46 68 45 69 42 67 63 -204 0
46 68 45 69 42 67 63 -203 0
46 68 45 69 42 41 63 -202 0
46 68 45 69 42 41 63 -201 0
46 68 45 69 42 41 63 -204 0
46 68 45 69 42 41 63 -203 0
46 68 45 69 67 41 63 -202 0
46 68 45 69 67 41 63 -201 0
46 68 45 69 67 41 63 -204 0
46 68 45 69 67 41 63 -203 0
46 68 45 42 67 41 63 -202 0
46 68 45 42 67 41 63 -201 0
46 68 45 42 67 41 63 -204 0
46 68 45 42 67 41 63 -203 0
46 68 69 42 67 41 63 -202 0
46 68 69 42 67 41 63 -201 0
46 68 69 42 67 41 63 -204 0
46 68 69 42 67 41 63 -203 0
46 4 45 2 42 1 41 -39 0
46 4 45 2 42 1 41 -40 0
46 4 45 2 42 1 41 -43 0
46 4 45 2 42 1 41 -44 0
46 4 45 2 42 1 5 -39 0
46 4 45 2 42 1 5 -40 0
46 4 45 2 42 1 5 -43 0
46 4 45 2 42 1 5 -44 0
46 4 45 2 42 41 5 -39 0
46 4 45 2 42 41 5 -40 0
46 4 45 2 42 41 5 -43 0
46 4 45 2 42 41 5 -44 0
46 4 45 2 1 41 5 -39 0
46 4 45 2 1 41 5 -40 0
46 4 45 2 1 41 5 -43 0
46 4 45 2 1 41 5 -44 0
46 4 45 42 1 41 5 -39 0
46 4 45 42 1 41 5 -40 0
46 4 45 42 1 41 5 -43 0
46 4 45 42 1 41 5 -44 0
46 4 2 42 1 41 5 -39 0
46 4 2 42 1 41 5 -40 0
46 4 2 42 1 41 5 -43 0
46 4 2 42 1 41 5 -44 0
46 38 45 34 42 33 41 -173 0
46 38 45 34 42 33 41 -171 0
46 38 45 34 42 33 41 -174 0
46 38 45 34 42 33 41 -172 0
46 13 45 14 42 12 41 -93 0
46 13 45 14 42 12 41 -96 0
46 13 45 14 42 12 41 -94 0
46 13 45 14 42 12 41 -95 0
46 26 45 30 42 25 41 -151 0
46 26 45 30 42 25 41 -152 0
46 26 45 30 42 25 41 -149 0
46 26 45 30 42 25 41 -150 0
46 59 45 56 42 55 41 -200 0
46 59 45 56 42 55 41 -198 0
46 59 45 56 42 55 41 -197 0
46 59 45 56 42 55 41 -199 0
46 48 45 54 42 50 41 -195 0
46 48 45 54 42 50 41 -193 0
46 48 45 54 42 50 41 -196 0
46 48 45 54 42 50 41 -194 0
46 21 45 20 42 18 41 -123 0
46 21 45 20 42 18 41 -125 0
46 21 45 20 42 18 41 -124 0
46 21 45 20 42 18 41 -126 0
46 45 72 42 73 41 78 -206 0
46 45 72 42 73 41 78 -207 0
46 45 72 42 73 41 78 -208 0
46 45 72 42 73 41 78 -205 0
46 45 69 42 67 41 63 -202 0
46 45 69 42 67 41 63 -201 0
46 45 69 42 67 41 63 -204 0
46 45 69 42 67 41 63 -203 0
46 45 2 42 1 41 5 -39 0
46 45 2 42 1 41 5 -40 0
46 45 2 42 1 41 5 -43 0
46 45 2 42 1 41 5 -44 0
75 68 72 69 73 67 78 -237 0
75 68 72 69 73 67 78 -235 0
75 68 72 69 73 67 78 -238 0
75 68 72 69 73 67 78 -236 0
75 68 72 69 73 67 63 -237 0
75 68 72 69 73 67 63 -235 0
75 68 72 69 73 67 63 -238 0
75 68 72 69 73 67 63 -236 0
75 68 72 69 73 78 63 -237 0
75 68 72 69 73 78 63 -235 0
75 68 72 69 73 78 63 -238 0
75 68 72 69 73 78 63 -236 0
75 68 72 69 67 78 63 -237 0
75 68 72 69 67 78 63 -235 0
75 68 72 69 67 78 63 -238 0
75 68 72 69 67 78 63 -236 0
75 68 72 73 67 78 63 -237 0
75 68 72 73 67 78 63 -235 0
75 68 72 73 67 78 63 -238 0
75 68 72 73 67 78 63 -236 0
75 68 69 73 67 78 63 -237 0
75 68 69 73 67 78 63 -235 0
75 68 69 73 67 78 63 -238 0
75 68 69 73 67 78 63 -236 0
75 4 72 2 73 1 78 -76 0
75 4 72 2 73 1 78 -77 0
75 4 72 2 73 1 78 -74 0
75 4 72 2 73 1 78 -71 0
75 4 72 2 73 1 5 -76 0
75 4 72 2 73 1 5 -77 0
75 4 72 2 73 1 5 -74 0
75 4 72 2 73 1 5 -71 0
75 4 72 2 73 78 5 -76 0
75 4 72 2 73 78 5 -77 0
75 4 72 2 73 78 5 -74 0
75 4 72 2 73 78 5 -71 0
75 4 72 2 1 78 5 -76 0
75 4 72 2 1 78 5 -77 0
75 4 72 2 1 78 5 -74 0
75 4 72 2 1 78 5 -71 0
75 4 72 73 1 78 5 -76 0
75 4 72 73 1 78 5 -77 0
75 4 72 73 1 78 5 -74 0
75 4 72 73 1 78 5 -71 0
75 4 2 73 1 78 5 -76 0
75 4 2 73 1 78 5 -77 0
75 4 2 73 1 78 5 -74 0
75 4 2 73 1 78 5 -71 0
75 38 72 34 73 33 78 -188 0
75 38 72 34 73 33 78 -190 0
75 38 72 34 73 33 78 -189 0
75 38 72 34 73 33 78 -187 0
75 13 72 14 73 12 78 -109 0
75 13 72 14 73 12 78 -110 0
75 13 72 14 73 12 78 -112 0
75 13 72 14 73 12 78 -111 0
75 26 72 30 73 25 78 -167 0
75 26 72 30 73 25 78 -166 0
75 26 72 30 73 25 78 -165 0
75 26 72 30 73 25 78 -168 0
75 59 72 56 73 55 78 -230 0
75 59 72 56 73 55 78 -229 0
75 59 72 56 73 55 78 -232 0
75 59 72 56 73 55 78 -231 0
75 48 72 54 73 50 78 -219 0
75 48 72 54 73 50 78 -220 0
75 48 72 54 73 50 78 -221 0
75 48 72 54 73 50 78 -222 0
75 21 72 20 73 18 78 -140 0
75 21 72 20 73 18 78 -141 0
75 21 72 20 73 18 78 -142 0
75 21 72 20 73 18 78 -139 0
75 45 72 42 73 41 78 -206 0
75 45 72 42 73 41 78 -207 0
75 45 72 42 73 41 78 -208 0
75 45 72 42 73 41 78 -205 0
75 72 69 73 67 78 63 -237 0
75 72 69 73 67 78 63 -235 0
75 72 69 73 67 78 63 -238 0
75 72 69 73 67 78 63 -236 0
75 72 2 73 1 78 5 -76 0
75 72 2 73 1 78 5 -77 0
75 72 2 73 1 78 5 -74 0
75 72 2 73 1 78 5 -71 0
68 4 69 2 67 1 63 -64 0
68 4 69 2 67 1 63 -66 0
68 4 69 2 67 1 63 -65 0
68 4 69 2 67 1 63 -70 0
68 4 69 2 67 1 5 -64 0
68 4 69 2 67 1 5 -66 0
68 4 69 2 67 1 5 -65 0
68 4 69 2 67 1 5 -70 0
68 4 69 2 67 63 5 -64 0
68 4 69 2 67 63 5 -66 0
68 4 69 2 67 63 5 -65 0
68 4 69 2 67 63 5 -70 0
68 4 69 2 1 63 5 -64 0
68 4 69 2 1 63 5 -66 0
68 4 69 2 1 63 5 -65 0
68 4 69 2 1 63 5 -70 0
68 4 69 67 1 63 5 -64 0
68 4 69 67 1 63 5 -66 0
68 4 69 67 1 63 5 -65 0
68 4 69 67 1 63 5 -70 0
68 4 2 67 1 63 5 -64 0
68 4 2 67 1 63 5 -66 0
68 4 2 67 1 63 5 -65 0
68 4 2 67 1 63 5 -70 0
68 38 69 34 67 33 63 -183 0
68 38 69 34 67 33 63 -184 0
68 38 69 34 67 33 63 -185 0
68 38 69 34 67 33 63 -186 0
68 13 69 14 67 12 63 -107 0
68 13 69 14 67 12 63 -108 0
68 13 69 14 67 12 63 -106 0
68 13 69 14 67 12 63 -105 0
68 26 69 30 67 25 63 -161 0
68 26 69 30 67 25 63 -163 0
68 26 69 30 67 25 63 -162 0
68 26 69 30 67 25 63 -164 0
68 59 69 56 67 55 63 -227 0
68 59 69 56 67 55 63 -225 0
68 59 69 56 67 55 63 -228 0
68 59 69 56 67 55 63 -226 0
68 48 69 54 67 50 63 -217 0
68 48 69 54 67 50 63 -216 0
68 48 69 54 67 50 63 -215 0
68 48 69 54 67 50 63 -218 0
68 21 69 20 67 18 63 -136 0
68 21 69 20 67 18 63 -135 0
68 21 69 20 67 18 63 -137 0
68 21 69 20 67 18 63 -138 0
68 45 69 42 67 41 63 -202 0
68 45 69 42 67 41 63 -201 0
68 45 69 42 67 41 63 -204 0
68 45 69 42 67 41 63 -203 0
68 72 69 73 67 78 63 -237 0
68 72 69 73 67 78 63 -235 0
68 72 69 73 67 78 63 -238 0
68 72 69 73 67 78 63 -236 0
68 69 2 67 1 63 5 -64 0
68 69 2 67 1 63 5 -66 0
68 69 2 67 1 63 5 -65 0
68 69 2 67 1 63 5 -70 0
4 38 2 34 1 33 5 -31 0
4 38 2 34 1 33 5 -35 0
4 38 2 34 1 33 5 -32 0
4 38 2 34 1 33 5 -36 0
4 13 2 14 1 12 5 -7 0
4 13 2 14 1 12 5 -8 0
4 13 2 14 1 12 5 -9 0
4 13 2 14 1 12 5 -11 0
4 26 2 30 1 25 5 -28 0
4 26 2 30 1 25 5 -24 0
4 26 2 30 1 25 5 -27 0
4 26 2 30 1 25 5 -29 0
4 59 2 56 1 55 5 -62 0
4 59 2 56 1 55 5 -58 0
4 59 2 56 1 55 5 -61 0
4 59 2 56 1 55 5 -60 0
4 48 2 54 1 50 5 -51 0
4 48 2 54 1 50 5 -53 0
4 48 2 54 1 50 5 -52 0
4 48 2 54 1 50 5 -49 0
4 21 2 20 1 18 5 -16 0
4 21 2 20 1 18 5 -19 0
4 21 2 20 1 18 5 -17 0
4 21 2 20 1 18 5 -22 0
4 45 2 42 1 41 5 -39 0
4 45 2 42 1 41 5 -40 0
4 45 2 42 1 41 5 -43 0
4 45 2 42 1 41 5 -44 0
4 72 2 73 1 78 5 -76 0
4 72 2 73 1 78 5 -77 0
4 72 2 73 1 78 5 -74 0
4 72 2 73 1 78 5 -71 0
4 69 2 67 1 63 5 -64 0
4 69 2 67 1 63 5 -66 0
4 69 2 67 1 63 5 -65 0
4 69 2 67 1 63 5 -70 0
37 10 38 13 34 14 33 12 -89 0
37 10 38 13 34 14 33 12 -91 0
37 10 38 13 34 14 33 12 -90 0
37 10 38 13 34 14 33 12 -92 0
37 23 38 26 34 30 33 25 -148 0
37 23 38 26 34 30 33 25 -145 0
37 23 38 26 34 30 33 25 -146 0
37 23 38 26 34 30 33 25 -147 0
37 57 38 59 34 56 33 55 -179 0
37 57 38 59 34 56 33 55 -182 0
37 57 38 59 34 56 33 55 -181 0
37 57 38 59 34 56 33 55 -180 0
37 47 38 48 34 54 33 50 -176 0
37 47 38 48 34 54 33 50 -178 0
37 47 38 48 34 54 33 50 -177 0
37 47 38 48 34 54 33 50 -175 0
37 15 38 21 34 20 33 18 -119 0
37 15 38 21 34 20 33 18 -120 0
37 15 38 21 34 20 33 18 -121 0
37 15 38 21 34 20 33 18 -122 0
37 46 38 45 34 42 33 41 -173 0
37 46 38 45 34 42 33 41 -171 0
37 46 38 45 34 42 33 41 -174 0
37 46 38 45 34 42 33 41 -172 0
37 75 38 72 34 73 33 78 -188 0
37 75 38 72 34 73 33 78 -190 0
37 75 38 72 34 73 33 78 -189 0
37 75 38 72 34 73 33 78 -187 0
37 68 38 69 34 67 33 63 -183 0
37 68 38 69 34 67 33 63 -184 0
37 68 38 69 34 67 33 63 -185 0
37 68 38 69 34 67 33 63 -186 0
37 4 38 2 34 1 33 5 -31 0
37 4 38 2 34 1 33 5 -35 0
37 4 38 2 34 1 33 5 -32 0
37 4 38 2 34 1 33 5 -36 0
10 23 13 26 14 30 12 25 -87 0
10 23 13 26 14 30 12 25 -86 0
10 23 13 26 14 30 12 25 -85 0
10 23 13 26 14 30 12 25 -88 0
10 57 13 59 14 56 12 55 -102 0
10 57 13 59 14 56 12 55 -101 0
10 57 13 59 14 56 12 55 -103 0
10 57 13 59 14 56 12 55 -104 0
10 47 13 48 14 54 12 50 -99 0
10 47 13 48 14 54 12 50 -97 0
10 47 13 48 14 54 12 50 -100 0
10 47 13 48 14 54 12 50 -98 0
10 15 13 21 14 20 12 18 -81 0
10 15 13 21 14 20 12 18 -83 0
10 15 13 21 14 20 12 18 -82 0
10 15 13 21 14 20 12 18 -84 0
10 46 13 45 14 42 12 41 -93 0
10 46 13 45 14 42 12 41 -96 0
10 46 13 45 14 42 12 41 -94 0
10 46 13 45 14 42 12 41 -95 0
10 75 13 72 14 73 12 78 -109 0
10 75 13 72 14 73 12 78 -110 0
10 75 13 72 14 73 12 78 -112 0
10 75 13 72 14 73 12 78 -111 0
10 68 13 69 14 67 12 63 -107 0
10 68 13 69 14 67 12 63 -108 0
10 68 13 69 14 67 12 63 -106 0
10 68 13 69 14 67 12 63 -105 0
10 4 13 2 14 1 12 5 -7 0
10 4 13 2 14 1 12 5 -8 0
10 4 13 2 14 1 12 5 -9 0
10 4 13 2 14 1 12 5 -11 0
23 57 26 59 30 56 25 55 -159 0
23 57 26 59 30 56 25 55 -157 0
23 57 26 59 30 56 25 55 -160 0
23 57 26 59 30 56 25 55 -158 0
23 47 26 48 30 54 25 50 -155 0
23 47 26 48 30 54 25 50 -153 0
23 47 26 48 30 54 25 50 -156 0
23 47 26 48 30 54 25 50 -154 0
23 15 26 21 30 20 25 18 -115 0
23 15 26 21 30 20 25 18 -116 0
23 15 26 21 30 20 25 18 -117 0
23 15 26 21 30 20 25 18 -118 0
23 46 26 45 30 42 25 41 -151 0
23 46 26 45 30 42 25 41 -152 0
23 46 26 45 30 42 25 41 -149 0
23 46 26 45 30 42 25 41 -150 0
23 75 26 72 30 73 25 78 -167 0
23 75 26 72 30 73 25 78 -166 0
23 75 26 72 30 73 25 78 -165 0
23 75 26 72 30 73 25 78 -168 0
23 68 26 69 30 67 25 63 -161 0
23 68 26 69 30 67 25 63 -163 0
23 68 26 69 30 67 25 63 -162 0
23 68 26 69 30 67 25 63 -164 0
23 4 26 2 30 1 25 5 -28 0
23 4 26 2 30 1 25 5 -24 0
23 4 26 2 30 1 25 5 -27 0
23 4 26 2 30 1 25 5 -29 0
57 47 59 48 56 54 55 50 -211 0
57 47 59 48 56 54 55 50 -214 0
57 47 59 48 56 54 55 50 -212 0
57 47 59 48 56 54 55 50 -213 0
57 15 59 21 56 20 55 18 -131 0
57 15 59 21 56 20 55 18 -134 0
57 15 59 21 56 20 55 18 -133 0
57 15 59 21 56 20 55 18 -132 0
57 46 59 45 56 42 55 41 -200 0
57 46 59 45 56 42 55 41 -198 0
57 46 59 45 56 42 55 41 -197 0
57 46 59 45 56 42 55 41 -199 0
57 75 59 72 56 73 55 78 -230 0
57 75 59 72 56 73 55 78 -229 0
57 75 59 72 56 73 55 78 -232 0
57 75 59 72 56 73 55 78 -231 0
57 68 59 69 56 67 55 63 -227 0
57 68 59 69 56 67 55 63 -225 0
57 68 59 69 56 67 55 63 -228 0
57 68 59 69 56 67 55 63 -226 0
57 4 59 2 56 1 55 5 -62 0
57 4 59 2 56 1 55 5 -58 0
57 4 59 2 56 1 55 5 -61 0
57 4 59 2 56 1 55 5 -60 0
47 15 48 21 54 20 50 18 -128 0
47 15 48 21 54 20 50 18 -129 0
47 15 48 21 54 20 50 18 -127 0
47 15 48 21 54 20 50 18 -130 0
47 46 48 45 54 42 50 41 -195 0
47 46 48 45 54 42 50 41 -193 0
47 46 48 45 54 42 50 41 -196 0
47 46 48 45 54 42 50 41 -194 0
47 75 48 72 54 73 50 78 -219 0
47 75 48 72 54 73 50 78 -220 0
47 75 48 72 54 73 50 78 -221 0
47 75 48 72 54 73 50 78 -222 0
47 68 48 69 54 67 50 63 -217 0
47 68 48 69 54 67 50 63 -216 0
47 68 48 69 54 67 50 63 -215 0
47 68 48 69 54 67 50 63 -218 0
47 4 48 2 54 1 50 5 -51 0
47 4 48 2 54 1 50 5 -53 0
47 4 48 2 54 1 50 5 -52 0
47 4 48 2 54 1 50 5 -49 0
15 46 21 45 20 42 18 41 -123 0
15 46 21 45 20 42 18 41 -125 0
15 46 21 45 20 42 18 41 -124 0
15 46 21 45 20 42 18 41 -126 0
15 75 21 72 20 73 18 78 -140 0
15 75 21 72 20 73 18 78 -141 0
15 75 21 72 20 73 18 78 -142 0
15 75 21 72 20 73 18 78 -139 0
15 68 21 69 20 67 18 63 -136 0
15 68 21 69 20 67 18 63 -135 0
15 68 21 69 20 67 18 63 -137 0
15 68 21 69 20 67 18 63 -138 0
15 4 21 2 20 1 18 5 -16 0
15 4 21 2 20 1 18 5 -19 0
15 4 21 2 20 1 18 5 -17 0
15 4 21 2 20 1 18 5 -22 0
46 75 45 72 42 73 41 78 -206 0
46 75 45 72 42 73 41 78 -207 0
46 75 45 72 42 73 41 78 -208 0
46 75 45 72 42 73 41 78 -205 0
46 68 45 69 42 67 41 63 -202 0
46 68 45 69 42 67 41 63 -201 0
46 68 45 69 42 67 41 63 -204 0
46 68 45 69 42 67 41 63 -203 0
46 4 45 2 42 1 41 5 -39 0
46 4 45 2 42 1 41 5 -40 0
46 4 45 2 42 1 41 5 -43 0
46 4 45 2 42 1 41 5 -44 0
75 68 72 69 73 67 78 63 -237 0
75 68 72 69 73 67 78 63 -235 0
75 68 72 69 73 67 78 63 -238 0
75 68 72 69 73 67 78 63 -236 0
75 4 72 2 73 1 78 5 -76 0
75 4 72 2 73 1 78 5 -77 0
75 4 72 2 73 1 78 5 -74 0
75 4 72 2 73 1 78 5 -71 0
68 4 69 2 67 1 63 5 -64 0
68 4 69 2 67 1 63 5 -66 0
68 4 69 2 67 1 63 5 -65 0
68 4 69 2 67 1 63 5 -70 0
170 89 148 179 176 119 173 188 183 31 0
91 80 87 102 99 81 93 109 107 7 0
145 86 143 159 155 115 151 167 161 28 0
182 101 157 223 211 131 200 230 227 62 0
178 97 153 214 209 128 195 219 217 51 0
120 83 116 134 129 113 123 140 136 16 0
171 96 152 198 193 125 191 206 202 39 0
190 110 166 229 220 141 207 239 237 76 0
184 108 163 225 216 135 201 235 234 64 0
35 8 24 58 53 19 40 77 66 6 0
169 90 146 181 177 121 174 189 185 32 0
92 79 85 103 100 82 94 112 106 9 0
147 88 144 160 156 117 149 165 162 27 0
180 104 158 224 212 133 197 232 228 61 0
175 98 154 213 210 127 196 221 215 52 0
122 84 118 132 130 114 124 142 137 17 0
172 95 150 199 194 126 192 208 204 43 0
187 111 168 231 222 139 205 240 238 74 0
186 105 164 226 218 138 203 236 233 65 0
36 11 29 60 49 22 44 71 70 3 0
