c U4(0) E1(0,0) U3(0) U1(0) E2(0,0) U2(0) U2(2) E2(0,2) E1(0,2) E1(2,0) E2(2,0) U1(2) U4(2) U3(2) E2(1,0) E2(0,1) U3(1) U2(1) E1(1,0) U4(1) U1(1) E1(0,1) E1(3,0) U4(3) U1(3) E2(3,0) E1(0,3) U3(3) E2(0,3) U2(3) E2(2,2) E1(2,2) E2(1,2) E1(1,2) E2(2,1) E1(2,1) E1(2,3) E2(3,2) E1(3,2) E2(2,3) E2(1,1) E1(1,1) E1(3,1) E1(1,3) E2(1,3) E2(3,1) E1(3,3) E2(3,3)
c 1 2 3 4 5 6 7 8 9 10 11 12 13 14 15 16 17 18 19 20 21 22 23 24 25 26 27 28 29 30 31 32 33 34 35 36 37 38 39 40 41 42 43 44 45 46 47 48
p cnf 48 944
-2 -5 0
-22 -16 0
-22 -15 0
-9 -8 0
-9 -11 0
-27 -29 0
-27 -26 0
-19 -16 0
-19 -15 0
-42 -41 0
-34 -33 0
-34 -35 0
-44 -45 0
-44 -46 0
-10 -8 0
-10 -11 0
-36 -33 0
-36 -35 0
-32 -31 0
-37 -40 0
-37 -38 0
-23 -29 0
-23 -26 0
-43 -45 0
-43 -46 0
-39 -40 0
-39 -38 0
-47 -48 0
-4 -6 0
-4 -3 0
-4 -1 0
-21 -18 0
-21 -17 0
-21 -20 0
-12 -7 0
-12 -14 0
-12 -13 0
-25 -30 0
-25 -28 0
-25 -24 0
-6 -3 0
-6 -1 0
-18 -17 0
-18 -20 0
-7 -14 0
-7 -13 0
-30 -28 0
-30 -24 0
-3 -1 0
-17 -20 0
-14 -13 0
-28 -24 0
2 22 9 27 0
19 42 34 44 0
10 36 32 37 0
23 43 39 47 0
5 16 8 29 0
15 41 33 45 0
11 35 31 40 0
26 46 38 48 0
4 6 3 1 0
21 18 17 20 0
12 7 14 13 0
25 30 28 24 0
4 6 3 -2 0
4 6 3 -5 0
4 6 1 -2 0
4 6 1 -5 0
4 3 1 -2 0
4 3 1 -5 0
21 18 17 -42 0
21 18 17 -41 0
21 18 20 -42 0
21 18 20 -41 0
21 17 20 -42 0
21 17 20 -41 0
12 7 14 -32 0
12 7 14 -31 0
12 7 13 -32 0
12 7 13 -31 0
12 14 13 -32 0
12 14 13 -31 0
25 30 28 -47 0
25 30 28 -48 0
25 30 24 -47 0
25 30 24 -48 0
25 28 24 -47 0
25 28 24 -48 0
6 3 1 -2 0
6 3 1 -5 0
18 17 20 -42 0
18 17 20 -41 0
7 14 13 -32 0
7 14 13 -31 0
30 28 24 -47 0
30 28 24 -48 0
4 6 3 1 -2 0
4 6 3 1 -22 0
4 6 3 1 -9 0
4 6 3 1 -27 0
4 6 3 1 -19 0
4 6 3 1 -10 0
4 6 3 1 -23 0
4 6 3 1 -5 0
4 6 3 1 -16 0
4 6 3 1 -8 0
4 6 3 1 -29 0
4 6 3 1 -15 0
4 6 3 1 -11 0
4 6 3 1 -26 0
21 18 17 20 -22 0
21 18 17 20 -19 0
21 18 17 20 -42 0
21 18 17 20 -34 0
21 18 17 20 -44 0
21 18 17 20 -36 0
21 18 17 20 -43 0
21 18 17 20 -16 0
21 18 17 20 -15 0
21 18 17 20 -41 0
21 18 17 20 -33 0
21 18 17 20 -45 0
21 18 17 20 -35 0
21 18 17 20 -46 0
12 7 14 13 -9 0
12 7 14 13 -34 0
12 7 14 13 -10 0
12 7 14 13 -36 0
12 7 14 13 -32 0
12 7 14 13 -37 0
12 7 14 13 -39 0
12 7 14 13 -8 0
12 7 14 13 -33 0
12 7 14 13 -11 0
12 7 14 13 -35 0
12 7 14 13 -31 0
12 7 14 13 -40 0
12 7 14 13 -38 0
25 30 28 24 -27 0
25 30 28 24 -44 0
25 30 28 24 -37 0
25 30 28 24 -23 0
25 30 28 24 -43 0
25 30 28 24 -39 0
25 30 28 24 -47 0
25 30 28 24 -29 0
25 30 28 24 -45 0
25 30 28 24 -40 0
25 30 28 24 -26 0
25 30 28 24 -46 0
25 30 28 24 -38 0
25 30 28 24 -48 0
4 21 6 3 1 -22 0
4 21 6 3 1 -19 0
4 21 6 3 1 -16 0
4 21 6 3 1 -15 0
4 21 18 17 20 -22 0
4 21 18 17 20 -19 0
4 21 18 17 20 -16 0
4 21 18 17 20 -15 0
4 12 6 3 1 -9 0
4 12 6 3 1 -10 0
4 12 6 3 1 -8 0
4 12 6 3 1 -11 0
4 12 7 14 13 -9 0
4 12 7 14 13 -10 0
4 12 7 14 13 -8 0
4 12 7 14 13 -11 0
4 25 6 3 1 -27 0
4 25 6 3 1 -23 0
4 25 6 3 1 -29 0
4 25 6 3 1 -26 0
4 25 30 28 24 -27 0
4 25 30 28 24 -23 0
4 25 30 28 24 -29 0
4 25 30 28 24 -26 0
4 6 18 3 1 -22 0
4 6 18 3 1 -19 0
4 6 18 3 1 -16 0
4 6 18 3 1 -15 0
4 6 7 3 1 -9 0
4 6 7 3 1 -10 0
4 6 7 3 1 -8 0
4 6 7 3 1 -11 0
4 6 30 3 1 -27 0
4 6 30 3 1 -23 0
4 6 30 3 1 -29 0
4 6 30 3 1 -26 0
4 6 3 17 1 -22 0
4 6 3 17 1 -19 0
4 6 3 17 1 -16 0
4 6 3 17 1 -15 0
4 6 3 14 1 -9 0
4 6 3 14 1 -10 0
4 6 3 14 1 -8 0
4 6 3 14 1 -11 0
4 6 3 28 1 -27 0
4 6 3 28 1 -23 0
4 6 3 28 1 -29 0
4 6 3 28 1 -26 0
4 6 3 1 20 -22 0
4 6 3 1 20 -19 0
4 6 3 1 20 -16 0
4 6 3 1 20 -15 0
4 6 3 1 13 -9 0
4 6 3 1 13 -10 0
4 6 3 1 13 -8 0
4 6 3 1 13 -11 0
4 6 3 1 24 -27 0
4 6 3 1 24 -23 0
4 6 3 1 24 -29 0
4 6 3 1 24 -26 0
21 12 18 17 20 -34 0
21 12 18 17 20 -36 0
21 12 18 17 20 -33 0
21 12 18 17 20 -35 0
21 12 7 14 13 -34 0
21 12 7 14 13 -36 0
21 12 7 14 13 -33 0
21 12 7 14 13 -35 0
21 25 18 17 20 -44 0
21 25 18 17 20 -43 0
21 25 18 17 20 -45 0
21 25 18 17 20 -46 0
21 25 30 28 24 -44 0
21 25 30 28 24 -43 0
21 25 30 28 24 -45 0
21 25 30 28 24 -46 0
21 6 18 17 20 -22 0
21 6 18 17 20 -19 0
21 6 18 17 20 -16 0
21 6 18 17 20 -15 0
21 18 7 17 20 -34 0
21 18 7 17 20 -36 0
21 18 7 17 20 -33 0
21 18 7 17 20 -35 0
21 18 30 17 20 -44 0
21 18 30 17 20 -43 0
21 18 30 17 20 -45 0
21 18 30 17 20 -46 0
21 18 3 17 20 -22 0
21 18 3 17 20 -19 0
21 18 3 17 20 -16 0
21 18 3 17 20 -15 0
21 18 17 14 20 -34 0
21 18 17 14 20 -36 0
21 18 17 14 20 -33 0
21 18 17 14 20 -35 0
21 18 17 28 20 -44 0
21 18 17 28 20 -43 0
21 18 17 28 20 -45 0
21 18 17 28 20 -46 0
21 18 17 1 20 -22 0
21 18 17 1 20 -19 0
21 18 17 1 20 -16 0
21 18 17 1 20 -15 0
21 18 17 20 13 -34 0
21 18 17 20 13 -36 0
21 18 17 20 13 -33 0
21 18 17 20 13 -35 0
21 18 17 20 24 -44 0
21 18 17 20 24 -43 0
21 18 17 20 24 -45 0
21 18 17 20 24 -46 0
12 25 7 14 13 -37 0
12 25 7 14 13 -39 0
12 25 7 14 13 -40 0
12 25 7 14 13 -38 0
12 25 30 28 24 -37 0
12 25 30 28 24 -39 0
12 25 30 28 24 -40 0
12 25 30 28 24 -38 0
12 6 7 14 13 -9 0
12 6 7 14 13 -10 0
12 6 7 14 13 -8 0
12 6 7 14 13 -11 0
12 18 7 14 13 -34 0
12 18 7 14 13 -36 0
12 18 7 14 13 -33 0
12 18 7 14 13 -35 0
12 7 30 14 13 -37 0
12 7 30 14 13 -39 0
12 7 30 14 13 -40 0
12 7 30 14 13 -38 0
12 7 3 14 13 -9 0
12 7 3 14 13 -10 0
12 7 3 14 13 -8 0
12 7 3 14 13 -11 0
12 7 17 14 13 -34 0
12 7 17 14 13 -36 0
12 7 17 14 13 -33 0
12 7 17 14 13 -35 0
12 7 14 28 13 -37 0
12 7 14 28 13 -39 0
12 7 14 28 13 -40 0
12 7 14 28 13 -38 0
12 7 14 1 13 -9 0
12 7 14 1 13 -10 0
12 7 14 1 13 -8 0
12 7 14 1 13 -11 0
12 7 14 20 13 -34 0
12 7 14 20 13 -36 0
12 7 14 20 13 -33 0
12 7 14 20 13 -35 0
12 7 14 13 24 -37 0
12 7 14 13 24 -39 0
12 7 14 13 24 -40 0
12 7 14 13 24 -38 0
25 6 30 28 24 -27 0
25 6 30 28 24 -23 0
25 6 30 28 24 -29 0
25 6 30 28 24 -26 0
25 18 30 28 24 -44 0
25 18 30 28 24 -43 0
25 18 30 28 24 -45 0
25 18 30 28 24 -46 0
25 7 30 28 24 -37 0
25 7 30 28 24 -39 0
25 7 30 28 24 -40 0
25 7 30 28 24 -38 0
25 30 3 28 24 -27 0
25 30 3 28 24 -23 0
25 30 3 28 24 -29 0
25 30 3 28 24 -26 0
25 30 17 28 24 -44 0
25 30 17 28 24 -43 0
25 30 17 28 24 -45 0
25 30 17 28 24 -46 0
25 30 14 28 24 -37 0
25 30 14 28 24 -39 0
25 30 14 28 24 -40 0
25 30 14 28 24 -38 0
25 30 28 1 24 -27 0
25 30 28 1 24 -23 0
25 30 28 1 24 -29 0
25 30 28 1 24 -26 0
25 30 28 20 24 -44 0
25 30 28 20 24 -43 0
25 30 28 20 24 -45 0
25 30 28 20 24 -46 0
25 30 28 13 24 -37 0
25 30 28 13 24 -39 0
25 30 28 13 24 -40 0
25 30 28 13 24 -38 0
4 21 6 18 3 17 -22 0
4 21 6 18 3 17 -19 0
4 21 6 18 3 17 -16 0
4 21 6 18 3 17 -15 0
4 21 6 18 3 1 -22 0
4 21 6 18 3 1 -19 0
4 21 6 18 3 1 -16 0
4 21 6 18 3 1 -15 0
4 21 6 18 17 20 -22 0
4 21 6 18 17 20 -19 0
4 21 6 18 17 20 -16 0
4 21 6 18 17 20 -15 0
4 21 6 18 1 20 -22 0
4 21 6 18 1 20 -19 0
4 21 6 18 1 20 -16 0
4 21 6 18 1 20 -15 0
4 21 6 3 17 1 -22 0
4 21 6 3 17 1 -19 0
4 21 6 3 17 1 -16 0
4 21 6 3 17 1 -15 0
4 21 6 3 1 20 -22 0
4 21 6 3 1 20 -19 0
4 21 6 3 1 20 -16 0
4 21 6 3 1 20 -15 0
4 21 18 3 17 20 -22 0
4 21 18 3 17 20 -19 0
4 21 18 3 17 20 -16 0
4 21 18 3 17 20 -15 0
4 21 18 17 1 20 -22 0
4 21 18 17 1 20 -19 0
4 21 18 17 1 20 -16 0
4 21 18 17 1 20 -15 0
4 21 3 17 1 20 -22 0
4 21 3 17 1 20 -19 0
4 21 3 17 1 20 -16 0
4 21 3 17 1 20 -15 0
4 12 6 7 3 14 -9 0
4 12 6 7 3 14 -10 0
4 12 6 7 3 14 -8 0
4 12 6 7 3 14 -11 0
4 12 6 7 3 1 -9 0
4 12 6 7 3 1 -10 0
4 12 6 7 3 1 -8 0
4 12 6 7 3 1 -11 0
4 12 6 7 14 13 -9 0
4 12 6 7 14 13 -10 0
4 12 6 7 14 13 -8 0
4 12 6 7 14 13 -11 0
4 12 6 7 1 13 -9 0
4 12 6 7 1 13 -10 0
4 12 6 7 1 13 -8 0
4 12 6 7 1 13 -11 0
4 12 6 3 14 1 -9 0
4 12 6 3 14 1 -10 0
4 12 6 3 14 1 -8 0
4 12 6 3 14 1 -11 0
4 12 6 3 1 13 -9 0
4 12 6 3 1 13 -10 0
4 12 6 3 1 13 -8 0
4 12 6 3 1 13 -11 0
4 12 7 3 14 13 -9 0
4 12 7 3 14 13 -10 0
4 12 7 3 14 13 -8 0
4 12 7 3 14 13 -11 0
4 12 7 14 1 13 -9 0
4 12 7 14 1 13 -10 0
4 12 7 14 1 13 -8 0
4 12 7 14 1 13 -11 0
4 12 3 14 1 13 -9 0
4 12 3 14 1 13 -10 0
4 12 3 14 1 13 -8 0
4 12 3 14 1 13 -11 0
4 25 6 30 3 28 -27 0
4 25 6 30 3 28 -23 0
4 25 6 30 3 28 -29 0
4 25 6 30 3 28 -26 0
4 25 6 30 3 1 -27 0
4 25 6 30 3 1 -23 0
4 25 6 30 3 1 -29 0
4 25 6 30 3 1 -26 0
4 25 6 30 28 24 -27 0
4 25 6 30 28 24 -23 0
4 25 6 30 28 24 -29 0
4 25 6 30 28 24 -26 0
4 25 6 30 1 24 -27 0
4 25 6 30 1 24 -23 0
4 25 6 30 1 24 -29 0
4 25 6 30 1 24 -26 0
4 25 6 3 28 1 -27 0
4 25 6 3 28 1 -23 0
4 25 6 3 28 1 -29 0
4 25 6 3 28 1 -26 0
4 25 6 3 1 24 -27 0
4 25 6 3 1 24 -23 0
4 25 6 3 1 24 -29 0
4 25 6 3 1 24 -26 0
4 25 30 3 28 24 -27 0
4 25 30 3 28 24 -23 0
4 25 30 3 28 24 -29 0
4 25 30 3 28 24 -26 0
4 25 30 28 1 24 -27 0
4 25 30 28 1 24 -23 0
4 25 30 28 1 24 -29 0
4 25 30 28 1 24 -26 0
4 25 3 28 1 24 -27 0
4 25 3 28 1 24 -23 0
4 25 3 28 1 24 -29 0
4 25 3 28 1 24 -26 0
4 6 18 3 17 1 -22 0
4 6 18 3 17 1 -19 0
4 6 18 3 17 1 -16 0
4 6 18 3 17 1 -15 0
4 6 18 3 1 20 -22 0
4 6 18 3 1 20 -19 0
4 6 18 3 1 20 -16 0
4 6 18 3 1 20 -15 0
4 6 7 3 14 1 -9 0
4 6 7 3 14 1 -10 0
4 6 7 3 14 1 -8 0
4 6 7 3 14 1 -11 0
4 6 7 3 1 13 -9 0
4 6 7 3 1 13 -10 0
4 6 7 3 1 13 -8 0
4 6 7 3 1 13 -11 0
4 6 30 3 28 1 -27 0
4 6 30 3 28 1 -23 0
4 6 30 3 28 1 -29 0
4 6 30 3 28 1 -26 0
4 6 30 3 1 24 -27 0
4 6 30 3 1 24 -23 0
4 6 30 3 1 24 -29 0
4 6 30 3 1 24 -26 0
4 6 3 17 1 20 -22 0
4 6 3 17 1 20 -19 0
4 6 3 17 1 20 -16 0
4 6 3 17 1 20 -15 0
4 6 3 14 1 13 -9 0
4 6 3 14 1 13 -10 0
4 6 3 14 1 13 -8 0
4 6 3 14 1 13 -11 0
4 6 3 28 1 24 -27 0
4 6 3 28 1 24 -23 0
4 6 3 28 1 24 -29 0
4 6 3 28 1 24 -26 0
21 12 18 7 17 14 -34 0
21 12 18 7 17 14 -36 0
21 12 18 7 17 14 -33 0
21 12 18 7 17 14 -35 0
21 12 18 7 17 20 -34 0
21 12 18 7 17 20 -36 0
21 12 18 7 17 20 -33 0
21 12 18 7 17 20 -35 0
21 12 18 7 14 13 -34 0
21 12 18 7 14 13 -36 0
21 12 18 7 14 13 -33 0
21 12 18 7 14 13 -35 0
21 12 18 7 20 13 -34 0
21 12 18 7 20 13 -36 0
21 12 18 7 20 13 -33 0
21 12 18 7 20 13 -35 0
21 12 18 17 14 20 -34 0
21 12 18 17 14 20 -36 0
21 12 18 17 14 20 -33 0
21 12 18 17 14 20 -35 0
21 12 18 17 20 13 -34 0
21 12 18 17 20 13 -36 0
21 12 18 17 20 13 -33 0
21 12 18 17 20 13 -35 0
21 12 7 17 14 13 -34 0
21 12 7 17 14 13 -36 0
21 12 7 17 14 13 -33 0
21 12 7 17 14 13 -35 0
21 12 7 14 20 13 -34 0
21 12 7 14 20 13 -36 0
21 12 7 14 20 13 -33 0
21 12 7 14 20 13 -35 0
21 12 17 14 20 13 -34 0
21 12 17 14 20 13 -36 0
21 12 17 14 20 13 -33 0
21 12 17 14 20 13 -35 0
21 25 18 30 17 28 -44 0
21 25 18 30 17 28 -43 0
21 25 18 30 17 28 -45 0
21 25 18 30 17 28 -46 0
21 25 18 30 17 20 -44 0
21 25 18 30 17 20 -43 0
21 25 18 30 17 20 -45 0
21 25 18 30 17 20 -46 0
21 25 18 30 28 24 -44 0
21 25 18 30 28 24 -43 0
21 25 18 30 28 24 -45 0
21 25 18 30 28 24 -46 0
21 25 18 30 20 24 -44 0
21 25 18 30 20 24 -43 0
21 25 18 30 20 24 -45 0
21 25 18 30 20 24 -46 0
21 25 18 17 28 20 -44 0
21 25 18 17 28 20 -43 0
21 25 18 17 28 20 -45 0
21 25 18 17 28 20 -46 0
21 25 18 17 20 24 -44 0
21 25 18 17 20 24 -43 0
21 25 18 17 20 24 -45 0
21 25 18 17 20 24 -46 0
21 25 30 17 28 24 -44 0
21 25 30 17 28 24 -43 0
21 25 30 17 28 24 -45 0
21 25 30 17 28 24 -46 0
21 25 30 28 20 24 -44 0
21 25 30 28 20 24 -43 0
21 25 30 28 20 24 -45 0
21 25 30 28 20 24 -46 0
21 25 17 28 20 24 -44 0
21 25 17 28 20 24 -43 0
21 25 17 28 20 24 -45 0
21 25 17 28 20 24 -46 0
21 6 18 3 17 20 -22 0
21 6 18 3 17 20 -19 0
21 6 18 3 17 20 -16 0
21 6 18 3 17 20 -15 0
21 6 18 17 1 20 -22 0
21 6 18 17 1 20 -19 0
21 6 18 17 1 20 -16 0
21 6 18 17 1 20 -15 0
21 18 7 17 14 20 -34 0
21 18 7 17 14 20 -36 0
21 18 7 17 14 20 -33 0
21 18 7 17 14 20 -35 0
21 18 7 17 20 13 -34 0
21 18 7 17 20 13 -36 0
21 18 7 17 20 13 -33 0
21 18 7 17 20 13 -35 0
21 18 30 17 28 20 -44 0
21 18 30 17 28 20 -43 0
21 18 30 17 28 20 -45 0
21 18 30 17 28 20 -46 0
21 18 30 17 20 24 -44 0
21 18 30 17 20 24 -43 0
21 18 30 17 20 24 -45 0
21 18 30 17 20 24 -46 0
21 18 3 17 1 20 -22 0
21 18 3 17 1 20 -19 0
21 18 3 17 1 20 -16 0
21 18 3 17 1 20 -15 0
21 18 17 14 20 13 -34 0
21 18 17 14 20 13 -36 0
21 18 17 14 20 13 -33 0
21 18 17 14 20 13 -35 0
21 18 17 28 20 24 -44 0
21 18 17 28 20 24 -43 0
21 18 17 28 20 24 -45 0
21 18 17 28 20 24 -46 0
12 25 7 30 14 28 -37 0
12 25 7 30 14 28 -39 0
12 25 7 30 14 28 -40 0
12 25 7 30 14 28 -38 0
12 25 7 30 14 13 -37 0
12 25 7 30 14 13 -39 0
12 25 7 30 14 13 -40 0
12 25 7 30 14 13 -38 0
12 25 7 30 28 24 -37 0
12 25 7 30 28 24 -39 0
12 25 7 30 28 24 -40 0
12 25 7 30 28 24 -38 0
12 25 7 30 13 24 -37 0
12 25 7 30 13 24 -39 0
12 25 7 30 13 24 -40 0
12 25 7 30 13 24 -38 0
12 25 7 14 28 13 -37 0
12 25 7 14 28 13 -39 0
12 25 7 14 28 13 -40 0
12 25 7 14 28 13 -38 0
12 25 7 14 13 24 -37 0
12 25 7 14 13 24 -39 0
12 25 7 14 13 24 -40 0
12 25 7 14 13 24 -38 0
12 25 30 14 28 24 -37 0
12 25 30 14 28 24 -39 0
12 25 30 14 28 24 -40 0
12 25 30 14 28 24 -38 0
12 25 30 28 13 24 -37 0
12 25 30 28 13 24 -39 0
12 25 30 28 13 24 -40 0
12 25 30 28 13 24 -38 0
12 25 14 28 13 24 -37 0
12 25 14 28 13 24 -39 0
12 25 14 28 13 24 -40 0
12 25 14 28 13 24 -38 0
12 6 7 3 14 13 -9 0
12 6 7 3 14 13 -10 0
12 6 7 3 14 13 -8 0
12 6 7 3 14 13 -11 0
12 6 7 14 1 13 -9 0
12 6 7 14 1 13 -10 0
12 6 7 14 1 13 -8 0
12 6 7 14 1 13 -11 0
12 18 7 17 14 13 -34 0
12 18 7 17 14 13 -36 0
12 18 7 17 14 13 -33 0
12 18 7 17 14 13 -35 0
12 18 7 14 20 13 -34 0
12 18 7 14 20 13 -36 0
12 18 7 14 20 13 -33 0
12 18 7 14 20 13 -35 0
12 7 30 14 28 13 -37 0
12 7 30 14 28 13 -39 0
12 7 30 14 28 13 -40 0
12 7 30 14 28 13 -38 0
12 7 30 14 13 24 -37 0
12 7 30 14 13 24 -39 0
12 7 30 14 13 24 -40 0
12 7 30 14 13 24 -38 0
12 7 3 14 1 13 -9 0
12 7 3 14 1 13 -10 0
12 7 3 14 1 13 -8 0
12 7 3 14 1 13 -11 0
12 7 17 14 20 13 -34 0
12 7 17 14 20 13 -36 0
12 7 17 14 20 13 -33 0
12 7 17 14 20 13 -35 0
12 7 14 28 13 24 -37 0
12 7 14 28 13 24 -39 0
12 7 14 28 13 24 -40 0
12 7 14 28 13 24 -38 0
25 6 30 3 28 24 -27 0
25 6 30 3 28 24 -23 0
25 6 30 3 28 24 -29 0
25 6 30 3 28 24 -26 0
25 6 30 28 1 24 -27 0
25 6 30 28 1 24 -23 0
25 6 30 28 1 24 -29 0
25 6 30 28 1 24 -26 0
25 18 30 17 28 24 -44 0
25 18 30 17 28 24 -43 0
25 18 30 17 28 24 -45 0
25 18 30 17 28 24 -46 0
25 18 30 28 20 24 -44 0
25 18 30 28 20 24 -43 0
25 18 30 28 20 24 -45 0
25 18 30 28 20 24 -46 0
25 7 30 14 28 24 -37 0
25 7 30 14 28 24 -39 0
25 7 30 14 28 24 -40 0
25 7 30 14 28 24 -38 0
25 7 30 28 13 24 -37 0
25 7 30 28 13 24 -39 0
25 7 30 28 13 24 -40 0
25 7 30 28 13 24 -38 0
25 30 3 28 1 24 -27 0
25 30 3 28 1 24 -23 0
25 30 3 28 1 24 -29 0
25 30 3 28 1 24 -26 0
25 30 17 28 20 24 -44 0
25 30 17 28 20 24 -43 0
25 30 17 28 20 24 -45 0
25 30 17 28 20 24 -46 0
25 30 14 28 13 24 -37 0
25 30 14 28 13 24 -39 0
25 30 14 28 13 24 -40 0
25 30 14 28 13 24 -38 0
6 18 3 17 1 20 -22 0
6 18 3 17 1 20 -19 0
6 18 3 17 1 20 -16 0
6 18 3 17 1 20 -15 0
6 7 3 14 1 13 -9 0
6 7 3 14 1 13 -10 0
6 7 3 14 1 13 -8 0
6 7 3 14 1 13 -11 0
6 30 3 28 1 24 -27 0
6 30 3 28 1 24 -23 0
6 30 3 28 1 24 -29 0
6 30 3 28 1 24 -26 0
18 7 17 14 20 13 -34 0
18 7 17 14 20 13 -36 0
18 7 17 14 20 13 -33 0
18 7 17 14 20 13 -35 0
18 30 17 28 20 24 -44 0
18 30 17 28 20 24 -43 0
18 30 17 28 20 24 -45 0
18 30 17 28 20 24 -46 0
7 30 14 28 13 24 -37 0
7 30 14 28 13 24 -39 0
7 30 14 28 13 24 -40 0
7 30 14 28 13 24 -38 0
4 21 6 18 3 17 1 -22 0
4 21 6 18 3 17 1 -19 0
4 21 6 18 3 17 1 -16 0
4 21 6 18 3 17 1 -15 0
4 21 6 18 3 17 20 -22 0
4 21 6 18 3 17 20 -19 0
4 21 6 18 3 17 20 -16 0
4 21 6 18 3 17 20 -15 0
4 21 6 18 3 1 20 -22 0
4 21 6 18 3 1 20 -19 0
4 21 6 18 3 1 20 -16 0
4 21 6 18 3 1 20 -15 0
4 21 6 18 17 1 20 -22 0
4 21 6 18 17 1 20 -19 0
4 21 6 18 17 1 20 -16 0
4 21 6 18 17 1 20 -15 0
4 21 6 3 17 1 20 -22 0
4 21 6 3 17 1 20 -19 0
4 21 6 3 17 1 20 -16 0
4 21 6 3 17 1 20 -15 0
4 21 18 3 17 1 20 -22 0
4 21 18 3 17 1 20 -19 0
4 21 18 3 17 1 20 -16 0
4 21 18 3 17 1 20 -15 0
4 12 6 7 3 14 1 -9 0
4 12 6 7 3 14 1 -10 0
4 12 6 7 3 14 1 -8 0
4 12 6 7 3 14 1 -11 0
4 12 6 7 3 14 13 -9 0
4 12 6 7 3 14 13 -10 0
4 12 6 7 3 14 13 -8 0
4 12 6 7 3 14 13 -11 0
4 12 6 7 3 1 13 -9 0
4 12 6 7 3 1 13 -10 0
4 12 6 7 3 1 13 -8 0
4 12 6 7 3 1 13 -11 0
4 12 6 7 14 1 13 -9 0
4 12 6 7 14 1 13 -10 0
4 12 6 7 14 1 13 -8 0
4 12 6 7 14 1 13 -11 0
4 12 6 3 14 1 13 -9 0
4 12 6 3 14 1 13 -10 0
4 12 6 3 14 1 13 -8 0
4 12 6 3 14 1 13 -11 0
4 12 7 3 14 1 13 -9 0
4 12 7 3 14 1 13 -10 0
4 12 7 3 14 1 13 -8 0
4 12 7 3 14 1 13 -11 0
4 25 6 30 3 28 1 -27 0
4 25 6 30 3 28 1 -23 0
4 25 6 30 3 28 1 -29 0
4 25 6 30 3 28 1 -26 0
4 25 6 30 3 28 24 -27 0
4 25 6 30 3 28 24 -23 0
4 25 6 30 3 28 24 -29 0
4 25 6 30 3 28 24 -26 0
4 25 6 30 3 1 24 -27 0
4 25 6 30 3 1 24 -23 0
4 25 6 30 3 1 24 -29 0
4 25 6 30 3 1 24 -26 0
4 25 6 30 28 1 24 -27 0
4 25 6 30 28 1 24 -23 0
4 25 6 30 28 1 24 -29 0
4 25 6 30 28 1 24 -26 0
4 25 6 3 28 1 24 -27 0
4 25 6 3 28 1 24 -23 0
4 25 6 3 28 1 24 -29 0
4 25 6 3 28 1 24 -26 0
4 25 30 3 28 1 24 -27 0
4 25 30 3 28 1 24 -23 0
4 25 30 3 28 1 24 -29 0
4 25 30 3 28 1 24 -26 0
4 6 18 3 17 1 20 -22 0
4 6 18 3 17 1 20 -19 0
4 6 18 3 17 1 20 -16 0
4 6 18 3 17 1 20 -15 0
4 6 7 3 14 1 13 -9 0
4 6 7 3 14 1 13 -10 0
4 6 7 3 14 1 13 -8 0
4 6 7 3 14 1 13 -11 0
4 6 30 3 28 1 24 -27 0
4 6 30 3 28 1 24 -23 0
4 6 30 3 28 1 24 -29 0
4 6 30 3 28 1 24 -26 0
21 12 18 7 17 14 20 -34 0
21 12 18 7 17 14 20 -36 0
21 12 18 7 17 14 20 -33 0
21 12 18 7 17 14 20 -35 0
21 12 18 7 17 14 13 -34 0
21 12 18 7 17 14 13 -36 0
21 12 18 7 17 14 13 -33 0
21 12 18 7 17 14 13 -35 0
21 12 18 7 17 20 13 -34 0
21 12 18 7 17 20 13 -36 0
21 12 18 7 17 20 13 -33 0
21 12 18 7 17 20 13 -35 0
21 12 18 7 14 20 13 -34 0
21 12 18 7 14 20 13 -36 0
21 12 18 7 14 20 13 -33 0
21 12 18 7 14 20 13 -35 0
21 12 18 17 14 20 13 -34 0
21 12 18 17 14 20 13 -36 0
21 12 18 17 14 20 13 -33 0
21 12 18 17 14 20 13 -35 0
21 12 7 17 14 20 13 -34 0
21 12 7 17 14 20 13 -36 0
21 12 7 17 14 20 13 -33 0
21 12 7 17 14 20 13 -35 0
21 25 18 30 17 28 20 -44 0
21 25 18 30 17 28 20 -43 0
21 25 18 30 17 28 20 -45 0
21 25 18 30 17 28 20 -46 0
21 25 18 30 17 28 24 -44 0
21 25 18 30 17 28 24 -43 0
21 25 18 30 17 28 24 -45 0
21 25 18 30 17 28 24 -46 0
21 25 18 30 17 20 24 -44 0
21 25 18 30 17 20 24 -43 0
21 25 18 30 17 20 24 -45 0
21 25 18 30 17 20 24 -46 0
21 25 18 30 28 20 24 -44 0
21 25 18 30 28 20 24 -43 0
21 25 18 30 28 20 24 -45 0
21 25 18 30 28 20 24 -46 0
21 25 18 17 28 20 24 -44 0
21 25 18 17 28 20 24 -43 0
21 25 18 17 28 20 24 -45 0
21 25 18 17 28 20 24 -46 0
21 25 30 17 28 20 24 -44 0
21 25 30 17 28 20 24 -43 0
21 25 30 17 28 20 24 -45 0
21 25 30 17 28 20 24 -46 0
21 6 18 3 17 1 20 -22 0
21 6 18 3 17 1 20 -19 0
21 6 18 3 17 1 20 -16 0
21 6 18 3 17 1 20 -15 0
21 18 7 17 14 20 13 -34 0
21 18 7 17 14 20 13 -36 0
21 18 7 17 14 20 13 -33 0
21 18 7 17 14 20 13 -35 0
21 18 30 17 28 20 24 -44 0
21 18 30 17 28 20 24 -43 0
21 18 30 17 28 20 24 -45 0
21 18 30 17 28 20 24 -46 0
12 25 7 30 14 28 13 -37 0
12 25 7 30 14 28 13 -39 0
12 25 7 30 14 28 13 -40 0
12 25 7 30 14 28 13 -38 0
12 25 7 30 14 28 24 -37 0
12 25 7 30 14 28 24 -39 0
12 25 7 30 14 28 24 -40 0
12 25 7 30 14 28 24 -38 0
12 25 7 30 14 13 24 -37 0
12 25 7 30 14 13 24 -39 0
12 25 7 30 14 13 24 -40 0
12 25 7 30 14 13 24 -38 0
12 25 7 30 28 13 24 -37 0
12 25 7 30 28 13 24 -39 0
12 25 7 30 28 13 24 -40 0
12 25 7 30 28 13 24 -38 0
12 25 7 14 28 13 24 -37 0
12 25 7 14 28 13 24 -39 0
12 25 7 14 28 13 24 -40 0
12 25 7 14 28 13 24 -38 0
12 25 30 14 28 13 24 -37 0
12 25 30 14 28 13 24 -39 0
12 25 30 14 28 13 24 -40 0
12 25 30 14 28 13 24 -38 0
12 6 7 3 14 1 13 -9 0
12 6 7 3 14 1 13 -10 0
12 6 7 3 14 1 13 -8 0
12 6 7 3 14 1 13 -11 0
12 18 7 17 14 20 13 -34 0
12 18 7 17 14 20 13 -36 0
12 18 7 17 14 20 13 -33 0
12 18 7 17 14 20 13 -35 0
12 7 30 14 28 13 24 -37 0
12 7 30 14 28 13 24 -39 0
12 7 30 14 28 13 24 -40 0
12 7 30 14 28 13 24 -38 0
25 6 30 3 28 1 24 -27 0
25 6 30 3 28 1 24 -23 0
25 6 30 3 28 1 24 -29 0
25 6 30 3 28 1 24 -26 0
25 18 30 17 28 20 24 -44 0
25 18 30 17 28 20 24 -43 0
25 18 30 17 28 20 24 -45 0
25 18 30 17 28 20 24 -46 0
25 7 30 14 28 13 24 -37 0
25 7 30 14 28 13 24 -39 0
25 7 30 14 28 13 24 -40 0
25 7 30 14 28 13 24 -38 0
4 21 6 18 3 17 1 20 -22 0
4 21 6 18 3 17 1 20 -19 0
4 21 6 18 3 17 1 20 -16 0
4 21 6 18 3 17 1 20 -15 0
4 12 6 7 3 14 1 13 -9 0
4 12 6 7 3 14 1 13 -10 0
4 12 6 7 3 14 1 13 -8 0
4 12 6 7 3 14 1 13 -11 0
4 25 6 30 3 28 1 24 -27 0
4 25 6 30 3 28 1 24 -23 0
4 25 6 30 3 28 1 24 -29 0
4 25 6 30 3 28 1 24 -26 0
21 12 18 7 17 14 20 13 -34 0
21 12 18 7 17 14 20 13 -36 0
21 12 18 7 17 14 20 13 -33 0
21 12 18 7 17 14 20 13 -35 0
21 25 18 30 17 28 20 24 -44 0
21 25 18 30 17 28 20 24 -43 0
21 25 18 30 17 28 20 24 -45 0
21 25 18 30 17 28 20 24 -46 0
12 25 7 30 14 28 13 24 -37 0
12 25 7 30 14 28 13 24 -39 0
12 25 7 30 14 28 13 24 -40 0
12 25 7 30 14 28 13 24 -38 0
