c E2(2,2) U3(2) U1(2) E1(2,2) U4(2) U2(2) E2(3,2) E1(2,3) U3(3) E1(3,2) E2(2,3) U2(3) U1(3) U4(3) U4(0) U2(0) E1(2,0) U3(0) E2(2,0) U1(0) E1(0,2) E2(0,2) U2(4) U4(4) E2(2,4) E2(4,2) U3(4) E1(2,4) E1(4,2) U1(4) E2(2,1) U3(1) E1(1,2) U4(1) U1(1) E2(1,2) U2(1) E1(2,1) E1(3,3) E2(3,3) E1(0,3) E1(3,0) E2(0,3) E2(3,0) E2(4,3) E1(3,4) E2(3,4) E1(4,3) E1(1,3) E1(3,1) E2(3,1) E2(1,3) E2(0,0) E1(0,0) E1(4,0) E2(4,0) E1(0,4) E2(0,4) E1(0,1) E1(1,0) E2(0,1) E2(1,0) E1(4,4) E2(4,4) E1(4,1) E2(4,1) E1(1,4) E2(1,4) E2(1,1) E1(1,1)
c 1 2 3 4 5 6 7 8 9 10 11 12 13 14 15 16 17 18 19 20 21 22 23 24 25 26 27 28 29 30 31 32 33 34 35 36 37 38 39 40 41 42 43 44 45 46 47 48 49 50 51 52 53 54 55 56 57 58 59 60 61 62 63 64 65 66 67 68 69 70
p cnf 70 1540
-54 -53 0
-59 -61 0
-59 -62 0
-21 -22 0
-21 -19 0
-41 -43 0
-41 -44 0
-57 -58 0
-57 -56 0
-60 -61 0
-60 -62 0
-70 -69 0
-33 -36 0
-33 -31 0
-49 -52 0
-49 -51 0
-67 -68 0
-67 -66 0
-17 -22 0
-17 -19 0
-38 -36 0
-38 -31 0
-4 -1 0
-8 -11 0
-8 -7 0
-28 -25 0
-28 -26 0
-42 -43 0
-42 -44 0
-50 -52 0
-50 -51 0
-10 -11 0
-10 -7 0
-39 -40 0
-46 -47 0
-46 -45 0
-55 -58 0
-55 -56 0
-65 -68 0
-65 -66 0
-29 -25 0
-29 -26 0
-48 -47 0
-48 -45 0
-63 -64 0
-20 -16 0
-20 -18 0
-20 -15 0
-35 -37 0
-35 -32 0
-35 -34 0
-3 -6 0
-3 -2 0
-3 -5 0
-13 -12 0
-13 -9 0
-13 -14 0
-30 -23 0
-30 -27 0
-30 -24 0
-16 -18 0
-16 -15 0
-37 -32 0
-37 -34 0
-6 -2 0
-6 -5 0
-12 -9 0
-12 -14 0
-23 -27 0
-23 -24 0
-18 -15 0
-32 -34 0
-2 -5 0
-9 -14 0
-27 -24 0
20 16 18 15 0
35 37 32 34 0
3 6 2 5 0
13 12 9 14 0
30 23 27 24 0
20 16 18 -54 0
20 16 18 -53 0
20 16 15 -54 0
20 16 15 -53 0
20 18 15 -54 0
20 18 15 -53 0
35 37 32 -70 0
35 37 32 -69 0
35 37 34 -70 0
35 37 34 -69 0
35 32 34 -70 0
35 32 34 -69 0
3 6 2 -4 0
3 6 2 -1 0
3 6 5 -4 0
3 6 5 -1 0
3 2 5 -4 0
3 2 5 -1 0
13 12 9 -39 0
13 12 9 -40 0
13 12 14 -39 0
13 12 14 -40 0
13 9 14 -39 0
13 9 14 -40 0
30 23 27 -63 0
30 23 27 -64 0
30 23 24 -63 0
30 23 24 -64 0
30 27 24 -63 0
30 27 24 -64 0
16 18 15 -54 0
16 18 15 -53 0
37 32 34 -70 0
37 32 34 -69 0
6 2 5 -4 0
6 2 5 -1 0
12 9 14 -39 0
12 9 14 -40 0
23 27 24 -63 0
23 27 24 -64 0
54 59 21 41 57 0
60 70 33 49 67 0
17 38 4 8 28 0
42 50 10 39 46 0
55 65 29 48 63 0
53 61 22 43 58 0
62 69 36 52 68 0
19 31 1 11 25 0
44 51 7 40 47 0
56 66 26 45 64 0
20 16 18 15 -54 0
20 16 18 15 -59 0
20 16 18 15 -21 0
20 16 18 15 -41 0
20 16 18 15 -57 0
20 16 18 15 -60 0
20 16 18 15 -17 0
20 16 18 15 -42 0
20 16 18 15 -55 0
20 16 18 15 -53 0
20 16 18 15 -61 0
20 16 18 15 -22 0
20 16 18 15 -43 0
20 16 18 15 -58 0
20 16 18 15 -62 0
20 16 18 15 -19 0
20 16 18 15 -44 0
20 16 18 15 -56 0
35 37 32 34 -59 0
35 37 32 34 -60 0
35 37 32 34 -70 0
35 37 32 34 -33 0
35 37 32 34 -49 0
35 37 32 34 -67 0
35 37 32 34 -38 0
35 37 32 34 -50 0
35 37 32 34 -65 0
35 37 32 34 -61 0
35 37 32 34 -62 0
35 37 32 34 -69 0
35 37 32 34 -36 0
35 37 32 34 -52 0
35 37 32 34 -68 0
35 37 32 34 -31 0
35 37 32 34 -51 0
35 37 32 34 -66 0
3 6 2 5 -21 0
3 6 2 5 -33 0
3 6 2 5 -17 0
3 6 2 5 -38 0
3 6 2 5 -4 0
3 6 2 5 -8 0
3 6 2 5 -28 0
3 6 2 5 -10 0
3 6 2 5 -29 0
3 6 2 5 -22 0
3 6 2 5 -36 0
3 6 2 5 -19 0
3 6 2 5 -31 0
3 6 2 5 -1 0
3 6 2 5 -11 0
3 6 2 5 -25 0
3 6 2 5 -7 0
3 6 2 5 -26 0
13 12 9 14 -41 0
13 12 9 14 -49 0
13 12 9 14 -8 0
13 12 9 14 -42 0
13 12 9 14 -50 0
13 12 9 14 -10 0
13 12 9 14 -39 0
13 12 9 14 -46 0
13 12 9 14 -48 0
13 12 9 14 -43 0
13 12 9 14 -52 0
13 12 9 14 -11 0
13 12 9 14 -44 0
13 12 9 14 -51 0
13 12 9 14 -7 0
13 12 9 14 -40 0
13 12 9 14 -47 0
13 12 9 14 -45 0
30 23 27 24 -57 0
30 23 27 24 -67 0
30 23 27 24 -28 0
30 23 27 24 -46 0
30 23 27 24 -55 0
30 23 27 24 -65 0
30 23 27 24 -29 0
30 23 27 24 -48 0
30 23 27 24 -63 0
30 23 27 24 -58 0
30 23 27 24 -68 0
30 23 27 24 -25 0
30 23 27 24 -47 0
30 23 27 24 -56 0
30 23 27 24 -66 0
30 23 27 24 -26 0
30 23 27 24 -45 0
30 23 27 24 -64 0
20 35 16 18 15 -59 0
20 35 16 18 15 -60 0
20 35 16 18 15 -61 0
20 35 16 18 15 -62 0
20 35 37 32 34 -59 0
20 35 37 32 34 -60 0
20 35 37 32 34 -61 0
20 35 37 32 34 -62 0
20 3 16 18 15 -21 0
20 3 16 18 15 -17 0
20 3 16 18 15 -22 0
20 3 16 18 15 -19 0
20 3 6 2 5 -21 0
20 3 6 2 5 -17 0
20 3 6 2 5 -22 0
20 3 6 2 5 -19 0
20 13 16 18 15 -41 0
20 13 16 18 15 -42 0
20 13 16 18 15 -43 0
20 13 16 18 15 -44 0
20 13 12 9 14 -41 0
20 13 12 9 14 -42 0
20 13 12 9 14 -43 0
20 13 12 9 14 -44 0
20 30 16 18 15 -57 0
20 30 16 18 15 -55 0
20 30 16 18 15 -58 0
20 30 16 18 15 -56 0
20 30 23 27 24 -57 0
20 30 23 27 24 -55 0
20 30 23 27 24 -58 0
20 30 23 27 24 -56 0
20 16 37 18 15 -59 0
20 16 37 18 15 -60 0
20 16 37 18 15 -61 0
20 16 37 18 15 -62 0
20 16 6 18 15 -21 0
20 16 6 18 15 -17 0
20 16 6 18 15 -22 0
20 16 6 18 15 -19 0
20 16 12 18 15 -41 0
20 16 12 18 15 -42 0
20 16 12 18 15 -43 0
20 16 12 18 15 -44 0
20 16 23 18 15 -57 0
20 16 23 18 15 -55 0
20 16 23 18 15 -58 0
20 16 23 18 15 -56 0
20 16 18 32 15 -59 0
20 16 18 32 15 -60 0
20 16 18 32 15 -61 0
20 16 18 32 15 -62 0
20 16 18 2 15 -21 0
20 16 18 2 15 -17 0
20 16 18 2 15 -22 0
20 16 18 2 15 -19 0
20 16 18 9 15 -41 0
20 16 18 9 15 -42 0
20 16 18 9 15 -43 0
20 16 18 9 15 -44 0
20 16 18 27 15 -57 0
20 16 18 27 15 -55 0
20 16 18 27 15 -58 0
20 16 18 27 15 -56 0
20 16 18 15 34 -59 0
20 16 18 15 34 -60 0
20 16 18 15 34 -61 0
20 16 18 15 34 -62 0
20 16 18 15 5 -21 0
20 16 18 15 5 -17 0
20 16 18 15 5 -22 0
20 16 18 15 5 -19 0
20 16 18 15 14 -41 0
20 16 18 15 14 -42 0
20 16 18 15 14 -43 0
20 16 18 15 14 -44 0
20 16 18 15 24 -57 0
20 16 18 15 24 -55 0
20 16 18 15 24 -58 0
20 16 18 15 24 -56 0
35 3 37 32 34 -33 0
35 3 37 32 34 -38 0
35 3 37 32 34 -36 0
35 3 37 32 34 -31 0
35 3 6 2 5 -33 0
35 3 6 2 5 -38 0
35 3 6 2 5 -36 0
35 3 6 2 5 -31 0
35 13 37 32 34 -49 0
35 13 37 32 34 -50 0
35 13 37 32 34 -52 0
35 13 37 32 34 -51 0
35 13 12 9 14 -49 0
35 13 12 9 14 -50 0
35 13 12 9 14 -52 0
35 13 12 9 14 -51 0
35 30 37 32 34 -67 0
35 30 37 32 34 -65 0
35 30 37 32 34 -68 0
35 30 37 32 34 -66 0
35 30 23 27 24 -67 0
35 30 23 27 24 -65 0
35 30 23 27 24 -68 0
35 30 23 27 24 -66 0
35 16 37 32 34 -59 0
35 16 37 32 34 -60 0
35 16 37 32 34 -61 0
35 16 37 32 34 -62 0
35 37 6 32 34 -33 0
35 37 6 32 34 -38 0
35 37 6 32 34 -36 0
35 37 6 32 34 -31 0
35 37 12 32 34 -49 0
35 37 12 32 34 -50 0
35 37 12 32 34 -52 0
35 37 12 32 34 -51 0
35 37 23 32 34 -67 0
35 37 23 32 34 -65 0
35 37 23 32 34 -68 0
35 37 23 32 34 -66 0
35 37 18 32 34 -59 0
35 37 18 32 34 -60 0
35 37 18 32 34 -61 0
35 37 18 32 34 -62 0
35 37 32 2 34 -33 0
35 37 32 2 34 -38 0
35 37 32 2 34 -36 0
35 37 32 2 34 -31 0
35 37 32 9 34 -49 0
35 37 32 9 34 -50 0
35 37 32 9 34 -52 0
35 37 32 9 34 -51 0
35 37 32 27 34 -67 0
35 37 32 27 34 -65 0
35 37 32 27 34 -68 0
35 37 32 27 34 -66 0
35 37 32 15 34 -59 0
35 37 32 15 34 -60 0
35 37 32 15 34 -61 0
35 37 32 15 34 -62 0
35 37 32 34 5 -33 0
35 37 32 34 5 -38 0
35 37 32 34 5 -36 0
35 37 32 34 5 -31 0
35 37 32 34 14 -49 0
35 37 32 34 14 -50 0
35 37 32 34 14 -52 0
35 37 32 34 14 -51 0
35 37 32 34 24 -67 0
35 37 32 34 24 -65 0
35 37 32 34 24 -68 0
35 37 32 34 24 -66 0
3 13 6 2 5 -8 0
3 13 6 2 5 -10 0
3 13 6 2 5 -11 0
3 13 6 2 5 -7 0
3 13 12 9 14 -8 0
3 13 12 9 14 -10 0
3 13 12 9 14 -11 0
3 13 12 9 14 -7 0
3 30 6 2 5 -28 0
3 30 6 2 5 -29 0
3 30 6 2 5 -25 0
3 30 6 2 5 -26 0
3 30 23 27 24 -28 0
3 30 23 27 24 -29 0
3 30 23 27 24 -25 0
3 30 23 27 24 -26 0
3 16 6 2 5 -21 0
3 16 6 2 5 -17 0
3 16 6 2 5 -22 0
3 16 6 2 5 -19 0
3 37 6 2 5 -33 0
3 37 6 2 5 -38 0
3 37 6 2 5 -36 0
3 37 6 2 5 -31 0
3 6 12 2 5 -8 0
3 6 12 2 5 -10 0
3 6 12 2 5 -11 0
3 6 12 2 5 -7 0
3 6 23 2 5 -28 0
3 6 23 2 5 -29 0
3 6 23 2 5 -25 0
3 6 23 2 5 -26 0
3 6 18 2 5 -21 0
3 6 18 2 5 -17 0
3 6 18 2 5 -22 0
3 6 18 2 5 -19 0
3 6 32 2 5 -33 0
3 6 32 2 5 -38 0
3 6 32 2 5 -36 0
3 6 32 2 5 -31 0
3 6 2 9 5 -8 0
3 6 2 9 5 -10 0
3 6 2 9 5 -11 0
3 6 2 9 5 -7 0
3 6 2 27 5 -28 0
3 6 2 27 5 -29 0
3 6 2 27 5 -25 0
3 6 2 27 5 -26 0
3 6 2 15 5 -21 0
3 6 2 15 5 -17 0
3 6 2 15 5 -22 0
3 6 2 15 5 -19 0
3 6 2 34 5 -33 0
3 6 2 34 5 -38 0
3 6 2 34 5 -36 0
3 6 2 34 5 -31 0
3 6 2 5 14 -8 0
3 6 2 5 14 -10 0
3 6 2 5 14 -11 0
3 6 2 5 14 -7 0
3 6 2 5 24 -28 0
3 6 2 5 24 -29 0
3 6 2 5 24 -25 0
3 6 2 5 24 -26 0
13 30 12 9 14 -46 0
13 30 12 9 14 -48 0
13 30 12 9 14 -47 0
13 30 12 9 14 -45 0
13 30 23 27 24 -46 0
13 30 23 27 24 -48 0
13 30 23 27 24 -47 0
13 30 23 27 24 -45 0
13 16 12 9 14 -41 0
13 16 12 9 14 -42 0
13 16 12 9 14 -43 0
13 16 12 9 14 -44 0
13 37 12 9 14 -49 0
13 37 12 9 14 -50 0
13 37 12 9 14 -52 0
13 37 12 9 14 -51 0
13 6 12 9 14 -8 0
13 6 12 9 14 -10 0
13 6 12 9 14 -11 0
13 6 12 9 14 -7 0
13 12 23 9 14 -46 0
13 12 23 9 14 -48 0
13 12 23 9 14 -47 0
13 12 23 9 14 -45 0
13 12 18 9 14 -41 0
13 12 18 9 14 -42 0
13 12 18 9 14 -43 0
13 12 18 9 14 -44 0
13 12 32 9 14 -49 0
13 12 32 9 14 -50 0
13 12 32 9 14 -52 0
13 12 32 9 14 -51 0
13 12 2 9 14 -8 0
13 12 2 9 14 -10 0
13 12 2 9 14 -11 0
13 12 2 9 14 -7 0
13 12 9 27 14 -46 0
13 12 9 27 14 -48 0
13 12 9 27 14 -47 0
13 12 9 27 14 -45 0
13 12 9 15 14 -41 0
13 12 9 15 14 -42 0
13 12 9 15 14 -43 0
13 12 9 15 14 -44 0
13 12 9 34 14 -49 0
13 12 9 34 14 -50 0
13 12 9 34 14 -52 0
13 12 9 34 14 -51 0
13 12 9 5 14 -8 0
13 12 9 5 14 -10 0
13 12 9 5 14 -11 0
13 12 9 5 14 -7 0
13 12 9 14 24 -46 0
13 12 9 14 24 -48 0
13 12 9 14 24 -47 0
13 12 9 14 24 -45 0
30 16 23 27 24 -57 0
30 16 23 27 24 -55 0
30 16 23 27 24 -58 0
30 16 23 27 24 -56 0
30 37 23 27 24 -67 0
30 37 23 27 24 -65 0
30 37 23 27 24 -68 0
30 37 23 27 24 -66 0
30 6 23 27 24 -28 0
30 6 23 27 24 -29 0
30 6 23 27 24 -25 0
30 6 23 27 24 -26 0
30 12 23 27 24 -46 0
30 12 23 27 24 -48 0
30 12 23 27 24 -47 0
30 12 23 27 24 -45 0
30 23 18 27 24 -57 0
30 23 18 27 24 -55 0
30 23 18 27 24 -58 0
30 23 18 27 24 -56 0
30 23 32 27 24 -67 0
30 23 32 27 24 -65 0
30 23 32 27 24 -68 0
30 23 32 27 24 -66 0
30 23 2 27 24 -28 0
30 23 2 27 24 -29 0
30 23 2 27 24 -25 0
30 23 2 27 24 -26 0
30 23 9 27 24 -46 0
30 23 9 27 24 -48 0
30 23 9 27 24 -47 0
30 23 9 27 24 -45 0
30 23 27 15 24 -57 0
30 23 27 15 24 -55 0
30 23 27 15 24 -58 0
30 23 27 15 24 -56 0
30 23 27 34 24 -67 0
30 23 27 34 24 -65 0
30 23 27 34 24 -68 0
30 23 27 34 24 -66 0
30 23 27 5 24 -28 0
30 23 27 5 24 -29 0
30 23 27 5 24 -25 0
30 23 27 5 24 -26 0
30 23 27 14 24 -46 0
30 23 27 14 24 -48 0
30 23 27 14 24 -47 0
30 23 27 14 24 -45 0
20 35 16 37 18 32 -59 0
20 35 16 37 18 32 -60 0
20 35 16 37 18 32 -61 0
20 35 16 37 18 32 -62 0
20 35 16 37 18 15 -59 0
20 35 16 37 18 15 -60 0
20 35 16 37 18 15 -61 0
20 35 16 37 18 15 -62 0
20 35 16 37 32 34 -59 0
20 35 16 37 32 34 -60 0
20 35 16 37 32 34 -61 0
20 35 16 37 32 34 -62 0
20 35 16 37 15 34 -59 0
20 35 16 37 15 34 -60 0
20 35 16 37 15 34 -61 0
20 35 16 37 15 34 -62 0
20 35 16 18 32 15 -59 0
20 35 16 18 32 15 -60 0
20 35 16 18 32 15 -61 0
20 35 16 18 32 15 -62 0
20 35 16 18 15 34 -59 0
20 35 16 18 15 34 -60 0
20 35 16 18 15 34 -61 0
20 35 16 18 15 34 -62 0
20 35 37 18 32 34 -59 0
20 35 37 18 32 34 -60 0
20 35 37 18 32 34 -61 0
20 35 37 18 32 34 -62 0
20 35 37 32 15 34 -59 0
20 35 37 32 15 34 -60 0
20 35 37 32 15 34 -61 0
20 35 37 32 15 34 -62 0
20 35 18 32 15 34 -59 0
20 35 18 32 15 34 -60 0
20 35 18 32 15 34 -61 0
20 35 18 32 15 34 -62 0
20 3 16 6 18 2 -21 0
20 3 16 6 18 2 -17 0
20 3 16 6 18 2 -22 0
20 3 16 6 18 2 -19 0
20 3 16 6 18 15 -21 0
20 3 16 6 18 15 -17 0
20 3 16 6 18 15 -22 0
20 3 16 6 18 15 -19 0
20 3 16 6 2 5 -21 0
20 3 16 6 2 5 -17 0
20 3 16 6 2 5 -22 0
20 3 16 6 2 5 -19 0
20 3 16 6 15 5 -21 0
20 3 16 6 15 5 -17 0
20 3 16 6 15 5 -22 0
20 3 16 6 15 5 -19 0
20 3 16 18 2 15 -21 0
20 3 16 18 2 15 -17 0
20 3 16 18 2 15 -22 0
20 3 16 18 2 15 -19 0
20 3 16 18 15 5 -21 0
20 3 16 18 15 5 -17 0
20 3 16 18 15 5 -22 0
20 3 16 18 15 5 -19 0
20 3 6 18 2 5 -21 0
20 3 6 18 2 5 -17 0
20 3 6 18 2 5 -22 0
20 3 6 18 2 5 -19 0
20 3 6 2 15 5 -21 0
20 3 6 2 15 5 -17 0
20 3 6 2 15 5 -22 0
20 3 6 2 15 5 -19 0
20 3 18 2 15 5 -21 0
20 3 18 2 15 5 -17 0
20 3 18 2 15 5 -22 0
20 3 18 2 15 5 -19 0
20 13 16 12 18 9 -41 0
20 13 16 12 18 9 -42 0
20 13 16 12 18 9 -43 0
20 13 16 12 18 9 -44 0
20 13 16 12 18 15 -41 0
20 13 16 12 18 15 -42 0
20 13 16 12 18 15 -43 0
20 13 16 12 18 15 -44 0
20 13 16 12 9 14 -41 0
20 13 16 12 9 14 -42 0
20 13 16 12 9 14 -43 0
20 13 16 12 9 14 -44 0
20 13 16 12 15 14 -41 0
20 13 16 12 15 14 -42 0
20 13 16 12 15 14 -43 0
20 13 16 12 15 14 -44 0
20 13 16 18 9 15 -41 0
20 13 16 18 9 15 -42 0
20 13 16 18 9 15 -43 0
20 13 16 18 9 15 -44 0
20 13 16 18 15 14 -41 0
20 13 16 18 15 14 -42 0
20 13 16 18 15 14 -43 0
20 13 16 18 15 14 -44 0
20 13 12 18 9 14 -41 0
20 13 12 18 9 14 -42 0
20 13 12 18 9 14 -43 0
20 13 12 18 9 14 -44 0
20 13 12 9 15 14 -41 0
20 13 12 9 15 14 -42 0
20 13 12 9 15 14 -43 0
20 13 12 9 15 14 -44 0
20 13 18 9 15 14 -41 0
20 13 18 9 15 14 -42 0
20 13 18 9 15 14 -43 0
20 13 18 9 15 14 -44 0
20 30 16 23 18 27 -57 0
20 30 16 23 18 27 -55 0
20 30 16 23 18 27 -58 0
20 30 16 23 18 27 -56 0
20 30 16 23 18 15 -57 0
20 30 16 23 18 15 -55 0
20 30 16 23 18 15 -58 0
20 30 16 23 18 15 -56 0
20 30 16 23 27 24 -57 0
20 30 16 23 27 24 -55 0
20 30 16 23 27 24 -58 0
20 30 16 23 27 24 -56 0
20 30 16 23 15 24 -57 0
20 30 16 23 15 24 -55 0
20 30 16 23 15 24 -58 0
20 30 16 23 15 24 -56 0
20 30 16 18 27 15 -57 0
20 30 16 18 27 15 -55 0
20 30 16 18 27 15 -58 0
20 30 16 18 27 15 -56 0
20 30 16 18 15 24 -57 0
20 30 16 18 15 24 -55 0
20 30 16 18 15 24 -58 0
20 30 16 18 15 24 -56 0
20 30 23 18 27 24 -57 0
20 30 23 18 27 24 -55 0
20 30 23 18 27 24 -58 0
20 30 23 18 27 24 -56 0
20 30 23 27 15 24 -57 0
20 30 23 27 15 24 -55 0
20 30 23 27 15 24 -58 0
20 30 23 27 15 24 -56 0
20 30 18 27 15 24 -57 0
20 30 18 27 15 24 -55 0
20 30 18 27 15 24 -58 0
20 30 18 27 15 24 -56 0
20 16 37 18 32 15 -59 0
20 16 37 18 32 15 -60 0
20 16 37 18 32 15 -61 0
20 16 37 18 32 15 -62 0
20 16 37 18 15 34 -59 0
20 16 37 18 15 34 -60 0
20 16 37 18 15 34 -61 0
20 16 37 18 15 34 -62 0
20 16 6 18 2 15 -21 0
20 16 6 18 2 15 -17 0
20 16 6 18 2 15 -22 0
20 16 6 18 2 15 -19 0
20 16 6 18 15 5 -21 0
20 16 6 18 15 5 -17 0
20 16 6 18 15 5 -22 0
20 16 6 18 15 5 -19 0
20 16 12 18 9 15 -41 0
20 16 12 18 9 15 -42 0
20 16 12 18 9 15 -43 0
20 16 12 18 9 15 -44 0
20 16 12 18 15 14 -41 0
20 16 12 18 15 14 -42 0
20 16 12 18 15 14 -43 0
20 16 12 18 15 14 -44 0
20 16 23 18 27 15 -57 0
20 16 23 18 27 15 -55 0
20 16 23 18 27 15 -58 0
20 16 23 18 27 15 -56 0
20 16 23 18 15 24 -57 0
20 16 23 18 15 24 -55 0
20 16 23 18 15 24 -58 0
20 16 23 18 15 24 -56 0
20 16 18 32 15 34 -59 0
20 16 18 32 15 34 -60 0
20 16 18 32 15 34 -61 0
20 16 18 32 15 34 -62 0
20 16 18 2 15 5 -21 0
20 16 18 2 15 5 -17 0
20 16 18 2 15 5 -22 0
20 16 18 2 15 5 -19 0
20 16 18 9 15 14 -41 0
20 16 18 9 15 14 -42 0
20 16 18 9 15 14 -43 0
20 16 18 9 15 14 -44 0
20 16 18 27 15 24 -57 0
20 16 18 27 15 24 -55 0
20 16 18 27 15 24 -58 0
20 16 18 27 15 24 -56 0
35 3 37 6 32 2 -33 0
35 3 37 6 32 2 -38 0
35 3 37 6 32 2 -36 0
35 3 37 6 32 2 -31 0
35 3 37 6 32 34 -33 0
35 3 37 6 32 34 -38 0
35 3 37 6 32 34 -36 0
35 3 37 6 32 34 -31 0
35 3 37 6 2 5 -33 0
35 3 37 6 2 5 -38 0
35 3 37 6 2 5 -36 0
35 3 37 6 2 5 -31 0
35 3 37 6 34 5 -33 0
35 3 37 6 34 5 -38 0
35 3 37 6 34 5 -36 0
35 3 37 6 34 5 -31 0
35 3 37 32 2 34 -33 0
35 3 37 32 2 34 -38 0
35 3 37 32 2 34 -36 0
35 3 37 32 2 34 -31 0
35 3 37 32 34 5 -33 0
35 3 37 32 34 5 -38 0
35 3 37 32 34 5 -36 0
35 3 37 32 34 5 -31 0
35 3 6 32 2 5 -33 0
35 3 6 32 2 5 -38 0
35 3 6 32 2 5 -36 0
35 3 6 32 2 5 -31 0
35 3 6 2 34 5 -33 0
35 3 6 2 34 5 -38 0
35 3 6 2 34 5 -36 0
35 3 6 2 34 5 -31 0
35 3 32 2 34 5 -33 0
35 3 32 2 34 5 -38 0
35 3 32 2 34 5 -36 0
35 3 32 2 34 5 -31 0
35 13 37 12 32 9 -49 0
35 13 37 12 32 9 -50 0
35 13 37 12 32 9 -52 0
35 13 37 12 32 9 -51 0
35 13 37 12 32 34 -49 0
35 13 37 12 32 34 -50 0
35 13 37 12 32 34 -52 0
35 13 37 12 32 34 -51 0
35 13 37 12 9 14 -49 0
35 13 37 12 9 14 -50 0
35 13 37 12 9 14 -52 0
35 13 37 12 9 14 -51 0
35 13 37 12 34 14 -49 0
35 13 37 12 34 14 -50 0
35 13 37 12 34 14 -52 0
35 13 37 12 34 14 -51 0
35 13 37 32 9 34 -49 0
35 13 37 32 9 34 -50 0
35 13 37 32 9 34 -52 0
35 13 37 32 9 34 -51 0
35 13 37 32 34 14 -49 0
35 13 37 32 34 14 -50 0
35 13 37 32 34 14 -52 0
35 13 37 32 34 14 -51 0
35 13 12 32 9 14 -49 0
35 13 12 32 9 14 -50 0
35 13 12 32 9 14 -52 0
35 13 12 32 9 14 -51 0
35 13 12 9 34 14 -49 0
35 13 12 9 34 14 -50 0
35 13 12 9 34 14 -52 0
35 13 12 9 34 14 -51 0
35 13 32 9 34 14 -49 0
35 13 32 9 34 14 -50 0
35 13 32 9 34 14 -52 0
35 13 32 9 34 14 -51 0
35 30 37 23 32 27 -67 0
35 30 37 23 32 27 -65 0
35 30 37 23 32 27 -68 0
35 30 37 23 32 27 -66 0
35 30 37 23 32 34 -67 0
35 30 37 23 32 34 -65 0
35 30 37 23 32 34 -68 0
35 30 37 23 32 34 -66 0
35 30 37 23 27 24 -67 0
35 30 37 23 27 24 -65 0
35 30 37 23 27 24 -68 0
35 30 37 23 27 24 -66 0
35 30 37 23 34 24 -67 0
35 30 37 23 34 24 -65 0
35 30 37 23 34 24 -68 0
35 30 37 23 34 24 -66 0
35 30 37 32 27 34 -67 0
35 30 37 32 27 34 -65 0
35 30 37 32 27 34 -68 0
35 30 37 32 27 34 -66 0
35 30 37 32 34 24 -67 0
35 30 37 32 34 24 -65 0
35 30 37 32 34 24 -68 0
35 30 37 32 34 24 -66 0
35 30 23 32 27 24 -67 0
35 30 23 32 27 24 -65 0
35 30 23 32 27 24 -68 0
35 30 23 32 27 24 -66 0
35 30 23 27 34 24 -67 0
35 30 23 27 34 24 -65 0
35 30 23 27 34 24 -68 0
35 30 23 27 34 24 -66 0
35 30 32 27 34 24 -67 0
35 30 32 27 34 24 -65 0
35 30 32 27 34 24 -68 0
35 30 32 27 34 24 -66 0
35 16 37 18 32 34 -59 0
35 16 37 18 32 34 -60 0
35 16 37 18 32 34 -61 0
35 16 37 18 32 34 -62 0
35 16 37 32 15 34 -59 0
35 16 37 32 15 34 -60 0
35 16 37 32 15 34 -61 0
35 16 37 32 15 34 -62 0
35 37 6 32 2 34 -33 0
35 37 6 32 2 34 -38 0
35 37 6 32 2 34 -36 0
35 37 6 32 2 34 -31 0
35 37 6 32 34 5 -33 0
35 37 6 32 34 5 -38 0
35 37 6 32 34 5 -36 0
35 37 6 32 34 5 -31 0
35 37 12 32 9 34 -49 0
35 37 12 32 9 34 -50 0
35 37 12 32 9 34 -52 0
35 37 12 32 9 34 -51 0
35 37 12 32 34 14 -49 0
35 37 12 32 34 14 -50 0
35 37 12 32 34 14 -52 0
35 37 12 32 34 14 -51 0
35 37 23 32 27 34 -67 0
35 37 23 32 27 34 -65 0
35 37 23 32 27 34 -68 0
35 37 23 32 27 34 -66 0
35 37 23 32 34 24 -67 0
35 37 23 32 34 24 -65 0
35 37 23 32 34 24 -68 0
35 37 23 32 34 24 -66 0
35 37 18 32 15 34 -59 0
35 37 18 32 15 34 -60 0
35 37 18 32 15 34 -61 0
35 37 18 32 15 34 -62 0
35 37 32 2 34 5 -33 0
35 37 32 2 34 5 -38 0
35 37 32 2 34 5 -36 0
35 37 32 2 34 5 -31 0
35 37 32 9 34 14 -49 0
35 37 32 9 34 14 -50 0
35 37 32 9 34 14 -52 0
35 37 32 9 34 14 -51 0
35 37 32 27 34 24 -67 0
35 37 32 27 34 24 -65 0
35 37 32 27 34 24 -68 0
35 37 32 27 34 24 -66 0
3 13 6 12 2 9 -8 0
3 13 6 12 2 9 -10 0
3 13 6 12 2 9 -11 0
3 13 6 12 2 9 -7 0
3 13 6 12 2 5 -8 0
3 13 6 12 2 5 -10 0
3 13 6 12 2 5 -11 0
3 13 6 12 2 5 -7 0
3 13 6 12 9 14 -8 0
3 13 6 12 9 14 -10 0
3 13 6 12 9 14 -11 0
3 13 6 12 9 14 -7 0
3 13 6 12 5 14 -8 0
3 13 6 12 5 14 -10 0
3 13 6 12 5 14 -11 0
3 13 6 12 5 14 -7 0
3 13 6 2 9 5 -8 0
3 13 6 2 9 5 -10 0
3 13 6 2 9 5 -11 0
3 13 6 2 9 5 -7 0
3 13 6 2 5 14 -8 0
3 13 6 2 5 14 -10 0
3 13 6 2 5 14 -11 0
3 13 6 2 5 14 -7 0
3 13 12 2 9 14 -8 0
3 13 12 2 9 14 -10 0
3 13 12 2 9 14 -11 0
3 13 12 2 9 14 -7 0
3 13 12 9 5 14 -8 0
3 13 12 9 5 14 -10 0
3 13 12 9 5 14 -11 0
3 13 12 9 5 14 -7 0
3 13 2 9 5 14 -8 0
3 13 2 9 5 14 -10 0
3 13 2 9 5 14 -11 0
3 13 2 9 5 14 -7 0
3 30 6 23 2 27 -28 0
3 30 6 23 2 27 -29 0
3 30 6 23 2 27 -25 0
3 30 6 23 2 27 -26 0
3 30 6 23 2 5 -28 0
3 30 6 23 2 5 -29 0
3 30 6 23 2 5 -25 0
3 30 6 23 2 5 -26 0
3 30 6 23 27 24 -28 0
3 30 6 23 27 24 -29 0
3 30 6 23 27 24 -25 0
3 30 6 23 27 24 -26 0
3 30 6 23 5 24 -28 0
3 30 6 23 5 24 -29 0
3 30 6 23 5 24 -25 0
3 30 6 23 5 24 -26 0
3 30 6 2 27 5 -28 0
3 30 6 2 27 5 -29 0
3 30 6 2 27 5 -25 0
3 30 6 2 27 5 -26 0
3 30 6 2 5 24 -28 0
3 30 6 2 5 24 -29 0
3 30 6 2 5 24 -25 0
3 30 6 2 5 24 -26 0
3 30 23 2 27 24 -28 0
3 30 23 2 27 24 -29 0
3 30 23 2 27 24 -25 0
3 30 23 2 27 24 -26 0
3 30 23 27 5 24 -28 0
3 30 23 27 5 24 -29 0
3 30 23 27 5 24 -25 0
3 30 23 27 5 24 -26 0
3 30 2 27 5 24 -28 0
3 30 2 27 5 24 -29 0
3 30 2 27 5 24 -25 0
3 30 2 27 5 24 -26 0
3 16 6 18 2 5 -21 0
3 16 6 18 2 5 -17 0
3 16 6 18 2 5 -22 0
3 16 6 18 2 5 -19 0
3 16 6 2 15 5 -21 0
3 16 6 2 15 5 -17 0
3 16 6 2 15 5 -22 0
3 16 6 2 15 5 -19 0
3 37 6 32 2 5 -33 0
3 37 6 32 2 5 -38 0
3 37 6 32 2 5 -36 0
3 37 6 32 2 5 -31 0
3 37 6 2 34 5 -33 0
3 37 6 2 34 5 -38 0
3 37 6 2 34 5 -36 0
3 37 6 2 34 5 -31 0
3 6 12 2 9 5 -8 0
3 6 12 2 9 5 -10 0
3 6 12 2 9 5 -11 0
3 6 12 2 9 5 -7 0
3 6 12 2 5 14 -8 0
3 6 12 2 5 14 -10 0
3 6 12 2 5 14 -11 0
3 6 12 2 5 14 -7 0
3 6 23 2 27 5 -28 0
3 6 23 2 27 5 -29 0
3 6 23 2 27 5 -25 0
3 6 23 2 27 5 -26 0
3 6 23 2 5 24 -28 0
3 6 23 2 5 24 -29 0
3 6 23 2 5 24 -25 0
3 6 23 2 5 24 -26 0
3 6 18 2 15 5 -21 0
3 6 18 2 15 5 -17 0
3 6 18 2 15 5 -22 0
3 6 18 2 15 5 -19 0
3 6 32 2 34 5 -33 0
3 6 32 2 34 5 -38 0
3 6 32 2 34 5 -36 0
3 6 32 2 34 5 -31 0
3 6 2 9 5 14 -8 0
3 6 2 9 5 14 -10 0
3 6 2 9 5 14 -11 0
3 6 2 9 5 14 -7 0
3 6 2 27 5 24 -28 0
3 6 2 27 5 24 -29 0
3 6 2 27 5 24 -25 0
3 6 2 27 5 24 -26 0
13 30 12 23 9 27 -46 0
13 30 12 23 9 27 -48 0
13 30 12 23 9 27 -47 0
13 30 12 23 9 27 -45 0
13 30 12 23 9 14 -46 0
13 30 12 23 9 14 -48 0
13 30 12 23 9 14 -47 0
13 30 12 23 9 14 -45 0
13 30 12 23 27 24 -46 0
13 30 12 23 27 24 -48 0
13 30 12 23 27 24 -47 0
13 30 12 23 27 24 -45 0
13 30 12 23 14 24 -46 0
13 30 12 23 14 24 -48 0
13 30 12 23 14 24 -47 0
13 30 12 23 14 24 -45 0
13 30 12 9 27 14 -46 0
13 30 12 9 27 14 -48 0
13 30 12 9 27 14 -47 0
13 30 12 9 27 14 -45 0
13 30 12 9 14 24 -46 0
13 30 12 9 14 24 -48 0
13 30 12 9 14 24 -47 0
13 30 12 9 14 24 -45 0
13 30 23 9 27 24 -46 0
13 30 23 9 27 24 -48 0
13 30 23 9 27 24 -47 0
13 30 23 9 27 24 -45 0
13 30 23 27 14 24 -46 0
13 30 23 27 14 24 -48 0
13 30 23 27 14 24 -47 0
13 30 23 27 14 24 -45 0
13 30 9 27 14 24 -46 0
13 30 9 27 14 24 -48 0
13 30 9 27 14 24 -47 0
13 30 9 27 14 24 -45 0
13 16 12 18 9 14 -41 0
13 16 12 18 9 14 -42 0
13 16 12 18 9 14 -43 0
13 16 12 18 9 14 -44 0
13 16 12 9 15 14 -41 0
13 16 12 9 15 14 -42 0
13 16 12 9 15 14 -43 0
13 16 12 9 15 14 -44 0
13 37 12 32 9 14 -49 0
13 37 12 32 9 14 -50 0
13 37 12 32 9 14 -52 0
13 37 12 32 9 14 -51 0
13 37 12 9 34 14 -49 0
13 37 12 9 34 14 -50 0
13 37 12 9 34 14 -52 0
13 37 12 9 34 14 -51 0
13 6 12 2 9 14 -8 0
13 6 12 2 9 14 -10 0
13 6 12 2 9 14 -11 0
13 6 12 2 9 14 -7 0
13 6 12 9 5 14 -8 0
13 6 12 9 5 14 -10 0
13 6 12 9 5 14 -11 0
13 6 12 9 5 14 -7 0
13 12 23 9 27 14 -46 0
13 12 23 9 27 14 -48 0
13 12 23 9 27 14 -47 0
13 12 23 9 27 14 -45 0
13 12 23 9 14 24 -46 0
13 12 23 9 14 24 -48 0
13 12 23 9 14 24 -47 0
13 12 23 9 14 24 -45 0
13 12 18 9 15 14 -41 0
13 12 18 9 15 14 -42 0
13 12 18 9 15 14 -43 0
13 12 18 9 15 14 -44 0
13 12 32 9 34 14 -49 0
13 12 32 9 34 14 -50 0
13 12 32 9 34 14 -52 0
13 12 32 9 34 14 -51 0
13 12 2 9 5 14 -8 0
13 12 2 9 5 14 -10 0
13 12 2 9 5 14 -11 0
13 12 2 9 5 14 -7 0
13 12 9 27 14 24 -46 0
13 12 9 27 14 24 -48 0
13 12 9 27 14 24 -47 0
13 12 9 27 14 24 -45 0
30 16 23 18 27 24 -57 0
30 16 23 18 27 24 -55 0
30 16 23 18 27 24 -58 0
30 16 23 18 27 24 -56 0
30 16 23 27 15 24 -57 0
30 16 23 27 15 24 -55 0
30 16 23 27 15 24 -58 0
30 16 23 27 15 24 -56 0
30 37 23 32 27 24 -67 0
30 37 23 32 27 24 -65 0
30 37 23 32 27 24 -68 0
30 37 23 32 27 24 -66 0
30 37 23 27 34 24 -67 0
30 37 23 27 34 24 -65 0
30 37 23 27 34 24 -68 0
30 37 23 27 34 24 -66 0
30 6 23 2 27 24 -28 0
30 6 23 2 27 24 -29 0
30 6 23 2 27 24 -25 0
30 6 23 2 27 24 -26 0
30 6 23 27 5 24 -28 0
30 6 23 27 5 24 -29 0
30 6 23 27 5 24 -25 0
30 6 23 27 5 24 -26 0
30 12 23 9 27 24 -46 0
30 12 23 9 27 24 -48 0
30 12 23 9 27 24 -47 0
30 12 23 9 27 24 -45 0
30 12 23 27 14 24 -46 0
30 12 23 27 14 24 -48 0
30 12 23 27 14 24 -47 0
30 12 23 27 14 24 -45 0
30 23 18 27 15 24 -57 0
30 23 18 27 15 24 -55 0
30 23 18 27 15 24 -58 0
30 23 18 27 15 24 -56 0
30 23 32 27 34 24 -67 0
30 23 32 27 34 24 -65 0
30 23 32 27 34 24 -68 0
30 23 32 27 34 24 -66 0
30 23 2 27 5 24 -28 0
30 23 2 27 5 24 -29 0
30 23 2 27 5 24 -25 0
30 23 2 27 5 24 -26 0
30 23 9 27 14 24 -46 0
30 23 9 27 14 24 -48 0
30 23 9 27 14 24 -47 0
30 23 9 27 14 24 -45 0
16 37 18 32 15 34 -59 0
16 37 18 32 15 34 -60 0
16 37 18 32 15 34 -61 0
16 37 18 32 15 34 -62 0
16 6 18 2 15 5 -21 0
16 6 18 2 15 5 -17 0
16 6 18 2 15 5 -22 0
16 6 18 2 15 5 -19 0
16 12 18 9 15 14 -41 0
16 12 18 9 15 14 -42 0
16 12 18 9 15 14 -43 0
16 12 18 9 15 14 -44 0
16 23 18 27 15 24 -57 0
16 23 18 27 15 24 -55 0
16 23 18 27 15 24 -58 0
16 23 18 27 15 24 -56 0
37 6 32 2 34 5 -33 0
37 6 32 2 34 5 -38 0
37 6 32 2 34 5 -36 0
37 6 32 2 34 5 -31 0
37 12 32 9 34 14 -49 0
37 12 32 9 34 14 -50 0
37 12 32 9 34 14 -52 0
37 12 32 9 34 14 -51 0
37 23 32 27 34 24 -67 0
37 23 32 27 34 24 -65 0
37 23 32 27 34 24 -68 0
37 23 32 27 34 24 -66 0
6 12 2 9 5 14 -8 0
6 12 2 9 5 14 -10 0
6 12 2 9 5 14 -11 0
6 12 2 9 5 14 -7 0
6 23 2 27 5 24 -28 0
6 23 2 27 5 24 -29 0
6 23 2 27 5 24 -25 0
6 23 2 27 5 24 -26 0
12 23 9 27 14 24 -46 0
12 23 9 27 14 24 -48 0
12 23 9 27 14 24 -47 0
12 23 9 27 14 24 -45 0
20 35 16 37 18 32 15 -59 0
20 35 16 37 18 32 15 -60 0
20 35 16 37 18 32 15 -61 0
20 35 16 37 18 32 15 -62 0
20 35 16 37 18 32 34 -59 0
20 35 16 37 18 32 34 -60 0
20 35 16 37 18 32 34 -61 0
20 35 16 37 18 32 34 -62 0
20 35 16 37 18 15 34 -59 0
20 35 16 37 18 15 34 -60 0
20 35 16 37 18 15 34 -61 0
20 35 16 37 18 15 34 -62 0
20 35 16 37 32 15 34 -59 0
20 35 16 37 32 15 34 -60 0
20 35 16 37 32 15 34 -61 0
20 35 16 37 32 15 34 -62 0
20 35 16 18 32 15 34 -59 0
20 35 16 18 32 15 34 -60 0
20 35 16 18 32 15 34 -61 0
20 35 16 18 32 15 34 -62 0
20 35 37 18 32 15 34 -59 0
20 35 37 18 32 15 34 -60 0
20 35 37 18 32 15 34 -61 0
20 35 37 18 32 15 34 -62 0
20 3 16 6 18 2 15 -21 0
20 3 16 6 18 2 15 -17 0
20 3 16 6 18 2 15 -22 0
20 3 16 6 18 2 15 -19 0
20 3 16 6 18 2 5 -21 0
20 3 16 6 18 2 5 -17 0
20 3 16 6 18 2 5 -22 0
20 3 16 6 18 2 5 -19 0
20 3 16 6 18 15 5 -21 0
20 3 16 6 18 15 5 -17 0
20 3 16 6 18 15 5 -22 0
20 3 16 6 18 15 5 -19 0
20 3 16 6 2 15 5 -21 0
20 3 16 6 2 15 5 -17 0
20 3 16 6 2 15 5 -22 0
20 3 16 6 2 15 5 -19 0
20 3 16 18 2 15 5 -21 0
20 3 16 18 2 15 5 -17 0
20 3 16 18 2 15 5 -22 0
20 3 16 18 2 15 5 -19 0
20 3 6 18 2 15 5 -21 0
20 3 6 18 2 15 5 -17 0
20 3 6 18 2 15 5 -22 0
20 3 6 18 2 15 5 -19 0
20 13 16 12 18 9 15 -41 0
20 13 16 12 18 9 15 -42 0
20 13 16 12 18 9 15 -43 0
20 13 16 12 18 9 15 -44 0
20 13 16 12 18 9 14 -41 0
20 13 16 12 18 9 14 -42 0
20 13 16 12 18 9 14 -43 0
20 13 16 12 18 9 14 -44 0
20 13 16 12 18 15 14 -41 0
20 13 16 12 18 15 14 -42 0
20 13 16 12 18 15 14 -43 0
20 13 16 12 18 15 14 -44 0
20 13 16 12 9 15 14 -41 0
20 13 16 12 9 15 14 -42 0
20 13 16 12 9 15 14 -43 0
20 13 16 12 9 15 14 -44 0
20 13 16 18 9 15 14 -41 0
20 13 16 18 9 15 14 -42 0
20 13 16 18 9 15 14 -43 0
20 13 16 18 9 15 14 -44 0
20 13 12 18 9 15 14 -41 0
20 13 12 18 9 15 14 -42 0
20 13 12 18 9 15 14 -43 0
20 13 12 18 9 15 14 -44 0
20 30 16 23 18 27 15 -57 0
20 30 16 23 18 27 15 -55 0
20 30 16 23 18 27 15 -58 0
20 30 16 23 18 27 15 -56 0
20 30 16 23 18 27 24 -57 0
20 30 16 23 18 27 24 -55 0
20 30 16 23 18 27 24 -58 0
20 30 16 23 18 27 24 -56 0
20 30 16 23 18 15 24 -57 0
20 30 16 23 18 15 24 -55 0
20 30 16 23 18 15 24 -58 0
20 30 16 23 18 15 24 -56 0
20 30 16 23 27 15 24 -57 0
20 30 16 23 27 15 24 -55 0
20 30 16 23 27 15 24 -58 0
20 30 16 23 27 15 24 -56 0
20 30 16 18 27 15 24 -57 0
20 30 16 18 27 15 24 -55 0
20 30 16 18 27 15 24 -58 0
20 30 16 18 27 15 24 -56 0
20 30 23 18 27 15 24 -57 0
20 30 23 18 27 15 24 -55 0
20 30 23 18 27 15 24 -58 0
20 30 23 18 27 15 24 -56 0
20 16 37 18 32 15 34 -59 0
20 16 37 18 32 15 34 -60 0
20 16 37 18 32 15 34 -61 0
20 16 37 18 32 15 34 -62 0
20 16 6 18 2 15 5 -21 0
20 16 6 18 2 15 5 -17 0
20 16 6 18 2 15 5 -22 0
20 16 6 18 2 15 5 -19 0
20 16 12 18 9 15 14 -41 0
20 16 12 18 9 15 14 -42 0
20 16 12 18 9 15 14 -43 0
20 16 12 18 9 15 14 -44 0
20 16 23 18 27 15 24 -57 0
20 16 23 18 27 15 24 -55 0
20 16 23 18 27 15 24 -58 0
20 16 23 18 27 15 24 -56 0
35 3 37 6 32 2 34 -33 0
35 3 37 6 32 2 34 -38 0
35 3 37 6 32 2 34 -36 0
35 3 37 6 32 2 34 -31 0
35 3 37 6 32 2 5 -33 0
35 3 37 6 32 2 5 -38 0
35 3 37 6 32 2 5 -36 0
35 3 37 6 32 2 5 -31 0
35 3 37 6 32 34 5 -33 0
35 3 37 6 32 34 5 -38 0
35 3 37 6 32 34 5 -36 0
35 3 37 6 32 34 5 -31 0
35 3 37 6 2 34 5 -33 0
35 3 37 6 2 34 5 -38 0
35 3 37 6 2 34 5 -36 0
35 3 37 6 2 34 5 -31 0
35 3 37 32 2 34 5 -33 0
35 3 37 32 2 34 5 -38 0
35 3 37 32 2 34 5 -36 0
35 3 37 32 2 34 5 -31 0
35 3 6 32 2 34 5 -33 0
35 3 6 32 2 34 5 -38 0
35 3 6 32 2 34 5 -36 0
35 3 6 32 2 34 5 -31 0
35 13 37 12 32 9 34 -49 0
35 13 37 12 32 9 34 -50 0
35 13 37 12 32 9 34 -52 0
35 13 37 12 32 9 34 -51 0
35 13 37 12 32 9 14 -49 0
35 13 37 12 32 9 14 -50 0
35 13 37 12 32 9 14 -52 0
35 13 37 12 32 9 14 -51 0
35 13 37 12 32 34 14 -49 0
35 13 37 12 32 34 14 -50 0
35 13 37 12 32 34 14 -52 0
35 13 37 12 32 34 14 -51 0
35 13 37 12 9 34 14 -49 0
35 13 37 12 9 34 14 -50 0
35 13 37 12 9 34 14 -52 0
35 13 37 12 9 34 14 -51 0
35 13 37 32 9 34 14 -49 0
35 13 37 32 9 34 14 -50 0
35 13 37 32 9 34 14 -52 0
35 13 37 32 9 34 14 -51 0
35 13 12 32 9 34 14 -49 0
35 13 12 32 9 34 14 -50 0
35 13 12 32 9 34 14 -52 0
35 13 12 32 9 34 14 -51 0
35 30 37 23 32 27 34 -67 0
35 30 37 23 32 27 34 -65 0
35 30 37 23 32 27 34 -68 0
35 30 37 23 32 27 34 -66 0
35 30 37 23 32 27 24 -67 0
35 30 37 23 32 27 24 -65 0
35 30 37 23 32 27 24 -68 0
35 30 37 23 32 27 24 -66 0
35 30 37 23 32 34 24 -67 0
35 30 37 23 32 34 24 -65 0
35 30 37 23 32 34 24 -68 0
35 30 37 23 32 34 24 -66 0
35 30 37 23 27 34 24 -67 0
35 30 37 23 27 34 24 -65 0
35 30 37 23 27 34 24 -68 0
35 30 37 23 27 34 24 -66 0
35 30 37 32 27 34 24 -67 0
35 30 37 32 27 34 24 -65 0
35 30 37 32 27 34 24 -68 0
35 30 37 32 27 34 24 -66 0
35 30 23 32 27 34 24 -67 0
35 30 23 32 27 34 24 -65 0
35 30 23 32 27 34 24 -68 0
35 30 23 32 27 34 24 -66 0
35 16 37 18 32 15 34 -59 0
35 16 37 18 32 15 34 -60 0
35 16 37 18 32 15 34 -61 0
35 16 37 18 32 15 34 -62 0
35 37 6 32 2 34 5 -33 0
35 37 6 32 2 34 5 -38 0
35 37 6 32 2 34 5 -36 0
35 37 6 32 2 34 5 -31 0
35 37 12 32 9 34 14 -49 0
35 37 12 32 9 34 14 -50 0
35 37 12 32 9 34 14 -52 0
35 37 12 32 9 34 14 -51 0
35 37 23 32 27 34 24 -67 0
35 37 23 32 27 34 24 -65 0
35 37 23 32 27 34 24 -68 0
35 37 23 32 27 34 24 -66 0
3 13 6 12 2 9 5 -8 0
3 13 6 12 2 9 5 -10 0
3 13 6 12 2 9 5 -11 0
3 13 6 12 2 9 5 -7 0
3 13 6 12 2 9 14 -8 0
3 13 6 12 2 9 14 -10 0
3 13 6 12 2 9 14 -11 0
3 13 6 12 2 9 14 -7 0
3 13 6 12 2 5 14 -8 0
3 13 6 12 2 5 14 -10 0
3 13 6 12 2 5 14 -11 0
3 13 6 12 2 5 14 -7 0
3 13 6 12 9 5 14 -8 0
3 13 6 12 9 5 14 -10 0
3 13 6 12 9 5 14 -11 0
3 13 6 12 9 5 14 -7 0
3 13 6 2 9 5 14 -8 0
3 13 6 2 9 5 14 -10 0
3 13 6 2 9 5 14 -11 0
3 13 6 2 9 5 14 -7 0
3 13 12 2 9 5 14 -8 0
3 13 12 2 9 5 14 -10 0
3 13 12 2 9 5 14 -11 0
3 13 12 2 9 5 14 -7 0
3 30 6 23 2 27 5 -28 0
3 30 6 23 2 27 5 -29 0
3 30 6 23 2 27 5 -25 0
3 30 6 23 2 27 5 -26 0
3 30 6 23 2 27 24 -28 0
3 30 6 23 2 27 24 -29 0
3 30 6 23 2 27 24 -25 0
3 30 6 23 2 27 24 -26 0
3 30 6 23 2 5 24 -28 0
3 30 6 23 2 5 24 -29 0
3 30 6 23 2 5 24 -25 0
3 30 6 23 2 5 24 -26 0
3 30 6 23 27 5 24 -28 0
3 30 6 23 27 5 24 -29 0
3 30 6 23 27 5 24 -25 0
3 30 6 23 27 5 24 -26 0
3 30 6 2 27 5 24 -28 0
3 30 6 2 27 5 24 -29 0
3 30 6 2 27 5 24 -25 0
3 30 6 2 27 5 24 -26 0
3 30 23 2 27 5 24 -28 0
3 30 23 2 27 5 24 -29 0
3 30 23 2 27 5 24 -25 0
3 30 23 2 27 5 24 -26 0
3 16 6 18 2 15 5 -21 0
3 16 6 18 2 15 5 -17 0
3 16 6 18 2 15 5 -22 0
3 16 6 18 2 15 5 -19 0
3 37 6 32 2 34 5 -33 0
3 37 6 32 2 34 5 -38 0
3 37 6 32 2 34 5 -36 0
3 37 6 32 2 34 5 -31 0
3 6 12 2 9 5 14 -8 0
3 6 12 2 9 5 14 -10 0
3 6 12 2 9 5 14 -11 0
3 6 12 2 9 5 14 -7 0
3 6 23 2 27 5 24 -28 0
3 6 23 2 27 5 24 -29 0
3 6 23 2 27 5 24 -25 0
3 6 23 2 27 5 24 -26 0
13 30 12 23 9 27 14 -46 0
13 30 12 23 9 27 14 -48 0
13 30 12 23 9 27 14 -47 0
13 30 12 23 9 27 14 -45 0
13 30 12 23 9 27 24 -46 0
13 30 12 23 9 27 24 -48 0
13 30 12 23 9 27 24 -47 0
13 30 12 23 9 27 24 -45 0
13 30 12 23 9 14 24 -46 0
13 30 12 23 9 14 24 -48 0
13 30 12 23 9 14 24 -47 0
13 30 12 23 9 14 24 -45 0
13 30 12 23 27 14 24 -46 0
13 30 12 23 27 14 24 -48 0
13 30 12 23 27 14 24 -47 0
13 30 12 23 27 14 24 -45 0
13 30 12 9 27 14 24 -46 0
13 30 12 9 27 14 24 -48 0
13 30 12 9 27 14 24 -47 0
13 30 12 9 27 14 24 -45 0
13 30 23 9 27 14 24 -46 0
13 30 23 9 27 14 24 -48 0
13 30 23 9 27 14 24 -47 0
13 30 23 9 27 14 24 -45 0
13 16 12 18 9 15 14 -41 0
13 16 12 18 9 15 14 -42 0
13 16 12 18 9 15 14 -43 0
13 16 12 18 9 15 14 -44 0
13 37 12 32 9 34 14 -49 0
13 37 12 32 9 34 14 -50 0
13 37 12 32 9 34 14 -52 0
13 37 12 32 9 34 14 -51 0
13 6 12 2 9 5 14 -8 0
13 6 12 2 9 5 14 -10 0
13 6 12 2 9 5 14 -11 0
13 6 12 2 9 5 14 -7 0
13 12 23 9 27 14 24 -46 0
13 12 23 9 27 14 24 -48 0
13 12 23 9 27 14 24 -47 0
13 12 23 9 27 14 24 -45 0
30 16 23 18 27 15 24 -57 0
30 16 23 18 27 15 24 -55 0
30 16 23 18 27 15 24 -58 0
30 16 23 18 27 15 24 -56 0
30 37 23 32 27 34 24 -67 0
30 37 23 32 27 34 24 -65 0
30 37 23 32 27 34 24 -68 0
30 37 23 32 27 34 24 -66 0
30 6 23 2 27 5 24 -28 0
30 6 23 2 27 5 24 -29 0
30 6 23 2 27 5 24 -25 0
30 6 23 2 27 5 24 -26 0
30 12 23 9 27 14 24 -46 0
30 12 23 9 27 14 24 -48 0
30 12 23 9 27 14 24 -47 0
30 12 23 9 27 14 24 -45 0
20 35 16 37 18 32 15 34 -59 0
20 35 16 37 18 32 15 34 -60 0
20 35 16 37 18 32 15 34 -61 0
20 35 16 37 18 32 15 34 -62 0
20 3 16 6 18 2 15 5 -21 0
20 3 16 6 18 2 15 5 -17 0
20 3 16 6 18 2 15 5 -22 0
20 3 16 6 18 2 15 5 -19 0
20 13 16 12 18 9 15 14 -41 0
20 13 16 12 18 9 15 14 -42 0
20 13 16 12 18 9 15 14 -43 0
20 13 16 12 18 9 15 14 -44 0
20 30 16 23 18 27 15 24 -57 0
20 30 16 23 18 27 15 24 -55 0
20 30 16 23 18 27 15 24 -58 0
20 30 16 23 18 27 15 24 -56 0
35 3 37 6 32 2 34 5 -33 0
35 3 37 6 32 2 34 5 -38 0
35 3 37 6 32 2 34 5 -36 0
35 3 37 6 32 2 34 5 -31 0
35 13 37 12 32 9 34 14 -49 0
35 13 37 12 32 9 34 14 -50 0
35 13 37 12 32 9 34 14 -52 0
35 13 37 12 32 9 34 14 -51 0
35 30 37 23 32 27 34 24 -67 0
35 30 37 23 32 27 34 24 -65 0
35 30 37 23 32 27 34 24 -68 0
35 30 37 23 32 27 34 24 -66 0
3 13 6 12 2 9 5 14 -8 0
3 13 6 12 2 9 5 14 -10 0
3 13 6 12 2 9 5 14 -11 0
3 13 6 12 2 9 5 14 -7 0
3 30 6 23 2 27 5 24 -28 0
3 30 6 23 2 27 5 24 -29 0
3 30 6 23 2 27 5 24 -25 0
3 30 6 23 2 27 5 24 -26 0
13 30 12 23 9 27 14 24 -46 0
13 30 12 23 9 27 14 24 -48 0
13 30 12 23 9 27 14 24 -47 0
13 30 12 23 9 27 14 24 -45 0
