c E1(0,0) U4(0) U3(0) E2(0,0) U2(0) U1(0) E1(0,1) U2(1) U3(1) E2(1,0) U1(1) U4(1) E1(1,0) E2(0,1) U2(3) E1(0,3) E1(3,0) E2(0,3) E2(3,0) U1(3) U3(3) U4(3) E1(2,0) E1(0,2) E2(0,2) U2(2) U3(2) U1(2) U4(2) E2(2,0) U1(4) E2(0,4) E1(4,0) U3(4) U4(4) E2(4,0) U2(4) E1(0,4) E1(0,5) U4(5) U2(5) E2(5,0) U3(5) E2(0,5) E1(5,0) U1(5) E1(1,1) E2(1,1) E1(3,1) E2(3,1) E1(1,3) E2(1,3) E2(2,1) E1(2,1) E1(1,2) E2(1,2) E1(4,1) E2(4,1) E1(1,4) E2(1,4) E1(5,1) E1(1,5) E2(1,5) E2(5,1) E2(3,3) E1(3,3) E2(2,3) E2(3,2) E1(3,2) E1(2,3) E1(4,3) E2(4,3) E1(3,4) E2(3,4) E1(3,5) E2(5,3) E2(3,5) E1(5,3) E2(2,2) E1(2,2) E1(4,2) E1(2,4) E2(4,2) E2(2,4) E2(5,2) E2(2,5) E1(5,2) E1(2,5) E2(4,4) E1(4,4) E2(5,4) E1(5,4) E1(4,5) E2(4,5) E2(5,5) E1(5,5)
c 1 2 3 4 5 6 7 8 9 10 11 12 13 14 15 16 17 18 19 20 21 22 23 24 25 26 27 28 29 30 31 32 33 34 35 36 37 38 39 40 41 42 43 44 45 46 47 48 49 50 51 52 53 54 55 56 57 58 59 60 61 62 63 64 65 66 67 68 69 70 71 72 73 74 75 76 77 78 79 80 81 82 83 84 85 86 87 88 89 90 91 92 93 94 95 96
p cnf 96 2280
-1 -4 0
-7 -14 0
-7 -10 0
-24 -25 0
-24 -30 0
-16 -18 0
-16 -19 0
-38 -32 0
-38 -36 0
-39 -44 0
-39 -42 0
-13 -14 0
-13 -10 0
-47 -48 0
-55 -56 0
-55 -53 0
-51 -52 0
-51 -50 0
-59 -60 0
-59 -58 0
-62 -63 0
-62 -64 0
-23 -25 0
-23 -30 0
-54 -56 0
-54 -53 0
-80 -79 0
-70 -67 0
-70 -68 0
-82 -84 0
-82 -83 0
-88 -86 0
-88 -85 0
-17 -18 0
-17 -19 0
-49 -52 0
-49 -50 0
-69 -67 0
-69 -68 0
-66 -65 0
-73 -74 0
-73 -72 0
-75 -77 0
-75 -76 0
-33 -32 0
-33 -36 0
-57 -60 0
-57 -58 0
-81 -84 0
-81 -83 0
-71 -74 0
-71 -72 0
-90 -89 0
-93 -94 0
-93 -91 0
-45 -44 0
-45 -42 0
-61 -63 0
-61 -64 0
-87 -86 0
-87 -85 0
-78 -77 0
-78 -76 0
-92 -94 0
-92 -91 0
-96 -95 0
-6 -5 0
-6 -3 0
-6 -2 0
-11 -8 0
-11 -9 0
-11 -12 0
-28 -26 0
-28 -27 0
-28 -29 0
-20 -15 0
-20 -21 0
-20 -22 0
-31 -37 0
-31 -34 0
-31 -35 0
-46 -41 0
-46 -43 0
-46 -40 0
-5 -3 0
-5 -2 0
-8 -9 0
-8 -12 0
-26 -27 0
-26 -29 0
-15 -21 0
-15 -22 0
-37 -34 0
-37 -35 0
-41 -43 0
-41 -40 0
-3 -2 0
-9 -12 0
-27 -29 0
-21 -22 0
-34 -35 0
-43 -40 0
6 5 3 2 0
11 8 9 12 0
28 26 27 29 0
20 15 21 22 0
31 37 34 35 0
46 41 43 40 0
6 5 3 -1 0
6 5 3 -4 0
6 5 2 -1 0
6 5 2 -4 0
6 3 2 -1 0
6 3 2 -4 0
11 8 9 -47 0
11 8 9 -48 0
11 8 12 -47 0
11 8 12 -48 0
11 9 12 -47 0
11 9 12 -48 0
28 26 27 -80 0
28 26 27 -79 0
28 26 29 -80 0
28 26 29 -79 0
28 27 29 -80 0
28 27 29 -79 0
20 15 21 -66 0
20 15 21 -65 0
20 15 22 -66 0
20 15 22 -65 0
20 21 22 -66 0
20 21 22 -65 0
31 37 34 -90 0
31 37 34 -89 0
31 37 35 -90 0
31 37 35 -89 0
31 34 35 -90 0
31 34 35 -89 0
46 41 43 -96 0
46 41 43 -95 0
46 41 40 -96 0
46 41 40 -95 0
46 43 40 -96 0
46 43 40 -95 0
5 3 2 -1 0
5 3 2 -4 0
8 9 12 -47 0
8 9 12 -48 0
26 27 29 -80 0
26 27 29 -79 0
15 21 22 -66 0
15 21 22 -65 0
37 34 35 -90 0
37 34 35 -89 0
41 43 40 -96 0
41 43 40 -95 0
6 5 3 2 -1 0
6 5 3 2 -7 0
6 5 3 2 -24 0
6 5 3 2 -16 0
6 5 3 2 -38 0
6 5 3 2 -39 0
6 5 3 2 -13 0
6 5 3 2 -23 0
6 5 3 2 -17 0
6 5 3 2 -33 0
6 5 3 2 -45 0
6 5 3 2 -4 0
6 5 3 2 -14 0
6 5 3 2 -25 0
6 5 3 2 -18 0
6 5 3 2 -32 0
6 5 3 2 -44 0
6 5 3 2 -10 0
6 5 3 2 -30 0
6 5 3 2 -19 0
6 5 3 2 -36 0
6 5 3 2 -42 0
11 8 9 12 -7 0
11 8 9 12 -13 0
11 8 9 12 -47 0
11 8 9 12 -55 0
11 8 9 12 -51 0
11 8 9 12 -59 0
11 8 9 12 -62 0
11 8 9 12 -54 0
11 8 9 12 -49 0
11 8 9 12 -57 0
11 8 9 12 -61 0
11 8 9 12 -14 0
11 8 9 12 -10 0
11 8 9 12 -48 0
11 8 9 12 -56 0
11 8 9 12 -52 0
11 8 9 12 -60 0
11 8 9 12 -63 0
11 8 9 12 -53 0
11 8 9 12 -50 0
11 8 9 12 -58 0
11 8 9 12 -64 0
28 26 27 29 -24 0
28 26 27 29 -55 0
28 26 27 29 -23 0
28 26 27 29 -54 0
28 26 27 29 -80 0
28 26 27 29 -70 0
28 26 27 29 -82 0
28 26 27 29 -88 0
28 26 27 29 -69 0
28 26 27 29 -81 0
28 26 27 29 -87 0
28 26 27 29 -25 0
28 26 27 29 -56 0
28 26 27 29 -30 0
28 26 27 29 -53 0
28 26 27 29 -79 0
28 26 27 29 -67 0
28 26 27 29 -84 0
28 26 27 29 -86 0
28 26 27 29 -68 0
28 26 27 29 -83 0
28 26 27 29 -85 0
20 15 21 22 -16 0
20 15 21 22 -51 0
20 15 21 22 -70 0
20 15 21 22 -17 0
20 15 21 22 -49 0
20 15 21 22 -69 0
20 15 21 22 -66 0
20 15 21 22 -73 0
20 15 21 22 -75 0
20 15 21 22 -71 0
20 15 21 22 -78 0
20 15 21 22 -18 0
20 15 21 22 -52 0
20 15 21 22 -67 0
20 15 21 22 -19 0
20 15 21 22 -50 0
20 15 21 22 -68 0
20 15 21 22 -65 0
20 15 21 22 -74 0
20 15 21 22 -77 0
20 15 21 22 -72 0
20 15 21 22 -76 0
31 37 34 35 -38 0
31 37 34 35 -59 0
31 37 34 35 -82 0
31 37 34 35 -73 0
31 37 34 35 -33 0
31 37 34 35 -57 0
31 37 34 35 -81 0
31 37 34 35 -71 0
31 37 34 35 -90 0
31 37 34 35 -93 0
31 37 34 35 -92 0
31 37 34 35 -32 0
31 37 34 35 -60 0
31 37 34 35 -84 0
31 37 34 35 -74 0
31 37 34 35 -36 0
31 37 34 35 -58 0
31 37 34 35 -83 0
31 37 34 35 -72 0
31 37 34 35 -89 0
31 37 34 35 -94 0
31 37 34 35 -91 0
46 41 43 40 -39 0
46 41 43 40 -62 0
46 41 43 40 -88 0
46 41 43 40 -75 0
46 41 43 40 -93 0
46 41 43 40 -45 0
46 41 43 40 -61 0
46 41 43 40 -87 0
46 41 43 40 -78 0
46 41 43 40 -92 0
46 41 43 40 -96 0
46 41 43 40 -44 0
46 41 43 40 -63 0
46 41 43 40 -86 0
46 41 43 40 -77 0
46 41 43 40 -94 0
46 41 43 40 -42 0
46 41 43 40 -64 0
46 41 43 40 -85 0
46 41 43 40 -76 0
46 41 43 40 -91 0
46 41 43 40 -95 0
1 7 24 16 38 39 0
13 47 55 51 59 62 0
23 54 80 70 82 88 0
17 49 69 66 73 75 0
33 57 81 71 90 93 0
45 61 87 78 92 96 0
4 14 25 18 32 44 0
10 48 56 52 60 63 0
30 53 79 67 84 86 0
19 50 68 65 74 77 0
36 58 83 72 89 94 0
42 64 85 76 91 95 0
6 11 5 3 2 -7 0
6 11 5 3 2 -13 0
6 11 5 3 2 -14 0
6 11 5 3 2 -10 0
6 11 8 9 12 -7 0
6 11 8 9 12 -13 0
6 11 8 9 12 -14 0
6 11 8 9 12 -10 0
6 28 5 3 2 -24 0
6 28 5 3 2 -23 0
6 28 5 3 2 -25 0
6 28 5 3 2 -30 0
6 28 26 27 29 -24 0
6 28 26 27 29 -23 0
6 28 26 27 29 -25 0
6 28 26 27 29 -30 0
6 20 5 3 2 -16 0
6 20 5 3 2 -17 0
6 20 5 3 2 -18 0
6 20 5 3 2 -19 0
6 20 15 21 22 -16 0
6 20 15 21 22 -17 0
6 20 15 21 22 -18 0
6 20 15 21 22 -19 0
6 31 5 3 2 -38 0
6 31 5 3 2 -33 0
6 31 5 3 2 -32 0
6 31 5 3 2 -36 0
6 31 37 34 35 -38 0
6 31 37 34 35 -33 0
6 31 37 34 35 -32 0
6 31 37 34 35 -36 0
6 46 5 3 2 -39 0
6 46 5 3 2 -45 0
6 46 5 3 2 -44 0
6 46 5 3 2 -42 0
6 46 41 43 40 -39 0
6 46 41 43 40 -45 0
6 46 41 43 40 -44 0
6 46 41 43 40 -42 0
6 5 8 3 2 -7 0
6 5 8 3 2 -13 0
6 5 8 3 2 -14 0
6 5 8 3 2 -10 0
6 5 26 3 2 -24 0
6 5 26 3 2 -23 0
6 5 26 3 2 -25 0
6 5 26 3 2 -30 0
6 5 15 3 2 -16 0
6 5 15 3 2 -17 0
6 5 15 3 2 -18 0
6 5 15 3 2 -19 0
6 5 37 3 2 -38 0
6 5 37 3 2 -33 0
6 5 37 3 2 -32 0
6 5 37 3 2 -36 0
6 5 41 3 2 -39 0
6 5 41 3 2 -45 0
6 5 41 3 2 -44 0
6 5 41 3 2 -42 0
6 5 3 9 2 -7 0
6 5 3 9 2 -13 0
6 5 3 9 2 -14 0
6 5 3 9 2 -10 0
6 5 3 27 2 -24 0
6 5 3 27 2 -23 0
6 5 3 27 2 -25 0
6 5 3 27 2 -30 0
6 5 3 21 2 -16 0
6 5 3 21 2 -17 0
6 5 3 21 2 -18 0
6 5 3 21 2 -19 0
6 5 3 34 2 -38 0
6 5 3 34 2 -33 0
6 5 3 34 2 -32 0
6 5 3 34 2 -36 0
6 5 3 43 2 -39 0
6 5 3 43 2 -45 0
6 5 3 43 2 -44 0
6 5 3 43 2 -42 0
6 5 3 2 12 -7 0
6 5 3 2 12 -13 0
6 5 3 2 12 -14 0
6 5 3 2 12 -10 0
6 5 3 2 29 -24 0
6 5 3 2 29 -23 0
6 5 3 2 29 -25 0
6 5 3 2 29 -30 0
6 5 3 2 22 -16 0
6 5 3 2 22 -17 0
6 5 3 2 22 -18 0
6 5 3 2 22 -19 0
6 5 3 2 35 -38 0
6 5 3 2 35 -33 0
6 5 3 2 35 -32 0
6 5 3 2 35 -36 0
6 5 3 2 40 -39 0
6 5 3 2 40 -45 0
6 5 3 2 40 -44 0
6 5 3 2 40 -42 0
11 28 8 9 12 -55 0
11 28 8 9 12 -54 0
11 28 8 9 12 -56 0
11 28 8 9 12 -53 0
11 28 26 27 29 -55 0
11 28 26 27 29 -54 0
11 28 26 27 29 -56 0
11 28 26 27 29 -53 0
11 20 8 9 12 -51 0
11 20 8 9 12 -49 0
11 20 8 9 12 -52 0
11 20 8 9 12 -50 0
11 20 15 21 22 -51 0
11 20 15 21 22 -49 0
11 20 15 21 22 -52 0
11 20 15 21 22 -50 0
11 31 8 9 12 -59 0
11 31 8 9 12 -57 0
11 31 8 9 12 -60 0
11 31 8 9 12 -58 0
11 31 37 34 35 -59 0
11 31 37 34 35 -57 0
11 31 37 34 35 -60 0
11 31 37 34 35 -58 0
11 46 8 9 12 -62 0
11 46 8 9 12 -61 0
11 46 8 9 12 -63 0
11 46 8 9 12 -64 0
11 46 41 43 40 -62 0
11 46 41 43 40 -61 0
11 46 41 43 40 -63 0
11 46 41 43 40 -64 0
11 5 8 9 12 -7 0
11 5 8 9 12 -13 0
11 5 8 9 12 -14 0
11 5 8 9 12 -10 0
11 8 26 9 12 -55 0
11 8 26 9 12 -54 0
11 8 26 9 12 -56 0
11 8 26 9 12 -53 0
11 8 15 9 12 -51 0
11 8 15 9 12 -49 0
11 8 15 9 12 -52 0
11 8 15 9 12 -50 0
11 8 37 9 12 -59 0
11 8 37 9 12 -57 0
11 8 37 9 12 -60 0
11 8 37 9 12 -58 0
11 8 41 9 12 -62 0
11 8 41 9 12 -61 0
11 8 41 9 12 -63 0
11 8 41 9 12 -64 0
11 8 3 9 12 -7 0
11 8 3 9 12 -13 0
11 8 3 9 12 -14 0
11 8 3 9 12 -10 0
11 8 9 27 12 -55 0
11 8 9 27 12 -54 0
11 8 9 27 12 -56 0
11 8 9 27 12 -53 0
11 8 9 21 12 -51 0
11 8 9 21 12 -49 0
11 8 9 21 12 -52 0
11 8 9 21 12 -50 0
11 8 9 34 12 -59 0
11 8 9 34 12 -57 0
11 8 9 34 12 -60 0
11 8 9 34 12 -58 0
11 8 9 43 12 -62 0
11 8 9 43 12 -61 0
11 8 9 43 12 -63 0
11 8 9 43 12 -64 0
11 8 9 2 12 -7 0
11 8 9 2 12 -13 0
11 8 9 2 12 -14 0
11 8 9 2 12 -10 0
11 8 9 12 29 -55 0
11 8 9 12 29 -54 0
11 8 9 12 29 -56 0
11 8 9 12 29 -53 0
11 8 9 12 22 -51 0
11 8 9 12 22 -49 0
11 8 9 12 22 -52 0
11 8 9 12 22 -50 0
11 8 9 12 35 -59 0
11 8 9 12 35 -57 0
11 8 9 12 35 -60 0
11 8 9 12 35 -58 0
11 8 9 12 40 -62 0
11 8 9 12 40 -61 0
11 8 9 12 40 -63 0
11 8 9 12 40 -64 0
28 20 26 27 29 -70 0
28 20 26 27 29 -69 0
28 20 26 27 29 -67 0
28 20 26 27 29 -68 0
28 20 15 21 22 -70 0
28 20 15 21 22 -69 0
28 20 15 21 22 -67 0
28 20 15 21 22 -68 0
28 31 26 27 29 -82 0
28 31 26 27 29 -81 0
28 31 26 27 29 -84 0
28 31 26 27 29 -83 0
28 31 37 34 35 -82 0
28 31 37 34 35 -81 0
28 31 37 34 35 -84 0
28 31 37 34 35 -83 0
28 46 26 27 29 -88 0
28 46 26 27 29 -87 0
28 46 26 27 29 -86 0
28 46 26 27 29 -85 0
28 46 41 43 40 -88 0
28 46 41 43 40 -87 0
28 46 41 43 40 -86 0
28 46 41 43 40 -85 0
28 5 26 27 29 -24 0
28 5 26 27 29 -23 0
28 5 26 27 29 -25 0
28 5 26 27 29 -30 0
28 8 26 27 29 -55 0
28 8 26 27 29 -54 0
28 8 26 27 29 -56 0
28 8 26 27 29 -53 0
28 26 15 27 29 -70 0
28 26 15 27 29 -69 0
28 26 15 27 29 -67 0
28 26 15 27 29 -68 0
28 26 37 27 29 -82 0
28 26 37 27 29 -81 0
28 26 37 27 29 -84 0
28 26 37 27 29 -83 0
28 26 41 27 29 -88 0
28 26 41 27 29 -87 0
28 26 41 27 29 -86 0
28 26 41 27 29 -85 0
28 26 3 27 29 -24 0
28 26 3 27 29 -23 0
28 26 3 27 29 -25 0
28 26 3 27 29 -30 0
28 26 9 27 29 -55 0
28 26 9 27 29 -54 0
28 26 9 27 29 -56 0
28 26 9 27 29 -53 0
28 26 27 21 29 -70 0
28 26 27 21 29 -69 0
28 26 27 21 29 -67 0
28 26 27 21 29 -68 0
28 26 27 34 29 -82 0
28 26 27 34 29 -81 0
28 26 27 34 29 -84 0
28 26 27 34 29 -83 0
28 26 27 43 29 -88 0
28 26 27 43 29 -87 0
28 26 27 43 29 -86 0
28 26 27 43 29 -85 0
28 26 27 2 29 -24 0
28 26 27 2 29 -23 0
28 26 27 2 29 -25 0
28 26 27 2 29 -30 0
28 26 27 12 29 -55 0
28 26 27 12 29 -54 0
28 26 27 12 29 -56 0
28 26 27 12 29 -53 0
28 26 27 29 22 -70 0
28 26 27 29 22 -69 0
28 26 27 29 22 -67 0
28 26 27 29 22 -68 0
28 26 27 29 35 -82 0
28 26 27 29 35 -81 0
28 26 27 29 35 -84 0
28 26 27 29 35 -83 0
28 26 27 29 40 -88 0
28 26 27 29 40 -87 0
28 26 27 29 40 -86 0
28 26 27 29 40 -85 0
20 31 15 21 22 -73 0
20 31 15 21 22 -71 0
20 31 15 21 22 -74 0
20 31 15 21 22 -72 0
20 31 37 34 35 -73 0
20 31 37 34 35 -71 0
20 31 37 34 35 -74 0
20 31 37 34 35 -72 0
20 46 15 21 22 -75 0
20 46 15 21 22 -78 0
20 46 15 21 22 -77 0
20 46 15 21 22 -76 0
20 46 41 43 40 -75 0
20 46 41 43 40 -78 0
20 46 41 43 40 -77 0
20 46 41 43 40 -76 0
20 5 15 21 22 -16 0
20 5 15 21 22 -17 0
20 5 15 21 22 -18 0
20 5 15 21 22 -19 0
20 8 15 21 22 -51 0
20 8 15 21 22 -49 0
20 8 15 21 22 -52 0
20 8 15 21 22 -50 0
20 26 15 21 22 -70 0
20 26 15 21 22 -69 0
20 26 15 21 22 -67 0
20 26 15 21 22 -68 0
20 15 37 21 22 -73 0
20 15 37 21 22 -71 0
20 15 37 21 22 -74 0
20 15 37 21 22 -72 0
20 15 41 21 22 -75 0
20 15 41 21 22 -78 0
20 15 41 21 22 -77 0
20 15 41 21 22 -76 0
20 15 3 21 22 -16 0
20 15 3 21 22 -17 0
20 15 3 21 22 -18 0
20 15 3 21 22 -19 0
20 15 9 21 22 -51 0
20 15 9 21 22 -49 0
20 15 9 21 22 -52 0
20 15 9 21 22 -50 0
20 15 27 21 22 -70 0
20 15 27 21 22 -69 0
20 15 27 21 22 -67 0
20 15 27 21 22 -68 0
20 15 21 34 22 -73 0
20 15 21 34 22 -71 0
20 15 21 34 22 -74 0
20 15 21 34 22 -72 0
20 15 21 43 22 -75 0
20 15 21 43 22 -78 0
20 15 21 43 22 -77 0
20 15 21 43 22 -76 0
20 15 21 2 22 -16 0
20 15 21 2 22 -17 0
20 15 21 2 22 -18 0
20 15 21 2 22 -19 0
20 15 21 12 22 -51 0
20 15 21 12 22 -49 0
20 15 21 12 22 -52 0
20 15 21 12 22 -50 0
20 15 21 29 22 -70 0
20 15 21 29 22 -69 0
20 15 21 29 22 -67 0
20 15 21 29 22 -68 0
20 15 21 22 35 -73 0
20 15 21 22 35 -71 0
20 15 21 22 35 -74 0
20 15 21 22 35 -72 0
20 15 21 22 40 -75 0
20 15 21 22 40 -78 0
20 15 21 22 40 -77 0
20 15 21 22 40 -76 0
31 46 37 34 35 -93 0
31 46 37 34 35 -92 0
31 46 37 34 35 -94 0
31 46 37 34 35 -91 0
31 46 41 43 40 -93 0
31 46 41 43 40 -92 0
31 46 41 43 40 -94 0
31 46 41 43 40 -91 0
31 5 37 34 35 -38 0
31 5 37 34 35 -33 0
31 5 37 34 35 -32 0
31 5 37 34 35 -36 0
31 8 37 34 35 -59 0
31 8 37 34 35 -57 0
31 8 37 34 35 -60 0
31 8 37 34 35 -58 0
31 26 37 34 35 -82 0
31 26 37 34 35 -81 0
31 26 37 34 35 -84 0
31 26 37 34 35 -83 0
31 15 37 34 35 -73 0
31 15 37 34 35 -71 0
31 15 37 34 35 -74 0
31 15 37 34 35 -72 0
31 37 41 34 35 -93 0
31 37 41 34 35 -92 0
31 37 41 34 35 -94 0
31 37 41 34 35 -91 0
31 37 3 34 35 -38 0
31 37 3 34 35 -33 0
31 37 3 34 35 -32 0
31 37 3 34 35 -36 0
31 37 9 34 35 -59 0
31 37 9 34 35 -57 0
31 37 9 34 35 -60 0
31 37 9 34 35 -58 0
31 37 27 34 35 -82 0
31 37 27 34 35 -81 0
31 37 27 34 35 -84 0
31 37 27 34 35 -83 0
31 37 21 34 35 -73 0
31 37 21 34 35 -71 0
31 37 21 34 35 -74 0
31 37 21 34 35 -72 0
31 37 34 43 35 -93 0
31 37 34 43 35 -92 0
31 37 34 43 35 -94 0
31 37 34 43 35 -91 0
31 37 34 2 35 -38 0
31 37 34 2 35 -33 0
31 37 34 2 35 -32 0
31 37 34 2 35 -36 0
31 37 34 12 35 -59 0
31 37 34 12 35 -57 0
31 37 34 12 35 -60 0
31 37 34 12 35 -58 0
31 37 34 29 35 -82 0
31 37 34 29 35 -81 0
31 37 34 29 35 -84 0
31 37 34 29 35 -83 0
31 37 34 22 35 -73 0
31 37 34 22 35 -71 0
31 37 34 22 35 -74 0
31 37 34 22 35 -72 0
31 37 34 35 40 -93 0
31 37 34 35 40 -92 0
31 37 34 35 40 -94 0
31 37 34 35 40 -91 0
46 5 41 43 40 -39 0
46 5 41 43 40 -45 0
46 5 41 43 40 -44 0
46 5 41 43 40 -42 0
46 8 41 43 40 -62 0
46 8 41 43 40 -61 0
46 8 41 43 40 -63 0
46 8 41 43 40 -64 0
46 26 41 43 40 -88 0
46 26 41 43 40 -87 0
46 26 41 43 40 -86 0
46 26 41 43 40 -85 0
46 15 41 43 40 -75 0
46 15 41 43 40 -78 0
46 15 41 43 40 -77 0
46 15 41 43 40 -76 0
46 37 41 43 40 -93 0
46 37 41 43 40 -92 0
46 37 41 43 40 -94 0
46 37 41 43 40 -91 0
46 41 3 43 40 -39 0
46 41 3 43 40 -45 0
46 41 3 43 40 -44 0
46 41 3 43 40 -42 0
46 41 9 43 40 -62 0
46 41 9 43 40 -61 0
46 41 9 43 40 -63 0
46 41 9 43 40 -64 0
46 41 27 43 40 -88 0
46 41 27 43 40 -87 0
46 41 27 43 40 -86 0
46 41 27 43 40 -85 0
46 41 21 43 40 -75 0
46 41 21 43 40 -78 0
46 41 21 43 40 -77 0
46 41 21 43 40 -76 0
46 41 34 43 40 -93 0
46 41 34 43 40 -92 0
46 41 34 43 40 -94 0
46 41 34 43 40 -91 0
46 41 43 2 40 -39 0
46 41 43 2 40 -45 0
46 41 43 2 40 -44 0
46 41 43 2 40 -42 0
46 41 43 12 40 -62 0
46 41 43 12 40 -61 0
46 41 43 12 40 -63 0
46 41 43 12 40 -64 0
46 41 43 29 40 -88 0
46 41 43 29 40 -87 0
46 41 43 29 40 -86 0
46 41 43 29 40 -85 0
46 41 43 22 40 -75 0
46 41 43 22 40 -78 0
46 41 43 22 40 -77 0
46 41 43 22 40 -76 0
46 41 43 35 40 -93 0
46 41 43 35 40 -92 0
46 41 43 35 40 -94 0
46 41 43 35 40 -91 0
6 11 5 8 3 9 -7 0
6 11 5 8 3 9 -13 0
6 11 5 8 3 9 -14 0
6 11 5 8 3 9 -10 0
6 11 5 8 3 2 -7 0
6 11 5 8 3 2 -13 0
6 11 5 8 3 2 -14 0
6 11 5 8 3 2 -10 0
6 11 5 8 9 12 -7 0
6 11 5 8 9 12 -13 0
6 11 5 8 9 12 -14 0
6 11 5 8 9 12 -10 0
6 11 5 8 2 12 -7 0
6 11 5 8 2 12 -13 0
6 11 5 8 2 12 -14 0
6 11 5 8 2 12 -10 0
6 11 5 3 9 2 -7 0
6 11 5 3 9 2 -13 0
6 11 5 3 9 2 -14 0
6 11 5 3 9 2 -10 0
6 11 5 3 2 12 -7 0
6 11 5 3 2 12 -13 0
6 11 5 3 2 12 -14 0
6 11 5 3 2 12 -10 0
6 11 8 3 9 12 -7 0
6 11 8 3 9 12 -13 0
6 11 8 3 9 12 -14 0
6 11 8 3 9 12 -10 0
6 11 8 9 2 12 -7 0
6 11 8 9 2 12 -13 0
6 11 8 9 2 12 -14 0
6 11 8 9 2 12 -10 0
6 11 3 9 2 12 -7 0
6 11 3 9 2 12 -13 0
6 11 3 9 2 12 -14 0
6 11 3 9 2 12 -10 0
6 28 5 26 3 27 -24 0
6 28 5 26 3 27 -23 0
6 28 5 26 3 27 -25 0
6 28 5 26 3 27 -30 0
6 28 5 26 3 2 -24 0
6 28 5 26 3 2 -23 0
6 28 5 26 3 2 -25 0
6 28 5 26 3 2 -30 0
6 28 5 26 27 29 -24 0
6 28 5 26 27 29 -23 0
6 28 5 26 27 29 -25 0
6 28 5 26 27 29 -30 0
6 28 5 26 2 29 -24 0
6 28 5 26 2 29 -23 0
6 28 5 26 2 29 -25 0
6 28 5 26 2 29 -30 0
6 28 5 3 27 2 -24 0
6 28 5 3 27 2 -23 0
6 28 5 3 27 2 -25 0
6 28 5 3 27 2 -30 0
6 28 5 3 2 29 -24 0
6 28 5 3 2 29 -23 0
6 28 5 3 2 29 -25 0
6 28 5 3 2 29 -30 0
6 28 26 3 27 29 -24 0
6 28 26 3 27 29 -23 0
6 28 26 3 27 29 -25 0
6 28 26 3 27 29 -30 0
6 28 26 27 2 29 -24 0
6 28 26 27 2 29 -23 0
6 28 26 27 2 29 -25 0
6 28 26 27 2 29 -30 0
6 28 3 27 2 29 -24 0
6 28 3 27 2 29 -23 0
6 28 3 27 2 29 -25 0
6 28 3 27 2 29 -30 0
6 20 5 15 3 21 -16 0
6 20 5 15 3 21 -17 0
6 20 5 15 3 21 -18 0
6 20 5 15 3 21 -19 0
6 20 5 15 3 2 -16 0
6 20 5 15 3 2 -17 0
6 20 5 15 3 2 -18 0
6 20 5 15 3 2 -19 0
6 20 5 15 21 22 -16 0
6 20 5 15 21 22 -17 0
6 20 5 15 21 22 -18 0
6 20 5 15 21 22 -19 0
6 20 5 15 2 22 -16 0
6 20 5 15 2 22 -17 0
6 20 5 15 2 22 -18 0
6 20 5 15 2 22 -19 0
6 20 5 3 21 2 -16 0
6 20 5 3 21 2 -17 0
6 20 5 3 21 2 -18 0
6 20 5 3 21 2 -19 0
6 20 5 3 2 22 -16 0
6 20 5 3 2 22 -17 0
6 20 5 3 2 22 -18 0
6 20 5 3 2 22 -19 0
6 20 15 3 21 22 -16 0
6 20 15 3 21 22 -17 0
6 20 15 3 21 22 -18 0
6 20 15 3 21 22 -19 0
6 20 15 21 2 22 -16 0
6 20 15 21 2 22 -17 0
6 20 15 21 2 22 -18 0
6 20 15 21 2 22 -19 0
6 20 3 21 2 22 -16 0
6 20 3 21 2 22 -17 0
6 20 3 21 2 22 -18 0
6 20 3 21 2 22 -19 0
6 31 5 37 3 34 -38 0
6 31 5 37 3 34 -33 0
6 31 5 37 3 34 -32 0
6 31 5 37 3 34 -36 0
6 31 5 37 3 2 -38 0
6 31 5 37 3 2 -33 0
6 31 5 37 3 2 -32 0
6 31 5 37 3 2 -36 0
6 31 5 37 34 35 -38 0
6 31 5 37 34 35 -33 0
6 31 5 37 34 35 -32 0
6 31 5 37 34 35 -36 0
6 31 5 37 2 35 -38 0
6 31 5 37 2 35 -33 0
6 31 5 37 2 35 -32 0
6 31 5 37 2 35 -36 0
6 31 5 3 34 2 -38 0
6 31 5 3 34 2 -33 0
6 31 5 3 34 2 -32 0
6 31 5 3 34 2 -36 0
6 31 5 3 2 35 -38 0
6 31 5 3 2 35 -33 0
6 31 5 3 2 35 -32 0
6 31 5 3 2 35 -36 0
6 31 37 3 34 35 -38 0
6 31 37 3 34 35 -33 0
6 31 37 3 34 35 -32 0
6 31 37 3 34 35 -36 0
6 31 37 34 2 35 -38 0
6 31 37 34 2 35 -33 0
6 31 37 34 2 35 -32 0
6 31 37 34 2 35 -36 0
6 31 3 34 2 35 -38 0
6 31 3 34 2 35 -33 0
6 31 3 34 2 35 -32 0
6 31 3 34 2 35 -36 0
6 46 5 41 3 43 -39 0
6 46 5 41 3 43 -45 0
6 46 5 41 3 43 -44 0
6 46 5 41 3 43 -42 0
6 46 5 41 3 2 -39 0
6 46 5 41 3 2 -45 0
6 46 5 41 3 2 -44 0
6 46 5 41 3 2 -42 0
6 46 5 41 43 40 -39 0
6 46 5 41 43 40 -45 0
6 46 5 41 43 40 -44 0
6 46 5 41 43 40 -42 0
6 46 5 41 2 40 -39 0
6 46 5 41 2 40 -45 0
6 46 5 41 2 40 -44 0
6 46 5 41 2 40 -42 0
6 46 5 3 43 2 -39 0
6 46 5 3 43 2 -45 0
6 46 5 3 43 2 -44 0
6 46 5 3 43 2 -42 0
6 46 5 3 2 40 -39 0
6 46 5 3 2 40 -45 0
6 46 5 3 2 40 -44 0
6 46 5 3 2 40 -42 0
6 46 41 3 43 40 -39 0
6 46 41 3 43 40 -45 0
6 46 41 3 43 40 -44 0
6 46 41 3 43 40 -42 0
6 46 41 43 2 40 -39 0
6 46 41 43 2 40 -45 0
6 46 41 43 2 40 -44 0
6 46 41 43 2 40 -42 0
6 46 3 43 2 40 -39 0
6 46 3 43 2 40 -45 0
6 46 3 43 2 40 -44 0
6 46 3 43 2 40 -42 0
6 5 8 3 9 2 -7 0
6 5 8 3 9 2 -13 0
6 5 8 3 9 2 -14 0
6 5 8 3 9 2 -10 0
6 5 8 3 2 12 -7 0
6 5 8 3 2 12 -13 0
6 5 8 3 2 12 -14 0
6 5 8 3 2 12 -10 0
6 5 26 3 27 2 -24 0
6 5 26 3 27 2 -23 0
6 5 26 3 27 2 -25 0
6 5 26 3 27 2 -30 0
6 5 26 3 2 29 -24 0
6 5 26 3 2 29 -23 0
6 5 26 3 2 29 -25 0
6 5 26 3 2 29 -30 0
6 5 15 3 21 2 -16 0
6 5 15 3 21 2 -17 0
6 5 15 3 21 2 -18 0
6 5 15 3 21 2 -19 0
6 5 15 3 2 22 -16 0
6 5 15 3 2 22 -17 0
6 5 15 3 2 22 -18 0
6 5 15 3 2 22 -19 0
6 5 37 3 34 2 -38 0
6 5 37 3 34 2 -33 0
6 5 37 3 34 2 -32 0
6 5 37 3 34 2 -36 0
6 5 37 3 2 35 -38 0
6 5 37 3 2 35 -33 0
6 5 37 3 2 35 -32 0
6 5 37 3 2 35 -36 0
6 5 41 3 43 2 -39 0
6 5 41 3 43 2 -45 0
6 5 41 3 43 2 -44 0
6 5 41 3 43 2 -42 0
6 5 41 3 2 40 -39 0
6 5 41 3 2 40 -45 0
6 5 41 3 2 40 -44 0
6 5 41 3 2 40 -42 0
6 5 3 9 2 12 -7 0
6 5 3 9 2 12 -13 0
6 5 3 9 2 12 -14 0
6 5 3 9 2 12 -10 0
6 5 3 27 2 29 -24 0
6 5 3 27 2 29 -23 0
6 5 3 27 2 29 -25 0
6 5 3 27 2 29 -30 0
6 5 3 21 2 22 -16 0
6 5 3 21 2 22 -17 0
6 5 3 21 2 22 -18 0
6 5 3 21 2 22 -19 0
6 5 3 34 2 35 -38 0
6 5 3 34 2 35 -33 0
6 5 3 34 2 35 -32 0
6 5 3 34 2 35 -36 0
6 5 3 43 2 40 -39 0
6 5 3 43 2 40 -45 0
6 5 3 43 2 40 -44 0
6 5 3 43 2 40 -42 0
11 28 8 26 9 27 -55 0
11 28 8 26 9 27 -54 0
11 28 8 26 9 27 -56 0
11 28 8 26 9 27 -53 0
11 28 8 26 9 12 -55 0
11 28 8 26 9 12 -54 0
11 28 8 26 9 12 -56 0
11 28 8 26 9 12 -53 0
11 28 8 26 27 29 -55 0
11 28 8 26 27 29 -54 0
11 28 8 26 27 29 -56 0
11 28 8 26 27 29 -53 0
11 28 8 26 12 29 -55 0
11 28 8 26 12 29 -54 0
11 28 8 26 12 29 -56 0
11 28 8 26 12 29 -53 0
11 28 8 9 27 12 -55 0
11 28 8 9 27 12 -54 0
11 28 8 9 27 12 -56 0
11 28 8 9 27 12 -53 0
11 28 8 9 12 29 -55 0
11 28 8 9 12 29 -54 0
11 28 8 9 12 29 -56 0
11 28 8 9 12 29 -53 0
11 28 26 9 27 29 -55 0
11 28 26 9 27 29 -54 0
11 28 26 9 27 29 -56 0
11 28 26 9 27 29 -53 0
11 28 26 27 12 29 -55 0
11 28 26 27 12 29 -54 0
11 28 26 27 12 29 -56 0
11 28 26 27 12 29 -53 0
11 28 9 27 12 29 -55 0
11 28 9 27 12 29 -54 0
11 28 9 27 12 29 -56 0
11 28 9 27 12 29 -53 0
11 20 8 15 9 21 -51 0
11 20 8 15 9 21 -49 0
11 20 8 15 9 21 -52 0
11 20 8 15 9 21 -50 0
11 20 8 15 9 12 -51 0
11 20 8 15 9 12 -49 0
11 20 8 15 9 12 -52 0
11 20 8 15 9 12 -50 0
11 20 8 15 21 22 -51 0
11 20 8 15 21 22 -49 0
11 20 8 15 21 22 -52 0
11 20 8 15 21 22 -50 0
11 20 8 15 12 22 -51 0
11 20 8 15 12 22 -49 0
11 20 8 15 12 22 -52 0
11 20 8 15 12 22 -50 0
11 20 8 9 21 12 -51 0
11 20 8 9 21 12 -49 0
11 20 8 9 21 12 -52 0
11 20 8 9 21 12 -50 0
11 20 8 9 12 22 -51 0
11 20 8 9 12 22 -49 0
11 20 8 9 12 22 -52 0
11 20 8 9 12 22 -50 0
11 20 15 9 21 22 -51 0
11 20 15 9 21 22 -49 0
11 20 15 9 21 22 -52 0
11 20 15 9 21 22 -50 0
11 20 15 21 12 22 -51 0
11 20 15 21 12 22 -49 0
11 20 15 21 12 22 -52 0
11 20 15 21 12 22 -50 0
11 20 9 21 12 22 -51 0
11 20 9 21 12 22 -49 0
11 20 9 21 12 22 -52 0
11 20 9 21 12 22 -50 0
11 31 8 37 9 34 -59 0
11 31 8 37 9 34 -57 0
11 31 8 37 9 34 -60 0
11 31 8 37 9 34 -58 0
11 31 8 37 9 12 -59 0
11 31 8 37 9 12 -57 0
11 31 8 37 9 12 -60 0
11 31 8 37 9 12 -58 0
11 31 8 37 34 35 -59 0
11 31 8 37 34 35 -57 0
11 31 8 37 34 35 -60 0
11 31 8 37 34 35 -58 0
11 31 8 37 12 35 -59 0
11 31 8 37 12 35 -57 0
11 31 8 37 12 35 -60 0
11 31 8 37 12 35 -58 0
11 31 8 9 34 12 -59 0
11 31 8 9 34 12 -57 0
11 31 8 9 34 12 -60 0
11 31 8 9 34 12 -58 0
11 31 8 9 12 35 -59 0
11 31 8 9 12 35 -57 0
11 31 8 9 12 35 -60 0
11 31 8 9 12 35 -58 0
11 31 37 9 34 35 -59 0
11 31 37 9 34 35 -57 0
11 31 37 9 34 35 -60 0
11 31 37 9 34 35 -58 0
11 31 37 34 12 35 -59 0
11 31 37 34 12 35 -57 0
11 31 37 34 12 35 -60 0
11 31 37 34 12 35 -58 0
11 31 9 34 12 35 -59 0
11 31 9 34 12 35 -57 0
11 31 9 34 12 35 -60 0
11 31 9 34 12 35 -58 0
11 46 8 41 9 43 -62 0
11 46 8 41 9 43 -61 0
11 46 8 41 9 43 -63 0
11 46 8 41 9 43 -64 0
11 46 8 41 9 12 -62 0
11 46 8 41 9 12 -61 0
11 46 8 41 9 12 -63 0
11 46 8 41 9 12 -64 0
11 46 8 41 43 40 -62 0
11 46 8 41 43 40 -61 0
11 46 8 41 43 40 -63 0
11 46 8 41 43 40 -64 0
11 46 8 41 12 40 -62 0
11 46 8 41 12 40 -61 0
11 46 8 41 12 40 -63 0
11 46 8 41 12 40 -64 0
11 46 8 9 43 12 -62 0
11 46 8 9 43 12 -61 0
11 46 8 9 43 12 -63 0
11 46 8 9 43 12 -64 0
11 46 8 9 12 40 -62 0
11 46 8 9 12 40 -61 0
11 46 8 9 12 40 -63 0
11 46 8 9 12 40 -64 0
11 46 41 9 43 40 -62 0
11 46 41 9 43 40 -61 0
11 46 41 9 43 40 -63 0
11 46 41 9 43 40 -64 0
11 46 41 43 12 40 -62 0
11 46 41 43 12 40 -61 0
11 46 41 43 12 40 -63 0
11 46 41 43 12 40 -64 0
11 46 9 43 12 40 -62 0
11 46 9 43 12 40 -61 0
11 46 9 43 12 40 -63 0
11 46 9 43 12 40 -64 0
11 5 8 3 9 12 -7 0
11 5 8 3 9 12 -13 0
11 5 8 3 9 12 -14 0
11 5 8 3 9 12 -10 0
11 5 8 9 2 12 -7 0
11 5 8 9 2 12 -13 0
11 5 8 9 2 12 -14 0
11 5 8 9 2 12 -10 0
11 8 26 9 27 12 -55 0
11 8 26 9 27 12 -54 0
11 8 26 9 27 12 -56 0
11 8 26 9 27 12 -53 0
11 8 26 9 12 29 -55 0
11 8 26 9 12 29 -54 0
11 8 26 9 12 29 -56 0
11 8 26 9 12 29 -53 0
11 8 15 9 21 12 -51 0
11 8 15 9 21 12 -49 0
11 8 15 9 21 12 -52 0
11 8 15 9 21 12 -50 0
11 8 15 9 12 22 -51 0
11 8 15 9 12 22 -49 0
11 8 15 9 12 22 -52 0
11 8 15 9 12 22 -50 0
11 8 37 9 34 12 -59 0
11 8 37 9 34 12 -57 0
11 8 37 9 34 12 -60 0
11 8 37 9 34 12 -58 0
11 8 37 9 12 35 -59 0
11 8 37 9 12 35 -57 0
11 8 37 9 12 35 -60 0
11 8 37 9 12 35 -58 0
11 8 41 9 43 12 -62 0
11 8 41 9 43 12 -61 0
11 8 41 9 43 12 -63 0
11 8 41 9 43 12 -64 0
11 8 41 9 12 40 -62 0
11 8 41 9 12 40 -61 0
11 8 41 9 12 40 -63 0
11 8 41 9 12 40 -64 0
11 8 3 9 2 12 -7 0
11 8 3 9 2 12 -13 0
11 8 3 9 2 12 -14 0
11 8 3 9 2 12 -10 0
11 8 9 27 12 29 -55 0
11 8 9 27 12 29 -54 0
11 8 9 27 12 29 -56 0
11 8 9 27 12 29 -53 0
11 8 9 21 12 22 -51 0
11 8 9 21 12 22 -49 0
11 8 9 21 12 22 -52 0
11 8 9 21 12 22 -50 0
11 8 9 34 12 35 -59 0
11 8 9 34 12 35 -57 0
11 8 9 34 12 35 -60 0
11 8 9 34 12 35 -58 0
11 8 9 43 12 40 -62 0
11 8 9 43 12 40 -61 0
11 8 9 43 12 40 -63 0
11 8 9 43 12 40 -64 0
28 20 26 15 27 21 -70 0
28 20 26 15 27 21 -69 0
28 20 26 15 27 21 -67 0
28 20 26 15 27 21 -68 0
28 20 26 15 27 29 -70 0
28 20 26 15 27 29 -69 0
28 20 26 15 27 29 -67 0
28 20 26 15 27 29 -68 0
28 20 26 15 21 22 -70 0
28 20 26 15 21 22 -69 0
28 20 26 15 21 22 -67 0
28 20 26 15 21 22 -68 0
28 20 26 15 29 22 -70 0
28 20 26 15 29 22 -69 0
28 20 26 15 29 22 -67 0
28 20 26 15 29 22 -68 0
28 20 26 27 21 29 -70 0
28 20 26 27 21 29 -69 0
28 20 26 27 21 29 -67 0
28 20 26 27 21 29 -68 0
28 20 26 27 29 22 -70 0
28 20 26 27 29 22 -69 0
28 20 26 27 29 22 -67 0
28 20 26 27 29 22 -68 0
28 20 15 27 21 22 -70 0
28 20 15 27 21 22 -69 0
28 20 15 27 21 22 -67 0
28 20 15 27 21 22 -68 0
28 20 15 21 29 22 -70 0
28 20 15 21 29 22 -69 0
28 20 15 21 29 22 -67 0
28 20 15 21 29 22 -68 0
28 20 27 21 29 22 -70 0
28 20 27 21 29 22 -69 0
28 20 27 21 29 22 -67 0
28 20 27 21 29 22 -68 0
28 31 26 37 27 34 -82 0
28 31 26 37 27 34 -81 0
28 31 26 37 27 34 -84 0
28 31 26 37 27 34 -83 0
28 31 26 37 27 29 -82 0
28 31 26 37 27 29 -81 0
28 31 26 37 27 29 -84 0
28 31 26 37 27 29 -83 0
28 31 26 37 34 35 -82 0
28 31 26 37 34 35 -81 0
28 31 26 37 34 35 -84 0
28 31 26 37 34 35 -83 0
28 31 26 37 29 35 -82 0
28 31 26 37 29 35 -81 0
28 31 26 37 29 35 -84 0
28 31 26 37 29 35 -83 0
28 31 26 27 34 29 -82 0
28 31 26 27 34 29 -81 0
28 31 26 27 34 29 -84 0
28 31 26 27 34 29 -83 0
28 31 26 27 29 35 -82 0
28 31 26 27 29 35 -81 0
28 31 26 27 29 35 -84 0
28 31 26 27 29 35 -83 0
28 31 37 27 34 35 -82 0
28 31 37 27 34 35 -81 0
28 31 37 27 34 35 -84 0
28 31 37 27 34 35 -83 0
28 31 37 34 29 35 -82 0
28 31 37 34 29 35 -81 0
28 31 37 34 29 35 -84 0
28 31 37 34 29 35 -83 0
28 31 27 34 29 35 -82 0
28 31 27 34 29 35 -81 0
28 31 27 34 29 35 -84 0
28 31 27 34 29 35 -83 0
28 46 26 41 27 43 -88 0
28 46 26 41 27 43 -87 0
28 46 26 41 27 43 -86 0
28 46 26 41 27 43 -85 0
28 46 26 41 27 29 -88 0
28 46 26 41 27 29 -87 0
28 46 26 41 27 29 -86 0
28 46 26 41 27 29 -85 0
28 46 26 41 43 40 -88 0
28 46 26 41 43 40 -87 0
28 46 26 41 43 40 -86 0
28 46 26 41 43 40 -85 0
28 46 26 41 29 40 -88 0
28 46 26 41 29 40 -87 0
28 46 26 41 29 40 -86 0
28 46 26 41 29 40 -85 0
28 46 26 27 43 29 -88 0
28 46 26 27 43 29 -87 0
28 46 26 27 43 29 -86 0
28 46 26 27 43 29 -85 0
28 46 26 27 29 40 -88 0
28 46 26 27 29 40 -87 0
28 46 26 27 29 40 -86 0
28 46 26 27 29 40 -85 0
28 46 41 27 43 40 -88 0
28 46 41 27 43 40 -87 0
28 46 41 27 43 40 -86 0
28 46 41 27 43 40 -85 0
28 46 41 43 29 40 -88 0
28 46 41 43 29 40 -87 0
28 46 41 43 29 40 -86 0
28 46 41 43 29 40 -85 0
28 46 27 43 29 40 -88 0
28 46 27 43 29 40 -87 0
28 46 27 43 29 40 -86 0
28 46 27 43 29 40 -85 0
28 5 26 3 27 29 -24 0
28 5 26 3 27 29 -23 0
28 5 26 3 27 29 -25 0
28 5 26 3 27 29 -30 0
28 5 26 27 2 29 -24 0
28 5 26 27 2 29 -23 0
28 5 26 27 2 29 -25 0
28 5 26 27 2 29 -30 0
28 8 26 9 27 29 -55 0
28 8 26 9 27 29 -54 0
28 8 26 9 27 29 -56 0
28 8 26 9 27 29 -53 0
28 8 26 27 12 29 -55 0
28 8 26 27 12 29 -54 0
28 8 26 27 12 29 -56 0
28 8 26 27 12 29 -53 0
28 26 15 27 21 29 -70 0
28 26 15 27 21 29 -69 0
28 26 15 27 21 29 -67 0
28 26 15 27 21 29 -68 0
28 26 15 27 29 22 -70 0
28 26 15 27 29 22 -69 0
28 26 15 27 29 22 -67 0
28 26 15 27 29 22 -68 0
28 26 37 27 34 29 -82 0
28 26 37 27 34 29 -81 0
28 26 37 27 34 29 -84 0
28 26 37 27 34 29 -83 0
28 26 37 27 29 35 -82 0
28 26 37 27 29 35 -81 0
28 26 37 27 29 35 -84 0
28 26 37 27 29 35 -83 0
28 26 41 27 43 29 -88 0
28 26 41 27 43 29 -87 0
28 26 41 27 43 29 -86 0
28 26 41 27 43 29 -85 0
28 26 41 27 29 40 -88 0
28 26 41 27 29 40 -87 0
28 26 41 27 29 40 -86 0
28 26 41 27 29 40 -85 0
28 26 3 27 2 29 -24 0
28 26 3 27 2 29 -23 0
28 26 3 27 2 29 -25 0
28 26 3 27 2 29 -30 0
28 26 9 27 12 29 -55 0
28 26 9 27 12 29 -54 0
28 26 9 27 12 29 -56 0
28 26 9 27 12 29 -53 0
28 26 27 21 29 22 -70 0
28 26 27 21 29 22 -69 0
28 26 27 21 29 22 -67 0
28 26 27 21 29 22 -68 0
28 26 27 34 29 35 -82 0
28 26 27 34 29 35 -81 0
28 26 27 34 29 35 -84 0
28 26 27 34 29 35 -83 0
28 26 27 43 29 40 -88 0
28 26 27 43 29 40 -87 0
28 26 27 43 29 40 -86 0
28 26 27 43 29 40 -85 0
20 31 15 37 21 34 -73 0
20 31 15 37 21 34 -71 0
20 31 15 37 21 34 -74 0
20 31 15 37 21 34 -72 0
20 31 15 37 21 22 -73 0
20 31 15 37 21 22 -71 0
20 31 15 37 21 22 -74 0
20 31 15 37 21 22 -72 0
20 31 15 37 34 35 -73 0
20 31 15 37 34 35 -71 0
20 31 15 37 34 35 -74 0
20 31 15 37 34 35 -72 0
20 31 15 37 22 35 -73 0
20 31 15 37 22 35 -71 0
20 31 15 37 22 35 -74 0
20 31 15 37 22 35 -72 0
20 31 15 21 34 22 -73 0
20 31 15 21 34 22 -71 0
20 31 15 21 34 22 -74 0
20 31 15 21 34 22 -72 0
20 31 15 21 22 35 -73 0
20 31 15 21 22 35 -71 0
20 31 15 21 22 35 -74 0
20 31 15 21 22 35 -72 0
20 31 37 21 34 35 -73 0
20 31 37 21 34 35 -71 0
20 31 37 21 34 35 -74 0
20 31 37 21 34 35 -72 0
20 31 37 34 22 35 -73 0
20 31 37 34 22 35 -71 0
20 31 37 34 22 35 -74 0
20 31 37 34 22 35 -72 0
20 31 21 34 22 35 -73 0
20 31 21 34 22 35 -71 0
20 31 21 34 22 35 -74 0
20 31 21 34 22 35 -72 0
20 46 15 41 21 43 -75 0
20 46 15 41 21 43 -78 0
20 46 15 41 21 43 -77 0
20 46 15 41 21 43 -76 0
20 46 15 41 21 22 -75 0
20 46 15 41 21 22 -78 0
20 46 15 41 21 22 -77 0
20 46 15 41 21 22 -76 0
20 46 15 41 43 40 -75 0
20 46 15 41 43 40 -78 0
20 46 15 41 43 40 -77 0
20 46 15 41 43 40 -76 0
20 46 15 41 22 40 -75 0
20 46 15 41 22 40 -78 0
20 46 15 41 22 40 -77 0
20 46 15 41 22 40 -76 0
20 46 15 21 43 22 -75 0
20 46 15 21 43 22 -78 0
20 46 15 21 43 22 -77 0
20 46 15 21 43 22 -76 0
20 46 15 21 22 40 -75 0
20 46 15 21 22 40 -78 0
20 46 15 21 22 40 -77 0
20 46 15 21 22 40 -76 0
20 46 41 21 43 40 -75 0
20 46 41 21 43 40 -78 0
20 46 41 21 43 40 -77 0
20 46 41 21 43 40 -76 0
20 46 41 43 22 40 -75 0
20 46 41 43 22 40 -78 0
20 46 41 43 22 40 -77 0
20 46 41 43 22 40 -76 0
20 46 21 43 22 40 -75 0
20 46 21 43 22 40 -78 0
20 46 21 43 22 40 -77 0
20 46 21 43 22 40 -76 0
20 5 15 3 21 22 -16 0
20 5 15 3 21 22 -17 0
20 5 15 3 21 22 -18 0
20 5 15 3 21 22 -19 0
20 5 15 21 2 22 -16 0
20 5 15 21 2 22 -17 0
20 5 15 21 2 22 -18 0
20 5 15 21 2 22 -19 0
20 8 15 9 21 22 -51 0
20 8 15 9 21 22 -49 0
20 8 15 9 21 22 -52 0
20 8 15 9 21 22 -50 0
20 8 15 21 12 22 -51 0
20 8 15 21 12 22 -49 0
20 8 15 21 12 22 -52 0
20 8 15 21 12 22 -50 0
20 26 15 27 21 22 -70 0
20 26 15 27 21 22 -69 0
20 26 15 27 21 22 -67 0
20 26 15 27 21 22 -68 0
20 26 15 21 29 22 -70 0
20 26 15 21 29 22 -69 0
20 26 15 21 29 22 -67 0
20 26 15 21 29 22 -68 0
20 15 37 21 34 22 -73 0
20 15 37 21 34 22 -71 0
20 15 37 21 34 22 -74 0
20 15 37 21 34 22 -72 0
20 15 37 21 22 35 -73 0
20 15 37 21 22 35 -71 0
20 15 37 21 22 35 -74 0
20 15 37 21 22 35 -72 0
20 15 41 21 43 22 -75 0
20 15 41 21 43 22 -78 0
20 15 41 21 43 22 -77 0
20 15 41 21 43 22 -76 0
20 15 41 21 22 40 -75 0
20 15 41 21 22 40 -78 0
20 15 41 21 22 40 -77 0
20 15 41 21 22 40 -76 0
20 15 3 21 2 22 -16 0
20 15 3 21 2 22 -17 0
20 15 3 21 2 22 -18 0
20 15 3 21 2 22 -19 0
20 15 9 21 12 22 -51 0
20 15 9 21 12 22 -49 0
20 15 9 21 12 22 -52 0
20 15 9 21 12 22 -50 0
20 15 27 21 29 22 -70 0
20 15 27 21 29 22 -69 0
20 15 27 21 29 22 -67 0
20 15 27 21 29 22 -68 0
20 15 21 34 22 35 -73 0
20 15 21 34 22 35 -71 0
20 15 21 34 22 35 -74 0
20 15 21 34 22 35 -72 0
20 15 21 43 22 40 -75 0
20 15 21 43 22 40 -78 0
20 15 21 43 22 40 -77 0
20 15 21 43 22 40 -76 0
31 46 37 41 34 43 -93 0
31 46 37 41 34 43 -92 0
31 46 37 41 34 43 -94 0
31 46 37 41 34 43 -91 0
31 46 37 41 34 35 -93 0
31 46 37 41 34 35 -92 0
31 46 37 41 34 35 -94 0
31 46 37 41 34 35 -91 0
31 46 37 41 43 40 -93 0
31 46 37 41 43 40 -92 0
31 46 37 41 43 40 -94 0
31 46 37 41 43 40 -91 0
31 46 37 41 35 40 -93 0
31 46 37 41 35 40 -92 0
31 46 37 41 35 40 -94 0
31 46 37 41 35 40 -91 0
31 46 37 34 43 35 -93 0
31 46 37 34 43 35 -92 0
31 46 37 34 43 35 -94 0
31 46 37 34 43 35 -91 0
31 46 37 34 35 40 -93 0
31 46 37 34 35 40 -92 0
31 46 37 34 35 40 -94 0
31 46 37 34 35 40 -91 0
31 46 41 34 43 40 -93 0
31 46 41 34 43 40 -92 0
31 46 41 34 43 40 -94 0
31 46 41 34 43 40 -91 0
31 46 41 43 35 40 -93 0
31 46 41 43 35 40 -92 0
31 46 41 43 35 40 -94 0
31 46 41 43 35 40 -91 0
31 46 34 43 35 40 -93 0
31 46 34 43 35 40 -92 0
31 46 34 43 35 40 -94 0
31 46 34 43 35 40 -91 0
31 5 37 3 34 35 -38 0
31 5 37 3 34 35 -33 0
31 5 37 3 34 35 -32 0
31 5 37 3 34 35 -36 0
31 5 37 34 2 35 -38 0
31 5 37 34 2 35 -33 0
31 5 37 34 2 35 -32 0
31 5 37 34 2 35 -36 0
31 8 37 9 34 35 -59 0
31 8 37 9 34 35 -57 0
31 8 37 9 34 35 -60 0
31 8 37 9 34 35 -58 0
31 8 37 34 12 35 -59 0
31 8 37 34 12 35 -57 0
31 8 37 34 12 35 -60 0
31 8 37 34 12 35 -58 0
31 26 37 27 34 35 -82 0
31 26 37 27 34 35 -81 0
31 26 37 27 34 35 -84 0
31 26 37 27 34 35 -83 0
31 26 37 34 29 35 -82 0
31 26 37 34 29 35 -81 0
31 26 37 34 29 35 -84 0
31 26 37 34 29 35 -83 0
31 15 37 21 34 35 -73 0
31 15 37 21 34 35 -71 0
31 15 37 21 34 35 -74 0
31 15 37 21 34 35 -72 0
31 15 37 34 22 35 -73 0
31 15 37 34 22 35 -71 0
31 15 37 34 22 35 -74 0
31 15 37 34 22 35 -72 0
31 37 41 34 43 35 -93 0
31 37 41 34 43 35 -92 0
31 37 41 34 43 35 -94 0
31 37 41 34 43 35 -91 0
31 37 41 34 35 40 -93 0
31 37 41 34 35 40 -92 0
31 37 41 34 35 40 -94 0
31 37 41 34 35 40 -91 0
31 37 3 34 2 35 -38 0
31 37 3 34 2 35 -33 0
31 37 3 34 2 35 -32 0
31 37 3 34 2 35 -36 0
31 37 9 34 12 35 -59 0
31 37 9 34 12 35 -57 0
31 37 9 34 12 35 -60 0
31 37 9 34 12 35 -58 0
31 37 27 34 29 35 -82 0
31 37 27 34 29 35 -81 0
31 37 27 34 29 35 -84 0
31 37 27 34 29 35 -83 0
31 37 21 34 22 35 -73 0
31 37 21 34 22 35 -71 0
31 37 21 34 22 35 -74 0
31 37 21 34 22 35 -72 0
31 37 34 43 35 40 -93 0
31 37 34 43 35 40 -92 0
31 37 34 43 35 40 -94 0
31 37 34 43 35 40 -91 0
46 5 41 3 43 40 -39 0
46 5 41 3 43 40 -45 0
46 5 41 3 43 40 -44 0
46 5 41 3 43 40 -42 0
46 5 41 43 2 40 -39 0
46 5 41 43 2 40 -45 0
46 5 41 43 2 40 -44 0
46 5 41 43 2 40 -42 0
46 8 41 9 43 40 -62 0
46 8 41 9 43 40 -61 0
46 8 41 9 43 40 -63 0
46 8 41 9 43 40 -64 0
46 8 41 43 12 40 -62 0
46 8 41 43 12 40 -61 0
46 8 41 43 12 40 -63 0
46 8 41 43 12 40 -64 0
46 26 41 27 43 40 -88 0
46 26 41 27 43 40 -87 0
46 26 41 27 43 40 -86 0
46 26 41 27 43 40 -85 0
46 26 41 43 29 40 -88 0
46 26 41 43 29 40 -87 0
46 26 41 43 29 40 -86 0
46 26 41 43 29 40 -85 0
46 15 41 21 43 40 -75 0
46 15 41 21 43 40 -78 0
46 15 41 21 43 40 -77 0
46 15 41 21 43 40 -76 0
46 15 41 43 22 40 -75 0
46 15 41 43 22 40 -78 0
46 15 41 43 22 40 -77 0
46 15 41 43 22 40 -76 0
46 37 41 34 43 40 -93 0
46 37 41 34 43 40 -92 0
46 37 41 34 43 40 -94 0
46 37 41 34 43 40 -91 0
46 37 41 43 35 40 -93 0
46 37 41 43 35 40 -92 0
46 37 41 43 35 40 -94 0
46 37 41 43 35 40 -91 0
46 41 3 43 2 40 -39 0
46 41 3 43 2 40 -45 0
46 41 3 43 2 40 -44 0
46 41 3 43 2 40 -42 0
46 41 9 43 12 40 -62 0
46 41 9 43 12 40 -61 0
46 41 9 43 12 40 -63 0
46 41 9 43 12 40 -64 0
46 41 27 43 29 40 -88 0
46 41 27 43 29 40 -87 0
46 41 27 43 29 40 -86 0
46 41 27 43 29 40 -85 0
46 41 21 43 22 40 -75 0
46 41 21 43 22 40 -78 0
46 41 21 43 22 40 -77 0
46 41 21 43 22 40 -76 0
46 41 34 43 35 40 -93 0
46 41 34 43 35 40 -92 0
46 41 34 43 35 40 -94 0
46 41 34 43 35 40 -91 0
5 8 3 9 2 12 -7 0
5 8 3 9 2 12 -13 0
5 8 3 9 2 12 -14 0
5 8 3 9 2 12 -10 0
5 26 3 27 2 29 -24 0
5 26 3 27 2 29 -23 0
5 26 3 27 2 29 -25 0
5 26 3 27 2 29 -30 0
5 15 3 21 2 22 -16 0
5 15 3 21 2 22 -17 0
5 15 3 21 2 22 -18 0
5 15 3 21 2 22 -19 0
5 37 3 34 2 35 -38 0
5 37 3 34 2 35 -33 0
5 37 3 34 2 35 -32 0
5 37 3 34 2 35 -36 0
5 41 3 43 2 40 -39 0
5 41 3 43 2 40 -45 0
5 41 3 43 2 40 -44 0
5 41 3 43 2 40 -42 0
8 26 9 27 12 29 -55 0
8 26 9 27 12 29 -54 0
8 26 9 27 12 29 -56 0
8 26 9 27 12 29 -53 0
8 15 9 21 12 22 -51 0
8 15 9 21 12 22 -49 0
8 15 9 21 12 22 -52 0
8 15 9 21 12 22 -50 0
8 37 9 34 12 35 -59 0
8 37 9 34 12 35 -57 0
8 37 9 34 12 35 -60 0
8 37 9 34 12 35 -58 0
8 41 9 43 12 40 -62 0
8 41 9 43 12 40 -61 0
8 41 9 43 12 40 -63 0
8 41 9 43 12 40 -64 0
26 15 27 21 29 22 -70 0
26 15 27 21 29 22 -69 0
26 15 27 21 29 22 -67 0
26 15 27 21 29 22 -68 0
26 37 27 34 29 35 -82 0
26 37 27 34 29 35 -81 0
26 37 27 34 29 35 -84 0
26 37 27 34 29 35 -83 0
26 41 27 43 29 40 -88 0
26 41 27 43 29 40 -87 0
26 41 27 43 29 40 -86 0
26 41 27 43 29 40 -85 0
15 37 21 34 22 35 -73 0
15 37 21 34 22 35 -71 0
15 37 21 34 22 35 -74 0
15 37 21 34 22 35 -72 0
15 41 21 43 22 40 -75 0
15 41 21 43 22 40 -78 0
15 41 21 43 22 40 -77 0
15 41 21 43 22 40 -76 0
37 41 34 43 35 40 -93 0
37 41 34 43 35 40 -92 0
37 41 34 43 35 40 -94 0
37 41 34 43 35 40 -91 0
6 11 5 8 3 9 2 -7 0
6 11 5 8 3 9 2 -13 0
6 11 5 8 3 9 2 -14 0
6 11 5 8 3 9 2 -10 0
6 11 5 8 3 9 12 -7 0
6 11 5 8 3 9 12 -13 0
6 11 5 8 3 9 12 -14 0
6 11 5 8 3 9 12 -10 0
6 11 5 8 3 2 12 -7 0
6 11 5 8 3 2 12 -13 0
6 11 5 8 3 2 12 -14 0
6 11 5 8 3 2 12 -10 0
6 11 5 8 9 2 12 -7 0
6 11 5 8 9 2 12 -13 0
6 11 5 8 9 2 12 -14 0
6 11 5 8 9 2 12 -10 0
6 11 5 3 9 2 12 -7 0
6 11 5 3 9 2 12 -13 0
6 11 5 3 9 2 12 -14 0
6 11 5 3 9 2 12 -10 0
6 11 8 3 9 2 12 -7 0
6 11 8 3 9 2 12 -13 0
6 11 8 3 9 2 12 -14 0
6 11 8 3 9 2 12 -10 0
6 28 5 26 3 27 2 -24 0
6 28 5 26 3 27 2 -23 0
6 28 5 26 3 27 2 -25 0
6 28 5 26 3 27 2 -30 0
6 28 5 26 3 27 29 -24 0
6 28 5 26 3 27 29 -23 0
6 28 5 26 3 27 29 -25 0
6 28 5 26 3 27 29 -30 0
6 28 5 26 3 2 29 -24 0
6 28 5 26 3 2 29 -23 0
6 28 5 26 3 2 29 -25 0
6 28 5 26 3 2 29 -30 0
6 28 5 26 27 2 29 -24 0
6 28 5 26 27 2 29 -23 0
6 28 5 26 27 2 29 -25 0
6 28 5 26 27 2 29 -30 0
6 28 5 3 27 2 29 -24 0
6 28 5 3 27 2 29 -23 0
6 28 5 3 27 2 29 -25 0
6 28 5 3 27 2 29 -30 0
6 28 26 3 27 2 29 -24 0
6 28 26 3 27 2 29 -23 0
6 28 26 3 27 2 29 -25 0
6 28 26 3 27 2 29 -30 0
6 20 5 15 3 21 2 -16 0
6 20 5 15 3 21 2 -17 0
6 20 5 15 3 21 2 -18 0
6 20 5 15 3 21 2 -19 0
6 20 5 15 3 21 22 -16 0
6 20 5 15 3 21 22 -17 0
6 20 5 15 3 21 22 -18 0
6 20 5 15 3 21 22 -19 0
6 20 5 15 3 2 22 -16 0
6 20 5 15 3 2 22 -17 0
6 20 5 15 3 2 22 -18 0
6 20 5 15 3 2 22 -19 0
6 20 5 15 21 2 22 -16 0
6 20 5 15 21 2 22 -17 0
6 20 5 15 21 2 22 -18 0
6 20 5 15 21 2 22 -19 0
6 20 5 3 21 2 22 -16 0
6 20 5 3 21 2 22 -17 0
6 20 5 3 21 2 22 -18 0
6 20 5 3 21 2 22 -19 0
6 20 15 3 21 2 22 -16 0
6 20 15 3 21 2 22 -17 0
6 20 15 3 21 2 22 -18 0
6 20 15 3 21 2 22 -19 0
6 31 5 37 3 34 2 -38 0
6 31 5 37 3 34 2 -33 0
6 31 5 37 3 34 2 -32 0
6 31 5 37 3 34 2 -36 0
6 31 5 37 3 34 35 -38 0
6 31 5 37 3 34 35 -33 0
6 31 5 37 3 34 35 -32 0
6 31 5 37 3 34 35 -36 0
6 31 5 37 3 2 35 -38 0
6 31 5 37 3 2 35 -33 0
6 31 5 37 3 2 35 -32 0
6 31 5 37 3 2 35 -36 0
6 31 5 37 34 2 35 -38 0
6 31 5 37 34 2 35 -33 0
6 31 5 37 34 2 35 -32 0
6 31 5 37 34 2 35 -36 0
6 31 5 3 34 2 35 -38 0
6 31 5 3 34 2 35 -33 0
6 31 5 3 34 2 35 -32 0
6 31 5 3 34 2 35 -36 0
6 31 37 3 34 2 35 -38 0
6 31 37 3 34 2 35 -33 0
6 31 37 3 34 2 35 -32 0
6 31 37 3 34 2 35 -36 0
6 46 5 41 3 43 2 -39 0
6 46 5 41 3 43 2 -45 0
6 46 5 41 3 43 2 -44 0
6 46 5 41 3 43 2 -42 0
6 46 5 41 3 43 40 -39 0
6 46 5 41 3 43 40 -45 0
6 46 5 41 3 43 40 -44 0
6 46 5 41 3 43 40 -42 0
6 46 5 41 3 2 40 -39 0
6 46 5 41 3 2 40 -45 0
6 46 5 41 3 2 40 -44 0
6 46 5 41 3 2 40 -42 0
6 46 5 41 43 2 40 -39 0
6 46 5 41 43 2 40 -45 0
6 46 5 41 43 2 40 -44 0
6 46 5 41 43 2 40 -42 0
6 46 5 3 43 2 40 -39 0
6 46 5 3 43 2 40 -45 0
6 46 5 3 43 2 40 -44 0
6 46 5 3 43 2 40 -42 0
6 46 41 3 43 2 40 -39 0
6 46 41 3 43 2 40 -45 0
6 46 41 3 43 2 40 -44 0
6 46 41 3 43 2 40 -42 0
6 5 8 3 9 2 12 -7 0
6 5 8 3 9 2 12 -13 0
6 5 8 3 9 2 12 -14 0
6 5 8 3 9 2 12 -10 0
6 5 26 3 27 2 29 -24 0
6 5 26 3 27 2 29 -23 0
6 5 26 3 27 2 29 -25 0
6 5 26 3 27 2 29 -30 0
6 5 15 3 21 2 22 -16 0
6 5 15 3 21 2 22 -17 0
6 5 15 3 21 2 22 -18 0
6 5 15 3 21 2 22 -19 0
6 5 37 3 34 2 35 -38 0
6 5 37 3 34 2 35 -33 0
6 5 37 3 34 2 35 -32 0
6 5 37 3 34 2 35 -36 0
6 5 41 3 43 2 40 -39 0
6 5 41 3 43 2 40 -45 0
6 5 41 3 43 2 40 -44 0
6 5 41 3 43 2 40 -42 0
11 28 8 26 9 27 12 -55 0
11 28 8 26 9 27 12 -54 0
11 28 8 26 9 27 12 -56 0
11 28 8 26 9 27 12 -53 0
11 28 8 26 9 27 29 -55 0
11 28 8 26 9 27 29 -54 0
11 28 8 26 9 27 29 -56 0
11 28 8 26 9 27 29 -53 0
11 28 8 26 9 12 29 -55 0
11 28 8 26 9 12 29 -54 0
11 28 8 26 9 12 29 -56 0
11 28 8 26 9 12 29 -53 0
11 28 8 26 27 12 29 -55 0
11 28 8 26 27 12 29 -54 0
11 28 8 26 27 12 29 -56 0
11 28 8 26 27 12 29 -53 0
11 28 8 9 27 12 29 -55 0
11 28 8 9 27 12 29 -54 0
11 28 8 9 27 12 29 -56 0
11 28 8 9 27 12 29 -53 0
11 28 26 9 27 12 29 -55 0
11 28 26 9 27 12 29 -54 0
11 28 26 9 27 12 29 -56 0
11 28 26 9 27 12 29 -53 0
11 20 8 15 9 21 12 -51 0
11 20 8 15 9 21 12 -49 0
11 20 8 15 9 21 12 -52 0
11 20 8 15 9 21 12 -50 0
11 20 8 15 9 21 22 -51 0
11 20 8 15 9 21 22 -49 0
11 20 8 15 9 21 22 -52 0
11 20 8 15 9 21 22 -50 0
11 20 8 15 9 12 22 -51 0
11 20 8 15 9 12 22 -49 0
11 20 8 15 9 12 22 -52 0
11 20 8 15 9 12 22 -50 0
11 20 8 15 21 12 22 -51 0
11 20 8 15 21 12 22 -49 0
11 20 8 15 21 12 22 -52 0
11 20 8 15 21 12 22 -50 0
11 20 8 9 21 12 22 -51 0
11 20 8 9 21 12 22 -49 0
11 20 8 9 21 12 22 -52 0
11 20 8 9 21 12 22 -50 0
11 20 15 9 21 12 22 -51 0
11 20 15 9 21 12 22 -49 0
11 20 15 9 21 12 22 -52 0
11 20 15 9 21 12 22 -50 0
11 31 8 37 9 34 12 -59 0
11 31 8 37 9 34 12 -57 0
11 31 8 37 9 34 12 -60 0
11 31 8 37 9 34 12 -58 0
11 31 8 37 9 34 35 -59 0
11 31 8 37 9 34 35 -57 0
11 31 8 37 9 34 35 -60 0
11 31 8 37 9 34 35 -58 0
11 31 8 37 9 12 35 -59 0
11 31 8 37 9 12 35 -57 0
11 31 8 37 9 12 35 -60 0
11 31 8 37 9 12 35 -58 0
11 31 8 37 34 12 35 -59 0
11 31 8 37 34 12 35 -57 0
11 31 8 37 34 12 35 -60 0
11 31 8 37 34 12 35 -58 0
11 31 8 9 34 12 35 -59 0
11 31 8 9 34 12 35 -57 0
11 31 8 9 34 12 35 -60 0
11 31 8 9 34 12 35 -58 0
11 31 37 9 34 12 35 -59 0
11 31 37 9 34 12 35 -57 0
11 31 37 9 34 12 35 -60 0
11 31 37 9 34 12 35 -58 0
11 46 8 41 9 43 12 -62 0
11 46 8 41 9 43 12 -61 0
11 46 8 41 9 43 12 -63 0
11 46 8 41 9 43 12 -64 0
11 46 8 41 9 43 40 -62 0
11 46 8 41 9 43 40 -61 0
11 46 8 41 9 43 40 -63 0
11 46 8 41 9 43 40 -64 0
11 46 8 41 9 12 40 -62 0
11 46 8 41 9 12 40 -61 0
11 46 8 41 9 12 40 -63 0
11 46 8 41 9 12 40 -64 0
11 46 8 41 43 12 40 -62 0
11 46 8 41 43 12 40 -61 0
11 46 8 41 43 12 40 -63 0
11 46 8 41 43 12 40 -64 0
11 46 8 9 43 12 40 -62 0
11 46 8 9 43 12 40 -61 0
11 46 8 9 43 12 40 -63 0
11 46 8 9 43 12 40 -64 0
11 46 41 9 43 12 40 -62 0
11 46 41 9 43 12 40 -61 0
11 46 41 9 43 12 40 -63 0
11 46 41 9 43 12 40 -64 0
11 5 8 3 9 2 12 -7 0
11 5 8 3 9 2 12 -13 0
11 5 8 3 9 2 12 -14 0
11 5 8 3 9 2 12 -10 0
11 8 26 9 27 12 29 -55 0
11 8 26 9 27 12 29 -54 0
11 8 26 9 27 12 29 -56 0
11 8 26 9 27 12 29 -53 0
11 8 15 9 21 12 22 -51 0
11 8 15 9 21 12 22 -49 0
11 8 15 9 21 12 22 -52 0
11 8 15 9 21 12 22 -50 0
11 8 37 9 34 12 35 -59 0
11 8 37 9 34 12 35 -57 0
11 8 37 9 34 12 35 -60 0
11 8 37 9 34 12 35 -58 0
11 8 41 9 43 12 40 -62 0
11 8 41 9 43 12 40 -61 0
11 8 41 9 43 12 40 -63 0
11 8 41 9 43 12 40 -64 0
28 20 26 15 27 21 29 -70 0
28 20 26 15 27 21 29 -69 0
28 20 26 15 27 21 29 -67 0
28 20 26 15 27 21 29 -68 0
28 20 26 15 27 21 22 -70 0
28 20 26 15 27 21 22 -69 0
28 20 26 15 27 21 22 -67 0
28 20 26 15 27 21 22 -68 0
28 20 26 15 27 29 22 -70 0
28 20 26 15 27 29 22 -69 0
28 20 26 15 27 29 22 -67 0
28 20 26 15 27 29 22 -68 0
28 20 26 15 21 29 22 -70 0
28 20 26 15 21 29 22 -69 0
28 20 26 15 21 29 22 -67 0
28 20 26 15 21 29 22 -68 0
28 20 26 27 21 29 22 -70 0
28 20 26 27 21 29 22 -69 0
28 20 26 27 21 29 22 -67 0
28 20 26 27 21 29 22 -68 0
28 20 15 27 21 29 22 -70 0
28 20 15 27 21 29 22 -69 0
28 20 15 27 21 29 22 -67 0
28 20 15 27 21 29 22 -68 0
28 31 26 37 27 34 29 -82 0
28 31 26 37 27 34 29 -81 0
28 31 26 37 27 34 29 -84 0
28 31 26 37 27 34 29 -83 0
28 31 26 37 27 34 35 -82 0
28 31 26 37 27 34 35 -81 0
28 31 26 37 27 34 35 -84 0
28 31 26 37 27 34 35 -83 0
28 31 26 37 27 29 35 -82 0
28 31 26 37 27 29 35 -81 0
28 31 26 37 27 29 35 -84 0
28 31 26 37 27 29 35 -83 0
28 31 26 37 34 29 35 -82 0
28 31 26 37 34 29 35 -81 0
28 31 26 37 34 29 35 -84 0
28 31 26 37 34 29 35 -83 0
28 31 26 27 34 29 35 -82 0
28 31 26 27 34 29 35 -81 0
28 31 26 27 34 29 35 -84 0
28 31 26 27 34 29 35 -83 0
28 31 37 27 34 29 35 -82 0
28 31 37 27 34 29 35 -81 0
28 31 37 27 34 29 35 -84 0
28 31 37 27 34 29 35 -83 0
28 46 26 41 27 43 29 -88 0
28 46 26 41 27 43 29 -87 0
28 46 26 41 27 43 29 -86 0
28 46 26 41 27 43 29 -85 0
28 46 26 41 27 43 40 -88 0
28 46 26 41 27 43 40 -87 0
28 46 26 41 27 43 40 -86 0
28 46 26 41 27 43 40 -85 0
28 46 26 41 27 29 40 -88 0
28 46 26 41 27 29 40 -87 0
28 46 26 41 27 29 40 -86 0
28 46 26 41 27 29 40 -85 0
28 46 26 41 43 29 40 -88 0
28 46 26 41 43 29 40 -87 0
28 46 26 41 43 29 40 -86 0
28 46 26 41 43 29 40 -85 0
28 46 26 27 43 29 40 -88 0
28 46 26 27 43 29 40 -87 0
28 46 26 27 43 29 40 -86 0
28 46 26 27 43 29 40 -85 0
28 46 41 27 43 29 40 -88 0
28 46 41 27 43 29 40 -87 0
28 46 41 27 43 29 40 -86 0
28 46 41 27 43 29 40 -85 0
28 5 26 3 27 2 29 -24 0
28 5 26 3 27 2 29 -23 0
28 5 26 3 27 2 29 -25 0
28 5 26 3 27 2 29 -30 0
28 8 26 9 27 12 29 -55 0
28 8 26 9 27 12 29 -54 0
28 8 26 9 27 12 29 -56 0
28 8 26 9 27 12 29 -53 0
28 26 15 27 21 29 22 -70 0
28 26 15 27 21 29 22 -69 0
28 26 15 27 21 29 22 -67 0
28 26 15 27 21 29 22 -68 0
28 26 37 27 34 29 35 -82 0
28 26 37 27 34 29 35 -81 0
28 26 37 27 34 29 35 -84 0
28 26 37 27 34 29 35 -83 0
28 26 41 27 43 29 40 -88 0
28 26 41 27 43 29 40 -87 0
28 26 41 27 43 29 40 -86 0
28 26 41 27 43 29 40 -85 0
20 31 15 37 21 34 22 -73 0
20 31 15 37 21 34 22 -71 0
20 31 15 37 21 34 22 -74 0
20 31 15 37 21 34 22 -72 0
20 31 15 37 21 34 35 -73 0
20 31 15 37 21 34 35 -71 0
20 31 15 37 21 34 35 -74 0
20 31 15 37 21 34 35 -72 0
20 31 15 37 21 22 35 -73 0
20 31 15 37 21 22 35 -71 0
20 31 15 37 21 22 35 -74 0
20 31 15 37 21 22 35 -72 0
20 31 15 37 34 22 35 -73 0
20 31 15 37 34 22 35 -71 0
20 31 15 37 34 22 35 -74 0
20 31 15 37 34 22 35 -72 0
20 31 15 21 34 22 35 -73 0
20 31 15 21 34 22 35 -71 0
20 31 15 21 34 22 35 -74 0
20 31 15 21 34 22 35 -72 0
20 31 37 21 34 22 35 -73 0
20 31 37 21 34 22 35 -71 0
20 31 37 21 34 22 35 -74 0
20 31 37 21 34 22 35 -72 0
20 46 15 41 21 43 22 -75 0
20 46 15 41 21 43 22 -78 0
20 46 15 41 21 43 22 -77 0
20 46 15 41 21 43 22 -76 0
20 46 15 41 21 43 40 -75 0
20 46 15 41 21 43 40 -78 0
20 46 15 41 21 43 40 -77 0
20 46 15 41 21 43 40 -76 0
20 46 15 41 21 22 40 -75 0
20 46 15 41 21 22 40 -78 0
20 46 15 41 21 22 40 -77 0
20 46 15 41 21 22 40 -76 0
20 46 15 41 43 22 40 -75 0
20 46 15 41 43 22 40 -78 0
20 46 15 41 43 22 40 -77 0
20 46 15 41 43 22 40 -76 0
20 46 15 21 43 22 40 -75 0
20 46 15 21 43 22 40 -78 0
20 46 15 21 43 22 40 -77 0
20 46 15 21 43 22 40 -76 0
20 46 41 21 43 22 40 -75 0
20 46 41 21 43 22 40 -78 0
20 46 41 21 43 22 40 -77 0
20 46 41 21 43 22 40 -76 0
20 5 15 3 21 2 22 -16 0
20 5 15 3 21 2 22 -17 0
20 5 15 3 21 2 22 -18 0
20 5 15 3 21 2 22 -19 0
20 8 15 9 21 12 22 -51 0
20 8 15 9 21 12 22 -49 0
20 8 15 9 21 12 22 -52 0
20 8 15 9 21 12 22 -50 0
20 26 15 27 21 29 22 -70 0
20 26 15 27 21 29 22 -69 0
20 26 15 27 21 29 22 -67 0
20 26 15 27 21 29 22 -68 0
20 15 37 21 34 22 35 -73 0
20 15 37 21 34 22 35 -71 0
20 15 37 21 34 22 35 -74 0
20 15 37 21 34 22 35 -72 0
20 15 41 21 43 22 40 -75 0
20 15 41 21 43 22 40 -78 0
20 15 41 21 43 22 40 -77 0
20 15 41 21 43 22 40 -76 0
31 46 37 41 34 43 35 -93 0
31 46 37 41 34 43 35 -92 0
31 46 37 41 34 43 35 -94 0
31 46 37 41 34 43 35 -91 0
31 46 37 41 34 43 40 -93 0
31 46 37 41 34 43 40 -92 0
31 46 37 41 34 43 40 -94 0
31 46 37 41 34 43 40 -91 0
31 46 37 41 34 35 40 -93 0
31 46 37 41 34 35 40 -92 0
31 46 37 41 34 35 40 -94 0
31 46 37 41 34 35 40 -91 0
31 46 37 41 43 35 40 -93 0
31 46 37 41 43 35 40 -92 0
31 46 37 41 43 35 40 -94 0
31 46 37 41 43 35 40 -91 0
31 46 37 34 43 35 40 -93 0
31 46 37 34 43 35 40 -92 0
31 46 37 34 43 35 40 -94 0
31 46 37 34 43 35 40 -91 0
31 46 41 34 43 35 40 -93 0
31 46 41 34 43 35 40 -92 0
31 46 41 34 43 35 40 -94 0
31 46 41 34 43 35 40 -91 0
31 5 37 3 34 2 35 -38 0
31 5 37 3 34 2 35 -33 0
31 5 37 3 34 2 35 -32 0
31 5 37 3 34 2 35 -36 0
31 8 37 9 34 12 35 -59 0
31 8 37 9 34 12 35 -57 0
31 8 37 9 34 12 35 -60 0
31 8 37 9 34 12 35 -58 0
31 26 37 27 34 29 35 -82 0
31 26 37 27 34 29 35 -81 0
31 26 37 27 34 29 35 -84 0
31 26 37 27 34 29 35 -83 0
31 15 37 21 34 22 35 -73 0
31 15 37 21 34 22 35 -71 0
31 15 37 21 34 22 35 -74 0
31 15 37 21 34 22 35 -72 0
31 37 41 34 43 35 40 -93 0
31 37 41 34 43 35 40 -92 0
31 37 41 34 43 35 40 -94 0
31 37 41 34 43 35 40 -91 0
46 5 41 3 43 2 40 -39 0
46 5 41 3 43 2 40 -45 0
46 5 41 3 43 2 40 -44 0
46 5 41 3 43 2 40 -42 0
46 8 41 9 43 12 40 -62 0
46 8 41 9 43 12 40 -61 0
46 8 41 9 43 12 40 -63 0
46 8 41 9 43 12 40 -64 0
46 26 41 27 43 29 40 -88 0
46 26 41 27 43 29 40 -87 0
46 26 41 27 43 29 40 -86 0
46 26 41 27 43 29 40 -85 0
46 15 41 21 43 22 40 -75 0
46 15 41 21 43 22 40 -78 0
46 15 41 21 43 22 40 -77 0
46 15 41 21 43 22 40 -76 0
46 37 41 34 43 35 40 -93 0
46 37 41 34 43 35 40 -92 0
46 37 41 34 43 35 40 -94 0
46 37 41 34 43 35 40 -91 0
6 11 5 8 3 9 2 12 -7 0
6 11 5 8 3 9 2 12 -13 0
6 11 5 8 3 9 2 12 -14 0
6 11 5 8 3 9 2 12 -10 0
6 28 5 26 3 27 2 29 -24 0
6 28 5 26 3 27 2 29 -23 0
6 28 5 26 3 27 2 29 -25 0
6 28 5 26 3 27 2 29 -30 0
6 20 5 15 3 21 2 22 -16 0
6 20 5 15 3 21 2 22 -17 0
6 20 5 15 3 21 2 22 -18 0
6 20 5 15 3 21 2 22 -19 0
6 31 5 37 3 34 2 35 -38 0
6 31 5 37 3 34 2 35 -33 0
6 31 5 37 3 34 2 35 -32 0
6 31 5 37 3 34 2 35 -36 0
6 46 5 41 3 43 2 40 -39 0
6 46 5 41 3 43 2 40 -45 0
6 46 5 41 3 43 2 40 -44 0
6 46 5 41 3 43 2 40 -42 0
11 28 8 26 9 27 12 29 -55 0
11 28 8 26 9 27 12 29 -54 0
11 28 8 26 9 27 12 29 -56 0
11 28 8 26 9 27 12 29 -53 0
11 20 8 15 9 21 12 22 -51 0
11 20 8 15 9 21 12 22 -49 0
11 20 8 15 9 21 12 22 -52 0
11 20 8 15 9 21 12 22 -50 0
11 31 8 37 9 34 12 35 -59 0
11 31 8 37 9 34 12 35 -57 0
11 31 8 37 9 34 12 35 -60 0
11 31 8 37 9 34 12 35 -58 0
11 46 8 41 9 43 12 40 -62 0
11 46 8 41 9 43 12 40 -61 0
11 46 8 41 9 43 12 40 -63 0
11 46 8 41 9 43 12 40 -64 0
28 20 26 15 27 21 29 22 -70 0
28 20 26 15 27 21 29 22 -69 0
28 20 26 15 27 21 29 22 -67 0
28 20 26 15 27 21 29 22 -68 0
28 31 26 37 27 34 29 35 -82 0
28 31 26 37 27 34 29 35 -81 0
28 31 26 37 27 34 29 35 -84 0
28 31 26 37 27 34 29 35 -83 0
28 46 26 41 27 43 29 40 -88 0
28 46 26 41 27 43 29 40 -87 0
28 46 26 41 27 43 29 40 -86 0
28 46 26 41 27 43 29 40 -85 0
20 31 15 37 21 34 22 35 -73 0
20 31 15 37 21 34 22 35 -71 0
20 31 15 37 21 34 22 35 -74 0
20 31 15 37 21 34 22 35 -72 0
20 46 15 41 21 43 22 40 -75 0
20 46 15 41 21 43 22 40 -78 0
20 46 15 41 21 43 22 40 -77 0
20 46 15 41 21 43 22 40 -76 0
31 46 37 41 34 43 35 40 -93 0
31 46 37 41 34 43 35 40 -92 0
31 46 37 41 34 43 35 40 -94 0
31 46 37 41 34 43 35 40 -91 0
