c U1(0) U3(0) E2(0,0) U4(0) E1(0,0) U2(0) E1(0,5) U1(5) U3(5) U2(5) U4(5) E2(5,0) E2(0,5) E1(5,0) E1(6,0) E1(0,6) U1(6) U3(6) E2(6,0) E2(0,6) U4(6) U2(6) U1(1) U3(1) E1(0,1) U4(1) E2(1,0) U2(1) E1(1,0) E2(0,1) E1(4,0) U4(4) E1(0,4) U1(4) U3(4) U2(4) E2(0,4) E2(4,0) U1(3) U3(3) E2(0,3) U2(3) U4(3) E2(3,0) E1(0,3) E1(3,0) U1(2) U3(2) U4(2) E2(2,0) E1(0,2) U2(2) E1(2,0) E2(0,2) E2(5,5) E1(5,5) E1(6,5) E2(5,6) E2(6,5) E1(5,6) E1(5,1) E2(1,5) E2(5,1) E1(1,5) E1(5,4) E2(5,4) E1(4,5) E2(4,5) E1(3,5) E2(3,5) E2(5,3) E1(5,3) E2(5,2) E2(2,5) E1(5,2) E1(2,5) E1(6,6) E2(6,6) E1(6,1) E1(1,6) E2(6,1) E2(1,6) E1(4,6) E2(4,6) E1(6,4) E2(6,4) E2(3,6) E1(3,6) E1(6,3) E2(6,3) E1(6,2) E1(2,6) E2(6,2) E2(2,6) E1(1,1) E2(1,1) E2(1,4) E1(4,1) E1(1,4) E2(4,1) E1(3,1) E2(1,3) E2(3,1) E1(1,3) E2(2,1) E1(1,2) E1(2,1) E2(1,2) E1(4,4) E2(4,4) E2(3,4) E1(4,3) E2(4,3) E1(3,4) E2(2,4) E1(4,2) E2(4,2) E1(2,4) E2(3,3) E1(3,3) E1(3,2) E2(3,2) E1(2,3) E2(2,3) E2(2,2) E1(2,2)
c 1 2 3 4 5 6 7 8 9 10 11 12 13 14 15 16 17 18 19 20 21 22 23 24 25 26 27 28 29 30 31 32 33 34 35 36 37 38 39 40 41 42 43 44 45 46 47 48 49 50 51 52 53 54 55 56 57 58 59 60 61 62 63 64 65 66 67 68 69 70 71 72 73 74 75 76 77 78 79 80 81 82 83 84 85 86 87 88 89 90 91 92 93 94 95 96 97 98 99 100 101 102 103 104 105 106 107 108 109 110 111 112 113 114 115 116 117 118 119 120 121 122 123 124 125 126
p cnf 126 3164
-5 -3 0
-25 -30 0
-25 -27 0
-51 -54 0
-51 -50 0
-45 -41 0
-45 -44 0
-33 -37 0
-33 -38 0
-7 -13 0
-7 -12 0
-16 -20 0
-16 -19 0
-29 -30 0
-29 -27 0
-95 -96 0
-106 -108 0
-106 -105 0
-104 -102 0
-104 -103 0
-99 -97 0
-99 -100 0
-64 -62 0
-64 -63 0
-80 -82 0
-80 -81 0
-53 -54 0
-53 -50 0
-107 -108 0
-107 -105 0
-126 -125 0
-123 -124 0
-123 -122 0
-118 -115 0
-118 -117 0
-76 -74 0
-76 -73 0
-92 -94 0
-92 -93 0
-46 -41 0
-46 -44 0
-101 -102 0
-101 -103 0
-121 -124 0
-121 -122 0
-120 -119 0
-114 -111 0
-114 -113 0
-69 -70 0
-69 -71 0
-88 -87 0
-88 -90 0
-31 -37 0
-31 -38 0
-98 -97 0
-98 -100 0
-116 -115 0
-116 -117 0
-112 -111 0
-112 -113 0
-109 -110 0
-67 -68 0
-67 -66 0
-83 -84 0
-83 -86 0
-14 -13 0
-14 -12 0
-61 -62 0
-61 -63 0
-75 -74 0
-75 -73 0
-72 -70 0
-72 -71 0
-65 -68 0
-65 -66 0
-56 -55 0
-60 -58 0
-60 -59 0
-15 -20 0
-15 -19 0
-79 -82 0
-79 -81 0
-91 -94 0
-91 -93 0
-89 -87 0
-89 -90 0
-85 -84 0
-85 -86 0
-57 -58 0
-57 -59 0
-77 -78 0
-1 -6 0
-1 -2 0
-1 -4 0
-23 -28 0
-23 -24 0
-23 -26 0
-47 -52 0
-47 -48 0
-47 -49 0
-39 -42 0
-39 -40 0
-39 -43 0
-34 -36 0
-34 -35 0
-34 -32 0
-8 -10 0
-8 -9 0
-8 -11 0
-17 -22 0
-17 -18 0
-17 -21 0
-6 -2 0
-6 -4 0
-28 -24 0
-28 -26 0
-52 -48 0
-52 -49 0
-42 -40 0
-42 -43 0
-36 -35 0
-36 -32 0
-10 -9 0
-10 -11 0
-22 -18 0
-22 -21 0
-2 -4 0
-24 -26 0
-48 -49 0
-40 -43 0
-35 -32 0
-9 -11 0
-18 -21 0
1 6 2 4 0
23 28 24 26 0
47 52 48 49 0
39 42 40 43 0
34 36 35 32 0
8 10 9 11 0
17 22 18 21 0
1 6 2 -5 0
1 6 2 -3 0
1 6 4 -5 0
1 6 4 -3 0
1 2 4 -5 0
1 2 4 -3 0
23 28 24 -95 0
23 28 24 -96 0
23 28 26 -95 0
23 28 26 -96 0
23 24 26 -95 0
23 24 26 -96 0
47 52 48 -126 0
47 52 48 -125 0
47 52 49 -126 0
47 52 49 -125 0
47 48 49 -126 0
47 48 49 -125 0
39 42 40 -120 0
39 42 40 -119 0
39 42 43 -120 0
39 42 43 -119 0
39 40 43 -120 0
39 40 43 -119 0
34 36 35 -109 0
34 36 35 -110 0
34 36 32 -109 0
34 36 32 -110 0
34 35 32 -109 0
34 35 32 -110 0
8 10 9 -56 0
8 10 9 -55 0
8 10 11 -56 0
8 10 11 -55 0
8 9 11 -56 0
8 9 11 -55 0
17 22 18 -77 0
17 22 18 -78 0
17 22 21 -77 0
17 22 21 -78 0
17 18 21 -77 0
17 18 21 -78 0
6 2 4 -5 0
6 2 4 -3 0
28 24 26 -95 0
28 24 26 -96 0
52 48 49 -126 0
52 48 49 -125 0
42 40 43 -120 0
42 40 43 -119 0
36 35 32 -109 0
36 35 32 -110 0
10 9 11 -56 0
10 9 11 -55 0
22 18 21 -77 0
22 18 21 -78 0
1 6 2 4 -5 0
1 6 2 4 -25 0
1 6 2 4 -51 0
1 6 2 4 -45 0
1 6 2 4 -33 0
1 6 2 4 -7 0
1 6 2 4 -16 0
1 6 2 4 -29 0
1 6 2 4 -53 0
1 6 2 4 -46 0
1 6 2 4 -31 0
1 6 2 4 -14 0
1 6 2 4 -15 0
1 6 2 4 -3 0
1 6 2 4 -30 0
1 6 2 4 -54 0
1 6 2 4 -41 0
1 6 2 4 -37 0
1 6 2 4 -13 0
1 6 2 4 -20 0
1 6 2 4 -27 0
1 6 2 4 -50 0
1 6 2 4 -44 0
1 6 2 4 -38 0
1 6 2 4 -12 0
1 6 2 4 -19 0
23 28 24 26 -25 0
23 28 24 26 -29 0
23 28 24 26 -95 0
23 28 24 26 -106 0
23 28 24 26 -104 0
23 28 24 26 -99 0
23 28 24 26 -64 0
23 28 24 26 -80 0
23 28 24 26 -107 0
23 28 24 26 -101 0
23 28 24 26 -98 0
23 28 24 26 -61 0
23 28 24 26 -79 0
23 28 24 26 -30 0
23 28 24 26 -27 0
23 28 24 26 -96 0
23 28 24 26 -108 0
23 28 24 26 -102 0
23 28 24 26 -97 0
23 28 24 26 -62 0
23 28 24 26 -82 0
23 28 24 26 -105 0
23 28 24 26 -103 0
23 28 24 26 -100 0
23 28 24 26 -63 0
23 28 24 26 -81 0
47 52 48 49 -51 0
47 52 48 49 -106 0
47 52 48 49 -53 0
47 52 48 49 -107 0
47 52 48 49 -126 0
47 52 48 49 -123 0
47 52 48 49 -118 0
47 52 48 49 -76 0
47 52 48 49 -92 0
47 52 48 49 -121 0
47 52 48 49 -116 0
47 52 48 49 -75 0
47 52 48 49 -91 0
47 52 48 49 -54 0
47 52 48 49 -108 0
47 52 48 49 -50 0
47 52 48 49 -105 0
47 52 48 49 -125 0
47 52 48 49 -124 0
47 52 48 49 -115 0
47 52 48 49 -74 0
47 52 48 49 -94 0
47 52 48 49 -122 0
47 52 48 49 -117 0
47 52 48 49 -73 0
47 52 48 49 -93 0
39 42 40 43 -45 0
39 42 40 43 -104 0
39 42 40 43 -123 0
39 42 40 43 -46 0
39 42 40 43 -101 0
39 42 40 43 -121 0
39 42 40 43 -120 0
39 42 40 43 -114 0
39 42 40 43 -69 0
39 42 40 43 -88 0
39 42 40 43 -112 0
39 42 40 43 -72 0
39 42 40 43 -89 0
39 42 40 43 -41 0
39 42 40 43 -102 0
39 42 40 43 -124 0
39 42 40 43 -44 0
39 42 40 43 -103 0
39 42 40 43 -122 0
39 42 40 43 -119 0
39 42 40 43 -111 0
39 42 40 43 -70 0
39 42 40 43 -87 0
39 42 40 43 -113 0
39 42 40 43 -71 0
39 42 40 43 -90 0
34 36 35 32 -33 0
34 36 35 32 -99 0
34 36 35 32 -118 0
34 36 35 32 -114 0
34 36 35 32 -31 0
34 36 35 32 -98 0
34 36 35 32 -116 0
34 36 35 32 -112 0
34 36 35 32 -109 0
34 36 35 32 -67 0
34 36 35 32 -83 0
34 36 35 32 -65 0
34 36 35 32 -85 0
34 36 35 32 -37 0
34 36 35 32 -97 0
34 36 35 32 -115 0
34 36 35 32 -111 0
34 36 35 32 -38 0
34 36 35 32 -100 0
34 36 35 32 -117 0
34 36 35 32 -113 0
34 36 35 32 -110 0
34 36 35 32 -68 0
34 36 35 32 -84 0
34 36 35 32 -66 0
34 36 35 32 -86 0
8 10 9 11 -7 0
8 10 9 11 -64 0
8 10 9 11 -76 0
8 10 9 11 -69 0
8 10 9 11 -67 0
8 10 9 11 -14 0
8 10 9 11 -61 0
8 10 9 11 -75 0
8 10 9 11 -72 0
8 10 9 11 -65 0
8 10 9 11 -56 0
8 10 9 11 -60 0
8 10 9 11 -57 0
8 10 9 11 -13 0
8 10 9 11 -62 0
8 10 9 11 -74 0
8 10 9 11 -70 0
8 10 9 11 -68 0
8 10 9 11 -12 0
8 10 9 11 -63 0
8 10 9 11 -73 0
8 10 9 11 -71 0
8 10 9 11 -66 0
8 10 9 11 -55 0
8 10 9 11 -58 0
8 10 9 11 -59 0
17 22 18 21 -16 0
17 22 18 21 -80 0
17 22 18 21 -92 0
17 22 18 21 -88 0
17 22 18 21 -83 0
17 22 18 21 -60 0
17 22 18 21 -15 0
17 22 18 21 -79 0
17 22 18 21 -91 0
17 22 18 21 -89 0
17 22 18 21 -85 0
17 22 18 21 -57 0
17 22 18 21 -77 0
17 22 18 21 -20 0
17 22 18 21 -82 0
17 22 18 21 -94 0
17 22 18 21 -87 0
17 22 18 21 -84 0
17 22 18 21 -58 0
17 22 18 21 -19 0
17 22 18 21 -81 0
17 22 18 21 -93 0
17 22 18 21 -90 0
17 22 18 21 -86 0
17 22 18 21 -59 0
17 22 18 21 -78 0
1 23 6 2 4 -25 0
1 23 6 2 4 -29 0
1 23 6 2 4 -30 0
1 23 6 2 4 -27 0
1 23 28 24 26 -25 0
1 23 28 24 26 -29 0
1 23 28 24 26 -30 0
1 23 28 24 26 -27 0
1 47 6 2 4 -51 0
1 47 6 2 4 -53 0
1 47 6 2 4 -54 0
1 47 6 2 4 -50 0
1 47 52 48 49 -51 0
1 47 52 48 49 -53 0
1 47 52 48 49 -54 0
1 47 52 48 49 -50 0
1 39 6 2 4 -45 0
1 39 6 2 4 -46 0
1 39 6 2 4 -41 0
1 39 6 2 4 -44 0
1 39 42 40 43 -45 0
1 39 42 40 43 -46 0
1 39 42 40 43 -41 0
1 39 42 40 43 -44 0
1 34 6 2 4 -33 0
1 34 6 2 4 -31 0
1 34 6 2 4 -37 0
1 34 6 2 4 -38 0
1 34 36 35 32 -33 0
1 34 36 35 32 -31 0
1 34 36 35 32 -37 0
1 34 36 35 32 -38 0
1 8 6 2 4 -7 0
1 8 6 2 4 -14 0
1 8 6 2 4 -13 0
1 8 6 2 4 -12 0
1 8 10 9 11 -7 0
1 8 10 9 11 -14 0
1 8 10 9 11 -13 0
1 8 10 9 11 -12 0
1 17 6 2 4 -16 0
1 17 6 2 4 -15 0
1 17 6 2 4 -20 0
1 17 6 2 4 -19 0
1 17 22 18 21 -16 0
1 17 22 18 21 -15 0
1 17 22 18 21 -20 0
1 17 22 18 21 -19 0
1 6 28 2 4 -25 0
1 6 28 2 4 -29 0
1 6 28 2 4 -30 0
1 6 28 2 4 -27 0
1 6 52 2 4 -51 0
1 6 52 2 4 -53 0
1 6 52 2 4 -54 0
1 6 52 2 4 -50 0
1 6 42 2 4 -45 0
1 6 42 2 4 -46 0
1 6 42 2 4 -41 0
1 6 42 2 4 -44 0
1 6 36 2 4 -33 0
1 6 36 2 4 -31 0
1 6 36 2 4 -37 0
1 6 36 2 4 -38 0
1 6 10 2 4 -7 0
1 6 10 2 4 -14 0
1 6 10 2 4 -13 0
1 6 10 2 4 -12 0
1 6 22 2 4 -16 0
1 6 22 2 4 -15 0
1 6 22 2 4 -20 0
1 6 22 2 4 -19 0
1 6 2 24 4 -25 0
1 6 2 24 4 -29 0
1 6 2 24 4 -30 0
1 6 2 24 4 -27 0
1 6 2 48 4 -51 0
1 6 2 48 4 -53 0
1 6 2 48 4 -54 0
1 6 2 48 4 -50 0
1 6 2 40 4 -45 0
1 6 2 40 4 -46 0
1 6 2 40 4 -41 0
1 6 2 40 4 -44 0
1 6 2 35 4 -33 0
1 6 2 35 4 -31 0
1 6 2 35 4 -37 0
1 6 2 35 4 -38 0
1 6 2 9 4 -7 0
1 6 2 9 4 -14 0
1 6 2 9 4 -13 0
1 6 2 9 4 -12 0
1 6 2 18 4 -16 0
1 6 2 18 4 -15 0
1 6 2 18 4 -20 0
1 6 2 18 4 -19 0
1 6 2 4 26 -25 0
1 6 2 4 26 -29 0
1 6 2 4 26 -30 0
1 6 2 4 26 -27 0
1 6 2 4 49 -51 0
1 6 2 4 49 -53 0
1 6 2 4 49 -54 0
1 6 2 4 49 -50 0
1 6 2 4 43 -45 0
1 6 2 4 43 -46 0
1 6 2 4 43 -41 0
1 6 2 4 43 -44 0
1 6 2 4 32 -33 0
1 6 2 4 32 -31 0
1 6 2 4 32 -37 0
1 6 2 4 32 -38 0
1 6 2 4 11 -7 0
1 6 2 4 11 -14 0
1 6 2 4 11 -13 0
1 6 2 4 11 -12 0
1 6 2 4 21 -16 0
1 6 2 4 21 -15 0
1 6 2 4 21 -20 0
1 6 2 4 21 -19 0
23 47 28 24 26 -106 0
23 47 28 24 26 -107 0
23 47 28 24 26 -108 0
23 47 28 24 26 -105 0
23 47 52 48 49 -106 0
23 47 52 48 49 -107 0
23 47 52 48 49 -108 0
23 47 52 48 49 -105 0
23 39 28 24 26 -104 0
23 39 28 24 26 -101 0
23 39 28 24 26 -102 0
23 39 28 24 26 -103 0
23 39 42 40 43 -104 0
23 39 42 40 43 -101 0
23 39 42 40 43 -102 0
23 39 42 40 43 -103 0
23 34 28 24 26 -99 0
23 34 28 24 26 -98 0
23 34 28 24 26 -97 0
23 34 28 24 26 -100 0
23 34 36 35 32 -99 0
23 34 36 35 32 -98 0
23 34 36 35 32 -97 0
23 34 36 35 32 -100 0
23 8 28 24 26 -64 0
23 8 28 24 26 -61 0
23 8 28 24 26 -62 0
23 8 28 24 26 -63 0
23 8 10 9 11 -64 0
23 8 10 9 11 -61 0
23 8 10 9 11 -62 0
23 8 10 9 11 -63 0
23 17 28 24 26 -80 0
23 17 28 24 26 -79 0
23 17 28 24 26 -82 0
23 17 28 24 26 -81 0
23 17 22 18 21 -80 0
23 17 22 18 21 -79 0
23 17 22 18 21 -82 0
23 17 22 18 21 -81 0
23 6 28 24 26 -25 0
23 6 28 24 26 -29 0
23 6 28 24 26 -30 0
23 6 28 24 26 -27 0
23 28 52 24 26 -106 0
23 28 52 24 26 -107 0
23 28 52 24 26 -108 0
23 28 52 24 26 -105 0
23 28 42 24 26 -104 0
23 28 42 24 26 -101 0
23 28 42 24 26 -102 0
23 28 42 24 26 -103 0
23 28 36 24 26 -99 0
23 28 36 24 26 -98 0
23 28 36 24 26 -97 0
23 28 36 24 26 -100 0
23 28 10 24 26 -64 0
23 28 10 24 26 -61 0
23 28 10 24 26 -62 0
23 28 10 24 26 -63 0
23 28 22 24 26 -80 0
23 28 22 24 26 -79 0
23 28 22 24 26 -82 0
23 28 22 24 26 -81 0
23 28 2 24 26 -25 0
23 28 2 24 26 -29 0
23 28 2 24 26 -30 0
23 28 2 24 26 -27 0
23 28 24 48 26 -106 0
23 28 24 48 26 -107 0
23 28 24 48 26 -108 0
23 28 24 48 26 -105 0
23 28 24 40 26 -104 0
23 28 24 40 26 -101 0
23 28 24 40 26 -102 0
23 28 24 40 26 -103 0
23 28 24 35 26 -99 0
23 28 24 35 26 -98 0
23 28 24 35 26 -97 0
23 28 24 35 26 -100 0
23 28 24 9 26 -64 0
23 28 24 9 26 -61 0
23 28 24 9 26 -62 0
23 28 24 9 26 -63 0
23 28 24 18 26 -80 0
23 28 24 18 26 -79 0
23 28 24 18 26 -82 0
23 28 24 18 26 -81 0
23 28 24 4 26 -25 0
23 28 24 4 26 -29 0
23 28 24 4 26 -30 0
23 28 24 4 26 -27 0
23 28 24 26 49 -106 0
23 28 24 26 49 -107 0
23 28 24 26 49 -108 0
23 28 24 26 49 -105 0
23 28 24 26 43 -104 0
23 28 24 26 43 -101 0
23 28 24 26 43 -102 0
23 28 24 26 43 -103 0
23 28 24 26 32 -99 0
23 28 24 26 32 -98 0
23 28 24 26 32 -97 0
23 28 24 26 32 -100 0
23 28 24 26 11 -64 0
23 28 24 26 11 -61 0
23 28 24 26 11 -62 0
23 28 24 26 11 -63 0
23 28 24 26 21 -80 0
23 28 24 26 21 -79 0
23 28 24 26 21 -82 0
23 28 24 26 21 -81 0
47 39 52 48 49 -123 0
47 39 52 48 49 -121 0
47 39 52 48 49 -124 0
47 39 52 48 49 -122 0
47 39 42 40 43 -123 0
47 39 42 40 43 -121 0
47 39 42 40 43 -124 0
47 39 42 40 43 -122 0
47 34 52 48 49 -118 0
47 34 52 48 49 -116 0
47 34 52 48 49 -115 0
47 34 52 48 49 -117 0
47 34 36 35 32 -118 0
47 34 36 35 32 -116 0
47 34 36 35 32 -115 0
47 34 36 35 32 -117 0
47 8 52 48 49 -76 0
47 8 52 48 49 -75 0
47 8 52 48 49 -74 0
47 8 52 48 49 -73 0
47 8 10 9 11 -76 0
47 8 10 9 11 -75 0
47 8 10 9 11 -74 0
47 8 10 9 11 -73 0
47 17 52 48 49 -92 0
47 17 52 48 49 -91 0
47 17 52 48 49 -94 0
47 17 52 48 49 -93 0
47 17 22 18 21 -92 0
47 17 22 18 21 -91 0
47 17 22 18 21 -94 0
47 17 22 18 21 -93 0
47 6 52 48 49 -51 0
47 6 52 48 49 -53 0
47 6 52 48 49 -54 0
47 6 52 48 49 -50 0
47 28 52 48 49 -106 0
47 28 52 48 49 -107 0
47 28 52 48 49 -108 0
47 28 52 48 49 -105 0
47 52 42 48 49 -123 0
47 52 42 48 49 -121 0
47 52 42 48 49 -124 0
47 52 42 48 49 -122 0
47 52 36 48 49 -118 0
47 52 36 48 49 -116 0
47 52 36 48 49 -115 0
47 52 36 48 49 -117 0
47 52 10 48 49 -76 0
47 52 10 48 49 -75 0
47 52 10 48 49 -74 0
47 52 10 48 49 -73 0
47 52 22 48 49 -92 0
47 52 22 48 49 -91 0
47 52 22 48 49 -94 0
47 52 22 48 49 -93 0
47 52 2 48 49 -51 0
47 52 2 48 49 -53 0
47 52 2 48 49 -54 0
47 52 2 48 49 -50 0
47 52 24 48 49 -106 0
47 52 24 48 49 -107 0
47 52 24 48 49 -108 0
47 52 24 48 49 -105 0
47 52 48 40 49 -123 0
47 52 48 40 49 -121 0
47 52 48 40 49 -124 0
47 52 48 40 49 -122 0
47 52 48 35 49 -118 0
47 52 48 35 49 -116 0
47 52 48 35 49 -115 0
47 52 48 35 49 -117 0
47 52 48 9 49 -76 0
47 52 48 9 49 -75 0
47 52 48 9 49 -74 0
47 52 48 9 49 -73 0
47 52 48 18 49 -92 0
47 52 48 18 49 -91 0
47 52 48 18 49 -94 0
47 52 48 18 49 -93 0
47 52 48 4 49 -51 0
47 52 48 4 49 -53 0
47 52 48 4 49 -54 0
47 52 48 4 49 -50 0
47 52 48 26 49 -106 0
47 52 48 26 49 -107 0
47 52 48 26 49 -108 0
47 52 48 26 49 -105 0
47 52 48 49 43 -123 0
47 52 48 49 43 -121 0
47 52 48 49 43 -124 0
47 52 48 49 43 -122 0
47 52 48 49 32 -118 0
47 52 48 49 32 -116 0
47 52 48 49 32 -115 0
47 52 48 49 32 -117 0
47 52 48 49 11 -76 0
47 52 48 49 11 -75 0
47 52 48 49 11 -74 0
47 52 48 49 11 -73 0
47 52 48 49 21 -92 0
47 52 48 49 21 -91 0
47 52 48 49 21 -94 0
47 52 48 49 21 -93 0
39 34 42 40 43 -114 0
39 34 42 40 43 -112 0
39 34 42 40 43 -111 0
39 34 42 40 43 -113 0
39 34 36 35 32 -114 0
39 34 36 35 32 -112 0
39 34 36 35 32 -111 0
39 34 36 35 32 -113 0
39 8 42 40 43 -69 0
39 8 42 40 43 -72 0
39 8 42 40 43 -70 0
39 8 42 40 43 -71 0
39 8 10 9 11 -69 0
39 8 10 9 11 -72 0
39 8 10 9 11 -70 0
39 8 10 9 11 -71 0
39 17 42 40 43 -88 0
39 17 42 40 43 -89 0
39 17 42 40 43 -87 0
39 17 42 40 43 -90 0
39 17 22 18 21 -88 0
39 17 22 18 21 -89 0
39 17 22 18 21 -87 0
39 17 22 18 21 -90 0
39 6 42 40 43 -45 0
39 6 42 40 43 -46 0
39 6 42 40 43 -41 0
39 6 42 40 43 -44 0
39 28 42 40 43 -104 0
39 28 42 40 43 -101 0
39 28 42 40 43 -102 0
39 28 42 40 43 -103 0
39 52 42 40 43 -123 0
39 52 42 40 43 -121 0
39 52 42 40 43 -124 0
39 52 42 40 43 -122 0
39 42 36 40 43 -114 0
39 42 36 40 43 -112 0
39 42 36 40 43 -111 0
39 42 36 40 43 -113 0
39 42 10 40 43 -69 0
39 42 10 40 43 -72 0
39 42 10 40 43 -70 0
39 42 10 40 43 -71 0
39 42 22 40 43 -88 0
39 42 22 40 43 -89 0
39 42 22 40 43 -87 0
39 42 22 40 43 -90 0
39 42 2 40 43 -45 0
39 42 2 40 43 -46 0
39 42 2 40 43 -41 0
39 42 2 40 43 -44 0
39 42 24 40 43 -104 0
39 42 24 40 43 -101 0
39 42 24 40 43 -102 0
39 42 24 40 43 -103 0
39 42 48 40 43 -123 0
39 42 48 40 43 -121 0
39 42 48 40 43 -124 0
39 42 48 40 43 -122 0
39 42 40 35 43 -114 0
39 42 40 35 43 -112 0
39 42 40 35 43 -111 0
39 42 40 35 43 -113 0
39 42 40 9 43 -69 0
39 42 40 9 43 -72 0
39 42 40 9 43 -70 0
39 42 40 9 43 -71 0
39 42 40 18 43 -88 0
39 42 40 18 43 -89 0
39 42 40 18 43 -87 0
39 42 40 18 43 -90 0
39 42 40 4 43 -45 0
39 42 40 4 43 -46 0
39 42 40 4 43 -41 0
39 42 40 4 43 -44 0
39 42 40 26 43 -104 0
39 42 40 26 43 -101 0
39 42 40 26 43 -102 0
39 42 40 26 43 -103 0
39 42 40 49 43 -123 0
39 42 40 49 43 -121 0
39 42 40 49 43 -124 0
39 42 40 49 43 -122 0
39 42 40 43 32 -114 0
39 42 40 43 32 -112 0
39 42 40 43 32 -111 0
39 42 40 43 32 -113 0
39 42 40 43 11 -69 0
39 42 40 43 11 -72 0
39 42 40 43 11 -70 0
39 42 40 43 11 -71 0
39 42 40 43 21 -88 0
39 42 40 43 21 -89 0
39 42 40 43 21 -87 0
39 42 40 43 21 -90 0
34 8 36 35 32 -67 0
34 8 36 35 32 -65 0
34 8 36 35 32 -68 0
34 8 36 35 32 -66 0
34 8 10 9 11 -67 0
34 8 10 9 11 -65 0
34 8 10 9 11 -68 0
34 8 10 9 11 -66 0
34 17 36 35 32 -83 0
34 17 36 35 32 -85 0
34 17 36 35 32 -84 0
34 17 36 35 32 -86 0
34 17 22 18 21 -83 0
34 17 22 18 21 -85 0
34 17 22 18 21 -84 0
34 17 22 18 21 -86 0
34 6 36 35 32 -33 0
34 6 36 35 32 -31 0
34 6 36 35 32 -37 0
34 6 36 35 32 -38 0
34 28 36 35 32 -99 0
34 28 36 35 32 -98 0
34 28 36 35 32 -97 0
34 28 36 35 32 -100 0
34 52 36 35 32 -118 0
34 52 36 35 32 -116 0
34 52 36 35 32 -115 0
34 52 36 35 32 -117 0
34 42 36 35 32 -114 0
34 42 36 35 32 -112 0
34 42 36 35 32 -111 0
34 42 36 35 32 -113 0
34 36 10 35 32 -67 0
34 36 10 35 32 -65 0
34 36 10 35 32 -68 0
34 36 10 35 32 -66 0
34 36 22 35 32 -83 0
34 36 22 35 32 -85 0
34 36 22 35 32 -84 0
34 36 22 35 32 -86 0
34 36 2 35 32 -33 0
34 36 2 35 32 -31 0
34 36 2 35 32 -37 0
34 36 2 35 32 -38 0
34 36 24 35 32 -99 0
34 36 24 35 32 -98 0
34 36 24 35 32 -97 0
34 36 24 35 32 -100 0
34 36 48 35 32 -118 0
34 36 48 35 32 -116 0
34 36 48 35 32 -115 0
34 36 48 35 32 -117 0
34 36 40 35 32 -114 0
34 36 40 35 32 -112 0
34 36 40 35 32 -111 0
34 36 40 35 32 -113 0
34 36 35 9 32 -67 0
34 36 35 9 32 -65 0
34 36 35 9 32 -68 0
34 36 35 9 32 -66 0
34 36 35 18 32 -83 0
34 36 35 18 32 -85 0
34 36 35 18 32 -84 0
34 36 35 18 32 -86 0
34 36 35 4 32 -33 0
34 36 35 4 32 -31 0
34 36 35 4 32 -37 0
34 36 35 4 32 -38 0
34 36 35 26 32 -99 0
34 36 35 26 32 -98 0
34 36 35 26 32 -97 0
34 36 35 26 32 -100 0
34 36 35 49 32 -118 0
34 36 35 49 32 -116 0
34 36 35 49 32 -115 0
34 36 35 49 32 -117 0
34 36 35 43 32 -114 0
34 36 35 43 32 -112 0
34 36 35 43 32 -111 0
34 36 35 43 32 -113 0
34 36 35 32 11 -67 0
34 36 35 32 11 -65 0
34 36 35 32 11 -68 0
34 36 35 32 11 -66 0
34 36 35 32 21 -83 0
34 36 35 32 21 -85 0
34 36 35 32 21 -84 0
34 36 35 32 21 -86 0
8 17 10 9 11 -60 0
8 17 10 9 11 -57 0
8 17 10 9 11 -58 0
8 17 10 9 11 -59 0
8 17 22 18 21 -60 0
8 17 22 18 21 -57 0
8 17 22 18 21 -58 0
8 17 22 18 21 -59 0
8 6 10 9 11 -7 0
8 6 10 9 11 -14 0
8 6 10 9 11 -13 0
8 6 10 9 11 -12 0
8 28 10 9 11 -64 0
8 28 10 9 11 -61 0
8 28 10 9 11 -62 0
8 28 10 9 11 -63 0
8 52 10 9 11 -76 0
8 52 10 9 11 -75 0
8 52 10 9 11 -74 0
8 52 10 9 11 -73 0
8 42 10 9 11 -69 0
8 42 10 9 11 -72 0
8 42 10 9 11 -70 0
8 42 10 9 11 -71 0
8 36 10 9 11 -67 0
8 36 10 9 11 -65 0
8 36 10 9 11 -68 0
8 36 10 9 11 -66 0
8 10 22 9 11 -60 0
8 10 22 9 11 -57 0
8 10 22 9 11 -58 0
8 10 22 9 11 -59 0
8 10 2 9 11 -7 0
8 10 2 9 11 -14 0
8 10 2 9 11 -13 0
8 10 2 9 11 -12 0
8 10 24 9 11 -64 0
8 10 24 9 11 -61 0
8 10 24 9 11 -62 0
8 10 24 9 11 -63 0
8 10 48 9 11 -76 0
8 10 48 9 11 -75 0
8 10 48 9 11 -74 0
8 10 48 9 11 -73 0
8 10 40 9 11 -69 0
8 10 40 9 11 -72 0
8 10 40 9 11 -70 0
8 10 40 9 11 -71 0
8 10 35 9 11 -67 0
8 10 35 9 11 -65 0
8 10 35 9 11 -68 0
8 10 35 9 11 -66 0
8 10 9 18 11 -60 0
8 10 9 18 11 -57 0
8 10 9 18 11 -58 0
8 10 9 18 11 -59 0
8 10 9 4 11 -7 0
8 10 9 4 11 -14 0
8 10 9 4 11 -13 0
8 10 9 4 11 -12 0
8 10 9 26 11 -64 0
8 10 9 26 11 -61 0
8 10 9 26 11 -62 0
8 10 9 26 11 -63 0
8 10 9 49 11 -76 0
8 10 9 49 11 -75 0
8 10 9 49 11 -74 0
8 10 9 49 11 -73 0
8 10 9 43 11 -69 0
8 10 9 43 11 -72 0
8 10 9 43 11 -70 0
8 10 9 43 11 -71 0
8 10 9 32 11 -67 0
8 10 9 32 11 -65 0
8 10 9 32 11 -68 0
8 10 9 32 11 -66 0
8 10 9 11 21 -60 0
8 10 9 11 21 -57 0
8 10 9 11 21 -58 0
8 10 9 11 21 -59 0
17 6 22 18 21 -16 0
17 6 22 18 21 -15 0
17 6 22 18 21 -20 0
17 6 22 18 21 -19 0
17 28 22 18 21 -80 0
17 28 22 18 21 -79 0
17 28 22 18 21 -82 0
17 28 22 18 21 -81 0
17 52 22 18 21 -92 0
17 52 22 18 21 -91 0
17 52 22 18 21 -94 0
17 52 22 18 21 -93 0
17 42 22 18 21 -88 0
17 42 22 18 21 -89 0
17 42 22 18 21 -87 0
17 42 22 18 21 -90 0
17 36 22 18 21 -83 0
17 36 22 18 21 -85 0
17 36 22 18 21 -84 0
17 36 22 18 21 -86 0
17 10 22 18 21 -60 0
17 10 22 18 21 -57 0
17 10 22 18 21 -58 0
17 10 22 18 21 -59 0
17 22 2 18 21 -16 0
17 22 2 18 21 -15 0
17 22 2 18 21 -20 0
17 22 2 18 21 -19 0
17 22 24 18 21 -80 0
17 22 24 18 21 -79 0
17 22 24 18 21 -82 0
17 22 24 18 21 -81 0
17 22 48 18 21 -92 0
17 22 48 18 21 -91 0
17 22 48 18 21 -94 0
17 22 48 18 21 -93 0
17 22 40 18 21 -88 0
17 22 40 18 21 -89 0
17 22 40 18 21 -87 0
17 22 40 18 21 -90 0
17 22 35 18 21 -83 0
17 22 35 18 21 -85 0
17 22 35 18 21 -84 0
17 22 35 18 21 -86 0
17 22 9 18 21 -60 0
17 22 9 18 21 -57 0
17 22 9 18 21 -58 0
17 22 9 18 21 -59 0
17 22 18 4 21 -16 0
17 22 18 4 21 -15 0
17 22 18 4 21 -20 0
17 22 18 4 21 -19 0
17 22 18 26 21 -80 0
17 22 18 26 21 -79 0
17 22 18 26 21 -82 0
17 22 18 26 21 -81 0
17 22 18 49 21 -92 0
17 22 18 49 21 -91 0
17 22 18 49 21 -94 0
17 22 18 49 21 -93 0
17 22 18 43 21 -88 0
17 22 18 43 21 -89 0
17 22 18 43 21 -87 0
17 22 18 43 21 -90 0
17 22 18 32 21 -83 0
17 22 18 32 21 -85 0
17 22 18 32 21 -84 0
17 22 18 32 21 -86 0
17 22 18 11 21 -60 0
17 22 18 11 21 -57 0
17 22 18 11 21 -58 0
17 22 18 11 21 -59 0
5 25 51 45 33 7 16 0
29 95 106 104 99 64 80 0
53 107 126 123 118 76 92 0
46 101 121 120 114 69 88 0
31 98 116 112 109 67 83 0
14 61 75 72 65 56 60 0
15 79 91 89 85 57 77 0
3 30 54 41 37 13 20 0
27 96 108 102 97 62 82 0
50 105 125 124 115 74 94 0
44 103 122 119 111 70 87 0
38 100 117 113 110 68 84 0
12 63 73 71 66 55 58 0
19 81 93 90 86 59 78 0
1 23 6 28 2 24 -25 0
1 23 6 28 2 24 -29 0
1 23 6 28 2 24 -30 0
1 23 6 28 2 24 -27 0
1 23 6 28 2 4 -25 0
1 23 6 28 2 4 -29 0
1 23 6 28 2 4 -30 0
1 23 6 28 2 4 -27 0
1 23 6 28 24 26 -25 0
1 23 6 28 24 26 -29 0
1 23 6 28 24 26 -30 0
1 23 6 28 24 26 -27 0
1 23 6 28 4 26 -25 0
1 23 6 28 4 26 -29 0
1 23 6 28 4 26 -30 0
1 23 6 28 4 26 -27 0
1 23 6 2 24 4 -25 0
1 23 6 2 24 4 -29 0
1 23 6 2 24 4 -30 0
1 23 6 2 24 4 -27 0
1 23 6 2 4 26 -25 0
1 23 6 2 4 26 -29 0
1 23 6 2 4 26 -30 0
1 23 6 2 4 26 -27 0
1 23 28 2 24 26 -25 0
1 23 28 2 24 26 -29 0
1 23 28 2 24 26 -30 0
1 23 28 2 24 26 -27 0
1 23 28 24 4 26 -25 0
1 23 28 24 4 26 -29 0
1 23 28 24 4 26 -30 0
1 23 28 24 4 26 -27 0
1 23 2 24 4 26 -25 0
1 23 2 24 4 26 -29 0
1 23 2 24 4 26 -30 0
1 23 2 24 4 26 -27 0
1 47 6 52 2 48 -51 0
1 47 6 52 2 48 -53 0
1 47 6 52 2 48 -54 0
1 47 6 52 2 48 -50 0
1 47 6 52 2 4 -51 0
1 47 6 52 2 4 -53 0
1 47 6 52 2 4 -54 0
1 47 6 52 2 4 -50 0
1 47 6 52 48 49 -51 0
1 47 6 52 48 49 -53 0
1 47 6 52 48 49 -54 0
1 47 6 52 48 49 -50 0
1 47 6 52 4 49 -51 0
1 47 6 52 4 49 -53 0
1 47 6 52 4 49 -54 0
1 47 6 52 4 49 -50 0
1 47 6 2 48 4 -51 0
1 47 6 2 48 4 -53 0
1 47 6 2 48 4 -54 0
1 47 6 2 48 4 -50 0
1 47 6 2 4 49 -51 0
1 47 6 2 4 49 -53 0
1 47 6 2 4 49 -54 0
1 47 6 2 4 49 -50 0
1 47 52 2 48 49 -51 0
1 47 52 2 48 49 -53 0
1 47 52 2 48 49 -54 0
1 47 52 2 48 49 -50 0
1 47 52 48 4 49 -51 0
1 47 52 48 4 49 -53 0
1 47 52 48 4 49 -54 0
1 47 52 48 4 49 -50 0
1 47 2 48 4 49 -51 0
1 47 2 48 4 49 -53 0
1 47 2 48 4 49 -54 0
1 47 2 48 4 49 -50 0
1 39 6 42 2 40 -45 0
1 39 6 42 2 40 -46 0
1 39 6 42 2 40 -41 0
1 39 6 42 2 40 -44 0
1 39 6 42 2 4 -45 0
1 39 6 42 2 4 -46 0
1 39 6 42 2 4 -41 0
1 39 6 42 2 4 -44 0
1 39 6 42 40 43 -45 0
1 39 6 42 40 43 -46 0
1 39 6 42 40 43 -41 0
1 39 6 42 40 43 -44 0
1 39 6 42 4 43 -45 0
1 39 6 42 4 43 -46 0
1 39 6 42 4 43 -41 0
1 39 6 42 4 43 -44 0
1 39 6 2 40 4 -45 0
1 39 6 2 40 4 -46 0
1 39 6 2 40 4 -41 0
1 39 6 2 40 4 -44 0
1 39 6 2 4 43 -45 0
1 39 6 2 4 43 -46 0
1 39 6 2 4 43 -41 0
1 39 6 2 4 43 -44 0
1 39 42 2 40 43 -45 0
1 39 42 2 40 43 -46 0
1 39 42 2 40 43 -41 0
1 39 42 2 40 43 -44 0
1 39 42 40 4 43 -45 0
1 39 42 40 4 43 -46 0
1 39 42 40 4 43 -41 0
1 39 42 40 4 43 -44 0
1 39 2 40 4 43 -45 0
1 39 2 40 4 43 -46 0
1 39 2 40 4 43 -41 0
1 39 2 40 4 43 -44 0
1 34 6 36 2 35 -33 0
1 34 6 36 2 35 -31 0
1 34 6 36 2 35 -37 0
1 34 6 36 2 35 -38 0
1 34 6 36 2 4 -33 0
1 34 6 36 2 4 -31 0
1 34 6 36 2 4 -37 0
1 34 6 36 2 4 -38 0
1 34 6 36 35 32 -33 0
1 34 6 36 35 32 -31 0
1 34 6 36 35 32 -37 0
1 34 6 36 35 32 -38 0
1 34 6 36 4 32 -33 0
1 34 6 36 4 32 -31 0
1 34 6 36 4 32 -37 0
1 34 6 36 4 32 -38 0
1 34 6 2 35 4 -33 0
1 34 6 2 35 4 -31 0
1 34 6 2 35 4 -37 0
1 34 6 2 35 4 -38 0
1 34 6 2 4 32 -33 0
1 34 6 2 4 32 -31 0
1 34 6 2 4 32 -37 0
1 34 6 2 4 32 -38 0
1 34 36 2 35 32 -33 0
1 34 36 2 35 32 -31 0
1 34 36 2 35 32 -37 0
1 34 36 2 35 32 -38 0
1 34 36 35 4 32 -33 0
1 34 36 35 4 32 -31 0
1 34 36 35 4 32 -37 0
1 34 36 35 4 32 -38 0
1 34 2 35 4 32 -33 0
1 34 2 35 4 32 -31 0
1 34 2 35 4 32 -37 0
1 34 2 35 4 32 -38 0
1 8 6 10 2 9 -7 0
1 8 6 10 2 9 -14 0
1 8 6 10 2 9 -13 0
1 8 6 10 2 9 -12 0
1 8 6 10 2 4 -7 0
1 8 6 10 2 4 -14 0
1 8 6 10 2 4 -13 0
1 8 6 10 2 4 -12 0
1 8 6 10 9 11 -7 0
1 8 6 10 9 11 -14 0
1 8 6 10 9 11 -13 0
1 8 6 10 9 11 -12 0
1 8 6 10 4 11 -7 0
1 8 6 10 4 11 -14 0
1 8 6 10 4 11 -13 0
1 8 6 10 4 11 -12 0
1 8 6 2 9 4 -7 0
1 8 6 2 9 4 -14 0
1 8 6 2 9 4 -13 0
1 8 6 2 9 4 -12 0
1 8 6 2 4 11 -7 0
1 8 6 2 4 11 -14 0
1 8 6 2 4 11 -13 0
1 8 6 2 4 11 -12 0
1 8 10 2 9 11 -7 0
1 8 10 2 9 11 -14 0
1 8 10 2 9 11 -13 0
1 8 10 2 9 11 -12 0
1 8 10 9 4 11 -7 0
1 8 10 9 4 11 -14 0
1 8 10 9 4 11 -13 0
1 8 10 9 4 11 -12 0
1 8 2 9 4 11 -7 0
1 8 2 9 4 11 -14 0
1 8 2 9 4 11 -13 0
1 8 2 9 4 11 -12 0
1 17 6 22 2 18 -16 0
1 17 6 22 2 18 -15 0
1 17 6 22 2 18 -20 0
1 17 6 22 2 18 -19 0
1 17 6 22 2 4 -16 0
1 17 6 22 2 4 -15 0
1 17 6 22 2 4 -20 0
1 17 6 22 2 4 -19 0
1 17 6 22 18 21 -16 0
1 17 6 22 18 21 -15 0
1 17 6 22 18 21 -20 0
1 17 6 22 18 21 -19 0
1 17 6 22 4 21 -16 0
1 17 6 22 4 21 -15 0
1 17 6 22 4 21 -20 0
1 17 6 22 4 21 -19 0
1 17 6 2 18 4 -16 0
1 17 6 2 18 4 -15 0
1 17 6 2 18 4 -20 0
1 17 6 2 18 4 -19 0
1 17 6 2 4 21 -16 0
1 17 6 2 4 21 -15 0
1 17 6 2 4 21 -20 0
1 17 6 2 4 21 -19 0
1 17 22 2 18 21 -16 0
1 17 22 2 18 21 -15 0
1 17 22 2 18 21 -20 0
1 17 22 2 18 21 -19 0
1 17 22 18 4 21 -16 0
1 17 22 18 4 21 -15 0
1 17 22 18 4 21 -20 0
1 17 22 18 4 21 -19 0
1 17 2 18 4 21 -16 0
1 17 2 18 4 21 -15 0
1 17 2 18 4 21 -20 0
1 17 2 18 4 21 -19 0
1 6 28 2 24 4 -25 0
1 6 28 2 24 4 -29 0
1 6 28 2 24 4 -30 0
1 6 28 2 24 4 -27 0
1 6 28 2 4 26 -25 0
1 6 28 2 4 26 -29 0
1 6 28 2 4 26 -30 0
1 6 28 2 4 26 -27 0
1 6 52 2 48 4 -51 0
1 6 52 2 48 4 -53 0
1 6 52 2 48 4 -54 0
1 6 52 2 48 4 -50 0
1 6 52 2 4 49 -51 0
1 6 52 2 4 49 -53 0
1 6 52 2 4 49 -54 0
1 6 52 2 4 49 -50 0
1 6 42 2 40 4 -45 0
1 6 42 2 40 4 -46 0
1 6 42 2 40 4 -41 0
1 6 42 2 40 4 -44 0
1 6 42 2 4 43 -45 0
1 6 42 2 4 43 -46 0
1 6 42 2 4 43 -41 0
1 6 42 2 4 43 -44 0
1 6 36 2 35 4 -33 0
1 6 36 2 35 4 -31 0
1 6 36 2 35 4 -37 0
1 6 36 2 35 4 -38 0
1 6 36 2 4 32 -33 0
1 6 36 2 4 32 -31 0
1 6 36 2 4 32 -37 0
1 6 36 2 4 32 -38 0
1 6 10 2 9 4 -7 0
1 6 10 2 9 4 -14 0
1 6 10 2 9 4 -13 0
1 6 10 2 9 4 -12 0
1 6 10 2 4 11 -7 0
1 6 10 2 4 11 -14 0
1 6 10 2 4 11 -13 0
1 6 10 2 4 11 -12 0
1 6 22 2 18 4 -16 0
1 6 22 2 18 4 -15 0
1 6 22 2 18 4 -20 0
1 6 22 2 18 4 -19 0
1 6 22 2 4 21 -16 0
1 6 22 2 4 21 -15 0
1 6 22 2 4 21 -20 0
1 6 22 2 4 21 -19 0
1 6 2 24 4 26 -25 0
1 6 2 24 4 26 -29 0
1 6 2 24 4 26 -30 0
1 6 2 24 4 26 -27 0
1 6 2 48 4 49 -51 0
1 6 2 48 4 49 -53 0
1 6 2 48 4 49 -54 0
1 6 2 48 4 49 -50 0
1 6 2 40 4 43 -45 0
1 6 2 40 4 43 -46 0
1 6 2 40 4 43 -41 0
1 6 2 40 4 43 -44 0
1 6 2 35 4 32 -33 0
1 6 2 35 4 32 -31 0
1 6 2 35 4 32 -37 0
1 6 2 35 4 32 -38 0
1 6 2 9 4 11 -7 0
1 6 2 9 4 11 -14 0
1 6 2 9 4 11 -13 0
1 6 2 9 4 11 -12 0
1 6 2 18 4 21 -16 0
1 6 2 18 4 21 -15 0
1 6 2 18 4 21 -20 0
1 6 2 18 4 21 -19 0
23 47 28 52 24 48 -106 0
23 47 28 52 24 48 -107 0
23 47 28 52 24 48 -108 0
23 47 28 52 24 48 -105 0
23 47 28 52 24 26 -106 0
23 47 28 52 24 26 -107 0
23 47 28 52 24 26 -108 0
23 47 28 52 24 26 -105 0
23 47 28 52 48 49 -106 0
23 47 28 52 48 49 -107 0
23 47 28 52 48 49 -108 0
23 47 28 52 48 49 -105 0
23 47 28 52 26 49 -106 0
23 47 28 52 26 49 -107 0
23 47 28 52 26 49 -108 0
23 47 28 52 26 49 -105 0
23 47 28 24 48 26 -106 0
23 47 28 24 48 26 -107 0
23 47 28 24 48 26 -108 0
23 47 28 24 48 26 -105 0
23 47 28 24 26 49 -106 0
23 47 28 24 26 49 -107 0
23 47 28 24 26 49 -108 0
23 47 28 24 26 49 -105 0
23 47 52 24 48 49 -106 0
23 47 52 24 48 49 -107 0
23 47 52 24 48 49 -108 0
23 47 52 24 48 49 -105 0
23 47 52 48 26 49 -106 0
23 47 52 48 26 49 -107 0
23 47 52 48 26 49 -108 0
23 47 52 48 26 49 -105 0
23 47 24 48 26 49 -106 0
23 47 24 48 26 49 -107 0
23 47 24 48 26 49 -108 0
23 47 24 48 26 49 -105 0
23 39 28 42 24 40 -104 0
23 39 28 42 24 40 -101 0
23 39 28 42 24 40 -102 0
23 39 28 42 24 40 -103 0
23 39 28 42 24 26 -104 0
23 39 28 42 24 26 -101 0
23 39 28 42 24 26 -102 0
23 39 28 42 24 26 -103 0
23 39 28 42 40 43 -104 0
23 39 28 42 40 43 -101 0
23 39 28 42 40 43 -102 0
23 39 28 42 40 43 -103 0
23 39 28 42 26 43 -104 0
23 39 28 42 26 43 -101 0
23 39 28 42 26 43 -102 0
23 39 28 42 26 43 -103 0
23 39 28 24 40 26 -104 0
23 39 28 24 40 26 -101 0
23 39 28 24 40 26 -102 0
23 39 28 24 40 26 -103 0
23 39 28 24 26 43 -104 0
23 39 28 24 26 43 -101 0
23 39 28 24 26 43 -102 0
23 39 28 24 26 43 -103 0
23 39 42 24 40 43 -104 0
23 39 42 24 40 43 -101 0
23 39 42 24 40 43 -102 0
23 39 42 24 40 43 -103 0
23 39 42 40 26 43 -104 0
23 39 42 40 26 43 -101 0
23 39 42 40 26 43 -102 0
23 39 42 40 26 43 -103 0
23 39 24 40 26 43 -104 0
23 39 24 40 26 43 -101 0
23 39 24 40 26 43 -102 0
23 39 24 40 26 43 -103 0
23 34 28 36 24 35 -99 0
23 34 28 36 24 35 -98 0
23 34 28 36 24 35 -97 0
23 34 28 36 24 35 -100 0
23 34 28 36 24 26 -99 0
23 34 28 36 24 26 -98 0
23 34 28 36 24 26 -97 0
23 34 28 36 24 26 -100 0
23 34 28 36 35 32 -99 0
23 34 28 36 35 32 -98 0
23 34 28 36 35 32 -97 0
23 34 28 36 35 32 -100 0
23 34 28 36 26 32 -99 0
23 34 28 36 26 32 -98 0
23 34 28 36 26 32 -97 0
23 34 28 36 26 32 -100 0
23 34 28 24 35 26 -99 0
23 34 28 24 35 26 -98 0
23 34 28 24 35 26 -97 0
23 34 28 24 35 26 -100 0
23 34 28 24 26 32 -99 0
23 34 28 24 26 32 -98 0
23 34 28 24 26 32 -97 0
23 34 28 24 26 32 -100 0
23 34 36 24 35 32 -99 0
23 34 36 24 35 32 -98 0
23 34 36 24 35 32 -97 0
23 34 36 24 35 32 -100 0
23 34 36 35 26 32 -99 0
23 34 36 35 26 32 -98 0
23 34 36 35 26 32 -97 0
23 34 36 35 26 32 -100 0
23 34 24 35 26 32 -99 0
23 34 24 35 26 32 -98 0
23 34 24 35 26 32 -97 0
23 34 24 35 26 32 -100 0
23 8 28 10 24 9 -64 0
23 8 28 10 24 9 -61 0
23 8 28 10 24 9 -62 0
23 8 28 10 24 9 -63 0
23 8 28 10 24 26 -64 0
23 8 28 10 24 26 -61 0
23 8 28 10 24 26 -62 0
23 8 28 10 24 26 -63 0
23 8 28 10 9 11 -64 0
23 8 28 10 9 11 -61 0
23 8 28 10 9 11 -62 0
23 8 28 10 9 11 -63 0
23 8 28 10 26 11 -64 0
23 8 28 10 26 11 -61 0
23 8 28 10 26 11 -62 0
23 8 28 10 26 11 -63 0
23 8 28 24 9 26 -64 0
23 8 28 24 9 26 -61 0
23 8 28 24 9 26 -62 0
23 8 28 24 9 26 -63 0
23 8 28 24 26 11 -64 0
23 8 28 24 26 11 -61 0
23 8 28 24 26 11 -62 0
23 8 28 24 26 11 -63 0
23 8 10 24 9 11 -64 0
23 8 10 24 9 11 -61 0
23 8 10 24 9 11 -62 0
23 8 10 24 9 11 -63 0
23 8 10 9 26 11 -64 0
23 8 10 9 26 11 -61 0
23 8 10 9 26 11 -62 0
23 8 10 9 26 11 -63 0
23 8 24 9 26 11 -64 0
23 8 24 9 26 11 -61 0
23 8 24 9 26 11 -62 0
23 8 24 9 26 11 -63 0
23 17 28 22 24 18 -80 0
23 17 28 22 24 18 -79 0
23 17 28 22 24 18 -82 0
23 17 28 22 24 18 -81 0
23 17 28 22 24 26 -80 0
23 17 28 22 24 26 -79 0
23 17 28 22 24 26 -82 0
23 17 28 22 24 26 -81 0
23 17 28 22 18 21 -80 0
23 17 28 22 18 21 -79 0
23 17 28 22 18 21 -82 0
23 17 28 22 18 21 -81 0
23 17 28 22 26 21 -80 0
23 17 28 22 26 21 -79 0
23 17 28 22 26 21 -82 0
23 17 28 22 26 21 -81 0
23 17 28 24 18 26 -80 0
23 17 28 24 18 26 -79 0
23 17 28 24 18 26 -82 0
23 17 28 24 18 26 -81 0
23 17 28 24 26 21 -80 0
23 17 28 24 26 21 -79 0
23 17 28 24 26 21 -82 0
23 17 28 24 26 21 -81 0
23 17 22 24 18 21 -80 0
23 17 22 24 18 21 -79 0
23 17 22 24 18 21 -82 0
23 17 22 24 18 21 -81 0
23 17 22 18 26 21 -80 0
23 17 22 18 26 21 -79 0
23 17 22 18 26 21 -82 0
23 17 22 18 26 21 -81 0
23 17 24 18 26 21 -80 0
23 17 24 18 26 21 -79 0
23 17 24 18 26 21 -82 0
23 17 24 18 26 21 -81 0
23 6 28 2 24 26 -25 0
23 6 28 2 24 26 -29 0
23 6 28 2 24 26 -30 0
23 6 28 2 24 26 -27 0
23 6 28 24 4 26 -25 0
23 6 28 24 4 26 -29 0
23 6 28 24 4 26 -30 0
23 6 28 24 4 26 -27 0
23 28 52 24 48 26 -106 0
23 28 52 24 48 26 -107 0
23 28 52 24 48 26 -108 0
23 28 52 24 48 26 -105 0
23 28 52 24 26 49 -106 0
23 28 52 24 26 49 -107 0
23 28 52 24 26 49 -108 0
23 28 52 24 26 49 -105 0
23 28 42 24 40 26 -104 0
23 28 42 24 40 26 -101 0
23 28 42 24 40 26 -102 0
23 28 42 24 40 26 -103 0
23 28 42 24 26 43 -104 0
23 28 42 24 26 43 -101 0
23 28 42 24 26 43 -102 0
23 28 42 24 26 43 -103 0
23 28 36 24 35 26 -99 0
23 28 36 24 35 26 -98 0
23 28 36 24 35 26 -97 0
23 28 36 24 35 26 -100 0
23 28 36 24 26 32 -99 0
23 28 36 24 26 32 -98 0
23 28 36 24 26 32 -97 0
23 28 36 24 26 32 -100 0
23 28 10 24 9 26 -64 0
23 28 10 24 9 26 -61 0
23 28 10 24 9 26 -62 0
23 28 10 24 9 26 -63 0
23 28 10 24 26 11 -64 0
23 28 10 24 26 11 -61 0
23 28 10 24 26 11 -62 0
23 28 10 24 26 11 -63 0
23 28 22 24 18 26 -80 0
23 28 22 24 18 26 -79 0
23 28 22 24 18 26 -82 0
23 28 22 24 18 26 -81 0
23 28 22 24 26 21 -80 0
23 28 22 24 26 21 -79 0
23 28 22 24 26 21 -82 0
23 28 22 24 26 21 -81 0
23 28 2 24 4 26 -25 0
23 28 2 24 4 26 -29 0
23 28 2 24 4 26 -30 0
23 28 2 24 4 26 -27 0
23 28 24 48 26 49 -106 0
23 28 24 48 26 49 -107 0
23 28 24 48 26 49 -108 0
23 28 24 48 26 49 -105 0
23 28 24 40 26 43 -104 0
23 28 24 40 26 43 -101 0
23 28 24 40 26 43 -102 0
23 28 24 40 26 43 -103 0
23 28 24 35 26 32 -99 0
23 28 24 35 26 32 -98 0
23 28 24 35 26 32 -97 0
23 28 24 35 26 32 -100 0
23 28 24 9 26 11 -64 0
23 28 24 9 26 11 -61 0
23 28 24 9 26 11 -62 0
23 28 24 9 26 11 -63 0
23 28 24 18 26 21 -80 0
23 28 24 18 26 21 -79 0
23 28 24 18 26 21 -82 0
23 28 24 18 26 21 -81 0
47 39 52 42 48 40 -123 0
47 39 52 42 48 40 -121 0
47 39 52 42 48 40 -124 0
47 39 52 42 48 40 -122 0
47 39 52 42 48 49 -123 0
47 39 52 42 48 49 -121 0
47 39 52 42 48 49 -124 0
47 39 52 42 48 49 -122 0
47 39 52 42 40 43 -123 0
47 39 52 42 40 43 -121 0
47 39 52 42 40 43 -124 0
47 39 52 42 40 43 -122 0
47 39 52 42 49 43 -123 0
47 39 52 42 49 43 -121 0
47 39 52 42 49 43 -124 0
47 39 52 42 49 43 -122 0
47 39 52 48 40 49 -123 0
47 39 52 48 40 49 -121 0
47 39 52 48 40 49 -124 0
47 39 52 48 40 49 -122 0
47 39 52 48 49 43 -123 0
47 39 52 48 49 43 -121 0
47 39 52 48 49 43 -124 0
47 39 52 48 49 43 -122 0
47 39 42 48 40 43 -123 0
47 39 42 48 40 43 -121 0
47 39 42 48 40 43 -124 0
47 39 42 48 40 43 -122 0
47 39 42 40 49 43 -123 0
47 39 42 40 49 43 -121 0
47 39 42 40 49 43 -124 0
47 39 42 40 49 43 -122 0
47 39 48 40 49 43 -123 0
47 39 48 40 49 43 -121 0
47 39 48 40 49 43 -124 0
47 39 48 40 49 43 -122 0
47 34 52 36 48 35 -118 0
47 34 52 36 48 35 -116 0
47 34 52 36 48 35 -115 0
47 34 52 36 48 35 -117 0
47 34 52 36 48 49 -118 0
47 34 52 36 48 49 -116 0
47 34 52 36 48 49 -115 0
47 34 52 36 48 49 -117 0
47 34 52 36 35 32 -118 0
47 34 52 36 35 32 -116 0
47 34 52 36 35 32 -115 0
47 34 52 36 35 32 -117 0
47 34 52 36 49 32 -118 0
47 34 52 36 49 32 -116 0
47 34 52 36 49 32 -115 0
47 34 52 36 49 32 -117 0
47 34 52 48 35 49 -118 0
47 34 52 48 35 49 -116 0
47 34 52 48 35 49 -115 0
47 34 52 48 35 49 -117 0
47 34 52 48 49 32 -118 0
47 34 52 48 49 32 -116 0
47 34 52 48 49 32 -115 0
47 34 52 48 49 32 -117 0
47 34 36 48 35 32 -118 0
47 34 36 48 35 32 -116 0
47 34 36 48 35 32 -115 0
47 34 36 48 35 32 -117 0
47 34 36 35 49 32 -118 0
47 34 36 35 49 32 -116 0
47 34 36 35 49 32 -115 0
47 34 36 35 49 32 -117 0
47 34 48 35 49 32 -118 0
47 34 48 35 49 32 -116 0
47 34 48 35 49 32 -115 0
47 34 48 35 49 32 -117 0
47 8 52 10 48 9 -76 0
47 8 52 10 48 9 -75 0
47 8 52 10 48 9 -74 0
47 8 52 10 48 9 -73 0
47 8 52 10 48 49 -76 0
47 8 52 10 48 49 -75 0
47 8 52 10 48 49 -74 0
47 8 52 10 48 49 -73 0
47 8 52 10 9 11 -76 0
47 8 52 10 9 11 -75 0
47 8 52 10 9 11 -74 0
47 8 52 10 9 11 -73 0
47 8 52 10 49 11 -76 0
47 8 52 10 49 11 -75 0
47 8 52 10 49 11 -74 0
47 8 52 10 49 11 -73 0
47 8 52 48 9 49 -76 0
47 8 52 48 9 49 -75 0
47 8 52 48 9 49 -74 0
47 8 52 48 9 49 -73 0
47 8 52 48 49 11 -76 0
47 8 52 48 49 11 -75 0
47 8 52 48 49 11 -74 0
47 8 52 48 49 11 -73 0
47 8 10 48 9 11 -76 0
47 8 10 48 9 11 -75 0
47 8 10 48 9 11 -74 0
47 8 10 48 9 11 -73 0
47 8 10 9 49 11 -76 0
47 8 10 9 49 11 -75 0
47 8 10 9 49 11 -74 0
47 8 10 9 49 11 -73 0
47 8 48 9 49 11 -76 0
47 8 48 9 49 11 -75 0
47 8 48 9 49 11 -74 0
47 8 48 9 49 11 -73 0
47 17 52 22 48 18 -92 0
47 17 52 22 48 18 -91 0
47 17 52 22 48 18 -94 0
47 17 52 22 48 18 -93 0
47 17 52 22 48 49 -92 0
47 17 52 22 48 49 -91 0
47 17 52 22 48 49 -94 0
47 17 52 22 48 49 -93 0
47 17 52 22 18 21 -92 0
47 17 52 22 18 21 -91 0
47 17 52 22 18 21 -94 0
47 17 52 22 18 21 -93 0
47 17 52 22 49 21 -92 0
47 17 52 22 49 21 -91 0
47 17 52 22 49 21 -94 0
47 17 52 22 49 21 -93 0
47 17 52 48 18 49 -92 0
47 17 52 48 18 49 -91 0
47 17 52 48 18 49 -94 0
47 17 52 48 18 49 -93 0
47 17 52 48 49 21 -92 0
47 17 52 48 49 21 -91 0
47 17 52 48 49 21 -94 0
47 17 52 48 49 21 -93 0
47 17 22 48 18 21 -92 0
47 17 22 48 18 21 -91 0
47 17 22 48 18 21 -94 0
47 17 22 48 18 21 -93 0
47 17 22 18 49 21 -92 0
47 17 22 18 49 21 -91 0
47 17 22 18 49 21 -94 0
47 17 22 18 49 21 -93 0
47 17 48 18 49 21 -92 0
47 17 48 18 49 21 -91 0
47 17 48 18 49 21 -94 0
47 17 48 18 49 21 -93 0
47 6 52 2 48 49 -51 0
47 6 52 2 48 49 -53 0
47 6 52 2 48 49 -54 0
47 6 52 2 48 49 -50 0
47 6 52 48 4 49 -51 0
47 6 52 48 4 49 -53 0
47 6 52 48 4 49 -54 0
47 6 52 48 4 49 -50 0
47 28 52 24 48 49 -106 0
47 28 52 24 48 49 -107 0
47 28 52 24 48 49 -108 0
47 28 52 24 48 49 -105 0
47 28 52 48 26 49 -106 0
47 28 52 48 26 49 -107 0
47 28 52 48 26 49 -108 0
47 28 52 48 26 49 -105 0
47 52 42 48 40 49 -123 0
47 52 42 48 40 49 -121 0
47 52 42 48 40 49 -124 0
47 52 42 48 40 49 -122 0
47 52 42 48 49 43 -123 0
47 52 42 48 49 43 -121 0
47 52 42 48 49 43 -124 0
47 52 42 48 49 43 -122 0
47 52 36 48 35 49 -118 0
47 52 36 48 35 49 -116 0
47 52 36 48 35 49 -115 0
47 52 36 48 35 49 -117 0
47 52 36 48 49 32 -118 0
47 52 36 48 49 32 -116 0
47 52 36 48 49 32 -115 0
47 52 36 48 49 32 -117 0
47 52 10 48 9 49 -76 0
47 52 10 48 9 49 -75 0
47 52 10 48 9 49 -74 0
47 52 10 48 9 49 -73 0
47 52 10 48 49 11 -76 0
47 52 10 48 49 11 -75 0
47 52 10 48 49 11 -74 0
47 52 10 48 49 11 -73 0
47 52 22 48 18 49 -92 0
47 52 22 48 18 49 -91 0
47 52 22 48 18 49 -94 0
47 52 22 48 18 49 -93 0
47 52 22 48 49 21 -92 0
47 52 22 48 49 21 -91 0
47 52 22 48 49 21 -94 0
47 52 22 48 49 21 -93 0
47 52 2 48 4 49 -51 0
47 52 2 48 4 49 -53 0
47 52 2 48 4 49 -54 0
47 52 2 48 4 49 -50 0
47 52 24 48 26 49 -106 0
47 52 24 48 26 49 -107 0
47 52 24 48 26 49 -108 0
47 52 24 48 26 49 -105 0
47 52 48 40 49 43 -123 0
47 52 48 40 49 43 -121 0
47 52 48 40 49 43 -124 0
47 52 48 40 49 43 -122 0
47 52 48 35 49 32 -118 0
47 52 48 35 49 32 -116 0
47 52 48 35 49 32 -115 0
47 52 48 35 49 32 -117 0
47 52 48 9 49 11 -76 0
47 52 48 9 49 11 -75 0
47 52 48 9 49 11 -74 0
47 52 48 9 49 11 -73 0
47 52 48 18 49 21 -92 0
47 52 48 18 49 21 -91 0
47 52 48 18 49 21 -94 0
47 52 48 18 49 21 -93 0
39 34 42 36 40 35 -114 0
39 34 42 36 40 35 -112 0
39 34 42 36 40 35 -111 0
39 34 42 36 40 35 -113 0
39 34 42 36 40 43 -114 0
39 34 42 36 40 43 -112 0
39 34 42 36 40 43 -111 0
39 34 42 36 40 43 -113 0
39 34 42 36 35 32 -114 0
39 34 42 36 35 32 -112 0
39 34 42 36 35 32 -111 0
39 34 42 36 35 32 -113 0
39 34 42 36 43 32 -114 0
39 34 42 36 43 32 -112 0
39 34 42 36 43 32 -111 0
39 34 42 36 43 32 -113 0
39 34 42 40 35 43 -114 0
39 34 42 40 35 43 -112 0
39 34 42 40 35 43 -111 0
39 34 42 40 35 43 -113 0
39 34 42 40 43 32 -114 0
39 34 42 40 43 32 -112 0
39 34 42 40 43 32 -111 0
39 34 42 40 43 32 -113 0
39 34 36 40 35 32 -114 0
39 34 36 40 35 32 -112 0
39 34 36 40 35 32 -111 0
39 34 36 40 35 32 -113 0
39 34 36 35 43 32 -114 0
39 34 36 35 43 32 -112 0
39 34 36 35 43 32 -111 0
39 34 36 35 43 32 -113 0
39 34 40 35 43 32 -114 0
39 34 40 35 43 32 -112 0
39 34 40 35 43 32 -111 0
39 34 40 35 43 32 -113 0
39 8 42 10 40 9 -69 0
39 8 42 10 40 9 -72 0
39 8 42 10 40 9 -70 0
39 8 42 10 40 9 -71 0
39 8 42 10 40 43 -69 0
39 8 42 10 40 43 -72 0
39 8 42 10 40 43 -70 0
39 8 42 10 40 43 -71 0
39 8 42 10 9 11 -69 0
39 8 42 10 9 11 -72 0
39 8 42 10 9 11 -70 0
39 8 42 10 9 11 -71 0
39 8 42 10 43 11 -69 0
39 8 42 10 43 11 -72 0
39 8 42 10 43 11 -70 0
39 8 42 10 43 11 -71 0
39 8 42 40 9 43 -69 0
39 8 42 40 9 43 -72 0
39 8 42 40 9 43 -70 0
39 8 42 40 9 43 -71 0
39 8 42 40 43 11 -69 0
39 8 42 40 43 11 -72 0
39 8 42 40 43 11 -70 0
39 8 42 40 43 11 -71 0
39 8 10 40 9 11 -69 0
39 8 10 40 9 11 -72 0
39 8 10 40 9 11 -70 0
39 8 10 40 9 11 -71 0
39 8 10 9 43 11 -69 0
39 8 10 9 43 11 -72 0
39 8 10 9 43 11 -70 0
39 8 10 9 43 11 -71 0
39 8 40 9 43 11 -69 0
39 8 40 9 43 11 -72 0
39 8 40 9 43 11 -70 0
39 8 40 9 43 11 -71 0
39 17 42 22 40 18 -88 0
39 17 42 22 40 18 -89 0
39 17 42 22 40 18 -87 0
39 17 42 22 40 18 -90 0
39 17 42 22 40 43 -88 0
39 17 42 22 40 43 -89 0
39 17 42 22 40 43 -87 0
39 17 42 22 40 43 -90 0
39 17 42 22 18 21 -88 0
39 17 42 22 18 21 -89 0
39 17 42 22 18 21 -87 0
39 17 42 22 18 21 -90 0
39 17 42 22 43 21 -88 0
39 17 42 22 43 21 -89 0
39 17 42 22 43 21 -87 0
39 17 42 22 43 21 -90 0
39 17 42 40 18 43 -88 0
39 17 42 40 18 43 -89 0
39 17 42 40 18 43 -87 0
39 17 42 40 18 43 -90 0
39 17 42 40 43 21 -88 0
39 17 42 40 43 21 -89 0
39 17 42 40 43 21 -87 0
39 17 42 40 43 21 -90 0
39 17 22 40 18 21 -88 0
39 17 22 40 18 21 -89 0
39 17 22 40 18 21 -87 0
39 17 22 40 18 21 -90 0
39 17 22 18 43 21 -88 0
39 17 22 18 43 21 -89 0
39 17 22 18 43 21 -87 0
39 17 22 18 43 21 -90 0
39 17 40 18 43 21 -88 0
39 17 40 18 43 21 -89 0
39 17 40 18 43 21 -87 0
39 17 40 18 43 21 -90 0
39 6 42 2 40 43 -45 0
39 6 42 2 40 43 -46 0
39 6 42 2 40 43 -41 0
39 6 42 2 40 43 -44 0
39 6 42 40 4 43 -45 0
39 6 42 40 4 43 -46 0
39 6 42 40 4 43 -41 0
39 6 42 40 4 43 -44 0
39 28 42 24 40 43 -104 0
39 28 42 24 40 43 -101 0
39 28 42 24 40 43 -102 0
39 28 42 24 40 43 -103 0
39 28 42 40 26 43 -104 0
39 28 42 40 26 43 -101 0
39 28 42 40 26 43 -102 0
39 28 42 40 26 43 -103 0
39 52 42 48 40 43 -123 0
39 52 42 48 40 43 -121 0
39 52 42 48 40 43 -124 0
39 52 42 48 40 43 -122 0
39 52 42 40 49 43 -123 0
39 52 42 40 49 43 -121 0
39 52 42 40 49 43 -124 0
39 52 42 40 49 43 -122 0
39 42 36 40 35 43 -114 0
39 42 36 40 35 43 -112 0
39 42 36 40 35 43 -111 0
39 42 36 40 35 43 -113 0
39 42 36 40 43 32 -114 0
39 42 36 40 43 32 -112 0
39 42 36 40 43 32 -111 0
39 42 36 40 43 32 -113 0
39 42 10 40 9 43 -69 0
39 42 10 40 9 43 -72 0
39 42 10 40 9 43 -70 0
39 42 10 40 9 43 -71 0
39 42 10 40 43 11 -69 0
39 42 10 40 43 11 -72 0
39 42 10 40 43 11 -70 0
39 42 10 40 43 11 -71 0
39 42 22 40 18 43 -88 0
39 42 22 40 18 43 -89 0
39 42 22 40 18 43 -87 0
39 42 22 40 18 43 -90 0
39 42 22 40 43 21 -88 0
39 42 22 40 43 21 -89 0
39 42 22 40 43 21 -87 0
39 42 22 40 43 21 -90 0
39 42 2 40 4 43 -45 0
39 42 2 40 4 43 -46 0
39 42 2 40 4 43 -41 0
39 42 2 40 4 43 -44 0
39 42 24 40 26 43 -104 0
39 42 24 40 26 43 -101 0
39 42 24 40 26 43 -102 0
39 42 24 40 26 43 -103 0
39 42 48 40 49 43 -123 0
39 42 48 40 49 43 -121 0
39 42 48 40 49 43 -124 0
39 42 48 40 49 43 -122 0
39 42 40 35 43 32 -114 0
39 42 40 35 43 32 -112 0
39 42 40 35 43 32 -111 0
39 42 40 35 43 32 -113 0
39 42 40 9 43 11 -69 0
39 42 40 9 43 11 -72 0
39 42 40 9 43 11 -70 0
39 42 40 9 43 11 -71 0
39 42 40 18 43 21 -88 0
39 42 40 18 43 21 -89 0
39 42 40 18 43 21 -87 0
39 42 40 18 43 21 -90 0
34 8 36 10 35 9 -67 0
34 8 36 10 35 9 -65 0
34 8 36 10 35 9 -68 0
34 8 36 10 35 9 -66 0
34 8 36 10 35 32 -67 0
34 8 36 10 35 32 -65 0
34 8 36 10 35 32 -68 0
34 8 36 10 35 32 -66 0
34 8 36 10 9 11 -67 0
34 8 36 10 9 11 -65 0
34 8 36 10 9 11 -68 0
34 8 36 10 9 11 -66 0
34 8 36 10 32 11 -67 0
34 8 36 10 32 11 -65 0
34 8 36 10 32 11 -68 0
34 8 36 10 32 11 -66 0
34 8 36 35 9 32 -67 0
34 8 36 35 9 32 -65 0
34 8 36 35 9 32 -68 0
34 8 36 35 9 32 -66 0
34 8 36 35 32 11 -67 0
34 8 36 35 32 11 -65 0
34 8 36 35 32 11 -68 0
34 8 36 35 32 11 -66 0
34 8 10 35 9 11 -67 0
34 8 10 35 9 11 -65 0
34 8 10 35 9 11 -68 0
34 8 10 35 9 11 -66 0
34 8 10 9 32 11 -67 0
34 8 10 9 32 11 -65 0
34 8 10 9 32 11 -68 0
34 8 10 9 32 11 -66 0
34 8 35 9 32 11 -67 0
34 8 35 9 32 11 -65 0
34 8 35 9 32 11 -68 0
34 8 35 9 32 11 -66 0
34 17 36 22 35 18 -83 0
34 17 36 22 35 18 -85 0
34 17 36 22 35 18 -84 0
34 17 36 22 35 18 -86 0
34 17 36 22 35 32 -83 0
34 17 36 22 35 32 -85 0
34 17 36 22 35 32 -84 0
34 17 36 22 35 32 -86 0
34 17 36 22 18 21 -83 0
34 17 36 22 18 21 -85 0
34 17 36 22 18 21 -84 0
34 17 36 22 18 21 -86 0
34 17 36 22 32 21 -83 0
34 17 36 22 32 21 -85 0
34 17 36 22 32 21 -84 0
34 17 36 22 32 21 -86 0
34 17 36 35 18 32 -83 0
34 17 36 35 18 32 -85 0
34 17 36 35 18 32 -84 0
34 17 36 35 18 32 -86 0
34 17 36 35 32 21 -83 0
34 17 36 35 32 21 -85 0
34 17 36 35 32 21 -84 0
34 17 36 35 32 21 -86 0
34 17 22 35 18 21 -83 0
34 17 22 35 18 21 -85 0
34 17 22 35 18 21 -84 0
34 17 22 35 18 21 -86 0
34 17 22 18 32 21 -83 0
34 17 22 18 32 21 -85 0
34 17 22 18 32 21 -84 0
34 17 22 18 32 21 -86 0
34 17 35 18 32 21 -83 0
34 17 35 18 32 21 -85 0
34 17 35 18 32 21 -84 0
34 17 35 18 32 21 -86 0
34 6 36 2 35 32 -33 0
34 6 36 2 35 32 -31 0
34 6 36 2 35 32 -37 0
34 6 36 2 35 32 -38 0
34 6 36 35 4 32 -33 0
34 6 36 35 4 32 -31 0
34 6 36 35 4 32 -37 0
34 6 36 35 4 32 -38 0
34 28 36 24 35 32 -99 0
34 28 36 24 35 32 -98 0
34 28 36 24 35 32 -97 0
34 28 36 24 35 32 -100 0
34 28 36 35 26 32 -99 0
34 28 36 35 26 32 -98 0
34 28 36 35 26 32 -97 0
34 28 36 35 26 32 -100 0
34 52 36 48 35 32 -118 0
34 52 36 48 35 32 -116 0
34 52 36 48 35 32 -115 0
34 52 36 48 35 32 -117 0
34 52 36 35 49 32 -118 0
34 52 36 35 49 32 -116 0
34 52 36 35 49 32 -115 0
34 52 36 35 49 32 -117 0
34 42 36 40 35 32 -114 0
34 42 36 40 35 32 -112 0
34 42 36 40 35 32 -111 0
34 42 36 40 35 32 -113 0
34 42 36 35 43 32 -114 0
34 42 36 35 43 32 -112 0
34 42 36 35 43 32 -111 0
34 42 36 35 43 32 -113 0
34 36 10 35 9 32 -67 0
34 36 10 35 9 32 -65 0
34 36 10 35 9 32 -68 0
34 36 10 35 9 32 -66 0
34 36 10 35 32 11 -67 0
34 36 10 35 32 11 -65 0
34 36 10 35 32 11 -68 0
34 36 10 35 32 11 -66 0
34 36 22 35 18 32 -83 0
34 36 22 35 18 32 -85 0
34 36 22 35 18 32 -84 0
34 36 22 35 18 32 -86 0
34 36 22 35 32 21 -83 0
34 36 22 35 32 21 -85 0
34 36 22 35 32 21 -84 0
34 36 22 35 32 21 -86 0
34 36 2 35 4 32 -33 0
34 36 2 35 4 32 -31 0
34 36 2 35 4 32 -37 0
34 36 2 35 4 32 -38 0
34 36 24 35 26 32 -99 0
34 36 24 35 26 32 -98 0
34 36 24 35 26 32 -97 0
34 36 24 35 26 32 -100 0
34 36 48 35 49 32 -118 0
34 36 48 35 49 32 -116 0
34 36 48 35 49 32 -115 0
34 36 48 35 49 32 -117 0
34 36 40 35 43 32 -114 0
34 36 40 35 43 32 -112 0
34 36 40 35 43 32 -111 0
34 36 40 35 43 32 -113 0
34 36 35 9 32 11 -67 0
34 36 35 9 32 11 -65 0
34 36 35 9 32 11 -68 0
34 36 35 9 32 11 -66 0
34 36 35 18 32 21 -83 0
34 36 35 18 32 21 -85 0
34 36 35 18 32 21 -84 0
34 36 35 18 32 21 -86 0
8 17 10 22 9 18 -60 0
8 17 10 22 9 18 -57 0
8 17 10 22 9 18 -58 0
8 17 10 22 9 18 -59 0
8 17 10 22 9 11 -60 0
8 17 10 22 9 11 -57 0
8 17 10 22 9 11 -58 0
8 17 10 22 9 11 -59 0
8 17 10 22 18 21 -60 0
8 17 10 22 18 21 -57 0
8 17 10 22 18 21 -58 0
8 17 10 22 18 21 -59 0
8 17 10 22 11 21 -60 0
8 17 10 22 11 21 -57 0
8 17 10 22 11 21 -58 0
8 17 10 22 11 21 -59 0
8 17 10 9 18 11 -60 0
8 17 10 9 18 11 -57 0
8 17 10 9 18 11 -58 0
8 17 10 9 18 11 -59 0
8 17 10 9 11 21 -60 0
8 17 10 9 11 21 -57 0
8 17 10 9 11 21 -58 0
8 17 10 9 11 21 -59 0
8 17 22 9 18 21 -60 0
8 17 22 9 18 21 -57 0
8 17 22 9 18 21 -58 0
8 17 22 9 18 21 -59 0
8 17 22 18 11 21 -60 0
8 17 22 18 11 21 -57 0
8 17 22 18 11 21 -58 0
8 17 22 18 11 21 -59 0
8 17 9 18 11 21 -60 0
8 17 9 18 11 21 -57 0
8 17 9 18 11 21 -58 0
8 17 9 18 11 21 -59 0
8 6 10 2 9 11 -7 0
8 6 10 2 9 11 -14 0
8 6 10 2 9 11 -13 0
8 6 10 2 9 11 -12 0
8 6 10 9 4 11 -7 0
8 6 10 9 4 11 -14 0
8 6 10 9 4 11 -13 0
8 6 10 9 4 11 -12 0
8 28 10 24 9 11 -64 0
8 28 10 24 9 11 -61 0
8 28 10 24 9 11 -62 0
8 28 10 24 9 11 -63 0
8 28 10 9 26 11 -64 0
8 28 10 9 26 11 -61 0
8 28 10 9 26 11 -62 0
8 28 10 9 26 11 -63 0
8 52 10 48 9 11 -76 0
8 52 10 48 9 11 -75 0
8 52 10 48 9 11 -74 0
8 52 10 48 9 11 -73 0
8 52 10 9 49 11 -76 0
8 52 10 9 49 11 -75 0
8 52 10 9 49 11 -74 0
8 52 10 9 49 11 -73 0
8 42 10 40 9 11 -69 0
8 42 10 40 9 11 -72 0
8 42 10 40 9 11 -70 0
8 42 10 40 9 11 -71 0
8 42 10 9 43 11 -69 0
8 42 10 9 43 11 -72 0
8 42 10 9 43 11 -70 0
8 42 10 9 43 11 -71 0
8 36 10 35 9 11 -67 0
8 36 10 35 9 11 -65 0
8 36 10 35 9 11 -68 0
8 36 10 35 9 11 -66 0
8 36 10 9 32 11 -67 0
8 36 10 9 32 11 -65 0
8 36 10 9 32 11 -68 0
8 36 10 9 32 11 -66 0
8 10 22 9 18 11 -60 0
8 10 22 9 18 11 -57 0
8 10 22 9 18 11 -58 0
8 10 22 9 18 11 -59 0
8 10 22 9 11 21 -60 0
8 10 22 9 11 21 -57 0
8 10 22 9 11 21 -58 0
8 10 22 9 11 21 -59 0
8 10 2 9 4 11 -7 0
8 10 2 9 4 11 -14 0
8 10 2 9 4 11 -13 0
8 10 2 9 4 11 -12 0
8 10 24 9 26 11 -64 0
8 10 24 9 26 11 -61 0
8 10 24 9 26 11 -62 0
8 10 24 9 26 11 -63 0
8 10 48 9 49 11 -76 0
8 10 48 9 49 11 -75 0
8 10 48 9 49 11 -74 0
8 10 48 9 49 11 -73 0
8 10 40 9 43 11 -69 0
8 10 40 9 43 11 -72 0
8 10 40 9 43 11 -70 0
8 10 40 9 43 11 -71 0
8 10 35 9 32 11 -67 0
8 10 35 9 32 11 -65 0
8 10 35 9 32 11 -68 0
8 10 35 9 32 11 -66 0
8 10 9 18 11 21 -60 0
8 10 9 18 11 21 -57 0
8 10 9 18 11 21 -58 0
8 10 9 18 11 21 -59 0
17 6 22 2 18 21 -16 0
17 6 22 2 18 21 -15 0
17 6 22 2 18 21 -20 0
17 6 22 2 18 21 -19 0
17 6 22 18 4 21 -16 0
17 6 22 18 4 21 -15 0
17 6 22 18 4 21 -20 0
17 6 22 18 4 21 -19 0
17 28 22 24 18 21 -80 0
17 28 22 24 18 21 -79 0
17 28 22 24 18 21 -82 0
17 28 22 24 18 21 -81 0
17 28 22 18 26 21 -80 0
17 28 22 18 26 21 -79 0
17 28 22 18 26 21 -82 0
17 28 22 18 26 21 -81 0
17 52 22 48 18 21 -92 0
17 52 22 48 18 21 -91 0
17 52 22 48 18 21 -94 0
17 52 22 48 18 21 -93 0
17 52 22 18 49 21 -92 0
17 52 22 18 49 21 -91 0
17 52 22 18 49 21 -94 0
17 52 22 18 49 21 -93 0
17 42 22 40 18 21 -88 0
17 42 22 40 18 21 -89 0
17 42 22 40 18 21 -87 0
17 42 22 40 18 21 -90 0
17 42 22 18 43 21 -88 0
17 42 22 18 43 21 -89 0
17 42 22 18 43 21 -87 0
17 42 22 18 43 21 -90 0
17 36 22 35 18 21 -83 0
17 36 22 35 18 21 -85 0
17 36 22 35 18 21 -84 0
17 36 22 35 18 21 -86 0
17 36 22 18 32 21 -83 0
17 36 22 18 32 21 -85 0
17 36 22 18 32 21 -84 0
17 36 22 18 32 21 -86 0
17 10 22 9 18 21 -60 0
17 10 22 9 18 21 -57 0
17 10 22 9 18 21 -58 0
17 10 22 9 18 21 -59 0
17 10 22 18 11 21 -60 0
17 10 22 18 11 21 -57 0
17 10 22 18 11 21 -58 0
17 10 22 18 11 21 -59 0
17 22 2 18 4 21 -16 0
17 22 2 18 4 21 -15 0
17 22 2 18 4 21 -20 0
17 22 2 18 4 21 -19 0
17 22 24 18 26 21 -80 0
17 22 24 18 26 21 -79 0
17 22 24 18 26 21 -82 0
17 22 24 18 26 21 -81 0
17 22 48 18 49 21 -92 0
17 22 48 18 49 21 -91 0
17 22 48 18 49 21 -94 0
17 22 48 18 49 21 -93 0
17 22 40 18 43 21 -88 0
17 22 40 18 43 21 -89 0
17 22 40 18 43 21 -87 0
17 22 40 18 43 21 -90 0
17 22 35 18 32 21 -83 0
17 22 35 18 32 21 -85 0
17 22 35 18 32 21 -84 0
17 22 35 18 32 21 -86 0
17 22 9 18 11 21 -60 0
17 22 9 18 11 21 -57 0
17 22 9 18 11 21 -58 0
17 22 9 18 11 21 -59 0
6 28 2 24 4 26 -25 0
6 28 2 24 4 26 -29 0
6 28 2 24 4 26 -30 0
6 28 2 24 4 26 -27 0
6 52 2 48 4 49 -51 0
6 52 2 48 4 49 -53 0
6 52 2 48 4 49 -54 0
6 52 2 48 4 49 -50 0
6 42 2 40 4 43 -45 0
6 42 2 40 4 43 -46 0
6 42 2 40 4 43 -41 0
6 42 2 40 4 43 -44 0
6 36 2 35 4 32 -33 0
6 36 2 35 4 32 -31 0
6 36 2 35 4 32 -37 0
6 36 2 35 4 32 -38 0
6 10 2 9 4 11 -7 0
6 10 2 9 4 11 -14 0
6 10 2 9 4 11 -13 0
6 10 2 9 4 11 -12 0
6 22 2 18 4 21 -16 0
6 22 2 18 4 21 -15 0
6 22 2 18 4 21 -20 0
6 22 2 18 4 21 -19 0
28 52 24 48 26 49 -106 0
28 52 24 48 26 49 -107 0
28 52 24 48 26 49 -108 0
28 52 24 48 26 49 -105 0
28 42 24 40 26 43 -104 0
28 42 24 40 26 43 -101 0
28 42 24 40 26 43 -102 0
28 42 24 40 26 43 -103 0
28 36 24 35 26 32 -99 0
28 36 24 35 26 32 -98 0
28 36 24 35 26 32 -97 0
28 36 24 35 26 32 -100 0
28 10 24 9 26 11 -64 0
28 10 24 9 26 11 -61 0
28 10 24 9 26 11 -62 0
28 10 24 9 26 11 -63 0
28 22 24 18 26 21 -80 0
28 22 24 18 26 21 -79 0
28 22 24 18 26 21 -82 0
28 22 24 18 26 21 -81 0
52 42 48 40 49 43 -123 0
52 42 48 40 49 43 -121 0
52 42 48 40 49 43 -124 0
52 42 48 40 49 43 -122 0
52 36 48 35 49 32 -118 0
52 36 48 35 49 32 -116 0
52 36 48 35 49 32 -115 0
52 36 48 35 49 32 -117 0
52 10 48 9 49 11 -76 0
52 10 48 9 49 11 -75 0
52 10 48 9 49 11 -74 0
52 10 48 9 49 11 -73 0
52 22 48 18 49 21 -92 0
52 22 48 18 49 21 -91 0
52 22 48 18 49 21 -94 0
52 22 48 18 49 21 -93 0
42 36 40 35 43 32 -114 0
42 36 40 35 43 32 -112 0
42 36 40 35 43 32 -111 0
42 36 40 35 43 32 -113 0
42 10 40 9 43 11 -69 0
42 10 40 9 43 11 -72 0
42 10 40 9 43 11 -70 0
42 10 40 9 43 11 -71 0
42 22 40 18 43 21 -88 0
42 22 40 18 43 21 -89 0
42 22 40 18 43 21 -87 0
42 22 40 18 43 21 -90 0
36 10 35 9 32 11 -67 0
36 10 35 9 32 11 -65 0
36 10 35 9 32 11 -68 0
36 10 35 9 32 11 -66 0
36 22 35 18 32 21 -83 0
36 22 35 18 32 21 -85 0
36 22 35 18 32 21 -84 0
36 22 35 18 32 21 -86 0
10 22 9 18 11 21 -60 0
10 22 9 18 11 21 -57 0
10 22 9 18 11 21 -58 0
10 22 9 18 11 21 -59 0
1 23 6 28 2 24 4 -25 0
1 23 6 28 2 24 4 -29 0
1 23 6 28 2 24 4 -30 0
1 23 6 28 2 24 4 -27 0
1 23 6 28 2 24 26 -25 0
1 23 6 28 2 24 26 -29 0
1 23 6 28 2 24 26 -30 0
1 23 6 28 2 24 26 -27 0
1 23 6 28 2 4 26 -25 0
1 23 6 28 2 4 26 -29 0
1 23 6 28 2 4 26 -30 0
1 23 6 28 2 4 26 -27 0
1 23 6 28 24 4 26 -25 0
1 23 6 28 24 4 26 -29 0
1 23 6 28 24 4 26 -30 0
1 23 6 28 24 4 26 -27 0
1 23 6 2 24 4 26 -25 0
1 23 6 2 24 4 26 -29 0
1 23 6 2 24 4 26 -30 0
1 23 6 2 24 4 26 -27 0
1 23 28 2 24 4 26 -25 0
1 23 28 2 24 4 26 -29 0
1 23 28 2 24 4 26 -30 0
1 23 28 2 24 4 26 -27 0
1 47 6 52 2 48 4 -51 0
1 47 6 52 2 48 4 -53 0
1 47 6 52 2 48 4 -54 0
1 47 6 52 2 48 4 -50 0
1 47 6 52 2 48 49 -51 0
1 47 6 52 2 48 49 -53 0
1 47 6 52 2 48 49 -54 0
1 47 6 52 2 48 49 -50 0
1 47 6 52 2 4 49 -51 0
1 47 6 52 2 4 49 -53 0
1 47 6 52 2 4 49 -54 0
1 47 6 52 2 4 49 -50 0
1 47 6 52 48 4 49 -51 0
1 47 6 52 48 4 49 -53 0
1 47 6 52 48 4 49 -54 0
1 47 6 52 48 4 49 -50 0
1 47 6 2 48 4 49 -51 0
1 47 6 2 48 4 49 -53 0
1 47 6 2 48 4 49 -54 0
1 47 6 2 48 4 49 -50 0
1 47 52 2 48 4 49 -51 0
1 47 52 2 48 4 49 -53 0
1 47 52 2 48 4 49 -54 0
1 47 52 2 48 4 49 -50 0
1 39 6 42 2 40 4 -45 0
1 39 6 42 2 40 4 -46 0
1 39 6 42 2 40 4 -41 0
1 39 6 42 2 40 4 -44 0
1 39 6 42 2 40 43 -45 0
1 39 6 42 2 40 43 -46 0
1 39 6 42 2 40 43 -41 0
1 39 6 42 2 40 43 -44 0
1 39 6 42 2 4 43 -45 0
1 39 6 42 2 4 43 -46 0
1 39 6 42 2 4 43 -41 0
1 39 6 42 2 4 43 -44 0
1 39 6 42 40 4 43 -45 0
1 39 6 42 40 4 43 -46 0
1 39 6 42 40 4 43 -41 0
1 39 6 42 40 4 43 -44 0
1 39 6 2 40 4 43 -45 0
1 39 6 2 40 4 43 -46 0
1 39 6 2 40 4 43 -41 0
1 39 6 2 40 4 43 -44 0
1 39 42 2 40 4 43 -45 0
1 39 42 2 40 4 43 -46 0
1 39 42 2 40 4 43 -41 0
1 39 42 2 40 4 43 -44 0
1 34 6 36 2 35 4 -33 0
1 34 6 36 2 35 4 -31 0
1 34 6 36 2 35 4 -37 0
1 34 6 36 2 35 4 -38 0
1 34 6 36 2 35 32 -33 0
1 34 6 36 2 35 32 -31 0
1 34 6 36 2 35 32 -37 0
1 34 6 36 2 35 32 -38 0
1 34 6 36 2 4 32 -33 0
1 34 6 36 2 4 32 -31 0
1 34 6 36 2 4 32 -37 0
1 34 6 36 2 4 32 -38 0
1 34 6 36 35 4 32 -33 0
1 34 6 36 35 4 32 -31 0
1 34 6 36 35 4 32 -37 0
1 34 6 36 35 4 32 -38 0
1 34 6 2 35 4 32 -33 0
1 34 6 2 35 4 32 -31 0
1 34 6 2 35 4 32 -37 0
1 34 6 2 35 4 32 -38 0
1 34 36 2 35 4 32 -33 0
1 34 36 2 35 4 32 -31 0
1 34 36 2 35 4 32 -37 0
1 34 36 2 35 4 32 -38 0
1 8 6 10 2 9 4 -7 0
1 8 6 10 2 9 4 -14 0
1 8 6 10 2 9 4 -13 0
1 8 6 10 2 9 4 -12 0
1 8 6 10 2 9 11 -7 0
1 8 6 10 2 9 11 -14 0
1 8 6 10 2 9 11 -13 0
1 8 6 10 2 9 11 -12 0
1 8 6 10 2 4 11 -7 0
1 8 6 10 2 4 11 -14 0
1 8 6 10 2 4 11 -13 0
1 8 6 10 2 4 11 -12 0
1 8 6 10 9 4 11 -7 0
1 8 6 10 9 4 11 -14 0
1 8 6 10 9 4 11 -13 0
1 8 6 10 9 4 11 -12 0
1 8 6 2 9 4 11 -7 0
1 8 6 2 9 4 11 -14 0
1 8 6 2 9 4 11 -13 0
1 8 6 2 9 4 11 -12 0
1 8 10 2 9 4 11 -7 0
1 8 10 2 9 4 11 -14 0
1 8 10 2 9 4 11 -13 0
1 8 10 2 9 4 11 -12 0
1 17 6 22 2 18 4 -16 0
1 17 6 22 2 18 4 -15 0
1 17 6 22 2 18 4 -20 0
1 17 6 22 2 18 4 -19 0
1 17 6 22 2 18 21 -16 0
1 17 6 22 2 18 21 -15 0
1 17 6 22 2 18 21 -20 0
1 17 6 22 2 18 21 -19 0
1 17 6 22 2 4 21 -16 0
1 17 6 22 2 4 21 -15 0
1 17 6 22 2 4 21 -20 0
1 17 6 22 2 4 21 -19 0
1 17 6 22 18 4 21 -16 0
1 17 6 22 18 4 21 -15 0
1 17 6 22 18 4 21 -20 0
1 17 6 22 18 4 21 -19 0
1 17 6 2 18 4 21 -16 0
1 17 6 2 18 4 21 -15 0
1 17 6 2 18 4 21 -20 0
1 17 6 2 18 4 21 -19 0
1 17 22 2 18 4 21 -16 0
1 17 22 2 18 4 21 -15 0
1 17 22 2 18 4 21 -20 0
1 17 22 2 18 4 21 -19 0
1 6 28 2 24 4 26 -25 0
1 6 28 2 24 4 26 -29 0
1 6 28 2 24 4 26 -30 0
1 6 28 2 24 4 26 -27 0
1 6 52 2 48 4 49 -51 0
1 6 52 2 48 4 49 -53 0
1 6 52 2 48 4 49 -54 0
1 6 52 2 48 4 49 -50 0
1 6 42 2 40 4 43 -45 0
1 6 42 2 40 4 43 -46 0
1 6 42 2 40 4 43 -41 0
1 6 42 2 40 4 43 -44 0
1 6 36 2 35 4 32 -33 0
1 6 36 2 35 4 32 -31 0
1 6 36 2 35 4 32 -37 0
1 6 36 2 35 4 32 -38 0
1 6 10 2 9 4 11 -7 0
1 6 10 2 9 4 11 -14 0
1 6 10 2 9 4 11 -13 0
1 6 10 2 9 4 11 -12 0
1 6 22 2 18 4 21 -16 0
1 6 22 2 18 4 21 -15 0
1 6 22 2 18 4 21 -20 0
1 6 22 2 18 4 21 -19 0
23 47 28 52 24 48 26 -106 0
23 47 28 52 24 48 26 -107 0
23 47 28 52 24 48 26 -108 0
23 47 28 52 24 48 26 -105 0
23 47 28 52 24 48 49 -106 0
23 47 28 52 24 48 49 -107 0
23 47 28 52 24 48 49 -108 0
23 47 28 52 24 48 49 -105 0
23 47 28 52 24 26 49 -106 0
23 47 28 52 24 26 49 -107 0
23 47 28 52 24 26 49 -108 0
23 47 28 52 24 26 49 -105 0
23 47 28 52 48 26 49 -106 0
23 47 28 52 48 26 49 -107 0
23 47 28 52 48 26 49 -108 0
23 47 28 52 48 26 49 -105 0
23 47 28 24 48 26 49 -106 0
23 47 28 24 48 26 49 -107 0
23 47 28 24 48 26 49 -108 0
23 47 28 24 48 26 49 -105 0
23 47 52 24 48 26 49 -106 0
23 47 52 24 48 26 49 -107 0
23 47 52 24 48 26 49 -108 0
23 47 52 24 48 26 49 -105 0
23 39 28 42 24 40 26 -104 0
23 39 28 42 24 40 26 -101 0
23 39 28 42 24 40 26 -102 0
23 39 28 42 24 40 26 -103 0
23 39 28 42 24 40 43 -104 0
23 39 28 42 24 40 43 -101 0
23 39 28 42 24 40 43 -102 0
23 39 28 42 24 40 43 -103 0
23 39 28 42 24 26 43 -104 0
23 39 28 42 24 26 43 -101 0
23 39 28 42 24 26 43 -102 0
23 39 28 42 24 26 43 -103 0
23 39 28 42 40 26 43 -104 0
23 39 28 42 40 26 43 -101 0
23 39 28 42 40 26 43 -102 0
23 39 28 42 40 26 43 -103 0
23 39 28 24 40 26 43 -104 0
23 39 28 24 40 26 43 -101 0
23 39 28 24 40 26 43 -102 0
23 39 28 24 40 26 43 -103 0
23 39 42 24 40 26 43 -104 0
23 39 42 24 40 26 43 -101 0
23 39 42 24 40 26 43 -102 0
23 39 42 24 40 26 43 -103 0
23 34 28 36 24 35 26 -99 0
23 34 28 36 24 35 26 -98 0
23 34 28 36 24 35 26 -97 0
23 34 28 36 24 35 26 -100 0
23 34 28 36 24 35 32 -99 0
23 34 28 36 24 35 32 -98 0
23 34 28 36 24 35 32 -97 0
23 34 28 36 24 35 32 -100 0
23 34 28 36 24 26 32 -99 0
23 34 28 36 24 26 32 -98 0
23 34 28 36 24 26 32 -97 0
23 34 28 36 24 26 32 -100 0
23 34 28 36 35 26 32 -99 0
23 34 28 36 35 26 32 -98 0
23 34 28 36 35 26 32 -97 0
23 34 28 36 35 26 32 -100 0
23 34 28 24 35 26 32 -99 0
23 34 28 24 35 26 32 -98 0
23 34 28 24 35 26 32 -97 0
23 34 28 24 35 26 32 -100 0
23 34 36 24 35 26 32 -99 0
23 34 36 24 35 26 32 -98 0
23 34 36 24 35 26 32 -97 0
23 34 36 24 35 26 32 -100 0
23 8 28 10 24 9 26 -64 0
23 8 28 10 24 9 26 -61 0
23 8 28 10 24 9 26 -62 0
23 8 28 10 24 9 26 -63 0
23 8 28 10 24 9 11 -64 0
23 8 28 10 24 9 11 -61 0
23 8 28 10 24 9 11 -62 0
23 8 28 10 24 9 11 -63 0
23 8 28 10 24 26 11 -64 0
23 8 28 10 24 26 11 -61 0
23 8 28 10 24 26 11 -62 0
23 8 28 10 24 26 11 -63 0
23 8 28 10 9 26 11 -64 0
23 8 28 10 9 26 11 -61 0
23 8 28 10 9 26 11 -62 0
23 8 28 10 9 26 11 -63 0
23 8 28 24 9 26 11 -64 0
23 8 28 24 9 26 11 -61 0
23 8 28 24 9 26 11 -62 0
23 8 28 24 9 26 11 -63 0
23 8 10 24 9 26 11 -64 0
23 8 10 24 9 26 11 -61 0
23 8 10 24 9 26 11 -62 0
23 8 10 24 9 26 11 -63 0
23 17 28 22 24 18 26 -80 0
23 17 28 22 24 18 26 -79 0
23 17 28 22 24 18 26 -82 0
23 17 28 22 24 18 26 -81 0
23 17 28 22 24 18 21 -80 0
23 17 28 22 24 18 21 -79 0
23 17 28 22 24 18 21 -82 0
23 17 28 22 24 18 21 -81 0
23 17 28 22 24 26 21 -80 0
23 17 28 22 24 26 21 -79 0
23 17 28 22 24 26 21 -82 0
23 17 28 22 24 26 21 -81 0
23 17 28 22 18 26 21 -80 0
23 17 28 22 18 26 21 -79 0
23 17 28 22 18 26 21 -82 0
23 17 28 22 18 26 21 -81 0
23 17 28 24 18 26 21 -80 0
23 17 28 24 18 26 21 -79 0
23 17 28 24 18 26 21 -82 0
23 17 28 24 18 26 21 -81 0
23 17 22 24 18 26 21 -80 0
23 17 22 24 18 26 21 -79 0
23 17 22 24 18 26 21 -82 0
23 17 22 24 18 26 21 -81 0
23 6 28 2 24 4 26 -25 0
23 6 28 2 24 4 26 -29 0
23 6 28 2 24 4 26 -30 0
23 6 28 2 24 4 26 -27 0
23 28 52 24 48 26 49 -106 0
23 28 52 24 48 26 49 -107 0
23 28 52 24 48 26 49 -108 0
23 28 52 24 48 26 49 -105 0
23 28 42 24 40 26 43 -104 0
23 28 42 24 40 26 43 -101 0
23 28 42 24 40 26 43 -102 0
23 28 42 24 40 26 43 -103 0
23 28 36 24 35 26 32 -99 0
23 28 36 24 35 26 32 -98 0
23 28 36 24 35 26 32 -97 0
23 28 36 24 35 26 32 -100 0
23 28 10 24 9 26 11 -64 0
23 28 10 24 9 26 11 -61 0
23 28 10 24 9 26 11 -62 0
23 28 10 24 9 26 11 -63 0
23 28 22 24 18 26 21 -80 0
23 28 22 24 18 26 21 -79 0
23 28 22 24 18 26 21 -82 0
23 28 22 24 18 26 21 -81 0
47 39 52 42 48 40 49 -123 0
47 39 52 42 48 40 49 -121 0
47 39 52 42 48 40 49 -124 0
47 39 52 42 48 40 49 -122 0
47 39 52 42 48 40 43 -123 0
47 39 52 42 48 40 43 -121 0
47 39 52 42 48 40 43 -124 0
47 39 52 42 48 40 43 -122 0
47 39 52 42 48 49 43 -123 0
47 39 52 42 48 49 43 -121 0
47 39 52 42 48 49 43 -124 0
47 39 52 42 48 49 43 -122 0
47 39 52 42 40 49 43 -123 0
47 39 52 42 40 49 43 -121 0
47 39 52 42 40 49 43 -124 0
47 39 52 42 40 49 43 -122 0
47 39 52 48 40 49 43 -123 0
47 39 52 48 40 49 43 -121 0
47 39 52 48 40 49 43 -124 0
47 39 52 48 40 49 43 -122 0
47 39 42 48 40 49 43 -123 0
47 39 42 48 40 49 43 -121 0
47 39 42 48 40 49 43 -124 0
47 39 42 48 40 49 43 -122 0
47 34 52 36 48 35 49 -118 0
47 34 52 36 48 35 49 -116 0
47 34 52 36 48 35 49 -115 0
47 34 52 36 48 35 49 -117 0
47 34 52 36 48 35 32 -118 0
47 34 52 36 48 35 32 -116 0
47 34 52 36 48 35 32 -115 0
47 34 52 36 48 35 32 -117 0
47 34 52 36 48 49 32 -118 0
47 34 52 36 48 49 32 -116 0
47 34 52 36 48 49 32 -115 0
47 34 52 36 48 49 32 -117 0
47 34 52 36 35 49 32 -118 0
47 34 52 36 35 49 32 -116 0
47 34 52 36 35 49 32 -115 0
47 34 52 36 35 49 32 -117 0
47 34 52 48 35 49 32 -118 0
47 34 52 48 35 49 32 -116 0
47 34 52 48 35 49 32 -115 0
47 34 52 48 35 49 32 -117 0
47 34 36 48 35 49 32 -118 0
47 34 36 48 35 49 32 -116 0
47 34 36 48 35 49 32 -115 0
47 34 36 48 35 49 32 -117 0
47 8 52 10 48 9 49 -76 0
47 8 52 10 48 9 49 -75 0
47 8 52 10 48 9 49 -74 0
47 8 52 10 48 9 49 -73 0
47 8 52 10 48 9 11 -76 0
47 8 52 10 48 9 11 -75 0
47 8 52 10 48 9 11 -74 0
47 8 52 10 48 9 11 -73 0
47 8 52 10 48 49 11 -76 0
47 8 52 10 48 49 11 -75 0
47 8 52 10 48 49 11 -74 0
47 8 52 10 48 49 11 -73 0
47 8 52 10 9 49 11 -76 0
47 8 52 10 9 49 11 -75 0
47 8 52 10 9 49 11 -74 0
47 8 52 10 9 49 11 -73 0
47 8 52 48 9 49 11 -76 0
47 8 52 48 9 49 11 -75 0
47 8 52 48 9 49 11 -74 0
47 8 52 48 9 49 11 -73 0
47 8 10 48 9 49 11 -76 0
47 8 10 48 9 49 11 -75 0
47 8 10 48 9 49 11 -74 0
47 8 10 48 9 49 11 -73 0
47 17 52 22 48 18 49 -92 0
47 17 52 22 48 18 49 -91 0
47 17 52 22 48 18 49 -94 0
47 17 52 22 48 18 49 -93 0
47 17 52 22 48 18 21 -92 0
47 17 52 22 48 18 21 -91 0
47 17 52 22 48 18 21 -94 0
47 17 52 22 48 18 21 -93 0
47 17 52 22 48 49 21 -92 0
47 17 52 22 48 49 21 -91 0
47 17 52 22 48 49 21 -94 0
47 17 52 22 48 49 21 -93 0
47 17 52 22 18 49 21 -92 0
47 17 52 22 18 49 21 -91 0
47 17 52 22 18 49 21 -94 0
47 17 52 22 18 49 21 -93 0
47 17 52 48 18 49 21 -92 0
47 17 52 48 18 49 21 -91 0
47 17 52 48 18 49 21 -94 0
47 17 52 48 18 49 21 -93 0
47 17 22 48 18 49 21 -92 0
47 17 22 48 18 49 21 -91 0
47 17 22 48 18 49 21 -94 0
47 17 22 48 18 49 21 -93 0
47 6 52 2 48 4 49 -51 0
47 6 52 2 48 4 49 -53 0
47 6 52 2 48 4 49 -54 0
47 6 52 2 48 4 49 -50 0
47 28 52 24 48 26 49 -106 0
47 28 52 24 48 26 49 -107 0
47 28 52 24 48 26 49 -108 0
47 28 52 24 48 26 49 -105 0
47 52 42 48 40 49 43 -123 0
47 52 42 48 40 49 43 -121 0
47 52 42 48 40 49 43 -124 0
47 52 42 48 40 49 43 -122 0
47 52 36 48 35 49 32 -118 0
47 52 36 48 35 49 32 -116 0
47 52 36 48 35 49 32 -115 0
47 52 36 48 35 49 32 -117 0
47 52 10 48 9 49 11 -76 0
47 52 10 48 9 49 11 -75 0
47 52 10 48 9 49 11 -74 0
47 52 10 48 9 49 11 -73 0
47 52 22 48 18 49 21 -92 0
47 52 22 48 18 49 21 -91 0
47 52 22 48 18 49 21 -94 0
47 52 22 48 18 49 21 -93 0
39 34 42 36 40 35 43 -114 0
39 34 42 36 40 35 43 -112 0
39 34 42 36 40 35 43 -111 0
39 34 42 36 40 35 43 -113 0
39 34 42 36 40 35 32 -114 0
39 34 42 36 40 35 32 -112 0
39 34 42 36 40 35 32 -111 0
39 34 42 36 40 35 32 -113 0
39 34 42 36 40 43 32 -114 0
39 34 42 36 40 43 32 -112 0
39 34 42 36 40 43 32 -111 0
39 34 42 36 40 43 32 -113 0
39 34 42 36 35 43 32 -114 0
39 34 42 36 35 43 32 -112 0
39 34 42 36 35 43 32 -111 0
39 34 42 36 35 43 32 -113 0
39 34 42 40 35 43 32 -114 0
39 34 42 40 35 43 32 -112 0
39 34 42 40 35 43 32 -111 0
39 34 42 40 35 43 32 -113 0
39 34 36 40 35 43 32 -114 0
39 34 36 40 35 43 32 -112 0
39 34 36 40 35 43 32 -111 0
39 34 36 40 35 43 32 -113 0
39 8 42 10 40 9 43 -69 0
39 8 42 10 40 9 43 -72 0
39 8 42 10 40 9 43 -70 0
39 8 42 10 40 9 43 -71 0
39 8 42 10 40 9 11 -69 0
39 8 42 10 40 9 11 -72 0
39 8 42 10 40 9 11 -70 0
39 8 42 10 40 9 11 -71 0
39 8 42 10 40 43 11 -69 0
39 8 42 10 40 43 11 -72 0
39 8 42 10 40 43 11 -70 0
39 8 42 10 40 43 11 -71 0
39 8 42 10 9 43 11 -69 0
39 8 42 10 9 43 11 -72 0
39 8 42 10 9 43 11 -70 0
39 8 42 10 9 43 11 -71 0
39 8 42 40 9 43 11 -69 0
39 8 42 40 9 43 11 -72 0
39 8 42 40 9 43 11 -70 0
39 8 42 40 9 43 11 -71 0
39 8 10 40 9 43 11 -69 0
39 8 10 40 9 43 11 -72 0
39 8 10 40 9 43 11 -70 0
39 8 10 40 9 43 11 -71 0
39 17 42 22 40 18 43 -88 0
39 17 42 22 40 18 43 -89 0
39 17 42 22 40 18 43 -87 0
39 17 42 22 40 18 43 -90 0
39 17 42 22 40 18 21 -88 0
39 17 42 22 40 18 21 -89 0
39 17 42 22 40 18 21 -87 0
39 17 42 22 40 18 21 -90 0
39 17 42 22 40 43 21 -88 0
39 17 42 22 40 43 21 -89 0
39 17 42 22 40 43 21 -87 0
39 17 42 22 40 43 21 -90 0
39 17 42 22 18 43 21 -88 0
39 17 42 22 18 43 21 -89 0
39 17 42 22 18 43 21 -87 0
39 17 42 22 18 43 21 -90 0
39 17 42 40 18 43 21 -88 0
39 17 42 40 18 43 21 -89 0
39 17 42 40 18 43 21 -87 0
39 17 42 40 18 43 21 -90 0
39 17 22 40 18 43 21 -88 0
39 17 22 40 18 43 21 -89 0
39 17 22 40 18 43 21 -87 0
39 17 22 40 18 43 21 -90 0
39 6 42 2 40 4 43 -45 0
39 6 42 2 40 4 43 -46 0
39 6 42 2 40 4 43 -41 0
39 6 42 2 40 4 43 -44 0
39 28 42 24 40 26 43 -104 0
39 28 42 24 40 26 43 -101 0
39 28 42 24 40 26 43 -102 0
39 28 42 24 40 26 43 -103 0
39 52 42 48 40 49 43 -123 0
39 52 42 48 40 49 43 -121 0
39 52 42 48 40 49 43 -124 0
39 52 42 48 40 49 43 -122 0
39 42 36 40 35 43 32 -114 0
39 42 36 40 35 43 32 -112 0
39 42 36 40 35 43 32 -111 0
39 42 36 40 35 43 32 -113 0
39 42 10 40 9 43 11 -69 0
39 42 10 40 9 43 11 -72 0
39 42 10 40 9 43 11 -70 0
39 42 10 40 9 43 11 -71 0
39 42 22 40 18 43 21 -88 0
39 42 22 40 18 43 21 -89 0
39 42 22 40 18 43 21 -87 0
39 42 22 40 18 43 21 -90 0
34 8 36 10 35 9 32 -67 0
34 8 36 10 35 9 32 -65 0
34 8 36 10 35 9 32 -68 0
34 8 36 10 35 9 32 -66 0
34 8 36 10 35 9 11 -67 0
34 8 36 10 35 9 11 -65 0
34 8 36 10 35 9 11 -68 0
34 8 36 10 35 9 11 -66 0
34 8 36 10 35 32 11 -67 0
34 8 36 10 35 32 11 -65 0
34 8 36 10 35 32 11 -68 0
34 8 36 10 35 32 11 -66 0
34 8 36 10 9 32 11 -67 0
34 8 36 10 9 32 11 -65 0
34 8 36 10 9 32 11 -68 0
34 8 36 10 9 32 11 -66 0
34 8 36 35 9 32 11 -67 0
34 8 36 35 9 32 11 -65 0
34 8 36 35 9 32 11 -68 0
34 8 36 35 9 32 11 -66 0
34 8 10 35 9 32 11 -67 0
34 8 10 35 9 32 11 -65 0
34 8 10 35 9 32 11 -68 0
34 8 10 35 9 32 11 -66 0
34 17 36 22 35 18 32 -83 0
34 17 36 22 35 18 32 -85 0
34 17 36 22 35 18 32 -84 0
34 17 36 22 35 18 32 -86 0
34 17 36 22 35 18 21 -83 0
34 17 36 22 35 18 21 -85 0
34 17 36 22 35 18 21 -84 0
34 17 36 22 35 18 21 -86 0
34 17 36 22 35 32 21 -83 0
34 17 36 22 35 32 21 -85 0
34 17 36 22 35 32 21 -84 0
34 17 36 22 35 32 21 -86 0
34 17 36 22 18 32 21 -83 0
34 17 36 22 18 32 21 -85 0
34 17 36 22 18 32 21 -84 0
34 17 36 22 18 32 21 -86 0
34 17 36 35 18 32 21 -83 0
34 17 36 35 18 32 21 -85 0
34 17 36 35 18 32 21 -84 0
34 17 36 35 18 32 21 -86 0
34 17 22 35 18 32 21 -83 0
34 17 22 35 18 32 21 -85 0
34 17 22 35 18 32 21 -84 0
34 17 22 35 18 32 21 -86 0
34 6 36 2 35 4 32 -33 0
34 6 36 2 35 4 32 -31 0
34 6 36 2 35 4 32 -37 0
34 6 36 2 35 4 32 -38 0
34 28 36 24 35 26 32 -99 0
34 28 36 24 35 26 32 -98 0
34 28 36 24 35 26 32 -97 0
34 28 36 24 35 26 32 -100 0
34 52 36 48 35 49 32 -118 0
34 52 36 48 35 49 32 -116 0
34 52 36 48 35 49 32 -115 0
34 52 36 48 35 49 32 -117 0
34 42 36 40 35 43 32 -114 0
34 42 36 40 35 43 32 -112 0
34 42 36 40 35 43 32 -111 0
34 42 36 40 35 43 32 -113 0
34 36 10 35 9 32 11 -67 0
34 36 10 35 9 32 11 -65 0
34 36 10 35 9 32 11 -68 0
34 36 10 35 9 32 11 -66 0
34 36 22 35 18 32 21 -83 0
34 36 22 35 18 32 21 -85 0
34 36 22 35 18 32 21 -84 0
34 36 22 35 18 32 21 -86 0
8 17 10 22 9 18 11 -60 0
8 17 10 22 9 18 11 -57 0
8 17 10 22 9 18 11 -58 0
8 17 10 22 9 18 11 -59 0
8 17 10 22 9 18 21 -60 0
8 17 10 22 9 18 21 -57 0
8 17 10 22 9 18 21 -58 0
8 17 10 22 9 18 21 -59 0
8 17 10 22 9 11 21 -60 0
8 17 10 22 9 11 21 -57 0
8 17 10 22 9 11 21 -58 0
8 17 10 22 9 11 21 -59 0
8 17 10 22 18 11 21 -60 0
8 17 10 22 18 11 21 -57 0
8 17 10 22 18 11 21 -58 0
8 17 10 22 18 11 21 -59 0
8 17 10 9 18 11 21 -60 0
8 17 10 9 18 11 21 -57 0
8 17 10 9 18 11 21 -58 0
8 17 10 9 18 11 21 -59 0
8 17 22 9 18 11 21 -60 0
8 17 22 9 18 11 21 -57 0
8 17 22 9 18 11 21 -58 0
8 17 22 9 18 11 21 -59 0
8 6 10 2 9 4 11 -7 0
8 6 10 2 9 4 11 -14 0
8 6 10 2 9 4 11 -13 0
8 6 10 2 9 4 11 -12 0
8 28 10 24 9 26 11 -64 0
8 28 10 24 9 26 11 -61 0
8 28 10 24 9 26 11 -62 0
8 28 10 24 9 26 11 -63 0
8 52 10 48 9 49 11 -76 0
8 52 10 48 9 49 11 -75 0
8 52 10 48 9 49 11 -74 0
8 52 10 48 9 49 11 -73 0
8 42 10 40 9 43 11 -69 0
8 42 10 40 9 43 11 -72 0
8 42 10 40 9 43 11 -70 0
8 42 10 40 9 43 11 -71 0
8 36 10 35 9 32 11 -67 0
8 36 10 35 9 32 11 -65 0
8 36 10 35 9 32 11 -68 0
8 36 10 35 9 32 11 -66 0
8 10 22 9 18 11 21 -60 0
8 10 22 9 18 11 21 -57 0
8 10 22 9 18 11 21 -58 0
8 10 22 9 18 11 21 -59 0
17 6 22 2 18 4 21 -16 0
17 6 22 2 18 4 21 -15 0
17 6 22 2 18 4 21 -20 0
17 6 22 2 18 4 21 -19 0
17 28 22 24 18 26 21 -80 0
17 28 22 24 18 26 21 -79 0
17 28 22 24 18 26 21 -82 0
17 28 22 24 18 26 21 -81 0
17 52 22 48 18 49 21 -92 0
17 52 22 48 18 49 21 -91 0
17 52 22 48 18 49 21 -94 0
17 52 22 48 18 49 21 -93 0
17 42 22 40 18 43 21 -88 0
17 42 22 40 18 43 21 -89 0
17 42 22 40 18 43 21 -87 0
17 42 22 40 18 43 21 -90 0
17 36 22 35 18 32 21 -83 0
17 36 22 35 18 32 21 -85 0
17 36 22 35 18 32 21 -84 0
17 36 22 35 18 32 21 -86 0
17 10 22 9 18 11 21 -60 0
17 10 22 9 18 11 21 -57 0
17 10 22 9 18 11 21 -58 0
17 10 22 9 18 11 21 -59 0
1 23 6 28 2 24 4 26 -25 0
1 23 6 28 2 24 4 26 -29 0
1 23 6 28 2 24 4 26 -30 0
1 23 6 28 2 24 4 26 -27 0
1 47 6 52 2 48 4 49 -51 0
1 47 6 52 2 48 4 49 -53 0
1 47 6 52 2 48 4 49 -54 0
1 47 6 52 2 48 4 49 -50 0
1 39 6 42 2 40 4 43 -45 0
1 39 6 42 2 40 4 43 -46 0
1 39 6 42 2 40 4 43 -41 0
1 39 6 42 2 40 4 43 -44 0
1 34 6 36 2 35 4 32 -33 0
1 34 6 36 2 35 4 32 -31 0
1 34 6 36 2 35 4 32 -37 0
1 34 6 36 2 35 4 32 -38 0
1 8 6 10 2 9 4 11 -7 0
1 8 6 10 2 9 4 11 -14 0
1 8 6 10 2 9 4 11 -13 0
1 8 6 10 2 9 4 11 -12 0
1 17 6 22 2 18 4 21 -16 0
1 17 6 22 2 18 4 21 -15 0
1 17 6 22 2 18 4 21 -20 0
1 17 6 22 2 18 4 21 -19 0
23 47 28 52 24 48 26 49 -106 0
23 47 28 52 24 48 26 49 -107 0
23 47 28 52 24 48 26 49 -108 0
23 47 28 52 24 48 26 49 -105 0
23 39 28 42 24 40 26 43 -104 0
23 39 28 42 24 40 26 43 -101 0
23 39 28 42 24 40 26 43 -102 0
23 39 28 42 24 40 26 43 -103 0
23 34 28 36 24 35 26 32 -99 0
23 34 28 36 24 35 26 32 -98 0
23 34 28 36 24 35 26 32 -97 0
23 34 28 36 24 35 26 32 -100 0
23 8 28 10 24 9 26 11 -64 0
23 8 28 10 24 9 26 11 -61 0
23 8 28 10 24 9 26 11 -62 0
23 8 28 10 24 9 26 11 -63 0
23 17 28 22 24 18 26 21 -80 0
23 17 28 22 24 18 26 21 -79 0
23 17 28 22 24 18 26 21 -82 0
23 17 28 22 24 18 26 21 -81 0
47 39 52 42 48 40 49 43 -123 0
47 39 52 42 48 40 49 43 -121 0
47 39 52 42 48 40 49 43 -124 0
47 39 52 42 48 40 49 43 -122 0
47 34 52 36 48 35 49 32 -118 0
47 34 52 36 48 35 49 32 -116 0
47 34 52 36 48 35 49 32 -115 0
47 34 52 36 48 35 49 32 -117 0
47 8 52 10 48 9 49 11 -76 0
47 8 52 10 48 9 49 11 -75 0
47 8 52 10 48 9 49 11 -74 0
47 8 52 10 48 9 49 11 -73 0
47 17 52 22 48 18 49 21 -92 0
47 17 52 22 48 18 49 21 -91 0
47 17 52 22 48 18 49 21 -94 0
47 17 52 22 48 18 49 21 -93 0
39 34 42 36 40 35 43 32 -114 0
39 34 42 36 40 35 43 32 -112 0
39 34 42 36 40 35 43 32 -111 0
39 34 42 36 40 35 43 32 -113 0
39 8 42 10 40 9 43 11 -69 0
39 8 42 10 40 9 43 11 -72 0
39 8 42 10 40 9 43 11 -70 0
39 8 42 10 40 9 43 11 -71 0
39 17 42 22 40 18 43 21 -88 0
39 17 42 22 40 18 43 21 -89 0
39 17 42 22 40 18 43 21 -87 0
39 17 42 22 40 18 43 21 -90 0
34 8 36 10 35 9 32 11 -67 0
34 8 36 10 35 9 32 11 -65 0
34 8 36 10 35 9 32 11 -68 0
34 8 36 10 35 9 32 11 -66 0
34 17 36 22 35 18 32 21 -83 0
34 17 36 22 35 18 32 21 -85 0
34 17 36 22 35 18 32 21 -84 0
34 17 36 22 35 18 32 21 -86 0
8 17 10 22 9 18 11 21 -60 0
8 17 10 22 9 18 11 21 -57 0
8 17 10 22 9 18 11 21 -58 0
8 17 10 22 9 18 11 21 -59 0
