c E2(4,4) U2(4) U3(4) E1(4,4) U1(4) U4(4) U1(0) U3(0) U4(0) U2(0) E1(0,4) E1(4,0) E2(4,0) E2(0,4) U2(2) U1(2) E2(4,2) E1(2,4) U4(2) E2(2,4) E1(4,2) U3(2) U4(3) E2(4,3) E1(4,3) U2(3) U1(3) E1(3,4) U3(3) E2(3,4) U2(1) E2(1,4) E1(4,1) U1(1) E2(4,1) U3(1) U4(1) E1(1,4) E2(6,4) E1(4,6) E2(4,6) U1(6) U3(6) U4(6) E1(6,4) U2(6) E2(4,7) U4(7) U2(7) E2(7,4) E1(7,4) U1(7) E1(4,7) U3(7) E2(4,5) E1(4,5) U2(5) U3(5) E1(5,4) U1(5) U4(5) E2(5,4) E2(0,0) E1(0,0) E1(0,2) E1(2,0) E2(2,0) E2(0,2) E1(0,3) E2(3,0) E1(3,0) E2(0,3) E1(0,1) E2(1,0) E2(0,1) E1(1,0) E1(6,0) E2(0,6) E1(0,6) E2(6,0) E2(7,0) E2(0,7) E1(7,0) E1(0,7) E1(0,5) E2(5,0) E1(5,0) E2(0,5) E1(2,2) E2(2,2) E1(3,2) E2(3,2) E1(2,3) E2(2,3) E1(1,2) E2(1,2) E1(2,1) E2(2,1) E1(6,2) E2(6,2) E1(2,6) E2(2,6) E1(2,7) E1(7,2) E2(7,2) E2(2,7) E1(5,2) E2(5,2) E2(2,5) E1(2,5) E1(3,3) E2(3,3) E2(1,3) E1(3,1) E1(1,3) E2(3,1) E1(3,6) E1(6,3) E2(6,3) E2(3,6) E1(3,7) E2(3,7) E1(7,3) E2(7,3) E1(3,5) E1(5,3) E2(5,3) E2(3,5) E2(1,1) E1(1,1) E1(6,1) E2(6,1) E2(1,6) E1(1,6) E1(7,1) E2(7,1) E1(1,7) E2(1,7) E1(5,1) E1(1,5) E2(1,5) E2(5,1) E2(6,6) E1(6,6) E1(7,6) E1(6,7) E2(7,6) E2(6,7) E2(6,5) E1(5,6) E1(6,5) E2(5,6) E2(7,7) E1(7,7) E1(7,5) E1(5,7) E2(5,7) E2(7,5) E1(5,5) E2(5,5)
c 1 2 3 4 5 6 7 8 9 10 11 12 13 14 15 16 17 18 19 20 21 22 23 24 25 26 27 28 29 30 31 32 33 34 35 36 37 38 39 40 41 42 43 44 45 46 47 48 49 50 51 52 53 54 55 56 57 58 59 60 61 62 63 64 65 66 67 68 69 70 71 72 73 74 75 76 77 78 79 80 81 82 83 84 85 86 87 88 89 90 91 92 93 94 95 96 97 98 99 100 101 102 103 104 105 106 107 108 109 110 111 112 113 114 115 116 117 118 119 120 121 122 123 124 125 126 127 128 129 130 131 132 133 134 135 136 137 138 139 140 141 142 143 144 145 146 147 148 149 150 151 152 153 154 155 156 157 158 159 160
p cnf 160 4192
-64 -63 0
-73 -75 0
-73 -74 0
-65 -68 0
-65 -67 0
-69 -72 0
-69 -70 0
-11 -14 0
-11 -13 0
-85 -88 0
-85 -86 0
-79 -78 0
-79 -80 0
-84 -82 0
-84 -81 0
-76 -75 0
-76 -74 0
-130 -129 0
-95 -96 0
-95 -98 0
-115 -113 0
-115 -116 0
-38 -32 0
-38 -35 0
-140 -141 0
-140 -142 0
-134 -133 0
-134 -132 0
-137 -138 0
-137 -136 0
-66 -68 0
-66 -67 0
-97 -96 0
-97 -98 0
-89 -90 0
-93 -94 0
-93 -92 0
-18 -20 0
-18 -17 0
-110 -109 0
-110 -108 0
-101 -102 0
-101 -100 0
-103 -106 0
-103 -105 0
-71 -72 0
-71 -70 0
-114 -113 0
-114 -116 0
-91 -94 0
-91 -92 0
-111 -112 0
-28 -30 0
-28 -24 0
-125 -128 0
-125 -127 0
-117 -120 0
-117 -119 0
-121 -122 0
-121 -124 0
-12 -14 0
-12 -13 0
-33 -32 0
-33 -35 0
-21 -20 0
-21 -17 0
-25 -30 0
-25 -24 0
-4 -1 0
-56 -55 0
-56 -62 0
-40 -41 0
-40 -39 0
-53 -47 0
-53 -50 0
-87 -88 0
-87 -86 0
-139 -141 0
-139 -142 0
-107 -109 0
-107 -108 0
-126 -128 0
-126 -127 0
-59 -55 0
-59 -62 0
-159 -160 0
-150 -152 0
-150 -149 0
-156 -157 0
-156 -158 0
-77 -78 0
-77 -80 0
-131 -133 0
-131 -132 0
-99 -102 0
-99 -100 0
-118 -120 0
-118 -119 0
-45 -41 0
-45 -39 0
-151 -152 0
-151 -149 0
-144 -143 0
-146 -148 0
-146 -147 0
-83 -82 0
-83 -81 0
-135 -138 0
-135 -136 0
-104 -106 0
-104 -105 0
-123 -122 0
-123 -124 0
-51 -47 0
-51 -50 0
-155 -157 0
-155 -158 0
-145 -148 0
-145 -147 0
-154 -153 0
-7 -10 0
-7 -8 0
-7 -9 0
-34 -31 0
-34 -36 0
-34 -37 0
-16 -15 0
-16 -22 0
-16 -19 0
-27 -26 0
-27 -29 0
-27 -23 0
-5 -2 0
-5 -3 0
-5 -6 0
-60 -57 0
-60 -58 0
-60 -61 0
-42 -46 0
-42 -43 0
-42 -44 0
-52 -49 0
-52 -54 0
-52 -48 0
-10 -8 0
-10 -9 0
-31 -36 0
-31 -37 0
-15 -22 0
-15 -19 0
-26 -29 0
-26 -23 0
-2 -3 0
-2 -6 0
-57 -58 0
-57 -61 0
-46 -43 0
-46 -44 0
-49 -54 0
-49 -48 0
-8 -9 0
-36 -37 0
-22 -19 0
-29 -23 0
-3 -6 0
-58 -61 0
-43 -44 0
-54 -48 0
7 10 8 9 0
34 31 36 37 0
16 15 22 19 0
27 26 29 23 0
5 2 3 6 0
60 57 58 61 0
42 46 43 44 0
52 49 54 48 0
7 10 8 -64 0
7 10 8 -63 0
7 10 9 -64 0
7 10 9 -63 0
7 8 9 -64 0
7 8 9 -63 0
34 31 36 -130 0
34 31 36 -129 0
34 31 37 -130 0
34 31 37 -129 0
34 36 37 -130 0
34 36 37 -129 0
16 15 22 -89 0
16 15 22 -90 0
16 15 19 -89 0
16 15 19 -90 0
16 22 19 -89 0
16 22 19 -90 0
27 26 29 -111 0
27 26 29 -112 0
27 26 23 -111 0
27 26 23 -112 0
27 29 23 -111 0
27 29 23 -112 0
5 2 3 -4 0
5 2 3 -1 0
5 2 6 -4 0
5 2 6 -1 0
5 3 6 -4 0
5 3 6 -1 0
60 57 58 -159 0
60 57 58 -160 0
60 57 61 -159 0
60 57 61 -160 0
60 58 61 -159 0
60 58 61 -160 0
42 46 43 -144 0
42 46 43 -143 0
42 46 44 -144 0
42 46 44 -143 0
42 43 44 -144 0
42 43 44 -143 0
52 49 54 -154 0
52 49 54 -153 0
52 49 48 -154 0
52 49 48 -153 0
52 54 48 -154 0
52 54 48 -153 0
10 8 9 -64 0
10 8 9 -63 0
31 36 37 -130 0
31 36 37 -129 0
15 22 19 -89 0
15 22 19 -90 0
26 29 23 -111 0
26 29 23 -112 0
2 3 6 -4 0
2 3 6 -1 0
57 58 61 -159 0
57 58 61 -160 0
46 43 44 -144 0
46 43 44 -143 0
49 54 48 -154 0
49 54 48 -153 0
7 10 8 9 -64 0
7 10 8 9 -73 0
7 10 8 9 -65 0
7 10 8 9 -69 0
7 10 8 9 -11 0
7 10 8 9 -85 0
7 10 8 9 -79 0
7 10 8 9 -84 0
7 10 8 9 -76 0
7 10 8 9 -66 0
7 10 8 9 -71 0
7 10 8 9 -12 0
7 10 8 9 -87 0
7 10 8 9 -77 0
7 10 8 9 -83 0
7 10 8 9 -63 0
7 10 8 9 -75 0
7 10 8 9 -68 0
7 10 8 9 -72 0
7 10 8 9 -14 0
7 10 8 9 -88 0
7 10 8 9 -78 0
7 10 8 9 -82 0
7 10 8 9 -74 0
7 10 8 9 -67 0
7 10 8 9 -70 0
7 10 8 9 -13 0
7 10 8 9 -86 0
7 10 8 9 -80 0
7 10 8 9 -81 0
34 31 36 37 -73 0
34 31 36 37 -76 0
34 31 36 37 -130 0
34 31 36 37 -95 0
34 31 36 37 -115 0
34 31 36 37 -38 0
34 31 36 37 -140 0
34 31 36 37 -134 0
34 31 36 37 -137 0
34 31 36 37 -97 0
34 31 36 37 -114 0
34 31 36 37 -33 0
34 31 36 37 -139 0
34 31 36 37 -131 0
34 31 36 37 -135 0
34 31 36 37 -75 0
34 31 36 37 -74 0
34 31 36 37 -129 0
34 31 36 37 -96 0
34 31 36 37 -113 0
34 31 36 37 -32 0
34 31 36 37 -141 0
34 31 36 37 -133 0
34 31 36 37 -138 0
34 31 36 37 -98 0
34 31 36 37 -116 0
34 31 36 37 -35 0
34 31 36 37 -142 0
34 31 36 37 -132 0
34 31 36 37 -136 0
16 15 22 19 -65 0
16 15 22 19 -95 0
16 15 22 19 -66 0
16 15 22 19 -97 0
16 15 22 19 -89 0
16 15 22 19 -93 0
16 15 22 19 -18 0
16 15 22 19 -110 0
16 15 22 19 -101 0
16 15 22 19 -103 0
16 15 22 19 -91 0
16 15 22 19 -21 0
16 15 22 19 -107 0
16 15 22 19 -99 0
16 15 22 19 -104 0
16 15 22 19 -68 0
16 15 22 19 -96 0
16 15 22 19 -67 0
16 15 22 19 -98 0
16 15 22 19 -90 0
16 15 22 19 -94 0
16 15 22 19 -20 0
16 15 22 19 -109 0
16 15 22 19 -102 0
16 15 22 19 -106 0
16 15 22 19 -92 0
16 15 22 19 -17 0
16 15 22 19 -108 0
16 15 22 19 -100 0
16 15 22 19 -105 0
27 26 29 23 -69 0
27 26 29 23 -115 0
27 26 29 23 -93 0
27 26 29 23 -71 0
27 26 29 23 -114 0
27 26 29 23 -91 0
27 26 29 23 -111 0
27 26 29 23 -28 0
27 26 29 23 -125 0
27 26 29 23 -117 0
27 26 29 23 -121 0
27 26 29 23 -25 0
27 26 29 23 -126 0
27 26 29 23 -118 0
27 26 29 23 -123 0
27 26 29 23 -72 0
27 26 29 23 -113 0
27 26 29 23 -94 0
27 26 29 23 -70 0
27 26 29 23 -116 0
27 26 29 23 -92 0
27 26 29 23 -112 0
27 26 29 23 -30 0
27 26 29 23 -128 0
27 26 29 23 -120 0
27 26 29 23 -122 0
27 26 29 23 -24 0
27 26 29 23 -127 0
27 26 29 23 -119 0
27 26 29 23 -124 0
5 2 3 6 -11 0
5 2 3 6 -38 0
5 2 3 6 -18 0
5 2 3 6 -28 0
5 2 3 6 -12 0
5 2 3 6 -33 0
5 2 3 6 -21 0
5 2 3 6 -25 0
5 2 3 6 -4 0
5 2 3 6 -56 0
5 2 3 6 -40 0
5 2 3 6 -53 0
5 2 3 6 -59 0
5 2 3 6 -45 0
5 2 3 6 -51 0
5 2 3 6 -14 0
5 2 3 6 -32 0
5 2 3 6 -20 0
5 2 3 6 -30 0
5 2 3 6 -13 0
5 2 3 6 -35 0
5 2 3 6 -17 0
5 2 3 6 -24 0
5 2 3 6 -1 0
5 2 3 6 -55 0
5 2 3 6 -41 0
5 2 3 6 -47 0
5 2 3 6 -62 0
5 2 3 6 -39 0
5 2 3 6 -50 0
60 57 58 61 -85 0
60 57 58 61 -140 0
60 57 58 61 -110 0
60 57 58 61 -125 0
60 57 58 61 -56 0
60 57 58 61 -87 0
60 57 58 61 -139 0
60 57 58 61 -107 0
60 57 58 61 -126 0
60 57 58 61 -59 0
60 57 58 61 -159 0
60 57 58 61 -150 0
60 57 58 61 -156 0
60 57 58 61 -151 0
60 57 58 61 -155 0
60 57 58 61 -88 0
60 57 58 61 -141 0
60 57 58 61 -109 0
60 57 58 61 -128 0
60 57 58 61 -55 0
60 57 58 61 -86 0
60 57 58 61 -142 0
60 57 58 61 -108 0
60 57 58 61 -127 0
60 57 58 61 -62 0
60 57 58 61 -160 0
60 57 58 61 -152 0
60 57 58 61 -157 0
60 57 58 61 -149 0
60 57 58 61 -158 0
42 46 43 44 -79 0
42 46 43 44 -134 0
42 46 43 44 -101 0
42 46 43 44 -117 0
42 46 43 44 -40 0
42 46 43 44 -150 0
42 46 43 44 -77 0
42 46 43 44 -131 0
42 46 43 44 -99 0
42 46 43 44 -118 0
42 46 43 44 -45 0
42 46 43 44 -151 0
42 46 43 44 -144 0
42 46 43 44 -146 0
42 46 43 44 -145 0
42 46 43 44 -78 0
42 46 43 44 -133 0
42 46 43 44 -102 0
42 46 43 44 -120 0
42 46 43 44 -41 0
42 46 43 44 -152 0
42 46 43 44 -80 0
42 46 43 44 -132 0
42 46 43 44 -100 0
42 46 43 44 -119 0
42 46 43 44 -39 0
42 46 43 44 -149 0
42 46 43 44 -143 0
42 46 43 44 -148 0
42 46 43 44 -147 0
52 49 54 48 -84 0
52 49 54 48 -137 0
52 49 54 48 -103 0
52 49 54 48 -121 0
52 49 54 48 -53 0
52 49 54 48 -156 0
52 49 54 48 -146 0
52 49 54 48 -83 0
52 49 54 48 -135 0
52 49 54 48 -104 0
52 49 54 48 -123 0
52 49 54 48 -51 0
52 49 54 48 -155 0
52 49 54 48 -145 0
52 49 54 48 -154 0
52 49 54 48 -82 0
52 49 54 48 -138 0
52 49 54 48 -106 0
52 49 54 48 -122 0
52 49 54 48 -47 0
52 49 54 48 -157 0
52 49 54 48 -148 0
52 49 54 48 -81 0
52 49 54 48 -136 0
52 49 54 48 -105 0
52 49 54 48 -124 0
52 49 54 48 -50 0
52 49 54 48 -158 0
52 49 54 48 -147 0
52 49 54 48 -153 0
7 34 10 8 9 -73 0
7 34 10 8 9 -76 0
7 34 10 8 9 -75 0
7 34 10 8 9 -74 0
7 34 31 36 37 -73 0
7 34 31 36 37 -76 0
7 34 31 36 37 -75 0
7 34 31 36 37 -74 0
7 16 10 8 9 -65 0
7 16 10 8 9 -66 0
7 16 10 8 9 -68 0
7 16 10 8 9 -67 0
7 16 15 22 19 -65 0
7 16 15 22 19 -66 0
7 16 15 22 19 -68 0
7 16 15 22 19 -67 0
7 27 10 8 9 -69 0
7 27 10 8 9 -71 0
7 27 10 8 9 -72 0
7 27 10 8 9 -70 0
7 27 26 29 23 -69 0
7 27 26 29 23 -71 0
7 27 26 29 23 -72 0
7 27 26 29 23 -70 0
7 5 10 8 9 -11 0
7 5 10 8 9 -12 0
7 5 10 8 9 -14 0
7 5 10 8 9 -13 0
7 5 2 3 6 -11 0
7 5 2 3 6 -12 0
7 5 2 3 6 -14 0
7 5 2 3 6 -13 0
7 60 10 8 9 -85 0
7 60 10 8 9 -87 0
7 60 10 8 9 -88 0
7 60 10 8 9 -86 0
7 60 57 58 61 -85 0
7 60 57 58 61 -87 0
7 60 57 58 61 -88 0
7 60 57 58 61 -86 0
7 42 10 8 9 -79 0
7 42 10 8 9 -77 0
7 42 10 8 9 -78 0
7 42 10 8 9 -80 0
7 42 46 43 44 -79 0
7 42 46 43 44 -77 0
7 42 46 43 44 -78 0
7 42 46 43 44 -80 0
7 52 10 8 9 -84 0
7 52 10 8 9 -83 0
7 52 10 8 9 -82 0
7 52 10 8 9 -81 0
7 52 49 54 48 -84 0
7 52 49 54 48 -83 0
7 52 49 54 48 -82 0
7 52 49 54 48 -81 0
7 10 31 8 9 -73 0
7 10 31 8 9 -76 0
7 10 31 8 9 -75 0
7 10 31 8 9 -74 0
7 10 15 8 9 -65 0
7 10 15 8 9 -66 0
7 10 15 8 9 -68 0
7 10 15 8 9 -67 0
7 10 26 8 9 -69 0
7 10 26 8 9 -71 0
7 10 26 8 9 -72 0
7 10 26 8 9 -70 0
7 10 2 8 9 -11 0
7 10 2 8 9 -12 0
7 10 2 8 9 -14 0
7 10 2 8 9 -13 0
7 10 57 8 9 -85 0
7 10 57 8 9 -87 0
7 10 57 8 9 -88 0
7 10 57 8 9 -86 0
7 10 46 8 9 -79 0
7 10 46 8 9 -77 0
7 10 46 8 9 -78 0
7 10 46 8 9 -80 0
7 10 49 8 9 -84 0
7 10 49 8 9 -83 0
7 10 49 8 9 -82 0
7 10 49 8 9 -81 0
7 10 8 36 9 -73 0
7 10 8 36 9 -76 0
7 10 8 36 9 -75 0
7 10 8 36 9 -74 0
7 10 8 22 9 -65 0
7 10 8 22 9 -66 0
7 10 8 22 9 -68 0
7 10 8 22 9 -67 0
7 10 8 29 9 -69 0
7 10 8 29 9 -71 0
7 10 8 29 9 -72 0
7 10 8 29 9 -70 0
7 10 8 3 9 -11 0
7 10 8 3 9 -12 0
7 10 8 3 9 -14 0
7 10 8 3 9 -13 0
7 10 8 58 9 -85 0
7 10 8 58 9 -87 0
7 10 8 58 9 -88 0
7 10 8 58 9 -86 0
7 10 8 43 9 -79 0
7 10 8 43 9 -77 0
7 10 8 43 9 -78 0
7 10 8 43 9 -80 0
7 10 8 54 9 -84 0
7 10 8 54 9 -83 0
7 10 8 54 9 -82 0
7 10 8 54 9 -81 0
7 10 8 9 37 -73 0
7 10 8 9 37 -76 0
7 10 8 9 37 -75 0
7 10 8 9 37 -74 0
7 10 8 9 19 -65 0
7 10 8 9 19 -66 0
7 10 8 9 19 -68 0
7 10 8 9 19 -67 0
7 10 8 9 23 -69 0
7 10 8 9 23 -71 0
7 10 8 9 23 -72 0
7 10 8 9 23 -70 0
7 10 8 9 6 -11 0
7 10 8 9 6 -12 0
7 10 8 9 6 -14 0
7 10 8 9 6 -13 0
7 10 8 9 61 -85 0
7 10 8 9 61 -87 0
7 10 8 9 61 -88 0
7 10 8 9 61 -86 0
7 10 8 9 44 -79 0
7 10 8 9 44 -77 0
7 10 8 9 44 -78 0
7 10 8 9 44 -80 0
7 10 8 9 48 -84 0
7 10 8 9 48 -83 0
7 10 8 9 48 -82 0
7 10 8 9 48 -81 0
34 16 31 36 37 -95 0
34 16 31 36 37 -97 0
34 16 31 36 37 -96 0
34 16 31 36 37 -98 0
34 16 15 22 19 -95 0
34 16 15 22 19 -97 0
34 16 15 22 19 -96 0
34 16 15 22 19 -98 0
34 27 31 36 37 -115 0
34 27 31 36 37 -114 0
34 27 31 36 37 -113 0
34 27 31 36 37 -116 0
34 27 26 29 23 -115 0
34 27 26 29 23 -114 0
34 27 26 29 23 -113 0
34 27 26 29 23 -116 0
34 5 31 36 37 -38 0
34 5 31 36 37 -33 0
34 5 31 36 37 -32 0
34 5 31 36 37 -35 0
34 5 2 3 6 -38 0
34 5 2 3 6 -33 0
34 5 2 3 6 -32 0
34 5 2 3 6 -35 0
34 60 31 36 37 -140 0
34 60 31 36 37 -139 0
34 60 31 36 37 -141 0
34 60 31 36 37 -142 0
34 60 57 58 61 -140 0
34 60 57 58 61 -139 0
34 60 57 58 61 -141 0
34 60 57 58 61 -142 0
34 42 31 36 37 -134 0
34 42 31 36 37 -131 0
34 42 31 36 37 -133 0
34 42 31 36 37 -132 0
34 42 46 43 44 -134 0
34 42 46 43 44 -131 0
34 42 46 43 44 -133 0
34 42 46 43 44 -132 0
34 52 31 36 37 -137 0
34 52 31 36 37 -135 0
34 52 31 36 37 -138 0
34 52 31 36 37 -136 0
34 52 49 54 48 -137 0
34 52 49 54 48 -135 0
34 52 49 54 48 -138 0
34 52 49 54 48 -136 0
34 10 31 36 37 -73 0
34 10 31 36 37 -76 0
34 10 31 36 37 -75 0
34 10 31 36 37 -74 0
34 31 15 36 37 -95 0
34 31 15 36 37 -97 0
34 31 15 36 37 -96 0
34 31 15 36 37 -98 0
34 31 26 36 37 -115 0
34 31 26 36 37 -114 0
34 31 26 36 37 -113 0
34 31 26 36 37 -116 0
34 31 2 36 37 -38 0
34 31 2 36 37 -33 0
34 31 2 36 37 -32 0
34 31 2 36 37 -35 0
34 31 57 36 37 -140 0
34 31 57 36 37 -139 0
34 31 57 36 37 -141 0
34 31 57 36 37 -142 0
34 31 46 36 37 -134 0
34 31 46 36 37 -131 0
34 31 46 36 37 -133 0
34 31 46 36 37 -132 0
34 31 49 36 37 -137 0
34 31 49 36 37 -135 0
34 31 49 36 37 -138 0
34 31 49 36 37 -136 0
34 31 8 36 37 -73 0
34 31 8 36 37 -76 0
34 31 8 36 37 -75 0
34 31 8 36 37 -74 0
34 31 36 22 37 -95 0
34 31 36 22 37 -97 0
34 31 36 22 37 -96 0
34 31 36 22 37 -98 0
34 31 36 29 37 -115 0
34 31 36 29 37 -114 0
34 31 36 29 37 -113 0
34 31 36 29 37 -116 0
34 31 36 3 37 -38 0
34 31 36 3 37 -33 0
34 31 36 3 37 -32 0
34 31 36 3 37 -35 0
34 31 36 58 37 -140 0
34 31 36 58 37 -139 0
34 31 36 58 37 -141 0
34 31 36 58 37 -142 0
34 31 36 43 37 -134 0
34 31 36 43 37 -131 0
34 31 36 43 37 -133 0
34 31 36 43 37 -132 0
34 31 36 54 37 -137 0
34 31 36 54 37 -135 0
34 31 36 54 37 -138 0
34 31 36 54 37 -136 0
34 31 36 9 37 -73 0
34 31 36 9 37 -76 0
34 31 36 9 37 -75 0
34 31 36 9 37 -74 0
34 31 36 37 19 -95 0
34 31 36 37 19 -97 0
34 31 36 37 19 -96 0
34 31 36 37 19 -98 0
34 31 36 37 23 -115 0
34 31 36 37 23 -114 0
34 31 36 37 23 -113 0
34 31 36 37 23 -116 0
34 31 36 37 6 -38 0
34 31 36 37 6 -33 0
34 31 36 37 6 -32 0
34 31 36 37 6 -35 0
34 31 36 37 61 -140 0
34 31 36 37 61 -139 0
34 31 36 37 61 -141 0
34 31 36 37 61 -142 0
34 31 36 37 44 -134 0
34 31 36 37 44 -131 0
34 31 36 37 44 -133 0
34 31 36 37 44 -132 0
34 31 36 37 48 -137 0
34 31 36 37 48 -135 0
34 31 36 37 48 -138 0
34 31 36 37 48 -136 0
16 27 15 22 19 -93 0
16 27 15 22 19 -91 0
16 27 15 22 19 -94 0
16 27 15 22 19 -92 0
16 27 26 29 23 -93 0
16 27 26 29 23 -91 0
16 27 26 29 23 -94 0
16 27 26 29 23 -92 0
16 5 15 22 19 -18 0
16 5 15 22 19 -21 0
16 5 15 22 19 -20 0
16 5 15 22 19 -17 0
16 5 2 3 6 -18 0
16 5 2 3 6 -21 0
16 5 2 3 6 -20 0
16 5 2 3 6 -17 0
16 60 15 22 19 -110 0
16 60 15 22 19 -107 0
16 60 15 22 19 -109 0
16 60 15 22 19 -108 0
16 60 57 58 61 -110 0
16 60 57 58 61 -107 0
16 60 57 58 61 -109 0
16 60 57 58 61 -108 0
16 42 15 22 19 -101 0
16 42 15 22 19 -99 0
16 42 15 22 19 -102 0
16 42 15 22 19 -100 0
16 42 46 43 44 -101 0
16 42 46 43 44 -99 0
16 42 46 43 44 -102 0
16 42 46 43 44 -100 0
16 52 15 22 19 -103 0
16 52 15 22 19 -104 0
16 52 15 22 19 -106 0
16 52 15 22 19 -105 0
16 52 49 54 48 -103 0
16 52 49 54 48 -104 0
16 52 49 54 48 -106 0
16 52 49 54 48 -105 0
16 10 15 22 19 -65 0
16 10 15 22 19 -66 0
16 10 15 22 19 -68 0
16 10 15 22 19 -67 0
16 31 15 22 19 -95 0
16 31 15 22 19 -97 0
16 31 15 22 19 -96 0
16 31 15 22 19 -98 0
16 15 26 22 19 -93 0
16 15 26 22 19 -91 0
16 15 26 22 19 -94 0
16 15 26 22 19 -92 0
16 15 2 22 19 -18 0
16 15 2 22 19 -21 0
16 15 2 22 19 -20 0
16 15 2 22 19 -17 0
16 15 57 22 19 -110 0
16 15 57 22 19 -107 0
16 15 57 22 19 -109 0
16 15 57 22 19 -108 0
16 15 46 22 19 -101 0
16 15 46 22 19 -99 0
16 15 46 22 19 -102 0
16 15 46 22 19 -100 0
16 15 49 22 19 -103 0
16 15 49 22 19 -104 0
16 15 49 22 19 -106 0
16 15 49 22 19 -105 0
16 15 8 22 19 -65 0
16 15 8 22 19 -66 0
16 15 8 22 19 -68 0
16 15 8 22 19 -67 0
16 15 36 22 19 -95 0
16 15 36 22 19 -97 0
16 15 36 22 19 -96 0
16 15 36 22 19 -98 0
16 15 22 29 19 -93 0
16 15 22 29 19 -91 0
16 15 22 29 19 -94 0
16 15 22 29 19 -92 0
16 15 22 3 19 -18 0
16 15 22 3 19 -21 0
16 15 22 3 19 -20 0
16 15 22 3 19 -17 0
16 15 22 58 19 -110 0
16 15 22 58 19 -107 0
16 15 22 58 19 -109 0
16 15 22 58 19 -108 0
16 15 22 43 19 -101 0
16 15 22 43 19 -99 0
16 15 22 43 19 -102 0
16 15 22 43 19 -100 0
16 15 22 54 19 -103 0
16 15 22 54 19 -104 0
16 15 22 54 19 -106 0
16 15 22 54 19 -105 0
16 15 22 9 19 -65 0
16 15 22 9 19 -66 0
16 15 22 9 19 -68 0
16 15 22 9 19 -67 0
16 15 22 37 19 -95 0
16 15 22 37 19 -97 0
16 15 22 37 19 -96 0
16 15 22 37 19 -98 0
16 15 22 19 23 -93 0
16 15 22 19 23 -91 0
16 15 22 19 23 -94 0
16 15 22 19 23 -92 0
16 15 22 19 6 -18 0
16 15 22 19 6 -21 0
16 15 22 19 6 -20 0
16 15 22 19 6 -17 0
16 15 22 19 61 -110 0
16 15 22 19 61 -107 0
16 15 22 19 61 -109 0
16 15 22 19 61 -108 0
16 15 22 19 44 -101 0
16 15 22 19 44 -99 0
16 15 22 19 44 -102 0
16 15 22 19 44 -100 0
16 15 22 19 48 -103 0
16 15 22 19 48 -104 0
16 15 22 19 48 -106 0
16 15 22 19 48 -105 0
27 5 26 29 23 -28 0
27 5 26 29 23 -25 0
27 5 26 29 23 -30 0
27 5 26 29 23 -24 0
27 5 2 3 6 -28 0
27 5 2 3 6 -25 0
27 5 2 3 6 -30 0
27 5 2 3 6 -24 0
27 60 26 29 23 -125 0
27 60 26 29 23 -126 0
27 60 26 29 23 -128 0
27 60 26 29 23 -127 0
27 60 57 58 61 -125 0
27 60 57 58 61 -126 0
27 60 57 58 61 -128 0
27 60 57 58 61 -127 0
27 42 26 29 23 -117 0
27 42 26 29 23 -118 0
27 42 26 29 23 -120 0
27 42 26 29 23 -119 0
27 42 46 43 44 -117 0
27 42 46 43 44 -118 0
27 42 46 43 44 -120 0
27 42 46 43 44 -119 0
27 52 26 29 23 -121 0
27 52 26 29 23 -123 0
27 52 26 29 23 -122 0
27 52 26 29 23 -124 0
27 52 49 54 48 -121 0
27 52 49 54 48 -123 0
27 52 49 54 48 -122 0
27 52 49 54 48 -124 0
27 10 26 29 23 -69 0
27 10 26 29 23 -71 0
27 10 26 29 23 -72 0
27 10 26 29 23 -70 0
27 31 26 29 23 -115 0
27 31 26 29 23 -114 0
27 31 26 29 23 -113 0
27 31 26 29 23 -116 0
27 15 26 29 23 -93 0
27 15 26 29 23 -91 0
27 15 26 29 23 -94 0
27 15 26 29 23 -92 0
27 26 2 29 23 -28 0
27 26 2 29 23 -25 0
27 26 2 29 23 -30 0
27 26 2 29 23 -24 0
27 26 57 29 23 -125 0
27 26 57 29 23 -126 0
27 26 57 29 23 -128 0
27 26 57 29 23 -127 0
27 26 46 29 23 -117 0
27 26 46 29 23 -118 0
27 26 46 29 23 -120 0
27 26 46 29 23 -119 0
27 26 49 29 23 -121 0
27 26 49 29 23 -123 0
27 26 49 29 23 -122 0
27 26 49 29 23 -124 0
27 26 8 29 23 -69 0
27 26 8 29 23 -71 0
27 26 8 29 23 -72 0
27 26 8 29 23 -70 0
27 26 36 29 23 -115 0
27 26 36 29 23 -114 0
27 26 36 29 23 -113 0
27 26 36 29 23 -116 0
27 26 22 29 23 -93 0
27 26 22 29 23 -91 0
27 26 22 29 23 -94 0
27 26 22 29 23 -92 0
27 26 29 3 23 -28 0
27 26 29 3 23 -25 0
27 26 29 3 23 -30 0
27 26 29 3 23 -24 0
27 26 29 58 23 -125 0
27 26 29 58 23 -126 0
27 26 29 58 23 -128 0
27 26 29 58 23 -127 0
27 26 29 43 23 -117 0
27 26 29 43 23 -118 0
27 26 29 43 23 -120 0
27 26 29 43 23 -119 0
27 26 29 54 23 -121 0
27 26 29 54 23 -123 0
27 26 29 54 23 -122 0
27 26 29 54 23 -124 0
27 26 29 9 23 -69 0
27 26 29 9 23 -71 0
27 26 29 9 23 -72 0
27 26 29 9 23 -70 0
27 26 29 37 23 -115 0
27 26 29 37 23 -114 0
27 26 29 37 23 -113 0
27 26 29 37 23 -116 0
27 26 29 19 23 -93 0
27 26 29 19 23 -91 0
27 26 29 19 23 -94 0
27 26 29 19 23 -92 0
27 26 29 23 6 -28 0
27 26 29 23 6 -25 0
27 26 29 23 6 -30 0
27 26 29 23 6 -24 0
27 26 29 23 61 -125 0
27 26 29 23 61 -126 0
27 26 29 23 61 -128 0
27 26 29 23 61 -127 0
27 26 29 23 44 -117 0
27 26 29 23 44 -118 0
27 26 29 23 44 -120 0
27 26 29 23 44 -119 0
27 26 29 23 48 -121 0
27 26 29 23 48 -123 0
27 26 29 23 48 -122 0
27 26 29 23 48 -124 0
5 60 2 3 6 -56 0
5 60 2 3 6 -59 0
5 60 2 3 6 -55 0
5 60 2 3 6 -62 0
5 60 57 58 61 -56 0
5 60 57 58 61 -59 0
5 60 57 58 61 -55 0
5 60 57 58 61 -62 0
5 42 2 3 6 -40 0
5 42 2 3 6 -45 0
5 42 2 3 6 -41 0
5 42 2 3 6 -39 0
5 42 46 43 44 -40 0
5 42 46 43 44 -45 0
5 42 46 43 44 -41 0
5 42 46 43 44 -39 0
5 52 2 3 6 -53 0
5 52 2 3 6 -51 0
5 52 2 3 6 -47 0
5 52 2 3 6 -50 0
5 52 49 54 48 -53 0
5 52 49 54 48 -51 0
5 52 49 54 48 -47 0
5 52 49 54 48 -50 0
5 10 2 3 6 -11 0
5 10 2 3 6 -12 0
5 10 2 3 6 -14 0
5 10 2 3 6 -13 0
5 31 2 3 6 -38 0
5 31 2 3 6 -33 0
5 31 2 3 6 -32 0
5 31 2 3 6 -35 0
5 15 2 3 6 -18 0
5 15 2 3 6 -21 0
5 15 2 3 6 -20 0
5 15 2 3 6 -17 0
5 26 2 3 6 -28 0
5 26 2 3 6 -25 0
5 26 2 3 6 -30 0
5 26 2 3 6 -24 0
5 2 57 3 6 -56 0
5 2 57 3 6 -59 0
5 2 57 3 6 -55 0
5 2 57 3 6 -62 0
5 2 46 3 6 -40 0
5 2 46 3 6 -45 0
5 2 46 3 6 -41 0
5 2 46 3 6 -39 0
5 2 49 3 6 -53 0
5 2 49 3 6 -51 0
5 2 49 3 6 -47 0
5 2 49 3 6 -50 0
5 2 8 3 6 -11 0
5 2 8 3 6 -12 0
5 2 8 3 6 -14 0
5 2 8 3 6 -13 0
5 2 36 3 6 -38 0
5 2 36 3 6 -33 0
5 2 36 3 6 -32 0
5 2 36 3 6 -35 0
5 2 22 3 6 -18 0
5 2 22 3 6 -21 0
5 2 22 3 6 -20 0
5 2 22 3 6 -17 0
5 2 29 3 6 -28 0
5 2 29 3 6 -25 0
5 2 29 3 6 -30 0
5 2 29 3 6 -24 0
5 2 3 58 6 -56 0
5 2 3 58 6 -59 0
5 2 3 58 6 -55 0
5 2 3 58 6 -62 0
5 2 3 43 6 -40 0
5 2 3 43 6 -45 0
5 2 3 43 6 -41 0
5 2 3 43 6 -39 0
5 2 3 54 6 -53 0
5 2 3 54 6 -51 0
5 2 3 54 6 -47 0
5 2 3 54 6 -50 0
5 2 3 9 6 -11 0
5 2 3 9 6 -12 0
5 2 3 9 6 -14 0
5 2 3 9 6 -13 0
5 2 3 37 6 -38 0
5 2 3 37 6 -33 0
5 2 3 37 6 -32 0
5 2 3 37 6 -35 0
5 2 3 19 6 -18 0
5 2 3 19 6 -21 0
5 2 3 19 6 -20 0
5 2 3 19 6 -17 0
5 2 3 23 6 -28 0
5 2 3 23 6 -25 0
5 2 3 23 6 -30 0
5 2 3 23 6 -24 0
5 2 3 6 61 -56 0
5 2 3 6 61 -59 0
5 2 3 6 61 -55 0
5 2 3 6 61 -62 0
5 2 3 6 44 -40 0
5 2 3 6 44 -45 0
5 2 3 6 44 -41 0
5 2 3 6 44 -39 0
5 2 3 6 48 -53 0
5 2 3 6 48 -51 0
5 2 3 6 48 -47 0
5 2 3 6 48 -50 0
60 42 57 58 61 -150 0
60 42 57 58 61 -151 0
60 42 57 58 61 -152 0
60 42 57 58 61 -149 0
60 42 46 43 44 -150 0
60 42 46 43 44 -151 0
60 42 46 43 44 -152 0
60 42 46 43 44 -149 0
60 52 57 58 61 -156 0
60 52 57 58 61 -155 0
60 52 57 58 61 -157 0
60 52 57 58 61 -158 0
60 52 49 54 48 -156 0
60 52 49 54 48 -155 0
60 52 49 54 48 -157 0
60 52 49 54 48 -158 0
60 10 57 58 61 -85 0
60 10 57 58 61 -87 0
60 10 57 58 61 -88 0
60 10 57 58 61 -86 0
60 31 57 58 61 -140 0
60 31 57 58 61 -139 0
60 31 57 58 61 -141 0
60 31 57 58 61 -142 0
60 15 57 58 61 -110 0
60 15 57 58 61 -107 0
60 15 57 58 61 -109 0
60 15 57 58 61 -108 0
60 26 57 58 61 -125 0
60 26 57 58 61 -126 0
60 26 57 58 61 -128 0
60 26 57 58 61 -127 0
60 2 57 58 61 -56 0
60 2 57 58 61 -59 0
60 2 57 58 61 -55 0
60 2 57 58 61 -62 0
60 57 46 58 61 -150 0
60 57 46 58 61 -151 0
60 57 46 58 61 -152 0
60 57 46 58 61 -149 0
60 57 49 58 61 -156 0
60 57 49 58 61 -155 0
60 57 49 58 61 -157 0
60 57 49 58 61 -158 0
60 57 8 58 61 -85 0
60 57 8 58 61 -87 0
60 57 8 58 61 -88 0
60 57 8 58 61 -86 0
60 57 36 58 61 -140 0
60 57 36 58 61 -139 0
60 57 36 58 61 -141 0
60 57 36 58 61 -142 0
60 57 22 58 61 -110 0
60 57 22 58 61 -107 0
60 57 22 58 61 -109 0
60 57 22 58 61 -108 0
60 57 29 58 61 -125 0
60 57 29 58 61 -126 0
60 57 29 58 61 -128 0
60 57 29 58 61 -127 0
60 57 3 58 61 -56 0
60 57 3 58 61 -59 0
60 57 3 58 61 -55 0
60 57 3 58 61 -62 0
60 57 58 43 61 -150 0
60 57 58 43 61 -151 0
60 57 58 43 61 -152 0
60 57 58 43 61 -149 0
60 57 58 54 61 -156 0
60 57 58 54 61 -155 0
60 57 58 54 61 -157 0
60 57 58 54 61 -158 0
60 57 58 9 61 -85 0
60 57 58 9 61 -87 0
60 57 58 9 61 -88 0
60 57 58 9 61 -86 0
60 57 58 37 61 -140 0
60 57 58 37 61 -139 0
60 57 58 37 61 -141 0
60 57 58 37 61 -142 0
60 57 58 19 61 -110 0
60 57 58 19 61 -107 0
60 57 58 19 61 -109 0
60 57 58 19 61 -108 0
60 57 58 23 61 -125 0
60 57 58 23 61 -126 0
60 57 58 23 61 -128 0
60 57 58 23 61 -127 0
60 57 58 6 61 -56 0
60 57 58 6 61 -59 0
60 57 58 6 61 -55 0
60 57 58 6 61 -62 0
60 57 58 61 44 -150 0
60 57 58 61 44 -151 0
60 57 58 61 44 -152 0
60 57 58 61 44 -149 0
60 57 58 61 48 -156 0
60 57 58 61 48 -155 0
60 57 58 61 48 -157 0
60 57 58 61 48 -158 0
42 52 46 43 44 -146 0
42 52 46 43 44 -145 0
42 52 46 43 44 -148 0
42 52 46 43 44 -147 0
42 52 49 54 48 -146 0
42 52 49 54 48 -145 0
42 52 49 54 48 -148 0
42 52 49 54 48 -147 0
42 10 46 43 44 -79 0
42 10 46 43 44 -77 0
42 10 46 43 44 -78 0
42 10 46 43 44 -80 0
42 31 46 43 44 -134 0
42 31 46 43 44 -131 0
42 31 46 43 44 -133 0
42 31 46 43 44 -132 0
42 15 46 43 44 -101 0
42 15 46 43 44 -99 0
42 15 46 43 44 -102 0
42 15 46 43 44 -100 0
42 26 46 43 44 -117 0
42 26 46 43 44 -118 0
42 26 46 43 44 -120 0
42 26 46 43 44 -119 0
42 2 46 43 44 -40 0
42 2 46 43 44 -45 0
42 2 46 43 44 -41 0
42 2 46 43 44 -39 0
42 57 46 43 44 -150 0
42 57 46 43 44 -151 0
42 57 46 43 44 -152 0
42 57 46 43 44 -149 0
42 46 49 43 44 -146 0
42 46 49 43 44 -145 0
42 46 49 43 44 -148 0
42 46 49 43 44 -147 0
42 46 8 43 44 -79 0
42 46 8 43 44 -77 0
42 46 8 43 44 -78 0
42 46 8 43 44 -80 0
42 46 36 43 44 -134 0
42 46 36 43 44 -131 0
42 46 36 43 44 -133 0
42 46 36 43 44 -132 0
42 46 22 43 44 -101 0
42 46 22 43 44 -99 0
42 46 22 43 44 -102 0
42 46 22 43 44 -100 0
42 46 29 43 44 -117 0
42 46 29 43 44 -118 0
42 46 29 43 44 -120 0
42 46 29 43 44 -119 0
42 46 3 43 44 -40 0
42 46 3 43 44 -45 0
42 46 3 43 44 -41 0
42 46 3 43 44 -39 0
42 46 58 43 44 -150 0
42 46 58 43 44 -151 0
42 46 58 43 44 -152 0
42 46 58 43 44 -149 0
42 46 43 54 44 -146 0
42 46 43 54 44 -145 0
42 46 43 54 44 -148 0
42 46 43 54 44 -147 0
42 46 43 9 44 -79 0
42 46 43 9 44 -77 0
42 46 43 9 44 -78 0
42 46 43 9 44 -80 0
42 46 43 37 44 -134 0
42 46 43 37 44 -131 0
42 46 43 37 44 -133 0
42 46 43 37 44 -132 0
42 46 43 19 44 -101 0
42 46 43 19 44 -99 0
42 46 43 19 44 -102 0
42 46 43 19 44 -100 0
42 46 43 23 44 -117 0
42 46 43 23 44 -118 0
42 46 43 23 44 -120 0
42 46 43 23 44 -119 0
42 46 43 6 44 -40 0
42 46 43 6 44 -45 0
42 46 43 6 44 -41 0
42 46 43 6 44 -39 0
42 46 43 61 44 -150 0
42 46 43 61 44 -151 0
42 46 43 61 44 -152 0
42 46 43 61 44 -149 0
42 46 43 44 48 -146 0
42 46 43 44 48 -145 0
42 46 43 44 48 -148 0
42 46 43 44 48 -147 0
52 10 49 54 48 -84 0
52 10 49 54 48 -83 0
52 10 49 54 48 -82 0
52 10 49 54 48 -81 0
52 31 49 54 48 -137 0
52 31 49 54 48 -135 0
52 31 49 54 48 -138 0
52 31 49 54 48 -136 0
52 15 49 54 48 -103 0
52 15 49 54 48 -104 0
52 15 49 54 48 -106 0
52 15 49 54 48 -105 0
52 26 49 54 48 -121 0
52 26 49 54 48 -123 0
52 26 49 54 48 -122 0
52 26 49 54 48 -124 0
52 2 49 54 48 -53 0
52 2 49 54 48 -51 0
52 2 49 54 48 -47 0
52 2 49 54 48 -50 0
52 57 49 54 48 -156 0
52 57 49 54 48 -155 0
52 57 49 54 48 -157 0
52 57 49 54 48 -158 0
52 46 49 54 48 -146 0
52 46 49 54 48 -145 0
52 46 49 54 48 -148 0
52 46 49 54 48 -147 0
52 49 8 54 48 -84 0
52 49 8 54 48 -83 0
52 49 8 54 48 -82 0
52 49 8 54 48 -81 0
52 49 36 54 48 -137 0
52 49 36 54 48 -135 0
52 49 36 54 48 -138 0
52 49 36 54 48 -136 0
52 49 22 54 48 -103 0
52 49 22 54 48 -104 0
52 49 22 54 48 -106 0
52 49 22 54 48 -105 0
52 49 29 54 48 -121 0
52 49 29 54 48 -123 0
52 49 29 54 48 -122 0
52 49 29 54 48 -124 0
52 49 3 54 48 -53 0
52 49 3 54 48 -51 0
52 49 3 54 48 -47 0
52 49 3 54 48 -50 0
52 49 58 54 48 -156 0
52 49 58 54 48 -155 0
52 49 58 54 48 -157 0
52 49 58 54 48 -158 0
52 49 43 54 48 -146 0
52 49 43 54 48 -145 0
52 49 43 54 48 -148 0
52 49 43 54 48 -147 0
52 49 54 9 48 -84 0
52 49 54 9 48 -83 0
52 49 54 9 48 -82 0
52 49 54 9 48 -81 0
52 49 54 37 48 -137 0
52 49 54 37 48 -135 0
52 49 54 37 48 -138 0
52 49 54 37 48 -136 0
52 49 54 19 48 -103 0
52 49 54 19 48 -104 0
52 49 54 19 48 -106 0
52 49 54 19 48 -105 0
52 49 54 23 48 -121 0
52 49 54 23 48 -123 0
52 49 54 23 48 -122 0
52 49 54 23 48 -124 0
52 49 54 6 48 -53 0
52 49 54 6 48 -51 0
52 49 54 6 48 -47 0
52 49 54 6 48 -50 0
52 49 54 61 48 -156 0
52 49 54 61 48 -155 0
52 49 54 61 48 -157 0
52 49 54 61 48 -158 0
52 49 54 44 48 -146 0
52 49 54 44 48 -145 0
52 49 54 44 48 -148 0
52 49 54 44 48 -147 0
7 34 10 31 8 36 -73 0
7 34 10 31 8 36 -76 0
7 34 10 31 8 36 -75 0
7 34 10 31 8 36 -74 0
7 34 10 31 8 9 -73 0
7 34 10 31 8 9 -76 0
7 34 10 31 8 9 -75 0
7 34 10 31 8 9 -74 0
7 34 10 31 36 37 -73 0
7 34 10 31 36 37 -76 0
7 34 10 31 36 37 -75 0
7 34 10 31 36 37 -74 0
7 34 10 31 9 37 -73 0
7 34 10 31 9 37 -76 0
7 34 10 31 9 37 -75 0
7 34 10 31 9 37 -74 0
7 34 10 8 36 9 -73 0
7 34 10 8 36 9 -76 0
7 34 10 8 36 9 -75 0
7 34 10 8 36 9 -74 0
7 34 10 8 9 37 -73 0
7 34 10 8 9 37 -76 0
7 34 10 8 9 37 -75 0
7 34 10 8 9 37 -74 0
7 34 31 8 36 37 -73 0
7 34 31 8 36 37 -76 0
7 34 31 8 36 37 -75 0
7 34 31 8 36 37 -74 0
7 34 31 36 9 37 -73 0
7 34 31 36 9 37 -76 0
7 34 31 36 9 37 -75 0
7 34 31 36 9 37 -74 0
7 34 8 36 9 37 -73 0
7 34 8 36 9 37 -76 0
7 34 8 36 9 37 -75 0
7 34 8 36 9 37 -74 0
7 16 10 15 8 22 -65 0
7 16 10 15 8 22 -66 0
7 16 10 15 8 22 -68 0
7 16 10 15 8 22 -67 0
7 16 10 15 8 9 -65 0
7 16 10 15 8 9 -66 0
7 16 10 15 8 9 -68 0
7 16 10 15 8 9 -67 0
7 16 10 15 22 19 -65 0
7 16 10 15 22 19 -66 0
7 16 10 15 22 19 -68 0
7 16 10 15 22 19 -67 0
7 16 10 15 9 19 -65 0
7 16 10 15 9 19 -66 0
7 16 10 15 9 19 -68 0
7 16 10 15 9 19 -67 0
7 16 10 8 22 9 -65 0
7 16 10 8 22 9 -66 0
7 16 10 8 22 9 -68 0
7 16 10 8 22 9 -67 0
7 16 10 8 9 19 -65 0
7 16 10 8 9 19 -66 0
7 16 10 8 9 19 -68 0
7 16 10 8 9 19 -67 0
7 16 15 8 22 19 -65 0
7 16 15 8 22 19 -66 0
7 16 15 8 22 19 -68 0
7 16 15 8 22 19 -67 0
7 16 15 22 9 19 -65 0
7 16 15 22 9 19 -66 0
7 16 15 22 9 19 -68 0
7 16 15 22 9 19 -67 0
7 16 8 22 9 19 -65 0
7 16 8 22 9 19 -66 0
7 16 8 22 9 19 -68 0
7 16 8 22 9 19 -67 0
7 27 10 26 8 29 -69 0
7 27 10 26 8 29 -71 0
7 27 10 26 8 29 -72 0
7 27 10 26 8 29 -70 0
7 27 10 26 8 9 -69 0
7 27 10 26 8 9 -71 0
7 27 10 26 8 9 -72 0
7 27 10 26 8 9 -70 0
7 27 10 26 29 23 -69 0
7 27 10 26 29 23 -71 0
7 27 10 26 29 23 -72 0
7 27 10 26 29 23 -70 0
7 27 10 26 9 23 -69 0
7 27 10 26 9 23 -71 0
7 27 10 26 9 23 -72 0
7 27 10 26 9 23 -70 0
7 27 10 8 29 9 -69 0
7 27 10 8 29 9 -71 0
7 27 10 8 29 9 -72 0
7 27 10 8 29 9 -70 0
7 27 10 8 9 23 -69 0
7 27 10 8 9 23 -71 0
7 27 10 8 9 23 -72 0
7 27 10 8 9 23 -70 0
7 27 26 8 29 23 -69 0
7 27 26 8 29 23 -71 0
7 27 26 8 29 23 -72 0
7 27 26 8 29 23 -70 0
7 27 26 29 9 23 -69 0
7 27 26 29 9 23 -71 0
7 27 26 29 9 23 -72 0
7 27 26 29 9 23 -70 0
7 27 8 29 9 23 -69 0
7 27 8 29 9 23 -71 0
7 27 8 29 9 23 -72 0
7 27 8 29 9 23 -70 0
7 5 10 2 8 3 -11 0
7 5 10 2 8 3 -12 0
7 5 10 2 8 3 -14 0
7 5 10 2 8 3 -13 0
7 5 10 2 8 9 -11 0
7 5 10 2 8 9 -12 0
7 5 10 2 8 9 -14 0
7 5 10 2 8 9 -13 0
7 5 10 2 3 6 -11 0
7 5 10 2 3 6 -12 0
7 5 10 2 3 6 -14 0
7 5 10 2 3 6 -13 0
7 5 10 2 9 6 -11 0
7 5 10 2 9 6 -12 0
7 5 10 2 9 6 -14 0
7 5 10 2 9 6 -13 0
7 5 10 8 3 9 -11 0
7 5 10 8 3 9 -12 0
7 5 10 8 3 9 -14 0
7 5 10 8 3 9 -13 0
7 5 10 8 9 6 -11 0
7 5 10 8 9 6 -12 0
7 5 10 8 9 6 -14 0
7 5 10 8 9 6 -13 0
7 5 2 8 3 6 -11 0
7 5 2 8 3 6 -12 0
7 5 2 8 3 6 -14 0
7 5 2 8 3 6 -13 0
7 5 2 3 9 6 -11 0
7 5 2 3 9 6 -12 0
7 5 2 3 9 6 -14 0
7 5 2 3 9 6 -13 0
7 5 8 3 9 6 -11 0
7 5 8 3 9 6 -12 0
7 5 8 3 9 6 -14 0
7 5 8 3 9 6 -13 0
7 60 10 57 8 58 -85 0
7 60 10 57 8 58 -87 0
7 60 10 57 8 58 -88 0
7 60 10 57 8 58 -86 0
7 60 10 57 8 9 -85 0
7 60 10 57 8 9 -87 0
7 60 10 57 8 9 -88 0
7 60 10 57 8 9 -86 0
7 60 10 57 58 61 -85 0
7 60 10 57 58 61 -87 0
7 60 10 57 58 61 -88 0
7 60 10 57 58 61 -86 0
7 60 10 57 9 61 -85 0
7 60 10 57 9 61 -87 0
7 60 10 57 9 61 -88 0
7 60 10 57 9 61 -86 0
7 60 10 8 58 9 -85 0
7 60 10 8 58 9 -87 0
7 60 10 8 58 9 -88 0
7 60 10 8 58 9 -86 0
7 60 10 8 9 61 -85 0
7 60 10 8 9 61 -87 0
7 60 10 8 9 61 -88 0
7 60 10 8 9 61 -86 0
7 60 57 8 58 61 -85 0
7 60 57 8 58 61 -87 0
7 60 57 8 58 61 -88 0
7 60 57 8 58 61 -86 0
7 60 57 58 9 61 -85 0
7 60 57 58 9 61 -87 0
7 60 57 58 9 61 -88 0
7 60 57 58 9 61 -86 0
7 60 8 58 9 61 -85 0
7 60 8 58 9 61 -87 0
7 60 8 58 9 61 -88 0
7 60 8 58 9 61 -86 0
7 42 10 46 8 43 -79 0
7 42 10 46 8 43 -77 0
7 42 10 46 8 43 -78 0
7 42 10 46 8 43 -80 0
7 42 10 46 8 9 -79 0
7 42 10 46 8 9 -77 0
7 42 10 46 8 9 -78 0
7 42 10 46 8 9 -80 0
7 42 10 46 43 44 -79 0
7 42 10 46 43 44 -77 0
7 42 10 46 43 44 -78 0
7 42 10 46 43 44 -80 0
7 42 10 46 9 44 -79 0
7 42 10 46 9 44 -77 0
7 42 10 46 9 44 -78 0
7 42 10 46 9 44 -80 0
7 42 10 8 43 9 -79 0
7 42 10 8 43 9 -77 0
7 42 10 8 43 9 -78 0
7 42 10 8 43 9 -80 0
7 42 10 8 9 44 -79 0
7 42 10 8 9 44 -77 0
7 42 10 8 9 44 -78 0
7 42 10 8 9 44 -80 0
7 42 46 8 43 44 -79 0
7 42 46 8 43 44 -77 0
7 42 46 8 43 44 -78 0
7 42 46 8 43 44 -80 0
7 42 46 43 9 44 -79 0
7 42 46 43 9 44 -77 0
7 42 46 43 9 44 -78 0
7 42 46 43 9 44 -80 0
7 42 8 43 9 44 -79 0
7 42 8 43 9 44 -77 0
7 42 8 43 9 44 -78 0
7 42 8 43 9 44 -80 0
7 52 10 49 8 54 -84 0
7 52 10 49 8 54 -83 0
7 52 10 49 8 54 -82 0
7 52 10 49 8 54 -81 0
7 52 10 49 8 9 -84 0
7 52 10 49 8 9 -83 0
7 52 10 49 8 9 -82 0
7 52 10 49 8 9 -81 0
7 52 10 49 54 48 -84 0
7 52 10 49 54 48 -83 0
7 52 10 49 54 48 -82 0
7 52 10 49 54 48 -81 0
7 52 10 49 9 48 -84 0
7 52 10 49 9 48 -83 0
7 52 10 49 9 48 -82 0
7 52 10 49 9 48 -81 0
7 52 10 8 54 9 -84 0
7 52 10 8 54 9 -83 0
7 52 10 8 54 9 -82 0
7 52 10 8 54 9 -81 0
7 52 10 8 9 48 -84 0
7 52 10 8 9 48 -83 0
7 52 10 8 9 48 -82 0
7 52 10 8 9 48 -81 0
7 52 49 8 54 48 -84 0
7 52 49 8 54 48 -83 0
7 52 49 8 54 48 -82 0
7 52 49 8 54 48 -81 0
7 52 49 54 9 48 -84 0
7 52 49 54 9 48 -83 0
7 52 49 54 9 48 -82 0
7 52 49 54 9 48 -81 0
7 52 8 54 9 48 -84 0
7 52 8 54 9 48 -83 0
7 52 8 54 9 48 -82 0
7 52 8 54 9 48 -81 0
7 10 31 8 36 9 -73 0
7 10 31 8 36 9 -76 0
7 10 31 8 36 9 -75 0
7 10 31 8 36 9 -74 0
7 10 31 8 9 37 -73 0
7 10 31 8 9 37 -76 0
7 10 31 8 9 37 -75 0
7 10 31 8 9 37 -74 0
7 10 15 8 22 9 -65 0
7 10 15 8 22 9 -66 0
7 10 15 8 22 9 -68 0
7 10 15 8 22 9 -67 0
7 10 15 8 9 19 -65 0
7 10 15 8 9 19 -66 0
7 10 15 8 9 19 -68 0
7 10 15 8 9 19 -67 0
7 10 26 8 29 9 -69 0
7 10 26 8 29 9 -71 0
7 10 26 8 29 9 -72 0
7 10 26 8 29 9 -70 0
7 10 26 8 9 23 -69 0
7 10 26 8 9 23 -71 0
7 10 26 8 9 23 -72 0
7 10 26 8 9 23 -70 0
7 10 2 8 3 9 -11 0
7 10 2 8 3 9 -12 0
7 10 2 8 3 9 -14 0
7 10 2 8 3 9 -13 0
7 10 2 8 9 6 -11 0
7 10 2 8 9 6 -12 0
7 10 2 8 9 6 -14 0
7 10 2 8 9 6 -13 0
7 10 57 8 58 9 -85 0
7 10 57 8 58 9 -87 0
7 10 57 8 58 9 -88 0
7 10 57 8 58 9 -86 0
7 10 57 8 9 61 -85 0
7 10 57 8 9 61 -87 0
7 10 57 8 9 61 -88 0
7 10 57 8 9 61 -86 0
7 10 46 8 43 9 -79 0
7 10 46 8 43 9 -77 0
7 10 46 8 43 9 -78 0
7 10 46 8 43 9 -80 0
7 10 46 8 9 44 -79 0
7 10 46 8 9 44 -77 0
7 10 46 8 9 44 -78 0
7 10 46 8 9 44 -80 0
7 10 49 8 54 9 -84 0
7 10 49 8 54 9 -83 0
7 10 49 8 54 9 -82 0
7 10 49 8 54 9 -81 0
7 10 49 8 9 48 -84 0
7 10 49 8 9 48 -83 0
7 10 49 8 9 48 -82 0
7 10 49 8 9 48 -81 0
7 10 8 36 9 37 -73 0
7 10 8 36 9 37 -76 0
7 10 8 36 9 37 -75 0
7 10 8 36 9 37 -74 0
7 10 8 22 9 19 -65 0
7 10 8 22 9 19 -66 0
7 10 8 22 9 19 -68 0
7 10 8 22 9 19 -67 0
7 10 8 29 9 23 -69 0
7 10 8 29 9 23 -71 0
7 10 8 29 9 23 -72 0
7 10 8 29 9 23 -70 0
7 10 8 3 9 6 -11 0
7 10 8 3 9 6 -12 0
7 10 8 3 9 6 -14 0
7 10 8 3 9 6 -13 0
7 10 8 58 9 61 -85 0
7 10 8 58 9 61 -87 0
7 10 8 58 9 61 -88 0
7 10 8 58 9 61 -86 0
7 10 8 43 9 44 -79 0
7 10 8 43 9 44 -77 0
7 10 8 43 9 44 -78 0
7 10 8 43 9 44 -80 0
7 10 8 54 9 48 -84 0
7 10 8 54 9 48 -83 0
7 10 8 54 9 48 -82 0
7 10 8 54 9 48 -81 0
34 16 31 15 36 22 -95 0
34 16 31 15 36 22 -97 0
34 16 31 15 36 22 -96 0
34 16 31 15 36 22 -98 0
34 16 31 15 36 37 -95 0
34 16 31 15 36 37 -97 0
34 16 31 15 36 37 -96 0
34 16 31 15 36 37 -98 0
34 16 31 15 22 19 -95 0
34 16 31 15 22 19 -97 0
34 16 31 15 22 19 -96 0
34 16 31 15 22 19 -98 0
34 16 31 15 37 19 -95 0
34 16 31 15 37 19 -97 0
34 16 31 15 37 19 -96 0
34 16 31 15 37 19 -98 0
34 16 31 36 22 37 -95 0
34 16 31 36 22 37 -97 0
34 16 31 36 22 37 -96 0
34 16 31 36 22 37 -98 0
34 16 31 36 37 19 -95 0
34 16 31 36 37 19 -97 0
34 16 31 36 37 19 -96 0
34 16 31 36 37 19 -98 0
34 16 15 36 22 19 -95 0
34 16 15 36 22 19 -97 0
34 16 15 36 22 19 -96 0
34 16 15 36 22 19 -98 0
34 16 15 22 37 19 -95 0
34 16 15 22 37 19 -97 0
34 16 15 22 37 19 -96 0
34 16 15 22 37 19 -98 0
34 16 36 22 37 19 -95 0
34 16 36 22 37 19 -97 0
34 16 36 22 37 19 -96 0
34 16 36 22 37 19 -98 0
34 27 31 26 36 29 -115 0
34 27 31 26 36 29 -114 0
34 27 31 26 36 29 -113 0
34 27 31 26 36 29 -116 0
34 27 31 26 36 37 -115 0
34 27 31 26 36 37 -114 0
34 27 31 26 36 37 -113 0
34 27 31 26 36 37 -116 0
34 27 31 26 29 23 -115 0
34 27 31 26 29 23 -114 0
34 27 31 26 29 23 -113 0
34 27 31 26 29 23 -116 0
34 27 31 26 37 23 -115 0
34 27 31 26 37 23 -114 0
34 27 31 26 37 23 -113 0
34 27 31 26 37 23 -116 0
34 27 31 36 29 37 -115 0
34 27 31 36 29 37 -114 0
34 27 31 36 29 37 -113 0
34 27 31 36 29 37 -116 0
34 27 31 36 37 23 -115 0
34 27 31 36 37 23 -114 0
34 27 31 36 37 23 -113 0
34 27 31 36 37 23 -116 0
34 27 26 36 29 23 -115 0
34 27 26 36 29 23 -114 0
34 27 26 36 29 23 -113 0
34 27 26 36 29 23 -116 0
34 27 26 29 37 23 -115 0
34 27 26 29 37 23 -114 0
34 27 26 29 37 23 -113 0
34 27 26 29 37 23 -116 0
34 27 36 29 37 23 -115 0
34 27 36 29 37 23 -114 0
34 27 36 29 37 23 -113 0
34 27 36 29 37 23 -116 0
34 5 31 2 36 3 -38 0
34 5 31 2 36 3 -33 0
34 5 31 2 36 3 -32 0
34 5 31 2 36 3 -35 0
34 5 31 2 36 37 -38 0
34 5 31 2 36 37 -33 0
34 5 31 2 36 37 -32 0
34 5 31 2 36 37 -35 0
34 5 31 2 3 6 -38 0
34 5 31 2 3 6 -33 0
34 5 31 2 3 6 -32 0
34 5 31 2 3 6 -35 0
34 5 31 2 37 6 -38 0
34 5 31 2 37 6 -33 0
34 5 31 2 37 6 -32 0
34 5 31 2 37 6 -35 0
34 5 31 36 3 37 -38 0
34 5 31 36 3 37 -33 0
34 5 31 36 3 37 -32 0
34 5 31 36 3 37 -35 0
34 5 31 36 37 6 -38 0
34 5 31 36 37 6 -33 0
34 5 31 36 37 6 -32 0
34 5 31 36 37 6 -35 0
34 5 2 36 3 6 -38 0
34 5 2 36 3 6 -33 0
34 5 2 36 3 6 -32 0
34 5 2 36 3 6 -35 0
34 5 2 3 37 6 -38 0
34 5 2 3 37 6 -33 0
34 5 2 3 37 6 -32 0
34 5 2 3 37 6 -35 0
34 5 36 3 37 6 -38 0
34 5 36 3 37 6 -33 0
34 5 36 3 37 6 -32 0
34 5 36 3 37 6 -35 0
34 60 31 57 36 58 -140 0
34 60 31 57 36 58 -139 0
34 60 31 57 36 58 -141 0
34 60 31 57 36 58 -142 0
34 60 31 57 36 37 -140 0
34 60 31 57 36 37 -139 0
34 60 31 57 36 37 -141 0
34 60 31 57 36 37 -142 0
34 60 31 57 58 61 -140 0
34 60 31 57 58 61 -139 0
34 60 31 57 58 61 -141 0
34 60 31 57 58 61 -142 0
34 60 31 57 37 61 -140 0
34 60 31 57 37 61 -139 0
34 60 31 57 37 61 -141 0
34 60 31 57 37 61 -142 0
34 60 31 36 58 37 -140 0
34 60 31 36 58 37 -139 0
34 60 31 36 58 37 -141 0
34 60 31 36 58 37 -142 0
34 60 31 36 37 61 -140 0
34 60 31 36 37 61 -139 0
34 60 31 36 37 61 -141 0
34 60 31 36 37 61 -142 0
34 60 57 36 58 61 -140 0
34 60 57 36 58 61 -139 0
34 60 57 36 58 61 -141 0
34 60 57 36 58 61 -142 0
34 60 57 58 37 61 -140 0
34 60 57 58 37 61 -139 0
34 60 57 58 37 61 -141 0
34 60 57 58 37 61 -142 0
34 60 36 58 37 61 -140 0
34 60 36 58 37 61 -139 0
34 60 36 58 37 61 -141 0
34 60 36 58 37 61 -142 0
34 42 31 46 36 43 -134 0
34 42 31 46 36 43 -131 0
34 42 31 46 36 43 -133 0
34 42 31 46 36 43 -132 0
34 42 31 46 36 37 -134 0
34 42 31 46 36 37 -131 0
34 42 31 46 36 37 -133 0
34 42 31 46 36 37 -132 0
34 42 31 46 43 44 -134 0
34 42 31 46 43 44 -131 0
34 42 31 46 43 44 -133 0
34 42 31 46 43 44 -132 0
34 42 31 46 37 44 -134 0
34 42 31 46 37 44 -131 0
34 42 31 46 37 44 -133 0
34 42 31 46 37 44 -132 0
34 42 31 36 43 37 -134 0
34 42 31 36 43 37 -131 0
34 42 31 36 43 37 -133 0
34 42 31 36 43 37 -132 0
34 42 31 36 37 44 -134 0
34 42 31 36 37 44 -131 0
34 42 31 36 37 44 -133 0
34 42 31 36 37 44 -132 0
34 42 46 36 43 44 -134 0
34 42 46 36 43 44 -131 0
34 42 46 36 43 44 -133 0
34 42 46 36 43 44 -132 0
34 42 46 43 37 44 -134 0
34 42 46 43 37 44 -131 0
34 42 46 43 37 44 -133 0
34 42 46 43 37 44 -132 0
34 42 36 43 37 44 -134 0
34 42 36 43 37 44 -131 0
34 42 36 43 37 44 -133 0
34 42 36 43 37 44 -132 0
34 52 31 49 36 54 -137 0
34 52 31 49 36 54 -135 0
34 52 31 49 36 54 -138 0
34 52 31 49 36 54 -136 0
34 52 31 49 36 37 -137 0
34 52 31 49 36 37 -135 0
34 52 31 49 36 37 -138 0
34 52 31 49 36 37 -136 0
34 52 31 49 54 48 -137 0
34 52 31 49 54 48 -135 0
34 52 31 49 54 48 -138 0
34 52 31 49 54 48 -136 0
34 52 31 49 37 48 -137 0
34 52 31 49 37 48 -135 0
34 52 31 49 37 48 -138 0
34 52 31 49 37 48 -136 0
34 52 31 36 54 37 -137 0
34 52 31 36 54 37 -135 0
34 52 31 36 54 37 -138 0
34 52 31 36 54 37 -136 0
34 52 31 36 37 48 -137 0
34 52 31 36 37 48 -135 0
34 52 31 36 37 48 -138 0
34 52 31 36 37 48 -136 0
34 52 49 36 54 48 -137 0
34 52 49 36 54 48 -135 0
34 52 49 36 54 48 -138 0
34 52 49 36 54 48 -136 0
34 52 49 54 37 48 -137 0
34 52 49 54 37 48 -135 0
34 52 49 54 37 48 -138 0
34 52 49 54 37 48 -136 0
34 52 36 54 37 48 -137 0
34 52 36 54 37 48 -135 0
34 52 36 54 37 48 -138 0
34 52 36 54 37 48 -136 0
34 10 31 8 36 37 -73 0
34 10 31 8 36 37 -76 0
34 10 31 8 36 37 -75 0
34 10 31 8 36 37 -74 0
34 10 31 36 9 37 -73 0
34 10 31 36 9 37 -76 0
34 10 31 36 9 37 -75 0
34 10 31 36 9 37 -74 0
34 31 15 36 22 37 -95 0
34 31 15 36 22 37 -97 0
34 31 15 36 22 37 -96 0
34 31 15 36 22 37 -98 0
34 31 15 36 37 19 -95 0
34 31 15 36 37 19 -97 0
34 31 15 36 37 19 -96 0
34 31 15 36 37 19 -98 0
34 31 26 36 29 37 -115 0
34 31 26 36 29 37 -114 0
34 31 26 36 29 37 -113 0
34 31 26 36 29 37 -116 0
34 31 26 36 37 23 -115 0
34 31 26 36 37 23 -114 0
34 31 26 36 37 23 -113 0
34 31 26 36 37 23 -116 0
34 31 2 36 3 37 -38 0
34 31 2 36 3 37 -33 0
34 31 2 36 3 37 -32 0
34 31 2 36 3 37 -35 0
34 31 2 36 37 6 -38 0
34 31 2 36 37 6 -33 0
34 31 2 36 37 6 -32 0
34 31 2 36 37 6 -35 0
34 31 57 36 58 37 -140 0
34 31 57 36 58 37 -139 0
34 31 57 36 58 37 -141 0
34 31 57 36 58 37 -142 0
34 31 57 36 37 61 -140 0
34 31 57 36 37 61 -139 0
34 31 57 36 37 61 -141 0
34 31 57 36 37 61 -142 0
34 31 46 36 43 37 -134 0
34 31 46 36 43 37 -131 0
34 31 46 36 43 37 -133 0
34 31 46 36 43 37 -132 0
34 31 46 36 37 44 -134 0
34 31 46 36 37 44 -131 0
34 31 46 36 37 44 -133 0
34 31 46 36 37 44 -132 0
34 31 49 36 54 37 -137 0
34 31 49 36 54 37 -135 0
34 31 49 36 54 37 -138 0
34 31 49 36 54 37 -136 0
34 31 49 36 37 48 -137 0
34 31 49 36 37 48 -135 0
34 31 49 36 37 48 -138 0
34 31 49 36 37 48 -136 0
34 31 8 36 9 37 -73 0
34 31 8 36 9 37 -76 0
34 31 8 36 9 37 -75 0
34 31 8 36 9 37 -74 0
34 31 36 22 37 19 -95 0
34 31 36 22 37 19 -97 0
34 31 36 22 37 19 -96 0
34 31 36 22 37 19 -98 0
34 31 36 29 37 23 -115 0
34 31 36 29 37 23 -114 0
34 31 36 29 37 23 -113 0
34 31 36 29 37 23 -116 0
34 31 36 3 37 6 -38 0
34 31 36 3 37 6 -33 0
34 31 36 3 37 6 -32 0
34 31 36 3 37 6 -35 0
34 31 36 58 37 61 -140 0
34 31 36 58 37 61 -139 0
34 31 36 58 37 61 -141 0
34 31 36 58 37 61 -142 0
34 31 36 43 37 44 -134 0
34 31 36 43 37 44 -131 0
34 31 36 43 37 44 -133 0
34 31 36 43 37 44 -132 0
34 31 36 54 37 48 -137 0
34 31 36 54 37 48 -135 0
34 31 36 54 37 48 -138 0
34 31 36 54 37 48 -136 0
16 27 15 26 22 29 -93 0
16 27 15 26 22 29 -91 0
16 27 15 26 22 29 -94 0
16 27 15 26 22 29 -92 0
16 27 15 26 22 19 -93 0
16 27 15 26 22 19 -91 0
16 27 15 26 22 19 -94 0
16 27 15 26 22 19 -92 0
16 27 15 26 29 23 -93 0
16 27 15 26 29 23 -91 0
16 27 15 26 29 23 -94 0
16 27 15 26 29 23 -92 0
16 27 15 26 19 23 -93 0
16 27 15 26 19 23 -91 0
16 27 15 26 19 23 -94 0
16 27 15 26 19 23 -92 0
16 27 15 22 29 19 -93 0
16 27 15 22 29 19 -91 0
16 27 15 22 29 19 -94 0
16 27 15 22 29 19 -92 0
16 27 15 22 19 23 -93 0
16 27 15 22 19 23 -91 0
16 27 15 22 19 23 -94 0
16 27 15 22 19 23 -92 0
16 27 26 22 29 23 -93 0
16 27 26 22 29 23 -91 0
16 27 26 22 29 23 -94 0
16 27 26 22 29 23 -92 0
16 27 26 29 19 23 -93 0
16 27 26 29 19 23 -91 0
16 27 26 29 19 23 -94 0
16 27 26 29 19 23 -92 0
16 27 22 29 19 23 -93 0
16 27 22 29 19 23 -91 0
16 27 22 29 19 23 -94 0
16 27 22 29 19 23 -92 0
16 5 15 2 22 3 -18 0
16 5 15 2 22 3 -21 0
16 5 15 2 22 3 -20 0
16 5 15 2 22 3 -17 0
16 5 15 2 22 19 -18 0
16 5 15 2 22 19 -21 0
16 5 15 2 22 19 -20 0
16 5 15 2 22 19 -17 0
16 5 15 2 3 6 -18 0
16 5 15 2 3 6 -21 0
16 5 15 2 3 6 -20 0
16 5 15 2 3 6 -17 0
16 5 15 2 19 6 -18 0
16 5 15 2 19 6 -21 0
16 5 15 2 19 6 -20 0
16 5 15 2 19 6 -17 0
16 5 15 22 3 19 -18 0
16 5 15 22 3 19 -21 0
16 5 15 22 3 19 -20 0
16 5 15 22 3 19 -17 0
16 5 15 22 19 6 -18 0
16 5 15 22 19 6 -21 0
16 5 15 22 19 6 -20 0
16 5 15 22 19 6 -17 0
16 5 2 22 3 6 -18 0
16 5 2 22 3 6 -21 0
16 5 2 22 3 6 -20 0
16 5 2 22 3 6 -17 0
16 5 2 3 19 6 -18 0
16 5 2 3 19 6 -21 0
16 5 2 3 19 6 -20 0
16 5 2 3 19 6 -17 0
16 5 22 3 19 6 -18 0
16 5 22 3 19 6 -21 0
16 5 22 3 19 6 -20 0
16 5 22 3 19 6 -17 0
16 60 15 57 22 58 -110 0
16 60 15 57 22 58 -107 0
16 60 15 57 22 58 -109 0
16 60 15 57 22 58 -108 0
16 60 15 57 22 19 -110 0
16 60 15 57 22 19 -107 0
16 60 15 57 22 19 -109 0
16 60 15 57 22 19 -108 0
16 60 15 57 58 61 -110 0
16 60 15 57 58 61 -107 0
16 60 15 57 58 61 -109 0
16 60 15 57 58 61 -108 0
16 60 15 57 19 61 -110 0
16 60 15 57 19 61 -107 0
16 60 15 57 19 61 -109 0
16 60 15 57 19 61 -108 0
16 60 15 22 58 19 -110 0
16 60 15 22 58 19 -107 0
16 60 15 22 58 19 -109 0
16 60 15 22 58 19 -108 0
16 60 15 22 19 61 -110 0
16 60 15 22 19 61 -107 0
16 60 15 22 19 61 -109 0
16 60 15 22 19 61 -108 0
16 60 57 22 58 61 -110 0
16 60 57 22 58 61 -107 0
16 60 57 22 58 61 -109 0
16 60 57 22 58 61 -108 0
16 60 57 58 19 61 -110 0
16 60 57 58 19 61 -107 0
16 60 57 58 19 61 -109 0
16 60 57 58 19 61 -108 0
16 60 22 58 19 61 -110 0
16 60 22 58 19 61 -107 0
16 60 22 58 19 61 -109 0
16 60 22 58 19 61 -108 0
16 42 15 46 22 43 -101 0
16 42 15 46 22 43 -99 0
16 42 15 46 22 43 -102 0
16 42 15 46 22 43 -100 0
16 42 15 46 22 19 -101 0
16 42 15 46 22 19 -99 0
16 42 15 46 22 19 -102 0
16 42 15 46 22 19 -100 0
16 42 15 46 43 44 -101 0
16 42 15 46 43 44 -99 0
16 42 15 46 43 44 -102 0
16 42 15 46 43 44 -100 0
16 42 15 46 19 44 -101 0
16 42 15 46 19 44 -99 0
16 42 15 46 19 44 -102 0
16 42 15 46 19 44 -100 0
16 42 15 22 43 19 -101 0
16 42 15 22 43 19 -99 0
16 42 15 22 43 19 -102 0
16 42 15 22 43 19 -100 0
16 42 15 22 19 44 -101 0
16 42 15 22 19 44 -99 0
16 42 15 22 19 44 -102 0
16 42 15 22 19 44 -100 0
16 42 46 22 43 44 -101 0
16 42 46 22 43 44 -99 0
16 42 46 22 43 44 -102 0
16 42 46 22 43 44 -100 0
16 42 46 43 19 44 -101 0
16 42 46 43 19 44 -99 0
16 42 46 43 19 44 -102 0
16 42 46 43 19 44 -100 0
16 42 22 43 19 44 -101 0
16 42 22 43 19 44 -99 0
16 42 22 43 19 44 -102 0
16 42 22 43 19 44 -100 0
16 52 15 49 22 54 -103 0
16 52 15 49 22 54 -104 0
16 52 15 49 22 54 -106 0
16 52 15 49 22 54 -105 0
16 52 15 49 22 19 -103 0
16 52 15 49 22 19 -104 0
16 52 15 49 22 19 -106 0
16 52 15 49 22 19 -105 0
16 52 15 49 54 48 -103 0
16 52 15 49 54 48 -104 0
16 52 15 49 54 48 -106 0
16 52 15 49 54 48 -105 0
16 52 15 49 19 48 -103 0
16 52 15 49 19 48 -104 0
16 52 15 49 19 48 -106 0
16 52 15 49 19 48 -105 0
16 52 15 22 54 19 -103 0
16 52 15 22 54 19 -104 0
16 52 15 22 54 19 -106 0
16 52 15 22 54 19 -105 0
16 52 15 22 19 48 -103 0
16 52 15 22 19 48 -104 0
16 52 15 22 19 48 -106 0
16 52 15 22 19 48 -105 0
16 52 49 22 54 48 -103 0
16 52 49 22 54 48 -104 0
16 52 49 22 54 48 -106 0
16 52 49 22 54 48 -105 0
16 52 49 54 19 48 -103 0
16 52 49 54 19 48 -104 0
16 52 49 54 19 48 -106 0
16 52 49 54 19 48 -105 0
16 52 22 54 19 48 -103 0
16 52 22 54 19 48 -104 0
16 52 22 54 19 48 -106 0
16 52 22 54 19 48 -105 0
16 10 15 8 22 19 -65 0
16 10 15 8 22 19 -66 0
16 10 15 8 22 19 -68 0
16 10 15 8 22 19 -67 0
16 10 15 22 9 19 -65 0
16 10 15 22 9 19 -66 0
16 10 15 22 9 19 -68 0
16 10 15 22 9 19 -67 0
16 31 15 36 22 19 -95 0
16 31 15 36 22 19 -97 0
16 31 15 36 22 19 -96 0
16 31 15 36 22 19 -98 0
16 31 15 22 37 19 -95 0
16 31 15 22 37 19 -97 0
16 31 15 22 37 19 -96 0
16 31 15 22 37 19 -98 0
16 15 26 22 29 19 -93 0
16 15 26 22 29 19 -91 0
16 15 26 22 29 19 -94 0
16 15 26 22 29 19 -92 0
16 15 26 22 19 23 -93 0
16 15 26 22 19 23 -91 0
16 15 26 22 19 23 -94 0
16 15 26 22 19 23 -92 0
16 15 2 22 3 19 -18 0
16 15 2 22 3 19 -21 0
16 15 2 22 3 19 -20 0
16 15 2 22 3 19 -17 0
16 15 2 22 19 6 -18 0
16 15 2 22 19 6 -21 0
16 15 2 22 19 6 -20 0
16 15 2 22 19 6 -17 0
16 15 57 22 58 19 -110 0
16 15 57 22 58 19 -107 0
16 15 57 22 58 19 -109 0
16 15 57 22 58 19 -108 0
16 15 57 22 19 61 -110 0
16 15 57 22 19 61 -107 0
16 15 57 22 19 61 -109 0
16 15 57 22 19 61 -108 0
16 15 46 22 43 19 -101 0
16 15 46 22 43 19 -99 0
16 15 46 22 43 19 -102 0
16 15 46 22 43 19 -100 0
16 15 46 22 19 44 -101 0
16 15 46 22 19 44 -99 0
16 15 46 22 19 44 -102 0
16 15 46 22 19 44 -100 0
16 15 49 22 54 19 -103 0
16 15 49 22 54 19 -104 0
16 15 49 22 54 19 -106 0
16 15 49 22 54 19 -105 0
16 15 49 22 19 48 -103 0
16 15 49 22 19 48 -104 0
16 15 49 22 19 48 -106 0
16 15 49 22 19 48 -105 0
16 15 8 22 9 19 -65 0
16 15 8 22 9 19 -66 0
16 15 8 22 9 19 -68 0
16 15 8 22 9 19 -67 0
16 15 36 22 37 19 -95 0
16 15 36 22 37 19 -97 0
16 15 36 22 37 19 -96 0
16 15 36 22 37 19 -98 0
16 15 22 29 19 23 -93 0
16 15 22 29 19 23 -91 0
16 15 22 29 19 23 -94 0
16 15 22 29 19 23 -92 0
16 15 22 3 19 6 -18 0
16 15 22 3 19 6 -21 0
16 15 22 3 19 6 -20 0
16 15 22 3 19 6 -17 0
16 15 22 58 19 61 -110 0
16 15 22 58 19 61 -107 0
16 15 22 58 19 61 -109 0
16 15 22 58 19 61 -108 0
16 15 22 43 19 44 -101 0
16 15 22 43 19 44 -99 0
16 15 22 43 19 44 -102 0
16 15 22 43 19 44 -100 0
16 15 22 54 19 48 -103 0
16 15 22 54 19 48 -104 0
16 15 22 54 19 48 -106 0
16 15 22 54 19 48 -105 0
27 5 26 2 29 3 -28 0
27 5 26 2 29 3 -25 0
27 5 26 2 29 3 -30 0
27 5 26 2 29 3 -24 0
27 5 26 2 29 23 -28 0
27 5 26 2 29 23 -25 0
27 5 26 2 29 23 -30 0
27 5 26 2 29 23 -24 0
27 5 26 2 3 6 -28 0
27 5 26 2 3 6 -25 0
27 5 26 2 3 6 -30 0
27 5 26 2 3 6 -24 0
27 5 26 2 23 6 -28 0
27 5 26 2 23 6 -25 0
27 5 26 2 23 6 -30 0
27 5 26 2 23 6 -24 0
27 5 26 29 3 23 -28 0
27 5 26 29 3 23 -25 0
27 5 26 29 3 23 -30 0
27 5 26 29 3 23 -24 0
27 5 26 29 23 6 -28 0
27 5 26 29 23 6 -25 0
27 5 26 29 23 6 -30 0
27 5 26 29 23 6 -24 0
27 5 2 29 3 6 -28 0
27 5 2 29 3 6 -25 0
27 5 2 29 3 6 -30 0
27 5 2 29 3 6 -24 0
27 5 2 3 23 6 -28 0
27 5 2 3 23 6 -25 0
27 5 2 3 23 6 -30 0
27 5 2 3 23 6 -24 0
27 5 29 3 23 6 -28 0
27 5 29 3 23 6 -25 0
27 5 29 3 23 6 -30 0
27 5 29 3 23 6 -24 0
27 60 26 57 29 58 -125 0
27 60 26 57 29 58 -126 0
27 60 26 57 29 58 -128 0
27 60 26 57 29 58 -127 0
27 60 26 57 29 23 -125 0
27 60 26 57 29 23 -126 0
27 60 26 57 29 23 -128 0
27 60 26 57 29 23 -127 0
27 60 26 57 58 61 -125 0
27 60 26 57 58 61 -126 0
27 60 26 57 58 61 -128 0
27 60 26 57 58 61 -127 0
27 60 26 57 23 61 -125 0
27 60 26 57 23 61 -126 0
27 60 26 57 23 61 -128 0
27 60 26 57 23 61 -127 0
27 60 26 29 58 23 -125 0
27 60 26 29 58 23 -126 0
27 60 26 29 58 23 -128 0
27 60 26 29 58 23 -127 0
27 60 26 29 23 61 -125 0
27 60 26 29 23 61 -126 0
27 60 26 29 23 61 -128 0
27 60 26 29 23 61 -127 0
27 60 57 29 58 61 -125 0
27 60 57 29 58 61 -126 0
27 60 57 29 58 61 -128 0
27 60 57 29 58 61 -127 0
27 60 57 58 23 61 -125 0
27 60 57 58 23 61 -126 0
27 60 57 58 23 61 -128 0
27 60 57 58 23 61 -127 0
27 60 29 58 23 61 -125 0
27 60 29 58 23 61 -126 0
27 60 29 58 23 61 -128 0
27 60 29 58 23 61 -127 0
27 42 26 46 29 43 -117 0
27 42 26 46 29 43 -118 0
27 42 26 46 29 43 -120 0
27 42 26 46 29 43 -119 0
27 42 26 46 29 23 -117 0
27 42 26 46 29 23 -118 0
27 42 26 46 29 23 -120 0
27 42 26 46 29 23 -119 0
27 42 26 46 43 44 -117 0
27 42 26 46 43 44 -118 0
27 42 26 46 43 44 -120 0
27 42 26 46 43 44 -119 0
27 42 26 46 23 44 -117 0
27 42 26 46 23 44 -118 0
27 42 26 46 23 44 -120 0
27 42 26 46 23 44 -119 0
27 42 26 29 43 23 -117 0
27 42 26 29 43 23 -118 0
27 42 26 29 43 23 -120 0
27 42 26 29 43 23 -119 0
27 42 26 29 23 44 -117 0
27 42 26 29 23 44 -118 0
27 42 26 29 23 44 -120 0
27 42 26 29 23 44 -119 0
27 42 46 29 43 44 -117 0
27 42 46 29 43 44 -118 0
27 42 46 29 43 44 -120 0
27 42 46 29 43 44 -119 0
27 42 46 43 23 44 -117 0
27 42 46 43 23 44 -118 0
27 42 46 43 23 44 -120 0
27 42 46 43 23 44 -119 0
27 42 29 43 23 44 -117 0
27 42 29 43 23 44 -118 0
27 42 29 43 23 44 -120 0
27 42 29 43 23 44 -119 0
27 52 26 49 29 54 -121 0
27 52 26 49 29 54 -123 0
27 52 26 49 29 54 -122 0
27 52 26 49 29 54 -124 0
27 52 26 49 29 23 -121 0
27 52 26 49 29 23 -123 0
27 52 26 49 29 23 -122 0
27 52 26 49 29 23 -124 0
27 52 26 49 54 48 -121 0
27 52 26 49 54 48 -123 0
27 52 26 49 54 48 -122 0
27 52 26 49 54 48 -124 0
27 52 26 49 23 48 -121 0
27 52 26 49 23 48 -123 0
27 52 26 49 23 48 -122 0
27 52 26 49 23 48 -124 0
27 52 26 29 54 23 -121 0
27 52 26 29 54 23 -123 0
27 52 26 29 54 23 -122 0
27 52 26 29 54 23 -124 0
27 52 26 29 23 48 -121 0
27 52 26 29 23 48 -123 0
27 52 26 29 23 48 -122 0
27 52 26 29 23 48 -124 0
27 52 49 29 54 48 -121 0
27 52 49 29 54 48 -123 0
27 52 49 29 54 48 -122 0
27 52 49 29 54 48 -124 0
27 52 49 54 23 48 -121 0
27 52 49 54 23 48 -123 0
27 52 49 54 23 48 -122 0
27 52 49 54 23 48 -124 0
27 52 29 54 23 48 -121 0
27 52 29 54 23 48 -123 0
27 52 29 54 23 48 -122 0
27 52 29 54 23 48 -124 0
27 10 26 8 29 23 -69 0
27 10 26 8 29 23 -71 0
27 10 26 8 29 23 -72 0
27 10 26 8 29 23 -70 0
27 10 26 29 9 23 -69 0
27 10 26 29 9 23 -71 0
27 10 26 29 9 23 -72 0
27 10 26 29 9 23 -70 0
27 31 26 36 29 23 -115 0
27 31 26 36 29 23 -114 0
27 31 26 36 29 23 -113 0
27 31 26 36 29 23 -116 0
27 31 26 29 37 23 -115 0
27 31 26 29 37 23 -114 0
27 31 26 29 37 23 -113 0
27 31 26 29 37 23 -116 0
27 15 26 22 29 23 -93 0
27 15 26 22 29 23 -91 0
27 15 26 22 29 23 -94 0
27 15 26 22 29 23 -92 0
27 15 26 29 19 23 -93 0
27 15 26 29 19 23 -91 0
27 15 26 29 19 23 -94 0
27 15 26 29 19 23 -92 0
27 26 2 29 3 23 -28 0
27 26 2 29 3 23 -25 0
27 26 2 29 3 23 -30 0
27 26 2 29 3 23 -24 0
27 26 2 29 23 6 -28 0
27 26 2 29 23 6 -25 0
27 26 2 29 23 6 -30 0
27 26 2 29 23 6 -24 0
27 26 57 29 58 23 -125 0
27 26 57 29 58 23 -126 0
27 26 57 29 58 23 -128 0
27 26 57 29 58 23 -127 0
27 26 57 29 23 61 -125 0
27 26 57 29 23 61 -126 0
27 26 57 29 23 61 -128 0
27 26 57 29 23 61 -127 0
27 26 46 29 43 23 -117 0
27 26 46 29 43 23 -118 0
27 26 46 29 43 23 -120 0
27 26 46 29 43 23 -119 0
27 26 46 29 23 44 -117 0
27 26 46 29 23 44 -118 0
27 26 46 29 23 44 -120 0
27 26 46 29 23 44 -119 0
27 26 49 29 54 23 -121 0
27 26 49 29 54 23 -123 0
27 26 49 29 54 23 -122 0
27 26 49 29 54 23 -124 0
27 26 49 29 23 48 -121 0
27 26 49 29 23 48 -123 0
27 26 49 29 23 48 -122 0
27 26 49 29 23 48 -124 0
27 26 8 29 9 23 -69 0
27 26 8 29 9 23 -71 0
27 26 8 29 9 23 -72 0
27 26 8 29 9 23 -70 0
27 26 36 29 37 23 -115 0
27 26 36 29 37 23 -114 0
27 26 36 29 37 23 -113 0
27 26 36 29 37 23 -116 0
27 26 22 29 19 23 -93 0
27 26 22 29 19 23 -91 0
27 26 22 29 19 23 -94 0
27 26 22 29 19 23 -92 0
27 26 29 3 23 6 -28 0
27 26 29 3 23 6 -25 0
27 26 29 3 23 6 -30 0
27 26 29 3 23 6 -24 0
27 26 29 58 23 61 -125 0
27 26 29 58 23 61 -126 0
27 26 29 58 23 61 -128 0
27 26 29 58 23 61 -127 0
27 26 29 43 23 44 -117 0
27 26 29 43 23 44 -118 0
27 26 29 43 23 44 -120 0
27 26 29 43 23 44 -119 0
27 26 29 54 23 48 -121 0
27 26 29 54 23 48 -123 0
27 26 29 54 23 48 -122 0
27 26 29 54 23 48 -124 0
5 60 2 57 3 58 -56 0
5 60 2 57 3 58 -59 0
5 60 2 57 3 58 -55 0
5 60 2 57 3 58 -62 0
5 60 2 57 3 6 -56 0
5 60 2 57 3 6 -59 0
5 60 2 57 3 6 -55 0
5 60 2 57 3 6 -62 0
5 60 2 57 58 61 -56 0
5 60 2 57 58 61 -59 0
5 60 2 57 58 61 -55 0
5 60 2 57 58 61 -62 0
5 60 2 57 6 61 -56 0
5 60 2 57 6 61 -59 0
5 60 2 57 6 61 -55 0
5 60 2 57 6 61 -62 0
5 60 2 3 58 6 -56 0
5 60 2 3 58 6 -59 0
5 60 2 3 58 6 -55 0
5 60 2 3 58 6 -62 0
5 60 2 3 6 61 -56 0
5 60 2 3 6 61 -59 0
5 60 2 3 6 61 -55 0
5 60 2 3 6 61 -62 0
5 60 57 3 58 61 -56 0
5 60 57 3 58 61 -59 0
5 60 57 3 58 61 -55 0
5 60 57 3 58 61 -62 0
5 60 57 58 6 61 -56 0
5 60 57 58 6 61 -59 0
5 60 57 58 6 61 -55 0
5 60 57 58 6 61 -62 0
5 60 3 58 6 61 -56 0
5 60 3 58 6 61 -59 0
5 60 3 58 6 61 -55 0
5 60 3 58 6 61 -62 0
5 42 2 46 3 43 -40 0
5 42 2 46 3 43 -45 0
5 42 2 46 3 43 -41 0
5 42 2 46 3 43 -39 0
5 42 2 46 3 6 -40 0
5 42 2 46 3 6 -45 0
5 42 2 46 3 6 -41 0
5 42 2 46 3 6 -39 0
5 42 2 46 43 44 -40 0
5 42 2 46 43 44 -45 0
5 42 2 46 43 44 -41 0
5 42 2 46 43 44 -39 0
5 42 2 46 6 44 -40 0
5 42 2 46 6 44 -45 0
5 42 2 46 6 44 -41 0
5 42 2 46 6 44 -39 0
5 42 2 3 43 6 -40 0
5 42 2 3 43 6 -45 0
5 42 2 3 43 6 -41 0
5 42 2 3 43 6 -39 0
5 42 2 3 6 44 -40 0
5 42 2 3 6 44 -45 0
5 42 2 3 6 44 -41 0
5 42 2 3 6 44 -39 0
5 42 46 3 43 44 -40 0
5 42 46 3 43 44 -45 0
5 42 46 3 43 44 -41 0
5 42 46 3 43 44 -39 0
5 42 46 43 6 44 -40 0
5 42 46 43 6 44 -45 0
5 42 46 43 6 44 -41 0
5 42 46 43 6 44 -39 0
5 42 3 43 6 44 -40 0
5 42 3 43 6 44 -45 0
5 42 3 43 6 44 -41 0
5 42 3 43 6 44 -39 0
5 52 2 49 3 54 -53 0
5 52 2 49 3 54 -51 0
5 52 2 49 3 54 -47 0
5 52 2 49 3 54 -50 0
5 52 2 49 3 6 -53 0
5 52 2 49 3 6 -51 0
5 52 2 49 3 6 -47 0
5 52 2 49 3 6 -50 0
5 52 2 49 54 48 -53 0
5 52 2 49 54 48 -51 0
5 52 2 49 54 48 -47 0
5 52 2 49 54 48 -50 0
5 52 2 49 6 48 -53 0
5 52 2 49 6 48 -51 0
5 52 2 49 6 48 -47 0
5 52 2 49 6 48 -50 0
5 52 2 3 54 6 -53 0
5 52 2 3 54 6 -51 0
5 52 2 3 54 6 -47 0
5 52 2 3 54 6 -50 0
5 52 2 3 6 48 -53 0
5 52 2 3 6 48 -51 0
5 52 2 3 6 48 -47 0
5 52 2 3 6 48 -50 0
5 52 49 3 54 48 -53 0
5 52 49 3 54 48 -51 0
5 52 49 3 54 48 -47 0
5 52 49 3 54 48 -50 0
5 52 49 54 6 48 -53 0
5 52 49 54 6 48 -51 0
5 52 49 54 6 48 -47 0
5 52 49 54 6 48 -50 0
5 52 3 54 6 48 -53 0
5 52 3 54 6 48 -51 0
5 52 3 54 6 48 -47 0
5 52 3 54 6 48 -50 0
5 10 2 8 3 6 -11 0
5 10 2 8 3 6 -12 0
5 10 2 8 3 6 -14 0
5 10 2 8 3 6 -13 0
5 10 2 3 9 6 -11 0
5 10 2 3 9 6 -12 0
5 10 2 3 9 6 -14 0
5 10 2 3 9 6 -13 0
5 31 2 36 3 6 -38 0
5 31 2 36 3 6 -33 0
5 31 2 36 3 6 -32 0
5 31 2 36 3 6 -35 0
5 31 2 3 37 6 -38 0
5 31 2 3 37 6 -33 0
5 31 2 3 37 6 -32 0
5 31 2 3 37 6 -35 0
5 15 2 22 3 6 -18 0
5 15 2 22 3 6 -21 0
5 15 2 22 3 6 -20 0
5 15 2 22 3 6 -17 0
5 15 2 3 19 6 -18 0
5 15 2 3 19 6 -21 0
5 15 2 3 19 6 -20 0
5 15 2 3 19 6 -17 0
5 26 2 29 3 6 -28 0
5 26 2 29 3 6 -25 0
5 26 2 29 3 6 -30 0
5 26 2 29 3 6 -24 0
5 26 2 3 23 6 -28 0
5 26 2 3 23 6 -25 0
5 26 2 3 23 6 -30 0
5 26 2 3 23 6 -24 0
5 2 57 3 58 6 -56 0
5 2 57 3 58 6 -59 0
5 2 57 3 58 6 -55 0
5 2 57 3 58 6 -62 0
5 2 57 3 6 61 -56 0
5 2 57 3 6 61 -59 0
5 2 57 3 6 61 -55 0
5 2 57 3 6 61 -62 0
5 2 46 3 43 6 -40 0
5 2 46 3 43 6 -45 0
5 2 46 3 43 6 -41 0
5 2 46 3 43 6 -39 0
5 2 46 3 6 44 -40 0
5 2 46 3 6 44 -45 0
5 2 46 3 6 44 -41 0
5 2 46 3 6 44 -39 0
5 2 49 3 54 6 -53 0
5 2 49 3 54 6 -51 0
5 2 49 3 54 6 -47 0
5 2 49 3 54 6 -50 0
5 2 49 3 6 48 -53 0
5 2 49 3 6 48 -51 0
5 2 49 3 6 48 -47 0
5 2 49 3 6 48 -50 0
5 2 8 3 9 6 -11 0
5 2 8 3 9 6 -12 0
5 2 8 3 9 6 -14 0
5 2 8 3 9 6 -13 0
5 2 36 3 37 6 -38 0
5 2 36 3 37 6 -33 0
5 2 36 3 37 6 -32 0
5 2 36 3 37 6 -35 0
5 2 22 3 19 6 -18 0
5 2 22 3 19 6 -21 0
5 2 22 3 19 6 -20 0
5 2 22 3 19 6 -17 0
5 2 29 3 23 6 -28 0
5 2 29 3 23 6 -25 0
5 2 29 3 23 6 -30 0
5 2 29 3 23 6 -24 0
5 2 3 58 6 61 -56 0
5 2 3 58 6 61 -59 0
5 2 3 58 6 61 -55 0
5 2 3 58 6 61 -62 0
5 2 3 43 6 44 -40 0
5 2 3 43 6 44 -45 0
5 2 3 43 6 44 -41 0
5 2 3 43 6 44 -39 0
5 2 3 54 6 48 -53 0
5 2 3 54 6 48 -51 0
5 2 3 54 6 48 -47 0
5 2 3 54 6 48 -50 0
60 42 57 46 58 43 -150 0
60 42 57 46 58 43 -151 0
60 42 57 46 58 43 -152 0
60 42 57 46 58 43 -149 0
60 42 57 46 58 61 -150 0
60 42 57 46 58 61 -151 0
60 42 57 46 58 61 -152 0
60 42 57 46 58 61 -149 0
60 42 57 46 43 44 -150 0
60 42 57 46 43 44 -151 0
60 42 57 46 43 44 -152 0
60 42 57 46 43 44 -149 0
60 42 57 46 61 44 -150 0
60 42 57 46 61 44 -151 0
60 42 57 46 61 44 -152 0
60 42 57 46 61 44 -149 0
60 42 57 58 43 61 -150 0
60 42 57 58 43 61 -151 0
60 42 57 58 43 61 -152 0
60 42 57 58 43 61 -149 0
60 42 57 58 61 44 -150 0
60 42 57 58 61 44 -151 0
60 42 57 58 61 44 -152 0
60 42 57 58 61 44 -149 0
60 42 46 58 43 44 -150 0
60 42 46 58 43 44 -151 0
60 42 46 58 43 44 -152 0
60 42 46 58 43 44 -149 0
60 42 46 43 61 44 -150 0
60 42 46 43 61 44 -151 0
60 42 46 43 61 44 -152 0
60 42 46 43 61 44 -149 0
60 42 58 43 61 44 -150 0
60 42 58 43 61 44 -151 0
60 42 58 43 61 44 -152 0
60 42 58 43 61 44 -149 0
60 52 57 49 58 54 -156 0
60 52 57 49 58 54 -155 0
60 52 57 49 58 54 -157 0
60 52 57 49 58 54 -158 0
60 52 57 49 58 61 -156 0
60 52 57 49 58 61 -155 0
60 52 57 49 58 61 -157 0
60 52 57 49 58 61 -158 0
60 52 57 49 54 48 -156 0
60 52 57 49 54 48 -155 0
60 52 57 49 54 48 -157 0
60 52 57 49 54 48 -158 0
60 52 57 49 61 48 -156 0
60 52 57 49 61 48 -155 0
60 52 57 49 61 48 -157 0
60 52 57 49 61 48 -158 0
60 52 57 58 54 61 -156 0
60 52 57 58 54 61 -155 0
60 52 57 58 54 61 -157 0
60 52 57 58 54 61 -158 0
60 52 57 58 61 48 -156 0
60 52 57 58 61 48 -155 0
60 52 57 58 61 48 -157 0
60 52 57 58 61 48 -158 0
60 52 49 58 54 48 -156 0
60 52 49 58 54 48 -155 0
60 52 49 58 54 48 -157 0
60 52 49 58 54 48 -158 0
60 52 49 54 61 48 -156 0
60 52 49 54 61 48 -155 0
60 52 49 54 61 48 -157 0
60 52 49 54 61 48 -158 0
60 52 58 54 61 48 -156 0
60 52 58 54 61 48 -155 0
60 52 58 54 61 48 -157 0
60 52 58 54 61 48 -158 0
60 10 57 8 58 61 -85 0
60 10 57 8 58 61 -87 0
60 10 57 8 58 61 -88 0
60 10 57 8 58 61 -86 0
60 10 57 58 9 61 -85 0
60 10 57 58 9 61 -87 0
60 10 57 58 9 61 -88 0
60 10 57 58 9 61 -86 0
60 31 57 36 58 61 -140 0
60 31 57 36 58 61 -139 0
60 31 57 36 58 61 -141 0
60 31 57 36 58 61 -142 0
60 31 57 58 37 61 -140 0
60 31 57 58 37 61 -139 0
60 31 57 58 37 61 -141 0
60 31 57 58 37 61 -142 0
60 15 57 22 58 61 -110 0
60 15 57 22 58 61 -107 0
60 15 57 22 58 61 -109 0
60 15 57 22 58 61 -108 0
60 15 57 58 19 61 -110 0
60 15 57 58 19 61 -107 0
60 15 57 58 19 61 -109 0
60 15 57 58 19 61 -108 0
60 26 57 29 58 61 -125 0
60 26 57 29 58 61 -126 0
60 26 57 29 58 61 -128 0
60 26 57 29 58 61 -127 0
60 26 57 58 23 61 -125 0
60 26 57 58 23 61 -126 0
60 26 57 58 23 61 -128 0
60 26 57 58 23 61 -127 0
60 2 57 3 58 61 -56 0
60 2 57 3 58 61 -59 0
60 2 57 3 58 61 -55 0
60 2 57 3 58 61 -62 0
60 2 57 58 6 61 -56 0
60 2 57 58 6 61 -59 0
60 2 57 58 6 61 -55 0
60 2 57 58 6 61 -62 0
60 57 46 58 43 61 -150 0
60 57 46 58 43 61 -151 0
60 57 46 58 43 61 -152 0
60 57 46 58 43 61 -149 0
60 57 46 58 61 44 -150 0
60 57 46 58 61 44 -151 0
60 57 46 58 61 44 -152 0
60 57 46 58 61 44 -149 0
60 57 49 58 54 61 -156 0
60 57 49 58 54 61 -155 0
60 57 49 58 54 61 -157 0
60 57 49 58 54 61 -158 0
60 57 49 58 61 48 -156 0
60 57 49 58 61 48 -155 0
60 57 49 58 61 48 -157 0
60 57 49 58 61 48 -158 0
60 57 8 58 9 61 -85 0
60 57 8 58 9 61 -87 0
60 57 8 58 9 61 -88 0
60 57 8 58 9 61 -86 0
60 57 36 58 37 61 -140 0
60 57 36 58 37 61 -139 0
60 57 36 58 37 61 -141 0
60 57 36 58 37 61 -142 0
60 57 22 58 19 61 -110 0
60 57 22 58 19 61 -107 0
60 57 22 58 19 61 -109 0
60 57 22 58 19 61 -108 0
60 57 29 58 23 61 -125 0
60 57 29 58 23 61 -126 0
60 57 29 58 23 61 -128 0
60 57 29 58 23 61 -127 0
60 57 3 58 6 61 -56 0
60 57 3 58 6 61 -59 0
60 57 3 58 6 61 -55 0
60 57 3 58 6 61 -62 0
60 57 58 43 61 44 -150 0
60 57 58 43 61 44 -151 0
60 57 58 43 61 44 -152 0
60 57 58 43 61 44 -149 0
60 57 58 54 61 48 -156 0
60 57 58 54 61 48 -155 0
60 57 58 54 61 48 -157 0
60 57 58 54 61 48 -158 0
42 52 46 49 43 54 -146 0
42 52 46 49 43 54 -145 0
42 52 46 49 43 54 -148 0
42 52 46 49 43 54 -147 0
42 52 46 49 43 44 -146 0
42 52 46 49 43 44 -145 0
42 52 46 49 43 44 -148 0
42 52 46 49 43 44 -147 0
42 52 46 49 54 48 -146 0
42 52 46 49 54 48 -145 0
42 52 46 49 54 48 -148 0
42 52 46 49 54 48 -147 0
42 52 46 49 44 48 -146 0
42 52 46 49 44 48 -145 0
42 52 46 49 44 48 -148 0
42 52 46 49 44 48 -147 0
42 52 46 43 54 44 -146 0
42 52 46 43 54 44 -145 0
42 52 46 43 54 44 -148 0
42 52 46 43 54 44 -147 0
42 52 46 43 44 48 -146 0
42 52 46 43 44 48 -145 0
42 52 46 43 44 48 -148 0
42 52 46 43 44 48 -147 0
42 52 49 43 54 48 -146 0
42 52 49 43 54 48 -145 0
42 52 49 43 54 48 -148 0
42 52 49 43 54 48 -147 0
42 52 49 54 44 48 -146 0
42 52 49 54 44 48 -145 0
42 52 49 54 44 48 -148 0
42 52 49 54 44 48 -147 0
42 52 43 54 44 48 -146 0
42 52 43 54 44 48 -145 0
42 52 43 54 44 48 -148 0
42 52 43 54 44 48 -147 0
42 10 46 8 43 44 -79 0
42 10 46 8 43 44 -77 0
42 10 46 8 43 44 -78 0
42 10 46 8 43 44 -80 0
42 10 46 43 9 44 -79 0
42 10 46 43 9 44 -77 0
42 10 46 43 9 44 -78 0
42 10 46 43 9 44 -80 0
42 31 46 36 43 44 -134 0
42 31 46 36 43 44 -131 0
42 31 46 36 43 44 -133 0
42 31 46 36 43 44 -132 0
42 31 46 43 37 44 -134 0
42 31 46 43 37 44 -131 0
42 31 46 43 37 44 -133 0
42 31 46 43 37 44 -132 0
42 15 46 22 43 44 -101 0
42 15 46 22 43 44 -99 0
42 15 46 22 43 44 -102 0
42 15 46 22 43 44 -100 0
42 15 46 43 19 44 -101 0
42 15 46 43 19 44 -99 0
42 15 46 43 19 44 -102 0
42 15 46 43 19 44 -100 0
42 26 46 29 43 44 -117 0
42 26 46 29 43 44 -118 0
42 26 46 29 43 44 -120 0
42 26 46 29 43 44 -119 0
42 26 46 43 23 44 -117 0
42 26 46 43 23 44 -118 0
42 26 46 43 23 44 -120 0
42 26 46 43 23 44 -119 0
42 2 46 3 43 44 -40 0
42 2 46 3 43 44 -45 0
42 2 46 3 43 44 -41 0
42 2 46 3 43 44 -39 0
42 2 46 43 6 44 -40 0
42 2 46 43 6 44 -45 0
42 2 46 43 6 44 -41 0
42 2 46 43 6 44 -39 0
42 57 46 58 43 44 -150 0
42 57 46 58 43 44 -151 0
42 57 46 58 43 44 -152 0
42 57 46 58 43 44 -149 0
42 57 46 43 61 44 -150 0
42 57 46 43 61 44 -151 0
42 57 46 43 61 44 -152 0
42 57 46 43 61 44 -149 0
42 46 49 43 54 44 -146 0
42 46 49 43 54 44 -145 0
42 46 49 43 54 44 -148 0
42 46 49 43 54 44 -147 0
42 46 49 43 44 48 -146 0
42 46 49 43 44 48 -145 0
42 46 49 43 44 48 -148 0
42 46 49 43 44 48 -147 0
42 46 8 43 9 44 -79 0
42 46 8 43 9 44 -77 0
42 46 8 43 9 44 -78 0
42 46 8 43 9 44 -80 0
42 46 36 43 37 44 -134 0
42 46 36 43 37 44 -131 0
42 46 36 43 37 44 -133 0
42 46 36 43 37 44 -132 0
42 46 22 43 19 44 -101 0
42 46 22 43 19 44 -99 0
42 46 22 43 19 44 -102 0
42 46 22 43 19 44 -100 0
42 46 29 43 23 44 -117 0
42 46 29 43 23 44 -118 0
42 46 29 43 23 44 -120 0
42 46 29 43 23 44 -119 0
42 46 3 43 6 44 -40 0
42 46 3 43 6 44 -45 0
42 46 3 43 6 44 -41 0
42 46 3 43 6 44 -39 0
42 46 58 43 61 44 -150 0
42 46 58 43 61 44 -151 0
42 46 58 43 61 44 -152 0
42 46 58 43 61 44 -149 0
42 46 43 54 44 48 -146 0
42 46 43 54 44 48 -145 0
42 46 43 54 44 48 -148 0
42 46 43 54 44 48 -147 0
52 10 49 8 54 48 -84 0
52 10 49 8 54 48 -83 0
52 10 49 8 54 48 -82 0
52 10 49 8 54 48 -81 0
52 10 49 54 9 48 -84 0
52 10 49 54 9 48 -83 0
52 10 49 54 9 48 -82 0
52 10 49 54 9 48 -81 0
52 31 49 36 54 48 -137 0
52 31 49 36 54 48 -135 0
52 31 49 36 54 48 -138 0
52 31 49 36 54 48 -136 0
52 31 49 54 37 48 -137 0
52 31 49 54 37 48 -135 0
52 31 49 54 37 48 -138 0
52 31 49 54 37 48 -136 0
52 15 49 22 54 48 -103 0
52 15 49 22 54 48 -104 0
52 15 49 22 54 48 -106 0
52 15 49 22 54 48 -105 0
52 15 49 54 19 48 -103 0
52 15 49 54 19 48 -104 0
52 15 49 54 19 48 -106 0
52 15 49 54 19 48 -105 0
52 26 49 29 54 48 -121 0
52 26 49 29 54 48 -123 0
52 26 49 29 54 48 -122 0
52 26 49 29 54 48 -124 0
52 26 49 54 23 48 -121 0
52 26 49 54 23 48 -123 0
52 26 49 54 23 48 -122 0
52 26 49 54 23 48 -124 0
52 2 49 3 54 48 -53 0
52 2 49 3 54 48 -51 0
52 2 49 3 54 48 -47 0
52 2 49 3 54 48 -50 0
52 2 49 54 6 48 -53 0
52 2 49 54 6 48 -51 0
52 2 49 54 6 48 -47 0
52 2 49 54 6 48 -50 0
52 57 49 58 54 48 -156 0
52 57 49 58 54 48 -155 0
52 57 49 58 54 48 -157 0
52 57 49 58 54 48 -158 0
52 57 49 54 61 48 -156 0
52 57 49 54 61 48 -155 0
52 57 49 54 61 48 -157 0
52 57 49 54 61 48 -158 0
52 46 49 43 54 48 -146 0
52 46 49 43 54 48 -145 0
52 46 49 43 54 48 -148 0
52 46 49 43 54 48 -147 0
52 46 49 54 44 48 -146 0
52 46 49 54 44 48 -145 0
52 46 49 54 44 48 -148 0
52 46 49 54 44 48 -147 0
52 49 8 54 9 48 -84 0
52 49 8 54 9 48 -83 0
52 49 8 54 9 48 -82 0
52 49 8 54 9 48 -81 0
52 49 36 54 37 48 -137 0
52 49 36 54 37 48 -135 0
52 49 36 54 37 48 -138 0
52 49 36 54 37 48 -136 0
52 49 22 54 19 48 -103 0
52 49 22 54 19 48 -104 0
52 49 22 54 19 48 -106 0
52 49 22 54 19 48 -105 0
52 49 29 54 23 48 -121 0
52 49 29 54 23 48 -123 0
52 49 29 54 23 48 -122 0
52 49 29 54 23 48 -124 0
52 49 3 54 6 48 -53 0
52 49 3 54 6 48 -51 0
52 49 3 54 6 48 -47 0
52 49 3 54 6 48 -50 0
52 49 58 54 61 48 -156 0
52 49 58 54 61 48 -155 0
52 49 58 54 61 48 -157 0
52 49 58 54 61 48 -158 0
52 49 43 54 44 48 -146 0
52 49 43 54 44 48 -145 0
52 49 43 54 44 48 -148 0
52 49 43 54 44 48 -147 0
10 31 8 36 9 37 -73 0
10 31 8 36 9 37 -76 0
10 31 8 36 9 37 -75 0
10 31 8 36 9 37 -74 0
10 15 8 22 9 19 -65 0
10 15 8 22 9 19 -66 0
10 15 8 22 9 19 -68 0
10 15 8 22 9 19 -67 0
10 26 8 29 9 23 -69 0
10 26 8 29 9 23 -71 0
10 26 8 29 9 23 -72 0
10 26 8 29 9 23 -70 0
10 2 8 3 9 6 -11 0
10 2 8 3 9 6 -12 0
10 2 8 3 9 6 -14 0
10 2 8 3 9 6 -13 0
10 57 8 58 9 61 -85 0
10 57 8 58 9 61 -87 0
10 57 8 58 9 61 -88 0
10 57 8 58 9 61 -86 0
10 46 8 43 9 44 -79 0
10 46 8 43 9 44 -77 0
10 46 8 43 9 44 -78 0
10 46 8 43 9 44 -80 0
10 49 8 54 9 48 -84 0
10 49 8 54 9 48 -83 0
10 49 8 54 9 48 -82 0
10 49 8 54 9 48 -81 0
31 15 36 22 37 19 -95 0
31 15 36 22 37 19 -97 0
31 15 36 22 37 19 -96 0
31 15 36 22 37 19 -98 0
31 26 36 29 37 23 -115 0
31 26 36 29 37 23 -114 0
31 26 36 29 37 23 -113 0
31 26 36 29 37 23 -116 0
31 2 36 3 37 6 -38 0
31 2 36 3 37 6 -33 0
31 2 36 3 37 6 -32 0
31 2 36 3 37 6 -35 0
31 57 36 58 37 61 -140 0
31 57 36 58 37 61 -139 0
31 57 36 58 37 61 -141 0
31 57 36 58 37 61 -142 0
31 46 36 43 37 44 -134 0
31 46 36 43 37 44 -131 0
31 46 36 43 37 44 -133 0
31 46 36 43 37 44 -132 0
31 49 36 54 37 48 -137 0
31 49 36 54 37 48 -135 0
31 49 36 54 37 48 -138 0
31 49 36 54 37 48 -136 0
15 26 22 29 19 23 -93 0
15 26 22 29 19 23 -91 0
15 26 22 29 19 23 -94 0
15 26 22 29 19 23 -92 0
15 2 22 3 19 6 -18 0
15 2 22 3 19 6 -21 0
15 2 22 3 19 6 -20 0
15 2 22 3 19 6 -17 0
15 57 22 58 19 61 -110 0
15 57 22 58 19 61 -107 0
15 57 22 58 19 61 -109 0
15 57 22 58 19 61 -108 0
15 46 22 43 19 44 -101 0
15 46 22 43 19 44 -99 0
15 46 22 43 19 44 -102 0
15 46 22 43 19 44 -100 0
15 49 22 54 19 48 -103 0
15 49 22 54 19 48 -104 0
15 49 22 54 19 48 -106 0
15 49 22 54 19 48 -105 0
26 2 29 3 23 6 -28 0
26 2 29 3 23 6 -25 0
26 2 29 3 23 6 -30 0
26 2 29 3 23 6 -24 0
26 57 29 58 23 61 -125 0
26 57 29 58 23 61 -126 0
26 57 29 58 23 61 -128 0
26 57 29 58 23 61 -127 0
26 46 29 43 23 44 -117 0
26 46 29 43 23 44 -118 0
26 46 29 43 23 44 -120 0
26 46 29 43 23 44 -119 0
26 49 29 54 23 48 -121 0
26 49 29 54 23 48 -123 0
26 49 29 54 23 48 -122 0
26 49 29 54 23 48 -124 0
2 57 3 58 6 61 -56 0
2 57 3 58 6 61 -59 0
2 57 3 58 6 61 -55 0
2 57 3 58 6 61 -62 0
2 46 3 43 6 44 -40 0
2 46 3 43 6 44 -45 0
2 46 3 43 6 44 -41 0
2 46 3 43 6 44 -39 0
2 49 3 54 6 48 -53 0
2 49 3 54 6 48 -51 0
2 49 3 54 6 48 -47 0
2 49 3 54 6 48 -50 0
57 46 58 43 61 44 -150 0
57 46 58 43 61 44 -151 0
57 46 58 43 61 44 -152 0
57 46 58 43 61 44 -149 0
57 49 58 54 61 48 -156 0
57 49 58 54 61 48 -155 0
57 49 58 54 61 48 -157 0
57 49 58 54 61 48 -158 0
46 49 43 54 44 48 -146 0
46 49 43 54 44 48 -145 0
46 49 43 54 44 48 -148 0
46 49 43 54 44 48 -147 0
64 73 65 69 11 85 79 84 0
76 130 95 115 38 140 134 137 0
66 97 89 93 18 110 101 103 0
71 114 91 111 28 125 117 121 0
12 33 21 25 4 56 40 53 0
87 139 107 126 59 159 150 156 0
77 131 99 118 45 151 144 146 0
83 135 104 123 51 155 145 154 0
63 75 68 72 14 88 78 82 0
74 129 96 113 32 141 133 138 0
67 98 90 94 20 109 102 106 0
70 116 92 112 30 128 120 122 0
13 35 17 24 1 55 41 47 0
86 142 108 127 62 160 152 157 0
80 132 100 119 39 149 143 148 0
81 136 105 124 50 158 147 153 0
7 34 10 31 8 36 9 -73 0
7 34 10 31 8 36 9 -76 0
7 34 10 31 8 36 9 -75 0
7 34 10 31 8 36 9 -74 0
7 34 10 31 8 36 37 -73 0
7 34 10 31 8 36 37 -76 0
7 34 10 31 8 36 37 -75 0
7 34 10 31 8 36 37 -74 0
7 34 10 31 8 9 37 -73 0
7 34 10 31 8 9 37 -76 0
7 34 10 31 8 9 37 -75 0
7 34 10 31 8 9 37 -74 0
7 34 10 31 36 9 37 -73 0
7 34 10 31 36 9 37 -76 0
7 34 10 31 36 9 37 -75 0
7 34 10 31 36 9 37 -74 0
7 34 10 8 36 9 37 -73 0
7 34 10 8 36 9 37 -76 0
7 34 10 8 36 9 37 -75 0
7 34 10 8 36 9 37 -74 0
7 34 31 8 36 9 37 -73 0
7 34 31 8 36 9 37 -76 0
7 34 31 8 36 9 37 -75 0
7 34 31 8 36 9 37 -74 0
7 16 10 15 8 22 9 -65 0
7 16 10 15 8 22 9 -66 0
7 16 10 15 8 22 9 -68 0
7 16 10 15 8 22 9 -67 0
7 16 10 15 8 22 19 -65 0
7 16 10 15 8 22 19 -66 0
7 16 10 15 8 22 19 -68 0
7 16 10 15 8 22 19 -67 0
7 16 10 15 8 9 19 -65 0
7 16 10 15 8 9 19 -66 0
7 16 10 15 8 9 19 -68 0
7 16 10 15 8 9 19 -67 0
7 16 10 15 22 9 19 -65 0
7 16 10 15 22 9 19 -66 0
7 16 10 15 22 9 19 -68 0
7 16 10 15 22 9 19 -67 0
7 16 10 8 22 9 19 -65 0
7 16 10 8 22 9 19 -66 0
7 16 10 8 22 9 19 -68 0
7 16 10 8 22 9 19 -67 0
7 16 15 8 22 9 19 -65 0
7 16 15 8 22 9 19 -66 0
7 16 15 8 22 9 19 -68 0
7 16 15 8 22 9 19 -67 0
7 27 10 26 8 29 9 -69 0
7 27 10 26 8 29 9 -71 0
7 27 10 26 8 29 9 -72 0
7 27 10 26 8 29 9 -70 0
7 27 10 26 8 29 23 -69 0
7 27 10 26 8 29 23 -71 0
7 27 10 26 8 29 23 -72 0
7 27 10 26 8 29 23 -70 0
7 27 10 26 8 9 23 -69 0
7 27 10 26 8 9 23 -71 0
7 27 10 26 8 9 23 -72 0
7 27 10 26 8 9 23 -70 0
7 27 10 26 29 9 23 -69 0
7 27 10 26 29 9 23 -71 0
7 27 10 26 29 9 23 -72 0
7 27 10 26 29 9 23 -70 0
7 27 10 8 29 9 23 -69 0
7 27 10 8 29 9 23 -71 0
7 27 10 8 29 9 23 -72 0
7 27 10 8 29 9 23 -70 0
7 27 26 8 29 9 23 -69 0
7 27 26 8 29 9 23 -71 0
7 27 26 8 29 9 23 -72 0
7 27 26 8 29 9 23 -70 0
7 5 10 2 8 3 9 -11 0
7 5 10 2 8 3 9 -12 0
7 5 10 2 8 3 9 -14 0
7 5 10 2 8 3 9 -13 0
7 5 10 2 8 3 6 -11 0
7 5 10 2 8 3 6 -12 0
7 5 10 2 8 3 6 -14 0
7 5 10 2 8 3 6 -13 0
7 5 10 2 8 9 6 -11 0
7 5 10 2 8 9 6 -12 0
7 5 10 2 8 9 6 -14 0
7 5 10 2 8 9 6 -13 0
7 5 10 2 3 9 6 -11 0
7 5 10 2 3 9 6 -12 0
7 5 10 2 3 9 6 -14 0
7 5 10 2 3 9 6 -13 0
7 5 10 8 3 9 6 -11 0
7 5 10 8 3 9 6 -12 0
7 5 10 8 3 9 6 -14 0
7 5 10 8 3 9 6 -13 0
7 5 2 8 3 9 6 -11 0
7 5 2 8 3 9 6 -12 0
7 5 2 8 3 9 6 -14 0
7 5 2 8 3 9 6 -13 0
7 60 10 57 8 58 9 -85 0
7 60 10 57 8 58 9 -87 0
7 60 10 57 8 58 9 -88 0
7 60 10 57 8 58 9 -86 0
7 60 10 57 8 58 61 -85 0
7 60 10 57 8 58 61 -87 0
7 60 10 57 8 58 61 -88 0
7 60 10 57 8 58 61 -86 0
7 60 10 57 8 9 61 -85 0
7 60 10 57 8 9 61 -87 0
7 60 10 57 8 9 61 -88 0
7 60 10 57 8 9 61 -86 0
7 60 10 57 58 9 61 -85 0
7 60 10 57 58 9 61 -87 0
7 60 10 57 58 9 61 -88 0
7 60 10 57 58 9 61 -86 0
7 60 10 8 58 9 61 -85 0
7 60 10 8 58 9 61 -87 0
7 60 10 8 58 9 61 -88 0
7 60 10 8 58 9 61 -86 0
7 60 57 8 58 9 61 -85 0
7 60 57 8 58 9 61 -87 0
7 60 57 8 58 9 61 -88 0
7 60 57 8 58 9 61 -86 0
7 42 10 46 8 43 9 -79 0
7 42 10 46 8 43 9 -77 0
7 42 10 46 8 43 9 -78 0
7 42 10 46 8 43 9 -80 0
7 42 10 46 8 43 44 -79 0
7 42 10 46 8 43 44 -77 0
7 42 10 46 8 43 44 -78 0
7 42 10 46 8 43 44 -80 0
7 42 10 46 8 9 44 -79 0
7 42 10 46 8 9 44 -77 0
7 42 10 46 8 9 44 -78 0
7 42 10 46 8 9 44 -80 0
7 42 10 46 43 9 44 -79 0
7 42 10 46 43 9 44 -77 0
7 42 10 46 43 9 44 -78 0
7 42 10 46 43 9 44 -80 0
7 42 10 8 43 9 44 -79 0
7 42 10 8 43 9 44 -77 0
7 42 10 8 43 9 44 -78 0
7 42 10 8 43 9 44 -80 0
7 42 46 8 43 9 44 -79 0
7 42 46 8 43 9 44 -77 0
7 42 46 8 43 9 44 -78 0
7 42 46 8 43 9 44 -80 0
7 52 10 49 8 54 9 -84 0
7 52 10 49 8 54 9 -83 0
7 52 10 49 8 54 9 -82 0
7 52 10 49 8 54 9 -81 0
7 52 10 49 8 54 48 -84 0
7 52 10 49 8 54 48 -83 0
7 52 10 49 8 54 48 -82 0
7 52 10 49 8 54 48 -81 0
7 52 10 49 8 9 48 -84 0
7 52 10 49 8 9 48 -83 0
7 52 10 49 8 9 48 -82 0
7 52 10 49 8 9 48 -81 0
7 52 10 49 54 9 48 -84 0
7 52 10 49 54 9 48 -83 0
7 52 10 49 54 9 48 -82 0
7 52 10 49 54 9 48 -81 0
7 52 10 8 54 9 48 -84 0
7 52 10 8 54 9 48 -83 0
7 52 10 8 54 9 48 -82 0
7 52 10 8 54 9 48 -81 0
7 52 49 8 54 9 48 -84 0
7 52 49 8 54 9 48 -83 0
7 52 49 8 54 9 48 -82 0
7 52 49 8 54 9 48 -81 0
7 10 31 8 36 9 37 -73 0
7 10 31 8 36 9 37 -76 0
7 10 31 8 36 9 37 -75 0
7 10 31 8 36 9 37 -74 0
7 10 15 8 22 9 19 -65 0
7 10 15 8 22 9 19 -66 0
7 10 15 8 22 9 19 -68 0
7 10 15 8 22 9 19 -67 0
7 10 26 8 29 9 23 -69 0
7 10 26 8 29 9 23 -71 0
7 10 26 8 29 9 23 -72 0
7 10 26 8 29 9 23 -70 0
7 10 2 8 3 9 6 -11 0
7 10 2 8 3 9 6 -12 0
7 10 2 8 3 9 6 -14 0
7 10 2 8 3 9 6 -13 0
7 10 57 8 58 9 61 -85 0
7 10 57 8 58 9 61 -87 0
7 10 57 8 58 9 61 -88 0
7 10 57 8 58 9 61 -86 0
7 10 46 8 43 9 44 -79 0
7 10 46 8 43 9 44 -77 0
7 10 46 8 43 9 44 -78 0
7 10 46 8 43 9 44 -80 0
7 10 49 8 54 9 48 -84 0
7 10 49 8 54 9 48 -83 0
7 10 49 8 54 9 48 -82 0
7 10 49 8 54 9 48 -81 0
34 16 31 15 36 22 37 -95 0
34 16 31 15 36 22 37 -97 0
34 16 31 15 36 22 37 -96 0
34 16 31 15 36 22 37 -98 0
34 16 31 15 36 22 19 -95 0
34 16 31 15 36 22 19 -97 0
34 16 31 15 36 22 19 -96 0
34 16 31 15 36 22 19 -98 0
34 16 31 15 36 37 19 -95 0
34 16 31 15 36 37 19 -97 0
34 16 31 15 36 37 19 -96 0
34 16 31 15 36 37 19 -98 0
34 16 31 15 22 37 19 -95 0
34 16 31 15 22 37 19 -97 0
34 16 31 15 22 37 19 -96 0
34 16 31 15 22 37 19 -98 0
34 16 31 36 22 37 19 -95 0
34 16 31 36 22 37 19 -97 0
34 16 31 36 22 37 19 -96 0
34 16 31 36 22 37 19 -98 0
34 16 15 36 22 37 19 -95 0
34 16 15 36 22 37 19 -97 0
34 16 15 36 22 37 19 -96 0
34 16 15 36 22 37 19 -98 0
34 27 31 26 36 29 37 -115 0
34 27 31 26 36 29 37 -114 0
34 27 31 26 36 29 37 -113 0
34 27 31 26 36 29 37 -116 0
34 27 31 26 36 29 23 -115 0
34 27 31 26 36 29 23 -114 0
34 27 31 26 36 29 23 -113 0
34 27 31 26 36 29 23 -116 0
34 27 31 26 36 37 23 -115 0
34 27 31 26 36 37 23 -114 0
34 27 31 26 36 37 23 -113 0
34 27 31 26 36 37 23 -116 0
34 27 31 26 29 37 23 -115 0
34 27 31 26 29 37 23 -114 0
34 27 31 26 29 37 23 -113 0
34 27 31 26 29 37 23 -116 0
34 27 31 36 29 37 23 -115 0
34 27 31 36 29 37 23 -114 0
34 27 31 36 29 37 23 -113 0
34 27 31 36 29 37 23 -116 0
34 27 26 36 29 37 23 -115 0
34 27 26 36 29 37 23 -114 0
34 27 26 36 29 37 23 -113 0
34 27 26 36 29 37 23 -116 0
34 5 31 2 36 3 37 -38 0
34 5 31 2 36 3 37 -33 0
34 5 31 2 36 3 37 -32 0
34 5 31 2 36 3 37 -35 0
34 5 31 2 36 3 6 -38 0
34 5 31 2 36 3 6 -33 0
34 5 31 2 36 3 6 -32 0
34 5 31 2 36 3 6 -35 0
34 5 31 2 36 37 6 -38 0
34 5 31 2 36 37 6 -33 0
34 5 31 2 36 37 6 -32 0
34 5 31 2 36 37 6 -35 0
34 5 31 2 3 37 6 -38 0
34 5 31 2 3 37 6 -33 0
34 5 31 2 3 37 6 -32 0
34 5 31 2 3 37 6 -35 0
34 5 31 36 3 37 6 -38 0
34 5 31 36 3 37 6 -33 0
34 5 31 36 3 37 6 -32 0
34 5 31 36 3 37 6 -35 0
34 5 2 36 3 37 6 -38 0
34 5 2 36 3 37 6 -33 0
34 5 2 36 3 37 6 -32 0
34 5 2 36 3 37 6 -35 0
34 60 31 57 36 58 37 -140 0
34 60 31 57 36 58 37 -139 0
34 60 31 57 36 58 37 -141 0
34 60 31 57 36 58 37 -142 0
34 60 31 57 36 58 61 -140 0
34 60 31 57 36 58 61 -139 0
34 60 31 57 36 58 61 -141 0
34 60 31 57 36 58 61 -142 0
34 60 31 57 36 37 61 -140 0
34 60 31 57 36 37 61 -139 0
34 60 31 57 36 37 61 -141 0
34 60 31 57 36 37 61 -142 0
34 60 31 57 58 37 61 -140 0
34 60 31 57 58 37 61 -139 0
34 60 31 57 58 37 61 -141 0
34 60 31 57 58 37 61 -142 0
34 60 31 36 58 37 61 -140 0
34 60 31 36 58 37 61 -139 0
34 60 31 36 58 37 61 -141 0
34 60 31 36 58 37 61 -142 0
34 60 57 36 58 37 61 -140 0
34 60 57 36 58 37 61 -139 0
34 60 57 36 58 37 61 -141 0
34 60 57 36 58 37 61 -142 0
34 42 31 46 36 43 37 -134 0
34 42 31 46 36 43 37 -131 0
34 42 31 46 36 43 37 -133 0
34 42 31 46 36 43 37 -132 0
34 42 31 46 36 43 44 -134 0
34 42 31 46 36 43 44 -131 0
34 42 31 46 36 43 44 -133 0
34 42 31 46 36 43 44 -132 0
34 42 31 46 36 37 44 -134 0
34 42 31 46 36 37 44 -131 0
34 42 31 46 36 37 44 -133 0
34 42 31 46 36 37 44 -132 0
34 42 31 46 43 37 44 -134 0
34 42 31 46 43 37 44 -131 0
34 42 31 46 43 37 44 -133 0
34 42 31 46 43 37 44 -132 0
34 42 31 36 43 37 44 -134 0
34 42 31 36 43 37 44 -131 0
34 42 31 36 43 37 44 -133 0
34 42 31 36 43 37 44 -132 0
34 42 46 36 43 37 44 -134 0
34 42 46 36 43 37 44 -131 0
34 42 46 36 43 37 44 -133 0
34 42 46 36 43 37 44 -132 0
34 52 31 49 36 54 37 -137 0
34 52 31 49 36 54 37 -135 0
34 52 31 49 36 54 37 -138 0
34 52 31 49 36 54 37 -136 0
34 52 31 49 36 54 48 -137 0
34 52 31 49 36 54 48 -135 0
34 52 31 49 36 54 48 -138 0
34 52 31 49 36 54 48 -136 0
34 52 31 49 36 37 48 -137 0
34 52 31 49 36 37 48 -135 0
34 52 31 49 36 37 48 -138 0
34 52 31 49 36 37 48 -136 0
34 52 31 49 54 37 48 -137 0
34 52 31 49 54 37 48 -135 0
34 52 31 49 54 37 48 -138 0
34 52 31 49 54 37 48 -136 0
34 52 31 36 54 37 48 -137 0
34 52 31 36 54 37 48 -135 0
34 52 31 36 54 37 48 -138 0
34 52 31 36 54 37 48 -136 0
34 52 49 36 54 37 48 -137 0
34 52 49 36 54 37 48 -135 0
34 52 49 36 54 37 48 -138 0
34 52 49 36 54 37 48 -136 0
34 10 31 8 36 9 37 -73 0
34 10 31 8 36 9 37 -76 0
34 10 31 8 36 9 37 -75 0
34 10 31 8 36 9 37 -74 0
34 31 15 36 22 37 19 -95 0
34 31 15 36 22 37 19 -97 0
34 31 15 36 22 37 19 -96 0
34 31 15 36 22 37 19 -98 0
34 31 26 36 29 37 23 -115 0
34 31 26 36 29 37 23 -114 0
34 31 26 36 29 37 23 -113 0
34 31 26 36 29 37 23 -116 0
34 31 2 36 3 37 6 -38 0
34 31 2 36 3 37 6 -33 0
34 31 2 36 3 37 6 -32 0
34 31 2 36 3 37 6 -35 0
34 31 57 36 58 37 61 -140 0
34 31 57 36 58 37 61 -139 0
34 31 57 36 58 37 61 -141 0
34 31 57 36 58 37 61 -142 0
34 31 46 36 43 37 44 -134 0
34 31 46 36 43 37 44 -131 0
34 31 46 36 43 37 44 -133 0
34 31 46 36 43 37 44 -132 0
34 31 49 36 54 37 48 -137 0
34 31 49 36 54 37 48 -135 0
34 31 49 36 54 37 48 -138 0
34 31 49 36 54 37 48 -136 0
16 27 15 26 22 29 19 -93 0
16 27 15 26 22 29 19 -91 0
16 27 15 26 22 29 19 -94 0
16 27 15 26 22 29 19 -92 0
16 27 15 26 22 29 23 -93 0
16 27 15 26 22 29 23 -91 0
16 27 15 26 22 29 23 -94 0
16 27 15 26 22 29 23 -92 0
16 27 15 26 22 19 23 -93 0
16 27 15 26 22 19 23 -91 0
16 27 15 26 22 19 23 -94 0
16 27 15 26 22 19 23 -92 0
16 27 15 26 29 19 23 -93 0
16 27 15 26 29 19 23 -91 0
16 27 15 26 29 19 23 -94 0
16 27 15 26 29 19 23 -92 0
16 27 15 22 29 19 23 -93 0
16 27 15 22 29 19 23 -91 0
16 27 15 22 29 19 23 -94 0
16 27 15 22 29 19 23 -92 0
16 27 26 22 29 19 23 -93 0
16 27 26 22 29 19 23 -91 0
16 27 26 22 29 19 23 -94 0
16 27 26 22 29 19 23 -92 0
16 5 15 2 22 3 19 -18 0
16 5 15 2 22 3 19 -21 0
16 5 15 2 22 3 19 -20 0
16 5 15 2 22 3 19 -17 0
16 5 15 2 22 3 6 -18 0
16 5 15 2 22 3 6 -21 0
16 5 15 2 22 3 6 -20 0
16 5 15 2 22 3 6 -17 0
16 5 15 2 22 19 6 -18 0
16 5 15 2 22 19 6 -21 0
16 5 15 2 22 19 6 -20 0
16 5 15 2 22 19 6 -17 0
16 5 15 2 3 19 6 -18 0
16 5 15 2 3 19 6 -21 0
16 5 15 2 3 19 6 -20 0
16 5 15 2 3 19 6 -17 0
16 5 15 22 3 19 6 -18 0
16 5 15 22 3 19 6 -21 0
16 5 15 22 3 19 6 -20 0
16 5 15 22 3 19 6 -17 0
16 5 2 22 3 19 6 -18 0
16 5 2 22 3 19 6 -21 0
16 5 2 22 3 19 6 -20 0
16 5 2 22 3 19 6 -17 0
16 60 15 57 22 58 19 -110 0
16 60 15 57 22 58 19 -107 0
16 60 15 57 22 58 19 -109 0
16 60 15 57 22 58 19 -108 0
16 60 15 57 22 58 61 -110 0
16 60 15 57 22 58 61 -107 0
16 60 15 57 22 58 61 -109 0
16 60 15 57 22 58 61 -108 0
16 60 15 57 22 19 61 -110 0
16 60 15 57 22 19 61 -107 0
16 60 15 57 22 19 61 -109 0
16 60 15 57 22 19 61 -108 0
16 60 15 57 58 19 61 -110 0
16 60 15 57 58 19 61 -107 0
16 60 15 57 58 19 61 -109 0
16 60 15 57 58 19 61 -108 0
16 60 15 22 58 19 61 -110 0
16 60 15 22 58 19 61 -107 0
16 60 15 22 58 19 61 -109 0
16 60 15 22 58 19 61 -108 0
16 60 57 22 58 19 61 -110 0
16 60 57 22 58 19 61 -107 0
16 60 57 22 58 19 61 -109 0
16 60 57 22 58 19 61 -108 0
16 42 15 46 22 43 19 -101 0
16 42 15 46 22 43 19 -99 0
16 42 15 46 22 43 19 -102 0
16 42 15 46 22 43 19 -100 0
16 42 15 46 22 43 44 -101 0
16 42 15 46 22 43 44 -99 0
16 42 15 46 22 43 44 -102 0
16 42 15 46 22 43 44 -100 0
16 42 15 46 22 19 44 -101 0
16 42 15 46 22 19 44 -99 0
16 42 15 46 22 19 44 -102 0
16 42 15 46 22 19 44 -100 0
16 42 15 46 43 19 44 -101 0
16 42 15 46 43 19 44 -99 0
16 42 15 46 43 19 44 -102 0
16 42 15 46 43 19 44 -100 0
16 42 15 22 43 19 44 -101 0
16 42 15 22 43 19 44 -99 0
16 42 15 22 43 19 44 -102 0
16 42 15 22 43 19 44 -100 0
16 42 46 22 43 19 44 -101 0
16 42 46 22 43 19 44 -99 0
16 42 46 22 43 19 44 -102 0
16 42 46 22 43 19 44 -100 0
16 52 15 49 22 54 19 -103 0
16 52 15 49 22 54 19 -104 0
16 52 15 49 22 54 19 -106 0
16 52 15 49 22 54 19 -105 0
16 52 15 49 22 54 48 -103 0
16 52 15 49 22 54 48 -104 0
16 52 15 49 22 54 48 -106 0
16 52 15 49 22 54 48 -105 0
16 52 15 49 22 19 48 -103 0
16 52 15 49 22 19 48 -104 0
16 52 15 49 22 19 48 -106 0
16 52 15 49 22 19 48 -105 0
16 52 15 49 54 19 48 -103 0
16 52 15 49 54 19 48 -104 0
16 52 15 49 54 19 48 -106 0
16 52 15 49 54 19 48 -105 0
16 52 15 22 54 19 48 -103 0
16 52 15 22 54 19 48 -104 0
16 52 15 22 54 19 48 -106 0
16 52 15 22 54 19 48 -105 0
16 52 49 22 54 19 48 -103 0
16 52 49 22 54 19 48 -104 0
16 52 49 22 54 19 48 -106 0
16 52 49 22 54 19 48 -105 0
16 10 15 8 22 9 19 -65 0
16 10 15 8 22 9 19 -66 0
16 10 15 8 22 9 19 -68 0
16 10 15 8 22 9 19 -67 0
16 31 15 36 22 37 19 -95 0
16 31 15 36 22 37 19 -97 0
16 31 15 36 22 37 19 -96 0
16 31 15 36 22 37 19 -98 0
16 15 26 22 29 19 23 -93 0
16 15 26 22 29 19 23 -91 0
16 15 26 22 29 19 23 -94 0
16 15 26 22 29 19 23 -92 0
16 15 2 22 3 19 6 -18 0
16 15 2 22 3 19 6 -21 0
16 15 2 22 3 19 6 -20 0
16 15 2 22 3 19 6 -17 0
16 15 57 22 58 19 61 -110 0
16 15 57 22 58 19 61 -107 0
16 15 57 22 58 19 61 -109 0
16 15 57 22 58 19 61 -108 0
16 15 46 22 43 19 44 -101 0
16 15 46 22 43 19 44 -99 0
16 15 46 22 43 19 44 -102 0
16 15 46 22 43 19 44 -100 0
16 15 49 22 54 19 48 -103 0
16 15 49 22 54 19 48 -104 0
16 15 49 22 54 19 48 -106 0
16 15 49 22 54 19 48 -105 0
27 5 26 2 29 3 23 -28 0
27 5 26 2 29 3 23 -25 0
27 5 26 2 29 3 23 -30 0
27 5 26 2 29 3 23 -24 0
27 5 26 2 29 3 6 -28 0
27 5 26 2 29 3 6 -25 0
27 5 26 2 29 3 6 -30 0
27 5 26 2 29 3 6 -24 0
27 5 26 2 29 23 6 -28 0
27 5 26 2 29 23 6 -25 0
27 5 26 2 29 23 6 -30 0
27 5 26 2 29 23 6 -24 0
27 5 26 2 3 23 6 -28 0
27 5 26 2 3 23 6 -25 0
27 5 26 2 3 23 6 -30 0
27 5 26 2 3 23 6 -24 0
27 5 26 29 3 23 6 -28 0
27 5 26 29 3 23 6 -25 0
27 5 26 29 3 23 6 -30 0
27 5 26 29 3 23 6 -24 0
27 5 2 29 3 23 6 -28 0
27 5 2 29 3 23 6 -25 0
27 5 2 29 3 23 6 -30 0
27 5 2 29 3 23 6 -24 0
27 60 26 57 29 58 23 -125 0
27 60 26 57 29 58 23 -126 0
27 60 26 57 29 58 23 -128 0
27 60 26 57 29 58 23 -127 0
27 60 26 57 29 58 61 -125 0
27 60 26 57 29 58 61 -126 0
27 60 26 57 29 58 61 -128 0
27 60 26 57 29 58 61 -127 0
27 60 26 57 29 23 61 -125 0
27 60 26 57 29 23 61 -126 0
27 60 26 57 29 23 61 -128 0
27 60 26 57 29 23 61 -127 0
27 60 26 57 58 23 61 -125 0
27 60 26 57 58 23 61 -126 0
27 60 26 57 58 23 61 -128 0
27 60 26 57 58 23 61 -127 0
27 60 26 29 58 23 61 -125 0
27 60 26 29 58 23 61 -126 0
27 60 26 29 58 23 61 -128 0
27 60 26 29 58 23 61 -127 0
27 60 57 29 58 23 61 -125 0
27 60 57 29 58 23 61 -126 0
27 60 57 29 58 23 61 -128 0
27 60 57 29 58 23 61 -127 0
27 42 26 46 29 43 23 -117 0
27 42 26 46 29 43 23 -118 0
27 42 26 46 29 43 23 -120 0
27 42 26 46 29 43 23 -119 0
27 42 26 46 29 43 44 -117 0
27 42 26 46 29 43 44 -118 0
27 42 26 46 29 43 44 -120 0
27 42 26 46 29 43 44 -119 0
27 42 26 46 29 23 44 -117 0
27 42 26 46 29 23 44 -118 0
27 42 26 46 29 23 44 -120 0
27 42 26 46 29 23 44 -119 0
27 42 26 46 43 23 44 -117 0
27 42 26 46 43 23 44 -118 0
27 42 26 46 43 23 44 -120 0
27 42 26 46 43 23 44 -119 0
27 42 26 29 43 23 44 -117 0
27 42 26 29 43 23 44 -118 0
27 42 26 29 43 23 44 -120 0
27 42 26 29 43 23 44 -119 0
27 42 46 29 43 23 44 -117 0
27 42 46 29 43 23 44 -118 0
27 42 46 29 43 23 44 -120 0
27 42 46 29 43 23 44 -119 0
27 52 26 49 29 54 23 -121 0
27 52 26 49 29 54 23 -123 0
27 52 26 49 29 54 23 -122 0
27 52 26 49 29 54 23 -124 0
27 52 26 49 29 54 48 -121 0
27 52 26 49 29 54 48 -123 0
27 52 26 49 29 54 48 -122 0
27 52 26 49 29 54 48 -124 0
27 52 26 49 29 23 48 -121 0
27 52 26 49 29 23 48 -123 0
27 52 26 49 29 23 48 -122 0
27 52 26 49 29 23 48 -124 0
27 52 26 49 54 23 48 -121 0
27 52 26 49 54 23 48 -123 0
27 52 26 49 54 23 48 -122 0
27 52 26 49 54 23 48 -124 0
27 52 26 29 54 23 48 -121 0
27 52 26 29 54 23 48 -123 0
27 52 26 29 54 23 48 -122 0
27 52 26 29 54 23 48 -124 0
27 52 49 29 54 23 48 -121 0
27 52 49 29 54 23 48 -123 0
27 52 49 29 54 23 48 -122 0
27 52 49 29 54 23 48 -124 0
27 10 26 8 29 9 23 -69 0
27 10 26 8 29 9 23 -71 0
27 10 26 8 29 9 23 -72 0
27 10 26 8 29 9 23 -70 0
27 31 26 36 29 37 23 -115 0
27 31 26 36 29 37 23 -114 0
27 31 26 36 29 37 23 -113 0
27 31 26 36 29 37 23 -116 0
27 15 26 22 29 19 23 -93 0
27 15 26 22 29 19 23 -91 0
27 15 26 22 29 19 23 -94 0
27 15 26 22 29 19 23 -92 0
27 26 2 29 3 23 6 -28 0
27 26 2 29 3 23 6 -25 0
27 26 2 29 3 23 6 -30 0
27 26 2 29 3 23 6 -24 0
27 26 57 29 58 23 61 -125 0
27 26 57 29 58 23 61 -126 0
27 26 57 29 58 23 61 -128 0
27 26 57 29 58 23 61 -127 0
27 26 46 29 43 23 44 -117 0
27 26 46 29 43 23 44 -118 0
27 26 46 29 43 23 44 -120 0
27 26 46 29 43 23 44 -119 0
27 26 49 29 54 23 48 -121 0
27 26 49 29 54 23 48 -123 0
27 26 49 29 54 23 48 -122 0
27 26 49 29 54 23 48 -124 0
5 60 2 57 3 58 6 -56 0
5 60 2 57 3 58 6 -59 0
5 60 2 57 3 58 6 -55 0
5 60 2 57 3 58 6 -62 0
5 60 2 57 3 58 61 -56 0
5 60 2 57 3 58 61 -59 0
5 60 2 57 3 58 61 -55 0
5 60 2 57 3 58 61 -62 0
5 60 2 57 3 6 61 -56 0
5 60 2 57 3 6 61 -59 0
5 60 2 57 3 6 61 -55 0
5 60 2 57 3 6 61 -62 0
5 60 2 57 58 6 61 -56 0
5 60 2 57 58 6 61 -59 0
5 60 2 57 58 6 61 -55 0
5 60 2 57 58 6 61 -62 0
5 60 2 3 58 6 61 -56 0
5 60 2 3 58 6 61 -59 0
5 60 2 3 58 6 61 -55 0
5 60 2 3 58 6 61 -62 0
5 60 57 3 58 6 61 -56 0
5 60 57 3 58 6 61 -59 0
5 60 57 3 58 6 61 -55 0
5 60 57 3 58 6 61 -62 0
5 42 2 46 3 43 6 -40 0
5 42 2 46 3 43 6 -45 0
5 42 2 46 3 43 6 -41 0
5 42 2 46 3 43 6 -39 0
5 42 2 46 3 43 44 -40 0
5 42 2 46 3 43 44 -45 0
5 42 2 46 3 43 44 -41 0
5 42 2 46 3 43 44 -39 0
5 42 2 46 3 6 44 -40 0
5 42 2 46 3 6 44 -45 0
5 42 2 46 3 6 44 -41 0
5 42 2 46 3 6 44 -39 0
5 42 2 46 43 6 44 -40 0
5 42 2 46 43 6 44 -45 0
5 42 2 46 43 6 44 -41 0
5 42 2 46 43 6 44 -39 0
5 42 2 3 43 6 44 -40 0
5 42 2 3 43 6 44 -45 0
5 42 2 3 43 6 44 -41 0
5 42 2 3 43 6 44 -39 0
5 42 46 3 43 6 44 -40 0
5 42 46 3 43 6 44 -45 0
5 42 46 3 43 6 44 -41 0
5 42 46 3 43 6 44 -39 0
5 52 2 49 3 54 6 -53 0
5 52 2 49 3 54 6 -51 0
5 52 2 49 3 54 6 -47 0
5 52 2 49 3 54 6 -50 0
5 52 2 49 3 54 48 -53 0
5 52 2 49 3 54 48 -51 0
5 52 2 49 3 54 48 -47 0
5 52 2 49 3 54 48 -50 0
5 52 2 49 3 6 48 -53 0
5 52 2 49 3 6 48 -51 0
5 52 2 49 3 6 48 -47 0
5 52 2 49 3 6 48 -50 0
5 52 2 49 54 6 48 -53 0
5 52 2 49 54 6 48 -51 0
5 52 2 49 54 6 48 -47 0
5 52 2 49 54 6 48 -50 0
5 52 2 3 54 6 48 -53 0
5 52 2 3 54 6 48 -51 0
5 52 2 3 54 6 48 -47 0
5 52 2 3 54 6 48 -50 0
5 52 49 3 54 6 48 -53 0
5 52 49 3 54 6 48 -51 0
5 52 49 3 54 6 48 -47 0
5 52 49 3 54 6 48 -50 0
5 10 2 8 3 9 6 -11 0
5 10 2 8 3 9 6 -12 0
5 10 2 8 3 9 6 -14 0
5 10 2 8 3 9 6 -13 0
5 31 2 36 3 37 6 -38 0
5 31 2 36 3 37 6 -33 0
5 31 2 36 3 37 6 -32 0
5 31 2 36 3 37 6 -35 0
5 15 2 22 3 19 6 -18 0
5 15 2 22 3 19 6 -21 0
5 15 2 22 3 19 6 -20 0
5 15 2 22 3 19 6 -17 0
5 26 2 29 3 23 6 -28 0
5 26 2 29 3 23 6 -25 0
5 26 2 29 3 23 6 -30 0
5 26 2 29 3 23 6 -24 0
5 2 57 3 58 6 61 -56 0
5 2 57 3 58 6 61 -59 0
5 2 57 3 58 6 61 -55 0
5 2 57 3 58 6 61 -62 0
5 2 46 3 43 6 44 -40 0
5 2 46 3 43 6 44 -45 0
5 2 46 3 43 6 44 -41 0
5 2 46 3 43 6 44 -39 0
5 2 49 3 54 6 48 -53 0
5 2 49 3 54 6 48 -51 0
5 2 49 3 54 6 48 -47 0
5 2 49 3 54 6 48 -50 0
60 42 57 46 58 43 61 -150 0
60 42 57 46 58 43 61 -151 0
60 42 57 46 58 43 61 -152 0
60 42 57 46 58 43 61 -149 0
60 42 57 46 58 43 44 -150 0
60 42 57 46 58 43 44 -151 0
60 42 57 46 58 43 44 -152 0
60 42 57 46 58 43 44 -149 0
60 42 57 46 58 61 44 -150 0
60 42 57 46 58 61 44 -151 0
60 42 57 46 58 61 44 -152 0
60 42 57 46 58 61 44 -149 0
60 42 57 46 43 61 44 -150 0
60 42 57 46 43 61 44 -151 0
60 42 57 46 43 61 44 -152 0
60 42 57 46 43 61 44 -149 0
60 42 57 58 43 61 44 -150 0
60 42 57 58 43 61 44 -151 0
60 42 57 58 43 61 44 -152 0
60 42 57 58 43 61 44 -149 0
60 42 46 58 43 61 44 -150 0
60 42 46 58 43 61 44 -151 0
60 42 46 58 43 61 44 -152 0
60 42 46 58 43 61 44 -149 0
60 52 57 49 58 54 61 -156 0
60 52 57 49 58 54 61 -155 0
60 52 57 49 58 54 61 -157 0
60 52 57 49 58 54 61 -158 0
60 52 57 49 58 54 48 -156 0
60 52 57 49 58 54 48 -155 0
60 52 57 49 58 54 48 -157 0
60 52 57 49 58 54 48 -158 0
60 52 57 49 58 61 48 -156 0
60 52 57 49 58 61 48 -155 0
60 52 57 49 58 61 48 -157 0
60 52 57 49 58 61 48 -158 0
60 52 57 49 54 61 48 -156 0
60 52 57 49 54 61 48 -155 0
60 52 57 49 54 61 48 -157 0
60 52 57 49 54 61 48 -158 0
60 52 57 58 54 61 48 -156 0
60 52 57 58 54 61 48 -155 0
60 52 57 58 54 61 48 -157 0
60 52 57 58 54 61 48 -158 0
60 52 49 58 54 61 48 -156 0
60 52 49 58 54 61 48 -155 0
60 52 49 58 54 61 48 -157 0
60 52 49 58 54 61 48 -158 0
60 10 57 8 58 9 61 -85 0
60 10 57 8 58 9 61 -87 0
60 10 57 8 58 9 61 -88 0
60 10 57 8 58 9 61 -86 0
60 31 57 36 58 37 61 -140 0
60 31 57 36 58 37 61 -139 0
60 31 57 36 58 37 61 -141 0
60 31 57 36 58 37 61 -142 0
60 15 57 22 58 19 61 -110 0
60 15 57 22 58 19 61 -107 0
60 15 57 22 58 19 61 -109 0
60 15 57 22 58 19 61 -108 0
60 26 57 29 58 23 61 -125 0
60 26 57 29 58 23 61 -126 0
60 26 57 29 58 23 61 -128 0
60 26 57 29 58 23 61 -127 0
60 2 57 3 58 6 61 -56 0
60 2 57 3 58 6 61 -59 0
60 2 57 3 58 6 61 -55 0
60 2 57 3 58 6 61 -62 0
60 57 46 58 43 61 44 -150 0
60 57 46 58 43 61 44 -151 0
60 57 46 58 43 61 44 -152 0
60 57 46 58 43 61 44 -149 0
60 57 49 58 54 61 48 -156 0
60 57 49 58 54 61 48 -155 0
60 57 49 58 54 61 48 -157 0
60 57 49 58 54 61 48 -158 0
42 52 46 49 43 54 44 -146 0
42 52 46 49 43 54 44 -145 0
42 52 46 49 43 54 44 -148 0
42 52 46 49 43 54 44 -147 0
42 52 46 49 43 54 48 -146 0
42 52 46 49 43 54 48 -145 0
42 52 46 49 43 54 48 -148 0
42 52 46 49 43 54 48 -147 0
42 52 46 49 43 44 48 -146 0
42 52 46 49 43 44 48 -145 0
42 52 46 49 43 44 48 -148 0
42 52 46 49 43 44 48 -147 0
42 52 46 49 54 44 48 -146 0
42 52 46 49 54 44 48 -145 0
42 52 46 49 54 44 48 -148 0
42 52 46 49 54 44 48 -147 0
42 52 46 43 54 44 48 -146 0
42 52 46 43 54 44 48 -145 0
42 52 46 43 54 44 48 -148 0
42 52 46 43 54 44 48 -147 0
42 52 49 43 54 44 48 -146 0
42 52 49 43 54 44 48 -145 0
42 52 49 43 54 44 48 -148 0
42 52 49 43 54 44 48 -147 0
42 10 46 8 43 9 44 -79 0
42 10 46 8 43 9 44 -77 0
42 10 46 8 43 9 44 -78 0
42 10 46 8 43 9 44 -80 0
42 31 46 36 43 37 44 -134 0
42 31 46 36 43 37 44 -131 0
42 31 46 36 43 37 44 -133 0
42 31 46 36 43 37 44 -132 0
42 15 46 22 43 19 44 -101 0
42 15 46 22 43 19 44 -99 0
42 15 46 22 43 19 44 -102 0
42 15 46 22 43 19 44 -100 0
42 26 46 29 43 23 44 -117 0
42 26 46 29 43 23 44 -118 0
42 26 46 29 43 23 44 -120 0
42 26 46 29 43 23 44 -119 0
42 2 46 3 43 6 44 -40 0
42 2 46 3 43 6 44 -45 0
42 2 46 3 43 6 44 -41 0
42 2 46 3 43 6 44 -39 0
42 57 46 58 43 61 44 -150 0
42 57 46 58 43 61 44 -151 0
42 57 46 58 43 61 44 -152 0
42 57 46 58 43 61 44 -149 0
42 46 49 43 54 44 48 -146 0
42 46 49 43 54 44 48 -145 0
42 46 49 43 54 44 48 -148 0
42 46 49 43 54 44 48 -147 0
52 10 49 8 54 9 48 -84 0
52 10 49 8 54 9 48 -83 0
52 10 49 8 54 9 48 -82 0
52 10 49 8 54 9 48 -81 0
52 31 49 36 54 37 48 -137 0
52 31 49 36 54 37 48 -135 0
52 31 49 36 54 37 48 -138 0
52 31 49 36 54 37 48 -136 0
52 15 49 22 54 19 48 -103 0
52 15 49 22 54 19 48 -104 0
52 15 49 22 54 19 48 -106 0
52 15 49 22 54 19 48 -105 0
52 26 49 29 54 23 48 -121 0
52 26 49 29 54 23 48 -123 0
52 26 49 29 54 23 48 -122 0
52 26 49 29 54 23 48 -124 0
52 2 49 3 54 6 48 -53 0
52 2 49 3 54 6 48 -51 0
52 2 49 3 54 6 48 -47 0
52 2 49 3 54 6 48 -50 0
52 57 49 58 54 61 48 -156 0
52 57 49 58 54 61 48 -155 0
52 57 49 58 54 61 48 -157 0
52 57 49 58 54 61 48 -158 0
52 46 49 43 54 44 48 -146 0
52 46 49 43 54 44 48 -145 0
52 46 49 43 54 44 48 -148 0
52 46 49 43 54 44 48 -147 0
7 34 10 31 8 36 9 37 -73 0
7 34 10 31 8 36 9 37 -76 0
7 34 10 31 8 36 9 37 -75 0
7 34 10 31 8 36 9 37 -74 0
7 16 10 15 8 22 9 19 -65 0
7 16 10 15 8 22 9 19 -66 0
7 16 10 15 8 22 9 19 -68 0
7 16 10 15 8 22 9 19 -67 0
7 27 10 26 8 29 9 23 -69 0
7 27 10 26 8 29 9 23 -71 0
7 27 10 26 8 29 9 23 -72 0
7 27 10 26 8 29 9 23 -70 0
7 5 10 2 8 3 9 6 -11 0
7 5 10 2 8 3 9 6 -12 0
7 5 10 2 8 3 9 6 -14 0
7 5 10 2 8 3 9 6 -13 0
7 60 10 57 8 58 9 61 -85 0
7 60 10 57 8 58 9 61 -87 0
7 60 10 57 8 58 9 61 -88 0
7 60 10 57 8 58 9 61 -86 0
7 42 10 46 8 43 9 44 -79 0
7 42 10 46 8 43 9 44 -77 0
7 42 10 46 8 43 9 44 -78 0
7 42 10 46 8 43 9 44 -80 0
7 52 10 49 8 54 9 48 -84 0
7 52 10 49 8 54 9 48 -83 0
7 52 10 49 8 54 9 48 -82 0
7 52 10 49 8 54 9 48 -81 0
34 16 31 15 36 22 37 19 -95 0
34 16 31 15 36 22 37 19 -97 0
34 16 31 15 36 22 37 19 -96 0
34 16 31 15 36 22 37 19 -98 0
34 27 31 26 36 29 37 23 -115 0
34 27 31 26 36 29 37 23 -114 0
34 27 31 26 36 29 37 23 -113 0
34 27 31 26 36 29 37 23 -116 0
34 5 31 2 36 3 37 6 -38 0
34 5 31 2 36 3 37 6 -33 0
34 5 31 2 36 3 37 6 -32 0
34 5 31 2 36 3 37 6 -35 0
34 60 31 57 36 58 37 61 -140 0
34 60 31 57 36 58 37 61 -139 0
34 60 31 57 36 58 37 61 -141 0
34 60 31 57 36 58 37 61 -142 0
34 42 31 46 36 43 37 44 -134 0
34 42 31 46 36 43 37 44 -131 0
34 42 31 46 36 43 37 44 -133 0
34 42 31 46 36 43 37 44 -132 0
34 52 31 49 36 54 37 48 -137 0
34 52 31 49 36 54 37 48 -135 0
34 52 31 49 36 54 37 48 -138 0
34 52 31 49 36 54 37 48 -136 0
16 27 15 26 22 29 19 23 -93 0
16 27 15 26 22 29 19 23 -91 0
16 27 15 26 22 29 19 23 -94 0
16 27 15 26 22 29 19 23 -92 0
16 5 15 2 22 3 19 6 -18 0
16 5 15 2 22 3 19 6 -21 0
16 5 15 2 22 3 19 6 -20 0
16 5 15 2 22 3 19 6 -17 0
16 60 15 57 22 58 19 61 -110 0
16 60 15 57 22 58 19 61 -107 0
16 60 15 57 22 58 19 61 -109 0
16 60 15 57 22 58 19 61 -108 0
16 42 15 46 22 43 19 44 -101 0
16 42 15 46 22 43 19 44 -99 0
16 42 15 46 22 43 19 44 -102 0
16 42 15 46 22 43 19 44 -100 0
16 52 15 49 22 54 19 48 -103 0
16 52 15 49 22 54 19 48 -104 0
16 52 15 49 22 54 19 48 -106 0
16 52 15 49 22 54 19 48 -105 0
27 5 26 2 29 3 23 6 -28 0
27 5 26 2 29 3 23 6 -25 0
27 5 26 2 29 3 23 6 -30 0
27 5 26 2 29 3 23 6 -24 0
27 60 26 57 29 58 23 61 -125 0
27 60 26 57 29 58 23 61 -126 0
27 60 26 57 29 58 23 61 -128 0
27 60 26 57 29 58 23 61 -127 0
27 42 26 46 29 43 23 44 -117 0
27 42 26 46 29 43 23 44 -118 0
27 42 26 46 29 43 23 44 -120 0
27 42 26 46 29 43 23 44 -119 0
27 52 26 49 29 54 23 48 -121 0
27 52 26 49 29 54 23 48 -123 0
27 52 26 49 29 54 23 48 -122 0
27 52 26 49 29 54 23 48 -124 0
5 60 2 57 3 58 6 61 -56 0
5 60 2 57 3 58 6 61 -59 0
5 60 2 57 3 58 6 61 -55 0
5 60 2 57 3 58 6 61 -62 0
5 42 2 46 3 43 6 44 -40 0
5 42 2 46 3 43 6 44 -45 0
5 42 2 46 3 43 6 44 -41 0
5 42 2 46 3 43 6 44 -39 0
5 52 2 49 3 54 6 48 -53 0
5 52 2 49 3 54 6 48 -51 0
5 52 2 49 3 54 6 48 -47 0
5 52 2 49 3 54 6 48 -50 0
60 42 57 46 58 43 61 44 -150 0
60 42 57 46 58 43 61 44 -151 0
60 42 57 46 58 43 61 44 -152 0
60 42 57 46 58 43 61 44 -149 0
60 52 57 49 58 54 61 48 -156 0
60 52 57 49 58 54 61 48 -155 0
60 52 57 49 58 54 61 48 -157 0
60 52 57 49 58 54 61 48 -158 0
42 52 46 49 43 54 44 48 -146 0
42 52 46 49 43 54 44 48 -145 0
42 52 46 49 43 54 44 48 -148 0
42 52 46 49 43 54 44 48 -147 0
