c E1(2,2) U3(2) E2(2,2) U2(2) U1(2) U4(2) U2(4) U4(4) U1(4) U3(4) E2(4,2) E1(2,4) E1(4,2) E2(2,4) U2(3) U4(3) E2(2,3) E1(3,2) E2(3,2) U1(3) U3(3) E1(2,3) U4(8) E1(2,8) E1(8,2) E2(2,8) E2(8,2) U1(8) U2(8) U3(8) U3(5) E1(2,5) E2(2,5) E2(5,2) U1(5) U2(5) U4(5) E1(5,2) U4(7) E1(2,7) E1(7,2) E2(7,2) U2(7) U3(7) E2(2,7) U1(7) E1(1,2) U2(1) U4(1) E1(2,1) U3(1) E2(2,1) U1(1) E2(1,2) U4(0) E2(2,0) E2(0,2) U2(0) E1(2,0) U1(0) E1(0,2) U3(0) E1(2,6) E2(2,6) U4(6) E2(6,2) U1(6) U3(6) E1(6,2) U2(6) E2(4,4) E1(4,4) E1(4,3) E1(3,4) E2(3,4) E2(4,3) E1(4,8) E1(8,4) E2(4,8) E2(8,4) E1(5,4) E1(4,5) E2(5,4) E2(4,5) E2(4,7) E1(4,7) E1(7,4) E2(7,4) E2(4,1) E2(1,4) E1(4,1) E1(1,4) E2(4,0) E1(4,0) E1(0,4) E2(0,4) E1(4,6) E2(4,6) E2(6,4) E1(6,4) E1(3,3) E2(3,3) E2(8,3) E1(8,3) E1(3,8) E2(3,8) E2(3,5) E1(5,3) E1(3,5) E2(5,3) E2(7,3) E2(3,7) E1(7,3) E1(3,7) E2(1,3) E1(1,3) E2(3,1) E1(3,1) E1(3,0) E1(0,3) E2(0,3) E2(3,0) E1(6,3) E2(6,3) E1(3,6) E2(3,6) E2(8,8) E1(8,8) E1(5,8) E2(8,5) E2(5,8) E1(8,5) E2(8,7) E1(7,8) E2(7,8) E1(8,7) E2(1,8) E2(8,1) E1(1,8) E1(8,1) E2(0,8) E1(0,8) E1(8,0) E2(8,0) E1(6,8) E1(8,6) E2(6,8) E2(8,6) E1(5,5) E2(5,5) E1(7,5) E1(5,7) E2(5,7) E2(7,5) E1(1,5) E1(5,1) E2(5,1) E2(1,5) E2(5,0) E1(5,0) E1(0,5) E2(0,5) E2(5,6) E1(5,6) E1(6,5) E2(6,5) E1(7,7) E2(7,7) E2(7,1) E2(1,7) E1(1,7) E1(7,1) E2(0,7) E1(7,0) E2(7,0) E1(0,7) E2(7,6) E1(6,7) E2(6,7) E1(7,6) E2(1,1) E1(1,1) E2(0,1) E1(0,1) E2(1,0) E1(1,0) E1(6,1) E1(1,6) E2(1,6) E2(6,1) E2(0,0) E1(0,0) E1(0,6) E2(0,6) E1(6,0) E2(6,0) E2(6,6) E1(6,6)
c 1 2 3 4 5 6 7 8 9 10 11 12 13 14 15 16 17 18 19 20 21 22 23 24 25 26 27 28 29 30 31 32 33 34 35 36 37 38 39 40 41 42 43 44 45 46 47 48 49 50 51 52 53 54 55 56 57 58 59 60 61 62 63 64 65 66 67 68 69 70 71 72 73 74 75 76 77 78 79 80 81 82 83 84 85 86 87 88 89 90 91 92 93 94 95 96 97 98 99 100 101 102 103 104 105 106 107 108 109 110 111 112 113 114 115 116 117 118 119 120 121 122 123 124 125 126 127 128 129 130 131 132 133 134 135 136 137 138 139 140 141 142 143 144 145 146 147 148 149 150 151 152 153 154 155 156 157 158 159 160 161 162 163 164 165 166 167 168 169 170 171 172 173 174 175 176 177 178 179 180 181 182 183 184 185 186 187 188 189 190 191 192 193 194 195 196 197 198
p cnf 198 5364
-192 -191 0
-184 -183 0
-184 -185 0
-61 -57 0
-61 -56 0
-120 -121 0
-120 -122 0
-95 -96 0
-95 -93 0
-161 -162 0
-161 -159 0
-193 -194 0
-193 -196 0
-176 -173 0
-176 -175 0
-142 -141 0
-142 -144 0
-186 -183 0
-186 -185 0
-182 -181 0
-47 -54 0
-47 -52 0
-116 -115 0
-116 -117 0
-92 -90 0
-92 -89 0
-155 -158 0
-155 -157 0
-188 -189 0
-188 -190 0
-171 -170 0
-171 -169 0
-139 -137 0
-139 -138 0
-59 -57 0
-59 -56 0
-50 -54 0
-50 -52 0
-1 -3 0
-22 -17 0
-22 -19 0
-12 -14 0
-12 -11 0
-32 -33 0
-32 -34 0
-63 -64 0
-63 -66 0
-40 -45 0
-40 -42 0
-24 -26 0
-24 -27 0
-119 -121 0
-119 -122 0
-118 -115 0
-118 -117 0
-18 -17 0
-18 -19 0
-101 -102 0
-74 -75 0
-74 -76 0
-109 -107 0
-109 -110 0
-125 -126 0
-125 -124 0
-114 -112 0
-114 -111 0
-105 -106 0
-105 -103 0
-94 -96 0
-94 -93 0
-91 -90 0
-91 -89 0
-13 -14 0
-13 -11 0
-73 -75 0
-73 -76 0
-72 -71 0
-82 -84 0
-82 -83 0
-97 -98 0
-97 -99 0
-86 -85 0
-86 -88 0
-77 -79 0
-77 -80 0
-160 -162 0
-160 -159 0
-156 -158 0
-156 -157 0
-38 -33 0
-38 -34 0
-108 -107 0
-108 -110 0
-81 -84 0
-81 -83 0
-149 -150 0
-164 -163 0
-164 -166 0
-152 -153 0
-152 -154 0
-129 -131 0
-129 -130 0
-195 -194 0
-195 -196 0
-187 -189 0
-187 -190 0
-69 -64 0
-69 -66 0
-123 -126 0
-123 -124 0
-100 -98 0
-100 -99 0
-165 -163 0
-165 -166 0
-198 -197 0
-178 -179 0
-178 -177 0
-145 -147 0
-145 -148 0
-174 -173 0
-174 -175 0
-172 -170 0
-172 -169 0
-41 -45 0
-41 -42 0
-113 -112 0
-113 -111 0
-87 -85 0
-87 -88 0
-151 -153 0
-151 -154 0
-180 -179 0
-180 -177 0
-167 -168 0
-134 -135 0
-134 -133 0
-143 -141 0
-143 -144 0
-140 -137 0
-140 -138 0
-25 -26 0
-25 -27 0
-104 -106 0
-104 -103 0
-78 -79 0
-78 -80 0
-132 -131 0
-132 -130 0
-146 -147 0
-146 -148 0
-136 -135 0
-136 -133 0
-128 -127 0
-60 -58 0
-60 -62 0
-60 -55 0
-53 -48 0
-53 -51 0
-53 -49 0
-5 -4 0
-5 -2 0
-5 -6 0
-20 -15 0
-20 -21 0
-20 -16 0
-9 -7 0
-9 -10 0
-9 -8 0
-35 -36 0
-35 -31 0
-35 -37 0
-67 -70 0
-67 -68 0
-67 -65 0
-46 -43 0
-46 -44 0
-46 -39 0
-28 -29 0
-28 -30 0
-28 -23 0
-58 -62 0
-58 -55 0
-48 -51 0
-48 -49 0
-4 -2 0
-4 -6 0
-15 -21 0
-15 -16 0
-7 -10 0
-7 -8 0
-36 -31 0
-36 -37 0
-70 -68 0
-70 -65 0
-43 -44 0
-43 -39 0
-29 -30 0
-29 -23 0
-62 -55 0
-51 -49 0
-2 -6 0
-21 -16 0
-10 -8 0
-31 -37 0
-68 -65 0
-44 -39 0
-30 -23 0
60 58 62 55 0
53 48 51 49 0
5 4 2 6 0
20 15 21 16 0
9 7 10 8 0
35 36 31 37 0
67 70 68 65 0
46 43 44 39 0
28 29 30 23 0
60 58 62 -192 0
60 58 62 -191 0
60 58 55 -192 0
60 58 55 -191 0
60 62 55 -192 0
60 62 55 -191 0
53 48 51 -182 0
53 48 51 -181 0
53 48 49 -182 0
53 48 49 -181 0
53 51 49 -182 0
53 51 49 -181 0
5 4 2 -1 0
5 4 2 -3 0
5 4 6 -1 0
5 4 6 -3 0
5 2 6 -1 0
5 2 6 -3 0
20 15 21 -101 0
20 15 21 -102 0
20 15 16 -101 0
20 15 16 -102 0
20 21 16 -101 0
20 21 16 -102 0
9 7 10 -72 0
9 7 10 -71 0
9 7 8 -72 0
9 7 8 -71 0
9 10 8 -72 0
9 10 8 -71 0
35 36 31 -149 0
35 36 31 -150 0
35 36 37 -149 0
35 36 37 -150 0
35 31 37 -149 0
35 31 37 -150 0
67 70 68 -198 0
67 70 68 -197 0
67 70 65 -198 0
67 70 65 -197 0
67 68 65 -198 0
67 68 65 -197 0
46 43 44 -167 0
46 43 44 -168 0
46 43 39 -167 0
46 43 39 -168 0
46 44 39 -167 0
46 44 39 -168 0
28 29 30 -128 0
28 29 30 -127 0
28 29 23 -128 0
28 29 23 -127 0
28 30 23 -128 0
28 30 23 -127 0
58 62 55 -192 0
58 62 55 -191 0
48 51 49 -182 0
48 51 49 -181 0
4 2 6 -1 0
4 2 6 -3 0
15 21 16 -101 0
15 21 16 -102 0
7 10 8 -72 0
7 10 8 -71 0
36 31 37 -149 0
36 31 37 -150 0
70 68 65 -198 0
70 68 65 -197 0
43 44 39 -167 0
43 44 39 -168 0
29 30 23 -128 0
29 30 23 -127 0
60 58 62 55 -192 0
60 58 62 55 -184 0
60 58 62 55 -61 0
60 58 62 55 -120 0
60 58 62 55 -95 0
60 58 62 55 -161 0
60 58 62 55 -193 0
60 58 62 55 -176 0
60 58 62 55 -142 0
60 58 62 55 -186 0
60 58 62 55 -59 0
60 58 62 55 -119 0
60 58 62 55 -94 0
60 58 62 55 -160 0
60 58 62 55 -195 0
60 58 62 55 -174 0
60 58 62 55 -143 0
60 58 62 55 -191 0
60 58 62 55 -183 0
60 58 62 55 -57 0
60 58 62 55 -121 0
60 58 62 55 -96 0
60 58 62 55 -162 0
60 58 62 55 -194 0
60 58 62 55 -173 0
60 58 62 55 -141 0
60 58 62 55 -185 0
60 58 62 55 -56 0
60 58 62 55 -122 0
60 58 62 55 -93 0
60 58 62 55 -159 0
60 58 62 55 -196 0
60 58 62 55 -175 0
60 58 62 55 -144 0
53 48 51 49 -184 0
53 48 51 49 -186 0
53 48 51 49 -182 0
53 48 51 49 -47 0
53 48 51 49 -116 0
53 48 51 49 -92 0
53 48 51 49 -155 0
53 48 51 49 -188 0
53 48 51 49 -171 0
53 48 51 49 -139 0
53 48 51 49 -50 0
53 48 51 49 -118 0
53 48 51 49 -91 0
53 48 51 49 -156 0
53 48 51 49 -187 0
53 48 51 49 -172 0
53 48 51 49 -140 0
53 48 51 49 -183 0
53 48 51 49 -185 0
53 48 51 49 -181 0
53 48 51 49 -54 0
53 48 51 49 -115 0
53 48 51 49 -90 0
53 48 51 49 -158 0
53 48 51 49 -189 0
53 48 51 49 -170 0
53 48 51 49 -137 0
53 48 51 49 -52 0
53 48 51 49 -117 0
53 48 51 49 -89 0
53 48 51 49 -157 0
53 48 51 49 -190 0
53 48 51 49 -169 0
53 48 51 49 -138 0
5 4 2 6 -61 0
5 4 2 6 -47 0
5 4 2 6 -59 0
5 4 2 6 -50 0
5 4 2 6 -1 0
5 4 2 6 -22 0
5 4 2 6 -12 0
5 4 2 6 -32 0
5 4 2 6 -63 0
5 4 2 6 -40 0
5 4 2 6 -24 0
5 4 2 6 -18 0
5 4 2 6 -13 0
5 4 2 6 -38 0
5 4 2 6 -69 0
5 4 2 6 -41 0
5 4 2 6 -25 0
5 4 2 6 -57 0
5 4 2 6 -54 0
5 4 2 6 -56 0
5 4 2 6 -52 0
5 4 2 6 -3 0
5 4 2 6 -17 0
5 4 2 6 -14 0
5 4 2 6 -33 0
5 4 2 6 -64 0
5 4 2 6 -45 0
5 4 2 6 -26 0
5 4 2 6 -19 0
5 4 2 6 -11 0
5 4 2 6 -34 0
5 4 2 6 -66 0
5 4 2 6 -42 0
5 4 2 6 -27 0
20 15 21 16 -120 0
20 15 21 16 -116 0
20 15 21 16 -22 0
20 15 21 16 -119 0
20 15 21 16 -118 0
20 15 21 16 -18 0
20 15 21 16 -101 0
20 15 21 16 -74 0
20 15 21 16 -109 0
20 15 21 16 -125 0
20 15 21 16 -114 0
20 15 21 16 -105 0
20 15 21 16 -73 0
20 15 21 16 -108 0
20 15 21 16 -123 0
20 15 21 16 -113 0
20 15 21 16 -104 0
20 15 21 16 -121 0
20 15 21 16 -115 0
20 15 21 16 -17 0
20 15 21 16 -122 0
20 15 21 16 -117 0
20 15 21 16 -19 0
20 15 21 16 -102 0
20 15 21 16 -75 0
20 15 21 16 -107 0
20 15 21 16 -126 0
20 15 21 16 -112 0
20 15 21 16 -106 0
20 15 21 16 -76 0
20 15 21 16 -110 0
20 15 21 16 -124 0
20 15 21 16 -111 0
20 15 21 16 -103 0
9 7 10 8 -95 0
9 7 10 8 -92 0
9 7 10 8 -12 0
9 7 10 8 -74 0
9 7 10 8 -94 0
9 7 10 8 -91 0
9 7 10 8 -13 0
9 7 10 8 -73 0
9 7 10 8 -72 0
9 7 10 8 -82 0
9 7 10 8 -97 0
9 7 10 8 -86 0
9 7 10 8 -77 0
9 7 10 8 -81 0
9 7 10 8 -100 0
9 7 10 8 -87 0
9 7 10 8 -78 0
9 7 10 8 -96 0
9 7 10 8 -90 0
9 7 10 8 -14 0
9 7 10 8 -75 0
9 7 10 8 -93 0
9 7 10 8 -89 0
9 7 10 8 -11 0
9 7 10 8 -76 0
9 7 10 8 -71 0
9 7 10 8 -84 0
9 7 10 8 -98 0
9 7 10 8 -85 0
9 7 10 8 -79 0
9 7 10 8 -83 0
9 7 10 8 -99 0
9 7 10 8 -88 0
9 7 10 8 -80 0
35 36 31 37 -161 0
35 36 31 37 -155 0
35 36 31 37 -32 0
35 36 31 37 -109 0
35 36 31 37 -82 0
35 36 31 37 -160 0
35 36 31 37 -156 0
35 36 31 37 -38 0
35 36 31 37 -108 0
35 36 31 37 -81 0
35 36 31 37 -149 0
35 36 31 37 -164 0
35 36 31 37 -152 0
35 36 31 37 -129 0
35 36 31 37 -165 0
35 36 31 37 -151 0
35 36 31 37 -132 0
35 36 31 37 -162 0
35 36 31 37 -158 0
35 36 31 37 -33 0
35 36 31 37 -107 0
35 36 31 37 -84 0
35 36 31 37 -159 0
35 36 31 37 -157 0
35 36 31 37 -34 0
35 36 31 37 -110 0
35 36 31 37 -83 0
35 36 31 37 -150 0
35 36 31 37 -163 0
35 36 31 37 -153 0
35 36 31 37 -131 0
35 36 31 37 -166 0
35 36 31 37 -154 0
35 36 31 37 -130 0
67 70 68 65 -193 0
67 70 68 65 -188 0
67 70 68 65 -63 0
67 70 68 65 -125 0
67 70 68 65 -97 0
67 70 68 65 -164 0
67 70 68 65 -195 0
67 70 68 65 -187 0
67 70 68 65 -69 0
67 70 68 65 -123 0
67 70 68 65 -100 0
67 70 68 65 -165 0
67 70 68 65 -198 0
67 70 68 65 -178 0
67 70 68 65 -145 0
67 70 68 65 -180 0
67 70 68 65 -146 0
67 70 68 65 -194 0
67 70 68 65 -189 0
67 70 68 65 -64 0
67 70 68 65 -126 0
67 70 68 65 -98 0
67 70 68 65 -163 0
67 70 68 65 -196 0
67 70 68 65 -190 0
67 70 68 65 -66 0
67 70 68 65 -124 0
67 70 68 65 -99 0
67 70 68 65 -166 0
67 70 68 65 -197 0
67 70 68 65 -179 0
67 70 68 65 -147 0
67 70 68 65 -177 0
67 70 68 65 -148 0
46 43 44 39 -176 0
46 43 44 39 -171 0
46 43 44 39 -40 0
46 43 44 39 -114 0
46 43 44 39 -86 0
46 43 44 39 -152 0
46 43 44 39 -178 0
46 43 44 39 -174 0
46 43 44 39 -172 0
46 43 44 39 -41 0
46 43 44 39 -113 0
46 43 44 39 -87 0
46 43 44 39 -151 0
46 43 44 39 -180 0
46 43 44 39 -167 0
46 43 44 39 -134 0
46 43 44 39 -136 0
46 43 44 39 -173 0
46 43 44 39 -170 0
46 43 44 39 -45 0
46 43 44 39 -112 0
46 43 44 39 -85 0
46 43 44 39 -153 0
46 43 44 39 -179 0
46 43 44 39 -175 0
46 43 44 39 -169 0
46 43 44 39 -42 0
46 43 44 39 -111 0
46 43 44 39 -88 0
46 43 44 39 -154 0
46 43 44 39 -177 0
46 43 44 39 -168 0
46 43 44 39 -135 0
46 43 44 39 -133 0
28 29 30 23 -142 0
28 29 30 23 -139 0
28 29 30 23 -24 0
28 29 30 23 -105 0
28 29 30 23 -77 0
28 29 30 23 -129 0
28 29 30 23 -145 0
28 29 30 23 -134 0
28 29 30 23 -143 0
28 29 30 23 -140 0
28 29 30 23 -25 0
28 29 30 23 -104 0
28 29 30 23 -78 0
28 29 30 23 -132 0
28 29 30 23 -146 0
28 29 30 23 -136 0
28 29 30 23 -128 0
28 29 30 23 -141 0
28 29 30 23 -137 0
28 29 30 23 -26 0
28 29 30 23 -106 0
28 29 30 23 -79 0
28 29 30 23 -131 0
28 29 30 23 -147 0
28 29 30 23 -135 0
28 29 30 23 -144 0
28 29 30 23 -138 0
28 29 30 23 -27 0
28 29 30 23 -103 0
28 29 30 23 -80 0
28 29 30 23 -130 0
28 29 30 23 -148 0
28 29 30 23 -133 0
28 29 30 23 -127 0
60 53 58 62 55 -184 0
60 53 58 62 55 -186 0
60 53 58 62 55 -183 0
60 53 58 62 55 -185 0
60 53 48 51 49 -184 0
60 53 48 51 49 -186 0
60 53 48 51 49 -183 0
60 53 48 51 49 -185 0
60 5 58 62 55 -61 0
60 5 58 62 55 -59 0
60 5 58 62 55 -57 0
60 5 58 62 55 -56 0
60 5 4 2 6 -61 0
60 5 4 2 6 -59 0
60 5 4 2 6 -57 0
60 5 4 2 6 -56 0
60 20 58 62 55 -120 0
60 20 58 62 55 -119 0
60 20 58 62 55 -121 0
60 20 58 62 55 -122 0
60 20 15 21 16 -120 0
60 20 15 21 16 -119 0
60 20 15 21 16 -121 0
60 20 15 21 16 -122 0
60 9 58 62 55 -95 0
60 9 58 62 55 -94 0
60 9 58 62 55 -96 0
60 9 58 62 55 -93 0
60 9 7 10 8 -95 0
60 9 7 10 8 -94 0
60 9 7 10 8 -96 0
60 9 7 10 8 -93 0
60 35 58 62 55 -161 0
60 35 58 62 55 -160 0
60 35 58 62 55 -162 0
60 35 58 62 55 -159 0
60 35 36 31 37 -161 0
60 35 36 31 37 -160 0
60 35 36 31 37 -162 0
60 35 36 31 37 -159 0
60 67 58 62 55 -193 0
60 67 58 62 55 -195 0
60 67 58 62 55 -194 0
60 67 58 62 55 -196 0
60 67 70 68 65 -193 0
60 67 70 68 65 -195 0
60 67 70 68 65 -194 0
60 67 70 68 65 -196 0
60 46 58 62 55 -176 0
60 46 58 62 55 -174 0
60 46 58 62 55 -173 0
60 46 58 62 55 -175 0
60 46 43 44 39 -176 0
60 46 43 44 39 -174 0
60 46 43 44 39 -173 0
60 46 43 44 39 -175 0
60 28 58 62 55 -142 0
60 28 58 62 55 -143 0
60 28 58 62 55 -141 0
60 28 58 62 55 -144 0
60 28 29 30 23 -142 0
60 28 29 30 23 -143 0
60 28 29 30 23 -141 0
60 28 29 30 23 -144 0
60 58 48 62 55 -184 0
60 58 48 62 55 -186 0
60 58 48 62 55 -183 0
60 58 48 62 55 -185 0
60 58 4 62 55 -61 0
60 58 4 62 55 -59 0
60 58 4 62 55 -57 0
60 58 4 62 55 -56 0
60 58 15 62 55 -120 0
60 58 15 62 55 -119 0
60 58 15 62 55 -121 0
60 58 15 62 55 -122 0
60 58 7 62 55 -95 0
60 58 7 62 55 -94 0
60 58 7 62 55 -96 0
60 58 7 62 55 -93 0
60 58 36 62 55 -161 0
60 58 36 62 55 -160 0
60 58 36 62 55 -162 0
60 58 36 62 55 -159 0
60 58 70 62 55 -193 0
60 58 70 62 55 -195 0
60 58 70 62 55 -194 0
60 58 70 62 55 -196 0
60 58 43 62 55 -176 0
60 58 43 62 55 -174 0
60 58 43 62 55 -173 0
60 58 43 62 55 -175 0
60 58 29 62 55 -142 0
60 58 29 62 55 -143 0
60 58 29 62 55 -141 0
60 58 29 62 55 -144 0
60 58 62 51 55 -184 0
60 58 62 51 55 -186 0
60 58 62 51 55 -183 0
60 58 62 51 55 -185 0
60 58 62 2 55 -61 0
60 58 62 2 55 -59 0
60 58 62 2 55 -57 0
60 58 62 2 55 -56 0
60 58 62 21 55 -120 0
60 58 62 21 55 -119 0
60 58 62 21 55 -121 0
60 58 62 21 55 -122 0
60 58 62 10 55 -95 0
60 58 62 10 55 -94 0
60 58 62 10 55 -96 0
60 58 62 10 55 -93 0
60 58 62 31 55 -161 0
60 58 62 31 55 -160 0
60 58 62 31 55 -162 0
60 58 62 31 55 -159 0
60 58 62 68 55 -193 0
60 58 62 68 55 -195 0
60 58 62 68 55 -194 0
60 58 62 68 55 -196 0
60 58 62 44 55 -176 0
60 58 62 44 55 -174 0
60 58 62 44 55 -173 0
60 58 62 44 55 -175 0
60 58 62 30 55 -142 0
60 58 62 30 55 -143 0
60 58 62 30 55 -141 0
60 58 62 30 55 -144 0
60 58 62 55 49 -184 0
60 58 62 55 49 -186 0
60 58 62 55 49 -183 0
60 58 62 55 49 -185 0
60 58 62 55 6 -61 0
60 58 62 55 6 -59 0
60 58 62 55 6 -57 0
60 58 62 55 6 -56 0
60 58 62 55 16 -120 0
60 58 62 55 16 -119 0
60 58 62 55 16 -121 0
60 58 62 55 16 -122 0
60 58 62 55 8 -95 0
60 58 62 55 8 -94 0
60 58 62 55 8 -96 0
60 58 62 55 8 -93 0
60 58 62 55 37 -161 0
60 58 62 55 37 -160 0
60 58 62 55 37 -162 0
60 58 62 55 37 -159 0
60 58 62 55 65 -193 0
60 58 62 55 65 -195 0
60 58 62 55 65 -194 0
60 58 62 55 65 -196 0
60 58 62 55 39 -176 0
60 58 62 55 39 -174 0
60 58 62 55 39 -173 0
60 58 62 55 39 -175 0
60 58 62 55 23 -142 0
60 58 62 55 23 -143 0
60 58 62 55 23 -141 0
60 58 62 55 23 -144 0
53 5 48 51 49 -47 0
53 5 48 51 49 -50 0
53 5 48 51 49 -54 0
53 5 48 51 49 -52 0
53 5 4 2 6 -47 0
53 5 4 2 6 -50 0
53 5 4 2 6 -54 0
53 5 4 2 6 -52 0
53 20 48 51 49 -116 0
53 20 48 51 49 -118 0
53 20 48 51 49 -115 0
53 20 48 51 49 -117 0
53 20 15 21 16 -116 0
53 20 15 21 16 -118 0
53 20 15 21 16 -115 0
53 20 15 21 16 -117 0
53 9 48 51 49 -92 0
53 9 48 51 49 -91 0
53 9 48 51 49 -90 0
53 9 48 51 49 -89 0
53 9 7 10 8 -92 0
53 9 7 10 8 -91 0
53 9 7 10 8 -90 0
53 9 7 10 8 -89 0
53 35 48 51 49 -155 0
53 35 48 51 49 -156 0
53 35 48 51 49 -158 0
53 35 48 51 49 -157 0
53 35 36 31 37 -155 0
53 35 36 31 37 -156 0
53 35 36 31 37 -158 0
53 35 36 31 37 -157 0
53 67 48 51 49 -188 0
53 67 48 51 49 -187 0
53 67 48 51 49 -189 0
53 67 48 51 49 -190 0
53 67 70 68 65 -188 0
53 67 70 68 65 -187 0
53 67 70 68 65 -189 0
53 67 70 68 65 -190 0
53 46 48 51 49 -171 0
53 46 48 51 49 -172 0
53 46 48 51 49 -170 0
53 46 48 51 49 -169 0
53 46 43 44 39 -171 0
53 46 43 44 39 -172 0
53 46 43 44 39 -170 0
53 46 43 44 39 -169 0
53 28 48 51 49 -139 0
53 28 48 51 49 -140 0
53 28 48 51 49 -137 0
53 28 48 51 49 -138 0
53 28 29 30 23 -139 0
53 28 29 30 23 -140 0
53 28 29 30 23 -137 0
53 28 29 30 23 -138 0
53 58 48 51 49 -184 0
53 58 48 51 49 -186 0
53 58 48 51 49 -183 0
53 58 48 51 49 -185 0
53 48 4 51 49 -47 0
53 48 4 51 49 -50 0
53 48 4 51 49 -54 0
53 48 4 51 49 -52 0
53 48 15 51 49 -116 0
53 48 15 51 49 -118 0
53 48 15 51 49 -115 0
53 48 15 51 49 -117 0
53 48 7 51 49 -92 0
53 48 7 51 49 -91 0
53 48 7 51 49 -90 0
53 48 7 51 49 -89 0
53 48 36 51 49 -155 0
53 48 36 51 49 -156 0
53 48 36 51 49 -158 0
53 48 36 51 49 -157 0
53 48 70 51 49 -188 0
53 48 70 51 49 -187 0
53 48 70 51 49 -189 0
53 48 70 51 49 -190 0
53 48 43 51 49 -171 0
53 48 43 51 49 -172 0
53 48 43 51 49 -170 0
53 48 43 51 49 -169 0
53 48 29 51 49 -139 0
53 48 29 51 49 -140 0
53 48 29 51 49 -137 0
53 48 29 51 49 -138 0
53 48 62 51 49 -184 0
53 48 62 51 49 -186 0
53 48 62 51 49 -183 0
53 48 62 51 49 -185 0
53 48 51 2 49 -47 0
53 48 51 2 49 -50 0
53 48 51 2 49 -54 0
53 48 51 2 49 -52 0
53 48 51 21 49 -116 0
53 48 51 21 49 -118 0
53 48 51 21 49 -115 0
53 48 51 21 49 -117 0
53 48 51 10 49 -92 0
53 48 51 10 49 -91 0
53 48 51 10 49 -90 0
53 48 51 10 49 -89 0
53 48 51 31 49 -155 0
53 48 51 31 49 -156 0
53 48 51 31 49 -158 0
53 48 51 31 49 -157 0
53 48 51 68 49 -188 0
53 48 51 68 49 -187 0
53 48 51 68 49 -189 0
53 48 51 68 49 -190 0
53 48 51 44 49 -171 0
53 48 51 44 49 -172 0
53 48 51 44 49 -170 0
53 48 51 44 49 -169 0
53 48 51 30 49 -139 0
53 48 51 30 49 -140 0
53 48 51 30 49 -137 0
53 48 51 30 49 -138 0
53 48 51 55 49 -184 0
53 48 51 55 49 -186 0
53 48 51 55 49 -183 0
53 48 51 55 49 -185 0
53 48 51 49 6 -47 0
53 48 51 49 6 -50 0
53 48 51 49 6 -54 0
53 48 51 49 6 -52 0
53 48 51 49 16 -116 0
53 48 51 49 16 -118 0
53 48 51 49 16 -115 0
53 48 51 49 16 -117 0
53 48 51 49 8 -92 0
53 48 51 49 8 -91 0
53 48 51 49 8 -90 0
53 48 51 49 8 -89 0
53 48 51 49 37 -155 0
53 48 51 49 37 -156 0
53 48 51 49 37 -158 0
53 48 51 49 37 -157 0
53 48 51 49 65 -188 0
53 48 51 49 65 -187 0
53 48 51 49 65 -189 0
53 48 51 49 65 -190 0
53 48 51 49 39 -171 0
53 48 51 49 39 -172 0
53 48 51 49 39 -170 0
53 48 51 49 39 -169 0
53 48 51 49 23 -139 0
53 48 51 49 23 -140 0
53 48 51 49 23 -137 0
53 48 51 49 23 -138 0
5 20 4 2 6 -22 0
5 20 4 2 6 -18 0
5 20 4 2 6 -17 0
5 20 4 2 6 -19 0
5 20 15 21 16 -22 0
5 20 15 21 16 -18 0
5 20 15 21 16 -17 0
5 20 15 21 16 -19 0
5 9 4 2 6 -12 0
5 9 4 2 6 -13 0
5 9 4 2 6 -14 0
5 9 4 2 6 -11 0
5 9 7 10 8 -12 0
5 9 7 10 8 -13 0
5 9 7 10 8 -14 0
5 9 7 10 8 -11 0
5 35 4 2 6 -32 0
5 35 4 2 6 -38 0
5 35 4 2 6 -33 0
5 35 4 2 6 -34 0
5 35 36 31 37 -32 0
5 35 36 31 37 -38 0
5 35 36 31 37 -33 0
5 35 36 31 37 -34 0
5 67 4 2 6 -63 0
5 67 4 2 6 -69 0
5 67 4 2 6 -64 0
5 67 4 2 6 -66 0
5 67 70 68 65 -63 0
5 67 70 68 65 -69 0
5 67 70 68 65 -64 0
5 67 70 68 65 -66 0
5 46 4 2 6 -40 0
5 46 4 2 6 -41 0
5 46 4 2 6 -45 0
5 46 4 2 6 -42 0
5 46 43 44 39 -40 0
5 46 43 44 39 -41 0
5 46 43 44 39 -45 0
5 46 43 44 39 -42 0
5 28 4 2 6 -24 0
5 28 4 2 6 -25 0
5 28 4 2 6 -26 0
5 28 4 2 6 -27 0
5 28 29 30 23 -24 0
5 28 29 30 23 -25 0
5 28 29 30 23 -26 0
5 28 29 30 23 -27 0
5 58 4 2 6 -61 0
5 58 4 2 6 -59 0
5 58 4 2 6 -57 0
5 58 4 2 6 -56 0
5 48 4 2 6 -47 0
5 48 4 2 6 -50 0
5 48 4 2 6 -54 0
5 48 4 2 6 -52 0
5 4 15 2 6 -22 0
5 4 15 2 6 -18 0
5 4 15 2 6 -17 0
5 4 15 2 6 -19 0
5 4 7 2 6 -12 0
5 4 7 2 6 -13 0
5 4 7 2 6 -14 0
5 4 7 2 6 -11 0
5 4 36 2 6 -32 0
5 4 36 2 6 -38 0
5 4 36 2 6 -33 0
5 4 36 2 6 -34 0
5 4 70 2 6 -63 0
5 4 70 2 6 -69 0
5 4 70 2 6 -64 0
5 4 70 2 6 -66 0
5 4 43 2 6 -40 0
5 4 43 2 6 -41 0
5 4 43 2 6 -45 0
5 4 43 2 6 -42 0
5 4 29 2 6 -24 0
5 4 29 2 6 -25 0
5 4 29 2 6 -26 0
5 4 29 2 6 -27 0
5 4 62 2 6 -61 0
5 4 62 2 6 -59 0
5 4 62 2 6 -57 0
5 4 62 2 6 -56 0
5 4 51 2 6 -47 0
5 4 51 2 6 -50 0
5 4 51 2 6 -54 0
5 4 51 2 6 -52 0
5 4 2 21 6 -22 0
5 4 2 21 6 -18 0
5 4 2 21 6 -17 0
5 4 2 21 6 -19 0
5 4 2 10 6 -12 0
5 4 2 10 6 -13 0
5 4 2 10 6 -14 0
5 4 2 10 6 -11 0
5 4 2 31 6 -32 0
5 4 2 31 6 -38 0
5 4 2 31 6 -33 0
5 4 2 31 6 -34 0
5 4 2 68 6 -63 0
5 4 2 68 6 -69 0
5 4 2 68 6 -64 0
5 4 2 68 6 -66 0
5 4 2 44 6 -40 0
5 4 2 44 6 -41 0
5 4 2 44 6 -45 0
5 4 2 44 6 -42 0
5 4 2 30 6 -24 0
5 4 2 30 6 -25 0
5 4 2 30 6 -26 0
5 4 2 30 6 -27 0
5 4 2 55 6 -61 0
5 4 2 55 6 -59 0
5 4 2 55 6 -57 0
5 4 2 55 6 -56 0
5 4 2 49 6 -47 0
5 4 2 49 6 -50 0
5 4 2 49 6 -54 0
5 4 2 49 6 -52 0
5 4 2 6 16 -22 0
5 4 2 6 16 -18 0
5 4 2 6 16 -17 0
5 4 2 6 16 -19 0
5 4 2 6 8 -12 0
5 4 2 6 8 -13 0
5 4 2 6 8 -14 0
5 4 2 6 8 -11 0
5 4 2 6 37 -32 0
5 4 2 6 37 -38 0
5 4 2 6 37 -33 0
5 4 2 6 37 -34 0
5 4 2 6 65 -63 0
5 4 2 6 65 -69 0
5 4 2 6 65 -64 0
5 4 2 6 65 -66 0
5 4 2 6 39 -40 0
5 4 2 6 39 -41 0
5 4 2 6 39 -45 0
5 4 2 6 39 -42 0
5 4 2 6 23 -24 0
5 4 2 6 23 -25 0
5 4 2 6 23 -26 0
5 4 2 6 23 -27 0
20 9 15 21 16 -74 0
20 9 15 21 16 -73 0
20 9 15 21 16 -75 0
20 9 15 21 16 -76 0
20 9 7 10 8 -74 0
20 9 7 10 8 -73 0
20 9 7 10 8 -75 0
20 9 7 10 8 -76 0
20 35 15 21 16 -109 0
20 35 15 21 16 -108 0
20 35 15 21 16 -107 0
20 35 15 21 16 -110 0
20 35 36 31 37 -109 0
20 35 36 31 37 -108 0
20 35 36 31 37 -107 0
20 35 36 31 37 -110 0
20 67 15 21 16 -125 0
20 67 15 21 16 -123 0
20 67 15 21 16 -126 0
20 67 15 21 16 -124 0
20 67 70 68 65 -125 0
20 67 70 68 65 -123 0
20 67 70 68 65 -126 0
20 67 70 68 65 -124 0
20 46 15 21 16 -114 0
20 46 15 21 16 -113 0
20 46 15 21 16 -112 0
20 46 15 21 16 -111 0
20 46 43 44 39 -114 0
20 46 43 44 39 -113 0
20 46 43 44 39 -112 0
20 46 43 44 39 -111 0
20 28 15 21 16 -105 0
20 28 15 21 16 -104 0
20 28 15 21 16 -106 0
20 28 15 21 16 -103 0
20 28 29 30 23 -105 0
20 28 29 30 23 -104 0
20 28 29 30 23 -106 0
20 28 29 30 23 -103 0
20 58 15 21 16 -120 0
20 58 15 21 16 -119 0
20 58 15 21 16 -121 0
20 58 15 21 16 -122 0
20 48 15 21 16 -116 0
20 48 15 21 16 -118 0
20 48 15 21 16 -115 0
20 48 15 21 16 -117 0
20 4 15 21 16 -22 0
20 4 15 21 16 -18 0
20 4 15 21 16 -17 0
20 4 15 21 16 -19 0
20 15 7 21 16 -74 0
20 15 7 21 16 -73 0
20 15 7 21 16 -75 0
20 15 7 21 16 -76 0
20 15 36 21 16 -109 0
20 15 36 21 16 -108 0
20 15 36 21 16 -107 0
20 15 36 21 16 -110 0
20 15 70 21 16 -125 0
20 15 70 21 16 -123 0
20 15 70 21 16 -126 0
20 15 70 21 16 -124 0
20 15 43 21 16 -114 0
20 15 43 21 16 -113 0
20 15 43 21 16 -112 0
20 15 43 21 16 -111 0
20 15 29 21 16 -105 0
20 15 29 21 16 -104 0
20 15 29 21 16 -106 0
20 15 29 21 16 -103 0
20 15 62 21 16 -120 0
20 15 62 21 16 -119 0
20 15 62 21 16 -121 0
20 15 62 21 16 -122 0
20 15 51 21 16 -116 0
20 15 51 21 16 -118 0
20 15 51 21 16 -115 0
20 15 51 21 16 -117 0
20 15 2 21 16 -22 0
20 15 2 21 16 -18 0
20 15 2 21 16 -17 0
20 15 2 21 16 -19 0
20 15 21 10 16 -74 0
20 15 21 10 16 -73 0
20 15 21 10 16 -75 0
20 15 21 10 16 -76 0
20 15 21 31 16 -109 0
20 15 21 31 16 -108 0
20 15 21 31 16 -107 0
20 15 21 31 16 -110 0
20 15 21 68 16 -125 0
20 15 21 68 16 -123 0
20 15 21 68 16 -126 0
20 15 21 68 16 -124 0
20 15 21 44 16 -114 0
20 15 21 44 16 -113 0
20 15 21 44 16 -112 0
20 15 21 44 16 -111 0
20 15 21 30 16 -105 0
20 15 21 30 16 -104 0
20 15 21 30 16 -106 0
20 15 21 30 16 -103 0
20 15 21 55 16 -120 0
20 15 21 55 16 -119 0
20 15 21 55 16 -121 0
20 15 21 55 16 -122 0
20 15 21 49 16 -116 0
20 15 21 49 16 -118 0
20 15 21 49 16 -115 0
20 15 21 49 16 -117 0
20 15 21 6 16 -22 0
20 15 21 6 16 -18 0
20 15 21 6 16 -17 0
20 15 21 6 16 -19 0
20 15 21 16 8 -74 0
20 15 21 16 8 -73 0
20 15 21 16 8 -75 0
20 15 21 16 8 -76 0
20 15 21 16 37 -109 0
20 15 21 16 37 -108 0
20 15 21 16 37 -107 0
20 15 21 16 37 -110 0
20 15 21 16 65 -125 0
20 15 21 16 65 -123 0
20 15 21 16 65 -126 0
20 15 21 16 65 -124 0
20 15 21 16 39 -114 0
20 15 21 16 39 -113 0
20 15 21 16 39 -112 0
20 15 21 16 39 -111 0
20 15 21 16 23 -105 0
20 15 21 16 23 -104 0
20 15 21 16 23 -106 0
20 15 21 16 23 -103 0
9 35 7 10 8 -82 0
9 35 7 10 8 -81 0
9 35 7 10 8 -84 0
9 35 7 10 8 -83 0
9 35 36 31 37 -82 0
9 35 36 31 37 -81 0
9 35 36 31 37 -84 0
9 35 36 31 37 -83 0
9 67 7 10 8 -97 0
9 67 7 10 8 -100 0
9 67 7 10 8 -98 0
9 67 7 10 8 -99 0
9 67 70 68 65 -97 0
9 67 70 68 65 -100 0
9 67 70 68 65 -98 0
9 67 70 68 65 -99 0
9 46 7 10 8 -86 0
9 46 7 10 8 -87 0
9 46 7 10 8 -85 0
9 46 7 10 8 -88 0
9 46 43 44 39 -86 0
9 46 43 44 39 -87 0
9 46 43 44 39 -85 0
9 46 43 44 39 -88 0
9 28 7 10 8 -77 0
9 28 7 10 8 -78 0
9 28 7 10 8 -79 0
9 28 7 10 8 -80 0
9 28 29 30 23 -77 0
9 28 29 30 23 -78 0
9 28 29 30 23 -79 0
9 28 29 30 23 -80 0
9 58 7 10 8 -95 0
9 58 7 10 8 -94 0
9 58 7 10 8 -96 0
9 58 7 10 8 -93 0
9 48 7 10 8 -92 0
9 48 7 10 8 -91 0
9 48 7 10 8 -90 0
9 48 7 10 8 -89 0
9 4 7 10 8 -12 0
9 4 7 10 8 -13 0
9 4 7 10 8 -14 0
9 4 7 10 8 -11 0
9 15 7 10 8 -74 0
9 15 7 10 8 -73 0
9 15 7 10 8 -75 0
9 15 7 10 8 -76 0
9 7 36 10 8 -82 0
9 7 36 10 8 -81 0
9 7 36 10 8 -84 0
9 7 36 10 8 -83 0
9 7 70 10 8 -97 0
9 7 70 10 8 -100 0
9 7 70 10 8 -98 0
9 7 70 10 8 -99 0
9 7 43 10 8 -86 0
9 7 43 10 8 -87 0
9 7 43 10 8 -85 0
9 7 43 10 8 -88 0
9 7 29 10 8 -77 0
9 7 29 10 8 -78 0
9 7 29 10 8 -79 0
9 7 29 10 8 -80 0
9 7 62 10 8 -95 0
9 7 62 10 8 -94 0
9 7 62 10 8 -96 0
9 7 62 10 8 -93 0
9 7 51 10 8 -92 0
9 7 51 10 8 -91 0
9 7 51 10 8 -90 0
9 7 51 10 8 -89 0
9 7 2 10 8 -12 0
9 7 2 10 8 -13 0
9 7 2 10 8 -14 0
9 7 2 10 8 -11 0
9 7 21 10 8 -74 0
9 7 21 10 8 -73 0
9 7 21 10 8 -75 0
9 7 21 10 8 -76 0
9 7 10 31 8 -82 0
9 7 10 31 8 -81 0
9 7 10 31 8 -84 0
9 7 10 31 8 -83 0
9 7 10 68 8 -97 0
9 7 10 68 8 -100 0
9 7 10 68 8 -98 0
9 7 10 68 8 -99 0
9 7 10 44 8 -86 0
9 7 10 44 8 -87 0
9 7 10 44 8 -85 0
9 7 10 44 8 -88 0
9 7 10 30 8 -77 0
9 7 10 30 8 -78 0
9 7 10 30 8 -79 0
9 7 10 30 8 -80 0
9 7 10 55 8 -95 0
9 7 10 55 8 -94 0
9 7 10 55 8 -96 0
9 7 10 55 8 -93 0
9 7 10 49 8 -92 0
9 7 10 49 8 -91 0
9 7 10 49 8 -90 0
9 7 10 49 8 -89 0
9 7 10 6 8 -12 0
9 7 10 6 8 -13 0
9 7 10 6 8 -14 0
9 7 10 6 8 -11 0
9 7 10 16 8 -74 0
9 7 10 16 8 -73 0
9 7 10 16 8 -75 0
9 7 10 16 8 -76 0
9 7 10 8 37 -82 0
9 7 10 8 37 -81 0
9 7 10 8 37 -84 0
9 7 10 8 37 -83 0
9 7 10 8 65 -97 0
9 7 10 8 65 -100 0
9 7 10 8 65 -98 0
9 7 10 8 65 -99 0
9 7 10 8 39 -86 0
9 7 10 8 39 -87 0
9 7 10 8 39 -85 0
9 7 10 8 39 -88 0
9 7 10 8 23 -77 0
9 7 10 8 23 -78 0
9 7 10 8 23 -79 0
9 7 10 8 23 -80 0
35 67 36 31 37 -164 0
35 67 36 31 37 -165 0
35 67 36 31 37 -163 0
35 67 36 31 37 -166 0
35 67 70 68 65 -164 0
35 67 70 68 65 -165 0
35 67 70 68 65 -163 0
35 67 70 68 65 -166 0
35 46 36 31 37 -152 0
35 46 36 31 37 -151 0
35 46 36 31 37 -153 0
35 46 36 31 37 -154 0
35 46 43 44 39 -152 0
35 46 43 44 39 -151 0
35 46 43 44 39 -153 0
35 46 43 44 39 -154 0
35 28 36 31 37 -129 0
35 28 36 31 37 -132 0
35 28 36 31 37 -131 0
35 28 36 31 37 -130 0
35 28 29 30 23 -129 0
35 28 29 30 23 -132 0
35 28 29 30 23 -131 0
35 28 29 30 23 -130 0
35 58 36 31 37 -161 0
35 58 36 31 37 -160 0
35 58 36 31 37 -162 0
35 58 36 31 37 -159 0
35 48 36 31 37 -155 0
35 48 36 31 37 -156 0
35 48 36 31 37 -158 0
35 48 36 31 37 -157 0
35 4 36 31 37 -32 0
35 4 36 31 37 -38 0
35 4 36 31 37 -33 0
35 4 36 31 37 -34 0
35 15 36 31 37 -109 0
35 15 36 31 37 -108 0
35 15 36 31 37 -107 0
35 15 36 31 37 -110 0
35 7 36 31 37 -82 0
35 7 36 31 37 -81 0
35 7 36 31 37 -84 0
35 7 36 31 37 -83 0
35 36 70 31 37 -164 0
35 36 70 31 37 -165 0
35 36 70 31 37 -163 0
35 36 70 31 37 -166 0
35 36 43 31 37 -152 0
35 36 43 31 37 -151 0
35 36 43 31 37 -153 0
35 36 43 31 37 -154 0
35 36 29 31 37 -129 0
35 36 29 31 37 -132 0
35 36 29 31 37 -131 0
35 36 29 31 37 -130 0
35 36 62 31 37 -161 0
35 36 62 31 37 -160 0
35 36 62 31 37 -162 0
35 36 62 31 37 -159 0
35 36 51 31 37 -155 0
35 36 51 31 37 -156 0
35 36 51 31 37 -158 0
35 36 51 31 37 -157 0
35 36 2 31 37 -32 0
35 36 2 31 37 -38 0
35 36 2 31 37 -33 0
35 36 2 31 37 -34 0
35 36 21 31 37 -109 0
35 36 21 31 37 -108 0
35 36 21 31 37 -107 0
35 36 21 31 37 -110 0
35 36 10 31 37 -82 0
35 36 10 31 37 -81 0
35 36 10 31 37 -84 0
35 36 10 31 37 -83 0
35 36 31 68 37 -164 0
35 36 31 68 37 -165 0
35 36 31 68 37 -163 0
35 36 31 68 37 -166 0
35 36 31 44 37 -152 0
35 36 31 44 37 -151 0
35 36 31 44 37 -153 0
35 36 31 44 37 -154 0
35 36 31 30 37 -129 0
35 36 31 30 37 -132 0
35 36 31 30 37 -131 0
35 36 31 30 37 -130 0
35 36 31 55 37 -161 0
35 36 31 55 37 -160 0
35 36 31 55 37 -162 0
35 36 31 55 37 -159 0
35 36 31 49 37 -155 0
35 36 31 49 37 -156 0
35 36 31 49 37 -158 0
35 36 31 49 37 -157 0
35 36 31 6 37 -32 0
35 36 31 6 37 -38 0
35 36 31 6 37 -33 0
35 36 31 6 37 -34 0
35 36 31 16 37 -109 0
35 36 31 16 37 -108 0
35 36 31 16 37 -107 0
35 36 31 16 37 -110 0
35 36 31 8 37 -82 0
35 36 31 8 37 -81 0
35 36 31 8 37 -84 0
35 36 31 8 37 -83 0
35 36 31 37 65 -164 0
35 36 31 37 65 -165 0
35 36 31 37 65 -163 0
35 36 31 37 65 -166 0
35 36 31 37 39 -152 0
35 36 31 37 39 -151 0
35 36 31 37 39 -153 0
35 36 31 37 39 -154 0
35 36 31 37 23 -129 0
35 36 31 37 23 -132 0
35 36 31 37 23 -131 0
35 36 31 37 23 -130 0
67 46 70 68 65 -178 0
67 46 70 68 65 -180 0
67 46 70 68 65 -179 0
67 46 70 68 65 -177 0
67 46 43 44 39 -178 0
67 46 43 44 39 -180 0
67 46 43 44 39 -179 0
67 46 43 44 39 -177 0
67 28 70 68 65 -145 0
67 28 70 68 65 -146 0
67 28 70 68 65 -147 0
67 28 70 68 65 -148 0
67 28 29 30 23 -145 0
67 28 29 30 23 -146 0
67 28 29 30 23 -147 0
67 28 29 30 23 -148 0
67 58 70 68 65 -193 0
67 58 70 68 65 -195 0
67 58 70 68 65 -194 0
67 58 70 68 65 -196 0
67 48 70 68 65 -188 0
67 48 70 68 65 -187 0
67 48 70 68 65 -189 0
67 48 70 68 65 -190 0
67 4 70 68 65 -63 0
67 4 70 68 65 -69 0
67 4 70 68 65 -64 0
67 4 70 68 65 -66 0
67 15 70 68 65 -125 0
67 15 70 68 65 -123 0
67 15 70 68 65 -126 0
67 15 70 68 65 -124 0
67 7 70 68 65 -97 0
67 7 70 68 65 -100 0
67 7 70 68 65 -98 0
67 7 70 68 65 -99 0
67 36 70 68 65 -164 0
67 36 70 68 65 -165 0
67 36 70 68 65 -163 0
67 36 70 68 65 -166 0
67 70 43 68 65 -178 0
67 70 43 68 65 -180 0
67 70 43 68 65 -179 0
67 70 43 68 65 -177 0
67 70 29 68 65 -145 0
67 70 29 68 65 -146 0
67 70 29 68 65 -147 0
67 70 29 68 65 -148 0
67 70 62 68 65 -193 0
67 70 62 68 65 -195 0
67 70 62 68 65 -194 0
67 70 62 68 65 -196 0
67 70 51 68 65 -188 0
67 70 51 68 65 -187 0
67 70 51 68 65 -189 0
67 70 51 68 65 -190 0
67 70 2 68 65 -63 0
67 70 2 68 65 -69 0
67 70 2 68 65 -64 0
67 70 2 68 65 -66 0
67 70 21 68 65 -125 0
67 70 21 68 65 -123 0
67 70 21 68 65 -126 0
67 70 21 68 65 -124 0
67 70 10 68 65 -97 0
67 70 10 68 65 -100 0
67 70 10 68 65 -98 0
67 70 10 68 65 -99 0
67 70 31 68 65 -164 0
67 70 31 68 65 -165 0
67 70 31 68 65 -163 0
67 70 31 68 65 -166 0
67 70 68 44 65 -178 0
67 70 68 44 65 -180 0
67 70 68 44 65 -179 0
67 70 68 44 65 -177 0
67 70 68 30 65 -145 0
67 70 68 30 65 -146 0
67 70 68 30 65 -147 0
67 70 68 30 65 -148 0
67 70 68 55 65 -193 0
67 70 68 55 65 -195 0
67 70 68 55 65 -194 0
67 70 68 55 65 -196 0
67 70 68 49 65 -188 0
67 70 68 49 65 -187 0
67 70 68 49 65 -189 0
67 70 68 49 65 -190 0
67 70 68 6 65 -63 0
67 70 68 6 65 -69 0
67 70 68 6 65 -64 0
67 70 68 6 65 -66 0
67 70 68 16 65 -125 0
67 70 68 16 65 -123 0
67 70 68 16 65 -126 0
67 70 68 16 65 -124 0
67 70 68 8 65 -97 0
67 70 68 8 65 -100 0
67 70 68 8 65 -98 0
67 70 68 8 65 -99 0
67 70 68 37 65 -164 0
67 70 68 37 65 -165 0
67 70 68 37 65 -163 0
67 70 68 37 65 -166 0
67 70 68 65 39 -178 0
67 70 68 65 39 -180 0
67 70 68 65 39 -179 0
67 70 68 65 39 -177 0
67 70 68 65 23 -145 0
67 70 68 65 23 -146 0
67 70 68 65 23 -147 0
67 70 68 65 23 -148 0
46 28 43 44 39 -134 0
46 28 43 44 39 -136 0
46 28 43 44 39 -135 0
46 28 43 44 39 -133 0
46 28 29 30 23 -134 0
46 28 29 30 23 -136 0
46 28 29 30 23 -135 0
46 28 29 30 23 -133 0
46 58 43 44 39 -176 0
46 58 43 44 39 -174 0
46 58 43 44 39 -173 0
46 58 43 44 39 -175 0
46 48 43 44 39 -171 0
46 48 43 44 39 -172 0
46 48 43 44 39 -170 0
46 48 43 44 39 -169 0
46 4 43 44 39 -40 0
46 4 43 44 39 -41 0
46 4 43 44 39 -45 0
46 4 43 44 39 -42 0
46 15 43 44 39 -114 0
46 15 43 44 39 -113 0
46 15 43 44 39 -112 0
46 15 43 44 39 -111 0
46 7 43 44 39 -86 0
46 7 43 44 39 -87 0
46 7 43 44 39 -85 0
46 7 43 44 39 -88 0
46 36 43 44 39 -152 0
46 36 43 44 39 -151 0
46 36 43 44 39 -153 0
46 36 43 44 39 -154 0
46 70 43 44 39 -178 0
46 70 43 44 39 -180 0
46 70 43 44 39 -179 0
46 70 43 44 39 -177 0
46 43 29 44 39 -134 0
46 43 29 44 39 -136 0
46 43 29 44 39 -135 0
46 43 29 44 39 -133 0
46 43 62 44 39 -176 0
46 43 62 44 39 -174 0
46 43 62 44 39 -173 0
46 43 62 44 39 -175 0
46 43 51 44 39 -171 0
46 43 51 44 39 -172 0
46 43 51 44 39 -170 0
46 43 51 44 39 -169 0
46 43 2 44 39 -40 0
46 43 2 44 39 -41 0
46 43 2 44 39 -45 0
46 43 2 44 39 -42 0
46 43 21 44 39 -114 0
46 43 21 44 39 -113 0
46 43 21 44 39 -112 0
46 43 21 44 39 -111 0
46 43 10 44 39 -86 0
46 43 10 44 39 -87 0
46 43 10 44 39 -85 0
46 43 10 44 39 -88 0
46 43 31 44 39 -152 0
46 43 31 44 39 -151 0
46 43 31 44 39 -153 0
46 43 31 44 39 -154 0
46 43 68 44 39 -178 0
46 43 68 44 39 -180 0
46 43 68 44 39 -179 0
46 43 68 44 39 -177 0
46 43 44 30 39 -134 0
46 43 44 30 39 -136 0
46 43 44 30 39 -135 0
46 43 44 30 39 -133 0
46 43 44 55 39 -176 0
46 43 44 55 39 -174 0
46 43 44 55 39 -173 0
46 43 44 55 39 -175 0
46 43 44 49 39 -171 0
46 43 44 49 39 -172 0
46 43 44 49 39 -170 0
46 43 44 49 39 -169 0
46 43 44 6 39 -40 0
46 43 44 6 39 -41 0
46 43 44 6 39 -45 0
46 43 44 6 39 -42 0
46 43 44 16 39 -114 0
46 43 44 16 39 -113 0
46 43 44 16 39 -112 0
46 43 44 16 39 -111 0
46 43 44 8 39 -86 0
46 43 44 8 39 -87 0
46 43 44 8 39 -85 0
46 43 44 8 39 -88 0
46 43 44 37 39 -152 0
46 43 44 37 39 -151 0
46 43 44 37 39 -153 0
46 43 44 37 39 -154 0
46 43 44 65 39 -178 0
46 43 44 65 39 -180 0
46 43 44 65 39 -179 0
46 43 44 65 39 -177 0
46 43 44 39 23 -134 0
46 43 44 39 23 -136 0
46 43 44 39 23 -135 0
46 43 44 39 23 -133 0
28 58 29 30 23 -142 0
28 58 29 30 23 -143 0
28 58 29 30 23 -141 0
28 58 29 30 23 -144 0
28 48 29 30 23 -139 0
28 48 29 30 23 -140 0
28 48 29 30 23 -137 0
28 48 29 30 23 -138 0
28 4 29 30 23 -24 0
28 4 29 30 23 -25 0
28 4 29 30 23 -26 0
28 4 29 30 23 -27 0
28 15 29 30 23 -105 0
28 15 29 30 23 -104 0
28 15 29 30 23 -106 0
28 15 29 30 23 -103 0
28 7 29 30 23 -77 0
28 7 29 30 23 -78 0
28 7 29 30 23 -79 0
28 7 29 30 23 -80 0
28 36 29 30 23 -129 0
28 36 29 30 23 -132 0
28 36 29 30 23 -131 0
28 36 29 30 23 -130 0
28 70 29 30 23 -145 0
28 70 29 30 23 -146 0
28 70 29 30 23 -147 0
28 70 29 30 23 -148 0
28 43 29 30 23 -134 0
28 43 29 30 23 -136 0
28 43 29 30 23 -135 0
28 43 29 30 23 -133 0
28 29 62 30 23 -142 0
28 29 62 30 23 -143 0
28 29 62 30 23 -141 0
28 29 62 30 23 -144 0
28 29 51 30 23 -139 0
28 29 51 30 23 -140 0
28 29 51 30 23 -137 0
28 29 51 30 23 -138 0
28 29 2 30 23 -24 0
28 29 2 30 23 -25 0
28 29 2 30 23 -26 0
28 29 2 30 23 -27 0
28 29 21 30 23 -105 0
28 29 21 30 23 -104 0
28 29 21 30 23 -106 0
28 29 21 30 23 -103 0
28 29 10 30 23 -77 0
28 29 10 30 23 -78 0
28 29 10 30 23 -79 0
28 29 10 30 23 -80 0
28 29 31 30 23 -129 0
28 29 31 30 23 -132 0
28 29 31 30 23 -131 0
28 29 31 30 23 -130 0
28 29 68 30 23 -145 0
28 29 68 30 23 -146 0
28 29 68 30 23 -147 0
28 29 68 30 23 -148 0
28 29 44 30 23 -134 0
28 29 44 30 23 -136 0
28 29 44 30 23 -135 0
28 29 44 30 23 -133 0
28 29 30 55 23 -142 0
28 29 30 55 23 -143 0
28 29 30 55 23 -141 0
28 29 30 55 23 -144 0
28 29 30 49 23 -139 0
28 29 30 49 23 -140 0
28 29 30 49 23 -137 0
28 29 30 49 23 -138 0
28 29 30 6 23 -24 0
28 29 30 6 23 -25 0
28 29 30 6 23 -26 0
28 29 30 6 23 -27 0
28 29 30 16 23 -105 0
28 29 30 16 23 -104 0
28 29 30 16 23 -106 0
28 29 30 16 23 -103 0
28 29 30 8 23 -77 0
28 29 30 8 23 -78 0
28 29 30 8 23 -79 0
28 29 30 8 23 -80 0
28 29 30 37 23 -129 0
28 29 30 37 23 -132 0
28 29 30 37 23 -131 0
28 29 30 37 23 -130 0
28 29 30 65 23 -145 0
28 29 30 65 23 -146 0
28 29 30 65 23 -147 0
28 29 30 65 23 -148 0
28 29 30 39 23 -134 0
28 29 30 39 23 -136 0
28 29 30 39 23 -135 0
28 29 30 39 23 -133 0
60 53 58 48 62 51 -184 0
60 53 58 48 62 51 -186 0
60 53 58 48 62 51 -183 0
60 53 58 48 62 51 -185 0
60 53 58 48 62 55 -184 0
60 53 58 48 62 55 -186 0
60 53 58 48 62 55 -183 0
60 53 58 48 62 55 -185 0
60 53 58 48 51 49 -184 0
60 53 58 48 51 49 -186 0
60 53 58 48 51 49 -183 0
60 53 58 48 51 49 -185 0
60 53 58 48 55 49 -184 0
60 53 58 48 55 49 -186 0
60 53 58 48 55 49 -183 0
60 53 58 48 55 49 -185 0
60 53 58 62 51 55 -184 0
60 53 58 62 51 55 -186 0
60 53 58 62 51 55 -183 0
60 53 58 62 51 55 -185 0
60 53 58 62 55 49 -184 0
60 53 58 62 55 49 -186 0
60 53 58 62 55 49 -183 0
60 53 58 62 55 49 -185 0
60 53 48 62 51 49 -184 0
60 53 48 62 51 49 -186 0
60 53 48 62 51 49 -183 0
60 53 48 62 51 49 -185 0
60 53 48 51 55 49 -184 0
60 53 48 51 55 49 -186 0
60 53 48 51 55 49 -183 0
60 53 48 51 55 49 -185 0
60 53 62 51 55 49 -184 0
60 53 62 51 55 49 -186 0
60 53 62 51 55 49 -183 0
60 53 62 51 55 49 -185 0
60 5 58 4 62 2 -61 0
60 5 58 4 62 2 -59 0
60 5 58 4 62 2 -57 0
60 5 58 4 62 2 -56 0
60 5 58 4 62 55 -61 0
60 5 58 4 62 55 -59 0
60 5 58 4 62 55 -57 0
60 5 58 4 62 55 -56 0
60 5 58 4 2 6 -61 0
60 5 58 4 2 6 -59 0
60 5 58 4 2 6 -57 0
60 5 58 4 2 6 -56 0
60 5 58 4 55 6 -61 0
60 5 58 4 55 6 -59 0
60 5 58 4 55 6 -57 0
60 5 58 4 55 6 -56 0
60 5 58 62 2 55 -61 0
60 5 58 62 2 55 -59 0
60 5 58 62 2 55 -57 0
60 5 58 62 2 55 -56 0
60 5 58 62 55 6 -61 0
60 5 58 62 55 6 -59 0
60 5 58 62 55 6 -57 0
60 5 58 62 55 6 -56 0
60 5 4 62 2 6 -61 0
60 5 4 62 2 6 -59 0
60 5 4 62 2 6 -57 0
60 5 4 62 2 6 -56 0
60 5 4 2 55 6 -61 0
60 5 4 2 55 6 -59 0
60 5 4 2 55 6 -57 0
60 5 4 2 55 6 -56 0
60 5 62 2 55 6 -61 0
60 5 62 2 55 6 -59 0
60 5 62 2 55 6 -57 0
60 5 62 2 55 6 -56 0
60 20 58 15 62 21 -120 0
60 20 58 15 62 21 -119 0
60 20 58 15 62 21 -121 0
60 20 58 15 62 21 -122 0
60 20 58 15 62 55 -120 0
60 20 58 15 62 55 -119 0
60 20 58 15 62 55 -121 0
60 20 58 15 62 55 -122 0
60 20 58 15 21 16 -120 0
60 20 58 15 21 16 -119 0
60 20 58 15 21 16 -121 0
60 20 58 15 21 16 -122 0
60 20 58 15 55 16 -120 0
60 20 58 15 55 16 -119 0
60 20 58 15 55 16 -121 0
60 20 58 15 55 16 -122 0
60 20 58 62 21 55 -120 0
60 20 58 62 21 55 -119 0
60 20 58 62 21 55 -121 0
60 20 58 62 21 55 -122 0
60 20 58 62 55 16 -120 0
60 20 58 62 55 16 -119 0
60 20 58 62 55 16 -121 0
60 20 58 62 55 16 -122 0
60 20 15 62 21 16 -120 0
60 20 15 62 21 16 -119 0
60 20 15 62 21 16 -121 0
60 20 15 62 21 16 -122 0
60 20 15 21 55 16 -120 0
60 20 15 21 55 16 -119 0
60 20 15 21 55 16 -121 0
60 20 15 21 55 16 -122 0
60 20 62 21 55 16 -120 0
60 20 62 21 55 16 -119 0
60 20 62 21 55 16 -121 0
60 20 62 21 55 16 -122 0
60 9 58 7 62 10 -95 0
60 9 58 7 62 10 -94 0
60 9 58 7 62 10 -96 0
60 9 58 7 62 10 -93 0
60 9 58 7 62 55 -95 0
60 9 58 7 62 55 -94 0
60 9 58 7 62 55 -96 0
60 9 58 7 62 55 -93 0
60 9 58 7 10 8 -95 0
60 9 58 7 10 8 -94 0
60 9 58 7 10 8 -96 0
60 9 58 7 10 8 -93 0
60 9 58 7 55 8 -95 0
60 9 58 7 55 8 -94 0
60 9 58 7 55 8 -96 0
60 9 58 7 55 8 -93 0
60 9 58 62 10 55 -95 0
60 9 58 62 10 55 -94 0
60 9 58 62 10 55 -96 0
60 9 58 62 10 55 -93 0
60 9 58 62 55 8 -95 0
60 9 58 62 55 8 -94 0
60 9 58 62 55 8 -96 0
60 9 58 62 55 8 -93 0
60 9 7 62 10 8 -95 0
60 9 7 62 10 8 -94 0
60 9 7 62 10 8 -96 0
60 9 7 62 10 8 -93 0
60 9 7 10 55 8 -95 0
60 9 7 10 55 8 -94 0
60 9 7 10 55 8 -96 0
60 9 7 10 55 8 -93 0
60 9 62 10 55 8 -95 0
60 9 62 10 55 8 -94 0
60 9 62 10 55 8 -96 0
60 9 62 10 55 8 -93 0
60 35 58 36 62 31 -161 0
60 35 58 36 62 31 -160 0
60 35 58 36 62 31 -162 0
60 35 58 36 62 31 -159 0
60 35 58 36 62 55 -161 0
60 35 58 36 62 55 -160 0
60 35 58 36 62 55 -162 0
60 35 58 36 62 55 -159 0
60 35 58 36 31 37 -161 0
60 35 58 36 31 37 -160 0
60 35 58 36 31 37 -162 0
60 35 58 36 31 37 -159 0
60 35 58 36 55 37 -161 0
60 35 58 36 55 37 -160 0
60 35 58 36 55 37 -162 0
60 35 58 36 55 37 -159 0
60 35 58 62 31 55 -161 0
60 35 58 62 31 55 -160 0
60 35 58 62 31 55 -162 0
60 35 58 62 31 55 -159 0
60 35 58 62 55 37 -161 0
60 35 58 62 55 37 -160 0
60 35 58 62 55 37 -162 0
60 35 58 62 55 37 -159 0
60 35 36 62 31 37 -161 0
60 35 36 62 31 37 -160 0
60 35 36 62 31 37 -162 0
60 35 36 62 31 37 -159 0
60 35 36 31 55 37 -161 0
60 35 36 31 55 37 -160 0
60 35 36 31 55 37 -162 0
60 35 36 31 55 37 -159 0
60 35 62 31 55 37 -161 0
60 35 62 31 55 37 -160 0
60 35 62 31 55 37 -162 0
60 35 62 31 55 37 -159 0
60 67 58 70 62 68 -193 0
60 67 58 70 62 68 -195 0
60 67 58 70 62 68 -194 0
60 67 58 70 62 68 -196 0
60 67 58 70 62 55 -193 0
60 67 58 70 62 55 -195 0
60 67 58 70 62 55 -194 0
60 67 58 70 62 55 -196 0
60 67 58 70 68 65 -193 0
60 67 58 70 68 65 -195 0
60 67 58 70 68 65 -194 0
60 67 58 70 68 65 -196 0
60 67 58 70 55 65 -193 0
60 67 58 70 55 65 -195 0
60 67 58 70 55 65 -194 0
60 67 58 70 55 65 -196 0
60 67 58 62 68 55 -193 0
60 67 58 62 68 55 -195 0
60 67 58 62 68 55 -194 0
60 67 58 62 68 55 -196 0
60 67 58 62 55 65 -193 0
60 67 58 62 55 65 -195 0
60 67 58 62 55 65 -194 0
60 67 58 62 55 65 -196 0
60 67 70 62 68 65 -193 0
60 67 70 62 68 65 -195 0
60 67 70 62 68 65 -194 0
60 67 70 62 68 65 -196 0
60 67 70 68 55 65 -193 0
60 67 70 68 55 65 -195 0
60 67 70 68 55 65 -194 0
60 67 70 68 55 65 -196 0
60 67 62 68 55 65 -193 0
60 67 62 68 55 65 -195 0
60 67 62 68 55 65 -194 0
60 67 62 68 55 65 -196 0
60 46 58 43 62 44 -176 0
60 46 58 43 62 44 -174 0
60 46 58 43 62 44 -173 0
60 46 58 43 62 44 -175 0
60 46 58 43 62 55 -176 0
60 46 58 43 62 55 -174 0
60 46 58 43 62 55 -173 0
60 46 58 43 62 55 -175 0
60 46 58 43 44 39 -176 0
60 46 58 43 44 39 -174 0
60 46 58 43 44 39 -173 0
60 46 58 43 44 39 -175 0
60 46 58 43 55 39 -176 0
60 46 58 43 55 39 -174 0
60 46 58 43 55 39 -173 0
60 46 58 43 55 39 -175 0
60 46 58 62 44 55 -176 0
60 46 58 62 44 55 -174 0
60 46 58 62 44 55 -173 0
60 46 58 62 44 55 -175 0
60 46 58 62 55 39 -176 0
60 46 58 62 55 39 -174 0
60 46 58 62 55 39 -173 0
60 46 58 62 55 39 -175 0
60 46 43 62 44 39 -176 0
60 46 43 62 44 39 -174 0
60 46 43 62 44 39 -173 0
60 46 43 62 44 39 -175 0
60 46 43 44 55 39 -176 0
60 46 43 44 55 39 -174 0
60 46 43 44 55 39 -173 0
60 46 43 44 55 39 -175 0
60 46 62 44 55 39 -176 0
60 46 62 44 55 39 -174 0
60 46 62 44 55 39 -173 0
60 46 62 44 55 39 -175 0
60 28 58 29 62 30 -142 0
60 28 58 29 62 30 -143 0
60 28 58 29 62 30 -141 0
60 28 58 29 62 30 -144 0
60 28 58 29 62 55 -142 0
60 28 58 29 62 55 -143 0
60 28 58 29 62 55 -141 0
60 28 58 29 62 55 -144 0
60 28 58 29 30 23 -142 0
60 28 58 29 30 23 -143 0
60 28 58 29 30 23 -141 0
60 28 58 29 30 23 -144 0
60 28 58 29 55 23 -142 0
60 28 58 29 55 23 -143 0
60 28 58 29 55 23 -141 0
60 28 58 29 55 23 -144 0
60 28 58 62 30 55 -142 0
60 28 58 62 30 55 -143 0
60 28 58 62 30 55 -141 0
60 28 58 62 30 55 -144 0
60 28 58 62 55 23 -142 0
60 28 58 62 55 23 -143 0
60 28 58 62 55 23 -141 0
60 28 58 62 55 23 -144 0
60 28 29 62 30 23 -142 0
60 28 29 62 30 23 -143 0
60 28 29 62 30 23 -141 0
60 28 29 62 30 23 -144 0
60 28 29 30 55 23 -142 0
60 28 29 30 55 23 -143 0
60 28 29 30 55 23 -141 0
60 28 29 30 55 23 -144 0
60 28 62 30 55 23 -142 0
60 28 62 30 55 23 -143 0
60 28 62 30 55 23 -141 0
60 28 62 30 55 23 -144 0
60 58 48 62 51 55 -184 0
60 58 48 62 51 55 -186 0
60 58 48 62 51 55 -183 0
60 58 48 62 51 55 -185 0
60 58 48 62 55 49 -184 0
60 58 48 62 55 49 -186 0
60 58 48 62 55 49 -183 0
60 58 48 62 55 49 -185 0
60 58 4 62 2 55 -61 0
60 58 4 62 2 55 -59 0
60 58 4 62 2 55 -57 0
60 58 4 62 2 55 -56 0
60 58 4 62 55 6 -61 0
60 58 4 62 55 6 -59 0
60 58 4 62 55 6 -57 0
60 58 4 62 55 6 -56 0
60 58 15 62 21 55 -120 0
60 58 15 62 21 55 -119 0
60 58 15 62 21 55 -121 0
60 58 15 62 21 55 -122 0
60 58 15 62 55 16 -120 0
60 58 15 62 55 16 -119 0
60 58 15 62 55 16 -121 0
60 58 15 62 55 16 -122 0
60 58 7 62 10 55 -95 0
60 58 7 62 10 55 -94 0
60 58 7 62 10 55 -96 0
60 58 7 62 10 55 -93 0
60 58 7 62 55 8 -95 0
60 58 7 62 55 8 -94 0
60 58 7 62 55 8 -96 0
60 58 7 62 55 8 -93 0
60 58 36 62 31 55 -161 0
60 58 36 62 31 55 -160 0
60 58 36 62 31 55 -162 0
60 58 36 62 31 55 -159 0
60 58 36 62 55 37 -161 0
60 58 36 62 55 37 -160 0
60 58 36 62 55 37 -162 0
60 58 36 62 55 37 -159 0
60 58 70 62 68 55 -193 0
60 58 70 62 68 55 -195 0
60 58 70 62 68 55 -194 0
60 58 70 62 68 55 -196 0
60 58 70 62 55 65 -193 0
60 58 70 62 55 65 -195 0
60 58 70 62 55 65 -194 0
60 58 70 62 55 65 -196 0
60 58 43 62 44 55 -176 0
60 58 43 62 44 55 -174 0
60 58 43 62 44 55 -173 0
60 58 43 62 44 55 -175 0
60 58 43 62 55 39 -176 0
60 58 43 62 55 39 -174 0
60 58 43 62 55 39 -173 0
60 58 43 62 55 39 -175 0
60 58 29 62 30 55 -142 0
60 58 29 62 30 55 -143 0
60 58 29 62 30 55 -141 0
60 58 29 62 30 55 -144 0
60 58 29 62 55 23 -142 0
60 58 29 62 55 23 -143 0
60 58 29 62 55 23 -141 0
60 58 29 62 55 23 -144 0
60 58 62 51 55 49 -184 0
60 58 62 51 55 49 -186 0
60 58 62 51 55 49 -183 0
60 58 62 51 55 49 -185 0
60 58 62 2 55 6 -61 0
60 58 62 2 55 6 -59 0
60 58 62 2 55 6 -57 0
60 58 62 2 55 6 -56 0
60 58 62 21 55 16 -120 0
60 58 62 21 55 16 -119 0
60 58 62 21 55 16 -121 0
60 58 62 21 55 16 -122 0
60 58 62 10 55 8 -95 0
60 58 62 10 55 8 -94 0
60 58 62 10 55 8 -96 0
60 58 62 10 55 8 -93 0
60 58 62 31 55 37 -161 0
60 58 62 31 55 37 -160 0
60 58 62 31 55 37 -162 0
60 58 62 31 55 37 -159 0
60 58 62 68 55 65 -193 0
60 58 62 68 55 65 -195 0
60 58 62 68 55 65 -194 0
60 58 62 68 55 65 -196 0
60 58 62 44 55 39 -176 0
60 58 62 44 55 39 -174 0
60 58 62 44 55 39 -173 0
60 58 62 44 55 39 -175 0
60 58 62 30 55 23 -142 0
60 58 62 30 55 23 -143 0
60 58 62 30 55 23 -141 0
60 58 62 30 55 23 -144 0
53 5 48 4 51 2 -47 0
53 5 48 4 51 2 -50 0
53 5 48 4 51 2 -54 0
53 5 48 4 51 2 -52 0
53 5 48 4 51 49 -47 0
53 5 48 4 51 49 -50 0
53 5 48 4 51 49 -54 0
53 5 48 4 51 49 -52 0
53 5 48 4 2 6 -47 0
53 5 48 4 2 6 -50 0
53 5 48 4 2 6 -54 0
53 5 48 4 2 6 -52 0
53 5 48 4 49 6 -47 0
53 5 48 4 49 6 -50 0
53 5 48 4 49 6 -54 0
53 5 48 4 49 6 -52 0
53 5 48 51 2 49 -47 0
53 5 48 51 2 49 -50 0
53 5 48 51 2 49 -54 0
53 5 48 51 2 49 -52 0
53 5 48 51 49 6 -47 0
53 5 48 51 49 6 -50 0
53 5 48 51 49 6 -54 0
53 5 48 51 49 6 -52 0
53 5 4 51 2 6 -47 0
53 5 4 51 2 6 -50 0
53 5 4 51 2 6 -54 0
53 5 4 51 2 6 -52 0
53 5 4 2 49 6 -47 0
53 5 4 2 49 6 -50 0
53 5 4 2 49 6 -54 0
53 5 4 2 49 6 -52 0
53 5 51 2 49 6 -47 0
53 5 51 2 49 6 -50 0
53 5 51 2 49 6 -54 0
53 5 51 2 49 6 -52 0
53 20 48 15 51 21 -116 0
53 20 48 15 51 21 -118 0
53 20 48 15 51 21 -115 0
53 20 48 15 51 21 -117 0
53 20 48 15 51 49 -116 0
53 20 48 15 51 49 -118 0
53 20 48 15 51 49 -115 0
53 20 48 15 51 49 -117 0
53 20 48 15 21 16 -116 0
53 20 48 15 21 16 -118 0
53 20 48 15 21 16 -115 0
53 20 48 15 21 16 -117 0
53 20 48 15 49 16 -116 0
53 20 48 15 49 16 -118 0
53 20 48 15 49 16 -115 0
53 20 48 15 49 16 -117 0
53 20 48 51 21 49 -116 0
53 20 48 51 21 49 -118 0
53 20 48 51 21 49 -115 0
53 20 48 51 21 49 -117 0
53 20 48 51 49 16 -116 0
53 20 48 51 49 16 -118 0
53 20 48 51 49 16 -115 0
53 20 48 51 49 16 -117 0
53 20 15 51 21 16 -116 0
53 20 15 51 21 16 -118 0
53 20 15 51 21 16 -115 0
53 20 15 51 21 16 -117 0
53 20 15 21 49 16 -116 0
53 20 15 21 49 16 -118 0
53 20 15 21 49 16 -115 0
53 20 15 21 49 16 -117 0
53 20 51 21 49 16 -116 0
53 20 51 21 49 16 -118 0
53 20 51 21 49 16 -115 0
53 20 51 21 49 16 -117 0
53 9 48 7 51 10 -92 0
53 9 48 7 51 10 -91 0
53 9 48 7 51 10 -90 0
53 9 48 7 51 10 -89 0
53 9 48 7 51 49 -92 0
53 9 48 7 51 49 -91 0
53 9 48 7 51 49 -90 0
53 9 48 7 51 49 -89 0
53 9 48 7 10 8 -92 0
53 9 48 7 10 8 -91 0
53 9 48 7 10 8 -90 0
53 9 48 7 10 8 -89 0
53 9 48 7 49 8 -92 0
53 9 48 7 49 8 -91 0
53 9 48 7 49 8 -90 0
53 9 48 7 49 8 -89 0
53 9 48 51 10 49 -92 0
53 9 48 51 10 49 -91 0
53 9 48 51 10 49 -90 0
53 9 48 51 10 49 -89 0
53 9 48 51 49 8 -92 0
53 9 48 51 49 8 -91 0
53 9 48 51 49 8 -90 0
53 9 48 51 49 8 -89 0
53 9 7 51 10 8 -92 0
53 9 7 51 10 8 -91 0
53 9 7 51 10 8 -90 0
53 9 7 51 10 8 -89 0
53 9 7 10 49 8 -92 0
53 9 7 10 49 8 -91 0
53 9 7 10 49 8 -90 0
53 9 7 10 49 8 -89 0
53 9 51 10 49 8 -92 0
53 9 51 10 49 8 -91 0
53 9 51 10 49 8 -90 0
53 9 51 10 49 8 -89 0
53 35 48 36 51 31 -155 0
53 35 48 36 51 31 -156 0
53 35 48 36 51 31 -158 0
53 35 48 36 51 31 -157 0
53 35 48 36 51 49 -155 0
53 35 48 36 51 49 -156 0
53 35 48 36 51 49 -158 0
53 35 48 36 51 49 -157 0
53 35 48 36 31 37 -155 0
53 35 48 36 31 37 -156 0
53 35 48 36 31 37 -158 0
53 35 48 36 31 37 -157 0
53 35 48 36 49 37 -155 0
53 35 48 36 49 37 -156 0
53 35 48 36 49 37 -158 0
53 35 48 36 49 37 -157 0
53 35 48 51 31 49 -155 0
53 35 48 51 31 49 -156 0
53 35 48 51 31 49 -158 0
53 35 48 51 31 49 -157 0
53 35 48 51 49 37 -155 0
53 35 48 51 49 37 -156 0
53 35 48 51 49 37 -158 0
53 35 48 51 49 37 -157 0
53 35 36 51 31 37 -155 0
53 35 36 51 31 37 -156 0
53 35 36 51 31 37 -158 0
53 35 36 51 31 37 -157 0
53 35 36 31 49 37 -155 0
53 35 36 31 49 37 -156 0
53 35 36 31 49 37 -158 0
53 35 36 31 49 37 -157 0
53 35 51 31 49 37 -155 0
53 35 51 31 49 37 -156 0
53 35 51 31 49 37 -158 0
53 35 51 31 49 37 -157 0
53 67 48 70 51 68 -188 0
53 67 48 70 51 68 -187 0
53 67 48 70 51 68 -189 0
53 67 48 70 51 68 -190 0
53 67 48 70 51 49 -188 0
53 67 48 70 51 49 -187 0
53 67 48 70 51 49 -189 0
53 67 48 70 51 49 -190 0
53 67 48 70 68 65 -188 0
53 67 48 70 68 65 -187 0
53 67 48 70 68 65 -189 0
53 67 48 70 68 65 -190 0
53 67 48 70 49 65 -188 0
53 67 48 70 49 65 -187 0
53 67 48 70 49 65 -189 0
53 67 48 70 49 65 -190 0
53 67 48 51 68 49 -188 0
53 67 48 51 68 49 -187 0
53 67 48 51 68 49 -189 0
53 67 48 51 68 49 -190 0
53 67 48 51 49 65 -188 0
53 67 48 51 49 65 -187 0
53 67 48 51 49 65 -189 0
53 67 48 51 49 65 -190 0
53 67 70 51 68 65 -188 0
53 67 70 51 68 65 -187 0
53 67 70 51 68 65 -189 0
53 67 70 51 68 65 -190 0
53 67 70 68 49 65 -188 0
53 67 70 68 49 65 -187 0
53 67 70 68 49 65 -189 0
53 67 70 68 49 65 -190 0
53 67 51 68 49 65 -188 0
53 67 51 68 49 65 -187 0
53 67 51 68 49 65 -189 0
53 67 51 68 49 65 -190 0
53 46 48 43 51 44 -171 0
53 46 48 43 51 44 -172 0
53 46 48 43 51 44 -170 0
53 46 48 43 51 44 -169 0
53 46 48 43 51 49 -171 0
53 46 48 43 51 49 -172 0
53 46 48 43 51 49 -170 0
53 46 48 43 51 49 -169 0
53 46 48 43 44 39 -171 0
53 46 48 43 44 39 -172 0
53 46 48 43 44 39 -170 0
53 46 48 43 44 39 -169 0
53 46 48 43 49 39 -171 0
53 46 48 43 49 39 -172 0
53 46 48 43 49 39 -170 0
53 46 48 43 49 39 -169 0
53 46 48 51 44 49 -171 0
53 46 48 51 44 49 -172 0
53 46 48 51 44 49 -170 0
53 46 48 51 44 49 -169 0
53 46 48 51 49 39 -171 0
53 46 48 51 49 39 -172 0
53 46 48 51 49 39 -170 0
53 46 48 51 49 39 -169 0
53 46 43 51 44 39 -171 0
53 46 43 51 44 39 -172 0
53 46 43 51 44 39 -170 0
53 46 43 51 44 39 -169 0
53 46 43 44 49 39 -171 0
53 46 43 44 49 39 -172 0
53 46 43 44 49 39 -170 0
53 46 43 44 49 39 -169 0
53 46 51 44 49 39 -171 0
53 46 51 44 49 39 -172 0
53 46 51 44 49 39 -170 0
53 46 51 44 49 39 -169 0
53 28 48 29 51 30 -139 0
53 28 48 29 51 30 -140 0
53 28 48 29 51 30 -137 0
53 28 48 29 51 30 -138 0
53 28 48 29 51 49 -139 0
53 28 48 29 51 49 -140 0
53 28 48 29 51 49 -137 0
53 28 48 29 51 49 -138 0
53 28 48 29 30 23 -139 0
53 28 48 29 30 23 -140 0
53 28 48 29 30 23 -137 0
53 28 48 29 30 23 -138 0
53 28 48 29 49 23 -139 0
53 28 48 29 49 23 -140 0
53 28 48 29 49 23 -137 0
53 28 48 29 49 23 -138 0
53 28 48 51 30 49 -139 0
53 28 48 51 30 49 -140 0
53 28 48 51 30 49 -137 0
53 28 48 51 30 49 -138 0
53 28 48 51 49 23 -139 0
53 28 48 51 49 23 -140 0
53 28 48 51 49 23 -137 0
53 28 48 51 49 23 -138 0
53 28 29 51 30 23 -139 0
53 28 29 51 30 23 -140 0
53 28 29 51 30 23 -137 0
53 28 29 51 30 23 -138 0
53 28 29 30 49 23 -139 0
53 28 29 30 49 23 -140 0
53 28 29 30 49 23 -137 0
53 28 29 30 49 23 -138 0
53 28 51 30 49 23 -139 0
53 28 51 30 49 23 -140 0
53 28 51 30 49 23 -137 0
53 28 51 30 49 23 -138 0
53 58 48 62 51 49 -184 0
53 58 48 62 51 49 -186 0
53 58 48 62 51 49 -183 0
53 58 48 62 51 49 -185 0
53 58 48 51 55 49 -184 0
53 58 48 51 55 49 -186 0
53 58 48 51 55 49 -183 0
53 58 48 51 55 49 -185 0
53 48 4 51 2 49 -47 0
53 48 4 51 2 49 -50 0
53 48 4 51 2 49 -54 0
53 48 4 51 2 49 -52 0
53 48 4 51 49 6 -47 0
53 48 4 51 49 6 -50 0
53 48 4 51 49 6 -54 0
53 48 4 51 49 6 -52 0
53 48 15 51 21 49 -116 0
53 48 15 51 21 49 -118 0
53 48 15 51 21 49 -115 0
53 48 15 51 21 49 -117 0
53 48 15 51 49 16 -116 0
53 48 15 51 49 16 -118 0
53 48 15 51 49 16 -115 0
53 48 15 51 49 16 -117 0
53 48 7 51 10 49 -92 0
53 48 7 51 10 49 -91 0
53 48 7 51 10 49 -90 0
53 48 7 51 10 49 -89 0
53 48 7 51 49 8 -92 0
53 48 7 51 49 8 -91 0
53 48 7 51 49 8 -90 0
53 48 7 51 49 8 -89 0
53 48 36 51 31 49 -155 0
53 48 36 51 31 49 -156 0
53 48 36 51 31 49 -158 0
53 48 36 51 31 49 -157 0
53 48 36 51 49 37 -155 0
53 48 36 51 49 37 -156 0
53 48 36 51 49 37 -158 0
53 48 36 51 49 37 -157 0
53 48 70 51 68 49 -188 0
53 48 70 51 68 49 -187 0
53 48 70 51 68 49 -189 0
53 48 70 51 68 49 -190 0
53 48 70 51 49 65 -188 0
53 48 70 51 49 65 -187 0
53 48 70 51 49 65 -189 0
53 48 70 51 49 65 -190 0
53 48 43 51 44 49 -171 0
53 48 43 51 44 49 -172 0
53 48 43 51 44 49 -170 0
53 48 43 51 44 49 -169 0
53 48 43 51 49 39 -171 0
53 48 43 51 49 39 -172 0
53 48 43 51 49 39 -170 0
53 48 43 51 49 39 -169 0
53 48 29 51 30 49 -139 0
53 48 29 51 30 49 -140 0
53 48 29 51 30 49 -137 0
53 48 29 51 30 49 -138 0
53 48 29 51 49 23 -139 0
53 48 29 51 49 23 -140 0
53 48 29 51 49 23 -137 0
53 48 29 51 49 23 -138 0
53 48 62 51 55 49 -184 0
53 48 62 51 55 49 -186 0
53 48 62 51 55 49 -183 0
53 48 62 51 55 49 -185 0
53 48 51 2 49 6 -47 0
53 48 51 2 49 6 -50 0
53 48 51 2 49 6 -54 0
53 48 51 2 49 6 -52 0
53 48 51 21 49 16 -116 0
53 48 51 21 49 16 -118 0
53 48 51 21 49 16 -115 0
53 48 51 21 49 16 -117 0
53 48 51 10 49 8 -92 0
53 48 51 10 49 8 -91 0
53 48 51 10 49 8 -90 0
53 48 51 10 49 8 -89 0
53 48 51 31 49 37 -155 0
53 48 51 31 49 37 -156 0
53 48 51 31 49 37 -158 0
53 48 51 31 49 37 -157 0
53 48 51 68 49 65 -188 0
53 48 51 68 49 65 -187 0
53 48 51 68 49 65 -189 0
53 48 51 68 49 65 -190 0
53 48 51 44 49 39 -171 0
53 48 51 44 49 39 -172 0
53 48 51 44 49 39 -170 0
53 48 51 44 49 39 -169 0
53 48 51 30 49 23 -139 0
53 48 51 30 49 23 -140 0
53 48 51 30 49 23 -137 0
53 48 51 30 49 23 -138 0
5 20 4 15 2 21 -22 0
5 20 4 15 2 21 -18 0
5 20 4 15 2 21 -17 0
5 20 4 15 2 21 -19 0
5 20 4 15 2 6 -22 0
5 20 4 15 2 6 -18 0
5 20 4 15 2 6 -17 0
5 20 4 15 2 6 -19 0
5 20 4 15 21 16 -22 0
5 20 4 15 21 16 -18 0
5 20 4 15 21 16 -17 0
5 20 4 15 21 16 -19 0
5 20 4 15 6 16 -22 0
5 20 4 15 6 16 -18 0
5 20 4 15 6 16 -17 0
5 20 4 15 6 16 -19 0
5 20 4 2 21 6 -22 0
5 20 4 2 21 6 -18 0
5 20 4 2 21 6 -17 0
5 20 4 2 21 6 -19 0
5 20 4 2 6 16 -22 0
5 20 4 2 6 16 -18 0
5 20 4 2 6 16 -17 0
5 20 4 2 6 16 -19 0
5 20 15 2 21 16 -22 0
5 20 15 2 21 16 -18 0
5 20 15 2 21 16 -17 0
5 20 15 2 21 16 -19 0
5 20 15 21 6 16 -22 0
5 20 15 21 6 16 -18 0
5 20 15 21 6 16 -17 0
5 20 15 21 6 16 -19 0
5 20 2 21 6 16 -22 0
5 20 2 21 6 16 -18 0
5 20 2 21 6 16 -17 0
5 20 2 21 6 16 -19 0
5 9 4 7 2 10 -12 0
5 9 4 7 2 10 -13 0
5 9 4 7 2 10 -14 0
5 9 4 7 2 10 -11 0
5 9 4 7 2 6 -12 0
5 9 4 7 2 6 -13 0
5 9 4 7 2 6 -14 0
5 9 4 7 2 6 -11 0
5 9 4 7 10 8 -12 0
5 9 4 7 10 8 -13 0
5 9 4 7 10 8 -14 0
5 9 4 7 10 8 -11 0
5 9 4 7 6 8 -12 0
5 9 4 7 6 8 -13 0
5 9 4 7 6 8 -14 0
5 9 4 7 6 8 -11 0
5 9 4 2 10 6 -12 0
5 9 4 2 10 6 -13 0
5 9 4 2 10 6 -14 0
5 9 4 2 10 6 -11 0
5 9 4 2 6 8 -12 0
5 9 4 2 6 8 -13 0
5 9 4 2 6 8 -14 0
5 9 4 2 6 8 -11 0
5 9 7 2 10 8 -12 0
5 9 7 2 10 8 -13 0
5 9 7 2 10 8 -14 0
5 9 7 2 10 8 -11 0
5 9 7 10 6 8 -12 0
5 9 7 10 6 8 -13 0
5 9 7 10 6 8 -14 0
5 9 7 10 6 8 -11 0
5 9 2 10 6 8 -12 0
5 9 2 10 6 8 -13 0
5 9 2 10 6 8 -14 0
5 9 2 10 6 8 -11 0
5 35 4 36 2 31 -32 0
5 35 4 36 2 31 -38 0
5 35 4 36 2 31 -33 0
5 35 4 36 2 31 -34 0
5 35 4 36 2 6 -32 0
5 35 4 36 2 6 -38 0
5 35 4 36 2 6 -33 0
5 35 4 36 2 6 -34 0
5 35 4 36 31 37 -32 0
5 35 4 36 31 37 -38 0
5 35 4 36 31 37 -33 0
5 35 4 36 31 37 -34 0
5 35 4 36 6 37 -32 0
5 35 4 36 6 37 -38 0
5 35 4 36 6 37 -33 0
5 35 4 36 6 37 -34 0
5 35 4 2 31 6 -32 0
5 35 4 2 31 6 -38 0
5 35 4 2 31 6 -33 0
5 35 4 2 31 6 -34 0
5 35 4 2 6 37 -32 0
5 35 4 2 6 37 -38 0
5 35 4 2 6 37 -33 0
5 35 4 2 6 37 -34 0
5 35 36 2 31 37 -32 0
5 35 36 2 31 37 -38 0
5 35 36 2 31 37 -33 0
5 35 36 2 31 37 -34 0
5 35 36 31 6 37 -32 0
5 35 36 31 6 37 -38 0
5 35 36 31 6 37 -33 0
5 35 36 31 6 37 -34 0
5 35 2 31 6 37 -32 0
5 35 2 31 6 37 -38 0
5 35 2 31 6 37 -33 0
5 35 2 31 6 37 -34 0
5 67 4 70 2 68 -63 0
5 67 4 70 2 68 -69 0
5 67 4 70 2 68 -64 0
5 67 4 70 2 68 -66 0
5 67 4 70 2 6 -63 0
5 67 4 70 2 6 -69 0
5 67 4 70 2 6 -64 0
5 67 4 70 2 6 -66 0
5 67 4 70 68 65 -63 0
5 67 4 70 68 65 -69 0
5 67 4 70 68 65 -64 0
5 67 4 70 68 65 -66 0
5 67 4 70 6 65 -63 0
5 67 4 70 6 65 -69 0
5 67 4 70 6 65 -64 0
5 67 4 70 6 65 -66 0
5 67 4 2 68 6 -63 0
5 67 4 2 68 6 -69 0
5 67 4 2 68 6 -64 0
5 67 4 2 68 6 -66 0
5 67 4 2 6 65 -63 0
5 67 4 2 6 65 -69 0
5 67 4 2 6 65 -64 0
5 67 4 2 6 65 -66 0
5 67 70 2 68 65 -63 0
5 67 70 2 68 65 -69 0
5 67 70 2 68 65 -64 0
5 67 70 2 68 65 -66 0
5 67 70 68 6 65 -63 0
5 67 70 68 6 65 -69 0
5 67 70 68 6 65 -64 0
5 67 70 68 6 65 -66 0
5 67 2 68 6 65 -63 0
5 67 2 68 6 65 -69 0
5 67 2 68 6 65 -64 0
5 67 2 68 6 65 -66 0
5 46 4 43 2 44 -40 0
5 46 4 43 2 44 -41 0
5 46 4 43 2 44 -45 0
5 46 4 43 2 44 -42 0
5 46 4 43 2 6 -40 0
5 46 4 43 2 6 -41 0
5 46 4 43 2 6 -45 0
5 46 4 43 2 6 -42 0
5 46 4 43 44 39 -40 0
5 46 4 43 44 39 -41 0
5 46 4 43 44 39 -45 0
5 46 4 43 44 39 -42 0
5 46 4 43 6 39 -40 0
5 46 4 43 6 39 -41 0
5 46 4 43 6 39 -45 0
5 46 4 43 6 39 -42 0
5 46 4 2 44 6 -40 0
5 46 4 2 44 6 -41 0
5 46 4 2 44 6 -45 0
5 46 4 2 44 6 -42 0
5 46 4 2 6 39 -40 0
5 46 4 2 6 39 -41 0
5 46 4 2 6 39 -45 0
5 46 4 2 6 39 -42 0
5 46 43 2 44 39 -40 0
5 46 43 2 44 39 -41 0
5 46 43 2 44 39 -45 0
5 46 43 2 44 39 -42 0
5 46 43 44 6 39 -40 0
5 46 43 44 6 39 -41 0
5 46 43 44 6 39 -45 0
5 46 43 44 6 39 -42 0
5 46 2 44 6 39 -40 0
5 46 2 44 6 39 -41 0
5 46 2 44 6 39 -45 0
5 46 2 44 6 39 -42 0
5 28 4 29 2 30 -24 0
5 28 4 29 2 30 -25 0
5 28 4 29 2 30 -26 0
5 28 4 29 2 30 -27 0
5 28 4 29 2 6 -24 0
5 28 4 29 2 6 -25 0
5 28 4 29 2 6 -26 0
5 28 4 29 2 6 -27 0
5 28 4 29 30 23 -24 0
5 28 4 29 30 23 -25 0
5 28 4 29 30 23 -26 0
5 28 4 29 30 23 -27 0
5 28 4 29 6 23 -24 0
5 28 4 29 6 23 -25 0
5 28 4 29 6 23 -26 0
5 28 4 29 6 23 -27 0
5 28 4 2 30 6 -24 0
5 28 4 2 30 6 -25 0
5 28 4 2 30 6 -26 0
5 28 4 2 30 6 -27 0
5 28 4 2 6 23 -24 0
5 28 4 2 6 23 -25 0
5 28 4 2 6 23 -26 0
5 28 4 2 6 23 -27 0
5 28 29 2 30 23 -24 0
5 28 29 2 30 23 -25 0
5 28 29 2 30 23 -26 0
5 28 29 2 30 23 -27 0
5 28 29 30 6 23 -24 0
5 28 29 30 6 23 -25 0
5 28 29 30 6 23 -26 0
5 28 29 30 6 23 -27 0
5 28 2 30 6 23 -24 0
5 28 2 30 6 23 -25 0
5 28 2 30 6 23 -26 0
5 28 2 30 6 23 -27 0
5 58 4 62 2 6 -61 0
5 58 4 62 2 6 -59 0
5 58 4 62 2 6 -57 0
5 58 4 62 2 6 -56 0
5 58 4 2 55 6 -61 0
5 58 4 2 55 6 -59 0
5 58 4 2 55 6 -57 0
5 58 4 2 55 6 -56 0
5 48 4 51 2 6 -47 0
5 48 4 51 2 6 -50 0
5 48 4 51 2 6 -54 0
5 48 4 51 2 6 -52 0
5 48 4 2 49 6 -47 0
5 48 4 2 49 6 -50 0
5 48 4 2 49 6 -54 0
5 48 4 2 49 6 -52 0
5 4 15 2 21 6 -22 0
5 4 15 2 21 6 -18 0
5 4 15 2 21 6 -17 0
5 4 15 2 21 6 -19 0
5 4 15 2 6 16 -22 0
5 4 15 2 6 16 -18 0
5 4 15 2 6 16 -17 0
5 4 15 2 6 16 -19 0
5 4 7 2 10 6 -12 0
5 4 7 2 10 6 -13 0
5 4 7 2 10 6 -14 0
5 4 7 2 10 6 -11 0
5 4 7 2 6 8 -12 0
5 4 7 2 6 8 -13 0
5 4 7 2 6 8 -14 0
5 4 7 2 6 8 -11 0
5 4 36 2 31 6 -32 0
5 4 36 2 31 6 -38 0
5 4 36 2 31 6 -33 0
5 4 36 2 31 6 -34 0
5 4 36 2 6 37 -32 0
5 4 36 2 6 37 -38 0
5 4 36 2 6 37 -33 0
5 4 36 2 6 37 -34 0
5 4 70 2 68 6 -63 0
5 4 70 2 68 6 -69 0
5 4 70 2 68 6 -64 0
5 4 70 2 68 6 -66 0
5 4 70 2 6 65 -63 0
5 4 70 2 6 65 -69 0
5 4 70 2 6 65 -64 0
5 4 70 2 6 65 -66 0
5 4 43 2 44 6 -40 0
5 4 43 2 44 6 -41 0
5 4 43 2 44 6 -45 0
5 4 43 2 44 6 -42 0
5 4 43 2 6 39 -40 0
5 4 43 2 6 39 -41 0
5 4 43 2 6 39 -45 0
5 4 43 2 6 39 -42 0
5 4 29 2 30 6 -24 0
5 4 29 2 30 6 -25 0
5 4 29 2 30 6 -26 0
5 4 29 2 30 6 -27 0
5 4 29 2 6 23 -24 0
5 4 29 2 6 23 -25 0
5 4 29 2 6 23 -26 0
5 4 29 2 6 23 -27 0
5 4 62 2 55 6 -61 0
5 4 62 2 55 6 -59 0
5 4 62 2 55 6 -57 0
5 4 62 2 55 6 -56 0
5 4 51 2 49 6 -47 0
5 4 51 2 49 6 -50 0
5 4 51 2 49 6 -54 0
5 4 51 2 49 6 -52 0
5 4 2 21 6 16 -22 0
5 4 2 21 6 16 -18 0
5 4 2 21 6 16 -17 0
5 4 2 21 6 16 -19 0
5 4 2 10 6 8 -12 0
5 4 2 10 6 8 -13 0
5 4 2 10 6 8 -14 0
5 4 2 10 6 8 -11 0
5 4 2 31 6 37 -32 0
5 4 2 31 6 37 -38 0
5 4 2 31 6 37 -33 0
5 4 2 31 6 37 -34 0
5 4 2 68 6 65 -63 0
5 4 2 68 6 65 -69 0
5 4 2 68 6 65 -64 0
5 4 2 68 6 65 -66 0
5 4 2 44 6 39 -40 0
5 4 2 44 6 39 -41 0
5 4 2 44 6 39 -45 0
5 4 2 44 6 39 -42 0
5 4 2 30 6 23 -24 0
5 4 2 30 6 23 -25 0
5 4 2 30 6 23 -26 0
5 4 2 30 6 23 -27 0
20 9 15 7 21 10 -74 0
20 9 15 7 21 10 -73 0
20 9 15 7 21 10 -75 0
20 9 15 7 21 10 -76 0
20 9 15 7 21 16 -74 0
20 9 15 7 21 16 -73 0
20 9 15 7 21 16 -75 0
20 9 15 7 21 16 -76 0
20 9 15 7 10 8 -74 0
20 9 15 7 10 8 -73 0
20 9 15 7 10 8 -75 0
20 9 15 7 10 8 -76 0
20 9 15 7 16 8 -74 0
20 9 15 7 16 8 -73 0
20 9 15 7 16 8 -75 0
20 9 15 7 16 8 -76 0
20 9 15 21 10 16 -74 0
20 9 15 21 10 16 -73 0
20 9 15 21 10 16 -75 0
20 9 15 21 10 16 -76 0
20 9 15 21 16 8 -74 0
20 9 15 21 16 8 -73 0
20 9 15 21 16 8 -75 0
20 9 15 21 16 8 -76 0
20 9 7 21 10 8 -74 0
20 9 7 21 10 8 -73 0
20 9 7 21 10 8 -75 0
20 9 7 21 10 8 -76 0
20 9 7 10 16 8 -74 0
20 9 7 10 16 8 -73 0
20 9 7 10 16 8 -75 0
20 9 7 10 16 8 -76 0
20 9 21 10 16 8 -74 0
20 9 21 10 16 8 -73 0
20 9 21 10 16 8 -75 0
20 9 21 10 16 8 -76 0
20 35 15 36 21 31 -109 0
20 35 15 36 21 31 -108 0
20 35 15 36 21 31 -107 0
20 35 15 36 21 31 -110 0
20 35 15 36 21 16 -109 0
20 35 15 36 21 16 -108 0
20 35 15 36 21 16 -107 0
20 35 15 36 21 16 -110 0
20 35 15 36 31 37 -109 0
20 35 15 36 31 37 -108 0
20 35 15 36 31 37 -107 0
20 35 15 36 31 37 -110 0
20 35 15 36 16 37 -109 0
20 35 15 36 16 37 -108 0
20 35 15 36 16 37 -107 0
20 35 15 36 16 37 -110 0
20 35 15 21 31 16 -109 0
20 35 15 21 31 16 -108 0
20 35 15 21 31 16 -107 0
20 35 15 21 31 16 -110 0
20 35 15 21 16 37 -109 0
20 35 15 21 16 37 -108 0
20 35 15 21 16 37 -107 0
20 35 15 21 16 37 -110 0
20 35 36 21 31 37 -109 0
20 35 36 21 31 37 -108 0
20 35 36 21 31 37 -107 0
20 35 36 21 31 37 -110 0
20 35 36 31 16 37 -109 0
20 35 36 31 16 37 -108 0
20 35 36 31 16 37 -107 0
20 35 36 31 16 37 -110 0
20 35 21 31 16 37 -109 0
20 35 21 31 16 37 -108 0
20 35 21 31 16 37 -107 0
20 35 21 31 16 37 -110 0
20 67 15 70 21 68 -125 0
20 67 15 70 21 68 -123 0
20 67 15 70 21 68 -126 0
20 67 15 70 21 68 -124 0
20 67 15 70 21 16 -125 0
20 67 15 70 21 16 -123 0
20 67 15 70 21 16 -126 0
20 67 15 70 21 16 -124 0
20 67 15 70 68 65 -125 0
20 67 15 70 68 65 -123 0
20 67 15 70 68 65 -126 0
20 67 15 70 68 65 -124 0
20 67 15 70 16 65 -125 0
20 67 15 70 16 65 -123 0
20 67 15 70 16 65 -126 0
20 67 15 70 16 65 -124 0
20 67 15 21 68 16 -125 0
20 67 15 21 68 16 -123 0
20 67 15 21 68 16 -126 0
20 67 15 21 68 16 -124 0
20 67 15 21 16 65 -125 0
20 67 15 21 16 65 -123 0
20 67 15 21 16 65 -126 0
20 67 15 21 16 65 -124 0
20 67 70 21 68 65 -125 0
20 67 70 21 68 65 -123 0
20 67 70 21 68 65 -126 0
20 67 70 21 68 65 -124 0
20 67 70 68 16 65 -125 0
20 67 70 68 16 65 -123 0
20 67 70 68 16 65 -126 0
20 67 70 68 16 65 -124 0
20 67 21 68 16 65 -125 0
20 67 21 68 16 65 -123 0
20 67 21 68 16 65 -126 0
20 67 21 68 16 65 -124 0
20 46 15 43 21 44 -114 0
20 46 15 43 21 44 -113 0
20 46 15 43 21 44 -112 0
20 46 15 43 21 44 -111 0
20 46 15 43 21 16 -114 0
20 46 15 43 21 16 -113 0
20 46 15 43 21 16 -112 0
20 46 15 43 21 16 -111 0
20 46 15 43 44 39 -114 0
20 46 15 43 44 39 -113 0
20 46 15 43 44 39 -112 0
20 46 15 43 44 39 -111 0
20 46 15 43 16 39 -114 0
20 46 15 43 16 39 -113 0
20 46 15 43 16 39 -112 0
20 46 15 43 16 39 -111 0
20 46 15 21 44 16 -114 0
20 46 15 21 44 16 -113 0
20 46 15 21 44 16 -112 0
20 46 15 21 44 16 -111 0
20 46 15 21 16 39 -114 0
20 46 15 21 16 39 -113 0
20 46 15 21 16 39 -112 0
20 46 15 21 16 39 -111 0
20 46 43 21 44 39 -114 0
20 46 43 21 44 39 -113 0
20 46 43 21 44 39 -112 0
20 46 43 21 44 39 -111 0
20 46 43 44 16 39 -114 0
20 46 43 44 16 39 -113 0
20 46 43 44 16 39 -112 0
20 46 43 44 16 39 -111 0
20 46 21 44 16 39 -114 0
20 46 21 44 16 39 -113 0
20 46 21 44 16 39 -112 0
20 46 21 44 16 39 -111 0
20 28 15 29 21 30 -105 0
20 28 15 29 21 30 -104 0
20 28 15 29 21 30 -106 0
20 28 15 29 21 30 -103 0
20 28 15 29 21 16 -105 0
20 28 15 29 21 16 -104 0
20 28 15 29 21 16 -106 0
20 28 15 29 21 16 -103 0
20 28 15 29 30 23 -105 0
20 28 15 29 30 23 -104 0
20 28 15 29 30 23 -106 0
20 28 15 29 30 23 -103 0
20 28 15 29 16 23 -105 0
20 28 15 29 16 23 -104 0
20 28 15 29 16 23 -106 0
20 28 15 29 16 23 -103 0
20 28 15 21 30 16 -105 0
20 28 15 21 30 16 -104 0
20 28 15 21 30 16 -106 0
20 28 15 21 30 16 -103 0
20 28 15 21 16 23 -105 0
20 28 15 21 16 23 -104 0
20 28 15 21 16 23 -106 0
20 28 15 21 16 23 -103 0
20 28 29 21 30 23 -105 0
20 28 29 21 30 23 -104 0
20 28 29 21 30 23 -106 0
20 28 29 21 30 23 -103 0
20 28 29 30 16 23 -105 0
20 28 29 30 16 23 -104 0
20 28 29 30 16 23 -106 0
20 28 29 30 16 23 -103 0
20 28 21 30 16 23 -105 0
20 28 21 30 16 23 -104 0
20 28 21 30 16 23 -106 0
20 28 21 30 16 23 -103 0
20 58 15 62 21 16 -120 0
20 58 15 62 21 16 -119 0
20 58 15 62 21 16 -121 0
20 58 15 62 21 16 -122 0
20 58 15 21 55 16 -120 0
20 58 15 21 55 16 -119 0
20 58 15 21 55 16 -121 0
20 58 15 21 55 16 -122 0
20 48 15 51 21 16 -116 0
20 48 15 51 21 16 -118 0
20 48 15 51 21 16 -115 0
20 48 15 51 21 16 -117 0
20 48 15 21 49 16 -116 0
20 48 15 21 49 16 -118 0
20 48 15 21 49 16 -115 0
20 48 15 21 49 16 -117 0
20 4 15 2 21 16 -22 0
20 4 15 2 21 16 -18 0
20 4 15 2 21 16 -17 0
20 4 15 2 21 16 -19 0
20 4 15 21 6 16 -22 0
20 4 15 21 6 16 -18 0
20 4 15 21 6 16 -17 0
20 4 15 21 6 16 -19 0
20 15 7 21 10 16 -74 0
20 15 7 21 10 16 -73 0
20 15 7 21 10 16 -75 0
20 15 7 21 10 16 -76 0
20 15 7 21 16 8 -74 0
20 15 7 21 16 8 -73 0
20 15 7 21 16 8 -75 0
20 15 7 21 16 8 -76 0
20 15 36 21 31 16 -109 0
20 15 36 21 31 16 -108 0
20 15 36 21 31 16 -107 0
20 15 36 21 31 16 -110 0
20 15 36 21 16 37 -109 0
20 15 36 21 16 37 -108 0
20 15 36 21 16 37 -107 0
20 15 36 21 16 37 -110 0
20 15 70 21 68 16 -125 0
20 15 70 21 68 16 -123 0
20 15 70 21 68 16 -126 0
20 15 70 21 68 16 -124 0
20 15 70 21 16 65 -125 0
20 15 70 21 16 65 -123 0
20 15 70 21 16 65 -126 0
20 15 70 21 16 65 -124 0
20 15 43 21 44 16 -114 0
20 15 43 21 44 16 -113 0
20 15 43 21 44 16 -112 0
20 15 43 21 44 16 -111 0
20 15 43 21 16 39 -114 0
20 15 43 21 16 39 -113 0
20 15 43 21 16 39 -112 0
20 15 43 21 16 39 -111 0
20 15 29 21 30 16 -105 0
20 15 29 21 30 16 -104 0
20 15 29 21 30 16 -106 0
20 15 29 21 30 16 -103 0
20 15 29 21 16 23 -105 0
20 15 29 21 16 23 -104 0
20 15 29 21 16 23 -106 0
20 15 29 21 16 23 -103 0
20 15 62 21 55 16 -120 0
20 15 62 21 55 16 -119 0
20 15 62 21 55 16 -121 0
20 15 62 21 55 16 -122 0
20 15 51 21 49 16 -116 0
20 15 51 21 49 16 -118 0
20 15 51 21 49 16 -115 0
20 15 51 21 49 16 -117 0
20 15 2 21 6 16 -22 0
20 15 2 21 6 16 -18 0
20 15 2 21 6 16 -17 0
20 15 2 21 6 16 -19 0
20 15 21 10 16 8 -74 0
20 15 21 10 16 8 -73 0
20 15 21 10 16 8 -75 0
20 15 21 10 16 8 -76 0
20 15 21 31 16 37 -109 0
20 15 21 31 16 37 -108 0
20 15 21 31 16 37 -107 0
20 15 21 31 16 37 -110 0
20 15 21 68 16 65 -125 0
20 15 21 68 16 65 -123 0
20 15 21 68 16 65 -126 0
20 15 21 68 16 65 -124 0
20 15 21 44 16 39 -114 0
20 15 21 44 16 39 -113 0
20 15 21 44 16 39 -112 0
20 15 21 44 16 39 -111 0
20 15 21 30 16 23 -105 0
20 15 21 30 16 23 -104 0
20 15 21 30 16 23 -106 0
20 15 21 30 16 23 -103 0
9 35 7 36 10 31 -82 0
9 35 7 36 10 31 -81 0
9 35 7 36 10 31 -84 0
9 35 7 36 10 31 -83 0
9 35 7 36 10 8 -82 0
9 35 7 36 10 8 -81 0
9 35 7 36 10 8 -84 0
9 35 7 36 10 8 -83 0
9 35 7 36 31 37 -82 0
9 35 7 36 31 37 -81 0
9 35 7 36 31 37 -84 0
9 35 7 36 31 37 -83 0
9 35 7 36 8 37 -82 0
9 35 7 36 8 37 -81 0
9 35 7 36 8 37 -84 0
9 35 7 36 8 37 -83 0
9 35 7 10 31 8 -82 0
9 35 7 10 31 8 -81 0
9 35 7 10 31 8 -84 0
9 35 7 10 31 8 -83 0
9 35 7 10 8 37 -82 0
9 35 7 10 8 37 -81 0
9 35 7 10 8 37 -84 0
9 35 7 10 8 37 -83 0
9 35 36 10 31 37 -82 0
9 35 36 10 31 37 -81 0
9 35 36 10 31 37 -84 0
9 35 36 10 31 37 -83 0
9 35 36 31 8 37 -82 0
9 35 36 31 8 37 -81 0
9 35 36 31 8 37 -84 0
9 35 36 31 8 37 -83 0
9 35 10 31 8 37 -82 0
9 35 10 31 8 37 -81 0
9 35 10 31 8 37 -84 0
9 35 10 31 8 37 -83 0
9 67 7 70 10 68 -97 0
9 67 7 70 10 68 -100 0
9 67 7 70 10 68 -98 0
9 67 7 70 10 68 -99 0
9 67 7 70 10 8 -97 0
9 67 7 70 10 8 -100 0
9 67 7 70 10 8 -98 0
9 67 7 70 10 8 -99 0
9 67 7 70 68 65 -97 0
9 67 7 70 68 65 -100 0
9 67 7 70 68 65 -98 0
9 67 7 70 68 65 -99 0
9 67 7 70 8 65 -97 0
9 67 7 70 8 65 -100 0
9 67 7 70 8 65 -98 0
9 67 7 70 8 65 -99 0
9 67 7 10 68 8 -97 0
9 67 7 10 68 8 -100 0
9 67 7 10 68 8 -98 0
9 67 7 10 68 8 -99 0
9 67 7 10 8 65 -97 0
9 67 7 10 8 65 -100 0
9 67 7 10 8 65 -98 0
9 67 7 10 8 65 -99 0
9 67 70 10 68 65 -97 0
9 67 70 10 68 65 -100 0
9 67 70 10 68 65 -98 0
9 67 70 10 68 65 -99 0
9 67 70 68 8 65 -97 0
9 67 70 68 8 65 -100 0
9 67 70 68 8 65 -98 0
9 67 70 68 8 65 -99 0
9 67 10 68 8 65 -97 0
9 67 10 68 8 65 -100 0
9 67 10 68 8 65 -98 0
9 67 10 68 8 65 -99 0
9 46 7 43 10 44 -86 0
9 46 7 43 10 44 -87 0
9 46 7 43 10 44 -85 0
9 46 7 43 10 44 -88 0
9 46 7 43 10 8 -86 0
9 46 7 43 10 8 -87 0
9 46 7 43 10 8 -85 0
9 46 7 43 10 8 -88 0
9 46 7 43 44 39 -86 0
9 46 7 43 44 39 -87 0
9 46 7 43 44 39 -85 0
9 46 7 43 44 39 -88 0
9 46 7 43 8 39 -86 0
9 46 7 43 8 39 -87 0
9 46 7 43 8 39 -85 0
9 46 7 43 8 39 -88 0
9 46 7 10 44 8 -86 0
9 46 7 10 44 8 -87 0
9 46 7 10 44 8 -85 0
9 46 7 10 44 8 -88 0
9 46 7 10 8 39 -86 0
9 46 7 10 8 39 -87 0
9 46 7 10 8 39 -85 0
9 46 7 10 8 39 -88 0
9 46 43 10 44 39 -86 0
9 46 43 10 44 39 -87 0
9 46 43 10 44 39 -85 0
9 46 43 10 44 39 -88 0
9 46 43 44 8 39 -86 0
9 46 43 44 8 39 -87 0
9 46 43 44 8 39 -85 0
9 46 43 44 8 39 -88 0
9 46 10 44 8 39 -86 0
9 46 10 44 8 39 -87 0
9 46 10 44 8 39 -85 0
9 46 10 44 8 39 -88 0
9 28 7 29 10 30 -77 0
9 28 7 29 10 30 -78 0
9 28 7 29 10 30 -79 0
9 28 7 29 10 30 -80 0
9 28 7 29 10 8 -77 0
9 28 7 29 10 8 -78 0
9 28 7 29 10 8 -79 0
9 28 7 29 10 8 -80 0
9 28 7 29 30 23 -77 0
9 28 7 29 30 23 -78 0
9 28 7 29 30 23 -79 0
9 28 7 29 30 23 -80 0
9 28 7 29 8 23 -77 0
9 28 7 29 8 23 -78 0
9 28 7 29 8 23 -79 0
9 28 7 29 8 23 -80 0
9 28 7 10 30 8 -77 0
9 28 7 10 30 8 -78 0
9 28 7 10 30 8 -79 0
9 28 7 10 30 8 -80 0
9 28 7 10 8 23 -77 0
9 28 7 10 8 23 -78 0
9 28 7 10 8 23 -79 0
9 28 7 10 8 23 -80 0
9 28 29 10 30 23 -77 0
9 28 29 10 30 23 -78 0
9 28 29 10 30 23 -79 0
9 28 29 10 30 23 -80 0
9 28 29 30 8 23 -77 0
9 28 29 30 8 23 -78 0
9 28 29 30 8 23 -79 0
9 28 29 30 8 23 -80 0
9 28 10 30 8 23 -77 0
9 28 10 30 8 23 -78 0
9 28 10 30 8 23 -79 0
9 28 10 30 8 23 -80 0
9 58 7 62 10 8 -95 0
9 58 7 62 10 8 -94 0
9 58 7 62 10 8 -96 0
9 58 7 62 10 8 -93 0
9 58 7 10 55 8 -95 0
9 58 7 10 55 8 -94 0
9 58 7 10 55 8 -96 0
9 58 7 10 55 8 -93 0
9 48 7 51 10 8 -92 0
9 48 7 51 10 8 -91 0
9 48 7 51 10 8 -90 0
9 48 7 51 10 8 -89 0
9 48 7 10 49 8 -92 0
9 48 7 10 49 8 -91 0
9 48 7 10 49 8 -90 0
9 48 7 10 49 8 -89 0
9 4 7 2 10 8 -12 0
9 4 7 2 10 8 -13 0
9 4 7 2 10 8 -14 0
9 4 7 2 10 8 -11 0
9 4 7 10 6 8 -12 0
9 4 7 10 6 8 -13 0
9 4 7 10 6 8 -14 0
9 4 7 10 6 8 -11 0
9 15 7 21 10 8 -74 0
9 15 7 21 10 8 -73 0
9 15 7 21 10 8 -75 0
9 15 7 21 10 8 -76 0
9 15 7 10 16 8 -74 0
9 15 7 10 16 8 -73 0
9 15 7 10 16 8 -75 0
9 15 7 10 16 8 -76 0
9 7 36 10 31 8 -82 0
9 7 36 10 31 8 -81 0
9 7 36 10 31 8 -84 0
9 7 36 10 31 8 -83 0
9 7 36 10 8 37 -82 0
9 7 36 10 8 37 -81 0
9 7 36 10 8 37 -84 0
9 7 36 10 8 37 -83 0
9 7 70 10 68 8 -97 0
9 7 70 10 68 8 -100 0
9 7 70 10 68 8 -98 0
9 7 70 10 68 8 -99 0
9 7 70 10 8 65 -97 0
9 7 70 10 8 65 -100 0
9 7 70 10 8 65 -98 0
9 7 70 10 8 65 -99 0
9 7 43 10 44 8 -86 0
9 7 43 10 44 8 -87 0
9 7 43 10 44 8 -85 0
9 7 43 10 44 8 -88 0
9 7 43 10 8 39 -86 0
9 7 43 10 8 39 -87 0
9 7 43 10 8 39 -85 0
9 7 43 10 8 39 -88 0
9 7 29 10 30 8 -77 0
9 7 29 10 30 8 -78 0
9 7 29 10 30 8 -79 0
9 7 29 10 30 8 -80 0
9 7 29 10 8 23 -77 0
9 7 29 10 8 23 -78 0
9 7 29 10 8 23 -79 0
9 7 29 10 8 23 -80 0
9 7 62 10 55 8 -95 0
9 7 62 10 55 8 -94 0
9 7 62 10 55 8 -96 0
9 7 62 10 55 8 -93 0
9 7 51 10 49 8 -92 0
9 7 51 10 49 8 -91 0
9 7 51 10 49 8 -90 0
9 7 51 10 49 8 -89 0
9 7 2 10 6 8 -12 0
9 7 2 10 6 8 -13 0
9 7 2 10 6 8 -14 0
9 7 2 10 6 8 -11 0
9 7 21 10 16 8 -74 0
9 7 21 10 16 8 -73 0
9 7 21 10 16 8 -75 0
9 7 21 10 16 8 -76 0
9 7 10 31 8 37 -82 0
9 7 10 31 8 37 -81 0
9 7 10 31 8 37 -84 0
9 7 10 31 8 37 -83 0
9 7 10 68 8 65 -97 0
9 7 10 68 8 65 -100 0
9 7 10 68 8 65 -98 0
9 7 10 68 8 65 -99 0
9 7 10 44 8 39 -86 0
9 7 10 44 8 39 -87 0
9 7 10 44 8 39 -85 0
9 7 10 44 8 39 -88 0
9 7 10 30 8 23 -77 0
9 7 10 30 8 23 -78 0
9 7 10 30 8 23 -79 0
9 7 10 30 8 23 -80 0
35 67 36 70 31 68 -164 0
35 67 36 70 31 68 -165 0
35 67 36 70 31 68 -163 0
35 67 36 70 31 68 -166 0
35 67 36 70 31 37 -164 0
35 67 36 70 31 37 -165 0
35 67 36 70 31 37 -163 0
35 67 36 70 31 37 -166 0
35 67 36 70 68 65 -164 0
35 67 36 70 68 65 -165 0
35 67 36 70 68 65 -163 0
35 67 36 70 68 65 -166 0
35 67 36 70 37 65 -164 0
35 67 36 70 37 65 -165 0
35 67 36 70 37 65 -163 0
35 67 36 70 37 65 -166 0
35 67 36 31 68 37 -164 0
35 67 36 31 68 37 -165 0
35 67 36 31 68 37 -163 0
35 67 36 31 68 37 -166 0
35 67 36 31 37 65 -164 0
35 67 36 31 37 65 -165 0
35 67 36 31 37 65 -163 0
35 67 36 31 37 65 -166 0
35 67 70 31 68 65 -164 0
35 67 70 31 68 65 -165 0
35 67 70 31 68 65 -163 0
35 67 70 31 68 65 -166 0
35 67 70 68 37 65 -164 0
35 67 70 68 37 65 -165 0
35 67 70 68 37 65 -163 0
35 67 70 68 37 65 -166 0
35 67 31 68 37 65 -164 0
35 67 31 68 37 65 -165 0
35 67 31 68 37 65 -163 0
35 67 31 68 37 65 -166 0
35 46 36 43 31 44 -152 0
35 46 36 43 31 44 -151 0
35 46 36 43 31 44 -153 0
35 46 36 43 31 44 -154 0
35 46 36 43 31 37 -152 0
35 46 36 43 31 37 -151 0
35 46 36 43 31 37 -153 0
35 46 36 43 31 37 -154 0
35 46 36 43 44 39 -152 0
35 46 36 43 44 39 -151 0
35 46 36 43 44 39 -153 0
35 46 36 43 44 39 -154 0
35 46 36 43 37 39 -152 0
35 46 36 43 37 39 -151 0
35 46 36 43 37 39 -153 0
35 46 36 43 37 39 -154 0
35 46 36 31 44 37 -152 0
35 46 36 31 44 37 -151 0
35 46 36 31 44 37 -153 0
35 46 36 31 44 37 -154 0
35 46 36 31 37 39 -152 0
35 46 36 31 37 39 -151 0
35 46 36 31 37 39 -153 0
35 46 36 31 37 39 -154 0
35 46 43 31 44 39 -152 0
35 46 43 31 44 39 -151 0
35 46 43 31 44 39 -153 0
35 46 43 31 44 39 -154 0
35 46 43 44 37 39 -152 0
35 46 43 44 37 39 -151 0
35 46 43 44 37 39 -153 0
35 46 43 44 37 39 -154 0
35 46 31 44 37 39 -152 0
35 46 31 44 37 39 -151 0
35 46 31 44 37 39 -153 0
35 46 31 44 37 39 -154 0
35 28 36 29 31 30 -129 0
35 28 36 29 31 30 -132 0
35 28 36 29 31 30 -131 0
35 28 36 29 31 30 -130 0
35 28 36 29 31 37 -129 0
35 28 36 29 31 37 -132 0
35 28 36 29 31 37 -131 0
35 28 36 29 31 37 -130 0
35 28 36 29 30 23 -129 0
35 28 36 29 30 23 -132 0
35 28 36 29 30 23 -131 0
35 28 36 29 30 23 -130 0
35 28 36 29 37 23 -129 0
35 28 36 29 37 23 -132 0
35 28 36 29 37 23 -131 0
35 28 36 29 37 23 -130 0
35 28 36 31 30 37 -129 0
35 28 36 31 30 37 -132 0
35 28 36 31 30 37 -131 0
35 28 36 31 30 37 -130 0
35 28 36 31 37 23 -129 0
35 28 36 31 37 23 -132 0
35 28 36 31 37 23 -131 0
35 28 36 31 37 23 -130 0
35 28 29 31 30 23 -129 0
35 28 29 31 30 23 -132 0
35 28 29 31 30 23 -131 0
35 28 29 31 30 23 -130 0
35 28 29 30 37 23 -129 0
35 28 29 30 37 23 -132 0
35 28 29 30 37 23 -131 0
35 28 29 30 37 23 -130 0
35 28 31 30 37 23 -129 0
35 28 31 30 37 23 -132 0
35 28 31 30 37 23 -131 0
35 28 31 30 37 23 -130 0
35 58 36 62 31 37 -161 0
35 58 36 62 31 37 -160 0
35 58 36 62 31 37 -162 0
35 58 36 62 31 37 -159 0
35 58 36 31 55 37 -161 0
35 58 36 31 55 37 -160 0
35 58 36 31 55 37 -162 0
35 58 36 31 55 37 -159 0
35 48 36 51 31 37 -155 0
35 48 36 51 31 37 -156 0
35 48 36 51 31 37 -158 0
35 48 36 51 31 37 -157 0
35 48 36 31 49 37 -155 0
35 48 36 31 49 37 -156 0
35 48 36 31 49 37 -158 0
35 48 36 31 49 37 -157 0
35 4 36 2 31 37 -32 0
35 4 36 2 31 37 -38 0
35 4 36 2 31 37 -33 0
35 4 36 2 31 37 -34 0
35 4 36 31 6 37 -32 0
35 4 36 31 6 37 -38 0
35 4 36 31 6 37 -33 0
35 4 36 31 6 37 -34 0
35 15 36 21 31 37 -109 0
35 15 36 21 31 37 -108 0
35 15 36 21 31 37 -107 0
35 15 36 21 31 37 -110 0
35 15 36 31 16 37 -109 0
35 15 36 31 16 37 -108 0
35 15 36 31 16 37 -107 0
35 15 36 31 16 37 -110 0
35 7 36 10 31 37 -82 0
35 7 36 10 31 37 -81 0
35 7 36 10 31 37 -84 0
35 7 36 10 31 37 -83 0
35 7 36 31 8 37 -82 0
35 7 36 31 8 37 -81 0
35 7 36 31 8 37 -84 0
35 7 36 31 8 37 -83 0
35 36 70 31 68 37 -164 0
35 36 70 31 68 37 -165 0
35 36 70 31 68 37 -163 0
35 36 70 31 68 37 -166 0
35 36 70 31 37 65 -164 0
35 36 70 31 37 65 -165 0
35 36 70 31 37 65 -163 0
35 36 70 31 37 65 -166 0
35 36 43 31 44 37 -152 0
35 36 43 31 44 37 -151 0
35 36 43 31 44 37 -153 0
35 36 43 31 44 37 -154 0
35 36 43 31 37 39 -152 0
35 36 43 31 37 39 -151 0
35 36 43 31 37 39 -153 0
35 36 43 31 37 39 -154 0
35 36 29 31 30 37 -129 0
35 36 29 31 30 37 -132 0
35 36 29 31 30 37 -131 0
35 36 29 31 30 37 -130 0
35 36 29 31 37 23 -129 0
35 36 29 31 37 23 -132 0
35 36 29 31 37 23 -131 0
35 36 29 31 37 23 -130 0
35 36 62 31 55 37 -161 0
35 36 62 31 55 37 -160 0
35 36 62 31 55 37 -162 0
35 36 62 31 55 37 -159 0
35 36 51 31 49 37 -155 0
35 36 51 31 49 37 -156 0
35 36 51 31 49 37 -158 0
35 36 51 31 49 37 -157 0
35 36 2 31 6 37 -32 0
35 36 2 31 6 37 -38 0
35 36 2 31 6 37 -33 0
35 36 2 31 6 37 -34 0
35 36 21 31 16 37 -109 0
35 36 21 31 16 37 -108 0
35 36 21 31 16 37 -107 0
35 36 21 31 16 37 -110 0
35 36 10 31 8 37 -82 0
35 36 10 31 8 37 -81 0
35 36 10 31 8 37 -84 0
35 36 10 31 8 37 -83 0
35 36 31 68 37 65 -164 0
35 36 31 68 37 65 -165 0
35 36 31 68 37 65 -163 0
35 36 31 68 37 65 -166 0
35 36 31 44 37 39 -152 0
35 36 31 44 37 39 -151 0
35 36 31 44 37 39 -153 0
35 36 31 44 37 39 -154 0
35 36 31 30 37 23 -129 0
35 36 31 30 37 23 -132 0
35 36 31 30 37 23 -131 0
35 36 31 30 37 23 -130 0
67 46 70 43 68 44 -178 0
67 46 70 43 68 44 -180 0
67 46 70 43 68 44 -179 0
67 46 70 43 68 44 -177 0
67 46 70 43 68 65 -178 0
67 46 70 43 68 65 -180 0
67 46 70 43 68 65 -179 0
67 46 70 43 68 65 -177 0
67 46 70 43 44 39 -178 0
67 46 70 43 44 39 -180 0
67 46 70 43 44 39 -179 0
67 46 70 43 44 39 -177 0
67 46 70 43 65 39 -178 0
67 46 70 43 65 39 -180 0
67 46 70 43 65 39 -179 0
67 46 70 43 65 39 -177 0
67 46 70 68 44 65 -178 0
67 46 70 68 44 65 -180 0
67 46 70 68 44 65 -179 0
67 46 70 68 44 65 -177 0
67 46 70 68 65 39 -178 0
67 46 70 68 65 39 -180 0
67 46 70 68 65 39 -179 0
67 46 70 68 65 39 -177 0
67 46 43 68 44 39 -178 0
67 46 43 68 44 39 -180 0
67 46 43 68 44 39 -179 0
67 46 43 68 44 39 -177 0
67 46 43 44 65 39 -178 0
67 46 43 44 65 39 -180 0
67 46 43 44 65 39 -179 0
67 46 43 44 65 39 -177 0
67 46 68 44 65 39 -178 0
67 46 68 44 65 39 -180 0
67 46 68 44 65 39 -179 0
67 46 68 44 65 39 -177 0
67 28 70 29 68 30 -145 0
67 28 70 29 68 30 -146 0
67 28 70 29 68 30 -147 0
67 28 70 29 68 30 -148 0
67 28 70 29 68 65 -145 0
67 28 70 29 68 65 -146 0
67 28 70 29 68 65 -147 0
67 28 70 29 68 65 -148 0
67 28 70 29 30 23 -145 0
67 28 70 29 30 23 -146 0
67 28 70 29 30 23 -147 0
67 28 70 29 30 23 -148 0
67 28 70 29 65 23 -145 0
67 28 70 29 65 23 -146 0
67 28 70 29 65 23 -147 0
67 28 70 29 65 23 -148 0
67 28 70 68 30 65 -145 0
67 28 70 68 30 65 -146 0
67 28 70 68 30 65 -147 0
67 28 70 68 30 65 -148 0
67 28 70 68 65 23 -145 0
67 28 70 68 65 23 -146 0
67 28 70 68 65 23 -147 0
67 28 70 68 65 23 -148 0
67 28 29 68 30 23 -145 0
67 28 29 68 30 23 -146 0
67 28 29 68 30 23 -147 0
67 28 29 68 30 23 -148 0
67 28 29 30 65 23 -145 0
67 28 29 30 65 23 -146 0
67 28 29 30 65 23 -147 0
67 28 29 30 65 23 -148 0
67 28 68 30 65 23 -145 0
67 28 68 30 65 23 -146 0
67 28 68 30 65 23 -147 0
67 28 68 30 65 23 -148 0
67 58 70 62 68 65 -193 0
67 58 70 62 68 65 -195 0
67 58 70 62 68 65 -194 0
67 58 70 62 68 65 -196 0
67 58 70 68 55 65 -193 0
67 58 70 68 55 65 -195 0
67 58 70 68 55 65 -194 0
67 58 70 68 55 65 -196 0
67 48 70 51 68 65 -188 0
67 48 70 51 68 65 -187 0
67 48 70 51 68 65 -189 0
67 48 70 51 68 65 -190 0
67 48 70 68 49 65 -188 0
67 48 70 68 49 65 -187 0
67 48 70 68 49 65 -189 0
67 48 70 68 49 65 -190 0
67 4 70 2 68 65 -63 0
67 4 70 2 68 65 -69 0
67 4 70 2 68 65 -64 0
67 4 70 2 68 65 -66 0
67 4 70 68 6 65 -63 0
67 4 70 68 6 65 -69 0
67 4 70 68 6 65 -64 0
67 4 70 68 6 65 -66 0
67 15 70 21 68 65 -125 0
67 15 70 21 68 65 -123 0
67 15 70 21 68 65 -126 0
67 15 70 21 68 65 -124 0
67 15 70 68 16 65 -125 0
67 15 70 68 16 65 -123 0
67 15 70 68 16 65 -126 0
67 15 70 68 16 65 -124 0
67 7 70 10 68 65 -97 0
67 7 70 10 68 65 -100 0
67 7 70 10 68 65 -98 0
67 7 70 10 68 65 -99 0
67 7 70 68 8 65 -97 0
67 7 70 68 8 65 -100 0
67 7 70 68 8 65 -98 0
67 7 70 68 8 65 -99 0
67 36 70 31 68 65 -164 0
67 36 70 31 68 65 -165 0
67 36 70 31 68 65 -163 0
67 36 70 31 68 65 -166 0
67 36 70 68 37 65 -164 0
67 36 70 68 37 65 -165 0
67 36 70 68 37 65 -163 0
67 36 70 68 37 65 -166 0
67 70 43 68 44 65 -178 0
67 70 43 68 44 65 -180 0
67 70 43 68 44 65 -179 0
67 70 43 68 44 65 -177 0
67 70 43 68 65 39 -178 0
67 70 43 68 65 39 -180 0
67 70 43 68 65 39 -179 0
67 70 43 68 65 39 -177 0
67 70 29 68 30 65 -145 0
67 70 29 68 30 65 -146 0
67 70 29 68 30 65 -147 0
67 70 29 68 30 65 -148 0
67 70 29 68 65 23 -145 0
67 70 29 68 65 23 -146 0
67 70 29 68 65 23 -147 0
67 70 29 68 65 23 -148 0
67 70 62 68 55 65 -193 0
67 70 62 68 55 65 -195 0
67 70 62 68 55 65 -194 0
67 70 62 68 55 65 -196 0
67 70 51 68 49 65 -188 0
67 70 51 68 49 65 -187 0
67 70 51 68 49 65 -189 0
67 70 51 68 49 65 -190 0
67 70 2 68 6 65 -63 0
67 70 2 68 6 65 -69 0
67 70 2 68 6 65 -64 0
67 70 2 68 6 65 -66 0
67 70 21 68 16 65 -125 0
67 70 21 68 16 65 -123 0
67 70 21 68 16 65 -126 0
67 70 21 68 16 65 -124 0
67 70 10 68 8 65 -97 0
67 70 10 68 8 65 -100 0
67 70 10 68 8 65 -98 0
67 70 10 68 8 65 -99 0
67 70 31 68 37 65 -164 0
67 70 31 68 37 65 -165 0
67 70 31 68 37 65 -163 0
67 70 31 68 37 65 -166 0
67 70 68 44 65 39 -178 0
67 70 68 44 65 39 -180 0
67 70 68 44 65 39 -179 0
67 70 68 44 65 39 -177 0
67 70 68 30 65 23 -145 0
67 70 68 30 65 23 -146 0
67 70 68 30 65 23 -147 0
67 70 68 30 65 23 -148 0
46 28 43 29 44 30 -134 0
46 28 43 29 44 30 -136 0
46 28 43 29 44 30 -135 0
46 28 43 29 44 30 -133 0
46 28 43 29 44 39 -134 0
46 28 43 29 44 39 -136 0
46 28 43 29 44 39 -135 0
46 28 43 29 44 39 -133 0
46 28 43 29 30 23 -134 0
46 28 43 29 30 23 -136 0
46 28 43 29 30 23 -135 0
46 28 43 29 30 23 -133 0
46 28 43 29 39 23 -134 0
46 28 43 29 39 23 -136 0
46 28 43 29 39 23 -135 0
46 28 43 29 39 23 -133 0
46 28 43 44 30 39 -134 0
46 28 43 44 30 39 -136 0
46 28 43 44 30 39 -135 0
46 28 43 44 30 39 -133 0
46 28 43 44 39 23 -134 0
46 28 43 44 39 23 -136 0
46 28 43 44 39 23 -135 0
46 28 43 44 39 23 -133 0
46 28 29 44 30 23 -134 0
46 28 29 44 30 23 -136 0
46 28 29 44 30 23 -135 0
46 28 29 44 30 23 -133 0
46 28 29 30 39 23 -134 0
46 28 29 30 39 23 -136 0
46 28 29 30 39 23 -135 0
46 28 29 30 39 23 -133 0
46 28 44 30 39 23 -134 0
46 28 44 30 39 23 -136 0
46 28 44 30 39 23 -135 0
46 28 44 30 39 23 -133 0
46 58 43 62 44 39 -176 0
46 58 43 62 44 39 -174 0
46 58 43 62 44 39 -173 0
46 58 43 62 44 39 -175 0
46 58 43 44 55 39 -176 0
46 58 43 44 55 39 -174 0
46 58 43 44 55 39 -173 0
46 58 43 44 55 39 -175 0
46 48 43 51 44 39 -171 0
46 48 43 51 44 39 -172 0
46 48 43 51 44 39 -170 0
46 48 43 51 44 39 -169 0
46 48 43 44 49 39 -171 0
46 48 43 44 49 39 -172 0
46 48 43 44 49 39 -170 0
46 48 43 44 49 39 -169 0
46 4 43 2 44 39 -40 0
46 4 43 2 44 39 -41 0
46 4 43 2 44 39 -45 0
46 4 43 2 44 39 -42 0
46 4 43 44 6 39 -40 0
46 4 43 44 6 39 -41 0
46 4 43 44 6 39 -45 0
46 4 43 44 6 39 -42 0
46 15 43 21 44 39 -114 0
46 15 43 21 44 39 -113 0
46 15 43 21 44 39 -112 0
46 15 43 21 44 39 -111 0
46 15 43 44 16 39 -114 0
46 15 43 44 16 39 -113 0
46 15 43 44 16 39 -112 0
46 15 43 44 16 39 -111 0
46 7 43 10 44 39 -86 0
46 7 43 10 44 39 -87 0
46 7 43 10 44 39 -85 0
46 7 43 10 44 39 -88 0
46 7 43 44 8 39 -86 0
46 7 43 44 8 39 -87 0
46 7 43 44 8 39 -85 0
46 7 43 44 8 39 -88 0
46 36 43 31 44 39 -152 0
46 36 43 31 44 39 -151 0
46 36 43 31 44 39 -153 0
46 36 43 31 44 39 -154 0
46 36 43 44 37 39 -152 0
46 36 43 44 37 39 -151 0
46 36 43 44 37 39 -153 0
46 36 43 44 37 39 -154 0
46 70 43 68 44 39 -178 0
46 70 43 68 44 39 -180 0
46 70 43 68 44 39 -179 0
46 70 43 68 44 39 -177 0
46 70 43 44 65 39 -178 0
46 70 43 44 65 39 -180 0
46 70 43 44 65 39 -179 0
46 70 43 44 65 39 -177 0
46 43 29 44 30 39 -134 0
46 43 29 44 30 39 -136 0
46 43 29 44 30 39 -135 0
46 43 29 44 30 39 -133 0
46 43 29 44 39 23 -134 0
46 43 29 44 39 23 -136 0
46 43 29 44 39 23 -135 0
46 43 29 44 39 23 -133 0
46 43 62 44 55 39 -176 0
46 43 62 44 55 39 -174 0
46 43 62 44 55 39 -173 0
46 43 62 44 55 39 -175 0
46 43 51 44 49 39 -171 0
46 43 51 44 49 39 -172 0
46 43 51 44 49 39 -170 0
46 43 51 44 49 39 -169 0
46 43 2 44 6 39 -40 0
46 43 2 44 6 39 -41 0
46 43 2 44 6 39 -45 0
46 43 2 44 6 39 -42 0
46 43 21 44 16 39 -114 0
46 43 21 44 16 39 -113 0
46 43 21 44 16 39 -112 0
46 43 21 44 16 39 -111 0
46 43 10 44 8 39 -86 0
46 43 10 44 8 39 -87 0
46 43 10 44 8 39 -85 0
46 43 10 44 8 39 -88 0
46 43 31 44 37 39 -152 0
46 43 31 44 37 39 -151 0
46 43 31 44 37 39 -153 0
46 43 31 44 37 39 -154 0
46 43 68 44 65 39 -178 0
46 43 68 44 65 39 -180 0
46 43 68 44 65 39 -179 0
46 43 68 44 65 39 -177 0
46 43 44 30 39 23 -134 0
46 43 44 30 39 23 -136 0
46 43 44 30 39 23 -135 0
46 43 44 30 39 23 -133 0
28 58 29 62 30 23 -142 0
28 58 29 62 30 23 -143 0
28 58 29 62 30 23 -141 0
28 58 29 62 30 23 -144 0
28 58 29 30 55 23 -142 0
28 58 29 30 55 23 -143 0
28 58 29 30 55 23 -141 0
28 58 29 30 55 23 -144 0
28 48 29 51 30 23 -139 0
28 48 29 51 30 23 -140 0
28 48 29 51 30 23 -137 0
28 48 29 51 30 23 -138 0
28 48 29 30 49 23 -139 0
28 48 29 30 49 23 -140 0
28 48 29 30 49 23 -137 0
28 48 29 30 49 23 -138 0
28 4 29 2 30 23 -24 0
28 4 29 2 30 23 -25 0
28 4 29 2 30 23 -26 0
28 4 29 2 30 23 -27 0
28 4 29 30 6 23 -24 0
28 4 29 30 6 23 -25 0
28 4 29 30 6 23 -26 0
28 4 29 30 6 23 -27 0
28 15 29 21 30 23 -105 0
28 15 29 21 30 23 -104 0
28 15 29 21 30 23 -106 0
28 15 29 21 30 23 -103 0
28 15 29 30 16 23 -105 0
28 15 29 30 16 23 -104 0
28 15 29 30 16 23 -106 0
28 15 29 30 16 23 -103 0
28 7 29 10 30 23 -77 0
28 7 29 10 30 23 -78 0
28 7 29 10 30 23 -79 0
28 7 29 10 30 23 -80 0
28 7 29 30 8 23 -77 0
28 7 29 30 8 23 -78 0
28 7 29 30 8 23 -79 0
28 7 29 30 8 23 -80 0
28 36 29 31 30 23 -129 0
28 36 29 31 30 23 -132 0
28 36 29 31 30 23 -131 0
28 36 29 31 30 23 -130 0
28 36 29 30 37 23 -129 0
28 36 29 30 37 23 -132 0
28 36 29 30 37 23 -131 0
28 36 29 30 37 23 -130 0
28 70 29 68 30 23 -145 0
28 70 29 68 30 23 -146 0
28 70 29 68 30 23 -147 0
28 70 29 68 30 23 -148 0
28 70 29 30 65 23 -145 0
28 70 29 30 65 23 -146 0
28 70 29 30 65 23 -147 0
28 70 29 30 65 23 -148 0
28 43 29 44 30 23 -134 0
28 43 29 44 30 23 -136 0
28 43 29 44 30 23 -135 0
28 43 29 44 30 23 -133 0
28 43 29 30 39 23 -134 0
28 43 29 30 39 23 -136 0
28 43 29 30 39 23 -135 0
28 43 29 30 39 23 -133 0
28 29 62 30 55 23 -142 0
28 29 62 30 55 23 -143 0
28 29 62 30 55 23 -141 0
28 29 62 30 55 23 -144 0
28 29 51 30 49 23 -139 0
28 29 51 30 49 23 -140 0
28 29 51 30 49 23 -137 0
28 29 51 30 49 23 -138 0
28 29 2 30 6 23 -24 0
28 29 2 30 6 23 -25 0
28 29 2 30 6 23 -26 0
28 29 2 30 6 23 -27 0
28 29 21 30 16 23 -105 0
28 29 21 30 16 23 -104 0
28 29 21 30 16 23 -106 0
28 29 21 30 16 23 -103 0
28 29 10 30 8 23 -77 0
28 29 10 30 8 23 -78 0
28 29 10 30 8 23 -79 0
28 29 10 30 8 23 -80 0
28 29 31 30 37 23 -129 0
28 29 31 30 37 23 -132 0
28 29 31 30 37 23 -131 0
28 29 31 30 37 23 -130 0
28 29 68 30 65 23 -145 0
28 29 68 30 65 23 -146 0
28 29 68 30 65 23 -147 0
28 29 68 30 65 23 -148 0
28 29 44 30 39 23 -134 0
28 29 44 30 39 23 -136 0
28 29 44 30 39 23 -135 0
28 29 44 30 39 23 -133 0
58 48 62 51 55 49 -184 0
58 48 62 51 55 49 -186 0
58 48 62 51 55 49 -183 0
58 48 62 51 55 49 -185 0
58 4 62 2 55 6 -61 0
58 4 62 2 55 6 -59 0
58 4 62 2 55 6 -57 0
58 4 62 2 55 6 -56 0
58 15 62 21 55 16 -120 0
58 15 62 21 55 16 -119 0
58 15 62 21 55 16 -121 0
58 15 62 21 55 16 -122 0
58 7 62 10 55 8 -95 0
58 7 62 10 55 8 -94 0
58 7 62 10 55 8 -96 0
58 7 62 10 55 8 -93 0
58 36 62 31 55 37 -161 0
58 36 62 31 55 37 -160 0
58 36 62 31 55 37 -162 0
58 36 62 31 55 37 -159 0
58 70 62 68 55 65 -193 0
58 70 62 68 55 65 -195 0
58 70 62 68 55 65 -194 0
58 70 62 68 55 65 -196 0
58 43 62 44 55 39 -176 0
58 43 62 44 55 39 -174 0
58 43 62 44 55 39 -173 0
58 43 62 44 55 39 -175 0
58 29 62 30 55 23 -142 0
58 29 62 30 55 23 -143 0
58 29 62 30 55 23 -141 0
58 29 62 30 55 23 -144 0
48 4 51 2 49 6 -47 0
48 4 51 2 49 6 -50 0
48 4 51 2 49 6 -54 0
48 4 51 2 49 6 -52 0
48 15 51 21 49 16 -116 0
48 15 51 21 49 16 -118 0
48 15 51 21 49 16 -115 0
48 15 51 21 49 16 -117 0
48 7 51 10 49 8 -92 0
48 7 51 10 49 8 -91 0
48 7 51 10 49 8 -90 0
48 7 51 10 49 8 -89 0
48 36 51 31 49 37 -155 0
48 36 51 31 49 37 -156 0
48 36 51 31 49 37 -158 0
48 36 51 31 49 37 -157 0
48 70 51 68 49 65 -188 0
48 70 51 68 49 65 -187 0
48 70 51 68 49 65 -189 0
48 70 51 68 49 65 -190 0
48 43 51 44 49 39 -171 0
48 43 51 44 49 39 -172 0
48 43 51 44 49 39 -170 0
48 43 51 44 49 39 -169 0
48 29 51 30 49 23 -139 0
48 29 51 30 49 23 -140 0
48 29 51 30 49 23 -137 0
48 29 51 30 49 23 -138 0
4 15 2 21 6 16 -22 0
4 15 2 21 6 16 -18 0
4 15 2 21 6 16 -17 0
4 15 2 21 6 16 -19 0
4 7 2 10 6 8 -12 0
4 7 2 10 6 8 -13 0
4 7 2 10 6 8 -14 0
4 7 2 10 6 8 -11 0
4 36 2 31 6 37 -32 0
4 36 2 31 6 37 -38 0
4 36 2 31 6 37 -33 0
4 36 2 31 6 37 -34 0
4 70 2 68 6 65 -63 0
4 70 2 68 6 65 -69 0
4 70 2 68 6 65 -64 0
4 70 2 68 6 65 -66 0
4 43 2 44 6 39 -40 0
4 43 2 44 6 39 -41 0
4 43 2 44 6 39 -45 0
4 43 2 44 6 39 -42 0
4 29 2 30 6 23 -24 0
4 29 2 30 6 23 -25 0
4 29 2 30 6 23 -26 0
4 29 2 30 6 23 -27 0
15 7 21 10 16 8 -74 0
15 7 21 10 16 8 -73 0
15 7 21 10 16 8 -75 0
15 7 21 10 16 8 -76 0
15 36 21 31 16 37 -109 0
15 36 21 31 16 37 -108 0
15 36 21 31 16 37 -107 0
15 36 21 31 16 37 -110 0
15 70 21 68 16 65 -125 0
15 70 21 68 16 65 -123 0
15 70 21 68 16 65 -126 0
15 70 21 68 16 65 -124 0
15 43 21 44 16 39 -114 0
15 43 21 44 16 39 -113 0
15 43 21 44 16 39 -112 0
15 43 21 44 16 39 -111 0
15 29 21 30 16 23 -105 0
15 29 21 30 16 23 -104 0
15 29 21 30 16 23 -106 0
15 29 21 30 16 23 -103 0
7 36 10 31 8 37 -82 0
7 36 10 31 8 37 -81 0
7 36 10 31 8 37 -84 0
7 36 10 31 8 37 -83 0
7 70 10 68 8 65 -97 0
7 70 10 68 8 65 -100 0
7 70 10 68 8 65 -98 0
7 70 10 68 8 65 -99 0
7 43 10 44 8 39 -86 0
7 43 10 44 8 39 -87 0
7 43 10 44 8 39 -85 0
7 43 10 44 8 39 -88 0
7 29 10 30 8 23 -77 0
7 29 10 30 8 23 -78 0
7 29 10 30 8 23 -79 0
7 29 10 30 8 23 -80 0
36 70 31 68 37 65 -164 0
36 70 31 68 37 65 -165 0
36 70 31 68 37 65 -163 0
36 70 31 68 37 65 -166 0
36 43 31 44 37 39 -152 0
36 43 31 44 37 39 -151 0
36 43 31 44 37 39 -153 0
36 43 31 44 37 39 -154 0
36 29 31 30 37 23 -129 0
36 29 31 30 37 23 -132 0
36 29 31 30 37 23 -131 0
36 29 31 30 37 23 -130 0
70 43 68 44 65 39 -178 0
70 43 68 44 65 39 -180 0
70 43 68 44 65 39 -179 0
70 43 68 44 65 39 -177 0
70 29 68 30 65 23 -145 0
70 29 68 30 65 23 -146 0
70 29 68 30 65 23 -147 0
70 29 68 30 65 23 -148 0
43 29 44 30 39 23 -134 0
43 29 44 30 39 23 -136 0
43 29 44 30 39 23 -135 0
43 29 44 30 39 23 -133 0
60 53 58 48 62 51 55 -184 0
60 53 58 48 62 51 55 -186 0
60 53 58 48 62 51 55 -183 0
60 53 58 48 62 51 55 -185 0
60 53 58 48 62 51 49 -184 0
60 53 58 48 62 51 49 -186 0
60 53 58 48 62 51 49 -183 0
60 53 58 48 62 51 49 -185 0
60 53 58 48 62 55 49 -184 0
60 53 58 48 62 55 49 -186 0
60 53 58 48 62 55 49 -183 0
60 53 58 48 62 55 49 -185 0
60 53 58 48 51 55 49 -184 0
60 53 58 48 51 55 49 -186 0
60 53 58 48 51 55 49 -183 0
60 53 58 48 51 55 49 -185 0
60 53 58 62 51 55 49 -184 0
60 53 58 62 51 55 49 -186 0
60 53 58 62 51 55 49 -183 0
60 53 58 62 51 55 49 -185 0
60 53 48 62 51 55 49 -184 0
60 53 48 62 51 55 49 -186 0
60 53 48 62 51 55 49 -183 0
60 53 48 62 51 55 49 -185 0
60 5 58 4 62 2 55 -61 0
60 5 58 4 62 2 55 -59 0
60 5 58 4 62 2 55 -57 0
60 5 58 4 62 2 55 -56 0
60 5 58 4 62 2 6 -61 0
60 5 58 4 62 2 6 -59 0
60 5 58 4 62 2 6 -57 0
60 5 58 4 62 2 6 -56 0
60 5 58 4 62 55 6 -61 0
60 5 58 4 62 55 6 -59 0
60 5 58 4 62 55 6 -57 0
60 5 58 4 62 55 6 -56 0
60 5 58 4 2 55 6 -61 0
60 5 58 4 2 55 6 -59 0
60 5 58 4 2 55 6 -57 0
60 5 58 4 2 55 6 -56 0
60 5 58 62 2 55 6 -61 0
60 5 58 62 2 55 6 -59 0
60 5 58 62 2 55 6 -57 0
60 5 58 62 2 55 6 -56 0
60 5 4 62 2 55 6 -61 0
60 5 4 62 2 55 6 -59 0
60 5 4 62 2 55 6 -57 0
60 5 4 62 2 55 6 -56 0
60 20 58 15 62 21 55 -120 0
60 20 58 15 62 21 55 -119 0
60 20 58 15 62 21 55 -121 0
60 20 58 15 62 21 55 -122 0
60 20 58 15 62 21 16 -120 0
60 20 58 15 62 21 16 -119 0
60 20 58 15 62 21 16 -121 0
60 20 58 15 62 21 16 -122 0
60 20 58 15 62 55 16 -120 0
60 20 58 15 62 55 16 -119 0
60 20 58 15 62 55 16 -121 0
60 20 58 15 62 55 16 -122 0
60 20 58 15 21 55 16 -120 0
60 20 58 15 21 55 16 -119 0
60 20 58 15 21 55 16 -121 0
60 20 58 15 21 55 16 -122 0
60 20 58 62 21 55 16 -120 0
60 20 58 62 21 55 16 -119 0
60 20 58 62 21 55 16 -121 0
60 20 58 62 21 55 16 -122 0
60 20 15 62 21 55 16 -120 0
60 20 15 62 21 55 16 -119 0
60 20 15 62 21 55 16 -121 0
60 20 15 62 21 55 16 -122 0
60 9 58 7 62 10 55 -95 0
60 9 58 7 62 10 55 -94 0
60 9 58 7 62 10 55 -96 0
60 9 58 7 62 10 55 -93 0
60 9 58 7 62 10 8 -95 0
60 9 58 7 62 10 8 -94 0
60 9 58 7 62 10 8 -96 0
60 9 58 7 62 10 8 -93 0
60 9 58 7 62 55 8 -95 0
60 9 58 7 62 55 8 -94 0
60 9 58 7 62 55 8 -96 0
60 9 58 7 62 55 8 -93 0
60 9 58 7 10 55 8 -95 0
60 9 58 7 10 55 8 -94 0
60 9 58 7 10 55 8 -96 0
60 9 58 7 10 55 8 -93 0
60 9 58 62 10 55 8 -95 0
60 9 58 62 10 55 8 -94 0
60 9 58 62 10 55 8 -96 0
60 9 58 62 10 55 8 -93 0
60 9 7 62 10 55 8 -95 0
60 9 7 62 10 55 8 -94 0
60 9 7 62 10 55 8 -96 0
60 9 7 62 10 55 8 -93 0
60 35 58 36 62 31 55 -161 0
60 35 58 36 62 31 55 -160 0
60 35 58 36 62 31 55 -162 0
60 35 58 36 62 31 55 -159 0
60 35 58 36 62 31 37 -161 0
60 35 58 36 62 31 37 -160 0
60 35 58 36 62 31 37 -162 0
60 35 58 36 62 31 37 -159 0
60 35 58 36 62 55 37 -161 0
60 35 58 36 62 55 37 -160 0
60 35 58 36 62 55 37 -162 0
60 35 58 36 62 55 37 -159 0
60 35 58 36 31 55 37 -161 0
60 35 58 36 31 55 37 -160 0
60 35 58 36 31 55 37 -162 0
60 35 58 36 31 55 37 -159 0
60 35 58 62 31 55 37 -161 0
60 35 58 62 31 55 37 -160 0
60 35 58 62 31 55 37 -162 0
60 35 58 62 31 55 37 -159 0
60 35 36 62 31 55 37 -161 0
60 35 36 62 31 55 37 -160 0
60 35 36 62 31 55 37 -162 0
60 35 36 62 31 55 37 -159 0
60 67 58 70 62 68 55 -193 0
60 67 58 70 62 68 55 -195 0
60 67 58 70 62 68 55 -194 0
60 67 58 70 62 68 55 -196 0
60 67 58 70 62 68 65 -193 0
60 67 58 70 62 68 65 -195 0
60 67 58 70 62 68 65 -194 0
60 67 58 70 62 68 65 -196 0
60 67 58 70 62 55 65 -193 0
60 67 58 70 62 55 65 -195 0
60 67 58 70 62 55 65 -194 0
60 67 58 70 62 55 65 -196 0
60 67 58 70 68 55 65 -193 0
60 67 58 70 68 55 65 -195 0
60 67 58 70 68 55 65 -194 0
60 67 58 70 68 55 65 -196 0
60 67 58 62 68 55 65 -193 0
60 67 58 62 68 55 65 -195 0
60 67 58 62 68 55 65 -194 0
60 67 58 62 68 55 65 -196 0
60 67 70 62 68 55 65 -193 0
60 67 70 62 68 55 65 -195 0
60 67 70 62 68 55 65 -194 0
60 67 70 62 68 55 65 -196 0
60 46 58 43 62 44 55 -176 0
60 46 58 43 62 44 55 -174 0
60 46 58 43 62 44 55 -173 0
60 46 58 43 62 44 55 -175 0
60 46 58 43 62 44 39 -176 0
60 46 58 43 62 44 39 -174 0
60 46 58 43 62 44 39 -173 0
60 46 58 43 62 44 39 -175 0
60 46 58 43 62 55 39 -176 0
60 46 58 43 62 55 39 -174 0
60 46 58 43 62 55 39 -173 0
60 46 58 43 62 55 39 -175 0
60 46 58 43 44 55 39 -176 0
60 46 58 43 44 55 39 -174 0
60 46 58 43 44 55 39 -173 0
60 46 58 43 44 55 39 -175 0
60 46 58 62 44 55 39 -176 0
60 46 58 62 44 55 39 -174 0
60 46 58 62 44 55 39 -173 0
60 46 58 62 44 55 39 -175 0
60 46 43 62 44 55 39 -176 0
60 46 43 62 44 55 39 -174 0
60 46 43 62 44 55 39 -173 0
60 46 43 62 44 55 39 -175 0
60 28 58 29 62 30 55 -142 0
60 28 58 29 62 30 55 -143 0
60 28 58 29 62 30 55 -141 0
60 28 58 29 62 30 55 -144 0
60 28 58 29 62 30 23 -142 0
60 28 58 29 62 30 23 -143 0
60 28 58 29 62 30 23 -141 0
60 28 58 29 62 30 23 -144 0
60 28 58 29 62 55 23 -142 0
60 28 58 29 62 55 23 -143 0
60 28 58 29 62 55 23 -141 0
60 28 58 29 62 55 23 -144 0
60 28 58 29 30 55 23 -142 0
60 28 58 29 30 55 23 -143 0
60 28 58 29 30 55 23 -141 0
60 28 58 29 30 55 23 -144 0
60 28 58 62 30 55 23 -142 0
60 28 58 62 30 55 23 -143 0
60 28 58 62 30 55 23 -141 0
60 28 58 62 30 55 23 -144 0
60 28 29 62 30 55 23 -142 0
60 28 29 62 30 55 23 -143 0
60 28 29 62 30 55 23 -141 0
60 28 29 62 30 55 23 -144 0
60 58 48 62 51 55 49 -184 0
60 58 48 62 51 55 49 -186 0
60 58 48 62 51 55 49 -183 0
60 58 48 62 51 55 49 -185 0
60 58 4 62 2 55 6 -61 0
60 58 4 62 2 55 6 -59 0
60 58 4 62 2 55 6 -57 0
60 58 4 62 2 55 6 -56 0
60 58 15 62 21 55 16 -120 0
60 58 15 62 21 55 16 -119 0
60 58 15 62 21 55 16 -121 0
60 58 15 62 21 55 16 -122 0
60 58 7 62 10 55 8 -95 0
60 58 7 62 10 55 8 -94 0
60 58 7 62 10 55 8 -96 0
60 58 7 62 10 55 8 -93 0
60 58 36 62 31 55 37 -161 0
60 58 36 62 31 55 37 -160 0
60 58 36 62 31 55 37 -162 0
60 58 36 62 31 55 37 -159 0
60 58 70 62 68 55 65 -193 0
60 58 70 62 68 55 65 -195 0
60 58 70 62 68 55 65 -194 0
60 58 70 62 68 55 65 -196 0
60 58 43 62 44 55 39 -176 0
60 58 43 62 44 55 39 -174 0
60 58 43 62 44 55 39 -173 0
60 58 43 62 44 55 39 -175 0
60 58 29 62 30 55 23 -142 0
60 58 29 62 30 55 23 -143 0
60 58 29 62 30 55 23 -141 0
60 58 29 62 30 55 23 -144 0
53 5 48 4 51 2 49 -47 0
53 5 48 4 51 2 49 -50 0
53 5 48 4 51 2 49 -54 0
53 5 48 4 51 2 49 -52 0
53 5 48 4 51 2 6 -47 0
53 5 48 4 51 2 6 -50 0
53 5 48 4 51 2 6 -54 0
53 5 48 4 51 2 6 -52 0
53 5 48 4 51 49 6 -47 0
53 5 48 4 51 49 6 -50 0
53 5 48 4 51 49 6 -54 0
53 5 48 4 51 49 6 -52 0
53 5 48 4 2 49 6 -47 0
53 5 48 4 2 49 6 -50 0
53 5 48 4 2 49 6 -54 0
53 5 48 4 2 49 6 -52 0
53 5 48 51 2 49 6 -47 0
53 5 48 51 2 49 6 -50 0
53 5 48 51 2 49 6 -54 0
53 5 48 51 2 49 6 -52 0
53 5 4 51 2 49 6 -47 0
53 5 4 51 2 49 6 -50 0
53 5 4 51 2 49 6 -54 0
53 5 4 51 2 49 6 -52 0
53 20 48 15 51 21 49 -116 0
53 20 48 15 51 21 49 -118 0
53 20 48 15 51 21 49 -115 0
53 20 48 15 51 21 49 -117 0
53 20 48 15 51 21 16 -116 0
53 20 48 15 51 21 16 -118 0
53 20 48 15 51 21 16 -115 0
53 20 48 15 51 21 16 -117 0
53 20 48 15 51 49 16 -116 0
53 20 48 15 51 49 16 -118 0
53 20 48 15 51 49 16 -115 0
53 20 48 15 51 49 16 -117 0
53 20 48 15 21 49 16 -116 0
53 20 48 15 21 49 16 -118 0
53 20 48 15 21 49 16 -115 0
53 20 48 15 21 49 16 -117 0
53 20 48 51 21 49 16 -116 0
53 20 48 51 21 49 16 -118 0
53 20 48 51 21 49 16 -115 0
53 20 48 51 21 49 16 -117 0
53 20 15 51 21 49 16 -116 0
53 20 15 51 21 49 16 -118 0
53 20 15 51 21 49 16 -115 0
53 20 15 51 21 49 16 -117 0
53 9 48 7 51 10 49 -92 0
53 9 48 7 51 10 49 -91 0
53 9 48 7 51 10 49 -90 0
53 9 48 7 51 10 49 -89 0
53 9 48 7 51 10 8 -92 0
53 9 48 7 51 10 8 -91 0
53 9 48 7 51 10 8 -90 0
53 9 48 7 51 10 8 -89 0
53 9 48 7 51 49 8 -92 0
53 9 48 7 51 49 8 -91 0
53 9 48 7 51 49 8 -90 0
53 9 48 7 51 49 8 -89 0
53 9 48 7 10 49 8 -92 0
53 9 48 7 10 49 8 -91 0
53 9 48 7 10 49 8 -90 0
53 9 48 7 10 49 8 -89 0
53 9 48 51 10 49 8 -92 0
53 9 48 51 10 49 8 -91 0
53 9 48 51 10 49 8 -90 0
53 9 48 51 10 49 8 -89 0
53 9 7 51 10 49 8 -92 0
53 9 7 51 10 49 8 -91 0
53 9 7 51 10 49 8 -90 0
53 9 7 51 10 49 8 -89 0
53 35 48 36 51 31 49 -155 0
53 35 48 36 51 31 49 -156 0
53 35 48 36 51 31 49 -158 0
53 35 48 36 51 31 49 -157 0
53 35 48 36 51 31 37 -155 0
53 35 48 36 51 31 37 -156 0
53 35 48 36 51 31 37 -158 0
53 35 48 36 51 31 37 -157 0
53 35 48 36 51 49 37 -155 0
53 35 48 36 51 49 37 -156 0
53 35 48 36 51 49 37 -158 0
53 35 48 36 51 49 37 -157 0
53 35 48 36 31 49 37 -155 0
53 35 48 36 31 49 37 -156 0
53 35 48 36 31 49 37 -158 0
53 35 48 36 31 49 37 -157 0
53 35 48 51 31 49 37 -155 0
53 35 48 51 31 49 37 -156 0
53 35 48 51 31 49 37 -158 0
53 35 48 51 31 49 37 -157 0
53 35 36 51 31 49 37 -155 0
53 35 36 51 31 49 37 -156 0
53 35 36 51 31 49 37 -158 0
53 35 36 51 31 49 37 -157 0
53 67 48 70 51 68 49 -188 0
53 67 48 70 51 68 49 -187 0
53 67 48 70 51 68 49 -189 0
53 67 48 70 51 68 49 -190 0
53 67 48 70 51 68 65 -188 0
53 67 48 70 51 68 65 -187 0
53 67 48 70 51 68 65 -189 0
53 67 48 70 51 68 65 -190 0
53 67 48 70 51 49 65 -188 0
53 67 48 70 51 49 65 -187 0
53 67 48 70 51 49 65 -189 0
53 67 48 70 51 49 65 -190 0
53 67 48 70 68 49 65 -188 0
53 67 48 70 68 49 65 -187 0
53 67 48 70 68 49 65 -189 0
53 67 48 70 68 49 65 -190 0
53 67 48 51 68 49 65 -188 0
53 67 48 51 68 49 65 -187 0
53 67 48 51 68 49 65 -189 0
53 67 48 51 68 49 65 -190 0
53 67 70 51 68 49 65 -188 0
53 67 70 51 68 49 65 -187 0
53 67 70 51 68 49 65 -189 0
53 67 70 51 68 49 65 -190 0
53 46 48 43 51 44 49 -171 0
53 46 48 43 51 44 49 -172 0
53 46 48 43 51 44 49 -170 0
53 46 48 43 51 44 49 -169 0
53 46 48 43 51 44 39 -171 0
53 46 48 43 51 44 39 -172 0
53 46 48 43 51 44 39 -170 0
53 46 48 43 51 44 39 -169 0
53 46 48 43 51 49 39 -171 0
53 46 48 43 51 49 39 -172 0
53 46 48 43 51 49 39 -170 0
53 46 48 43 51 49 39 -169 0
53 46 48 43 44 49 39 -171 0
53 46 48 43 44 49 39 -172 0
53 46 48 43 44 49 39 -170 0
53 46 48 43 44 49 39 -169 0
53 46 48 51 44 49 39 -171 0
53 46 48 51 44 49 39 -172 0
53 46 48 51 44 49 39 -170 0
53 46 48 51 44 49 39 -169 0
53 46 43 51 44 49 39 -171 0
53 46 43 51 44 49 39 -172 0
53 46 43 51 44 49 39 -170 0
53 46 43 51 44 49 39 -169 0
53 28 48 29 51 30 49 -139 0
53 28 48 29 51 30 49 -140 0
53 28 48 29 51 30 49 -137 0
53 28 48 29 51 30 49 -138 0
53 28 48 29 51 30 23 -139 0
53 28 48 29 51 30 23 -140 0
53 28 48 29 51 30 23 -137 0
53 28 48 29 51 30 23 -138 0
53 28 48 29 51 49 23 -139 0
53 28 48 29 51 49 23 -140 0
53 28 48 29 51 49 23 -137 0
53 28 48 29 51 49 23 -138 0
53 28 48 29 30 49 23 -139 0
53 28 48 29 30 49 23 -140 0
53 28 48 29 30 49 23 -137 0
53 28 48 29 30 49 23 -138 0
53 28 48 51 30 49 23 -139 0
53 28 48 51 30 49 23 -140 0
53 28 48 51 30 49 23 -137 0
53 28 48 51 30 49 23 -138 0
53 28 29 51 30 49 23 -139 0
53 28 29 51 30 49 23 -140 0
53 28 29 51 30 49 23 -137 0
53 28 29 51 30 49 23 -138 0
53 58 48 62 51 55 49 -184 0
53 58 48 62 51 55 49 -186 0
53 58 48 62 51 55 49 -183 0
53 58 48 62 51 55 49 -185 0
53 48 4 51 2 49 6 -47 0
53 48 4 51 2 49 6 -50 0
53 48 4 51 2 49 6 -54 0
53 48 4 51 2 49 6 -52 0
53 48 15 51 21 49 16 -116 0
53 48 15 51 21 49 16 -118 0
53 48 15 51 21 49 16 -115 0
53 48 15 51 21 49 16 -117 0
53 48 7 51 10 49 8 -92 0
53 48 7 51 10 49 8 -91 0
53 48 7 51 10 49 8 -90 0
53 48 7 51 10 49 8 -89 0
53 48 36 51 31 49 37 -155 0
53 48 36 51 31 49 37 -156 0
53 48 36 51 31 49 37 -158 0
53 48 36 51 31 49 37 -157 0
53 48 70 51 68 49 65 -188 0
53 48 70 51 68 49 65 -187 0
53 48 70 51 68 49 65 -189 0
53 48 70 51 68 49 65 -190 0
53 48 43 51 44 49 39 -171 0
53 48 43 51 44 49 39 -172 0
53 48 43 51 44 49 39 -170 0
53 48 43 51 44 49 39 -169 0
53 48 29 51 30 49 23 -139 0
53 48 29 51 30 49 23 -140 0
53 48 29 51 30 49 23 -137 0
53 48 29 51 30 49 23 -138 0
5 20 4 15 2 21 6 -22 0
5 20 4 15 2 21 6 -18 0
5 20 4 15 2 21 6 -17 0
5 20 4 15 2 21 6 -19 0
5 20 4 15 2 21 16 -22 0
5 20 4 15 2 21 16 -18 0
5 20 4 15 2 21 16 -17 0
5 20 4 15 2 21 16 -19 0
5 20 4 15 2 6 16 -22 0
5 20 4 15 2 6 16 -18 0
5 20 4 15 2 6 16 -17 0
5 20 4 15 2 6 16 -19 0
5 20 4 15 21 6 16 -22 0
5 20 4 15 21 6 16 -18 0
5 20 4 15 21 6 16 -17 0
5 20 4 15 21 6 16 -19 0
5 20 4 2 21 6 16 -22 0
5 20 4 2 21 6 16 -18 0
5 20 4 2 21 6 16 -17 0
5 20 4 2 21 6 16 -19 0
5 20 15 2 21 6 16 -22 0
5 20 15 2 21 6 16 -18 0
5 20 15 2 21 6 16 -17 0
5 20 15 2 21 6 16 -19 0
5 9 4 7 2 10 6 -12 0
5 9 4 7 2 10 6 -13 0
5 9 4 7 2 10 6 -14 0
5 9 4 7 2 10 6 -11 0
5 9 4 7 2 10 8 -12 0
5 9 4 7 2 10 8 -13 0
5 9 4 7 2 10 8 -14 0
5 9 4 7 2 10 8 -11 0
5 9 4 7 2 6 8 -12 0
5 9 4 7 2 6 8 -13 0
5 9 4 7 2 6 8 -14 0
5 9 4 7 2 6 8 -11 0
5 9 4 7 10 6 8 -12 0
5 9 4 7 10 6 8 -13 0
5 9 4 7 10 6 8 -14 0
5 9 4 7 10 6 8 -11 0
5 9 4 2 10 6 8 -12 0
5 9 4 2 10 6 8 -13 0
5 9 4 2 10 6 8 -14 0
5 9 4 2 10 6 8 -11 0
5 9 7 2 10 6 8 -12 0
5 9 7 2 10 6 8 -13 0
5 9 7 2 10 6 8 -14 0
5 9 7 2 10 6 8 -11 0
5 35 4 36 2 31 6 -32 0
5 35 4 36 2 31 6 -38 0
5 35 4 36 2 31 6 -33 0
5 35 4 36 2 31 6 -34 0
5 35 4 36 2 31 37 -32 0
5 35 4 36 2 31 37 -38 0
5 35 4 36 2 31 37 -33 0
5 35 4 36 2 31 37 -34 0
5 35 4 36 2 6 37 -32 0
5 35 4 36 2 6 37 -38 0
5 35 4 36 2 6 37 -33 0
5 35 4 36 2 6 37 -34 0
5 35 4 36 31 6 37 -32 0
5 35 4 36 31 6 37 -38 0
5 35 4 36 31 6 37 -33 0
5 35 4 36 31 6 37 -34 0
5 35 4 2 31 6 37 -32 0
5 35 4 2 31 6 37 -38 0
5 35 4 2 31 6 37 -33 0
5 35 4 2 31 6 37 -34 0
5 35 36 2 31 6 37 -32 0
5 35 36 2 31 6 37 -38 0
5 35 36 2 31 6 37 -33 0
5 35 36 2 31 6 37 -34 0
5 67 4 70 2 68 6 -63 0
5 67 4 70 2 68 6 -69 0
5 67 4 70 2 68 6 -64 0
5 67 4 70 2 68 6 -66 0
5 67 4 70 2 68 65 -63 0
5 67 4 70 2 68 65 -69 0
5 67 4 70 2 68 65 -64 0
5 67 4 70 2 68 65 -66 0
5 67 4 70 2 6 65 -63 0
5 67 4 70 2 6 65 -69 0
5 67 4 70 2 6 65 -64 0
5 67 4 70 2 6 65 -66 0
5 67 4 70 68 6 65 -63 0
5 67 4 70 68 6 65 -69 0
5 67 4 70 68 6 65 -64 0
5 67 4 70 68 6 65 -66 0
5 67 4 2 68 6 65 -63 0
5 67 4 2 68 6 65 -69 0
5 67 4 2 68 6 65 -64 0
5 67 4 2 68 6 65 -66 0
5 67 70 2 68 6 65 -63 0
5 67 70 2 68 6 65 -69 0
5 67 70 2 68 6 65 -64 0
5 67 70 2 68 6 65 -66 0
5 46 4 43 2 44 6 -40 0
5 46 4 43 2 44 6 -41 0
5 46 4 43 2 44 6 -45 0
5 46 4 43 2 44 6 -42 0
5 46 4 43 2 44 39 -40 0
5 46 4 43 2 44 39 -41 0
5 46 4 43 2 44 39 -45 0
5 46 4 43 2 44 39 -42 0
5 46 4 43 2 6 39 -40 0
5 46 4 43 2 6 39 -41 0
5 46 4 43 2 6 39 -45 0
5 46 4 43 2 6 39 -42 0
5 46 4 43 44 6 39 -40 0
5 46 4 43 44 6 39 -41 0
5 46 4 43 44 6 39 -45 0
5 46 4 43 44 6 39 -42 0
5 46 4 2 44 6 39 -40 0
5 46 4 2 44 6 39 -41 0
5 46 4 2 44 6 39 -45 0
5 46 4 2 44 6 39 -42 0
5 46 43 2 44 6 39 -40 0
5 46 43 2 44 6 39 -41 0
5 46 43 2 44 6 39 -45 0
5 46 43 2 44 6 39 -42 0
5 28 4 29 2 30 6 -24 0
5 28 4 29 2 30 6 -25 0
5 28 4 29 2 30 6 -26 0
5 28 4 29 2 30 6 -27 0
5 28 4 29 2 30 23 -24 0
5 28 4 29 2 30 23 -25 0
5 28 4 29 2 30 23 -26 0
5 28 4 29 2 30 23 -27 0
5 28 4 29 2 6 23 -24 0
5 28 4 29 2 6 23 -25 0
5 28 4 29 2 6 23 -26 0
5 28 4 29 2 6 23 -27 0
5 28 4 29 30 6 23 -24 0
5 28 4 29 30 6 23 -25 0
5 28 4 29 30 6 23 -26 0
5 28 4 29 30 6 23 -27 0
5 28 4 2 30 6 23 -24 0
5 28 4 2 30 6 23 -25 0
5 28 4 2 30 6 23 -26 0
5 28 4 2 30 6 23 -27 0
5 28 29 2 30 6 23 -24 0
5 28 29 2 30 6 23 -25 0
5 28 29 2 30 6 23 -26 0
5 28 29 2 30 6 23 -27 0
5 58 4 62 2 55 6 -61 0
5 58 4 62 2 55 6 -59 0
5 58 4 62 2 55 6 -57 0
5 58 4 62 2 55 6 -56 0
5 48 4 51 2 49 6 -47 0
5 48 4 51 2 49 6 -50 0
5 48 4 51 2 49 6 -54 0
5 48 4 51 2 49 6 -52 0
5 4 15 2 21 6 16 -22 0
5 4 15 2 21 6 16 -18 0
5 4 15 2 21 6 16 -17 0
5 4 15 2 21 6 16 -19 0
5 4 7 2 10 6 8 -12 0
5 4 7 2 10 6 8 -13 0
5 4 7 2 10 6 8 -14 0
5 4 7 2 10 6 8 -11 0
5 4 36 2 31 6 37 -32 0
5 4 36 2 31 6 37 -38 0
5 4 36 2 31 6 37 -33 0
5 4 36 2 31 6 37 -34 0
5 4 70 2 68 6 65 -63 0
5 4 70 2 68 6 65 -69 0
5 4 70 2 68 6 65 -64 0
5 4 70 2 68 6 65 -66 0
5 4 43 2 44 6 39 -40 0
5 4 43 2 44 6 39 -41 0
5 4 43 2 44 6 39 -45 0
5 4 43 2 44 6 39 -42 0
5 4 29 2 30 6 23 -24 0
5 4 29 2 30 6 23 -25 0
5 4 29 2 30 6 23 -26 0
5 4 29 2 30 6 23 -27 0
20 9 15 7 21 10 16 -74 0
20 9 15 7 21 10 16 -73 0
20 9 15 7 21 10 16 -75 0
20 9 15 7 21 10 16 -76 0
20 9 15 7 21 10 8 -74 0
20 9 15 7 21 10 8 -73 0
20 9 15 7 21 10 8 -75 0
20 9 15 7 21 10 8 -76 0
20 9 15 7 21 16 8 -74 0
20 9 15 7 21 16 8 -73 0
20 9 15 7 21 16 8 -75 0
20 9 15 7 21 16 8 -76 0
20 9 15 7 10 16 8 -74 0
20 9 15 7 10 16 8 -73 0
20 9 15 7 10 16 8 -75 0
20 9 15 7 10 16 8 -76 0
20 9 15 21 10 16 8 -74 0
20 9 15 21 10 16 8 -73 0
20 9 15 21 10 16 8 -75 0
20 9 15 21 10 16 8 -76 0
20 9 7 21 10 16 8 -74 0
20 9 7 21 10 16 8 -73 0
20 9 7 21 10 16 8 -75 0
20 9 7 21 10 16 8 -76 0
20 35 15 36 21 31 16 -109 0
20 35 15 36 21 31 16 -108 0
20 35 15 36 21 31 16 -107 0
20 35 15 36 21 31 16 -110 0
20 35 15 36 21 31 37 -109 0
20 35 15 36 21 31 37 -108 0
20 35 15 36 21 31 37 -107 0
20 35 15 36 21 31 37 -110 0
20 35 15 36 21 16 37 -109 0
20 35 15 36 21 16 37 -108 0
20 35 15 36 21 16 37 -107 0
20 35 15 36 21 16 37 -110 0
20 35 15 36 31 16 37 -109 0
20 35 15 36 31 16 37 -108 0
20 35 15 36 31 16 37 -107 0
20 35 15 36 31 16 37 -110 0
20 35 15 21 31 16 37 -109 0
20 35 15 21 31 16 37 -108 0
20 35 15 21 31 16 37 -107 0
20 35 15 21 31 16 37 -110 0
20 35 36 21 31 16 37 -109 0
20 35 36 21 31 16 37 -108 0
20 35 36 21 31 16 37 -107 0
20 35 36 21 31 16 37 -110 0
20 67 15 70 21 68 16 -125 0
20 67 15 70 21 68 16 -123 0
20 67 15 70 21 68 16 -126 0
20 67 15 70 21 68 16 -124 0
20 67 15 70 21 68 65 -125 0
20 67 15 70 21 68 65 -123 0
20 67 15 70 21 68 65 -126 0
20 67 15 70 21 68 65 -124 0
20 67 15 70 21 16 65 -125 0
20 67 15 70 21 16 65 -123 0
20 67 15 70 21 16 65 -126 0
20 67 15 70 21 16 65 -124 0
20 67 15 70 68 16 65 -125 0
20 67 15 70 68 16 65 -123 0
20 67 15 70 68 16 65 -126 0
20 67 15 70 68 16 65 -124 0
20 67 15 21 68 16 65 -125 0
20 67 15 21 68 16 65 -123 0
20 67 15 21 68 16 65 -126 0
20 67 15 21 68 16 65 -124 0
20 67 70 21 68 16 65 -125 0
20 67 70 21 68 16 65 -123 0
20 67 70 21 68 16 65 -126 0
20 67 70 21 68 16 65 -124 0
20 46 15 43 21 44 16 -114 0
20 46 15 43 21 44 16 -113 0
20 46 15 43 21 44 16 -112 0
20 46 15 43 21 44 16 -111 0
20 46 15 43 21 44 39 -114 0
20 46 15 43 21 44 39 -113 0
20 46 15 43 21 44 39 -112 0
20 46 15 43 21 44 39 -111 0
20 46 15 43 21 16 39 -114 0
20 46 15 43 21 16 39 -113 0
20 46 15 43 21 16 39 -112 0
20 46 15 43 21 16 39 -111 0
20 46 15 43 44 16 39 -114 0
20 46 15 43 44 16 39 -113 0
20 46 15 43 44 16 39 -112 0
20 46 15 43 44 16 39 -111 0
20 46 15 21 44 16 39 -114 0
20 46 15 21 44 16 39 -113 0
20 46 15 21 44 16 39 -112 0
20 46 15 21 44 16 39 -111 0
20 46 43 21 44 16 39 -114 0
20 46 43 21 44 16 39 -113 0
20 46 43 21 44 16 39 -112 0
20 46 43 21 44 16 39 -111 0
20 28 15 29 21 30 16 -105 0
20 28 15 29 21 30 16 -104 0
20 28 15 29 21 30 16 -106 0
20 28 15 29 21 30 16 -103 0
20 28 15 29 21 30 23 -105 0
20 28 15 29 21 30 23 -104 0
20 28 15 29 21 30 23 -106 0
20 28 15 29 21 30 23 -103 0
20 28 15 29 21 16 23 -105 0
20 28 15 29 21 16 23 -104 0
20 28 15 29 21 16 23 -106 0
20 28 15 29 21 16 23 -103 0
20 28 15 29 30 16 23 -105 0
20 28 15 29 30 16 23 -104 0
20 28 15 29 30 16 23 -106 0
20 28 15 29 30 16 23 -103 0
20 28 15 21 30 16 23 -105 0
20 28 15 21 30 16 23 -104 0
20 28 15 21 30 16 23 -106 0
20 28 15 21 30 16 23 -103 0
20 28 29 21 30 16 23 -105 0
20 28 29 21 30 16 23 -104 0
20 28 29 21 30 16 23 -106 0
20 28 29 21 30 16 23 -103 0
20 58 15 62 21 55 16 -120 0
20 58 15 62 21 55 16 -119 0
20 58 15 62 21 55 16 -121 0
20 58 15 62 21 55 16 -122 0
20 48 15 51 21 49 16 -116 0
20 48 15 51 21 49 16 -118 0
20 48 15 51 21 49 16 -115 0
20 48 15 51 21 49 16 -117 0
20 4 15 2 21 6 16 -22 0
20 4 15 2 21 6 16 -18 0
20 4 15 2 21 6 16 -17 0
20 4 15 2 21 6 16 -19 0
20 15 7 21 10 16 8 -74 0
20 15 7 21 10 16 8 -73 0
20 15 7 21 10 16 8 -75 0
20 15 7 21 10 16 8 -76 0
20 15 36 21 31 16 37 -109 0
20 15 36 21 31 16 37 -108 0
20 15 36 21 31 16 37 -107 0
20 15 36 21 31 16 37 -110 0
20 15 70 21 68 16 65 -125 0
20 15 70 21 68 16 65 -123 0
20 15 70 21 68 16 65 -126 0
20 15 70 21 68 16 65 -124 0
20 15 43 21 44 16 39 -114 0
20 15 43 21 44 16 39 -113 0
20 15 43 21 44 16 39 -112 0
20 15 43 21 44 16 39 -111 0
20 15 29 21 30 16 23 -105 0
20 15 29 21 30 16 23 -104 0
20 15 29 21 30 16 23 -106 0
20 15 29 21 30 16 23 -103 0
9 35 7 36 10 31 8 -82 0
9 35 7 36 10 31 8 -81 0
9 35 7 36 10 31 8 -84 0
9 35 7 36 10 31 8 -83 0
9 35 7 36 10 31 37 -82 0
9 35 7 36 10 31 37 -81 0
9 35 7 36 10 31 37 -84 0
9 35 7 36 10 31 37 -83 0
9 35 7 36 10 8 37 -82 0
9 35 7 36 10 8 37 -81 0
9 35 7 36 10 8 37 -84 0
9 35 7 36 10 8 37 -83 0
9 35 7 36 31 8 37 -82 0
9 35 7 36 31 8 37 -81 0
9 35 7 36 31 8 37 -84 0
9 35 7 36 31 8 37 -83 0
9 35 7 10 31 8 37 -82 0
9 35 7 10 31 8 37 -81 0
9 35 7 10 31 8 37 -84 0
9 35 7 10 31 8 37 -83 0
9 35 36 10 31 8 37 -82 0
9 35 36 10 31 8 37 -81 0
9 35 36 10 31 8 37 -84 0
9 35 36 10 31 8 37 -83 0
9 67 7 70 10 68 8 -97 0
9 67 7 70 10 68 8 -100 0
9 67 7 70 10 68 8 -98 0
9 67 7 70 10 68 8 -99 0
9 67 7 70 10 68 65 -97 0
9 67 7 70 10 68 65 -100 0
9 67 7 70 10 68 65 -98 0
9 67 7 70 10 68 65 -99 0
9 67 7 70 10 8 65 -97 0
9 67 7 70 10 8 65 -100 0
9 67 7 70 10 8 65 -98 0
9 67 7 70 10 8 65 -99 0
9 67 7 70 68 8 65 -97 0
9 67 7 70 68 8 65 -100 0
9 67 7 70 68 8 65 -98 0
9 67 7 70 68 8 65 -99 0
9 67 7 10 68 8 65 -97 0
9 67 7 10 68 8 65 -100 0
9 67 7 10 68 8 65 -98 0
9 67 7 10 68 8 65 -99 0
9 67 70 10 68 8 65 -97 0
9 67 70 10 68 8 65 -100 0
9 67 70 10 68 8 65 -98 0
9 67 70 10 68 8 65 -99 0
9 46 7 43 10 44 8 -86 0
9 46 7 43 10 44 8 -87 0
9 46 7 43 10 44 8 -85 0
9 46 7 43 10 44 8 -88 0
9 46 7 43 10 44 39 -86 0
9 46 7 43 10 44 39 -87 0
9 46 7 43 10 44 39 -85 0
9 46 7 43 10 44 39 -88 0
9 46 7 43 10 8 39 -86 0
9 46 7 43 10 8 39 -87 0
9 46 7 43 10 8 39 -85 0
9 46 7 43 10 8 39 -88 0
9 46 7 43 44 8 39 -86 0
9 46 7 43 44 8 39 -87 0
9 46 7 43 44 8 39 -85 0
9 46 7 43 44 8 39 -88 0
9 46 7 10 44 8 39 -86 0
9 46 7 10 44 8 39 -87 0
9 46 7 10 44 8 39 -85 0
9 46 7 10 44 8 39 -88 0
9 46 43 10 44 8 39 -86 0
9 46 43 10 44 8 39 -87 0
9 46 43 10 44 8 39 -85 0
9 46 43 10 44 8 39 -88 0
9 28 7 29 10 30 8 -77 0
9 28 7 29 10 30 8 -78 0
9 28 7 29 10 30 8 -79 0
9 28 7 29 10 30 8 -80 0
9 28 7 29 10 30 23 -77 0
9 28 7 29 10 30 23 -78 0
9 28 7 29 10 30 23 -79 0
9 28 7 29 10 30 23 -80 0
9 28 7 29 10 8 23 -77 0
9 28 7 29 10 8 23 -78 0
9 28 7 29 10 8 23 -79 0
9 28 7 29 10 8 23 -80 0
9 28 7 29 30 8 23 -77 0
9 28 7 29 30 8 23 -78 0
9 28 7 29 30 8 23 -79 0
9 28 7 29 30 8 23 -80 0
9 28 7 10 30 8 23 -77 0
9 28 7 10 30 8 23 -78 0
9 28 7 10 30 8 23 -79 0
9 28 7 10 30 8 23 -80 0
9 28 29 10 30 8 23 -77 0
9 28 29 10 30 8 23 -78 0
9 28 29 10 30 8 23 -79 0
9 28 29 10 30 8 23 -80 0
9 58 7 62 10 55 8 -95 0
9 58 7 62 10 55 8 -94 0
9 58 7 62 10 55 8 -96 0
9 58 7 62 10 55 8 -93 0
9 48 7 51 10 49 8 -92 0
9 48 7 51 10 49 8 -91 0
9 48 7 51 10 49 8 -90 0
9 48 7 51 10 49 8 -89 0
9 4 7 2 10 6 8 -12 0
9 4 7 2 10 6 8 -13 0
9 4 7 2 10 6 8 -14 0
9 4 7 2 10 6 8 -11 0
9 15 7 21 10 16 8 -74 0
9 15 7 21 10 16 8 -73 0
9 15 7 21 10 16 8 -75 0
9 15 7 21 10 16 8 -76 0
9 7 36 10 31 8 37 -82 0
9 7 36 10 31 8 37 -81 0
9 7 36 10 31 8 37 -84 0
9 7 36 10 31 8 37 -83 0
9 7 70 10 68 8 65 -97 0
9 7 70 10 68 8 65 -100 0
9 7 70 10 68 8 65 -98 0
9 7 70 10 68 8 65 -99 0
9 7 43 10 44 8 39 -86 0
9 7 43 10 44 8 39 -87 0
9 7 43 10 44 8 39 -85 0
9 7 43 10 44 8 39 -88 0
9 7 29 10 30 8 23 -77 0
9 7 29 10 30 8 23 -78 0
9 7 29 10 30 8 23 -79 0
9 7 29 10 30 8 23 -80 0
35 67 36 70 31 68 37 -164 0
35 67 36 70 31 68 37 -165 0
35 67 36 70 31 68 37 -163 0
35 67 36 70 31 68 37 -166 0
35 67 36 70 31 68 65 -164 0
35 67 36 70 31 68 65 -165 0
35 67 36 70 31 68 65 -163 0
35 67 36 70 31 68 65 -166 0
35 67 36 70 31 37 65 -164 0
35 67 36 70 31 37 65 -165 0
35 67 36 70 31 37 65 -163 0
35 67 36 70 31 37 65 -166 0
35 67 36 70 68 37 65 -164 0
35 67 36 70 68 37 65 -165 0
35 67 36 70 68 37 65 -163 0
35 67 36 70 68 37 65 -166 0
35 67 36 31 68 37 65 -164 0
35 67 36 31 68 37 65 -165 0
35 67 36 31 68 37 65 -163 0
35 67 36 31 68 37 65 -166 0
35 67 70 31 68 37 65 -164 0
35 67 70 31 68 37 65 -165 0
35 67 70 31 68 37 65 -163 0
35 67 70 31 68 37 65 -166 0
35 46 36 43 31 44 37 -152 0
35 46 36 43 31 44 37 -151 0
35 46 36 43 31 44 37 -153 0
35 46 36 43 31 44 37 -154 0
35 46 36 43 31 44 39 -152 0
35 46 36 43 31 44 39 -151 0
35 46 36 43 31 44 39 -153 0
35 46 36 43 31 44 39 -154 0
35 46 36 43 31 37 39 -152 0
35 46 36 43 31 37 39 -151 0
35 46 36 43 31 37 39 -153 0
35 46 36 43 31 37 39 -154 0
35 46 36 43 44 37 39 -152 0
35 46 36 43 44 37 39 -151 0
35 46 36 43 44 37 39 -153 0
35 46 36 43 44 37 39 -154 0
35 46 36 31 44 37 39 -152 0
35 46 36 31 44 37 39 -151 0
35 46 36 31 44 37 39 -153 0
35 46 36 31 44 37 39 -154 0
35 46 43 31 44 37 39 -152 0
35 46 43 31 44 37 39 -151 0
35 46 43 31 44 37 39 -153 0
35 46 43 31 44 37 39 -154 0
35 28 36 29 31 30 37 -129 0
35 28 36 29 31 30 37 -132 0
35 28 36 29 31 30 37 -131 0
35 28 36 29 31 30 37 -130 0
35 28 36 29 31 30 23 -129 0
35 28 36 29 31 30 23 -132 0
35 28 36 29 31 30 23 -131 0
35 28 36 29 31 30 23 -130 0
35 28 36 29 31 37 23 -129 0
35 28 36 29 31 37 23 -132 0
35 28 36 29 31 37 23 -131 0
35 28 36 29 31 37 23 -130 0
35 28 36 29 30 37 23 -129 0
35 28 36 29 30 37 23 -132 0
35 28 36 29 30 37 23 -131 0
35 28 36 29 30 37 23 -130 0
35 28 36 31 30 37 23 -129 0
35 28 36 31 30 37 23 -132 0
35 28 36 31 30 37 23 -131 0
35 28 36 31 30 37 23 -130 0
35 28 29 31 30 37 23 -129 0
35 28 29 31 30 37 23 -132 0
35 28 29 31 30 37 23 -131 0
35 28 29 31 30 37 23 -130 0
35 58 36 62 31 55 37 -161 0
35 58 36 62 31 55 37 -160 0
35 58 36 62 31 55 37 -162 0
35 58 36 62 31 55 37 -159 0
35 48 36 51 31 49 37 -155 0
35 48 36 51 31 49 37 -156 0
35 48 36 51 31 49 37 -158 0
35 48 36 51 31 49 37 -157 0
35 4 36 2 31 6 37 -32 0
35 4 36 2 31 6 37 -38 0
35 4 36 2 31 6 37 -33 0
35 4 36 2 31 6 37 -34 0
35 15 36 21 31 16 37 -109 0
35 15 36 21 31 16 37 -108 0
35 15 36 21 31 16 37 -107 0
35 15 36 21 31 16 37 -110 0
35 7 36 10 31 8 37 -82 0
35 7 36 10 31 8 37 -81 0
35 7 36 10 31 8 37 -84 0
35 7 36 10 31 8 37 -83 0
35 36 70 31 68 37 65 -164 0
35 36 70 31 68 37 65 -165 0
35 36 70 31 68 37 65 -163 0
35 36 70 31 68 37 65 -166 0
35 36 43 31 44 37 39 -152 0
35 36 43 31 44 37 39 -151 0
35 36 43 31 44 37 39 -153 0
35 36 43 31 44 37 39 -154 0
35 36 29 31 30 37 23 -129 0
35 36 29 31 30 37 23 -132 0
35 36 29 31 30 37 23 -131 0
35 36 29 31 30 37 23 -130 0
67 46 70 43 68 44 65 -178 0
67 46 70 43 68 44 65 -180 0
67 46 70 43 68 44 65 -179 0
67 46 70 43 68 44 65 -177 0
67 46 70 43 68 44 39 -178 0
67 46 70 43 68 44 39 -180 0
67 46 70 43 68 44 39 -179 0
67 46 70 43 68 44 39 -177 0
67 46 70 43 68 65 39 -178 0
67 46 70 43 68 65 39 -180 0
67 46 70 43 68 65 39 -179 0
67 46 70 43 68 65 39 -177 0
67 46 70 43 44 65 39 -178 0
67 46 70 43 44 65 39 -180 0
67 46 70 43 44 65 39 -179 0
67 46 70 43 44 65 39 -177 0
67 46 70 68 44 65 39 -178 0
67 46 70 68 44 65 39 -180 0
67 46 70 68 44 65 39 -179 0
67 46 70 68 44 65 39 -177 0
67 46 43 68 44 65 39 -178 0
67 46 43 68 44 65 39 -180 0
67 46 43 68 44 65 39 -179 0
67 46 43 68 44 65 39 -177 0
67 28 70 29 68 30 65 -145 0
67 28 70 29 68 30 65 -146 0
67 28 70 29 68 30 65 -147 0
67 28 70 29 68 30 65 -148 0
67 28 70 29 68 30 23 -145 0
67 28 70 29 68 30 23 -146 0
67 28 70 29 68 30 23 -147 0
67 28 70 29 68 30 23 -148 0
67 28 70 29 68 65 23 -145 0
67 28 70 29 68 65 23 -146 0
67 28 70 29 68 65 23 -147 0
67 28 70 29 68 65 23 -148 0
67 28 70 29 30 65 23 -145 0
67 28 70 29 30 65 23 -146 0
67 28 70 29 30 65 23 -147 0
67 28 70 29 30 65 23 -148 0
67 28 70 68 30 65 23 -145 0
67 28 70 68 30 65 23 -146 0
67 28 70 68 30 65 23 -147 0
67 28 70 68 30 65 23 -148 0
67 28 29 68 30 65 23 -145 0
67 28 29 68 30 65 23 -146 0
67 28 29 68 30 65 23 -147 0
67 28 29 68 30 65 23 -148 0
67 58 70 62 68 55 65 -193 0
67 58 70 62 68 55 65 -195 0
67 58 70 62 68 55 65 -194 0
67 58 70 62 68 55 65 -196 0
67 48 70 51 68 49 65 -188 0
67 48 70 51 68 49 65 -187 0
67 48 70 51 68 49 65 -189 0
67 48 70 51 68 49 65 -190 0
67 4 70 2 68 6 65 -63 0
67 4 70 2 68 6 65 -69 0
67 4 70 2 68 6 65 -64 0
67 4 70 2 68 6 65 -66 0
67 15 70 21 68 16 65 -125 0
67 15 70 21 68 16 65 -123 0
67 15 70 21 68 16 65 -126 0
67 15 70 21 68 16 65 -124 0
67 7 70 10 68 8 65 -97 0
67 7 70 10 68 8 65 -100 0
67 7 70 10 68 8 65 -98 0
67 7 70 10 68 8 65 -99 0
67 36 70 31 68 37 65 -164 0
67 36 70 31 68 37 65 -165 0
67 36 70 31 68 37 65 -163 0
67 36 70 31 68 37 65 -166 0
67 70 43 68 44 65 39 -178 0
67 70 43 68 44 65 39 -180 0
67 70 43 68 44 65 39 -179 0
67 70 43 68 44 65 39 -177 0
67 70 29 68 30 65 23 -145 0
67 70 29 68 30 65 23 -146 0
67 70 29 68 30 65 23 -147 0
67 70 29 68 30 65 23 -148 0
46 28 43 29 44 30 39 -134 0
46 28 43 29 44 30 39 -136 0
46 28 43 29 44 30 39 -135 0
46 28 43 29 44 30 39 -133 0
46 28 43 29 44 30 23 -134 0
46 28 43 29 44 30 23 -136 0
46 28 43 29 44 30 23 -135 0
46 28 43 29 44 30 23 -133 0
46 28 43 29 44 39 23 -134 0
46 28 43 29 44 39 23 -136 0
46 28 43 29 44 39 23 -135 0
46 28 43 29 44 39 23 -133 0
46 28 43 29 30 39 23 -134 0
46 28 43 29 30 39 23 -136 0
46 28 43 29 30 39 23 -135 0
46 28 43 29 30 39 23 -133 0
46 28 43 44 30 39 23 -134 0
46 28 43 44 30 39 23 -136 0
46 28 43 44 30 39 23 -135 0
46 28 43 44 30 39 23 -133 0
46 28 29 44 30 39 23 -134 0
46 28 29 44 30 39 23 -136 0
46 28 29 44 30 39 23 -135 0
46 28 29 44 30 39 23 -133 0
46 58 43 62 44 55 39 -176 0
46 58 43 62 44 55 39 -174 0
46 58 43 62 44 55 39 -173 0
46 58 43 62 44 55 39 -175 0
46 48 43 51 44 49 39 -171 0
46 48 43 51 44 49 39 -172 0
46 48 43 51 44 49 39 -170 0
46 48 43 51 44 49 39 -169 0
46 4 43 2 44 6 39 -40 0
46 4 43 2 44 6 39 -41 0
46 4 43 2 44 6 39 -45 0
46 4 43 2 44 6 39 -42 0
46 15 43 21 44 16 39 -114 0
46 15 43 21 44 16 39 -113 0
46 15 43 21 44 16 39 -112 0
46 15 43 21 44 16 39 -111 0
46 7 43 10 44 8 39 -86 0
46 7 43 10 44 8 39 -87 0
46 7 43 10 44 8 39 -85 0
46 7 43 10 44 8 39 -88 0
46 36 43 31 44 37 39 -152 0
46 36 43 31 44 37 39 -151 0
46 36 43 31 44 37 39 -153 0
46 36 43 31 44 37 39 -154 0
46 70 43 68 44 65 39 -178 0
46 70 43 68 44 65 39 -180 0
46 70 43 68 44 65 39 -179 0
46 70 43 68 44 65 39 -177 0
46 43 29 44 30 39 23 -134 0
46 43 29 44 30 39 23 -136 0
46 43 29 44 30 39 23 -135 0
46 43 29 44 30 39 23 -133 0
28 58 29 62 30 55 23 -142 0
28 58 29 62 30 55 23 -143 0
28 58 29 62 30 55 23 -141 0
28 58 29 62 30 55 23 -144 0
28 48 29 51 30 49 23 -139 0
28 48 29 51 30 49 23 -140 0
28 48 29 51 30 49 23 -137 0
28 48 29 51 30 49 23 -138 0
28 4 29 2 30 6 23 -24 0
28 4 29 2 30 6 23 -25 0
28 4 29 2 30 6 23 -26 0
28 4 29 2 30 6 23 -27 0
28 15 29 21 30 16 23 -105 0
28 15 29 21 30 16 23 -104 0
28 15 29 21 30 16 23 -106 0
28 15 29 21 30 16 23 -103 0
28 7 29 10 30 8 23 -77 0
28 7 29 10 30 8 23 -78 0
28 7 29 10 30 8 23 -79 0
28 7 29 10 30 8 23 -80 0
28 36 29 31 30 37 23 -129 0
28 36 29 31 30 37 23 -132 0
28 36 29 31 30 37 23 -131 0
28 36 29 31 30 37 23 -130 0
28 70 29 68 30 65 23 -145 0
28 70 29 68 30 65 23 -146 0
28 70 29 68 30 65 23 -147 0
28 70 29 68 30 65 23 -148 0
28 43 29 44 30 39 23 -134 0
28 43 29 44 30 39 23 -136 0
28 43 29 44 30 39 23 -135 0
28 43 29 44 30 39 23 -133 0
192 184 61 120 95 161 193 176 142 0
186 182 47 116 92 155 188 171 139 0
59 50 1 22 12 32 63 40 24 0
119 118 18 101 74 109 125 114 105 0
94 91 13 73 72 82 97 86 77 0
160 156 38 108 81 149 164 152 129 0
195 187 69 123 100 165 198 178 145 0
174 172 41 113 87 151 180 167 134 0
143 140 25 104 78 132 146 136 128 0
191 183 57 121 96 162 194 173 141 0
185 181 54 115 90 158 189 170 137 0
56 52 3 17 14 33 64 45 26 0
122 117 19 102 75 107 126 112 106 0
93 89 11 76 71 84 98 85 79 0
159 157 34 110 83 150 163 153 131 0
196 190 66 124 99 166 197 179 147 0
175 169 42 111 88 154 177 168 135 0
144 138 27 103 80 130 148 133 127 0
60 53 58 48 62 51 55 49 -184 0
60 53 58 48 62 51 55 49 -186 0
60 53 58 48 62 51 55 49 -183 0
60 53 58 48 62 51 55 49 -185 0
60 5 58 4 62 2 55 6 -61 0
60 5 58 4 62 2 55 6 -59 0
60 5 58 4 62 2 55 6 -57 0
60 5 58 4 62 2 55 6 -56 0
60 20 58 15 62 21 55 16 -120 0
60 20 58 15 62 21 55 16 -119 0
60 20 58 15 62 21 55 16 -121 0
60 20 58 15 62 21 55 16 -122 0
60 9 58 7 62 10 55 8 -95 0
60 9 58 7 62 10 55 8 -94 0
60 9 58 7 62 10 55 8 -96 0
60 9 58 7 62 10 55 8 -93 0
60 35 58 36 62 31 55 37 -161 0
60 35 58 36 62 31 55 37 -160 0
60 35 58 36 62 31 55 37 -162 0
60 35 58 36 62 31 55 37 -159 0
60 67 58 70 62 68 55 65 -193 0
60 67 58 70 62 68 55 65 -195 0
60 67 58 70 62 68 55 65 -194 0
60 67 58 70 62 68 55 65 -196 0
60 46 58 43 62 44 55 39 -176 0
60 46 58 43 62 44 55 39 -174 0
60 46 58 43 62 44 55 39 -173 0
60 46 58 43 62 44 55 39 -175 0
60 28 58 29 62 30 55 23 -142 0
60 28 58 29 62 30 55 23 -143 0
60 28 58 29 62 30 55 23 -141 0
60 28 58 29 62 30 55 23 -144 0
53 5 48 4 51 2 49 6 -47 0
53 5 48 4 51 2 49 6 -50 0
53 5 48 4 51 2 49 6 -54 0
53 5 48 4 51 2 49 6 -52 0
53 20 48 15 51 21 49 16 -116 0
53 20 48 15 51 21 49 16 -118 0
53 20 48 15 51 21 49 16 -115 0
53 20 48 15 51 21 49 16 -117 0
53 9 48 7 51 10 49 8 -92 0
53 9 48 7 51 10 49 8 -91 0
53 9 48 7 51 10 49 8 -90 0
53 9 48 7 51 10 49 8 -89 0
53 35 48 36 51 31 49 37 -155 0
53 35 48 36 51 31 49 37 -156 0
53 35 48 36 51 31 49 37 -158 0
53 35 48 36 51 31 49 37 -157 0
53 67 48 70 51 68 49 65 -188 0
53 67 48 70 51 68 49 65 -187 0
53 67 48 70 51 68 49 65 -189 0
53 67 48 70 51 68 49 65 -190 0
53 46 48 43 51 44 49 39 -171 0
53 46 48 43 51 44 49 39 -172 0
53 46 48 43 51 44 49 39 -170 0
53 46 48 43 51 44 49 39 -169 0
53 28 48 29 51 30 49 23 -139 0
53 28 48 29 51 30 49 23 -140 0
53 28 48 29 51 30 49 23 -137 0
53 28 48 29 51 30 49 23 -138 0
5 20 4 15 2 21 6 16 -22 0
5 20 4 15 2 21 6 16 -18 0
5 20 4 15 2 21 6 16 -17 0
5 20 4 15 2 21 6 16 -19 0
5 9 4 7 2 10 6 8 -12 0
5 9 4 7 2 10 6 8 -13 0
5 9 4 7 2 10 6 8 -14 0
5 9 4 7 2 10 6 8 -11 0
5 35 4 36 2 31 6 37 -32 0
5 35 4 36 2 31 6 37 -38 0
5 35 4 36 2 31 6 37 -33 0
5 35 4 36 2 31 6 37 -34 0
5 67 4 70 2 68 6 65 -63 0
5 67 4 70 2 68 6 65 -69 0
5 67 4 70 2 68 6 65 -64 0
5 67 4 70 2 68 6 65 -66 0
5 46 4 43 2 44 6 39 -40 0
5 46 4 43 2 44 6 39 -41 0
5 46 4 43 2 44 6 39 -45 0
5 46 4 43 2 44 6 39 -42 0
5 28 4 29 2 30 6 23 -24 0
5 28 4 29 2 30 6 23 -25 0
5 28 4 29 2 30 6 23 -26 0
5 28 4 29 2 30 6 23 -27 0
20 9 15 7 21 10 16 8 -74 0
20 9 15 7 21 10 16 8 -73 0
20 9 15 7 21 10 16 8 -75 0
20 9 15 7 21 10 16 8 -76 0
20 35 15 36 21 31 16 37 -109 0
20 35 15 36 21 31 16 37 -108 0
20 35 15 36 21 31 16 37 -107 0
20 35 15 36 21 31 16 37 -110 0
20 67 15 70 21 68 16 65 -125 0
20 67 15 70 21 68 16 65 -123 0
20 67 15 70 21 68 16 65 -126 0
20 67 15 70 21 68 16 65 -124 0
20 46 15 43 21 44 16 39 -114 0
20 46 15 43 21 44 16 39 -113 0
20 46 15 43 21 44 16 39 -112 0
20 46 15 43 21 44 16 39 -111 0
20 28 15 29 21 30 16 23 -105 0
20 28 15 29 21 30 16 23 -104 0
20 28 15 29 21 30 16 23 -106 0
20 28 15 29 21 30 16 23 -103 0
9 35 7 36 10 31 8 37 -82 0
9 35 7 36 10 31 8 37 -81 0
9 35 7 36 10 31 8 37 -84 0
9 35 7 36 10 31 8 37 -83 0
9 67 7 70 10 68 8 65 -97 0
9 67 7 70 10 68 8 65 -100 0
9 67 7 70 10 68 8 65 -98 0
9 67 7 70 10 68 8 65 -99 0
9 46 7 43 10 44 8 39 -86 0
9 46 7 43 10 44 8 39 -87 0
9 46 7 43 10 44 8 39 -85 0
9 46 7 43 10 44 8 39 -88 0
9 28 7 29 10 30 8 23 -77 0
9 28 7 29 10 30 8 23 -78 0
9 28 7 29 10 30 8 23 -79 0
9 28 7 29 10 30 8 23 -80 0
35 67 36 70 31 68 37 65 -164 0
35 67 36 70 31 68 37 65 -165 0
35 67 36 70 31 68 37 65 -163 0
35 67 36 70 31 68 37 65 -166 0
35 46 36 43 31 44 37 39 -152 0
35 46 36 43 31 44 37 39 -151 0
35 46 36 43 31 44 37 39 -153 0
35 46 36 43 31 44 37 39 -154 0
35 28 36 29 31 30 37 23 -129 0
35 28 36 29 31 30 37 23 -132 0
35 28 36 29 31 30 37 23 -131 0
35 28 36 29 31 30 37 23 -130 0
67 46 70 43 68 44 65 39 -178 0
67 46 70 43 68 44 65 39 -180 0
67 46 70 43 68 44 65 39 -179 0
67 46 70 43 68 44 65 39 -177 0
67 28 70 29 68 30 65 23 -145 0
67 28 70 29 68 30 65 23 -146 0
67 28 70 29 68 30 65 23 -147 0
67 28 70 29 68 30 65 23 -148 0
46 28 43 29 44 30 39 23 -134 0
46 28 43 29 44 30 39 23 -136 0
46 28 43 29 44 30 39 23 -135 0
46 28 43 29 44 30 39 23 -133 0
