c U4(6) U2(6) U3(6) E2(6,6) E1(6,6) U1(6) U1(9) E1(9,6) U2(9) U3(9) E2(9,6) U4(9) E2(6,9) E1(6,9) E1(3,6) U3(3) U1(3) U4(3) E2(3,6) E2(6,3) E1(6,3) U2(3) E2(0,6) U4(0) U3(0) E1(6,0) E2(6,0) U2(0) E1(0,6) U1(0) E2(4,6) E1(4,6) U4(4) E2(6,4) U2(4) E1(6,4) U1(4) U3(4) E2(6,5) E1(6,5) U1(5) U4(5) E1(5,6) U2(5) E2(5,6) U3(5) E1(8,6) E2(6,8) U2(8) U1(8) U3(8) E2(8,6) U4(8) E1(6,8) E1(6,7) U2(7) U3(7) U1(7) E1(7,6) E2(7,6) U4(7) E2(6,7) E2(6,1) U1(1) E2(1,6) E1(1,6) U3(1) U4(1) U2(1) E1(6,1) E1(2,6) U4(2) E2(6,2) E2(2,6) E1(6,2) U1(2) U2(2) U3(2) E2(9,9) E1(9,9) E2(3,9) E1(3,9) E1(9,3) E2(9,3) E1(9,0) E2(9,0) E1(0,9) E2(0,9) E1(9,4) E2(4,9) E2(9,4) E1(4,9) E2(9,5) E1(9,5) E2(5,9) E1(5,9) E2(8,9) E1(9,8) E1(8,9) E2(9,8) E2(9,7) E1(9,7) E2(7,9) E1(7,9) E2(9,1) E2(1,9) E1(9,1) E1(1,9) E2(2,9) E1(2,9) E1(9,2) E2(9,2) E2(3,3) E1(3,3) E2(3,0) E1(3,0) E2(0,3) E1(0,3) E1(3,4) E2(3,4) E2(4,3) E1(4,3) E2(3,5) E1(3,5) E2(5,3) E1(5,3) E1(3,8) E2(3,8) E1(8,3) E2(8,3) E2(7,3) E2(3,7) E1(7,3) E1(3,7) E1(1,3) E2(1,3) E1(3,1) E2(3,1) E2(2,3) E1(2,3) E1(3,2) E2(3,2) E2(0,0) E1(0,0) E2(0,4) E1(0,4) E1(4,0) E2(4,0) E2(5,0) E1(5,0) E2(0,5) E1(0,5) E1(0,8) E1(8,0) E2(0,8) E2(8,0) E2(7,0) E2(0,7) E1(7,0) E1(0,7) E2(0,1) E1(0,1) E1(1,0) E2(1,0) E2(2,0) E1(2,0) E2(0,2) E1(0,2) E1(4,4) E2(4,4) E2(4,5) E1(5,4) E1(4,5) E2(5,4) E1(8,4) E2(4,8) E1(4,8) E2(8,4) E2(7,4) E1(7,4) E2(4,7) E1(4,7) E2(1,4) E1(4,1) E1(1,4) E2(4,1) E2(2,4) E1(2,4) E2(4,2) E1(4,2) E2(5,5) E1(5,5) E2(8,5) E1(8,5) E2(5,8) E1(5,8) E1(5,7) E2(5,7) E2(7,5) E1(7,5) E2(1,5) E1(1,5) E2(5,1) E1(5,1) E1(5,2) E1(2,5) E2(5,2) E2(2,5) E2(8,8) E1(8,8) E2(7,8) E2(8,7) E1(8,7) E1(7,8) E2(1,8) E1(1,8) E2(8,1) E1(8,1) E2(8,2) E1(8,2) E2(2,8) E1(2,8) E2(7,7) E1(7,7) E2(7,1) E1(7,1) E2(1,7) E1(1,7) E2(7,2) E1(7,2) E2(2,7) E1(2,7) E2(1,1) E1(1,1) E2(2,1) E2(1,2) E1(1,2) E1(2,1) E2(2,2) E1(2,2)
c 1 2 3 4 5 6 7 8 9 10 11 12 13 14 15 16 17 18 19 20 21 22 23 24 25 26 27 28 29 30 31 32 33 34 35 36 37 38 39 40 41 42 43 44 45 46 47 48 49 50 51 52 53 54 55 56 57 58 59 60 61 62 63 64 65 66 67 68 69 70 71 72 73 74 75 76 77 78 79 80 81 82 83 84 85 86 87 88 89 90 91 92 93 94 95 96 97 98 99 100 101 102 103 104 105 106 107 108 109 110 111 112 113 114 115 116 117 118 119 120 121 122 123 124 125 126 127 128 129 130 131 132 133 134 135 136 137 138 139 140 141 142 143 144 145 146 147 148 149 150 151 152 153 154 155 156 157 158 159 160 161 162 163 164 165 166 167 168 169 170 171 172 173 174 175 176 177 178 179 180 181 182 183 184 185 186 187 188 189 190 191 192 193 194 195 196 197 198 199 200 201 202 203 204 205 206 207 208 209 210 211 212 213 214 215 216 217 218 219 220 221 222 223 224 225 226 227 228 229 230 231 232 233 234 235 236 237 238 239 240
p cnf 240 6690
144 -144 0
162 -163 0
168 -166 0
118 -116 0
146 -147 0
152 -150 0
29 -26 0
160 -159 0
153 -154 0
87 -85 0
163 -162 0
234 -234 0
237 -238 0
135 -137 0
185 -184 0
202 -204 0
66 -70 0
228 -226 0
216 -218 0
108 -107 0
166 -168 0
238 -237 0
240 -240 0
140 -141 0
188 -190 0
206 -205 0
71 -75 0
232 -230 0
222 -220 0
110 -111 0
116 -118 0
137 -135 0
141 -140 0
114 -114 0
119 -122 0
124 -126 0
15 -21 0
134 -133 0
127 -129 0
82 -83 0
147 -146 0
184 -185 0
190 -188 0
122 -119 0
169 -169 0
173 -172 0
32 -36 0
182 -180 0
177 -175 0
92 -89 0
150 -152 0
204 -202 0
205 -206 0
126 -124 0
172 -173 0
192 -192 0
43 -40 0
197 -200 0
196 -194 0
96 -94 0
26 -29 0
70 -66 0
75 -71 0
21 -15 0
36 -32 0
40 -43 0
5 -5 0
55 -59 0
54 -47 0
14 -8 0
159 -160 0
226 -228 0
230 -232 0
133 -134 0
180 -182 0
200 -197 0
59 -55 0
224 -224 0
214 -213 0
104 -102 0
154 -153 0
218 -216 0
220 -222 0
129 -127 0
175 -177 0
194 -196 0
47 -54 0
213 -214 0
210 -210 0
99 -98 0
85 -87 0
107 -108 0
111 -110 0
83 -82 0
89 -92 0
94 -96 0
8 -14 0
102 -104 0
98 -99 0
80 -80 0
143 -143 0
161 -164 0
167 -165 0
117 -115 0
145 -148 0
151 -149 0
23 -27 0
158 -157 0
155 -156 0
88 -86 0
164 -161 0
233 -233 0
236 -235 0
136 -138 0
183 -186 0
201 -203 0
65 -63 0
227 -225 0
215 -217 0
106 -105 0
165 -167 0
235 -236 0
239 -239 0
139 -142 0
187 -189 0
208 -207 0
74 -73 0
231 -229 0
221 -219 0
109 -112 0
115 -117 0
138 -136 0
142 -139 0
113 -113 0
120 -121 0
123 -125 0
19 -20 0
132 -131 0
128 -130 0
81 -84 0
148 -145 0
186 -183 0
189 -187 0
121 -120 0
170 -170 0
171 -174 0
31 -34 0
181 -179 0
176 -178 0
90 -91 0
149 -151 0
203 -201 0
207 -208 0
125 -123 0
174 -171 0
191 -191 0
45 -39 0
198 -199 0
195 -193 0
95 -93 0
27 -23 0
63 -65 0
73 -74 0
20 -19 0
34 -31 0
39 -45 0
4 -4 0
62 -60 0
48 -52 0
13 -11 0
157 -158 0
225 -227 0
229 -231 0
131 -132 0
179 -181 0
199 -198 0
60 -62 0
223 -223 0
211 -212 0
103 -101 0
156 -155 0
217 -215 0
219 -221 0
130 -128 0
178 -176 0
193 -195 0
52 -48 0
212 -211 0
209 -209 0
97 -100 0
86 -88 0
105 -106 0
112 -109 0
84 -81 0
91 -90 0
93 -95 0
11 -13 0
101 -103 0
100 -97 0
79 -79 0
-30 -28 0
-30 -25 0
-30 -24 0
-64 -69 0
-64 -67 0
-64 -68 0
-76 -77 0
-76 -78 0
-76 -72 0
-17 -22 0
-17 -16 0
-17 -18 0
-37 -35 0
-37 -38 0
-37 -33 0
-41 -44 0
-41 -46 0
-41 -42 0
-6 -2 0
-6 -3 0
-6 -1 0
-58 -56 0
-58 -57 0
-58 -61 0
-50 -49 0
-50 -51 0
-50 -53 0
-7 -9 0
-7 -10 0
-7 -12 0
-28 -25 0
-28 -24 0
-69 -67 0
-69 -68 0
-77 -78 0
-77 -72 0
-22 -16 0
-22 -18 0
-35 -38 0
-35 -33 0
-44 -46 0
-44 -42 0
-2 -3 0
-2 -1 0
-56 -57 0
-56 -61 0
-49 -51 0
-49 -53 0
-9 -10 0
-9 -12 0
-25 -24 0
-67 -68 0
-78 -72 0
-16 -18 0
-38 -33 0
-46 -42 0
-3 -1 0
-57 -61 0
-51 -53 0
-10 -12 0
30 28 25 24 0
64 69 67 68 0
76 77 78 72 0
17 22 16 18 0
37 35 38 33 0
41 44 46 42 0
6 2 3 1 0
58 56 57 61 0
50 49 51 53 0
7 9 10 12 0
30 28 25 -144 0
30 28 25 -143 0
30 28 24 -144 0
30 28 24 -143 0
30 25 24 -144 0
30 25 24 -143 0
64 69 67 -234 0
64 69 67 -233 0
64 69 68 -234 0
64 69 68 -233 0
64 67 68 -234 0
64 67 68 -233 0
76 77 78 -240 0
76 77 78 -239 0
76 77 72 -240 0
76 77 72 -239 0
76 78 72 -240 0
76 78 72 -239 0
17 22 16 -114 0
17 22 16 -113 0
17 22 18 -114 0
17 22 18 -113 0
17 16 18 -114 0
17 16 18 -113 0
37 35 38 -169 0
37 35 38 -170 0
37 35 33 -169 0
37 35 33 -170 0
37 38 33 -169 0
37 38 33 -170 0
41 44 46 -192 0
41 44 46 -191 0
41 44 42 -192 0
41 44 42 -191 0
41 46 42 -192 0
41 46 42 -191 0
6 2 3 -5 0
6 2 3 -4 0
6 2 1 -5 0
6 2 1 -4 0
6 3 1 -5 0
6 3 1 -4 0
58 56 57 -224 0
58 56 57 -223 0
58 56 61 -224 0
58 56 61 -223 0
58 57 61 -224 0
58 57 61 -223 0
50 49 51 -210 0
50 49 51 -209 0
50 49 53 -210 0
50 49 53 -209 0
50 51 53 -210 0
50 51 53 -209 0
7 9 10 -80 0
7 9 10 -79 0
7 9 12 -80 0
7 9 12 -79 0
7 10 12 -80 0
7 10 12 -79 0
28 25 24 -144 0
28 25 24 -143 0
69 67 68 -234 0
69 67 68 -233 0
77 78 72 -240 0
77 78 72 -239 0
22 16 18 -114 0
22 16 18 -113 0
35 38 33 -169 0
35 38 33 -170 0
44 46 42 -192 0
44 46 42 -191 0
2 3 1 -5 0
2 3 1 -4 0
56 57 61 -224 0
56 57 61 -223 0
49 51 53 -210 0
49 51 53 -209 0
9 10 12 -80 0
9 10 12 -79 0
30 28 25 24 -144 0
30 28 25 24 -162 0
30 28 25 24 -168 0
30 28 25 24 -118 0
30 28 25 24 -146 0
30 28 25 24 -152 0
30 28 25 24 -29 0
30 28 25 24 -160 0
30 28 25 24 -153 0
30 28 25 24 -87 0
30 28 25 24 -163 0
30 28 25 24 -166 0
30 28 25 24 -116 0
30 28 25 24 -147 0
30 28 25 24 -150 0
30 28 25 24 -26 0
30 28 25 24 -159 0
30 28 25 24 -154 0
30 28 25 24 -85 0
30 28 25 24 -143 0
30 28 25 24 -161 0
30 28 25 24 -167 0
30 28 25 24 -117 0
30 28 25 24 -145 0
30 28 25 24 -151 0
30 28 25 24 -23 0
30 28 25 24 -158 0
30 28 25 24 -155 0
30 28 25 24 -88 0
30 28 25 24 -164 0
30 28 25 24 -165 0
30 28 25 24 -115 0
30 28 25 24 -148 0
30 28 25 24 -149 0
30 28 25 24 -27 0
30 28 25 24 -157 0
30 28 25 24 -156 0
30 28 25 24 -86 0
64 69 67 68 -162 0
64 69 67 68 -163 0
64 69 67 68 -234 0
64 69 67 68 -237 0
64 69 67 68 -135 0
64 69 67 68 -185 0
64 69 67 68 -202 0
64 69 67 68 -66 0
64 69 67 68 -228 0
64 69 67 68 -216 0
64 69 67 68 -108 0
64 69 67 68 -238 0
64 69 67 68 -137 0
64 69 67 68 -184 0
64 69 67 68 -204 0
64 69 67 68 -70 0
64 69 67 68 -226 0
64 69 67 68 -218 0
64 69 67 68 -107 0
64 69 67 68 -161 0
64 69 67 68 -164 0
64 69 67 68 -233 0
64 69 67 68 -236 0
64 69 67 68 -136 0
64 69 67 68 -183 0
64 69 67 68 -201 0
64 69 67 68 -65 0
64 69 67 68 -227 0
64 69 67 68 -215 0
64 69 67 68 -106 0
64 69 67 68 -235 0
64 69 67 68 -138 0
64 69 67 68 -186 0
64 69 67 68 -203 0
64 69 67 68 -63 0
64 69 67 68 -225 0
64 69 67 68 -217 0
64 69 67 68 -105 0
76 77 78 72 -168 0
76 77 78 72 -237 0
76 77 78 72 -166 0
76 77 78 72 -238 0
76 77 78 72 -240 0
76 77 78 72 -140 0
76 77 78 72 -188 0
76 77 78 72 -206 0
76 77 78 72 -71 0
76 77 78 72 -232 0
76 77 78 72 -222 0
76 77 78 72 -110 0
76 77 78 72 -141 0
76 77 78 72 -190 0
76 77 78 72 -205 0
76 77 78 72 -75 0
76 77 78 72 -230 0
76 77 78 72 -220 0
76 77 78 72 -111 0
76 77 78 72 -167 0
76 77 78 72 -236 0
76 77 78 72 -165 0
76 77 78 72 -235 0
76 77 78 72 -239 0
76 77 78 72 -139 0
76 77 78 72 -187 0
76 77 78 72 -208 0
76 77 78 72 -74 0
76 77 78 72 -231 0
76 77 78 72 -221 0
76 77 78 72 -109 0
76 77 78 72 -142 0
76 77 78 72 -189 0
76 77 78 72 -207 0
76 77 78 72 -73 0
76 77 78 72 -229 0
76 77 78 72 -219 0
76 77 78 72 -112 0
17 22 16 18 -118 0
17 22 16 18 -135 0
17 22 16 18 -140 0
17 22 16 18 -116 0
17 22 16 18 -137 0
17 22 16 18 -141 0
17 22 16 18 -114 0
17 22 16 18 -119 0
17 22 16 18 -124 0
17 22 16 18 -15 0
17 22 16 18 -134 0
17 22 16 18 -127 0
17 22 16 18 -82 0
17 22 16 18 -122 0
17 22 16 18 -126 0
17 22 16 18 -21 0
17 22 16 18 -133 0
17 22 16 18 -129 0
17 22 16 18 -83 0
17 22 16 18 -117 0
17 22 16 18 -136 0
17 22 16 18 -139 0
17 22 16 18 -115 0
17 22 16 18 -138 0
17 22 16 18 -142 0
17 22 16 18 -113 0
17 22 16 18 -120 0
17 22 16 18 -123 0
17 22 16 18 -19 0
17 22 16 18 -132 0
17 22 16 18 -128 0
17 22 16 18 -81 0
17 22 16 18 -121 0
17 22 16 18 -125 0
17 22 16 18 -20 0
17 22 16 18 -131 0
17 22 16 18 -130 0
17 22 16 18 -84 0
37 35 38 33 -146 0
37 35 38 33 -185 0
37 35 38 33 -188 0
37 35 38 33 -119 0
37 35 38 33 -147 0
37 35 38 33 -184 0
37 35 38 33 -190 0
37 35 38 33 -122 0
37 35 38 33 -169 0
37 35 38 33 -173 0
37 35 38 33 -32 0
37 35 38 33 -182 0
37 35 38 33 -177 0
37 35 38 33 -92 0
37 35 38 33 -172 0
37 35 38 33 -36 0
37 35 38 33 -180 0
37 35 38 33 -175 0
37 35 38 33 -89 0
37 35 38 33 -145 0
37 35 38 33 -183 0
37 35 38 33 -187 0
37 35 38 33 -120 0
37 35 38 33 -148 0
37 35 38 33 -186 0
37 35 38 33 -189 0
37 35 38 33 -121 0
37 35 38 33 -170 0
37 35 38 33 -171 0
37 35 38 33 -31 0
37 35 38 33 -181 0
37 35 38 33 -176 0
37 35 38 33 -90 0
37 35 38 33 -174 0
37 35 38 33 -34 0
37 35 38 33 -179 0
37 35 38 33 -178 0
37 35 38 33 -91 0
41 44 46 42 -152 0
41 44 46 42 -202 0
41 44 46 42 -206 0
41 44 46 42 -124 0
41 44 46 42 -173 0
41 44 46 42 -150 0
41 44 46 42 -204 0
41 44 46 42 -205 0
41 44 46 42 -126 0
41 44 46 42 -172 0
41 44 46 42 -192 0
41 44 46 42 -43 0
41 44 46 42 -197 0
41 44 46 42 -196 0
41 44 46 42 -96 0
41 44 46 42 -40 0
41 44 46 42 -200 0
41 44 46 42 -194 0
41 44 46 42 -94 0
41 44 46 42 -151 0
41 44 46 42 -201 0
41 44 46 42 -208 0
41 44 46 42 -123 0
41 44 46 42 -171 0
41 44 46 42 -149 0
41 44 46 42 -203 0
41 44 46 42 -207 0
41 44 46 42 -125 0
41 44 46 42 -174 0
41 44 46 42 -191 0
41 44 46 42 -45 0
41 44 46 42 -198 0
41 44 46 42 -195 0
41 44 46 42 -95 0
41 44 46 42 -39 0
41 44 46 42 -199 0
41 44 46 42 -193 0
41 44 46 42 -93 0
6 2 3 1 -29 0
6 2 3 1 -66 0
6 2 3 1 -71 0
6 2 3 1 -15 0
6 2 3 1 -32 0
6 2 3 1 -43 0
6 2 3 1 -26 0
6 2 3 1 -70 0
6 2 3 1 -75 0
6 2 3 1 -21 0
6 2 3 1 -36 0
6 2 3 1 -40 0
6 2 3 1 -5 0
6 2 3 1 -55 0
6 2 3 1 -54 0
6 2 3 1 -14 0
6 2 3 1 -59 0
6 2 3 1 -47 0
6 2 3 1 -8 0
6 2 3 1 -23 0
6 2 3 1 -65 0
6 2 3 1 -74 0
6 2 3 1 -19 0
6 2 3 1 -31 0
6 2 3 1 -45 0
6 2 3 1 -27 0
6 2 3 1 -63 0
6 2 3 1 -73 0
6 2 3 1 -20 0
6 2 3 1 -34 0
6 2 3 1 -39 0
6 2 3 1 -4 0
6 2 3 1 -62 0
6 2 3 1 -48 0
6 2 3 1 -13 0
6 2 3 1 -60 0
6 2 3 1 -52 0
6 2 3 1 -11 0
58 56 57 61 -160 0
58 56 57 61 -228 0
58 56 57 61 -232 0
58 56 57 61 -134 0
58 56 57 61 -182 0
58 56 57 61 -197 0
58 56 57 61 -55 0
58 56 57 61 -159 0
58 56 57 61 -226 0
58 56 57 61 -230 0
58 56 57 61 -133 0
58 56 57 61 -180 0
58 56 57 61 -200 0
58 56 57 61 -59 0
58 56 57 61 -224 0
58 56 57 61 -214 0
58 56 57 61 -104 0
58 56 57 61 -213 0
58 56 57 61 -102 0
58 56 57 61 -158 0
58 56 57 61 -227 0
58 56 57 61 -231 0
58 56 57 61 -132 0
58 56 57 61 -181 0
58 56 57 61 -198 0
58 56 57 61 -62 0
58 56 57 61 -157 0
58 56 57 61 -225 0
58 56 57 61 -229 0
58 56 57 61 -131 0
58 56 57 61 -179 0
58 56 57 61 -199 0
58 56 57 61 -60 0
58 56 57 61 -223 0
58 56 57 61 -211 0
58 56 57 61 -103 0
58 56 57 61 -212 0
58 56 57 61 -101 0
50 49 51 53 -153 0
50 49 51 53 -216 0
50 49 51 53 -222 0
50 49 51 53 -127 0
50 49 51 53 -177 0
50 49 51 53 -196 0
50 49 51 53 -54 0
50 49 51 53 -214 0
50 49 51 53 -154 0
50 49 51 53 -218 0
50 49 51 53 -220 0
50 49 51 53 -129 0
50 49 51 53 -175 0
50 49 51 53 -194 0
50 49 51 53 -47 0
50 49 51 53 -213 0
50 49 51 53 -210 0
50 49 51 53 -99 0
50 49 51 53 -98 0
50 49 51 53 -155 0
50 49 51 53 -215 0
50 49 51 53 -221 0
50 49 51 53 -128 0
50 49 51 53 -176 0
50 49 51 53 -195 0
50 49 51 53 -48 0
50 49 51 53 -211 0
50 49 51 53 -156 0
50 49 51 53 -217 0
50 49 51 53 -219 0
50 49 51 53 -130 0
50 49 51 53 -178 0
50 49 51 53 -193 0
50 49 51 53 -52 0
50 49 51 53 -212 0
50 49 51 53 -209 0
50 49 51 53 -97 0
50 49 51 53 -100 0
7 9 10 12 -87 0
7 9 10 12 -108 0
7 9 10 12 -110 0
7 9 10 12 -82 0
7 9 10 12 -92 0
7 9 10 12 -96 0
7 9 10 12 -14 0
7 9 10 12 -104 0
7 9 10 12 -99 0
7 9 10 12 -85 0
7 9 10 12 -107 0
7 9 10 12 -111 0
7 9 10 12 -83 0
7 9 10 12 -89 0
7 9 10 12 -94 0
7 9 10 12 -8 0
7 9 10 12 -102 0
7 9 10 12 -98 0
7 9 10 12 -80 0
7 9 10 12 -88 0
7 9 10 12 -106 0
7 9 10 12 -109 0
7 9 10 12 -81 0
7 9 10 12 -90 0
7 9 10 12 -95 0
7 9 10 12 -13 0
7 9 10 12 -103 0
7 9 10 12 -97 0
7 9 10 12 -86 0
7 9 10 12 -105 0
7 9 10 12 -112 0
7 9 10 12 -84 0
7 9 10 12 -91 0
7 9 10 12 -93 0
7 9 10 12 -11 0
7 9 10 12 -101 0
7 9 10 12 -100 0
7 9 10 12 -79 0
30 64 28 25 24 -162 0
30 64 28 25 24 -163 0
30 64 28 25 24 -161 0
30 64 28 25 24 -164 0
30 64 69 67 68 -162 0
30 64 69 67 68 -163 0
30 64 69 67 68 -161 0
30 64 69 67 68 -164 0
30 76 28 25 24 -168 0
30 76 28 25 24 -166 0
30 76 28 25 24 -167 0
30 76 28 25 24 -165 0
30 76 77 78 72 -168 0
30 76 77 78 72 -166 0
30 76 77 78 72 -167 0
30 76 77 78 72 -165 0
30 17 28 25 24 -118 0
30 17 28 25 24 -116 0
30 17 28 25 24 -117 0
30 17 28 25 24 -115 0
30 17 22 16 18 -118 0
30 17 22 16 18 -116 0
30 17 22 16 18 -117 0
30 17 22 16 18 -115 0
30 37 28 25 24 -146 0
30 37 28 25 24 -147 0
30 37 28 25 24 -145 0
30 37 28 25 24 -148 0
30 37 35 38 33 -146 0
30 37 35 38 33 -147 0
30 37 35 38 33 -145 0
30 37 35 38 33 -148 0
30 41 28 25 24 -152 0
30 41 28 25 24 -150 0
30 41 28 25 24 -151 0
30 41 28 25 24 -149 0
30 41 44 46 42 -152 0
30 41 44 46 42 -150 0
30 41 44 46 42 -151 0
30 41 44 46 42 -149 0
30 6 28 25 24 -29 0
30 6 28 25 24 -26 0
30 6 28 25 24 -23 0
30 6 28 25 24 -27 0
30 6 2 3 1 -29 0
30 6 2 3 1 -26 0
30 6 2 3 1 -23 0
30 6 2 3 1 -27 0
30 58 28 25 24 -160 0
30 58 28 25 24 -159 0
30 58 28 25 24 -158 0
30 58 28 25 24 -157 0
30 58 56 57 61 -160 0
30 58 56 57 61 -159 0
30 58 56 57 61 -158 0
30 58 56 57 61 -157 0
30 50 28 25 24 -153 0
30 50 28 25 24 -154 0
30 50 28 25 24 -155 0
30 50 28 25 24 -156 0
30 50 49 51 53 -153 0
30 50 49 51 53 -154 0
30 50 49 51 53 -155 0
30 50 49 51 53 -156 0
30 7 28 25 24 -87 0
30 7 28 25 24 -85 0
30 7 28 25 24 -88 0
30 7 28 25 24 -86 0
30 7 9 10 12 -87 0
30 7 9 10 12 -85 0
30 7 9 10 12 -88 0
30 7 9 10 12 -86 0
30 28 69 25 24 -162 0
30 28 69 25 24 -163 0
30 28 69 25 24 -161 0
30 28 69 25 24 -164 0
30 28 77 25 24 -168 0
30 28 77 25 24 -166 0
30 28 77 25 24 -167 0
30 28 77 25 24 -165 0
30 28 22 25 24 -118 0
30 28 22 25 24 -116 0
30 28 22 25 24 -117 0
30 28 22 25 24 -115 0
30 28 35 25 24 -146 0
30 28 35 25 24 -147 0
30 28 35 25 24 -145 0
30 28 35 25 24 -148 0
30 28 44 25 24 -152 0
30 28 44 25 24 -150 0
30 28 44 25 24 -151 0
30 28 44 25 24 -149 0
30 28 2 25 24 -29 0
30 28 2 25 24 -26 0
30 28 2 25 24 -23 0
30 28 2 25 24 -27 0
30 28 56 25 24 -160 0
30 28 56 25 24 -159 0
30 28 56 25 24 -158 0
30 28 56 25 24 -157 0
30 28 49 25 24 -153 0
30 28 49 25 24 -154 0
30 28 49 25 24 -155 0
30 28 49 25 24 -156 0
30 28 9 25 24 -87 0
30 28 9 25 24 -85 0
30 28 9 25 24 -88 0
30 28 9 25 24 -86 0
30 28 25 67 24 -162 0
30 28 25 67 24 -163 0
30 28 25 67 24 -161 0
30 28 25 67 24 -164 0
30 28 25 78 24 -168 0
30 28 25 78 24 -166 0
30 28 25 78 24 -167 0
30 28 25 78 24 -165 0
30 28 25 16 24 -118 0
30 28 25 16 24 -116 0
30 28 25 16 24 -117 0
30 28 25 16 24 -115 0
30 28 25 38 24 -146 0
30 28 25 38 24 -147 0
30 28 25 38 24 -145 0
30 28 25 38 24 -148 0
30 28 25 46 24 -152 0
30 28 25 46 24 -150 0
30 28 25 46 24 -151 0
30 28 25 46 24 -149 0
30 28 25 3 24 -29 0
30 28 25 3 24 -26 0
30 28 25 3 24 -23 0
30 28 25 3 24 -27 0
30 28 25 57 24 -160 0
30 28 25 57 24 -159 0
30 28 25 57 24 -158 0
30 28 25 57 24 -157 0
30 28 25 51 24 -153 0
30 28 25 51 24 -154 0
30 28 25 51 24 -155 0
30 28 25 51 24 -156 0
30 28 25 10 24 -87 0
30 28 25 10 24 -85 0
30 28 25 10 24 -88 0
30 28 25 10 24 -86 0
30 28 25 24 68 -162 0
30 28 25 24 68 -163 0
30 28 25 24 68 -161 0
30 28 25 24 68 -164 0
30 28 25 24 72 -168 0
30 28 25 24 72 -166 0
30 28 25 24 72 -167 0
30 28 25 24 72 -165 0
30 28 25 24 18 -118 0
30 28 25 24 18 -116 0
30 28 25 24 18 -117 0
30 28 25 24 18 -115 0
30 28 25 24 33 -146 0
30 28 25 24 33 -147 0
30 28 25 24 33 -145 0
30 28 25 24 33 -148 0
30 28 25 24 42 -152 0
30 28 25 24 42 -150 0
30 28 25 24 42 -151 0
30 28 25 24 42 -149 0
30 28 25 24 1 -29 0
30 28 25 24 1 -26 0
30 28 25 24 1 -23 0
30 28 25 24 1 -27 0
30 28 25 24 61 -160 0
30 28 25 24 61 -159 0
30 28 25 24 61 -158 0
30 28 25 24 61 -157 0
30 28 25 24 53 -153 0
30 28 25 24 53 -154 0
30 28 25 24 53 -155 0
30 28 25 24 53 -156 0
30 28 25 24 12 -87 0
30 28 25 24 12 -85 0
30 28 25 24 12 -88 0
30 28 25 24 12 -86 0
64 76 69 67 68 -237 0
64 76 69 67 68 -238 0
64 76 69 67 68 -236 0
64 76 69 67 68 -235 0
64 76 77 78 72 -237 0
64 76 77 78 72 -238 0
64 76 77 78 72 -236 0
64 76 77 78 72 -235 0
64 17 69 67 68 -135 0
64 17 69 67 68 -137 0
64 17 69 67 68 -136 0
64 17 69 67 68 -138 0
64 17 22 16 18 -135 0
64 17 22 16 18 -137 0
64 17 22 16 18 -136 0
64 17 22 16 18 -138 0
64 37 69 67 68 -185 0
64 37 69 67 68 -184 0
64 37 69 67 68 -183 0
64 37 69 67 68 -186 0
64 37 35 38 33 -185 0
64 37 35 38 33 -184 0
64 37 35 38 33 -183 0
64 37 35 38 33 -186 0
64 41 69 67 68 -202 0
64 41 69 67 68 -204 0
64 41 69 67 68 -201 0
64 41 69 67 68 -203 0
64 41 44 46 42 -202 0
64 41 44 46 42 -204 0
64 41 44 46 42 -201 0
64 41 44 46 42 -203 0
64 6 69 67 68 -66 0
64 6 69 67 68 -70 0
64 6 69 67 68 -65 0
64 6 69 67 68 -63 0
64 6 2 3 1 -66 0
64 6 2 3 1 -70 0
64 6 2 3 1 -65 0
64 6 2 3 1 -63 0
64 58 69 67 68 -228 0
64 58 69 67 68 -226 0
64 58 69 67 68 -227 0
64 58 69 67 68 -225 0
64 58 56 57 61 -228 0
64 58 56 57 61 -226 0
64 58 56 57 61 -227 0
64 58 56 57 61 -225 0
64 50 69 67 68 -216 0
64 50 69 67 68 -218 0
64 50 69 67 68 -215 0
64 50 69 67 68 -217 0
64 50 49 51 53 -216 0
64 50 49 51 53 -218 0
64 50 49 51 53 -215 0
64 50 49 51 53 -217 0
64 7 69 67 68 -108 0
64 7 69 67 68 -107 0
64 7 69 67 68 -106 0
64 7 69 67 68 -105 0
64 7 9 10 12 -108 0
64 7 9 10 12 -107 0
64 7 9 10 12 -106 0
64 7 9 10 12 -105 0
64 28 69 67 68 -162 0
64 28 69 67 68 -163 0
64 28 69 67 68 -161 0
64 28 69 67 68 -164 0
64 69 77 67 68 -237 0
64 69 77 67 68 -238 0
64 69 77 67 68 -236 0
64 69 77 67 68 -235 0
64 69 22 67 68 -135 0
64 69 22 67 68 -137 0
64 69 22 67 68 -136 0
64 69 22 67 68 -138 0
64 69 35 67 68 -185 0
64 69 35 67 68 -184 0
64 69 35 67 68 -183 0
64 69 35 67 68 -186 0
64 69 44 67 68 -202 0
64 69 44 67 68 -204 0
64 69 44 67 68 -201 0
64 69 44 67 68 -203 0
64 69 2 67 68 -66 0
64 69 2 67 68 -70 0
64 69 2 67 68 -65 0
64 69 2 67 68 -63 0
64 69 56 67 68 -228 0
64 69 56 67 68 -226 0
64 69 56 67 68 -227 0
64 69 56 67 68 -225 0
64 69 49 67 68 -216 0
64 69 49 67 68 -218 0
64 69 49 67 68 -215 0
64 69 49 67 68 -217 0
64 69 9 67 68 -108 0
64 69 9 67 68 -107 0
64 69 9 67 68 -106 0
64 69 9 67 68 -105 0
64 69 25 67 68 -162 0
64 69 25 67 68 -163 0
64 69 25 67 68 -161 0
64 69 25 67 68 -164 0
64 69 67 78 68 -237 0
64 69 67 78 68 -238 0
64 69 67 78 68 -236 0
64 69 67 78 68 -235 0
64 69 67 16 68 -135 0
64 69 67 16 68 -137 0
64 69 67 16 68 -136 0
64 69 67 16 68 -138 0
64 69 67 38 68 -185 0
64 69 67 38 68 -184 0
64 69 67 38 68 -183 0
64 69 67 38 68 -186 0
64 69 67 46 68 -202 0
64 69 67 46 68 -204 0
64 69 67 46 68 -201 0
64 69 67 46 68 -203 0
64 69 67 3 68 -66 0
64 69 67 3 68 -70 0
64 69 67 3 68 -65 0
64 69 67 3 68 -63 0
64 69 67 57 68 -228 0
64 69 67 57 68 -226 0
64 69 67 57 68 -227 0
64 69 67 57 68 -225 0
64 69 67 51 68 -216 0
64 69 67 51 68 -218 0
64 69 67 51 68 -215 0
64 69 67 51 68 -217 0
64 69 67 10 68 -108 0
64 69 67 10 68 -107 0
64 69 67 10 68 -106 0
64 69 67 10 68 -105 0
64 69 67 24 68 -162 0
64 69 67 24 68 -163 0
64 69 67 24 68 -161 0
64 69 67 24 68 -164 0
64 69 67 68 72 -237 0
64 69 67 68 72 -238 0
64 69 67 68 72 -236 0
64 69 67 68 72 -235 0
64 69 67 68 18 -135 0
64 69 67 68 18 -137 0
64 69 67 68 18 -136 0
64 69 67 68 18 -138 0
64 69 67 68 33 -185 0
64 69 67 68 33 -184 0
64 69 67 68 33 -183 0
64 69 67 68 33 -186 0
64 69 67 68 42 -202 0
64 69 67 68 42 -204 0
64 69 67 68 42 -201 0
64 69 67 68 42 -203 0
64 69 67 68 1 -66 0
64 69 67 68 1 -70 0
64 69 67 68 1 -65 0
64 69 67 68 1 -63 0
64 69 67 68 61 -228 0
64 69 67 68 61 -226 0
64 69 67 68 61 -227 0
64 69 67 68 61 -225 0
64 69 67 68 53 -216 0
64 69 67 68 53 -218 0
64 69 67 68 53 -215 0
64 69 67 68 53 -217 0
64 69 67 68 12 -108 0
64 69 67 68 12 -107 0
64 69 67 68 12 -106 0
64 69 67 68 12 -105 0
76 17 77 78 72 -140 0
76 17 77 78 72 -141 0
76 17 77 78 72 -139 0
76 17 77 78 72 -142 0
76 17 22 16 18 -140 0
76 17 22 16 18 -141 0
76 17 22 16 18 -139 0
76 17 22 16 18 -142 0
76 37 77 78 72 -188 0
76 37 77 78 72 -190 0
76 37 77 78 72 -187 0
76 37 77 78 72 -189 0
76 37 35 38 33 -188 0
76 37 35 38 33 -190 0
76 37 35 38 33 -187 0
76 37 35 38 33 -189 0
76 41 77 78 72 -206 0
76 41 77 78 72 -205 0
76 41 77 78 72 -208 0
76 41 77 78 72 -207 0
76 41 44 46 42 -206 0
76 41 44 46 42 -205 0
76 41 44 46 42 -208 0
76 41 44 46 42 -207 0
76 6 77 78 72 -71 0
76 6 77 78 72 -75 0
76 6 77 78 72 -74 0
76 6 77 78 72 -73 0
76 6 2 3 1 -71 0
76 6 2 3 1 -75 0
76 6 2 3 1 -74 0
76 6 2 3 1 -73 0
76 58 77 78 72 -232 0
76 58 77 78 72 -230 0
76 58 77 78 72 -231 0
76 58 77 78 72 -229 0
76 58 56 57 61 -232 0
76 58 56 57 61 -230 0
76 58 56 57 61 -231 0
76 58 56 57 61 -229 0
76 50 77 78 72 -222 0
76 50 77 78 72 -220 0
76 50 77 78 72 -221 0
76 50 77 78 72 -219 0
76 50 49 51 53 -222 0
76 50 49 51 53 -220 0
76 50 49 51 53 -221 0
76 50 49 51 53 -219 0
76 7 77 78 72 -110 0
76 7 77 78 72 -111 0
76 7 77 78 72 -109 0
76 7 77 78 72 -112 0
76 7 9 10 12 -110 0
76 7 9 10 12 -111 0
76 7 9 10 12 -109 0
76 7 9 10 12 -112 0
76 28 77 78 72 -168 0
76 28 77 78 72 -166 0
76 28 77 78 72 -167 0
76 28 77 78 72 -165 0
76 69 77 78 72 -237 0
76 69 77 78 72 -238 0
76 69 77 78 72 -236 0
76 69 77 78 72 -235 0
76 77 22 78 72 -140 0
76 77 22 78 72 -141 0
76 77 22 78 72 -139 0
76 77 22 78 72 -142 0
76 77 35 78 72 -188 0
76 77 35 78 72 -190 0
76 77 35 78 72 -187 0
76 77 35 78 72 -189 0
76 77 44 78 72 -206 0
76 77 44 78 72 -205 0
76 77 44 78 72 -208 0
76 77 44 78 72 -207 0
76 77 2 78 72 -71 0
76 77 2 78 72 -75 0
76 77 2 78 72 -74 0
76 77 2 78 72 -73 0
76 77 56 78 72 -232 0
76 77 56 78 72 -230 0
76 77 56 78 72 -231 0
76 77 56 78 72 -229 0
76 77 49 78 72 -222 0
76 77 49 78 72 -220 0
76 77 49 78 72 -221 0
76 77 49 78 72 -219 0
76 77 9 78 72 -110 0
76 77 9 78 72 -111 0
76 77 9 78 72 -109 0
76 77 9 78 72 -112 0
76 77 25 78 72 -168 0
76 77 25 78 72 -166 0
76 77 25 78 72 -167 0
76 77 25 78 72 -165 0
76 77 67 78 72 -237 0
76 77 67 78 72 -238 0
76 77 67 78 72 -236 0
76 77 67 78 72 -235 0
76 77 78 16 72 -140 0
76 77 78 16 72 -141 0
76 77 78 16 72 -139 0
76 77 78 16 72 -142 0
76 77 78 38 72 -188 0
76 77 78 38 72 -190 0
76 77 78 38 72 -187 0
76 77 78 38 72 -189 0
76 77 78 46 72 -206 0
76 77 78 46 72 -205 0
76 77 78 46 72 -208 0
76 77 78 46 72 -207 0
76 77 78 3 72 -71 0
76 77 78 3 72 -75 0
76 77 78 3 72 -74 0
76 77 78 3 72 -73 0
76 77 78 57 72 -232 0
76 77 78 57 72 -230 0
76 77 78 57 72 -231 0
76 77 78 57 72 -229 0
76 77 78 51 72 -222 0
76 77 78 51 72 -220 0
76 77 78 51 72 -221 0
76 77 78 51 72 -219 0
76 77 78 10 72 -110 0
76 77 78 10 72 -111 0
76 77 78 10 72 -109 0
76 77 78 10 72 -112 0
76 77 78 24 72 -168 0
76 77 78 24 72 -166 0
76 77 78 24 72 -167 0
76 77 78 24 72 -165 0
76 77 78 68 72 -237 0
76 77 78 68 72 -238 0
76 77 78 68 72 -236 0
76 77 78 68 72 -235 0
76 77 78 72 18 -140 0
76 77 78 72 18 -141 0
76 77 78 72 18 -139 0
76 77 78 72 18 -142 0
76 77 78 72 33 -188 0
76 77 78 72 33 -190 0
76 77 78 72 33 -187 0
76 77 78 72 33 -189 0
76 77 78 72 42 -206 0
76 77 78 72 42 -205 0
76 77 78 72 42 -208 0
76 77 78 72 42 -207 0
76 77 78 72 1 -71 0
76 77 78 72 1 -75 0
76 77 78 72 1 -74 0
76 77 78 72 1 -73 0
76 77 78 72 61 -232 0
76 77 78 72 61 -230 0
76 77 78 72 61 -231 0
76 77 78 72 61 -229 0
76 77 78 72 53 -222 0
76 77 78 72 53 -220 0
76 77 78 72 53 -221 0
76 77 78 72 53 -219 0
76 77 78 72 12 -110 0
76 77 78 72 12 -111 0
76 77 78 72 12 -109 0
76 77 78 72 12 -112 0
17 37 22 16 18 -119 0
17 37 22 16 18 -122 0
17 37 22 16 18 -120 0
17 37 22 16 18 -121 0
17 37 35 38 33 -119 0
17 37 35 38 33 -122 0
17 37 35 38 33 -120 0
17 37 35 38 33 -121 0
17 41 22 16 18 -124 0
17 41 22 16 18 -126 0
17 41 22 16 18 -123 0
17 41 22 16 18 -125 0
17 41 44 46 42 -124 0
17 41 44 46 42 -126 0
17 41 44 46 42 -123 0
17 41 44 46 42 -125 0
17 6 22 16 18 -15 0
17 6 22 16 18 -21 0
17 6 22 16 18 -19 0
17 6 22 16 18 -20 0
17 6 2 3 1 -15 0
17 6 2 3 1 -21 0
17 6 2 3 1 -19 0
17 6 2 3 1 -20 0
17 58 22 16 18 -134 0
17 58 22 16 18 -133 0
17 58 22 16 18 -132 0
17 58 22 16 18 -131 0
17 58 56 57 61 -134 0
17 58 56 57 61 -133 0
17 58 56 57 61 -132 0
17 58 56 57 61 -131 0
17 50 22 16 18 -127 0
17 50 22 16 18 -129 0
17 50 22 16 18 -128 0
17 50 22 16 18 -130 0
17 50 49 51 53 -127 0
17 50 49 51 53 -129 0
17 50 49 51 53 -128 0
17 50 49 51 53 -130 0
17 7 22 16 18 -82 0
17 7 22 16 18 -83 0
17 7 22 16 18 -81 0
17 7 22 16 18 -84 0
17 7 9 10 12 -82 0
17 7 9 10 12 -83 0
17 7 9 10 12 -81 0
17 7 9 10 12 -84 0
17 28 22 16 18 -118 0
17 28 22 16 18 -116 0
17 28 22 16 18 -117 0
17 28 22 16 18 -115 0
17 69 22 16 18 -135 0
17 69 22 16 18 -137 0
17 69 22 16 18 -136 0
17 69 22 16 18 -138 0
17 77 22 16 18 -140 0
17 77 22 16 18 -141 0
17 77 22 16 18 -139 0
17 77 22 16 18 -142 0
17 22 35 16 18 -119 0
17 22 35 16 18 -122 0
17 22 35 16 18 -120 0
17 22 35 16 18 -121 0
17 22 44 16 18 -124 0
17 22 44 16 18 -126 0
17 22 44 16 18 -123 0
17 22 44 16 18 -125 0
17 22 2 16 18 -15 0
17 22 2 16 18 -21 0
17 22 2 16 18 -19 0
17 22 2 16 18 -20 0
17 22 56 16 18 -134 0
17 22 56 16 18 -133 0
17 22 56 16 18 -132 0
17 22 56 16 18 -131 0
17 22 49 16 18 -127 0
17 22 49 16 18 -129 0
17 22 49 16 18 -128 0
17 22 49 16 18 -130 0
17 22 9 16 18 -82 0
17 22 9 16 18 -83 0
17 22 9 16 18 -81 0
17 22 9 16 18 -84 0
17 22 25 16 18 -118 0
17 22 25 16 18 -116 0
17 22 25 16 18 -117 0
17 22 25 16 18 -115 0
17 22 67 16 18 -135 0
17 22 67 16 18 -137 0
17 22 67 16 18 -136 0
17 22 67 16 18 -138 0
17 22 78 16 18 -140 0
17 22 78 16 18 -141 0
17 22 78 16 18 -139 0
17 22 78 16 18 -142 0
17 22 16 38 18 -119 0
17 22 16 38 18 -122 0
17 22 16 38 18 -120 0
17 22 16 38 18 -121 0
17 22 16 46 18 -124 0
17 22 16 46 18 -126 0
17 22 16 46 18 -123 0
17 22 16 46 18 -125 0
17 22 16 3 18 -15 0
17 22 16 3 18 -21 0
17 22 16 3 18 -19 0
17 22 16 3 18 -20 0
17 22 16 57 18 -134 0
17 22 16 57 18 -133 0
17 22 16 57 18 -132 0
17 22 16 57 18 -131 0
17 22 16 51 18 -127 0
17 22 16 51 18 -129 0
17 22 16 51 18 -128 0
17 22 16 51 18 -130 0
17 22 16 10 18 -82 0
17 22 16 10 18 -83 0
17 22 16 10 18 -81 0
17 22 16 10 18 -84 0
17 22 16 24 18 -118 0
17 22 16 24 18 -116 0
17 22 16 24 18 -117 0
17 22 16 24 18 -115 0
17 22 16 68 18 -135 0
17 22 16 68 18 -137 0
17 22 16 68 18 -136 0
17 22 16 68 18 -138 0
17 22 16 72 18 -140 0
17 22 16 72 18 -141 0
17 22 16 72 18 -139 0
17 22 16 72 18 -142 0
17 22 16 18 33 -119 0
17 22 16 18 33 -122 0
17 22 16 18 33 -120 0
17 22 16 18 33 -121 0
17 22 16 18 42 -124 0
17 22 16 18 42 -126 0
17 22 16 18 42 -123 0
17 22 16 18 42 -125 0
17 22 16 18 1 -15 0
17 22 16 18 1 -21 0
17 22 16 18 1 -19 0
17 22 16 18 1 -20 0
17 22 16 18 61 -134 0
17 22 16 18 61 -133 0
17 22 16 18 61 -132 0
17 22 16 18 61 -131 0
17 22 16 18 53 -127 0
17 22 16 18 53 -129 0
17 22 16 18 53 -128 0
17 22 16 18 53 -130 0
17 22 16 18 12 -82 0
17 22 16 18 12 -83 0
17 22 16 18 12 -81 0
17 22 16 18 12 -84 0
37 41 35 38 33 -173 0
37 41 35 38 33 -172 0
37 41 35 38 33 -171 0
37 41 35 38 33 -174 0
37 41 44 46 42 -173 0
37 41 44 46 42 -172 0
37 41 44 46 42 -171 0
37 41 44 46 42 -174 0
37 6 35 38 33 -32 0
37 6 35 38 33 -36 0
37 6 35 38 33 -31 0
37 6 35 38 33 -34 0
37 6 2 3 1 -32 0
37 6 2 3 1 -36 0
37 6 2 3 1 -31 0
37 6 2 3 1 -34 0
37 58 35 38 33 -182 0
37 58 35 38 33 -180 0
37 58 35 38 33 -181 0
37 58 35 38 33 -179 0
37 58 56 57 61 -182 0
37 58 56 57 61 -180 0
37 58 56 57 61 -181 0
37 58 56 57 61 -179 0
37 50 35 38 33 -177 0
37 50 35 38 33 -175 0
37 50 35 38 33 -176 0
37 50 35 38 33 -178 0
37 50 49 51 53 -177 0
37 50 49 51 53 -175 0
37 50 49 51 53 -176 0
37 50 49 51 53 -178 0
37 7 35 38 33 -92 0
37 7 35 38 33 -89 0
37 7 35 38 33 -90 0
37 7 35 38 33 -91 0
37 7 9 10 12 -92 0
37 7 9 10 12 -89 0
37 7 9 10 12 -90 0
37 7 9 10 12 -91 0
37 28 35 38 33 -146 0
37 28 35 38 33 -147 0
37 28 35 38 33 -145 0
37 28 35 38 33 -148 0
37 69 35 38 33 -185 0
37 69 35 38 33 -184 0
37 69 35 38 33 -183 0
37 69 35 38 33 -186 0
37 77 35 38 33 -188 0
37 77 35 38 33 -190 0
37 77 35 38 33 -187 0
37 77 35 38 33 -189 0
37 22 35 38 33 -119 0
37 22 35 38 33 -122 0
37 22 35 38 33 -120 0
37 22 35 38 33 -121 0
37 35 44 38 33 -173 0
37 35 44 38 33 -172 0
37 35 44 38 33 -171 0
37 35 44 38 33 -174 0
37 35 2 38 33 -32 0
37 35 2 38 33 -36 0
37 35 2 38 33 -31 0
37 35 2 38 33 -34 0
37 35 56 38 33 -182 0
37 35 56 38 33 -180 0
37 35 56 38 33 -181 0
37 35 56 38 33 -179 0
37 35 49 38 33 -177 0
37 35 49 38 33 -175 0
37 35 49 38 33 -176 0
37 35 49 38 33 -178 0
37 35 9 38 33 -92 0
37 35 9 38 33 -89 0
37 35 9 38 33 -90 0
37 35 9 38 33 -91 0
37 35 25 38 33 -146 0
37 35 25 38 33 -147 0
37 35 25 38 33 -145 0
37 35 25 38 33 -148 0
37 35 67 38 33 -185 0
37 35 67 38 33 -184 0
37 35 67 38 33 -183 0
37 35 67 38 33 -186 0
37 35 78 38 33 -188 0
37 35 78 38 33 -190 0
37 35 78 38 33 -187 0
37 35 78 38 33 -189 0
37 35 16 38 33 -119 0
37 35 16 38 33 -122 0
37 35 16 38 33 -120 0
37 35 16 38 33 -121 0
37 35 38 46 33 -173 0
37 35 38 46 33 -172 0
37 35 38 46 33 -171 0
37 35 38 46 33 -174 0
37 35 38 3 33 -32 0
37 35 38 3 33 -36 0
37 35 38 3 33 -31 0
37 35 38 3 33 -34 0
37 35 38 57 33 -182 0
37 35 38 57 33 -180 0
37 35 38 57 33 -181 0
37 35 38 57 33 -179 0
37 35 38 51 33 -177 0
37 35 38 51 33 -175 0
37 35 38 51 33 -176 0
37 35 38 51 33 -178 0
37 35 38 10 33 -92 0
37 35 38 10 33 -89 0
37 35 38 10 33 -90 0
37 35 38 10 33 -91 0
37 35 38 24 33 -146 0
37 35 38 24 33 -147 0
37 35 38 24 33 -145 0
37 35 38 24 33 -148 0
37 35 38 68 33 -185 0
37 35 38 68 33 -184 0
37 35 38 68 33 -183 0
37 35 38 68 33 -186 0
37 35 38 72 33 -188 0
37 35 38 72 33 -190 0
37 35 38 72 33 -187 0
37 35 38 72 33 -189 0
37 35 38 18 33 -119 0
37 35 38 18 33 -122 0
37 35 38 18 33 -120 0
37 35 38 18 33 -121 0
37 35 38 33 42 -173 0
37 35 38 33 42 -172 0
37 35 38 33 42 -171 0
37 35 38 33 42 -174 0
37 35 38 33 1 -32 0
37 35 38 33 1 -36 0
37 35 38 33 1 -31 0
37 35 38 33 1 -34 0
37 35 38 33 61 -182 0
37 35 38 33 61 -180 0
37 35 38 33 61 -181 0
37 35 38 33 61 -179 0
37 35 38 33 53 -177 0
37 35 38 33 53 -175 0
37 35 38 33 53 -176 0
37 35 38 33 53 -178 0
37 35 38 33 12 -92 0
37 35 38 33 12 -89 0
37 35 38 33 12 -90 0
37 35 38 33 12 -91 0
41 6 44 46 42 -43 0
41 6 44 46 42 -40 0
41 6 44 46 42 -45 0
41 6 44 46 42 -39 0
41 6 2 3 1 -43 0
41 6 2 3 1 -40 0
41 6 2 3 1 -45 0
41 6 2 3 1 -39 0
41 58 44 46 42 -197 0
41 58 44 46 42 -200 0
41 58 44 46 42 -198 0
41 58 44 46 42 -199 0
41 58 56 57 61 -197 0
41 58 56 57 61 -200 0
41 58 56 57 61 -198 0
41 58 56 57 61 -199 0
41 50 44 46 42 -196 0
41 50 44 46 42 -194 0
41 50 44 46 42 -195 0
41 50 44 46 42 -193 0
41 50 49 51 53 -196 0
41 50 49 51 53 -194 0
41 50 49 51 53 -195 0
41 50 49 51 53 -193 0
41 7 44 46 42 -96 0
41 7 44 46 42 -94 0
41 7 44 46 42 -95 0
41 7 44 46 42 -93 0
41 7 9 10 12 -96 0
41 7 9 10 12 -94 0
41 7 9 10 12 -95 0
41 7 9 10 12 -93 0
41 28 44 46 42 -152 0
41 28 44 46 42 -150 0
41 28 44 46 42 -151 0
41 28 44 46 42 -149 0
41 69 44 46 42 -202 0
41 69 44 46 42 -204 0
41 69 44 46 42 -201 0
41 69 44 46 42 -203 0
41 77 44 46 42 -206 0
41 77 44 46 42 -205 0
41 77 44 46 42 -208 0
41 77 44 46 42 -207 0
41 22 44 46 42 -124 0
41 22 44 46 42 -126 0
41 22 44 46 42 -123 0
41 22 44 46 42 -125 0
41 35 44 46 42 -173 0
41 35 44 46 42 -172 0
41 35 44 46 42 -171 0
41 35 44 46 42 -174 0
41 44 2 46 42 -43 0
41 44 2 46 42 -40 0
41 44 2 46 42 -45 0
41 44 2 46 42 -39 0
41 44 56 46 42 -197 0
41 44 56 46 42 -200 0
41 44 56 46 42 -198 0
41 44 56 46 42 -199 0
41 44 49 46 42 -196 0
41 44 49 46 42 -194 0
41 44 49 46 42 -195 0
41 44 49 46 42 -193 0
41 44 9 46 42 -96 0
41 44 9 46 42 -94 0
41 44 9 46 42 -95 0
41 44 9 46 42 -93 0
41 44 25 46 42 -152 0
41 44 25 46 42 -150 0
41 44 25 46 42 -151 0
41 44 25 46 42 -149 0
41 44 67 46 42 -202 0
41 44 67 46 42 -204 0
41 44 67 46 42 -201 0
41 44 67 46 42 -203 0
41 44 78 46 42 -206 0
41 44 78 46 42 -205 0
41 44 78 46 42 -208 0
41 44 78 46 42 -207 0
41 44 16 46 42 -124 0
41 44 16 46 42 -126 0
41 44 16 46 42 -123 0
41 44 16 46 42 -125 0
41 44 38 46 42 -173 0
41 44 38 46 42 -172 0
41 44 38 46 42 -171 0
41 44 38 46 42 -174 0
41 44 46 3 42 -43 0
41 44 46 3 42 -40 0
41 44 46 3 42 -45 0
41 44 46 3 42 -39 0
41 44 46 57 42 -197 0
41 44 46 57 42 -200 0
41 44 46 57 42 -198 0
41 44 46 57 42 -199 0
41 44 46 51 42 -196 0
41 44 46 51 42 -194 0
41 44 46 51 42 -195 0
41 44 46 51 42 -193 0
41 44 46 10 42 -96 0
41 44 46 10 42 -94 0
41 44 46 10 42 -95 0
41 44 46 10 42 -93 0
41 44 46 24 42 -152 0
41 44 46 24 42 -150 0
41 44 46 24 42 -151 0
41 44 46 24 42 -149 0
41 44 46 68 42 -202 0
41 44 46 68 42 -204 0
41 44 46 68 42 -201 0
41 44 46 68 42 -203 0
41 44 46 72 42 -206 0
41 44 46 72 42 -205 0
41 44 46 72 42 -208 0
41 44 46 72 42 -207 0
41 44 46 18 42 -124 0
41 44 46 18 42 -126 0
41 44 46 18 42 -123 0
41 44 46 18 42 -125 0
41 44 46 33 42 -173 0
41 44 46 33 42 -172 0
41 44 46 33 42 -171 0
41 44 46 33 42 -174 0
41 44 46 42 1 -43 0
41 44 46 42 1 -40 0
41 44 46 42 1 -45 0
41 44 46 42 1 -39 0
41 44 46 42 61 -197 0
41 44 46 42 61 -200 0
41 44 46 42 61 -198 0
41 44 46 42 61 -199 0
41 44 46 42 53 -196 0
41 44 46 42 53 -194 0
41 44 46 42 53 -195 0
41 44 46 42 53 -193 0
41 44 46 42 12 -96 0
41 44 46 42 12 -94 0
41 44 46 42 12 -95 0
41 44 46 42 12 -93 0
6 58 2 3 1 -55 0
6 58 2 3 1 -59 0
6 58 2 3 1 -62 0
6 58 2 3 1 -60 0
6 58 56 57 61 -55 0
6 58 56 57 61 -59 0
6 58 56 57 61 -62 0
6 58 56 57 61 -60 0
6 50 2 3 1 -54 0
6 50 2 3 1 -47 0
6 50 2 3 1 -48 0
6 50 2 3 1 -52 0
6 50 49 51 53 -54 0
6 50 49 51 53 -47 0
6 50 49 51 53 -48 0
6 50 49 51 53 -52 0
6 7 2 3 1 -14 0
6 7 2 3 1 -8 0
6 7 2 3 1 -13 0
6 7 2 3 1 -11 0
6 7 9 10 12 -14 0
6 7 9 10 12 -8 0
6 7 9 10 12 -13 0
6 7 9 10 12 -11 0
6 28 2 3 1 -29 0
6 28 2 3 1 -26 0
6 28 2 3 1 -23 0
6 28 2 3 1 -27 0
6 69 2 3 1 -66 0
6 69 2 3 1 -70 0
6 69 2 3 1 -65 0
6 69 2 3 1 -63 0
6 77 2 3 1 -71 0
6 77 2 3 1 -75 0
6 77 2 3 1 -74 0
6 77 2 3 1 -73 0
6 22 2 3 1 -15 0
6 22 2 3 1 -21 0
6 22 2 3 1 -19 0
6 22 2 3 1 -20 0
6 35 2 3 1 -32 0
6 35 2 3 1 -36 0
6 35 2 3 1 -31 0
6 35 2 3 1 -34 0
6 44 2 3 1 -43 0
6 44 2 3 1 -40 0
6 44 2 3 1 -45 0
6 44 2 3 1 -39 0
6 2 56 3 1 -55 0
6 2 56 3 1 -59 0
6 2 56 3 1 -62 0
6 2 56 3 1 -60 0
6 2 49 3 1 -54 0
6 2 49 3 1 -47 0
6 2 49 3 1 -48 0
6 2 49 3 1 -52 0
6 2 9 3 1 -14 0
6 2 9 3 1 -8 0
6 2 9 3 1 -13 0
6 2 9 3 1 -11 0
6 2 25 3 1 -29 0
6 2 25 3 1 -26 0
6 2 25 3 1 -23 0
6 2 25 3 1 -27 0
6 2 67 3 1 -66 0
6 2 67 3 1 -70 0
6 2 67 3 1 -65 0
6 2 67 3 1 -63 0
6 2 78 3 1 -71 0
6 2 78 3 1 -75 0
6 2 78 3 1 -74 0
6 2 78 3 1 -73 0
6 2 16 3 1 -15 0
6 2 16 3 1 -21 0
6 2 16 3 1 -19 0
6 2 16 3 1 -20 0
6 2 38 3 1 -32 0
6 2 38 3 1 -36 0
6 2 38 3 1 -31 0
6 2 38 3 1 -34 0
6 2 46 3 1 -43 0
6 2 46 3 1 -40 0
6 2 46 3 1 -45 0
6 2 46 3 1 -39 0
6 2 3 57 1 -55 0
6 2 3 57 1 -59 0
6 2 3 57 1 -62 0
6 2 3 57 1 -60 0
6 2 3 51 1 -54 0
6 2 3 51 1 -47 0
6 2 3 51 1 -48 0
6 2 3 51 1 -52 0
6 2 3 10 1 -14 0
6 2 3 10 1 -8 0
6 2 3 10 1 -13 0
6 2 3 10 1 -11 0
6 2 3 24 1 -29 0
6 2 3 24 1 -26 0
6 2 3 24 1 -23 0
6 2 3 24 1 -27 0
6 2 3 68 1 -66 0
6 2 3 68 1 -70 0
6 2 3 68 1 -65 0
6 2 3 68 1 -63 0
6 2 3 72 1 -71 0
6 2 3 72 1 -75 0
6 2 3 72 1 -74 0
6 2 3 72 1 -73 0
6 2 3 18 1 -15 0
6 2 3 18 1 -21 0
6 2 3 18 1 -19 0
6 2 3 18 1 -20 0
6 2 3 33 1 -32 0
6 2 3 33 1 -36 0
6 2 3 33 1 -31 0
6 2 3 33 1 -34 0
6 2 3 42 1 -43 0
6 2 3 42 1 -40 0
6 2 3 42 1 -45 0
6 2 3 42 1 -39 0
6 2 3 1 61 -55 0
6 2 3 1 61 -59 0
6 2 3 1 61 -62 0
6 2 3 1 61 -60 0
6 2 3 1 53 -54 0
6 2 3 1 53 -47 0
6 2 3 1 53 -48 0
6 2 3 1 53 -52 0
6 2 3 1 12 -14 0
6 2 3 1 12 -8 0
6 2 3 1 12 -13 0
6 2 3 1 12 -11 0
58 50 56 57 61 -214 0
58 50 56 57 61 -213 0
58 50 56 57 61 -211 0
58 50 56 57 61 -212 0
58 50 49 51 53 -214 0
58 50 49 51 53 -213 0
58 50 49 51 53 -211 0
58 50 49 51 53 -212 0
58 7 56 57 61 -104 0
58 7 56 57 61 -102 0
58 7 56 57 61 -103 0
58 7 56 57 61 -101 0
58 7 9 10 12 -104 0
58 7 9 10 12 -102 0
58 7 9 10 12 -103 0
58 7 9 10 12 -101 0
58 28 56 57 61 -160 0
58 28 56 57 61 -159 0
58 28 56 57 61 -158 0
58 28 56 57 61 -157 0
58 69 56 57 61 -228 0
58 69 56 57 61 -226 0
58 69 56 57 61 -227 0
58 69 56 57 61 -225 0
58 77 56 57 61 -232 0
58 77 56 57 61 -230 0
58 77 56 57 61 -231 0
58 77 56 57 61 -229 0
58 22 56 57 61 -134 0
58 22 56 57 61 -133 0
58 22 56 57 61 -132 0
58 22 56 57 61 -131 0
58 35 56 57 61 -182 0
58 35 56 57 61 -180 0
58 35 56 57 61 -181 0
58 35 56 57 61 -179 0
58 44 56 57 61 -197 0
58 44 56 57 61 -200 0
58 44 56 57 61 -198 0
58 44 56 57 61 -199 0
58 2 56 57 61 -55 0
58 2 56 57 61 -59 0
58 2 56 57 61 -62 0
58 2 56 57 61 -60 0
58 56 49 57 61 -214 0
58 56 49 57 61 -213 0
58 56 49 57 61 -211 0
58 56 49 57 61 -212 0
58 56 9 57 61 -104 0
58 56 9 57 61 -102 0
58 56 9 57 61 -103 0
58 56 9 57 61 -101 0
58 56 25 57 61 -160 0
58 56 25 57 61 -159 0
58 56 25 57 61 -158 0
58 56 25 57 61 -157 0
58 56 67 57 61 -228 0
58 56 67 57 61 -226 0
58 56 67 57 61 -227 0
58 56 67 57 61 -225 0
58 56 78 57 61 -232 0
58 56 78 57 61 -230 0
58 56 78 57 61 -231 0
58 56 78 57 61 -229 0
58 56 16 57 61 -134 0
58 56 16 57 61 -133 0
58 56 16 57 61 -132 0
58 56 16 57 61 -131 0
58 56 38 57 61 -182 0
58 56 38 57 61 -180 0
58 56 38 57 61 -181 0
58 56 38 57 61 -179 0
58 56 46 57 61 -197 0
58 56 46 57 61 -200 0
58 56 46 57 61 -198 0
58 56 46 57 61 -199 0
58 56 3 57 61 -55 0
58 56 3 57 61 -59 0
58 56 3 57 61 -62 0
58 56 3 57 61 -60 0
58 56 57 51 61 -214 0
58 56 57 51 61 -213 0
58 56 57 51 61 -211 0
58 56 57 51 61 -212 0
58 56 57 10 61 -104 0
58 56 57 10 61 -102 0
58 56 57 10 61 -103 0
58 56 57 10 61 -101 0
58 56 57 24 61 -160 0
58 56 57 24 61 -159 0
58 56 57 24 61 -158 0
58 56 57 24 61 -157 0
58 56 57 68 61 -228 0
58 56 57 68 61 -226 0
58 56 57 68 61 -227 0
58 56 57 68 61 -225 0
58 56 57 72 61 -232 0
58 56 57 72 61 -230 0
58 56 57 72 61 -231 0
58 56 57 72 61 -229 0
58 56 57 18 61 -134 0
58 56 57 18 61 -133 0
58 56 57 18 61 -132 0
58 56 57 18 61 -131 0
58 56 57 33 61 -182 0
58 56 57 33 61 -180 0
58 56 57 33 61 -181 0
58 56 57 33 61 -179 0
58 56 57 42 61 -197 0
58 56 57 42 61 -200 0
58 56 57 42 61 -198 0
58 56 57 42 61 -199 0
58 56 57 1 61 -55 0
58 56 57 1 61 -59 0
58 56 57 1 61 -62 0
58 56 57 1 61 -60 0
58 56 57 61 53 -214 0
58 56 57 61 53 -213 0
58 56 57 61 53 -211 0
58 56 57 61 53 -212 0
58 56 57 61 12 -104 0
58 56 57 61 12 -102 0
58 56 57 61 12 -103 0
58 56 57 61 12 -101 0
50 7 49 51 53 -99 0
50 7 49 51 53 -98 0
50 7 49 51 53 -97 0
50 7 49 51 53 -100 0
50 7 9 10 12 -99 0
50 7 9 10 12 -98 0
50 7 9 10 12 -97 0
50 7 9 10 12 -100 0
50 28 49 51 53 -153 0
50 28 49 51 53 -154 0
50 28 49 51 53 -155 0
50 28 49 51 53 -156 0
50 69 49 51 53 -216 0
50 69 49 51 53 -218 0
50 69 49 51 53 -215 0
50 69 49 51 53 -217 0
50 77 49 51 53 -222 0
50 77 49 51 53 -220 0
50 77 49 51 53 -221 0
50 77 49 51 53 -219 0
50 22 49 51 53 -127 0
50 22 49 51 53 -129 0
50 22 49 51 53 -128 0
50 22 49 51 53 -130 0
50 35 49 51 53 -177 0
50 35 49 51 53 -175 0
50 35 49 51 53 -176 0
50 35 49 51 53 -178 0
50 44 49 51 53 -196 0
50 44 49 51 53 -194 0
50 44 49 51 53 -195 0
50 44 49 51 53 -193 0
50 2 49 51 53 -54 0
50 2 49 51 53 -47 0
50 2 49 51 53 -48 0
50 2 49 51 53 -52 0
50 56 49 51 53 -214 0
50 56 49 51 53 -213 0
50 56 49 51 53 -211 0
50 56 49 51 53 -212 0
50 49 9 51 53 -99 0
50 49 9 51 53 -98 0
50 49 9 51 53 -97 0
50 49 9 51 53 -100 0
50 49 25 51 53 -153 0
50 49 25 51 53 -154 0
50 49 25 51 53 -155 0
50 49 25 51 53 -156 0
50 49 67 51 53 -216 0
50 49 67 51 53 -218 0
50 49 67 51 53 -215 0
50 49 67 51 53 -217 0
50 49 78 51 53 -222 0
50 49 78 51 53 -220 0
50 49 78 51 53 -221 0
50 49 78 51 53 -219 0
50 49 16 51 53 -127 0
50 49 16 51 53 -129 0
50 49 16 51 53 -128 0
50 49 16 51 53 -130 0
50 49 38 51 53 -177 0
50 49 38 51 53 -175 0
50 49 38 51 53 -176 0
50 49 38 51 53 -178 0
50 49 46 51 53 -196 0
50 49 46 51 53 -194 0
50 49 46 51 53 -195 0
50 49 46 51 53 -193 0
50 49 3 51 53 -54 0
50 49 3 51 53 -47 0
50 49 3 51 53 -48 0
50 49 3 51 53 -52 0
50 49 57 51 53 -214 0
50 49 57 51 53 -213 0
50 49 57 51 53 -211 0
50 49 57 51 53 -212 0
50 49 51 10 53 -99 0
50 49 51 10 53 -98 0
50 49 51 10 53 -97 0
50 49 51 10 53 -100 0
50 49 51 24 53 -153 0
50 49 51 24 53 -154 0
50 49 51 24 53 -155 0
50 49 51 24 53 -156 0
50 49 51 68 53 -216 0
50 49 51 68 53 -218 0
50 49 51 68 53 -215 0
50 49 51 68 53 -217 0
50 49 51 72 53 -222 0
50 49 51 72 53 -220 0
50 49 51 72 53 -221 0
50 49 51 72 53 -219 0
50 49 51 18 53 -127 0
50 49 51 18 53 -129 0
50 49 51 18 53 -128 0
50 49 51 18 53 -130 0
50 49 51 33 53 -177 0
50 49 51 33 53 -175 0
50 49 51 33 53 -176 0
50 49 51 33 53 -178 0
50 49 51 42 53 -196 0
50 49 51 42 53 -194 0
50 49 51 42 53 -195 0
50 49 51 42 53 -193 0
50 49 51 1 53 -54 0
50 49 51 1 53 -47 0
50 49 51 1 53 -48 0
50 49 51 1 53 -52 0
50 49 51 61 53 -214 0
50 49 51 61 53 -213 0
50 49 51 61 53 -211 0
50 49 51 61 53 -212 0
50 49 51 53 12 -99 0
50 49 51 53 12 -98 0
50 49 51 53 12 -97 0
50 49 51 53 12 -100 0
7 28 9 10 12 -87 0
7 28 9 10 12 -85 0
7 28 9 10 12 -88 0
7 28 9 10 12 -86 0
7 69 9 10 12 -108 0
7 69 9 10 12 -107 0
7 69 9 10 12 -106 0
7 69 9 10 12 -105 0
7 77 9 10 12 -110 0
7 77 9 10 12 -111 0
7 77 9 10 12 -109 0
7 77 9 10 12 -112 0
7 22 9 10 12 -82 0
7 22 9 10 12 -83 0
7 22 9 10 12 -81 0
7 22 9 10 12 -84 0
7 35 9 10 12 -92 0
7 35 9 10 12 -89 0
7 35 9 10 12 -90 0
7 35 9 10 12 -91 0
7 44 9 10 12 -96 0
7 44 9 10 12 -94 0
7 44 9 10 12 -95 0
7 44 9 10 12 -93 0
7 2 9 10 12 -14 0
7 2 9 10 12 -8 0
7 2 9 10 12 -13 0
7 2 9 10 12 -11 0
7 56 9 10 12 -104 0
7 56 9 10 12 -102 0
7 56 9 10 12 -103 0
7 56 9 10 12 -101 0
7 49 9 10 12 -99 0
7 49 9 10 12 -98 0
7 49 9 10 12 -97 0
7 49 9 10 12 -100 0
7 9 25 10 12 -87 0
7 9 25 10 12 -85 0
7 9 25 10 12 -88 0
7 9 25 10 12 -86 0
7 9 67 10 12 -108 0
7 9 67 10 12 -107 0
7 9 67 10 12 -106 0
7 9 67 10 12 -105 0
7 9 78 10 12 -110 0
7 9 78 10 12 -111 0
7 9 78 10 12 -109 0
7 9 78 10 12 -112 0
7 9 16 10 12 -82 0
7 9 16 10 12 -83 0
7 9 16 10 12 -81 0
7 9 16 10 12 -84 0
7 9 38 10 12 -92 0
7 9 38 10 12 -89 0
7 9 38 10 12 -90 0
7 9 38 10 12 -91 0
7 9 46 10 12 -96 0
7 9 46 10 12 -94 0
7 9 46 10 12 -95 0
7 9 46 10 12 -93 0
7 9 3 10 12 -14 0
7 9 3 10 12 -8 0
7 9 3 10 12 -13 0
7 9 3 10 12 -11 0
7 9 57 10 12 -104 0
7 9 57 10 12 -102 0
7 9 57 10 12 -103 0
7 9 57 10 12 -101 0
7 9 51 10 12 -99 0
7 9 51 10 12 -98 0
7 9 51 10 12 -97 0
7 9 51 10 12 -100 0
7 9 10 24 12 -87 0
7 9 10 24 12 -85 0
7 9 10 24 12 -88 0
7 9 10 24 12 -86 0
7 9 10 68 12 -108 0
7 9 10 68 12 -107 0
7 9 10 68 12 -106 0
7 9 10 68 12 -105 0
7 9 10 72 12 -110 0
7 9 10 72 12 -111 0
7 9 10 72 12 -109 0
7 9 10 72 12 -112 0
7 9 10 18 12 -82 0
7 9 10 18 12 -83 0
7 9 10 18 12 -81 0
7 9 10 18 12 -84 0
7 9 10 33 12 -92 0
7 9 10 33 12 -89 0
7 9 10 33 12 -90 0
7 9 10 33 12 -91 0
7 9 10 42 12 -96 0
7 9 10 42 12 -94 0
7 9 10 42 12 -95 0
7 9 10 42 12 -93 0
7 9 10 1 12 -14 0
7 9 10 1 12 -8 0
7 9 10 1 12 -13 0
7 9 10 1 12 -11 0
7 9 10 61 12 -104 0
7 9 10 61 12 -102 0
7 9 10 61 12 -103 0
7 9 10 61 12 -101 0
7 9 10 53 12 -99 0
7 9 10 53 12 -98 0
7 9 10 53 12 -97 0
7 9 10 53 12 -100 0
30 64 28 69 25 67 -162 0
30 64 28 69 25 67 -163 0
30 64 28 69 25 67 -161 0
30 64 28 69 25 67 -164 0
30 64 28 69 25 24 -162 0
30 64 28 69 25 24 -163 0
30 64 28 69 25 24 -161 0
30 64 28 69 25 24 -164 0
30 64 28 69 67 68 -162 0
30 64 28 69 67 68 -163 0
30 64 28 69 67 68 -161 0
30 64 28 69 67 68 -164 0
30 64 28 69 24 68 -162 0
30 64 28 69 24 68 -163 0
30 64 28 69 24 68 -161 0
30 64 28 69 24 68 -164 0
30 64 28 25 67 24 -162 0
30 64 28 25 67 24 -163 0
30 64 28 25 67 24 -161 0
30 64 28 25 67 24 -164 0
30 64 28 25 24 68 -162 0
30 64 28 25 24 68 -163 0
30 64 28 25 24 68 -161 0
30 64 28 25 24 68 -164 0
30 64 69 25 67 68 -162 0
30 64 69 25 67 68 -163 0
30 64 69 25 67 68 -161 0
30 64 69 25 67 68 -164 0
30 64 69 67 24 68 -162 0
30 64 69 67 24 68 -163 0
30 64 69 67 24 68 -161 0
30 64 69 67 24 68 -164 0
30 64 25 67 24 68 -162 0
30 64 25 67 24 68 -163 0
30 64 25 67 24 68 -161 0
30 64 25 67 24 68 -164 0
30 76 28 77 25 78 -168 0
30 76 28 77 25 78 -166 0
30 76 28 77 25 78 -167 0
30 76 28 77 25 78 -165 0
30 76 28 77 25 24 -168 0
30 76 28 77 25 24 -166 0
30 76 28 77 25 24 -167 0
30 76 28 77 25 24 -165 0
30 76 28 77 78 72 -168 0
30 76 28 77 78 72 -166 0
30 76 28 77 78 72 -167 0
30 76 28 77 78 72 -165 0
30 76 28 77 24 72 -168 0
30 76 28 77 24 72 -166 0
30 76 28 77 24 72 -167 0
30 76 28 77 24 72 -165 0
30 76 28 25 78 24 -168 0
30 76 28 25 78 24 -166 0
30 76 28 25 78 24 -167 0
30 76 28 25 78 24 -165 0
30 76 28 25 24 72 -168 0
30 76 28 25 24 72 -166 0
30 76 28 25 24 72 -167 0
30 76 28 25 24 72 -165 0
30 76 77 25 78 72 -168 0
30 76 77 25 78 72 -166 0
30 76 77 25 78 72 -167 0
30 76 77 25 78 72 -165 0
30 76 77 78 24 72 -168 0
30 76 77 78 24 72 -166 0
30 76 77 78 24 72 -167 0
30 76 77 78 24 72 -165 0
30 76 25 78 24 72 -168 0
30 76 25 78 24 72 -166 0
30 76 25 78 24 72 -167 0
30 76 25 78 24 72 -165 0
30 17 28 22 25 16 -118 0
30 17 28 22 25 16 -116 0
30 17 28 22 25 16 -117 0
30 17 28 22 25 16 -115 0
30 17 28 22 25 24 -118 0
30 17 28 22 25 24 -116 0
30 17 28 22 25 24 -117 0
30 17 28 22 25 24 -115 0
30 17 28 22 16 18 -118 0
30 17 28 22 16 18 -116 0
30 17 28 22 16 18 -117 0
30 17 28 22 16 18 -115 0
30 17 28 22 24 18 -118 0
30 17 28 22 24 18 -116 0
30 17 28 22 24 18 -117 0
30 17 28 22 24 18 -115 0
30 17 28 25 16 24 -118 0
30 17 28 25 16 24 -116 0
30 17 28 25 16 24 -117 0
30 17 28 25 16 24 -115 0
30 17 28 25 24 18 -118 0
30 17 28 25 24 18 -116 0
30 17 28 25 24 18 -117 0
30 17 28 25 24 18 -115 0
30 17 22 25 16 18 -118 0
30 17 22 25 16 18 -116 0
30 17 22 25 16 18 -117 0
30 17 22 25 16 18 -115 0
30 17 22 16 24 18 -118 0
30 17 22 16 24 18 -116 0
30 17 22 16 24 18 -117 0
30 17 22 16 24 18 -115 0
30 17 25 16 24 18 -118 0
30 17 25 16 24 18 -116 0
30 17 25 16 24 18 -117 0
30 17 25 16 24 18 -115 0
30 37 28 35 25 38 -146 0
30 37 28 35 25 38 -147 0
30 37 28 35 25 38 -145 0
30 37 28 35 25 38 -148 0
30 37 28 35 25 24 -146 0
30 37 28 35 25 24 -147 0
30 37 28 35 25 24 -145 0
30 37 28 35 25 24 -148 0
30 37 28 35 38 33 -146 0
30 37 28 35 38 33 -147 0
30 37 28 35 38 33 -145 0
30 37 28 35 38 33 -148 0
30 37 28 35 24 33 -146 0
30 37 28 35 24 33 -147 0
30 37 28 35 24 33 -145 0
30 37 28 35 24 33 -148 0
30 37 28 25 38 24 -146 0
30 37 28 25 38 24 -147 0
30 37 28 25 38 24 -145 0
30 37 28 25 38 24 -148 0
30 37 28 25 24 33 -146 0
30 37 28 25 24 33 -147 0
30 37 28 25 24 33 -145 0
30 37 28 25 24 33 -148 0
30 37 35 25 38 33 -146 0
30 37 35 25 38 33 -147 0
30 37 35 25 38 33 -145 0
30 37 35 25 38 33 -148 0
30 37 35 38 24 33 -146 0
30 37 35 38 24 33 -147 0
30 37 35 38 24 33 -145 0
30 37 35 38 24 33 -148 0
30 37 25 38 24 33 -146 0
30 37 25 38 24 33 -147 0
30 37 25 38 24 33 -145 0
30 37 25 38 24 33 -148 0
30 41 28 44 25 46 -152 0
30 41 28 44 25 46 -150 0
30 41 28 44 25 46 -151 0
30 41 28 44 25 46 -149 0
30 41 28 44 25 24 -152 0
30 41 28 44 25 24 -150 0
30 41 28 44 25 24 -151 0
30 41 28 44 25 24 -149 0
30 41 28 44 46 42 -152 0
30 41 28 44 46 42 -150 0
30 41 28 44 46 42 -151 0
30 41 28 44 46 42 -149 0
30 41 28 44 24 42 -152 0
30 41 28 44 24 42 -150 0
30 41 28 44 24 42 -151 0
30 41 28 44 24 42 -149 0
30 41 28 25 46 24 -152 0
30 41 28 25 46 24 -150 0
30 41 28 25 46 24 -151 0
30 41 28 25 46 24 -149 0
30 41 28 25 24 42 -152 0
30 41 28 25 24 42 -150 0
30 41 28 25 24 42 -151 0
30 41 28 25 24 42 -149 0
30 41 44 25 46 42 -152 0
30 41 44 25 46 42 -150 0
30 41 44 25 46 42 -151 0
30 41 44 25 46 42 -149 0
30 41 44 46 24 42 -152 0
30 41 44 46 24 42 -150 0
30 41 44 46 24 42 -151 0
30 41 44 46 24 42 -149 0
30 41 25 46 24 42 -152 0
30 41 25 46 24 42 -150 0
30 41 25 46 24 42 -151 0
30 41 25 46 24 42 -149 0
30 6 28 2 25 3 -29 0
30 6 28 2 25 3 -26 0
30 6 28 2 25 3 -23 0
30 6 28 2 25 3 -27 0
30 6 28 2 25 24 -29 0
30 6 28 2 25 24 -26 0
30 6 28 2 25 24 -23 0
30 6 28 2 25 24 -27 0
30 6 28 2 3 1 -29 0
30 6 28 2 3 1 -26 0
30 6 28 2 3 1 -23 0
30 6 28 2 3 1 -27 0
30 6 28 2 24 1 -29 0
30 6 28 2 24 1 -26 0
30 6 28 2 24 1 -23 0
30 6 28 2 24 1 -27 0
30 6 28 25 3 24 -29 0
30 6 28 25 3 24 -26 0
30 6 28 25 3 24 -23 0
30 6 28 25 3 24 -27 0
30 6 28 25 24 1 -29 0
30 6 28 25 24 1 -26 0
30 6 28 25 24 1 -23 0
30 6 28 25 24 1 -27 0
30 6 2 25 3 1 -29 0
30 6 2 25 3 1 -26 0
30 6 2 25 3 1 -23 0
30 6 2 25 3 1 -27 0
30 6 2 3 24 1 -29 0
30 6 2 3 24 1 -26 0
30 6 2 3 24 1 -23 0
30 6 2 3 24 1 -27 0
30 6 25 3 24 1 -29 0
30 6 25 3 24 1 -26 0
30 6 25 3 24 1 -23 0
30 6 25 3 24 1 -27 0
30 58 28 56 25 57 -160 0
30 58 28 56 25 57 -159 0
30 58 28 56 25 57 -158 0
30 58 28 56 25 57 -157 0
30 58 28 56 25 24 -160 0
30 58 28 56 25 24 -159 0
30 58 28 56 25 24 -158 0
30 58 28 56 25 24 -157 0
30 58 28 56 57 61 -160 0
30 58 28 56 57 61 -159 0
30 58 28 56 57 61 -158 0
30 58 28 56 57 61 -157 0
30 58 28 56 24 61 -160 0
30 58 28 56 24 61 -159 0
30 58 28 56 24 61 -158 0
30 58 28 56 24 61 -157 0
30 58 28 25 57 24 -160 0
30 58 28 25 57 24 -159 0
30 58 28 25 57 24 -158 0
30 58 28 25 57 24 -157 0
30 58 28 25 24 61 -160 0
30 58 28 25 24 61 -159 0
30 58 28 25 24 61 -158 0
30 58 28 25 24 61 -157 0
30 58 56 25 57 61 -160 0
30 58 56 25 57 61 -159 0
30 58 56 25 57 61 -158 0
30 58 56 25 57 61 -157 0
30 58 56 57 24 61 -160 0
30 58 56 57 24 61 -159 0
30 58 56 57 24 61 -158 0
30 58 56 57 24 61 -157 0
30 58 25 57 24 61 -160 0
30 58 25 57 24 61 -159 0
30 58 25 57 24 61 -158 0
30 58 25 57 24 61 -157 0
30 50 28 49 25 51 -153 0
30 50 28 49 25 51 -154 0
30 50 28 49 25 51 -155 0
30 50 28 49 25 51 -156 0
30 50 28 49 25 24 -153 0
30 50 28 49 25 24 -154 0
30 50 28 49 25 24 -155 0
30 50 28 49 25 24 -156 0
30 50 28 49 51 53 -153 0
30 50 28 49 51 53 -154 0
30 50 28 49 51 53 -155 0
30 50 28 49 51 53 -156 0
30 50 28 49 24 53 -153 0
30 50 28 49 24 53 -154 0
30 50 28 49 24 53 -155 0
30 50 28 49 24 53 -156 0
30 50 28 25 51 24 -153 0
30 50 28 25 51 24 -154 0
30 50 28 25 51 24 -155 0
30 50 28 25 51 24 -156 0
30 50 28 25 24 53 -153 0
30 50 28 25 24 53 -154 0
30 50 28 25 24 53 -155 0
30 50 28 25 24 53 -156 0
30 50 49 25 51 53 -153 0
30 50 49 25 51 53 -154 0
30 50 49 25 51 53 -155 0
30 50 49 25 51 53 -156 0
30 50 49 51 24 53 -153 0
30 50 49 51 24 53 -154 0
30 50 49 51 24 53 -155 0
30 50 49 51 24 53 -156 0
30 50 25 51 24 53 -153 0
30 50 25 51 24 53 -154 0
30 50 25 51 24 53 -155 0
30 50 25 51 24 53 -156 0
30 7 28 9 25 10 -87 0
30 7 28 9 25 10 -85 0
30 7 28 9 25 10 -88 0
30 7 28 9 25 10 -86 0
30 7 28 9 25 24 -87 0
30 7 28 9 25 24 -85 0
30 7 28 9 25 24 -88 0
30 7 28 9 25 24 -86 0
30 7 28 9 10 12 -87 0
30 7 28 9 10 12 -85 0
30 7 28 9 10 12 -88 0
30 7 28 9 10 12 -86 0
30 7 28 9 24 12 -87 0
30 7 28 9 24 12 -85 0
30 7 28 9 24 12 -88 0
30 7 28 9 24 12 -86 0
30 7 28 25 10 24 -87 0
30 7 28 25 10 24 -85 0
30 7 28 25 10 24 -88 0
30 7 28 25 10 24 -86 0
30 7 28 25 24 12 -87 0
30 7 28 25 24 12 -85 0
30 7 28 25 24 12 -88 0
30 7 28 25 24 12 -86 0
30 7 9 25 10 12 -87 0
30 7 9 25 10 12 -85 0
30 7 9 25 10 12 -88 0
30 7 9 25 10 12 -86 0
30 7 9 10 24 12 -87 0
30 7 9 10 24 12 -85 0
30 7 9 10 24 12 -88 0
30 7 9 10 24 12 -86 0
30 7 25 10 24 12 -87 0
30 7 25 10 24 12 -85 0
30 7 25 10 24 12 -88 0
30 7 25 10 24 12 -86 0
30 28 69 25 67 24 -162 0
30 28 69 25 67 24 -163 0
30 28 69 25 67 24 -161 0
30 28 69 25 67 24 -164 0
30 28 69 25 24 68 -162 0
30 28 69 25 24 68 -163 0
30 28 69 25 24 68 -161 0
30 28 69 25 24 68 -164 0
30 28 77 25 78 24 -168 0
30 28 77 25 78 24 -166 0
30 28 77 25 78 24 -167 0
30 28 77 25 78 24 -165 0
30 28 77 25 24 72 -168 0
30 28 77 25 24 72 -166 0
30 28 77 25 24 72 -167 0
30 28 77 25 24 72 -165 0
30 28 22 25 16 24 -118 0
30 28 22 25 16 24 -116 0
30 28 22 25 16 24 -117 0
30 28 22 25 16 24 -115 0
30 28 22 25 24 18 -118 0
30 28 22 25 24 18 -116 0
30 28 22 25 24 18 -117 0
30 28 22 25 24 18 -115 0
30 28 35 25 38 24 -146 0
30 28 35 25 38 24 -147 0
30 28 35 25 38 24 -145 0
30 28 35 25 38 24 -148 0
30 28 35 25 24 33 -146 0
30 28 35 25 24 33 -147 0
30 28 35 25 24 33 -145 0
30 28 35 25 24 33 -148 0
30 28 44 25 46 24 -152 0
30 28 44 25 46 24 -150 0
30 28 44 25 46 24 -151 0
30 28 44 25 46 24 -149 0
30 28 44 25 24 42 -152 0
30 28 44 25 24 42 -150 0
30 28 44 25 24 42 -151 0
30 28 44 25 24 42 -149 0
30 28 2 25 3 24 -29 0
30 28 2 25 3 24 -26 0
30 28 2 25 3 24 -23 0
30 28 2 25 3 24 -27 0
30 28 2 25 24 1 -29 0
30 28 2 25 24 1 -26 0
30 28 2 25 24 1 -23 0
30 28 2 25 24 1 -27 0
30 28 56 25 57 24 -160 0
30 28 56 25 57 24 -159 0
30 28 56 25 57 24 -158 0
30 28 56 25 57 24 -157 0
30 28 56 25 24 61 -160 0
30 28 56 25 24 61 -159 0
30 28 56 25 24 61 -158 0
30 28 56 25 24 61 -157 0
30 28 49 25 51 24 -153 0
30 28 49 25 51 24 -154 0
30 28 49 25 51 24 -155 0
30 28 49 25 51 24 -156 0
30 28 49 25 24 53 -153 0
30 28 49 25 24 53 -154 0
30 28 49 25 24 53 -155 0
30 28 49 25 24 53 -156 0
30 28 9 25 10 24 -87 0
30 28 9 25 10 24 -85 0
30 28 9 25 10 24 -88 0
30 28 9 25 10 24 -86 0
30 28 9 25 24 12 -87 0
30 28 9 25 24 12 -85 0
30 28 9 25 24 12 -88 0
30 28 9 25 24 12 -86 0
30 28 25 67 24 68 -162 0
30 28 25 67 24 68 -163 0
30 28 25 67 24 68 -161 0
30 28 25 67 24 68 -164 0
30 28 25 78 24 72 -168 0
30 28 25 78 24 72 -166 0
30 28 25 78 24 72 -167 0
30 28 25 78 24 72 -165 0
30 28 25 16 24 18 -118 0
30 28 25 16 24 18 -116 0
30 28 25 16 24 18 -117 0
30 28 25 16 24 18 -115 0
30 28 25 38 24 33 -146 0
30 28 25 38 24 33 -147 0
30 28 25 38 24 33 -145 0
30 28 25 38 24 33 -148 0
30 28 25 46 24 42 -152 0
30 28 25 46 24 42 -150 0
30 28 25 46 24 42 -151 0
30 28 25 46 24 42 -149 0
30 28 25 3 24 1 -29 0
30 28 25 3 24 1 -26 0
30 28 25 3 24 1 -23 0
30 28 25 3 24 1 -27 0
30 28 25 57 24 61 -160 0
30 28 25 57 24 61 -159 0
30 28 25 57 24 61 -158 0
30 28 25 57 24 61 -157 0
30 28 25 51 24 53 -153 0
30 28 25 51 24 53 -154 0
30 28 25 51 24 53 -155 0
30 28 25 51 24 53 -156 0
30 28 25 10 24 12 -87 0
30 28 25 10 24 12 -85 0
30 28 25 10 24 12 -88 0
30 28 25 10 24 12 -86 0
64 76 69 77 67 78 -237 0
64 76 69 77 67 78 -238 0
64 76 69 77 67 78 -236 0
64 76 69 77 67 78 -235 0
64 76 69 77 67 68 -237 0
64 76 69 77 67 68 -238 0
64 76 69 77 67 68 -236 0
64 76 69 77 67 68 -235 0
64 76 69 77 78 72 -237 0
64 76 69 77 78 72 -238 0
64 76 69 77 78 72 -236 0
64 76 69 77 78 72 -235 0
64 76 69 77 68 72 -237 0
64 76 69 77 68 72 -238 0
64 76 69 77 68 72 -236 0
64 76 69 77 68 72 -235 0
64 76 69 67 78 68 -237 0
64 76 69 67 78 68 -238 0
64 76 69 67 78 68 -236 0
64 76 69 67 78 68 -235 0
64 76 69 67 68 72 -237 0
64 76 69 67 68 72 -238 0
64 76 69 67 68 72 -236 0
64 76 69 67 68 72 -235 0
64 76 77 67 78 72 -237 0
64 76 77 67 78 72 -238 0
64 76 77 67 78 72 -236 0
64 76 77 67 78 72 -235 0
64 76 77 78 68 72 -237 0
64 76 77 78 68 72 -238 0
64 76 77 78 68 72 -236 0
64 76 77 78 68 72 -235 0
64 76 67 78 68 72 -237 0
64 76 67 78 68 72 -238 0
64 76 67 78 68 72 -236 0
64 76 67 78 68 72 -235 0
64 17 69 22 67 16 -135 0
64 17 69 22 67 16 -137 0
64 17 69 22 67 16 -136 0
64 17 69 22 67 16 -138 0
64 17 69 22 67 68 -135 0
64 17 69 22 67 68 -137 0
64 17 69 22 67 68 -136 0
64 17 69 22 67 68 -138 0
64 17 69 22 16 18 -135 0
64 17 69 22 16 18 -137 0
64 17 69 22 16 18 -136 0
64 17 69 22 16 18 -138 0
64 17 69 22 68 18 -135 0
64 17 69 22 68 18 -137 0
64 17 69 22 68 18 -136 0
64 17 69 22 68 18 -138 0
64 17 69 67 16 68 -135 0
64 17 69 67 16 68 -137 0
64 17 69 67 16 68 -136 0
64 17 69 67 16 68 -138 0
64 17 69 67 68 18 -135 0
64 17 69 67 68 18 -137 0
64 17 69 67 68 18 -136 0
64 17 69 67 68 18 -138 0
64 17 22 67 16 18 -135 0
64 17 22 67 16 18 -137 0
64 17 22 67 16 18 -136 0
64 17 22 67 16 18 -138 0
64 17 22 16 68 18 -135 0
64 17 22 16 68 18 -137 0
64 17 22 16 68 18 -136 0
64 17 22 16 68 18 -138 0
64 17 67 16 68 18 -135 0
64 17 67 16 68 18 -137 0
64 17 67 16 68 18 -136 0
64 17 67 16 68 18 -138 0
64 37 69 35 67 38 -185 0
64 37 69 35 67 38 -184 0
64 37 69 35 67 38 -183 0
64 37 69 35 67 38 -186 0
64 37 69 35 67 68 -185 0
64 37 69 35 67 68 -184 0
64 37 69 35 67 68 -183 0
64 37 69 35 67 68 -186 0
64 37 69 35 38 33 -185 0
64 37 69 35 38 33 -184 0
64 37 69 35 38 33 -183 0
64 37 69 35 38 33 -186 0
64 37 69 35 68 33 -185 0
64 37 69 35 68 33 -184 0
64 37 69 35 68 33 -183 0
64 37 69 35 68 33 -186 0
64 37 69 67 38 68 -185 0
64 37 69 67 38 68 -184 0
64 37 69 67 38 68 -183 0
64 37 69 67 38 68 -186 0
64 37 69 67 68 33 -185 0
64 37 69 67 68 33 -184 0
64 37 69 67 68 33 -183 0
64 37 69 67 68 33 -186 0
64 37 35 67 38 33 -185 0
64 37 35 67 38 33 -184 0
64 37 35 67 38 33 -183 0
64 37 35 67 38 33 -186 0
64 37 35 38 68 33 -185 0
64 37 35 38 68 33 -184 0
64 37 35 38 68 33 -183 0
64 37 35 38 68 33 -186 0
64 37 67 38 68 33 -185 0
64 37 67 38 68 33 -184 0
64 37 67 38 68 33 -183 0
64 37 67 38 68 33 -186 0
64 41 69 44 67 46 -202 0
64 41 69 44 67 46 -204 0
64 41 69 44 67 46 -201 0
64 41 69 44 67 46 -203 0
64 41 69 44 67 68 -202 0
64 41 69 44 67 68 -204 0
64 41 69 44 67 68 -201 0
64 41 69 44 67 68 -203 0
64 41 69 44 46 42 -202 0
64 41 69 44 46 42 -204 0
64 41 69 44 46 42 -201 0
64 41 69 44 46 42 -203 0
64 41 69 44 68 42 -202 0
64 41 69 44 68 42 -204 0
64 41 69 44 68 42 -201 0
64 41 69 44 68 42 -203 0
64 41 69 67 46 68 -202 0
64 41 69 67 46 68 -204 0
64 41 69 67 46 68 -201 0
64 41 69 67 46 68 -203 0
64 41 69 67 68 42 -202 0
64 41 69 67 68 42 -204 0
64 41 69 67 68 42 -201 0
64 41 69 67 68 42 -203 0
64 41 44 67 46 42 -202 0
64 41 44 67 46 42 -204 0
64 41 44 67 46 42 -201 0
64 41 44 67 46 42 -203 0
64 41 44 46 68 42 -202 0
64 41 44 46 68 42 -204 0
64 41 44 46 68 42 -201 0
64 41 44 46 68 42 -203 0
64 41 67 46 68 42 -202 0
64 41 67 46 68 42 -204 0
64 41 67 46 68 42 -201 0
64 41 67 46 68 42 -203 0
64 6 69 2 67 3 -66 0
64 6 69 2 67 3 -70 0
64 6 69 2 67 3 -65 0
64 6 69 2 67 3 -63 0
64 6 69 2 67 68 -66 0
64 6 69 2 67 68 -70 0
64 6 69 2 67 68 -65 0
64 6 69 2 67 68 -63 0
64 6 69 2 3 1 -66 0
64 6 69 2 3 1 -70 0
64 6 69 2 3 1 -65 0
64 6 69 2 3 1 -63 0
64 6 69 2 68 1 -66 0
64 6 69 2 68 1 -70 0
64 6 69 2 68 1 -65 0
64 6 69 2 68 1 -63 0
64 6 69 67 3 68 -66 0
64 6 69 67 3 68 -70 0
64 6 69 67 3 68 -65 0
64 6 69 67 3 68 -63 0
64 6 69 67 68 1 -66 0
64 6 69 67 68 1 -70 0
64 6 69 67 68 1 -65 0
64 6 69 67 68 1 -63 0
64 6 2 67 3 1 -66 0
64 6 2 67 3 1 -70 0
64 6 2 67 3 1 -65 0
64 6 2 67 3 1 -63 0
64 6 2 3 68 1 -66 0
64 6 2 3 68 1 -70 0
64 6 2 3 68 1 -65 0
64 6 2 3 68 1 -63 0
64 6 67 3 68 1 -66 0
64 6 67 3 68 1 -70 0
64 6 67 3 68 1 -65 0
64 6 67 3 68 1 -63 0
64 58 69 56 67 57 -228 0
64 58 69 56 67 57 -226 0
64 58 69 56 67 57 -227 0
64 58 69 56 67 57 -225 0
64 58 69 56 67 68 -228 0
64 58 69 56 67 68 -226 0
64 58 69 56 67 68 -227 0
64 58 69 56 67 68 -225 0
64 58 69 56 57 61 -228 0
64 58 69 56 57 61 -226 0
64 58 69 56 57 61 -227 0
64 58 69 56 57 61 -225 0
64 58 69 56 68 61 -228 0
64 58 69 56 68 61 -226 0
64 58 69 56 68 61 -227 0
64 58 69 56 68 61 -225 0
64 58 69 67 57 68 -228 0
64 58 69 67 57 68 -226 0
64 58 69 67 57 68 -227 0
64 58 69 67 57 68 -225 0
64 58 69 67 68 61 -228 0
64 58 69 67 68 61 -226 0
64 58 69 67 68 61 -227 0
64 58 69 67 68 61 -225 0
64 58 56 67 57 61 -228 0
64 58 56 67 57 61 -226 0
64 58 56 67 57 61 -227 0
64 58 56 67 57 61 -225 0
64 58 56 57 68 61 -228 0
64 58 56 57 68 61 -226 0
64 58 56 57 68 61 -227 0
64 58 56 57 68 61 -225 0
64 58 67 57 68 61 -228 0
64 58 67 57 68 61 -226 0
64 58 67 57 68 61 -227 0
64 58 67 57 68 61 -225 0
64 50 69 49 67 51 -216 0
64 50 69 49 67 51 -218 0
64 50 69 49 67 51 -215 0
64 50 69 49 67 51 -217 0
64 50 69 49 67 68 -216 0
64 50 69 49 67 68 -218 0
64 50 69 49 67 68 -215 0
64 50 69 49 67 68 -217 0
64 50 69 49 51 53 -216 0
64 50 69 49 51 53 -218 0
64 50 69 49 51 53 -215 0
64 50 69 49 51 53 -217 0
64 50 69 49 68 53 -216 0
64 50 69 49 68 53 -218 0
64 50 69 49 68 53 -215 0
64 50 69 49 68 53 -217 0
64 50 69 67 51 68 -216 0
64 50 69 67 51 68 -218 0
64 50 69 67 51 68 -215 0
64 50 69 67 51 68 -217 0
64 50 69 67 68 53 -216 0
64 50 69 67 68 53 -218 0
64 50 69 67 68 53 -215 0
64 50 69 67 68 53 -217 0
64 50 49 67 51 53 -216 0
64 50 49 67 51 53 -218 0
64 50 49 67 51 53 -215 0
64 50 49 67 51 53 -217 0
64 50 49 51 68 53 -216 0
64 50 49 51 68 53 -218 0
64 50 49 51 68 53 -215 0
64 50 49 51 68 53 -217 0
64 50 67 51 68 53 -216 0
64 50 67 51 68 53 -218 0
64 50 67 51 68 53 -215 0
64 50 67 51 68 53 -217 0
64 7 69 9 67 10 -108 0
64 7 69 9 67 10 -107 0
64 7 69 9 67 10 -106 0
64 7 69 9 67 10 -105 0
64 7 69 9 67 68 -108 0
64 7 69 9 67 68 -107 0
64 7 69 9 67 68 -106 0
64 7 69 9 67 68 -105 0
64 7 69 9 10 12 -108 0
64 7 69 9 10 12 -107 0
64 7 69 9 10 12 -106 0
64 7 69 9 10 12 -105 0
64 7 69 9 68 12 -108 0
64 7 69 9 68 12 -107 0
64 7 69 9 68 12 -106 0
64 7 69 9 68 12 -105 0
64 7 69 67 10 68 -108 0
64 7 69 67 10 68 -107 0
64 7 69 67 10 68 -106 0
64 7 69 67 10 68 -105 0
64 7 69 67 68 12 -108 0
64 7 69 67 68 12 -107 0
64 7 69 67 68 12 -106 0
64 7 69 67 68 12 -105 0
64 7 9 67 10 12 -108 0
64 7 9 67 10 12 -107 0
64 7 9 67 10 12 -106 0
64 7 9 67 10 12 -105 0
64 7 9 10 68 12 -108 0
64 7 9 10 68 12 -107 0
64 7 9 10 68 12 -106 0
64 7 9 10 68 12 -105 0
64 7 67 10 68 12 -108 0
64 7 67 10 68 12 -107 0
64 7 67 10 68 12 -106 0
64 7 67 10 68 12 -105 0
64 28 69 25 67 68 -162 0
64 28 69 25 67 68 -163 0
64 28 69 25 67 68 -161 0
64 28 69 25 67 68 -164 0
64 28 69 67 24 68 -162 0
64 28 69 67 24 68 -163 0
64 28 69 67 24 68 -161 0
64 28 69 67 24 68 -164 0
64 69 77 67 78 68 -237 0
64 69 77 67 78 68 -238 0
64 69 77 67 78 68 -236 0
64 69 77 67 78 68 -235 0
64 69 77 67 68 72 -237 0
64 69 77 67 68 72 -238 0
64 69 77 67 68 72 -236 0
64 69 77 67 68 72 -235 0
64 69 22 67 16 68 -135 0
64 69 22 67 16 68 -137 0
64 69 22 67 16 68 -136 0
64 69 22 67 16 68 -138 0
64 69 22 67 68 18 -135 0
64 69 22 67 68 18 -137 0
64 69 22 67 68 18 -136 0
64 69 22 67 68 18 -138 0
64 69 35 67 38 68 -185 0
64 69 35 67 38 68 -184 0
64 69 35 67 38 68 -183 0
64 69 35 67 38 68 -186 0
64 69 35 67 68 33 -185 0
64 69 35 67 68 33 -184 0
64 69 35 67 68 33 -183 0
64 69 35 67 68 33 -186 0
64 69 44 67 46 68 -202 0
64 69 44 67 46 68 -204 0
64 69 44 67 46 68 -201 0
64 69 44 67 46 68 -203 0
64 69 44 67 68 42 -202 0
64 69 44 67 68 42 -204 0
64 69 44 67 68 42 -201 0
64 69 44 67 68 42 -203 0
64 69 2 67 3 68 -66 0
64 69 2 67 3 68 -70 0
64 69 2 67 3 68 -65 0
64 69 2 67 3 68 -63 0
64 69 2 67 68 1 -66 0
64 69 2 67 68 1 -70 0
64 69 2 67 68 1 -65 0
64 69 2 67 68 1 -63 0
64 69 56 67 57 68 -228 0
64 69 56 67 57 68 -226 0
64 69 56 67 57 68 -227 0
64 69 56 67 57 68 -225 0
64 69 56 67 68 61 -228 0
64 69 56 67 68 61 -226 0
64 69 56 67 68 61 -227 0
64 69 56 67 68 61 -225 0
64 69 49 67 51 68 -216 0
64 69 49 67 51 68 -218 0
64 69 49 67 51 68 -215 0
64 69 49 67 51 68 -217 0
64 69 49 67 68 53 -216 0
64 69 49 67 68 53 -218 0
64 69 49 67 68 53 -215 0
64 69 49 67 68 53 -217 0
64 69 9 67 10 68 -108 0
64 69 9 67 10 68 -107 0
64 69 9 67 10 68 -106 0
64 69 9 67 10 68 -105 0
64 69 9 67 68 12 -108 0
64 69 9 67 68 12 -107 0
64 69 9 67 68 12 -106 0
64 69 9 67 68 12 -105 0
64 69 25 67 24 68 -162 0
64 69 25 67 24 68 -163 0
64 69 25 67 24 68 -161 0
64 69 25 67 24 68 -164 0
64 69 67 78 68 72 -237 0
64 69 67 78 68 72 -238 0
64 69 67 78 68 72 -236 0
64 69 67 78 68 72 -235 0
64 69 67 16 68 18 -135 0
64 69 67 16 68 18 -137 0
64 69 67 16 68 18 -136 0
64 69 67 16 68 18 -138 0
64 69 67 38 68 33 -185 0
64 69 67 38 68 33 -184 0
64 69 67 38 68 33 -183 0
64 69 67 38 68 33 -186 0
64 69 67 46 68 42 -202 0
64 69 67 46 68 42 -204 0
64 69 67 46 68 42 -201 0
64 69 67 46 68 42 -203 0
64 69 67 3 68 1 -66 0
64 69 67 3 68 1 -70 0
64 69 67 3 68 1 -65 0
64 69 67 3 68 1 -63 0
64 69 67 57 68 61 -228 0
64 69 67 57 68 61 -226 0
64 69 67 57 68 61 -227 0
64 69 67 57 68 61 -225 0
64 69 67 51 68 53 -216 0
64 69 67 51 68 53 -218 0
64 69 67 51 68 53 -215 0
64 69 67 51 68 53 -217 0
64 69 67 10 68 12 -108 0
64 69 67 10 68 12 -107 0
64 69 67 10 68 12 -106 0
64 69 67 10 68 12 -105 0
76 17 77 22 78 16 -140 0
76 17 77 22 78 16 -141 0
76 17 77 22 78 16 -139 0
76 17 77 22 78 16 -142 0
76 17 77 22 78 72 -140 0
76 17 77 22 78 72 -141 0
76 17 77 22 78 72 -139 0
76 17 77 22 78 72 -142 0
76 17 77 22 16 18 -140 0
76 17 77 22 16 18 -141 0
76 17 77 22 16 18 -139 0
76 17 77 22 16 18 -142 0
76 17 77 22 72 18 -140 0
76 17 77 22 72 18 -141 0
76 17 77 22 72 18 -139 0
76 17 77 22 72 18 -142 0
76 17 77 78 16 72 -140 0
76 17 77 78 16 72 -141 0
76 17 77 78 16 72 -139 0
76 17 77 78 16 72 -142 0
76 17 77 78 72 18 -140 0
76 17 77 78 72 18 -141 0
76 17 77 78 72 18 -139 0
76 17 77 78 72 18 -142 0
76 17 22 78 16 18 -140 0
76 17 22 78 16 18 -141 0
76 17 22 78 16 18 -139 0
76 17 22 78 16 18 -142 0
76 17 22 16 72 18 -140 0
76 17 22 16 72 18 -141 0
76 17 22 16 72 18 -139 0
76 17 22 16 72 18 -142 0
76 17 78 16 72 18 -140 0
76 17 78 16 72 18 -141 0
76 17 78 16 72 18 -139 0
76 17 78 16 72 18 -142 0
76 37 77 35 78 38 -188 0
76 37 77 35 78 38 -190 0
76 37 77 35 78 38 -187 0
76 37 77 35 78 38 -189 0
76 37 77 35 78 72 -188 0
76 37 77 35 78 72 -190 0
76 37 77 35 78 72 -187 0
76 37 77 35 78 72 -189 0
76 37 77 35 38 33 -188 0
76 37 77 35 38 33 -190 0
76 37 77 35 38 33 -187 0
76 37 77 35 38 33 -189 0
76 37 77 35 72 33 -188 0
76 37 77 35 72 33 -190 0
76 37 77 35 72 33 -187 0
76 37 77 35 72 33 -189 0
76 37 77 78 38 72 -188 0
76 37 77 78 38 72 -190 0
76 37 77 78 38 72 -187 0
76 37 77 78 38 72 -189 0
76 37 77 78 72 33 -188 0
76 37 77 78 72 33 -190 0
76 37 77 78 72 33 -187 0
76 37 77 78 72 33 -189 0
76 37 35 78 38 33 -188 0
76 37 35 78 38 33 -190 0
76 37 35 78 38 33 -187 0
76 37 35 78 38 33 -189 0
76 37 35 38 72 33 -188 0
76 37 35 38 72 33 -190 0
76 37 35 38 72 33 -187 0
76 37 35 38 72 33 -189 0
76 37 78 38 72 33 -188 0
76 37 78 38 72 33 -190 0
76 37 78 38 72 33 -187 0
76 37 78 38 72 33 -189 0
76 41 77 44 78 46 -206 0
76 41 77 44 78 46 -205 0
76 41 77 44 78 46 -208 0
76 41 77 44 78 46 -207 0
76 41 77 44 78 72 -206 0
76 41 77 44 78 72 -205 0
76 41 77 44 78 72 -208 0
76 41 77 44 78 72 -207 0
76 41 77 44 46 42 -206 0
76 41 77 44 46 42 -205 0
76 41 77 44 46 42 -208 0
76 41 77 44 46 42 -207 0
76 41 77 44 72 42 -206 0
76 41 77 44 72 42 -205 0
76 41 77 44 72 42 -208 0
76 41 77 44 72 42 -207 0
76 41 77 78 46 72 -206 0
76 41 77 78 46 72 -205 0
76 41 77 78 46 72 -208 0
76 41 77 78 46 72 -207 0
76 41 77 78 72 42 -206 0
76 41 77 78 72 42 -205 0
76 41 77 78 72 42 -208 0
76 41 77 78 72 42 -207 0
76 41 44 78 46 42 -206 0
76 41 44 78 46 42 -205 0
76 41 44 78 46 42 -208 0
76 41 44 78 46 42 -207 0
76 41 44 46 72 42 -206 0
76 41 44 46 72 42 -205 0
76 41 44 46 72 42 -208 0
76 41 44 46 72 42 -207 0
76 41 78 46 72 42 -206 0
76 41 78 46 72 42 -205 0
76 41 78 46 72 42 -208 0
76 41 78 46 72 42 -207 0
76 6 77 2 78 3 -71 0
76 6 77 2 78 3 -75 0
76 6 77 2 78 3 -74 0
76 6 77 2 78 3 -73 0
76 6 77 2 78 72 -71 0
76 6 77 2 78 72 -75 0
76 6 77 2 78 72 -74 0
76 6 77 2 78 72 -73 0
76 6 77 2 3 1 -71 0
76 6 77 2 3 1 -75 0
76 6 77 2 3 1 -74 0
76 6 77 2 3 1 -73 0
76 6 77 2 72 1 -71 0
76 6 77 2 72 1 -75 0
76 6 77 2 72 1 -74 0
76 6 77 2 72 1 -73 0
76 6 77 78 3 72 -71 0
76 6 77 78 3 72 -75 0
76 6 77 78 3 72 -74 0
76 6 77 78 3 72 -73 0
76 6 77 78 72 1 -71 0
76 6 77 78 72 1 -75 0
76 6 77 78 72 1 -74 0
76 6 77 78 72 1 -73 0
76 6 2 78 3 1 -71 0
76 6 2 78 3 1 -75 0
76 6 2 78 3 1 -74 0
76 6 2 78 3 1 -73 0
76 6 2 3 72 1 -71 0
76 6 2 3 72 1 -75 0
76 6 2 3 72 1 -74 0
76 6 2 3 72 1 -73 0
76 6 78 3 72 1 -71 0
76 6 78 3 72 1 -75 0
76 6 78 3 72 1 -74 0
76 6 78 3 72 1 -73 0
76 58 77 56 78 57 -232 0
76 58 77 56 78 57 -230 0
76 58 77 56 78 57 -231 0
76 58 77 56 78 57 -229 0
76 58 77 56 78 72 -232 0
76 58 77 56 78 72 -230 0
76 58 77 56 78 72 -231 0
76 58 77 56 78 72 -229 0
76 58 77 56 57 61 -232 0
76 58 77 56 57 61 -230 0
76 58 77 56 57 61 -231 0
76 58 77 56 57 61 -229 0
76 58 77 56 72 61 -232 0
76 58 77 56 72 61 -230 0
76 58 77 56 72 61 -231 0
76 58 77 56 72 61 -229 0
76 58 77 78 57 72 -232 0
76 58 77 78 57 72 -230 0
76 58 77 78 57 72 -231 0
76 58 77 78 57 72 -229 0
76 58 77 78 72 61 -232 0
76 58 77 78 72 61 -230 0
76 58 77 78 72 61 -231 0
76 58 77 78 72 61 -229 0
76 58 56 78 57 61 -232 0
76 58 56 78 57 61 -230 0
76 58 56 78 57 61 -231 0
76 58 56 78 57 61 -229 0
76 58 56 57 72 61 -232 0
76 58 56 57 72 61 -230 0
76 58 56 57 72 61 -231 0
76 58 56 57 72 61 -229 0
76 58 78 57 72 61 -232 0
76 58 78 57 72 61 -230 0
76 58 78 57 72 61 -231 0
76 58 78 57 72 61 -229 0
76 50 77 49 78 51 -222 0
76 50 77 49 78 51 -220 0
76 50 77 49 78 51 -221 0
76 50 77 49 78 51 -219 0
76 50 77 49 78 72 -222 0
76 50 77 49 78 72 -220 0
76 50 77 49 78 72 -221 0
76 50 77 49 78 72 -219 0
76 50 77 49 51 53 -222 0
76 50 77 49 51 53 -220 0
76 50 77 49 51 53 -221 0
76 50 77 49 51 53 -219 0
76 50 77 49 72 53 -222 0
76 50 77 49 72 53 -220 0
76 50 77 49 72 53 -221 0
76 50 77 49 72 53 -219 0
76 50 77 78 51 72 -222 0
76 50 77 78 51 72 -220 0
76 50 77 78 51 72 -221 0
76 50 77 78 51 72 -219 0
76 50 77 78 72 53 -222 0
76 50 77 78 72 53 -220 0
76 50 77 78 72 53 -221 0
76 50 77 78 72 53 -219 0
76 50 49 78 51 53 -222 0
76 50 49 78 51 53 -220 0
76 50 49 78 51 53 -221 0
76 50 49 78 51 53 -219 0
76 50 49 51 72 53 -222 0
76 50 49 51 72 53 -220 0
76 50 49 51 72 53 -221 0
76 50 49 51 72 53 -219 0
76 50 78 51 72 53 -222 0
76 50 78 51 72 53 -220 0
76 50 78 51 72 53 -221 0
76 50 78 51 72 53 -219 0
76 7 77 9 78 10 -110 0
76 7 77 9 78 10 -111 0
76 7 77 9 78 10 -109 0
76 7 77 9 78 10 -112 0
76 7 77 9 78 72 -110 0
76 7 77 9 78 72 -111 0
76 7 77 9 78 72 -109 0
76 7 77 9 78 72 -112 0
76 7 77 9 10 12 -110 0
76 7 77 9 10 12 -111 0
76 7 77 9 10 12 -109 0
76 7 77 9 10 12 -112 0
76 7 77 9 72 12 -110 0
76 7 77 9 72 12 -111 0
76 7 77 9 72 12 -109 0
76 7 77 9 72 12 -112 0
76 7 77 78 10 72 -110 0
76 7 77 78 10 72 -111 0
76 7 77 78 10 72 -109 0
76 7 77 78 10 72 -112 0
76 7 77 78 72 12 -110 0
76 7 77 78 72 12 -111 0
76 7 77 78 72 12 -109 0
76 7 77 78 72 12 -112 0
76 7 9 78 10 12 -110 0
76 7 9 78 10 12 -111 0
76 7 9 78 10 12 -109 0
76 7 9 78 10 12 -112 0
76 7 9 10 72 12 -110 0
76 7 9 10 72 12 -111 0
76 7 9 10 72 12 -109 0
76 7 9 10 72 12 -112 0
76 7 78 10 72 12 -110 0
76 7 78 10 72 12 -111 0
76 7 78 10 72 12 -109 0
76 7 78 10 72 12 -112 0
76 28 77 25 78 72 -168 0
76 28 77 25 78 72 -166 0
76 28 77 25 78 72 -167 0
76 28 77 25 78 72 -165 0
76 28 77 78 24 72 -168 0
76 28 77 78 24 72 -166 0
76 28 77 78 24 72 -167 0
76 28 77 78 24 72 -165 0
76 69 77 67 78 72 -237 0
76 69 77 67 78 72 -238 0
76 69 77 67 78 72 -236 0
76 69 77 67 78 72 -235 0
76 69 77 78 68 72 -237 0
76 69 77 78 68 72 -238 0
76 69 77 78 68 72 -236 0
76 69 77 78 68 72 -235 0
76 77 22 78 16 72 -140 0
76 77 22 78 16 72 -141 0
76 77 22 78 16 72 -139 0
76 77 22 78 16 72 -142 0
76 77 22 78 72 18 -140 0
76 77 22 78 72 18 -141 0
76 77 22 78 72 18 -139 0
76 77 22 78 72 18 -142 0
76 77 35 78 38 72 -188 0
76 77 35 78 38 72 -190 0
76 77 35 78 38 72 -187 0
76 77 35 78 38 72 -189 0
76 77 35 78 72 33 -188 0
76 77 35 78 72 33 -190 0
76 77 35 78 72 33 -187 0
76 77 35 78 72 33 -189 0
76 77 44 78 46 72 -206 0
76 77 44 78 46 72 -205 0
76 77 44 78 46 72 -208 0
76 77 44 78 46 72 -207 0
76 77 44 78 72 42 -206 0
76 77 44 78 72 42 -205 0
76 77 44 78 72 42 -208 0
76 77 44 78 72 42 -207 0
76 77 2 78 3 72 -71 0
76 77 2 78 3 72 -75 0
76 77 2 78 3 72 -74 0
76 77 2 78 3 72 -73 0
76 77 2 78 72 1 -71 0
76 77 2 78 72 1 -75 0
76 77 2 78 72 1 -74 0
76 77 2 78 72 1 -73 0
76 77 56 78 57 72 -232 0
76 77 56 78 57 72 -230 0
76 77 56 78 57 72 -231 0
76 77 56 78 57 72 -229 0
76 77 56 78 72 61 -232 0
76 77 56 78 72 61 -230 0
76 77 56 78 72 61 -231 0
76 77 56 78 72 61 -229 0
76 77 49 78 51 72 -222 0
76 77 49 78 51 72 -220 0
76 77 49 78 51 72 -221 0
76 77 49 78 51 72 -219 0
76 77 49 78 72 53 -222 0
76 77 49 78 72 53 -220 0
76 77 49 78 72 53 -221 0
76 77 49 78 72 53 -219 0
76 77 9 78 10 72 -110 0
76 77 9 78 10 72 -111 0
76 77 9 78 10 72 -109 0
76 77 9 78 10 72 -112 0
76 77 9 78 72 12 -110 0
76 77 9 78 72 12 -111 0
76 77 9 78 72 12 -109 0
76 77 9 78 72 12 -112 0
76 77 25 78 24 72 -168 0
76 77 25 78 24 72 -166 0
76 77 25 78 24 72 -167 0
76 77 25 78 24 72 -165 0
76 77 67 78 68 72 -237 0
76 77 67 78 68 72 -238 0
76 77 67 78 68 72 -236 0
76 77 67 78 68 72 -235 0
76 77 78 16 72 18 -140 0
76 77 78 16 72 18 -141 0
76 77 78 16 72 18 -139 0
76 77 78 16 72 18 -142 0
76 77 78 38 72 33 -188 0
76 77 78 38 72 33 -190 0
76 77 78 38 72 33 -187 0
76 77 78 38 72 33 -189 0
76 77 78 46 72 42 -206 0
76 77 78 46 72 42 -205 0
76 77 78 46 72 42 -208 0
76 77 78 46 72 42 -207 0
76 77 78 3 72 1 -71 0
76 77 78 3 72 1 -75 0
76 77 78 3 72 1 -74 0
76 77 78 3 72 1 -73 0
76 77 78 57 72 61 -232 0
76 77 78 57 72 61 -230 0
76 77 78 57 72 61 -231 0
76 77 78 57 72 61 -229 0
76 77 78 51 72 53 -222 0
76 77 78 51 72 53 -220 0
76 77 78 51 72 53 -221 0
76 77 78 51 72 53 -219 0
76 77 78 10 72 12 -110 0
76 77 78 10 72 12 -111 0
76 77 78 10 72 12 -109 0
76 77 78 10 72 12 -112 0
17 37 22 35 16 38 -119 0
17 37 22 35 16 38 -122 0
17 37 22 35 16 38 -120 0
17 37 22 35 16 38 -121 0
17 37 22 35 16 18 -119 0
17 37 22 35 16 18 -122 0
17 37 22 35 16 18 -120 0
17 37 22 35 16 18 -121 0
17 37 22 35 38 33 -119 0
17 37 22 35 38 33 -122 0
17 37 22 35 38 33 -120 0
17 37 22 35 38 33 -121 0
17 37 22 35 18 33 -119 0
17 37 22 35 18 33 -122 0
17 37 22 35 18 33 -120 0
17 37 22 35 18 33 -121 0
17 37 22 16 38 18 -119 0
17 37 22 16 38 18 -122 0
17 37 22 16 38 18 -120 0
17 37 22 16 38 18 -121 0
17 37 22 16 18 33 -119 0
17 37 22 16 18 33 -122 0
17 37 22 16 18 33 -120 0
17 37 22 16 18 33 -121 0
17 37 35 16 38 33 -119 0
17 37 35 16 38 33 -122 0
17 37 35 16 38 33 -120 0
17 37 35 16 38 33 -121 0
17 37 35 38 18 33 -119 0
17 37 35 38 18 33 -122 0
17 37 35 38 18 33 -120 0
17 37 35 38 18 33 -121 0
17 37 16 38 18 33 -119 0
17 37 16 38 18 33 -122 0
17 37 16 38 18 33 -120 0
17 37 16 38 18 33 -121 0
17 41 22 44 16 46 -124 0
17 41 22 44 16 46 -126 0
17 41 22 44 16 46 -123 0
17 41 22 44 16 46 -125 0
17 41 22 44 16 18 -124 0
17 41 22 44 16 18 -126 0
17 41 22 44 16 18 -123 0
17 41 22 44 16 18 -125 0
17 41 22 44 46 42 -124 0
17 41 22 44 46 42 -126 0
17 41 22 44 46 42 -123 0
17 41 22 44 46 42 -125 0
17 41 22 44 18 42 -124 0
17 41 22 44 18 42 -126 0
17 41 22 44 18 42 -123 0
17 41 22 44 18 42 -125 0
17 41 22 16 46 18 -124 0
17 41 22 16 46 18 -126 0
17 41 22 16 46 18 -123 0
17 41 22 16 46 18 -125 0
17 41 22 16 18 42 -124 0
17 41 22 16 18 42 -126 0
17 41 22 16 18 42 -123 0
17 41 22 16 18 42 -125 0
17 41 44 16 46 42 -124 0
17 41 44 16 46 42 -126 0
17 41 44 16 46 42 -123 0
17 41 44 16 46 42 -125 0
17 41 44 46 18 42 -124 0
17 41 44 46 18 42 -126 0
17 41 44 46 18 42 -123 0
17 41 44 46 18 42 -125 0
17 41 16 46 18 42 -124 0
17 41 16 46 18 42 -126 0
17 41 16 46 18 42 -123 0
17 41 16 46 18 42 -125 0
17 6 22 2 16 3 -15 0
17 6 22 2 16 3 -21 0
17 6 22 2 16 3 -19 0
17 6 22 2 16 3 -20 0
17 6 22 2 16 18 -15 0
17 6 22 2 16 18 -21 0
17 6 22 2 16 18 -19 0
17 6 22 2 16 18 -20 0
17 6 22 2 3 1 -15 0
17 6 22 2 3 1 -21 0
17 6 22 2 3 1 -19 0
17 6 22 2 3 1 -20 0
17 6 22 2 18 1 -15 0
17 6 22 2 18 1 -21 0
17 6 22 2 18 1 -19 0
17 6 22 2 18 1 -20 0
17 6 22 16 3 18 -15 0
17 6 22 16 3 18 -21 0
17 6 22 16 3 18 -19 0
17 6 22 16 3 18 -20 0
17 6 22 16 18 1 -15 0
17 6 22 16 18 1 -21 0
17 6 22 16 18 1 -19 0
17 6 22 16 18 1 -20 0
17 6 2 16 3 1 -15 0
17 6 2 16 3 1 -21 0
17 6 2 16 3 1 -19 0
17 6 2 16 3 1 -20 0
17 6 2 3 18 1 -15 0
17 6 2 3 18 1 -21 0
17 6 2 3 18 1 -19 0
17 6 2 3 18 1 -20 0
17 6 16 3 18 1 -15 0
17 6 16 3 18 1 -21 0
17 6 16 3 18 1 -19 0
17 6 16 3 18 1 -20 0
17 58 22 56 16 57 -134 0
17 58 22 56 16 57 -133 0
17 58 22 56 16 57 -132 0
17 58 22 56 16 57 -131 0
17 58 22 56 16 18 -134 0
17 58 22 56 16 18 -133 0
17 58 22 56 16 18 -132 0
17 58 22 56 16 18 -131 0
17 58 22 56 57 61 -134 0
17 58 22 56 57 61 -133 0
17 58 22 56 57 61 -132 0
17 58 22 56 57 61 -131 0
17 58 22 56 18 61 -134 0
17 58 22 56 18 61 -133 0
17 58 22 56 18 61 -132 0
17 58 22 56 18 61 -131 0
17 58 22 16 57 18 -134 0
17 58 22 16 57 18 -133 0
17 58 22 16 57 18 -132 0
17 58 22 16 57 18 -131 0
17 58 22 16 18 61 -134 0
17 58 22 16 18 61 -133 0
17 58 22 16 18 61 -132 0
17 58 22 16 18 61 -131 0
17 58 56 16 57 61 -134 0
17 58 56 16 57 61 -133 0
17 58 56 16 57 61 -132 0
17 58 56 16 57 61 -131 0
17 58 56 57 18 61 -134 0
17 58 56 57 18 61 -133 0
17 58 56 57 18 61 -132 0
17 58 56 57 18 61 -131 0
17 58 16 57 18 61 -134 0
17 58 16 57 18 61 -133 0
17 58 16 57 18 61 -132 0
17 58 16 57 18 61 -131 0
17 50 22 49 16 51 -127 0
17 50 22 49 16 51 -129 0
17 50 22 49 16 51 -128 0
17 50 22 49 16 51 -130 0
17 50 22 49 16 18 -127 0
17 50 22 49 16 18 -129 0
17 50 22 49 16 18 -128 0
17 50 22 49 16 18 -130 0
17 50 22 49 51 53 -127 0
17 50 22 49 51 53 -129 0
17 50 22 49 51 53 -128 0
17 50 22 49 51 53 -130 0
17 50 22 49 18 53 -127 0
17 50 22 49 18 53 -129 0
17 50 22 49 18 53 -128 0
17 50 22 49 18 53 -130 0
17 50 22 16 51 18 -127 0
17 50 22 16 51 18 -129 0
17 50 22 16 51 18 -128 0
17 50 22 16 51 18 -130 0
17 50 22 16 18 53 -127 0
17 50 22 16 18 53 -129 0
17 50 22 16 18 53 -128 0
17 50 22 16 18 53 -130 0
17 50 49 16 51 53 -127 0
17 50 49 16 51 53 -129 0
17 50 49 16 51 53 -128 0
17 50 49 16 51 53 -130 0
17 50 49 51 18 53 -127 0
17 50 49 51 18 53 -129 0
17 50 49 51 18 53 -128 0
17 50 49 51 18 53 -130 0
17 50 16 51 18 53 -127 0
17 50 16 51 18 53 -129 0
17 50 16 51 18 53 -128 0
17 50 16 51 18 53 -130 0
17 7 22 9 16 10 -82 0
17 7 22 9 16 10 -83 0
17 7 22 9 16 10 -81 0
17 7 22 9 16 10 -84 0
17 7 22 9 16 18 -82 0
17 7 22 9 16 18 -83 0
17 7 22 9 16 18 -81 0
17 7 22 9 16 18 -84 0
17 7 22 9 10 12 -82 0
17 7 22 9 10 12 -83 0
17 7 22 9 10 12 -81 0
17 7 22 9 10 12 -84 0
17 7 22 9 18 12 -82 0
17 7 22 9 18 12 -83 0
17 7 22 9 18 12 -81 0
17 7 22 9 18 12 -84 0
17 7 22 16 10 18 -82 0
17 7 22 16 10 18 -83 0
17 7 22 16 10 18 -81 0
17 7 22 16 10 18 -84 0
17 7 22 16 18 12 -82 0
17 7 22 16 18 12 -83 0
17 7 22 16 18 12 -81 0
17 7 22 16 18 12 -84 0
17 7 9 16 10 12 -82 0
17 7 9 16 10 12 -83 0
17 7 9 16 10 12 -81 0
17 7 9 16 10 12 -84 0
17 7 9 10 18 12 -82 0
17 7 9 10 18 12 -83 0
17 7 9 10 18 12 -81 0
17 7 9 10 18 12 -84 0
17 7 16 10 18 12 -82 0
17 7 16 10 18 12 -83 0
17 7 16 10 18 12 -81 0
17 7 16 10 18 12 -84 0
17 28 22 25 16 18 -118 0
17 28 22 25 16 18 -116 0
17 28 22 25 16 18 -117 0
17 28 22 25 16 18 -115 0
17 28 22 16 24 18 -118 0
17 28 22 16 24 18 -116 0
17 28 22 16 24 18 -117 0
17 28 22 16 24 18 -115 0
17 69 22 67 16 18 -135 0
17 69 22 67 16 18 -137 0
17 69 22 67 16 18 -136 0
17 69 22 67 16 18 -138 0
17 69 22 16 68 18 -135 0
17 69 22 16 68 18 -137 0
17 69 22 16 68 18 -136 0
17 69 22 16 68 18 -138 0
17 77 22 78 16 18 -140 0
17 77 22 78 16 18 -141 0
17 77 22 78 16 18 -139 0
17 77 22 78 16 18 -142 0
17 77 22 16 72 18 -140 0
17 77 22 16 72 18 -141 0
17 77 22 16 72 18 -139 0
17 77 22 16 72 18 -142 0
17 22 35 16 38 18 -119 0
17 22 35 16 38 18 -122 0
17 22 35 16 38 18 -120 0
17 22 35 16 38 18 -121 0
17 22 35 16 18 33 -119 0
17 22 35 16 18 33 -122 0
17 22 35 16 18 33 -120 0
17 22 35 16 18 33 -121 0
17 22 44 16 46 18 -124 0
17 22 44 16 46 18 -126 0
17 22 44 16 46 18 -123 0
17 22 44 16 46 18 -125 0
17 22 44 16 18 42 -124 0
17 22 44 16 18 42 -126 0
17 22 44 16 18 42 -123 0
17 22 44 16 18 42 -125 0
17 22 2 16 3 18 -15 0
17 22 2 16 3 18 -21 0
17 22 2 16 3 18 -19 0
17 22 2 16 3 18 -20 0
17 22 2 16 18 1 -15 0
17 22 2 16 18 1 -21 0
17 22 2 16 18 1 -19 0
17 22 2 16 18 1 -20 0
17 22 56 16 57 18 -134 0
17 22 56 16 57 18 -133 0
17 22 56 16 57 18 -132 0
17 22 56 16 57 18 -131 0
17 22 56 16 18 61 -134 0
17 22 56 16 18 61 -133 0
17 22 56 16 18 61 -132 0
17 22 56 16 18 61 -131 0
17 22 49 16 51 18 -127 0
17 22 49 16 51 18 -129 0
17 22 49 16 51 18 -128 0
17 22 49 16 51 18 -130 0
17 22 49 16 18 53 -127 0
17 22 49 16 18 53 -129 0
17 22 49 16 18 53 -128 0
17 22 49 16 18 53 -130 0
17 22 9 16 10 18 -82 0
17 22 9 16 10 18 -83 0
17 22 9 16 10 18 -81 0
17 22 9 16 10 18 -84 0
17 22 9 16 18 12 -82 0
17 22 9 16 18 12 -83 0
17 22 9 16 18 12 -81 0
17 22 9 16 18 12 -84 0
17 22 25 16 24 18 -118 0
17 22 25 16 24 18 -116 0
17 22 25 16 24 18 -117 0
17 22 25 16 24 18 -115 0
17 22 67 16 68 18 -135 0
17 22 67 16 68 18 -137 0
17 22 67 16 68 18 -136 0
17 22 67 16 68 18 -138 0
17 22 78 16 72 18 -140 0
17 22 78 16 72 18 -141 0
17 22 78 16 72 18 -139 0
17 22 78 16 72 18 -142 0
17 22 16 38 18 33 -119 0
17 22 16 38 18 33 -122 0
17 22 16 38 18 33 -120 0
17 22 16 38 18 33 -121 0
17 22 16 46 18 42 -124 0
17 22 16 46 18 42 -126 0
17 22 16 46 18 42 -123 0
17 22 16 46 18 42 -125 0
17 22 16 3 18 1 -15 0
17 22 16 3 18 1 -21 0
17 22 16 3 18 1 -19 0
17 22 16 3 18 1 -20 0
17 22 16 57 18 61 -134 0
17 22 16 57 18 61 -133 0
17 22 16 57 18 61 -132 0
17 22 16 57 18 61 -131 0
17 22 16 51 18 53 -127 0
17 22 16 51 18 53 -129 0
17 22 16 51 18 53 -128 0
17 22 16 51 18 53 -130 0
17 22 16 10 18 12 -82 0
17 22 16 10 18 12 -83 0
17 22 16 10 18 12 -81 0
17 22 16 10 18 12 -84 0
37 41 35 44 38 46 -173 0
37 41 35 44 38 46 -172 0
37 41 35 44 38 46 -171 0
37 41 35 44 38 46 -174 0
37 41 35 44 38 33 -173 0
37 41 35 44 38 33 -172 0
37 41 35 44 38 33 -171 0
37 41 35 44 38 33 -174 0
37 41 35 44 46 42 -173 0
37 41 35 44 46 42 -172 0
37 41 35 44 46 42 -171 0
37 41 35 44 46 42 -174 0
37 41 35 44 33 42 -173 0
37 41 35 44 33 42 -172 0
37 41 35 44 33 42 -171 0
37 41 35 44 33 42 -174 0
37 41 35 38 46 33 -173 0
37 41 35 38 46 33 -172 0
37 41 35 38 46 33 -171 0
37 41 35 38 46 33 -174 0
37 41 35 38 33 42 -173 0
37 41 35 38 33 42 -172 0
37 41 35 38 33 42 -171 0
37 41 35 38 33 42 -174 0
37 41 44 38 46 42 -173 0
37 41 44 38 46 42 -172 0
37 41 44 38 46 42 -171 0
37 41 44 38 46 42 -174 0
37 41 44 46 33 42 -173 0
37 41 44 46 33 42 -172 0
37 41 44 46 33 42 -171 0
37 41 44 46 33 42 -174 0
37 41 38 46 33 42 -173 0
37 41 38 46 33 42 -172 0
37 41 38 46 33 42 -171 0
37 41 38 46 33 42 -174 0
37 6 35 2 38 3 -32 0
37 6 35 2 38 3 -36 0
37 6 35 2 38 3 -31 0
37 6 35 2 38 3 -34 0
37 6 35 2 38 33 -32 0
37 6 35 2 38 33 -36 0
37 6 35 2 38 33 -31 0
37 6 35 2 38 33 -34 0
37 6 35 2 3 1 -32 0
37 6 35 2 3 1 -36 0
37 6 35 2 3 1 -31 0
37 6 35 2 3 1 -34 0
37 6 35 2 33 1 -32 0
37 6 35 2 33 1 -36 0
37 6 35 2 33 1 -31 0
37 6 35 2 33 1 -34 0
37 6 35 38 3 33 -32 0
37 6 35 38 3 33 -36 0
37 6 35 38 3 33 -31 0
37 6 35 38 3 33 -34 0
37 6 35 38 33 1 -32 0
37 6 35 38 33 1 -36 0
37 6 35 38 33 1 -31 0
37 6 35 38 33 1 -34 0
37 6 2 38 3 1 -32 0
37 6 2 38 3 1 -36 0
37 6 2 38 3 1 -31 0
37 6 2 38 3 1 -34 0
37 6 2 3 33 1 -32 0
37 6 2 3 33 1 -36 0
37 6 2 3 33 1 -31 0
37 6 2 3 33 1 -34 0
37 6 38 3 33 1 -32 0
37 6 38 3 33 1 -36 0
37 6 38 3 33 1 -31 0
37 6 38 3 33 1 -34 0
37 58 35 56 38 57 -182 0
37 58 35 56 38 57 -180 0
37 58 35 56 38 57 -181 0
37 58 35 56 38 57 -179 0
37 58 35 56 38 33 -182 0
37 58 35 56 38 33 -180 0
37 58 35 56 38 33 -181 0
37 58 35 56 38 33 -179 0
37 58 35 56 57 61 -182 0
37 58 35 56 57 61 -180 0
37 58 35 56 57 61 -181 0
37 58 35 56 57 61 -179 0
37 58 35 56 33 61 -182 0
37 58 35 56 33 61 -180 0
37 58 35 56 33 61 -181 0
37 58 35 56 33 61 -179 0
37 58 35 38 57 33 -182 0
37 58 35 38 57 33 -180 0
37 58 35 38 57 33 -181 0
37 58 35 38 57 33 -179 0
37 58 35 38 33 61 -182 0
37 58 35 38 33 61 -180 0
37 58 35 38 33 61 -181 0
37 58 35 38 33 61 -179 0
37 58 56 38 57 61 -182 0
37 58 56 38 57 61 -180 0
37 58 56 38 57 61 -181 0
37 58 56 38 57 61 -179 0
37 58 56 57 33 61 -182 0
37 58 56 57 33 61 -180 0
37 58 56 57 33 61 -181 0
37 58 56 57 33 61 -179 0
37 58 38 57 33 61 -182 0
37 58 38 57 33 61 -180 0
37 58 38 57 33 61 -181 0
37 58 38 57 33 61 -179 0
37 50 35 49 38 51 -177 0
37 50 35 49 38 51 -175 0
37 50 35 49 38 51 -176 0
37 50 35 49 38 51 -178 0
37 50 35 49 38 33 -177 0
37 50 35 49 38 33 -175 0
37 50 35 49 38 33 -176 0
37 50 35 49 38 33 -178 0
37 50 35 49 51 53 -177 0
37 50 35 49 51 53 -175 0
37 50 35 49 51 53 -176 0
37 50 35 49 51 53 -178 0
37 50 35 49 33 53 -177 0
37 50 35 49 33 53 -175 0
37 50 35 49 33 53 -176 0
37 50 35 49 33 53 -178 0
37 50 35 38 51 33 -177 0
37 50 35 38 51 33 -175 0
37 50 35 38 51 33 -176 0
37 50 35 38 51 33 -178 0
37 50 35 38 33 53 -177 0
37 50 35 38 33 53 -175 0
37 50 35 38 33 53 -176 0
37 50 35 38 33 53 -178 0
37 50 49 38 51 53 -177 0
37 50 49 38 51 53 -175 0
37 50 49 38 51 53 -176 0
37 50 49 38 51 53 -178 0
37 50 49 51 33 53 -177 0
37 50 49 51 33 53 -175 0
37 50 49 51 33 53 -176 0
37 50 49 51 33 53 -178 0
37 50 38 51 33 53 -177 0
37 50 38 51 33 53 -175 0
37 50 38 51 33 53 -176 0
37 50 38 51 33 53 -178 0
37 7 35 9 38 10 -92 0
37 7 35 9 38 10 -89 0
37 7 35 9 38 10 -90 0
37 7 35 9 38 10 -91 0
37 7 35 9 38 33 -92 0
37 7 35 9 38 33 -89 0
37 7 35 9 38 33 -90 0
37 7 35 9 38 33 -91 0
37 7 35 9 10 12 -92 0
37 7 35 9 10 12 -89 0
37 7 35 9 10 12 -90 0
37 7 35 9 10 12 -91 0
37 7 35 9 33 12 -92 0
37 7 35 9 33 12 -89 0
37 7 35 9 33 12 -90 0
37 7 35 9 33 12 -91 0
37 7 35 38 10 33 -92 0
37 7 35 38 10 33 -89 0
37 7 35 38 10 33 -90 0
37 7 35 38 10 33 -91 0
37 7 35 38 33 12 -92 0
37 7 35 38 33 12 -89 0
37 7 35 38 33 12 -90 0
37 7 35 38 33 12 -91 0
37 7 9 38 10 12 -92 0
37 7 9 38 10 12 -89 0
37 7 9 38 10 12 -90 0
37 7 9 38 10 12 -91 0
37 7 9 10 33 12 -92 0
37 7 9 10 33 12 -89 0
37 7 9 10 33 12 -90 0
37 7 9 10 33 12 -91 0
37 7 38 10 33 12 -92 0
37 7 38 10 33 12 -89 0
37 7 38 10 33 12 -90 0
37 7 38 10 33 12 -91 0
37 28 35 25 38 33 -146 0
37 28 35 25 38 33 -147 0
37 28 35 25 38 33 -145 0
37 28 35 25 38 33 -148 0
37 28 35 38 24 33 -146 0
37 28 35 38 24 33 -147 0
37 28 35 38 24 33 -145 0
37 28 35 38 24 33 -148 0
37 69 35 67 38 33 -185 0
37 69 35 67 38 33 -184 0
37 69 35 67 38 33 -183 0
37 69 35 67 38 33 -186 0
37 69 35 38 68 33 -185 0
37 69 35 38 68 33 -184 0
37 69 35 38 68 33 -183 0
37 69 35 38 68 33 -186 0
37 77 35 78 38 33 -188 0
37 77 35 78 38 33 -190 0
37 77 35 78 38 33 -187 0
37 77 35 78 38 33 -189 0
37 77 35 38 72 33 -188 0
37 77 35 38 72 33 -190 0
37 77 35 38 72 33 -187 0
37 77 35 38 72 33 -189 0
37 22 35 16 38 33 -119 0
37 22 35 16 38 33 -122 0
37 22 35 16 38 33 -120 0
37 22 35 16 38 33 -121 0
37 22 35 38 18 33 -119 0
37 22 35 38 18 33 -122 0
37 22 35 38 18 33 -120 0
37 22 35 38 18 33 -121 0
37 35 44 38 46 33 -173 0
37 35 44 38 46 33 -172 0
37 35 44 38 46 33 -171 0
37 35 44 38 46 33 -174 0
37 35 44 38 33 42 -173 0
37 35 44 38 33 42 -172 0
37 35 44 38 33 42 -171 0
37 35 44 38 33 42 -174 0
37 35 2 38 3 33 -32 0
37 35 2 38 3 33 -36 0
37 35 2 38 3 33 -31 0
37 35 2 38 3 33 -34 0
37 35 2 38 33 1 -32 0
37 35 2 38 33 1 -36 0
37 35 2 38 33 1 -31 0
37 35 2 38 33 1 -34 0
37 35 56 38 57 33 -182 0
37 35 56 38 57 33 -180 0
37 35 56 38 57 33 -181 0
37 35 56 38 57 33 -179 0
37 35 56 38 33 61 -182 0
37 35 56 38 33 61 -180 0
37 35 56 38 33 61 -181 0
37 35 56 38 33 61 -179 0
37 35 49 38 51 33 -177 0
37 35 49 38 51 33 -175 0
37 35 49 38 51 33 -176 0
37 35 49 38 51 33 -178 0
37 35 49 38 33 53 -177 0
37 35 49 38 33 53 -175 0
37 35 49 38 33 53 -176 0
37 35 49 38 33 53 -178 0
37 35 9 38 10 33 -92 0
37 35 9 38 10 33 -89 0
37 35 9 38 10 33 -90 0
37 35 9 38 10 33 -91 0
37 35 9 38 33 12 -92 0
37 35 9 38 33 12 -89 0
37 35 9 38 33 12 -90 0
37 35 9 38 33 12 -91 0
37 35 25 38 24 33 -146 0
37 35 25 38 24 33 -147 0
37 35 25 38 24 33 -145 0
37 35 25 38 24 33 -148 0
37 35 67 38 68 33 -185 0
37 35 67 38 68 33 -184 0
37 35 67 38 68 33 -183 0
37 35 67 38 68 33 -186 0
37 35 78 38 72 33 -188 0
37 35 78 38 72 33 -190 0
37 35 78 38 72 33 -187 0
37 35 78 38 72 33 -189 0
37 35 16 38 18 33 -119 0
37 35 16 38 18 33 -122 0
37 35 16 38 18 33 -120 0
37 35 16 38 18 33 -121 0
37 35 38 46 33 42 -173 0
37 35 38 46 33 42 -172 0
37 35 38 46 33 42 -171 0
37 35 38 46 33 42 -174 0
37 35 38 3 33 1 -32 0
37 35 38 3 33 1 -36 0
37 35 38 3 33 1 -31 0
37 35 38 3 33 1 -34 0
37 35 38 57 33 61 -182 0
37 35 38 57 33 61 -180 0
37 35 38 57 33 61 -181 0
37 35 38 57 33 61 -179 0
37 35 38 51 33 53 -177 0
37 35 38 51 33 53 -175 0
37 35 38 51 33 53 -176 0
37 35 38 51 33 53 -178 0
37 35 38 10 33 12 -92 0
37 35 38 10 33 12 -89 0
37 35 38 10 33 12 -90 0
37 35 38 10 33 12 -91 0
41 6 44 2 46 3 -43 0
41 6 44 2 46 3 -40 0
41 6 44 2 46 3 -45 0
41 6 44 2 46 3 -39 0
41 6 44 2 46 42 -43 0
41 6 44 2 46 42 -40 0
41 6 44 2 46 42 -45 0
41 6 44 2 46 42 -39 0
41 6 44 2 3 1 -43 0
41 6 44 2 3 1 -40 0
41 6 44 2 3 1 -45 0
41 6 44 2 3 1 -39 0
41 6 44 2 42 1 -43 0
41 6 44 2 42 1 -40 0
41 6 44 2 42 1 -45 0
41 6 44 2 42 1 -39 0
41 6 44 46 3 42 -43 0
41 6 44 46 3 42 -40 0
41 6 44 46 3 42 -45 0
41 6 44 46 3 42 -39 0
41 6 44 46 42 1 -43 0
41 6 44 46 42 1 -40 0
41 6 44 46 42 1 -45 0
41 6 44 46 42 1 -39 0
41 6 2 46 3 1 -43 0
41 6 2 46 3 1 -40 0
41 6 2 46 3 1 -45 0
41 6 2 46 3 1 -39 0
41 6 2 3 42 1 -43 0
41 6 2 3 42 1 -40 0
41 6 2 3 42 1 -45 0
41 6 2 3 42 1 -39 0
41 6 46 3 42 1 -43 0
41 6 46 3 42 1 -40 0
41 6 46 3 42 1 -45 0
41 6 46 3 42 1 -39 0
41 58 44 56 46 57 -197 0
41 58 44 56 46 57 -200 0
41 58 44 56 46 57 -198 0
41 58 44 56 46 57 -199 0
41 58 44 56 46 42 -197 0
41 58 44 56 46 42 -200 0
41 58 44 56 46 42 -198 0
41 58 44 56 46 42 -199 0
41 58 44 56 57 61 -197 0
41 58 44 56 57 61 -200 0
41 58 44 56 57 61 -198 0
41 58 44 56 57 61 -199 0
41 58 44 56 42 61 -197 0
41 58 44 56 42 61 -200 0
41 58 44 56 42 61 -198 0
41 58 44 56 42 61 -199 0
41 58 44 46 57 42 -197 0
41 58 44 46 57 42 -200 0
41 58 44 46 57 42 -198 0
41 58 44 46 57 42 -199 0
41 58 44 46 42 61 -197 0
41 58 44 46 42 61 -200 0
41 58 44 46 42 61 -198 0
41 58 44 46 42 61 -199 0
41 58 56 46 57 61 -197 0
41 58 56 46 57 61 -200 0
41 58 56 46 57 61 -198 0
41 58 56 46 57 61 -199 0
41 58 56 57 42 61 -197 0
41 58 56 57 42 61 -200 0
41 58 56 57 42 61 -198 0
41 58 56 57 42 61 -199 0
41 58 46 57 42 61 -197 0
41 58 46 57 42 61 -200 0
41 58 46 57 42 61 -198 0
41 58 46 57 42 61 -199 0
41 50 44 49 46 51 -196 0
41 50 44 49 46 51 -194 0
41 50 44 49 46 51 -195 0
41 50 44 49 46 51 -193 0
41 50 44 49 46 42 -196 0
41 50 44 49 46 42 -194 0
41 50 44 49 46 42 -195 0
41 50 44 49 46 42 -193 0
41 50 44 49 51 53 -196 0
41 50 44 49 51 53 -194 0
41 50 44 49 51 53 -195 0
41 50 44 49 51 53 -193 0
41 50 44 49 42 53 -196 0
41 50 44 49 42 53 -194 0
41 50 44 49 42 53 -195 0
41 50 44 49 42 53 -193 0
41 50 44 46 51 42 -196 0
41 50 44 46 51 42 -194 0
41 50 44 46 51 42 -195 0
41 50 44 46 51 42 -193 0
41 50 44 46 42 53 -196 0
41 50 44 46 42 53 -194 0
41 50 44 46 42 53 -195 0
41 50 44 46 42 53 -193 0
41 50 49 46 51 53 -196 0
41 50 49 46 51 53 -194 0
41 50 49 46 51 53 -195 0
41 50 49 46 51 53 -193 0
41 50 49 51 42 53 -196 0
41 50 49 51 42 53 -194 0
41 50 49 51 42 53 -195 0
41 50 49 51 42 53 -193 0
41 50 46 51 42 53 -196 0
41 50 46 51 42 53 -194 0
41 50 46 51 42 53 -195 0
41 50 46 51 42 53 -193 0
41 7 44 9 46 10 -96 0
41 7 44 9 46 10 -94 0
41 7 44 9 46 10 -95 0
41 7 44 9 46 10 -93 0
41 7 44 9 46 42 -96 0
41 7 44 9 46 42 -94 0
41 7 44 9 46 42 -95 0
41 7 44 9 46 42 -93 0
41 7 44 9 10 12 -96 0
41 7 44 9 10 12 -94 0
41 7 44 9 10 12 -95 0
41 7 44 9 10 12 -93 0
41 7 44 9 42 12 -96 0
41 7 44 9 42 12 -94 0
41 7 44 9 42 12 -95 0
41 7 44 9 42 12 -93 0
41 7 44 46 10 42 -96 0
41 7 44 46 10 42 -94 0
41 7 44 46 10 42 -95 0
41 7 44 46 10 42 -93 0
41 7 44 46 42 12 -96 0
41 7 44 46 42 12 -94 0
41 7 44 46 42 12 -95 0
41 7 44 46 42 12 -93 0
41 7 9 46 10 12 -96 0
41 7 9 46 10 12 -94 0
41 7 9 46 10 12 -95 0
41 7 9 46 10 12 -93 0
41 7 9 10 42 12 -96 0
41 7 9 10 42 12 -94 0
41 7 9 10 42 12 -95 0
41 7 9 10 42 12 -93 0
41 7 46 10 42 12 -96 0
41 7 46 10 42 12 -94 0
41 7 46 10 42 12 -95 0
41 7 46 10 42 12 -93 0
41 28 44 25 46 42 -152 0
41 28 44 25 46 42 -150 0
41 28 44 25 46 42 -151 0
41 28 44 25 46 42 -149 0
41 28 44 46 24 42 -152 0
41 28 44 46 24 42 -150 0
41 28 44 46 24 42 -151 0
41 28 44 46 24 42 -149 0
41 69 44 67 46 42 -202 0
41 69 44 67 46 42 -204 0
41 69 44 67 46 42 -201 0
41 69 44 67 46 42 -203 0
41 69 44 46 68 42 -202 0
41 69 44 46 68 42 -204 0
41 69 44 46 68 42 -201 0
41 69 44 46 68 42 -203 0
41 77 44 78 46 42 -206 0
41 77 44 78 46 42 -205 0
41 77 44 78 46 42 -208 0
41 77 44 78 46 42 -207 0
41 77 44 46 72 42 -206 0
41 77 44 46 72 42 -205 0
41 77 44 46 72 42 -208 0
41 77 44 46 72 42 -207 0
41 22 44 16 46 42 -124 0
41 22 44 16 46 42 -126 0
41 22 44 16 46 42 -123 0
41 22 44 16 46 42 -125 0
41 22 44 46 18 42 -124 0
41 22 44 46 18 42 -126 0
41 22 44 46 18 42 -123 0
41 22 44 46 18 42 -125 0
41 35 44 38 46 42 -173 0
41 35 44 38 46 42 -172 0
41 35 44 38 46 42 -171 0
41 35 44 38 46 42 -174 0
41 35 44 46 33 42 -173 0
41 35 44 46 33 42 -172 0
41 35 44 46 33 42 -171 0
41 35 44 46 33 42 -174 0
41 44 2 46 3 42 -43 0
41 44 2 46 3 42 -40 0
41 44 2 46 3 42 -45 0
41 44 2 46 3 42 -39 0
41 44 2 46 42 1 -43 0
41 44 2 46 42 1 -40 0
41 44 2 46 42 1 -45 0
41 44 2 46 42 1 -39 0
41 44 56 46 57 42 -197 0
41 44 56 46 57 42 -200 0
41 44 56 46 57 42 -198 0
41 44 56 46 57 42 -199 0
41 44 56 46 42 61 -197 0
41 44 56 46 42 61 -200 0
41 44 56 46 42 61 -198 0
41 44 56 46 42 61 -199 0
41 44 49 46 51 42 -196 0
41 44 49 46 51 42 -194 0
41 44 49 46 51 42 -195 0
41 44 49 46 51 42 -193 0
41 44 49 46 42 53 -196 0
41 44 49 46 42 53 -194 0
41 44 49 46 42 53 -195 0
41 44 49 46 42 53 -193 0
41 44 9 46 10 42 -96 0
41 44 9 46 10 42 -94 0
41 44 9 46 10 42 -95 0
41 44 9 46 10 42 -93 0
41 44 9 46 42 12 -96 0
41 44 9 46 42 12 -94 0
41 44 9 46 42 12 -95 0
41 44 9 46 42 12 -93 0
41 44 25 46 24 42 -152 0
41 44 25 46 24 42 -150 0
41 44 25 46 24 42 -151 0
41 44 25 46 24 42 -149 0
41 44 67 46 68 42 -202 0
41 44 67 46 68 42 -204 0
41 44 67 46 68 42 -201 0
41 44 67 46 68 42 -203 0
41 44 78 46 72 42 -206 0
41 44 78 46 72 42 -205 0
41 44 78 46 72 42 -208 0
41 44 78 46 72 42 -207 0
41 44 16 46 18 42 -124 0
41 44 16 46 18 42 -126 0
41 44 16 46 18 42 -123 0
41 44 16 46 18 42 -125 0
41 44 38 46 33 42 -173 0
41 44 38 46 33 42 -172 0
41 44 38 46 33 42 -171 0
41 44 38 46 33 42 -174 0
41 44 46 3 42 1 -43 0
41 44 46 3 42 1 -40 0
41 44 46 3 42 1 -45 0
41 44 46 3 42 1 -39 0
41 44 46 57 42 61 -197 0
41 44 46 57 42 61 -200 0
41 44 46 57 42 61 -198 0
41 44 46 57 42 61 -199 0
41 44 46 51 42 53 -196 0
41 44 46 51 42 53 -194 0
41 44 46 51 42 53 -195 0
41 44 46 51 42 53 -193 0
41 44 46 10 42 12 -96 0
41 44 46 10 42 12 -94 0
41 44 46 10 42 12 -95 0
41 44 46 10 42 12 -93 0
6 58 2 56 3 57 -55 0
6 58 2 56 3 57 -59 0
6 58 2 56 3 57 -62 0
6 58 2 56 3 57 -60 0
6 58 2 56 3 1 -55 0
6 58 2 56 3 1 -59 0
6 58 2 56 3 1 -62 0
6 58 2 56 3 1 -60 0
6 58 2 56 57 61 -55 0
6 58 2 56 57 61 -59 0
6 58 2 56 57 61 -62 0
6 58 2 56 57 61 -60 0
6 58 2 56 1 61 -55 0
6 58 2 56 1 61 -59 0
6 58 2 56 1 61 -62 0
6 58 2 56 1 61 -60 0
6 58 2 3 57 1 -55 0
6 58 2 3 57 1 -59 0
6 58 2 3 57 1 -62 0
6 58 2 3 57 1 -60 0
6 58 2 3 1 61 -55 0
6 58 2 3 1 61 -59 0
6 58 2 3 1 61 -62 0
6 58 2 3 1 61 -60 0
6 58 56 3 57 61 -55 0
6 58 56 3 57 61 -59 0
6 58 56 3 57 61 -62 0
6 58 56 3 57 61 -60 0
6 58 56 57 1 61 -55 0
6 58 56 57 1 61 -59 0
6 58 56 57 1 61 -62 0
6 58 56 57 1 61 -60 0
6 58 3 57 1 61 -55 0
6 58 3 57 1 61 -59 0
6 58 3 57 1 61 -62 0
6 58 3 57 1 61 -60 0
6 50 2 49 3 51 -54 0
6 50 2 49 3 51 -47 0
6 50 2 49 3 51 -48 0
6 50 2 49 3 51 -52 0
6 50 2 49 3 1 -54 0
6 50 2 49 3 1 -47 0
6 50 2 49 3 1 -48 0
6 50 2 49 3 1 -52 0
6 50 2 49 51 53 -54 0
6 50 2 49 51 53 -47 0
6 50 2 49 51 53 -48 0
6 50 2 49 51 53 -52 0
6 50 2 49 1 53 -54 0
6 50 2 49 1 53 -47 0
6 50 2 49 1 53 -48 0
6 50 2 49 1 53 -52 0
6 50 2 3 51 1 -54 0
6 50 2 3 51 1 -47 0
6 50 2 3 51 1 -48 0
6 50 2 3 51 1 -52 0
6 50 2 3 1 53 -54 0
6 50 2 3 1 53 -47 0
6 50 2 3 1 53 -48 0
6 50 2 3 1 53 -52 0
6 50 49 3 51 53 -54 0
6 50 49 3 51 53 -47 0
6 50 49 3 51 53 -48 0
6 50 49 3 51 53 -52 0
6 50 49 51 1 53 -54 0
6 50 49 51 1 53 -47 0
6 50 49 51 1 53 -48 0
6 50 49 51 1 53 -52 0
6 50 3 51 1 53 -54 0
6 50 3 51 1 53 -47 0
6 50 3 51 1 53 -48 0
6 50 3 51 1 53 -52 0
6 7 2 9 3 10 -14 0
6 7 2 9 3 10 -8 0
6 7 2 9 3 10 -13 0
6 7 2 9 3 10 -11 0
6 7 2 9 3 1 -14 0
6 7 2 9 3 1 -8 0
6 7 2 9 3 1 -13 0
6 7 2 9 3 1 -11 0
6 7 2 9 10 12 -14 0
6 7 2 9 10 12 -8 0
6 7 2 9 10 12 -13 0
6 7 2 9 10 12 -11 0
6 7 2 9 1 12 -14 0
6 7 2 9 1 12 -8 0
6 7 2 9 1 12 -13 0
6 7 2 9 1 12 -11 0
6 7 2 3 10 1 -14 0
6 7 2 3 10 1 -8 0
6 7 2 3 10 1 -13 0
6 7 2 3 10 1 -11 0
6 7 2 3 1 12 -14 0
6 7 2 3 1 12 -8 0
6 7 2 3 1 12 -13 0
6 7 2 3 1 12 -11 0
6 7 9 3 10 12 -14 0
6 7 9 3 10 12 -8 0
6 7 9 3 10 12 -13 0
6 7 9 3 10 12 -11 0
6 7 9 10 1 12 -14 0
6 7 9 10 1 12 -8 0
6 7 9 10 1 12 -13 0
6 7 9 10 1 12 -11 0
6 7 3 10 1 12 -14 0
6 7 3 10 1 12 -8 0
6 7 3 10 1 12 -13 0
6 7 3 10 1 12 -11 0
6 28 2 25 3 1 -29 0
6 28 2 25 3 1 -26 0
6 28 2 25 3 1 -23 0
6 28 2 25 3 1 -27 0
6 28 2 3 24 1 -29 0
6 28 2 3 24 1 -26 0
6 28 2 3 24 1 -23 0
6 28 2 3 24 1 -27 0
6 69 2 67 3 1 -66 0
6 69 2 67 3 1 -70 0
6 69 2 67 3 1 -65 0
6 69 2 67 3 1 -63 0
6 69 2 3 68 1 -66 0
6 69 2 3 68 1 -70 0
6 69 2 3 68 1 -65 0
6 69 2 3 68 1 -63 0
6 77 2 78 3 1 -71 0
6 77 2 78 3 1 -75 0
6 77 2 78 3 1 -74 0
6 77 2 78 3 1 -73 0
6 77 2 3 72 1 -71 0
6 77 2 3 72 1 -75 0
6 77 2 3 72 1 -74 0
6 77 2 3 72 1 -73 0
6 22 2 16 3 1 -15 0
6 22 2 16 3 1 -21 0
6 22 2 16 3 1 -19 0
6 22 2 16 3 1 -20 0
6 22 2 3 18 1 -15 0
6 22 2 3 18 1 -21 0
6 22 2 3 18 1 -19 0
6 22 2 3 18 1 -20 0
6 35 2 38 3 1 -32 0
6 35 2 38 3 1 -36 0
6 35 2 38 3 1 -31 0
6 35 2 38 3 1 -34 0
6 35 2 3 33 1 -32 0
6 35 2 3 33 1 -36 0
6 35 2 3 33 1 -31 0
6 35 2 3 33 1 -34 0
6 44 2 46 3 1 -43 0
6 44 2 46 3 1 -40 0
6 44 2 46 3 1 -45 0
6 44 2 46 3 1 -39 0
6 44 2 3 42 1 -43 0
6 44 2 3 42 1 -40 0
6 44 2 3 42 1 -45 0
6 44 2 3 42 1 -39 0
6 2 56 3 57 1 -55 0
6 2 56 3 57 1 -59 0
6 2 56 3 57 1 -62 0
6 2 56 3 57 1 -60 0
6 2 56 3 1 61 -55 0
6 2 56 3 1 61 -59 0
6 2 56 3 1 61 -62 0
6 2 56 3 1 61 -60 0
6 2 49 3 51 1 -54 0
6 2 49 3 51 1 -47 0
6 2 49 3 51 1 -48 0
6 2 49 3 51 1 -52 0
6 2 49 3 1 53 -54 0
6 2 49 3 1 53 -47 0
6 2 49 3 1 53 -48 0
6 2 49 3 1 53 -52 0
6 2 9 3 10 1 -14 0
6 2 9 3 10 1 -8 0
6 2 9 3 10 1 -13 0
6 2 9 3 10 1 -11 0
6 2 9 3 1 12 -14 0
6 2 9 3 1 12 -8 0
6 2 9 3 1 12 -13 0
6 2 9 3 1 12 -11 0
6 2 25 3 24 1 -29 0
6 2 25 3 24 1 -26 0
6 2 25 3 24 1 -23 0
6 2 25 3 24 1 -27 0
6 2 67 3 68 1 -66 0
6 2 67 3 68 1 -70 0
6 2 67 3 68 1 -65 0
6 2 67 3 68 1 -63 0
6 2 78 3 72 1 -71 0
6 2 78 3 72 1 -75 0
6 2 78 3 72 1 -74 0
6 2 78 3 72 1 -73 0
6 2 16 3 18 1 -15 0
6 2 16 3 18 1 -21 0
6 2 16 3 18 1 -19 0
6 2 16 3 18 1 -20 0
6 2 38 3 33 1 -32 0
6 2 38 3 33 1 -36 0
6 2 38 3 33 1 -31 0
6 2 38 3 33 1 -34 0
6 2 46 3 42 1 -43 0
6 2 46 3 42 1 -40 0
6 2 46 3 42 1 -45 0
6 2 46 3 42 1 -39 0
6 2 3 57 1 61 -55 0
6 2 3 57 1 61 -59 0
6 2 3 57 1 61 -62 0
6 2 3 57 1 61 -60 0
6 2 3 51 1 53 -54 0
6 2 3 51 1 53 -47 0
6 2 3 51 1 53 -48 0
6 2 3 51 1 53 -52 0
6 2 3 10 1 12 -14 0
6 2 3 10 1 12 -8 0
6 2 3 10 1 12 -13 0
6 2 3 10 1 12 -11 0
58 50 56 49 57 51 -214 0
58 50 56 49 57 51 -213 0
58 50 56 49 57 51 -211 0
58 50 56 49 57 51 -212 0
58 50 56 49 57 61 -214 0
58 50 56 49 57 61 -213 0
58 50 56 49 57 61 -211 0
58 50 56 49 57 61 -212 0
58 50 56 49 51 53 -214 0
58 50 56 49 51 53 -213 0
58 50 56 49 51 53 -211 0
58 50 56 49 51 53 -212 0
58 50 56 49 61 53 -214 0
58 50 56 49 61 53 -213 0
58 50 56 49 61 53 -211 0
58 50 56 49 61 53 -212 0
58 50 56 57 51 61 -214 0
58 50 56 57 51 61 -213 0
58 50 56 57 51 61 -211 0
58 50 56 57 51 61 -212 0
58 50 56 57 61 53 -214 0
58 50 56 57 61 53 -213 0
58 50 56 57 61 53 -211 0
58 50 56 57 61 53 -212 0
58 50 49 57 51 53 -214 0
58 50 49 57 51 53 -213 0
58 50 49 57 51 53 -211 0
58 50 49 57 51 53 -212 0
58 50 49 51 61 53 -214 0
58 50 49 51 61 53 -213 0
58 50 49 51 61 53 -211 0
58 50 49 51 61 53 -212 0
58 50 57 51 61 53 -214 0
58 50 57 51 61 53 -213 0
58 50 57 51 61 53 -211 0
58 50 57 51 61 53 -212 0
58 7 56 9 57 10 -104 0
58 7 56 9 57 10 -102 0
58 7 56 9 57 10 -103 0
58 7 56 9 57 10 -101 0
58 7 56 9 57 61 -104 0
58 7 56 9 57 61 -102 0
58 7 56 9 57 61 -103 0
58 7 56 9 57 61 -101 0
58 7 56 9 10 12 -104 0
58 7 56 9 10 12 -102 0
58 7 56 9 10 12 -103 0
58 7 56 9 10 12 -101 0
58 7 56 9 61 12 -104 0
58 7 56 9 61 12 -102 0
58 7 56 9 61 12 -103 0
58 7 56 9 61 12 -101 0
58 7 56 57 10 61 -104 0
58 7 56 57 10 61 -102 0
58 7 56 57 10 61 -103 0
58 7 56 57 10 61 -101 0
58 7 56 57 61 12 -104 0
58 7 56 57 61 12 -102 0
58 7 56 57 61 12 -103 0
58 7 56 57 61 12 -101 0
58 7 9 57 10 12 -104 0
58 7 9 57 10 12 -102 0
58 7 9 57 10 12 -103 0
58 7 9 57 10 12 -101 0
58 7 9 10 61 12 -104 0
58 7 9 10 61 12 -102 0
58 7 9 10 61 12 -103 0
58 7 9 10 61 12 -101 0
58 7 57 10 61 12 -104 0
58 7 57 10 61 12 -102 0
58 7 57 10 61 12 -103 0
58 7 57 10 61 12 -101 0
58 28 56 25 57 61 -160 0
58 28 56 25 57 61 -159 0
58 28 56 25 57 61 -158 0
58 28 56 25 57 61 -157 0
58 28 56 57 24 61 -160 0
58 28 56 57 24 61 -159 0
58 28 56 57 24 61 -158 0
58 28 56 57 24 61 -157 0
58 69 56 67 57 61 -228 0
58 69 56 67 57 61 -226 0
58 69 56 67 57 61 -227 0
58 69 56 67 57 61 -225 0
58 69 56 57 68 61 -228 0
58 69 56 57 68 61 -226 0
58 69 56 57 68 61 -227 0
58 69 56 57 68 61 -225 0
58 77 56 78 57 61 -232 0
58 77 56 78 57 61 -230 0
58 77 56 78 57 61 -231 0
58 77 56 78 57 61 -229 0
58 77 56 57 72 61 -232 0
58 77 56 57 72 61 -230 0
58 77 56 57 72 61 -231 0
58 77 56 57 72 61 -229 0
58 22 56 16 57 61 -134 0
58 22 56 16 57 61 -133 0
58 22 56 16 57 61 -132 0
58 22 56 16 57 61 -131 0
58 22 56 57 18 61 -134 0
58 22 56 57 18 61 -133 0
58 22 56 57 18 61 -132 0
58 22 56 57 18 61 -131 0
58 35 56 38 57 61 -182 0
58 35 56 38 57 61 -180 0
58 35 56 38 57 61 -181 0
58 35 56 38 57 61 -179 0
58 35 56 57 33 61 -182 0
58 35 56 57 33 61 -180 0
58 35 56 57 33 61 -181 0
58 35 56 57 33 61 -179 0
58 44 56 46 57 61 -197 0
58 44 56 46 57 61 -200 0
58 44 56 46 57 61 -198 0
58 44 56 46 57 61 -199 0
58 44 56 57 42 61 -197 0
58 44 56 57 42 61 -200 0
58 44 56 57 42 61 -198 0
58 44 56 57 42 61 -199 0
58 2 56 3 57 61 -55 0
58 2 56 3 57 61 -59 0
58 2 56 3 57 61 -62 0
58 2 56 3 57 61 -60 0
58 2 56 57 1 61 -55 0
58 2 56 57 1 61 -59 0
58 2 56 57 1 61 -62 0
58 2 56 57 1 61 -60 0
58 56 49 57 51 61 -214 0
58 56 49 57 51 61 -213 0
58 56 49 57 51 61 -211 0
58 56 49 57 51 61 -212 0
58 56 49 57 61 53 -214 0
58 56 49 57 61 53 -213 0
58 56 49 57 61 53 -211 0
58 56 49 57 61 53 -212 0
58 56 9 57 10 61 -104 0
58 56 9 57 10 61 -102 0
58 56 9 57 10 61 -103 0
58 56 9 57 10 61 -101 0
58 56 9 57 61 12 -104 0
58 56 9 57 61 12 -102 0
58 56 9 57 61 12 -103 0
58 56 9 57 61 12 -101 0
58 56 25 57 24 61 -160 0
58 56 25 57 24 61 -159 0
58 56 25 57 24 61 -158 0
58 56 25 57 24 61 -157 0
58 56 67 57 68 61 -228 0
58 56 67 57 68 61 -226 0
58 56 67 57 68 61 -227 0
58 56 67 57 68 61 -225 0
58 56 78 57 72 61 -232 0
58 56 78 57 72 61 -230 0
58 56 78 57 72 61 -231 0
58 56 78 57 72 61 -229 0
58 56 16 57 18 61 -134 0
58 56 16 57 18 61 -133 0
58 56 16 57 18 61 -132 0
58 56 16 57 18 61 -131 0
58 56 38 57 33 61 -182 0
58 56 38 57 33 61 -180 0
58 56 38 57 33 61 -181 0
58 56 38 57 33 61 -179 0
58 56 46 57 42 61 -197 0
58 56 46 57 42 61 -200 0
58 56 46 57 42 61 -198 0
58 56 46 57 42 61 -199 0
58 56 3 57 1 61 -55 0
58 56 3 57 1 61 -59 0
58 56 3 57 1 61 -62 0
58 56 3 57 1 61 -60 0
58 56 57 51 61 53 -214 0
58 56 57 51 61 53 -213 0
58 56 57 51 61 53 -211 0
58 56 57 51 61 53 -212 0
58 56 57 10 61 12 -104 0
58 56 57 10 61 12 -102 0
58 56 57 10 61 12 -103 0
58 56 57 10 61 12 -101 0
50 7 49 9 51 10 -99 0
50 7 49 9 51 10 -98 0
50 7 49 9 51 10 -97 0
50 7 49 9 51 10 -100 0
50 7 49 9 51 53 -99 0
50 7 49 9 51 53 -98 0
50 7 49 9 51 53 -97 0
50 7 49 9 51 53 -100 0
50 7 49 9 10 12 -99 0
50 7 49 9 10 12 -98 0
50 7 49 9 10 12 -97 0
50 7 49 9 10 12 -100 0
50 7 49 9 53 12 -99 0
50 7 49 9 53 12 -98 0
50 7 49 9 53 12 -97 0
50 7 49 9 53 12 -100 0
50 7 49 51 10 53 -99 0
50 7 49 51 10 53 -98 0
50 7 49 51 10 53 -97 0
50 7 49 51 10 53 -100 0
50 7 49 51 53 12 -99 0
50 7 49 51 53 12 -98 0
50 7 49 51 53 12 -97 0
50 7 49 51 53 12 -100 0
50 7 9 51 10 12 -99 0
50 7 9 51 10 12 -98 0
50 7 9 51 10 12 -97 0
50 7 9 51 10 12 -100 0
50 7 9 10 53 12 -99 0
50 7 9 10 53 12 -98 0
50 7 9 10 53 12 -97 0
50 7 9 10 53 12 -100 0
50 7 51 10 53 12 -99 0
50 7 51 10 53 12 -98 0
50 7 51 10 53 12 -97 0
50 7 51 10 53 12 -100 0
50 28 49 25 51 53 -153 0
50 28 49 25 51 53 -154 0
50 28 49 25 51 53 -155 0
50 28 49 25 51 53 -156 0
50 28 49 51 24 53 -153 0
50 28 49 51 24 53 -154 0
50 28 49 51 24 53 -155 0
50 28 49 51 24 53 -156 0
50 69 49 67 51 53 -216 0
50 69 49 67 51 53 -218 0
50 69 49 67 51 53 -215 0
50 69 49 67 51 53 -217 0
50 69 49 51 68 53 -216 0
50 69 49 51 68 53 -218 0
50 69 49 51 68 53 -215 0
50 69 49 51 68 53 -217 0
50 77 49 78 51 53 -222 0
50 77 49 78 51 53 -220 0
50 77 49 78 51 53 -221 0
50 77 49 78 51 53 -219 0
50 77 49 51 72 53 -222 0
50 77 49 51 72 53 -220 0
50 77 49 51 72 53 -221 0
50 77 49 51 72 53 -219 0
50 22 49 16 51 53 -127 0
50 22 49 16 51 53 -129 0
50 22 49 16 51 53 -128 0
50 22 49 16 51 53 -130 0
50 22 49 51 18 53 -127 0
50 22 49 51 18 53 -129 0
50 22 49 51 18 53 -128 0
50 22 49 51 18 53 -130 0
50 35 49 38 51 53 -177 0
50 35 49 38 51 53 -175 0
50 35 49 38 51 53 -176 0
50 35 49 38 51 53 -178 0
50 35 49 51 33 53 -177 0
50 35 49 51 33 53 -175 0
50 35 49 51 33 53 -176 0
50 35 49 51 33 53 -178 0
50 44 49 46 51 53 -196 0
50 44 49 46 51 53 -194 0
50 44 49 46 51 53 -195 0
50 44 49 46 51 53 -193 0
50 44 49 51 42 53 -196 0
50 44 49 51 42 53 -194 0
50 44 49 51 42 53 -195 0
50 44 49 51 42 53 -193 0
50 2 49 3 51 53 -54 0
50 2 49 3 51 53 -47 0
50 2 49 3 51 53 -48 0
50 2 49 3 51 53 -52 0
50 2 49 51 1 53 -54 0
50 2 49 51 1 53 -47 0
50 2 49 51 1 53 -48 0
50 2 49 51 1 53 -52 0
50 56 49 57 51 53 -214 0
50 56 49 57 51 53 -213 0
50 56 49 57 51 53 -211 0
50 56 49 57 51 53 -212 0
50 56 49 51 61 53 -214 0
50 56 49 51 61 53 -213 0
50 56 49 51 61 53 -211 0
50 56 49 51 61 53 -212 0
50 49 9 51 10 53 -99 0
50 49 9 51 10 53 -98 0
50 49 9 51 10 53 -97 0
50 49 9 51 10 53 -100 0
50 49 9 51 53 12 -99 0
50 49 9 51 53 12 -98 0
50 49 9 51 53 12 -97 0
50 49 9 51 53 12 -100 0
50 49 25 51 24 53 -153 0
50 49 25 51 24 53 -154 0
50 49 25 51 24 53 -155 0
50 49 25 51 24 53 -156 0
50 49 67 51 68 53 -216 0
50 49 67 51 68 53 -218 0
50 49 67 51 68 53 -215 0
50 49 67 51 68 53 -217 0
50 49 78 51 72 53 -222 0
50 49 78 51 72 53 -220 0
50 49 78 51 72 53 -221 0
50 49 78 51 72 53 -219 0
50 49 16 51 18 53 -127 0
50 49 16 51 18 53 -129 0
50 49 16 51 18 53 -128 0
50 49 16 51 18 53 -130 0
50 49 38 51 33 53 -177 0
50 49 38 51 33 53 -175 0
50 49 38 51 33 53 -176 0
50 49 38 51 33 53 -178 0
50 49 46 51 42 53 -196 0
50 49 46 51 42 53 -194 0
50 49 46 51 42 53 -195 0
50 49 46 51 42 53 -193 0
50 49 3 51 1 53 -54 0
50 49 3 51 1 53 -47 0
50 49 3 51 1 53 -48 0
50 49 3 51 1 53 -52 0
50 49 57 51 61 53 -214 0
50 49 57 51 61 53 -213 0
50 49 57 51 61 53 -211 0
50 49 57 51 61 53 -212 0
50 49 51 10 53 12 -99 0
50 49 51 10 53 12 -98 0
50 49 51 10 53 12 -97 0
50 49 51 10 53 12 -100 0
7 28 9 25 10 12 -87 0
7 28 9 25 10 12 -85 0
7 28 9 25 10 12 -88 0
7 28 9 25 10 12 -86 0
7 28 9 10 24 12 -87 0
7 28 9 10 24 12 -85 0
7 28 9 10 24 12 -88 0
7 28 9 10 24 12 -86 0
7 69 9 67 10 12 -108 0
7 69 9 67 10 12 -107 0
7 69 9 67 10 12 -106 0
7 69 9 67 10 12 -105 0
7 69 9 10 68 12 -108 0
7 69 9 10 68 12 -107 0
7 69 9 10 68 12 -106 0
7 69 9 10 68 12 -105 0
7 77 9 78 10 12 -110 0
7 77 9 78 10 12 -111 0
7 77 9 78 10 12 -109 0
7 77 9 78 10 12 -112 0
7 77 9 10 72 12 -110 0
7 77 9 10 72 12 -111 0
7 77 9 10 72 12 -109 0
7 77 9 10 72 12 -112 0
7 22 9 16 10 12 -82 0
7 22 9 16 10 12 -83 0
7 22 9 16 10 12 -81 0
7 22 9 16 10 12 -84 0
7 22 9 10 18 12 -82 0
7 22 9 10 18 12 -83 0
7 22 9 10 18 12 -81 0
7 22 9 10 18 12 -84 0
7 35 9 38 10 12 -92 0
7 35 9 38 10 12 -89 0
7 35 9 38 10 12 -90 0
7 35 9 38 10 12 -91 0
7 35 9 10 33 12 -92 0
7 35 9 10 33 12 -89 0
7 35 9 10 33 12 -90 0
7 35 9 10 33 12 -91 0
7 44 9 46 10 12 -96 0
7 44 9 46 10 12 -94 0
7 44 9 46 10 12 -95 0
7 44 9 46 10 12 -93 0
7 44 9 10 42 12 -96 0
7 44 9 10 42 12 -94 0
7 44 9 10 42 12 -95 0
7 44 9 10 42 12 -93 0
7 2 9 3 10 12 -14 0
7 2 9 3 10 12 -8 0
7 2 9 3 10 12 -13 0
7 2 9 3 10 12 -11 0
7 2 9 10 1 12 -14 0
7 2 9 10 1 12 -8 0
7 2 9 10 1 12 -13 0
7 2 9 10 1 12 -11 0
7 56 9 57 10 12 -104 0
7 56 9 57 10 12 -102 0
7 56 9 57 10 12 -103 0
7 56 9 57 10 12 -101 0
7 56 9 10 61 12 -104 0
7 56 9 10 61 12 -102 0
7 56 9 10 61 12 -103 0
7 56 9 10 61 12 -101 0
7 49 9 51 10 12 -99 0
7 49 9 51 10 12 -98 0
7 49 9 51 10 12 -97 0
7 49 9 51 10 12 -100 0
7 49 9 10 53 12 -99 0
7 49 9 10 53 12 -98 0
7 49 9 10 53 12 -97 0
7 49 9 10 53 12 -100 0
7 9 25 10 24 12 -87 0
7 9 25 10 24 12 -85 0
7 9 25 10 24 12 -88 0
7 9 25 10 24 12 -86 0
7 9 67 10 68 12 -108 0
7 9 67 10 68 12 -107 0
7 9 67 10 68 12 -106 0
7 9 67 10 68 12 -105 0
7 9 78 10 72 12 -110 0
7 9 78 10 72 12 -111 0
7 9 78 10 72 12 -109 0
7 9 78 10 72 12 -112 0
7 9 16 10 18 12 -82 0
7 9 16 10 18 12 -83 0
7 9 16 10 18 12 -81 0
7 9 16 10 18 12 -84 0
7 9 38 10 33 12 -92 0
7 9 38 10 33 12 -89 0
7 9 38 10 33 12 -90 0
7 9 38 10 33 12 -91 0
7 9 46 10 42 12 -96 0
7 9 46 10 42 12 -94 0
7 9 46 10 42 12 -95 0
7 9 46 10 42 12 -93 0
7 9 3 10 1 12 -14 0
7 9 3 10 1 12 -8 0
7 9 3 10 1 12 -13 0
7 9 3 10 1 12 -11 0
7 9 57 10 61 12 -104 0
7 9 57 10 61 12 -102 0
7 9 57 10 61 12 -103 0
7 9 57 10 61 12 -101 0
7 9 51 10 53 12 -99 0
7 9 51 10 53 12 -98 0
7 9 51 10 53 12 -97 0
7 9 51 10 53 12 -100 0
28 69 25 67 24 68 -162 0
28 69 25 67 24 68 -163 0
28 69 25 67 24 68 -161 0
28 69 25 67 24 68 -164 0
28 77 25 78 24 72 -168 0
28 77 25 78 24 72 -166 0
28 77 25 78 24 72 -167 0
28 77 25 78 24 72 -165 0
28 22 25 16 24 18 -118 0
28 22 25 16 24 18 -116 0
28 22 25 16 24 18 -117 0
28 22 25 16 24 18 -115 0
28 35 25 38 24 33 -146 0
28 35 25 38 24 33 -147 0
28 35 25 38 24 33 -145 0
28 35 25 38 24 33 -148 0
28 44 25 46 24 42 -152 0
28 44 25 46 24 42 -150 0
28 44 25 46 24 42 -151 0
28 44 25 46 24 42 -149 0
28 2 25 3 24 1 -29 0
28 2 25 3 24 1 -26 0
28 2 25 3 24 1 -23 0
28 2 25 3 24 1 -27 0
28 56 25 57 24 61 -160 0
28 56 25 57 24 61 -159 0
28 56 25 57 24 61 -158 0
28 56 25 57 24 61 -157 0
28 49 25 51 24 53 -153 0
28 49 25 51 24 53 -154 0
28 49 25 51 24 53 -155 0
28 49 25 51 24 53 -156 0
28 9 25 10 24 12 -87 0
28 9 25 10 24 12 -85 0
28 9 25 10 24 12 -88 0
28 9 25 10 24 12 -86 0
69 77 67 78 68 72 -237 0
69 77 67 78 68 72 -238 0
69 77 67 78 68 72 -236 0
69 77 67 78 68 72 -235 0
69 22 67 16 68 18 -135 0
69 22 67 16 68 18 -137 0
69 22 67 16 68 18 -136 0
69 22 67 16 68 18 -138 0
69 35 67 38 68 33 -185 0
69 35 67 38 68 33 -184 0
69 35 67 38 68 33 -183 0
69 35 67 38 68 33 -186 0
69 44 67 46 68 42 -202 0
69 44 67 46 68 42 -204 0
69 44 67 46 68 42 -201 0
69 44 67 46 68 42 -203 0
69 2 67 3 68 1 -66 0
69 2 67 3 68 1 -70 0
69 2 67 3 68 1 -65 0
69 2 67 3 68 1 -63 0
69 56 67 57 68 61 -228 0
69 56 67 57 68 61 -226 0
69 56 67 57 68 61 -227 0
69 56 67 57 68 61 -225 0
69 49 67 51 68 53 -216 0
69 49 67 51 68 53 -218 0
69 49 67 51 68 53 -215 0
69 49 67 51 68 53 -217 0
69 9 67 10 68 12 -108 0
69 9 67 10 68 12 -107 0
69 9 67 10 68 12 -106 0
69 9 67 10 68 12 -105 0
77 22 78 16 72 18 -140 0
77 22 78 16 72 18 -141 0
77 22 78 16 72 18 -139 0
77 22 78 16 72 18 -142 0
77 35 78 38 72 33 -188 0
77 35 78 38 72 33 -190 0
77 35 78 38 72 33 -187 0
77 35 78 38 72 33 -189 0
77 44 78 46 72 42 -206 0
77 44 78 46 72 42 -205 0
77 44 78 46 72 42 -208 0
77 44 78 46 72 42 -207 0
77 2 78 3 72 1 -71 0
77 2 78 3 72 1 -75 0
77 2 78 3 72 1 -74 0
77 2 78 3 72 1 -73 0
77 56 78 57 72 61 -232 0
77 56 78 57 72 61 -230 0
77 56 78 57 72 61 -231 0
77 56 78 57 72 61 -229 0
77 49 78 51 72 53 -222 0
77 49 78 51 72 53 -220 0
77 49 78 51 72 53 -221 0
77 49 78 51 72 53 -219 0
77 9 78 10 72 12 -110 0
77 9 78 10 72 12 -111 0
77 9 78 10 72 12 -109 0
77 9 78 10 72 12 -112 0
22 35 16 38 18 33 -119 0
22 35 16 38 18 33 -122 0
22 35 16 38 18 33 -120 0
22 35 16 38 18 33 -121 0
22 44 16 46 18 42 -124 0
22 44 16 46 18 42 -126 0
22 44 16 46 18 42 -123 0
22 44 16 46 18 42 -125 0
22 2 16 3 18 1 -15 0
22 2 16 3 18 1 -21 0
22 2 16 3 18 1 -19 0
22 2 16 3 18 1 -20 0
22 56 16 57 18 61 -134 0
22 56 16 57 18 61 -133 0
22 56 16 57 18 61 -132 0
22 56 16 57 18 61 -131 0
22 49 16 51 18 53 -127 0
22 49 16 51 18 53 -129 0
22 49 16 51 18 53 -128 0
22 49 16 51 18 53 -130 0
22 9 16 10 18 12 -82 0
22 9 16 10 18 12 -83 0
22 9 16 10 18 12 -81 0
22 9 16 10 18 12 -84 0
35 44 38 46 33 42 -173 0
35 44 38 46 33 42 -172 0
35 44 38 46 33 42 -171 0
35 44 38 46 33 42 -174 0
35 2 38 3 33 1 -32 0
35 2 38 3 33 1 -36 0
35 2 38 3 33 1 -31 0
35 2 38 3 33 1 -34 0
35 56 38 57 33 61 -182 0
35 56 38 57 33 61 -180 0
35 56 38 57 33 61 -181 0
35 56 38 57 33 61 -179 0
35 49 38 51 33 53 -177 0
35 49 38 51 33 53 -175 0
35 49 38 51 33 53 -176 0
35 49 38 51 33 53 -178 0
35 9 38 10 33 12 -92 0
35 9 38 10 33 12 -89 0
35 9 38 10 33 12 -90 0
35 9 38 10 33 12 -91 0
44 2 46 3 42 1 -43 0
44 2 46 3 42 1 -40 0
44 2 46 3 42 1 -45 0
44 2 46 3 42 1 -39 0
44 56 46 57 42 61 -197 0
44 56 46 57 42 61 -200 0
44 56 46 57 42 61 -198 0
44 56 46 57 42 61 -199 0
44 49 46 51 42 53 -196 0
44 49 46 51 42 53 -194 0
44 49 46 51 42 53 -195 0
44 49 46 51 42 53 -193 0
44 9 46 10 42 12 -96 0
44 9 46 10 42 12 -94 0
44 9 46 10 42 12 -95 0
44 9 46 10 42 12 -93 0
2 56 3 57 1 61 -55 0
2 56 3 57 1 61 -59 0
2 56 3 57 1 61 -62 0
2 56 3 57 1 61 -60 0
2 49 3 51 1 53 -54 0
2 49 3 51 1 53 -47 0
2 49 3 51 1 53 -48 0
2 49 3 51 1 53 -52 0
2 9 3 10 1 12 -14 0
2 9 3 10 1 12 -8 0
2 9 3 10 1 12 -13 0
2 9 3 10 1 12 -11 0
56 49 57 51 61 53 -214 0
56 49 57 51 61 53 -213 0
56 49 57 51 61 53 -211 0
56 49 57 51 61 53 -212 0
56 9 57 10 61 12 -104 0
56 9 57 10 61 12 -102 0
56 9 57 10 61 12 -103 0
56 9 57 10 61 12 -101 0
49 9 51 10 53 12 -99 0
49 9 51 10 53 12 -98 0
49 9 51 10 53 12 -97 0
49 9 51 10 53 12 -100 0
30 64 28 69 25 67 24 -162 0
30 64 28 69 25 67 24 -163 0
30 64 28 69 25 67 24 -161 0
30 64 28 69 25 67 24 -164 0
30 64 28 69 25 67 68 -162 0
30 64 28 69 25 67 68 -163 0
30 64 28 69 25 67 68 -161 0
30 64 28 69 25 67 68 -164 0
30 64 28 69 25 24 68 -162 0
30 64 28 69 25 24 68 -163 0
30 64 28 69 25 24 68 -161 0
30 64 28 69 25 24 68 -164 0
30 64 28 69 67 24 68 -162 0
30 64 28 69 67 24 68 -163 0
30 64 28 69 67 24 68 -161 0
30 64 28 69 67 24 68 -164 0
30 64 28 25 67 24 68 -162 0
30 64 28 25 67 24 68 -163 0
30 64 28 25 67 24 68 -161 0
30 64 28 25 67 24 68 -164 0
30 64 69 25 67 24 68 -162 0
30 64 69 25 67 24 68 -163 0
30 64 69 25 67 24 68 -161 0
30 64 69 25 67 24 68 -164 0
30 76 28 77 25 78 24 -168 0
30 76 28 77 25 78 24 -166 0
30 76 28 77 25 78 24 -167 0
30 76 28 77 25 78 24 -165 0
30 76 28 77 25 78 72 -168 0
30 76 28 77 25 78 72 -166 0
30 76 28 77 25 78 72 -167 0
30 76 28 77 25 78 72 -165 0
30 76 28 77 25 24 72 -168 0
30 76 28 77 25 24 72 -166 0
30 76 28 77 25 24 72 -167 0
30 76 28 77 25 24 72 -165 0
30 76 28 77 78 24 72 -168 0
30 76 28 77 78 24 72 -166 0
30 76 28 77 78 24 72 -167 0
30 76 28 77 78 24 72 -165 0
30 76 28 25 78 24 72 -168 0
30 76 28 25 78 24 72 -166 0
30 76 28 25 78 24 72 -167 0
30 76 28 25 78 24 72 -165 0
30 76 77 25 78 24 72 -168 0
30 76 77 25 78 24 72 -166 0
30 76 77 25 78 24 72 -167 0
30 76 77 25 78 24 72 -165 0
30 17 28 22 25 16 24 -118 0
30 17 28 22 25 16 24 -116 0
30 17 28 22 25 16 24 -117 0
30 17 28 22 25 16 24 -115 0
30 17 28 22 25 16 18 -118 0
30 17 28 22 25 16 18 -116 0
30 17 28 22 25 16 18 -117 0
30 17 28 22 25 16 18 -115 0
30 17 28 22 25 24 18 -118 0
30 17 28 22 25 24 18 -116 0
30 17 28 22 25 24 18 -117 0
30 17 28 22 25 24 18 -115 0
30 17 28 22 16 24 18 -118 0
30 17 28 22 16 24 18 -116 0
30 17 28 22 16 24 18 -117 0
30 17 28 22 16 24 18 -115 0
30 17 28 25 16 24 18 -118 0
30 17 28 25 16 24 18 -116 0
30 17 28 25 16 24 18 -117 0
30 17 28 25 16 24 18 -115 0
30 17 22 25 16 24 18 -118 0
30 17 22 25 16 24 18 -116 0
30 17 22 25 16 24 18 -117 0
30 17 22 25 16 24 18 -115 0
30 37 28 35 25 38 24 -146 0
30 37 28 35 25 38 24 -147 0
30 37 28 35 25 38 24 -145 0
30 37 28 35 25 38 24 -148 0
30 37 28 35 25 38 33 -146 0
30 37 28 35 25 38 33 -147 0
30 37 28 35 25 38 33 -145 0
30 37 28 35 25 38 33 -148 0
30 37 28 35 25 24 33 -146 0
30 37 28 35 25 24 33 -147 0
30 37 28 35 25 24 33 -145 0
30 37 28 35 25 24 33 -148 0
30 37 28 35 38 24 33 -146 0
30 37 28 35 38 24 33 -147 0
30 37 28 35 38 24 33 -145 0
30 37 28 35 38 24 33 -148 0
30 37 28 25 38 24 33 -146 0
30 37 28 25 38 24 33 -147 0
30 37 28 25 38 24 33 -145 0
30 37 28 25 38 24 33 -148 0
30 37 35 25 38 24 33 -146 0
30 37 35 25 38 24 33 -147 0
30 37 35 25 38 24 33 -145 0
30 37 35 25 38 24 33 -148 0
30 41 28 44 25 46 24 -152 0
30 41 28 44 25 46 24 -150 0
30 41 28 44 25 46 24 -151 0
30 41 28 44 25 46 24 -149 0
30 41 28 44 25 46 42 -152 0
30 41 28 44 25 46 42 -150 0
30 41 28 44 25 46 42 -151 0
30 41 28 44 25 46 42 -149 0
30 41 28 44 25 24 42 -152 0
30 41 28 44 25 24 42 -150 0
30 41 28 44 25 24 42 -151 0
30 41 28 44 25 24 42 -149 0
30 41 28 44 46 24 42 -152 0
30 41 28 44 46 24 42 -150 0
30 41 28 44 46 24 42 -151 0
30 41 28 44 46 24 42 -149 0
30 41 28 25 46 24 42 -152 0
30 41 28 25 46 24 42 -150 0
30 41 28 25 46 24 42 -151 0
30 41 28 25 46 24 42 -149 0
30 41 44 25 46 24 42 -152 0
30 41 44 25 46 24 42 -150 0
30 41 44 25 46 24 42 -151 0
30 41 44 25 46 24 42 -149 0
30 6 28 2 25 3 24 -29 0
30 6 28 2 25 3 24 -26 0
30 6 28 2 25 3 24 -23 0
30 6 28 2 25 3 24 -27 0
30 6 28 2 25 3 1 -29 0
30 6 28 2 25 3 1 -26 0
30 6 28 2 25 3 1 -23 0
30 6 28 2 25 3 1 -27 0
30 6 28 2 25 24 1 -29 0
30 6 28 2 25 24 1 -26 0
30 6 28 2 25 24 1 -23 0
30 6 28 2 25 24 1 -27 0
30 6 28 2 3 24 1 -29 0
30 6 28 2 3 24 1 -26 0
30 6 28 2 3 24 1 -23 0
30 6 28 2 3 24 1 -27 0
30 6 28 25 3 24 1 -29 0
30 6 28 25 3 24 1 -26 0
30 6 28 25 3 24 1 -23 0
30 6 28 25 3 24 1 -27 0
30 6 2 25 3 24 1 -29 0
30 6 2 25 3 24 1 -26 0
30 6 2 25 3 24 1 -23 0
30 6 2 25 3 24 1 -27 0
30 58 28 56 25 57 24 -160 0
30 58 28 56 25 57 24 -159 0
30 58 28 56 25 57 24 -158 0
30 58 28 56 25 57 24 -157 0
30 58 28 56 25 57 61 -160 0
30 58 28 56 25 57 61 -159 0
30 58 28 56 25 57 61 -158 0
30 58 28 56 25 57 61 -157 0
30 58 28 56 25 24 61 -160 0
30 58 28 56 25 24 61 -159 0
30 58 28 56 25 24 61 -158 0
30 58 28 56 25 24 61 -157 0
30 58 28 56 57 24 61 -160 0
30 58 28 56 57 24 61 -159 0
30 58 28 56 57 24 61 -158 0
30 58 28 56 57 24 61 -157 0
30 58 28 25 57 24 61 -160 0
30 58 28 25 57 24 61 -159 0
30 58 28 25 57 24 61 -158 0
30 58 28 25 57 24 61 -157 0
30 58 56 25 57 24 61 -160 0
30 58 56 25 57 24 61 -159 0
30 58 56 25 57 24 61 -158 0
30 58 56 25 57 24 61 -157 0
30 50 28 49 25 51 24 -153 0
30 50 28 49 25 51 24 -154 0
30 50 28 49 25 51 24 -155 0
30 50 28 49 25 51 24 -156 0
30 50 28 49 25 51 53 -153 0
30 50 28 49 25 51 53 -154 0
30 50 28 49 25 51 53 -155 0
30 50 28 49 25 51 53 -156 0
30 50 28 49 25 24 53 -153 0
30 50 28 49 25 24 53 -154 0
30 50 28 49 25 24 53 -155 0
30 50 28 49 25 24 53 -156 0
30 50 28 49 51 24 53 -153 0
30 50 28 49 51 24 53 -154 0
30 50 28 49 51 24 53 -155 0
30 50 28 49 51 24 53 -156 0
30 50 28 25 51 24 53 -153 0
30 50 28 25 51 24 53 -154 0
30 50 28 25 51 24 53 -155 0
30 50 28 25 51 24 53 -156 0
30 50 49 25 51 24 53 -153 0
30 50 49 25 51 24 53 -154 0
30 50 49 25 51 24 53 -155 0
30 50 49 25 51 24 53 -156 0
30 7 28 9 25 10 24 -87 0
30 7 28 9 25 10 24 -85 0
30 7 28 9 25 10 24 -88 0
30 7 28 9 25 10 24 -86 0
30 7 28 9 25 10 12 -87 0
30 7 28 9 25 10 12 -85 0
30 7 28 9 25 10 12 -88 0
30 7 28 9 25 10 12 -86 0
30 7 28 9 25 24 12 -87 0
30 7 28 9 25 24 12 -85 0
30 7 28 9 25 24 12 -88 0
30 7 28 9 25 24 12 -86 0
30 7 28 9 10 24 12 -87 0
30 7 28 9 10 24 12 -85 0
30 7 28 9 10 24 12 -88 0
30 7 28 9 10 24 12 -86 0
30 7 28 25 10 24 12 -87 0
30 7 28 25 10 24 12 -85 0
30 7 28 25 10 24 12 -88 0
30 7 28 25 10 24 12 -86 0
30 7 9 25 10 24 12 -87 0
30 7 9 25 10 24 12 -85 0
30 7 9 25 10 24 12 -88 0
30 7 9 25 10 24 12 -86 0
30 28 69 25 67 24 68 -162 0
30 28 69 25 67 24 68 -163 0
30 28 69 25 67 24 68 -161 0
30 28 69 25 67 24 68 -164 0
30 28 77 25 78 24 72 -168 0
30 28 77 25 78 24 72 -166 0
30 28 77 25 78 24 72 -167 0
30 28 77 25 78 24 72 -165 0
30 28 22 25 16 24 18 -118 0
30 28 22 25 16 24 18 -116 0
30 28 22 25 16 24 18 -117 0
30 28 22 25 16 24 18 -115 0
30 28 35 25 38 24 33 -146 0
30 28 35 25 38 24 33 -147 0
30 28 35 25 38 24 33 -145 0
30 28 35 25 38 24 33 -148 0
30 28 44 25 46 24 42 -152 0
30 28 44 25 46 24 42 -150 0
30 28 44 25 46 24 42 -151 0
30 28 44 25 46 24 42 -149 0
30 28 2 25 3 24 1 -29 0
30 28 2 25 3 24 1 -26 0
30 28 2 25 3 24 1 -23 0
30 28 2 25 3 24 1 -27 0
30 28 56 25 57 24 61 -160 0
30 28 56 25 57 24 61 -159 0
30 28 56 25 57 24 61 -158 0
30 28 56 25 57 24 61 -157 0
30 28 49 25 51 24 53 -153 0
30 28 49 25 51 24 53 -154 0
30 28 49 25 51 24 53 -155 0
30 28 49 25 51 24 53 -156 0
30 28 9 25 10 24 12 -87 0
30 28 9 25 10 24 12 -85 0
30 28 9 25 10 24 12 -88 0
30 28 9 25 10 24 12 -86 0
64 76 69 77 67 78 68 -237 0
64 76 69 77 67 78 68 -238 0
64 76 69 77 67 78 68 -236 0
64 76 69 77 67 78 68 -235 0
64 76 69 77 67 78 72 -237 0
64 76 69 77 67 78 72 -238 0
64 76 69 77 67 78 72 -236 0
64 76 69 77 67 78 72 -235 0
64 76 69 77 67 68 72 -237 0
64 76 69 77 67 68 72 -238 0
64 76 69 77 67 68 72 -236 0
64 76 69 77 67 68 72 -235 0
64 76 69 77 78 68 72 -237 0
64 76 69 77 78 68 72 -238 0
64 76 69 77 78 68 72 -236 0
64 76 69 77 78 68 72 -235 0
64 76 69 67 78 68 72 -237 0
64 76 69 67 78 68 72 -238 0
64 76 69 67 78 68 72 -236 0
64 76 69 67 78 68 72 -235 0
64 76 77 67 78 68 72 -237 0
64 76 77 67 78 68 72 -238 0
64 76 77 67 78 68 72 -236 0
64 76 77 67 78 68 72 -235 0
64 17 69 22 67 16 68 -135 0
64 17 69 22 67 16 68 -137 0
64 17 69 22 67 16 68 -136 0
64 17 69 22 67 16 68 -138 0
64 17 69 22 67 16 18 -135 0
64 17 69 22 67 16 18 -137 0
64 17 69 22 67 16 18 -136 0
64 17 69 22 67 16 18 -138 0
64 17 69 22 67 68 18 -135 0
64 17 69 22 67 68 18 -137 0
64 17 69 22 67 68 18 -136 0
64 17 69 22 67 68 18 -138 0
64 17 69 22 16 68 18 -135 0
64 17 69 22 16 68 18 -137 0
64 17 69 22 16 68 18 -136 0
64 17 69 22 16 68 18 -138 0
64 17 69 67 16 68 18 -135 0
64 17 69 67 16 68 18 -137 0
64 17 69 67 16 68 18 -136 0
64 17 69 67 16 68 18 -138 0
64 17 22 67 16 68 18 -135 0
64 17 22 67 16 68 18 -137 0
64 17 22 67 16 68 18 -136 0
64 17 22 67 16 68 18 -138 0
64 37 69 35 67 38 68 -185 0
64 37 69 35 67 38 68 -184 0
64 37 69 35 67 38 68 -183 0
64 37 69 35 67 38 68 -186 0
64 37 69 35 67 38 33 -185 0
64 37 69 35 67 38 33 -184 0
64 37 69 35 67 38 33 -183 0
64 37 69 35 67 38 33 -186 0
64 37 69 35 67 68 33 -185 0
64 37 69 35 67 68 33 -184 0
64 37 69 35 67 68 33 -183 0
64 37 69 35 67 68 33 -186 0
64 37 69 35 38 68 33 -185 0
64 37 69 35 38 68 33 -184 0
64 37 69 35 38 68 33 -183 0
64 37 69 35 38 68 33 -186 0
64 37 69 67 38 68 33 -185 0
64 37 69 67 38 68 33 -184 0
64 37 69 67 38 68 33 -183 0
64 37 69 67 38 68 33 -186 0
64 37 35 67 38 68 33 -185 0
64 37 35 67 38 68 33 -184 0
64 37 35 67 38 68 33 -183 0
64 37 35 67 38 68 33 -186 0
64 41 69 44 67 46 68 -202 0
64 41 69 44 67 46 68 -204 0
64 41 69 44 67 46 68 -201 0
64 41 69 44 67 46 68 -203 0
64 41 69 44 67 46 42 -202 0
64 41 69 44 67 46 42 -204 0
64 41 69 44 67 46 42 -201 0
64 41 69 44 67 46 42 -203 0
64 41 69 44 67 68 42 -202 0
64 41 69 44 67 68 42 -204 0
64 41 69 44 67 68 42 -201 0
64 41 69 44 67 68 42 -203 0
64 41 69 44 46 68 42 -202 0
64 41 69 44 46 68 42 -204 0
64 41 69 44 46 68 42 -201 0
64 41 69 44 46 68 42 -203 0
64 41 69 67 46 68 42 -202 0
64 41 69 67 46 68 42 -204 0
64 41 69 67 46 68 42 -201 0
64 41 69 67 46 68 42 -203 0
64 41 44 67 46 68 42 -202 0
64 41 44 67 46 68 42 -204 0
64 41 44 67 46 68 42 -201 0
64 41 44 67 46 68 42 -203 0
64 6 69 2 67 3 68 -66 0
64 6 69 2 67 3 68 -70 0
64 6 69 2 67 3 68 -65 0
64 6 69 2 67 3 68 -63 0
64 6 69 2 67 3 1 -66 0
64 6 69 2 67 3 1 -70 0
64 6 69 2 67 3 1 -65 0
64 6 69 2 67 3 1 -63 0
64 6 69 2 67 68 1 -66 0
64 6 69 2 67 68 1 -70 0
64 6 69 2 67 68 1 -65 0
64 6 69 2 67 68 1 -63 0
64 6 69 2 3 68 1 -66 0
64 6 69 2 3 68 1 -70 0
64 6 69 2 3 68 1 -65 0
64 6 69 2 3 68 1 -63 0
64 6 69 67 3 68 1 -66 0
64 6 69 67 3 68 1 -70 0
64 6 69 67 3 68 1 -65 0
64 6 69 67 3 68 1 -63 0
64 6 2 67 3 68 1 -66 0
64 6 2 67 3 68 1 -70 0
64 6 2 67 3 68 1 -65 0
64 6 2 67 3 68 1 -63 0
64 58 69 56 67 57 68 -228 0
64 58 69 56 67 57 68 -226 0
64 58 69 56 67 57 68 -227 0
64 58 69 56 67 57 68 -225 0
64 58 69 56 67 57 61 -228 0
64 58 69 56 67 57 61 -226 0
64 58 69 56 67 57 61 -227 0
64 58 69 56 67 57 61 -225 0
64 58 69 56 67 68 61 -228 0
64 58 69 56 67 68 61 -226 0
64 58 69 56 67 68 61 -227 0
64 58 69 56 67 68 61 -225 0
64 58 69 56 57 68 61 -228 0
64 58 69 56 57 68 61 -226 0
64 58 69 56 57 68 61 -227 0
64 58 69 56 57 68 61 -225 0
64 58 69 67 57 68 61 -228 0
64 58 69 67 57 68 61 -226 0
64 58 69 67 57 68 61 -227 0
64 58 69 67 57 68 61 -225 0
64 58 56 67 57 68 61 -228 0
64 58 56 67 57 68 61 -226 0
64 58 56 67 57 68 61 -227 0
64 58 56 67 57 68 61 -225 0
64 50 69 49 67 51 68 -216 0
64 50 69 49 67 51 68 -218 0
64 50 69 49 67 51 68 -215 0
64 50 69 49 67 51 68 -217 0
64 50 69 49 67 51 53 -216 0
64 50 69 49 67 51 53 -218 0
64 50 69 49 67 51 53 -215 0
64 50 69 49 67 51 53 -217 0
64 50 69 49 67 68 53 -216 0
64 50 69 49 67 68 53 -218 0
64 50 69 49 67 68 53 -215 0
64 50 69 49 67 68 53 -217 0
64 50 69 49 51 68 53 -216 0
64 50 69 49 51 68 53 -218 0
64 50 69 49 51 68 53 -215 0
64 50 69 49 51 68 53 -217 0
64 50 69 67 51 68 53 -216 0
64 50 69 67 51 68 53 -218 0
64 50 69 67 51 68 53 -215 0
64 50 69 67 51 68 53 -217 0
64 50 49 67 51 68 53 -216 0
64 50 49 67 51 68 53 -218 0
64 50 49 67 51 68 53 -215 0
64 50 49 67 51 68 53 -217 0
64 7 69 9 67 10 68 -108 0
64 7 69 9 67 10 68 -107 0
64 7 69 9 67 10 68 -106 0
64 7 69 9 67 10 68 -105 0
64 7 69 9 67 10 12 -108 0
64 7 69 9 67 10 12 -107 0
64 7 69 9 67 10 12 -106 0
64 7 69 9 67 10 12 -105 0
64 7 69 9 67 68 12 -108 0
64 7 69 9 67 68 12 -107 0
64 7 69 9 67 68 12 -106 0
64 7 69 9 67 68 12 -105 0
64 7 69 9 10 68 12 -108 0
64 7 69 9 10 68 12 -107 0
64 7 69 9 10 68 12 -106 0
64 7 69 9 10 68 12 -105 0
64 7 69 67 10 68 12 -108 0
64 7 69 67 10 68 12 -107 0
64 7 69 67 10 68 12 -106 0
64 7 69 67 10 68 12 -105 0
64 7 9 67 10 68 12 -108 0
64 7 9 67 10 68 12 -107 0
64 7 9 67 10 68 12 -106 0
64 7 9 67 10 68 12 -105 0
64 28 69 25 67 24 68 -162 0
64 28 69 25 67 24 68 -163 0
64 28 69 25 67 24 68 -161 0
64 28 69 25 67 24 68 -164 0
64 69 77 67 78 68 72 -237 0
64 69 77 67 78 68 72 -238 0
64 69 77 67 78 68 72 -236 0
64 69 77 67 78 68 72 -235 0
64 69 22 67 16 68 18 -135 0
64 69 22 67 16 68 18 -137 0
64 69 22 67 16 68 18 -136 0
64 69 22 67 16 68 18 -138 0
64 69 35 67 38 68 33 -185 0
64 69 35 67 38 68 33 -184 0
64 69 35 67 38 68 33 -183 0
64 69 35 67 38 68 33 -186 0
64 69 44 67 46 68 42 -202 0
64 69 44 67 46 68 42 -204 0
64 69 44 67 46 68 42 -201 0
64 69 44 67 46 68 42 -203 0
64 69 2 67 3 68 1 -66 0
64 69 2 67 3 68 1 -70 0
64 69 2 67 3 68 1 -65 0
64 69 2 67 3 68 1 -63 0
64 69 56 67 57 68 61 -228 0
64 69 56 67 57 68 61 -226 0
64 69 56 67 57 68 61 -227 0
64 69 56 67 57 68 61 -225 0
64 69 49 67 51 68 53 -216 0
64 69 49 67 51 68 53 -218 0
64 69 49 67 51 68 53 -215 0
64 69 49 67 51 68 53 -217 0
64 69 9 67 10 68 12 -108 0
64 69 9 67 10 68 12 -107 0
64 69 9 67 10 68 12 -106 0
64 69 9 67 10 68 12 -105 0
76 17 77 22 78 16 72 -140 0
76 17 77 22 78 16 72 -141 0
76 17 77 22 78 16 72 -139 0
76 17 77 22 78 16 72 -142 0
76 17 77 22 78 16 18 -140 0
76 17 77 22 78 16 18 -141 0
76 17 77 22 78 16 18 -139 0
76 17 77 22 78 16 18 -142 0
76 17 77 22 78 72 18 -140 0
76 17 77 22 78 72 18 -141 0
76 17 77 22 78 72 18 -139 0
76 17 77 22 78 72 18 -142 0
76 17 77 22 16 72 18 -140 0
76 17 77 22 16 72 18 -141 0
76 17 77 22 16 72 18 -139 0
76 17 77 22 16 72 18 -142 0
76 17 77 78 16 72 18 -140 0
76 17 77 78 16 72 18 -141 0
76 17 77 78 16 72 18 -139 0
76 17 77 78 16 72 18 -142 0
76 17 22 78 16 72 18 -140 0
76 17 22 78 16 72 18 -141 0
76 17 22 78 16 72 18 -139 0
76 17 22 78 16 72 18 -142 0
76 37 77 35 78 38 72 -188 0
76 37 77 35 78 38 72 -190 0
76 37 77 35 78 38 72 -187 0
76 37 77 35 78 38 72 -189 0
76 37 77 35 78 38 33 -188 0
76 37 77 35 78 38 33 -190 0
76 37 77 35 78 38 33 -187 0
76 37 77 35 78 38 33 -189 0
76 37 77 35 78 72 33 -188 0
76 37 77 35 78 72 33 -190 0
76 37 77 35 78 72 33 -187 0
76 37 77 35 78 72 33 -189 0
76 37 77 35 38 72 33 -188 0
76 37 77 35 38 72 33 -190 0
76 37 77 35 38 72 33 -187 0
76 37 77 35 38 72 33 -189 0
76 37 77 78 38 72 33 -188 0
76 37 77 78 38 72 33 -190 0
76 37 77 78 38 72 33 -187 0
76 37 77 78 38 72 33 -189 0
76 37 35 78 38 72 33 -188 0
76 37 35 78 38 72 33 -190 0
76 37 35 78 38 72 33 -187 0
76 37 35 78 38 72 33 -189 0
76 41 77 44 78 46 72 -206 0
76 41 77 44 78 46 72 -205 0
76 41 77 44 78 46 72 -208 0
76 41 77 44 78 46 72 -207 0
76 41 77 44 78 46 42 -206 0
76 41 77 44 78 46 42 -205 0
76 41 77 44 78 46 42 -208 0
76 41 77 44 78 46 42 -207 0
76 41 77 44 78 72 42 -206 0
76 41 77 44 78 72 42 -205 0
76 41 77 44 78 72 42 -208 0
76 41 77 44 78 72 42 -207 0
76 41 77 44 46 72 42 -206 0
76 41 77 44 46 72 42 -205 0
76 41 77 44 46 72 42 -208 0
76 41 77 44 46 72 42 -207 0
76 41 77 78 46 72 42 -206 0
76 41 77 78 46 72 42 -205 0
76 41 77 78 46 72 42 -208 0
76 41 77 78 46 72 42 -207 0
76 41 44 78 46 72 42 -206 0
76 41 44 78 46 72 42 -205 0
76 41 44 78 46 72 42 -208 0
76 41 44 78 46 72 42 -207 0
76 6 77 2 78 3 72 -71 0
76 6 77 2 78 3 72 -75 0
76 6 77 2 78 3 72 -74 0
76 6 77 2 78 3 72 -73 0
76 6 77 2 78 3 1 -71 0
76 6 77 2 78 3 1 -75 0
76 6 77 2 78 3 1 -74 0
76 6 77 2 78 3 1 -73 0
76 6 77 2 78 72 1 -71 0
76 6 77 2 78 72 1 -75 0
76 6 77 2 78 72 1 -74 0
76 6 77 2 78 72 1 -73 0
76 6 77 2 3 72 1 -71 0
76 6 77 2 3 72 1 -75 0
76 6 77 2 3 72 1 -74 0
76 6 77 2 3 72 1 -73 0
76 6 77 78 3 72 1 -71 0
76 6 77 78 3 72 1 -75 0
76 6 77 78 3 72 1 -74 0
76 6 77 78 3 72 1 -73 0
76 6 2 78 3 72 1 -71 0
76 6 2 78 3 72 1 -75 0
76 6 2 78 3 72 1 -74 0
76 6 2 78 3 72 1 -73 0
76 58 77 56 78 57 72 -232 0
76 58 77 56 78 57 72 -230 0
76 58 77 56 78 57 72 -231 0
76 58 77 56 78 57 72 -229 0
76 58 77 56 78 57 61 -232 0
76 58 77 56 78 57 61 -230 0
76 58 77 56 78 57 61 -231 0
76 58 77 56 78 57 61 -229 0
76 58 77 56 78 72 61 -232 0
76 58 77 56 78 72 61 -230 0
76 58 77 56 78 72 61 -231 0
76 58 77 56 78 72 61 -229 0
76 58 77 56 57 72 61 -232 0
76 58 77 56 57 72 61 -230 0
76 58 77 56 57 72 61 -231 0
76 58 77 56 57 72 61 -229 0
76 58 77 78 57 72 61 -232 0
76 58 77 78 57 72 61 -230 0
76 58 77 78 57 72 61 -231 0
76 58 77 78 57 72 61 -229 0
76 58 56 78 57 72 61 -232 0
76 58 56 78 57 72 61 -230 0
76 58 56 78 57 72 61 -231 0
76 58 56 78 57 72 61 -229 0
76 50 77 49 78 51 72 -222 0
76 50 77 49 78 51 72 -220 0
76 50 77 49 78 51 72 -221 0
76 50 77 49 78 51 72 -219 0
76 50 77 49 78 51 53 -222 0
76 50 77 49 78 51 53 -220 0
76 50 77 49 78 51 53 -221 0
76 50 77 49 78 51 53 -219 0
76 50 77 49 78 72 53 -222 0
76 50 77 49 78 72 53 -220 0
76 50 77 49 78 72 53 -221 0
76 50 77 49 78 72 53 -219 0
76 50 77 49 51 72 53 -222 0
76 50 77 49 51 72 53 -220 0
76 50 77 49 51 72 53 -221 0
76 50 77 49 51 72 53 -219 0
76 50 77 78 51 72 53 -222 0
76 50 77 78 51 72 53 -220 0
76 50 77 78 51 72 53 -221 0
76 50 77 78 51 72 53 -219 0
76 50 49 78 51 72 53 -222 0
76 50 49 78 51 72 53 -220 0
76 50 49 78 51 72 53 -221 0
76 50 49 78 51 72 53 -219 0
76 7 77 9 78 10 72 -110 0
76 7 77 9 78 10 72 -111 0
76 7 77 9 78 10 72 -109 0
76 7 77 9 78 10 72 -112 0
76 7 77 9 78 10 12 -110 0
76 7 77 9 78 10 12 -111 0
76 7 77 9 78 10 12 -109 0
76 7 77 9 78 10 12 -112 0
76 7 77 9 78 72 12 -110 0
76 7 77 9 78 72 12 -111 0
76 7 77 9 78 72 12 -109 0
76 7 77 9 78 72 12 -112 0
76 7 77 9 10 72 12 -110 0
76 7 77 9 10 72 12 -111 0
76 7 77 9 10 72 12 -109 0
76 7 77 9 10 72 12 -112 0
76 7 77 78 10 72 12 -110 0
76 7 77 78 10 72 12 -111 0
76 7 77 78 10 72 12 -109 0
76 7 77 78 10 72 12 -112 0
76 7 9 78 10 72 12 -110 0
76 7 9 78 10 72 12 -111 0
76 7 9 78 10 72 12 -109 0
76 7 9 78 10 72 12 -112 0
76 28 77 25 78 24 72 -168 0
76 28 77 25 78 24 72 -166 0
76 28 77 25 78 24 72 -167 0
76 28 77 25 78 24 72 -165 0
76 69 77 67 78 68 72 -237 0
76 69 77 67 78 68 72 -238 0
76 69 77 67 78 68 72 -236 0
76 69 77 67 78 68 72 -235 0
76 77 22 78 16 72 18 -140 0
76 77 22 78 16 72 18 -141 0
76 77 22 78 16 72 18 -139 0
76 77 22 78 16 72 18 -142 0
76 77 35 78 38 72 33 -188 0
76 77 35 78 38 72 33 -190 0
76 77 35 78 38 72 33 -187 0
76 77 35 78 38 72 33 -189 0
76 77 44 78 46 72 42 -206 0
76 77 44 78 46 72 42 -205 0
76 77 44 78 46 72 42 -208 0
76 77 44 78 46 72 42 -207 0
76 77 2 78 3 72 1 -71 0
76 77 2 78 3 72 1 -75 0
76 77 2 78 3 72 1 -74 0
76 77 2 78 3 72 1 -73 0
76 77 56 78 57 72 61 -232 0
76 77 56 78 57 72 61 -230 0
76 77 56 78 57 72 61 -231 0
76 77 56 78 57 72 61 -229 0
76 77 49 78 51 72 53 -222 0
76 77 49 78 51 72 53 -220 0
76 77 49 78 51 72 53 -221 0
76 77 49 78 51 72 53 -219 0
76 77 9 78 10 72 12 -110 0
76 77 9 78 10 72 12 -111 0
76 77 9 78 10 72 12 -109 0
76 77 9 78 10 72 12 -112 0
17 37 22 35 16 38 18 -119 0
17 37 22 35 16 38 18 -122 0
17 37 22 35 16 38 18 -120 0
17 37 22 35 16 38 18 -121 0
17 37 22 35 16 38 33 -119 0
17 37 22 35 16 38 33 -122 0
17 37 22 35 16 38 33 -120 0
17 37 22 35 16 38 33 -121 0
17 37 22 35 16 18 33 -119 0
17 37 22 35 16 18 33 -122 0
17 37 22 35 16 18 33 -120 0
17 37 22 35 16 18 33 -121 0
17 37 22 35 38 18 33 -119 0
17 37 22 35 38 18 33 -122 0
17 37 22 35 38 18 33 -120 0
17 37 22 35 38 18 33 -121 0
17 37 22 16 38 18 33 -119 0
17 37 22 16 38 18 33 -122 0
17 37 22 16 38 18 33 -120 0
17 37 22 16 38 18 33 -121 0
17 37 35 16 38 18 33 -119 0
17 37 35 16 38 18 33 -122 0
17 37 35 16 38 18 33 -120 0
17 37 35 16 38 18 33 -121 0
17 41 22 44 16 46 18 -124 0
17 41 22 44 16 46 18 -126 0
17 41 22 44 16 46 18 -123 0
17 41 22 44 16 46 18 -125 0
17 41 22 44 16 46 42 -124 0
17 41 22 44 16 46 42 -126 0
17 41 22 44 16 46 42 -123 0
17 41 22 44 16 46 42 -125 0
17 41 22 44 16 18 42 -124 0
17 41 22 44 16 18 42 -126 0
17 41 22 44 16 18 42 -123 0
17 41 22 44 16 18 42 -125 0
17 41 22 44 46 18 42 -124 0
17 41 22 44 46 18 42 -126 0
17 41 22 44 46 18 42 -123 0
17 41 22 44 46 18 42 -125 0
17 41 22 16 46 18 42 -124 0
17 41 22 16 46 18 42 -126 0
17 41 22 16 46 18 42 -123 0
17 41 22 16 46 18 42 -125 0
17 41 44 16 46 18 42 -124 0
17 41 44 16 46 18 42 -126 0
17 41 44 16 46 18 42 -123 0
17 41 44 16 46 18 42 -125 0
17 6 22 2 16 3 18 -15 0
17 6 22 2 16 3 18 -21 0
17 6 22 2 16 3 18 -19 0
17 6 22 2 16 3 18 -20 0
17 6 22 2 16 3 1 -15 0
17 6 22 2 16 3 1 -21 0
17 6 22 2 16 3 1 -19 0
17 6 22 2 16 3 1 -20 0
17 6 22 2 16 18 1 -15 0
17 6 22 2 16 18 1 -21 0
17 6 22 2 16 18 1 -19 0
17 6 22 2 16 18 1 -20 0
17 6 22 2 3 18 1 -15 0
17 6 22 2 3 18 1 -21 0
17 6 22 2 3 18 1 -19 0
17 6 22 2 3 18 1 -20 0
17 6 22 16 3 18 1 -15 0
17 6 22 16 3 18 1 -21 0
17 6 22 16 3 18 1 -19 0
17 6 22 16 3 18 1 -20 0
17 6 2 16 3 18 1 -15 0
17 6 2 16 3 18 1 -21 0
17 6 2 16 3 18 1 -19 0
17 6 2 16 3 18 1 -20 0
17 58 22 56 16 57 18 -134 0
17 58 22 56 16 57 18 -133 0
17 58 22 56 16 57 18 -132 0
17 58 22 56 16 57 18 -131 0
17 58 22 56 16 57 61 -134 0
17 58 22 56 16 57 61 -133 0
17 58 22 56 16 57 61 -132 0
17 58 22 56 16 57 61 -131 0
17 58 22 56 16 18 61 -134 0
17 58 22 56 16 18 61 -133 0
17 58 22 56 16 18 61 -132 0
17 58 22 56 16 18 61 -131 0
17 58 22 56 57 18 61 -134 0
17 58 22 56 57 18 61 -133 0
17 58 22 56 57 18 61 -132 0
17 58 22 56 57 18 61 -131 0
17 58 22 16 57 18 61 -134 0
17 58 22 16 57 18 61 -133 0
17 58 22 16 57 18 61 -132 0
17 58 22 16 57 18 61 -131 0
17 58 56 16 57 18 61 -134 0
17 58 56 16 57 18 61 -133 0
17 58 56 16 57 18 61 -132 0
17 58 56 16 57 18 61 -131 0
17 50 22 49 16 51 18 -127 0
17 50 22 49 16 51 18 -129 0
17 50 22 49 16 51 18 -128 0
17 50 22 49 16 51 18 -130 0
17 50 22 49 16 51 53 -127 0
17 50 22 49 16 51 53 -129 0
17 50 22 49 16 51 53 -128 0
17 50 22 49 16 51 53 -130 0
17 50 22 49 16 18 53 -127 0
17 50 22 49 16 18 53 -129 0
17 50 22 49 16 18 53 -128 0
17 50 22 49 16 18 53 -130 0
17 50 22 49 51 18 53 -127 0
17 50 22 49 51 18 53 -129 0
17 50 22 49 51 18 53 -128 0
17 50 22 49 51 18 53 -130 0
17 50 22 16 51 18 53 -127 0
17 50 22 16 51 18 53 -129 0
17 50 22 16 51 18 53 -128 0
17 50 22 16 51 18 53 -130 0
17 50 49 16 51 18 53 -127 0
17 50 49 16 51 18 53 -129 0
17 50 49 16 51 18 53 -128 0
17 50 49 16 51 18 53 -130 0
17 7 22 9 16 10 18 -82 0
17 7 22 9 16 10 18 -83 0
17 7 22 9 16 10 18 -81 0
17 7 22 9 16 10 18 -84 0
17 7 22 9 16 10 12 -82 0
17 7 22 9 16 10 12 -83 0
17 7 22 9 16 10 12 -81 0
17 7 22 9 16 10 12 -84 0
17 7 22 9 16 18 12 -82 0
17 7 22 9 16 18 12 -83 0
17 7 22 9 16 18 12 -81 0
17 7 22 9 16 18 12 -84 0
17 7 22 9 10 18 12 -82 0
17 7 22 9 10 18 12 -83 0
17 7 22 9 10 18 12 -81 0
17 7 22 9 10 18 12 -84 0
17 7 22 16 10 18 12 -82 0
17 7 22 16 10 18 12 -83 0
17 7 22 16 10 18 12 -81 0
17 7 22 16 10 18 12 -84 0
17 7 9 16 10 18 12 -82 0
17 7 9 16 10 18 12 -83 0
17 7 9 16 10 18 12 -81 0
17 7 9 16 10 18 12 -84 0
17 28 22 25 16 24 18 -118 0
17 28 22 25 16 24 18 -116 0
17 28 22 25 16 24 18 -117 0
17 28 22 25 16 24 18 -115 0
17 69 22 67 16 68 18 -135 0
17 69 22 67 16 68 18 -137 0
17 69 22 67 16 68 18 -136 0
17 69 22 67 16 68 18 -138 0
17 77 22 78 16 72 18 -140 0
17 77 22 78 16 72 18 -141 0
17 77 22 78 16 72 18 -139 0
17 77 22 78 16 72 18 -142 0
17 22 35 16 38 18 33 -119 0
17 22 35 16 38 18 33 -122 0
17 22 35 16 38 18 33 -120 0
17 22 35 16 38 18 33 -121 0
17 22 44 16 46 18 42 -124 0
17 22 44 16 46 18 42 -126 0
17 22 44 16 46 18 42 -123 0
17 22 44 16 46 18 42 -125 0
17 22 2 16 3 18 1 -15 0
17 22 2 16 3 18 1 -21 0
17 22 2 16 3 18 1 -19 0
17 22 2 16 3 18 1 -20 0
17 22 56 16 57 18 61 -134 0
17 22 56 16 57 18 61 -133 0
17 22 56 16 57 18 61 -132 0
17 22 56 16 57 18 61 -131 0
17 22 49 16 51 18 53 -127 0
17 22 49 16 51 18 53 -129 0
17 22 49 16 51 18 53 -128 0
17 22 49 16 51 18 53 -130 0
17 22 9 16 10 18 12 -82 0
17 22 9 16 10 18 12 -83 0
17 22 9 16 10 18 12 -81 0
17 22 9 16 10 18 12 -84 0
37 41 35 44 38 46 33 -173 0
37 41 35 44 38 46 33 -172 0
37 41 35 44 38 46 33 -171 0
37 41 35 44 38 46 33 -174 0
37 41 35 44 38 46 42 -173 0
37 41 35 44 38 46 42 -172 0
37 41 35 44 38 46 42 -171 0
37 41 35 44 38 46 42 -174 0
37 41 35 44 38 33 42 -173 0
37 41 35 44 38 33 42 -172 0
37 41 35 44 38 33 42 -171 0
37 41 35 44 38 33 42 -174 0
37 41 35 44 46 33 42 -173 0
37 41 35 44 46 33 42 -172 0
37 41 35 44 46 33 42 -171 0
37 41 35 44 46 33 42 -174 0
37 41 35 38 46 33 42 -173 0
37 41 35 38 46 33 42 -172 0
37 41 35 38 46 33 42 -171 0
37 41 35 38 46 33 42 -174 0
37 41 44 38 46 33 42 -173 0
37 41 44 38 46 33 42 -172 0
37 41 44 38 46 33 42 -171 0
37 41 44 38 46 33 42 -174 0
37 6 35 2 38 3 33 -32 0
37 6 35 2 38 3 33 -36 0
37 6 35 2 38 3 33 -31 0
37 6 35 2 38 3 33 -34 0
37 6 35 2 38 3 1 -32 0
37 6 35 2 38 3 1 -36 0
37 6 35 2 38 3 1 -31 0
37 6 35 2 38 3 1 -34 0
37 6 35 2 38 33 1 -32 0
37 6 35 2 38 33 1 -36 0
37 6 35 2 38 33 1 -31 0
37 6 35 2 38 33 1 -34 0
37 6 35 2 3 33 1 -32 0
37 6 35 2 3 33 1 -36 0
37 6 35 2 3 33 1 -31 0
37 6 35 2 3 33 1 -34 0
37 6 35 38 3 33 1 -32 0
37 6 35 38 3 33 1 -36 0
37 6 35 38 3 33 1 -31 0
37 6 35 38 3 33 1 -34 0
37 6 2 38 3 33 1 -32 0
37 6 2 38 3 33 1 -36 0
37 6 2 38 3 33 1 -31 0
37 6 2 38 3 33 1 -34 0
37 58 35 56 38 57 33 -182 0
37 58 35 56 38 57 33 -180 0
37 58 35 56 38 57 33 -181 0
37 58 35 56 38 57 33 -179 0
37 58 35 56 38 57 61 -182 0
37 58 35 56 38 57 61 -180 0
37 58 35 56 38 57 61 -181 0
37 58 35 56 38 57 61 -179 0
37 58 35 56 38 33 61 -182 0
37 58 35 56 38 33 61 -180 0
37 58 35 56 38 33 61 -181 0
37 58 35 56 38 33 61 -179 0
37 58 35 56 57 33 61 -182 0
37 58 35 56 57 33 61 -180 0
37 58 35 56 57 33 61 -181 0
37 58 35 56 57 33 61 -179 0
37 58 35 38 57 33 61 -182 0
37 58 35 38 57 33 61 -180 0
37 58 35 38 57 33 61 -181 0
37 58 35 38 57 33 61 -179 0
37 58 56 38 57 33 61 -182 0
37 58 56 38 57 33 61 -180 0
37 58 56 38 57 33 61 -181 0
37 58 56 38 57 33 61 -179 0
37 50 35 49 38 51 33 -177 0
37 50 35 49 38 51 33 -175 0
37 50 35 49 38 51 33 -176 0
37 50 35 49 38 51 33 -178 0
37 50 35 49 38 51 53 -177 0
37 50 35 49 38 51 53 -175 0
37 50 35 49 38 51 53 -176 0
37 50 35 49 38 51 53 -178 0
37 50 35 49 38 33 53 -177 0
37 50 35 49 38 33 53 -175 0
37 50 35 49 38 33 53 -176 0
37 50 35 49 38 33 53 -178 0
37 50 35 49 51 33 53 -177 0
37 50 35 49 51 33 53 -175 0
37 50 35 49 51 33 53 -176 0
37 50 35 49 51 33 53 -178 0
37 50 35 38 51 33 53 -177 0
37 50 35 38 51 33 53 -175 0
37 50 35 38 51 33 53 -176 0
37 50 35 38 51 33 53 -178 0
37 50 49 38 51 33 53 -177 0
37 50 49 38 51 33 53 -175 0
37 50 49 38 51 33 53 -176 0
37 50 49 38 51 33 53 -178 0
37 7 35 9 38 10 33 -92 0
37 7 35 9 38 10 33 -89 0
37 7 35 9 38 10 33 -90 0
37 7 35 9 38 10 33 -91 0
37 7 35 9 38 10 12 -92 0
37 7 35 9 38 10 12 -89 0
37 7 35 9 38 10 12 -90 0
37 7 35 9 38 10 12 -91 0
37 7 35 9 38 33 12 -92 0
37 7 35 9 38 33 12 -89 0
37 7 35 9 38 33 12 -90 0
37 7 35 9 38 33 12 -91 0
37 7 35 9 10 33 12 -92 0
37 7 35 9 10 33 12 -89 0
37 7 35 9 10 33 12 -90 0
37 7 35 9 10 33 12 -91 0
37 7 35 38 10 33 12 -92 0
37 7 35 38 10 33 12 -89 0
37 7 35 38 10 33 12 -90 0
37 7 35 38 10 33 12 -91 0
37 7 9 38 10 33 12 -92 0
37 7 9 38 10 33 12 -89 0
37 7 9 38 10 33 12 -90 0
37 7 9 38 10 33 12 -91 0
37 28 35 25 38 24 33 -146 0
37 28 35 25 38 24 33 -147 0
37 28 35 25 38 24 33 -145 0
37 28 35 25 38 24 33 -148 0
37 69 35 67 38 68 33 -185 0
37 69 35 67 38 68 33 -184 0
37 69 35 67 38 68 33 -183 0
37 69 35 67 38 68 33 -186 0
37 77 35 78 38 72 33 -188 0
37 77 35 78 38 72 33 -190 0
37 77 35 78 38 72 33 -187 0
37 77 35 78 38 72 33 -189 0
37 22 35 16 38 18 33 -119 0
37 22 35 16 38 18 33 -122 0
37 22 35 16 38 18 33 -120 0
37 22 35 16 38 18 33 -121 0
37 35 44 38 46 33 42 -173 0
37 35 44 38 46 33 42 -172 0
37 35 44 38 46 33 42 -171 0
37 35 44 38 46 33 42 -174 0
37 35 2 38 3 33 1 -32 0
37 35 2 38 3 33 1 -36 0
37 35 2 38 3 33 1 -31 0
37 35 2 38 3 33 1 -34 0
37 35 56 38 57 33 61 -182 0
37 35 56 38 57 33 61 -180 0
37 35 56 38 57 33 61 -181 0
37 35 56 38 57 33 61 -179 0
37 35 49 38 51 33 53 -177 0
37 35 49 38 51 33 53 -175 0
37 35 49 38 51 33 53 -176 0
37 35 49 38 51 33 53 -178 0
37 35 9 38 10 33 12 -92 0
37 35 9 38 10 33 12 -89 0
37 35 9 38 10 33 12 -90 0
37 35 9 38 10 33 12 -91 0
41 6 44 2 46 3 42 -43 0
41 6 44 2 46 3 42 -40 0
41 6 44 2 46 3 42 -45 0
41 6 44 2 46 3 42 -39 0
41 6 44 2 46 3 1 -43 0
41 6 44 2 46 3 1 -40 0
41 6 44 2 46 3 1 -45 0
41 6 44 2 46 3 1 -39 0
41 6 44 2 46 42 1 -43 0
41 6 44 2 46 42 1 -40 0
41 6 44 2 46 42 1 -45 0
41 6 44 2 46 42 1 -39 0
41 6 44 2 3 42 1 -43 0
41 6 44 2 3 42 1 -40 0
41 6 44 2 3 42 1 -45 0
41 6 44 2 3 42 1 -39 0
41 6 44 46 3 42 1 -43 0
41 6 44 46 3 42 1 -40 0
41 6 44 46 3 42 1 -45 0
41 6 44 46 3 42 1 -39 0
41 6 2 46 3 42 1 -43 0
41 6 2 46 3 42 1 -40 0
41 6 2 46 3 42 1 -45 0
41 6 2 46 3 42 1 -39 0
41 58 44 56 46 57 42 -197 0
41 58 44 56 46 57 42 -200 0
41 58 44 56 46 57 42 -198 0
41 58 44 56 46 57 42 -199 0
41 58 44 56 46 57 61 -197 0
41 58 44 56 46 57 61 -200 0
41 58 44 56 46 57 61 -198 0
41 58 44 56 46 57 61 -199 0
41 58 44 56 46 42 61 -197 0
41 58 44 56 46 42 61 -200 0
41 58 44 56 46 42 61 -198 0
41 58 44 56 46 42 61 -199 0
41 58 44 56 57 42 61 -197 0
41 58 44 56 57 42 61 -200 0
41 58 44 56 57 42 61 -198 0
41 58 44 56 57 42 61 -199 0
41 58 44 46 57 42 61 -197 0
41 58 44 46 57 42 61 -200 0
41 58 44 46 57 42 61 -198 0
41 58 44 46 57 42 61 -199 0
41 58 56 46 57 42 61 -197 0
41 58 56 46 57 42 61 -200 0
41 58 56 46 57 42 61 -198 0
41 58 56 46 57 42 61 -199 0
41 50 44 49 46 51 42 -196 0
41 50 44 49 46 51 42 -194 0
41 50 44 49 46 51 42 -195 0
41 50 44 49 46 51 42 -193 0
41 50 44 49 46 51 53 -196 0
41 50 44 49 46 51 53 -194 0
41 50 44 49 46 51 53 -195 0
41 50 44 49 46 51 53 -193 0
41 50 44 49 46 42 53 -196 0
41 50 44 49 46 42 53 -194 0
41 50 44 49 46 42 53 -195 0
41 50 44 49 46 42 53 -193 0
41 50 44 49 51 42 53 -196 0
41 50 44 49 51 42 53 -194 0
41 50 44 49 51 42 53 -195 0
41 50 44 49 51 42 53 -193 0
41 50 44 46 51 42 53 -196 0
41 50 44 46 51 42 53 -194 0
41 50 44 46 51 42 53 -195 0
41 50 44 46 51 42 53 -193 0
41 50 49 46 51 42 53 -196 0
41 50 49 46 51 42 53 -194 0
41 50 49 46 51 42 53 -195 0
41 50 49 46 51 42 53 -193 0
41 7 44 9 46 10 42 -96 0
41 7 44 9 46 10 42 -94 0
41 7 44 9 46 10 42 -95 0
41 7 44 9 46 10 42 -93 0
41 7 44 9 46 10 12 -96 0
41 7 44 9 46 10 12 -94 0
41 7 44 9 46 10 12 -95 0
41 7 44 9 46 10 12 -93 0
41 7 44 9 46 42 12 -96 0
41 7 44 9 46 42 12 -94 0
41 7 44 9 46 42 12 -95 0
41 7 44 9 46 42 12 -93 0
41 7 44 9 10 42 12 -96 0
41 7 44 9 10 42 12 -94 0
41 7 44 9 10 42 12 -95 0
41 7 44 9 10 42 12 -93 0
41 7 44 46 10 42 12 -96 0
41 7 44 46 10 42 12 -94 0
41 7 44 46 10 42 12 -95 0
41 7 44 46 10 42 12 -93 0
41 7 9 46 10 42 12 -96 0
41 7 9 46 10 42 12 -94 0
41 7 9 46 10 42 12 -95 0
41 7 9 46 10 42 12 -93 0
41 28 44 25 46 24 42 -152 0
41 28 44 25 46 24 42 -150 0
41 28 44 25 46 24 42 -151 0
41 28 44 25 46 24 42 -149 0
41 69 44 67 46 68 42 -202 0
41 69 44 67 46 68 42 -204 0
41 69 44 67 46 68 42 -201 0
41 69 44 67 46 68 42 -203 0
41 77 44 78 46 72 42 -206 0
41 77 44 78 46 72 42 -205 0
41 77 44 78 46 72 42 -208 0
41 77 44 78 46 72 42 -207 0
41 22 44 16 46 18 42 -124 0
41 22 44 16 46 18 42 -126 0
41 22 44 16 46 18 42 -123 0
41 22 44 16 46 18 42 -125 0
41 35 44 38 46 33 42 -173 0
41 35 44 38 46 33 42 -172 0
41 35 44 38 46 33 42 -171 0
41 35 44 38 46 33 42 -174 0
41 44 2 46 3 42 1 -43 0
41 44 2 46 3 42 1 -40 0
41 44 2 46 3 42 1 -45 0
41 44 2 46 3 42 1 -39 0
41 44 56 46 57 42 61 -197 0
41 44 56 46 57 42 61 -200 0
41 44 56 46 57 42 61 -198 0
41 44 56 46 57 42 61 -199 0
41 44 49 46 51 42 53 -196 0
41 44 49 46 51 42 53 -194 0
41 44 49 46 51 42 53 -195 0
41 44 49 46 51 42 53 -193 0
41 44 9 46 10 42 12 -96 0
41 44 9 46 10 42 12 -94 0
41 44 9 46 10 42 12 -95 0
41 44 9 46 10 42 12 -93 0
6 58 2 56 3 57 1 -55 0
6 58 2 56 3 57 1 -59 0
6 58 2 56 3 57 1 -62 0
6 58 2 56 3 57 1 -60 0
6 58 2 56 3 57 61 -55 0
6 58 2 56 3 57 61 -59 0
6 58 2 56 3 57 61 -62 0
6 58 2 56 3 57 61 -60 0
6 58 2 56 3 1 61 -55 0
6 58 2 56 3 1 61 -59 0
6 58 2 56 3 1 61 -62 0
6 58 2 56 3 1 61 -60 0
6 58 2 56 57 1 61 -55 0
6 58 2 56 57 1 61 -59 0
6 58 2 56 57 1 61 -62 0
6 58 2 56 57 1 61 -60 0
6 58 2 3 57 1 61 -55 0
6 58 2 3 57 1 61 -59 0
6 58 2 3 57 1 61 -62 0
6 58 2 3 57 1 61 -60 0
6 58 56 3 57 1 61 -55 0
6 58 56 3 57 1 61 -59 0
6 58 56 3 57 1 61 -62 0
6 58 56 3 57 1 61 -60 0
6 50 2 49 3 51 1 -54 0
6 50 2 49 3 51 1 -47 0
6 50 2 49 3 51 1 -48 0
6 50 2 49 3 51 1 -52 0
6 50 2 49 3 51 53 -54 0
6 50 2 49 3 51 53 -47 0
6 50 2 49 3 51 53 -48 0
6 50 2 49 3 51 53 -52 0
6 50 2 49 3 1 53 -54 0
6 50 2 49 3 1 53 -47 0
6 50 2 49 3 1 53 -48 0
6 50 2 49 3 1 53 -52 0
6 50 2 49 51 1 53 -54 0
6 50 2 49 51 1 53 -47 0
6 50 2 49 51 1 53 -48 0
6 50 2 49 51 1 53 -52 0
6 50 2 3 51 1 53 -54 0
6 50 2 3 51 1 53 -47 0
6 50 2 3 51 1 53 -48 0
6 50 2 3 51 1 53 -52 0
6 50 49 3 51 1 53 -54 0
6 50 49 3 51 1 53 -47 0
6 50 49 3 51 1 53 -48 0
6 50 49 3 51 1 53 -52 0
6 7 2 9 3 10 1 -14 0
6 7 2 9 3 10 1 -8 0
6 7 2 9 3 10 1 -13 0
6 7 2 9 3 10 1 -11 0
6 7 2 9 3 10 12 -14 0
6 7 2 9 3 10 12 -8 0
6 7 2 9 3 10 12 -13 0
6 7 2 9 3 10 12 -11 0
6 7 2 9 3 1 12 -14 0
6 7 2 9 3 1 12 -8 0
6 7 2 9 3 1 12 -13 0
6 7 2 9 3 1 12 -11 0
6 7 2 9 10 1 12 -14 0
6 7 2 9 10 1 12 -8 0
6 7 2 9 10 1 12 -13 0
6 7 2 9 10 1 12 -11 0
6 7 2 3 10 1 12 -14 0
6 7 2 3 10 1 12 -8 0
6 7 2 3 10 1 12 -13 0
6 7 2 3 10 1 12 -11 0
6 7 9 3 10 1 12 -14 0
6 7 9 3 10 1 12 -8 0
6 7 9 3 10 1 12 -13 0
6 7 9 3 10 1 12 -11 0
6 28 2 25 3 24 1 -29 0
6 28 2 25 3 24 1 -26 0
6 28 2 25 3 24 1 -23 0
6 28 2 25 3 24 1 -27 0
6 69 2 67 3 68 1 -66 0
6 69 2 67 3 68 1 -70 0
6 69 2 67 3 68 1 -65 0
6 69 2 67 3 68 1 -63 0
6 77 2 78 3 72 1 -71 0
6 77 2 78 3 72 1 -75 0
6 77 2 78 3 72 1 -74 0
6 77 2 78 3 72 1 -73 0
6 22 2 16 3 18 1 -15 0
6 22 2 16 3 18 1 -21 0
6 22 2 16 3 18 1 -19 0
6 22 2 16 3 18 1 -20 0
6 35 2 38 3 33 1 -32 0
6 35 2 38 3 33 1 -36 0
6 35 2 38 3 33 1 -31 0
6 35 2 38 3 33 1 -34 0
6 44 2 46 3 42 1 -43 0
6 44 2 46 3 42 1 -40 0
6 44 2 46 3 42 1 -45 0
6 44 2 46 3 42 1 -39 0
6 2 56 3 57 1 61 -55 0
6 2 56 3 57 1 61 -59 0
6 2 56 3 57 1 61 -62 0
6 2 56 3 57 1 61 -60 0
6 2 49 3 51 1 53 -54 0
6 2 49 3 51 1 53 -47 0
6 2 49 3 51 1 53 -48 0
6 2 49 3 51 1 53 -52 0
6 2 9 3 10 1 12 -14 0
6 2 9 3 10 1 12 -8 0
6 2 9 3 10 1 12 -13 0
6 2 9 3 10 1 12 -11 0
58 50 56 49 57 51 61 -214 0
58 50 56 49 57 51 61 -213 0
58 50 56 49 57 51 61 -211 0
58 50 56 49 57 51 61 -212 0
58 50 56 49 57 51 53 -214 0
58 50 56 49 57 51 53 -213 0
58 50 56 49 57 51 53 -211 0
58 50 56 49 57 51 53 -212 0
58 50 56 49 57 61 53 -214 0
58 50 56 49 57 61 53 -213 0
58 50 56 49 57 61 53 -211 0
58 50 56 49 57 61 53 -212 0
58 50 56 49 51 61 53 -214 0
58 50 56 49 51 61 53 -213 0
58 50 56 49 51 61 53 -211 0
58 50 56 49 51 61 53 -212 0
58 50 56 57 51 61 53 -214 0
58 50 56 57 51 61 53 -213 0
58 50 56 57 51 61 53 -211 0
58 50 56 57 51 61 53 -212 0
58 50 49 57 51 61 53 -214 0
58 50 49 57 51 61 53 -213 0
58 50 49 57 51 61 53 -211 0
58 50 49 57 51 61 53 -212 0
58 7 56 9 57 10 61 -104 0
58 7 56 9 57 10 61 -102 0
58 7 56 9 57 10 61 -103 0
58 7 56 9 57 10 61 -101 0
58 7 56 9 57 10 12 -104 0
58 7 56 9 57 10 12 -102 0
58 7 56 9 57 10 12 -103 0
58 7 56 9 57 10 12 -101 0
58 7 56 9 57 61 12 -104 0
58 7 56 9 57 61 12 -102 0
58 7 56 9 57 61 12 -103 0
58 7 56 9 57 61 12 -101 0
58 7 56 9 10 61 12 -104 0
58 7 56 9 10 61 12 -102 0
58 7 56 9 10 61 12 -103 0
58 7 56 9 10 61 12 -101 0
58 7 56 57 10 61 12 -104 0
58 7 56 57 10 61 12 -102 0
58 7 56 57 10 61 12 -103 0
58 7 56 57 10 61 12 -101 0
58 7 9 57 10 61 12 -104 0
58 7 9 57 10 61 12 -102 0
58 7 9 57 10 61 12 -103 0
58 7 9 57 10 61 12 -101 0
58 28 56 25 57 24 61 -160 0
58 28 56 25 57 24 61 -159 0
58 28 56 25 57 24 61 -158 0
58 28 56 25 57 24 61 -157 0
58 69 56 67 57 68 61 -228 0
58 69 56 67 57 68 61 -226 0
58 69 56 67 57 68 61 -227 0
58 69 56 67 57 68 61 -225 0
58 77 56 78 57 72 61 -232 0
58 77 56 78 57 72 61 -230 0
58 77 56 78 57 72 61 -231 0
58 77 56 78 57 72 61 -229 0
58 22 56 16 57 18 61 -134 0
58 22 56 16 57 18 61 -133 0
58 22 56 16 57 18 61 -132 0
58 22 56 16 57 18 61 -131 0
58 35 56 38 57 33 61 -182 0
58 35 56 38 57 33 61 -180 0
58 35 56 38 57 33 61 -181 0
58 35 56 38 57 33 61 -179 0
58 44 56 46 57 42 61 -197 0
58 44 56 46 57 42 61 -200 0
58 44 56 46 57 42 61 -198 0
58 44 56 46 57 42 61 -199 0
58 2 56 3 57 1 61 -55 0
58 2 56 3 57 1 61 -59 0
58 2 56 3 57 1 61 -62 0
58 2 56 3 57 1 61 -60 0
58 56 49 57 51 61 53 -214 0
58 56 49 57 51 61 53 -213 0
58 56 49 57 51 61 53 -211 0
58 56 49 57 51 61 53 -212 0
58 56 9 57 10 61 12 -104 0
58 56 9 57 10 61 12 -102 0
58 56 9 57 10 61 12 -103 0
58 56 9 57 10 61 12 -101 0
50 7 49 9 51 10 53 -99 0
50 7 49 9 51 10 53 -98 0
50 7 49 9 51 10 53 -97 0
50 7 49 9 51 10 53 -100 0
50 7 49 9 51 10 12 -99 0
50 7 49 9 51 10 12 -98 0
50 7 49 9 51 10 12 -97 0
50 7 49 9 51 10 12 -100 0
50 7 49 9 51 53 12 -99 0
50 7 49 9 51 53 12 -98 0
50 7 49 9 51 53 12 -97 0
50 7 49 9 51 53 12 -100 0
50 7 49 9 10 53 12 -99 0
50 7 49 9 10 53 12 -98 0
50 7 49 9 10 53 12 -97 0
50 7 49 9 10 53 12 -100 0
50 7 49 51 10 53 12 -99 0
50 7 49 51 10 53 12 -98 0
50 7 49 51 10 53 12 -97 0
50 7 49 51 10 53 12 -100 0
50 7 9 51 10 53 12 -99 0
50 7 9 51 10 53 12 -98 0
50 7 9 51 10 53 12 -97 0
50 7 9 51 10 53 12 -100 0
50 28 49 25 51 24 53 -153 0
50 28 49 25 51 24 53 -154 0
50 28 49 25 51 24 53 -155 0
50 28 49 25 51 24 53 -156 0
50 69 49 67 51 68 53 -216 0
50 69 49 67 51 68 53 -218 0
50 69 49 67 51 68 53 -215 0
50 69 49 67 51 68 53 -217 0
50 77 49 78 51 72 53 -222 0
50 77 49 78 51 72 53 -220 0
50 77 49 78 51 72 53 -221 0
50 77 49 78 51 72 53 -219 0
50 22 49 16 51 18 53 -127 0
50 22 49 16 51 18 53 -129 0
50 22 49 16 51 18 53 -128 0
50 22 49 16 51 18 53 -130 0
50 35 49 38 51 33 53 -177 0
50 35 49 38 51 33 53 -175 0
50 35 49 38 51 33 53 -176 0
50 35 49 38 51 33 53 -178 0
50 44 49 46 51 42 53 -196 0
50 44 49 46 51 42 53 -194 0
50 44 49 46 51 42 53 -195 0
50 44 49 46 51 42 53 -193 0
50 2 49 3 51 1 53 -54 0
50 2 49 3 51 1 53 -47 0
50 2 49 3 51 1 53 -48 0
50 2 49 3 51 1 53 -52 0
50 56 49 57 51 61 53 -214 0
50 56 49 57 51 61 53 -213 0
50 56 49 57 51 61 53 -211 0
50 56 49 57 51 61 53 -212 0
50 49 9 51 10 53 12 -99 0
50 49 9 51 10 53 12 -98 0
50 49 9 51 10 53 12 -97 0
50 49 9 51 10 53 12 -100 0
7 28 9 25 10 24 12 -87 0
7 28 9 25 10 24 12 -85 0
7 28 9 25 10 24 12 -88 0
7 28 9 25 10 24 12 -86 0
7 69 9 67 10 68 12 -108 0
7 69 9 67 10 68 12 -107 0
7 69 9 67 10 68 12 -106 0
7 69 9 67 10 68 12 -105 0
7 77 9 78 10 72 12 -110 0
7 77 9 78 10 72 12 -111 0
7 77 9 78 10 72 12 -109 0
7 77 9 78 10 72 12 -112 0
7 22 9 16 10 18 12 -82 0
7 22 9 16 10 18 12 -83 0
7 22 9 16 10 18 12 -81 0
7 22 9 16 10 18 12 -84 0
7 35 9 38 10 33 12 -92 0
7 35 9 38 10 33 12 -89 0
7 35 9 38 10 33 12 -90 0
7 35 9 38 10 33 12 -91 0
7 44 9 46 10 42 12 -96 0
7 44 9 46 10 42 12 -94 0
7 44 9 46 10 42 12 -95 0
7 44 9 46 10 42 12 -93 0
7 2 9 3 10 1 12 -14 0
7 2 9 3 10 1 12 -8 0
7 2 9 3 10 1 12 -13 0
7 2 9 3 10 1 12 -11 0
7 56 9 57 10 61 12 -104 0
7 56 9 57 10 61 12 -102 0
7 56 9 57 10 61 12 -103 0
7 56 9 57 10 61 12 -101 0
7 49 9 51 10 53 12 -99 0
7 49 9 51 10 53 12 -98 0
7 49 9 51 10 53 12 -97 0
7 49 9 51 10 53 12 -100 0
30 64 28 69 25 67 24 68 -162 0
30 64 28 69 25 67 24 68 -163 0
30 64 28 69 25 67 24 68 -161 0
30 64 28 69 25 67 24 68 -164 0
30 76 28 77 25 78 24 72 -168 0
30 76 28 77 25 78 24 72 -166 0
30 76 28 77 25 78 24 72 -167 0
30 76 28 77 25 78 24 72 -165 0
30 17 28 22 25 16 24 18 -118 0
30 17 28 22 25 16 24 18 -116 0
30 17 28 22 25 16 24 18 -117 0
30 17 28 22 25 16 24 18 -115 0
30 37 28 35 25 38 24 33 -146 0
30 37 28 35 25 38 24 33 -147 0
30 37 28 35 25 38 24 33 -145 0
30 37 28 35 25 38 24 33 -148 0
30 41 28 44 25 46 24 42 -152 0
30 41 28 44 25 46 24 42 -150 0
30 41 28 44 25 46 24 42 -151 0
30 41 28 44 25 46 24 42 -149 0
30 6 28 2 25 3 24 1 -29 0
30 6 28 2 25 3 24 1 -26 0
30 6 28 2 25 3 24 1 -23 0
30 6 28 2 25 3 24 1 -27 0
30 58 28 56 25 57 24 61 -160 0
30 58 28 56 25 57 24 61 -159 0
30 58 28 56 25 57 24 61 -158 0
30 58 28 56 25 57 24 61 -157 0
30 50 28 49 25 51 24 53 -153 0
30 50 28 49 25 51 24 53 -154 0
30 50 28 49 25 51 24 53 -155 0
30 50 28 49 25 51 24 53 -156 0
30 7 28 9 25 10 24 12 -87 0
30 7 28 9 25 10 24 12 -85 0
30 7 28 9 25 10 24 12 -88 0
30 7 28 9 25 10 24 12 -86 0
64 76 69 77 67 78 68 72 -237 0
64 76 69 77 67 78 68 72 -238 0
64 76 69 77 67 78 68 72 -236 0
64 76 69 77 67 78 68 72 -235 0
64 17 69 22 67 16 68 18 -135 0
64 17 69 22 67 16 68 18 -137 0
64 17 69 22 67 16 68 18 -136 0
64 17 69 22 67 16 68 18 -138 0
64 37 69 35 67 38 68 33 -185 0
64 37 69 35 67 38 68 33 -184 0
64 37 69 35 67 38 68 33 -183 0
64 37 69 35 67 38 68 33 -186 0
64 41 69 44 67 46 68 42 -202 0
64 41 69 44 67 46 68 42 -204 0
64 41 69 44 67 46 68 42 -201 0
64 41 69 44 67 46 68 42 -203 0
64 6 69 2 67 3 68 1 -66 0
64 6 69 2 67 3 68 1 -70 0
64 6 69 2 67 3 68 1 -65 0
64 6 69 2 67 3 68 1 -63 0
64 58 69 56 67 57 68 61 -228 0
64 58 69 56 67 57 68 61 -226 0
64 58 69 56 67 57 68 61 -227 0
64 58 69 56 67 57 68 61 -225 0
64 50 69 49 67 51 68 53 -216 0
64 50 69 49 67 51 68 53 -218 0
64 50 69 49 67 51 68 53 -215 0
64 50 69 49 67 51 68 53 -217 0
64 7 69 9 67 10 68 12 -108 0
64 7 69 9 67 10 68 12 -107 0
64 7 69 9 67 10 68 12 -106 0
64 7 69 9 67 10 68 12 -105 0
76 17 77 22 78 16 72 18 -140 0
76 17 77 22 78 16 72 18 -141 0
76 17 77 22 78 16 72 18 -139 0
76 17 77 22 78 16 72 18 -142 0
76 37 77 35 78 38 72 33 -188 0
76 37 77 35 78 38 72 33 -190 0
76 37 77 35 78 38 72 33 -187 0
76 37 77 35 78 38 72 33 -189 0
76 41 77 44 78 46 72 42 -206 0
76 41 77 44 78 46 72 42 -205 0
76 41 77 44 78 46 72 42 -208 0
76 41 77 44 78 46 72 42 -207 0
76 6 77 2 78 3 72 1 -71 0
76 6 77 2 78 3 72 1 -75 0
76 6 77 2 78 3 72 1 -74 0
76 6 77 2 78 3 72 1 -73 0
76 58 77 56 78 57 72 61 -232 0
76 58 77 56 78 57 72 61 -230 0
76 58 77 56 78 57 72 61 -231 0
76 58 77 56 78 57 72 61 -229 0
76 50 77 49 78 51 72 53 -222 0
76 50 77 49 78 51 72 53 -220 0
76 50 77 49 78 51 72 53 -221 0
76 50 77 49 78 51 72 53 -219 0
76 7 77 9 78 10 72 12 -110 0
76 7 77 9 78 10 72 12 -111 0
76 7 77 9 78 10 72 12 -109 0
76 7 77 9 78 10 72 12 -112 0
17 37 22 35 16 38 18 33 -119 0
17 37 22 35 16 38 18 33 -122 0
17 37 22 35 16 38 18 33 -120 0
17 37 22 35 16 38 18 33 -121 0
17 41 22 44 16 46 18 42 -124 0
17 41 22 44 16 46 18 42 -126 0
17 41 22 44 16 46 18 42 -123 0
17 41 22 44 16 46 18 42 -125 0
17 6 22 2 16 3 18 1 -15 0
17 6 22 2 16 3 18 1 -21 0
17 6 22 2 16 3 18 1 -19 0
17 6 22 2 16 3 18 1 -20 0
17 58 22 56 16 57 18 61 -134 0
17 58 22 56 16 57 18 61 -133 0
17 58 22 56 16 57 18 61 -132 0
17 58 22 56 16 57 18 61 -131 0
17 50 22 49 16 51 18 53 -127 0
17 50 22 49 16 51 18 53 -129 0
17 50 22 49 16 51 18 53 -128 0
17 50 22 49 16 51 18 53 -130 0
17 7 22 9 16 10 18 12 -82 0
17 7 22 9 16 10 18 12 -83 0
17 7 22 9 16 10 18 12 -81 0
17 7 22 9 16 10 18 12 -84 0
37 41 35 44 38 46 33 42 -173 0
37 41 35 44 38 46 33 42 -172 0
37 41 35 44 38 46 33 42 -171 0
37 41 35 44 38 46 33 42 -174 0
37 6 35 2 38 3 33 1 -32 0
37 6 35 2 38 3 33 1 -36 0
37 6 35 2 38 3 33 1 -31 0
37 6 35 2 38 3 33 1 -34 0
37 58 35 56 38 57 33 61 -182 0
37 58 35 56 38 57 33 61 -180 0
37 58 35 56 38 57 33 61 -181 0
37 58 35 56 38 57 33 61 -179 0
37 50 35 49 38 51 33 53 -177 0
37 50 35 49 38 51 33 53 -175 0
37 50 35 49 38 51 33 53 -176 0
37 50 35 49 38 51 33 53 -178 0
37 7 35 9 38 10 33 12 -92 0
37 7 35 9 38 10 33 12 -89 0
37 7 35 9 38 10 33 12 -90 0
37 7 35 9 38 10 33 12 -91 0
41 6 44 2 46 3 42 1 -43 0
41 6 44 2 46 3 42 1 -40 0
41 6 44 2 46 3 42 1 -45 0
41 6 44 2 46 3 42 1 -39 0
41 58 44 56 46 57 42 61 -197 0
41 58 44 56 46 57 42 61 -200 0
41 58 44 56 46 57 42 61 -198 0
41 58 44 56 46 57 42 61 -199 0
41 50 44 49 46 51 42 53 -196 0
41 50 44 49 46 51 42 53 -194 0
41 50 44 49 46 51 42 53 -195 0
41 50 44 49 46 51 42 53 -193 0
41 7 44 9 46 10 42 12 -96 0
41 7 44 9 46 10 42 12 -94 0
41 7 44 9 46 10 42 12 -95 0
41 7 44 9 46 10 42 12 -93 0
6 58 2 56 3 57 1 61 -55 0
6 58 2 56 3 57 1 61 -59 0
6 58 2 56 3 57 1 61 -62 0
6 58 2 56 3 57 1 61 -60 0
6 50 2 49 3 51 1 53 -54 0
6 50 2 49 3 51 1 53 -47 0
6 50 2 49 3 51 1 53 -48 0
6 50 2 49 3 51 1 53 -52 0
6 7 2 9 3 10 1 12 -14 0
6 7 2 9 3 10 1 12 -8 0
6 7 2 9 3 10 1 12 -13 0
6 7 2 9 3 10 1 12 -11 0
58 50 56 49 57 51 61 53 -214 0
58 50 56 49 57 51 61 53 -213 0
58 50 56 49 57 51 61 53 -211 0
58 50 56 49 57 51 61 53 -212 0
58 7 56 9 57 10 61 12 -104 0
58 7 56 9 57 10 61 12 -102 0
58 7 56 9 57 10 61 12 -103 0
58 7 56 9 57 10 61 12 -101 0
50 7 49 9 51 10 53 12 -99 0
50 7 49 9 51 10 53 12 -98 0
50 7 49 9 51 10 53 12 -97 0
50 7 49 9 51 10 53 12 -100 0
144 162 168 118 146 152 29 160 153 87 0
163 234 237 135 185 202 66 228 216 108 0
166 238 240 140 188 206 71 232 222 110 0
116 137 141 114 119 124 15 134 127 82 0
147 184 190 122 169 173 32 182 177 92 0
150 204 205 126 172 192 43 197 196 96 0
26 70 75 21 36 40 5 55 54 14 0
159 226 230 133 180 200 59 224 214 104 0
154 218 220 129 175 194 47 213 210 99 0
85 107 111 83 89 94 8 102 98 80 0
143 161 167 117 145 151 23 158 155 88 0
164 233 236 136 183 201 65 227 215 106 0
165 235 239 139 187 208 74 231 221 109 0
115 138 142 113 120 123 19 132 128 81 0
148 186 189 121 170 171 31 181 176 90 0
149 203 207 125 174 191 45 198 195 95 0
27 63 73 20 34 39 4 62 48 13 0
157 225 229 131 179 199 60 223 211 103 0
156 217 219 130 178 193 52 212 209 97 0
86 105 112 84 91 93 11 101 100 79 0
