c E1(3,3) U4(3) E2(3,3) U3(3) U2(3) U1(3) E2(3,2) U3(2) U1(2) E2(2,3) U2(2) E1(3,2) U4(2) E1(2,3) U4(0) U2(0) E1(0,3) E2(0,3) U3(0) E2(3,0) U1(0) E1(3,0) U2(1) U1(1) U3(1) E1(1,3) E1(3,1) E2(1,3) U4(1) E2(3,1) E1(2,2) E2(2,2) E1(2,0) E2(0,2) E1(0,2) E2(2,0) E2(2,1) E2(1,2) E1(1,2) E1(2,1) E1(0,0) E2(0,0) E1(1,0) E2(0,1) E2(1,0) E1(0,1) E1(1,1) E2(1,1)
c 1 2 3 4 5 6 7 8 9 10 11 12 13 14 15 16 17 18 19 20 21 22 23 24 25 26 27 28 29 30 31 32 33 34 35 36 37 38 39 40 41 42 43 44 45 46 47 48
p cnf 48 948
41 -41 0
46 -43 0
35 -33 0
17 -22 0
43 -46 0
47 -47 0
39 -40 0
26 -27 0
33 -35 0
40 -39 0
31 -31 0
14 -12 0
22 -17 0
27 -26 0
12 -14 0
1 -1 0
42 -42 0
44 -45 0
34 -36 0
18 -20 0
45 -44 0
48 -48 0
38 -37 0
28 -30 0
36 -34 0
37 -38 0
32 -32 0
10 -7 0
20 -18 0
30 -28 0
7 -10 0
3 -3 0
-21 -16 0
-21 -19 0
-21 -15 0
-24 -23 0
-24 -25 0
-24 -29 0
-9 -11 0
-9 -8 0
-9 -13 0
-6 -5 0
-6 -4 0
-6 -2 0
-16 -19 0
-16 -15 0
-23 -25 0
-23 -29 0
-11 -8 0
-11 -13 0
-5 -4 0
-5 -2 0
-19 -15 0
-25 -29 0
-8 -13 0
-4 -2 0
41 46 35 17 0
43 47 39 26 0
33 40 31 14 0
22 27 12 1 0
42 44 34 18 0
45 48 38 28 0
36 37 32 10 0
20 30 7 3 0
21 16 19 15 0
24 23 25 29 0
9 11 8 13 0
6 5 4 2 0
21 16 19 -41 0
21 16 19 -42 0
21 16 15 -41 0
21 16 15 -42 0
21 19 15 -41 0
21 19 15 -42 0
24 23 25 -47 0
24 23 25 -48 0
24 23 29 -47 0
24 23 29 -48 0
24 25 29 -47 0
24 25 29 -48 0
9 11 8 -31 0
9 11 8 -32 0
9 11 13 -31 0
9 11 13 -32 0
9 8 13 -31 0
9 8 13 -32 0
6 5 4 -1 0
6 5 4 -3 0
6 5 2 -1 0
6 5 2 -3 0
6 4 2 -1 0
6 4 2 -3 0
16 19 15 -41 0
16 19 15 -42 0
23 25 29 -47 0
23 25 29 -48 0
11 8 13 -31 0
11 8 13 -32 0
5 4 2 -1 0
5 4 2 -3 0
21 16 19 15 -41 0
21 16 19 15 -46 0
21 16 19 15 -35 0
21 16 19 15 -17 0
21 16 19 15 -43 0
21 16 19 15 -33 0
21 16 19 15 -22 0
21 16 19 15 -42 0
21 16 19 15 -44 0
21 16 19 15 -34 0
21 16 19 15 -18 0
21 16 19 15 -45 0
21 16 19 15 -36 0
21 16 19 15 -20 0
24 23 25 29 -46 0
24 23 25 29 -43 0
24 23 25 29 -47 0
24 23 25 29 -39 0
24 23 25 29 -26 0
24 23 25 29 -40 0
24 23 25 29 -27 0
24 23 25 29 -44 0
24 23 25 29 -45 0
24 23 25 29 -48 0
24 23 25 29 -38 0
24 23 25 29 -28 0
24 23 25 29 -37 0
24 23 25 29 -30 0
9 11 8 13 -35 0
9 11 8 13 -39 0
9 11 8 13 -33 0
9 11 8 13 -40 0
9 11 8 13 -31 0
9 11 8 13 -14 0
9 11 8 13 -12 0
9 11 8 13 -34 0
9 11 8 13 -38 0
9 11 8 13 -36 0
9 11 8 13 -37 0
9 11 8 13 -32 0
9 11 8 13 -10 0
9 11 8 13 -7 0
6 5 4 2 -17 0
6 5 4 2 -26 0
6 5 4 2 -14 0
6 5 4 2 -22 0
6 5 4 2 -27 0
6 5 4 2 -12 0
6 5 4 2 -1 0
6 5 4 2 -18 0
6 5 4 2 -28 0
6 5 4 2 -10 0
6 5 4 2 -20 0
6 5 4 2 -30 0
6 5 4 2 -7 0
6 5 4 2 -3 0
21 24 16 19 15 -46 0
21 24 16 19 15 -43 0
21 24 16 19 15 -44 0
21 24 16 19 15 -45 0
21 24 23 25 29 -46 0
21 24 23 25 29 -43 0
21 24 23 25 29 -44 0
21 24 23 25 29 -45 0
21 9 16 19 15 -35 0
21 9 16 19 15 -33 0
21 9 16 19 15 -34 0
21 9 16 19 15 -36 0
21 9 11 8 13 -35 0
21 9 11 8 13 -33 0
21 9 11 8 13 -34 0
21 9 11 8 13 -36 0
21 6 16 19 15 -17 0
21 6 16 19 15 -22 0
21 6 16 19 15 -18 0
21 6 16 19 15 -20 0
21 6 5 4 2 -17 0
21 6 5 4 2 -22 0
21 6 5 4 2 -18 0
21 6 5 4 2 -20 0
21 16 23 19 15 -46 0
21 16 23 19 15 -43 0
21 16 23 19 15 -44 0
21 16 23 19 15 -45 0
21 16 11 19 15 -35 0
21 16 11 19 15 -33 0
21 16 11 19 15 -34 0
21 16 11 19 15 -36 0
21 16 5 19 15 -17 0
21 16 5 19 15 -22 0
21 16 5 19 15 -18 0
21 16 5 19 15 -20 0
21 16 19 25 15 -46 0
21 16 19 25 15 -43 0
21 16 19 25 15 -44 0
21 16 19 25 15 -45 0
21 16 19 8 15 -35 0
21 16 19 8 15 -33 0
21 16 19 8 15 -34 0
21 16 19 8 15 -36 0
21 16 19 4 15 -17 0
21 16 19 4 15 -22 0
21 16 19 4 15 -18 0
21 16 19 4 15 -20 0
21 16 19 15 29 -46 0
21 16 19 15 29 -43 0
21 16 19 15 29 -44 0
21 16 19 15 29 -45 0
21 16 19 15 13 -35 0
21 16 19 15 13 -33 0
21 16 19 15 13 -34 0
21 16 19 15 13 -36 0
21 16 19 15 2 -17 0
21 16 19 15 2 -22 0
21 16 19 15 2 -18 0
21 16 19 15 2 -20 0
24 9 23 25 29 -39 0
24 9 23 25 29 -40 0
24 9 23 25 29 -38 0
24 9 23 25 29 -37 0
24 9 11 8 13 -39 0
24 9 11 8 13 -40 0
24 9 11 8 13 -38 0
24 9 11 8 13 -37 0
24 6 23 25 29 -26 0
24 6 23 25 29 -27 0
24 6 23 25 29 -28 0
24 6 23 25 29 -30 0
24 6 5 4 2 -26 0
24 6 5 4 2 -27 0
24 6 5 4 2 -28 0
24 6 5 4 2 -30 0
24 16 23 25 29 -46 0
24 16 23 25 29 -43 0
24 16 23 25 29 -44 0
24 16 23 25 29 -45 0
24 23 11 25 29 -39 0
24 23 11 25 29 -40 0
24 23 11 25 29 -38 0
24 23 11 25 29 -37 0
24 23 5 25 29 -26 0
24 23 5 25 29 -27 0
24 23 5 25 29 -28 0
24 23 5 25 29 -30 0
24 23 19 25 29 -46 0
24 23 19 25 29 -43 0
24 23 19 25 29 -44 0
24 23 19 25 29 -45 0
24 23 25 8 29 -39 0
24 23 25 8 29 -40 0
24 23 25 8 29 -38 0
24 23 25 8 29 -37 0
24 23 25 4 29 -26 0
24 23 25 4 29 -27 0
24 23 25 4 29 -28 0
24 23 25 4 29 -30 0
24 23 25 15 29 -46 0
24 23 25 15 29 -43 0
24 23 25 15 29 -44 0
24 23 25 15 29 -45 0
24 23 25 29 13 -39 0
24 23 25 29 13 -40 0
24 23 25 29 13 -38 0
24 23 25 29 13 -37 0
24 23 25 29 2 -26 0
24 23 25 29 2 -27 0
24 23 25 29 2 -28 0
24 23 25 29 2 -30 0
9 6 11 8 13 -14 0
9 6 11 8 13 -12 0
9 6 11 8 13 -10 0
9 6 11 8 13 -7 0
9 6 5 4 2 -14 0
9 6 5 4 2 -12 0
9 6 5 4 2 -10 0
9 6 5 4 2 -7 0
9 16 11 8 13 -35 0
9 16 11 8 13 -33 0
9 16 11 8 13 -34 0
9 16 11 8 13 -36 0
9 23 11 8 13 -39 0
9 23 11 8 13 -40 0
9 23 11 8 13 -38 0
9 23 11 8 13 -37 0
9 11 5 8 13 -14 0
9 11 5 8 13 -12 0
9 11 5 8 13 -10 0
9 11 5 8 13 -7 0
9 11 19 8 13 -35 0
9 11 19 8 13 -33 0
9 11 19 8 13 -34 0
9 11 19 8 13 -36 0
9 11 25 8 13 -39 0
9 11 25 8 13 -40 0
9 11 25 8 13 -38 0
9 11 25 8 13 -37 0
9 11 8 4 13 -14 0
9 11 8 4 13 -12 0
9 11 8 4 13 -10 0
9 11 8 4 13 -7 0
9 11 8 15 13 -35 0
9 11 8 15 13 -33 0
9 11 8 15 13 -34 0
9 11 8 15 13 -36 0
9 11 8 29 13 -39 0
9 11 8 29 13 -40 0
9 11 8 29 13 -38 0
9 11 8 29 13 -37 0
9 11 8 13 2 -14 0
9 11 8 13 2 -12 0
9 11 8 13 2 -10 0
9 11 8 13 2 -7 0
6 16 5 4 2 -17 0
6 16 5 4 2 -22 0
6 16 5 4 2 -18 0
6 16 5 4 2 -20 0
6 23 5 4 2 -26 0
6 23 5 4 2 -27 0
6 23 5 4 2 -28 0
6 23 5 4 2 -30 0
6 11 5 4 2 -14 0
6 11 5 4 2 -12 0
6 11 5 4 2 -10 0
6 11 5 4 2 -7 0
6 5 19 4 2 -17 0
6 5 19 4 2 -22 0
6 5 19 4 2 -18 0
6 5 19 4 2 -20 0
6 5 25 4 2 -26 0
6 5 25 4 2 -27 0
6 5 25 4 2 -28 0
6 5 25 4 2 -30 0
6 5 8 4 2 -14 0
6 5 8 4 2 -12 0
6 5 8 4 2 -10 0
6 5 8 4 2 -7 0
6 5 4 15 2 -17 0
6 5 4 15 2 -22 0
6 5 4 15 2 -18 0
6 5 4 15 2 -20 0
6 5 4 29 2 -26 0
6 5 4 29 2 -27 0
6 5 4 29 2 -28 0
6 5 4 29 2 -30 0
6 5 4 13 2 -14 0
6 5 4 13 2 -12 0
6 5 4 13 2 -10 0
6 5 4 13 2 -7 0
21 24 16 23 19 25 -46 0
21 24 16 23 19 25 -43 0
21 24 16 23 19 25 -44 0
21 24 16 23 19 25 -45 0
21 24 16 23 19 15 -46 0
21 24 16 23 19 15 -43 0
21 24 16 23 19 15 -44 0
21 24 16 23 19 15 -45 0
21 24 16 23 25 29 -46 0
21 24 16 23 25 29 -43 0
21 24 16 23 25 29 -44 0
21 24 16 23 25 29 -45 0
21 24 16 23 15 29 -46 0
21 24 16 23 15 29 -43 0
21 24 16 23 15 29 -44 0
21 24 16 23 15 29 -45 0
21 24 16 19 25 15 -46 0
21 24 16 19 25 15 -43 0
21 24 16 19 25 15 -44 0
21 24 16 19 25 15 -45 0
21 24 16 19 15 29 -46 0
21 24 16 19 15 29 -43 0
21 24 16 19 15 29 -44 0
21 24 16 19 15 29 -45 0
21 24 23 19 25 29 -46 0
21 24 23 19 25 29 -43 0
21 24 23 19 25 29 -44 0
21 24 23 19 25 29 -45 0
21 24 23 25 15 29 -46 0
21 24 23 25 15 29 -43 0
21 24 23 25 15 29 -44 0
21 24 23 25 15 29 -45 0
21 24 19 25 15 29 -46 0
21 24 19 25 15 29 -43 0
21 24 19 25 15 29 -44 0
21 24 19 25 15 29 -45 0
21 9 16 11 19 8 -35 0
21 9 16 11 19 8 -33 0
21 9 16 11 19 8 -34 0
21 9 16 11 19 8 -36 0
21 9 16 11 19 15 -35 0
21 9 16 11 19 15 -33 0
21 9 16 11 19 15 -34 0
21 9 16 11 19 15 -36 0
21 9 16 11 8 13 -35 0
21 9 16 11 8 13 -33 0
21 9 16 11 8 13 -34 0
21 9 16 11 8 13 -36 0
21 9 16 11 15 13 -35 0
21 9 16 11 15 13 -33 0
21 9 16 11 15 13 -34 0
21 9 16 11 15 13 -36 0
21 9 16 19 8 15 -35 0
21 9 16 19 8 15 -33 0
21 9 16 19 8 15 -34 0
21 9 16 19 8 15 -36 0
21 9 16 19 15 13 -35 0
21 9 16 19 15 13 -33 0
21 9 16 19 15 13 -34 0
21 9 16 19 15 13 -36 0
21 9 11 19 8 13 -35 0
21 9 11 19 8 13 -33 0
21 9 11 19 8 13 -34 0
21 9 11 19 8 13 -36 0
21 9 11 8 15 13 -35 0
21 9 11 8 15 13 -33 0
21 9 11 8 15 13 -34 0
21 9 11 8 15 13 -36 0
21 9 19 8 15 13 -35 0
21 9 19 8 15 13 -33 0
21 9 19 8 15 13 -34 0
21 9 19 8 15 13 -36 0
21 6 16 5 19 4 -17 0
21 6 16 5 19 4 -22 0
21 6 16 5 19 4 -18 0
21 6 16 5 19 4 -20 0
21 6 16 5 19 15 -17 0
21 6 16 5 19 15 -22 0
21 6 16 5 19 15 -18 0
21 6 16 5 19 15 -20 0
21 6 16 5 4 2 -17 0
21 6 16 5 4 2 -22 0
21 6 16 5 4 2 -18 0
21 6 16 5 4 2 -20 0
21 6 16 5 15 2 -17 0
21 6 16 5 15 2 -22 0
21 6 16 5 15 2 -18 0
21 6 16 5 15 2 -20 0
21 6 16 19 4 15 -17 0
21 6 16 19 4 15 -22 0
21 6 16 19 4 15 -18 0
21 6 16 19 4 15 -20 0
21 6 16 19 15 2 -17 0
21 6 16 19 15 2 -22 0
21 6 16 19 15 2 -18 0
21 6 16 19 15 2 -20 0
21 6 5 19 4 2 -17 0
21 6 5 19 4 2 -22 0
21 6 5 19 4 2 -18 0
21 6 5 19 4 2 -20 0
21 6 5 4 15 2 -17 0
21 6 5 4 15 2 -22 0
21 6 5 4 15 2 -18 0
21 6 5 4 15 2 -20 0
21 6 19 4 15 2 -17 0
21 6 19 4 15 2 -22 0
21 6 19 4 15 2 -18 0
21 6 19 4 15 2 -20 0
21 16 23 19 25 15 -46 0
21 16 23 19 25 15 -43 0
21 16 23 19 25 15 -44 0
21 16 23 19 25 15 -45 0
21 16 23 19 15 29 -46 0
21 16 23 19 15 29 -43 0
21 16 23 19 15 29 -44 0
21 16 23 19 15 29 -45 0
21 16 11 19 8 15 -35 0
21 16 11 19 8 15 -33 0
21 16 11 19 8 15 -34 0
21 16 11 19 8 15 -36 0
21 16 11 19 15 13 -35 0
21 16 11 19 15 13 -33 0
21 16 11 19 15 13 -34 0
21 16 11 19 15 13 -36 0
21 16 5 19 4 15 -17 0
21 16 5 19 4 15 -22 0
21 16 5 19 4 15 -18 0
21 16 5 19 4 15 -20 0
21 16 5 19 15 2 -17 0
21 16 5 19 15 2 -22 0
21 16 5 19 15 2 -18 0
21 16 5 19 15 2 -20 0
21 16 19 25 15 29 -46 0
21 16 19 25 15 29 -43 0
21 16 19 25 15 29 -44 0
21 16 19 25 15 29 -45 0
21 16 19 8 15 13 -35 0
21 16 19 8 15 13 -33 0
21 16 19 8 15 13 -34 0
21 16 19 8 15 13 -36 0
21 16 19 4 15 2 -17 0
21 16 19 4 15 2 -22 0
21 16 19 4 15 2 -18 0
21 16 19 4 15 2 -20 0
24 9 23 11 25 8 -39 0
24 9 23 11 25 8 -40 0
24 9 23 11 25 8 -38 0
24 9 23 11 25 8 -37 0
24 9 23 11 25 29 -39 0
24 9 23 11 25 29 -40 0
24 9 23 11 25 29 -38 0
24 9 23 11 25 29 -37 0
24 9 23 11 8 13 -39 0
24 9 23 11 8 13 -40 0
24 9 23 11 8 13 -38 0
24 9 23 11 8 13 -37 0
24 9 23 11 29 13 -39 0
24 9 23 11 29 13 -40 0
24 9 23 11 29 13 -38 0
24 9 23 11 29 13 -37 0
24 9 23 25 8 29 -39 0
24 9 23 25 8 29 -40 0
24 9 23 25 8 29 -38 0
24 9 23 25 8 29 -37 0
24 9 23 25 29 13 -39 0
24 9 23 25 29 13 -40 0
24 9 23 25 29 13 -38 0
24 9 23 25 29 13 -37 0
24 9 11 25 8 13 -39 0
24 9 11 25 8 13 -40 0
24 9 11 25 8 13 -38 0
24 9 11 25 8 13 -37 0
24 9 11 8 29 13 -39 0
24 9 11 8 29 13 -40 0
24 9 11 8 29 13 -38 0
24 9 11 8 29 13 -37 0
24 9 25 8 29 13 -39 0
24 9 25 8 29 13 -40 0
24 9 25 8 29 13 -38 0
24 9 25 8 29 13 -37 0
24 6 23 5 25 4 -26 0
24 6 23 5 25 4 -27 0
24 6 23 5 25 4 -28 0
24 6 23 5 25 4 -30 0
24 6 23 5 25 29 -26 0
24 6 23 5 25 29 -27 0
24 6 23 5 25 29 -28 0
24 6 23 5 25 29 -30 0
24 6 23 5 4 2 -26 0
24 6 23 5 4 2 -27 0
24 6 23 5 4 2 -28 0
24 6 23 5 4 2 -30 0
24 6 23 5 29 2 -26 0
24 6 23 5 29 2 -27 0
24 6 23 5 29 2 -28 0
24 6 23 5 29 2 -30 0
24 6 23 25 4 29 -26 0
24 6 23 25 4 29 -27 0
24 6 23 25 4 29 -28 0
24 6 23 25 4 29 -30 0
24 6 23 25 29 2 -26 0
24 6 23 25 29 2 -27 0
24 6 23 25 29 2 -28 0
24 6 23 25 29 2 -30 0
24 6 5 25 4 2 -26 0
24 6 5 25 4 2 -27 0
24 6 5 25 4 2 -28 0
24 6 5 25 4 2 -30 0
24 6 5 4 29 2 -26 0
24 6 5 4 29 2 -27 0
24 6 5 4 29 2 -28 0
24 6 5 4 29 2 -30 0
24 6 25 4 29 2 -26 0
24 6 25 4 29 2 -27 0
24 6 25 4 29 2 -28 0
24 6 25 4 29 2 -30 0
24 16 23 19 25 29 -46 0
24 16 23 19 25 29 -43 0
24 16 23 19 25 29 -44 0
24 16 23 19 25 29 -45 0
24 16 23 25 15 29 -46 0
24 16 23 25 15 29 -43 0
24 16 23 25 15 29 -44 0
24 16 23 25 15 29 -45 0
24 23 11 25 8 29 -39 0
24 23 11 25 8 29 -40 0
24 23 11 25 8 29 -38 0
24 23 11 25 8 29 -37 0
24 23 11 25 29 13 -39 0
24 23 11 25 29 13 -40 0
24 23 11 25 29 13 -38 0
24 23 11 25 29 13 -37 0
24 23 5 25 4 29 -26 0
24 23 5 25 4 29 -27 0
24 23 5 25 4 29 -28 0
24 23 5 25 4 29 -30 0
24 23 5 25 29 2 -26 0
24 23 5 25 29 2 -27 0
24 23 5 25 29 2 -28 0
24 23 5 25 29 2 -30 0
24 23 19 25 15 29 -46 0
24 23 19 25 15 29 -43 0
24 23 19 25 15 29 -44 0
24 23 19 25 15 29 -45 0
24 23 25 8 29 13 -39 0
24 23 25 8 29 13 -40 0
24 23 25 8 29 13 -38 0
24 23 25 8 29 13 -37 0
24 23 25 4 29 2 -26 0
24 23 25 4 29 2 -27 0
24 23 25 4 29 2 -28 0
24 23 25 4 29 2 -30 0
9 6 11 5 8 4 -14 0
9 6 11 5 8 4 -12 0
9 6 11 5 8 4 -10 0
9 6 11 5 8 4 -7 0
9 6 11 5 8 13 -14 0
9 6 11 5 8 13 -12 0
9 6 11 5 8 13 -10 0
9 6 11 5 8 13 -7 0
9 6 11 5 4 2 -14 0
9 6 11 5 4 2 -12 0
9 6 11 5 4 2 -10 0
9 6 11 5 4 2 -7 0
9 6 11 5 13 2 -14 0
9 6 11 5 13 2 -12 0
9 6 11 5 13 2 -10 0
9 6 11 5 13 2 -7 0
9 6 11 8 4 13 -14 0
9 6 11 8 4 13 -12 0
9 6 11 8 4 13 -10 0
9 6 11 8 4 13 -7 0
9 6 11 8 13 2 -14 0
9 6 11 8 13 2 -12 0
9 6 11 8 13 2 -10 0
9 6 11 8 13 2 -7 0
9 6 5 8 4 2 -14 0
9 6 5 8 4 2 -12 0
9 6 5 8 4 2 -10 0
9 6 5 8 4 2 -7 0
9 6 5 4 13 2 -14 0
9 6 5 4 13 2 -12 0
9 6 5 4 13 2 -10 0
9 6 5 4 13 2 -7 0
9 6 8 4 13 2 -14 0
9 6 8 4 13 2 -12 0
9 6 8 4 13 2 -10 0
9 6 8 4 13 2 -7 0
9 16 11 19 8 13 -35 0
9 16 11 19 8 13 -33 0
9 16 11 19 8 13 -34 0
9 16 11 19 8 13 -36 0
9 16 11 8 15 13 -35 0
9 16 11 8 15 13 -33 0
9 16 11 8 15 13 -34 0
9 16 11 8 15 13 -36 0
9 23 11 25 8 13 -39 0
9 23 11 25 8 13 -40 0
9 23 11 25 8 13 -38 0
9 23 11 25 8 13 -37 0
9 23 11 8 29 13 -39 0
9 23 11 8 29 13 -40 0
9 23 11 8 29 13 -38 0
9 23 11 8 29 13 -37 0
9 11 5 8 4 13 -14 0
9 11 5 8 4 13 -12 0
9 11 5 8 4 13 -10 0
9 11 5 8 4 13 -7 0
9 11 5 8 13 2 -14 0
9 11 5 8 13 2 -12 0
9 11 5 8 13 2 -10 0
9 11 5 8 13 2 -7 0
9 11 19 8 15 13 -35 0
9 11 19 8 15 13 -33 0
9 11 19 8 15 13 -34 0
9 11 19 8 15 13 -36 0
9 11 25 8 29 13 -39 0
9 11 25 8 29 13 -40 0
9 11 25 8 29 13 -38 0
9 11 25 8 29 13 -37 0
9 11 8 4 13 2 -14 0
9 11 8 4 13 2 -12 0
9 11 8 4 13 2 -10 0
9 11 8 4 13 2 -7 0
6 16 5 19 4 2 -17 0
6 16 5 19 4 2 -22 0
6 16 5 19 4 2 -18 0
6 16 5 19 4 2 -20 0
6 16 5 4 15 2 -17 0
6 16 5 4 15 2 -22 0
6 16 5 4 15 2 -18 0
6 16 5 4 15 2 -20 0
6 23 5 25 4 2 -26 0
6 23 5 25 4 2 -27 0
6 23 5 25 4 2 -28 0
6 23 5 25 4 2 -30 0
6 23 5 4 29 2 -26 0
6 23 5 4 29 2 -27 0
6 23 5 4 29 2 -28 0
6 23 5 4 29 2 -30 0
6 11 5 8 4 2 -14 0
6 11 5 8 4 2 -12 0
6 11 5 8 4 2 -10 0
6 11 5 8 4 2 -7 0
6 11 5 4 13 2 -14 0
6 11 5 4 13 2 -12 0
6 11 5 4 13 2 -10 0
6 11 5 4 13 2 -7 0
6 5 19 4 15 2 -17 0
6 5 19 4 15 2 -22 0
6 5 19 4 15 2 -18 0
6 5 19 4 15 2 -20 0
6 5 25 4 29 2 -26 0
6 5 25 4 29 2 -27 0
6 5 25 4 29 2 -28 0
6 5 25 4 29 2 -30 0
6 5 8 4 13 2 -14 0
6 5 8 4 13 2 -12 0
6 5 8 4 13 2 -10 0
6 5 8 4 13 2 -7 0
16 23 19 25 15 29 -46 0
16 23 19 25 15 29 -43 0
16 23 19 25 15 29 -44 0
16 23 19 25 15 29 -45 0
16 11 19 8 15 13 -35 0
16 11 19 8 15 13 -33 0
16 11 19 8 15 13 -34 0
16 11 19 8 15 13 -36 0
16 5 19 4 15 2 -17 0
16 5 19 4 15 2 -22 0
16 5 19 4 15 2 -18 0
16 5 19 4 15 2 -20 0
23 11 25 8 29 13 -39 0
23 11 25 8 29 13 -40 0
23 11 25 8 29 13 -38 0
23 11 25 8 29 13 -37 0
23 5 25 4 29 2 -26 0
23 5 25 4 29 2 -27 0
23 5 25 4 29 2 -28 0
23 5 25 4 29 2 -30 0
11 5 8 4 13 2 -14 0
11 5 8 4 13 2 -12 0
11 5 8 4 13 2 -10 0
11 5 8 4 13 2 -7 0
21 24 16 23 19 25 15 -46 0
21 24 16 23 19 25 15 -43 0
21 24 16 23 19 25 15 -44 0
21 24 16 23 19 25 15 -45 0
21 24 16 23 19 25 29 -46 0
21 24 16 23 19 25 29 -43 0
21 24 16 23 19 25 29 -44 0
21 24 16 23 19 25 29 -45 0
21 24 16 23 19 15 29 -46 0
21 24 16 23 19 15 29 -43 0
21 24 16 23 19 15 29 -44 0
21 24 16 23 19 15 29 -45 0
21 24 16 23 25 15 29 -46 0
21 24 16 23 25 15 29 -43 0
21 24 16 23 25 15 29 -44 0
21 24 16 23 25 15 29 -45 0
21 24 16 19 25 15 29 -46 0
21 24 16 19 25 15 29 -43 0
21 24 16 19 25 15 29 -44 0
21 24 16 19 25 15 29 -45 0
21 24 23 19 25 15 29 -46 0
21 24 23 19 25 15 29 -43 0
21 24 23 19 25 15 29 -44 0
21 24 23 19 25 15 29 -45 0
21 9 16 11 19 8 15 -35 0
21 9 16 11 19 8 15 -33 0
21 9 16 11 19 8 15 -34 0
21 9 16 11 19 8 15 -36 0
21 9 16 11 19 8 13 -35 0
21 9 16 11 19 8 13 -33 0
21 9 16 11 19 8 13 -34 0
21 9 16 11 19 8 13 -36 0
21 9 16 11 19 15 13 -35 0
21 9 16 11 19 15 13 -33 0
21 9 16 11 19 15 13 -34 0
21 9 16 11 19 15 13 -36 0
21 9 16 11 8 15 13 -35 0
21 9 16 11 8 15 13 -33 0
21 9 16 11 8 15 13 -34 0
21 9 16 11 8 15 13 -36 0
21 9 16 19 8 15 13 -35 0
21 9 16 19 8 15 13 -33 0
21 9 16 19 8 15 13 -34 0
21 9 16 19 8 15 13 -36 0
21 9 11 19 8 15 13 -35 0
21 9 11 19 8 15 13 -33 0
21 9 11 19 8 15 13 -34 0
21 9 11 19 8 15 13 -36 0
21 6 16 5 19 4 15 -17 0
21 6 16 5 19 4 15 -22 0
21 6 16 5 19 4 15 -18 0
21 6 16 5 19 4 15 -20 0
21 6 16 5 19 4 2 -17 0
21 6 16 5 19 4 2 -22 0
21 6 16 5 19 4 2 -18 0
21 6 16 5 19 4 2 -20 0
21 6 16 5 19 15 2 -17 0
21 6 16 5 19 15 2 -22 0
21 6 16 5 19 15 2 -18 0
21 6 16 5 19 15 2 -20 0
21 6 16 5 4 15 2 -17 0
21 6 16 5 4 15 2 -22 0
21 6 16 5 4 15 2 -18 0
21 6 16 5 4 15 2 -20 0
21 6 16 19 4 15 2 -17 0
21 6 16 19 4 15 2 -22 0
21 6 16 19 4 15 2 -18 0
21 6 16 19 4 15 2 -20 0
21 6 5 19 4 15 2 -17 0
21 6 5 19 4 15 2 -22 0
21 6 5 19 4 15 2 -18 0
21 6 5 19 4 15 2 -20 0
21 16 23 19 25 15 29 -46 0
21 16 23 19 25 15 29 -43 0
21 16 23 19 25 15 29 -44 0
21 16 23 19 25 15 29 -45 0
21 16 11 19 8 15 13 -35 0
21 16 11 19 8 15 13 -33 0
21 16 11 19 8 15 13 -34 0
21 16 11 19 8 15 13 -36 0
21 16 5 19 4 15 2 -17 0
21 16 5 19 4 15 2 -22 0
21 16 5 19 4 15 2 -18 0
21 16 5 19 4 15 2 -20 0
24 9 23 11 25 8 29 -39 0
24 9 23 11 25 8 29 -40 0
24 9 23 11 25 8 29 -38 0
24 9 23 11 25 8 29 -37 0
24 9 23 11 25 8 13 -39 0
24 9 23 11 25 8 13 -40 0
24 9 23 11 25 8 13 -38 0
24 9 23 11 25 8 13 -37 0
24 9 23 11 25 29 13 -39 0
24 9 23 11 25 29 13 -40 0
24 9 23 11 25 29 13 -38 0
24 9 23 11 25 29 13 -37 0
24 9 23 11 8 29 13 -39 0
24 9 23 11 8 29 13 -40 0
24 9 23 11 8 29 13 -38 0
24 9 23 11 8 29 13 -37 0
24 9 23 25 8 29 13 -39 0
24 9 23 25 8 29 13 -40 0
24 9 23 25 8 29 13 -38 0
24 9 23 25 8 29 13 -37 0
24 9 11 25 8 29 13 -39 0
24 9 11 25 8 29 13 -40 0
24 9 11 25 8 29 13 -38 0
24 9 11 25 8 29 13 -37 0
24 6 23 5 25 4 29 -26 0
24 6 23 5 25 4 29 -27 0
24 6 23 5 25 4 29 -28 0
24 6 23 5 25 4 29 -30 0
24 6 23 5 25 4 2 -26 0
24 6 23 5 25 4 2 -27 0
24 6 23 5 25 4 2 -28 0
24 6 23 5 25 4 2 -30 0
24 6 23 5 25 29 2 -26 0
24 6 23 5 25 29 2 -27 0
24 6 23 5 25 29 2 -28 0
24 6 23 5 25 29 2 -30 0
24 6 23 5 4 29 2 -26 0
24 6 23 5 4 29 2 -27 0
24 6 23 5 4 29 2 -28 0
24 6 23 5 4 29 2 -30 0
24 6 23 25 4 29 2 -26 0
24 6 23 25 4 29 2 -27 0
24 6 23 25 4 29 2 -28 0
24 6 23 25 4 29 2 -30 0
24 6 5 25 4 29 2 -26 0
24 6 5 25 4 29 2 -27 0
24 6 5 25 4 29 2 -28 0
24 6 5 25 4 29 2 -30 0
24 16 23 19 25 15 29 -46 0
24 16 23 19 25 15 29 -43 0
24 16 23 19 25 15 29 -44 0
24 16 23 19 25 15 29 -45 0
24 23 11 25 8 29 13 -39 0
24 23 11 25 8 29 13 -40 0
24 23 11 25 8 29 13 -38 0
24 23 11 25 8 29 13 -37 0
24 23 5 25 4 29 2 -26 0
24 23 5 25 4 29 2 -27 0
24 23 5 25 4 29 2 -28 0
24 23 5 25 4 29 2 -30 0
9 6 11 5 8 4 13 -14 0
9 6 11 5 8 4 13 -12 0
9 6 11 5 8 4 13 -10 0
9 6 11 5 8 4 13 -7 0
9 6 11 5 8 4 2 -14 0
9 6 11 5 8 4 2 -12 0
9 6 11 5 8 4 2 -10 0
9 6 11 5 8 4 2 -7 0
9 6 11 5 8 13 2 -14 0
9 6 11 5 8 13 2 -12 0
9 6 11 5 8 13 2 -10 0
9 6 11 5 8 13 2 -7 0
9 6 11 5 4 13 2 -14 0
9 6 11 5 4 13 2 -12 0
9 6 11 5 4 13 2 -10 0
9 6 11 5 4 13 2 -7 0
9 6 11 8 4 13 2 -14 0
9 6 11 8 4 13 2 -12 0
9 6 11 8 4 13 2 -10 0
9 6 11 8 4 13 2 -7 0
9 6 5 8 4 13 2 -14 0
9 6 5 8 4 13 2 -12 0
9 6 5 8 4 13 2 -10 0
9 6 5 8 4 13 2 -7 0
9 16 11 19 8 15 13 -35 0
9 16 11 19 8 15 13 -33 0
9 16 11 19 8 15 13 -34 0
9 16 11 19 8 15 13 -36 0
9 23 11 25 8 29 13 -39 0
9 23 11 25 8 29 13 -40 0
9 23 11 25 8 29 13 -38 0
9 23 11 25 8 29 13 -37 0
9 11 5 8 4 13 2 -14 0
9 11 5 8 4 13 2 -12 0
9 11 5 8 4 13 2 -10 0
9 11 5 8 4 13 2 -7 0
6 16 5 19 4 15 2 -17 0
6 16 5 19 4 15 2 -22 0
6 16 5 19 4 15 2 -18 0
6 16 5 19 4 15 2 -20 0
6 23 5 25 4 29 2 -26 0
6 23 5 25 4 29 2 -27 0
6 23 5 25 4 29 2 -28 0
6 23 5 25 4 29 2 -30 0
6 11 5 8 4 13 2 -14 0
6 11 5 8 4 13 2 -12 0
6 11 5 8 4 13 2 -10 0
6 11 5 8 4 13 2 -7 0
21 24 16 23 19 25 15 29 -46 0
21 24 16 23 19 25 15 29 -43 0
21 24 16 23 19 25 15 29 -44 0
21 24 16 23 19 25 15 29 -45 0
21 9 16 11 19 8 15 13 -35 0
21 9 16 11 19 8 15 13 -33 0
21 9 16 11 19 8 15 13 -34 0
21 9 16 11 19 8 15 13 -36 0
21 6 16 5 19 4 15 2 -17 0
21 6 16 5 19 4 15 2 -22 0
21 6 16 5 19 4 15 2 -18 0
21 6 16 5 19 4 15 2 -20 0
24 9 23 11 25 8 29 13 -39 0
24 9 23 11 25 8 29 13 -40 0
24 9 23 11 25 8 29 13 -38 0
24 9 23 11 25 8 29 13 -37 0
24 6 23 5 25 4 29 2 -26 0
24 6 23 5 25 4 29 2 -27 0
24 6 23 5 25 4 29 2 -28 0
24 6 23 5 25 4 29 2 -30 0
9 6 11 5 8 4 13 2 -14 0
9 6 11 5 8 4 13 2 -12 0
9 6 11 5 8 4 13 2 -10 0
9 6 11 5 8 4 13 2 -7 0
