c U2(3) U4(3) U3(3) U1(3) E1(3,3) E2(3,3) E2(3,4) U4(4) U3(4) E1(3,4) E2(4,3) U1(4) E1(4,3) U2(4) E1(3,0) U1(0) U2(0) E2(0,3) E2(3,0) U4(0) U3(0) E1(0,3) E2(3,1) E1(1,3) E2(1,3) U4(1) E1(3,1) U1(1) U2(1) U3(1) E2(3,2) E1(2,3) E2(2,3) U4(2) E1(3,2) U1(2) U2(2) U3(2) E1(4,4) E2(4,4) E2(4,0) E1(0,4) E2(0,4) E1(4,0) E2(1,4) E1(1,4) E1(4,1) E2(4,1) E2(2,4) E2(4,2) E1(2,4) E1(4,2) E1(0,0) E2(0,0) E1(0,1) E2(0,1) E1(1,0) E2(1,0) E2(2,0) E2(0,2) E1(0,2) E1(2,0) E2(1,1) E1(1,1) E1(2,1) E2(2,1) E1(1,2) E2(1,2) E1(2,2) E2(2,2)
c 1 2 3 4 5 6 7 8 9 10 11 12 13 14 15 16 17 18 19 20 21 22 23 24 25 26 27 28 29 30 31 32 33 34 35 36 37 38 39 40 41 42 43 44 45 46 47 48 49 50 51 52 53 54 55 56 57 58 59 60 61 62 63 64 65 66 67 68 69 70
p cnf 70 1545
53 -53 0
55 -57 0
61 -62 0
22 -15 0
42 -44 0
57 -55 0
64 -64 0
67 -65 0
24 -27 0
46 -47 0
62 -61 0
65 -67 0
69 -69 0
32 -35 0
51 -52 0
15 -22 0
27 -24 0
35 -32 0
5 -5 0
10 -13 0
44 -42 0
47 -46 0
52 -51 0
13 -10 0
39 -39 0
54 -54 0
56 -58 0
60 -59 0
18 -19 0
43 -41 0
58 -56 0
63 -63 0
68 -66 0
25 -23 0
45 -48 0
59 -60 0
66 -68 0
70 -70 0
33 -31 0
49 -50 0
19 -18 0
23 -25 0
31 -33 0
6 -6 0
7 -11 0
41 -43 0
48 -45 0
50 -49 0
11 -7 0
40 -40 0
-16 -17 0
-16 -21 0
-16 -20 0
-28 -29 0
-28 -30 0
-28 -26 0
-36 -37 0
-36 -38 0
-36 -34 0
-4 -1 0
-4 -3 0
-4 -2 0
-12 -14 0
-12 -9 0
-12 -8 0
-17 -21 0
-17 -20 0
-29 -30 0
-29 -26 0
-37 -38 0
-37 -34 0
-1 -3 0
-1 -2 0
-14 -9 0
-14 -8 0
-21 -20 0
-30 -26 0
-38 -34 0
-3 -2 0
-9 -8 0
16 17 21 20 0
28 29 30 26 0
36 37 38 34 0
4 1 3 2 0
12 14 9 8 0
16 17 21 -53 0
16 17 21 -54 0
16 17 20 -53 0
16 17 20 -54 0
16 21 20 -53 0
16 21 20 -54 0
28 29 30 -64 0
28 29 30 -63 0
28 29 26 -64 0
28 29 26 -63 0
28 30 26 -64 0
28 30 26 -63 0
36 37 38 -69 0
36 37 38 -70 0
36 37 34 -69 0
36 37 34 -70 0
36 38 34 -69 0
36 38 34 -70 0
4 1 3 -5 0
4 1 3 -6 0
4 1 2 -5 0
4 1 2 -6 0
4 3 2 -5 0
4 3 2 -6 0
12 14 9 -39 0
12 14 9 -40 0
12 14 8 -39 0
12 14 8 -40 0
12 9 8 -39 0
12 9 8 -40 0
17 21 20 -53 0
17 21 20 -54 0
29 30 26 -64 0
29 30 26 -63 0
37 38 34 -69 0
37 38 34 -70 0
1 3 2 -5 0
1 3 2 -6 0
14 9 8 -39 0
14 9 8 -40 0
53 55 61 22 42 0
57 64 67 24 46 0
62 65 69 32 51 0
15 27 35 5 10 0
44 47 52 13 39 0
54 56 60 18 43 0
58 63 68 25 45 0
59 66 70 33 49 0
19 23 31 6 7 0
41 48 50 11 40 0
16 17 21 20 -53 0
16 17 21 20 -55 0
16 17 21 20 -61 0
16 17 21 20 -22 0
16 17 21 20 -42 0
16 17 21 20 -57 0
16 17 21 20 -62 0
16 17 21 20 -15 0
16 17 21 20 -44 0
16 17 21 20 -54 0
16 17 21 20 -56 0
16 17 21 20 -60 0
16 17 21 20 -18 0
16 17 21 20 -43 0
16 17 21 20 -58 0
16 17 21 20 -59 0
16 17 21 20 -19 0
16 17 21 20 -41 0
28 29 30 26 -55 0
28 29 30 26 -57 0
28 29 30 26 -64 0
28 29 30 26 -67 0
28 29 30 26 -24 0
28 29 30 26 -46 0
28 29 30 26 -65 0
28 29 30 26 -27 0
28 29 30 26 -47 0
28 29 30 26 -56 0
28 29 30 26 -58 0
28 29 30 26 -63 0
28 29 30 26 -68 0
28 29 30 26 -25 0
28 29 30 26 -45 0
28 29 30 26 -66 0
28 29 30 26 -23 0
28 29 30 26 -48 0
36 37 38 34 -61 0
36 37 38 34 -67 0
36 37 38 34 -62 0
36 37 38 34 -65 0
36 37 38 34 -69 0
36 37 38 34 -32 0
36 37 38 34 -51 0
36 37 38 34 -35 0
36 37 38 34 -52 0
36 37 38 34 -60 0
36 37 38 34 -68 0
36 37 38 34 -59 0
36 37 38 34 -66 0
36 37 38 34 -70 0
36 37 38 34 -33 0
36 37 38 34 -49 0
36 37 38 34 -31 0
36 37 38 34 -50 0
4 1 3 2 -22 0
4 1 3 2 -24 0
4 1 3 2 -32 0
4 1 3 2 -15 0
4 1 3 2 -27 0
4 1 3 2 -35 0
4 1 3 2 -5 0
4 1 3 2 -10 0
4 1 3 2 -13 0
4 1 3 2 -18 0
4 1 3 2 -25 0
4 1 3 2 -33 0
4 1 3 2 -19 0
4 1 3 2 -23 0
4 1 3 2 -31 0
4 1 3 2 -6 0
4 1 3 2 -7 0
4 1 3 2 -11 0
12 14 9 8 -42 0
12 14 9 8 -46 0
12 14 9 8 -51 0
12 14 9 8 -10 0
12 14 9 8 -44 0
12 14 9 8 -47 0
12 14 9 8 -52 0
12 14 9 8 -13 0
12 14 9 8 -39 0
12 14 9 8 -43 0
12 14 9 8 -45 0
12 14 9 8 -49 0
12 14 9 8 -7 0
12 14 9 8 -41 0
12 14 9 8 -48 0
12 14 9 8 -50 0
12 14 9 8 -11 0
12 14 9 8 -40 0
16 28 17 21 20 -55 0
16 28 17 21 20 -57 0
16 28 17 21 20 -56 0
16 28 17 21 20 -58 0
16 28 29 30 26 -55 0
16 28 29 30 26 -57 0
16 28 29 30 26 -56 0
16 28 29 30 26 -58 0
16 36 17 21 20 -61 0
16 36 17 21 20 -62 0
16 36 17 21 20 -60 0
16 36 17 21 20 -59 0
16 36 37 38 34 -61 0
16 36 37 38 34 -62 0
16 36 37 38 34 -60 0
16 36 37 38 34 -59 0
16 4 17 21 20 -22 0
16 4 17 21 20 -15 0
16 4 17 21 20 -18 0
16 4 17 21 20 -19 0
16 4 1 3 2 -22 0
16 4 1 3 2 -15 0
16 4 1 3 2 -18 0
16 4 1 3 2 -19 0
16 12 17 21 20 -42 0
16 12 17 21 20 -44 0
16 12 17 21 20 -43 0
16 12 17 21 20 -41 0
16 12 14 9 8 -42 0
16 12 14 9 8 -44 0
16 12 14 9 8 -43 0
16 12 14 9 8 -41 0
16 17 29 21 20 -55 0
16 17 29 21 20 -57 0
16 17 29 21 20 -56 0
16 17 29 21 20 -58 0
16 17 37 21 20 -61 0
16 17 37 21 20 -62 0
16 17 37 21 20 -60 0
16 17 37 21 20 -59 0
16 17 1 21 20 -22 0
16 17 1 21 20 -15 0
16 17 1 21 20 -18 0
16 17 1 21 20 -19 0
16 17 14 21 20 -42 0
16 17 14 21 20 -44 0
16 17 14 21 20 -43 0
16 17 14 21 20 -41 0
16 17 21 30 20 -55 0
16 17 21 30 20 -57 0
16 17 21 30 20 -56 0
16 17 21 30 20 -58 0
16 17 21 38 20 -61 0
16 17 21 38 20 -62 0
16 17 21 38 20 -60 0
16 17 21 38 20 -59 0
16 17 21 3 20 -22 0
16 17 21 3 20 -15 0
16 17 21 3 20 -18 0
16 17 21 3 20 -19 0
16 17 21 9 20 -42 0
16 17 21 9 20 -44 0
16 17 21 9 20 -43 0
16 17 21 9 20 -41 0
16 17 21 20 26 -55 0
16 17 21 20 26 -57 0
16 17 21 20 26 -56 0
16 17 21 20 26 -58 0
16 17 21 20 34 -61 0
16 17 21 20 34 -62 0
16 17 21 20 34 -60 0
16 17 21 20 34 -59 0
16 17 21 20 2 -22 0
16 17 21 20 2 -15 0
16 17 21 20 2 -18 0
16 17 21 20 2 -19 0
16 17 21 20 8 -42 0
16 17 21 20 8 -44 0
16 17 21 20 8 -43 0
16 17 21 20 8 -41 0
28 36 29 30 26 -67 0
28 36 29 30 26 -65 0
28 36 29 30 26 -68 0
28 36 29 30 26 -66 0
28 36 37 38 34 -67 0
28 36 37 38 34 -65 0
28 36 37 38 34 -68 0
28 36 37 38 34 -66 0
28 4 29 30 26 -24 0
28 4 29 30 26 -27 0
28 4 29 30 26 -25 0
28 4 29 30 26 -23 0
28 4 1 3 2 -24 0
28 4 1 3 2 -27 0
28 4 1 3 2 -25 0
28 4 1 3 2 -23 0
28 12 29 30 26 -46 0
28 12 29 30 26 -47 0
28 12 29 30 26 -45 0
28 12 29 30 26 -48 0
28 12 14 9 8 -46 0
28 12 14 9 8 -47 0
28 12 14 9 8 -45 0
28 12 14 9 8 -48 0
28 17 29 30 26 -55 0
28 17 29 30 26 -57 0
28 17 29 30 26 -56 0
28 17 29 30 26 -58 0
28 29 37 30 26 -67 0
28 29 37 30 26 -65 0
28 29 37 30 26 -68 0
28 29 37 30 26 -66 0
28 29 1 30 26 -24 0
28 29 1 30 26 -27 0
28 29 1 30 26 -25 0
28 29 1 30 26 -23 0
28 29 14 30 26 -46 0
28 29 14 30 26 -47 0
28 29 14 30 26 -45 0
28 29 14 30 26 -48 0
28 29 21 30 26 -55 0
28 29 21 30 26 -57 0
28 29 21 30 26 -56 0
28 29 21 30 26 -58 0
28 29 30 38 26 -67 0
28 29 30 38 26 -65 0
28 29 30 38 26 -68 0
28 29 30 38 26 -66 0
28 29 30 3 26 -24 0
28 29 30 3 26 -27 0
28 29 30 3 26 -25 0
28 29 30 3 26 -23 0
28 29 30 9 26 -46 0
28 29 30 9 26 -47 0
28 29 30 9 26 -45 0
28 29 30 9 26 -48 0
28 29 30 20 26 -55 0
28 29 30 20 26 -57 0
28 29 30 20 26 -56 0
28 29 30 20 26 -58 0
28 29 30 26 34 -67 0
28 29 30 26 34 -65 0
28 29 30 26 34 -68 0
28 29 30 26 34 -66 0
28 29 30 26 2 -24 0
28 29 30 26 2 -27 0
28 29 30 26 2 -25 0
28 29 30 26 2 -23 0
28 29 30 26 8 -46 0
28 29 30 26 8 -47 0
28 29 30 26 8 -45 0
28 29 30 26 8 -48 0
36 4 37 38 34 -32 0
36 4 37 38 34 -35 0
36 4 37 38 34 -33 0
36 4 37 38 34 -31 0
36 4 1 3 2 -32 0
36 4 1 3 2 -35 0
36 4 1 3 2 -33 0
36 4 1 3 2 -31 0
36 12 37 38 34 -51 0
36 12 37 38 34 -52 0
36 12 37 38 34 -49 0
36 12 37 38 34 -50 0
36 12 14 9 8 -51 0
36 12 14 9 8 -52 0
36 12 14 9 8 -49 0
36 12 14 9 8 -50 0
36 17 37 38 34 -61 0
36 17 37 38 34 -62 0
36 17 37 38 34 -60 0
36 17 37 38 34 -59 0
36 29 37 38 34 -67 0
36 29 37 38 34 -65 0
36 29 37 38 34 -68 0
36 29 37 38 34 -66 0
36 37 1 38 34 -32 0
36 37 1 38 34 -35 0
36 37 1 38 34 -33 0
36 37 1 38 34 -31 0
36 37 14 38 34 -51 0
36 37 14 38 34 -52 0
36 37 14 38 34 -49 0
36 37 14 38 34 -50 0
36 37 21 38 34 -61 0
36 37 21 38 34 -62 0
36 37 21 38 34 -60 0
36 37 21 38 34 -59 0
36 37 30 38 34 -67 0
36 37 30 38 34 -65 0
36 37 30 38 34 -68 0
36 37 30 38 34 -66 0
36 37 38 3 34 -32 0
36 37 38 3 34 -35 0
36 37 38 3 34 -33 0
36 37 38 3 34 -31 0
36 37 38 9 34 -51 0
36 37 38 9 34 -52 0
36 37 38 9 34 -49 0
36 37 38 9 34 -50 0
36 37 38 20 34 -61 0
36 37 38 20 34 -62 0
36 37 38 20 34 -60 0
36 37 38 20 34 -59 0
36 37 38 26 34 -67 0
36 37 38 26 34 -65 0
36 37 38 26 34 -68 0
36 37 38 26 34 -66 0
36 37 38 34 2 -32 0
36 37 38 34 2 -35 0
36 37 38 34 2 -33 0
36 37 38 34 2 -31 0
36 37 38 34 8 -51 0
36 37 38 34 8 -52 0
36 37 38 34 8 -49 0
36 37 38 34 8 -50 0
4 12 1 3 2 -10 0
4 12 1 3 2 -13 0
4 12 1 3 2 -7 0
4 12 1 3 2 -11 0
4 12 14 9 8 -10 0
4 12 14 9 8 -13 0
4 12 14 9 8 -7 0
4 12 14 9 8 -11 0
4 17 1 3 2 -22 0
4 17 1 3 2 -15 0
4 17 1 3 2 -18 0
4 17 1 3 2 -19 0
4 29 1 3 2 -24 0
4 29 1 3 2 -27 0
4 29 1 3 2 -25 0
4 29 1 3 2 -23 0
4 37 1 3 2 -32 0
4 37 1 3 2 -35 0
4 37 1 3 2 -33 0
4 37 1 3 2 -31 0
4 1 14 3 2 -10 0
4 1 14 3 2 -13 0
4 1 14 3 2 -7 0
4 1 14 3 2 -11 0
4 1 21 3 2 -22 0
4 1 21 3 2 -15 0
4 1 21 3 2 -18 0
4 1 21 3 2 -19 0
4 1 30 3 2 -24 0
4 1 30 3 2 -27 0
4 1 30 3 2 -25 0
4 1 30 3 2 -23 0
4 1 38 3 2 -32 0
4 1 38 3 2 -35 0
4 1 38 3 2 -33 0
4 1 38 3 2 -31 0
4 1 3 9 2 -10 0
4 1 3 9 2 -13 0
4 1 3 9 2 -7 0
4 1 3 9 2 -11 0
4 1 3 20 2 -22 0
4 1 3 20 2 -15 0
4 1 3 20 2 -18 0
4 1 3 20 2 -19 0
4 1 3 26 2 -24 0
4 1 3 26 2 -27 0
4 1 3 26 2 -25 0
4 1 3 26 2 -23 0
4 1 3 34 2 -32 0
4 1 3 34 2 -35 0
4 1 3 34 2 -33 0
4 1 3 34 2 -31 0
4 1 3 2 8 -10 0
4 1 3 2 8 -13 0
4 1 3 2 8 -7 0
4 1 3 2 8 -11 0
12 17 14 9 8 -42 0
12 17 14 9 8 -44 0
12 17 14 9 8 -43 0
12 17 14 9 8 -41 0
12 29 14 9 8 -46 0
12 29 14 9 8 -47 0
12 29 14 9 8 -45 0
12 29 14 9 8 -48 0
12 37 14 9 8 -51 0
12 37 14 9 8 -52 0
12 37 14 9 8 -49 0
12 37 14 9 8 -50 0
12 1 14 9 8 -10 0
12 1 14 9 8 -13 0
12 1 14 9 8 -7 0
12 1 14 9 8 -11 0
12 14 21 9 8 -42 0
12 14 21 9 8 -44 0
12 14 21 9 8 -43 0
12 14 21 9 8 -41 0
12 14 30 9 8 -46 0
12 14 30 9 8 -47 0
12 14 30 9 8 -45 0
12 14 30 9 8 -48 0
12 14 38 9 8 -51 0
12 14 38 9 8 -52 0
12 14 38 9 8 -49 0
12 14 38 9 8 -50 0
12 14 3 9 8 -10 0
12 14 3 9 8 -13 0
12 14 3 9 8 -7 0
12 14 3 9 8 -11 0
12 14 9 20 8 -42 0
12 14 9 20 8 -44 0
12 14 9 20 8 -43 0
12 14 9 20 8 -41 0
12 14 9 26 8 -46 0
12 14 9 26 8 -47 0
12 14 9 26 8 -45 0
12 14 9 26 8 -48 0
12 14 9 34 8 -51 0
12 14 9 34 8 -52 0
12 14 9 34 8 -49 0
12 14 9 34 8 -50 0
12 14 9 2 8 -10 0
12 14 9 2 8 -13 0
12 14 9 2 8 -7 0
12 14 9 2 8 -11 0
16 28 17 29 21 30 -55 0
16 28 17 29 21 30 -57 0
16 28 17 29 21 30 -56 0
16 28 17 29 21 30 -58 0
16 28 17 29 21 20 -55 0
16 28 17 29 21 20 -57 0
16 28 17 29 21 20 -56 0
16 28 17 29 21 20 -58 0
16 28 17 29 30 26 -55 0
16 28 17 29 30 26 -57 0
16 28 17 29 30 26 -56 0
16 28 17 29 30 26 -58 0
16 28 17 29 20 26 -55 0
16 28 17 29 20 26 -57 0
16 28 17 29 20 26 -56 0
16 28 17 29 20 26 -58 0
16 28 17 21 30 20 -55 0
16 28 17 21 30 20 -57 0
16 28 17 21 30 20 -56 0
16 28 17 21 30 20 -58 0
16 28 17 21 20 26 -55 0
16 28 17 21 20 26 -57 0
16 28 17 21 20 26 -56 0
16 28 17 21 20 26 -58 0
16 28 29 21 30 26 -55 0
16 28 29 21 30 26 -57 0
16 28 29 21 30 26 -56 0
16 28 29 21 30 26 -58 0
16 28 29 30 20 26 -55 0
16 28 29 30 20 26 -57 0
16 28 29 30 20 26 -56 0
16 28 29 30 20 26 -58 0
16 28 21 30 20 26 -55 0
16 28 21 30 20 26 -57 0
16 28 21 30 20 26 -56 0
16 28 21 30 20 26 -58 0
16 36 17 37 21 38 -61 0
16 36 17 37 21 38 -62 0
16 36 17 37 21 38 -60 0
16 36 17 37 21 38 -59 0
16 36 17 37 21 20 -61 0
16 36 17 37 21 20 -62 0
16 36 17 37 21 20 -60 0
16 36 17 37 21 20 -59 0
16 36 17 37 38 34 -61 0
16 36 17 37 38 34 -62 0
16 36 17 37 38 34 -60 0
16 36 17 37 38 34 -59 0
16 36 17 37 20 34 -61 0
16 36 17 37 20 34 -62 0
16 36 17 37 20 34 -60 0
16 36 17 37 20 34 -59 0
16 36 17 21 38 20 -61 0
16 36 17 21 38 20 -62 0
16 36 17 21 38 20 -60 0
16 36 17 21 38 20 -59 0
16 36 17 21 20 34 -61 0
16 36 17 21 20 34 -62 0
16 36 17 21 20 34 -60 0
16 36 17 21 20 34 -59 0
16 36 37 21 38 34 -61 0
16 36 37 21 38 34 -62 0
16 36 37 21 38 34 -60 0
16 36 37 21 38 34 -59 0
16 36 37 38 20 34 -61 0
16 36 37 38 20 34 -62 0
16 36 37 38 20 34 -60 0
16 36 37 38 20 34 -59 0
16 36 21 38 20 34 -61 0
16 36 21 38 20 34 -62 0
16 36 21 38 20 34 -60 0
16 36 21 38 20 34 -59 0
16 4 17 1 21 3 -22 0
16 4 17 1 21 3 -15 0
16 4 17 1 21 3 -18 0
16 4 17 1 21 3 -19 0
16 4 17 1 21 20 -22 0
16 4 17 1 21 20 -15 0
16 4 17 1 21 20 -18 0
16 4 17 1 21 20 -19 0
16 4 17 1 3 2 -22 0
16 4 17 1 3 2 -15 0
16 4 17 1 3 2 -18 0
16 4 17 1 3 2 -19 0
16 4 17 1 20 2 -22 0
16 4 17 1 20 2 -15 0
16 4 17 1 20 2 -18 0
16 4 17 1 20 2 -19 0
16 4 17 21 3 20 -22 0
16 4 17 21 3 20 -15 0
16 4 17 21 3 20 -18 0
16 4 17 21 3 20 -19 0
16 4 17 21 20 2 -22 0
16 4 17 21 20 2 -15 0
16 4 17 21 20 2 -18 0
16 4 17 21 20 2 -19 0
16 4 1 21 3 2 -22 0
16 4 1 21 3 2 -15 0
16 4 1 21 3 2 -18 0
16 4 1 21 3 2 -19 0
16 4 1 3 20 2 -22 0
16 4 1 3 20 2 -15 0
16 4 1 3 20 2 -18 0
16 4 1 3 20 2 -19 0
16 4 21 3 20 2 -22 0
16 4 21 3 20 2 -15 0
16 4 21 3 20 2 -18 0
16 4 21 3 20 2 -19 0
16 12 17 14 21 9 -42 0
16 12 17 14 21 9 -44 0
16 12 17 14 21 9 -43 0
16 12 17 14 21 9 -41 0
16 12 17 14 21 20 -42 0
16 12 17 14 21 20 -44 0
16 12 17 14 21 20 -43 0
16 12 17 14 21 20 -41 0
16 12 17 14 9 8 -42 0
16 12 17 14 9 8 -44 0
16 12 17 14 9 8 -43 0
16 12 17 14 9 8 -41 0
16 12 17 14 20 8 -42 0
16 12 17 14 20 8 -44 0
16 12 17 14 20 8 -43 0
16 12 17 14 20 8 -41 0
16 12 17 21 9 20 -42 0
16 12 17 21 9 20 -44 0
16 12 17 21 9 20 -43 0
16 12 17 21 9 20 -41 0
16 12 17 21 20 8 -42 0
16 12 17 21 20 8 -44 0
16 12 17 21 20 8 -43 0
16 12 17 21 20 8 -41 0
16 12 14 21 9 8 -42 0
16 12 14 21 9 8 -44 0
16 12 14 21 9 8 -43 0
16 12 14 21 9 8 -41 0
16 12 14 9 20 8 -42 0
16 12 14 9 20 8 -44 0
16 12 14 9 20 8 -43 0
16 12 14 9 20 8 -41 0
16 12 21 9 20 8 -42 0
16 12 21 9 20 8 -44 0
16 12 21 9 20 8 -43 0
16 12 21 9 20 8 -41 0
16 17 29 21 30 20 -55 0
16 17 29 21 30 20 -57 0
16 17 29 21 30 20 -56 0
16 17 29 21 30 20 -58 0
16 17 29 21 20 26 -55 0
16 17 29 21 20 26 -57 0
16 17 29 21 20 26 -56 0
16 17 29 21 20 26 -58 0
16 17 37 21 38 20 -61 0
16 17 37 21 38 20 -62 0
16 17 37 21 38 20 -60 0
16 17 37 21 38 20 -59 0
16 17 37 21 20 34 -61 0
16 17 37 21 20 34 -62 0
16 17 37 21 20 34 -60 0
16 17 37 21 20 34 -59 0
16 17 1 21 3 20 -22 0
16 17 1 21 3 20 -15 0
16 17 1 21 3 20 -18 0
16 17 1 21 3 20 -19 0
16 17 1 21 20 2 -22 0
16 17 1 21 20 2 -15 0
16 17 1 21 20 2 -18 0
16 17 1 21 20 2 -19 0
16 17 14 21 9 20 -42 0
16 17 14 21 9 20 -44 0
16 17 14 21 9 20 -43 0
16 17 14 21 9 20 -41 0
16 17 14 21 20 8 -42 0
16 17 14 21 20 8 -44 0
16 17 14 21 20 8 -43 0
16 17 14 21 20 8 -41 0
16 17 21 30 20 26 -55 0
16 17 21 30 20 26 -57 0
16 17 21 30 20 26 -56 0
16 17 21 30 20 26 -58 0
16 17 21 38 20 34 -61 0
16 17 21 38 20 34 -62 0
16 17 21 38 20 34 -60 0
16 17 21 38 20 34 -59 0
16 17 21 3 20 2 -22 0
16 17 21 3 20 2 -15 0
16 17 21 3 20 2 -18 0
16 17 21 3 20 2 -19 0
16 17 21 9 20 8 -42 0
16 17 21 9 20 8 -44 0
16 17 21 9 20 8 -43 0
16 17 21 9 20 8 -41 0
28 36 29 37 30 38 -67 0
28 36 29 37 30 38 -65 0
28 36 29 37 30 38 -68 0
28 36 29 37 30 38 -66 0
28 36 29 37 30 26 -67 0
28 36 29 37 30 26 -65 0
28 36 29 37 30 26 -68 0
28 36 29 37 30 26 -66 0
28 36 29 37 38 34 -67 0
28 36 29 37 38 34 -65 0
28 36 29 37 38 34 -68 0
28 36 29 37 38 34 -66 0
28 36 29 37 26 34 -67 0
28 36 29 37 26 34 -65 0
28 36 29 37 26 34 -68 0
28 36 29 37 26 34 -66 0
28 36 29 30 38 26 -67 0
28 36 29 30 38 26 -65 0
28 36 29 30 38 26 -68 0
28 36 29 30 38 26 -66 0
28 36 29 30 26 34 -67 0
28 36 29 30 26 34 -65 0
28 36 29 30 26 34 -68 0
28 36 29 30 26 34 -66 0
28 36 37 30 38 34 -67 0
28 36 37 30 38 34 -65 0
28 36 37 30 38 34 -68 0
28 36 37 30 38 34 -66 0
28 36 37 38 26 34 -67 0
28 36 37 38 26 34 -65 0
28 36 37 38 26 34 -68 0
28 36 37 38 26 34 -66 0
28 36 30 38 26 34 -67 0
28 36 30 38 26 34 -65 0
28 36 30 38 26 34 -68 0
28 36 30 38 26 34 -66 0
28 4 29 1 30 3 -24 0
28 4 29 1 30 3 -27 0
28 4 29 1 30 3 -25 0
28 4 29 1 30 3 -23 0
28 4 29 1 30 26 -24 0
28 4 29 1 30 26 -27 0
28 4 29 1 30 26 -25 0
28 4 29 1 30 26 -23 0
28 4 29 1 3 2 -24 0
28 4 29 1 3 2 -27 0
28 4 29 1 3 2 -25 0
28 4 29 1 3 2 -23 0
28 4 29 1 26 2 -24 0
28 4 29 1 26 2 -27 0
28 4 29 1 26 2 -25 0
28 4 29 1 26 2 -23 0
28 4 29 30 3 26 -24 0
28 4 29 30 3 26 -27 0
28 4 29 30 3 26 -25 0
28 4 29 30 3 26 -23 0
28 4 29 30 26 2 -24 0
28 4 29 30 26 2 -27 0
28 4 29 30 26 2 -25 0
28 4 29 30 26 2 -23 0
28 4 1 30 3 2 -24 0
28 4 1 30 3 2 -27 0
28 4 1 30 3 2 -25 0
28 4 1 30 3 2 -23 0
28 4 1 3 26 2 -24 0
28 4 1 3 26 2 -27 0
28 4 1 3 26 2 -25 0
28 4 1 3 26 2 -23 0
28 4 30 3 26 2 -24 0
28 4 30 3 26 2 -27 0
28 4 30 3 26 2 -25 0
28 4 30 3 26 2 -23 0
28 12 29 14 30 9 -46 0
28 12 29 14 30 9 -47 0
28 12 29 14 30 9 -45 0
28 12 29 14 30 9 -48 0
28 12 29 14 30 26 -46 0
28 12 29 14 30 26 -47 0
28 12 29 14 30 26 -45 0
28 12 29 14 30 26 -48 0
28 12 29 14 9 8 -46 0
28 12 29 14 9 8 -47 0
28 12 29 14 9 8 -45 0
28 12 29 14 9 8 -48 0
28 12 29 14 26 8 -46 0
28 12 29 14 26 8 -47 0
28 12 29 14 26 8 -45 0
28 12 29 14 26 8 -48 0
28 12 29 30 9 26 -46 0
28 12 29 30 9 26 -47 0
28 12 29 30 9 26 -45 0
28 12 29 30 9 26 -48 0
28 12 29 30 26 8 -46 0
28 12 29 30 26 8 -47 0
28 12 29 30 26 8 -45 0
28 12 29 30 26 8 -48 0
28 12 14 30 9 8 -46 0
28 12 14 30 9 8 -47 0
28 12 14 30 9 8 -45 0
28 12 14 30 9 8 -48 0
28 12 14 9 26 8 -46 0
28 12 14 9 26 8 -47 0
28 12 14 9 26 8 -45 0
28 12 14 9 26 8 -48 0
28 12 30 9 26 8 -46 0
28 12 30 9 26 8 -47 0
28 12 30 9 26 8 -45 0
28 12 30 9 26 8 -48 0
28 17 29 21 30 26 -55 0
28 17 29 21 30 26 -57 0
28 17 29 21 30 26 -56 0
28 17 29 21 30 26 -58 0
28 17 29 30 20 26 -55 0
28 17 29 30 20 26 -57 0
28 17 29 30 20 26 -56 0
28 17 29 30 20 26 -58 0
28 29 37 30 38 26 -67 0
28 29 37 30 38 26 -65 0
28 29 37 30 38 26 -68 0
28 29 37 30 38 26 -66 0
28 29 37 30 26 34 -67 0
28 29 37 30 26 34 -65 0
28 29 37 30 26 34 -68 0
28 29 37 30 26 34 -66 0
28 29 1 30 3 26 -24 0
28 29 1 30 3 26 -27 0
28 29 1 30 3 26 -25 0
28 29 1 30 3 26 -23 0
28 29 1 30 26 2 -24 0
28 29 1 30 26 2 -27 0
28 29 1 30 26 2 -25 0
28 29 1 30 26 2 -23 0
28 29 14 30 9 26 -46 0
28 29 14 30 9 26 -47 0
28 29 14 30 9 26 -45 0
28 29 14 30 9 26 -48 0
28 29 14 30 26 8 -46 0
28 29 14 30 26 8 -47 0
28 29 14 30 26 8 -45 0
28 29 14 30 26 8 -48 0
28 29 21 30 20 26 -55 0
28 29 21 30 20 26 -57 0
28 29 21 30 20 26 -56 0
28 29 21 30 20 26 -58 0
28 29 30 38 26 34 -67 0
28 29 30 38 26 34 -65 0
28 29 30 38 26 34 -68 0
28 29 30 38 26 34 -66 0
28 29 30 3 26 2 -24 0
28 29 30 3 26 2 -27 0
28 29 30 3 26 2 -25 0
28 29 30 3 26 2 -23 0
28 29 30 9 26 8 -46 0
28 29 30 9 26 8 -47 0
28 29 30 9 26 8 -45 0
28 29 30 9 26 8 -48 0
36 4 37 1 38 3 -32 0
36 4 37 1 38 3 -35 0
36 4 37 1 38 3 -33 0
36 4 37 1 38 3 -31 0
36 4 37 1 38 34 -32 0
36 4 37 1 38 34 -35 0
36 4 37 1 38 34 -33 0
36 4 37 1 38 34 -31 0
36 4 37 1 3 2 -32 0
36 4 37 1 3 2 -35 0
36 4 37 1 3 2 -33 0
36 4 37 1 3 2 -31 0
36 4 37 1 34 2 -32 0
36 4 37 1 34 2 -35 0
36 4 37 1 34 2 -33 0
36 4 37 1 34 2 -31 0
36 4 37 38 3 34 -32 0
36 4 37 38 3 34 -35 0
36 4 37 38 3 34 -33 0
36 4 37 38 3 34 -31 0
36 4 37 38 34 2 -32 0
36 4 37 38 34 2 -35 0
36 4 37 38 34 2 -33 0
36 4 37 38 34 2 -31 0
36 4 1 38 3 2 -32 0
36 4 1 38 3 2 -35 0
36 4 1 38 3 2 -33 0
36 4 1 38 3 2 -31 0
36 4 1 3 34 2 -32 0
36 4 1 3 34 2 -35 0
36 4 1 3 34 2 -33 0
36 4 1 3 34 2 -31 0
36 4 38 3 34 2 -32 0
36 4 38 3 34 2 -35 0
36 4 38 3 34 2 -33 0
36 4 38 3 34 2 -31 0
36 12 37 14 38 9 -51 0
36 12 37 14 38 9 -52 0
36 12 37 14 38 9 -49 0
36 12 37 14 38 9 -50 0
36 12 37 14 38 34 -51 0
36 12 37 14 38 34 -52 0
36 12 37 14 38 34 -49 0
36 12 37 14 38 34 -50 0
36 12 37 14 9 8 -51 0
36 12 37 14 9 8 -52 0
36 12 37 14 9 8 -49 0
36 12 37 14 9 8 -50 0
36 12 37 14 34 8 -51 0
36 12 37 14 34 8 -52 0
36 12 37 14 34 8 -49 0
36 12 37 14 34 8 -50 0
36 12 37 38 9 34 -51 0
36 12 37 38 9 34 -52 0
36 12 37 38 9 34 -49 0
36 12 37 38 9 34 -50 0
36 12 37 38 34 8 -51 0
36 12 37 38 34 8 -52 0
36 12 37 38 34 8 -49 0
36 12 37 38 34 8 -50 0
36 12 14 38 9 8 -51 0
36 12 14 38 9 8 -52 0
36 12 14 38 9 8 -49 0
36 12 14 38 9 8 -50 0
36 12 14 9 34 8 -51 0
36 12 14 9 34 8 -52 0
36 12 14 9 34 8 -49 0
36 12 14 9 34 8 -50 0
36 12 38 9 34 8 -51 0
36 12 38 9 34 8 -52 0
36 12 38 9 34 8 -49 0
36 12 38 9 34 8 -50 0
36 17 37 21 38 34 -61 0
36 17 37 21 38 34 -62 0
36 17 37 21 38 34 -60 0
36 17 37 21 38 34 -59 0
36 17 37 38 20 34 -61 0
36 17 37 38 20 34 -62 0
36 17 37 38 20 34 -60 0
36 17 37 38 20 34 -59 0
36 29 37 30 38 34 -67 0
36 29 37 30 38 34 -65 0
36 29 37 30 38 34 -68 0
36 29 37 30 38 34 -66 0
36 29 37 38 26 34 -67 0
36 29 37 38 26 34 -65 0
36 29 37 38 26 34 -68 0
36 29 37 38 26 34 -66 0
36 37 1 38 3 34 -32 0
36 37 1 38 3 34 -35 0
36 37 1 38 3 34 -33 0
36 37 1 38 3 34 -31 0
36 37 1 38 34 2 -32 0
36 37 1 38 34 2 -35 0
36 37 1 38 34 2 -33 0
36 37 1 38 34 2 -31 0
36 37 14 38 9 34 -51 0
36 37 14 38 9 34 -52 0
36 37 14 38 9 34 -49 0
36 37 14 38 9 34 -50 0
36 37 14 38 34 8 -51 0
36 37 14 38 34 8 -52 0
36 37 14 38 34 8 -49 0
36 37 14 38 34 8 -50 0
36 37 21 38 20 34 -61 0
36 37 21 38 20 34 -62 0
36 37 21 38 20 34 -60 0
36 37 21 38 20 34 -59 0
36 37 30 38 26 34 -67 0
36 37 30 38 26 34 -65 0
36 37 30 38 26 34 -68 0
36 37 30 38 26 34 -66 0
36 37 38 3 34 2 -32 0
36 37 38 3 34 2 -35 0
36 37 38 3 34 2 -33 0
36 37 38 3 34 2 -31 0
36 37 38 9 34 8 -51 0
36 37 38 9 34 8 -52 0
36 37 38 9 34 8 -49 0
36 37 38 9 34 8 -50 0
4 12 1 14 3 9 -10 0
4 12 1 14 3 9 -13 0
4 12 1 14 3 9 -7 0
4 12 1 14 3 9 -11 0
4 12 1 14 3 2 -10 0
4 12 1 14 3 2 -13 0
4 12 1 14 3 2 -7 0
4 12 1 14 3 2 -11 0
4 12 1 14 9 8 -10 0
4 12 1 14 9 8 -13 0
4 12 1 14 9 8 -7 0
4 12 1 14 9 8 -11 0
4 12 1 14 2 8 -10 0
4 12 1 14 2 8 -13 0
4 12 1 14 2 8 -7 0
4 12 1 14 2 8 -11 0
4 12 1 3 9 2 -10 0
4 12 1 3 9 2 -13 0
4 12 1 3 9 2 -7 0
4 12 1 3 9 2 -11 0
4 12 1 3 2 8 -10 0
4 12 1 3 2 8 -13 0
4 12 1 3 2 8 -7 0
4 12 1 3 2 8 -11 0
4 12 14 3 9 8 -10 0
4 12 14 3 9 8 -13 0
4 12 14 3 9 8 -7 0
4 12 14 3 9 8 -11 0
4 12 14 9 2 8 -10 0
4 12 14 9 2 8 -13 0
4 12 14 9 2 8 -7 0
4 12 14 9 2 8 -11 0
4 12 3 9 2 8 -10 0
4 12 3 9 2 8 -13 0
4 12 3 9 2 8 -7 0
4 12 3 9 2 8 -11 0
4 17 1 21 3 2 -22 0
4 17 1 21 3 2 -15 0
4 17 1 21 3 2 -18 0
4 17 1 21 3 2 -19 0
4 17 1 3 20 2 -22 0
4 17 1 3 20 2 -15 0
4 17 1 3 20 2 -18 0
4 17 1 3 20 2 -19 0
4 29 1 30 3 2 -24 0
4 29 1 30 3 2 -27 0
4 29 1 30 3 2 -25 0
4 29 1 30 3 2 -23 0
4 29 1 3 26 2 -24 0
4 29 1 3 26 2 -27 0
4 29 1 3 26 2 -25 0
4 29 1 3 26 2 -23 0
4 37 1 38 3 2 -32 0
4 37 1 38 3 2 -35 0
4 37 1 38 3 2 -33 0
4 37 1 38 3 2 -31 0
4 37 1 3 34 2 -32 0
4 37 1 3 34 2 -35 0
4 37 1 3 34 2 -33 0
4 37 1 3 34 2 -31 0
4 1 14 3 9 2 -10 0
4 1 14 3 9 2 -13 0
4 1 14 3 9 2 -7 0
4 1 14 3 9 2 -11 0
4 1 14 3 2 8 -10 0
4 1 14 3 2 8 -13 0
4 1 14 3 2 8 -7 0
4 1 14 3 2 8 -11 0
4 1 21 3 20 2 -22 0
4 1 21 3 20 2 -15 0
4 1 21 3 20 2 -18 0
4 1 21 3 20 2 -19 0
4 1 30 3 26 2 -24 0
4 1 30 3 26 2 -27 0
4 1 30 3 26 2 -25 0
4 1 30 3 26 2 -23 0
4 1 38 3 34 2 -32 0
4 1 38 3 34 2 -35 0
4 1 38 3 34 2 -33 0
4 1 38 3 34 2 -31 0
4 1 3 9 2 8 -10 0
4 1 3 9 2 8 -13 0
4 1 3 9 2 8 -7 0
4 1 3 9 2 8 -11 0
12 17 14 21 9 8 -42 0
12 17 14 21 9 8 -44 0
12 17 14 21 9 8 -43 0
12 17 14 21 9 8 -41 0
12 17 14 9 20 8 -42 0
12 17 14 9 20 8 -44 0
12 17 14 9 20 8 -43 0
12 17 14 9 20 8 -41 0
12 29 14 30 9 8 -46 0
12 29 14 30 9 8 -47 0
12 29 14 30 9 8 -45 0
12 29 14 30 9 8 -48 0
12 29 14 9 26 8 -46 0
12 29 14 9 26 8 -47 0
12 29 14 9 26 8 -45 0
12 29 14 9 26 8 -48 0
12 37 14 38 9 8 -51 0
12 37 14 38 9 8 -52 0
12 37 14 38 9 8 -49 0
12 37 14 38 9 8 -50 0
12 37 14 9 34 8 -51 0
12 37 14 9 34 8 -52 0
12 37 14 9 34 8 -49 0
12 37 14 9 34 8 -50 0
12 1 14 3 9 8 -10 0
12 1 14 3 9 8 -13 0
12 1 14 3 9 8 -7 0
12 1 14 3 9 8 -11 0
12 1 14 9 2 8 -10 0
12 1 14 9 2 8 -13 0
12 1 14 9 2 8 -7 0
12 1 14 9 2 8 -11 0
12 14 21 9 20 8 -42 0
12 14 21 9 20 8 -44 0
12 14 21 9 20 8 -43 0
12 14 21 9 20 8 -41 0
12 14 30 9 26 8 -46 0
12 14 30 9 26 8 -47 0
12 14 30 9 26 8 -45 0
12 14 30 9 26 8 -48 0
12 14 38 9 34 8 -51 0
12 14 38 9 34 8 -52 0
12 14 38 9 34 8 -49 0
12 14 38 9 34 8 -50 0
12 14 3 9 2 8 -10 0
12 14 3 9 2 8 -13 0
12 14 3 9 2 8 -7 0
12 14 3 9 2 8 -11 0
17 29 21 30 20 26 -55 0
17 29 21 30 20 26 -57 0
17 29 21 30 20 26 -56 0
17 29 21 30 20 26 -58 0
17 37 21 38 20 34 -61 0
17 37 21 38 20 34 -62 0
17 37 21 38 20 34 -60 0
17 37 21 38 20 34 -59 0
17 1 21 3 20 2 -22 0
17 1 21 3 20 2 -15 0
17 1 21 3 20 2 -18 0
17 1 21 3 20 2 -19 0
17 14 21 9 20 8 -42 0
17 14 21 9 20 8 -44 0
17 14 21 9 20 8 -43 0
17 14 21 9 20 8 -41 0
29 37 30 38 26 34 -67 0
29 37 30 38 26 34 -65 0
29 37 30 38 26 34 -68 0
29 37 30 38 26 34 -66 0
29 1 30 3 26 2 -24 0
29 1 30 3 26 2 -27 0
29 1 30 3 26 2 -25 0
29 1 30 3 26 2 -23 0
29 14 30 9 26 8 -46 0
29 14 30 9 26 8 -47 0
29 14 30 9 26 8 -45 0
29 14 30 9 26 8 -48 0
37 1 38 3 34 2 -32 0
37 1 38 3 34 2 -35 0
37 1 38 3 34 2 -33 0
37 1 38 3 34 2 -31 0
37 14 38 9 34 8 -51 0
37 14 38 9 34 8 -52 0
37 14 38 9 34 8 -49 0
37 14 38 9 34 8 -50 0
1 14 3 9 2 8 -10 0
1 14 3 9 2 8 -13 0
1 14 3 9 2 8 -7 0
1 14 3 9 2 8 -11 0
16 28 17 29 21 30 20 -55 0
16 28 17 29 21 30 20 -57 0
16 28 17 29 21 30 20 -56 0
16 28 17 29 21 30 20 -58 0
16 28 17 29 21 30 26 -55 0
16 28 17 29 21 30 26 -57 0
16 28 17 29 21 30 26 -56 0
16 28 17 29 21 30 26 -58 0
16 28 17 29 21 20 26 -55 0
16 28 17 29 21 20 26 -57 0
16 28 17 29 21 20 26 -56 0
16 28 17 29 21 20 26 -58 0
16 28 17 29 30 20 26 -55 0
16 28 17 29 30 20 26 -57 0
16 28 17 29 30 20 26 -56 0
16 28 17 29 30 20 26 -58 0
16 28 17 21 30 20 26 -55 0
16 28 17 21 30 20 26 -57 0
16 28 17 21 30 20 26 -56 0
16 28 17 21 30 20 26 -58 0
16 28 29 21 30 20 26 -55 0
16 28 29 21 30 20 26 -57 0
16 28 29 21 30 20 26 -56 0
16 28 29 21 30 20 26 -58 0
16 36 17 37 21 38 20 -61 0
16 36 17 37 21 38 20 -62 0
16 36 17 37 21 38 20 -60 0
16 36 17 37 21 38 20 -59 0
16 36 17 37 21 38 34 -61 0
16 36 17 37 21 38 34 -62 0
16 36 17 37 21 38 34 -60 0
16 36 17 37 21 38 34 -59 0
16 36 17 37 21 20 34 -61 0
16 36 17 37 21 20 34 -62 0
16 36 17 37 21 20 34 -60 0
16 36 17 37 21 20 34 -59 0
16 36 17 37 38 20 34 -61 0
16 36 17 37 38 20 34 -62 0
16 36 17 37 38 20 34 -60 0
16 36 17 37 38 20 34 -59 0
16 36 17 21 38 20 34 -61 0
16 36 17 21 38 20 34 -62 0
16 36 17 21 38 20 34 -60 0
16 36 17 21 38 20 34 -59 0
16 36 37 21 38 20 34 -61 0
16 36 37 21 38 20 34 -62 0
16 36 37 21 38 20 34 -60 0
16 36 37 21 38 20 34 -59 0
16 4 17 1 21 3 20 -22 0
16 4 17 1 21 3 20 -15 0
16 4 17 1 21 3 20 -18 0
16 4 17 1 21 3 20 -19 0
16 4 17 1 21 3 2 -22 0
16 4 17 1 21 3 2 -15 0
16 4 17 1 21 3 2 -18 0
16 4 17 1 21 3 2 -19 0
16 4 17 1 21 20 2 -22 0
16 4 17 1 21 20 2 -15 0
16 4 17 1 21 20 2 -18 0
16 4 17 1 21 20 2 -19 0
16 4 17 1 3 20 2 -22 0
16 4 17 1 3 20 2 -15 0
16 4 17 1 3 20 2 -18 0
16 4 17 1 3 20 2 -19 0
16 4 17 21 3 20 2 -22 0
16 4 17 21 3 20 2 -15 0
16 4 17 21 3 20 2 -18 0
16 4 17 21 3 20 2 -19 0
16 4 1 21 3 20 2 -22 0
16 4 1 21 3 20 2 -15 0
16 4 1 21 3 20 2 -18 0
16 4 1 21 3 20 2 -19 0
16 12 17 14 21 9 20 -42 0
16 12 17 14 21 9 20 -44 0
16 12 17 14 21 9 20 -43 0
16 12 17 14 21 9 20 -41 0
16 12 17 14 21 9 8 -42 0
16 12 17 14 21 9 8 -44 0
16 12 17 14 21 9 8 -43 0
16 12 17 14 21 9 8 -41 0
16 12 17 14 21 20 8 -42 0
16 12 17 14 21 20 8 -44 0
16 12 17 14 21 20 8 -43 0
16 12 17 14 21 20 8 -41 0
16 12 17 14 9 20 8 -42 0
16 12 17 14 9 20 8 -44 0
16 12 17 14 9 20 8 -43 0
16 12 17 14 9 20 8 -41 0
16 12 17 21 9 20 8 -42 0
16 12 17 21 9 20 8 -44 0
16 12 17 21 9 20 8 -43 0
16 12 17 21 9 20 8 -41 0
16 12 14 21 9 20 8 -42 0
16 12 14 21 9 20 8 -44 0
16 12 14 21 9 20 8 -43 0
16 12 14 21 9 20 8 -41 0
16 17 29 21 30 20 26 -55 0
16 17 29 21 30 20 26 -57 0
16 17 29 21 30 20 26 -56 0
16 17 29 21 30 20 26 -58 0
16 17 37 21 38 20 34 -61 0
16 17 37 21 38 20 34 -62 0
16 17 37 21 38 20 34 -60 0
16 17 37 21 38 20 34 -59 0
16 17 1 21 3 20 2 -22 0
16 17 1 21 3 20 2 -15 0
16 17 1 21 3 20 2 -18 0
16 17 1 21 3 20 2 -19 0
16 17 14 21 9 20 8 -42 0
16 17 14 21 9 20 8 -44 0
16 17 14 21 9 20 8 -43 0
16 17 14 21 9 20 8 -41 0
28 36 29 37 30 38 26 -67 0
28 36 29 37 30 38 26 -65 0
28 36 29 37 30 38 26 -68 0
28 36 29 37 30 38 26 -66 0
28 36 29 37 30 38 34 -67 0
28 36 29 37 30 38 34 -65 0
28 36 29 37 30 38 34 -68 0
28 36 29 37 30 38 34 -66 0
28 36 29 37 30 26 34 -67 0
28 36 29 37 30 26 34 -65 0
28 36 29 37 30 26 34 -68 0
28 36 29 37 30 26 34 -66 0
28 36 29 37 38 26 34 -67 0
28 36 29 37 38 26 34 -65 0
28 36 29 37 38 26 34 -68 0
28 36 29 37 38 26 34 -66 0
28 36 29 30 38 26 34 -67 0
28 36 29 30 38 26 34 -65 0
28 36 29 30 38 26 34 -68 0
28 36 29 30 38 26 34 -66 0
28 36 37 30 38 26 34 -67 0
28 36 37 30 38 26 34 -65 0
28 36 37 30 38 26 34 -68 0
28 36 37 30 38 26 34 -66 0
28 4 29 1 30 3 26 -24 0
28 4 29 1 30 3 26 -27 0
28 4 29 1 30 3 26 -25 0
28 4 29 1 30 3 26 -23 0
28 4 29 1 30 3 2 -24 0
28 4 29 1 30 3 2 -27 0
28 4 29 1 30 3 2 -25 0
28 4 29 1 30 3 2 -23 0
28 4 29 1 30 26 2 -24 0
28 4 29 1 30 26 2 -27 0
28 4 29 1 30 26 2 -25 0
28 4 29 1 30 26 2 -23 0
28 4 29 1 3 26 2 -24 0
28 4 29 1 3 26 2 -27 0
28 4 29 1 3 26 2 -25 0
28 4 29 1 3 26 2 -23 0
28 4 29 30 3 26 2 -24 0
28 4 29 30 3 26 2 -27 0
28 4 29 30 3 26 2 -25 0
28 4 29 30 3 26 2 -23 0
28 4 1 30 3 26 2 -24 0
28 4 1 30 3 26 2 -27 0
28 4 1 30 3 26 2 -25 0
28 4 1 30 3 26 2 -23 0
28 12 29 14 30 9 26 -46 0
28 12 29 14 30 9 26 -47 0
28 12 29 14 30 9 26 -45 0
28 12 29 14 30 9 26 -48 0
28 12 29 14 30 9 8 -46 0
28 12 29 14 30 9 8 -47 0
28 12 29 14 30 9 8 -45 0
28 12 29 14 30 9 8 -48 0
28 12 29 14 30 26 8 -46 0
28 12 29 14 30 26 8 -47 0
28 12 29 14 30 26 8 -45 0
28 12 29 14 30 26 8 -48 0
28 12 29 14 9 26 8 -46 0
28 12 29 14 9 26 8 -47 0
28 12 29 14 9 26 8 -45 0
28 12 29 14 9 26 8 -48 0
28 12 29 30 9 26 8 -46 0
28 12 29 30 9 26 8 -47 0
28 12 29 30 9 26 8 -45 0
28 12 29 30 9 26 8 -48 0
28 12 14 30 9 26 8 -46 0
28 12 14 30 9 26 8 -47 0
28 12 14 30 9 26 8 -45 0
28 12 14 30 9 26 8 -48 0
28 17 29 21 30 20 26 -55 0
28 17 29 21 30 20 26 -57 0
28 17 29 21 30 20 26 -56 0
28 17 29 21 30 20 26 -58 0
28 29 37 30 38 26 34 -67 0
28 29 37 30 38 26 34 -65 0
28 29 37 30 38 26 34 -68 0
28 29 37 30 38 26 34 -66 0
28 29 1 30 3 26 2 -24 0
28 29 1 30 3 26 2 -27 0
28 29 1 30 3 26 2 -25 0
28 29 1 30 3 26 2 -23 0
28 29 14 30 9 26 8 -46 0
28 29 14 30 9 26 8 -47 0
28 29 14 30 9 26 8 -45 0
28 29 14 30 9 26 8 -48 0
36 4 37 1 38 3 34 -32 0
36 4 37 1 38 3 34 -35 0
36 4 37 1 38 3 34 -33 0
36 4 37 1 38 3 34 -31 0
36 4 37 1 38 3 2 -32 0
36 4 37 1 38 3 2 -35 0
36 4 37 1 38 3 2 -33 0
36 4 37 1 38 3 2 -31 0
36 4 37 1 38 34 2 -32 0
36 4 37 1 38 34 2 -35 0
36 4 37 1 38 34 2 -33 0
36 4 37 1 38 34 2 -31 0
36 4 37 1 3 34 2 -32 0
36 4 37 1 3 34 2 -35 0
36 4 37 1 3 34 2 -33 0
36 4 37 1 3 34 2 -31 0
36 4 37 38 3 34 2 -32 0
36 4 37 38 3 34 2 -35 0
36 4 37 38 3 34 2 -33 0
36 4 37 38 3 34 2 -31 0
36 4 1 38 3 34 2 -32 0
36 4 1 38 3 34 2 -35 0
36 4 1 38 3 34 2 -33 0
36 4 1 38 3 34 2 -31 0
36 12 37 14 38 9 34 -51 0
36 12 37 14 38 9 34 -52 0
36 12 37 14 38 9 34 -49 0
36 12 37 14 38 9 34 -50 0
36 12 37 14 38 9 8 -51 0
36 12 37 14 38 9 8 -52 0
36 12 37 14 38 9 8 -49 0
36 12 37 14 38 9 8 -50 0
36 12 37 14 38 34 8 -51 0
36 12 37 14 38 34 8 -52 0
36 12 37 14 38 34 8 -49 0
36 12 37 14 38 34 8 -50 0
36 12 37 14 9 34 8 -51 0
36 12 37 14 9 34 8 -52 0
36 12 37 14 9 34 8 -49 0
36 12 37 14 9 34 8 -50 0
36 12 37 38 9 34 8 -51 0
36 12 37 38 9 34 8 -52 0
36 12 37 38 9 34 8 -49 0
36 12 37 38 9 34 8 -50 0
36 12 14 38 9 34 8 -51 0
36 12 14 38 9 34 8 -52 0
36 12 14 38 9 34 8 -49 0
36 12 14 38 9 34 8 -50 0
36 17 37 21 38 20 34 -61 0
36 17 37 21 38 20 34 -62 0
36 17 37 21 38 20 34 -60 0
36 17 37 21 38 20 34 -59 0
36 29 37 30 38 26 34 -67 0
36 29 37 30 38 26 34 -65 0
36 29 37 30 38 26 34 -68 0
36 29 37 30 38 26 34 -66 0
36 37 1 38 3 34 2 -32 0
36 37 1 38 3 34 2 -35 0
36 37 1 38 3 34 2 -33 0
36 37 1 38 3 34 2 -31 0
36 37 14 38 9 34 8 -51 0
36 37 14 38 9 34 8 -52 0
36 37 14 38 9 34 8 -49 0
36 37 14 38 9 34 8 -50 0
4 12 1 14 3 9 2 -10 0
4 12 1 14 3 9 2 -13 0
4 12 1 14 3 9 2 -7 0
4 12 1 14 3 9 2 -11 0
4 12 1 14 3 9 8 -10 0
4 12 1 14 3 9 8 -13 0
4 12 1 14 3 9 8 -7 0
4 12 1 14 3 9 8 -11 0
4 12 1 14 3 2 8 -10 0
4 12 1 14 3 2 8 -13 0
4 12 1 14 3 2 8 -7 0
4 12 1 14 3 2 8 -11 0
4 12 1 14 9 2 8 -10 0
4 12 1 14 9 2 8 -13 0
4 12 1 14 9 2 8 -7 0
4 12 1 14 9 2 8 -11 0
4 12 1 3 9 2 8 -10 0
4 12 1 3 9 2 8 -13 0
4 12 1 3 9 2 8 -7 0
4 12 1 3 9 2 8 -11 0
4 12 14 3 9 2 8 -10 0
4 12 14 3 9 2 8 -13 0
4 12 14 3 9 2 8 -7 0
4 12 14 3 9 2 8 -11 0
4 17 1 21 3 20 2 -22 0
4 17 1 21 3 20 2 -15 0
4 17 1 21 3 20 2 -18 0
4 17 1 21 3 20 2 -19 0
4 29 1 30 3 26 2 -24 0
4 29 1 30 3 26 2 -27 0
4 29 1 30 3 26 2 -25 0
4 29 1 30 3 26 2 -23 0
4 37 1 38 3 34 2 -32 0
4 37 1 38 3 34 2 -35 0
4 37 1 38 3 34 2 -33 0
4 37 1 38 3 34 2 -31 0
4 1 14 3 9 2 8 -10 0
4 1 14 3 9 2 8 -13 0
4 1 14 3 9 2 8 -7 0
4 1 14 3 9 2 8 -11 0
12 17 14 21 9 20 8 -42 0
12 17 14 21 9 20 8 -44 0
12 17 14 21 9 20 8 -43 0
12 17 14 21 9 20 8 -41 0
12 29 14 30 9 26 8 -46 0
12 29 14 30 9 26 8 -47 0
12 29 14 30 9 26 8 -45 0
12 29 14 30 9 26 8 -48 0
12 37 14 38 9 34 8 -51 0
12 37 14 38 9 34 8 -52 0
12 37 14 38 9 34 8 -49 0
12 37 14 38 9 34 8 -50 0
12 1 14 3 9 2 8 -10 0
12 1 14 3 9 2 8 -13 0
12 1 14 3 9 2 8 -7 0
12 1 14 3 9 2 8 -11 0
16 28 17 29 21 30 20 26 -55 0
16 28 17 29 21 30 20 26 -57 0
16 28 17 29 21 30 20 26 -56 0
16 28 17 29 21 30 20 26 -58 0
16 36 17 37 21 38 20 34 -61 0
16 36 17 37 21 38 20 34 -62 0
16 36 17 37 21 38 20 34 -60 0
16 36 17 37 21 38 20 34 -59 0
16 4 17 1 21 3 20 2 -22 0
16 4 17 1 21 3 20 2 -15 0
16 4 17 1 21 3 20 2 -18 0
16 4 17 1 21 3 20 2 -19 0
16 12 17 14 21 9 20 8 -42 0
16 12 17 14 21 9 20 8 -44 0
16 12 17 14 21 9 20 8 -43 0
16 12 17 14 21 9 20 8 -41 0
28 36 29 37 30 38 26 34 -67 0
28 36 29 37 30 38 26 34 -65 0
28 36 29 37 30 38 26 34 -68 0
28 36 29 37 30 38 26 34 -66 0
28 4 29 1 30 3 26 2 -24 0
28 4 29 1 30 3 26 2 -27 0
28 4 29 1 30 3 26 2 -25 0
28 4 29 1 30 3 26 2 -23 0
28 12 29 14 30 9 26 8 -46 0
28 12 29 14 30 9 26 8 -47 0
28 12 29 14 30 9 26 8 -45 0
28 12 29 14 30 9 26 8 -48 0
36 4 37 1 38 3 34 2 -32 0
36 4 37 1 38 3 34 2 -35 0
36 4 37 1 38 3 34 2 -33 0
36 4 37 1 38 3 34 2 -31 0
36 12 37 14 38 9 34 8 -51 0
36 12 37 14 38 9 34 8 -52 0
36 12 37 14 38 9 34 8 -49 0
36 12 37 14 38 9 34 8 -50 0
4 12 1 14 3 9 2 8 -10 0
4 12 1 14 3 9 2 8 -13 0
4 12 1 14 3 9 2 8 -7 0
4 12 1 14 3 9 2 8 -11 0
