c U3(3) U4(3) E1(3,3) E2(3,3) U1(3) U2(3) U2(0) E2(0,3) E1(3,0) U4(0) U3(0) E1(0,3) E2(3,0) U1(0) U4(1) E2(1,3) U3(1) E1(3,1) U1(1) U2(1) E1(1,3) E2(3,1) U4(5) U1(5) U3(5) E2(5,3) E2(3,5) E1(5,3) E1(3,5) U2(5) U3(4) E2(3,4) U1(4) U2(4) E1(4,3) U4(4) E1(3,4) E2(4,3) U3(2) E2(2,3) E2(3,2) E1(2,3) U4(2) E1(3,2) U1(2) U2(2) E2(0,0) E1(0,0) E2(0,1) E2(1,0) E1(0,1) E1(1,0) E1(5,0) E1(0,5) E2(5,0) E2(0,5) E1(0,4) E2(0,4) E2(4,0) E1(4,0) E1(2,0) E1(0,2) E2(0,2) E2(2,0) E2(1,1) E1(1,1) E1(1,5) E2(5,1) E1(5,1) E2(1,5) E2(4,1) E2(1,4) E1(1,4) E1(4,1) E1(2,1) E1(1,2) E2(1,2) E2(2,1) E1(5,5) E2(5,5) E1(4,5) E2(5,4) E2(4,5) E1(5,4) E2(2,5) E1(5,2) E1(2,5) E2(5,2) E2(4,4) E1(4,4) E2(2,4) E2(4,2) E1(4,2) E1(2,4) E1(2,2) E2(2,2)
c 1 2 3 4 5 6 7 8 9 10 11 12 13 14 15 16 17 18 19 20 21 22 23 24 25 26 27 28 29 30 31 32 33 34 35 36 37 38 39 40 41 42 43 44 45 46 47 48 49 50 51 52 53 54 55 56 57 58 59 60 61 62 63 64 65 66 67 68 69 70 71 72 73 74 75 76 77 78 79 80 81 82 83 84 85 86 87 88 89 90 91 92 93 94 95 96
p cnf 96 2286
48 -48 0
51 -52 0
62 -61 0
12 -9 0
57 -60 0
54 -53 0
52 -51 0
66 -66 0
76 -75 0
21 -18 0
73 -74 0
67 -69 0
61 -62 0
75 -76 0
95 -95 0
42 -44 0
94 -93 0
87 -86 0
9 -12 0
18 -21 0
44 -42 0
3 -3 0
37 -35 0
29 -28 0
60 -57 0
74 -73 0
93 -94 0
35 -37 0
90 -90 0
81 -84 0
53 -54 0
69 -67 0
86 -87 0
28 -29 0
84 -81 0
79 -79 0
47 -47 0
49 -50 0
63 -64 0
8 -13 0
58 -59 0
56 -55 0
50 -49 0
65 -65 0
77 -78 0
16 -22 0
72 -71 0
70 -68 0
64 -63 0
78 -77 0
96 -96 0
40 -41 0
91 -92 0
85 -88 0
13 -8 0
22 -16 0
41 -40 0
4 -4 0
32 -38 0
27 -26 0
59 -58 0
71 -72 0
92 -91 0
38 -32 0
89 -89 0
83 -82 0
55 -56 0
68 -70 0
88 -85 0
26 -27 0
82 -83 0
80 -80 0
-14 -7 0
-14 -11 0
-14 -10 0
-19 -20 0
-19 -17 0
-19 -15 0
-45 -46 0
-45 -39 0
-45 -43 0
-5 -6 0
-5 -1 0
-5 -2 0
-33 -34 0
-33 -31 0
-33 -36 0
-24 -30 0
-24 -25 0
-24 -23 0
-7 -11 0
-7 -10 0
-20 -17 0
-20 -15 0
-46 -39 0
-46 -43 0
-6 -1 0
-6 -2 0
-34 -31 0
-34 -36 0
-30 -25 0
-30 -23 0
-11 -10 0
-17 -15 0
-39 -43 0
-1 -2 0
-31 -36 0
-25 -23 0
14 7 11 10 0
19 20 17 15 0
45 46 39 43 0
5 6 1 2 0
33 34 31 36 0
24 30 25 23 0
14 7 11 -48 0
14 7 11 -47 0
14 7 10 -48 0
14 7 10 -47 0
14 11 10 -48 0
14 11 10 -47 0
19 20 17 -66 0
19 20 17 -65 0
19 20 15 -66 0
19 20 15 -65 0
19 17 15 -66 0
19 17 15 -65 0
45 46 39 -95 0
45 46 39 -96 0
45 46 43 -95 0
45 46 43 -96 0
45 39 43 -95 0
45 39 43 -96 0
5 6 1 -3 0
5 6 1 -4 0
5 6 2 -3 0
5 6 2 -4 0
5 1 2 -3 0
5 1 2 -4 0
33 34 31 -90 0
33 34 31 -89 0
33 34 36 -90 0
33 34 36 -89 0
33 31 36 -90 0
33 31 36 -89 0
24 30 25 -79 0
24 30 25 -80 0
24 30 23 -79 0
24 30 23 -80 0
24 25 23 -79 0
24 25 23 -80 0
7 11 10 -48 0
7 11 10 -47 0
20 17 15 -66 0
20 17 15 -65 0
46 39 43 -95 0
46 39 43 -96 0
6 1 2 -3 0
6 1 2 -4 0
34 31 36 -90 0
34 31 36 -89 0
30 25 23 -79 0
30 25 23 -80 0
14 7 11 10 -48 0
14 7 11 10 -51 0
14 7 11 10 -62 0
14 7 11 10 -12 0
14 7 11 10 -57 0
14 7 11 10 -54 0
14 7 11 10 -52 0
14 7 11 10 -61 0
14 7 11 10 -9 0
14 7 11 10 -60 0
14 7 11 10 -53 0
14 7 11 10 -47 0
14 7 11 10 -49 0
14 7 11 10 -63 0
14 7 11 10 -8 0
14 7 11 10 -58 0
14 7 11 10 -56 0
14 7 11 10 -50 0
14 7 11 10 -64 0
14 7 11 10 -13 0
14 7 11 10 -59 0
14 7 11 10 -55 0
19 20 17 15 -51 0
19 20 17 15 -52 0
19 20 17 15 -66 0
19 20 17 15 -76 0
19 20 17 15 -21 0
19 20 17 15 -73 0
19 20 17 15 -67 0
19 20 17 15 -75 0
19 20 17 15 -18 0
19 20 17 15 -74 0
19 20 17 15 -69 0
19 20 17 15 -49 0
19 20 17 15 -50 0
19 20 17 15 -65 0
19 20 17 15 -77 0
19 20 17 15 -16 0
19 20 17 15 -72 0
19 20 17 15 -70 0
19 20 17 15 -78 0
19 20 17 15 -22 0
19 20 17 15 -71 0
19 20 17 15 -68 0
45 46 39 43 -62 0
45 46 39 43 -76 0
45 46 39 43 -61 0
45 46 39 43 -75 0
45 46 39 43 -95 0
45 46 39 43 -42 0
45 46 39 43 -94 0
45 46 39 43 -87 0
45 46 39 43 -44 0
45 46 39 43 -93 0
45 46 39 43 -86 0
45 46 39 43 -63 0
45 46 39 43 -77 0
45 46 39 43 -64 0
45 46 39 43 -78 0
45 46 39 43 -96 0
45 46 39 43 -40 0
45 46 39 43 -91 0
45 46 39 43 -85 0
45 46 39 43 -41 0
45 46 39 43 -92 0
45 46 39 43 -88 0
5 6 1 2 -12 0
5 6 1 2 -21 0
5 6 1 2 -42 0
5 6 1 2 -9 0
5 6 1 2 -18 0
5 6 1 2 -44 0
5 6 1 2 -3 0
5 6 1 2 -37 0
5 6 1 2 -29 0
5 6 1 2 -35 0
5 6 1 2 -28 0
5 6 1 2 -8 0
5 6 1 2 -16 0
5 6 1 2 -40 0
5 6 1 2 -13 0
5 6 1 2 -22 0
5 6 1 2 -41 0
5 6 1 2 -4 0
5 6 1 2 -32 0
5 6 1 2 -27 0
5 6 1 2 -38 0
5 6 1 2 -26 0
33 34 31 36 -57 0
33 34 31 36 -73 0
33 34 31 36 -94 0
33 34 31 36 -37 0
33 34 31 36 -60 0
33 34 31 36 -74 0
33 34 31 36 -93 0
33 34 31 36 -35 0
33 34 31 36 -90 0
33 34 31 36 -81 0
33 34 31 36 -84 0
33 34 31 36 -58 0
33 34 31 36 -72 0
33 34 31 36 -91 0
33 34 31 36 -32 0
33 34 31 36 -59 0
33 34 31 36 -71 0
33 34 31 36 -92 0
33 34 31 36 -38 0
33 34 31 36 -89 0
33 34 31 36 -83 0
33 34 31 36 -82 0
24 30 25 23 -54 0
24 30 25 23 -67 0
24 30 25 23 -87 0
24 30 25 23 -29 0
24 30 25 23 -81 0
24 30 25 23 -53 0
24 30 25 23 -69 0
24 30 25 23 -86 0
24 30 25 23 -28 0
24 30 25 23 -84 0
24 30 25 23 -79 0
24 30 25 23 -56 0
24 30 25 23 -70 0
24 30 25 23 -85 0
24 30 25 23 -27 0
24 30 25 23 -83 0
24 30 25 23 -55 0
24 30 25 23 -68 0
24 30 25 23 -88 0
24 30 25 23 -26 0
24 30 25 23 -82 0
24 30 25 23 -80 0
48 51 62 12 57 54 0
52 66 76 21 73 67 0
61 75 95 42 94 87 0
9 18 44 3 37 29 0
60 74 93 35 90 81 0
53 69 86 28 84 79 0
47 49 63 8 58 56 0
50 65 77 16 72 70 0
64 78 96 40 91 85 0
13 22 41 4 32 27 0
59 71 92 38 89 83 0
55 68 88 26 82 80 0
14 19 7 11 10 -51 0
14 19 7 11 10 -52 0
14 19 7 11 10 -49 0
14 19 7 11 10 -50 0
14 19 20 17 15 -51 0
14 19 20 17 15 -52 0
14 19 20 17 15 -49 0
14 19 20 17 15 -50 0
14 45 7 11 10 -62 0
14 45 7 11 10 -61 0
14 45 7 11 10 -63 0
14 45 7 11 10 -64 0
14 45 46 39 43 -62 0
14 45 46 39 43 -61 0
14 45 46 39 43 -63 0
14 45 46 39 43 -64 0
14 5 7 11 10 -12 0
14 5 7 11 10 -9 0
14 5 7 11 10 -8 0
14 5 7 11 10 -13 0
14 5 6 1 2 -12 0
14 5 6 1 2 -9 0
14 5 6 1 2 -8 0
14 5 6 1 2 -13 0
14 33 7 11 10 -57 0
14 33 7 11 10 -60 0
14 33 7 11 10 -58 0
14 33 7 11 10 -59 0
14 33 34 31 36 -57 0
14 33 34 31 36 -60 0
14 33 34 31 36 -58 0
14 33 34 31 36 -59 0
14 24 7 11 10 -54 0
14 24 7 11 10 -53 0
14 24 7 11 10 -56 0
14 24 7 11 10 -55 0
14 24 30 25 23 -54 0
14 24 30 25 23 -53 0
14 24 30 25 23 -56 0
14 24 30 25 23 -55 0
14 7 20 11 10 -51 0
14 7 20 11 10 -52 0
14 7 20 11 10 -49 0
14 7 20 11 10 -50 0
14 7 46 11 10 -62 0
14 7 46 11 10 -61 0
14 7 46 11 10 -63 0
14 7 46 11 10 -64 0
14 7 6 11 10 -12 0
14 7 6 11 10 -9 0
14 7 6 11 10 -8 0
14 7 6 11 10 -13 0
14 7 34 11 10 -57 0
14 7 34 11 10 -60 0
14 7 34 11 10 -58 0
14 7 34 11 10 -59 0
14 7 30 11 10 -54 0
14 7 30 11 10 -53 0
14 7 30 11 10 -56 0
14 7 30 11 10 -55 0
14 7 11 17 10 -51 0
14 7 11 17 10 -52 0
14 7 11 17 10 -49 0
14 7 11 17 10 -50 0
14 7 11 39 10 -62 0
14 7 11 39 10 -61 0
14 7 11 39 10 -63 0
14 7 11 39 10 -64 0
14 7 11 1 10 -12 0
14 7 11 1 10 -9 0
14 7 11 1 10 -8 0
14 7 11 1 10 -13 0
14 7 11 31 10 -57 0
14 7 11 31 10 -60 0
14 7 11 31 10 -58 0
14 7 11 31 10 -59 0
14 7 11 25 10 -54 0
14 7 11 25 10 -53 0
14 7 11 25 10 -56 0
14 7 11 25 10 -55 0
14 7 11 10 15 -51 0
14 7 11 10 15 -52 0
14 7 11 10 15 -49 0
14 7 11 10 15 -50 0
14 7 11 10 43 -62 0
14 7 11 10 43 -61 0
14 7 11 10 43 -63 0
14 7 11 10 43 -64 0
14 7 11 10 2 -12 0
14 7 11 10 2 -9 0
14 7 11 10 2 -8 0
14 7 11 10 2 -13 0
14 7 11 10 36 -57 0
14 7 11 10 36 -60 0
14 7 11 10 36 -58 0
14 7 11 10 36 -59 0
14 7 11 10 23 -54 0
14 7 11 10 23 -53 0
14 7 11 10 23 -56 0
14 7 11 10 23 -55 0
19 45 20 17 15 -76 0
19 45 20 17 15 -75 0
19 45 20 17 15 -77 0
19 45 20 17 15 -78 0
19 45 46 39 43 -76 0
19 45 46 39 43 -75 0
19 45 46 39 43 -77 0
19 45 46 39 43 -78 0
19 5 20 17 15 -21 0
19 5 20 17 15 -18 0
19 5 20 17 15 -16 0
19 5 20 17 15 -22 0
19 5 6 1 2 -21 0
19 5 6 1 2 -18 0
19 5 6 1 2 -16 0
19 5 6 1 2 -22 0
19 33 20 17 15 -73 0
19 33 20 17 15 -74 0
19 33 20 17 15 -72 0
19 33 20 17 15 -71 0
19 33 34 31 36 -73 0
19 33 34 31 36 -74 0
19 33 34 31 36 -72 0
19 33 34 31 36 -71 0
19 24 20 17 15 -67 0
19 24 20 17 15 -69 0
19 24 20 17 15 -70 0
19 24 20 17 15 -68 0
19 24 30 25 23 -67 0
19 24 30 25 23 -69 0
19 24 30 25 23 -70 0
19 24 30 25 23 -68 0
19 7 20 17 15 -51 0
19 7 20 17 15 -52 0
19 7 20 17 15 -49 0
19 7 20 17 15 -50 0
19 20 46 17 15 -76 0
19 20 46 17 15 -75 0
19 20 46 17 15 -77 0
19 20 46 17 15 -78 0
19 20 6 17 15 -21 0
19 20 6 17 15 -18 0
19 20 6 17 15 -16 0
19 20 6 17 15 -22 0
19 20 34 17 15 -73 0
19 20 34 17 15 -74 0
19 20 34 17 15 -72 0
19 20 34 17 15 -71 0
19 20 30 17 15 -67 0
19 20 30 17 15 -69 0
19 20 30 17 15 -70 0
19 20 30 17 15 -68 0
19 20 11 17 15 -51 0
19 20 11 17 15 -52 0
19 20 11 17 15 -49 0
19 20 11 17 15 -50 0
19 20 17 39 15 -76 0
19 20 17 39 15 -75 0
19 20 17 39 15 -77 0
19 20 17 39 15 -78 0
19 20 17 1 15 -21 0
19 20 17 1 15 -18 0
19 20 17 1 15 -16 0
19 20 17 1 15 -22 0
19 20 17 31 15 -73 0
19 20 17 31 15 -74 0
19 20 17 31 15 -72 0
19 20 17 31 15 -71 0
19 20 17 25 15 -67 0
19 20 17 25 15 -69 0
19 20 17 25 15 -70 0
19 20 17 25 15 -68 0
19 20 17 10 15 -51 0
19 20 17 10 15 -52 0
19 20 17 10 15 -49 0
19 20 17 10 15 -50 0
19 20 17 15 43 -76 0
19 20 17 15 43 -75 0
19 20 17 15 43 -77 0
19 20 17 15 43 -78 0
19 20 17 15 2 -21 0
19 20 17 15 2 -18 0
19 20 17 15 2 -16 0
19 20 17 15 2 -22 0
19 20 17 15 36 -73 0
19 20 17 15 36 -74 0
19 20 17 15 36 -72 0
19 20 17 15 36 -71 0
19 20 17 15 23 -67 0
19 20 17 15 23 -69 0
19 20 17 15 23 -70 0
19 20 17 15 23 -68 0
45 5 46 39 43 -42 0
45 5 46 39 43 -44 0
45 5 46 39 43 -40 0
45 5 46 39 43 -41 0
45 5 6 1 2 -42 0
45 5 6 1 2 -44 0
45 5 6 1 2 -40 0
45 5 6 1 2 -41 0
45 33 46 39 43 -94 0
45 33 46 39 43 -93 0
45 33 46 39 43 -91 0
45 33 46 39 43 -92 0
45 33 34 31 36 -94 0
45 33 34 31 36 -93 0
45 33 34 31 36 -91 0
45 33 34 31 36 -92 0
45 24 46 39 43 -87 0
45 24 46 39 43 -86 0
45 24 46 39 43 -85 0
45 24 46 39 43 -88 0
45 24 30 25 23 -87 0
45 24 30 25 23 -86 0
45 24 30 25 23 -85 0
45 24 30 25 23 -88 0
45 7 46 39 43 -62 0
45 7 46 39 43 -61 0
45 7 46 39 43 -63 0
45 7 46 39 43 -64 0
45 20 46 39 43 -76 0
45 20 46 39 43 -75 0
45 20 46 39 43 -77 0
45 20 46 39 43 -78 0
45 46 6 39 43 -42 0
45 46 6 39 43 -44 0
45 46 6 39 43 -40 0
45 46 6 39 43 -41 0
45 46 34 39 43 -94 0
45 46 34 39 43 -93 0
45 46 34 39 43 -91 0
45 46 34 39 43 -92 0
45 46 30 39 43 -87 0
45 46 30 39 43 -86 0
45 46 30 39 43 -85 0
45 46 30 39 43 -88 0
45 46 11 39 43 -62 0
45 46 11 39 43 -61 0
45 46 11 39 43 -63 0
45 46 11 39 43 -64 0
45 46 17 39 43 -76 0
45 46 17 39 43 -75 0
45 46 17 39 43 -77 0
45 46 17 39 43 -78 0
45 46 39 1 43 -42 0
45 46 39 1 43 -44 0
45 46 39 1 43 -40 0
45 46 39 1 43 -41 0
45 46 39 31 43 -94 0
45 46 39 31 43 -93 0
45 46 39 31 43 -91 0
45 46 39 31 43 -92 0
45 46 39 25 43 -87 0
45 46 39 25 43 -86 0
45 46 39 25 43 -85 0
45 46 39 25 43 -88 0
45 46 39 10 43 -62 0
45 46 39 10 43 -61 0
45 46 39 10 43 -63 0
45 46 39 10 43 -64 0
45 46 39 15 43 -76 0
45 46 39 15 43 -75 0
45 46 39 15 43 -77 0
45 46 39 15 43 -78 0
45 46 39 43 2 -42 0
45 46 39 43 2 -44 0
45 46 39 43 2 -40 0
45 46 39 43 2 -41 0
45 46 39 43 36 -94 0
45 46 39 43 36 -93 0
45 46 39 43 36 -91 0
45 46 39 43 36 -92 0
45 46 39 43 23 -87 0
45 46 39 43 23 -86 0
45 46 39 43 23 -85 0
45 46 39 43 23 -88 0
5 33 6 1 2 -37 0
5 33 6 1 2 -35 0
5 33 6 1 2 -32 0
5 33 6 1 2 -38 0
5 33 34 31 36 -37 0
5 33 34 31 36 -35 0
5 33 34 31 36 -32 0
5 33 34 31 36 -38 0
5 24 6 1 2 -29 0
5 24 6 1 2 -28 0
5 24 6 1 2 -27 0
5 24 6 1 2 -26 0
5 24 30 25 23 -29 0
5 24 30 25 23 -28 0
5 24 30 25 23 -27 0
5 24 30 25 23 -26 0
5 7 6 1 2 -12 0
5 7 6 1 2 -9 0
5 7 6 1 2 -8 0
5 7 6 1 2 -13 0
5 20 6 1 2 -21 0
5 20 6 1 2 -18 0
5 20 6 1 2 -16 0
5 20 6 1 2 -22 0
5 46 6 1 2 -42 0
5 46 6 1 2 -44 0
5 46 6 1 2 -40 0
5 46 6 1 2 -41 0
5 6 34 1 2 -37 0
5 6 34 1 2 -35 0
5 6 34 1 2 -32 0
5 6 34 1 2 -38 0
5 6 30 1 2 -29 0
5 6 30 1 2 -28 0
5 6 30 1 2 -27 0
5 6 30 1 2 -26 0
5 6 11 1 2 -12 0
5 6 11 1 2 -9 0
5 6 11 1 2 -8 0
5 6 11 1 2 -13 0
5 6 17 1 2 -21 0
5 6 17 1 2 -18 0
5 6 17 1 2 -16 0
5 6 17 1 2 -22 0
5 6 39 1 2 -42 0
5 6 39 1 2 -44 0
5 6 39 1 2 -40 0
5 6 39 1 2 -41 0
5 6 1 31 2 -37 0
5 6 1 31 2 -35 0
5 6 1 31 2 -32 0
5 6 1 31 2 -38 0
5 6 1 25 2 -29 0
5 6 1 25 2 -28 0
5 6 1 25 2 -27 0
5 6 1 25 2 -26 0
5 6 1 10 2 -12 0
5 6 1 10 2 -9 0
5 6 1 10 2 -8 0
5 6 1 10 2 -13 0
5 6 1 15 2 -21 0
5 6 1 15 2 -18 0
5 6 1 15 2 -16 0
5 6 1 15 2 -22 0
5 6 1 43 2 -42 0
5 6 1 43 2 -44 0
5 6 1 43 2 -40 0
5 6 1 43 2 -41 0
5 6 1 2 36 -37 0
5 6 1 2 36 -35 0
5 6 1 2 36 -32 0
5 6 1 2 36 -38 0
5 6 1 2 23 -29 0
5 6 1 2 23 -28 0
5 6 1 2 23 -27 0
5 6 1 2 23 -26 0
33 24 34 31 36 -81 0
33 24 34 31 36 -84 0
33 24 34 31 36 -83 0
33 24 34 31 36 -82 0
33 24 30 25 23 -81 0
33 24 30 25 23 -84 0
33 24 30 25 23 -83 0
33 24 30 25 23 -82 0
33 7 34 31 36 -57 0
33 7 34 31 36 -60 0
33 7 34 31 36 -58 0
33 7 34 31 36 -59 0
33 20 34 31 36 -73 0
33 20 34 31 36 -74 0
33 20 34 31 36 -72 0
33 20 34 31 36 -71 0
33 46 34 31 36 -94 0
33 46 34 31 36 -93 0
33 46 34 31 36 -91 0
33 46 34 31 36 -92 0
33 6 34 31 36 -37 0
33 6 34 31 36 -35 0
33 6 34 31 36 -32 0
33 6 34 31 36 -38 0
33 34 30 31 36 -81 0
33 34 30 31 36 -84 0
33 34 30 31 36 -83 0
33 34 30 31 36 -82 0
33 34 11 31 36 -57 0
33 34 11 31 36 -60 0
33 34 11 31 36 -58 0
33 34 11 31 36 -59 0
33 34 17 31 36 -73 0
33 34 17 31 36 -74 0
33 34 17 31 36 -72 0
33 34 17 31 36 -71 0
33 34 39 31 36 -94 0
33 34 39 31 36 -93 0
33 34 39 31 36 -91 0
33 34 39 31 36 -92 0
33 34 1 31 36 -37 0
33 34 1 31 36 -35 0
33 34 1 31 36 -32 0
33 34 1 31 36 -38 0
33 34 31 25 36 -81 0
33 34 31 25 36 -84 0
33 34 31 25 36 -83 0
33 34 31 25 36 -82 0
33 34 31 10 36 -57 0
33 34 31 10 36 -60 0
33 34 31 10 36 -58 0
33 34 31 10 36 -59 0
33 34 31 15 36 -73 0
33 34 31 15 36 -74 0
33 34 31 15 36 -72 0
33 34 31 15 36 -71 0
33 34 31 43 36 -94 0
33 34 31 43 36 -93 0
33 34 31 43 36 -91 0
33 34 31 43 36 -92 0
33 34 31 2 36 -37 0
33 34 31 2 36 -35 0
33 34 31 2 36 -32 0
33 34 31 2 36 -38 0
33 34 31 36 23 -81 0
33 34 31 36 23 -84 0
33 34 31 36 23 -83 0
33 34 31 36 23 -82 0
24 7 30 25 23 -54 0
24 7 30 25 23 -53 0
24 7 30 25 23 -56 0
24 7 30 25 23 -55 0
24 20 30 25 23 -67 0
24 20 30 25 23 -69 0
24 20 30 25 23 -70 0
24 20 30 25 23 -68 0
24 46 30 25 23 -87 0
24 46 30 25 23 -86 0
24 46 30 25 23 -85 0
24 46 30 25 23 -88 0
24 6 30 25 23 -29 0
24 6 30 25 23 -28 0
24 6 30 25 23 -27 0
24 6 30 25 23 -26 0
24 34 30 25 23 -81 0
24 34 30 25 23 -84 0
24 34 30 25 23 -83 0
24 34 30 25 23 -82 0
24 30 11 25 23 -54 0
24 30 11 25 23 -53 0
24 30 11 25 23 -56 0
24 30 11 25 23 -55 0
24 30 17 25 23 -67 0
24 30 17 25 23 -69 0
24 30 17 25 23 -70 0
24 30 17 25 23 -68 0
24 30 39 25 23 -87 0
24 30 39 25 23 -86 0
24 30 39 25 23 -85 0
24 30 39 25 23 -88 0
24 30 1 25 23 -29 0
24 30 1 25 23 -28 0
24 30 1 25 23 -27 0
24 30 1 25 23 -26 0
24 30 31 25 23 -81 0
24 30 31 25 23 -84 0
24 30 31 25 23 -83 0
24 30 31 25 23 -82 0
24 30 25 10 23 -54 0
24 30 25 10 23 -53 0
24 30 25 10 23 -56 0
24 30 25 10 23 -55 0
24 30 25 15 23 -67 0
24 30 25 15 23 -69 0
24 30 25 15 23 -70 0
24 30 25 15 23 -68 0
24 30 25 43 23 -87 0
24 30 25 43 23 -86 0
24 30 25 43 23 -85 0
24 30 25 43 23 -88 0
24 30 25 2 23 -29 0
24 30 25 2 23 -28 0
24 30 25 2 23 -27 0
24 30 25 2 23 -26 0
24 30 25 36 23 -81 0
24 30 25 36 23 -84 0
24 30 25 36 23 -83 0
24 30 25 36 23 -82 0
14 19 7 20 11 17 -51 0
14 19 7 20 11 17 -52 0
14 19 7 20 11 17 -49 0
14 19 7 20 11 17 -50 0
14 19 7 20 11 10 -51 0
14 19 7 20 11 10 -52 0
14 19 7 20 11 10 -49 0
14 19 7 20 11 10 -50 0
14 19 7 20 17 15 -51 0
14 19 7 20 17 15 -52 0
14 19 7 20 17 15 -49 0
14 19 7 20 17 15 -50 0
14 19 7 20 10 15 -51 0
14 19 7 20 10 15 -52 0
14 19 7 20 10 15 -49 0
14 19 7 20 10 15 -50 0
14 19 7 11 17 10 -51 0
14 19 7 11 17 10 -52 0
14 19 7 11 17 10 -49 0
14 19 7 11 17 10 -50 0
14 19 7 11 10 15 -51 0
14 19 7 11 10 15 -52 0
14 19 7 11 10 15 -49 0
14 19 7 11 10 15 -50 0
14 19 20 11 17 15 -51 0
14 19 20 11 17 15 -52 0
14 19 20 11 17 15 -49 0
14 19 20 11 17 15 -50 0
14 19 20 17 10 15 -51 0
14 19 20 17 10 15 -52 0
14 19 20 17 10 15 -49 0
14 19 20 17 10 15 -50 0
14 19 11 17 10 15 -51 0
14 19 11 17 10 15 -52 0
14 19 11 17 10 15 -49 0
14 19 11 17 10 15 -50 0
14 45 7 46 11 39 -62 0
14 45 7 46 11 39 -61 0
14 45 7 46 11 39 -63 0
14 45 7 46 11 39 -64 0
14 45 7 46 11 10 -62 0
14 45 7 46 11 10 -61 0
14 45 7 46 11 10 -63 0
14 45 7 46 11 10 -64 0
14 45 7 46 39 43 -62 0
14 45 7 46 39 43 -61 0
14 45 7 46 39 43 -63 0
14 45 7 46 39 43 -64 0
14 45 7 46 10 43 -62 0
14 45 7 46 10 43 -61 0
14 45 7 46 10 43 -63 0
14 45 7 46 10 43 -64 0
14 45 7 11 39 10 -62 0
14 45 7 11 39 10 -61 0
14 45 7 11 39 10 -63 0
14 45 7 11 39 10 -64 0
14 45 7 11 10 43 -62 0
14 45 7 11 10 43 -61 0
14 45 7 11 10 43 -63 0
14 45 7 11 10 43 -64 0
14 45 46 11 39 43 -62 0
14 45 46 11 39 43 -61 0
14 45 46 11 39 43 -63 0
14 45 46 11 39 43 -64 0
14 45 46 39 10 43 -62 0
14 45 46 39 10 43 -61 0
14 45 46 39 10 43 -63 0
14 45 46 39 10 43 -64 0
14 45 11 39 10 43 -62 0
14 45 11 39 10 43 -61 0
14 45 11 39 10 43 -63 0
14 45 11 39 10 43 -64 0
14 5 7 6 11 1 -12 0
14 5 7 6 11 1 -9 0
14 5 7 6 11 1 -8 0
14 5 7 6 11 1 -13 0
14 5 7 6 11 10 -12 0
14 5 7 6 11 10 -9 0
14 5 7 6 11 10 -8 0
14 5 7 6 11 10 -13 0
14 5 7 6 1 2 -12 0
14 5 7 6 1 2 -9 0
14 5 7 6 1 2 -8 0
14 5 7 6 1 2 -13 0
14 5 7 6 10 2 -12 0
14 5 7 6 10 2 -9 0
14 5 7 6 10 2 -8 0
14 5 7 6 10 2 -13 0
14 5 7 11 1 10 -12 0
14 5 7 11 1 10 -9 0
14 5 7 11 1 10 -8 0
14 5 7 11 1 10 -13 0
14 5 7 11 10 2 -12 0
14 5 7 11 10 2 -9 0
14 5 7 11 10 2 -8 0
14 5 7 11 10 2 -13 0
14 5 6 11 1 2 -12 0
14 5 6 11 1 2 -9 0
14 5 6 11 1 2 -8 0
14 5 6 11 1 2 -13 0
14 5 6 1 10 2 -12 0
14 5 6 1 10 2 -9 0
14 5 6 1 10 2 -8 0
14 5 6 1 10 2 -13 0
14 5 11 1 10 2 -12 0
14 5 11 1 10 2 -9 0
14 5 11 1 10 2 -8 0
14 5 11 1 10 2 -13 0
14 33 7 34 11 31 -57 0
14 33 7 34 11 31 -60 0
14 33 7 34 11 31 -58 0
14 33 7 34 11 31 -59 0
14 33 7 34 11 10 -57 0
14 33 7 34 11 10 -60 0
14 33 7 34 11 10 -58 0
14 33 7 34 11 10 -59 0
14 33 7 34 31 36 -57 0
14 33 7 34 31 36 -60 0
14 33 7 34 31 36 -58 0
14 33 7 34 31 36 -59 0
14 33 7 34 10 36 -57 0
14 33 7 34 10 36 -60 0
14 33 7 34 10 36 -58 0
14 33 7 34 10 36 -59 0
14 33 7 11 31 10 -57 0
14 33 7 11 31 10 -60 0
14 33 7 11 31 10 -58 0
14 33 7 11 31 10 -59 0
14 33 7 11 10 36 -57 0
14 33 7 11 10 36 -60 0
14 33 7 11 10 36 -58 0
14 33 7 11 10 36 -59 0
14 33 34 11 31 36 -57 0
14 33 34 11 31 36 -60 0
14 33 34 11 31 36 -58 0
14 33 34 11 31 36 -59 0
14 33 34 31 10 36 -57 0
14 33 34 31 10 36 -60 0
14 33 34 31 10 36 -58 0
14 33 34 31 10 36 -59 0
14 33 11 31 10 36 -57 0
14 33 11 31 10 36 -60 0
14 33 11 31 10 36 -58 0
14 33 11 31 10 36 -59 0
14 24 7 30 11 25 -54 0
14 24 7 30 11 25 -53 0
14 24 7 30 11 25 -56 0
14 24 7 30 11 25 -55 0
14 24 7 30 11 10 -54 0
14 24 7 30 11 10 -53 0
14 24 7 30 11 10 -56 0
14 24 7 30 11 10 -55 0
14 24 7 30 25 23 -54 0
14 24 7 30 25 23 -53 0
14 24 7 30 25 23 -56 0
14 24 7 30 25 23 -55 0
14 24 7 30 10 23 -54 0
14 24 7 30 10 23 -53 0
14 24 7 30 10 23 -56 0
14 24 7 30 10 23 -55 0
14 24 7 11 25 10 -54 0
14 24 7 11 25 10 -53 0
14 24 7 11 25 10 -56 0
14 24 7 11 25 10 -55 0
14 24 7 11 10 23 -54 0
14 24 7 11 10 23 -53 0
14 24 7 11 10 23 -56 0
14 24 7 11 10 23 -55 0
14 24 30 11 25 23 -54 0
14 24 30 11 25 23 -53 0
14 24 30 11 25 23 -56 0
14 24 30 11 25 23 -55 0
14 24 30 25 10 23 -54 0
14 24 30 25 10 23 -53 0
14 24 30 25 10 23 -56 0
14 24 30 25 10 23 -55 0
14 24 11 25 10 23 -54 0
14 24 11 25 10 23 -53 0
14 24 11 25 10 23 -56 0
14 24 11 25 10 23 -55 0
14 7 20 11 17 10 -51 0
14 7 20 11 17 10 -52 0
14 7 20 11 17 10 -49 0
14 7 20 11 17 10 -50 0
14 7 20 11 10 15 -51 0
14 7 20 11 10 15 -52 0
14 7 20 11 10 15 -49 0
14 7 20 11 10 15 -50 0
14 7 46 11 39 10 -62 0
14 7 46 11 39 10 -61 0
14 7 46 11 39 10 -63 0
14 7 46 11 39 10 -64 0
14 7 46 11 10 43 -62 0
14 7 46 11 10 43 -61 0
14 7 46 11 10 43 -63 0
14 7 46 11 10 43 -64 0
14 7 6 11 1 10 -12 0
14 7 6 11 1 10 -9 0
14 7 6 11 1 10 -8 0
14 7 6 11 1 10 -13 0
14 7 6 11 10 2 -12 0
14 7 6 11 10 2 -9 0
14 7 6 11 10 2 -8 0
14 7 6 11 10 2 -13 0
14 7 34 11 31 10 -57 0
14 7 34 11 31 10 -60 0
14 7 34 11 31 10 -58 0
14 7 34 11 31 10 -59 0
14 7 34 11 10 36 -57 0
14 7 34 11 10 36 -60 0
14 7 34 11 10 36 -58 0
14 7 34 11 10 36 -59 0
14 7 30 11 25 10 -54 0
14 7 30 11 25 10 -53 0
14 7 30 11 25 10 -56 0
14 7 30 11 25 10 -55 0
14 7 30 11 10 23 -54 0
14 7 30 11 10 23 -53 0
14 7 30 11 10 23 -56 0
14 7 30 11 10 23 -55 0
14 7 11 17 10 15 -51 0
14 7 11 17 10 15 -52 0
14 7 11 17 10 15 -49 0
14 7 11 17 10 15 -50 0
14 7 11 39 10 43 -62 0
14 7 11 39 10 43 -61 0
14 7 11 39 10 43 -63 0
14 7 11 39 10 43 -64 0
14 7 11 1 10 2 -12 0
14 7 11 1 10 2 -9 0
14 7 11 1 10 2 -8 0
14 7 11 1 10 2 -13 0
14 7 11 31 10 36 -57 0
14 7 11 31 10 36 -60 0
14 7 11 31 10 36 -58 0
14 7 11 31 10 36 -59 0
14 7 11 25 10 23 -54 0
14 7 11 25 10 23 -53 0
14 7 11 25 10 23 -56 0
14 7 11 25 10 23 -55 0
19 45 20 46 17 39 -76 0
19 45 20 46 17 39 -75 0
19 45 20 46 17 39 -77 0
19 45 20 46 17 39 -78 0
19 45 20 46 17 15 -76 0
19 45 20 46 17 15 -75 0
19 45 20 46 17 15 -77 0
19 45 20 46 17 15 -78 0
19 45 20 46 39 43 -76 0
19 45 20 46 39 43 -75 0
19 45 20 46 39 43 -77 0
19 45 20 46 39 43 -78 0
19 45 20 46 15 43 -76 0
19 45 20 46 15 43 -75 0
19 45 20 46 15 43 -77 0
19 45 20 46 15 43 -78 0
19 45 20 17 39 15 -76 0
19 45 20 17 39 15 -75 0
19 45 20 17 39 15 -77 0
19 45 20 17 39 15 -78 0
19 45 20 17 15 43 -76 0
19 45 20 17 15 43 -75 0
19 45 20 17 15 43 -77 0
19 45 20 17 15 43 -78 0
19 45 46 17 39 43 -76 0
19 45 46 17 39 43 -75 0
19 45 46 17 39 43 -77 0
19 45 46 17 39 43 -78 0
19 45 46 39 15 43 -76 0
19 45 46 39 15 43 -75 0
19 45 46 39 15 43 -77 0
19 45 46 39 15 43 -78 0
19 45 17 39 15 43 -76 0
19 45 17 39 15 43 -75 0
19 45 17 39 15 43 -77 0
19 45 17 39 15 43 -78 0
19 5 20 6 17 1 -21 0
19 5 20 6 17 1 -18 0
19 5 20 6 17 1 -16 0
19 5 20 6 17 1 -22 0
19 5 20 6 17 15 -21 0
19 5 20 6 17 15 -18 0
19 5 20 6 17 15 -16 0
19 5 20 6 17 15 -22 0
19 5 20 6 1 2 -21 0
19 5 20 6 1 2 -18 0
19 5 20 6 1 2 -16 0
19 5 20 6 1 2 -22 0
19 5 20 6 15 2 -21 0
19 5 20 6 15 2 -18 0
19 5 20 6 15 2 -16 0
19 5 20 6 15 2 -22 0
19 5 20 17 1 15 -21 0
19 5 20 17 1 15 -18 0
19 5 20 17 1 15 -16 0
19 5 20 17 1 15 -22 0
19 5 20 17 15 2 -21 0
19 5 20 17 15 2 -18 0
19 5 20 17 15 2 -16 0
19 5 20 17 15 2 -22 0
19 5 6 17 1 2 -21 0
19 5 6 17 1 2 -18 0
19 5 6 17 1 2 -16 0
19 5 6 17 1 2 -22 0
19 5 6 1 15 2 -21 0
19 5 6 1 15 2 -18 0
19 5 6 1 15 2 -16 0
19 5 6 1 15 2 -22 0
19 5 17 1 15 2 -21 0
19 5 17 1 15 2 -18 0
19 5 17 1 15 2 -16 0
19 5 17 1 15 2 -22 0
19 33 20 34 17 31 -73 0
19 33 20 34 17 31 -74 0
19 33 20 34 17 31 -72 0
19 33 20 34 17 31 -71 0
19 33 20 34 17 15 -73 0
19 33 20 34 17 15 -74 0
19 33 20 34 17 15 -72 0
19 33 20 34 17 15 -71 0
19 33 20 34 31 36 -73 0
19 33 20 34 31 36 -74 0
19 33 20 34 31 36 -72 0
19 33 20 34 31 36 -71 0
19 33 20 34 15 36 -73 0
19 33 20 34 15 36 -74 0
19 33 20 34 15 36 -72 0
19 33 20 34 15 36 -71 0
19 33 20 17 31 15 -73 0
19 33 20 17 31 15 -74 0
19 33 20 17 31 15 -72 0
19 33 20 17 31 15 -71 0
19 33 20 17 15 36 -73 0
19 33 20 17 15 36 -74 0
19 33 20 17 15 36 -72 0
19 33 20 17 15 36 -71 0
19 33 34 17 31 36 -73 0
19 33 34 17 31 36 -74 0
19 33 34 17 31 36 -72 0
19 33 34 17 31 36 -71 0
19 33 34 31 15 36 -73 0
19 33 34 31 15 36 -74 0
19 33 34 31 15 36 -72 0
19 33 34 31 15 36 -71 0
19 33 17 31 15 36 -73 0
19 33 17 31 15 36 -74 0
19 33 17 31 15 36 -72 0
19 33 17 31 15 36 -71 0
19 24 20 30 17 25 -67 0
19 24 20 30 17 25 -69 0
19 24 20 30 17 25 -70 0
19 24 20 30 17 25 -68 0
19 24 20 30 17 15 -67 0
19 24 20 30 17 15 -69 0
19 24 20 30 17 15 -70 0
19 24 20 30 17 15 -68 0
19 24 20 30 25 23 -67 0
19 24 20 30 25 23 -69 0
19 24 20 30 25 23 -70 0
19 24 20 30 25 23 -68 0
19 24 20 30 15 23 -67 0
19 24 20 30 15 23 -69 0
19 24 20 30 15 23 -70 0
19 24 20 30 15 23 -68 0
19 24 20 17 25 15 -67 0
19 24 20 17 25 15 -69 0
19 24 20 17 25 15 -70 0
19 24 20 17 25 15 -68 0
19 24 20 17 15 23 -67 0
19 24 20 17 15 23 -69 0
19 24 20 17 15 23 -70 0
19 24 20 17 15 23 -68 0
19 24 30 17 25 23 -67 0
19 24 30 17 25 23 -69 0
19 24 30 17 25 23 -70 0
19 24 30 17 25 23 -68 0
19 24 30 25 15 23 -67 0
19 24 30 25 15 23 -69 0
19 24 30 25 15 23 -70 0
19 24 30 25 15 23 -68 0
19 24 17 25 15 23 -67 0
19 24 17 25 15 23 -69 0
19 24 17 25 15 23 -70 0
19 24 17 25 15 23 -68 0
19 7 20 11 17 15 -51 0
19 7 20 11 17 15 -52 0
19 7 20 11 17 15 -49 0
19 7 20 11 17 15 -50 0
19 7 20 17 10 15 -51 0
19 7 20 17 10 15 -52 0
19 7 20 17 10 15 -49 0
19 7 20 17 10 15 -50 0
19 20 46 17 39 15 -76 0
19 20 46 17 39 15 -75 0
19 20 46 17 39 15 -77 0
19 20 46 17 39 15 -78 0
19 20 46 17 15 43 -76 0
19 20 46 17 15 43 -75 0
19 20 46 17 15 43 -77 0
19 20 46 17 15 43 -78 0
19 20 6 17 1 15 -21 0
19 20 6 17 1 15 -18 0
19 20 6 17 1 15 -16 0
19 20 6 17 1 15 -22 0
19 20 6 17 15 2 -21 0
19 20 6 17 15 2 -18 0
19 20 6 17 15 2 -16 0
19 20 6 17 15 2 -22 0
19 20 34 17 31 15 -73 0
19 20 34 17 31 15 -74 0
19 20 34 17 31 15 -72 0
19 20 34 17 31 15 -71 0
19 20 34 17 15 36 -73 0
19 20 34 17 15 36 -74 0
19 20 34 17 15 36 -72 0
19 20 34 17 15 36 -71 0
19 20 30 17 25 15 -67 0
19 20 30 17 25 15 -69 0
19 20 30 17 25 15 -70 0
19 20 30 17 25 15 -68 0
19 20 30 17 15 23 -67 0
19 20 30 17 15 23 -69 0
19 20 30 17 15 23 -70 0
19 20 30 17 15 23 -68 0
19 20 11 17 10 15 -51 0
19 20 11 17 10 15 -52 0
19 20 11 17 10 15 -49 0
19 20 11 17 10 15 -50 0
19 20 17 39 15 43 -76 0
19 20 17 39 15 43 -75 0
19 20 17 39 15 43 -77 0
19 20 17 39 15 43 -78 0
19 20 17 1 15 2 -21 0
19 20 17 1 15 2 -18 0
19 20 17 1 15 2 -16 0
19 20 17 1 15 2 -22 0
19 20 17 31 15 36 -73 0
19 20 17 31 15 36 -74 0
19 20 17 31 15 36 -72 0
19 20 17 31 15 36 -71 0
19 20 17 25 15 23 -67 0
19 20 17 25 15 23 -69 0
19 20 17 25 15 23 -70 0
19 20 17 25 15 23 -68 0
45 5 46 6 39 1 -42 0
45 5 46 6 39 1 -44 0
45 5 46 6 39 1 -40 0
45 5 46 6 39 1 -41 0
45 5 46 6 39 43 -42 0
45 5 46 6 39 43 -44 0
45 5 46 6 39 43 -40 0
45 5 46 6 39 43 -41 0
45 5 46 6 1 2 -42 0
45 5 46 6 1 2 -44 0
45 5 46 6 1 2 -40 0
45 5 46 6 1 2 -41 0
45 5 46 6 43 2 -42 0
45 5 46 6 43 2 -44 0
45 5 46 6 43 2 -40 0
45 5 46 6 43 2 -41 0
45 5 46 39 1 43 -42 0
45 5 46 39 1 43 -44 0
45 5 46 39 1 43 -40 0
45 5 46 39 1 43 -41 0
45 5 46 39 43 2 -42 0
45 5 46 39 43 2 -44 0
45 5 46 39 43 2 -40 0
45 5 46 39 43 2 -41 0
45 5 6 39 1 2 -42 0
45 5 6 39 1 2 -44 0
45 5 6 39 1 2 -40 0
45 5 6 39 1 2 -41 0
45 5 6 1 43 2 -42 0
45 5 6 1 43 2 -44 0
45 5 6 1 43 2 -40 0
45 5 6 1 43 2 -41 0
45 5 39 1 43 2 -42 0
45 5 39 1 43 2 -44 0
45 5 39 1 43 2 -40 0
45 5 39 1 43 2 -41 0
45 33 46 34 39 31 -94 0
45 33 46 34 39 31 -93 0
45 33 46 34 39 31 -91 0
45 33 46 34 39 31 -92 0
45 33 46 34 39 43 -94 0
45 33 46 34 39 43 -93 0
45 33 46 34 39 43 -91 0
45 33 46 34 39 43 -92 0
45 33 46 34 31 36 -94 0
45 33 46 34 31 36 -93 0
45 33 46 34 31 36 -91 0
45 33 46 34 31 36 -92 0
45 33 46 34 43 36 -94 0
45 33 46 34 43 36 -93 0
45 33 46 34 43 36 -91 0
45 33 46 34 43 36 -92 0
45 33 46 39 31 43 -94 0
45 33 46 39 31 43 -93 0
45 33 46 39 31 43 -91 0
45 33 46 39 31 43 -92 0
45 33 46 39 43 36 -94 0
45 33 46 39 43 36 -93 0
45 33 46 39 43 36 -91 0
45 33 46 39 43 36 -92 0
45 33 34 39 31 36 -94 0
45 33 34 39 31 36 -93 0
45 33 34 39 31 36 -91 0
45 33 34 39 31 36 -92 0
45 33 34 31 43 36 -94 0
45 33 34 31 43 36 -93 0
45 33 34 31 43 36 -91 0
45 33 34 31 43 36 -92 0
45 33 39 31 43 36 -94 0
45 33 39 31 43 36 -93 0
45 33 39 31 43 36 -91 0
45 33 39 31 43 36 -92 0
45 24 46 30 39 25 -87 0
45 24 46 30 39 25 -86 0
45 24 46 30 39 25 -85 0
45 24 46 30 39 25 -88 0
45 24 46 30 39 43 -87 0
45 24 46 30 39 43 -86 0
45 24 46 30 39 43 -85 0
45 24 46 30 39 43 -88 0
45 24 46 30 25 23 -87 0
45 24 46 30 25 23 -86 0
45 24 46 30 25 23 -85 0
45 24 46 30 25 23 -88 0
45 24 46 30 43 23 -87 0
45 24 46 30 43 23 -86 0
45 24 46 30 43 23 -85 0
45 24 46 30 43 23 -88 0
45 24 46 39 25 43 -87 0
45 24 46 39 25 43 -86 0
45 24 46 39 25 43 -85 0
45 24 46 39 25 43 -88 0
45 24 46 39 43 23 -87 0
45 24 46 39 43 23 -86 0
45 24 46 39 43 23 -85 0
45 24 46 39 43 23 -88 0
45 24 30 39 25 23 -87 0
45 24 30 39 25 23 -86 0
45 24 30 39 25 23 -85 0
45 24 30 39 25 23 -88 0
45 24 30 25 43 23 -87 0
45 24 30 25 43 23 -86 0
45 24 30 25 43 23 -85 0
45 24 30 25 43 23 -88 0
45 24 39 25 43 23 -87 0
45 24 39 25 43 23 -86 0
45 24 39 25 43 23 -85 0
45 24 39 25 43 23 -88 0
45 7 46 11 39 43 -62 0
45 7 46 11 39 43 -61 0
45 7 46 11 39 43 -63 0
45 7 46 11 39 43 -64 0
45 7 46 39 10 43 -62 0
45 7 46 39 10 43 -61 0
45 7 46 39 10 43 -63 0
45 7 46 39 10 43 -64 0
45 20 46 17 39 43 -76 0
45 20 46 17 39 43 -75 0
45 20 46 17 39 43 -77 0
45 20 46 17 39 43 -78 0
45 20 46 39 15 43 -76 0
45 20 46 39 15 43 -75 0
45 20 46 39 15 43 -77 0
45 20 46 39 15 43 -78 0
45 46 6 39 1 43 -42 0
45 46 6 39 1 43 -44 0
45 46 6 39 1 43 -40 0
45 46 6 39 1 43 -41 0
45 46 6 39 43 2 -42 0
45 46 6 39 43 2 -44 0
45 46 6 39 43 2 -40 0
45 46 6 39 43 2 -41 0
45 46 34 39 31 43 -94 0
45 46 34 39 31 43 -93 0
45 46 34 39 31 43 -91 0
45 46 34 39 31 43 -92 0
45 46 34 39 43 36 -94 0
45 46 34 39 43 36 -93 0
45 46 34 39 43 36 -91 0
45 46 34 39 43 36 -92 0
45 46 30 39 25 43 -87 0
45 46 30 39 25 43 -86 0
45 46 30 39 25 43 -85 0
45 46 30 39 25 43 -88 0
45 46 30 39 43 23 -87 0
45 46 30 39 43 23 -86 0
45 46 30 39 43 23 -85 0
45 46 30 39 43 23 -88 0
45 46 11 39 10 43 -62 0
45 46 11 39 10 43 -61 0
45 46 11 39 10 43 -63 0
45 46 11 39 10 43 -64 0
45 46 17 39 15 43 -76 0
45 46 17 39 15 43 -75 0
45 46 17 39 15 43 -77 0
45 46 17 39 15 43 -78 0
45 46 39 1 43 2 -42 0
45 46 39 1 43 2 -44 0
45 46 39 1 43 2 -40 0
45 46 39 1 43 2 -41 0
45 46 39 31 43 36 -94 0
45 46 39 31 43 36 -93 0
45 46 39 31 43 36 -91 0
45 46 39 31 43 36 -92 0
45 46 39 25 43 23 -87 0
45 46 39 25 43 23 -86 0
45 46 39 25 43 23 -85 0
45 46 39 25 43 23 -88 0
5 33 6 34 1 31 -37 0
5 33 6 34 1 31 -35 0
5 33 6 34 1 31 -32 0
5 33 6 34 1 31 -38 0
5 33 6 34 1 2 -37 0
5 33 6 34 1 2 -35 0
5 33 6 34 1 2 -32 0
5 33 6 34 1 2 -38 0
5 33 6 34 31 36 -37 0
5 33 6 34 31 36 -35 0
5 33 6 34 31 36 -32 0
5 33 6 34 31 36 -38 0
5 33 6 34 2 36 -37 0
5 33 6 34 2 36 -35 0
5 33 6 34 2 36 -32 0
5 33 6 34 2 36 -38 0
5 33 6 1 31 2 -37 0
5 33 6 1 31 2 -35 0
5 33 6 1 31 2 -32 0
5 33 6 1 31 2 -38 0
5 33 6 1 2 36 -37 0
5 33 6 1 2 36 -35 0
5 33 6 1 2 36 -32 0
5 33 6 1 2 36 -38 0
5 33 34 1 31 36 -37 0
5 33 34 1 31 36 -35 0
5 33 34 1 31 36 -32 0
5 33 34 1 31 36 -38 0
5 33 34 31 2 36 -37 0
5 33 34 31 2 36 -35 0
5 33 34 31 2 36 -32 0
5 33 34 31 2 36 -38 0
5 33 1 31 2 36 -37 0
5 33 1 31 2 36 -35 0
5 33 1 31 2 36 -32 0
5 33 1 31 2 36 -38 0
5 24 6 30 1 25 -29 0
5 24 6 30 1 25 -28 0
5 24 6 30 1 25 -27 0
5 24 6 30 1 25 -26 0
5 24 6 30 1 2 -29 0
5 24 6 30 1 2 -28 0
5 24 6 30 1 2 -27 0
5 24 6 30 1 2 -26 0
5 24 6 30 25 23 -29 0
5 24 6 30 25 23 -28 0
5 24 6 30 25 23 -27 0
5 24 6 30 25 23 -26 0
5 24 6 30 2 23 -29 0
5 24 6 30 2 23 -28 0
5 24 6 30 2 23 -27 0
5 24 6 30 2 23 -26 0
5 24 6 1 25 2 -29 0
5 24 6 1 25 2 -28 0
5 24 6 1 25 2 -27 0
5 24 6 1 25 2 -26 0
5 24 6 1 2 23 -29 0
5 24 6 1 2 23 -28 0
5 24 6 1 2 23 -27 0
5 24 6 1 2 23 -26 0
5 24 30 1 25 23 -29 0
5 24 30 1 25 23 -28 0
5 24 30 1 25 23 -27 0
5 24 30 1 25 23 -26 0
5 24 30 25 2 23 -29 0
5 24 30 25 2 23 -28 0
5 24 30 25 2 23 -27 0
5 24 30 25 2 23 -26 0
5 24 1 25 2 23 -29 0
5 24 1 25 2 23 -28 0
5 24 1 25 2 23 -27 0
5 24 1 25 2 23 -26 0
5 7 6 11 1 2 -12 0
5 7 6 11 1 2 -9 0
5 7 6 11 1 2 -8 0
5 7 6 11 1 2 -13 0
5 7 6 1 10 2 -12 0
5 7 6 1 10 2 -9 0
5 7 6 1 10 2 -8 0
5 7 6 1 10 2 -13 0
5 20 6 17 1 2 -21 0
5 20 6 17 1 2 -18 0
5 20 6 17 1 2 -16 0
5 20 6 17 1 2 -22 0
5 20 6 1 15 2 -21 0
5 20 6 1 15 2 -18 0
5 20 6 1 15 2 -16 0
5 20 6 1 15 2 -22 0
5 46 6 39 1 2 -42 0
5 46 6 39 1 2 -44 0
5 46 6 39 1 2 -40 0
5 46 6 39 1 2 -41 0
5 46 6 1 43 2 -42 0
5 46 6 1 43 2 -44 0
5 46 6 1 43 2 -40 0
5 46 6 1 43 2 -41 0
5 6 34 1 31 2 -37 0
5 6 34 1 31 2 -35 0
5 6 34 1 31 2 -32 0
5 6 34 1 31 2 -38 0
5 6 34 1 2 36 -37 0
5 6 34 1 2 36 -35 0
5 6 34 1 2 36 -32 0
5 6 34 1 2 36 -38 0
5 6 30 1 25 2 -29 0
5 6 30 1 25 2 -28 0
5 6 30 1 25 2 -27 0
5 6 30 1 25 2 -26 0
5 6 30 1 2 23 -29 0
5 6 30 1 2 23 -28 0
5 6 30 1 2 23 -27 0
5 6 30 1 2 23 -26 0
5 6 11 1 10 2 -12 0
5 6 11 1 10 2 -9 0
5 6 11 1 10 2 -8 0
5 6 11 1 10 2 -13 0
5 6 17 1 15 2 -21 0
5 6 17 1 15 2 -18 0
5 6 17 1 15 2 -16 0
5 6 17 1 15 2 -22 0
5 6 39 1 43 2 -42 0
5 6 39 1 43 2 -44 0
5 6 39 1 43 2 -40 0
5 6 39 1 43 2 -41 0
5 6 1 31 2 36 -37 0
5 6 1 31 2 36 -35 0
5 6 1 31 2 36 -32 0
5 6 1 31 2 36 -38 0
5 6 1 25 2 23 -29 0
5 6 1 25 2 23 -28 0
5 6 1 25 2 23 -27 0
5 6 1 25 2 23 -26 0
33 24 34 30 31 25 -81 0
33 24 34 30 31 25 -84 0
33 24 34 30 31 25 -83 0
33 24 34 30 31 25 -82 0
33 24 34 30 31 36 -81 0
33 24 34 30 31 36 -84 0
33 24 34 30 31 36 -83 0
33 24 34 30 31 36 -82 0
33 24 34 30 25 23 -81 0
33 24 34 30 25 23 -84 0
33 24 34 30 25 23 -83 0
33 24 34 30 25 23 -82 0
33 24 34 30 36 23 -81 0
33 24 34 30 36 23 -84 0
33 24 34 30 36 23 -83 0
33 24 34 30 36 23 -82 0
33 24 34 31 25 36 -81 0
33 24 34 31 25 36 -84 0
33 24 34 31 25 36 -83 0
33 24 34 31 25 36 -82 0
33 24 34 31 36 23 -81 0
33 24 34 31 36 23 -84 0
33 24 34 31 36 23 -83 0
33 24 34 31 36 23 -82 0
33 24 30 31 25 23 -81 0
33 24 30 31 25 23 -84 0
33 24 30 31 25 23 -83 0
33 24 30 31 25 23 -82 0
33 24 30 25 36 23 -81 0
33 24 30 25 36 23 -84 0
33 24 30 25 36 23 -83 0
33 24 30 25 36 23 -82 0
33 24 31 25 36 23 -81 0
33 24 31 25 36 23 -84 0
33 24 31 25 36 23 -83 0
33 24 31 25 36 23 -82 0
33 7 34 11 31 36 -57 0
33 7 34 11 31 36 -60 0
33 7 34 11 31 36 -58 0
33 7 34 11 31 36 -59 0
33 7 34 31 10 36 -57 0
33 7 34 31 10 36 -60 0
33 7 34 31 10 36 -58 0
33 7 34 31 10 36 -59 0
33 20 34 17 31 36 -73 0
33 20 34 17 31 36 -74 0
33 20 34 17 31 36 -72 0
33 20 34 17 31 36 -71 0
33 20 34 31 15 36 -73 0
33 20 34 31 15 36 -74 0
33 20 34 31 15 36 -72 0
33 20 34 31 15 36 -71 0
33 46 34 39 31 36 -94 0
33 46 34 39 31 36 -93 0
33 46 34 39 31 36 -91 0
33 46 34 39 31 36 -92 0
33 46 34 31 43 36 -94 0
33 46 34 31 43 36 -93 0
33 46 34 31 43 36 -91 0
33 46 34 31 43 36 -92 0
33 6 34 1 31 36 -37 0
33 6 34 1 31 36 -35 0
33 6 34 1 31 36 -32 0
33 6 34 1 31 36 -38 0
33 6 34 31 2 36 -37 0
33 6 34 31 2 36 -35 0
33 6 34 31 2 36 -32 0
33 6 34 31 2 36 -38 0
33 34 30 31 25 36 -81 0
33 34 30 31 25 36 -84 0
33 34 30 31 25 36 -83 0
33 34 30 31 25 36 -82 0
33 34 30 31 36 23 -81 0
33 34 30 31 36 23 -84 0
33 34 30 31 36 23 -83 0
33 34 30 31 36 23 -82 0
33 34 11 31 10 36 -57 0
33 34 11 31 10 36 -60 0
33 34 11 31 10 36 -58 0
33 34 11 31 10 36 -59 0
33 34 17 31 15 36 -73 0
33 34 17 31 15 36 -74 0
33 34 17 31 15 36 -72 0
33 34 17 31 15 36 -71 0
33 34 39 31 43 36 -94 0
33 34 39 31 43 36 -93 0
33 34 39 31 43 36 -91 0
33 34 39 31 43 36 -92 0
33 34 1 31 2 36 -37 0
33 34 1 31 2 36 -35 0
33 34 1 31 2 36 -32 0
33 34 1 31 2 36 -38 0
33 34 31 25 36 23 -81 0
33 34 31 25 36 23 -84 0
33 34 31 25 36 23 -83 0
33 34 31 25 36 23 -82 0
24 7 30 11 25 23 -54 0
24 7 30 11 25 23 -53 0
24 7 30 11 25 23 -56 0
24 7 30 11 25 23 -55 0
24 7 30 25 10 23 -54 0
24 7 30 25 10 23 -53 0
24 7 30 25 10 23 -56 0
24 7 30 25 10 23 -55 0
24 20 30 17 25 23 -67 0
24 20 30 17 25 23 -69 0
24 20 30 17 25 23 -70 0
24 20 30 17 25 23 -68 0
24 20 30 25 15 23 -67 0
24 20 30 25 15 23 -69 0
24 20 30 25 15 23 -70 0
24 20 30 25 15 23 -68 0
24 46 30 39 25 23 -87 0
24 46 30 39 25 23 -86 0
24 46 30 39 25 23 -85 0
24 46 30 39 25 23 -88 0
24 46 30 25 43 23 -87 0
24 46 30 25 43 23 -86 0
24 46 30 25 43 23 -85 0
24 46 30 25 43 23 -88 0
24 6 30 1 25 23 -29 0
24 6 30 1 25 23 -28 0
24 6 30 1 25 23 -27 0
24 6 30 1 25 23 -26 0
24 6 30 25 2 23 -29 0
24 6 30 25 2 23 -28 0
24 6 30 25 2 23 -27 0
24 6 30 25 2 23 -26 0
24 34 30 31 25 23 -81 0
24 34 30 31 25 23 -84 0
24 34 30 31 25 23 -83 0
24 34 30 31 25 23 -82 0
24 34 30 25 36 23 -81 0
24 34 30 25 36 23 -84 0
24 34 30 25 36 23 -83 0
24 34 30 25 36 23 -82 0
24 30 11 25 10 23 -54 0
24 30 11 25 10 23 -53 0
24 30 11 25 10 23 -56 0
24 30 11 25 10 23 -55 0
24 30 17 25 15 23 -67 0
24 30 17 25 15 23 -69 0
24 30 17 25 15 23 -70 0
24 30 17 25 15 23 -68 0
24 30 39 25 43 23 -87 0
24 30 39 25 43 23 -86 0
24 30 39 25 43 23 -85 0
24 30 39 25 43 23 -88 0
24 30 1 25 2 23 -29 0
24 30 1 25 2 23 -28 0
24 30 1 25 2 23 -27 0
24 30 1 25 2 23 -26 0
24 30 31 25 36 23 -81 0
24 30 31 25 36 23 -84 0
24 30 31 25 36 23 -83 0
24 30 31 25 36 23 -82 0
7 20 11 17 10 15 -51 0
7 20 11 17 10 15 -52 0
7 20 11 17 10 15 -49 0
7 20 11 17 10 15 -50 0
7 46 11 39 10 43 -62 0
7 46 11 39 10 43 -61 0
7 46 11 39 10 43 -63 0
7 46 11 39 10 43 -64 0
7 6 11 1 10 2 -12 0
7 6 11 1 10 2 -9 0
7 6 11 1 10 2 -8 0
7 6 11 1 10 2 -13 0
7 34 11 31 10 36 -57 0
7 34 11 31 10 36 -60 0
7 34 11 31 10 36 -58 0
7 34 11 31 10 36 -59 0
7 30 11 25 10 23 -54 0
7 30 11 25 10 23 -53 0
7 30 11 25 10 23 -56 0
7 30 11 25 10 23 -55 0
20 46 17 39 15 43 -76 0
20 46 17 39 15 43 -75 0
20 46 17 39 15 43 -77 0
20 46 17 39 15 43 -78 0
20 6 17 1 15 2 -21 0
20 6 17 1 15 2 -18 0
20 6 17 1 15 2 -16 0
20 6 17 1 15 2 -22 0
20 34 17 31 15 36 -73 0
20 34 17 31 15 36 -74 0
20 34 17 31 15 36 -72 0
20 34 17 31 15 36 -71 0
20 30 17 25 15 23 -67 0
20 30 17 25 15 23 -69 0
20 30 17 25 15 23 -70 0
20 30 17 25 15 23 -68 0
46 6 39 1 43 2 -42 0
46 6 39 1 43 2 -44 0
46 6 39 1 43 2 -40 0
46 6 39 1 43 2 -41 0
46 34 39 31 43 36 -94 0
46 34 39 31 43 36 -93 0
46 34 39 31 43 36 -91 0
46 34 39 31 43 36 -92 0
46 30 39 25 43 23 -87 0
46 30 39 25 43 23 -86 0
46 30 39 25 43 23 -85 0
46 30 39 25 43 23 -88 0
6 34 1 31 2 36 -37 0
6 34 1 31 2 36 -35 0
6 34 1 31 2 36 -32 0
6 34 1 31 2 36 -38 0
6 30 1 25 2 23 -29 0
6 30 1 25 2 23 -28 0
6 30 1 25 2 23 -27 0
6 30 1 25 2 23 -26 0
34 30 31 25 36 23 -81 0
34 30 31 25 36 23 -84 0
34 30 31 25 36 23 -83 0
34 30 31 25 36 23 -82 0
14 19 7 20 11 17 10 -51 0
14 19 7 20 11 17 10 -52 0
14 19 7 20 11 17 10 -49 0
14 19 7 20 11 17 10 -50 0
14 19 7 20 11 17 15 -51 0
14 19 7 20 11 17 15 -52 0
14 19 7 20 11 17 15 -49 0
14 19 7 20 11 17 15 -50 0
14 19 7 20 11 10 15 -51 0
14 19 7 20 11 10 15 -52 0
14 19 7 20 11 10 15 -49 0
14 19 7 20 11 10 15 -50 0
14 19 7 20 17 10 15 -51 0
14 19 7 20 17 10 15 -52 0
14 19 7 20 17 10 15 -49 0
14 19 7 20 17 10 15 -50 0
14 19 7 11 17 10 15 -51 0
14 19 7 11 17 10 15 -52 0
14 19 7 11 17 10 15 -49 0
14 19 7 11 17 10 15 -50 0
14 19 20 11 17 10 15 -51 0
14 19 20 11 17 10 15 -52 0
14 19 20 11 17 10 15 -49 0
14 19 20 11 17 10 15 -50 0
14 45 7 46 11 39 10 -62 0
14 45 7 46 11 39 10 -61 0
14 45 7 46 11 39 10 -63 0
14 45 7 46 11 39 10 -64 0
14 45 7 46 11 39 43 -62 0
14 45 7 46 11 39 43 -61 0
14 45 7 46 11 39 43 -63 0
14 45 7 46 11 39 43 -64 0
14 45 7 46 11 10 43 -62 0
14 45 7 46 11 10 43 -61 0
14 45 7 46 11 10 43 -63 0
14 45 7 46 11 10 43 -64 0
14 45 7 46 39 10 43 -62 0
14 45 7 46 39 10 43 -61 0
14 45 7 46 39 10 43 -63 0
14 45 7 46 39 10 43 -64 0
14 45 7 11 39 10 43 -62 0
14 45 7 11 39 10 43 -61 0
14 45 7 11 39 10 43 -63 0
14 45 7 11 39 10 43 -64 0
14 45 46 11 39 10 43 -62 0
14 45 46 11 39 10 43 -61 0
14 45 46 11 39 10 43 -63 0
14 45 46 11 39 10 43 -64 0
14 5 7 6 11 1 10 -12 0
14 5 7 6 11 1 10 -9 0
14 5 7 6 11 1 10 -8 0
14 5 7 6 11 1 10 -13 0
14 5 7 6 11 1 2 -12 0
14 5 7 6 11 1 2 -9 0
14 5 7 6 11 1 2 -8 0
14 5 7 6 11 1 2 -13 0
14 5 7 6 11 10 2 -12 0
14 5 7 6 11 10 2 -9 0
14 5 7 6 11 10 2 -8 0
14 5 7 6 11 10 2 -13 0
14 5 7 6 1 10 2 -12 0
14 5 7 6 1 10 2 -9 0
14 5 7 6 1 10 2 -8 0
14 5 7 6 1 10 2 -13 0
14 5 7 11 1 10 2 -12 0
14 5 7 11 1 10 2 -9 0
14 5 7 11 1 10 2 -8 0
14 5 7 11 1 10 2 -13 0
14 5 6 11 1 10 2 -12 0
14 5 6 11 1 10 2 -9 0
14 5 6 11 1 10 2 -8 0
14 5 6 11 1 10 2 -13 0
14 33 7 34 11 31 10 -57 0
14 33 7 34 11 31 10 -60 0
14 33 7 34 11 31 10 -58 0
14 33 7 34 11 31 10 -59 0
14 33 7 34 11 31 36 -57 0
14 33 7 34 11 31 36 -60 0
14 33 7 34 11 31 36 -58 0
14 33 7 34 11 31 36 -59 0
14 33 7 34 11 10 36 -57 0
14 33 7 34 11 10 36 -60 0
14 33 7 34 11 10 36 -58 0
14 33 7 34 11 10 36 -59 0
14 33 7 34 31 10 36 -57 0
14 33 7 34 31 10 36 -60 0
14 33 7 34 31 10 36 -58 0
14 33 7 34 31 10 36 -59 0
14 33 7 11 31 10 36 -57 0
14 33 7 11 31 10 36 -60 0
14 33 7 11 31 10 36 -58 0
14 33 7 11 31 10 36 -59 0
14 33 34 11 31 10 36 -57 0
14 33 34 11 31 10 36 -60 0
14 33 34 11 31 10 36 -58 0
14 33 34 11 31 10 36 -59 0
14 24 7 30 11 25 10 -54 0
14 24 7 30 11 25 10 -53 0
14 24 7 30 11 25 10 -56 0
14 24 7 30 11 25 10 -55 0
14 24 7 30 11 25 23 -54 0
14 24 7 30 11 25 23 -53 0
14 24 7 30 11 25 23 -56 0
14 24 7 30 11 25 23 -55 0
14 24 7 30 11 10 23 -54 0
14 24 7 30 11 10 23 -53 0
14 24 7 30 11 10 23 -56 0
14 24 7 30 11 10 23 -55 0
14 24 7 30 25 10 23 -54 0
14 24 7 30 25 10 23 -53 0
14 24 7 30 25 10 23 -56 0
14 24 7 30 25 10 23 -55 0
14 24 7 11 25 10 23 -54 0
14 24 7 11 25 10 23 -53 0
14 24 7 11 25 10 23 -56 0
14 24 7 11 25 10 23 -55 0
14 24 30 11 25 10 23 -54 0
14 24 30 11 25 10 23 -53 0
14 24 30 11 25 10 23 -56 0
14 24 30 11 25 10 23 -55 0
14 7 20 11 17 10 15 -51 0
14 7 20 11 17 10 15 -52 0
14 7 20 11 17 10 15 -49 0
14 7 20 11 17 10 15 -50 0
14 7 46 11 39 10 43 -62 0
14 7 46 11 39 10 43 -61 0
14 7 46 11 39 10 43 -63 0
14 7 46 11 39 10 43 -64 0
14 7 6 11 1 10 2 -12 0
14 7 6 11 1 10 2 -9 0
14 7 6 11 1 10 2 -8 0
14 7 6 11 1 10 2 -13 0
14 7 34 11 31 10 36 -57 0
14 7 34 11 31 10 36 -60 0
14 7 34 11 31 10 36 -58 0
14 7 34 11 31 10 36 -59 0
14 7 30 11 25 10 23 -54 0
14 7 30 11 25 10 23 -53 0
14 7 30 11 25 10 23 -56 0
14 7 30 11 25 10 23 -55 0
19 45 20 46 17 39 15 -76 0
19 45 20 46 17 39 15 -75 0
19 45 20 46 17 39 15 -77 0
19 45 20 46 17 39 15 -78 0
19 45 20 46 17 39 43 -76 0
19 45 20 46 17 39 43 -75 0
19 45 20 46 17 39 43 -77 0
19 45 20 46 17 39 43 -78 0
19 45 20 46 17 15 43 -76 0
19 45 20 46 17 15 43 -75 0
19 45 20 46 17 15 43 -77 0
19 45 20 46 17 15 43 -78 0
19 45 20 46 39 15 43 -76 0
19 45 20 46 39 15 43 -75 0
19 45 20 46 39 15 43 -77 0
19 45 20 46 39 15 43 -78 0
19 45 20 17 39 15 43 -76 0
19 45 20 17 39 15 43 -75 0
19 45 20 17 39 15 43 -77 0
19 45 20 17 39 15 43 -78 0
19 45 46 17 39 15 43 -76 0
19 45 46 17 39 15 43 -75 0
19 45 46 17 39 15 43 -77 0
19 45 46 17 39 15 43 -78 0
19 5 20 6 17 1 15 -21 0
19 5 20 6 17 1 15 -18 0
19 5 20 6 17 1 15 -16 0
19 5 20 6 17 1 15 -22 0
19 5 20 6 17 1 2 -21 0
19 5 20 6 17 1 2 -18 0
19 5 20 6 17 1 2 -16 0
19 5 20 6 17 1 2 -22 0
19 5 20 6 17 15 2 -21 0
19 5 20 6 17 15 2 -18 0
19 5 20 6 17 15 2 -16 0
19 5 20 6 17 15 2 -22 0
19 5 20 6 1 15 2 -21 0
19 5 20 6 1 15 2 -18 0
19 5 20 6 1 15 2 -16 0
19 5 20 6 1 15 2 -22 0
19 5 20 17 1 15 2 -21 0
19 5 20 17 1 15 2 -18 0
19 5 20 17 1 15 2 -16 0
19 5 20 17 1 15 2 -22 0
19 5 6 17 1 15 2 -21 0
19 5 6 17 1 15 2 -18 0
19 5 6 17 1 15 2 -16 0
19 5 6 17 1 15 2 -22 0
19 33 20 34 17 31 15 -73 0
19 33 20 34 17 31 15 -74 0
19 33 20 34 17 31 15 -72 0
19 33 20 34 17 31 15 -71 0
19 33 20 34 17 31 36 -73 0
19 33 20 34 17 31 36 -74 0
19 33 20 34 17 31 36 -72 0
19 33 20 34 17 31 36 -71 0
19 33 20 34 17 15 36 -73 0
19 33 20 34 17 15 36 -74 0
19 33 20 34 17 15 36 -72 0
19 33 20 34 17 15 36 -71 0
19 33 20 34 31 15 36 -73 0
19 33 20 34 31 15 36 -74 0
19 33 20 34 31 15 36 -72 0
19 33 20 34 31 15 36 -71 0
19 33 20 17 31 15 36 -73 0
19 33 20 17 31 15 36 -74 0
19 33 20 17 31 15 36 -72 0
19 33 20 17 31 15 36 -71 0
19 33 34 17 31 15 36 -73 0
19 33 34 17 31 15 36 -74 0
19 33 34 17 31 15 36 -72 0
19 33 34 17 31 15 36 -71 0
19 24 20 30 17 25 15 -67 0
19 24 20 30 17 25 15 -69 0
19 24 20 30 17 25 15 -70 0
19 24 20 30 17 25 15 -68 0
19 24 20 30 17 25 23 -67 0
19 24 20 30 17 25 23 -69 0
19 24 20 30 17 25 23 -70 0
19 24 20 30 17 25 23 -68 0
19 24 20 30 17 15 23 -67 0
19 24 20 30 17 15 23 -69 0
19 24 20 30 17 15 23 -70 0
19 24 20 30 17 15 23 -68 0
19 24 20 30 25 15 23 -67 0
19 24 20 30 25 15 23 -69 0
19 24 20 30 25 15 23 -70 0
19 24 20 30 25 15 23 -68 0
19 24 20 17 25 15 23 -67 0
19 24 20 17 25 15 23 -69 0
19 24 20 17 25 15 23 -70 0
19 24 20 17 25 15 23 -68 0
19 24 30 17 25 15 23 -67 0
19 24 30 17 25 15 23 -69 0
19 24 30 17 25 15 23 -70 0
19 24 30 17 25 15 23 -68 0
19 7 20 11 17 10 15 -51 0
19 7 20 11 17 10 15 -52 0
19 7 20 11 17 10 15 -49 0
19 7 20 11 17 10 15 -50 0
19 20 46 17 39 15 43 -76 0
19 20 46 17 39 15 43 -75 0
19 20 46 17 39 15 43 -77 0
19 20 46 17 39 15 43 -78 0
19 20 6 17 1 15 2 -21 0
19 20 6 17 1 15 2 -18 0
19 20 6 17 1 15 2 -16 0
19 20 6 17 1 15 2 -22 0
19 20 34 17 31 15 36 -73 0
19 20 34 17 31 15 36 -74 0
19 20 34 17 31 15 36 -72 0
19 20 34 17 31 15 36 -71 0
19 20 30 17 25 15 23 -67 0
19 20 30 17 25 15 23 -69 0
19 20 30 17 25 15 23 -70 0
19 20 30 17 25 15 23 -68 0
45 5 46 6 39 1 43 -42 0
45 5 46 6 39 1 43 -44 0
45 5 46 6 39 1 43 -40 0
45 5 46 6 39 1 43 -41 0
45 5 46 6 39 1 2 -42 0
45 5 46 6 39 1 2 -44 0
45 5 46 6 39 1 2 -40 0
45 5 46 6 39 1 2 -41 0
45 5 46 6 39 43 2 -42 0
45 5 46 6 39 43 2 -44 0
45 5 46 6 39 43 2 -40 0
45 5 46 6 39 43 2 -41 0
45 5 46 6 1 43 2 -42 0
45 5 46 6 1 43 2 -44 0
45 5 46 6 1 43 2 -40 0
45 5 46 6 1 43 2 -41 0
45 5 46 39 1 43 2 -42 0
45 5 46 39 1 43 2 -44 0
45 5 46 39 1 43 2 -40 0
45 5 46 39 1 43 2 -41 0
45 5 6 39 1 43 2 -42 0
45 5 6 39 1 43 2 -44 0
45 5 6 39 1 43 2 -40 0
45 5 6 39 1 43 2 -41 0
45 33 46 34 39 31 43 -94 0
45 33 46 34 39 31 43 -93 0
45 33 46 34 39 31 43 -91 0
45 33 46 34 39 31 43 -92 0
45 33 46 34 39 31 36 -94 0
45 33 46 34 39 31 36 -93 0
45 33 46 34 39 31 36 -91 0
45 33 46 34 39 31 36 -92 0
45 33 46 34 39 43 36 -94 0
45 33 46 34 39 43 36 -93 0
45 33 46 34 39 43 36 -91 0
45 33 46 34 39 43 36 -92 0
45 33 46 34 31 43 36 -94 0
45 33 46 34 31 43 36 -93 0
45 33 46 34 31 43 36 -91 0
45 33 46 34 31 43 36 -92 0
45 33 46 39 31 43 36 -94 0
45 33 46 39 31 43 36 -93 0
45 33 46 39 31 43 36 -91 0
45 33 46 39 31 43 36 -92 0
45 33 34 39 31 43 36 -94 0
45 33 34 39 31 43 36 -93 0
45 33 34 39 31 43 36 -91 0
45 33 34 39 31 43 36 -92 0
45 24 46 30 39 25 43 -87 0
45 24 46 30 39 25 43 -86 0
45 24 46 30 39 25 43 -85 0
45 24 46 30 39 25 43 -88 0
45 24 46 30 39 25 23 -87 0
45 24 46 30 39 25 23 -86 0
45 24 46 30 39 25 23 -85 0
45 24 46 30 39 25 23 -88 0
45 24 46 30 39 43 23 -87 0
45 24 46 30 39 43 23 -86 0
45 24 46 30 39 43 23 -85 0
45 24 46 30 39 43 23 -88 0
45 24 46 30 25 43 23 -87 0
45 24 46 30 25 43 23 -86 0
45 24 46 30 25 43 23 -85 0
45 24 46 30 25 43 23 -88 0
45 24 46 39 25 43 23 -87 0
45 24 46 39 25 43 23 -86 0
45 24 46 39 25 43 23 -85 0
45 24 46 39 25 43 23 -88 0
45 24 30 39 25 43 23 -87 0
45 24 30 39 25 43 23 -86 0
45 24 30 39 25 43 23 -85 0
45 24 30 39 25 43 23 -88 0
45 7 46 11 39 10 43 -62 0
45 7 46 11 39 10 43 -61 0
45 7 46 11 39 10 43 -63 0
45 7 46 11 39 10 43 -64 0
45 20 46 17 39 15 43 -76 0
45 20 46 17 39 15 43 -75 0
45 20 46 17 39 15 43 -77 0
45 20 46 17 39 15 43 -78 0
45 46 6 39 1 43 2 -42 0
45 46 6 39 1 43 2 -44 0
45 46 6 39 1 43 2 -40 0
45 46 6 39 1 43 2 -41 0
45 46 34 39 31 43 36 -94 0
45 46 34 39 31 43 36 -93 0
45 46 34 39 31 43 36 -91 0
45 46 34 39 31 43 36 -92 0
45 46 30 39 25 43 23 -87 0
45 46 30 39 25 43 23 -86 0
45 46 30 39 25 43 23 -85 0
45 46 30 39 25 43 23 -88 0
5 33 6 34 1 31 2 -37 0
5 33 6 34 1 31 2 -35 0
5 33 6 34 1 31 2 -32 0
5 33 6 34 1 31 2 -38 0
5 33 6 34 1 31 36 -37 0
5 33 6 34 1 31 36 -35 0
5 33 6 34 1 31 36 -32 0
5 33 6 34 1 31 36 -38 0
5 33 6 34 1 2 36 -37 0
5 33 6 34 1 2 36 -35 0
5 33 6 34 1 2 36 -32 0
5 33 6 34 1 2 36 -38 0
5 33 6 34 31 2 36 -37 0
5 33 6 34 31 2 36 -35 0
5 33 6 34 31 2 36 -32 0
5 33 6 34 31 2 36 -38 0
5 33 6 1 31 2 36 -37 0
5 33 6 1 31 2 36 -35 0
5 33 6 1 31 2 36 -32 0
5 33 6 1 31 2 36 -38 0
5 33 34 1 31 2 36 -37 0
5 33 34 1 31 2 36 -35 0
5 33 34 1 31 2 36 -32 0
5 33 34 1 31 2 36 -38 0
5 24 6 30 1 25 2 -29 0
5 24 6 30 1 25 2 -28 0
5 24 6 30 1 25 2 -27 0
5 24 6 30 1 25 2 -26 0
5 24 6 30 1 25 23 -29 0
5 24 6 30 1 25 23 -28 0
5 24 6 30 1 25 23 -27 0
5 24 6 30 1 25 23 -26 0
5 24 6 30 1 2 23 -29 0
5 24 6 30 1 2 23 -28 0
5 24 6 30 1 2 23 -27 0
5 24 6 30 1 2 23 -26 0
5 24 6 30 25 2 23 -29 0
5 24 6 30 25 2 23 -28 0
5 24 6 30 25 2 23 -27 0
5 24 6 30 25 2 23 -26 0
5 24 6 1 25 2 23 -29 0
5 24 6 1 25 2 23 -28 0
5 24 6 1 25 2 23 -27 0
5 24 6 1 25 2 23 -26 0
5 24 30 1 25 2 23 -29 0
5 24 30 1 25 2 23 -28 0
5 24 30 1 25 2 23 -27 0
5 24 30 1 25 2 23 -26 0
5 7 6 11 1 10 2 -12 0
5 7 6 11 1 10 2 -9 0
5 7 6 11 1 10 2 -8 0
5 7 6 11 1 10 2 -13 0
5 20 6 17 1 15 2 -21 0
5 20 6 17 1 15 2 -18 0
5 20 6 17 1 15 2 -16 0
5 20 6 17 1 15 2 -22 0
5 46 6 39 1 43 2 -42 0
5 46 6 39 1 43 2 -44 0
5 46 6 39 1 43 2 -40 0
5 46 6 39 1 43 2 -41 0
5 6 34 1 31 2 36 -37 0
5 6 34 1 31 2 36 -35 0
5 6 34 1 31 2 36 -32 0
5 6 34 1 31 2 36 -38 0
5 6 30 1 25 2 23 -29 0
5 6 30 1 25 2 23 -28 0
5 6 30 1 25 2 23 -27 0
5 6 30 1 25 2 23 -26 0
33 24 34 30 31 25 36 -81 0
33 24 34 30 31 25 36 -84 0
33 24 34 30 31 25 36 -83 0
33 24 34 30 31 25 36 -82 0
33 24 34 30 31 25 23 -81 0
33 24 34 30 31 25 23 -84 0
33 24 34 30 31 25 23 -83 0
33 24 34 30 31 25 23 -82 0
33 24 34 30 31 36 23 -81 0
33 24 34 30 31 36 23 -84 0
33 24 34 30 31 36 23 -83 0
33 24 34 30 31 36 23 -82 0
33 24 34 30 25 36 23 -81 0
33 24 34 30 25 36 23 -84 0
33 24 34 30 25 36 23 -83 0
33 24 34 30 25 36 23 -82 0
33 24 34 31 25 36 23 -81 0
33 24 34 31 25 36 23 -84 0
33 24 34 31 25 36 23 -83 0
33 24 34 31 25 36 23 -82 0
33 24 30 31 25 36 23 -81 0
33 24 30 31 25 36 23 -84 0
33 24 30 31 25 36 23 -83 0
33 24 30 31 25 36 23 -82 0
33 7 34 11 31 10 36 -57 0
33 7 34 11 31 10 36 -60 0
33 7 34 11 31 10 36 -58 0
33 7 34 11 31 10 36 -59 0
33 20 34 17 31 15 36 -73 0
33 20 34 17 31 15 36 -74 0
33 20 34 17 31 15 36 -72 0
33 20 34 17 31 15 36 -71 0
33 46 34 39 31 43 36 -94 0
33 46 34 39 31 43 36 -93 0
33 46 34 39 31 43 36 -91 0
33 46 34 39 31 43 36 -92 0
33 6 34 1 31 2 36 -37 0
33 6 34 1 31 2 36 -35 0
33 6 34 1 31 2 36 -32 0
33 6 34 1 31 2 36 -38 0
33 34 30 31 25 36 23 -81 0
33 34 30 31 25 36 23 -84 0
33 34 30 31 25 36 23 -83 0
33 34 30 31 25 36 23 -82 0
24 7 30 11 25 10 23 -54 0
24 7 30 11 25 10 23 -53 0
24 7 30 11 25 10 23 -56 0
24 7 30 11 25 10 23 -55 0
24 20 30 17 25 15 23 -67 0
24 20 30 17 25 15 23 -69 0
24 20 30 17 25 15 23 -70 0
24 20 30 17 25 15 23 -68 0
24 46 30 39 25 43 23 -87 0
24 46 30 39 25 43 23 -86 0
24 46 30 39 25 43 23 -85 0
24 46 30 39 25 43 23 -88 0
24 6 30 1 25 2 23 -29 0
24 6 30 1 25 2 23 -28 0
24 6 30 1 25 2 23 -27 0
24 6 30 1 25 2 23 -26 0
24 34 30 31 25 36 23 -81 0
24 34 30 31 25 36 23 -84 0
24 34 30 31 25 36 23 -83 0
24 34 30 31 25 36 23 -82 0
14 19 7 20 11 17 10 15 -51 0
14 19 7 20 11 17 10 15 -52 0
14 19 7 20 11 17 10 15 -49 0
14 19 7 20 11 17 10 15 -50 0
14 45 7 46 11 39 10 43 -62 0
14 45 7 46 11 39 10 43 -61 0
14 45 7 46 11 39 10 43 -63 0
14 45 7 46 11 39 10 43 -64 0
14 5 7 6 11 1 10 2 -12 0
14 5 7 6 11 1 10 2 -9 0
14 5 7 6 11 1 10 2 -8 0
14 5 7 6 11 1 10 2 -13 0
14 33 7 34 11 31 10 36 -57 0
14 33 7 34 11 31 10 36 -60 0
14 33 7 34 11 31 10 36 -58 0
14 33 7 34 11 31 10 36 -59 0
14 24 7 30 11 25 10 23 -54 0
14 24 7 30 11 25 10 23 -53 0
14 24 7 30 11 25 10 23 -56 0
14 24 7 30 11 25 10 23 -55 0
19 45 20 46 17 39 15 43 -76 0
19 45 20 46 17 39 15 43 -75 0
19 45 20 46 17 39 15 43 -77 0
19 45 20 46 17 39 15 43 -78 0
19 5 20 6 17 1 15 2 -21 0
19 5 20 6 17 1 15 2 -18 0
19 5 20 6 17 1 15 2 -16 0
19 5 20 6 17 1 15 2 -22 0
19 33 20 34 17 31 15 36 -73 0
19 33 20 34 17 31 15 36 -74 0
19 33 20 34 17 31 15 36 -72 0
19 33 20 34 17 31 15 36 -71 0
19 24 20 30 17 25 15 23 -67 0
19 24 20 30 17 25 15 23 -69 0
19 24 20 30 17 25 15 23 -70 0
19 24 20 30 17 25 15 23 -68 0
45 5 46 6 39 1 43 2 -42 0
45 5 46 6 39 1 43 2 -44 0
45 5 46 6 39 1 43 2 -40 0
45 5 46 6 39 1 43 2 -41 0
45 33 46 34 39 31 43 36 -94 0
45 33 46 34 39 31 43 36 -93 0
45 33 46 34 39 31 43 36 -91 0
45 33 46 34 39 31 43 36 -92 0
45 24 46 30 39 25 43 23 -87 0
45 24 46 30 39 25 43 23 -86 0
45 24 46 30 39 25 43 23 -85 0
45 24 46 30 39 25 43 23 -88 0
5 33 6 34 1 31 2 36 -37 0
5 33 6 34 1 31 2 36 -35 0
5 33 6 34 1 31 2 36 -32 0
5 33 6 34 1 31 2 36 -38 0
5 24 6 30 1 25 2 23 -29 0
5 24 6 30 1 25 2 23 -28 0
5 24 6 30 1 25 2 23 -27 0
5 24 6 30 1 25 2 23 -26 0
33 24 34 30 31 25 36 23 -81 0
33 24 34 30 31 25 36 23 -84 0
33 24 34 30 31 25 36 23 -83 0
33 24 34 30 31 25 36 23 -82 0
