c U3(3) E2(3,3) E1(3,3) U4(3) U2(3) U1(3) U4(1) U2(1) E2(3,1) E1(1,3) E1(3,1) E2(1,3) U1(1) U3(1) E1(4,3) E1(3,4) E2(3,4) U3(4) E2(4,3) U4(4) U2(4) U1(4) E2(3,2) U4(2) U3(2) E2(2,3) E1(3,2) E1(2,3) U2(2) U1(2) U3(6) E1(3,6) U2(6) U4(6) E2(3,6) E1(6,3) E2(6,3) U1(6) U4(0) U3(0) E2(0,3) E1(3,0) E1(0,3) U2(0) U1(0) E2(3,0) U2(5) U3(5) E1(3,5) E2(3,5) E2(5,3) U1(5) E1(5,3) U4(5) E1(1,1) E2(1,1) E1(4,1) E2(4,1) E2(1,4) E1(1,4) E1(1,2) E2(2,1) E1(2,1) E2(1,2) E1(6,1) E2(6,1) E2(1,6) E1(1,6) E2(1,0) E1(0,1) E2(0,1) E1(1,0) E2(5,1) E1(1,5) E1(5,1) E2(1,5) E1(4,4) E2(4,4) E2(4,2) E2(2,4) E1(4,2) E1(2,4) E1(4,6) E2(6,4) E2(4,6) E1(6,4) E1(4,0) E1(0,4) E2(0,4) E2(4,0) E2(5,4) E2(4,5) E1(5,4) E1(4,5) E1(2,2) E2(2,2) E2(2,6) E2(6,2) E1(6,2) E1(2,6) E1(0,2) E1(2,0) E2(2,0) E2(0,2) E2(2,5) E1(5,2) E1(2,5) E2(5,2) E2(6,6) E1(6,6) E1(6,0) E1(0,6) E2(0,6) E2(6,0) E2(5,6) E1(5,6) E2(6,5) E1(6,5) E1(0,0) E2(0,0) E1(5,0) E1(0,5) E2(5,0) E2(0,5) E2(5,5) E1(5,5)
c 1 2 3 4 5 6 7 8 9 10 11 12 13 14 15 16 17 18 19 20 21 22 23 24 25 26 27 28 29 30 31 32 33 34 35 36 37 38 39 40 41 42 43 44 45 46 47 48 49 50 51 52 53 54 55 56 57 58 59 60 61 62 63 64 65 66 67 68 69 70 71 72 73 74 75 76 77 78 79 80 81 82 83 84 85 86 87 88 89 90 91 92 93 94 95 96 97 98 99 100 101 102 103 104 105 106 107 108 109 110 111 112 113 114 115 116 117 118 119 120 121 122 123 124 125 126
p cnf 126 3171
119 -119 0
70 -72 0
101 -102 0
43 -42 0
88 -87 0
122 -121 0
112 -111 0
72 -70 0
55 -55 0
61 -63 0
10 -11 0
60 -57 0
74 -75 0
68 -65 0
102 -101 0
63 -61 0
95 -95 0
28 -27 0
82 -81 0
107 -106 0
100 -99 0
42 -43 0
11 -10 0
27 -28 0
3 -3 0
16 -15 0
49 -53 0
32 -36 0
87 -88 0
57 -60 0
81 -82 0
15 -16 0
77 -77 0
94 -93 0
83 -86 0
121 -122 0
75 -74 0
106 -107 0
53 -49 0
93 -94 0
126 -126 0
116 -118 0
111 -112 0
65 -68 0
99 -100 0
36 -32 0
86 -83 0
118 -116 0
110 -110 0
120 -120 0
71 -69 0
104 -103 0
41 -46 0
89 -90 0
124 -123 0
113 -114 0
69 -71 0
56 -56 0
64 -62 0
12 -9 0
59 -58 0
76 -73 0
67 -66 0
103 -104 0
62 -64 0
96 -96 0
26 -23 0
80 -79 0
105 -108 0
97 -98 0
46 -41 0
9 -12 0
23 -26 0
2 -2 0
17 -19 0
50 -51 0
35 -37 0
90 -89 0
58 -59 0
79 -80 0
19 -17 0
78 -78 0
92 -91 0
85 -84 0
123 -124 0
73 -76 0
108 -105 0
51 -50 0
91 -92 0
125 -125 0
115 -117 0
114 -113 0
66 -67 0
98 -97 0
37 -35 0
84 -85 0
117 -115 0
109 -109 0
-45 -44 0
-45 -40 0
-45 -39 0
-13 -8 0
-13 -14 0
-13 -7 0
-30 -29 0
-30 -25 0
-30 -24 0
-6 -5 0
-6 -1 0
-6 -4 0
-22 -21 0
-22 -18 0
-22 -20 0
-52 -47 0
-52 -48 0
-52 -54 0
-38 -33 0
-38 -31 0
-38 -34 0
-44 -40 0
-44 -39 0
-8 -14 0
-8 -7 0
-29 -25 0
-29 -24 0
-5 -1 0
-5 -4 0
-21 -18 0
-21 -20 0
-47 -48 0
-47 -54 0
-33 -31 0
-33 -34 0
-40 -39 0
-14 -7 0
-25 -24 0
-1 -4 0
-18 -20 0
-48 -54 0
-31 -34 0
45 44 40 39 0
13 8 14 7 0
30 29 25 24 0
6 5 1 4 0
22 21 18 20 0
52 47 48 54 0
38 33 31 34 0
45 44 40 -119 0
45 44 40 -120 0
45 44 39 -119 0
45 44 39 -120 0
45 40 39 -119 0
45 40 39 -120 0
13 8 14 -55 0
13 8 14 -56 0
13 8 7 -55 0
13 8 7 -56 0
13 14 7 -55 0
13 14 7 -56 0
30 29 25 -95 0
30 29 25 -96 0
30 29 24 -95 0
30 29 24 -96 0
30 25 24 -95 0
30 25 24 -96 0
6 5 1 -3 0
6 5 1 -2 0
6 5 4 -3 0
6 5 4 -2 0
6 1 4 -3 0
6 1 4 -2 0
22 21 18 -77 0
22 21 18 -78 0
22 21 20 -77 0
22 21 20 -78 0
22 18 20 -77 0
22 18 20 -78 0
52 47 48 -126 0
52 47 48 -125 0
52 47 54 -126 0
52 47 54 -125 0
52 48 54 -126 0
52 48 54 -125 0
38 33 31 -110 0
38 33 31 -109 0
38 33 34 -110 0
38 33 34 -109 0
38 31 34 -110 0
38 31 34 -109 0
44 40 39 -119 0
44 40 39 -120 0
8 14 7 -55 0
8 14 7 -56 0
29 25 24 -95 0
29 25 24 -96 0
5 1 4 -3 0
5 1 4 -2 0
21 18 20 -77 0
21 18 20 -78 0
47 48 54 -126 0
47 48 54 -125 0
33 31 34 -110 0
33 31 34 -109 0
45 44 40 39 -119 0
45 44 40 39 -70 0
45 44 40 39 -101 0
45 44 40 39 -43 0
45 44 40 39 -88 0
45 44 40 39 -122 0
45 44 40 39 -112 0
45 44 40 39 -72 0
45 44 40 39 -102 0
45 44 40 39 -42 0
45 44 40 39 -87 0
45 44 40 39 -121 0
45 44 40 39 -111 0
45 44 40 39 -120 0
45 44 40 39 -71 0
45 44 40 39 -104 0
45 44 40 39 -41 0
45 44 40 39 -89 0
45 44 40 39 -124 0
45 44 40 39 -113 0
45 44 40 39 -69 0
45 44 40 39 -103 0
45 44 40 39 -46 0
45 44 40 39 -90 0
45 44 40 39 -123 0
45 44 40 39 -114 0
13 8 14 7 -70 0
13 8 14 7 -72 0
13 8 14 7 -55 0
13 8 14 7 -61 0
13 8 14 7 -10 0
13 8 14 7 -60 0
13 8 14 7 -74 0
13 8 14 7 -68 0
13 8 14 7 -63 0
13 8 14 7 -11 0
13 8 14 7 -57 0
13 8 14 7 -75 0
13 8 14 7 -65 0
13 8 14 7 -71 0
13 8 14 7 -69 0
13 8 14 7 -56 0
13 8 14 7 -64 0
13 8 14 7 -12 0
13 8 14 7 -59 0
13 8 14 7 -76 0
13 8 14 7 -67 0
13 8 14 7 -62 0
13 8 14 7 -9 0
13 8 14 7 -58 0
13 8 14 7 -73 0
13 8 14 7 -66 0
30 29 25 24 -101 0
30 29 25 24 -61 0
30 29 25 24 -102 0
30 29 25 24 -63 0
30 29 25 24 -95 0
30 29 25 24 -28 0
30 29 25 24 -82 0
30 29 25 24 -107 0
30 29 25 24 -100 0
30 29 25 24 -27 0
30 29 25 24 -81 0
30 29 25 24 -106 0
30 29 25 24 -99 0
30 29 25 24 -104 0
30 29 25 24 -64 0
30 29 25 24 -103 0
30 29 25 24 -62 0
30 29 25 24 -96 0
30 29 25 24 -26 0
30 29 25 24 -80 0
30 29 25 24 -105 0
30 29 25 24 -97 0
30 29 25 24 -23 0
30 29 25 24 -79 0
30 29 25 24 -108 0
30 29 25 24 -98 0
6 5 1 4 -43 0
6 5 1 4 -10 0
6 5 1 4 -28 0
6 5 1 4 -42 0
6 5 1 4 -11 0
6 5 1 4 -27 0
6 5 1 4 -3 0
6 5 1 4 -16 0
6 5 1 4 -49 0
6 5 1 4 -32 0
6 5 1 4 -15 0
6 5 1 4 -53 0
6 5 1 4 -36 0
6 5 1 4 -41 0
6 5 1 4 -12 0
6 5 1 4 -26 0
6 5 1 4 -46 0
6 5 1 4 -9 0
6 5 1 4 -23 0
6 5 1 4 -2 0
6 5 1 4 -17 0
6 5 1 4 -50 0
6 5 1 4 -35 0
6 5 1 4 -19 0
6 5 1 4 -51 0
6 5 1 4 -37 0
22 21 18 20 -88 0
22 21 18 20 -60 0
22 21 18 20 -82 0
22 21 18 20 -16 0
22 21 18 20 -87 0
22 21 18 20 -57 0
22 21 18 20 -81 0
22 21 18 20 -15 0
22 21 18 20 -77 0
22 21 18 20 -94 0
22 21 18 20 -83 0
22 21 18 20 -93 0
22 21 18 20 -86 0
22 21 18 20 -89 0
22 21 18 20 -59 0
22 21 18 20 -80 0
22 21 18 20 -17 0
22 21 18 20 -90 0
22 21 18 20 -58 0
22 21 18 20 -79 0
22 21 18 20 -19 0
22 21 18 20 -78 0
22 21 18 20 -92 0
22 21 18 20 -85 0
22 21 18 20 -91 0
22 21 18 20 -84 0
52 47 48 54 -122 0
52 47 48 54 -74 0
52 47 48 54 -107 0
52 47 48 54 -49 0
52 47 48 54 -94 0
52 47 48 54 -121 0
52 47 48 54 -75 0
52 47 48 54 -106 0
52 47 48 54 -53 0
52 47 48 54 -93 0
52 47 48 54 -126 0
52 47 48 54 -116 0
52 47 48 54 -118 0
52 47 48 54 -124 0
52 47 48 54 -76 0
52 47 48 54 -105 0
52 47 48 54 -50 0
52 47 48 54 -92 0
52 47 48 54 -123 0
52 47 48 54 -73 0
52 47 48 54 -108 0
52 47 48 54 -51 0
52 47 48 54 -91 0
52 47 48 54 -125 0
52 47 48 54 -115 0
52 47 48 54 -117 0
38 33 31 34 -112 0
38 33 31 34 -68 0
38 33 31 34 -100 0
38 33 31 34 -32 0
38 33 31 34 -83 0
38 33 31 34 -116 0
38 33 31 34 -111 0
38 33 31 34 -65 0
38 33 31 34 -99 0
38 33 31 34 -36 0
38 33 31 34 -86 0
38 33 31 34 -118 0
38 33 31 34 -110 0
38 33 31 34 -113 0
38 33 31 34 -67 0
38 33 31 34 -97 0
38 33 31 34 -35 0
38 33 31 34 -85 0
38 33 31 34 -115 0
38 33 31 34 -114 0
38 33 31 34 -66 0
38 33 31 34 -98 0
38 33 31 34 -37 0
38 33 31 34 -84 0
38 33 31 34 -117 0
38 33 31 34 -109 0
45 13 44 40 39 -70 0
45 13 44 40 39 -72 0
45 13 44 40 39 -71 0
45 13 44 40 39 -69 0
45 13 8 14 7 -70 0
45 13 8 14 7 -72 0
45 13 8 14 7 -71 0
45 13 8 14 7 -69 0
45 30 44 40 39 -101 0
45 30 44 40 39 -102 0
45 30 44 40 39 -104 0
45 30 44 40 39 -103 0
45 30 29 25 24 -101 0
45 30 29 25 24 -102 0
45 30 29 25 24 -104 0
45 30 29 25 24 -103 0
45 6 44 40 39 -43 0
45 6 44 40 39 -42 0
45 6 44 40 39 -41 0
45 6 44 40 39 -46 0
45 6 5 1 4 -43 0
45 6 5 1 4 -42 0
45 6 5 1 4 -41 0
45 6 5 1 4 -46 0
45 22 44 40 39 -88 0
45 22 44 40 39 -87 0
45 22 44 40 39 -89 0
45 22 44 40 39 -90 0
45 22 21 18 20 -88 0
45 22 21 18 20 -87 0
45 22 21 18 20 -89 0
45 22 21 18 20 -90 0
45 52 44 40 39 -122 0
45 52 44 40 39 -121 0
45 52 44 40 39 -124 0
45 52 44 40 39 -123 0
45 52 47 48 54 -122 0
45 52 47 48 54 -121 0
45 52 47 48 54 -124 0
45 52 47 48 54 -123 0
45 38 44 40 39 -112 0
45 38 44 40 39 -111 0
45 38 44 40 39 -113 0
45 38 44 40 39 -114 0
45 38 33 31 34 -112 0
45 38 33 31 34 -111 0
45 38 33 31 34 -113 0
45 38 33 31 34 -114 0
45 44 8 40 39 -70 0
45 44 8 40 39 -72 0
45 44 8 40 39 -71 0
45 44 8 40 39 -69 0
45 44 29 40 39 -101 0
45 44 29 40 39 -102 0
45 44 29 40 39 -104 0
45 44 29 40 39 -103 0
45 44 5 40 39 -43 0
45 44 5 40 39 -42 0
45 44 5 40 39 -41 0
45 44 5 40 39 -46 0
45 44 21 40 39 -88 0
45 44 21 40 39 -87 0
45 44 21 40 39 -89 0
45 44 21 40 39 -90 0
45 44 47 40 39 -122 0
45 44 47 40 39 -121 0
45 44 47 40 39 -124 0
45 44 47 40 39 -123 0
45 44 33 40 39 -112 0
45 44 33 40 39 -111 0
45 44 33 40 39 -113 0
45 44 33 40 39 -114 0
45 44 40 14 39 -70 0
45 44 40 14 39 -72 0
45 44 40 14 39 -71 0
45 44 40 14 39 -69 0
45 44 40 25 39 -101 0
45 44 40 25 39 -102 0
45 44 40 25 39 -104 0
45 44 40 25 39 -103 0
45 44 40 1 39 -43 0
45 44 40 1 39 -42 0
45 44 40 1 39 -41 0
45 44 40 1 39 -46 0
45 44 40 18 39 -88 0
45 44 40 18 39 -87 0
45 44 40 18 39 -89 0
45 44 40 18 39 -90 0
45 44 40 48 39 -122 0
45 44 40 48 39 -121 0
45 44 40 48 39 -124 0
45 44 40 48 39 -123 0
45 44 40 31 39 -112 0
45 44 40 31 39 -111 0
45 44 40 31 39 -113 0
45 44 40 31 39 -114 0
45 44 40 39 7 -70 0
45 44 40 39 7 -72 0
45 44 40 39 7 -71 0
45 44 40 39 7 -69 0
45 44 40 39 24 -101 0
45 44 40 39 24 -102 0
45 44 40 39 24 -104 0
45 44 40 39 24 -103 0
45 44 40 39 4 -43 0
45 44 40 39 4 -42 0
45 44 40 39 4 -41 0
45 44 40 39 4 -46 0
45 44 40 39 20 -88 0
45 44 40 39 20 -87 0
45 44 40 39 20 -89 0
45 44 40 39 20 -90 0
45 44 40 39 54 -122 0
45 44 40 39 54 -121 0
45 44 40 39 54 -124 0
45 44 40 39 54 -123 0
45 44 40 39 34 -112 0
45 44 40 39 34 -111 0
45 44 40 39 34 -113 0
45 44 40 39 34 -114 0
13 30 8 14 7 -61 0
13 30 8 14 7 -63 0
13 30 8 14 7 -64 0
13 30 8 14 7 -62 0
13 30 29 25 24 -61 0
13 30 29 25 24 -63 0
13 30 29 25 24 -64 0
13 30 29 25 24 -62 0
13 6 8 14 7 -10 0
13 6 8 14 7 -11 0
13 6 8 14 7 -12 0
13 6 8 14 7 -9 0
13 6 5 1 4 -10 0
13 6 5 1 4 -11 0
13 6 5 1 4 -12 0
13 6 5 1 4 -9 0
13 22 8 14 7 -60 0
13 22 8 14 7 -57 0
13 22 8 14 7 -59 0
13 22 8 14 7 -58 0
13 22 21 18 20 -60 0
13 22 21 18 20 -57 0
13 22 21 18 20 -59 0
13 22 21 18 20 -58 0
13 52 8 14 7 -74 0
13 52 8 14 7 -75 0
13 52 8 14 7 -76 0
13 52 8 14 7 -73 0
13 52 47 48 54 -74 0
13 52 47 48 54 -75 0
13 52 47 48 54 -76 0
13 52 47 48 54 -73 0
13 38 8 14 7 -68 0
13 38 8 14 7 -65 0
13 38 8 14 7 -67 0
13 38 8 14 7 -66 0
13 38 33 31 34 -68 0
13 38 33 31 34 -65 0
13 38 33 31 34 -67 0
13 38 33 31 34 -66 0
13 44 8 14 7 -70 0
13 44 8 14 7 -72 0
13 44 8 14 7 -71 0
13 44 8 14 7 -69 0
13 8 29 14 7 -61 0
13 8 29 14 7 -63 0
13 8 29 14 7 -64 0
13 8 29 14 7 -62 0
13 8 5 14 7 -10 0
13 8 5 14 7 -11 0
13 8 5 14 7 -12 0
13 8 5 14 7 -9 0
13 8 21 14 7 -60 0
13 8 21 14 7 -57 0
13 8 21 14 7 -59 0
13 8 21 14 7 -58 0
13 8 47 14 7 -74 0
13 8 47 14 7 -75 0
13 8 47 14 7 -76 0
13 8 47 14 7 -73 0
13 8 33 14 7 -68 0
13 8 33 14 7 -65 0
13 8 33 14 7 -67 0
13 8 33 14 7 -66 0
13 8 40 14 7 -70 0
13 8 40 14 7 -72 0
13 8 40 14 7 -71 0
13 8 40 14 7 -69 0
13 8 14 25 7 -61 0
13 8 14 25 7 -63 0
13 8 14 25 7 -64 0
13 8 14 25 7 -62 0
13 8 14 1 7 -10 0
13 8 14 1 7 -11 0
13 8 14 1 7 -12 0
13 8 14 1 7 -9 0
13 8 14 18 7 -60 0
13 8 14 18 7 -57 0
13 8 14 18 7 -59 0
13 8 14 18 7 -58 0
13 8 14 48 7 -74 0
13 8 14 48 7 -75 0
13 8 14 48 7 -76 0
13 8 14 48 7 -73 0
13 8 14 31 7 -68 0
13 8 14 31 7 -65 0
13 8 14 31 7 -67 0
13 8 14 31 7 -66 0
13 8 14 39 7 -70 0
13 8 14 39 7 -72 0
13 8 14 39 7 -71 0
13 8 14 39 7 -69 0
13 8 14 7 24 -61 0
13 8 14 7 24 -63 0
13 8 14 7 24 -64 0
13 8 14 7 24 -62 0
13 8 14 7 4 -10 0
13 8 14 7 4 -11 0
13 8 14 7 4 -12 0
13 8 14 7 4 -9 0
13 8 14 7 20 -60 0
13 8 14 7 20 -57 0
13 8 14 7 20 -59 0
13 8 14 7 20 -58 0
13 8 14 7 54 -74 0
13 8 14 7 54 -75 0
13 8 14 7 54 -76 0
13 8 14 7 54 -73 0
13 8 14 7 34 -68 0
13 8 14 7 34 -65 0
13 8 14 7 34 -67 0
13 8 14 7 34 -66 0
30 6 29 25 24 -28 0
30 6 29 25 24 -27 0
30 6 29 25 24 -26 0
30 6 29 25 24 -23 0
30 6 5 1 4 -28 0
30 6 5 1 4 -27 0
30 6 5 1 4 -26 0
30 6 5 1 4 -23 0
30 22 29 25 24 -82 0
30 22 29 25 24 -81 0
30 22 29 25 24 -80 0
30 22 29 25 24 -79 0
30 22 21 18 20 -82 0
30 22 21 18 20 -81 0
30 22 21 18 20 -80 0
30 22 21 18 20 -79 0
30 52 29 25 24 -107 0
30 52 29 25 24 -106 0
30 52 29 25 24 -105 0
30 52 29 25 24 -108 0
30 52 47 48 54 -107 0
30 52 47 48 54 -106 0
30 52 47 48 54 -105 0
30 52 47 48 54 -108 0
30 38 29 25 24 -100 0
30 38 29 25 24 -99 0
30 38 29 25 24 -97 0
30 38 29 25 24 -98 0
30 38 33 31 34 -100 0
30 38 33 31 34 -99 0
30 38 33 31 34 -97 0
30 38 33 31 34 -98 0
30 44 29 25 24 -101 0
30 44 29 25 24 -102 0
30 44 29 25 24 -104 0
30 44 29 25 24 -103 0
30 8 29 25 24 -61 0
30 8 29 25 24 -63 0
30 8 29 25 24 -64 0
30 8 29 25 24 -62 0
30 29 5 25 24 -28 0
30 29 5 25 24 -27 0
30 29 5 25 24 -26 0
30 29 5 25 24 -23 0
30 29 21 25 24 -82 0
30 29 21 25 24 -81 0
30 29 21 25 24 -80 0
30 29 21 25 24 -79 0
30 29 47 25 24 -107 0
30 29 47 25 24 -106 0
30 29 47 25 24 -105 0
30 29 47 25 24 -108 0
30 29 33 25 24 -100 0
30 29 33 25 24 -99 0
30 29 33 25 24 -97 0
30 29 33 25 24 -98 0
30 29 40 25 24 -101 0
30 29 40 25 24 -102 0
30 29 40 25 24 -104 0
30 29 40 25 24 -103 0
30 29 14 25 24 -61 0
30 29 14 25 24 -63 0
30 29 14 25 24 -64 0
30 29 14 25 24 -62 0
30 29 25 1 24 -28 0
30 29 25 1 24 -27 0
30 29 25 1 24 -26 0
30 29 25 1 24 -23 0
30 29 25 18 24 -82 0
30 29 25 18 24 -81 0
30 29 25 18 24 -80 0
30 29 25 18 24 -79 0
30 29 25 48 24 -107 0
30 29 25 48 24 -106 0
30 29 25 48 24 -105 0
30 29 25 48 24 -108 0
30 29 25 31 24 -100 0
30 29 25 31 24 -99 0
30 29 25 31 24 -97 0
30 29 25 31 24 -98 0
30 29 25 39 24 -101 0
30 29 25 39 24 -102 0
30 29 25 39 24 -104 0
30 29 25 39 24 -103 0
30 29 25 7 24 -61 0
30 29 25 7 24 -63 0
30 29 25 7 24 -64 0
30 29 25 7 24 -62 0
30 29 25 24 4 -28 0
30 29 25 24 4 -27 0
30 29 25 24 4 -26 0
30 29 25 24 4 -23 0
30 29 25 24 20 -82 0
30 29 25 24 20 -81 0
30 29 25 24 20 -80 0
30 29 25 24 20 -79 0
30 29 25 24 54 -107 0
30 29 25 24 54 -106 0
30 29 25 24 54 -105 0
30 29 25 24 54 -108 0
30 29 25 24 34 -100 0
30 29 25 24 34 -99 0
30 29 25 24 34 -97 0
30 29 25 24 34 -98 0
6 22 5 1 4 -16 0
6 22 5 1 4 -15 0
6 22 5 1 4 -17 0
6 22 5 1 4 -19 0
6 22 21 18 20 -16 0
6 22 21 18 20 -15 0
6 22 21 18 20 -17 0
6 22 21 18 20 -19 0
6 52 5 1 4 -49 0
6 52 5 1 4 -53 0
6 52 5 1 4 -50 0
6 52 5 1 4 -51 0
6 52 47 48 54 -49 0
6 52 47 48 54 -53 0
6 52 47 48 54 -50 0
6 52 47 48 54 -51 0
6 38 5 1 4 -32 0
6 38 5 1 4 -36 0
6 38 5 1 4 -35 0
6 38 5 1 4 -37 0
6 38 33 31 34 -32 0
6 38 33 31 34 -36 0
6 38 33 31 34 -35 0
6 38 33 31 34 -37 0
6 44 5 1 4 -43 0
6 44 5 1 4 -42 0
6 44 5 1 4 -41 0
6 44 5 1 4 -46 0
6 8 5 1 4 -10 0
6 8 5 1 4 -11 0
6 8 5 1 4 -12 0
6 8 5 1 4 -9 0
6 29 5 1 4 -28 0
6 29 5 1 4 -27 0
6 29 5 1 4 -26 0
6 29 5 1 4 -23 0
6 5 21 1 4 -16 0
6 5 21 1 4 -15 0
6 5 21 1 4 -17 0
6 5 21 1 4 -19 0
6 5 47 1 4 -49 0
6 5 47 1 4 -53 0
6 5 47 1 4 -50 0
6 5 47 1 4 -51 0
6 5 33 1 4 -32 0
6 5 33 1 4 -36 0
6 5 33 1 4 -35 0
6 5 33 1 4 -37 0
6 5 40 1 4 -43 0
6 5 40 1 4 -42 0
6 5 40 1 4 -41 0
6 5 40 1 4 -46 0
6 5 14 1 4 -10 0
6 5 14 1 4 -11 0
6 5 14 1 4 -12 0
6 5 14 1 4 -9 0
6 5 25 1 4 -28 0
6 5 25 1 4 -27 0
6 5 25 1 4 -26 0
6 5 25 1 4 -23 0
6 5 1 18 4 -16 0
6 5 1 18 4 -15 0
6 5 1 18 4 -17 0
6 5 1 18 4 -19 0
6 5 1 48 4 -49 0
6 5 1 48 4 -53 0
6 5 1 48 4 -50 0
6 5 1 48 4 -51 0
6 5 1 31 4 -32 0
6 5 1 31 4 -36 0
6 5 1 31 4 -35 0
6 5 1 31 4 -37 0
6 5 1 39 4 -43 0
6 5 1 39 4 -42 0
6 5 1 39 4 -41 0
6 5 1 39 4 -46 0
6 5 1 7 4 -10 0
6 5 1 7 4 -11 0
6 5 1 7 4 -12 0
6 5 1 7 4 -9 0
6 5 1 24 4 -28 0
6 5 1 24 4 -27 0
6 5 1 24 4 -26 0
6 5 1 24 4 -23 0
6 5 1 4 20 -16 0
6 5 1 4 20 -15 0
6 5 1 4 20 -17 0
6 5 1 4 20 -19 0
6 5 1 4 54 -49 0
6 5 1 4 54 -53 0
6 5 1 4 54 -50 0
6 5 1 4 54 -51 0
6 5 1 4 34 -32 0
6 5 1 4 34 -36 0
6 5 1 4 34 -35 0
6 5 1 4 34 -37 0
22 52 21 18 20 -94 0
22 52 21 18 20 -93 0
22 52 21 18 20 -92 0
22 52 21 18 20 -91 0
22 52 47 48 54 -94 0
22 52 47 48 54 -93 0
22 52 47 48 54 -92 0
22 52 47 48 54 -91 0
22 38 21 18 20 -83 0
22 38 21 18 20 -86 0
22 38 21 18 20 -85 0
22 38 21 18 20 -84 0
22 38 33 31 34 -83 0
22 38 33 31 34 -86 0
22 38 33 31 34 -85 0
22 38 33 31 34 -84 0
22 44 21 18 20 -88 0
22 44 21 18 20 -87 0
22 44 21 18 20 -89 0
22 44 21 18 20 -90 0
22 8 21 18 20 -60 0
22 8 21 18 20 -57 0
22 8 21 18 20 -59 0
22 8 21 18 20 -58 0
22 29 21 18 20 -82 0
22 29 21 18 20 -81 0
22 29 21 18 20 -80 0
22 29 21 18 20 -79 0
22 5 21 18 20 -16 0
22 5 21 18 20 -15 0
22 5 21 18 20 -17 0
22 5 21 18 20 -19 0
22 21 47 18 20 -94 0
22 21 47 18 20 -93 0
22 21 47 18 20 -92 0
22 21 47 18 20 -91 0
22 21 33 18 20 -83 0
22 21 33 18 20 -86 0
22 21 33 18 20 -85 0
22 21 33 18 20 -84 0
22 21 40 18 20 -88 0
22 21 40 18 20 -87 0
22 21 40 18 20 -89 0
22 21 40 18 20 -90 0
22 21 14 18 20 -60 0
22 21 14 18 20 -57 0
22 21 14 18 20 -59 0
22 21 14 18 20 -58 0
22 21 25 18 20 -82 0
22 21 25 18 20 -81 0
22 21 25 18 20 -80 0
22 21 25 18 20 -79 0
22 21 1 18 20 -16 0
22 21 1 18 20 -15 0
22 21 1 18 20 -17 0
22 21 1 18 20 -19 0
22 21 18 48 20 -94 0
22 21 18 48 20 -93 0
22 21 18 48 20 -92 0
22 21 18 48 20 -91 0
22 21 18 31 20 -83 0
22 21 18 31 20 -86 0
22 21 18 31 20 -85 0
22 21 18 31 20 -84 0
22 21 18 39 20 -88 0
22 21 18 39 20 -87 0
22 21 18 39 20 -89 0
22 21 18 39 20 -90 0
22 21 18 7 20 -60 0
22 21 18 7 20 -57 0
22 21 18 7 20 -59 0
22 21 18 7 20 -58 0
22 21 18 24 20 -82 0
22 21 18 24 20 -81 0
22 21 18 24 20 -80 0
22 21 18 24 20 -79 0
22 21 18 4 20 -16 0
22 21 18 4 20 -15 0
22 21 18 4 20 -17 0
22 21 18 4 20 -19 0
22 21 18 20 54 -94 0
22 21 18 20 54 -93 0
22 21 18 20 54 -92 0
22 21 18 20 54 -91 0
22 21 18 20 34 -83 0
22 21 18 20 34 -86 0
22 21 18 20 34 -85 0
22 21 18 20 34 -84 0
52 38 47 48 54 -116 0
52 38 47 48 54 -118 0
52 38 47 48 54 -115 0
52 38 47 48 54 -117 0
52 38 33 31 34 -116 0
52 38 33 31 34 -118 0
52 38 33 31 34 -115 0
52 38 33 31 34 -117 0
52 44 47 48 54 -122 0
52 44 47 48 54 -121 0
52 44 47 48 54 -124 0
52 44 47 48 54 -123 0
52 8 47 48 54 -74 0
52 8 47 48 54 -75 0
52 8 47 48 54 -76 0
52 8 47 48 54 -73 0
52 29 47 48 54 -107 0
52 29 47 48 54 -106 0
52 29 47 48 54 -105 0
52 29 47 48 54 -108 0
52 5 47 48 54 -49 0
52 5 47 48 54 -53 0
52 5 47 48 54 -50 0
52 5 47 48 54 -51 0
52 21 47 48 54 -94 0
52 21 47 48 54 -93 0
52 21 47 48 54 -92 0
52 21 47 48 54 -91 0
52 47 33 48 54 -116 0
52 47 33 48 54 -118 0
52 47 33 48 54 -115 0
52 47 33 48 54 -117 0
52 47 40 48 54 -122 0
52 47 40 48 54 -121 0
52 47 40 48 54 -124 0
52 47 40 48 54 -123 0
52 47 14 48 54 -74 0
52 47 14 48 54 -75 0
52 47 14 48 54 -76 0
52 47 14 48 54 -73 0
52 47 25 48 54 -107 0
52 47 25 48 54 -106 0
52 47 25 48 54 -105 0
52 47 25 48 54 -108 0
52 47 1 48 54 -49 0
52 47 1 48 54 -53 0
52 47 1 48 54 -50 0
52 47 1 48 54 -51 0
52 47 18 48 54 -94 0
52 47 18 48 54 -93 0
52 47 18 48 54 -92 0
52 47 18 48 54 -91 0
52 47 48 31 54 -116 0
52 47 48 31 54 -118 0
52 47 48 31 54 -115 0
52 47 48 31 54 -117 0
52 47 48 39 54 -122 0
52 47 48 39 54 -121 0
52 47 48 39 54 -124 0
52 47 48 39 54 -123 0
52 47 48 7 54 -74 0
52 47 48 7 54 -75 0
52 47 48 7 54 -76 0
52 47 48 7 54 -73 0
52 47 48 24 54 -107 0
52 47 48 24 54 -106 0
52 47 48 24 54 -105 0
52 47 48 24 54 -108 0
52 47 48 4 54 -49 0
52 47 48 4 54 -53 0
52 47 48 4 54 -50 0
52 47 48 4 54 -51 0
52 47 48 20 54 -94 0
52 47 48 20 54 -93 0
52 47 48 20 54 -92 0
52 47 48 20 54 -91 0
52 47 48 54 34 -116 0
52 47 48 54 34 -118 0
52 47 48 54 34 -115 0
52 47 48 54 34 -117 0
38 44 33 31 34 -112 0
38 44 33 31 34 -111 0
38 44 33 31 34 -113 0
38 44 33 31 34 -114 0
38 8 33 31 34 -68 0
38 8 33 31 34 -65 0
38 8 33 31 34 -67 0
38 8 33 31 34 -66 0
38 29 33 31 34 -100 0
38 29 33 31 34 -99 0
38 29 33 31 34 -97 0
38 29 33 31 34 -98 0
38 5 33 31 34 -32 0
38 5 33 31 34 -36 0
38 5 33 31 34 -35 0
38 5 33 31 34 -37 0
38 21 33 31 34 -83 0
38 21 33 31 34 -86 0
38 21 33 31 34 -85 0
38 21 33 31 34 -84 0
38 47 33 31 34 -116 0
38 47 33 31 34 -118 0
38 47 33 31 34 -115 0
38 47 33 31 34 -117 0
38 33 40 31 34 -112 0
38 33 40 31 34 -111 0
38 33 40 31 34 -113 0
38 33 40 31 34 -114 0
38 33 14 31 34 -68 0
38 33 14 31 34 -65 0
38 33 14 31 34 -67 0
38 33 14 31 34 -66 0
38 33 25 31 34 -100 0
38 33 25 31 34 -99 0
38 33 25 31 34 -97 0
38 33 25 31 34 -98 0
38 33 1 31 34 -32 0
38 33 1 31 34 -36 0
38 33 1 31 34 -35 0
38 33 1 31 34 -37 0
38 33 18 31 34 -83 0
38 33 18 31 34 -86 0
38 33 18 31 34 -85 0
38 33 18 31 34 -84 0
38 33 48 31 34 -116 0
38 33 48 31 34 -118 0
38 33 48 31 34 -115 0
38 33 48 31 34 -117 0
38 33 31 39 34 -112 0
38 33 31 39 34 -111 0
38 33 31 39 34 -113 0
38 33 31 39 34 -114 0
38 33 31 7 34 -68 0
38 33 31 7 34 -65 0
38 33 31 7 34 -67 0
38 33 31 7 34 -66 0
38 33 31 24 34 -100 0
38 33 31 24 34 -99 0
38 33 31 24 34 -97 0
38 33 31 24 34 -98 0
38 33 31 4 34 -32 0
38 33 31 4 34 -36 0
38 33 31 4 34 -35 0
38 33 31 4 34 -37 0
38 33 31 20 34 -83 0
38 33 31 20 34 -86 0
38 33 31 20 34 -85 0
38 33 31 20 34 -84 0
38 33 31 54 34 -116 0
38 33 31 54 34 -118 0
38 33 31 54 34 -115 0
38 33 31 54 34 -117 0
119 70 101 43 88 122 112 0
72 55 61 10 60 74 68 0
102 63 95 28 82 107 100 0
42 11 27 3 16 49 32 0
87 57 81 15 77 94 83 0
121 75 106 53 93 126 116 0
111 65 99 36 86 118 110 0
120 71 104 41 89 124 113 0
69 56 64 12 59 76 67 0
103 62 96 26 80 105 97 0
46 9 23 2 17 50 35 0
90 58 79 19 78 92 85 0
123 73 108 51 91 125 115 0
114 66 98 37 84 117 109 0
45 13 44 8 40 14 -70 0
45 13 44 8 40 14 -72 0
45 13 44 8 40 14 -71 0
45 13 44 8 40 14 -69 0
45 13 44 8 40 39 -70 0
45 13 44 8 40 39 -72 0
45 13 44 8 40 39 -71 0
45 13 44 8 40 39 -69 0
45 13 44 8 14 7 -70 0
45 13 44 8 14 7 -72 0
45 13 44 8 14 7 -71 0
45 13 44 8 14 7 -69 0
45 13 44 8 39 7 -70 0
45 13 44 8 39 7 -72 0
45 13 44 8 39 7 -71 0
45 13 44 8 39 7 -69 0
45 13 44 40 14 39 -70 0
45 13 44 40 14 39 -72 0
45 13 44 40 14 39 -71 0
45 13 44 40 14 39 -69 0
45 13 44 40 39 7 -70 0
45 13 44 40 39 7 -72 0
45 13 44 40 39 7 -71 0
45 13 44 40 39 7 -69 0
45 13 8 40 14 7 -70 0
45 13 8 40 14 7 -72 0
45 13 8 40 14 7 -71 0
45 13 8 40 14 7 -69 0
45 13 8 14 39 7 -70 0
45 13 8 14 39 7 -72 0
45 13 8 14 39 7 -71 0
45 13 8 14 39 7 -69 0
45 13 40 14 39 7 -70 0
45 13 40 14 39 7 -72 0
45 13 40 14 39 7 -71 0
45 13 40 14 39 7 -69 0
45 30 44 29 40 25 -101 0
45 30 44 29 40 25 -102 0
45 30 44 29 40 25 -104 0
45 30 44 29 40 25 -103 0
45 30 44 29 40 39 -101 0
45 30 44 29 40 39 -102 0
45 30 44 29 40 39 -104 0
45 30 44 29 40 39 -103 0
45 30 44 29 25 24 -101 0
45 30 44 29 25 24 -102 0
45 30 44 29 25 24 -104 0
45 30 44 29 25 24 -103 0
45 30 44 29 39 24 -101 0
45 30 44 29 39 24 -102 0
45 30 44 29 39 24 -104 0
45 30 44 29 39 24 -103 0
45 30 44 40 25 39 -101 0
45 30 44 40 25 39 -102 0
45 30 44 40 25 39 -104 0
45 30 44 40 25 39 -103 0
45 30 44 40 39 24 -101 0
45 30 44 40 39 24 -102 0
45 30 44 40 39 24 -104 0
45 30 44 40 39 24 -103 0
45 30 29 40 25 24 -101 0
45 30 29 40 25 24 -102 0
45 30 29 40 25 24 -104 0
45 30 29 40 25 24 -103 0
45 30 29 25 39 24 -101 0
45 30 29 25 39 24 -102 0
45 30 29 25 39 24 -104 0
45 30 29 25 39 24 -103 0
45 30 40 25 39 24 -101 0
45 30 40 25 39 24 -102 0
45 30 40 25 39 24 -104 0
45 30 40 25 39 24 -103 0
45 6 44 5 40 1 -43 0
45 6 44 5 40 1 -42 0
45 6 44 5 40 1 -41 0
45 6 44 5 40 1 -46 0
45 6 44 5 40 39 -43 0
45 6 44 5 40 39 -42 0
45 6 44 5 40 39 -41 0
45 6 44 5 40 39 -46 0
45 6 44 5 1 4 -43 0
45 6 44 5 1 4 -42 0
45 6 44 5 1 4 -41 0
45 6 44 5 1 4 -46 0
45 6 44 5 39 4 -43 0
45 6 44 5 39 4 -42 0
45 6 44 5 39 4 -41 0
45 6 44 5 39 4 -46 0
45 6 44 40 1 39 -43 0
45 6 44 40 1 39 -42 0
45 6 44 40 1 39 -41 0
45 6 44 40 1 39 -46 0
45 6 44 40 39 4 -43 0
45 6 44 40 39 4 -42 0
45 6 44 40 39 4 -41 0
45 6 44 40 39 4 -46 0
45 6 5 40 1 4 -43 0
45 6 5 40 1 4 -42 0
45 6 5 40 1 4 -41 0
45 6 5 40 1 4 -46 0
45 6 5 1 39 4 -43 0
45 6 5 1 39 4 -42 0
45 6 5 1 39 4 -41 0
45 6 5 1 39 4 -46 0
45 6 40 1 39 4 -43 0
45 6 40 1 39 4 -42 0
45 6 40 1 39 4 -41 0
45 6 40 1 39 4 -46 0
45 22 44 21 40 18 -88 0
45 22 44 21 40 18 -87 0
45 22 44 21 40 18 -89 0
45 22 44 21 40 18 -90 0
45 22 44 21 40 39 -88 0
45 22 44 21 40 39 -87 0
45 22 44 21 40 39 -89 0
45 22 44 21 40 39 -90 0
45 22 44 21 18 20 -88 0
45 22 44 21 18 20 -87 0
45 22 44 21 18 20 -89 0
45 22 44 21 18 20 -90 0
45 22 44 21 39 20 -88 0
45 22 44 21 39 20 -87 0
45 22 44 21 39 20 -89 0
45 22 44 21 39 20 -90 0
45 22 44 40 18 39 -88 0
45 22 44 40 18 39 -87 0
45 22 44 40 18 39 -89 0
45 22 44 40 18 39 -90 0
45 22 44 40 39 20 -88 0
45 22 44 40 39 20 -87 0
45 22 44 40 39 20 -89 0
45 22 44 40 39 20 -90 0
45 22 21 40 18 20 -88 0
45 22 21 40 18 20 -87 0
45 22 21 40 18 20 -89 0
45 22 21 40 18 20 -90 0
45 22 21 18 39 20 -88 0
45 22 21 18 39 20 -87 0
45 22 21 18 39 20 -89 0
45 22 21 18 39 20 -90 0
45 22 40 18 39 20 -88 0
45 22 40 18 39 20 -87 0
45 22 40 18 39 20 -89 0
45 22 40 18 39 20 -90 0
45 52 44 47 40 48 -122 0
45 52 44 47 40 48 -121 0
45 52 44 47 40 48 -124 0
45 52 44 47 40 48 -123 0
45 52 44 47 40 39 -122 0
45 52 44 47 40 39 -121 0
45 52 44 47 40 39 -124 0
45 52 44 47 40 39 -123 0
45 52 44 47 48 54 -122 0
45 52 44 47 48 54 -121 0
45 52 44 47 48 54 -124 0
45 52 44 47 48 54 -123 0
45 52 44 47 39 54 -122 0
45 52 44 47 39 54 -121 0
45 52 44 47 39 54 -124 0
45 52 44 47 39 54 -123 0
45 52 44 40 48 39 -122 0
45 52 44 40 48 39 -121 0
45 52 44 40 48 39 -124 0
45 52 44 40 48 39 -123 0
45 52 44 40 39 54 -122 0
45 52 44 40 39 54 -121 0
45 52 44 40 39 54 -124 0
45 52 44 40 39 54 -123 0
45 52 47 40 48 54 -122 0
45 52 47 40 48 54 -121 0
45 52 47 40 48 54 -124 0
45 52 47 40 48 54 -123 0
45 52 47 48 39 54 -122 0
45 52 47 48 39 54 -121 0
45 52 47 48 39 54 -124 0
45 52 47 48 39 54 -123 0
45 52 40 48 39 54 -122 0
45 52 40 48 39 54 -121 0
45 52 40 48 39 54 -124 0
45 52 40 48 39 54 -123 0
45 38 44 33 40 31 -112 0
45 38 44 33 40 31 -111 0
45 38 44 33 40 31 -113 0
45 38 44 33 40 31 -114 0
45 38 44 33 40 39 -112 0
45 38 44 33 40 39 -111 0
45 38 44 33 40 39 -113 0
45 38 44 33 40 39 -114 0
45 38 44 33 31 34 -112 0
45 38 44 33 31 34 -111 0
45 38 44 33 31 34 -113 0
45 38 44 33 31 34 -114 0
45 38 44 33 39 34 -112 0
45 38 44 33 39 34 -111 0
45 38 44 33 39 34 -113 0
45 38 44 33 39 34 -114 0
45 38 44 40 31 39 -112 0
45 38 44 40 31 39 -111 0
45 38 44 40 31 39 -113 0
45 38 44 40 31 39 -114 0
45 38 44 40 39 34 -112 0
45 38 44 40 39 34 -111 0
45 38 44 40 39 34 -113 0
45 38 44 40 39 34 -114 0
45 38 33 40 31 34 -112 0
45 38 33 40 31 34 -111 0
45 38 33 40 31 34 -113 0
45 38 33 40 31 34 -114 0
45 38 33 31 39 34 -112 0
45 38 33 31 39 34 -111 0
45 38 33 31 39 34 -113 0
45 38 33 31 39 34 -114 0
45 38 40 31 39 34 -112 0
45 38 40 31 39 34 -111 0
45 38 40 31 39 34 -113 0
45 38 40 31 39 34 -114 0
45 44 8 40 14 39 -70 0
45 44 8 40 14 39 -72 0
45 44 8 40 14 39 -71 0
45 44 8 40 14 39 -69 0
45 44 8 40 39 7 -70 0
45 44 8 40 39 7 -72 0
45 44 8 40 39 7 -71 0
45 44 8 40 39 7 -69 0
45 44 29 40 25 39 -101 0
45 44 29 40 25 39 -102 0
45 44 29 40 25 39 -104 0
45 44 29 40 25 39 -103 0
45 44 29 40 39 24 -101 0
45 44 29 40 39 24 -102 0
45 44 29 40 39 24 -104 0
45 44 29 40 39 24 -103 0
45 44 5 40 1 39 -43 0
45 44 5 40 1 39 -42 0
45 44 5 40 1 39 -41 0
45 44 5 40 1 39 -46 0
45 44 5 40 39 4 -43 0
45 44 5 40 39 4 -42 0
45 44 5 40 39 4 -41 0
45 44 5 40 39 4 -46 0
45 44 21 40 18 39 -88 0
45 44 21 40 18 39 -87 0
45 44 21 40 18 39 -89 0
45 44 21 40 18 39 -90 0
45 44 21 40 39 20 -88 0
45 44 21 40 39 20 -87 0
45 44 21 40 39 20 -89 0
45 44 21 40 39 20 -90 0
45 44 47 40 48 39 -122 0
45 44 47 40 48 39 -121 0
45 44 47 40 48 39 -124 0
45 44 47 40 48 39 -123 0
45 44 47 40 39 54 -122 0
45 44 47 40 39 54 -121 0
45 44 47 40 39 54 -124 0
45 44 47 40 39 54 -123 0
45 44 33 40 31 39 -112 0
45 44 33 40 31 39 -111 0
45 44 33 40 31 39 -113 0
45 44 33 40 31 39 -114 0
45 44 33 40 39 34 -112 0
45 44 33 40 39 34 -111 0
45 44 33 40 39 34 -113 0
45 44 33 40 39 34 -114 0
45 44 40 14 39 7 -70 0
45 44 40 14 39 7 -72 0
45 44 40 14 39 7 -71 0
45 44 40 14 39 7 -69 0
45 44 40 25 39 24 -101 0
45 44 40 25 39 24 -102 0
45 44 40 25 39 24 -104 0
45 44 40 25 39 24 -103 0
45 44 40 1 39 4 -43 0
45 44 40 1 39 4 -42 0
45 44 40 1 39 4 -41 0
45 44 40 1 39 4 -46 0
45 44 40 18 39 20 -88 0
45 44 40 18 39 20 -87 0
45 44 40 18 39 20 -89 0
45 44 40 18 39 20 -90 0
45 44 40 48 39 54 -122 0
45 44 40 48 39 54 -121 0
45 44 40 48 39 54 -124 0
45 44 40 48 39 54 -123 0
45 44 40 31 39 34 -112 0
45 44 40 31 39 34 -111 0
45 44 40 31 39 34 -113 0
45 44 40 31 39 34 -114 0
13 30 8 29 14 25 -61 0
13 30 8 29 14 25 -63 0
13 30 8 29 14 25 -64 0
13 30 8 29 14 25 -62 0
13 30 8 29 14 7 -61 0
13 30 8 29 14 7 -63 0
13 30 8 29 14 7 -64 0
13 30 8 29 14 7 -62 0
13 30 8 29 25 24 -61 0
13 30 8 29 25 24 -63 0
13 30 8 29 25 24 -64 0
13 30 8 29 25 24 -62 0
13 30 8 29 7 24 -61 0
13 30 8 29 7 24 -63 0
13 30 8 29 7 24 -64 0
13 30 8 29 7 24 -62 0
13 30 8 14 25 7 -61 0
13 30 8 14 25 7 -63 0
13 30 8 14 25 7 -64 0
13 30 8 14 25 7 -62 0
13 30 8 14 7 24 -61 0
13 30 8 14 7 24 -63 0
13 30 8 14 7 24 -64 0
13 30 8 14 7 24 -62 0
13 30 29 14 25 24 -61 0
13 30 29 14 25 24 -63 0
13 30 29 14 25 24 -64 0
13 30 29 14 25 24 -62 0
13 30 29 25 7 24 -61 0
13 30 29 25 7 24 -63 0
13 30 29 25 7 24 -64 0
13 30 29 25 7 24 -62 0
13 30 14 25 7 24 -61 0
13 30 14 25 7 24 -63 0
13 30 14 25 7 24 -64 0
13 30 14 25 7 24 -62 0
13 6 8 5 14 1 -10 0
13 6 8 5 14 1 -11 0
13 6 8 5 14 1 -12 0
13 6 8 5 14 1 -9 0
13 6 8 5 14 7 -10 0
13 6 8 5 14 7 -11 0
13 6 8 5 14 7 -12 0
13 6 8 5 14 7 -9 0
13 6 8 5 1 4 -10 0
13 6 8 5 1 4 -11 0
13 6 8 5 1 4 -12 0
13 6 8 5 1 4 -9 0
13 6 8 5 7 4 -10 0
13 6 8 5 7 4 -11 0
13 6 8 5 7 4 -12 0
13 6 8 5 7 4 -9 0
13 6 8 14 1 7 -10 0
13 6 8 14 1 7 -11 0
13 6 8 14 1 7 -12 0
13 6 8 14 1 7 -9 0
13 6 8 14 7 4 -10 0
13 6 8 14 7 4 -11 0
13 6 8 14 7 4 -12 0
13 6 8 14 7 4 -9 0
13 6 5 14 1 4 -10 0
13 6 5 14 1 4 -11 0
13 6 5 14 1 4 -12 0
13 6 5 14 1 4 -9 0
13 6 5 1 7 4 -10 0
13 6 5 1 7 4 -11 0
13 6 5 1 7 4 -12 0
13 6 5 1 7 4 -9 0
13 6 14 1 7 4 -10 0
13 6 14 1 7 4 -11 0
13 6 14 1 7 4 -12 0
13 6 14 1 7 4 -9 0
13 22 8 21 14 18 -60 0
13 22 8 21 14 18 -57 0
13 22 8 21 14 18 -59 0
13 22 8 21 14 18 -58 0
13 22 8 21 14 7 -60 0
13 22 8 21 14 7 -57 0
13 22 8 21 14 7 -59 0
13 22 8 21 14 7 -58 0
13 22 8 21 18 20 -60 0
13 22 8 21 18 20 -57 0
13 22 8 21 18 20 -59 0
13 22 8 21 18 20 -58 0
13 22 8 21 7 20 -60 0
13 22 8 21 7 20 -57 0
13 22 8 21 7 20 -59 0
13 22 8 21 7 20 -58 0
13 22 8 14 18 7 -60 0
13 22 8 14 18 7 -57 0
13 22 8 14 18 7 -59 0
13 22 8 14 18 7 -58 0
13 22 8 14 7 20 -60 0
13 22 8 14 7 20 -57 0
13 22 8 14 7 20 -59 0
13 22 8 14 7 20 -58 0
13 22 21 14 18 20 -60 0
13 22 21 14 18 20 -57 0
13 22 21 14 18 20 -59 0
13 22 21 14 18 20 -58 0
13 22 21 18 7 20 -60 0
13 22 21 18 7 20 -57 0
13 22 21 18 7 20 -59 0
13 22 21 18 7 20 -58 0
13 22 14 18 7 20 -60 0
13 22 14 18 7 20 -57 0
13 22 14 18 7 20 -59 0
13 22 14 18 7 20 -58 0
13 52 8 47 14 48 -74 0
13 52 8 47 14 48 -75 0
13 52 8 47 14 48 -76 0
13 52 8 47 14 48 -73 0
13 52 8 47 14 7 -74 0
13 52 8 47 14 7 -75 0
13 52 8 47 14 7 -76 0
13 52 8 47 14 7 -73 0
13 52 8 47 48 54 -74 0
13 52 8 47 48 54 -75 0
13 52 8 47 48 54 -76 0
13 52 8 47 48 54 -73 0
13 52 8 47 7 54 -74 0
13 52 8 47 7 54 -75 0
13 52 8 47 7 54 -76 0
13 52 8 47 7 54 -73 0
13 52 8 14 48 7 -74 0
13 52 8 14 48 7 -75 0
13 52 8 14 48 7 -76 0
13 52 8 14 48 7 -73 0
13 52 8 14 7 54 -74 0
13 52 8 14 7 54 -75 0
13 52 8 14 7 54 -76 0
13 52 8 14 7 54 -73 0
13 52 47 14 48 54 -74 0
13 52 47 14 48 54 -75 0
13 52 47 14 48 54 -76 0
13 52 47 14 48 54 -73 0
13 52 47 48 7 54 -74 0
13 52 47 48 7 54 -75 0
13 52 47 48 7 54 -76 0
13 52 47 48 7 54 -73 0
13 52 14 48 7 54 -74 0
13 52 14 48 7 54 -75 0
13 52 14 48 7 54 -76 0
13 52 14 48 7 54 -73 0
13 38 8 33 14 31 -68 0
13 38 8 33 14 31 -65 0
13 38 8 33 14 31 -67 0
13 38 8 33 14 31 -66 0
13 38 8 33 14 7 -68 0
13 38 8 33 14 7 -65 0
13 38 8 33 14 7 -67 0
13 38 8 33 14 7 -66 0
13 38 8 33 31 34 -68 0
13 38 8 33 31 34 -65 0
13 38 8 33 31 34 -67 0
13 38 8 33 31 34 -66 0
13 38 8 33 7 34 -68 0
13 38 8 33 7 34 -65 0
13 38 8 33 7 34 -67 0
13 38 8 33 7 34 -66 0
13 38 8 14 31 7 -68 0
13 38 8 14 31 7 -65 0
13 38 8 14 31 7 -67 0
13 38 8 14 31 7 -66 0
13 38 8 14 7 34 -68 0
13 38 8 14 7 34 -65 0
13 38 8 14 7 34 -67 0
13 38 8 14 7 34 -66 0
13 38 33 14 31 34 -68 0
13 38 33 14 31 34 -65 0
13 38 33 14 31 34 -67 0
13 38 33 14 31 34 -66 0
13 38 33 31 7 34 -68 0
13 38 33 31 7 34 -65 0
13 38 33 31 7 34 -67 0
13 38 33 31 7 34 -66 0
13 38 14 31 7 34 -68 0
13 38 14 31 7 34 -65 0
13 38 14 31 7 34 -67 0
13 38 14 31 7 34 -66 0
13 44 8 40 14 7 -70 0
13 44 8 40 14 7 -72 0
13 44 8 40 14 7 -71 0
13 44 8 40 14 7 -69 0
13 44 8 14 39 7 -70 0
13 44 8 14 39 7 -72 0
13 44 8 14 39 7 -71 0
13 44 8 14 39 7 -69 0
13 8 29 14 25 7 -61 0
13 8 29 14 25 7 -63 0
13 8 29 14 25 7 -64 0
13 8 29 14 25 7 -62 0
13 8 29 14 7 24 -61 0
13 8 29 14 7 24 -63 0
13 8 29 14 7 24 -64 0
13 8 29 14 7 24 -62 0
13 8 5 14 1 7 -10 0
13 8 5 14 1 7 -11 0
13 8 5 14 1 7 -12 0
13 8 5 14 1 7 -9 0
13 8 5 14 7 4 -10 0
13 8 5 14 7 4 -11 0
13 8 5 14 7 4 -12 0
13 8 5 14 7 4 -9 0
13 8 21 14 18 7 -60 0
13 8 21 14 18 7 -57 0
13 8 21 14 18 7 -59 0
13 8 21 14 18 7 -58 0
13 8 21 14 7 20 -60 0
13 8 21 14 7 20 -57 0
13 8 21 14 7 20 -59 0
13 8 21 14 7 20 -58 0
13 8 47 14 48 7 -74 0
13 8 47 14 48 7 -75 0
13 8 47 14 48 7 -76 0
13 8 47 14 48 7 -73 0
13 8 47 14 7 54 -74 0
13 8 47 14 7 54 -75 0
13 8 47 14 7 54 -76 0
13 8 47 14 7 54 -73 0
13 8 33 14 31 7 -68 0
13 8 33 14 31 7 -65 0
13 8 33 14 31 7 -67 0
13 8 33 14 31 7 -66 0
13 8 33 14 7 34 -68 0
13 8 33 14 7 34 -65 0
13 8 33 14 7 34 -67 0
13 8 33 14 7 34 -66 0
13 8 40 14 39 7 -70 0
13 8 40 14 39 7 -72 0
13 8 40 14 39 7 -71 0
13 8 40 14 39 7 -69 0
13 8 14 25 7 24 -61 0
13 8 14 25 7 24 -63 0
13 8 14 25 7 24 -64 0
13 8 14 25 7 24 -62 0
13 8 14 1 7 4 -10 0
13 8 14 1 7 4 -11 0
13 8 14 1 7 4 -12 0
13 8 14 1 7 4 -9 0
13 8 14 18 7 20 -60 0
13 8 14 18 7 20 -57 0
13 8 14 18 7 20 -59 0
13 8 14 18 7 20 -58 0
13 8 14 48 7 54 -74 0
13 8 14 48 7 54 -75 0
13 8 14 48 7 54 -76 0
13 8 14 48 7 54 -73 0
13 8 14 31 7 34 -68 0
13 8 14 31 7 34 -65 0
13 8 14 31 7 34 -67 0
13 8 14 31 7 34 -66 0
30 6 29 5 25 1 -28 0
30 6 29 5 25 1 -27 0
30 6 29 5 25 1 -26 0
30 6 29 5 25 1 -23 0
30 6 29 5 25 24 -28 0
30 6 29 5 25 24 -27 0
30 6 29 5 25 24 -26 0
30 6 29 5 25 24 -23 0
30 6 29 5 1 4 -28 0
30 6 29 5 1 4 -27 0
30 6 29 5 1 4 -26 0
30 6 29 5 1 4 -23 0
30 6 29 5 24 4 -28 0
30 6 29 5 24 4 -27 0
30 6 29 5 24 4 -26 0
30 6 29 5 24 4 -23 0
30 6 29 25 1 24 -28 0
30 6 29 25 1 24 -27 0
30 6 29 25 1 24 -26 0
30 6 29 25 1 24 -23 0
30 6 29 25 24 4 -28 0
30 6 29 25 24 4 -27 0
30 6 29 25 24 4 -26 0
30 6 29 25 24 4 -23 0
30 6 5 25 1 4 -28 0
30 6 5 25 1 4 -27 0
30 6 5 25 1 4 -26 0
30 6 5 25 1 4 -23 0
30 6 5 1 24 4 -28 0
30 6 5 1 24 4 -27 0
30 6 5 1 24 4 -26 0
30 6 5 1 24 4 -23 0
30 6 25 1 24 4 -28 0
30 6 25 1 24 4 -27 0
30 6 25 1 24 4 -26 0
30 6 25 1 24 4 -23 0
30 22 29 21 25 18 -82 0
30 22 29 21 25 18 -81 0
30 22 29 21 25 18 -80 0
30 22 29 21 25 18 -79 0
30 22 29 21 25 24 -82 0
30 22 29 21 25 24 -81 0
30 22 29 21 25 24 -80 0
30 22 29 21 25 24 -79 0
30 22 29 21 18 20 -82 0
30 22 29 21 18 20 -81 0
30 22 29 21 18 20 -80 0
30 22 29 21 18 20 -79 0
30 22 29 21 24 20 -82 0
30 22 29 21 24 20 -81 0
30 22 29 21 24 20 -80 0
30 22 29 21 24 20 -79 0
30 22 29 25 18 24 -82 0
30 22 29 25 18 24 -81 0
30 22 29 25 18 24 -80 0
30 22 29 25 18 24 -79 0
30 22 29 25 24 20 -82 0
30 22 29 25 24 20 -81 0
30 22 29 25 24 20 -80 0
30 22 29 25 24 20 -79 0
30 22 21 25 18 20 -82 0
30 22 21 25 18 20 -81 0
30 22 21 25 18 20 -80 0
30 22 21 25 18 20 -79 0
30 22 21 18 24 20 -82 0
30 22 21 18 24 20 -81 0
30 22 21 18 24 20 -80 0
30 22 21 18 24 20 -79 0
30 22 25 18 24 20 -82 0
30 22 25 18 24 20 -81 0
30 22 25 18 24 20 -80 0
30 22 25 18 24 20 -79 0
30 52 29 47 25 48 -107 0
30 52 29 47 25 48 -106 0
30 52 29 47 25 48 -105 0
30 52 29 47 25 48 -108 0
30 52 29 47 25 24 -107 0
30 52 29 47 25 24 -106 0
30 52 29 47 25 24 -105 0
30 52 29 47 25 24 -108 0
30 52 29 47 48 54 -107 0
30 52 29 47 48 54 -106 0
30 52 29 47 48 54 -105 0
30 52 29 47 48 54 -108 0
30 52 29 47 24 54 -107 0
30 52 29 47 24 54 -106 0
30 52 29 47 24 54 -105 0
30 52 29 47 24 54 -108 0
30 52 29 25 48 24 -107 0
30 52 29 25 48 24 -106 0
30 52 29 25 48 24 -105 0
30 52 29 25 48 24 -108 0
30 52 29 25 24 54 -107 0
30 52 29 25 24 54 -106 0
30 52 29 25 24 54 -105 0
30 52 29 25 24 54 -108 0
30 52 47 25 48 54 -107 0
30 52 47 25 48 54 -106 0
30 52 47 25 48 54 -105 0
30 52 47 25 48 54 -108 0
30 52 47 48 24 54 -107 0
30 52 47 48 24 54 -106 0
30 52 47 48 24 54 -105 0
30 52 47 48 24 54 -108 0
30 52 25 48 24 54 -107 0
30 52 25 48 24 54 -106 0
30 52 25 48 24 54 -105 0
30 52 25 48 24 54 -108 0
30 38 29 33 25 31 -100 0
30 38 29 33 25 31 -99 0
30 38 29 33 25 31 -97 0
30 38 29 33 25 31 -98 0
30 38 29 33 25 24 -100 0
30 38 29 33 25 24 -99 0
30 38 29 33 25 24 -97 0
30 38 29 33 25 24 -98 0
30 38 29 33 31 34 -100 0
30 38 29 33 31 34 -99 0
30 38 29 33 31 34 -97 0
30 38 29 33 31 34 -98 0
30 38 29 33 24 34 -100 0
30 38 29 33 24 34 -99 0
30 38 29 33 24 34 -97 0
30 38 29 33 24 34 -98 0
30 38 29 25 31 24 -100 0
30 38 29 25 31 24 -99 0
30 38 29 25 31 24 -97 0
30 38 29 25 31 24 -98 0
30 38 29 25 24 34 -100 0
30 38 29 25 24 34 -99 0
30 38 29 25 24 34 -97 0
30 38 29 25 24 34 -98 0
30 38 33 25 31 34 -100 0
30 38 33 25 31 34 -99 0
30 38 33 25 31 34 -97 0
30 38 33 25 31 34 -98 0
30 38 33 31 24 34 -100 0
30 38 33 31 24 34 -99 0
30 38 33 31 24 34 -97 0
30 38 33 31 24 34 -98 0
30 38 25 31 24 34 -100 0
30 38 25 31 24 34 -99 0
30 38 25 31 24 34 -97 0
30 38 25 31 24 34 -98 0
30 44 29 40 25 24 -101 0
30 44 29 40 25 24 -102 0
30 44 29 40 25 24 -104 0
30 44 29 40 25 24 -103 0
30 44 29 25 39 24 -101 0
30 44 29 25 39 24 -102 0
30 44 29 25 39 24 -104 0
30 44 29 25 39 24 -103 0
30 8 29 14 25 24 -61 0
30 8 29 14 25 24 -63 0
30 8 29 14 25 24 -64 0
30 8 29 14 25 24 -62 0
30 8 29 25 7 24 -61 0
30 8 29 25 7 24 -63 0
30 8 29 25 7 24 -64 0
30 8 29 25 7 24 -62 0
30 29 5 25 1 24 -28 0
30 29 5 25 1 24 -27 0
30 29 5 25 1 24 -26 0
30 29 5 25 1 24 -23 0
30 29 5 25 24 4 -28 0
30 29 5 25 24 4 -27 0
30 29 5 25 24 4 -26 0
30 29 5 25 24 4 -23 0
30 29 21 25 18 24 -82 0
30 29 21 25 18 24 -81 0
30 29 21 25 18 24 -80 0
30 29 21 25 18 24 -79 0
30 29 21 25 24 20 -82 0
30 29 21 25 24 20 -81 0
30 29 21 25 24 20 -80 0
30 29 21 25 24 20 -79 0
30 29 47 25 48 24 -107 0
30 29 47 25 48 24 -106 0
30 29 47 25 48 24 -105 0
30 29 47 25 48 24 -108 0
30 29 47 25 24 54 -107 0
30 29 47 25 24 54 -106 0
30 29 47 25 24 54 -105 0
30 29 47 25 24 54 -108 0
30 29 33 25 31 24 -100 0
30 29 33 25 31 24 -99 0
30 29 33 25 31 24 -97 0
30 29 33 25 31 24 -98 0
30 29 33 25 24 34 -100 0
30 29 33 25 24 34 -99 0
30 29 33 25 24 34 -97 0
30 29 33 25 24 34 -98 0
30 29 40 25 39 24 -101 0
30 29 40 25 39 24 -102 0
30 29 40 25 39 24 -104 0
30 29 40 25 39 24 -103 0
30 29 14 25 7 24 -61 0
30 29 14 25 7 24 -63 0
30 29 14 25 7 24 -64 0
30 29 14 25 7 24 -62 0
30 29 25 1 24 4 -28 0
30 29 25 1 24 4 -27 0
30 29 25 1 24 4 -26 0
30 29 25 1 24 4 -23 0
30 29 25 18 24 20 -82 0
30 29 25 18 24 20 -81 0
30 29 25 18 24 20 -80 0
30 29 25 18 24 20 -79 0
30 29 25 48 24 54 -107 0
30 29 25 48 24 54 -106 0
30 29 25 48 24 54 -105 0
30 29 25 48 24 54 -108 0
30 29 25 31 24 34 -100 0
30 29 25 31 24 34 -99 0
30 29 25 31 24 34 -97 0
30 29 25 31 24 34 -98 0
6 22 5 21 1 18 -16 0
6 22 5 21 1 18 -15 0
6 22 5 21 1 18 -17 0
6 22 5 21 1 18 -19 0
6 22 5 21 1 4 -16 0
6 22 5 21 1 4 -15 0
6 22 5 21 1 4 -17 0
6 22 5 21 1 4 -19 0
6 22 5 21 18 20 -16 0
6 22 5 21 18 20 -15 0
6 22 5 21 18 20 -17 0
6 22 5 21 18 20 -19 0
6 22 5 21 4 20 -16 0
6 22 5 21 4 20 -15 0
6 22 5 21 4 20 -17 0
6 22 5 21 4 20 -19 0
6 22 5 1 18 4 -16 0
6 22 5 1 18 4 -15 0
6 22 5 1 18 4 -17 0
6 22 5 1 18 4 -19 0
6 22 5 1 4 20 -16 0
6 22 5 1 4 20 -15 0
6 22 5 1 4 20 -17 0
6 22 5 1 4 20 -19 0
6 22 21 1 18 20 -16 0
6 22 21 1 18 20 -15 0
6 22 21 1 18 20 -17 0
6 22 21 1 18 20 -19 0
6 22 21 18 4 20 -16 0
6 22 21 18 4 20 -15 0
6 22 21 18 4 20 -17 0
6 22 21 18 4 20 -19 0
6 22 1 18 4 20 -16 0
6 22 1 18 4 20 -15 0
6 22 1 18 4 20 -17 0
6 22 1 18 4 20 -19 0
6 52 5 47 1 48 -49 0
6 52 5 47 1 48 -53 0
6 52 5 47 1 48 -50 0
6 52 5 47 1 48 -51 0
6 52 5 47 1 4 -49 0
6 52 5 47 1 4 -53 0
6 52 5 47 1 4 -50 0
6 52 5 47 1 4 -51 0
6 52 5 47 48 54 -49 0
6 52 5 47 48 54 -53 0
6 52 5 47 48 54 -50 0
6 52 5 47 48 54 -51 0
6 52 5 47 4 54 -49 0
6 52 5 47 4 54 -53 0
6 52 5 47 4 54 -50 0
6 52 5 47 4 54 -51 0
6 52 5 1 48 4 -49 0
6 52 5 1 48 4 -53 0
6 52 5 1 48 4 -50 0
6 52 5 1 48 4 -51 0
6 52 5 1 4 54 -49 0
6 52 5 1 4 54 -53 0
6 52 5 1 4 54 -50 0
6 52 5 1 4 54 -51 0
6 52 47 1 48 54 -49 0
6 52 47 1 48 54 -53 0
6 52 47 1 48 54 -50 0
6 52 47 1 48 54 -51 0
6 52 47 48 4 54 -49 0
6 52 47 48 4 54 -53 0
6 52 47 48 4 54 -50 0
6 52 47 48 4 54 -51 0
6 52 1 48 4 54 -49 0
6 52 1 48 4 54 -53 0
6 52 1 48 4 54 -50 0
6 52 1 48 4 54 -51 0
6 38 5 33 1 31 -32 0
6 38 5 33 1 31 -36 0
6 38 5 33 1 31 -35 0
6 38 5 33 1 31 -37 0
6 38 5 33 1 4 -32 0
6 38 5 33 1 4 -36 0
6 38 5 33 1 4 -35 0
6 38 5 33 1 4 -37 0
6 38 5 33 31 34 -32 0
6 38 5 33 31 34 -36 0
6 38 5 33 31 34 -35 0
6 38 5 33 31 34 -37 0
6 38 5 33 4 34 -32 0
6 38 5 33 4 34 -36 0
6 38 5 33 4 34 -35 0
6 38 5 33 4 34 -37 0
6 38 5 1 31 4 -32 0
6 38 5 1 31 4 -36 0
6 38 5 1 31 4 -35 0
6 38 5 1 31 4 -37 0
6 38 5 1 4 34 -32 0
6 38 5 1 4 34 -36 0
6 38 5 1 4 34 -35 0
6 38 5 1 4 34 -37 0
6 38 33 1 31 34 -32 0
6 38 33 1 31 34 -36 0
6 38 33 1 31 34 -35 0
6 38 33 1 31 34 -37 0
6 38 33 31 4 34 -32 0
6 38 33 31 4 34 -36 0
6 38 33 31 4 34 -35 0
6 38 33 31 4 34 -37 0
6 38 1 31 4 34 -32 0
6 38 1 31 4 34 -36 0
6 38 1 31 4 34 -35 0
6 38 1 31 4 34 -37 0
6 44 5 40 1 4 -43 0
6 44 5 40 1 4 -42 0
6 44 5 40 1 4 -41 0
6 44 5 40 1 4 -46 0
6 44 5 1 39 4 -43 0
6 44 5 1 39 4 -42 0
6 44 5 1 39 4 -41 0
6 44 5 1 39 4 -46 0
6 8 5 14 1 4 -10 0
6 8 5 14 1 4 -11 0
6 8 5 14 1 4 -12 0
6 8 5 14 1 4 -9 0
6 8 5 1 7 4 -10 0
6 8 5 1 7 4 -11 0
6 8 5 1 7 4 -12 0
6 8 5 1 7 4 -9 0
6 29 5 25 1 4 -28 0
6 29 5 25 1 4 -27 0
6 29 5 25 1 4 -26 0
6 29 5 25 1 4 -23 0
6 29 5 1 24 4 -28 0
6 29 5 1 24 4 -27 0
6 29 5 1 24 4 -26 0
6 29 5 1 24 4 -23 0
6 5 21 1 18 4 -16 0
6 5 21 1 18 4 -15 0
6 5 21 1 18 4 -17 0
6 5 21 1 18 4 -19 0
6 5 21 1 4 20 -16 0
6 5 21 1 4 20 -15 0
6 5 21 1 4 20 -17 0
6 5 21 1 4 20 -19 0
6 5 47 1 48 4 -49 0
6 5 47 1 48 4 -53 0
6 5 47 1 48 4 -50 0
6 5 47 1 48 4 -51 0
6 5 47 1 4 54 -49 0
6 5 47 1 4 54 -53 0
6 5 47 1 4 54 -50 0
6 5 47 1 4 54 -51 0
6 5 33 1 31 4 -32 0
6 5 33 1 31 4 -36 0
6 5 33 1 31 4 -35 0
6 5 33 1 31 4 -37 0
6 5 33 1 4 34 -32 0
6 5 33 1 4 34 -36 0
6 5 33 1 4 34 -35 0
6 5 33 1 4 34 -37 0
6 5 40 1 39 4 -43 0
6 5 40 1 39 4 -42 0
6 5 40 1 39 4 -41 0
6 5 40 1 39 4 -46 0
6 5 14 1 7 4 -10 0
6 5 14 1 7 4 -11 0
6 5 14 1 7 4 -12 0
6 5 14 1 7 4 -9 0
6 5 25 1 24 4 -28 0
6 5 25 1 24 4 -27 0
6 5 25 1 24 4 -26 0
6 5 25 1 24 4 -23 0
6 5 1 18 4 20 -16 0
6 5 1 18 4 20 -15 0
6 5 1 18 4 20 -17 0
6 5 1 18 4 20 -19 0
6 5 1 48 4 54 -49 0
6 5 1 48 4 54 -53 0
6 5 1 48 4 54 -50 0
6 5 1 48 4 54 -51 0
6 5 1 31 4 34 -32 0
6 5 1 31 4 34 -36 0
6 5 1 31 4 34 -35 0
6 5 1 31 4 34 -37 0
22 52 21 47 18 48 -94 0
22 52 21 47 18 48 -93 0
22 52 21 47 18 48 -92 0
22 52 21 47 18 48 -91 0
22 52 21 47 18 20 -94 0
22 52 21 47 18 20 -93 0
22 52 21 47 18 20 -92 0
22 52 21 47 18 20 -91 0
22 52 21 47 48 54 -94 0
22 52 21 47 48 54 -93 0
22 52 21 47 48 54 -92 0
22 52 21 47 48 54 -91 0
22 52 21 47 20 54 -94 0
22 52 21 47 20 54 -93 0
22 52 21 47 20 54 -92 0
22 52 21 47 20 54 -91 0
22 52 21 18 48 20 -94 0
22 52 21 18 48 20 -93 0
22 52 21 18 48 20 -92 0
22 52 21 18 48 20 -91 0
22 52 21 18 20 54 -94 0
22 52 21 18 20 54 -93 0
22 52 21 18 20 54 -92 0
22 52 21 18 20 54 -91 0
22 52 47 18 48 54 -94 0
22 52 47 18 48 54 -93 0
22 52 47 18 48 54 -92 0
22 52 47 18 48 54 -91 0
22 52 47 48 20 54 -94 0
22 52 47 48 20 54 -93 0
22 52 47 48 20 54 -92 0
22 52 47 48 20 54 -91 0
22 52 18 48 20 54 -94 0
22 52 18 48 20 54 -93 0
22 52 18 48 20 54 -92 0
22 52 18 48 20 54 -91 0
22 38 21 33 18 31 -83 0
22 38 21 33 18 31 -86 0
22 38 21 33 18 31 -85 0
22 38 21 33 18 31 -84 0
22 38 21 33 18 20 -83 0
22 38 21 33 18 20 -86 0
22 38 21 33 18 20 -85 0
22 38 21 33 18 20 -84 0
22 38 21 33 31 34 -83 0
22 38 21 33 31 34 -86 0
22 38 21 33 31 34 -85 0
22 38 21 33 31 34 -84 0
22 38 21 33 20 34 -83 0
22 38 21 33 20 34 -86 0
22 38 21 33 20 34 -85 0
22 38 21 33 20 34 -84 0
22 38 21 18 31 20 -83 0
22 38 21 18 31 20 -86 0
22 38 21 18 31 20 -85 0
22 38 21 18 31 20 -84 0
22 38 21 18 20 34 -83 0
22 38 21 18 20 34 -86 0
22 38 21 18 20 34 -85 0
22 38 21 18 20 34 -84 0
22 38 33 18 31 34 -83 0
22 38 33 18 31 34 -86 0
22 38 33 18 31 34 -85 0
22 38 33 18 31 34 -84 0
22 38 33 31 20 34 -83 0
22 38 33 31 20 34 -86 0
22 38 33 31 20 34 -85 0
22 38 33 31 20 34 -84 0
22 38 18 31 20 34 -83 0
22 38 18 31 20 34 -86 0
22 38 18 31 20 34 -85 0
22 38 18 31 20 34 -84 0
22 44 21 40 18 20 -88 0
22 44 21 40 18 20 -87 0
22 44 21 40 18 20 -89 0
22 44 21 40 18 20 -90 0
22 44 21 18 39 20 -88 0
22 44 21 18 39 20 -87 0
22 44 21 18 39 20 -89 0
22 44 21 18 39 20 -90 0
22 8 21 14 18 20 -60 0
22 8 21 14 18 20 -57 0
22 8 21 14 18 20 -59 0
22 8 21 14 18 20 -58 0
22 8 21 18 7 20 -60 0
22 8 21 18 7 20 -57 0
22 8 21 18 7 20 -59 0
22 8 21 18 7 20 -58 0
22 29 21 25 18 20 -82 0
22 29 21 25 18 20 -81 0
22 29 21 25 18 20 -80 0
22 29 21 25 18 20 -79 0
22 29 21 18 24 20 -82 0
22 29 21 18 24 20 -81 0
22 29 21 18 24 20 -80 0
22 29 21 18 24 20 -79 0
22 5 21 1 18 20 -16 0
22 5 21 1 18 20 -15 0
22 5 21 1 18 20 -17 0
22 5 21 1 18 20 -19 0
22 5 21 18 4 20 -16 0
22 5 21 18 4 20 -15 0
22 5 21 18 4 20 -17 0
22 5 21 18 4 20 -19 0
22 21 47 18 48 20 -94 0
22 21 47 18 48 20 -93 0
22 21 47 18 48 20 -92 0
22 21 47 18 48 20 -91 0
22 21 47 18 20 54 -94 0
22 21 47 18 20 54 -93 0
22 21 47 18 20 54 -92 0
22 21 47 18 20 54 -91 0
22 21 33 18 31 20 -83 0
22 21 33 18 31 20 -86 0
22 21 33 18 31 20 -85 0
22 21 33 18 31 20 -84 0
22 21 33 18 20 34 -83 0
22 21 33 18 20 34 -86 0
22 21 33 18 20 34 -85 0
22 21 33 18 20 34 -84 0
22 21 40 18 39 20 -88 0
22 21 40 18 39 20 -87 0
22 21 40 18 39 20 -89 0
22 21 40 18 39 20 -90 0
22 21 14 18 7 20 -60 0
22 21 14 18 7 20 -57 0
22 21 14 18 7 20 -59 0
22 21 14 18 7 20 -58 0
22 21 25 18 24 20 -82 0
22 21 25 18 24 20 -81 0
22 21 25 18 24 20 -80 0
22 21 25 18 24 20 -79 0
22 21 1 18 4 20 -16 0
22 21 1 18 4 20 -15 0
22 21 1 18 4 20 -17 0
22 21 1 18 4 20 -19 0
22 21 18 48 20 54 -94 0
22 21 18 48 20 54 -93 0
22 21 18 48 20 54 -92 0
22 21 18 48 20 54 -91 0
22 21 18 31 20 34 -83 0
22 21 18 31 20 34 -86 0
22 21 18 31 20 34 -85 0
22 21 18 31 20 34 -84 0
52 38 47 33 48 31 -116 0
52 38 47 33 48 31 -118 0
52 38 47 33 48 31 -115 0
52 38 47 33 48 31 -117 0
52 38 47 33 48 54 -116 0
52 38 47 33 48 54 -118 0
52 38 47 33 48 54 -115 0
52 38 47 33 48 54 -117 0
52 38 47 33 31 34 -116 0
52 38 47 33 31 34 -118 0
52 38 47 33 31 34 -115 0
52 38 47 33 31 34 -117 0
52 38 47 33 54 34 -116 0
52 38 47 33 54 34 -118 0
52 38 47 33 54 34 -115 0
52 38 47 33 54 34 -117 0
52 38 47 48 31 54 -116 0
52 38 47 48 31 54 -118 0
52 38 47 48 31 54 -115 0
52 38 47 48 31 54 -117 0
52 38 47 48 54 34 -116 0
52 38 47 48 54 34 -118 0
52 38 47 48 54 34 -115 0
52 38 47 48 54 34 -117 0
52 38 33 48 31 34 -116 0
52 38 33 48 31 34 -118 0
52 38 33 48 31 34 -115 0
52 38 33 48 31 34 -117 0
52 38 33 31 54 34 -116 0
52 38 33 31 54 34 -118 0
52 38 33 31 54 34 -115 0
52 38 33 31 54 34 -117 0
52 38 48 31 54 34 -116 0
52 38 48 31 54 34 -118 0
52 38 48 31 54 34 -115 0
52 38 48 31 54 34 -117 0
52 44 47 40 48 54 -122 0
52 44 47 40 48 54 -121 0
52 44 47 40 48 54 -124 0
52 44 47 40 48 54 -123 0
52 44 47 48 39 54 -122 0
52 44 47 48 39 54 -121 0
52 44 47 48 39 54 -124 0
52 44 47 48 39 54 -123 0
52 8 47 14 48 54 -74 0
52 8 47 14 48 54 -75 0
52 8 47 14 48 54 -76 0
52 8 47 14 48 54 -73 0
52 8 47 48 7 54 -74 0
52 8 47 48 7 54 -75 0
52 8 47 48 7 54 -76 0
52 8 47 48 7 54 -73 0
52 29 47 25 48 54 -107 0
52 29 47 25 48 54 -106 0
52 29 47 25 48 54 -105 0
52 29 47 25 48 54 -108 0
52 29 47 48 24 54 -107 0
52 29 47 48 24 54 -106 0
52 29 47 48 24 54 -105 0
52 29 47 48 24 54 -108 0
52 5 47 1 48 54 -49 0
52 5 47 1 48 54 -53 0
52 5 47 1 48 54 -50 0
52 5 47 1 48 54 -51 0
52 5 47 48 4 54 -49 0
52 5 47 48 4 54 -53 0
52 5 47 48 4 54 -50 0
52 5 47 48 4 54 -51 0
52 21 47 18 48 54 -94 0
52 21 47 18 48 54 -93 0
52 21 47 18 48 54 -92 0
52 21 47 18 48 54 -91 0
52 21 47 48 20 54 -94 0
52 21 47 48 20 54 -93 0
52 21 47 48 20 54 -92 0
52 21 47 48 20 54 -91 0
52 47 33 48 31 54 -116 0
52 47 33 48 31 54 -118 0
52 47 33 48 31 54 -115 0
52 47 33 48 31 54 -117 0
52 47 33 48 54 34 -116 0
52 47 33 48 54 34 -118 0
52 47 33 48 54 34 -115 0
52 47 33 48 54 34 -117 0
52 47 40 48 39 54 -122 0
52 47 40 48 39 54 -121 0
52 47 40 48 39 54 -124 0
52 47 40 48 39 54 -123 0
52 47 14 48 7 54 -74 0
52 47 14 48 7 54 -75 0
52 47 14 48 7 54 -76 0
52 47 14 48 7 54 -73 0
52 47 25 48 24 54 -107 0
52 47 25 48 24 54 -106 0
52 47 25 48 24 54 -105 0
52 47 25 48 24 54 -108 0
52 47 1 48 4 54 -49 0
52 47 1 48 4 54 -53 0
52 47 1 48 4 54 -50 0
52 47 1 48 4 54 -51 0
52 47 18 48 20 54 -94 0
52 47 18 48 20 54 -93 0
52 47 18 48 20 54 -92 0
52 47 18 48 20 54 -91 0
52 47 48 31 54 34 -116 0
52 47 48 31 54 34 -118 0
52 47 48 31 54 34 -115 0
52 47 48 31 54 34 -117 0
38 44 33 40 31 34 -112 0
38 44 33 40 31 34 -111 0
38 44 33 40 31 34 -113 0
38 44 33 40 31 34 -114 0
38 44 33 31 39 34 -112 0
38 44 33 31 39 34 -111 0
38 44 33 31 39 34 -113 0
38 44 33 31 39 34 -114 0
38 8 33 14 31 34 -68 0
38 8 33 14 31 34 -65 0
38 8 33 14 31 34 -67 0
38 8 33 14 31 34 -66 0
38 8 33 31 7 34 -68 0
38 8 33 31 7 34 -65 0
38 8 33 31 7 34 -67 0
38 8 33 31 7 34 -66 0
38 29 33 25 31 34 -100 0
38 29 33 25 31 34 -99 0
38 29 33 25 31 34 -97 0
38 29 33 25 31 34 -98 0
38 29 33 31 24 34 -100 0
38 29 33 31 24 34 -99 0
38 29 33 31 24 34 -97 0
38 29 33 31 24 34 -98 0
38 5 33 1 31 34 -32 0
38 5 33 1 31 34 -36 0
38 5 33 1 31 34 -35 0
38 5 33 1 31 34 -37 0
38 5 33 31 4 34 -32 0
38 5 33 31 4 34 -36 0
38 5 33 31 4 34 -35 0
38 5 33 31 4 34 -37 0
38 21 33 18 31 34 -83 0
38 21 33 18 31 34 -86 0
38 21 33 18 31 34 -85 0
38 21 33 18 31 34 -84 0
38 21 33 31 20 34 -83 0
38 21 33 31 20 34 -86 0
38 21 33 31 20 34 -85 0
38 21 33 31 20 34 -84 0
38 47 33 48 31 34 -116 0
38 47 33 48 31 34 -118 0
38 47 33 48 31 34 -115 0
38 47 33 48 31 34 -117 0
38 47 33 31 54 34 -116 0
38 47 33 31 54 34 -118 0
38 47 33 31 54 34 -115 0
38 47 33 31 54 34 -117 0
38 33 40 31 39 34 -112 0
38 33 40 31 39 34 -111 0
38 33 40 31 39 34 -113 0
38 33 40 31 39 34 -114 0
38 33 14 31 7 34 -68 0
38 33 14 31 7 34 -65 0
38 33 14 31 7 34 -67 0
38 33 14 31 7 34 -66 0
38 33 25 31 24 34 -100 0
38 33 25 31 24 34 -99 0
38 33 25 31 24 34 -97 0
38 33 25 31 24 34 -98 0
38 33 1 31 4 34 -32 0
38 33 1 31 4 34 -36 0
38 33 1 31 4 34 -35 0
38 33 1 31 4 34 -37 0
38 33 18 31 20 34 -83 0
38 33 18 31 20 34 -86 0
38 33 18 31 20 34 -85 0
38 33 18 31 20 34 -84 0
38 33 48 31 54 34 -116 0
38 33 48 31 54 34 -118 0
38 33 48 31 54 34 -115 0
38 33 48 31 54 34 -117 0
44 8 40 14 39 7 -70 0
44 8 40 14 39 7 -72 0
44 8 40 14 39 7 -71 0
44 8 40 14 39 7 -69 0
44 29 40 25 39 24 -101 0
44 29 40 25 39 24 -102 0
44 29 40 25 39 24 -104 0
44 29 40 25 39 24 -103 0
44 5 40 1 39 4 -43 0
44 5 40 1 39 4 -42 0
44 5 40 1 39 4 -41 0
44 5 40 1 39 4 -46 0
44 21 40 18 39 20 -88 0
44 21 40 18 39 20 -87 0
44 21 40 18 39 20 -89 0
44 21 40 18 39 20 -90 0
44 47 40 48 39 54 -122 0
44 47 40 48 39 54 -121 0
44 47 40 48 39 54 -124 0
44 47 40 48 39 54 -123 0
44 33 40 31 39 34 -112 0
44 33 40 31 39 34 -111 0
44 33 40 31 39 34 -113 0
44 33 40 31 39 34 -114 0
8 29 14 25 7 24 -61 0
8 29 14 25 7 24 -63 0
8 29 14 25 7 24 -64 0
8 29 14 25 7 24 -62 0
8 5 14 1 7 4 -10 0
8 5 14 1 7 4 -11 0
8 5 14 1 7 4 -12 0
8 5 14 1 7 4 -9 0
8 21 14 18 7 20 -60 0
8 21 14 18 7 20 -57 0
8 21 14 18 7 20 -59 0
8 21 14 18 7 20 -58 0
8 47 14 48 7 54 -74 0
8 47 14 48 7 54 -75 0
8 47 14 48 7 54 -76 0
8 47 14 48 7 54 -73 0
8 33 14 31 7 34 -68 0
8 33 14 31 7 34 -65 0
8 33 14 31 7 34 -67 0
8 33 14 31 7 34 -66 0
29 5 25 1 24 4 -28 0
29 5 25 1 24 4 -27 0
29 5 25 1 24 4 -26 0
29 5 25 1 24 4 -23 0
29 21 25 18 24 20 -82 0
29 21 25 18 24 20 -81 0
29 21 25 18 24 20 -80 0
29 21 25 18 24 20 -79 0
29 47 25 48 24 54 -107 0
29 47 25 48 24 54 -106 0
29 47 25 48 24 54 -105 0
29 47 25 48 24 54 -108 0
29 33 25 31 24 34 -100 0
29 33 25 31 24 34 -99 0
29 33 25 31 24 34 -97 0
29 33 25 31 24 34 -98 0
5 21 1 18 4 20 -16 0
5 21 1 18 4 20 -15 0
5 21 1 18 4 20 -17 0
5 21 1 18 4 20 -19 0
5 47 1 48 4 54 -49 0
5 47 1 48 4 54 -53 0
5 47 1 48 4 54 -50 0
5 47 1 48 4 54 -51 0
5 33 1 31 4 34 -32 0
5 33 1 31 4 34 -36 0
5 33 1 31 4 34 -35 0
5 33 1 31 4 34 -37 0
21 47 18 48 20 54 -94 0
21 47 18 48 20 54 -93 0
21 47 18 48 20 54 -92 0
21 47 18 48 20 54 -91 0
21 33 18 31 20 34 -83 0
21 33 18 31 20 34 -86 0
21 33 18 31 20 34 -85 0
21 33 18 31 20 34 -84 0
47 33 48 31 54 34 -116 0
47 33 48 31 54 34 -118 0
47 33 48 31 54 34 -115 0
47 33 48 31 54 34 -117 0
45 13 44 8 40 14 39 -70 0
45 13 44 8 40 14 39 -72 0
45 13 44 8 40 14 39 -71 0
45 13 44 8 40 14 39 -69 0
45 13 44 8 40 14 7 -70 0
45 13 44 8 40 14 7 -72 0
45 13 44 8 40 14 7 -71 0
45 13 44 8 40 14 7 -69 0
45 13 44 8 40 39 7 -70 0
45 13 44 8 40 39 7 -72 0
45 13 44 8 40 39 7 -71 0
45 13 44 8 40 39 7 -69 0
45 13 44 8 14 39 7 -70 0
45 13 44 8 14 39 7 -72 0
45 13 44 8 14 39 7 -71 0
45 13 44 8 14 39 7 -69 0
45 13 44 40 14 39 7 -70 0
45 13 44 40 14 39 7 -72 0
45 13 44 40 14 39 7 -71 0
45 13 44 40 14 39 7 -69 0
45 13 8 40 14 39 7 -70 0
45 13 8 40 14 39 7 -72 0
45 13 8 40 14 39 7 -71 0
45 13 8 40 14 39 7 -69 0
45 30 44 29 40 25 39 -101 0
45 30 44 29 40 25 39 -102 0
45 30 44 29 40 25 39 -104 0
45 30 44 29 40 25 39 -103 0
45 30 44 29 40 25 24 -101 0
45 30 44 29 40 25 24 -102 0
45 30 44 29 40 25 24 -104 0
45 30 44 29 40 25 24 -103 0
45 30 44 29 40 39 24 -101 0
45 30 44 29 40 39 24 -102 0
45 30 44 29 40 39 24 -104 0
45 30 44 29 40 39 24 -103 0
45 30 44 29 25 39 24 -101 0
45 30 44 29 25 39 24 -102 0
45 30 44 29 25 39 24 -104 0
45 30 44 29 25 39 24 -103 0
45 30 44 40 25 39 24 -101 0
45 30 44 40 25 39 24 -102 0
45 30 44 40 25 39 24 -104 0
45 30 44 40 25 39 24 -103 0
45 30 29 40 25 39 24 -101 0
45 30 29 40 25 39 24 -102 0
45 30 29 40 25 39 24 -104 0
45 30 29 40 25 39 24 -103 0
45 6 44 5 40 1 39 -43 0
45 6 44 5 40 1 39 -42 0
45 6 44 5 40 1 39 -41 0
45 6 44 5 40 1 39 -46 0
45 6 44 5 40 1 4 -43 0
45 6 44 5 40 1 4 -42 0
45 6 44 5 40 1 4 -41 0
45 6 44 5 40 1 4 -46 0
45 6 44 5 40 39 4 -43 0
45 6 44 5 40 39 4 -42 0
45 6 44 5 40 39 4 -41 0
45 6 44 5 40 39 4 -46 0
45 6 44 5 1 39 4 -43 0
45 6 44 5 1 39 4 -42 0
45 6 44 5 1 39 4 -41 0
45 6 44 5 1 39 4 -46 0
45 6 44 40 1 39 4 -43 0
45 6 44 40 1 39 4 -42 0
45 6 44 40 1 39 4 -41 0
45 6 44 40 1 39 4 -46 0
45 6 5 40 1 39 4 -43 0
45 6 5 40 1 39 4 -42 0
45 6 5 40 1 39 4 -41 0
45 6 5 40 1 39 4 -46 0
45 22 44 21 40 18 39 -88 0
45 22 44 21 40 18 39 -87 0
45 22 44 21 40 18 39 -89 0
45 22 44 21 40 18 39 -90 0
45 22 44 21 40 18 20 -88 0
45 22 44 21 40 18 20 -87 0
45 22 44 21 40 18 20 -89 0
45 22 44 21 40 18 20 -90 0
45 22 44 21 40 39 20 -88 0
45 22 44 21 40 39 20 -87 0
45 22 44 21 40 39 20 -89 0
45 22 44 21 40 39 20 -90 0
45 22 44 21 18 39 20 -88 0
45 22 44 21 18 39 20 -87 0
45 22 44 21 18 39 20 -89 0
45 22 44 21 18 39 20 -90 0
45 22 44 40 18 39 20 -88 0
45 22 44 40 18 39 20 -87 0
45 22 44 40 18 39 20 -89 0
45 22 44 40 18 39 20 -90 0
45 22 21 40 18 39 20 -88 0
45 22 21 40 18 39 20 -87 0
45 22 21 40 18 39 20 -89 0
45 22 21 40 18 39 20 -90 0
45 52 44 47 40 48 39 -122 0
45 52 44 47 40 48 39 -121 0
45 52 44 47 40 48 39 -124 0
45 52 44 47 40 48 39 -123 0
45 52 44 47 40 48 54 -122 0
45 52 44 47 40 48 54 -121 0
45 52 44 47 40 48 54 -124 0
45 52 44 47 40 48 54 -123 0
45 52 44 47 40 39 54 -122 0
45 52 44 47 40 39 54 -121 0
45 52 44 47 40 39 54 -124 0
45 52 44 47 40 39 54 -123 0
45 52 44 47 48 39 54 -122 0
45 52 44 47 48 39 54 -121 0
45 52 44 47 48 39 54 -124 0
45 52 44 47 48 39 54 -123 0
45 52 44 40 48 39 54 -122 0
45 52 44 40 48 39 54 -121 0
45 52 44 40 48 39 54 -124 0
45 52 44 40 48 39 54 -123 0
45 52 47 40 48 39 54 -122 0
45 52 47 40 48 39 54 -121 0
45 52 47 40 48 39 54 -124 0
45 52 47 40 48 39 54 -123 0
45 38 44 33 40 31 39 -112 0
45 38 44 33 40 31 39 -111 0
45 38 44 33 40 31 39 -113 0
45 38 44 33 40 31 39 -114 0
45 38 44 33 40 31 34 -112 0
45 38 44 33 40 31 34 -111 0
45 38 44 33 40 31 34 -113 0
45 38 44 33 40 31 34 -114 0
45 38 44 33 40 39 34 -112 0
45 38 44 33 40 39 34 -111 0
45 38 44 33 40 39 34 -113 0
45 38 44 33 40 39 34 -114 0
45 38 44 33 31 39 34 -112 0
45 38 44 33 31 39 34 -111 0
45 38 44 33 31 39 34 -113 0
45 38 44 33 31 39 34 -114 0
45 38 44 40 31 39 34 -112 0
45 38 44 40 31 39 34 -111 0
45 38 44 40 31 39 34 -113 0
45 38 44 40 31 39 34 -114 0
45 38 33 40 31 39 34 -112 0
45 38 33 40 31 39 34 -111 0
45 38 33 40 31 39 34 -113 0
45 38 33 40 31 39 34 -114 0
45 44 8 40 14 39 7 -70 0
45 44 8 40 14 39 7 -72 0
45 44 8 40 14 39 7 -71 0
45 44 8 40 14 39 7 -69 0
45 44 29 40 25 39 24 -101 0
45 44 29 40 25 39 24 -102 0
45 44 29 40 25 39 24 -104 0
45 44 29 40 25 39 24 -103 0
45 44 5 40 1 39 4 -43 0
45 44 5 40 1 39 4 -42 0
45 44 5 40 1 39 4 -41 0
45 44 5 40 1 39 4 -46 0
45 44 21 40 18 39 20 -88 0
45 44 21 40 18 39 20 -87 0
45 44 21 40 18 39 20 -89 0
45 44 21 40 18 39 20 -90 0
45 44 47 40 48 39 54 -122 0
45 44 47 40 48 39 54 -121 0
45 44 47 40 48 39 54 -124 0
45 44 47 40 48 39 54 -123 0
45 44 33 40 31 39 34 -112 0
45 44 33 40 31 39 34 -111 0
45 44 33 40 31 39 34 -113 0
45 44 33 40 31 39 34 -114 0
13 30 8 29 14 25 7 -61 0
13 30 8 29 14 25 7 -63 0
13 30 8 29 14 25 7 -64 0
13 30 8 29 14 25 7 -62 0
13 30 8 29 14 25 24 -61 0
13 30 8 29 14 25 24 -63 0
13 30 8 29 14 25 24 -64 0
13 30 8 29 14 25 24 -62 0
13 30 8 29 14 7 24 -61 0
13 30 8 29 14 7 24 -63 0
13 30 8 29 14 7 24 -64 0
13 30 8 29 14 7 24 -62 0
13 30 8 29 25 7 24 -61 0
13 30 8 29 25 7 24 -63 0
13 30 8 29 25 7 24 -64 0
13 30 8 29 25 7 24 -62 0
13 30 8 14 25 7 24 -61 0
13 30 8 14 25 7 24 -63 0
13 30 8 14 25 7 24 -64 0
13 30 8 14 25 7 24 -62 0
13 30 29 14 25 7 24 -61 0
13 30 29 14 25 7 24 -63 0
13 30 29 14 25 7 24 -64 0
13 30 29 14 25 7 24 -62 0
13 6 8 5 14 1 7 -10 0
13 6 8 5 14 1 7 -11 0
13 6 8 5 14 1 7 -12 0
13 6 8 5 14 1 7 -9 0
13 6 8 5 14 1 4 -10 0
13 6 8 5 14 1 4 -11 0
13 6 8 5 14 1 4 -12 0
13 6 8 5 14 1 4 -9 0
13 6 8 5 14 7 4 -10 0
13 6 8 5 14 7 4 -11 0
13 6 8 5 14 7 4 -12 0
13 6 8 5 14 7 4 -9 0
13 6 8 5 1 7 4 -10 0
13 6 8 5 1 7 4 -11 0
13 6 8 5 1 7 4 -12 0
13 6 8 5 1 7 4 -9 0
13 6 8 14 1 7 4 -10 0
13 6 8 14 1 7 4 -11 0
13 6 8 14 1 7 4 -12 0
13 6 8 14 1 7 4 -9 0
13 6 5 14 1 7 4 -10 0
13 6 5 14 1 7 4 -11 0
13 6 5 14 1 7 4 -12 0
13 6 5 14 1 7 4 -9 0
13 22 8 21 14 18 7 -60 0
13 22 8 21 14 18 7 -57 0
13 22 8 21 14 18 7 -59 0
13 22 8 21 14 18 7 -58 0
13 22 8 21 14 18 20 -60 0
13 22 8 21 14 18 20 -57 0
13 22 8 21 14 18 20 -59 0
13 22 8 21 14 18 20 -58 0
13 22 8 21 14 7 20 -60 0
13 22 8 21 14 7 20 -57 0
13 22 8 21 14 7 20 -59 0
13 22 8 21 14 7 20 -58 0
13 22 8 21 18 7 20 -60 0
13 22 8 21 18 7 20 -57 0
13 22 8 21 18 7 20 -59 0
13 22 8 21 18 7 20 -58 0
13 22 8 14 18 7 20 -60 0
13 22 8 14 18 7 20 -57 0
13 22 8 14 18 7 20 -59 0
13 22 8 14 18 7 20 -58 0
13 22 21 14 18 7 20 -60 0
13 22 21 14 18 7 20 -57 0
13 22 21 14 18 7 20 -59 0
13 22 21 14 18 7 20 -58 0
13 52 8 47 14 48 7 -74 0
13 52 8 47 14 48 7 -75 0
13 52 8 47 14 48 7 -76 0
13 52 8 47 14 48 7 -73 0
13 52 8 47 14 48 54 -74 0
13 52 8 47 14 48 54 -75 0
13 52 8 47 14 48 54 -76 0
13 52 8 47 14 48 54 -73 0
13 52 8 47 14 7 54 -74 0
13 52 8 47 14 7 54 -75 0
13 52 8 47 14 7 54 -76 0
13 52 8 47 14 7 54 -73 0
13 52 8 47 48 7 54 -74 0
13 52 8 47 48 7 54 -75 0
13 52 8 47 48 7 54 -76 0
13 52 8 47 48 7 54 -73 0
13 52 8 14 48 7 54 -74 0
13 52 8 14 48 7 54 -75 0
13 52 8 14 48 7 54 -76 0
13 52 8 14 48 7 54 -73 0
13 52 47 14 48 7 54 -74 0
13 52 47 14 48 7 54 -75 0
13 52 47 14 48 7 54 -76 0
13 52 47 14 48 7 54 -73 0
13 38 8 33 14 31 7 -68 0
13 38 8 33 14 31 7 -65 0
13 38 8 33 14 31 7 -67 0
13 38 8 33 14 31 7 -66 0
13 38 8 33 14 31 34 -68 0
13 38 8 33 14 31 34 -65 0
13 38 8 33 14 31 34 -67 0
13 38 8 33 14 31 34 -66 0
13 38 8 33 14 7 34 -68 0
13 38 8 33 14 7 34 -65 0
13 38 8 33 14 7 34 -67 0
13 38 8 33 14 7 34 -66 0
13 38 8 33 31 7 34 -68 0
13 38 8 33 31 7 34 -65 0
13 38 8 33 31 7 34 -67 0
13 38 8 33 31 7 34 -66 0
13 38 8 14 31 7 34 -68 0
13 38 8 14 31 7 34 -65 0
13 38 8 14 31 7 34 -67 0
13 38 8 14 31 7 34 -66 0
13 38 33 14 31 7 34 -68 0
13 38 33 14 31 7 34 -65 0
13 38 33 14 31 7 34 -67 0
13 38 33 14 31 7 34 -66 0
13 44 8 40 14 39 7 -70 0
13 44 8 40 14 39 7 -72 0
13 44 8 40 14 39 7 -71 0
13 44 8 40 14 39 7 -69 0
13 8 29 14 25 7 24 -61 0
13 8 29 14 25 7 24 -63 0
13 8 29 14 25 7 24 -64 0
13 8 29 14 25 7 24 -62 0
13 8 5 14 1 7 4 -10 0
13 8 5 14 1 7 4 -11 0
13 8 5 14 1 7 4 -12 0
13 8 5 14 1 7 4 -9 0
13 8 21 14 18 7 20 -60 0
13 8 21 14 18 7 20 -57 0
13 8 21 14 18 7 20 -59 0
13 8 21 14 18 7 20 -58 0
13 8 47 14 48 7 54 -74 0
13 8 47 14 48 7 54 -75 0
13 8 47 14 48 7 54 -76 0
13 8 47 14 48 7 54 -73 0
13 8 33 14 31 7 34 -68 0
13 8 33 14 31 7 34 -65 0
13 8 33 14 31 7 34 -67 0
13 8 33 14 31 7 34 -66 0
30 6 29 5 25 1 24 -28 0
30 6 29 5 25 1 24 -27 0
30 6 29 5 25 1 24 -26 0
30 6 29 5 25 1 24 -23 0
30 6 29 5 25 1 4 -28 0
30 6 29 5 25 1 4 -27 0
30 6 29 5 25 1 4 -26 0
30 6 29 5 25 1 4 -23 0
30 6 29 5 25 24 4 -28 0
30 6 29 5 25 24 4 -27 0
30 6 29 5 25 24 4 -26 0
30 6 29 5 25 24 4 -23 0
30 6 29 5 1 24 4 -28 0
30 6 29 5 1 24 4 -27 0
30 6 29 5 1 24 4 -26 0
30 6 29 5 1 24 4 -23 0
30 6 29 25 1 24 4 -28 0
30 6 29 25 1 24 4 -27 0
30 6 29 25 1 24 4 -26 0
30 6 29 25 1 24 4 -23 0
30 6 5 25 1 24 4 -28 0
30 6 5 25 1 24 4 -27 0
30 6 5 25 1 24 4 -26 0
30 6 5 25 1 24 4 -23 0
30 22 29 21 25 18 24 -82 0
30 22 29 21 25 18 24 -81 0
30 22 29 21 25 18 24 -80 0
30 22 29 21 25 18 24 -79 0
30 22 29 21 25 18 20 -82 0
30 22 29 21 25 18 20 -81 0
30 22 29 21 25 18 20 -80 0
30 22 29 21 25 18 20 -79 0
30 22 29 21 25 24 20 -82 0
30 22 29 21 25 24 20 -81 0
30 22 29 21 25 24 20 -80 0
30 22 29 21 25 24 20 -79 0
30 22 29 21 18 24 20 -82 0
30 22 29 21 18 24 20 -81 0
30 22 29 21 18 24 20 -80 0
30 22 29 21 18 24 20 -79 0
30 22 29 25 18 24 20 -82 0
30 22 29 25 18 24 20 -81 0
30 22 29 25 18 24 20 -80 0
30 22 29 25 18 24 20 -79 0
30 22 21 25 18 24 20 -82 0
30 22 21 25 18 24 20 -81 0
30 22 21 25 18 24 20 -80 0
30 22 21 25 18 24 20 -79 0
30 52 29 47 25 48 24 -107 0
30 52 29 47 25 48 24 -106 0
30 52 29 47 25 48 24 -105 0
30 52 29 47 25 48 24 -108 0
30 52 29 47 25 48 54 -107 0
30 52 29 47 25 48 54 -106 0
30 52 29 47 25 48 54 -105 0
30 52 29 47 25 48 54 -108 0
30 52 29 47 25 24 54 -107 0
30 52 29 47 25 24 54 -106 0
30 52 29 47 25 24 54 -105 0
30 52 29 47 25 24 54 -108 0
30 52 29 47 48 24 54 -107 0
30 52 29 47 48 24 54 -106 0
30 52 29 47 48 24 54 -105 0
30 52 29 47 48 24 54 -108 0
30 52 29 25 48 24 54 -107 0
30 52 29 25 48 24 54 -106 0
30 52 29 25 48 24 54 -105 0
30 52 29 25 48 24 54 -108 0
30 52 47 25 48 24 54 -107 0
30 52 47 25 48 24 54 -106 0
30 52 47 25 48 24 54 -105 0
30 52 47 25 48 24 54 -108 0
30 38 29 33 25 31 24 -100 0
30 38 29 33 25 31 24 -99 0
30 38 29 33 25 31 24 -97 0
30 38 29 33 25 31 24 -98 0
30 38 29 33 25 31 34 -100 0
30 38 29 33 25 31 34 -99 0
30 38 29 33 25 31 34 -97 0
30 38 29 33 25 31 34 -98 0
30 38 29 33 25 24 34 -100 0
30 38 29 33 25 24 34 -99 0
30 38 29 33 25 24 34 -97 0
30 38 29 33 25 24 34 -98 0
30 38 29 33 31 24 34 -100 0
30 38 29 33 31 24 34 -99 0
30 38 29 33 31 24 34 -97 0
30 38 29 33 31 24 34 -98 0
30 38 29 25 31 24 34 -100 0
30 38 29 25 31 24 34 -99 0
30 38 29 25 31 24 34 -97 0
30 38 29 25 31 24 34 -98 0
30 38 33 25 31 24 34 -100 0
30 38 33 25 31 24 34 -99 0
30 38 33 25 31 24 34 -97 0
30 38 33 25 31 24 34 -98 0
30 44 29 40 25 39 24 -101 0
30 44 29 40 25 39 24 -102 0
30 44 29 40 25 39 24 -104 0
30 44 29 40 25 39 24 -103 0
30 8 29 14 25 7 24 -61 0
30 8 29 14 25 7 24 -63 0
30 8 29 14 25 7 24 -64 0
30 8 29 14 25 7 24 -62 0
30 29 5 25 1 24 4 -28 0
30 29 5 25 1 24 4 -27 0
30 29 5 25 1 24 4 -26 0
30 29 5 25 1 24 4 -23 0
30 29 21 25 18 24 20 -82 0
30 29 21 25 18 24 20 -81 0
30 29 21 25 18 24 20 -80 0
30 29 21 25 18 24 20 -79 0
30 29 47 25 48 24 54 -107 0
30 29 47 25 48 24 54 -106 0
30 29 47 25 48 24 54 -105 0
30 29 47 25 48 24 54 -108 0
30 29 33 25 31 24 34 -100 0
30 29 33 25 31 24 34 -99 0
30 29 33 25 31 24 34 -97 0
30 29 33 25 31 24 34 -98 0
6 22 5 21 1 18 4 -16 0
6 22 5 21 1 18 4 -15 0
6 22 5 21 1 18 4 -17 0
6 22 5 21 1 18 4 -19 0
6 22 5 21 1 18 20 -16 0
6 22 5 21 1 18 20 -15 0
6 22 5 21 1 18 20 -17 0
6 22 5 21 1 18 20 -19 0
6 22 5 21 1 4 20 -16 0
6 22 5 21 1 4 20 -15 0
6 22 5 21 1 4 20 -17 0
6 22 5 21 1 4 20 -19 0
6 22 5 21 18 4 20 -16 0
6 22 5 21 18 4 20 -15 0
6 22 5 21 18 4 20 -17 0
6 22 5 21 18 4 20 -19 0
6 22 5 1 18 4 20 -16 0
6 22 5 1 18 4 20 -15 0
6 22 5 1 18 4 20 -17 0
6 22 5 1 18 4 20 -19 0
6 22 21 1 18 4 20 -16 0
6 22 21 1 18 4 20 -15 0
6 22 21 1 18 4 20 -17 0
6 22 21 1 18 4 20 -19 0
6 52 5 47 1 48 4 -49 0
6 52 5 47 1 48 4 -53 0
6 52 5 47 1 48 4 -50 0
6 52 5 47 1 48 4 -51 0
6 52 5 47 1 48 54 -49 0
6 52 5 47 1 48 54 -53 0
6 52 5 47 1 48 54 -50 0
6 52 5 47 1 48 54 -51 0
6 52 5 47 1 4 54 -49 0
6 52 5 47 1 4 54 -53 0
6 52 5 47 1 4 54 -50 0
6 52 5 47 1 4 54 -51 0
6 52 5 47 48 4 54 -49 0
6 52 5 47 48 4 54 -53 0
6 52 5 47 48 4 54 -50 0
6 52 5 47 48 4 54 -51 0
6 52 5 1 48 4 54 -49 0
6 52 5 1 48 4 54 -53 0
6 52 5 1 48 4 54 -50 0
6 52 5 1 48 4 54 -51 0
6 52 47 1 48 4 54 -49 0
6 52 47 1 48 4 54 -53 0
6 52 47 1 48 4 54 -50 0
6 52 47 1 48 4 54 -51 0
6 38 5 33 1 31 4 -32 0
6 38 5 33 1 31 4 -36 0
6 38 5 33 1 31 4 -35 0
6 38 5 33 1 31 4 -37 0
6 38 5 33 1 31 34 -32 0
6 38 5 33 1 31 34 -36 0
6 38 5 33 1 31 34 -35 0
6 38 5 33 1 31 34 -37 0
6 38 5 33 1 4 34 -32 0
6 38 5 33 1 4 34 -36 0
6 38 5 33 1 4 34 -35 0
6 38 5 33 1 4 34 -37 0
6 38 5 33 31 4 34 -32 0
6 38 5 33 31 4 34 -36 0
6 38 5 33 31 4 34 -35 0
6 38 5 33 31 4 34 -37 0
6 38 5 1 31 4 34 -32 0
6 38 5 1 31 4 34 -36 0
6 38 5 1 31 4 34 -35 0
6 38 5 1 31 4 34 -37 0
6 38 33 1 31 4 34 -32 0
6 38 33 1 31 4 34 -36 0
6 38 33 1 31 4 34 -35 0
6 38 33 1 31 4 34 -37 0
6 44 5 40 1 39 4 -43 0
6 44 5 40 1 39 4 -42 0
6 44 5 40 1 39 4 -41 0
6 44 5 40 1 39 4 -46 0
6 8 5 14 1 7 4 -10 0
6 8 5 14 1 7 4 -11 0
6 8 5 14 1 7 4 -12 0
6 8 5 14 1 7 4 -9 0
6 29 5 25 1 24 4 -28 0
6 29 5 25 1 24 4 -27 0
6 29 5 25 1 24 4 -26 0
6 29 5 25 1 24 4 -23 0
6 5 21 1 18 4 20 -16 0
6 5 21 1 18 4 20 -15 0
6 5 21 1 18 4 20 -17 0
6 5 21 1 18 4 20 -19 0
6 5 47 1 48 4 54 -49 0
6 5 47 1 48 4 54 -53 0
6 5 47 1 48 4 54 -50 0
6 5 47 1 48 4 54 -51 0
6 5 33 1 31 4 34 -32 0
6 5 33 1 31 4 34 -36 0
6 5 33 1 31 4 34 -35 0
6 5 33 1 31 4 34 -37 0
22 52 21 47 18 48 20 -94 0
22 52 21 47 18 48 20 -93 0
22 52 21 47 18 48 20 -92 0
22 52 21 47 18 48 20 -91 0
22 52 21 47 18 48 54 -94 0
22 52 21 47 18 48 54 -93 0
22 52 21 47 18 48 54 -92 0
22 52 21 47 18 48 54 -91 0
22 52 21 47 18 20 54 -94 0
22 52 21 47 18 20 54 -93 0
22 52 21 47 18 20 54 -92 0
22 52 21 47 18 20 54 -91 0
22 52 21 47 48 20 54 -94 0
22 52 21 47 48 20 54 -93 0
22 52 21 47 48 20 54 -92 0
22 52 21 47 48 20 54 -91 0
22 52 21 18 48 20 54 -94 0
22 52 21 18 48 20 54 -93 0
22 52 21 18 48 20 54 -92 0
22 52 21 18 48 20 54 -91 0
22 52 47 18 48 20 54 -94 0
22 52 47 18 48 20 54 -93 0
22 52 47 18 48 20 54 -92 0
22 52 47 18 48 20 54 -91 0
22 38 21 33 18 31 20 -83 0
22 38 21 33 18 31 20 -86 0
22 38 21 33 18 31 20 -85 0
22 38 21 33 18 31 20 -84 0
22 38 21 33 18 31 34 -83 0
22 38 21 33 18 31 34 -86 0
22 38 21 33 18 31 34 -85 0
22 38 21 33 18 31 34 -84 0
22 38 21 33 18 20 34 -83 0
22 38 21 33 18 20 34 -86 0
22 38 21 33 18 20 34 -85 0
22 38 21 33 18 20 34 -84 0
22 38 21 33 31 20 34 -83 0
22 38 21 33 31 20 34 -86 0
22 38 21 33 31 20 34 -85 0
22 38 21 33 31 20 34 -84 0
22 38 21 18 31 20 34 -83 0
22 38 21 18 31 20 34 -86 0
22 38 21 18 31 20 34 -85 0
22 38 21 18 31 20 34 -84 0
22 38 33 18 31 20 34 -83 0
22 38 33 18 31 20 34 -86 0
22 38 33 18 31 20 34 -85 0
22 38 33 18 31 20 34 -84 0
22 44 21 40 18 39 20 -88 0
22 44 21 40 18 39 20 -87 0
22 44 21 40 18 39 20 -89 0
22 44 21 40 18 39 20 -90 0
22 8 21 14 18 7 20 -60 0
22 8 21 14 18 7 20 -57 0
22 8 21 14 18 7 20 -59 0
22 8 21 14 18 7 20 -58 0
22 29 21 25 18 24 20 -82 0
22 29 21 25 18 24 20 -81 0
22 29 21 25 18 24 20 -80 0
22 29 21 25 18 24 20 -79 0
22 5 21 1 18 4 20 -16 0
22 5 21 1 18 4 20 -15 0
22 5 21 1 18 4 20 -17 0
22 5 21 1 18 4 20 -19 0
22 21 47 18 48 20 54 -94 0
22 21 47 18 48 20 54 -93 0
22 21 47 18 48 20 54 -92 0
22 21 47 18 48 20 54 -91 0
22 21 33 18 31 20 34 -83 0
22 21 33 18 31 20 34 -86 0
22 21 33 18 31 20 34 -85 0
22 21 33 18 31 20 34 -84 0
52 38 47 33 48 31 54 -116 0
52 38 47 33 48 31 54 -118 0
52 38 47 33 48 31 54 -115 0
52 38 47 33 48 31 54 -117 0
52 38 47 33 48 31 34 -116 0
52 38 47 33 48 31 34 -118 0
52 38 47 33 48 31 34 -115 0
52 38 47 33 48 31 34 -117 0
52 38 47 33 48 54 34 -116 0
52 38 47 33 48 54 34 -118 0
52 38 47 33 48 54 34 -115 0
52 38 47 33 48 54 34 -117 0
52 38 47 33 31 54 34 -116 0
52 38 47 33 31 54 34 -118 0
52 38 47 33 31 54 34 -115 0
52 38 47 33 31 54 34 -117 0
52 38 47 48 31 54 34 -116 0
52 38 47 48 31 54 34 -118 0
52 38 47 48 31 54 34 -115 0
52 38 47 48 31 54 34 -117 0
52 38 33 48 31 54 34 -116 0
52 38 33 48 31 54 34 -118 0
52 38 33 48 31 54 34 -115 0
52 38 33 48 31 54 34 -117 0
52 44 47 40 48 39 54 -122 0
52 44 47 40 48 39 54 -121 0
52 44 47 40 48 39 54 -124 0
52 44 47 40 48 39 54 -123 0
52 8 47 14 48 7 54 -74 0
52 8 47 14 48 7 54 -75 0
52 8 47 14 48 7 54 -76 0
52 8 47 14 48 7 54 -73 0
52 29 47 25 48 24 54 -107 0
52 29 47 25 48 24 54 -106 0
52 29 47 25 48 24 54 -105 0
52 29 47 25 48 24 54 -108 0
52 5 47 1 48 4 54 -49 0
52 5 47 1 48 4 54 -53 0
52 5 47 1 48 4 54 -50 0
52 5 47 1 48 4 54 -51 0
52 21 47 18 48 20 54 -94 0
52 21 47 18 48 20 54 -93 0
52 21 47 18 48 20 54 -92 0
52 21 47 18 48 20 54 -91 0
52 47 33 48 31 54 34 -116 0
52 47 33 48 31 54 34 -118 0
52 47 33 48 31 54 34 -115 0
52 47 33 48 31 54 34 -117 0
38 44 33 40 31 39 34 -112 0
38 44 33 40 31 39 34 -111 0
38 44 33 40 31 39 34 -113 0
38 44 33 40 31 39 34 -114 0
38 8 33 14 31 7 34 -68 0
38 8 33 14 31 7 34 -65 0
38 8 33 14 31 7 34 -67 0
38 8 33 14 31 7 34 -66 0
38 29 33 25 31 24 34 -100 0
38 29 33 25 31 24 34 -99 0
38 29 33 25 31 24 34 -97 0
38 29 33 25 31 24 34 -98 0
38 5 33 1 31 4 34 -32 0
38 5 33 1 31 4 34 -36 0
38 5 33 1 31 4 34 -35 0
38 5 33 1 31 4 34 -37 0
38 21 33 18 31 20 34 -83 0
38 21 33 18 31 20 34 -86 0
38 21 33 18 31 20 34 -85 0
38 21 33 18 31 20 34 -84 0
38 47 33 48 31 54 34 -116 0
38 47 33 48 31 54 34 -118 0
38 47 33 48 31 54 34 -115 0
38 47 33 48 31 54 34 -117 0
45 13 44 8 40 14 39 7 -70 0
45 13 44 8 40 14 39 7 -72 0
45 13 44 8 40 14 39 7 -71 0
45 13 44 8 40 14 39 7 -69 0
45 30 44 29 40 25 39 24 -101 0
45 30 44 29 40 25 39 24 -102 0
45 30 44 29 40 25 39 24 -104 0
45 30 44 29 40 25 39 24 -103 0
45 6 44 5 40 1 39 4 -43 0
45 6 44 5 40 1 39 4 -42 0
45 6 44 5 40 1 39 4 -41 0
45 6 44 5 40 1 39 4 -46 0
45 22 44 21 40 18 39 20 -88 0
45 22 44 21 40 18 39 20 -87 0
45 22 44 21 40 18 39 20 -89 0
45 22 44 21 40 18 39 20 -90 0
45 52 44 47 40 48 39 54 -122 0
45 52 44 47 40 48 39 54 -121 0
45 52 44 47 40 48 39 54 -124 0
45 52 44 47 40 48 39 54 -123 0
45 38 44 33 40 31 39 34 -112 0
45 38 44 33 40 31 39 34 -111 0
45 38 44 33 40 31 39 34 -113 0
45 38 44 33 40 31 39 34 -114 0
13 30 8 29 14 25 7 24 -61 0
13 30 8 29 14 25 7 24 -63 0
13 30 8 29 14 25 7 24 -64 0
13 30 8 29 14 25 7 24 -62 0
13 6 8 5 14 1 7 4 -10 0
13 6 8 5 14 1 7 4 -11 0
13 6 8 5 14 1 7 4 -12 0
13 6 8 5 14 1 7 4 -9 0
13 22 8 21 14 18 7 20 -60 0
13 22 8 21 14 18 7 20 -57 0
13 22 8 21 14 18 7 20 -59 0
13 22 8 21 14 18 7 20 -58 0
13 52 8 47 14 48 7 54 -74 0
13 52 8 47 14 48 7 54 -75 0
13 52 8 47 14 48 7 54 -76 0
13 52 8 47 14 48 7 54 -73 0
13 38 8 33 14 31 7 34 -68 0
13 38 8 33 14 31 7 34 -65 0
13 38 8 33 14 31 7 34 -67 0
13 38 8 33 14 31 7 34 -66 0
30 6 29 5 25 1 24 4 -28 0
30 6 29 5 25 1 24 4 -27 0
30 6 29 5 25 1 24 4 -26 0
30 6 29 5 25 1 24 4 -23 0
30 22 29 21 25 18 24 20 -82 0
30 22 29 21 25 18 24 20 -81 0
30 22 29 21 25 18 24 20 -80 0
30 22 29 21 25 18 24 20 -79 0
30 52 29 47 25 48 24 54 -107 0
30 52 29 47 25 48 24 54 -106 0
30 52 29 47 25 48 24 54 -105 0
30 52 29 47 25 48 24 54 -108 0
30 38 29 33 25 31 24 34 -100 0
30 38 29 33 25 31 24 34 -99 0
30 38 29 33 25 31 24 34 -97 0
30 38 29 33 25 31 24 34 -98 0
6 22 5 21 1 18 4 20 -16 0
6 22 5 21 1 18 4 20 -15 0
6 22 5 21 1 18 4 20 -17 0
6 22 5 21 1 18 4 20 -19 0
6 52 5 47 1 48 4 54 -49 0
6 52 5 47 1 48 4 54 -53 0
6 52 5 47 1 48 4 54 -50 0
6 52 5 47 1 48 4 54 -51 0
6 38 5 33 1 31 4 34 -32 0
6 38 5 33 1 31 4 34 -36 0
6 38 5 33 1 31 4 34 -35 0
6 38 5 33 1 31 4 34 -37 0
22 52 21 47 18 48 20 54 -94 0
22 52 21 47 18 48 20 54 -93 0
22 52 21 47 18 48 20 54 -92 0
22 52 21 47 18 48 20 54 -91 0
22 38 21 33 18 31 20 34 -83 0
22 38 21 33 18 31 20 34 -86 0
22 38 21 33 18 31 20 34 -85 0
22 38 21 33 18 31 20 34 -84 0
52 38 47 33 48 31 54 34 -116 0
52 38 47 33 48 31 54 34 -118 0
52 38 47 33 48 31 54 34 -115 0
52 38 47 33 48 31 54 34 -117 0
