c U2(4) E2(4,4) U1(4) E1(4,4) U3(4) U4(4) E1(4,5) E1(5,4) U3(5) E2(4,5) U2(5) U4(5) U1(5) E2(5,4) E2(3,4) U3(3) U2(3) E1(3,4) U4(3) E1(4,3) U1(3) E2(4,3) U4(0) E2(4,0) E1(0,4) E1(4,0) U3(0) E2(0,4) U1(0) U2(0) U4(1) U2(1) E1(4,1) U3(1) E2(4,1) E1(1,4) E2(1,4) U1(1) U1(2) E2(2,4) U3(2) U4(2) U2(2) E1(2,4) E1(4,2) E2(4,2) U4(6) E1(4,6) E2(6,4) E2(4,6) E1(6,4) U3(6) U2(6) U1(6) E1(4,7) E2(7,4) U3(7) U1(7) U2(7) E1(7,4) U4(7) E2(4,7) E2(5,5) E1(5,5) E1(5,3) E2(3,5) E1(3,5) E2(5,3) E2(0,5) E1(0,5) E2(5,0) E1(5,0) E1(1,5) E2(1,5) E1(5,1) E2(5,1) E1(5,2) E1(2,5) E2(5,2) E2(2,5) E1(5,6) E2(5,6) E2(6,5) E1(6,5) E2(5,7) E1(5,7) E2(7,5) E1(7,5) E1(3,3) E2(3,3) E2(3,0) E1(3,0) E2(0,3) E1(0,3) E2(3,1) E1(3,1) E2(1,3) E1(1,3) E2(3,2) E1(3,2) E1(2,3) E2(2,3) E2(6,3) E1(6,3) E2(3,6) E1(3,6) E1(7,3) E2(7,3) E2(3,7) E1(3,7) E1(0,0) E2(0,0) E1(0,1) E2(0,1) E2(1,0) E1(1,0) E2(0,2) E1(0,2) E1(2,0) E2(2,0) E1(0,6) E1(6,0) E2(6,0) E2(0,6) E1(7,0) E2(7,0) E2(0,7) E1(0,7) E2(1,1) E1(1,1) E1(2,1) E2(2,1) E1(1,2) E2(1,2) E2(6,1) E1(6,1) E2(1,6) E1(1,6) E2(1,7) E1(1,7) E2(7,1) E1(7,1) E1(2,2) E2(2,2) E1(6,2) E2(6,2) E1(2,6) E2(2,6) E1(7,2) E1(2,7) E2(7,2) E2(2,7) E2(6,6) E1(6,6) E1(6,7) E2(7,6) E1(7,6) E2(6,7) E2(7,7) E1(7,7)
c 1 2 3 4 5 6 7 8 9 10 11 12 13 14 15 16 17 18 19 20 21 22 23 24 25 26 27 28 29 30 31 32 33 34 35 36 37 38 39 40 41 42 43 44 45 46 47 48 49 50 51 52 53 54 55 56 57 58 59 60 61 62 63 64 65 66 67 68 69 70 71 72 73 74 75 76 77 78 79 80 81 82 83 84 85 86 87 88 89 90 91 92 93 94 95 96 97 98 99 100 101 102 103 104 105 106 107 108 109 110 111 112 113 114 115 116 117 118 119 120 121 122 123 124 125 126 127 128 129 130 131 132 133 134 135 136 137 138 139 140 141 142 143 144 145 146 147 148 149 150 151 152 153 154 155 156 157 158 159 160
p cnf 160 4200
111 -111 0
113 -116 0
118 -119 0
94 -92 0
25 -26 0
70 -72 0
121 -122 0
128 -125 0
116 -113 0
130 -130 0
133 -131 0
98 -96 0
36 -33 0
73 -75 0
138 -136 0
140 -142 0
119 -118 0
131 -133 0
143 -143 0
101 -100 0
44 -45 0
78 -77 0
147 -145 0
150 -149 0
92 -94 0
96 -98 0
100 -101 0
89 -89 0
18 -20 0
67 -65 0
106 -104 0
110 -107 0
26 -25 0
33 -36 0
45 -44 0
20 -18 0
4 -4 0
7 -8 0
48 -51 0
55 -60 0
72 -70 0
75 -73 0
77 -78 0
65 -67 0
8 -7 0
64 -64 0
81 -84 0
86 -88 0
122 -121 0
136 -138 0
145 -147 0
104 -106 0
51 -48 0
84 -81 0
154 -154 0
155 -157 0
125 -128 0
142 -140 0
149 -150 0
107 -110 0
60 -55 0
88 -86 0
157 -155 0
160 -160 0
112 -112 0
114 -115 0
117 -120 0
93 -91 0
28 -24 0
69 -71 0
124 -123 0
127 -126 0
115 -114 0
129 -129 0
134 -132 0
97 -95 0
37 -35 0
74 -76 0
137 -135 0
139 -141 0
120 -117 0
132 -134 0
144 -144 0
102 -99 0
40 -46 0
80 -79 0
148 -146 0
152 -151 0
91 -93 0
95 -97 0
99 -102 0
90 -90 0
15 -22 0
66 -68 0
105 -103 0
109 -108 0
24 -28 0
35 -37 0
46 -40 0
22 -15 0
2 -2 0
10 -14 0
50 -49 0
62 -56 0
71 -69 0
76 -74 0
79 -80 0
68 -66 0
14 -10 0
63 -63 0
82 -83 0
85 -87 0
123 -124 0
135 -137 0
146 -148 0
103 -105 0
49 -50 0
83 -82 0
153 -153 0
158 -156 0
126 -127 0
141 -139 0
151 -152 0
108 -109 0
56 -62 0
87 -85 0
156 -158 0
159 -159 0
-29 -30 0
-29 -27 0
-29 -23 0
-38 -32 0
-38 -34 0
-38 -31 0
-39 -43 0
-39 -41 0
-39 -42 0
-21 -17 0
-21 -16 0
-21 -19 0
-3 -1 0
-3 -5 0
-3 -6 0
-13 -11 0
-13 -9 0
-13 -12 0
-54 -53 0
-54 -52 0
-54 -47 0
-58 -59 0
-58 -57 0
-58 -61 0
-30 -27 0
-30 -23 0
-32 -34 0
-32 -31 0
-43 -41 0
-43 -42 0
-17 -16 0
-17 -19 0
-1 -5 0
-1 -6 0
-11 -9 0
-11 -12 0
-53 -52 0
-53 -47 0
-59 -57 0
-59 -61 0
-27 -23 0
-34 -31 0
-41 -42 0
-16 -19 0
-5 -6 0
-9 -12 0
-52 -47 0
-57 -61 0
29 30 27 23 0
38 32 34 31 0
39 43 41 42 0
21 17 16 19 0
3 1 5 6 0
13 11 9 12 0
54 53 52 47 0
58 59 57 61 0
29 30 27 -111 0
29 30 27 -112 0
29 30 23 -111 0
29 30 23 -112 0
29 27 23 -111 0
29 27 23 -112 0
38 32 34 -130 0
38 32 34 -129 0
38 32 31 -130 0
38 32 31 -129 0
38 34 31 -130 0
38 34 31 -129 0
39 43 41 -143 0
39 43 41 -144 0
39 43 42 -143 0
39 43 42 -144 0
39 41 42 -143 0
39 41 42 -144 0
21 17 16 -89 0
21 17 16 -90 0
21 17 19 -89 0
21 17 19 -90 0
21 16 19 -89 0
21 16 19 -90 0
3 1 5 -4 0
3 1 5 -2 0
3 1 6 -4 0
3 1 6 -2 0
3 5 6 -4 0
3 5 6 -2 0
13 11 9 -64 0
13 11 9 -63 0
13 11 12 -64 0
13 11 12 -63 0
13 9 12 -64 0
13 9 12 -63 0
54 53 52 -154 0
54 53 52 -153 0
54 53 47 -154 0
54 53 47 -153 0
54 52 47 -154 0
54 52 47 -153 0
58 59 57 -160 0
58 59 57 -159 0
58 59 61 -160 0
58 59 61 -159 0
58 57 61 -160 0
58 57 61 -159 0
30 27 23 -111 0
30 27 23 -112 0
32 34 31 -130 0
32 34 31 -129 0
43 41 42 -143 0
43 41 42 -144 0
17 16 19 -89 0
17 16 19 -90 0
1 5 6 -4 0
1 5 6 -2 0
11 9 12 -64 0
11 9 12 -63 0
53 52 47 -154 0
53 52 47 -153 0
59 57 61 -160 0
59 57 61 -159 0
29 30 27 23 -111 0
29 30 27 23 -113 0
29 30 27 23 -118 0
29 30 27 23 -94 0
29 30 27 23 -25 0
29 30 27 23 -70 0
29 30 27 23 -121 0
29 30 27 23 -128 0
29 30 27 23 -116 0
29 30 27 23 -119 0
29 30 27 23 -92 0
29 30 27 23 -26 0
29 30 27 23 -72 0
29 30 27 23 -122 0
29 30 27 23 -125 0
29 30 27 23 -112 0
29 30 27 23 -114 0
29 30 27 23 -117 0
29 30 27 23 -93 0
29 30 27 23 -28 0
29 30 27 23 -69 0
29 30 27 23 -124 0
29 30 27 23 -127 0
29 30 27 23 -115 0
29 30 27 23 -120 0
29 30 27 23 -91 0
29 30 27 23 -24 0
29 30 27 23 -71 0
29 30 27 23 -123 0
29 30 27 23 -126 0
38 32 34 31 -113 0
38 32 34 31 -116 0
38 32 34 31 -130 0
38 32 34 31 -133 0
38 32 34 31 -98 0
38 32 34 31 -36 0
38 32 34 31 -73 0
38 32 34 31 -138 0
38 32 34 31 -140 0
38 32 34 31 -131 0
38 32 34 31 -96 0
38 32 34 31 -33 0
38 32 34 31 -75 0
38 32 34 31 -136 0
38 32 34 31 -142 0
38 32 34 31 -114 0
38 32 34 31 -115 0
38 32 34 31 -129 0
38 32 34 31 -134 0
38 32 34 31 -97 0
38 32 34 31 -37 0
38 32 34 31 -74 0
38 32 34 31 -137 0
38 32 34 31 -139 0
38 32 34 31 -132 0
38 32 34 31 -95 0
38 32 34 31 -35 0
38 32 34 31 -76 0
38 32 34 31 -135 0
38 32 34 31 -141 0
39 43 41 42 -118 0
39 43 41 42 -133 0
39 43 41 42 -119 0
39 43 41 42 -131 0
39 43 41 42 -143 0
39 43 41 42 -101 0
39 43 41 42 -44 0
39 43 41 42 -78 0
39 43 41 42 -147 0
39 43 41 42 -150 0
39 43 41 42 -100 0
39 43 41 42 -45 0
39 43 41 42 -77 0
39 43 41 42 -145 0
39 43 41 42 -149 0
39 43 41 42 -117 0
39 43 41 42 -134 0
39 43 41 42 -120 0
39 43 41 42 -132 0
39 43 41 42 -144 0
39 43 41 42 -102 0
39 43 41 42 -40 0
39 43 41 42 -80 0
39 43 41 42 -148 0
39 43 41 42 -152 0
39 43 41 42 -99 0
39 43 41 42 -46 0
39 43 41 42 -79 0
39 43 41 42 -146 0
39 43 41 42 -151 0
21 17 16 19 -94 0
21 17 16 19 -98 0
21 17 16 19 -101 0
21 17 16 19 -92 0
21 17 16 19 -96 0
21 17 16 19 -100 0
21 17 16 19 -89 0
21 17 16 19 -18 0
21 17 16 19 -67 0
21 17 16 19 -106 0
21 17 16 19 -110 0
21 17 16 19 -20 0
21 17 16 19 -65 0
21 17 16 19 -104 0
21 17 16 19 -107 0
21 17 16 19 -93 0
21 17 16 19 -97 0
21 17 16 19 -102 0
21 17 16 19 -91 0
21 17 16 19 -95 0
21 17 16 19 -99 0
21 17 16 19 -90 0
21 17 16 19 -15 0
21 17 16 19 -66 0
21 17 16 19 -105 0
21 17 16 19 -109 0
21 17 16 19 -22 0
21 17 16 19 -68 0
21 17 16 19 -103 0
21 17 16 19 -108 0
3 1 5 6 -25 0
3 1 5 6 -36 0
3 1 5 6 -44 0
3 1 5 6 -18 0
3 1 5 6 -26 0
3 1 5 6 -33 0
3 1 5 6 -45 0
3 1 5 6 -20 0
3 1 5 6 -4 0
3 1 5 6 -7 0
3 1 5 6 -48 0
3 1 5 6 -55 0
3 1 5 6 -8 0
3 1 5 6 -51 0
3 1 5 6 -60 0
3 1 5 6 -28 0
3 1 5 6 -37 0
3 1 5 6 -40 0
3 1 5 6 -15 0
3 1 5 6 -24 0
3 1 5 6 -35 0
3 1 5 6 -46 0
3 1 5 6 -22 0
3 1 5 6 -2 0
3 1 5 6 -10 0
3 1 5 6 -50 0
3 1 5 6 -62 0
3 1 5 6 -14 0
3 1 5 6 -49 0
3 1 5 6 -56 0
13 11 9 12 -70 0
13 11 9 12 -73 0
13 11 9 12 -78 0
13 11 9 12 -67 0
13 11 9 12 -7 0
13 11 9 12 -72 0
13 11 9 12 -75 0
13 11 9 12 -77 0
13 11 9 12 -65 0
13 11 9 12 -8 0
13 11 9 12 -64 0
13 11 9 12 -81 0
13 11 9 12 -86 0
13 11 9 12 -84 0
13 11 9 12 -88 0
13 11 9 12 -69 0
13 11 9 12 -74 0
13 11 9 12 -80 0
13 11 9 12 -66 0
13 11 9 12 -10 0
13 11 9 12 -71 0
13 11 9 12 -76 0
13 11 9 12 -79 0
13 11 9 12 -68 0
13 11 9 12 -14 0
13 11 9 12 -63 0
13 11 9 12 -82 0
13 11 9 12 -85 0
13 11 9 12 -83 0
13 11 9 12 -87 0
54 53 52 47 -121 0
54 53 52 47 -138 0
54 53 52 47 -147 0
54 53 52 47 -106 0
54 53 52 47 -48 0
54 53 52 47 -81 0
54 53 52 47 -122 0
54 53 52 47 -136 0
54 53 52 47 -145 0
54 53 52 47 -104 0
54 53 52 47 -51 0
54 53 52 47 -84 0
54 53 52 47 -154 0
54 53 52 47 -155 0
54 53 52 47 -157 0
54 53 52 47 -124 0
54 53 52 47 -137 0
54 53 52 47 -148 0
54 53 52 47 -105 0
54 53 52 47 -50 0
54 53 52 47 -82 0
54 53 52 47 -123 0
54 53 52 47 -135 0
54 53 52 47 -146 0
54 53 52 47 -103 0
54 53 52 47 -49 0
54 53 52 47 -83 0
54 53 52 47 -153 0
54 53 52 47 -158 0
54 53 52 47 -156 0
58 59 57 61 -128 0
58 59 57 61 -140 0
58 59 57 61 -150 0
58 59 57 61 -110 0
58 59 57 61 -55 0
58 59 57 61 -86 0
58 59 57 61 -155 0
58 59 57 61 -125 0
58 59 57 61 -142 0
58 59 57 61 -149 0
58 59 57 61 -107 0
58 59 57 61 -60 0
58 59 57 61 -88 0
58 59 57 61 -157 0
58 59 57 61 -160 0
58 59 57 61 -127 0
58 59 57 61 -139 0
58 59 57 61 -152 0
58 59 57 61 -109 0
58 59 57 61 -62 0
58 59 57 61 -85 0
58 59 57 61 -158 0
58 59 57 61 -126 0
58 59 57 61 -141 0
58 59 57 61 -151 0
58 59 57 61 -108 0
58 59 57 61 -56 0
58 59 57 61 -87 0
58 59 57 61 -156 0
58 59 57 61 -159 0
29 38 30 27 23 -113 0
29 38 30 27 23 -116 0
29 38 30 27 23 -114 0
29 38 30 27 23 -115 0
29 38 32 34 31 -113 0
29 38 32 34 31 -116 0
29 38 32 34 31 -114 0
29 38 32 34 31 -115 0
29 39 30 27 23 -118 0
29 39 30 27 23 -119 0
29 39 30 27 23 -117 0
29 39 30 27 23 -120 0
29 39 43 41 42 -118 0
29 39 43 41 42 -119 0
29 39 43 41 42 -117 0
29 39 43 41 42 -120 0
29 21 30 27 23 -94 0
29 21 30 27 23 -92 0
29 21 30 27 23 -93 0
29 21 30 27 23 -91 0
29 21 17 16 19 -94 0
29 21 17 16 19 -92 0
29 21 17 16 19 -93 0
29 21 17 16 19 -91 0
29 3 30 27 23 -25 0
29 3 30 27 23 -26 0
29 3 30 27 23 -28 0
29 3 30 27 23 -24 0
29 3 1 5 6 -25 0
29 3 1 5 6 -26 0
29 3 1 5 6 -28 0
29 3 1 5 6 -24 0
29 13 30 27 23 -70 0
29 13 30 27 23 -72 0
29 13 30 27 23 -69 0
29 13 30 27 23 -71 0
29 13 11 9 12 -70 0
29 13 11 9 12 -72 0
29 13 11 9 12 -69 0
29 13 11 9 12 -71 0
29 54 30 27 23 -121 0
29 54 30 27 23 -122 0
29 54 30 27 23 -124 0
29 54 30 27 23 -123 0
29 54 53 52 47 -121 0
29 54 53 52 47 -122 0
29 54 53 52 47 -124 0
29 54 53 52 47 -123 0
29 58 30 27 23 -128 0
29 58 30 27 23 -125 0
29 58 30 27 23 -127 0
29 58 30 27 23 -126 0
29 58 59 57 61 -128 0
29 58 59 57 61 -125 0
29 58 59 57 61 -127 0
29 58 59 57 61 -126 0
29 30 32 27 23 -113 0
29 30 32 27 23 -116 0
29 30 32 27 23 -114 0
29 30 32 27 23 -115 0
29 30 43 27 23 -118 0
29 30 43 27 23 -119 0
29 30 43 27 23 -117 0
29 30 43 27 23 -120 0
29 30 17 27 23 -94 0
29 30 17 27 23 -92 0
29 30 17 27 23 -93 0
29 30 17 27 23 -91 0
29 30 1 27 23 -25 0
29 30 1 27 23 -26 0
29 30 1 27 23 -28 0
29 30 1 27 23 -24 0
29 30 11 27 23 -70 0
29 30 11 27 23 -72 0
29 30 11 27 23 -69 0
29 30 11 27 23 -71 0
29 30 53 27 23 -121 0
29 30 53 27 23 -122 0
29 30 53 27 23 -124 0
29 30 53 27 23 -123 0
29 30 59 27 23 -128 0
29 30 59 27 23 -125 0
29 30 59 27 23 -127 0
29 30 59 27 23 -126 0
29 30 27 34 23 -113 0
29 30 27 34 23 -116 0
29 30 27 34 23 -114 0
29 30 27 34 23 -115 0
29 30 27 41 23 -118 0
29 30 27 41 23 -119 0
29 30 27 41 23 -117 0
29 30 27 41 23 -120 0
29 30 27 16 23 -94 0
29 30 27 16 23 -92 0
29 30 27 16 23 -93 0
29 30 27 16 23 -91 0
29 30 27 5 23 -25 0
29 30 27 5 23 -26 0
29 30 27 5 23 -28 0
29 30 27 5 23 -24 0
29 30 27 9 23 -70 0
29 30 27 9 23 -72 0
29 30 27 9 23 -69 0
29 30 27 9 23 -71 0
29 30 27 52 23 -121 0
29 30 27 52 23 -122 0
29 30 27 52 23 -124 0
29 30 27 52 23 -123 0
29 30 27 57 23 -128 0
29 30 27 57 23 -125 0
29 30 27 57 23 -127 0
29 30 27 57 23 -126 0
29 30 27 23 31 -113 0
29 30 27 23 31 -116 0
29 30 27 23 31 -114 0
29 30 27 23 31 -115 0
29 30 27 23 42 -118 0
29 30 27 23 42 -119 0
29 30 27 23 42 -117 0
29 30 27 23 42 -120 0
29 30 27 23 19 -94 0
29 30 27 23 19 -92 0
29 30 27 23 19 -93 0
29 30 27 23 19 -91 0
29 30 27 23 6 -25 0
29 30 27 23 6 -26 0
29 30 27 23 6 -28 0
29 30 27 23 6 -24 0
29 30 27 23 12 -70 0
29 30 27 23 12 -72 0
29 30 27 23 12 -69 0
29 30 27 23 12 -71 0
29 30 27 23 47 -121 0
29 30 27 23 47 -122 0
29 30 27 23 47 -124 0
29 30 27 23 47 -123 0
29 30 27 23 61 -128 0
29 30 27 23 61 -125 0
29 30 27 23 61 -127 0
29 30 27 23 61 -126 0
38 39 32 34 31 -133 0
38 39 32 34 31 -131 0
38 39 32 34 31 -134 0
38 39 32 34 31 -132 0
38 39 43 41 42 -133 0
38 39 43 41 42 -131 0
38 39 43 41 42 -134 0
38 39 43 41 42 -132 0
38 21 32 34 31 -98 0
38 21 32 34 31 -96 0
38 21 32 34 31 -97 0
38 21 32 34 31 -95 0
38 21 17 16 19 -98 0
38 21 17 16 19 -96 0
38 21 17 16 19 -97 0
38 21 17 16 19 -95 0
38 3 32 34 31 -36 0
38 3 32 34 31 -33 0
38 3 32 34 31 -37 0
38 3 32 34 31 -35 0
38 3 1 5 6 -36 0
38 3 1 5 6 -33 0
38 3 1 5 6 -37 0
38 3 1 5 6 -35 0
38 13 32 34 31 -73 0
38 13 32 34 31 -75 0
38 13 32 34 31 -74 0
38 13 32 34 31 -76 0
38 13 11 9 12 -73 0
38 13 11 9 12 -75 0
38 13 11 9 12 -74 0
38 13 11 9 12 -76 0
38 54 32 34 31 -138 0
38 54 32 34 31 -136 0
38 54 32 34 31 -137 0
38 54 32 34 31 -135 0
38 54 53 52 47 -138 0
38 54 53 52 47 -136 0
38 54 53 52 47 -137 0
38 54 53 52 47 -135 0
38 58 32 34 31 -140 0
38 58 32 34 31 -142 0
38 58 32 34 31 -139 0
38 58 32 34 31 -141 0
38 58 59 57 61 -140 0
38 58 59 57 61 -142 0
38 58 59 57 61 -139 0
38 58 59 57 61 -141 0
38 30 32 34 31 -113 0
38 30 32 34 31 -116 0
38 30 32 34 31 -114 0
38 30 32 34 31 -115 0
38 32 43 34 31 -133 0
38 32 43 34 31 -131 0
38 32 43 34 31 -134 0
38 32 43 34 31 -132 0
38 32 17 34 31 -98 0
38 32 17 34 31 -96 0
38 32 17 34 31 -97 0
38 32 17 34 31 -95 0
38 32 1 34 31 -36 0
38 32 1 34 31 -33 0
38 32 1 34 31 -37 0
38 32 1 34 31 -35 0
38 32 11 34 31 -73 0
38 32 11 34 31 -75 0
38 32 11 34 31 -74 0
38 32 11 34 31 -76 0
38 32 53 34 31 -138 0
38 32 53 34 31 -136 0
38 32 53 34 31 -137 0
38 32 53 34 31 -135 0
38 32 59 34 31 -140 0
38 32 59 34 31 -142 0
38 32 59 34 31 -139 0
38 32 59 34 31 -141 0
38 32 27 34 31 -113 0
38 32 27 34 31 -116 0
38 32 27 34 31 -114 0
38 32 27 34 31 -115 0
38 32 34 41 31 -133 0
38 32 34 41 31 -131 0
38 32 34 41 31 -134 0
38 32 34 41 31 -132 0
38 32 34 16 31 -98 0
38 32 34 16 31 -96 0
38 32 34 16 31 -97 0
38 32 34 16 31 -95 0
38 32 34 5 31 -36 0
38 32 34 5 31 -33 0
38 32 34 5 31 -37 0
38 32 34 5 31 -35 0
38 32 34 9 31 -73 0
38 32 34 9 31 -75 0
38 32 34 9 31 -74 0
38 32 34 9 31 -76 0
38 32 34 52 31 -138 0
38 32 34 52 31 -136 0
38 32 34 52 31 -137 0
38 32 34 52 31 -135 0
38 32 34 57 31 -140 0
38 32 34 57 31 -142 0
38 32 34 57 31 -139 0
38 32 34 57 31 -141 0
38 32 34 23 31 -113 0
38 32 34 23 31 -116 0
38 32 34 23 31 -114 0
38 32 34 23 31 -115 0
38 32 34 31 42 -133 0
38 32 34 31 42 -131 0
38 32 34 31 42 -134 0
38 32 34 31 42 -132 0
38 32 34 31 19 -98 0
38 32 34 31 19 -96 0
38 32 34 31 19 -97 0
38 32 34 31 19 -95 0
38 32 34 31 6 -36 0
38 32 34 31 6 -33 0
38 32 34 31 6 -37 0
38 32 34 31 6 -35 0
38 32 34 31 12 -73 0
38 32 34 31 12 -75 0
38 32 34 31 12 -74 0
38 32 34 31 12 -76 0
38 32 34 31 47 -138 0
38 32 34 31 47 -136 0
38 32 34 31 47 -137 0
38 32 34 31 47 -135 0
38 32 34 31 61 -140 0
38 32 34 31 61 -142 0
38 32 34 31 61 -139 0
38 32 34 31 61 -141 0
39 21 43 41 42 -101 0
39 21 43 41 42 -100 0
39 21 43 41 42 -102 0
39 21 43 41 42 -99 0
39 21 17 16 19 -101 0
39 21 17 16 19 -100 0
39 21 17 16 19 -102 0
39 21 17 16 19 -99 0
39 3 43 41 42 -44 0
39 3 43 41 42 -45 0
39 3 43 41 42 -40 0
39 3 43 41 42 -46 0
39 3 1 5 6 -44 0
39 3 1 5 6 -45 0
39 3 1 5 6 -40 0
39 3 1 5 6 -46 0
39 13 43 41 42 -78 0
39 13 43 41 42 -77 0
39 13 43 41 42 -80 0
39 13 43 41 42 -79 0
39 13 11 9 12 -78 0
39 13 11 9 12 -77 0
39 13 11 9 12 -80 0
39 13 11 9 12 -79 0
39 54 43 41 42 -147 0
39 54 43 41 42 -145 0
39 54 43 41 42 -148 0
39 54 43 41 42 -146 0
39 54 53 52 47 -147 0
39 54 53 52 47 -145 0
39 54 53 52 47 -148 0
39 54 53 52 47 -146 0
39 58 43 41 42 -150 0
39 58 43 41 42 -149 0
39 58 43 41 42 -152 0
39 58 43 41 42 -151 0
39 58 59 57 61 -150 0
39 58 59 57 61 -149 0
39 58 59 57 61 -152 0
39 58 59 57 61 -151 0
39 30 43 41 42 -118 0
39 30 43 41 42 -119 0
39 30 43 41 42 -117 0
39 30 43 41 42 -120 0
39 32 43 41 42 -133 0
39 32 43 41 42 -131 0
39 32 43 41 42 -134 0
39 32 43 41 42 -132 0
39 43 17 41 42 -101 0
39 43 17 41 42 -100 0
39 43 17 41 42 -102 0
39 43 17 41 42 -99 0
39 43 1 41 42 -44 0
39 43 1 41 42 -45 0
39 43 1 41 42 -40 0
39 43 1 41 42 -46 0
39 43 11 41 42 -78 0
39 43 11 41 42 -77 0
39 43 11 41 42 -80 0
39 43 11 41 42 -79 0
39 43 53 41 42 -147 0
39 43 53 41 42 -145 0
39 43 53 41 42 -148 0
39 43 53 41 42 -146 0
39 43 59 41 42 -150 0
39 43 59 41 42 -149 0
39 43 59 41 42 -152 0
39 43 59 41 42 -151 0
39 43 27 41 42 -118 0
39 43 27 41 42 -119 0
39 43 27 41 42 -117 0
39 43 27 41 42 -120 0
39 43 34 41 42 -133 0
39 43 34 41 42 -131 0
39 43 34 41 42 -134 0
39 43 34 41 42 -132 0
39 43 41 16 42 -101 0
39 43 41 16 42 -100 0
39 43 41 16 42 -102 0
39 43 41 16 42 -99 0
39 43 41 5 42 -44 0
39 43 41 5 42 -45 0
39 43 41 5 42 -40 0
39 43 41 5 42 -46 0
39 43 41 9 42 -78 0
39 43 41 9 42 -77 0
39 43 41 9 42 -80 0
39 43 41 9 42 -79 0
39 43 41 52 42 -147 0
39 43 41 52 42 -145 0
39 43 41 52 42 -148 0
39 43 41 52 42 -146 0
39 43 41 57 42 -150 0
39 43 41 57 42 -149 0
39 43 41 57 42 -152 0
39 43 41 57 42 -151 0
39 43 41 23 42 -118 0
39 43 41 23 42 -119 0
39 43 41 23 42 -117 0
39 43 41 23 42 -120 0
39 43 41 31 42 -133 0
39 43 41 31 42 -131 0
39 43 41 31 42 -134 0
39 43 41 31 42 -132 0
39 43 41 42 19 -101 0
39 43 41 42 19 -100 0
39 43 41 42 19 -102 0
39 43 41 42 19 -99 0
39 43 41 42 6 -44 0
39 43 41 42 6 -45 0
39 43 41 42 6 -40 0
39 43 41 42 6 -46 0
39 43 41 42 12 -78 0
39 43 41 42 12 -77 0
39 43 41 42 12 -80 0
39 43 41 42 12 -79 0
39 43 41 42 47 -147 0
39 43 41 42 47 -145 0
39 43 41 42 47 -148 0
39 43 41 42 47 -146 0
39 43 41 42 61 -150 0
39 43 41 42 61 -149 0
39 43 41 42 61 -152 0
39 43 41 42 61 -151 0
21 3 17 16 19 -18 0
21 3 17 16 19 -20 0
21 3 17 16 19 -15 0
21 3 17 16 19 -22 0
21 3 1 5 6 -18 0
21 3 1 5 6 -20 0
21 3 1 5 6 -15 0
21 3 1 5 6 -22 0
21 13 17 16 19 -67 0
21 13 17 16 19 -65 0
21 13 17 16 19 -66 0
21 13 17 16 19 -68 0
21 13 11 9 12 -67 0
21 13 11 9 12 -65 0
21 13 11 9 12 -66 0
21 13 11 9 12 -68 0
21 54 17 16 19 -106 0
21 54 17 16 19 -104 0
21 54 17 16 19 -105 0
21 54 17 16 19 -103 0
21 54 53 52 47 -106 0
21 54 53 52 47 -104 0
21 54 53 52 47 -105 0
21 54 53 52 47 -103 0
21 58 17 16 19 -110 0
21 58 17 16 19 -107 0
21 58 17 16 19 -109 0
21 58 17 16 19 -108 0
21 58 59 57 61 -110 0
21 58 59 57 61 -107 0
21 58 59 57 61 -109 0
21 58 59 57 61 -108 0
21 30 17 16 19 -94 0
21 30 17 16 19 -92 0
21 30 17 16 19 -93 0
21 30 17 16 19 -91 0
21 32 17 16 19 -98 0
21 32 17 16 19 -96 0
21 32 17 16 19 -97 0
21 32 17 16 19 -95 0
21 43 17 16 19 -101 0
21 43 17 16 19 -100 0
21 43 17 16 19 -102 0
21 43 17 16 19 -99 0
21 17 1 16 19 -18 0
21 17 1 16 19 -20 0
21 17 1 16 19 -15 0
21 17 1 16 19 -22 0
21 17 11 16 19 -67 0
21 17 11 16 19 -65 0
21 17 11 16 19 -66 0
21 17 11 16 19 -68 0
21 17 53 16 19 -106 0
21 17 53 16 19 -104 0
21 17 53 16 19 -105 0
21 17 53 16 19 -103 0
21 17 59 16 19 -110 0
21 17 59 16 19 -107 0
21 17 59 16 19 -109 0
21 17 59 16 19 -108 0
21 17 27 16 19 -94 0
21 17 27 16 19 -92 0
21 17 27 16 19 -93 0
21 17 27 16 19 -91 0
21 17 34 16 19 -98 0
21 17 34 16 19 -96 0
21 17 34 16 19 -97 0
21 17 34 16 19 -95 0
21 17 41 16 19 -101 0
21 17 41 16 19 -100 0
21 17 41 16 19 -102 0
21 17 41 16 19 -99 0
21 17 16 5 19 -18 0
21 17 16 5 19 -20 0
21 17 16 5 19 -15 0
21 17 16 5 19 -22 0
21 17 16 9 19 -67 0
21 17 16 9 19 -65 0
21 17 16 9 19 -66 0
21 17 16 9 19 -68 0
21 17 16 52 19 -106 0
21 17 16 52 19 -104 0
21 17 16 52 19 -105 0
21 17 16 52 19 -103 0
21 17 16 57 19 -110 0
21 17 16 57 19 -107 0
21 17 16 57 19 -109 0
21 17 16 57 19 -108 0
21 17 16 23 19 -94 0
21 17 16 23 19 -92 0
21 17 16 23 19 -93 0
21 17 16 23 19 -91 0
21 17 16 31 19 -98 0
21 17 16 31 19 -96 0
21 17 16 31 19 -97 0
21 17 16 31 19 -95 0
21 17 16 42 19 -101 0
21 17 16 42 19 -100 0
21 17 16 42 19 -102 0
21 17 16 42 19 -99 0
21 17 16 19 6 -18 0
21 17 16 19 6 -20 0
21 17 16 19 6 -15 0
21 17 16 19 6 -22 0
21 17 16 19 12 -67 0
21 17 16 19 12 -65 0
21 17 16 19 12 -66 0
21 17 16 19 12 -68 0
21 17 16 19 47 -106 0
21 17 16 19 47 -104 0
21 17 16 19 47 -105 0
21 17 16 19 47 -103 0
21 17 16 19 61 -110 0
21 17 16 19 61 -107 0
21 17 16 19 61 -109 0
21 17 16 19 61 -108 0
3 13 1 5 6 -7 0
3 13 1 5 6 -8 0
3 13 1 5 6 -10 0
3 13 1 5 6 -14 0
3 13 11 9 12 -7 0
3 13 11 9 12 -8 0
3 13 11 9 12 -10 0
3 13 11 9 12 -14 0
3 54 1 5 6 -48 0
3 54 1 5 6 -51 0
3 54 1 5 6 -50 0
3 54 1 5 6 -49 0
3 54 53 52 47 -48 0
3 54 53 52 47 -51 0
3 54 53 52 47 -50 0
3 54 53 52 47 -49 0
3 58 1 5 6 -55 0
3 58 1 5 6 -60 0
3 58 1 5 6 -62 0
3 58 1 5 6 -56 0
3 58 59 57 61 -55 0
3 58 59 57 61 -60 0
3 58 59 57 61 -62 0
3 58 59 57 61 -56 0
3 30 1 5 6 -25 0
3 30 1 5 6 -26 0
3 30 1 5 6 -28 0
3 30 1 5 6 -24 0
3 32 1 5 6 -36 0
3 32 1 5 6 -33 0
3 32 1 5 6 -37 0
3 32 1 5 6 -35 0
3 43 1 5 6 -44 0
3 43 1 5 6 -45 0
3 43 1 5 6 -40 0
3 43 1 5 6 -46 0
3 17 1 5 6 -18 0
3 17 1 5 6 -20 0
3 17 1 5 6 -15 0
3 17 1 5 6 -22 0
3 1 11 5 6 -7 0
3 1 11 5 6 -8 0
3 1 11 5 6 -10 0
3 1 11 5 6 -14 0
3 1 53 5 6 -48 0
3 1 53 5 6 -51 0
3 1 53 5 6 -50 0
3 1 53 5 6 -49 0
3 1 59 5 6 -55 0
3 1 59 5 6 -60 0
3 1 59 5 6 -62 0
3 1 59 5 6 -56 0
3 1 27 5 6 -25 0
3 1 27 5 6 -26 0
3 1 27 5 6 -28 0
3 1 27 5 6 -24 0
3 1 34 5 6 -36 0
3 1 34 5 6 -33 0
3 1 34 5 6 -37 0
3 1 34 5 6 -35 0
3 1 41 5 6 -44 0
3 1 41 5 6 -45 0
3 1 41 5 6 -40 0
3 1 41 5 6 -46 0
3 1 16 5 6 -18 0
3 1 16 5 6 -20 0
3 1 16 5 6 -15 0
3 1 16 5 6 -22 0
3 1 5 9 6 -7 0
3 1 5 9 6 -8 0
3 1 5 9 6 -10 0
3 1 5 9 6 -14 0
3 1 5 52 6 -48 0
3 1 5 52 6 -51 0
3 1 5 52 6 -50 0
3 1 5 52 6 -49 0
3 1 5 57 6 -55 0
3 1 5 57 6 -60 0
3 1 5 57 6 -62 0
3 1 5 57 6 -56 0
3 1 5 23 6 -25 0
3 1 5 23 6 -26 0
3 1 5 23 6 -28 0
3 1 5 23 6 -24 0
3 1 5 31 6 -36 0
3 1 5 31 6 -33 0
3 1 5 31 6 -37 0
3 1 5 31 6 -35 0
3 1 5 42 6 -44 0
3 1 5 42 6 -45 0
3 1 5 42 6 -40 0
3 1 5 42 6 -46 0
3 1 5 19 6 -18 0
3 1 5 19 6 -20 0
3 1 5 19 6 -15 0
3 1 5 19 6 -22 0
3 1 5 6 12 -7 0
3 1 5 6 12 -8 0
3 1 5 6 12 -10 0
3 1 5 6 12 -14 0
3 1 5 6 47 -48 0
3 1 5 6 47 -51 0
3 1 5 6 47 -50 0
3 1 5 6 47 -49 0
3 1 5 6 61 -55 0
3 1 5 6 61 -60 0
3 1 5 6 61 -62 0
3 1 5 6 61 -56 0
13 54 11 9 12 -81 0
13 54 11 9 12 -84 0
13 54 11 9 12 -82 0
13 54 11 9 12 -83 0
13 54 53 52 47 -81 0
13 54 53 52 47 -84 0
13 54 53 52 47 -82 0
13 54 53 52 47 -83 0
13 58 11 9 12 -86 0
13 58 11 9 12 -88 0
13 58 11 9 12 -85 0
13 58 11 9 12 -87 0
13 58 59 57 61 -86 0
13 58 59 57 61 -88 0
13 58 59 57 61 -85 0
13 58 59 57 61 -87 0
13 30 11 9 12 -70 0
13 30 11 9 12 -72 0
13 30 11 9 12 -69 0
13 30 11 9 12 -71 0
13 32 11 9 12 -73 0
13 32 11 9 12 -75 0
13 32 11 9 12 -74 0
13 32 11 9 12 -76 0
13 43 11 9 12 -78 0
13 43 11 9 12 -77 0
13 43 11 9 12 -80 0
13 43 11 9 12 -79 0
13 17 11 9 12 -67 0
13 17 11 9 12 -65 0
13 17 11 9 12 -66 0
13 17 11 9 12 -68 0
13 1 11 9 12 -7 0
13 1 11 9 12 -8 0
13 1 11 9 12 -10 0
13 1 11 9 12 -14 0
13 11 53 9 12 -81 0
13 11 53 9 12 -84 0
13 11 53 9 12 -82 0
13 11 53 9 12 -83 0
13 11 59 9 12 -86 0
13 11 59 9 12 -88 0
13 11 59 9 12 -85 0
13 11 59 9 12 -87 0
13 11 27 9 12 -70 0
13 11 27 9 12 -72 0
13 11 27 9 12 -69 0
13 11 27 9 12 -71 0
13 11 34 9 12 -73 0
13 11 34 9 12 -75 0
13 11 34 9 12 -74 0
13 11 34 9 12 -76 0
13 11 41 9 12 -78 0
13 11 41 9 12 -77 0
13 11 41 9 12 -80 0
13 11 41 9 12 -79 0
13 11 16 9 12 -67 0
13 11 16 9 12 -65 0
13 11 16 9 12 -66 0
13 11 16 9 12 -68 0
13 11 5 9 12 -7 0
13 11 5 9 12 -8 0
13 11 5 9 12 -10 0
13 11 5 9 12 -14 0
13 11 9 52 12 -81 0
13 11 9 52 12 -84 0
13 11 9 52 12 -82 0
13 11 9 52 12 -83 0
13 11 9 57 12 -86 0
13 11 9 57 12 -88 0
13 11 9 57 12 -85 0
13 11 9 57 12 -87 0
13 11 9 23 12 -70 0
13 11 9 23 12 -72 0
13 11 9 23 12 -69 0
13 11 9 23 12 -71 0
13 11 9 31 12 -73 0
13 11 9 31 12 -75 0
13 11 9 31 12 -74 0
13 11 9 31 12 -76 0
13 11 9 42 12 -78 0
13 11 9 42 12 -77 0
13 11 9 42 12 -80 0
13 11 9 42 12 -79 0
13 11 9 19 12 -67 0
13 11 9 19 12 -65 0
13 11 9 19 12 -66 0
13 11 9 19 12 -68 0
13 11 9 6 12 -7 0
13 11 9 6 12 -8 0
13 11 9 6 12 -10 0
13 11 9 6 12 -14 0
13 11 9 12 47 -81 0
13 11 9 12 47 -84 0
13 11 9 12 47 -82 0
13 11 9 12 47 -83 0
13 11 9 12 61 -86 0
13 11 9 12 61 -88 0
13 11 9 12 61 -85 0
13 11 9 12 61 -87 0
54 58 53 52 47 -155 0
54 58 53 52 47 -157 0
54 58 53 52 47 -158 0
54 58 53 52 47 -156 0
54 58 59 57 61 -155 0
54 58 59 57 61 -157 0
54 58 59 57 61 -158 0
54 58 59 57 61 -156 0
54 30 53 52 47 -121 0
54 30 53 52 47 -122 0
54 30 53 52 47 -124 0
54 30 53 52 47 -123 0
54 32 53 52 47 -138 0
54 32 53 52 47 -136 0
54 32 53 52 47 -137 0
54 32 53 52 47 -135 0
54 43 53 52 47 -147 0
54 43 53 52 47 -145 0
54 43 53 52 47 -148 0
54 43 53 52 47 -146 0
54 17 53 52 47 -106 0
54 17 53 52 47 -104 0
54 17 53 52 47 -105 0
54 17 53 52 47 -103 0
54 1 53 52 47 -48 0
54 1 53 52 47 -51 0
54 1 53 52 47 -50 0
54 1 53 52 47 -49 0
54 11 53 52 47 -81 0
54 11 53 52 47 -84 0
54 11 53 52 47 -82 0
54 11 53 52 47 -83 0
54 53 59 52 47 -155 0
54 53 59 52 47 -157 0
54 53 59 52 47 -158 0
54 53 59 52 47 -156 0
54 53 27 52 47 -121 0
54 53 27 52 47 -122 0
54 53 27 52 47 -124 0
54 53 27 52 47 -123 0
54 53 34 52 47 -138 0
54 53 34 52 47 -136 0
54 53 34 52 47 -137 0
54 53 34 52 47 -135 0
54 53 41 52 47 -147 0
54 53 41 52 47 -145 0
54 53 41 52 47 -148 0
54 53 41 52 47 -146 0
54 53 16 52 47 -106 0
54 53 16 52 47 -104 0
54 53 16 52 47 -105 0
54 53 16 52 47 -103 0
54 53 5 52 47 -48 0
54 53 5 52 47 -51 0
54 53 5 52 47 -50 0
54 53 5 52 47 -49 0
54 53 9 52 47 -81 0
54 53 9 52 47 -84 0
54 53 9 52 47 -82 0
54 53 9 52 47 -83 0
54 53 52 57 47 -155 0
54 53 52 57 47 -157 0
54 53 52 57 47 -158 0
54 53 52 57 47 -156 0
54 53 52 23 47 -121 0
54 53 52 23 47 -122 0
54 53 52 23 47 -124 0
54 53 52 23 47 -123 0
54 53 52 31 47 -138 0
54 53 52 31 47 -136 0
54 53 52 31 47 -137 0
54 53 52 31 47 -135 0
54 53 52 42 47 -147 0
54 53 52 42 47 -145 0
54 53 52 42 47 -148 0
54 53 52 42 47 -146 0
54 53 52 19 47 -106 0
54 53 52 19 47 -104 0
54 53 52 19 47 -105 0
54 53 52 19 47 -103 0
54 53 52 6 47 -48 0
54 53 52 6 47 -51 0
54 53 52 6 47 -50 0
54 53 52 6 47 -49 0
54 53 52 12 47 -81 0
54 53 52 12 47 -84 0
54 53 52 12 47 -82 0
54 53 52 12 47 -83 0
54 53 52 47 61 -155 0
54 53 52 47 61 -157 0
54 53 52 47 61 -158 0
54 53 52 47 61 -156 0
58 30 59 57 61 -128 0
58 30 59 57 61 -125 0
58 30 59 57 61 -127 0
58 30 59 57 61 -126 0
58 32 59 57 61 -140 0
58 32 59 57 61 -142 0
58 32 59 57 61 -139 0
58 32 59 57 61 -141 0
58 43 59 57 61 -150 0
58 43 59 57 61 -149 0
58 43 59 57 61 -152 0
58 43 59 57 61 -151 0
58 17 59 57 61 -110 0
58 17 59 57 61 -107 0
58 17 59 57 61 -109 0
58 17 59 57 61 -108 0
58 1 59 57 61 -55 0
58 1 59 57 61 -60 0
58 1 59 57 61 -62 0
58 1 59 57 61 -56 0
58 11 59 57 61 -86 0
58 11 59 57 61 -88 0
58 11 59 57 61 -85 0
58 11 59 57 61 -87 0
58 53 59 57 61 -155 0
58 53 59 57 61 -157 0
58 53 59 57 61 -158 0
58 53 59 57 61 -156 0
58 59 27 57 61 -128 0
58 59 27 57 61 -125 0
58 59 27 57 61 -127 0
58 59 27 57 61 -126 0
58 59 34 57 61 -140 0
58 59 34 57 61 -142 0
58 59 34 57 61 -139 0
58 59 34 57 61 -141 0
58 59 41 57 61 -150 0
58 59 41 57 61 -149 0
58 59 41 57 61 -152 0
58 59 41 57 61 -151 0
58 59 16 57 61 -110 0
58 59 16 57 61 -107 0
58 59 16 57 61 -109 0
58 59 16 57 61 -108 0
58 59 5 57 61 -55 0
58 59 5 57 61 -60 0
58 59 5 57 61 -62 0
58 59 5 57 61 -56 0
58 59 9 57 61 -86 0
58 59 9 57 61 -88 0
58 59 9 57 61 -85 0
58 59 9 57 61 -87 0
58 59 52 57 61 -155 0
58 59 52 57 61 -157 0
58 59 52 57 61 -158 0
58 59 52 57 61 -156 0
58 59 57 23 61 -128 0
58 59 57 23 61 -125 0
58 59 57 23 61 -127 0
58 59 57 23 61 -126 0
58 59 57 31 61 -140 0
58 59 57 31 61 -142 0
58 59 57 31 61 -139 0
58 59 57 31 61 -141 0
58 59 57 42 61 -150 0
58 59 57 42 61 -149 0
58 59 57 42 61 -152 0
58 59 57 42 61 -151 0
58 59 57 19 61 -110 0
58 59 57 19 61 -107 0
58 59 57 19 61 -109 0
58 59 57 19 61 -108 0
58 59 57 6 61 -55 0
58 59 57 6 61 -60 0
58 59 57 6 61 -62 0
58 59 57 6 61 -56 0
58 59 57 12 61 -86 0
58 59 57 12 61 -88 0
58 59 57 12 61 -85 0
58 59 57 12 61 -87 0
58 59 57 47 61 -155 0
58 59 57 47 61 -157 0
58 59 57 47 61 -158 0
58 59 57 47 61 -156 0
29 38 30 32 27 34 -113 0
29 38 30 32 27 34 -116 0
29 38 30 32 27 34 -114 0
29 38 30 32 27 34 -115 0
29 38 30 32 27 23 -113 0
29 38 30 32 27 23 -116 0
29 38 30 32 27 23 -114 0
29 38 30 32 27 23 -115 0
29 38 30 32 34 31 -113 0
29 38 30 32 34 31 -116 0
29 38 30 32 34 31 -114 0
29 38 30 32 34 31 -115 0
29 38 30 32 23 31 -113 0
29 38 30 32 23 31 -116 0
29 38 30 32 23 31 -114 0
29 38 30 32 23 31 -115 0
29 38 30 27 34 23 -113 0
29 38 30 27 34 23 -116 0
29 38 30 27 34 23 -114 0
29 38 30 27 34 23 -115 0
29 38 30 27 23 31 -113 0
29 38 30 27 23 31 -116 0
29 38 30 27 23 31 -114 0
29 38 30 27 23 31 -115 0
29 38 32 27 34 31 -113 0
29 38 32 27 34 31 -116 0
29 38 32 27 34 31 -114 0
29 38 32 27 34 31 -115 0
29 38 32 34 23 31 -113 0
29 38 32 34 23 31 -116 0
29 38 32 34 23 31 -114 0
29 38 32 34 23 31 -115 0
29 38 27 34 23 31 -113 0
29 38 27 34 23 31 -116 0
29 38 27 34 23 31 -114 0
29 38 27 34 23 31 -115 0
29 39 30 43 27 41 -118 0
29 39 30 43 27 41 -119 0
29 39 30 43 27 41 -117 0
29 39 30 43 27 41 -120 0
29 39 30 43 27 23 -118 0
29 39 30 43 27 23 -119 0
29 39 30 43 27 23 -117 0
29 39 30 43 27 23 -120 0
29 39 30 43 41 42 -118 0
29 39 30 43 41 42 -119 0
29 39 30 43 41 42 -117 0
29 39 30 43 41 42 -120 0
29 39 30 43 23 42 -118 0
29 39 30 43 23 42 -119 0
29 39 30 43 23 42 -117 0
29 39 30 43 23 42 -120 0
29 39 30 27 41 23 -118 0
29 39 30 27 41 23 -119 0
29 39 30 27 41 23 -117 0
29 39 30 27 41 23 -120 0
29 39 30 27 23 42 -118 0
29 39 30 27 23 42 -119 0
29 39 30 27 23 42 -117 0
29 39 30 27 23 42 -120 0
29 39 43 27 41 42 -118 0
29 39 43 27 41 42 -119 0
29 39 43 27 41 42 -117 0
29 39 43 27 41 42 -120 0
29 39 43 41 23 42 -118 0
29 39 43 41 23 42 -119 0
29 39 43 41 23 42 -117 0
29 39 43 41 23 42 -120 0
29 39 27 41 23 42 -118 0
29 39 27 41 23 42 -119 0
29 39 27 41 23 42 -117 0
29 39 27 41 23 42 -120 0
29 21 30 17 27 16 -94 0
29 21 30 17 27 16 -92 0
29 21 30 17 27 16 -93 0
29 21 30 17 27 16 -91 0
29 21 30 17 27 23 -94 0
29 21 30 17 27 23 -92 0
29 21 30 17 27 23 -93 0
29 21 30 17 27 23 -91 0
29 21 30 17 16 19 -94 0
29 21 30 17 16 19 -92 0
29 21 30 17 16 19 -93 0
29 21 30 17 16 19 -91 0
29 21 30 17 23 19 -94 0
29 21 30 17 23 19 -92 0
29 21 30 17 23 19 -93 0
29 21 30 17 23 19 -91 0
29 21 30 27 16 23 -94 0
29 21 30 27 16 23 -92 0
29 21 30 27 16 23 -93 0
29 21 30 27 16 23 -91 0
29 21 30 27 23 19 -94 0
29 21 30 27 23 19 -92 0
29 21 30 27 23 19 -93 0
29 21 30 27 23 19 -91 0
29 21 17 27 16 19 -94 0
29 21 17 27 16 19 -92 0
29 21 17 27 16 19 -93 0
29 21 17 27 16 19 -91 0
29 21 17 16 23 19 -94 0
29 21 17 16 23 19 -92 0
29 21 17 16 23 19 -93 0
29 21 17 16 23 19 -91 0
29 21 27 16 23 19 -94 0
29 21 27 16 23 19 -92 0
29 21 27 16 23 19 -93 0
29 21 27 16 23 19 -91 0
29 3 30 1 27 5 -25 0
29 3 30 1 27 5 -26 0
29 3 30 1 27 5 -28 0
29 3 30 1 27 5 -24 0
29 3 30 1 27 23 -25 0
29 3 30 1 27 23 -26 0
29 3 30 1 27 23 -28 0
29 3 30 1 27 23 -24 0
29 3 30 1 5 6 -25 0
29 3 30 1 5 6 -26 0
29 3 30 1 5 6 -28 0
29 3 30 1 5 6 -24 0
29 3 30 1 23 6 -25 0
29 3 30 1 23 6 -26 0
29 3 30 1 23 6 -28 0
29 3 30 1 23 6 -24 0
29 3 30 27 5 23 -25 0
29 3 30 27 5 23 -26 0
29 3 30 27 5 23 -28 0
29 3 30 27 5 23 -24 0
29 3 30 27 23 6 -25 0
29 3 30 27 23 6 -26 0
29 3 30 27 23 6 -28 0
29 3 30 27 23 6 -24 0
29 3 1 27 5 6 -25 0
29 3 1 27 5 6 -26 0
29 3 1 27 5 6 -28 0
29 3 1 27 5 6 -24 0
29 3 1 5 23 6 -25 0
29 3 1 5 23 6 -26 0
29 3 1 5 23 6 -28 0
29 3 1 5 23 6 -24 0
29 3 27 5 23 6 -25 0
29 3 27 5 23 6 -26 0
29 3 27 5 23 6 -28 0
29 3 27 5 23 6 -24 0
29 13 30 11 27 9 -70 0
29 13 30 11 27 9 -72 0
29 13 30 11 27 9 -69 0
29 13 30 11 27 9 -71 0
29 13 30 11 27 23 -70 0
29 13 30 11 27 23 -72 0
29 13 30 11 27 23 -69 0
29 13 30 11 27 23 -71 0
29 13 30 11 9 12 -70 0
29 13 30 11 9 12 -72 0
29 13 30 11 9 12 -69 0
29 13 30 11 9 12 -71 0
29 13 30 11 23 12 -70 0
29 13 30 11 23 12 -72 0
29 13 30 11 23 12 -69 0
29 13 30 11 23 12 -71 0
29 13 30 27 9 23 -70 0
29 13 30 27 9 23 -72 0
29 13 30 27 9 23 -69 0
29 13 30 27 9 23 -71 0
29 13 30 27 23 12 -70 0
29 13 30 27 23 12 -72 0
29 13 30 27 23 12 -69 0
29 13 30 27 23 12 -71 0
29 13 11 27 9 12 -70 0
29 13 11 27 9 12 -72 0
29 13 11 27 9 12 -69 0
29 13 11 27 9 12 -71 0
29 13 11 9 23 12 -70 0
29 13 11 9 23 12 -72 0
29 13 11 9 23 12 -69 0
29 13 11 9 23 12 -71 0
29 13 27 9 23 12 -70 0
29 13 27 9 23 12 -72 0
29 13 27 9 23 12 -69 0
29 13 27 9 23 12 -71 0
29 54 30 53 27 52 -121 0
29 54 30 53 27 52 -122 0
29 54 30 53 27 52 -124 0
29 54 30 53 27 52 -123 0
29 54 30 53 27 23 -121 0
29 54 30 53 27 23 -122 0
29 54 30 53 27 23 -124 0
29 54 30 53 27 23 -123 0
29 54 30 53 52 47 -121 0
29 54 30 53 52 47 -122 0
29 54 30 53 52 47 -124 0
29 54 30 53 52 47 -123 0
29 54 30 53 23 47 -121 0
29 54 30 53 23 47 -122 0
29 54 30 53 23 47 -124 0
29 54 30 53 23 47 -123 0
29 54 30 27 52 23 -121 0
29 54 30 27 52 23 -122 0
29 54 30 27 52 23 -124 0
29 54 30 27 52 23 -123 0
29 54 30 27 23 47 -121 0
29 54 30 27 23 47 -122 0
29 54 30 27 23 47 -124 0
29 54 30 27 23 47 -123 0
29 54 53 27 52 47 -121 0
29 54 53 27 52 47 -122 0
29 54 53 27 52 47 -124 0
29 54 53 27 52 47 -123 0
29 54 53 52 23 47 -121 0
29 54 53 52 23 47 -122 0
29 54 53 52 23 47 -124 0
29 54 53 52 23 47 -123 0
29 54 27 52 23 47 -121 0
29 54 27 52 23 47 -122 0
29 54 27 52 23 47 -124 0
29 54 27 52 23 47 -123 0
29 58 30 59 27 57 -128 0
29 58 30 59 27 57 -125 0
29 58 30 59 27 57 -127 0
29 58 30 59 27 57 -126 0
29 58 30 59 27 23 -128 0
29 58 30 59 27 23 -125 0
29 58 30 59 27 23 -127 0
29 58 30 59 27 23 -126 0
29 58 30 59 57 61 -128 0
29 58 30 59 57 61 -125 0
29 58 30 59 57 61 -127 0
29 58 30 59 57 61 -126 0
29 58 30 59 23 61 -128 0
29 58 30 59 23 61 -125 0
29 58 30 59 23 61 -127 0
29 58 30 59 23 61 -126 0
29 58 30 27 57 23 -128 0
29 58 30 27 57 23 -125 0
29 58 30 27 57 23 -127 0
29 58 30 27 57 23 -126 0
29 58 30 27 23 61 -128 0
29 58 30 27 23 61 -125 0
29 58 30 27 23 61 -127 0
29 58 30 27 23 61 -126 0
29 58 59 27 57 61 -128 0
29 58 59 27 57 61 -125 0
29 58 59 27 57 61 -127 0
29 58 59 27 57 61 -126 0
29 58 59 57 23 61 -128 0
29 58 59 57 23 61 -125 0
29 58 59 57 23 61 -127 0
29 58 59 57 23 61 -126 0
29 58 27 57 23 61 -128 0
29 58 27 57 23 61 -125 0
29 58 27 57 23 61 -127 0
29 58 27 57 23 61 -126 0
29 30 32 27 34 23 -113 0
29 30 32 27 34 23 -116 0
29 30 32 27 34 23 -114 0
29 30 32 27 34 23 -115 0
29 30 32 27 23 31 -113 0
29 30 32 27 23 31 -116 0
29 30 32 27 23 31 -114 0
29 30 32 27 23 31 -115 0
29 30 43 27 41 23 -118 0
29 30 43 27 41 23 -119 0
29 30 43 27 41 23 -117 0
29 30 43 27 41 23 -120 0
29 30 43 27 23 42 -118 0
29 30 43 27 23 42 -119 0
29 30 43 27 23 42 -117 0
29 30 43 27 23 42 -120 0
29 30 17 27 16 23 -94 0
29 30 17 27 16 23 -92 0
29 30 17 27 16 23 -93 0
29 30 17 27 16 23 -91 0
29 30 17 27 23 19 -94 0
29 30 17 27 23 19 -92 0
29 30 17 27 23 19 -93 0
29 30 17 27 23 19 -91 0
29 30 1 27 5 23 -25 0
29 30 1 27 5 23 -26 0
29 30 1 27 5 23 -28 0
29 30 1 27 5 23 -24 0
29 30 1 27 23 6 -25 0
29 30 1 27 23 6 -26 0
29 30 1 27 23 6 -28 0
29 30 1 27 23 6 -24 0
29 30 11 27 9 23 -70 0
29 30 11 27 9 23 -72 0
29 30 11 27 9 23 -69 0
29 30 11 27 9 23 -71 0
29 30 11 27 23 12 -70 0
29 30 11 27 23 12 -72 0
29 30 11 27 23 12 -69 0
29 30 11 27 23 12 -71 0
29 30 53 27 52 23 -121 0
29 30 53 27 52 23 -122 0
29 30 53 27 52 23 -124 0
29 30 53 27 52 23 -123 0
29 30 53 27 23 47 -121 0
29 30 53 27 23 47 -122 0
29 30 53 27 23 47 -124 0
29 30 53 27 23 47 -123 0
29 30 59 27 57 23 -128 0
29 30 59 27 57 23 -125 0
29 30 59 27 57 23 -127 0
29 30 59 27 57 23 -126 0
29 30 59 27 23 61 -128 0
29 30 59 27 23 61 -125 0
29 30 59 27 23 61 -127 0
29 30 59 27 23 61 -126 0
29 30 27 34 23 31 -113 0
29 30 27 34 23 31 -116 0
29 30 27 34 23 31 -114 0
29 30 27 34 23 31 -115 0
29 30 27 41 23 42 -118 0
29 30 27 41 23 42 -119 0
29 30 27 41 23 42 -117 0
29 30 27 41 23 42 -120 0
29 30 27 16 23 19 -94 0
29 30 27 16 23 19 -92 0
29 30 27 16 23 19 -93 0
29 30 27 16 23 19 -91 0
29 30 27 5 23 6 -25 0
29 30 27 5 23 6 -26 0
29 30 27 5 23 6 -28 0
29 30 27 5 23 6 -24 0
29 30 27 9 23 12 -70 0
29 30 27 9 23 12 -72 0
29 30 27 9 23 12 -69 0
29 30 27 9 23 12 -71 0
29 30 27 52 23 47 -121 0
29 30 27 52 23 47 -122 0
29 30 27 52 23 47 -124 0
29 30 27 52 23 47 -123 0
29 30 27 57 23 61 -128 0
29 30 27 57 23 61 -125 0
29 30 27 57 23 61 -127 0
29 30 27 57 23 61 -126 0
38 39 32 43 34 41 -133 0
38 39 32 43 34 41 -131 0
38 39 32 43 34 41 -134 0
38 39 32 43 34 41 -132 0
38 39 32 43 34 31 -133 0
38 39 32 43 34 31 -131 0
38 39 32 43 34 31 -134 0
38 39 32 43 34 31 -132 0
38 39 32 43 41 42 -133 0
38 39 32 43 41 42 -131 0
38 39 32 43 41 42 -134 0
38 39 32 43 41 42 -132 0
38 39 32 43 31 42 -133 0
38 39 32 43 31 42 -131 0
38 39 32 43 31 42 -134 0
38 39 32 43 31 42 -132 0
38 39 32 34 41 31 -133 0
38 39 32 34 41 31 -131 0
38 39 32 34 41 31 -134 0
38 39 32 34 41 31 -132 0
38 39 32 34 31 42 -133 0
38 39 32 34 31 42 -131 0
38 39 32 34 31 42 -134 0
38 39 32 34 31 42 -132 0
38 39 43 34 41 42 -133 0
38 39 43 34 41 42 -131 0
38 39 43 34 41 42 -134 0
38 39 43 34 41 42 -132 0
38 39 43 41 31 42 -133 0
38 39 43 41 31 42 -131 0
38 39 43 41 31 42 -134 0
38 39 43 41 31 42 -132 0
38 39 34 41 31 42 -133 0
38 39 34 41 31 42 -131 0
38 39 34 41 31 42 -134 0
38 39 34 41 31 42 -132 0
38 21 32 17 34 16 -98 0
38 21 32 17 34 16 -96 0
38 21 32 17 34 16 -97 0
38 21 32 17 34 16 -95 0
38 21 32 17 34 31 -98 0
38 21 32 17 34 31 -96 0
38 21 32 17 34 31 -97 0
38 21 32 17 34 31 -95 0
38 21 32 17 16 19 -98 0
38 21 32 17 16 19 -96 0
38 21 32 17 16 19 -97 0
38 21 32 17 16 19 -95 0
38 21 32 17 31 19 -98 0
38 21 32 17 31 19 -96 0
38 21 32 17 31 19 -97 0
38 21 32 17 31 19 -95 0
38 21 32 34 16 31 -98 0
38 21 32 34 16 31 -96 0
38 21 32 34 16 31 -97 0
38 21 32 34 16 31 -95 0
38 21 32 34 31 19 -98 0
38 21 32 34 31 19 -96 0
38 21 32 34 31 19 -97 0
38 21 32 34 31 19 -95 0
38 21 17 34 16 19 -98 0
38 21 17 34 16 19 -96 0
38 21 17 34 16 19 -97 0
38 21 17 34 16 19 -95 0
38 21 17 16 31 19 -98 0
38 21 17 16 31 19 -96 0
38 21 17 16 31 19 -97 0
38 21 17 16 31 19 -95 0
38 21 34 16 31 19 -98 0
38 21 34 16 31 19 -96 0
38 21 34 16 31 19 -97 0
38 21 34 16 31 19 -95 0
38 3 32 1 34 5 -36 0
38 3 32 1 34 5 -33 0
38 3 32 1 34 5 -37 0
38 3 32 1 34 5 -35 0
38 3 32 1 34 31 -36 0
38 3 32 1 34 31 -33 0
38 3 32 1 34 31 -37 0
38 3 32 1 34 31 -35 0
38 3 32 1 5 6 -36 0
38 3 32 1 5 6 -33 0
38 3 32 1 5 6 -37 0
38 3 32 1 5 6 -35 0
38 3 32 1 31 6 -36 0
38 3 32 1 31 6 -33 0
38 3 32 1 31 6 -37 0
38 3 32 1 31 6 -35 0
38 3 32 34 5 31 -36 0
38 3 32 34 5 31 -33 0
38 3 32 34 5 31 -37 0
38 3 32 34 5 31 -35 0
38 3 32 34 31 6 -36 0
38 3 32 34 31 6 -33 0
38 3 32 34 31 6 -37 0
38 3 32 34 31 6 -35 0
38 3 1 34 5 6 -36 0
38 3 1 34 5 6 -33 0
38 3 1 34 5 6 -37 0
38 3 1 34 5 6 -35 0
38 3 1 5 31 6 -36 0
38 3 1 5 31 6 -33 0
38 3 1 5 31 6 -37 0
38 3 1 5 31 6 -35 0
38 3 34 5 31 6 -36 0
38 3 34 5 31 6 -33 0
38 3 34 5 31 6 -37 0
38 3 34 5 31 6 -35 0
38 13 32 11 34 9 -73 0
38 13 32 11 34 9 -75 0
38 13 32 11 34 9 -74 0
38 13 32 11 34 9 -76 0
38 13 32 11 34 31 -73 0
38 13 32 11 34 31 -75 0
38 13 32 11 34 31 -74 0
38 13 32 11 34 31 -76 0
38 13 32 11 9 12 -73 0
38 13 32 11 9 12 -75 0
38 13 32 11 9 12 -74 0
38 13 32 11 9 12 -76 0
38 13 32 11 31 12 -73 0
38 13 32 11 31 12 -75 0
38 13 32 11 31 12 -74 0
38 13 32 11 31 12 -76 0
38 13 32 34 9 31 -73 0
38 13 32 34 9 31 -75 0
38 13 32 34 9 31 -74 0
38 13 32 34 9 31 -76 0
38 13 32 34 31 12 -73 0
38 13 32 34 31 12 -75 0
38 13 32 34 31 12 -74 0
38 13 32 34 31 12 -76 0
38 13 11 34 9 12 -73 0
38 13 11 34 9 12 -75 0
38 13 11 34 9 12 -74 0
38 13 11 34 9 12 -76 0
38 13 11 9 31 12 -73 0
38 13 11 9 31 12 -75 0
38 13 11 9 31 12 -74 0
38 13 11 9 31 12 -76 0
38 13 34 9 31 12 -73 0
38 13 34 9 31 12 -75 0
38 13 34 9 31 12 -74 0
38 13 34 9 31 12 -76 0
38 54 32 53 34 52 -138 0
38 54 32 53 34 52 -136 0
38 54 32 53 34 52 -137 0
38 54 32 53 34 52 -135 0
38 54 32 53 34 31 -138 0
38 54 32 53 34 31 -136 0
38 54 32 53 34 31 -137 0
38 54 32 53 34 31 -135 0
38 54 32 53 52 47 -138 0
38 54 32 53 52 47 -136 0
38 54 32 53 52 47 -137 0
38 54 32 53 52 47 -135 0
38 54 32 53 31 47 -138 0
38 54 32 53 31 47 -136 0
38 54 32 53 31 47 -137 0
38 54 32 53 31 47 -135 0
38 54 32 34 52 31 -138 0
38 54 32 34 52 31 -136 0
38 54 32 34 52 31 -137 0
38 54 32 34 52 31 -135 0
38 54 32 34 31 47 -138 0
38 54 32 34 31 47 -136 0
38 54 32 34 31 47 -137 0
38 54 32 34 31 47 -135 0
38 54 53 34 52 47 -138 0
38 54 53 34 52 47 -136 0
38 54 53 34 52 47 -137 0
38 54 53 34 52 47 -135 0
38 54 53 52 31 47 -138 0
38 54 53 52 31 47 -136 0
38 54 53 52 31 47 -137 0
38 54 53 52 31 47 -135 0
38 54 34 52 31 47 -138 0
38 54 34 52 31 47 -136 0
38 54 34 52 31 47 -137 0
38 54 34 52 31 47 -135 0
38 58 32 59 34 57 -140 0
38 58 32 59 34 57 -142 0
38 58 32 59 34 57 -139 0
38 58 32 59 34 57 -141 0
38 58 32 59 34 31 -140 0
38 58 32 59 34 31 -142 0
38 58 32 59 34 31 -139 0
38 58 32 59 34 31 -141 0
38 58 32 59 57 61 -140 0
38 58 32 59 57 61 -142 0
38 58 32 59 57 61 -139 0
38 58 32 59 57 61 -141 0
38 58 32 59 31 61 -140 0
38 58 32 59 31 61 -142 0
38 58 32 59 31 61 -139 0
38 58 32 59 31 61 -141 0
38 58 32 34 57 31 -140 0
38 58 32 34 57 31 -142 0
38 58 32 34 57 31 -139 0
38 58 32 34 57 31 -141 0
38 58 32 34 31 61 -140 0
38 58 32 34 31 61 -142 0
38 58 32 34 31 61 -139 0
38 58 32 34 31 61 -141 0
38 58 59 34 57 61 -140 0
38 58 59 34 57 61 -142 0
38 58 59 34 57 61 -139 0
38 58 59 34 57 61 -141 0
38 58 59 57 31 61 -140 0
38 58 59 57 31 61 -142 0
38 58 59 57 31 61 -139 0
38 58 59 57 31 61 -141 0
38 58 34 57 31 61 -140 0
38 58 34 57 31 61 -142 0
38 58 34 57 31 61 -139 0
38 58 34 57 31 61 -141 0
38 30 32 27 34 31 -113 0
38 30 32 27 34 31 -116 0
38 30 32 27 34 31 -114 0
38 30 32 27 34 31 -115 0
38 30 32 34 23 31 -113 0
38 30 32 34 23 31 -116 0
38 30 32 34 23 31 -114 0
38 30 32 34 23 31 -115 0
38 32 43 34 41 31 -133 0
38 32 43 34 41 31 -131 0
38 32 43 34 41 31 -134 0
38 32 43 34 41 31 -132 0
38 32 43 34 31 42 -133 0
38 32 43 34 31 42 -131 0
38 32 43 34 31 42 -134 0
38 32 43 34 31 42 -132 0
38 32 17 34 16 31 -98 0
38 32 17 34 16 31 -96 0
38 32 17 34 16 31 -97 0
38 32 17 34 16 31 -95 0
38 32 17 34 31 19 -98 0
38 32 17 34 31 19 -96 0
38 32 17 34 31 19 -97 0
38 32 17 34 31 19 -95 0
38 32 1 34 5 31 -36 0
38 32 1 34 5 31 -33 0
38 32 1 34 5 31 -37 0
38 32 1 34 5 31 -35 0
38 32 1 34 31 6 -36 0
38 32 1 34 31 6 -33 0
38 32 1 34 31 6 -37 0
38 32 1 34 31 6 -35 0
38 32 11 34 9 31 -73 0
38 32 11 34 9 31 -75 0
38 32 11 34 9 31 -74 0
38 32 11 34 9 31 -76 0
38 32 11 34 31 12 -73 0
38 32 11 34 31 12 -75 0
38 32 11 34 31 12 -74 0
38 32 11 34 31 12 -76 0
38 32 53 34 52 31 -138 0
38 32 53 34 52 31 -136 0
38 32 53 34 52 31 -137 0
38 32 53 34 52 31 -135 0
38 32 53 34 31 47 -138 0
38 32 53 34 31 47 -136 0
38 32 53 34 31 47 -137 0
38 32 53 34 31 47 -135 0
38 32 59 34 57 31 -140 0
38 32 59 34 57 31 -142 0
38 32 59 34 57 31 -139 0
38 32 59 34 57 31 -141 0
38 32 59 34 31 61 -140 0
38 32 59 34 31 61 -142 0
38 32 59 34 31 61 -139 0
38 32 59 34 31 61 -141 0
38 32 27 34 23 31 -113 0
38 32 27 34 23 31 -116 0
38 32 27 34 23 31 -114 0
38 32 27 34 23 31 -115 0
38 32 34 41 31 42 -133 0
38 32 34 41 31 42 -131 0
38 32 34 41 31 42 -134 0
38 32 34 41 31 42 -132 0
38 32 34 16 31 19 -98 0
38 32 34 16 31 19 -96 0
38 32 34 16 31 19 -97 0
38 32 34 16 31 19 -95 0
38 32 34 5 31 6 -36 0
38 32 34 5 31 6 -33 0
38 32 34 5 31 6 -37 0
38 32 34 5 31 6 -35 0
38 32 34 9 31 12 -73 0
38 32 34 9 31 12 -75 0
38 32 34 9 31 12 -74 0
38 32 34 9 31 12 -76 0
38 32 34 52 31 47 -138 0
38 32 34 52 31 47 -136 0
38 32 34 52 31 47 -137 0
38 32 34 52 31 47 -135 0
38 32 34 57 31 61 -140 0
38 32 34 57 31 61 -142 0
38 32 34 57 31 61 -139 0
38 32 34 57 31 61 -141 0
39 21 43 17 41 16 -101 0
39 21 43 17 41 16 -100 0
39 21 43 17 41 16 -102 0
39 21 43 17 41 16 -99 0
39 21 43 17 41 42 -101 0
39 21 43 17 41 42 -100 0
39 21 43 17 41 42 -102 0
39 21 43 17 41 42 -99 0
39 21 43 17 16 19 -101 0
39 21 43 17 16 19 -100 0
39 21 43 17 16 19 -102 0
39 21 43 17 16 19 -99 0
39 21 43 17 42 19 -101 0
39 21 43 17 42 19 -100 0
39 21 43 17 42 19 -102 0
39 21 43 17 42 19 -99 0
39 21 43 41 16 42 -101 0
39 21 43 41 16 42 -100 0
39 21 43 41 16 42 -102 0
39 21 43 41 16 42 -99 0
39 21 43 41 42 19 -101 0
39 21 43 41 42 19 -100 0
39 21 43 41 42 19 -102 0
39 21 43 41 42 19 -99 0
39 21 17 41 16 19 -101 0
39 21 17 41 16 19 -100 0
39 21 17 41 16 19 -102 0
39 21 17 41 16 19 -99 0
39 21 17 16 42 19 -101 0
39 21 17 16 42 19 -100 0
39 21 17 16 42 19 -102 0
39 21 17 16 42 19 -99 0
39 21 41 16 42 19 -101 0
39 21 41 16 42 19 -100 0
39 21 41 16 42 19 -102 0
39 21 41 16 42 19 -99 0
39 3 43 1 41 5 -44 0
39 3 43 1 41 5 -45 0
39 3 43 1 41 5 -40 0
39 3 43 1 41 5 -46 0
39 3 43 1 41 42 -44 0
39 3 43 1 41 42 -45 0
39 3 43 1 41 42 -40 0
39 3 43 1 41 42 -46 0
39 3 43 1 5 6 -44 0
39 3 43 1 5 6 -45 0
39 3 43 1 5 6 -40 0
39 3 43 1 5 6 -46 0
39 3 43 1 42 6 -44 0
39 3 43 1 42 6 -45 0
39 3 43 1 42 6 -40 0
39 3 43 1 42 6 -46 0
39 3 43 41 5 42 -44 0
39 3 43 41 5 42 -45 0
39 3 43 41 5 42 -40 0
39 3 43 41 5 42 -46 0
39 3 43 41 42 6 -44 0
39 3 43 41 42 6 -45 0
39 3 43 41 42 6 -40 0
39 3 43 41 42 6 -46 0
39 3 1 41 5 6 -44 0
39 3 1 41 5 6 -45 0
39 3 1 41 5 6 -40 0
39 3 1 41 5 6 -46 0
39 3 1 5 42 6 -44 0
39 3 1 5 42 6 -45 0
39 3 1 5 42 6 -40 0
39 3 1 5 42 6 -46 0
39 3 41 5 42 6 -44 0
39 3 41 5 42 6 -45 0
39 3 41 5 42 6 -40 0
39 3 41 5 42 6 -46 0
39 13 43 11 41 9 -78 0
39 13 43 11 41 9 -77 0
39 13 43 11 41 9 -80 0
39 13 43 11 41 9 -79 0
39 13 43 11 41 42 -78 0
39 13 43 11 41 42 -77 0
39 13 43 11 41 42 -80 0
39 13 43 11 41 42 -79 0
39 13 43 11 9 12 -78 0
39 13 43 11 9 12 -77 0
39 13 43 11 9 12 -80 0
39 13 43 11 9 12 -79 0
39 13 43 11 42 12 -78 0
39 13 43 11 42 12 -77 0
39 13 43 11 42 12 -80 0
39 13 43 11 42 12 -79 0
39 13 43 41 9 42 -78 0
39 13 43 41 9 42 -77 0
39 13 43 41 9 42 -80 0
39 13 43 41 9 42 -79 0
39 13 43 41 42 12 -78 0
39 13 43 41 42 12 -77 0
39 13 43 41 42 12 -80 0
39 13 43 41 42 12 -79 0
39 13 11 41 9 12 -78 0
39 13 11 41 9 12 -77 0
39 13 11 41 9 12 -80 0
39 13 11 41 9 12 -79 0
39 13 11 9 42 12 -78 0
39 13 11 9 42 12 -77 0
39 13 11 9 42 12 -80 0
39 13 11 9 42 12 -79 0
39 13 41 9 42 12 -78 0
39 13 41 9 42 12 -77 0
39 13 41 9 42 12 -80 0
39 13 41 9 42 12 -79 0
39 54 43 53 41 52 -147 0
39 54 43 53 41 52 -145 0
39 54 43 53 41 52 -148 0
39 54 43 53 41 52 -146 0
39 54 43 53 41 42 -147 0
39 54 43 53 41 42 -145 0
39 54 43 53 41 42 -148 0
39 54 43 53 41 42 -146 0
39 54 43 53 52 47 -147 0
39 54 43 53 52 47 -145 0
39 54 43 53 52 47 -148 0
39 54 43 53 52 47 -146 0
39 54 43 53 42 47 -147 0
39 54 43 53 42 47 -145 0
39 54 43 53 42 47 -148 0
39 54 43 53 42 47 -146 0
39 54 43 41 52 42 -147 0
39 54 43 41 52 42 -145 0
39 54 43 41 52 42 -148 0
39 54 43 41 52 42 -146 0
39 54 43 41 42 47 -147 0
39 54 43 41 42 47 -145 0
39 54 43 41 42 47 -148 0
39 54 43 41 42 47 -146 0
39 54 53 41 52 47 -147 0
39 54 53 41 52 47 -145 0
39 54 53 41 52 47 -148 0
39 54 53 41 52 47 -146 0
39 54 53 52 42 47 -147 0
39 54 53 52 42 47 -145 0
39 54 53 52 42 47 -148 0
39 54 53 52 42 47 -146 0
39 54 41 52 42 47 -147 0
39 54 41 52 42 47 -145 0
39 54 41 52 42 47 -148 0
39 54 41 52 42 47 -146 0
39 58 43 59 41 57 -150 0
39 58 43 59 41 57 -149 0
39 58 43 59 41 57 -152 0
39 58 43 59 41 57 -151 0
39 58 43 59 41 42 -150 0
39 58 43 59 41 42 -149 0
39 58 43 59 41 42 -152 0
39 58 43 59 41 42 -151 0
39 58 43 59 57 61 -150 0
39 58 43 59 57 61 -149 0
39 58 43 59 57 61 -152 0
39 58 43 59 57 61 -151 0
39 58 43 59 42 61 -150 0
39 58 43 59 42 61 -149 0
39 58 43 59 42 61 -152 0
39 58 43 59 42 61 -151 0
39 58 43 41 57 42 -150 0
39 58 43 41 57 42 -149 0
39 58 43 41 57 42 -152 0
39 58 43 41 57 42 -151 0
39 58 43 41 42 61 -150 0
39 58 43 41 42 61 -149 0
39 58 43 41 42 61 -152 0
39 58 43 41 42 61 -151 0
39 58 59 41 57 61 -150 0
39 58 59 41 57 61 -149 0
39 58 59 41 57 61 -152 0
39 58 59 41 57 61 -151 0
39 58 59 57 42 61 -150 0
39 58 59 57 42 61 -149 0
39 58 59 57 42 61 -152 0
39 58 59 57 42 61 -151 0
39 58 41 57 42 61 -150 0
39 58 41 57 42 61 -149 0
39 58 41 57 42 61 -152 0
39 58 41 57 42 61 -151 0
39 30 43 27 41 42 -118 0
39 30 43 27 41 42 -119 0
39 30 43 27 41 42 -117 0
39 30 43 27 41 42 -120 0
39 30 43 41 23 42 -118 0
39 30 43 41 23 42 -119 0
39 30 43 41 23 42 -117 0
39 30 43 41 23 42 -120 0
39 32 43 34 41 42 -133 0
39 32 43 34 41 42 -131 0
39 32 43 34 41 42 -134 0
39 32 43 34 41 42 -132 0
39 32 43 41 31 42 -133 0
39 32 43 41 31 42 -131 0
39 32 43 41 31 42 -134 0
39 32 43 41 31 42 -132 0
39 43 17 41 16 42 -101 0
39 43 17 41 16 42 -100 0
39 43 17 41 16 42 -102 0
39 43 17 41 16 42 -99 0
39 43 17 41 42 19 -101 0
39 43 17 41 42 19 -100 0
39 43 17 41 42 19 -102 0
39 43 17 41 42 19 -99 0
39 43 1 41 5 42 -44 0
39 43 1 41 5 42 -45 0
39 43 1 41 5 42 -40 0
39 43 1 41 5 42 -46 0
39 43 1 41 42 6 -44 0
39 43 1 41 42 6 -45 0
39 43 1 41 42 6 -40 0
39 43 1 41 42 6 -46 0
39 43 11 41 9 42 -78 0
39 43 11 41 9 42 -77 0
39 43 11 41 9 42 -80 0
39 43 11 41 9 42 -79 0
39 43 11 41 42 12 -78 0
39 43 11 41 42 12 -77 0
39 43 11 41 42 12 -80 0
39 43 11 41 42 12 -79 0
39 43 53 41 52 42 -147 0
39 43 53 41 52 42 -145 0
39 43 53 41 52 42 -148 0
39 43 53 41 52 42 -146 0
39 43 53 41 42 47 -147 0
39 43 53 41 42 47 -145 0
39 43 53 41 42 47 -148 0
39 43 53 41 42 47 -146 0
39 43 59 41 57 42 -150 0
39 43 59 41 57 42 -149 0
39 43 59 41 57 42 -152 0
39 43 59 41 57 42 -151 0
39 43 59 41 42 61 -150 0
39 43 59 41 42 61 -149 0
39 43 59 41 42 61 -152 0
39 43 59 41 42 61 -151 0
39 43 27 41 23 42 -118 0
39 43 27 41 23 42 -119 0
39 43 27 41 23 42 -117 0
39 43 27 41 23 42 -120 0
39 43 34 41 31 42 -133 0
39 43 34 41 31 42 -131 0
39 43 34 41 31 42 -134 0
39 43 34 41 31 42 -132 0
39 43 41 16 42 19 -101 0
39 43 41 16 42 19 -100 0
39 43 41 16 42 19 -102 0
39 43 41 16 42 19 -99 0
39 43 41 5 42 6 -44 0
39 43 41 5 42 6 -45 0
39 43 41 5 42 6 -40 0
39 43 41 5 42 6 -46 0
39 43 41 9 42 12 -78 0
39 43 41 9 42 12 -77 0
39 43 41 9 42 12 -80 0
39 43 41 9 42 12 -79 0
39 43 41 52 42 47 -147 0
39 43 41 52 42 47 -145 0
39 43 41 52 42 47 -148 0
39 43 41 52 42 47 -146 0
39 43 41 57 42 61 -150 0
39 43 41 57 42 61 -149 0
39 43 41 57 42 61 -152 0
39 43 41 57 42 61 -151 0
21 3 17 1 16 5 -18 0
21 3 17 1 16 5 -20 0
21 3 17 1 16 5 -15 0
21 3 17 1 16 5 -22 0
21 3 17 1 16 19 -18 0
21 3 17 1 16 19 -20 0
21 3 17 1 16 19 -15 0
21 3 17 1 16 19 -22 0
21 3 17 1 5 6 -18 0
21 3 17 1 5 6 -20 0
21 3 17 1 5 6 -15 0
21 3 17 1 5 6 -22 0
21 3 17 1 19 6 -18 0
21 3 17 1 19 6 -20 0
21 3 17 1 19 6 -15 0
21 3 17 1 19 6 -22 0
21 3 17 16 5 19 -18 0
21 3 17 16 5 19 -20 0
21 3 17 16 5 19 -15 0
21 3 17 16 5 19 -22 0
21 3 17 16 19 6 -18 0
21 3 17 16 19 6 -20 0
21 3 17 16 19 6 -15 0
21 3 17 16 19 6 -22 0
21 3 1 16 5 6 -18 0
21 3 1 16 5 6 -20 0
21 3 1 16 5 6 -15 0
21 3 1 16 5 6 -22 0
21 3 1 5 19 6 -18 0
21 3 1 5 19 6 -20 0
21 3 1 5 19 6 -15 0
21 3 1 5 19 6 -22 0
21 3 16 5 19 6 -18 0
21 3 16 5 19 6 -20 0
21 3 16 5 19 6 -15 0
21 3 16 5 19 6 -22 0
21 13 17 11 16 9 -67 0
21 13 17 11 16 9 -65 0
21 13 17 11 16 9 -66 0
21 13 17 11 16 9 -68 0
21 13 17 11 16 19 -67 0
21 13 17 11 16 19 -65 0
21 13 17 11 16 19 -66 0
21 13 17 11 16 19 -68 0
21 13 17 11 9 12 -67 0
21 13 17 11 9 12 -65 0
21 13 17 11 9 12 -66 0
21 13 17 11 9 12 -68 0
21 13 17 11 19 12 -67 0
21 13 17 11 19 12 -65 0
21 13 17 11 19 12 -66 0
21 13 17 11 19 12 -68 0
21 13 17 16 9 19 -67 0
21 13 17 16 9 19 -65 0
21 13 17 16 9 19 -66 0
21 13 17 16 9 19 -68 0
21 13 17 16 19 12 -67 0
21 13 17 16 19 12 -65 0
21 13 17 16 19 12 -66 0
21 13 17 16 19 12 -68 0
21 13 11 16 9 12 -67 0
21 13 11 16 9 12 -65 0
21 13 11 16 9 12 -66 0
21 13 11 16 9 12 -68 0
21 13 11 9 19 12 -67 0
21 13 11 9 19 12 -65 0
21 13 11 9 19 12 -66 0
21 13 11 9 19 12 -68 0
21 13 16 9 19 12 -67 0
21 13 16 9 19 12 -65 0
21 13 16 9 19 12 -66 0
21 13 16 9 19 12 -68 0
21 54 17 53 16 52 -106 0
21 54 17 53 16 52 -104 0
21 54 17 53 16 52 -105 0
21 54 17 53 16 52 -103 0
21 54 17 53 16 19 -106 0
21 54 17 53 16 19 -104 0
21 54 17 53 16 19 -105 0
21 54 17 53 16 19 -103 0
21 54 17 53 52 47 -106 0
21 54 17 53 52 47 -104 0
21 54 17 53 52 47 -105 0
21 54 17 53 52 47 -103 0
21 54 17 53 19 47 -106 0
21 54 17 53 19 47 -104 0
21 54 17 53 19 47 -105 0
21 54 17 53 19 47 -103 0
21 54 17 16 52 19 -106 0
21 54 17 16 52 19 -104 0
21 54 17 16 52 19 -105 0
21 54 17 16 52 19 -103 0
21 54 17 16 19 47 -106 0
21 54 17 16 19 47 -104 0
21 54 17 16 19 47 -105 0
21 54 17 16 19 47 -103 0
21 54 53 16 52 47 -106 0
21 54 53 16 52 47 -104 0
21 54 53 16 52 47 -105 0
21 54 53 16 52 47 -103 0
21 54 53 52 19 47 -106 0
21 54 53 52 19 47 -104 0
21 54 53 52 19 47 -105 0
21 54 53 52 19 47 -103 0
21 54 16 52 19 47 -106 0
21 54 16 52 19 47 -104 0
21 54 16 52 19 47 -105 0
21 54 16 52 19 47 -103 0
21 58 17 59 16 57 -110 0
21 58 17 59 16 57 -107 0
21 58 17 59 16 57 -109 0
21 58 17 59 16 57 -108 0
21 58 17 59 16 19 -110 0
21 58 17 59 16 19 -107 0
21 58 17 59 16 19 -109 0
21 58 17 59 16 19 -108 0
21 58 17 59 57 61 -110 0
21 58 17 59 57 61 -107 0
21 58 17 59 57 61 -109 0
21 58 17 59 57 61 -108 0
21 58 17 59 19 61 -110 0
21 58 17 59 19 61 -107 0
21 58 17 59 19 61 -109 0
21 58 17 59 19 61 -108 0
21 58 17 16 57 19 -110 0
21 58 17 16 57 19 -107 0
21 58 17 16 57 19 -109 0
21 58 17 16 57 19 -108 0
21 58 17 16 19 61 -110 0
21 58 17 16 19 61 -107 0
21 58 17 16 19 61 -109 0
21 58 17 16 19 61 -108 0
21 58 59 16 57 61 -110 0
21 58 59 16 57 61 -107 0
21 58 59 16 57 61 -109 0
21 58 59 16 57 61 -108 0
21 58 59 57 19 61 -110 0
21 58 59 57 19 61 -107 0
21 58 59 57 19 61 -109 0
21 58 59 57 19 61 -108 0
21 58 16 57 19 61 -110 0
21 58 16 57 19 61 -107 0
21 58 16 57 19 61 -109 0
21 58 16 57 19 61 -108 0
21 30 17 27 16 19 -94 0
21 30 17 27 16 19 -92 0
21 30 17 27 16 19 -93 0
21 30 17 27 16 19 -91 0
21 30 17 16 23 19 -94 0
21 30 17 16 23 19 -92 0
21 30 17 16 23 19 -93 0
21 30 17 16 23 19 -91 0
21 32 17 34 16 19 -98 0
21 32 17 34 16 19 -96 0
21 32 17 34 16 19 -97 0
21 32 17 34 16 19 -95 0
21 32 17 16 31 19 -98 0
21 32 17 16 31 19 -96 0
21 32 17 16 31 19 -97 0
21 32 17 16 31 19 -95 0
21 43 17 41 16 19 -101 0
21 43 17 41 16 19 -100 0
21 43 17 41 16 19 -102 0
21 43 17 41 16 19 -99 0
21 43 17 16 42 19 -101 0
21 43 17 16 42 19 -100 0
21 43 17 16 42 19 -102 0
21 43 17 16 42 19 -99 0
21 17 1 16 5 19 -18 0
21 17 1 16 5 19 -20 0
21 17 1 16 5 19 -15 0
21 17 1 16 5 19 -22 0
21 17 1 16 19 6 -18 0
21 17 1 16 19 6 -20 0
21 17 1 16 19 6 -15 0
21 17 1 16 19 6 -22 0
21 17 11 16 9 19 -67 0
21 17 11 16 9 19 -65 0
21 17 11 16 9 19 -66 0
21 17 11 16 9 19 -68 0
21 17 11 16 19 12 -67 0
21 17 11 16 19 12 -65 0
21 17 11 16 19 12 -66 0
21 17 11 16 19 12 -68 0
21 17 53 16 52 19 -106 0
21 17 53 16 52 19 -104 0
21 17 53 16 52 19 -105 0
21 17 53 16 52 19 -103 0
21 17 53 16 19 47 -106 0
21 17 53 16 19 47 -104 0
21 17 53 16 19 47 -105 0
21 17 53 16 19 47 -103 0
21 17 59 16 57 19 -110 0
21 17 59 16 57 19 -107 0
21 17 59 16 57 19 -109 0
21 17 59 16 57 19 -108 0
21 17 59 16 19 61 -110 0
21 17 59 16 19 61 -107 0
21 17 59 16 19 61 -109 0
21 17 59 16 19 61 -108 0
21 17 27 16 23 19 -94 0
21 17 27 16 23 19 -92 0
21 17 27 16 23 19 -93 0
21 17 27 16 23 19 -91 0
21 17 34 16 31 19 -98 0
21 17 34 16 31 19 -96 0
21 17 34 16 31 19 -97 0
21 17 34 16 31 19 -95 0
21 17 41 16 42 19 -101 0
21 17 41 16 42 19 -100 0
21 17 41 16 42 19 -102 0
21 17 41 16 42 19 -99 0
21 17 16 5 19 6 -18 0
21 17 16 5 19 6 -20 0
21 17 16 5 19 6 -15 0
21 17 16 5 19 6 -22 0
21 17 16 9 19 12 -67 0
21 17 16 9 19 12 -65 0
21 17 16 9 19 12 -66 0
21 17 16 9 19 12 -68 0
21 17 16 52 19 47 -106 0
21 17 16 52 19 47 -104 0
21 17 16 52 19 47 -105 0
21 17 16 52 19 47 -103 0
21 17 16 57 19 61 -110 0
21 17 16 57 19 61 -107 0
21 17 16 57 19 61 -109 0
21 17 16 57 19 61 -108 0
3 13 1 11 5 9 -7 0
3 13 1 11 5 9 -8 0
3 13 1 11 5 9 -10 0
3 13 1 11 5 9 -14 0
3 13 1 11 5 6 -7 0
3 13 1 11 5 6 -8 0
3 13 1 11 5 6 -10 0
3 13 1 11 5 6 -14 0
3 13 1 11 9 12 -7 0
3 13 1 11 9 12 -8 0
3 13 1 11 9 12 -10 0
3 13 1 11 9 12 -14 0
3 13 1 11 6 12 -7 0
3 13 1 11 6 12 -8 0
3 13 1 11 6 12 -10 0
3 13 1 11 6 12 -14 0
3 13 1 5 9 6 -7 0
3 13 1 5 9 6 -8 0
3 13 1 5 9 6 -10 0
3 13 1 5 9 6 -14 0
3 13 1 5 6 12 -7 0
3 13 1 5 6 12 -8 0
3 13 1 5 6 12 -10 0
3 13 1 5 6 12 -14 0
3 13 11 5 9 12 -7 0
3 13 11 5 9 12 -8 0
3 13 11 5 9 12 -10 0
3 13 11 5 9 12 -14 0
3 13 11 9 6 12 -7 0
3 13 11 9 6 12 -8 0
3 13 11 9 6 12 -10 0
3 13 11 9 6 12 -14 0
3 13 5 9 6 12 -7 0
3 13 5 9 6 12 -8 0
3 13 5 9 6 12 -10 0
3 13 5 9 6 12 -14 0
3 54 1 53 5 52 -48 0
3 54 1 53 5 52 -51 0
3 54 1 53 5 52 -50 0
3 54 1 53 5 52 -49 0
3 54 1 53 5 6 -48 0
3 54 1 53 5 6 -51 0
3 54 1 53 5 6 -50 0
3 54 1 53 5 6 -49 0
3 54 1 53 52 47 -48 0
3 54 1 53 52 47 -51 0
3 54 1 53 52 47 -50 0
3 54 1 53 52 47 -49 0
3 54 1 53 6 47 -48 0
3 54 1 53 6 47 -51 0
3 54 1 53 6 47 -50 0
3 54 1 53 6 47 -49 0
3 54 1 5 52 6 -48 0
3 54 1 5 52 6 -51 0
3 54 1 5 52 6 -50 0
3 54 1 5 52 6 -49 0
3 54 1 5 6 47 -48 0
3 54 1 5 6 47 -51 0
3 54 1 5 6 47 -50 0
3 54 1 5 6 47 -49 0
3 54 53 5 52 47 -48 0
3 54 53 5 52 47 -51 0
3 54 53 5 52 47 -50 0
3 54 53 5 52 47 -49 0
3 54 53 52 6 47 -48 0
3 54 53 52 6 47 -51 0
3 54 53 52 6 47 -50 0
3 54 53 52 6 47 -49 0
3 54 5 52 6 47 -48 0
3 54 5 52 6 47 -51 0
3 54 5 52 6 47 -50 0
3 54 5 52 6 47 -49 0
3 58 1 59 5 57 -55 0
3 58 1 59 5 57 -60 0
3 58 1 59 5 57 -62 0
3 58 1 59 5 57 -56 0
3 58 1 59 5 6 -55 0
3 58 1 59 5 6 -60 0
3 58 1 59 5 6 -62 0
3 58 1 59 5 6 -56 0
3 58 1 59 57 61 -55 0
3 58 1 59 57 61 -60 0
3 58 1 59 57 61 -62 0
3 58 1 59 57 61 -56 0
3 58 1 59 6 61 -55 0
3 58 1 59 6 61 -60 0
3 58 1 59 6 61 -62 0
3 58 1 59 6 61 -56 0
3 58 1 5 57 6 -55 0
3 58 1 5 57 6 -60 0
3 58 1 5 57 6 -62 0
3 58 1 5 57 6 -56 0
3 58 1 5 6 61 -55 0
3 58 1 5 6 61 -60 0
3 58 1 5 6 61 -62 0
3 58 1 5 6 61 -56 0
3 58 59 5 57 61 -55 0
3 58 59 5 57 61 -60 0
3 58 59 5 57 61 -62 0
3 58 59 5 57 61 -56 0
3 58 59 57 6 61 -55 0
3 58 59 57 6 61 -60 0
3 58 59 57 6 61 -62 0
3 58 59 57 6 61 -56 0
3 58 5 57 6 61 -55 0
3 58 5 57 6 61 -60 0
3 58 5 57 6 61 -62 0
3 58 5 57 6 61 -56 0
3 30 1 27 5 6 -25 0
3 30 1 27 5 6 -26 0
3 30 1 27 5 6 -28 0
3 30 1 27 5 6 -24 0
3 30 1 5 23 6 -25 0
3 30 1 5 23 6 -26 0
3 30 1 5 23 6 -28 0
3 30 1 5 23 6 -24 0
3 32 1 34 5 6 -36 0
3 32 1 34 5 6 -33 0
3 32 1 34 5 6 -37 0
3 32 1 34 5 6 -35 0
3 32 1 5 31 6 -36 0
3 32 1 5 31 6 -33 0
3 32 1 5 31 6 -37 0
3 32 1 5 31 6 -35 0
3 43 1 41 5 6 -44 0
3 43 1 41 5 6 -45 0
3 43 1 41 5 6 -40 0
3 43 1 41 5 6 -46 0
3 43 1 5 42 6 -44 0
3 43 1 5 42 6 -45 0
3 43 1 5 42 6 -40 0
3 43 1 5 42 6 -46 0
3 17 1 16 5 6 -18 0
3 17 1 16 5 6 -20 0
3 17 1 16 5 6 -15 0
3 17 1 16 5 6 -22 0
3 17 1 5 19 6 -18 0
3 17 1 5 19 6 -20 0
3 17 1 5 19 6 -15 0
3 17 1 5 19 6 -22 0
3 1 11 5 9 6 -7 0
3 1 11 5 9 6 -8 0
3 1 11 5 9 6 -10 0
3 1 11 5 9 6 -14 0
3 1 11 5 6 12 -7 0
3 1 11 5 6 12 -8 0
3 1 11 5 6 12 -10 0
3 1 11 5 6 12 -14 0
3 1 53 5 52 6 -48 0
3 1 53 5 52 6 -51 0
3 1 53 5 52 6 -50 0
3 1 53 5 52 6 -49 0
3 1 53 5 6 47 -48 0
3 1 53 5 6 47 -51 0
3 1 53 5 6 47 -50 0
3 1 53 5 6 47 -49 0
3 1 59 5 57 6 -55 0
3 1 59 5 57 6 -60 0
3 1 59 5 57 6 -62 0
3 1 59 5 57 6 -56 0
3 1 59 5 6 61 -55 0
3 1 59 5 6 61 -60 0
3 1 59 5 6 61 -62 0
3 1 59 5 6 61 -56 0
3 1 27 5 23 6 -25 0
3 1 27 5 23 6 -26 0
3 1 27 5 23 6 -28 0
3 1 27 5 23 6 -24 0
3 1 34 5 31 6 -36 0
3 1 34 5 31 6 -33 0
3 1 34 5 31 6 -37 0
3 1 34 5 31 6 -35 0
3 1 41 5 42 6 -44 0
3 1 41 5 42 6 -45 0
3 1 41 5 42 6 -40 0
3 1 41 5 42 6 -46 0
3 1 16 5 19 6 -18 0
3 1 16 5 19 6 -20 0
3 1 16 5 19 6 -15 0
3 1 16 5 19 6 -22 0
3 1 5 9 6 12 -7 0
3 1 5 9 6 12 -8 0
3 1 5 9 6 12 -10 0
3 1 5 9 6 12 -14 0
3 1 5 52 6 47 -48 0
3 1 5 52 6 47 -51 0
3 1 5 52 6 47 -50 0
3 1 5 52 6 47 -49 0
3 1 5 57 6 61 -55 0
3 1 5 57 6 61 -60 0
3 1 5 57 6 61 -62 0
3 1 5 57 6 61 -56 0
13 54 11 53 9 52 -81 0
13 54 11 53 9 52 -84 0
13 54 11 53 9 52 -82 0
13 54 11 53 9 52 -83 0
13 54 11 53 9 12 -81 0
13 54 11 53 9 12 -84 0
13 54 11 53 9 12 -82 0
13 54 11 53 9 12 -83 0
13 54 11 53 52 47 -81 0
13 54 11 53 52 47 -84 0
13 54 11 53 52 47 -82 0
13 54 11 53 52 47 -83 0
13 54 11 53 12 47 -81 0
13 54 11 53 12 47 -84 0
13 54 11 53 12 47 -82 0
13 54 11 53 12 47 -83 0
13 54 11 9 52 12 -81 0
13 54 11 9 52 12 -84 0
13 54 11 9 52 12 -82 0
13 54 11 9 52 12 -83 0
13 54 11 9 12 47 -81 0
13 54 11 9 12 47 -84 0
13 54 11 9 12 47 -82 0
13 54 11 9 12 47 -83 0
13 54 53 9 52 47 -81 0
13 54 53 9 52 47 -84 0
13 54 53 9 52 47 -82 0
13 54 53 9 52 47 -83 0
13 54 53 52 12 47 -81 0
13 54 53 52 12 47 -84 0
13 54 53 52 12 47 -82 0
13 54 53 52 12 47 -83 0
13 54 9 52 12 47 -81 0
13 54 9 52 12 47 -84 0
13 54 9 52 12 47 -82 0
13 54 9 52 12 47 -83 0
13 58 11 59 9 57 -86 0
13 58 11 59 9 57 -88 0
13 58 11 59 9 57 -85 0
13 58 11 59 9 57 -87 0
13 58 11 59 9 12 -86 0
13 58 11 59 9 12 -88 0
13 58 11 59 9 12 -85 0
13 58 11 59 9 12 -87 0
13 58 11 59 57 61 -86 0
13 58 11 59 57 61 -88 0
13 58 11 59 57 61 -85 0
13 58 11 59 57 61 -87 0
13 58 11 59 12 61 -86 0
13 58 11 59 12 61 -88 0
13 58 11 59 12 61 -85 0
13 58 11 59 12 61 -87 0
13 58 11 9 57 12 -86 0
13 58 11 9 57 12 -88 0
13 58 11 9 57 12 -85 0
13 58 11 9 57 12 -87 0
13 58 11 9 12 61 -86 0
13 58 11 9 12 61 -88 0
13 58 11 9 12 61 -85 0
13 58 11 9 12 61 -87 0
13 58 59 9 57 61 -86 0
13 58 59 9 57 61 -88 0
13 58 59 9 57 61 -85 0
13 58 59 9 57 61 -87 0
13 58 59 57 12 61 -86 0
13 58 59 57 12 61 -88 0
13 58 59 57 12 61 -85 0
13 58 59 57 12 61 -87 0
13 58 9 57 12 61 -86 0
13 58 9 57 12 61 -88 0
13 58 9 57 12 61 -85 0
13 58 9 57 12 61 -87 0
13 30 11 27 9 12 -70 0
13 30 11 27 9 12 -72 0
13 30 11 27 9 12 -69 0
13 30 11 27 9 12 -71 0
13 30 11 9 23 12 -70 0
13 30 11 9 23 12 -72 0
13 30 11 9 23 12 -69 0
13 30 11 9 23 12 -71 0
13 32 11 34 9 12 -73 0
13 32 11 34 9 12 -75 0
13 32 11 34 9 12 -74 0
13 32 11 34 9 12 -76 0
13 32 11 9 31 12 -73 0
13 32 11 9 31 12 -75 0
13 32 11 9 31 12 -74 0
13 32 11 9 31 12 -76 0
13 43 11 41 9 12 -78 0
13 43 11 41 9 12 -77 0
13 43 11 41 9 12 -80 0
13 43 11 41 9 12 -79 0
13 43 11 9 42 12 -78 0
13 43 11 9 42 12 -77 0
13 43 11 9 42 12 -80 0
13 43 11 9 42 12 -79 0
13 17 11 16 9 12 -67 0
13 17 11 16 9 12 -65 0
13 17 11 16 9 12 -66 0
13 17 11 16 9 12 -68 0
13 17 11 9 19 12 -67 0
13 17 11 9 19 12 -65 0
13 17 11 9 19 12 -66 0
13 17 11 9 19 12 -68 0
13 1 11 5 9 12 -7 0
13 1 11 5 9 12 -8 0
13 1 11 5 9 12 -10 0
13 1 11 5 9 12 -14 0
13 1 11 9 6 12 -7 0
13 1 11 9 6 12 -8 0
13 1 11 9 6 12 -10 0
13 1 11 9 6 12 -14 0
13 11 53 9 52 12 -81 0
13 11 53 9 52 12 -84 0
13 11 53 9 52 12 -82 0
13 11 53 9 52 12 -83 0
13 11 53 9 12 47 -81 0
13 11 53 9 12 47 -84 0
13 11 53 9 12 47 -82 0
13 11 53 9 12 47 -83 0
13 11 59 9 57 12 -86 0
13 11 59 9 57 12 -88 0
13 11 59 9 57 12 -85 0
13 11 59 9 57 12 -87 0
13 11 59 9 12 61 -86 0
13 11 59 9 12 61 -88 0
13 11 59 9 12 61 -85 0
13 11 59 9 12 61 -87 0
13 11 27 9 23 12 -70 0
13 11 27 9 23 12 -72 0
13 11 27 9 23 12 -69 0
13 11 27 9 23 12 -71 0
13 11 34 9 31 12 -73 0
13 11 34 9 31 12 -75 0
13 11 34 9 31 12 -74 0
13 11 34 9 31 12 -76 0
13 11 41 9 42 12 -78 0
13 11 41 9 42 12 -77 0
13 11 41 9 42 12 -80 0
13 11 41 9 42 12 -79 0
13 11 16 9 19 12 -67 0
13 11 16 9 19 12 -65 0
13 11 16 9 19 12 -66 0
13 11 16 9 19 12 -68 0
13 11 5 9 6 12 -7 0
13 11 5 9 6 12 -8 0
13 11 5 9 6 12 -10 0
13 11 5 9 6 12 -14 0
13 11 9 52 12 47 -81 0
13 11 9 52 12 47 -84 0
13 11 9 52 12 47 -82 0
13 11 9 52 12 47 -83 0
13 11 9 57 12 61 -86 0
13 11 9 57 12 61 -88 0
13 11 9 57 12 61 -85 0
13 11 9 57 12 61 -87 0
54 58 53 59 52 57 -155 0
54 58 53 59 52 57 -157 0
54 58 53 59 52 57 -158 0
54 58 53 59 52 57 -156 0
54 58 53 59 52 47 -155 0
54 58 53 59 52 47 -157 0
54 58 53 59 52 47 -158 0
54 58 53 59 52 47 -156 0
54 58 53 59 57 61 -155 0
54 58 53 59 57 61 -157 0
54 58 53 59 57 61 -158 0
54 58 53 59 57 61 -156 0
54 58 53 59 47 61 -155 0
54 58 53 59 47 61 -157 0
54 58 53 59 47 61 -158 0
54 58 53 59 47 61 -156 0
54 58 53 52 57 47 -155 0
54 58 53 52 57 47 -157 0
54 58 53 52 57 47 -158 0
54 58 53 52 57 47 -156 0
54 58 53 52 47 61 -155 0
54 58 53 52 47 61 -157 0
54 58 53 52 47 61 -158 0
54 58 53 52 47 61 -156 0
54 58 59 52 57 61 -155 0
54 58 59 52 57 61 -157 0
54 58 59 52 57 61 -158 0
54 58 59 52 57 61 -156 0
54 58 59 57 47 61 -155 0
54 58 59 57 47 61 -157 0
54 58 59 57 47 61 -158 0
54 58 59 57 47 61 -156 0
54 58 52 57 47 61 -155 0
54 58 52 57 47 61 -157 0
54 58 52 57 47 61 -158 0
54 58 52 57 47 61 -156 0
54 30 53 27 52 47 -121 0
54 30 53 27 52 47 -122 0
54 30 53 27 52 47 -124 0
54 30 53 27 52 47 -123 0
54 30 53 52 23 47 -121 0
54 30 53 52 23 47 -122 0
54 30 53 52 23 47 -124 0
54 30 53 52 23 47 -123 0
54 32 53 34 52 47 -138 0
54 32 53 34 52 47 -136 0
54 32 53 34 52 47 -137 0
54 32 53 34 52 47 -135 0
54 32 53 52 31 47 -138 0
54 32 53 52 31 47 -136 0
54 32 53 52 31 47 -137 0
54 32 53 52 31 47 -135 0
54 43 53 41 52 47 -147 0
54 43 53 41 52 47 -145 0
54 43 53 41 52 47 -148 0
54 43 53 41 52 47 -146 0
54 43 53 52 42 47 -147 0
54 43 53 52 42 47 -145 0
54 43 53 52 42 47 -148 0
54 43 53 52 42 47 -146 0
54 17 53 16 52 47 -106 0
54 17 53 16 52 47 -104 0
54 17 53 16 52 47 -105 0
54 17 53 16 52 47 -103 0
54 17 53 52 19 47 -106 0
54 17 53 52 19 47 -104 0
54 17 53 52 19 47 -105 0
54 17 53 52 19 47 -103 0
54 1 53 5 52 47 -48 0
54 1 53 5 52 47 -51 0
54 1 53 5 52 47 -50 0
54 1 53 5 52 47 -49 0
54 1 53 52 6 47 -48 0
54 1 53 52 6 47 -51 0
54 1 53 52 6 47 -50 0
54 1 53 52 6 47 -49 0
54 11 53 9 52 47 -81 0
54 11 53 9 52 47 -84 0
54 11 53 9 52 47 -82 0
54 11 53 9 52 47 -83 0
54 11 53 52 12 47 -81 0
54 11 53 52 12 47 -84 0
54 11 53 52 12 47 -82 0
54 11 53 52 12 47 -83 0
54 53 59 52 57 47 -155 0
54 53 59 52 57 47 -157 0
54 53 59 52 57 47 -158 0
54 53 59 52 57 47 -156 0
54 53 59 52 47 61 -155 0
54 53 59 52 47 61 -157 0
54 53 59 52 47 61 -158 0
54 53 59 52 47 61 -156 0
54 53 27 52 23 47 -121 0
54 53 27 52 23 47 -122 0
54 53 27 52 23 47 -124 0
54 53 27 52 23 47 -123 0
54 53 34 52 31 47 -138 0
54 53 34 52 31 47 -136 0
54 53 34 52 31 47 -137 0
54 53 34 52 31 47 -135 0
54 53 41 52 42 47 -147 0
54 53 41 52 42 47 -145 0
54 53 41 52 42 47 -148 0
54 53 41 52 42 47 -146 0
54 53 16 52 19 47 -106 0
54 53 16 52 19 47 -104 0
54 53 16 52 19 47 -105 0
54 53 16 52 19 47 -103 0
54 53 5 52 6 47 -48 0
54 53 5 52 6 47 -51 0
54 53 5 52 6 47 -50 0
54 53 5 52 6 47 -49 0
54 53 9 52 12 47 -81 0
54 53 9 52 12 47 -84 0
54 53 9 52 12 47 -82 0
54 53 9 52 12 47 -83 0
54 53 52 57 47 61 -155 0
54 53 52 57 47 61 -157 0
54 53 52 57 47 61 -158 0
54 53 52 57 47 61 -156 0
58 30 59 27 57 61 -128 0
58 30 59 27 57 61 -125 0
58 30 59 27 57 61 -127 0
58 30 59 27 57 61 -126 0
58 30 59 57 23 61 -128 0
58 30 59 57 23 61 -125 0
58 30 59 57 23 61 -127 0
58 30 59 57 23 61 -126 0
58 32 59 34 57 61 -140 0
58 32 59 34 57 61 -142 0
58 32 59 34 57 61 -139 0
58 32 59 34 57 61 -141 0
58 32 59 57 31 61 -140 0
58 32 59 57 31 61 -142 0
58 32 59 57 31 61 -139 0
58 32 59 57 31 61 -141 0
58 43 59 41 57 61 -150 0
58 43 59 41 57 61 -149 0
58 43 59 41 57 61 -152 0
58 43 59 41 57 61 -151 0
58 43 59 57 42 61 -150 0
58 43 59 57 42 61 -149 0
58 43 59 57 42 61 -152 0
58 43 59 57 42 61 -151 0
58 17 59 16 57 61 -110 0
58 17 59 16 57 61 -107 0
58 17 59 16 57 61 -109 0
58 17 59 16 57 61 -108 0
58 17 59 57 19 61 -110 0
58 17 59 57 19 61 -107 0
58 17 59 57 19 61 -109 0
58 17 59 57 19 61 -108 0
58 1 59 5 57 61 -55 0
58 1 59 5 57 61 -60 0
58 1 59 5 57 61 -62 0
58 1 59 5 57 61 -56 0
58 1 59 57 6 61 -55 0
58 1 59 57 6 61 -60 0
58 1 59 57 6 61 -62 0
58 1 59 57 6 61 -56 0
58 11 59 9 57 61 -86 0
58 11 59 9 57 61 -88 0
58 11 59 9 57 61 -85 0
58 11 59 9 57 61 -87 0
58 11 59 57 12 61 -86 0
58 11 59 57 12 61 -88 0
58 11 59 57 12 61 -85 0
58 11 59 57 12 61 -87 0
58 53 59 52 57 61 -155 0
58 53 59 52 57 61 -157 0
58 53 59 52 57 61 -158 0
58 53 59 52 57 61 -156 0
58 53 59 57 47 61 -155 0
58 53 59 57 47 61 -157 0
58 53 59 57 47 61 -158 0
58 53 59 57 47 61 -156 0
58 59 27 57 23 61 -128 0
58 59 27 57 23 61 -125 0
58 59 27 57 23 61 -127 0
58 59 27 57 23 61 -126 0
58 59 34 57 31 61 -140 0
58 59 34 57 31 61 -142 0
58 59 34 57 31 61 -139 0
58 59 34 57 31 61 -141 0
58 59 41 57 42 61 -150 0
58 59 41 57 42 61 -149 0
58 59 41 57 42 61 -152 0
58 59 41 57 42 61 -151 0
58 59 16 57 19 61 -110 0
58 59 16 57 19 61 -107 0
58 59 16 57 19 61 -109 0
58 59 16 57 19 61 -108 0
58 59 5 57 6 61 -55 0
58 59 5 57 6 61 -60 0
58 59 5 57 6 61 -62 0
58 59 5 57 6 61 -56 0
58 59 9 57 12 61 -86 0
58 59 9 57 12 61 -88 0
58 59 9 57 12 61 -85 0
58 59 9 57 12 61 -87 0
58 59 52 57 47 61 -155 0
58 59 52 57 47 61 -157 0
58 59 52 57 47 61 -158 0
58 59 52 57 47 61 -156 0
30 32 27 34 23 31 -113 0
30 32 27 34 23 31 -116 0
30 32 27 34 23 31 -114 0
30 32 27 34 23 31 -115 0
30 43 27 41 23 42 -118 0
30 43 27 41 23 42 -119 0
30 43 27 41 23 42 -117 0
30 43 27 41 23 42 -120 0
30 17 27 16 23 19 -94 0
30 17 27 16 23 19 -92 0
30 17 27 16 23 19 -93 0
30 17 27 16 23 19 -91 0
30 1 27 5 23 6 -25 0
30 1 27 5 23 6 -26 0
30 1 27 5 23 6 -28 0
30 1 27 5 23 6 -24 0
30 11 27 9 23 12 -70 0
30 11 27 9 23 12 -72 0
30 11 27 9 23 12 -69 0
30 11 27 9 23 12 -71 0
30 53 27 52 23 47 -121 0
30 53 27 52 23 47 -122 0
30 53 27 52 23 47 -124 0
30 53 27 52 23 47 -123 0
30 59 27 57 23 61 -128 0
30 59 27 57 23 61 -125 0
30 59 27 57 23 61 -127 0
30 59 27 57 23 61 -126 0
32 43 34 41 31 42 -133 0
32 43 34 41 31 42 -131 0
32 43 34 41 31 42 -134 0
32 43 34 41 31 42 -132 0
32 17 34 16 31 19 -98 0
32 17 34 16 31 19 -96 0
32 17 34 16 31 19 -97 0
32 17 34 16 31 19 -95 0
32 1 34 5 31 6 -36 0
32 1 34 5 31 6 -33 0
32 1 34 5 31 6 -37 0
32 1 34 5 31 6 -35 0
32 11 34 9 31 12 -73 0
32 11 34 9 31 12 -75 0
32 11 34 9 31 12 -74 0
32 11 34 9 31 12 -76 0
32 53 34 52 31 47 -138 0
32 53 34 52 31 47 -136 0
32 53 34 52 31 47 -137 0
32 53 34 52 31 47 -135 0
32 59 34 57 31 61 -140 0
32 59 34 57 31 61 -142 0
32 59 34 57 31 61 -139 0
32 59 34 57 31 61 -141 0
43 17 41 16 42 19 -101 0
43 17 41 16 42 19 -100 0
43 17 41 16 42 19 -102 0
43 17 41 16 42 19 -99 0
43 1 41 5 42 6 -44 0
43 1 41 5 42 6 -45 0
43 1 41 5 42 6 -40 0
43 1 41 5 42 6 -46 0
43 11 41 9 42 12 -78 0
43 11 41 9 42 12 -77 0
43 11 41 9 42 12 -80 0
43 11 41 9 42 12 -79 0
43 53 41 52 42 47 -147 0
43 53 41 52 42 47 -145 0
43 53 41 52 42 47 -148 0
43 53 41 52 42 47 -146 0
43 59 41 57 42 61 -150 0
43 59 41 57 42 61 -149 0
43 59 41 57 42 61 -152 0
43 59 41 57 42 61 -151 0
17 1 16 5 19 6 -18 0
17 1 16 5 19 6 -20 0
17 1 16 5 19 6 -15 0
17 1 16 5 19 6 -22 0
17 11 16 9 19 12 -67 0
17 11 16 9 19 12 -65 0
17 11 16 9 19 12 -66 0
17 11 16 9 19 12 -68 0
17 53 16 52 19 47 -106 0
17 53 16 52 19 47 -104 0
17 53 16 52 19 47 -105 0
17 53 16 52 19 47 -103 0
17 59 16 57 19 61 -110 0
17 59 16 57 19 61 -107 0
17 59 16 57 19 61 -109 0
17 59 16 57 19 61 -108 0
1 11 5 9 6 12 -7 0
1 11 5 9 6 12 -8 0
1 11 5 9 6 12 -10 0
1 11 5 9 6 12 -14 0
1 53 5 52 6 47 -48 0
1 53 5 52 6 47 -51 0
1 53 5 52 6 47 -50 0
1 53 5 52 6 47 -49 0
1 59 5 57 6 61 -55 0
1 59 5 57 6 61 -60 0
1 59 5 57 6 61 -62 0
1 59 5 57 6 61 -56 0
11 53 9 52 12 47 -81 0
11 53 9 52 12 47 -84 0
11 53 9 52 12 47 -82 0
11 53 9 52 12 47 -83 0
11 59 9 57 12 61 -86 0
11 59 9 57 12 61 -88 0
11 59 9 57 12 61 -85 0
11 59 9 57 12 61 -87 0
53 59 52 57 47 61 -155 0
53 59 52 57 47 61 -157 0
53 59 52 57 47 61 -158 0
53 59 52 57 47 61 -156 0
111 113 118 94 25 70 121 128 0
116 130 133 98 36 73 138 140 0
119 131 143 101 44 78 147 150 0
92 96 100 89 18 67 106 110 0
26 33 45 20 4 7 48 55 0
72 75 77 65 8 64 81 86 0
122 136 145 104 51 84 154 155 0
125 142 149 107 60 88 157 160 0
112 114 117 93 28 69 124 127 0
115 129 134 97 37 74 137 139 0
120 132 144 102 40 80 148 152 0
91 95 99 90 15 66 105 109 0
24 35 46 22 2 10 50 62 0
71 76 79 68 14 63 82 85 0
123 135 146 103 49 83 153 158 0
126 141 151 108 56 87 156 159 0
29 38 30 32 27 34 23 -113 0
29 38 30 32 27 34 23 -116 0
29 38 30 32 27 34 23 -114 0
29 38 30 32 27 34 23 -115 0
29 38 30 32 27 34 31 -113 0
29 38 30 32 27 34 31 -116 0
29 38 30 32 27 34 31 -114 0
29 38 30 32 27 34 31 -115 0
29 38 30 32 27 23 31 -113 0
29 38 30 32 27 23 31 -116 0
29 38 30 32 27 23 31 -114 0
29 38 30 32 27 23 31 -115 0
29 38 30 32 34 23 31 -113 0
29 38 30 32 34 23 31 -116 0
29 38 30 32 34 23 31 -114 0
29 38 30 32 34 23 31 -115 0
29 38 30 27 34 23 31 -113 0
29 38 30 27 34 23 31 -116 0
29 38 30 27 34 23 31 -114 0
29 38 30 27 34 23 31 -115 0
29 38 32 27 34 23 31 -113 0
29 38 32 27 34 23 31 -116 0
29 38 32 27 34 23 31 -114 0
29 38 32 27 34 23 31 -115 0
29 39 30 43 27 41 23 -118 0
29 39 30 43 27 41 23 -119 0
29 39 30 43 27 41 23 -117 0
29 39 30 43 27 41 23 -120 0
29 39 30 43 27 41 42 -118 0
29 39 30 43 27 41 42 -119 0
29 39 30 43 27 41 42 -117 0
29 39 30 43 27 41 42 -120 0
29 39 30 43 27 23 42 -118 0
29 39 30 43 27 23 42 -119 0
29 39 30 43 27 23 42 -117 0
29 39 30 43 27 23 42 -120 0
29 39 30 43 41 23 42 -118 0
29 39 30 43 41 23 42 -119 0
29 39 30 43 41 23 42 -117 0
29 39 30 43 41 23 42 -120 0
29 39 30 27 41 23 42 -118 0
29 39 30 27 41 23 42 -119 0
29 39 30 27 41 23 42 -117 0
29 39 30 27 41 23 42 -120 0
29 39 43 27 41 23 42 -118 0
29 39 43 27 41 23 42 -119 0
29 39 43 27 41 23 42 -117 0
29 39 43 27 41 23 42 -120 0
29 21 30 17 27 16 23 -94 0
29 21 30 17 27 16 23 -92 0
29 21 30 17 27 16 23 -93 0
29 21 30 17 27 16 23 -91 0
29 21 30 17 27 16 19 -94 0
29 21 30 17 27 16 19 -92 0
29 21 30 17 27 16 19 -93 0
29 21 30 17 27 16 19 -91 0
29 21 30 17 27 23 19 -94 0
29 21 30 17 27 23 19 -92 0
29 21 30 17 27 23 19 -93 0
29 21 30 17 27 23 19 -91 0
29 21 30 17 16 23 19 -94 0
29 21 30 17 16 23 19 -92 0
29 21 30 17 16 23 19 -93 0
29 21 30 17 16 23 19 -91 0
29 21 30 27 16 23 19 -94 0
29 21 30 27 16 23 19 -92 0
29 21 30 27 16 23 19 -93 0
29 21 30 27 16 23 19 -91 0
29 21 17 27 16 23 19 -94 0
29 21 17 27 16 23 19 -92 0
29 21 17 27 16 23 19 -93 0
29 21 17 27 16 23 19 -91 0
29 3 30 1 27 5 23 -25 0
29 3 30 1 27 5 23 -26 0
29 3 30 1 27 5 23 -28 0
29 3 30 1 27 5 23 -24 0
29 3 30 1 27 5 6 -25 0
29 3 30 1 27 5 6 -26 0
29 3 30 1 27 5 6 -28 0
29 3 30 1 27 5 6 -24 0
29 3 30 1 27 23 6 -25 0
29 3 30 1 27 23 6 -26 0
29 3 30 1 27 23 6 -28 0
29 3 30 1 27 23 6 -24 0
29 3 30 1 5 23 6 -25 0
29 3 30 1 5 23 6 -26 0
29 3 30 1 5 23 6 -28 0
29 3 30 1 5 23 6 -24 0
29 3 30 27 5 23 6 -25 0
29 3 30 27 5 23 6 -26 0
29 3 30 27 5 23 6 -28 0
29 3 30 27 5 23 6 -24 0
29 3 1 27 5 23 6 -25 0
29 3 1 27 5 23 6 -26 0
29 3 1 27 5 23 6 -28 0
29 3 1 27 5 23 6 -24 0
29 13 30 11 27 9 23 -70 0
29 13 30 11 27 9 23 -72 0
29 13 30 11 27 9 23 -69 0
29 13 30 11 27 9 23 -71 0
29 13 30 11 27 9 12 -70 0
29 13 30 11 27 9 12 -72 0
29 13 30 11 27 9 12 -69 0
29 13 30 11 27 9 12 -71 0
29 13 30 11 27 23 12 -70 0
29 13 30 11 27 23 12 -72 0
29 13 30 11 27 23 12 -69 0
29 13 30 11 27 23 12 -71 0
29 13 30 11 9 23 12 -70 0
29 13 30 11 9 23 12 -72 0
29 13 30 11 9 23 12 -69 0
29 13 30 11 9 23 12 -71 0
29 13 30 27 9 23 12 -70 0
29 13 30 27 9 23 12 -72 0
29 13 30 27 9 23 12 -69 0
29 13 30 27 9 23 12 -71 0
29 13 11 27 9 23 12 -70 0
29 13 11 27 9 23 12 -72 0
29 13 11 27 9 23 12 -69 0
29 13 11 27 9 23 12 -71 0
29 54 30 53 27 52 23 -121 0
29 54 30 53 27 52 23 -122 0
29 54 30 53 27 52 23 -124 0
29 54 30 53 27 52 23 -123 0
29 54 30 53 27 52 47 -121 0
29 54 30 53 27 52 47 -122 0
29 54 30 53 27 52 47 -124 0
29 54 30 53 27 52 47 -123 0
29 54 30 53 27 23 47 -121 0
29 54 30 53 27 23 47 -122 0
29 54 30 53 27 23 47 -124 0
29 54 30 53 27 23 47 -123 0
29 54 30 53 52 23 47 -121 0
29 54 30 53 52 23 47 -122 0
29 54 30 53 52 23 47 -124 0
29 54 30 53 52 23 47 -123 0
29 54 30 27 52 23 47 -121 0
29 54 30 27 52 23 47 -122 0
29 54 30 27 52 23 47 -124 0
29 54 30 27 52 23 47 -123 0
29 54 53 27 52 23 47 -121 0
29 54 53 27 52 23 47 -122 0
29 54 53 27 52 23 47 -124 0
29 54 53 27 52 23 47 -123 0
29 58 30 59 27 57 23 -128 0
29 58 30 59 27 57 23 -125 0
29 58 30 59 27 57 23 -127 0
29 58 30 59 27 57 23 -126 0
29 58 30 59 27 57 61 -128 0
29 58 30 59 27 57 61 -125 0
29 58 30 59 27 57 61 -127 0
29 58 30 59 27 57 61 -126 0
29 58 30 59 27 23 61 -128 0
29 58 30 59 27 23 61 -125 0
29 58 30 59 27 23 61 -127 0
29 58 30 59 27 23 61 -126 0
29 58 30 59 57 23 61 -128 0
29 58 30 59 57 23 61 -125 0
29 58 30 59 57 23 61 -127 0
29 58 30 59 57 23 61 -126 0
29 58 30 27 57 23 61 -128 0
29 58 30 27 57 23 61 -125 0
29 58 30 27 57 23 61 -127 0
29 58 30 27 57 23 61 -126 0
29 58 59 27 57 23 61 -128 0
29 58 59 27 57 23 61 -125 0
29 58 59 27 57 23 61 -127 0
29 58 59 27 57 23 61 -126 0
29 30 32 27 34 23 31 -113 0
29 30 32 27 34 23 31 -116 0
29 30 32 27 34 23 31 -114 0
29 30 32 27 34 23 31 -115 0
29 30 43 27 41 23 42 -118 0
29 30 43 27 41 23 42 -119 0
29 30 43 27 41 23 42 -117 0
29 30 43 27 41 23 42 -120 0
29 30 17 27 16 23 19 -94 0
29 30 17 27 16 23 19 -92 0
29 30 17 27 16 23 19 -93 0
29 30 17 27 16 23 19 -91 0
29 30 1 27 5 23 6 -25 0
29 30 1 27 5 23 6 -26 0
29 30 1 27 5 23 6 -28 0
29 30 1 27 5 23 6 -24 0
29 30 11 27 9 23 12 -70 0
29 30 11 27 9 23 12 -72 0
29 30 11 27 9 23 12 -69 0
29 30 11 27 9 23 12 -71 0
29 30 53 27 52 23 47 -121 0
29 30 53 27 52 23 47 -122 0
29 30 53 27 52 23 47 -124 0
29 30 53 27 52 23 47 -123 0
29 30 59 27 57 23 61 -128 0
29 30 59 27 57 23 61 -125 0
29 30 59 27 57 23 61 -127 0
29 30 59 27 57 23 61 -126 0
38 39 32 43 34 41 31 -133 0
38 39 32 43 34 41 31 -131 0
38 39 32 43 34 41 31 -134 0
38 39 32 43 34 41 31 -132 0
38 39 32 43 34 41 42 -133 0
38 39 32 43 34 41 42 -131 0
38 39 32 43 34 41 42 -134 0
38 39 32 43 34 41 42 -132 0
38 39 32 43 34 31 42 -133 0
38 39 32 43 34 31 42 -131 0
38 39 32 43 34 31 42 -134 0
38 39 32 43 34 31 42 -132 0
38 39 32 43 41 31 42 -133 0
38 39 32 43 41 31 42 -131 0
38 39 32 43 41 31 42 -134 0
38 39 32 43 41 31 42 -132 0
38 39 32 34 41 31 42 -133 0
38 39 32 34 41 31 42 -131 0
38 39 32 34 41 31 42 -134 0
38 39 32 34 41 31 42 -132 0
38 39 43 34 41 31 42 -133 0
38 39 43 34 41 31 42 -131 0
38 39 43 34 41 31 42 -134 0
38 39 43 34 41 31 42 -132 0
38 21 32 17 34 16 31 -98 0
38 21 32 17 34 16 31 -96 0
38 21 32 17 34 16 31 -97 0
38 21 32 17 34 16 31 -95 0
38 21 32 17 34 16 19 -98 0
38 21 32 17 34 16 19 -96 0
38 21 32 17 34 16 19 -97 0
38 21 32 17 34 16 19 -95 0
38 21 32 17 34 31 19 -98 0
38 21 32 17 34 31 19 -96 0
38 21 32 17 34 31 19 -97 0
38 21 32 17 34 31 19 -95 0
38 21 32 17 16 31 19 -98 0
38 21 32 17 16 31 19 -96 0
38 21 32 17 16 31 19 -97 0
38 21 32 17 16 31 19 -95 0
38 21 32 34 16 31 19 -98 0
38 21 32 34 16 31 19 -96 0
38 21 32 34 16 31 19 -97 0
38 21 32 34 16 31 19 -95 0
38 21 17 34 16 31 19 -98 0
38 21 17 34 16 31 19 -96 0
38 21 17 34 16 31 19 -97 0
38 21 17 34 16 31 19 -95 0
38 3 32 1 34 5 31 -36 0
38 3 32 1 34 5 31 -33 0
38 3 32 1 34 5 31 -37 0
38 3 32 1 34 5 31 -35 0
38 3 32 1 34 5 6 -36 0
38 3 32 1 34 5 6 -33 0
38 3 32 1 34 5 6 -37 0
38 3 32 1 34 5 6 -35 0
38 3 32 1 34 31 6 -36 0
38 3 32 1 34 31 6 -33 0
38 3 32 1 34 31 6 -37 0
38 3 32 1 34 31 6 -35 0
38 3 32 1 5 31 6 -36 0
38 3 32 1 5 31 6 -33 0
38 3 32 1 5 31 6 -37 0
38 3 32 1 5 31 6 -35 0
38 3 32 34 5 31 6 -36 0
38 3 32 34 5 31 6 -33 0
38 3 32 34 5 31 6 -37 0
38 3 32 34 5 31 6 -35 0
38 3 1 34 5 31 6 -36 0
38 3 1 34 5 31 6 -33 0
38 3 1 34 5 31 6 -37 0
38 3 1 34 5 31 6 -35 0
38 13 32 11 34 9 31 -73 0
38 13 32 11 34 9 31 -75 0
38 13 32 11 34 9 31 -74 0
38 13 32 11 34 9 31 -76 0
38 13 32 11 34 9 12 -73 0
38 13 32 11 34 9 12 -75 0
38 13 32 11 34 9 12 -74 0
38 13 32 11 34 9 12 -76 0
38 13 32 11 34 31 12 -73 0
38 13 32 11 34 31 12 -75 0
38 13 32 11 34 31 12 -74 0
38 13 32 11 34 31 12 -76 0
38 13 32 11 9 31 12 -73 0
38 13 32 11 9 31 12 -75 0
38 13 32 11 9 31 12 -74 0
38 13 32 11 9 31 12 -76 0
38 13 32 34 9 31 12 -73 0
38 13 32 34 9 31 12 -75 0
38 13 32 34 9 31 12 -74 0
38 13 32 34 9 31 12 -76 0
38 13 11 34 9 31 12 -73 0
38 13 11 34 9 31 12 -75 0
38 13 11 34 9 31 12 -74 0
38 13 11 34 9 31 12 -76 0
38 54 32 53 34 52 31 -138 0
38 54 32 53 34 52 31 -136 0
38 54 32 53 34 52 31 -137 0
38 54 32 53 34 52 31 -135 0
38 54 32 53 34 52 47 -138 0
38 54 32 53 34 52 47 -136 0
38 54 32 53 34 52 47 -137 0
38 54 32 53 34 52 47 -135 0
38 54 32 53 34 31 47 -138 0
38 54 32 53 34 31 47 -136 0
38 54 32 53 34 31 47 -137 0
38 54 32 53 34 31 47 -135 0
38 54 32 53 52 31 47 -138 0
38 54 32 53 52 31 47 -136 0
38 54 32 53 52 31 47 -137 0
38 54 32 53 52 31 47 -135 0
38 54 32 34 52 31 47 -138 0
38 54 32 34 52 31 47 -136 0
38 54 32 34 52 31 47 -137 0
38 54 32 34 52 31 47 -135 0
38 54 53 34 52 31 47 -138 0
38 54 53 34 52 31 47 -136 0
38 54 53 34 52 31 47 -137 0
38 54 53 34 52 31 47 -135 0
38 58 32 59 34 57 31 -140 0
38 58 32 59 34 57 31 -142 0
38 58 32 59 34 57 31 -139 0
38 58 32 59 34 57 31 -141 0
38 58 32 59 34 57 61 -140 0
38 58 32 59 34 57 61 -142 0
38 58 32 59 34 57 61 -139 0
38 58 32 59 34 57 61 -141 0
38 58 32 59 34 31 61 -140 0
38 58 32 59 34 31 61 -142 0
38 58 32 59 34 31 61 -139 0
38 58 32 59 34 31 61 -141 0
38 58 32 59 57 31 61 -140 0
38 58 32 59 57 31 61 -142 0
38 58 32 59 57 31 61 -139 0
38 58 32 59 57 31 61 -141 0
38 58 32 34 57 31 61 -140 0
38 58 32 34 57 31 61 -142 0
38 58 32 34 57 31 61 -139 0
38 58 32 34 57 31 61 -141 0
38 58 59 34 57 31 61 -140 0
38 58 59 34 57 31 61 -142 0
38 58 59 34 57 31 61 -139 0
38 58 59 34 57 31 61 -141 0
38 30 32 27 34 23 31 -113 0
38 30 32 27 34 23 31 -116 0
38 30 32 27 34 23 31 -114 0
38 30 32 27 34 23 31 -115 0
38 32 43 34 41 31 42 -133 0
38 32 43 34 41 31 42 -131 0
38 32 43 34 41 31 42 -134 0
38 32 43 34 41 31 42 -132 0
38 32 17 34 16 31 19 -98 0
38 32 17 34 16 31 19 -96 0
38 32 17 34 16 31 19 -97 0
38 32 17 34 16 31 19 -95 0
38 32 1 34 5 31 6 -36 0
38 32 1 34 5 31 6 -33 0
38 32 1 34 5 31 6 -37 0
38 32 1 34 5 31 6 -35 0
38 32 11 34 9 31 12 -73 0
38 32 11 34 9 31 12 -75 0
38 32 11 34 9 31 12 -74 0
38 32 11 34 9 31 12 -76 0
38 32 53 34 52 31 47 -138 0
38 32 53 34 52 31 47 -136 0
38 32 53 34 52 31 47 -137 0
38 32 53 34 52 31 47 -135 0
38 32 59 34 57 31 61 -140 0
38 32 59 34 57 31 61 -142 0
38 32 59 34 57 31 61 -139 0
38 32 59 34 57 31 61 -141 0
39 21 43 17 41 16 42 -101 0
39 21 43 17 41 16 42 -100 0
39 21 43 17 41 16 42 -102 0
39 21 43 17 41 16 42 -99 0
39 21 43 17 41 16 19 -101 0
39 21 43 17 41 16 19 -100 0
39 21 43 17 41 16 19 -102 0
39 21 43 17 41 16 19 -99 0
39 21 43 17 41 42 19 -101 0
39 21 43 17 41 42 19 -100 0
39 21 43 17 41 42 19 -102 0
39 21 43 17 41 42 19 -99 0
39 21 43 17 16 42 19 -101 0
39 21 43 17 16 42 19 -100 0
39 21 43 17 16 42 19 -102 0
39 21 43 17 16 42 19 -99 0
39 21 43 41 16 42 19 -101 0
39 21 43 41 16 42 19 -100 0
39 21 43 41 16 42 19 -102 0
39 21 43 41 16 42 19 -99 0
39 21 17 41 16 42 19 -101 0
39 21 17 41 16 42 19 -100 0
39 21 17 41 16 42 19 -102 0
39 21 17 41 16 42 19 -99 0
39 3 43 1 41 5 42 -44 0
39 3 43 1 41 5 42 -45 0
39 3 43 1 41 5 42 -40 0
39 3 43 1 41 5 42 -46 0
39 3 43 1 41 5 6 -44 0
39 3 43 1 41 5 6 -45 0
39 3 43 1 41 5 6 -40 0
39 3 43 1 41 5 6 -46 0
39 3 43 1 41 42 6 -44 0
39 3 43 1 41 42 6 -45 0
39 3 43 1 41 42 6 -40 0
39 3 43 1 41 42 6 -46 0
39 3 43 1 5 42 6 -44 0
39 3 43 1 5 42 6 -45 0
39 3 43 1 5 42 6 -40 0
39 3 43 1 5 42 6 -46 0
39 3 43 41 5 42 6 -44 0
39 3 43 41 5 42 6 -45 0
39 3 43 41 5 42 6 -40 0
39 3 43 41 5 42 6 -46 0
39 3 1 41 5 42 6 -44 0
39 3 1 41 5 42 6 -45 0
39 3 1 41 5 42 6 -40 0
39 3 1 41 5 42 6 -46 0
39 13 43 11 41 9 42 -78 0
39 13 43 11 41 9 42 -77 0
39 13 43 11 41 9 42 -80 0
39 13 43 11 41 9 42 -79 0
39 13 43 11 41 9 12 -78 0
39 13 43 11 41 9 12 -77 0
39 13 43 11 41 9 12 -80 0
39 13 43 11 41 9 12 -79 0
39 13 43 11 41 42 12 -78 0
39 13 43 11 41 42 12 -77 0
39 13 43 11 41 42 12 -80 0
39 13 43 11 41 42 12 -79 0
39 13 43 11 9 42 12 -78 0
39 13 43 11 9 42 12 -77 0
39 13 43 11 9 42 12 -80 0
39 13 43 11 9 42 12 -79 0
39 13 43 41 9 42 12 -78 0
39 13 43 41 9 42 12 -77 0
39 13 43 41 9 42 12 -80 0
39 13 43 41 9 42 12 -79 0
39 13 11 41 9 42 12 -78 0
39 13 11 41 9 42 12 -77 0
39 13 11 41 9 42 12 -80 0
39 13 11 41 9 42 12 -79 0
39 54 43 53 41 52 42 -147 0
39 54 43 53 41 52 42 -145 0
39 54 43 53 41 52 42 -148 0
39 54 43 53 41 52 42 -146 0
39 54 43 53 41 52 47 -147 0
39 54 43 53 41 52 47 -145 0
39 54 43 53 41 52 47 -148 0
39 54 43 53 41 52 47 -146 0
39 54 43 53 41 42 47 -147 0
39 54 43 53 41 42 47 -145 0
39 54 43 53 41 42 47 -148 0
39 54 43 53 41 42 47 -146 0
39 54 43 53 52 42 47 -147 0
39 54 43 53 52 42 47 -145 0
39 54 43 53 52 42 47 -148 0
39 54 43 53 52 42 47 -146 0
39 54 43 41 52 42 47 -147 0
39 54 43 41 52 42 47 -145 0
39 54 43 41 52 42 47 -148 0
39 54 43 41 52 42 47 -146 0
39 54 53 41 52 42 47 -147 0
39 54 53 41 52 42 47 -145 0
39 54 53 41 52 42 47 -148 0
39 54 53 41 52 42 47 -146 0
39 58 43 59 41 57 42 -150 0
39 58 43 59 41 57 42 -149 0
39 58 43 59 41 57 42 -152 0
39 58 43 59 41 57 42 -151 0
39 58 43 59 41 57 61 -150 0
39 58 43 59 41 57 61 -149 0
39 58 43 59 41 57 61 -152 0
39 58 43 59 41 57 61 -151 0
39 58 43 59 41 42 61 -150 0
39 58 43 59 41 42 61 -149 0
39 58 43 59 41 42 61 -152 0
39 58 43 59 41 42 61 -151 0
39 58 43 59 57 42 61 -150 0
39 58 43 59 57 42 61 -149 0
39 58 43 59 57 42 61 -152 0
39 58 43 59 57 42 61 -151 0
39 58 43 41 57 42 61 -150 0
39 58 43 41 57 42 61 -149 0
39 58 43 41 57 42 61 -152 0
39 58 43 41 57 42 61 -151 0
39 58 59 41 57 42 61 -150 0
39 58 59 41 57 42 61 -149 0
39 58 59 41 57 42 61 -152 0
39 58 59 41 57 42 61 -151 0
39 30 43 27 41 23 42 -118 0
39 30 43 27 41 23 42 -119 0
39 30 43 27 41 23 42 -117 0
39 30 43 27 41 23 42 -120 0
39 32 43 34 41 31 42 -133 0
39 32 43 34 41 31 42 -131 0
39 32 43 34 41 31 42 -134 0
39 32 43 34 41 31 42 -132 0
39 43 17 41 16 42 19 -101 0
39 43 17 41 16 42 19 -100 0
39 43 17 41 16 42 19 -102 0
39 43 17 41 16 42 19 -99 0
39 43 1 41 5 42 6 -44 0
39 43 1 41 5 42 6 -45 0
39 43 1 41 5 42 6 -40 0
39 43 1 41 5 42 6 -46 0
39 43 11 41 9 42 12 -78 0
39 43 11 41 9 42 12 -77 0
39 43 11 41 9 42 12 -80 0
39 43 11 41 9 42 12 -79 0
39 43 53 41 52 42 47 -147 0
39 43 53 41 52 42 47 -145 0
39 43 53 41 52 42 47 -148 0
39 43 53 41 52 42 47 -146 0
39 43 59 41 57 42 61 -150 0
39 43 59 41 57 42 61 -149 0
39 43 59 41 57 42 61 -152 0
39 43 59 41 57 42 61 -151 0
21 3 17 1 16 5 19 -18 0
21 3 17 1 16 5 19 -20 0
21 3 17 1 16 5 19 -15 0
21 3 17 1 16 5 19 -22 0
21 3 17 1 16 5 6 -18 0
21 3 17 1 16 5 6 -20 0
21 3 17 1 16 5 6 -15 0
21 3 17 1 16 5 6 -22 0
21 3 17 1 16 19 6 -18 0
21 3 17 1 16 19 6 -20 0
21 3 17 1 16 19 6 -15 0
21 3 17 1 16 19 6 -22 0
21 3 17 1 5 19 6 -18 0
21 3 17 1 5 19 6 -20 0
21 3 17 1 5 19 6 -15 0
21 3 17 1 5 19 6 -22 0
21 3 17 16 5 19 6 -18 0
21 3 17 16 5 19 6 -20 0
21 3 17 16 5 19 6 -15 0
21 3 17 16 5 19 6 -22 0
21 3 1 16 5 19 6 -18 0
21 3 1 16 5 19 6 -20 0
21 3 1 16 5 19 6 -15 0
21 3 1 16 5 19 6 -22 0
21 13 17 11 16 9 19 -67 0
21 13 17 11 16 9 19 -65 0
21 13 17 11 16 9 19 -66 0
21 13 17 11 16 9 19 -68 0
21 13 17 11 16 9 12 -67 0
21 13 17 11 16 9 12 -65 0
21 13 17 11 16 9 12 -66 0
21 13 17 11 16 9 12 -68 0
21 13 17 11 16 19 12 -67 0
21 13 17 11 16 19 12 -65 0
21 13 17 11 16 19 12 -66 0
21 13 17 11 16 19 12 -68 0
21 13 17 11 9 19 12 -67 0
21 13 17 11 9 19 12 -65 0
21 13 17 11 9 19 12 -66 0
21 13 17 11 9 19 12 -68 0
21 13 17 16 9 19 12 -67 0
21 13 17 16 9 19 12 -65 0
21 13 17 16 9 19 12 -66 0
21 13 17 16 9 19 12 -68 0
21 13 11 16 9 19 12 -67 0
21 13 11 16 9 19 12 -65 0
21 13 11 16 9 19 12 -66 0
21 13 11 16 9 19 12 -68 0
21 54 17 53 16 52 19 -106 0
21 54 17 53 16 52 19 -104 0
21 54 17 53 16 52 19 -105 0
21 54 17 53 16 52 19 -103 0
21 54 17 53 16 52 47 -106 0
21 54 17 53 16 52 47 -104 0
21 54 17 53 16 52 47 -105 0
21 54 17 53 16 52 47 -103 0
21 54 17 53 16 19 47 -106 0
21 54 17 53 16 19 47 -104 0
21 54 17 53 16 19 47 -105 0
21 54 17 53 16 19 47 -103 0
21 54 17 53 52 19 47 -106 0
21 54 17 53 52 19 47 -104 0
21 54 17 53 52 19 47 -105 0
21 54 17 53 52 19 47 -103 0
21 54 17 16 52 19 47 -106 0
21 54 17 16 52 19 47 -104 0
21 54 17 16 52 19 47 -105 0
21 54 17 16 52 19 47 -103 0
21 54 53 16 52 19 47 -106 0
21 54 53 16 52 19 47 -104 0
21 54 53 16 52 19 47 -105 0
21 54 53 16 52 19 47 -103 0
21 58 17 59 16 57 19 -110 0
21 58 17 59 16 57 19 -107 0
21 58 17 59 16 57 19 -109 0
21 58 17 59 16 57 19 -108 0
21 58 17 59 16 57 61 -110 0
21 58 17 59 16 57 61 -107 0
21 58 17 59 16 57 61 -109 0
21 58 17 59 16 57 61 -108 0
21 58 17 59 16 19 61 -110 0
21 58 17 59 16 19 61 -107 0
21 58 17 59 16 19 61 -109 0
21 58 17 59 16 19 61 -108 0
21 58 17 59 57 19 61 -110 0
21 58 17 59 57 19 61 -107 0
21 58 17 59 57 19 61 -109 0
21 58 17 59 57 19 61 -108 0
21 58 17 16 57 19 61 -110 0
21 58 17 16 57 19 61 -107 0
21 58 17 16 57 19 61 -109 0
21 58 17 16 57 19 61 -108 0
21 58 59 16 57 19 61 -110 0
21 58 59 16 57 19 61 -107 0
21 58 59 16 57 19 61 -109 0
21 58 59 16 57 19 61 -108 0
21 30 17 27 16 23 19 -94 0
21 30 17 27 16 23 19 -92 0
21 30 17 27 16 23 19 -93 0
21 30 17 27 16 23 19 -91 0
21 32 17 34 16 31 19 -98 0
21 32 17 34 16 31 19 -96 0
21 32 17 34 16 31 19 -97 0
21 32 17 34 16 31 19 -95 0
21 43 17 41 16 42 19 -101 0
21 43 17 41 16 42 19 -100 0
21 43 17 41 16 42 19 -102 0
21 43 17 41 16 42 19 -99 0
21 17 1 16 5 19 6 -18 0
21 17 1 16 5 19 6 -20 0
21 17 1 16 5 19 6 -15 0
21 17 1 16 5 19 6 -22 0
21 17 11 16 9 19 12 -67 0
21 17 11 16 9 19 12 -65 0
21 17 11 16 9 19 12 -66 0
21 17 11 16 9 19 12 -68 0
21 17 53 16 52 19 47 -106 0
21 17 53 16 52 19 47 -104 0
21 17 53 16 52 19 47 -105 0
21 17 53 16 52 19 47 -103 0
21 17 59 16 57 19 61 -110 0
21 17 59 16 57 19 61 -107 0
21 17 59 16 57 19 61 -109 0
21 17 59 16 57 19 61 -108 0
3 13 1 11 5 9 6 -7 0
3 13 1 11 5 9 6 -8 0
3 13 1 11 5 9 6 -10 0
3 13 1 11 5 9 6 -14 0
3 13 1 11 5 9 12 -7 0
3 13 1 11 5 9 12 -8 0
3 13 1 11 5 9 12 -10 0
3 13 1 11 5 9 12 -14 0
3 13 1 11 5 6 12 -7 0
3 13 1 11 5 6 12 -8 0
3 13 1 11 5 6 12 -10 0
3 13 1 11 5 6 12 -14 0
3 13 1 11 9 6 12 -7 0
3 13 1 11 9 6 12 -8 0
3 13 1 11 9 6 12 -10 0
3 13 1 11 9 6 12 -14 0
3 13 1 5 9 6 12 -7 0
3 13 1 5 9 6 12 -8 0
3 13 1 5 9 6 12 -10 0
3 13 1 5 9 6 12 -14 0
3 13 11 5 9 6 12 -7 0
3 13 11 5 9 6 12 -8 0
3 13 11 5 9 6 12 -10 0
3 13 11 5 9 6 12 -14 0
3 54 1 53 5 52 6 -48 0
3 54 1 53 5 52 6 -51 0
3 54 1 53 5 52 6 -50 0
3 54 1 53 5 52 6 -49 0
3 54 1 53 5 52 47 -48 0
3 54 1 53 5 52 47 -51 0
3 54 1 53 5 52 47 -50 0
3 54 1 53 5 52 47 -49 0
3 54 1 53 5 6 47 -48 0
3 54 1 53 5 6 47 -51 0
3 54 1 53 5 6 47 -50 0
3 54 1 53 5 6 47 -49 0
3 54 1 53 52 6 47 -48 0
3 54 1 53 52 6 47 -51 0
3 54 1 53 52 6 47 -50 0
3 54 1 53 52 6 47 -49 0
3 54 1 5 52 6 47 -48 0
3 54 1 5 52 6 47 -51 0
3 54 1 5 52 6 47 -50 0
3 54 1 5 52 6 47 -49 0
3 54 53 5 52 6 47 -48 0
3 54 53 5 52 6 47 -51 0
3 54 53 5 52 6 47 -50 0
3 54 53 5 52 6 47 -49 0
3 58 1 59 5 57 6 -55 0
3 58 1 59 5 57 6 -60 0
3 58 1 59 5 57 6 -62 0
3 58 1 59 5 57 6 -56 0
3 58 1 59 5 57 61 -55 0
3 58 1 59 5 57 61 -60 0
3 58 1 59 5 57 61 -62 0
3 58 1 59 5 57 61 -56 0
3 58 1 59 5 6 61 -55 0
3 58 1 59 5 6 61 -60 0
3 58 1 59 5 6 61 -62 0
3 58 1 59 5 6 61 -56 0
3 58 1 59 57 6 61 -55 0
3 58 1 59 57 6 61 -60 0
3 58 1 59 57 6 61 -62 0
3 58 1 59 57 6 61 -56 0
3 58 1 5 57 6 61 -55 0
3 58 1 5 57 6 61 -60 0
3 58 1 5 57 6 61 -62 0
3 58 1 5 57 6 61 -56 0
3 58 59 5 57 6 61 -55 0
3 58 59 5 57 6 61 -60 0
3 58 59 5 57 6 61 -62 0
3 58 59 5 57 6 61 -56 0
3 30 1 27 5 23 6 -25 0
3 30 1 27 5 23 6 -26 0
3 30 1 27 5 23 6 -28 0
3 30 1 27 5 23 6 -24 0
3 32 1 34 5 31 6 -36 0
3 32 1 34 5 31 6 -33 0
3 32 1 34 5 31 6 -37 0
3 32 1 34 5 31 6 -35 0
3 43 1 41 5 42 6 -44 0
3 43 1 41 5 42 6 -45 0
3 43 1 41 5 42 6 -40 0
3 43 1 41 5 42 6 -46 0
3 17 1 16 5 19 6 -18 0
3 17 1 16 5 19 6 -20 0
3 17 1 16 5 19 6 -15 0
3 17 1 16 5 19 6 -22 0
3 1 11 5 9 6 12 -7 0
3 1 11 5 9 6 12 -8 0
3 1 11 5 9 6 12 -10 0
3 1 11 5 9 6 12 -14 0
3 1 53 5 52 6 47 -48 0
3 1 53 5 52 6 47 -51 0
3 1 53 5 52 6 47 -50 0
3 1 53 5 52 6 47 -49 0
3 1 59 5 57 6 61 -55 0
3 1 59 5 57 6 61 -60 0
3 1 59 5 57 6 61 -62 0
3 1 59 5 57 6 61 -56 0
13 54 11 53 9 52 12 -81 0
13 54 11 53 9 52 12 -84 0
13 54 11 53 9 52 12 -82 0
13 54 11 53 9 52 12 -83 0
13 54 11 53 9 52 47 -81 0
13 54 11 53 9 52 47 -84 0
13 54 11 53 9 52 47 -82 0
13 54 11 53 9 52 47 -83 0
13 54 11 53 9 12 47 -81 0
13 54 11 53 9 12 47 -84 0
13 54 11 53 9 12 47 -82 0
13 54 11 53 9 12 47 -83 0
13 54 11 53 52 12 47 -81 0
13 54 11 53 52 12 47 -84 0
13 54 11 53 52 12 47 -82 0
13 54 11 53 52 12 47 -83 0
13 54 11 9 52 12 47 -81 0
13 54 11 9 52 12 47 -84 0
13 54 11 9 52 12 47 -82 0
13 54 11 9 52 12 47 -83 0
13 54 53 9 52 12 47 -81 0
13 54 53 9 52 12 47 -84 0
13 54 53 9 52 12 47 -82 0
13 54 53 9 52 12 47 -83 0
13 58 11 59 9 57 12 -86 0
13 58 11 59 9 57 12 -88 0
13 58 11 59 9 57 12 -85 0
13 58 11 59 9 57 12 -87 0
13 58 11 59 9 57 61 -86 0
13 58 11 59 9 57 61 -88 0
13 58 11 59 9 57 61 -85 0
13 58 11 59 9 57 61 -87 0
13 58 11 59 9 12 61 -86 0
13 58 11 59 9 12 61 -88 0
13 58 11 59 9 12 61 -85 0
13 58 11 59 9 12 61 -87 0
13 58 11 59 57 12 61 -86 0
13 58 11 59 57 12 61 -88 0
13 58 11 59 57 12 61 -85 0
13 58 11 59 57 12 61 -87 0
13 58 11 9 57 12 61 -86 0
13 58 11 9 57 12 61 -88 0
13 58 11 9 57 12 61 -85 0
13 58 11 9 57 12 61 -87 0
13 58 59 9 57 12 61 -86 0
13 58 59 9 57 12 61 -88 0
13 58 59 9 57 12 61 -85 0
13 58 59 9 57 12 61 -87 0
13 30 11 27 9 23 12 -70 0
13 30 11 27 9 23 12 -72 0
13 30 11 27 9 23 12 -69 0
13 30 11 27 9 23 12 -71 0
13 32 11 34 9 31 12 -73 0
13 32 11 34 9 31 12 -75 0
13 32 11 34 9 31 12 -74 0
13 32 11 34 9 31 12 -76 0
13 43 11 41 9 42 12 -78 0
13 43 11 41 9 42 12 -77 0
13 43 11 41 9 42 12 -80 0
13 43 11 41 9 42 12 -79 0
13 17 11 16 9 19 12 -67 0
13 17 11 16 9 19 12 -65 0
13 17 11 16 9 19 12 -66 0
13 17 11 16 9 19 12 -68 0
13 1 11 5 9 6 12 -7 0
13 1 11 5 9 6 12 -8 0
13 1 11 5 9 6 12 -10 0
13 1 11 5 9 6 12 -14 0
13 11 53 9 52 12 47 -81 0
13 11 53 9 52 12 47 -84 0
13 11 53 9 52 12 47 -82 0
13 11 53 9 52 12 47 -83 0
13 11 59 9 57 12 61 -86 0
13 11 59 9 57 12 61 -88 0
13 11 59 9 57 12 61 -85 0
13 11 59 9 57 12 61 -87 0
54 58 53 59 52 57 47 -155 0
54 58 53 59 52 57 47 -157 0
54 58 53 59 52 57 47 -158 0
54 58 53 59 52 57 47 -156 0
54 58 53 59 52 57 61 -155 0
54 58 53 59 52 57 61 -157 0
54 58 53 59 52 57 61 -158 0
54 58 53 59 52 57 61 -156 0
54 58 53 59 52 47 61 -155 0
54 58 53 59 52 47 61 -157 0
54 58 53 59 52 47 61 -158 0
54 58 53 59 52 47 61 -156 0
54 58 53 59 57 47 61 -155 0
54 58 53 59 57 47 61 -157 0
54 58 53 59 57 47 61 -158 0
54 58 53 59 57 47 61 -156 0
54 58 53 52 57 47 61 -155 0
54 58 53 52 57 47 61 -157 0
54 58 53 52 57 47 61 -158 0
54 58 53 52 57 47 61 -156 0
54 58 59 52 57 47 61 -155 0
54 58 59 52 57 47 61 -157 0
54 58 59 52 57 47 61 -158 0
54 58 59 52 57 47 61 -156 0
54 30 53 27 52 23 47 -121 0
54 30 53 27 52 23 47 -122 0
54 30 53 27 52 23 47 -124 0
54 30 53 27 52 23 47 -123 0
54 32 53 34 52 31 47 -138 0
54 32 53 34 52 31 47 -136 0
54 32 53 34 52 31 47 -137 0
54 32 53 34 52 31 47 -135 0
54 43 53 41 52 42 47 -147 0
54 43 53 41 52 42 47 -145 0
54 43 53 41 52 42 47 -148 0
54 43 53 41 52 42 47 -146 0
54 17 53 16 52 19 47 -106 0
54 17 53 16 52 19 47 -104 0
54 17 53 16 52 19 47 -105 0
54 17 53 16 52 19 47 -103 0
54 1 53 5 52 6 47 -48 0
54 1 53 5 52 6 47 -51 0
54 1 53 5 52 6 47 -50 0
54 1 53 5 52 6 47 -49 0
54 11 53 9 52 12 47 -81 0
54 11 53 9 52 12 47 -84 0
54 11 53 9 52 12 47 -82 0
54 11 53 9 52 12 47 -83 0
54 53 59 52 57 47 61 -155 0
54 53 59 52 57 47 61 -157 0
54 53 59 52 57 47 61 -158 0
54 53 59 52 57 47 61 -156 0
58 30 59 27 57 23 61 -128 0
58 30 59 27 57 23 61 -125 0
58 30 59 27 57 23 61 -127 0
58 30 59 27 57 23 61 -126 0
58 32 59 34 57 31 61 -140 0
58 32 59 34 57 31 61 -142 0
58 32 59 34 57 31 61 -139 0
58 32 59 34 57 31 61 -141 0
58 43 59 41 57 42 61 -150 0
58 43 59 41 57 42 61 -149 0
58 43 59 41 57 42 61 -152 0
58 43 59 41 57 42 61 -151 0
58 17 59 16 57 19 61 -110 0
58 17 59 16 57 19 61 -107 0
58 17 59 16 57 19 61 -109 0
58 17 59 16 57 19 61 -108 0
58 1 59 5 57 6 61 -55 0
58 1 59 5 57 6 61 -60 0
58 1 59 5 57 6 61 -62 0
58 1 59 5 57 6 61 -56 0
58 11 59 9 57 12 61 -86 0
58 11 59 9 57 12 61 -88 0
58 11 59 9 57 12 61 -85 0
58 11 59 9 57 12 61 -87 0
58 53 59 52 57 47 61 -155 0
58 53 59 52 57 47 61 -157 0
58 53 59 52 57 47 61 -158 0
58 53 59 52 57 47 61 -156 0
29 38 30 32 27 34 23 31 -113 0
29 38 30 32 27 34 23 31 -116 0
29 38 30 32 27 34 23 31 -114 0
29 38 30 32 27 34 23 31 -115 0
29 39 30 43 27 41 23 42 -118 0
29 39 30 43 27 41 23 42 -119 0
29 39 30 43 27 41 23 42 -117 0
29 39 30 43 27 41 23 42 -120 0
29 21 30 17 27 16 23 19 -94 0
29 21 30 17 27 16 23 19 -92 0
29 21 30 17 27 16 23 19 -93 0
29 21 30 17 27 16 23 19 -91 0
29 3 30 1 27 5 23 6 -25 0
29 3 30 1 27 5 23 6 -26 0
29 3 30 1 27 5 23 6 -28 0
29 3 30 1 27 5 23 6 -24 0
29 13 30 11 27 9 23 12 -70 0
29 13 30 11 27 9 23 12 -72 0
29 13 30 11 27 9 23 12 -69 0
29 13 30 11 27 9 23 12 -71 0
29 54 30 53 27 52 23 47 -121 0
29 54 30 53 27 52 23 47 -122 0
29 54 30 53 27 52 23 47 -124 0
29 54 30 53 27 52 23 47 -123 0
29 58 30 59 27 57 23 61 -128 0
29 58 30 59 27 57 23 61 -125 0
29 58 30 59 27 57 23 61 -127 0
29 58 30 59 27 57 23 61 -126 0
38 39 32 43 34 41 31 42 -133 0
38 39 32 43 34 41 31 42 -131 0
38 39 32 43 34 41 31 42 -134 0
38 39 32 43 34 41 31 42 -132 0
38 21 32 17 34 16 31 19 -98 0
38 21 32 17 34 16 31 19 -96 0
38 21 32 17 34 16 31 19 -97 0
38 21 32 17 34 16 31 19 -95 0
38 3 32 1 34 5 31 6 -36 0
38 3 32 1 34 5 31 6 -33 0
38 3 32 1 34 5 31 6 -37 0
38 3 32 1 34 5 31 6 -35 0
38 13 32 11 34 9 31 12 -73 0
38 13 32 11 34 9 31 12 -75 0
38 13 32 11 34 9 31 12 -74 0
38 13 32 11 34 9 31 12 -76 0
38 54 32 53 34 52 31 47 -138 0
38 54 32 53 34 52 31 47 -136 0
38 54 32 53 34 52 31 47 -137 0
38 54 32 53 34 52 31 47 -135 0
38 58 32 59 34 57 31 61 -140 0
38 58 32 59 34 57 31 61 -142 0
38 58 32 59 34 57 31 61 -139 0
38 58 32 59 34 57 31 61 -141 0
39 21 43 17 41 16 42 19 -101 0
39 21 43 17 41 16 42 19 -100 0
39 21 43 17 41 16 42 19 -102 0
39 21 43 17 41 16 42 19 -99 0
39 3 43 1 41 5 42 6 -44 0
39 3 43 1 41 5 42 6 -45 0
39 3 43 1 41 5 42 6 -40 0
39 3 43 1 41 5 42 6 -46 0
39 13 43 11 41 9 42 12 -78 0
39 13 43 11 41 9 42 12 -77 0
39 13 43 11 41 9 42 12 -80 0
39 13 43 11 41 9 42 12 -79 0
39 54 43 53 41 52 42 47 -147 0
39 54 43 53 41 52 42 47 -145 0
39 54 43 53 41 52 42 47 -148 0
39 54 43 53 41 52 42 47 -146 0
39 58 43 59 41 57 42 61 -150 0
39 58 43 59 41 57 42 61 -149 0
39 58 43 59 41 57 42 61 -152 0
39 58 43 59 41 57 42 61 -151 0
21 3 17 1 16 5 19 6 -18 0
21 3 17 1 16 5 19 6 -20 0
21 3 17 1 16 5 19 6 -15 0
21 3 17 1 16 5 19 6 -22 0
21 13 17 11 16 9 19 12 -67 0
21 13 17 11 16 9 19 12 -65 0
21 13 17 11 16 9 19 12 -66 0
21 13 17 11 16 9 19 12 -68 0
21 54 17 53 16 52 19 47 -106 0
21 54 17 53 16 52 19 47 -104 0
21 54 17 53 16 52 19 47 -105 0
21 54 17 53 16 52 19 47 -103 0
21 58 17 59 16 57 19 61 -110 0
21 58 17 59 16 57 19 61 -107 0
21 58 17 59 16 57 19 61 -109 0
21 58 17 59 16 57 19 61 -108 0
3 13 1 11 5 9 6 12 -7 0
3 13 1 11 5 9 6 12 -8 0
3 13 1 11 5 9 6 12 -10 0
3 13 1 11 5 9 6 12 -14 0
3 54 1 53 5 52 6 47 -48 0
3 54 1 53 5 52 6 47 -51 0
3 54 1 53 5 52 6 47 -50 0
3 54 1 53 5 52 6 47 -49 0
3 58 1 59 5 57 6 61 -55 0
3 58 1 59 5 57 6 61 -60 0
3 58 1 59 5 57 6 61 -62 0
3 58 1 59 5 57 6 61 -56 0
13 54 11 53 9 52 12 47 -81 0
13 54 11 53 9 52 12 47 -84 0
13 54 11 53 9 52 12 47 -82 0
13 54 11 53 9 52 12 47 -83 0
13 58 11 59 9 57 12 61 -86 0
13 58 11 59 9 57 12 61 -88 0
13 58 11 59 9 57 12 61 -85 0
13 58 11 59 9 57 12 61 -87 0
54 58 53 59 52 57 47 61 -155 0
54 58 53 59 52 57 47 61 -157 0
54 58 53 59 52 57 47 61 -158 0
54 58 53 59 52 57 47 61 -156 0
