c E2(2,2) E1(2,2) U3(2) U4(2) U1(2) U2(2) E2(2,8) E2(8,2) E1(8,2) E1(2,8) U4(8) U1(8) U3(8) U2(8) U1(5) U4(5) E2(5,2) E2(2,5) U3(5) E1(5,2) E1(2,5) U2(5) U1(4) U3(4) E1(4,2) U2(4) U4(4) E2(4,2) E2(2,4) E1(2,4) U4(3) E2(3,2) E1(2,3) U3(3) U1(3) U2(3) E2(2,3) E1(3,2) U1(7) E1(7,2) E2(2,7) E1(2,7) E2(7,2) U2(7) U3(7) U4(7) U1(6) U3(6) E2(6,2) E1(6,2) U2(6) E2(2,6) E1(2,6) U4(6) E1(1,2) E2(1,2) U2(1) U4(1) E1(2,1) U1(1) U3(1) E2(2,1) U2(0) U3(0) E2(2,0) E2(0,2) E1(2,0) E1(0,2) U4(0) U1(0) E1(8,8) E2(8,8) E2(5,8) E2(8,5) E1(5,8) E1(8,5) E1(4,8) E2(8,4) E2(4,8) E1(8,4) E2(8,3) E2(3,8) E1(8,3) E1(3,8) E1(7,8) E2(8,7) E1(8,7) E2(7,8) E1(8,6) E2(6,8) E2(8,6) E1(6,8) E1(8,1) E2(1,8) E1(1,8) E2(8,1) E2(8,0) E1(8,0) E2(0,8) E1(0,8) E2(5,5) E1(5,5) E2(4,5) E1(4,5) E2(5,4) E1(5,4) E2(3,5) E1(5,3) E1(3,5) E2(5,3) E1(7,5) E2(7,5) E2(5,7) E1(5,7) E1(5,6) E2(6,5) E2(5,6) E1(6,5) E2(5,1) E2(1,5) E1(5,1) E1(1,5) E2(5,0) E1(0,5) E1(5,0) E2(0,5) E1(4,4) E2(4,4) E1(4,3) E2(4,3) E2(3,4) E1(3,4) E1(4,7) E2(7,4) E1(7,4) E2(4,7) E2(4,6) E2(6,4) E1(4,6) E1(6,4) E2(1,4) E1(1,4) E2(4,1) E1(4,1) E2(0,4) E1(0,4) E2(4,0) E1(4,0) E2(3,3) E1(3,3) E1(3,7) E2(3,7) E2(7,3) E1(7,3) E2(3,6) E1(3,6) E1(6,3) E2(6,3) E2(1,3) E1(1,3) E2(3,1) E1(3,1) E2(3,0) E1(3,0) E2(0,3) E1(0,3) E2(7,7) E1(7,7) E2(7,6) E1(7,6) E2(6,7) E1(6,7) E1(1,7) E2(7,1) E2(1,7) E1(7,1) E2(7,0) E2(0,7) E1(0,7) E1(7,0) E1(6,6) E2(6,6) E2(1,6) E1(1,6) E2(6,1) E1(6,1) E2(0,6) E1(0,6) E2(6,0) E1(6,0) E1(1,1) E2(1,1) E1(1,0) E2(1,0) E2(0,1) E1(0,1) E2(0,0) E1(0,0)
c 1 2 3 4 5 6 7 8 9 10 11 12 13 14 15 16 17 18 19 20 21 22 23 24 25 26 27 28 29 30 31 32 33 34 35 36 37 38 39 40 41 42 43 44 45 46 47 48 49 50 51 52 53 54 55 56 57 58 59 60 61 62 63 64 65 66 67 68 69 70 71 72 73 74 75 76 77 78 79 80 81 82 83 84 85 86 87 88 89 90 91 92 93 94 95 96 97 98 99 100 101 102 103 104 105 106 107 108 109 110 111 112 113 114 115 116 117 118 119 120 121 122 123 124 125 126 127 128 129 130 131 132 133 134 135 136 137 138 139 140 141 142 143 144 145 146 147 148 149 150 151 152 153 154 155 156 157 158 159 160 161 162 163 164 165 166 167 168 169 170 171 172 173 174 175 176 177 178 179 180 181 182 183 184 185 186 187 188 189 190 191 192 193 194 195 196 197 198
p cnf 198 5373
198 -198 0
196 -193 0
68 -67 0
166 -164 0
146 -148 0
124 -125 0
188 -190 0
179 -180 0
100 -98 0
193 -196 0
191 -191 0
55 -59 0
160 -162 0
142 -144 0
122 -121 0
184 -186 0
173 -176 0
95 -93 0
67 -68 0
59 -55 0
2 -2 0
33 -38 0
30 -25 0
21 -20 0
53 -50 0
42 -40 0
10 -9 0
164 -166 0
162 -160 0
38 -33 0
150 -150 0
132 -129 0
109 -108 0
156 -157 0
151 -154 0
84 -83 0
148 -146 0
144 -142 0
25 -30 0
129 -132 0
127 -127 0
104 -106 0
139 -140 0
133 -135 0
77 -80 0
125 -124 0
121 -122 0
20 -21 0
108 -109 0
106 -104 0
102 -102 0
115 -118 0
114 -111 0
75 -76 0
190 -188 0
186 -184 0
50 -53 0
157 -156 0
140 -139 0
118 -115 0
181 -181 0
172 -170 0
92 -89 0
180 -179 0
176 -173 0
40 -42 0
154 -151 0
135 -133 0
111 -114 0
170 -172 0
168 -168 0
85 -87 0
98 -100 0
93 -95 0
9 -10 0
83 -84 0
80 -77 0
76 -75 0
89 -92 0
87 -85 0
71 -71 0
197 -197 0
195 -194 0
66 -65 0
165 -163 0
145 -147 0
126 -123 0
187 -189 0
178 -177 0
99 -97 0
194 -195 0
192 -192 0
56 -62 0
159 -161 0
141 -143 0
120 -119 0
183 -185 0
175 -174 0
94 -96 0
65 -66 0
62 -56 0
1 -1 0
37 -32 0
29 -28 0
18 -17 0
52 -49 0
41 -43 0
7 -8 0
163 -165 0
161 -159 0
32 -37 0
149 -149 0
131 -130 0
107 -110 0
155 -158 0
152 -153 0
82 -81 0
147 -145 0
143 -141 0
28 -29 0
130 -131 0
128 -128 0
103 -105 0
137 -138 0
136 -134 0
79 -78 0
123 -126 0
119 -120 0
17 -18 0
110 -107 0
105 -103 0
101 -101 0
117 -116 0
113 -112 0
73 -74 0
189 -187 0
185 -183 0
49 -52 0
158 -155 0
138 -137 0
116 -117 0
182 -182 0
171 -169 0
90 -91 0
177 -178 0
174 -175 0
43 -41 0
153 -152 0
134 -136 0
112 -113 0
169 -171 0
167 -167 0
88 -86 0
97 -99 0
96 -94 0
8 -7 0
81 -82 0
78 -79 0
74 -73 0
91 -90 0
86 -88 0
72 -72 0
-70 -63 0
-70 -64 0
-70 -69 0
-60 -57 0
-60 -61 0
-60 -58 0
-5 -6 0
-5 -3 0
-5 -4 0
-35 -36 0
-35 -34 0
-35 -31 0
-23 -26 0
-23 -24 0
-23 -27 0
-15 -22 0
-15 -19 0
-15 -16 0
-47 -51 0
-47 -48 0
-47 -54 0
-39 -44 0
-39 -45 0
-39 -46 0
-12 -14 0
-12 -13 0
-12 -11 0
-63 -64 0
-63 -69 0
-57 -61 0
-57 -58 0
-6 -3 0
-6 -4 0
-36 -34 0
-36 -31 0
-26 -24 0
-26 -27 0
-22 -19 0
-22 -16 0
-51 -48 0
-51 -54 0
-44 -45 0
-44 -46 0
-14 -13 0
-14 -11 0
-64 -69 0
-61 -58 0
-3 -4 0
-34 -31 0
-24 -27 0
-19 -16 0
-48 -54 0
-45 -46 0
-13 -11 0
70 63 64 69 0
60 57 61 58 0
5 6 3 4 0
35 36 34 31 0
23 26 24 27 0
15 22 19 16 0
47 51 48 54 0
39 44 45 46 0
12 14 13 11 0
70 63 64 -198 0
70 63 64 -197 0
70 63 69 -198 0
70 63 69 -197 0
70 64 69 -198 0
70 64 69 -197 0
60 57 61 -191 0
60 57 61 -192 0
60 57 58 -191 0
60 57 58 -192 0
60 61 58 -191 0
60 61 58 -192 0
5 6 3 -2 0
5 6 3 -1 0
5 6 4 -2 0
5 6 4 -1 0
5 3 4 -2 0
5 3 4 -1 0
35 36 34 -150 0
35 36 34 -149 0
35 36 31 -150 0
35 36 31 -149 0
35 34 31 -150 0
35 34 31 -149 0
23 26 24 -127 0
23 26 24 -128 0
23 26 27 -127 0
23 26 27 -128 0
23 24 27 -127 0
23 24 27 -128 0
15 22 19 -102 0
15 22 19 -101 0
15 22 16 -102 0
15 22 16 -101 0
15 19 16 -102 0
15 19 16 -101 0
47 51 48 -181 0
47 51 48 -182 0
47 51 54 -181 0
47 51 54 -182 0
47 48 54 -181 0
47 48 54 -182 0
39 44 45 -168 0
39 44 45 -167 0
39 44 46 -168 0
39 44 46 -167 0
39 45 46 -168 0
39 45 46 -167 0
12 14 13 -71 0
12 14 13 -72 0
12 14 11 -71 0
12 14 11 -72 0
12 13 11 -71 0
12 13 11 -72 0
63 64 69 -198 0
63 64 69 -197 0
57 61 58 -191 0
57 61 58 -192 0
6 3 4 -2 0
6 3 4 -1 0
36 34 31 -150 0
36 34 31 -149 0
26 24 27 -127 0
26 24 27 -128 0
22 19 16 -102 0
22 19 16 -101 0
51 48 54 -181 0
51 48 54 -182 0
44 45 46 -168 0
44 45 46 -167 0
14 13 11 -71 0
14 13 11 -72 0
70 63 64 69 -198 0
70 63 64 69 -196 0
70 63 64 69 -68 0
70 63 64 69 -166 0
70 63 64 69 -146 0
70 63 64 69 -124 0
70 63 64 69 -188 0
70 63 64 69 -179 0
70 63 64 69 -100 0
70 63 64 69 -193 0
70 63 64 69 -67 0
70 63 64 69 -164 0
70 63 64 69 -148 0
70 63 64 69 -125 0
70 63 64 69 -190 0
70 63 64 69 -180 0
70 63 64 69 -98 0
70 63 64 69 -197 0
70 63 64 69 -195 0
70 63 64 69 -66 0
70 63 64 69 -165 0
70 63 64 69 -145 0
70 63 64 69 -126 0
70 63 64 69 -187 0
70 63 64 69 -178 0
70 63 64 69 -99 0
70 63 64 69 -194 0
70 63 64 69 -65 0
70 63 64 69 -163 0
70 63 64 69 -147 0
70 63 64 69 -123 0
70 63 64 69 -189 0
70 63 64 69 -177 0
70 63 64 69 -97 0
60 57 61 58 -196 0
60 57 61 58 -193 0
60 57 61 58 -191 0
60 57 61 58 -55 0
60 57 61 58 -160 0
60 57 61 58 -142 0
60 57 61 58 -122 0
60 57 61 58 -184 0
60 57 61 58 -173 0
60 57 61 58 -95 0
60 57 61 58 -59 0
60 57 61 58 -162 0
60 57 61 58 -144 0
60 57 61 58 -121 0
60 57 61 58 -186 0
60 57 61 58 -176 0
60 57 61 58 -93 0
60 57 61 58 -195 0
60 57 61 58 -194 0
60 57 61 58 -192 0
60 57 61 58 -56 0
60 57 61 58 -159 0
60 57 61 58 -141 0
60 57 61 58 -120 0
60 57 61 58 -183 0
60 57 61 58 -175 0
60 57 61 58 -94 0
60 57 61 58 -62 0
60 57 61 58 -161 0
60 57 61 58 -143 0
60 57 61 58 -119 0
60 57 61 58 -185 0
60 57 61 58 -174 0
60 57 61 58 -96 0
5 6 3 4 -68 0
5 6 3 4 -55 0
5 6 3 4 -67 0
5 6 3 4 -59 0
5 6 3 4 -2 0
5 6 3 4 -33 0
5 6 3 4 -30 0
5 6 3 4 -21 0
5 6 3 4 -53 0
5 6 3 4 -42 0
5 6 3 4 -10 0
5 6 3 4 -38 0
5 6 3 4 -25 0
5 6 3 4 -20 0
5 6 3 4 -50 0
5 6 3 4 -40 0
5 6 3 4 -9 0
5 6 3 4 -66 0
5 6 3 4 -56 0
5 6 3 4 -65 0
5 6 3 4 -62 0
5 6 3 4 -1 0
5 6 3 4 -37 0
5 6 3 4 -29 0
5 6 3 4 -18 0
5 6 3 4 -52 0
5 6 3 4 -41 0
5 6 3 4 -7 0
5 6 3 4 -32 0
5 6 3 4 -28 0
5 6 3 4 -17 0
5 6 3 4 -49 0
5 6 3 4 -43 0
5 6 3 4 -8 0
35 36 34 31 -166 0
35 36 34 31 -160 0
35 36 34 31 -33 0
35 36 34 31 -164 0
35 36 34 31 -162 0
35 36 34 31 -38 0
35 36 34 31 -150 0
35 36 34 31 -132 0
35 36 34 31 -109 0
35 36 34 31 -156 0
35 36 34 31 -151 0
35 36 34 31 -84 0
35 36 34 31 -129 0
35 36 34 31 -108 0
35 36 34 31 -157 0
35 36 34 31 -154 0
35 36 34 31 -83 0
35 36 34 31 -165 0
35 36 34 31 -159 0
35 36 34 31 -37 0
35 36 34 31 -163 0
35 36 34 31 -161 0
35 36 34 31 -32 0
35 36 34 31 -149 0
35 36 34 31 -131 0
35 36 34 31 -107 0
35 36 34 31 -155 0
35 36 34 31 -152 0
35 36 34 31 -82 0
35 36 34 31 -130 0
35 36 34 31 -110 0
35 36 34 31 -158 0
35 36 34 31 -153 0
35 36 34 31 -81 0
23 26 24 27 -146 0
23 26 24 27 -142 0
23 26 24 27 -30 0
23 26 24 27 -132 0
23 26 24 27 -148 0
23 26 24 27 -144 0
23 26 24 27 -25 0
23 26 24 27 -129 0
23 26 24 27 -127 0
23 26 24 27 -104 0
23 26 24 27 -139 0
23 26 24 27 -133 0
23 26 24 27 -77 0
23 26 24 27 -106 0
23 26 24 27 -140 0
23 26 24 27 -135 0
23 26 24 27 -80 0
23 26 24 27 -145 0
23 26 24 27 -141 0
23 26 24 27 -29 0
23 26 24 27 -131 0
23 26 24 27 -147 0
23 26 24 27 -143 0
23 26 24 27 -28 0
23 26 24 27 -130 0
23 26 24 27 -128 0
23 26 24 27 -103 0
23 26 24 27 -137 0
23 26 24 27 -136 0
23 26 24 27 -79 0
23 26 24 27 -105 0
23 26 24 27 -138 0
23 26 24 27 -134 0
23 26 24 27 -78 0
15 22 19 16 -124 0
15 22 19 16 -122 0
15 22 19 16 -21 0
15 22 19 16 -109 0
15 22 19 16 -104 0
15 22 19 16 -125 0
15 22 19 16 -121 0
15 22 19 16 -20 0
15 22 19 16 -108 0
15 22 19 16 -106 0
15 22 19 16 -102 0
15 22 19 16 -115 0
15 22 19 16 -114 0
15 22 19 16 -75 0
15 22 19 16 -118 0
15 22 19 16 -111 0
15 22 19 16 -76 0
15 22 19 16 -126 0
15 22 19 16 -120 0
15 22 19 16 -18 0
15 22 19 16 -107 0
15 22 19 16 -103 0
15 22 19 16 -123 0
15 22 19 16 -119 0
15 22 19 16 -17 0
15 22 19 16 -110 0
15 22 19 16 -105 0
15 22 19 16 -101 0
15 22 19 16 -117 0
15 22 19 16 -113 0
15 22 19 16 -73 0
15 22 19 16 -116 0
15 22 19 16 -112 0
15 22 19 16 -74 0
47 51 48 54 -188 0
47 51 48 54 -184 0
47 51 48 54 -53 0
47 51 48 54 -156 0
47 51 48 54 -139 0
47 51 48 54 -115 0
47 51 48 54 -190 0
47 51 48 54 -186 0
47 51 48 54 -50 0
47 51 48 54 -157 0
47 51 48 54 -140 0
47 51 48 54 -118 0
47 51 48 54 -181 0
47 51 48 54 -172 0
47 51 48 54 -92 0
47 51 48 54 -170 0
47 51 48 54 -89 0
47 51 48 54 -187 0
47 51 48 54 -183 0
47 51 48 54 -52 0
47 51 48 54 -155 0
47 51 48 54 -137 0
47 51 48 54 -117 0
47 51 48 54 -189 0
47 51 48 54 -185 0
47 51 48 54 -49 0
47 51 48 54 -158 0
47 51 48 54 -138 0
47 51 48 54 -116 0
47 51 48 54 -182 0
47 51 48 54 -171 0
47 51 48 54 -90 0
47 51 48 54 -169 0
47 51 48 54 -91 0
39 44 45 46 -179 0
39 44 45 46 -173 0
39 44 45 46 -42 0
39 44 45 46 -151 0
39 44 45 46 -133 0
39 44 45 46 -114 0
39 44 45 46 -172 0
39 44 45 46 -180 0
39 44 45 46 -176 0
39 44 45 46 -40 0
39 44 45 46 -154 0
39 44 45 46 -135 0
39 44 45 46 -111 0
39 44 45 46 -170 0
39 44 45 46 -168 0
39 44 45 46 -85 0
39 44 45 46 -87 0
39 44 45 46 -178 0
39 44 45 46 -175 0
39 44 45 46 -41 0
39 44 45 46 -152 0
39 44 45 46 -136 0
39 44 45 46 -113 0
39 44 45 46 -171 0
39 44 45 46 -177 0
39 44 45 46 -174 0
39 44 45 46 -43 0
39 44 45 46 -153 0
39 44 45 46 -134 0
39 44 45 46 -112 0
39 44 45 46 -169 0
39 44 45 46 -167 0
39 44 45 46 -88 0
39 44 45 46 -86 0
12 14 13 11 -100 0
12 14 13 11 -95 0
12 14 13 11 -10 0
12 14 13 11 -84 0
12 14 13 11 -77 0
12 14 13 11 -75 0
12 14 13 11 -92 0
12 14 13 11 -85 0
12 14 13 11 -98 0
12 14 13 11 -93 0
12 14 13 11 -9 0
12 14 13 11 -83 0
12 14 13 11 -80 0
12 14 13 11 -76 0
12 14 13 11 -89 0
12 14 13 11 -87 0
12 14 13 11 -71 0
12 14 13 11 -99 0
12 14 13 11 -94 0
12 14 13 11 -7 0
12 14 13 11 -82 0
12 14 13 11 -79 0
12 14 13 11 -73 0
12 14 13 11 -90 0
12 14 13 11 -88 0
12 14 13 11 -97 0
12 14 13 11 -96 0
12 14 13 11 -8 0
12 14 13 11 -81 0
12 14 13 11 -78 0
12 14 13 11 -74 0
12 14 13 11 -91 0
12 14 13 11 -86 0
12 14 13 11 -72 0
70 60 63 64 69 -196 0
70 60 63 64 69 -193 0
70 60 63 64 69 -195 0
70 60 63 64 69 -194 0
70 60 57 61 58 -196 0
70 60 57 61 58 -193 0
70 60 57 61 58 -195 0
70 60 57 61 58 -194 0
70 5 63 64 69 -68 0
70 5 63 64 69 -67 0
70 5 63 64 69 -66 0
70 5 63 64 69 -65 0
70 5 6 3 4 -68 0
70 5 6 3 4 -67 0
70 5 6 3 4 -66 0
70 5 6 3 4 -65 0
70 35 63 64 69 -166 0
70 35 63 64 69 -164 0
70 35 63 64 69 -165 0
70 35 63 64 69 -163 0
70 35 36 34 31 -166 0
70 35 36 34 31 -164 0
70 35 36 34 31 -165 0
70 35 36 34 31 -163 0
70 23 63 64 69 -146 0
70 23 63 64 69 -148 0
70 23 63 64 69 -145 0
70 23 63 64 69 -147 0
70 23 26 24 27 -146 0
70 23 26 24 27 -148 0
70 23 26 24 27 -145 0
70 23 26 24 27 -147 0
70 15 63 64 69 -124 0
70 15 63 64 69 -125 0
70 15 63 64 69 -126 0
70 15 63 64 69 -123 0
70 15 22 19 16 -124 0
70 15 22 19 16 -125 0
70 15 22 19 16 -126 0
70 15 22 19 16 -123 0
70 47 63 64 69 -188 0
70 47 63 64 69 -190 0
70 47 63 64 69 -187 0
70 47 63 64 69 -189 0
70 47 51 48 54 -188 0
70 47 51 48 54 -190 0
70 47 51 48 54 -187 0
70 47 51 48 54 -189 0
70 39 63 64 69 -179 0
70 39 63 64 69 -180 0
70 39 63 64 69 -178 0
70 39 63 64 69 -177 0
70 39 44 45 46 -179 0
70 39 44 45 46 -180 0
70 39 44 45 46 -178 0
70 39 44 45 46 -177 0
70 12 63 64 69 -100 0
70 12 63 64 69 -98 0
70 12 63 64 69 -99 0
70 12 63 64 69 -97 0
70 12 14 13 11 -100 0
70 12 14 13 11 -98 0
70 12 14 13 11 -99 0
70 12 14 13 11 -97 0
70 63 57 64 69 -196 0
70 63 57 64 69 -193 0
70 63 57 64 69 -195 0
70 63 57 64 69 -194 0
70 63 6 64 69 -68 0
70 63 6 64 69 -67 0
70 63 6 64 69 -66 0
70 63 6 64 69 -65 0
70 63 36 64 69 -166 0
70 63 36 64 69 -164 0
70 63 36 64 69 -165 0
70 63 36 64 69 -163 0
70 63 26 64 69 -146 0
70 63 26 64 69 -148 0
70 63 26 64 69 -145 0
70 63 26 64 69 -147 0
70 63 22 64 69 -124 0
70 63 22 64 69 -125 0
70 63 22 64 69 -126 0
70 63 22 64 69 -123 0
70 63 51 64 69 -188 0
70 63 51 64 69 -190 0
70 63 51 64 69 -187 0
70 63 51 64 69 -189 0
70 63 44 64 69 -179 0
70 63 44 64 69 -180 0
70 63 44 64 69 -178 0
70 63 44 64 69 -177 0
70 63 14 64 69 -100 0
70 63 14 64 69 -98 0
70 63 14 64 69 -99 0
70 63 14 64 69 -97 0
70 63 64 61 69 -196 0
70 63 64 61 69 -193 0
70 63 64 61 69 -195 0
70 63 64 61 69 -194 0
70 63 64 3 69 -68 0
70 63 64 3 69 -67 0
70 63 64 3 69 -66 0
70 63 64 3 69 -65 0
70 63 64 34 69 -166 0
70 63 64 34 69 -164 0
70 63 64 34 69 -165 0
70 63 64 34 69 -163 0
70 63 64 24 69 -146 0
70 63 64 24 69 -148 0
70 63 64 24 69 -145 0
70 63 64 24 69 -147 0
70 63 64 19 69 -124 0
70 63 64 19 69 -125 0
70 63 64 19 69 -126 0
70 63 64 19 69 -123 0
70 63 64 48 69 -188 0
70 63 64 48 69 -190 0
70 63 64 48 69 -187 0
70 63 64 48 69 -189 0
70 63 64 45 69 -179 0
70 63 64 45 69 -180 0
70 63 64 45 69 -178 0
70 63 64 45 69 -177 0
70 63 64 13 69 -100 0
70 63 64 13 69 -98 0
70 63 64 13 69 -99 0
70 63 64 13 69 -97 0
70 63 64 69 58 -196 0
70 63 64 69 58 -193 0
70 63 64 69 58 -195 0
70 63 64 69 58 -194 0
70 63 64 69 4 -68 0
70 63 64 69 4 -67 0
70 63 64 69 4 -66 0
70 63 64 69 4 -65 0
70 63 64 69 31 -166 0
70 63 64 69 31 -164 0
70 63 64 69 31 -165 0
70 63 64 69 31 -163 0
70 63 64 69 27 -146 0
70 63 64 69 27 -148 0
70 63 64 69 27 -145 0
70 63 64 69 27 -147 0
70 63 64 69 16 -124 0
70 63 64 69 16 -125 0
70 63 64 69 16 -126 0
70 63 64 69 16 -123 0
70 63 64 69 54 -188 0
70 63 64 69 54 -190 0
70 63 64 69 54 -187 0
70 63 64 69 54 -189 0
70 63 64 69 46 -179 0
70 63 64 69 46 -180 0
70 63 64 69 46 -178 0
70 63 64 69 46 -177 0
70 63 64 69 11 -100 0
70 63 64 69 11 -98 0
70 63 64 69 11 -99 0
70 63 64 69 11 -97 0
60 5 57 61 58 -55 0
60 5 57 61 58 -59 0
60 5 57 61 58 -56 0
60 5 57 61 58 -62 0
60 5 6 3 4 -55 0
60 5 6 3 4 -59 0
60 5 6 3 4 -56 0
60 5 6 3 4 -62 0
60 35 57 61 58 -160 0
60 35 57 61 58 -162 0
60 35 57 61 58 -159 0
60 35 57 61 58 -161 0
60 35 36 34 31 -160 0
60 35 36 34 31 -162 0
60 35 36 34 31 -159 0
60 35 36 34 31 -161 0
60 23 57 61 58 -142 0
60 23 57 61 58 -144 0
60 23 57 61 58 -141 0
60 23 57 61 58 -143 0
60 23 26 24 27 -142 0
60 23 26 24 27 -144 0
60 23 26 24 27 -141 0
60 23 26 24 27 -143 0
60 15 57 61 58 -122 0
60 15 57 61 58 -121 0
60 15 57 61 58 -120 0
60 15 57 61 58 -119 0
60 15 22 19 16 -122 0
60 15 22 19 16 -121 0
60 15 22 19 16 -120 0
60 15 22 19 16 -119 0
60 47 57 61 58 -184 0
60 47 57 61 58 -186 0
60 47 57 61 58 -183 0
60 47 57 61 58 -185 0
60 47 51 48 54 -184 0
60 47 51 48 54 -186 0
60 47 51 48 54 -183 0
60 47 51 48 54 -185 0
60 39 57 61 58 -173 0
60 39 57 61 58 -176 0
60 39 57 61 58 -175 0
60 39 57 61 58 -174 0
60 39 44 45 46 -173 0
60 39 44 45 46 -176 0
60 39 44 45 46 -175 0
60 39 44 45 46 -174 0
60 12 57 61 58 -95 0
60 12 57 61 58 -93 0
60 12 57 61 58 -94 0
60 12 57 61 58 -96 0
60 12 14 13 11 -95 0
60 12 14 13 11 -93 0
60 12 14 13 11 -94 0
60 12 14 13 11 -96 0
60 63 57 61 58 -196 0
60 63 57 61 58 -193 0
60 63 57 61 58 -195 0
60 63 57 61 58 -194 0
60 57 6 61 58 -55 0
60 57 6 61 58 -59 0
60 57 6 61 58 -56 0
60 57 6 61 58 -62 0
60 57 36 61 58 -160 0
60 57 36 61 58 -162 0
60 57 36 61 58 -159 0
60 57 36 61 58 -161 0
60 57 26 61 58 -142 0
60 57 26 61 58 -144 0
60 57 26 61 58 -141 0
60 57 26 61 58 -143 0
60 57 22 61 58 -122 0
60 57 22 61 58 -121 0
60 57 22 61 58 -120 0
60 57 22 61 58 -119 0
60 57 51 61 58 -184 0
60 57 51 61 58 -186 0
60 57 51 61 58 -183 0
60 57 51 61 58 -185 0
60 57 44 61 58 -173 0
60 57 44 61 58 -176 0
60 57 44 61 58 -175 0
60 57 44 61 58 -174 0
60 57 14 61 58 -95 0
60 57 14 61 58 -93 0
60 57 14 61 58 -94 0
60 57 14 61 58 -96 0
60 57 64 61 58 -196 0
60 57 64 61 58 -193 0
60 57 64 61 58 -195 0
60 57 64 61 58 -194 0
60 57 61 3 58 -55 0
60 57 61 3 58 -59 0
60 57 61 3 58 -56 0
60 57 61 3 58 -62 0
60 57 61 34 58 -160 0
60 57 61 34 58 -162 0
60 57 61 34 58 -159 0
60 57 61 34 58 -161 0
60 57 61 24 58 -142 0
60 57 61 24 58 -144 0
60 57 61 24 58 -141 0
60 57 61 24 58 -143 0
60 57 61 19 58 -122 0
60 57 61 19 58 -121 0
60 57 61 19 58 -120 0
60 57 61 19 58 -119 0
60 57 61 48 58 -184 0
60 57 61 48 58 -186 0
60 57 61 48 58 -183 0
60 57 61 48 58 -185 0
60 57 61 45 58 -173 0
60 57 61 45 58 -176 0
60 57 61 45 58 -175 0
60 57 61 45 58 -174 0
60 57 61 13 58 -95 0
60 57 61 13 58 -93 0
60 57 61 13 58 -94 0
60 57 61 13 58 -96 0
60 57 61 69 58 -196 0
60 57 61 69 58 -193 0
60 57 61 69 58 -195 0
60 57 61 69 58 -194 0
60 57 61 58 4 -55 0
60 57 61 58 4 -59 0
60 57 61 58 4 -56 0
60 57 61 58 4 -62 0
60 57 61 58 31 -160 0
60 57 61 58 31 -162 0
60 57 61 58 31 -159 0
60 57 61 58 31 -161 0
60 57 61 58 27 -142 0
60 57 61 58 27 -144 0
60 57 61 58 27 -141 0
60 57 61 58 27 -143 0
60 57 61 58 16 -122 0
60 57 61 58 16 -121 0
60 57 61 58 16 -120 0
60 57 61 58 16 -119 0
60 57 61 58 54 -184 0
60 57 61 58 54 -186 0
60 57 61 58 54 -183 0
60 57 61 58 54 -185 0
60 57 61 58 46 -173 0
60 57 61 58 46 -176 0
60 57 61 58 46 -175 0
60 57 61 58 46 -174 0
60 57 61 58 11 -95 0
60 57 61 58 11 -93 0
60 57 61 58 11 -94 0
60 57 61 58 11 -96 0
5 35 6 3 4 -33 0
5 35 6 3 4 -38 0
5 35 6 3 4 -37 0
5 35 6 3 4 -32 0
5 35 36 34 31 -33 0
5 35 36 34 31 -38 0
5 35 36 34 31 -37 0
5 35 36 34 31 -32 0
5 23 6 3 4 -30 0
5 23 6 3 4 -25 0
5 23 6 3 4 -29 0
5 23 6 3 4 -28 0
5 23 26 24 27 -30 0
5 23 26 24 27 -25 0
5 23 26 24 27 -29 0
5 23 26 24 27 -28 0
5 15 6 3 4 -21 0
5 15 6 3 4 -20 0
5 15 6 3 4 -18 0
5 15 6 3 4 -17 0
5 15 22 19 16 -21 0
5 15 22 19 16 -20 0
5 15 22 19 16 -18 0
5 15 22 19 16 -17 0
5 47 6 3 4 -53 0
5 47 6 3 4 -50 0
5 47 6 3 4 -52 0
5 47 6 3 4 -49 0
5 47 51 48 54 -53 0
5 47 51 48 54 -50 0
5 47 51 48 54 -52 0
5 47 51 48 54 -49 0
5 39 6 3 4 -42 0
5 39 6 3 4 -40 0
5 39 6 3 4 -41 0
5 39 6 3 4 -43 0
5 39 44 45 46 -42 0
5 39 44 45 46 -40 0
5 39 44 45 46 -41 0
5 39 44 45 46 -43 0
5 12 6 3 4 -10 0
5 12 6 3 4 -9 0
5 12 6 3 4 -7 0
5 12 6 3 4 -8 0
5 12 14 13 11 -10 0
5 12 14 13 11 -9 0
5 12 14 13 11 -7 0
5 12 14 13 11 -8 0
5 63 6 3 4 -68 0
5 63 6 3 4 -67 0
5 63 6 3 4 -66 0
5 63 6 3 4 -65 0
5 57 6 3 4 -55 0
5 57 6 3 4 -59 0
5 57 6 3 4 -56 0
5 57 6 3 4 -62 0
5 6 36 3 4 -33 0
5 6 36 3 4 -38 0
5 6 36 3 4 -37 0
5 6 36 3 4 -32 0
5 6 26 3 4 -30 0
5 6 26 3 4 -25 0
5 6 26 3 4 -29 0
5 6 26 3 4 -28 0
5 6 22 3 4 -21 0
5 6 22 3 4 -20 0
5 6 22 3 4 -18 0
5 6 22 3 4 -17 0
5 6 51 3 4 -53 0
5 6 51 3 4 -50 0
5 6 51 3 4 -52 0
5 6 51 3 4 -49 0
5 6 44 3 4 -42 0
5 6 44 3 4 -40 0
5 6 44 3 4 -41 0
5 6 44 3 4 -43 0
5 6 14 3 4 -10 0
5 6 14 3 4 -9 0
5 6 14 3 4 -7 0
5 6 14 3 4 -8 0
5 6 64 3 4 -68 0
5 6 64 3 4 -67 0
5 6 64 3 4 -66 0
5 6 64 3 4 -65 0
5 6 61 3 4 -55 0
5 6 61 3 4 -59 0
5 6 61 3 4 -56 0
5 6 61 3 4 -62 0
5 6 3 34 4 -33 0
5 6 3 34 4 -38 0
5 6 3 34 4 -37 0
5 6 3 34 4 -32 0
5 6 3 24 4 -30 0
5 6 3 24 4 -25 0
5 6 3 24 4 -29 0
5 6 3 24 4 -28 0
5 6 3 19 4 -21 0
5 6 3 19 4 -20 0
5 6 3 19 4 -18 0
5 6 3 19 4 -17 0
5 6 3 48 4 -53 0
5 6 3 48 4 -50 0
5 6 3 48 4 -52 0
5 6 3 48 4 -49 0
5 6 3 45 4 -42 0
5 6 3 45 4 -40 0
5 6 3 45 4 -41 0
5 6 3 45 4 -43 0
5 6 3 13 4 -10 0
5 6 3 13 4 -9 0
5 6 3 13 4 -7 0
5 6 3 13 4 -8 0
5 6 3 69 4 -68 0
5 6 3 69 4 -67 0
5 6 3 69 4 -66 0
5 6 3 69 4 -65 0
5 6 3 58 4 -55 0
5 6 3 58 4 -59 0
5 6 3 58 4 -56 0
5 6 3 58 4 -62 0
5 6 3 4 31 -33 0
5 6 3 4 31 -38 0
5 6 3 4 31 -37 0
5 6 3 4 31 -32 0
5 6 3 4 27 -30 0
5 6 3 4 27 -25 0
5 6 3 4 27 -29 0
5 6 3 4 27 -28 0
5 6 3 4 16 -21 0
5 6 3 4 16 -20 0
5 6 3 4 16 -18 0
5 6 3 4 16 -17 0
5 6 3 4 54 -53 0
5 6 3 4 54 -50 0
5 6 3 4 54 -52 0
5 6 3 4 54 -49 0
5 6 3 4 46 -42 0
5 6 3 4 46 -40 0
5 6 3 4 46 -41 0
5 6 3 4 46 -43 0
5 6 3 4 11 -10 0
5 6 3 4 11 -9 0
5 6 3 4 11 -7 0
5 6 3 4 11 -8 0
35 23 36 34 31 -132 0
35 23 36 34 31 -129 0
35 23 36 34 31 -131 0
35 23 36 34 31 -130 0
35 23 26 24 27 -132 0
35 23 26 24 27 -129 0
35 23 26 24 27 -131 0
35 23 26 24 27 -130 0
35 15 36 34 31 -109 0
35 15 36 34 31 -108 0
35 15 36 34 31 -107 0
35 15 36 34 31 -110 0
35 15 22 19 16 -109 0
35 15 22 19 16 -108 0
35 15 22 19 16 -107 0
35 15 22 19 16 -110 0
35 47 36 34 31 -156 0
35 47 36 34 31 -157 0
35 47 36 34 31 -155 0
35 47 36 34 31 -158 0
35 47 51 48 54 -156 0
35 47 51 48 54 -157 0
35 47 51 48 54 -155 0
35 47 51 48 54 -158 0
35 39 36 34 31 -151 0
35 39 36 34 31 -154 0
35 39 36 34 31 -152 0
35 39 36 34 31 -153 0
35 39 44 45 46 -151 0
35 39 44 45 46 -154 0
35 39 44 45 46 -152 0
35 39 44 45 46 -153 0
35 12 36 34 31 -84 0
35 12 36 34 31 -83 0
35 12 36 34 31 -82 0
35 12 36 34 31 -81 0
35 12 14 13 11 -84 0
35 12 14 13 11 -83 0
35 12 14 13 11 -82 0
35 12 14 13 11 -81 0
35 63 36 34 31 -166 0
35 63 36 34 31 -164 0
35 63 36 34 31 -165 0
35 63 36 34 31 -163 0
35 57 36 34 31 -160 0
35 57 36 34 31 -162 0
35 57 36 34 31 -159 0
35 57 36 34 31 -161 0
35 6 36 34 31 -33 0
35 6 36 34 31 -38 0
35 6 36 34 31 -37 0
35 6 36 34 31 -32 0
35 36 26 34 31 -132 0
35 36 26 34 31 -129 0
35 36 26 34 31 -131 0
35 36 26 34 31 -130 0
35 36 22 34 31 -109 0
35 36 22 34 31 -108 0
35 36 22 34 31 -107 0
35 36 22 34 31 -110 0
35 36 51 34 31 -156 0
35 36 51 34 31 -157 0
35 36 51 34 31 -155 0
35 36 51 34 31 -158 0
35 36 44 34 31 -151 0
35 36 44 34 31 -154 0
35 36 44 34 31 -152 0
35 36 44 34 31 -153 0
35 36 14 34 31 -84 0
35 36 14 34 31 -83 0
35 36 14 34 31 -82 0
35 36 14 34 31 -81 0
35 36 64 34 31 -166 0
35 36 64 34 31 -164 0
35 36 64 34 31 -165 0
35 36 64 34 31 -163 0
35 36 61 34 31 -160 0
35 36 61 34 31 -162 0
35 36 61 34 31 -159 0
35 36 61 34 31 -161 0
35 36 3 34 31 -33 0
35 36 3 34 31 -38 0
35 36 3 34 31 -37 0
35 36 3 34 31 -32 0
35 36 34 24 31 -132 0
35 36 34 24 31 -129 0
35 36 34 24 31 -131 0
35 36 34 24 31 -130 0
35 36 34 19 31 -109 0
35 36 34 19 31 -108 0
35 36 34 19 31 -107 0
35 36 34 19 31 -110 0
35 36 34 48 31 -156 0
35 36 34 48 31 -157 0
35 36 34 48 31 -155 0
35 36 34 48 31 -158 0
35 36 34 45 31 -151 0
35 36 34 45 31 -154 0
35 36 34 45 31 -152 0
35 36 34 45 31 -153 0
35 36 34 13 31 -84 0
35 36 34 13 31 -83 0
35 36 34 13 31 -82 0
35 36 34 13 31 -81 0
35 36 34 69 31 -166 0
35 36 34 69 31 -164 0
35 36 34 69 31 -165 0
35 36 34 69 31 -163 0
35 36 34 58 31 -160 0
35 36 34 58 31 -162 0
35 36 34 58 31 -159 0
35 36 34 58 31 -161 0
35 36 34 4 31 -33 0
35 36 34 4 31 -38 0
35 36 34 4 31 -37 0
35 36 34 4 31 -32 0
35 36 34 31 27 -132 0
35 36 34 31 27 -129 0
35 36 34 31 27 -131 0
35 36 34 31 27 -130 0
35 36 34 31 16 -109 0
35 36 34 31 16 -108 0
35 36 34 31 16 -107 0
35 36 34 31 16 -110 0
35 36 34 31 54 -156 0
35 36 34 31 54 -157 0
35 36 34 31 54 -155 0
35 36 34 31 54 -158 0
35 36 34 31 46 -151 0
35 36 34 31 46 -154 0
35 36 34 31 46 -152 0
35 36 34 31 46 -153 0
35 36 34 31 11 -84 0
35 36 34 31 11 -83 0
35 36 34 31 11 -82 0
35 36 34 31 11 -81 0
23 15 26 24 27 -104 0
23 15 26 24 27 -106 0
23 15 26 24 27 -103 0
23 15 26 24 27 -105 0
23 15 22 19 16 -104 0
23 15 22 19 16 -106 0
23 15 22 19 16 -103 0
23 15 22 19 16 -105 0
23 47 26 24 27 -139 0
23 47 26 24 27 -140 0
23 47 26 24 27 -137 0
23 47 26 24 27 -138 0
23 47 51 48 54 -139 0
23 47 51 48 54 -140 0
23 47 51 48 54 -137 0
23 47 51 48 54 -138 0
23 39 26 24 27 -133 0
23 39 26 24 27 -135 0
23 39 26 24 27 -136 0
23 39 26 24 27 -134 0
23 39 44 45 46 -133 0
23 39 44 45 46 -135 0
23 39 44 45 46 -136 0
23 39 44 45 46 -134 0
23 12 26 24 27 -77 0
23 12 26 24 27 -80 0
23 12 26 24 27 -79 0
23 12 26 24 27 -78 0
23 12 14 13 11 -77 0
23 12 14 13 11 -80 0
23 12 14 13 11 -79 0
23 12 14 13 11 -78 0
23 63 26 24 27 -146 0
23 63 26 24 27 -148 0
23 63 26 24 27 -145 0
23 63 26 24 27 -147 0
23 57 26 24 27 -142 0
23 57 26 24 27 -144 0
23 57 26 24 27 -141 0
23 57 26 24 27 -143 0
23 6 26 24 27 -30 0
23 6 26 24 27 -25 0
23 6 26 24 27 -29 0
23 6 26 24 27 -28 0
23 36 26 24 27 -132 0
23 36 26 24 27 -129 0
23 36 26 24 27 -131 0
23 36 26 24 27 -130 0
23 26 22 24 27 -104 0
23 26 22 24 27 -106 0
23 26 22 24 27 -103 0
23 26 22 24 27 -105 0
23 26 51 24 27 -139 0
23 26 51 24 27 -140 0
23 26 51 24 27 -137 0
23 26 51 24 27 -138 0
23 26 44 24 27 -133 0
23 26 44 24 27 -135 0
23 26 44 24 27 -136 0
23 26 44 24 27 -134 0
23 26 14 24 27 -77 0
23 26 14 24 27 -80 0
23 26 14 24 27 -79 0
23 26 14 24 27 -78 0
23 26 64 24 27 -146 0
23 26 64 24 27 -148 0
23 26 64 24 27 -145 0
23 26 64 24 27 -147 0
23 26 61 24 27 -142 0
23 26 61 24 27 -144 0
23 26 61 24 27 -141 0
23 26 61 24 27 -143 0
23 26 3 24 27 -30 0
23 26 3 24 27 -25 0
23 26 3 24 27 -29 0
23 26 3 24 27 -28 0
23 26 34 24 27 -132 0
23 26 34 24 27 -129 0
23 26 34 24 27 -131 0
23 26 34 24 27 -130 0
23 26 24 19 27 -104 0
23 26 24 19 27 -106 0
23 26 24 19 27 -103 0
23 26 24 19 27 -105 0
23 26 24 48 27 -139 0
23 26 24 48 27 -140 0
23 26 24 48 27 -137 0
23 26 24 48 27 -138 0
23 26 24 45 27 -133 0
23 26 24 45 27 -135 0
23 26 24 45 27 -136 0
23 26 24 45 27 -134 0
23 26 24 13 27 -77 0
23 26 24 13 27 -80 0
23 26 24 13 27 -79 0
23 26 24 13 27 -78 0
23 26 24 69 27 -146 0
23 26 24 69 27 -148 0
23 26 24 69 27 -145 0
23 26 24 69 27 -147 0
23 26 24 58 27 -142 0
23 26 24 58 27 -144 0
23 26 24 58 27 -141 0
23 26 24 58 27 -143 0
23 26 24 4 27 -30 0
23 26 24 4 27 -25 0
23 26 24 4 27 -29 0
23 26 24 4 27 -28 0
23 26 24 31 27 -132 0
23 26 24 31 27 -129 0
23 26 24 31 27 -131 0
23 26 24 31 27 -130 0
23 26 24 27 16 -104 0
23 26 24 27 16 -106 0
23 26 24 27 16 -103 0
23 26 24 27 16 -105 0
23 26 24 27 54 -139 0
23 26 24 27 54 -140 0
23 26 24 27 54 -137 0
23 26 24 27 54 -138 0
23 26 24 27 46 -133 0
23 26 24 27 46 -135 0
23 26 24 27 46 -136 0
23 26 24 27 46 -134 0
23 26 24 27 11 -77 0
23 26 24 27 11 -80 0
23 26 24 27 11 -79 0
23 26 24 27 11 -78 0
15 47 22 19 16 -115 0
15 47 22 19 16 -118 0
15 47 22 19 16 -117 0
15 47 22 19 16 -116 0
15 47 51 48 54 -115 0
15 47 51 48 54 -118 0
15 47 51 48 54 -117 0
15 47 51 48 54 -116 0
15 39 22 19 16 -114 0
15 39 22 19 16 -111 0
15 39 22 19 16 -113 0
15 39 22 19 16 -112 0
15 39 44 45 46 -114 0
15 39 44 45 46 -111 0
15 39 44 45 46 -113 0
15 39 44 45 46 -112 0
15 12 22 19 16 -75 0
15 12 22 19 16 -76 0
15 12 22 19 16 -73 0
15 12 22 19 16 -74 0
15 12 14 13 11 -75 0
15 12 14 13 11 -76 0
15 12 14 13 11 -73 0
15 12 14 13 11 -74 0
15 63 22 19 16 -124 0
15 63 22 19 16 -125 0
15 63 22 19 16 -126 0
15 63 22 19 16 -123 0
15 57 22 19 16 -122 0
15 57 22 19 16 -121 0
15 57 22 19 16 -120 0
15 57 22 19 16 -119 0
15 6 22 19 16 -21 0
15 6 22 19 16 -20 0
15 6 22 19 16 -18 0
15 6 22 19 16 -17 0
15 36 22 19 16 -109 0
15 36 22 19 16 -108 0
15 36 22 19 16 -107 0
15 36 22 19 16 -110 0
15 26 22 19 16 -104 0
15 26 22 19 16 -106 0
15 26 22 19 16 -103 0
15 26 22 19 16 -105 0
15 22 51 19 16 -115 0
15 22 51 19 16 -118 0
15 22 51 19 16 -117 0
15 22 51 19 16 -116 0
15 22 44 19 16 -114 0
15 22 44 19 16 -111 0
15 22 44 19 16 -113 0
15 22 44 19 16 -112 0
15 22 14 19 16 -75 0
15 22 14 19 16 -76 0
15 22 14 19 16 -73 0
15 22 14 19 16 -74 0
15 22 64 19 16 -124 0
15 22 64 19 16 -125 0
15 22 64 19 16 -126 0
15 22 64 19 16 -123 0
15 22 61 19 16 -122 0
15 22 61 19 16 -121 0
15 22 61 19 16 -120 0
15 22 61 19 16 -119 0
15 22 3 19 16 -21 0
15 22 3 19 16 -20 0
15 22 3 19 16 -18 0
15 22 3 19 16 -17 0
15 22 34 19 16 -109 0
15 22 34 19 16 -108 0
15 22 34 19 16 -107 0
15 22 34 19 16 -110 0
15 22 24 19 16 -104 0
15 22 24 19 16 -106 0
15 22 24 19 16 -103 0
15 22 24 19 16 -105 0
15 22 19 48 16 -115 0
15 22 19 48 16 -118 0
15 22 19 48 16 -117 0
15 22 19 48 16 -116 0
15 22 19 45 16 -114 0
15 22 19 45 16 -111 0
15 22 19 45 16 -113 0
15 22 19 45 16 -112 0
15 22 19 13 16 -75 0
15 22 19 13 16 -76 0
15 22 19 13 16 -73 0
15 22 19 13 16 -74 0
15 22 19 69 16 -124 0
15 22 19 69 16 -125 0
15 22 19 69 16 -126 0
15 22 19 69 16 -123 0
15 22 19 58 16 -122 0
15 22 19 58 16 -121 0
15 22 19 58 16 -120 0
15 22 19 58 16 -119 0
15 22 19 4 16 -21 0
15 22 19 4 16 -20 0
15 22 19 4 16 -18 0
15 22 19 4 16 -17 0
15 22 19 31 16 -109 0
15 22 19 31 16 -108 0
15 22 19 31 16 -107 0
15 22 19 31 16 -110 0
15 22 19 27 16 -104 0
15 22 19 27 16 -106 0
15 22 19 27 16 -103 0
15 22 19 27 16 -105 0
15 22 19 16 54 -115 0
15 22 19 16 54 -118 0
15 22 19 16 54 -117 0
15 22 19 16 54 -116 0
15 22 19 16 46 -114 0
15 22 19 16 46 -111 0
15 22 19 16 46 -113 0
15 22 19 16 46 -112 0
15 22 19 16 11 -75 0
15 22 19 16 11 -76 0
15 22 19 16 11 -73 0
15 22 19 16 11 -74 0
47 39 51 48 54 -172 0
47 39 51 48 54 -170 0
47 39 51 48 54 -171 0
47 39 51 48 54 -169 0
47 39 44 45 46 -172 0
47 39 44 45 46 -170 0
47 39 44 45 46 -171 0
47 39 44 45 46 -169 0
47 12 51 48 54 -92 0
47 12 51 48 54 -89 0
47 12 51 48 54 -90 0
47 12 51 48 54 -91 0
47 12 14 13 11 -92 0
47 12 14 13 11 -89 0
47 12 14 13 11 -90 0
47 12 14 13 11 -91 0
47 63 51 48 54 -188 0
47 63 51 48 54 -190 0
47 63 51 48 54 -187 0
47 63 51 48 54 -189 0
47 57 51 48 54 -184 0
47 57 51 48 54 -186 0
47 57 51 48 54 -183 0
47 57 51 48 54 -185 0
47 6 51 48 54 -53 0
47 6 51 48 54 -50 0
47 6 51 48 54 -52 0
47 6 51 48 54 -49 0
47 36 51 48 54 -156 0
47 36 51 48 54 -157 0
47 36 51 48 54 -155 0
47 36 51 48 54 -158 0
47 26 51 48 54 -139 0
47 26 51 48 54 -140 0
47 26 51 48 54 -137 0
47 26 51 48 54 -138 0
47 22 51 48 54 -115 0
47 22 51 48 54 -118 0
47 22 51 48 54 -117 0
47 22 51 48 54 -116 0
47 51 44 48 54 -172 0
47 51 44 48 54 -170 0
47 51 44 48 54 -171 0
47 51 44 48 54 -169 0
47 51 14 48 54 -92 0
47 51 14 48 54 -89 0
47 51 14 48 54 -90 0
47 51 14 48 54 -91 0
47 51 64 48 54 -188 0
47 51 64 48 54 -190 0
47 51 64 48 54 -187 0
47 51 64 48 54 -189 0
47 51 61 48 54 -184 0
47 51 61 48 54 -186 0
47 51 61 48 54 -183 0
47 51 61 48 54 -185 0
47 51 3 48 54 -53 0
47 51 3 48 54 -50 0
47 51 3 48 54 -52 0
47 51 3 48 54 -49 0
47 51 34 48 54 -156 0
47 51 34 48 54 -157 0
47 51 34 48 54 -155 0
47 51 34 48 54 -158 0
47 51 24 48 54 -139 0
47 51 24 48 54 -140 0
47 51 24 48 54 -137 0
47 51 24 48 54 -138 0
47 51 19 48 54 -115 0
47 51 19 48 54 -118 0
47 51 19 48 54 -117 0
47 51 19 48 54 -116 0
47 51 48 45 54 -172 0
47 51 48 45 54 -170 0
47 51 48 45 54 -171 0
47 51 48 45 54 -169 0
47 51 48 13 54 -92 0
47 51 48 13 54 -89 0
47 51 48 13 54 -90 0
47 51 48 13 54 -91 0
47 51 48 69 54 -188 0
47 51 48 69 54 -190 0
47 51 48 69 54 -187 0
47 51 48 69 54 -189 0
47 51 48 58 54 -184 0
47 51 48 58 54 -186 0
47 51 48 58 54 -183 0
47 51 48 58 54 -185 0
47 51 48 4 54 -53 0
47 51 48 4 54 -50 0
47 51 48 4 54 -52 0
47 51 48 4 54 -49 0
47 51 48 31 54 -156 0
47 51 48 31 54 -157 0
47 51 48 31 54 -155 0
47 51 48 31 54 -158 0
47 51 48 27 54 -139 0
47 51 48 27 54 -140 0
47 51 48 27 54 -137 0
47 51 48 27 54 -138 0
47 51 48 16 54 -115 0
47 51 48 16 54 -118 0
47 51 48 16 54 -117 0
47 51 48 16 54 -116 0
47 51 48 54 46 -172 0
47 51 48 54 46 -170 0
47 51 48 54 46 -171 0
47 51 48 54 46 -169 0
47 51 48 54 11 -92 0
47 51 48 54 11 -89 0
47 51 48 54 11 -90 0
47 51 48 54 11 -91 0
39 12 44 45 46 -85 0
39 12 44 45 46 -87 0
39 12 44 45 46 -88 0
39 12 44 45 46 -86 0
39 12 14 13 11 -85 0
39 12 14 13 11 -87 0
39 12 14 13 11 -88 0
39 12 14 13 11 -86 0
39 63 44 45 46 -179 0
39 63 44 45 46 -180 0
39 63 44 45 46 -178 0
39 63 44 45 46 -177 0
39 57 44 45 46 -173 0
39 57 44 45 46 -176 0
39 57 44 45 46 -175 0
39 57 44 45 46 -174 0
39 6 44 45 46 -42 0
39 6 44 45 46 -40 0
39 6 44 45 46 -41 0
39 6 44 45 46 -43 0
39 36 44 45 46 -151 0
39 36 44 45 46 -154 0
39 36 44 45 46 -152 0
39 36 44 45 46 -153 0
39 26 44 45 46 -133 0
39 26 44 45 46 -135 0
39 26 44 45 46 -136 0
39 26 44 45 46 -134 0
39 22 44 45 46 -114 0
39 22 44 45 46 -111 0
39 22 44 45 46 -113 0
39 22 44 45 46 -112 0
39 51 44 45 46 -172 0
39 51 44 45 46 -170 0
39 51 44 45 46 -171 0
39 51 44 45 46 -169 0
39 44 14 45 46 -85 0
39 44 14 45 46 -87 0
39 44 14 45 46 -88 0
39 44 14 45 46 -86 0
39 44 64 45 46 -179 0
39 44 64 45 46 -180 0
39 44 64 45 46 -178 0
39 44 64 45 46 -177 0
39 44 61 45 46 -173 0
39 44 61 45 46 -176 0
39 44 61 45 46 -175 0
39 44 61 45 46 -174 0
39 44 3 45 46 -42 0
39 44 3 45 46 -40 0
39 44 3 45 46 -41 0
39 44 3 45 46 -43 0
39 44 34 45 46 -151 0
39 44 34 45 46 -154 0
39 44 34 45 46 -152 0
39 44 34 45 46 -153 0
39 44 24 45 46 -133 0
39 44 24 45 46 -135 0
39 44 24 45 46 -136 0
39 44 24 45 46 -134 0
39 44 19 45 46 -114 0
39 44 19 45 46 -111 0
39 44 19 45 46 -113 0
39 44 19 45 46 -112 0
39 44 48 45 46 -172 0
39 44 48 45 46 -170 0
39 44 48 45 46 -171 0
39 44 48 45 46 -169 0
39 44 45 13 46 -85 0
39 44 45 13 46 -87 0
39 44 45 13 46 -88 0
39 44 45 13 46 -86 0
39 44 45 69 46 -179 0
39 44 45 69 46 -180 0
39 44 45 69 46 -178 0
39 44 45 69 46 -177 0
39 44 45 58 46 -173 0
39 44 45 58 46 -176 0
39 44 45 58 46 -175 0
39 44 45 58 46 -174 0
39 44 45 4 46 -42 0
39 44 45 4 46 -40 0
39 44 45 4 46 -41 0
39 44 45 4 46 -43 0
39 44 45 31 46 -151 0
39 44 45 31 46 -154 0
39 44 45 31 46 -152 0
39 44 45 31 46 -153 0
39 44 45 27 46 -133 0
39 44 45 27 46 -135 0
39 44 45 27 46 -136 0
39 44 45 27 46 -134 0
39 44 45 16 46 -114 0
39 44 45 16 46 -111 0
39 44 45 16 46 -113 0
39 44 45 16 46 -112 0
39 44 45 54 46 -172 0
39 44 45 54 46 -170 0
39 44 45 54 46 -171 0
39 44 45 54 46 -169 0
39 44 45 46 11 -85 0
39 44 45 46 11 -87 0
39 44 45 46 11 -88 0
39 44 45 46 11 -86 0
12 63 14 13 11 -100 0
12 63 14 13 11 -98 0
12 63 14 13 11 -99 0
12 63 14 13 11 -97 0
12 57 14 13 11 -95 0
12 57 14 13 11 -93 0
12 57 14 13 11 -94 0
12 57 14 13 11 -96 0
12 6 14 13 11 -10 0
12 6 14 13 11 -9 0
12 6 14 13 11 -7 0
12 6 14 13 11 -8 0
12 36 14 13 11 -84 0
12 36 14 13 11 -83 0
12 36 14 13 11 -82 0
12 36 14 13 11 -81 0
12 26 14 13 11 -77 0
12 26 14 13 11 -80 0
12 26 14 13 11 -79 0
12 26 14 13 11 -78 0
12 22 14 13 11 -75 0
12 22 14 13 11 -76 0
12 22 14 13 11 -73 0
12 22 14 13 11 -74 0
12 51 14 13 11 -92 0
12 51 14 13 11 -89 0
12 51 14 13 11 -90 0
12 51 14 13 11 -91 0
12 44 14 13 11 -85 0
12 44 14 13 11 -87 0
12 44 14 13 11 -88 0
12 44 14 13 11 -86 0
12 14 64 13 11 -100 0
12 14 64 13 11 -98 0
12 14 64 13 11 -99 0
12 14 64 13 11 -97 0
12 14 61 13 11 -95 0
12 14 61 13 11 -93 0
12 14 61 13 11 -94 0
12 14 61 13 11 -96 0
12 14 3 13 11 -10 0
12 14 3 13 11 -9 0
12 14 3 13 11 -7 0
12 14 3 13 11 -8 0
12 14 34 13 11 -84 0
12 14 34 13 11 -83 0
12 14 34 13 11 -82 0
12 14 34 13 11 -81 0
12 14 24 13 11 -77 0
12 14 24 13 11 -80 0
12 14 24 13 11 -79 0
12 14 24 13 11 -78 0
12 14 19 13 11 -75 0
12 14 19 13 11 -76 0
12 14 19 13 11 -73 0
12 14 19 13 11 -74 0
12 14 48 13 11 -92 0
12 14 48 13 11 -89 0
12 14 48 13 11 -90 0
12 14 48 13 11 -91 0
12 14 45 13 11 -85 0
12 14 45 13 11 -87 0
12 14 45 13 11 -88 0
12 14 45 13 11 -86 0
12 14 13 69 11 -100 0
12 14 13 69 11 -98 0
12 14 13 69 11 -99 0
12 14 13 69 11 -97 0
12 14 13 58 11 -95 0
12 14 13 58 11 -93 0
12 14 13 58 11 -94 0
12 14 13 58 11 -96 0
12 14 13 4 11 -10 0
12 14 13 4 11 -9 0
12 14 13 4 11 -7 0
12 14 13 4 11 -8 0
12 14 13 31 11 -84 0
12 14 13 31 11 -83 0
12 14 13 31 11 -82 0
12 14 13 31 11 -81 0
12 14 13 27 11 -77 0
12 14 13 27 11 -80 0
12 14 13 27 11 -79 0
12 14 13 27 11 -78 0
12 14 13 16 11 -75 0
12 14 13 16 11 -76 0
12 14 13 16 11 -73 0
12 14 13 16 11 -74 0
12 14 13 54 11 -92 0
12 14 13 54 11 -89 0
12 14 13 54 11 -90 0
12 14 13 54 11 -91 0
12 14 13 46 11 -85 0
12 14 13 46 11 -87 0
12 14 13 46 11 -88 0
12 14 13 46 11 -86 0
70 60 63 57 64 61 -196 0
70 60 63 57 64 61 -193 0
70 60 63 57 64 61 -195 0
70 60 63 57 64 61 -194 0
70 60 63 57 64 69 -196 0
70 60 63 57 64 69 -193 0
70 60 63 57 64 69 -195 0
70 60 63 57 64 69 -194 0
70 60 63 57 61 58 -196 0
70 60 63 57 61 58 -193 0
70 60 63 57 61 58 -195 0
70 60 63 57 61 58 -194 0
70 60 63 57 69 58 -196 0
70 60 63 57 69 58 -193 0
70 60 63 57 69 58 -195 0
70 60 63 57 69 58 -194 0
70 60 63 64 61 69 -196 0
70 60 63 64 61 69 -193 0
70 60 63 64 61 69 -195 0
70 60 63 64 61 69 -194 0
70 60 63 64 69 58 -196 0
70 60 63 64 69 58 -193 0
70 60 63 64 69 58 -195 0
70 60 63 64 69 58 -194 0
70 60 57 64 61 58 -196 0
70 60 57 64 61 58 -193 0
70 60 57 64 61 58 -195 0
70 60 57 64 61 58 -194 0
70 60 57 61 69 58 -196 0
70 60 57 61 69 58 -193 0
70 60 57 61 69 58 -195 0
70 60 57 61 69 58 -194 0
70 60 64 61 69 58 -196 0
70 60 64 61 69 58 -193 0
70 60 64 61 69 58 -195 0
70 60 64 61 69 58 -194 0
70 5 63 6 64 3 -68 0
70 5 63 6 64 3 -67 0
70 5 63 6 64 3 -66 0
70 5 63 6 64 3 -65 0
70 5 63 6 64 69 -68 0
70 5 63 6 64 69 -67 0
70 5 63 6 64 69 -66 0
70 5 63 6 64 69 -65 0
70 5 63 6 3 4 -68 0
70 5 63 6 3 4 -67 0
70 5 63 6 3 4 -66 0
70 5 63 6 3 4 -65 0
70 5 63 6 69 4 -68 0
70 5 63 6 69 4 -67 0
70 5 63 6 69 4 -66 0
70 5 63 6 69 4 -65 0
70 5 63 64 3 69 -68 0
70 5 63 64 3 69 -67 0
70 5 63 64 3 69 -66 0
70 5 63 64 3 69 -65 0
70 5 63 64 69 4 -68 0
70 5 63 64 69 4 -67 0
70 5 63 64 69 4 -66 0
70 5 63 64 69 4 -65 0
70 5 6 64 3 4 -68 0
70 5 6 64 3 4 -67 0
70 5 6 64 3 4 -66 0
70 5 6 64 3 4 -65 0
70 5 6 3 69 4 -68 0
70 5 6 3 69 4 -67 0
70 5 6 3 69 4 -66 0
70 5 6 3 69 4 -65 0
70 5 64 3 69 4 -68 0
70 5 64 3 69 4 -67 0
70 5 64 3 69 4 -66 0
70 5 64 3 69 4 -65 0
70 35 63 36 64 34 -166 0
70 35 63 36 64 34 -164 0
70 35 63 36 64 34 -165 0
70 35 63 36 64 34 -163 0
70 35 63 36 64 69 -166 0
70 35 63 36 64 69 -164 0
70 35 63 36 64 69 -165 0
70 35 63 36 64 69 -163 0
70 35 63 36 34 31 -166 0
70 35 63 36 34 31 -164 0
70 35 63 36 34 31 -165 0
70 35 63 36 34 31 -163 0
70 35 63 36 69 31 -166 0
70 35 63 36 69 31 -164 0
70 35 63 36 69 31 -165 0
70 35 63 36 69 31 -163 0
70 35 63 64 34 69 -166 0
70 35 63 64 34 69 -164 0
70 35 63 64 34 69 -165 0
70 35 63 64 34 69 -163 0
70 35 63 64 69 31 -166 0
70 35 63 64 69 31 -164 0
70 35 63 64 69 31 -165 0
70 35 63 64 69 31 -163 0
70 35 36 64 34 31 -166 0
70 35 36 64 34 31 -164 0
70 35 36 64 34 31 -165 0
70 35 36 64 34 31 -163 0
70 35 36 34 69 31 -166 0
70 35 36 34 69 31 -164 0
70 35 36 34 69 31 -165 0
70 35 36 34 69 31 -163 0
70 35 64 34 69 31 -166 0
70 35 64 34 69 31 -164 0
70 35 64 34 69 31 -165 0
70 35 64 34 69 31 -163 0
70 23 63 26 64 24 -146 0
70 23 63 26 64 24 -148 0
70 23 63 26 64 24 -145 0
70 23 63 26 64 24 -147 0
70 23 63 26 64 69 -146 0
70 23 63 26 64 69 -148 0
70 23 63 26 64 69 -145 0
70 23 63 26 64 69 -147 0
70 23 63 26 24 27 -146 0
70 23 63 26 24 27 -148 0
70 23 63 26 24 27 -145 0
70 23 63 26 24 27 -147 0
70 23 63 26 69 27 -146 0
70 23 63 26 69 27 -148 0
70 23 63 26 69 27 -145 0
70 23 63 26 69 27 -147 0
70 23 63 64 24 69 -146 0
70 23 63 64 24 69 -148 0
70 23 63 64 24 69 -145 0
70 23 63 64 24 69 -147 0
70 23 63 64 69 27 -146 0
70 23 63 64 69 27 -148 0
70 23 63 64 69 27 -145 0
70 23 63 64 69 27 -147 0
70 23 26 64 24 27 -146 0
70 23 26 64 24 27 -148 0
70 23 26 64 24 27 -145 0
70 23 26 64 24 27 -147 0
70 23 26 24 69 27 -146 0
70 23 26 24 69 27 -148 0
70 23 26 24 69 27 -145 0
70 23 26 24 69 27 -147 0
70 23 64 24 69 27 -146 0
70 23 64 24 69 27 -148 0
70 23 64 24 69 27 -145 0
70 23 64 24 69 27 -147 0
70 15 63 22 64 19 -124 0
70 15 63 22 64 19 -125 0
70 15 63 22 64 19 -126 0
70 15 63 22 64 19 -123 0
70 15 63 22 64 69 -124 0
70 15 63 22 64 69 -125 0
70 15 63 22 64 69 -126 0
70 15 63 22 64 69 -123 0
70 15 63 22 19 16 -124 0
70 15 63 22 19 16 -125 0
70 15 63 22 19 16 -126 0
70 15 63 22 19 16 -123 0
70 15 63 22 69 16 -124 0
70 15 63 22 69 16 -125 0
70 15 63 22 69 16 -126 0
70 15 63 22 69 16 -123 0
70 15 63 64 19 69 -124 0
70 15 63 64 19 69 -125 0
70 15 63 64 19 69 -126 0
70 15 63 64 19 69 -123 0
70 15 63 64 69 16 -124 0
70 15 63 64 69 16 -125 0
70 15 63 64 69 16 -126 0
70 15 63 64 69 16 -123 0
70 15 22 64 19 16 -124 0
70 15 22 64 19 16 -125 0
70 15 22 64 19 16 -126 0
70 15 22 64 19 16 -123 0
70 15 22 19 69 16 -124 0
70 15 22 19 69 16 -125 0
70 15 22 19 69 16 -126 0
70 15 22 19 69 16 -123 0
70 15 64 19 69 16 -124 0
70 15 64 19 69 16 -125 0
70 15 64 19 69 16 -126 0
70 15 64 19 69 16 -123 0
70 47 63 51 64 48 -188 0
70 47 63 51 64 48 -190 0
70 47 63 51 64 48 -187 0
70 47 63 51 64 48 -189 0
70 47 63 51 64 69 -188 0
70 47 63 51 64 69 -190 0
70 47 63 51 64 69 -187 0
70 47 63 51 64 69 -189 0
70 47 63 51 48 54 -188 0
70 47 63 51 48 54 -190 0
70 47 63 51 48 54 -187 0
70 47 63 51 48 54 -189 0
70 47 63 51 69 54 -188 0
70 47 63 51 69 54 -190 0
70 47 63 51 69 54 -187 0
70 47 63 51 69 54 -189 0
70 47 63 64 48 69 -188 0
70 47 63 64 48 69 -190 0
70 47 63 64 48 69 -187 0
70 47 63 64 48 69 -189 0
70 47 63 64 69 54 -188 0
70 47 63 64 69 54 -190 0
70 47 63 64 69 54 -187 0
70 47 63 64 69 54 -189 0
70 47 51 64 48 54 -188 0
70 47 51 64 48 54 -190 0
70 47 51 64 48 54 -187 0
70 47 51 64 48 54 -189 0
70 47 51 48 69 54 -188 0
70 47 51 48 69 54 -190 0
70 47 51 48 69 54 -187 0
70 47 51 48 69 54 -189 0
70 47 64 48 69 54 -188 0
70 47 64 48 69 54 -190 0
70 47 64 48 69 54 -187 0
70 47 64 48 69 54 -189 0
70 39 63 44 64 45 -179 0
70 39 63 44 64 45 -180 0
70 39 63 44 64 45 -178 0
70 39 63 44 64 45 -177 0
70 39 63 44 64 69 -179 0
70 39 63 44 64 69 -180 0
70 39 63 44 64 69 -178 0
70 39 63 44 64 69 -177 0
70 39 63 44 45 46 -179 0
70 39 63 44 45 46 -180 0
70 39 63 44 45 46 -178 0
70 39 63 44 45 46 -177 0
70 39 63 44 69 46 -179 0
70 39 63 44 69 46 -180 0
70 39 63 44 69 46 -178 0
70 39 63 44 69 46 -177 0
70 39 63 64 45 69 -179 0
70 39 63 64 45 69 -180 0
70 39 63 64 45 69 -178 0
70 39 63 64 45 69 -177 0
70 39 63 64 69 46 -179 0
70 39 63 64 69 46 -180 0
70 39 63 64 69 46 -178 0
70 39 63 64 69 46 -177 0
70 39 44 64 45 46 -179 0
70 39 44 64 45 46 -180 0
70 39 44 64 45 46 -178 0
70 39 44 64 45 46 -177 0
70 39 44 45 69 46 -179 0
70 39 44 45 69 46 -180 0
70 39 44 45 69 46 -178 0
70 39 44 45 69 46 -177 0
70 39 64 45 69 46 -179 0
70 39 64 45 69 46 -180 0
70 39 64 45 69 46 -178 0
70 39 64 45 69 46 -177 0
70 12 63 14 64 13 -100 0
70 12 63 14 64 13 -98 0
70 12 63 14 64 13 -99 0
70 12 63 14 64 13 -97 0
70 12 63 14 64 69 -100 0
70 12 63 14 64 69 -98 0
70 12 63 14 64 69 -99 0
70 12 63 14 64 69 -97 0
70 12 63 14 13 11 -100 0
70 12 63 14 13 11 -98 0
70 12 63 14 13 11 -99 0
70 12 63 14 13 11 -97 0
70 12 63 14 69 11 -100 0
70 12 63 14 69 11 -98 0
70 12 63 14 69 11 -99 0
70 12 63 14 69 11 -97 0
70 12 63 64 13 69 -100 0
70 12 63 64 13 69 -98 0
70 12 63 64 13 69 -99 0
70 12 63 64 13 69 -97 0
70 12 63 64 69 11 -100 0
70 12 63 64 69 11 -98 0
70 12 63 64 69 11 -99 0
70 12 63 64 69 11 -97 0
70 12 14 64 13 11 -100 0
70 12 14 64 13 11 -98 0
70 12 14 64 13 11 -99 0
70 12 14 64 13 11 -97 0
70 12 14 13 69 11 -100 0
70 12 14 13 69 11 -98 0
70 12 14 13 69 11 -99 0
70 12 14 13 69 11 -97 0
70 12 64 13 69 11 -100 0
70 12 64 13 69 11 -98 0
70 12 64 13 69 11 -99 0
70 12 64 13 69 11 -97 0
70 63 57 64 61 69 -196 0
70 63 57 64 61 69 -193 0
70 63 57 64 61 69 -195 0
70 63 57 64 61 69 -194 0
70 63 57 64 69 58 -196 0
70 63 57 64 69 58 -193 0
70 63 57 64 69 58 -195 0
70 63 57 64 69 58 -194 0
70 63 6 64 3 69 -68 0
70 63 6 64 3 69 -67 0
70 63 6 64 3 69 -66 0
70 63 6 64 3 69 -65 0
70 63 6 64 69 4 -68 0
70 63 6 64 69 4 -67 0
70 63 6 64 69 4 -66 0
70 63 6 64 69 4 -65 0
70 63 36 64 34 69 -166 0
70 63 36 64 34 69 -164 0
70 63 36 64 34 69 -165 0
70 63 36 64 34 69 -163 0
70 63 36 64 69 31 -166 0
70 63 36 64 69 31 -164 0
70 63 36 64 69 31 -165 0
70 63 36 64 69 31 -163 0
70 63 26 64 24 69 -146 0
70 63 26 64 24 69 -148 0
70 63 26 64 24 69 -145 0
70 63 26 64 24 69 -147 0
70 63 26 64 69 27 -146 0
70 63 26 64 69 27 -148 0
70 63 26 64 69 27 -145 0
70 63 26 64 69 27 -147 0
70 63 22 64 19 69 -124 0
70 63 22 64 19 69 -125 0
70 63 22 64 19 69 -126 0
70 63 22 64 19 69 -123 0
70 63 22 64 69 16 -124 0
70 63 22 64 69 16 -125 0
70 63 22 64 69 16 -126 0
70 63 22 64 69 16 -123 0
70 63 51 64 48 69 -188 0
70 63 51 64 48 69 -190 0
70 63 51 64 48 69 -187 0
70 63 51 64 48 69 -189 0
70 63 51 64 69 54 -188 0
70 63 51 64 69 54 -190 0
70 63 51 64 69 54 -187 0
70 63 51 64 69 54 -189 0
70 63 44 64 45 69 -179 0
70 63 44 64 45 69 -180 0
70 63 44 64 45 69 -178 0
70 63 44 64 45 69 -177 0
70 63 44 64 69 46 -179 0
70 63 44 64 69 46 -180 0
70 63 44 64 69 46 -178 0
70 63 44 64 69 46 -177 0
70 63 14 64 13 69 -100 0
70 63 14 64 13 69 -98 0
70 63 14 64 13 69 -99 0
70 63 14 64 13 69 -97 0
70 63 14 64 69 11 -100 0
70 63 14 64 69 11 -98 0
70 63 14 64 69 11 -99 0
70 63 14 64 69 11 -97 0
70 63 64 61 69 58 -196 0
70 63 64 61 69 58 -193 0
70 63 64 61 69 58 -195 0
70 63 64 61 69 58 -194 0
70 63 64 3 69 4 -68 0
70 63 64 3 69 4 -67 0
70 63 64 3 69 4 -66 0
70 63 64 3 69 4 -65 0
70 63 64 34 69 31 -166 0
70 63 64 34 69 31 -164 0
70 63 64 34 69 31 -165 0
70 63 64 34 69 31 -163 0
70 63 64 24 69 27 -146 0
70 63 64 24 69 27 -148 0
70 63 64 24 69 27 -145 0
70 63 64 24 69 27 -147 0
70 63 64 19 69 16 -124 0
70 63 64 19 69 16 -125 0
70 63 64 19 69 16 -126 0
70 63 64 19 69 16 -123 0
70 63 64 48 69 54 -188 0
70 63 64 48 69 54 -190 0
70 63 64 48 69 54 -187 0
70 63 64 48 69 54 -189 0
70 63 64 45 69 46 -179 0
70 63 64 45 69 46 -180 0
70 63 64 45 69 46 -178 0
70 63 64 45 69 46 -177 0
70 63 64 13 69 11 -100 0
70 63 64 13 69 11 -98 0
70 63 64 13 69 11 -99 0
70 63 64 13 69 11 -97 0
60 5 57 6 61 3 -55 0
60 5 57 6 61 3 -59 0
60 5 57 6 61 3 -56 0
60 5 57 6 61 3 -62 0
60 5 57 6 61 58 -55 0
60 5 57 6 61 58 -59 0
60 5 57 6 61 58 -56 0
60 5 57 6 61 58 -62 0
60 5 57 6 3 4 -55 0
60 5 57 6 3 4 -59 0
60 5 57 6 3 4 -56 0
60 5 57 6 3 4 -62 0
60 5 57 6 58 4 -55 0
60 5 57 6 58 4 -59 0
60 5 57 6 58 4 -56 0
60 5 57 6 58 4 -62 0
60 5 57 61 3 58 -55 0
60 5 57 61 3 58 -59 0
60 5 57 61 3 58 -56 0
60 5 57 61 3 58 -62 0
60 5 57 61 58 4 -55 0
60 5 57 61 58 4 -59 0
60 5 57 61 58 4 -56 0
60 5 57 61 58 4 -62 0
60 5 6 61 3 4 -55 0
60 5 6 61 3 4 -59 0
60 5 6 61 3 4 -56 0
60 5 6 61 3 4 -62 0
60 5 6 3 58 4 -55 0
60 5 6 3 58 4 -59 0
60 5 6 3 58 4 -56 0
60 5 6 3 58 4 -62 0
60 5 61 3 58 4 -55 0
60 5 61 3 58 4 -59 0
60 5 61 3 58 4 -56 0
60 5 61 3 58 4 -62 0
60 35 57 36 61 34 -160 0
60 35 57 36 61 34 -162 0
60 35 57 36 61 34 -159 0
60 35 57 36 61 34 -161 0
60 35 57 36 61 58 -160 0
60 35 57 36 61 58 -162 0
60 35 57 36 61 58 -159 0
60 35 57 36 61 58 -161 0
60 35 57 36 34 31 -160 0
60 35 57 36 34 31 -162 0
60 35 57 36 34 31 -159 0
60 35 57 36 34 31 -161 0
60 35 57 36 58 31 -160 0
60 35 57 36 58 31 -162 0
60 35 57 36 58 31 -159 0
60 35 57 36 58 31 -161 0
60 35 57 61 34 58 -160 0
60 35 57 61 34 58 -162 0
60 35 57 61 34 58 -159 0
60 35 57 61 34 58 -161 0
60 35 57 61 58 31 -160 0
60 35 57 61 58 31 -162 0
60 35 57 61 58 31 -159 0
60 35 57 61 58 31 -161 0
60 35 36 61 34 31 -160 0
60 35 36 61 34 31 -162 0
60 35 36 61 34 31 -159 0
60 35 36 61 34 31 -161 0
60 35 36 34 58 31 -160 0
60 35 36 34 58 31 -162 0
60 35 36 34 58 31 -159 0
60 35 36 34 58 31 -161 0
60 35 61 34 58 31 -160 0
60 35 61 34 58 31 -162 0
60 35 61 34 58 31 -159 0
60 35 61 34 58 31 -161 0
60 23 57 26 61 24 -142 0
60 23 57 26 61 24 -144 0
60 23 57 26 61 24 -141 0
60 23 57 26 61 24 -143 0
60 23 57 26 61 58 -142 0
60 23 57 26 61 58 -144 0
60 23 57 26 61 58 -141 0
60 23 57 26 61 58 -143 0
60 23 57 26 24 27 -142 0
60 23 57 26 24 27 -144 0
60 23 57 26 24 27 -141 0
60 23 57 26 24 27 -143 0
60 23 57 26 58 27 -142 0
60 23 57 26 58 27 -144 0
60 23 57 26 58 27 -141 0
60 23 57 26 58 27 -143 0
60 23 57 61 24 58 -142 0
60 23 57 61 24 58 -144 0
60 23 57 61 24 58 -141 0
60 23 57 61 24 58 -143 0
60 23 57 61 58 27 -142 0
60 23 57 61 58 27 -144 0
60 23 57 61 58 27 -141 0
60 23 57 61 58 27 -143 0
60 23 26 61 24 27 -142 0
60 23 26 61 24 27 -144 0
60 23 26 61 24 27 -141 0
60 23 26 61 24 27 -143 0
60 23 26 24 58 27 -142 0
60 23 26 24 58 27 -144 0
60 23 26 24 58 27 -141 0
60 23 26 24 58 27 -143 0
60 23 61 24 58 27 -142 0
60 23 61 24 58 27 -144 0
60 23 61 24 58 27 -141 0
60 23 61 24 58 27 -143 0
60 15 57 22 61 19 -122 0
60 15 57 22 61 19 -121 0
60 15 57 22 61 19 -120 0
60 15 57 22 61 19 -119 0
60 15 57 22 61 58 -122 0
60 15 57 22 61 58 -121 0
60 15 57 22 61 58 -120 0
60 15 57 22 61 58 -119 0
60 15 57 22 19 16 -122 0
60 15 57 22 19 16 -121 0
60 15 57 22 19 16 -120 0
60 15 57 22 19 16 -119 0
60 15 57 22 58 16 -122 0
60 15 57 22 58 16 -121 0
60 15 57 22 58 16 -120 0
60 15 57 22 58 16 -119 0
60 15 57 61 19 58 -122 0
60 15 57 61 19 58 -121 0
60 15 57 61 19 58 -120 0
60 15 57 61 19 58 -119 0
60 15 57 61 58 16 -122 0
60 15 57 61 58 16 -121 0
60 15 57 61 58 16 -120 0
60 15 57 61 58 16 -119 0
60 15 22 61 19 16 -122 0
60 15 22 61 19 16 -121 0
60 15 22 61 19 16 -120 0
60 15 22 61 19 16 -119 0
60 15 22 19 58 16 -122 0
60 15 22 19 58 16 -121 0
60 15 22 19 58 16 -120 0
60 15 22 19 58 16 -119 0
60 15 61 19 58 16 -122 0
60 15 61 19 58 16 -121 0
60 15 61 19 58 16 -120 0
60 15 61 19 58 16 -119 0
60 47 57 51 61 48 -184 0
60 47 57 51 61 48 -186 0
60 47 57 51 61 48 -183 0
60 47 57 51 61 48 -185 0
60 47 57 51 61 58 -184 0
60 47 57 51 61 58 -186 0
60 47 57 51 61 58 -183 0
60 47 57 51 61 58 -185 0
60 47 57 51 48 54 -184 0
60 47 57 51 48 54 -186 0
60 47 57 51 48 54 -183 0
60 47 57 51 48 54 -185 0
60 47 57 51 58 54 -184 0
60 47 57 51 58 54 -186 0
60 47 57 51 58 54 -183 0
60 47 57 51 58 54 -185 0
60 47 57 61 48 58 -184 0
60 47 57 61 48 58 -186 0
60 47 57 61 48 58 -183 0
60 47 57 61 48 58 -185 0
60 47 57 61 58 54 -184 0
60 47 57 61 58 54 -186 0
60 47 57 61 58 54 -183 0
60 47 57 61 58 54 -185 0
60 47 51 61 48 54 -184 0
60 47 51 61 48 54 -186 0
60 47 51 61 48 54 -183 0
60 47 51 61 48 54 -185 0
60 47 51 48 58 54 -184 0
60 47 51 48 58 54 -186 0
60 47 51 48 58 54 -183 0
60 47 51 48 58 54 -185 0
60 47 61 48 58 54 -184 0
60 47 61 48 58 54 -186 0
60 47 61 48 58 54 -183 0
60 47 61 48 58 54 -185 0
60 39 57 44 61 45 -173 0
60 39 57 44 61 45 -176 0
60 39 57 44 61 45 -175 0
60 39 57 44 61 45 -174 0
60 39 57 44 61 58 -173 0
60 39 57 44 61 58 -176 0
60 39 57 44 61 58 -175 0
60 39 57 44 61 58 -174 0
60 39 57 44 45 46 -173 0
60 39 57 44 45 46 -176 0
60 39 57 44 45 46 -175 0
60 39 57 44 45 46 -174 0
60 39 57 44 58 46 -173 0
60 39 57 44 58 46 -176 0
60 39 57 44 58 46 -175 0
60 39 57 44 58 46 -174 0
60 39 57 61 45 58 -173 0
60 39 57 61 45 58 -176 0
60 39 57 61 45 58 -175 0
60 39 57 61 45 58 -174 0
60 39 57 61 58 46 -173 0
60 39 57 61 58 46 -176 0
60 39 57 61 58 46 -175 0
60 39 57 61 58 46 -174 0
60 39 44 61 45 46 -173 0
60 39 44 61 45 46 -176 0
60 39 44 61 45 46 -175 0
60 39 44 61 45 46 -174 0
60 39 44 45 58 46 -173 0
60 39 44 45 58 46 -176 0
60 39 44 45 58 46 -175 0
60 39 44 45 58 46 -174 0
60 39 61 45 58 46 -173 0
60 39 61 45 58 46 -176 0
60 39 61 45 58 46 -175 0
60 39 61 45 58 46 -174 0
60 12 57 14 61 13 -95 0
60 12 57 14 61 13 -93 0
60 12 57 14 61 13 -94 0
60 12 57 14 61 13 -96 0
60 12 57 14 61 58 -95 0
60 12 57 14 61 58 -93 0
60 12 57 14 61 58 -94 0
60 12 57 14 61 58 -96 0
60 12 57 14 13 11 -95 0
60 12 57 14 13 11 -93 0
60 12 57 14 13 11 -94 0
60 12 57 14 13 11 -96 0
60 12 57 14 58 11 -95 0
60 12 57 14 58 11 -93 0
60 12 57 14 58 11 -94 0
60 12 57 14 58 11 -96 0
60 12 57 61 13 58 -95 0
60 12 57 61 13 58 -93 0
60 12 57 61 13 58 -94 0
60 12 57 61 13 58 -96 0
60 12 57 61 58 11 -95 0
60 12 57 61 58 11 -93 0
60 12 57 61 58 11 -94 0
60 12 57 61 58 11 -96 0
60 12 14 61 13 11 -95 0
60 12 14 61 13 11 -93 0
60 12 14 61 13 11 -94 0
60 12 14 61 13 11 -96 0
60 12 14 13 58 11 -95 0
60 12 14 13 58 11 -93 0
60 12 14 13 58 11 -94 0
60 12 14 13 58 11 -96 0
60 12 61 13 58 11 -95 0
60 12 61 13 58 11 -93 0
60 12 61 13 58 11 -94 0
60 12 61 13 58 11 -96 0
60 63 57 64 61 58 -196 0
60 63 57 64 61 58 -193 0
60 63 57 64 61 58 -195 0
60 63 57 64 61 58 -194 0
60 63 57 61 69 58 -196 0
60 63 57 61 69 58 -193 0
60 63 57 61 69 58 -195 0
60 63 57 61 69 58 -194 0
60 57 6 61 3 58 -55 0
60 57 6 61 3 58 -59 0
60 57 6 61 3 58 -56 0
60 57 6 61 3 58 -62 0
60 57 6 61 58 4 -55 0
60 57 6 61 58 4 -59 0
60 57 6 61 58 4 -56 0
60 57 6 61 58 4 -62 0
60 57 36 61 34 58 -160 0
60 57 36 61 34 58 -162 0
60 57 36 61 34 58 -159 0
60 57 36 61 34 58 -161 0
60 57 36 61 58 31 -160 0
60 57 36 61 58 31 -162 0
60 57 36 61 58 31 -159 0
60 57 36 61 58 31 -161 0
60 57 26 61 24 58 -142 0
60 57 26 61 24 58 -144 0
60 57 26 61 24 58 -141 0
60 57 26 61 24 58 -143 0
60 57 26 61 58 27 -142 0
60 57 26 61 58 27 -144 0
60 57 26 61 58 27 -141 0
60 57 26 61 58 27 -143 0
60 57 22 61 19 58 -122 0
60 57 22 61 19 58 -121 0
60 57 22 61 19 58 -120 0
60 57 22 61 19 58 -119 0
60 57 22 61 58 16 -122 0
60 57 22 61 58 16 -121 0
60 57 22 61 58 16 -120 0
60 57 22 61 58 16 -119 0
60 57 51 61 48 58 -184 0
60 57 51 61 48 58 -186 0
60 57 51 61 48 58 -183 0
60 57 51 61 48 58 -185 0
60 57 51 61 58 54 -184 0
60 57 51 61 58 54 -186 0
60 57 51 61 58 54 -183 0
60 57 51 61 58 54 -185 0
60 57 44 61 45 58 -173 0
60 57 44 61 45 58 -176 0
60 57 44 61 45 58 -175 0
60 57 44 61 45 58 -174 0
60 57 44 61 58 46 -173 0
60 57 44 61 58 46 -176 0
60 57 44 61 58 46 -175 0
60 57 44 61 58 46 -174 0
60 57 14 61 13 58 -95 0
60 57 14 61 13 58 -93 0
60 57 14 61 13 58 -94 0
60 57 14 61 13 58 -96 0
60 57 14 61 58 11 -95 0
60 57 14 61 58 11 -93 0
60 57 14 61 58 11 -94 0
60 57 14 61 58 11 -96 0
60 57 64 61 69 58 -196 0
60 57 64 61 69 58 -193 0
60 57 64 61 69 58 -195 0
60 57 64 61 69 58 -194 0
60 57 61 3 58 4 -55 0
60 57 61 3 58 4 -59 0
60 57 61 3 58 4 -56 0
60 57 61 3 58 4 -62 0
60 57 61 34 58 31 -160 0
60 57 61 34 58 31 -162 0
60 57 61 34 58 31 -159 0
60 57 61 34 58 31 -161 0
60 57 61 24 58 27 -142 0
60 57 61 24 58 27 -144 0
60 57 61 24 58 27 -141 0
60 57 61 24 58 27 -143 0
60 57 61 19 58 16 -122 0
60 57 61 19 58 16 -121 0
60 57 61 19 58 16 -120 0
60 57 61 19 58 16 -119 0
60 57 61 48 58 54 -184 0
60 57 61 48 58 54 -186 0
60 57 61 48 58 54 -183 0
60 57 61 48 58 54 -185 0
60 57 61 45 58 46 -173 0
60 57 61 45 58 46 -176 0
60 57 61 45 58 46 -175 0
60 57 61 45 58 46 -174 0
60 57 61 13 58 11 -95 0
60 57 61 13 58 11 -93 0
60 57 61 13 58 11 -94 0
60 57 61 13 58 11 -96 0
5 35 6 36 3 34 -33 0
5 35 6 36 3 34 -38 0
5 35 6 36 3 34 -37 0
5 35 6 36 3 34 -32 0
5 35 6 36 3 4 -33 0
5 35 6 36 3 4 -38 0
5 35 6 36 3 4 -37 0
5 35 6 36 3 4 -32 0
5 35 6 36 34 31 -33 0
5 35 6 36 34 31 -38 0
5 35 6 36 34 31 -37 0
5 35 6 36 34 31 -32 0
5 35 6 36 4 31 -33 0
5 35 6 36 4 31 -38 0
5 35 6 36 4 31 -37 0
5 35 6 36 4 31 -32 0
5 35 6 3 34 4 -33 0
5 35 6 3 34 4 -38 0
5 35 6 3 34 4 -37 0
5 35 6 3 34 4 -32 0
5 35 6 3 4 31 -33 0
5 35 6 3 4 31 -38 0
5 35 6 3 4 31 -37 0
5 35 6 3 4 31 -32 0
5 35 36 3 34 31 -33 0
5 35 36 3 34 31 -38 0
5 35 36 3 34 31 -37 0
5 35 36 3 34 31 -32 0
5 35 36 34 4 31 -33 0
5 35 36 34 4 31 -38 0
5 35 36 34 4 31 -37 0
5 35 36 34 4 31 -32 0
5 35 3 34 4 31 -33 0
5 35 3 34 4 31 -38 0
5 35 3 34 4 31 -37 0
5 35 3 34 4 31 -32 0
5 23 6 26 3 24 -30 0
5 23 6 26 3 24 -25 0
5 23 6 26 3 24 -29 0
5 23 6 26 3 24 -28 0
5 23 6 26 3 4 -30 0
5 23 6 26 3 4 -25 0
5 23 6 26 3 4 -29 0
5 23 6 26 3 4 -28 0
5 23 6 26 24 27 -30 0
5 23 6 26 24 27 -25 0
5 23 6 26 24 27 -29 0
5 23 6 26 24 27 -28 0
5 23 6 26 4 27 -30 0
5 23 6 26 4 27 -25 0
5 23 6 26 4 27 -29 0
5 23 6 26 4 27 -28 0
5 23 6 3 24 4 -30 0
5 23 6 3 24 4 -25 0
5 23 6 3 24 4 -29 0
5 23 6 3 24 4 -28 0
5 23 6 3 4 27 -30 0
5 23 6 3 4 27 -25 0
5 23 6 3 4 27 -29 0
5 23 6 3 4 27 -28 0
5 23 26 3 24 27 -30 0
5 23 26 3 24 27 -25 0
5 23 26 3 24 27 -29 0
5 23 26 3 24 27 -28 0
5 23 26 24 4 27 -30 0
5 23 26 24 4 27 -25 0
5 23 26 24 4 27 -29 0
5 23 26 24 4 27 -28 0
5 23 3 24 4 27 -30 0
5 23 3 24 4 27 -25 0
5 23 3 24 4 27 -29 0
5 23 3 24 4 27 -28 0
5 15 6 22 3 19 -21 0
5 15 6 22 3 19 -20 0
5 15 6 22 3 19 -18 0
5 15 6 22 3 19 -17 0
5 15 6 22 3 4 -21 0
5 15 6 22 3 4 -20 0
5 15 6 22 3 4 -18 0
5 15 6 22 3 4 -17 0
5 15 6 22 19 16 -21 0
5 15 6 22 19 16 -20 0
5 15 6 22 19 16 -18 0
5 15 6 22 19 16 -17 0
5 15 6 22 4 16 -21 0
5 15 6 22 4 16 -20 0
5 15 6 22 4 16 -18 0
5 15 6 22 4 16 -17 0
5 15 6 3 19 4 -21 0
5 15 6 3 19 4 -20 0
5 15 6 3 19 4 -18 0
5 15 6 3 19 4 -17 0
5 15 6 3 4 16 -21 0
5 15 6 3 4 16 -20 0
5 15 6 3 4 16 -18 0
5 15 6 3 4 16 -17 0
5 15 22 3 19 16 -21 0
5 15 22 3 19 16 -20 0
5 15 22 3 19 16 -18 0
5 15 22 3 19 16 -17 0
5 15 22 19 4 16 -21 0
5 15 22 19 4 16 -20 0
5 15 22 19 4 16 -18 0
5 15 22 19 4 16 -17 0
5 15 3 19 4 16 -21 0
5 15 3 19 4 16 -20 0
5 15 3 19 4 16 -18 0
5 15 3 19 4 16 -17 0
5 47 6 51 3 48 -53 0
5 47 6 51 3 48 -50 0
5 47 6 51 3 48 -52 0
5 47 6 51 3 48 -49 0
5 47 6 51 3 4 -53 0
5 47 6 51 3 4 -50 0
5 47 6 51 3 4 -52 0
5 47 6 51 3 4 -49 0
5 47 6 51 48 54 -53 0
5 47 6 51 48 54 -50 0
5 47 6 51 48 54 -52 0
5 47 6 51 48 54 -49 0
5 47 6 51 4 54 -53 0
5 47 6 51 4 54 -50 0
5 47 6 51 4 54 -52 0
5 47 6 51 4 54 -49 0
5 47 6 3 48 4 -53 0
5 47 6 3 48 4 -50 0
5 47 6 3 48 4 -52 0
5 47 6 3 48 4 -49 0
5 47 6 3 4 54 -53 0
5 47 6 3 4 54 -50 0
5 47 6 3 4 54 -52 0
5 47 6 3 4 54 -49 0
5 47 51 3 48 54 -53 0
5 47 51 3 48 54 -50 0
5 47 51 3 48 54 -52 0
5 47 51 3 48 54 -49 0
5 47 51 48 4 54 -53 0
5 47 51 48 4 54 -50 0
5 47 51 48 4 54 -52 0
5 47 51 48 4 54 -49 0
5 47 3 48 4 54 -53 0
5 47 3 48 4 54 -50 0
5 47 3 48 4 54 -52 0
5 47 3 48 4 54 -49 0
5 39 6 44 3 45 -42 0
5 39 6 44 3 45 -40 0
5 39 6 44 3 45 -41 0
5 39 6 44 3 45 -43 0
5 39 6 44 3 4 -42 0
5 39 6 44 3 4 -40 0
5 39 6 44 3 4 -41 0
5 39 6 44 3 4 -43 0
5 39 6 44 45 46 -42 0
5 39 6 44 45 46 -40 0
5 39 6 44 45 46 -41 0
5 39 6 44 45 46 -43 0
5 39 6 44 4 46 -42 0
5 39 6 44 4 46 -40 0
5 39 6 44 4 46 -41 0
5 39 6 44 4 46 -43 0
5 39 6 3 45 4 -42 0
5 39 6 3 45 4 -40 0
5 39 6 3 45 4 -41 0
5 39 6 3 45 4 -43 0
5 39 6 3 4 46 -42 0
5 39 6 3 4 46 -40 0
5 39 6 3 4 46 -41 0
5 39 6 3 4 46 -43 0
5 39 44 3 45 46 -42 0
5 39 44 3 45 46 -40 0
5 39 44 3 45 46 -41 0
5 39 44 3 45 46 -43 0
5 39 44 45 4 46 -42 0
5 39 44 45 4 46 -40 0
5 39 44 45 4 46 -41 0
5 39 44 45 4 46 -43 0
5 39 3 45 4 46 -42 0
5 39 3 45 4 46 -40 0
5 39 3 45 4 46 -41 0
5 39 3 45 4 46 -43 0
5 12 6 14 3 13 -10 0
5 12 6 14 3 13 -9 0
5 12 6 14 3 13 -7 0
5 12 6 14 3 13 -8 0
5 12 6 14 3 4 -10 0
5 12 6 14 3 4 -9 0
5 12 6 14 3 4 -7 0
5 12 6 14 3 4 -8 0
5 12 6 14 13 11 -10 0
5 12 6 14 13 11 -9 0
5 12 6 14 13 11 -7 0
5 12 6 14 13 11 -8 0
5 12 6 14 4 11 -10 0
5 12 6 14 4 11 -9 0
5 12 6 14 4 11 -7 0
5 12 6 14 4 11 -8 0
5 12 6 3 13 4 -10 0
5 12 6 3 13 4 -9 0
5 12 6 3 13 4 -7 0
5 12 6 3 13 4 -8 0
5 12 6 3 4 11 -10 0
5 12 6 3 4 11 -9 0
5 12 6 3 4 11 -7 0
5 12 6 3 4 11 -8 0
5 12 14 3 13 11 -10 0
5 12 14 3 13 11 -9 0
5 12 14 3 13 11 -7 0
5 12 14 3 13 11 -8 0
5 12 14 13 4 11 -10 0
5 12 14 13 4 11 -9 0
5 12 14 13 4 11 -7 0
5 12 14 13 4 11 -8 0
5 12 3 13 4 11 -10 0
5 12 3 13 4 11 -9 0
5 12 3 13 4 11 -7 0
5 12 3 13 4 11 -8 0
5 63 6 64 3 4 -68 0
5 63 6 64 3 4 -67 0
5 63 6 64 3 4 -66 0
5 63 6 64 3 4 -65 0
5 63 6 3 69 4 -68 0
5 63 6 3 69 4 -67 0
5 63 6 3 69 4 -66 0
5 63 6 3 69 4 -65 0
5 57 6 61 3 4 -55 0
5 57 6 61 3 4 -59 0
5 57 6 61 3 4 -56 0
5 57 6 61 3 4 -62 0
5 57 6 3 58 4 -55 0
5 57 6 3 58 4 -59 0
5 57 6 3 58 4 -56 0
5 57 6 3 58 4 -62 0
5 6 36 3 34 4 -33 0
5 6 36 3 34 4 -38 0
5 6 36 3 34 4 -37 0
5 6 36 3 34 4 -32 0
5 6 36 3 4 31 -33 0
5 6 36 3 4 31 -38 0
5 6 36 3 4 31 -37 0
5 6 36 3 4 31 -32 0
5 6 26 3 24 4 -30 0
5 6 26 3 24 4 -25 0
5 6 26 3 24 4 -29 0
5 6 26 3 24 4 -28 0
5 6 26 3 4 27 -30 0
5 6 26 3 4 27 -25 0
5 6 26 3 4 27 -29 0
5 6 26 3 4 27 -28 0
5 6 22 3 19 4 -21 0
5 6 22 3 19 4 -20 0
5 6 22 3 19 4 -18 0
5 6 22 3 19 4 -17 0
5 6 22 3 4 16 -21 0
5 6 22 3 4 16 -20 0
5 6 22 3 4 16 -18 0
5 6 22 3 4 16 -17 0
5 6 51 3 48 4 -53 0
5 6 51 3 48 4 -50 0
5 6 51 3 48 4 -52 0
5 6 51 3 48 4 -49 0
5 6 51 3 4 54 -53 0
5 6 51 3 4 54 -50 0
5 6 51 3 4 54 -52 0
5 6 51 3 4 54 -49 0
5 6 44 3 45 4 -42 0
5 6 44 3 45 4 -40 0
5 6 44 3 45 4 -41 0
5 6 44 3 45 4 -43 0
5 6 44 3 4 46 -42 0
5 6 44 3 4 46 -40 0
5 6 44 3 4 46 -41 0
5 6 44 3 4 46 -43 0
5 6 14 3 13 4 -10 0
5 6 14 3 13 4 -9 0
5 6 14 3 13 4 -7 0
5 6 14 3 13 4 -8 0
5 6 14 3 4 11 -10 0
5 6 14 3 4 11 -9 0
5 6 14 3 4 11 -7 0
5 6 14 3 4 11 -8 0
5 6 64 3 69 4 -68 0
5 6 64 3 69 4 -67 0
5 6 64 3 69 4 -66 0
5 6 64 3 69 4 -65 0
5 6 61 3 58 4 -55 0
5 6 61 3 58 4 -59 0
5 6 61 3 58 4 -56 0
5 6 61 3 58 4 -62 0
5 6 3 34 4 31 -33 0
5 6 3 34 4 31 -38 0
5 6 3 34 4 31 -37 0
5 6 3 34 4 31 -32 0
5 6 3 24 4 27 -30 0
5 6 3 24 4 27 -25 0
5 6 3 24 4 27 -29 0
5 6 3 24 4 27 -28 0
5 6 3 19 4 16 -21 0
5 6 3 19 4 16 -20 0
5 6 3 19 4 16 -18 0
5 6 3 19 4 16 -17 0
5 6 3 48 4 54 -53 0
5 6 3 48 4 54 -50 0
5 6 3 48 4 54 -52 0
5 6 3 48 4 54 -49 0
5 6 3 45 4 46 -42 0
5 6 3 45 4 46 -40 0
5 6 3 45 4 46 -41 0
5 6 3 45 4 46 -43 0
5 6 3 13 4 11 -10 0
5 6 3 13 4 11 -9 0
5 6 3 13 4 11 -7 0
5 6 3 13 4 11 -8 0
35 23 36 26 34 24 -132 0
35 23 36 26 34 24 -129 0
35 23 36 26 34 24 -131 0
35 23 36 26 34 24 -130 0
35 23 36 26 34 31 -132 0
35 23 36 26 34 31 -129 0
35 23 36 26 34 31 -131 0
35 23 36 26 34 31 -130 0
35 23 36 26 24 27 -132 0
35 23 36 26 24 27 -129 0
35 23 36 26 24 27 -131 0
35 23 36 26 24 27 -130 0
35 23 36 26 31 27 -132 0
35 23 36 26 31 27 -129 0
35 23 36 26 31 27 -131 0
35 23 36 26 31 27 -130 0
35 23 36 34 24 31 -132 0
35 23 36 34 24 31 -129 0
35 23 36 34 24 31 -131 0
35 23 36 34 24 31 -130 0
35 23 36 34 31 27 -132 0
35 23 36 34 31 27 -129 0
35 23 36 34 31 27 -131 0
35 23 36 34 31 27 -130 0
35 23 26 34 24 27 -132 0
35 23 26 34 24 27 -129 0
35 23 26 34 24 27 -131 0
35 23 26 34 24 27 -130 0
35 23 26 24 31 27 -132 0
35 23 26 24 31 27 -129 0
35 23 26 24 31 27 -131 0
35 23 26 24 31 27 -130 0
35 23 34 24 31 27 -132 0
35 23 34 24 31 27 -129 0
35 23 34 24 31 27 -131 0
35 23 34 24 31 27 -130 0
35 15 36 22 34 19 -109 0
35 15 36 22 34 19 -108 0
35 15 36 22 34 19 -107 0
35 15 36 22 34 19 -110 0
35 15 36 22 34 31 -109 0
35 15 36 22 34 31 -108 0
35 15 36 22 34 31 -107 0
35 15 36 22 34 31 -110 0
35 15 36 22 19 16 -109 0
35 15 36 22 19 16 -108 0
35 15 36 22 19 16 -107 0
35 15 36 22 19 16 -110 0
35 15 36 22 31 16 -109 0
35 15 36 22 31 16 -108 0
35 15 36 22 31 16 -107 0
35 15 36 22 31 16 -110 0
35 15 36 34 19 31 -109 0
35 15 36 34 19 31 -108 0
35 15 36 34 19 31 -107 0
35 15 36 34 19 31 -110 0
35 15 36 34 31 16 -109 0
35 15 36 34 31 16 -108 0
35 15 36 34 31 16 -107 0
35 15 36 34 31 16 -110 0
35 15 22 34 19 16 -109 0
35 15 22 34 19 16 -108 0
35 15 22 34 19 16 -107 0
35 15 22 34 19 16 -110 0
35 15 22 19 31 16 -109 0
35 15 22 19 31 16 -108 0
35 15 22 19 31 16 -107 0
35 15 22 19 31 16 -110 0
35 15 34 19 31 16 -109 0
35 15 34 19 31 16 -108 0
35 15 34 19 31 16 -107 0
35 15 34 19 31 16 -110 0
35 47 36 51 34 48 -156 0
35 47 36 51 34 48 -157 0
35 47 36 51 34 48 -155 0
35 47 36 51 34 48 -158 0
35 47 36 51 34 31 -156 0
35 47 36 51 34 31 -157 0
35 47 36 51 34 31 -155 0
35 47 36 51 34 31 -158 0
35 47 36 51 48 54 -156 0
35 47 36 51 48 54 -157 0
35 47 36 51 48 54 -155 0
35 47 36 51 48 54 -158 0
35 47 36 51 31 54 -156 0
35 47 36 51 31 54 -157 0
35 47 36 51 31 54 -155 0
35 47 36 51 31 54 -158 0
35 47 36 34 48 31 -156 0
35 47 36 34 48 31 -157 0
35 47 36 34 48 31 -155 0
35 47 36 34 48 31 -158 0
35 47 36 34 31 54 -156 0
35 47 36 34 31 54 -157 0
35 47 36 34 31 54 -155 0
35 47 36 34 31 54 -158 0
35 47 51 34 48 54 -156 0
35 47 51 34 48 54 -157 0
35 47 51 34 48 54 -155 0
35 47 51 34 48 54 -158 0
35 47 51 48 31 54 -156 0
35 47 51 48 31 54 -157 0
35 47 51 48 31 54 -155 0
35 47 51 48 31 54 -158 0
35 47 34 48 31 54 -156 0
35 47 34 48 31 54 -157 0
35 47 34 48 31 54 -155 0
35 47 34 48 31 54 -158 0
35 39 36 44 34 45 -151 0
35 39 36 44 34 45 -154 0
35 39 36 44 34 45 -152 0
35 39 36 44 34 45 -153 0
35 39 36 44 34 31 -151 0
35 39 36 44 34 31 -154 0
35 39 36 44 34 31 -152 0
35 39 36 44 34 31 -153 0
35 39 36 44 45 46 -151 0
35 39 36 44 45 46 -154 0
35 39 36 44 45 46 -152 0
35 39 36 44 45 46 -153 0
35 39 36 44 31 46 -151 0
35 39 36 44 31 46 -154 0
35 39 36 44 31 46 -152 0
35 39 36 44 31 46 -153 0
35 39 36 34 45 31 -151 0
35 39 36 34 45 31 -154 0
35 39 36 34 45 31 -152 0
35 39 36 34 45 31 -153 0
35 39 36 34 31 46 -151 0
35 39 36 34 31 46 -154 0
35 39 36 34 31 46 -152 0
35 39 36 34 31 46 -153 0
35 39 44 34 45 46 -151 0
35 39 44 34 45 46 -154 0
35 39 44 34 45 46 -152 0
35 39 44 34 45 46 -153 0
35 39 44 45 31 46 -151 0
35 39 44 45 31 46 -154 0
35 39 44 45 31 46 -152 0
35 39 44 45 31 46 -153 0
35 39 34 45 31 46 -151 0
35 39 34 45 31 46 -154 0
35 39 34 45 31 46 -152 0
35 39 34 45 31 46 -153 0
35 12 36 14 34 13 -84 0
35 12 36 14 34 13 -83 0
35 12 36 14 34 13 -82 0
35 12 36 14 34 13 -81 0
35 12 36 14 34 31 -84 0
35 12 36 14 34 31 -83 0
35 12 36 14 34 31 -82 0
35 12 36 14 34 31 -81 0
35 12 36 14 13 11 -84 0
35 12 36 14 13 11 -83 0
35 12 36 14 13 11 -82 0
35 12 36 14 13 11 -81 0
35 12 36 14 31 11 -84 0
35 12 36 14 31 11 -83 0
35 12 36 14 31 11 -82 0
35 12 36 14 31 11 -81 0
35 12 36 34 13 31 -84 0
35 12 36 34 13 31 -83 0
35 12 36 34 13 31 -82 0
35 12 36 34 13 31 -81 0
35 12 36 34 31 11 -84 0
35 12 36 34 31 11 -83 0
35 12 36 34 31 11 -82 0
35 12 36 34 31 11 -81 0
35 12 14 34 13 11 -84 0
35 12 14 34 13 11 -83 0
35 12 14 34 13 11 -82 0
35 12 14 34 13 11 -81 0
35 12 14 13 31 11 -84 0
35 12 14 13 31 11 -83 0
35 12 14 13 31 11 -82 0
35 12 14 13 31 11 -81 0
35 12 34 13 31 11 -84 0
35 12 34 13 31 11 -83 0
35 12 34 13 31 11 -82 0
35 12 34 13 31 11 -81 0
35 63 36 64 34 31 -166 0
35 63 36 64 34 31 -164 0
35 63 36 64 34 31 -165 0
35 63 36 64 34 31 -163 0
35 63 36 34 69 31 -166 0
35 63 36 34 69 31 -164 0
35 63 36 34 69 31 -165 0
35 63 36 34 69 31 -163 0
35 57 36 61 34 31 -160 0
35 57 36 61 34 31 -162 0
35 57 36 61 34 31 -159 0
35 57 36 61 34 31 -161 0
35 57 36 34 58 31 -160 0
35 57 36 34 58 31 -162 0
35 57 36 34 58 31 -159 0
35 57 36 34 58 31 -161 0
35 6 36 3 34 31 -33 0
35 6 36 3 34 31 -38 0
35 6 36 3 34 31 -37 0
35 6 36 3 34 31 -32 0
35 6 36 34 4 31 -33 0
35 6 36 34 4 31 -38 0
35 6 36 34 4 31 -37 0
35 6 36 34 4 31 -32 0
35 36 26 34 24 31 -132 0
35 36 26 34 24 31 -129 0
35 36 26 34 24 31 -131 0
35 36 26 34 24 31 -130 0
35 36 26 34 31 27 -132 0
35 36 26 34 31 27 -129 0
35 36 26 34 31 27 -131 0
35 36 26 34 31 27 -130 0
35 36 22 34 19 31 -109 0
35 36 22 34 19 31 -108 0
35 36 22 34 19 31 -107 0
35 36 22 34 19 31 -110 0
35 36 22 34 31 16 -109 0
35 36 22 34 31 16 -108 0
35 36 22 34 31 16 -107 0
35 36 22 34 31 16 -110 0
35 36 51 34 48 31 -156 0
35 36 51 34 48 31 -157 0
35 36 51 34 48 31 -155 0
35 36 51 34 48 31 -158 0
35 36 51 34 31 54 -156 0
35 36 51 34 31 54 -157 0
35 36 51 34 31 54 -155 0
35 36 51 34 31 54 -158 0
35 36 44 34 45 31 -151 0
35 36 44 34 45 31 -154 0
35 36 44 34 45 31 -152 0
35 36 44 34 45 31 -153 0
35 36 44 34 31 46 -151 0
35 36 44 34 31 46 -154 0
35 36 44 34 31 46 -152 0
35 36 44 34 31 46 -153 0
35 36 14 34 13 31 -84 0
35 36 14 34 13 31 -83 0
35 36 14 34 13 31 -82 0
35 36 14 34 13 31 -81 0
35 36 14 34 31 11 -84 0
35 36 14 34 31 11 -83 0
35 36 14 34 31 11 -82 0
35 36 14 34 31 11 -81 0
35 36 64 34 69 31 -166 0
35 36 64 34 69 31 -164 0
35 36 64 34 69 31 -165 0
35 36 64 34 69 31 -163 0
35 36 61 34 58 31 -160 0
35 36 61 34 58 31 -162 0
35 36 61 34 58 31 -159 0
35 36 61 34 58 31 -161 0
35 36 3 34 4 31 -33 0
35 36 3 34 4 31 -38 0
35 36 3 34 4 31 -37 0
35 36 3 34 4 31 -32 0
35 36 34 24 31 27 -132 0
35 36 34 24 31 27 -129 0
35 36 34 24 31 27 -131 0
35 36 34 24 31 27 -130 0
35 36 34 19 31 16 -109 0
35 36 34 19 31 16 -108 0
35 36 34 19 31 16 -107 0
35 36 34 19 31 16 -110 0
35 36 34 48 31 54 -156 0
35 36 34 48 31 54 -157 0
35 36 34 48 31 54 -155 0
35 36 34 48 31 54 -158 0
35 36 34 45 31 46 -151 0
35 36 34 45 31 46 -154 0
35 36 34 45 31 46 -152 0
35 36 34 45 31 46 -153 0
35 36 34 13 31 11 -84 0
35 36 34 13 31 11 -83 0
35 36 34 13 31 11 -82 0
35 36 34 13 31 11 -81 0
23 15 26 22 24 19 -104 0
23 15 26 22 24 19 -106 0
23 15 26 22 24 19 -103 0
23 15 26 22 24 19 -105 0
23 15 26 22 24 27 -104 0
23 15 26 22 24 27 -106 0
23 15 26 22 24 27 -103 0
23 15 26 22 24 27 -105 0
23 15 26 22 19 16 -104 0
23 15 26 22 19 16 -106 0
23 15 26 22 19 16 -103 0
23 15 26 22 19 16 -105 0
23 15 26 22 27 16 -104 0
23 15 26 22 27 16 -106 0
23 15 26 22 27 16 -103 0
23 15 26 22 27 16 -105 0
23 15 26 24 19 27 -104 0
23 15 26 24 19 27 -106 0
23 15 26 24 19 27 -103 0
23 15 26 24 19 27 -105 0
23 15 26 24 27 16 -104 0
23 15 26 24 27 16 -106 0
23 15 26 24 27 16 -103 0
23 15 26 24 27 16 -105 0
23 15 22 24 19 16 -104 0
23 15 22 24 19 16 -106 0
23 15 22 24 19 16 -103 0
23 15 22 24 19 16 -105 0
23 15 22 19 27 16 -104 0
23 15 22 19 27 16 -106 0
23 15 22 19 27 16 -103 0
23 15 22 19 27 16 -105 0
23 15 24 19 27 16 -104 0
23 15 24 19 27 16 -106 0
23 15 24 19 27 16 -103 0
23 15 24 19 27 16 -105 0
23 47 26 51 24 48 -139 0
23 47 26 51 24 48 -140 0
23 47 26 51 24 48 -137 0
23 47 26 51 24 48 -138 0
23 47 26 51 24 27 -139 0
23 47 26 51 24 27 -140 0
23 47 26 51 24 27 -137 0
23 47 26 51 24 27 -138 0
23 47 26 51 48 54 -139 0
23 47 26 51 48 54 -140 0
23 47 26 51 48 54 -137 0
23 47 26 51 48 54 -138 0
23 47 26 51 27 54 -139 0
23 47 26 51 27 54 -140 0
23 47 26 51 27 54 -137 0
23 47 26 51 27 54 -138 0
23 47 26 24 48 27 -139 0
23 47 26 24 48 27 -140 0
23 47 26 24 48 27 -137 0
23 47 26 24 48 27 -138 0
23 47 26 24 27 54 -139 0
23 47 26 24 27 54 -140 0
23 47 26 24 27 54 -137 0
23 47 26 24 27 54 -138 0
23 47 51 24 48 54 -139 0
23 47 51 24 48 54 -140 0
23 47 51 24 48 54 -137 0
23 47 51 24 48 54 -138 0
23 47 51 48 27 54 -139 0
23 47 51 48 27 54 -140 0
23 47 51 48 27 54 -137 0
23 47 51 48 27 54 -138 0
23 47 24 48 27 54 -139 0
23 47 24 48 27 54 -140 0
23 47 24 48 27 54 -137 0
23 47 24 48 27 54 -138 0
23 39 26 44 24 45 -133 0
23 39 26 44 24 45 -135 0
23 39 26 44 24 45 -136 0
23 39 26 44 24 45 -134 0
23 39 26 44 24 27 -133 0
23 39 26 44 24 27 -135 0
23 39 26 44 24 27 -136 0
23 39 26 44 24 27 -134 0
23 39 26 44 45 46 -133 0
23 39 26 44 45 46 -135 0
23 39 26 44 45 46 -136 0
23 39 26 44 45 46 -134 0
23 39 26 44 27 46 -133 0
23 39 26 44 27 46 -135 0
23 39 26 44 27 46 -136 0
23 39 26 44 27 46 -134 0
23 39 26 24 45 27 -133 0
23 39 26 24 45 27 -135 0
23 39 26 24 45 27 -136 0
23 39 26 24 45 27 -134 0
23 39 26 24 27 46 -133 0
23 39 26 24 27 46 -135 0
23 39 26 24 27 46 -136 0
23 39 26 24 27 46 -134 0
23 39 44 24 45 46 -133 0
23 39 44 24 45 46 -135 0
23 39 44 24 45 46 -136 0
23 39 44 24 45 46 -134 0
23 39 44 45 27 46 -133 0
23 39 44 45 27 46 -135 0
23 39 44 45 27 46 -136 0
23 39 44 45 27 46 -134 0
23 39 24 45 27 46 -133 0
23 39 24 45 27 46 -135 0
23 39 24 45 27 46 -136 0
23 39 24 45 27 46 -134 0
23 12 26 14 24 13 -77 0
23 12 26 14 24 13 -80 0
23 12 26 14 24 13 -79 0
23 12 26 14 24 13 -78 0
23 12 26 14 24 27 -77 0
23 12 26 14 24 27 -80 0
23 12 26 14 24 27 -79 0
23 12 26 14 24 27 -78 0
23 12 26 14 13 11 -77 0
23 12 26 14 13 11 -80 0
23 12 26 14 13 11 -79 0
23 12 26 14 13 11 -78 0
23 12 26 14 27 11 -77 0
23 12 26 14 27 11 -80 0
23 12 26 14 27 11 -79 0
23 12 26 14 27 11 -78 0
23 12 26 24 13 27 -77 0
23 12 26 24 13 27 -80 0
23 12 26 24 13 27 -79 0
23 12 26 24 13 27 -78 0
23 12 26 24 27 11 -77 0
23 12 26 24 27 11 -80 0
23 12 26 24 27 11 -79 0
23 12 26 24 27 11 -78 0
23 12 14 24 13 11 -77 0
23 12 14 24 13 11 -80 0
23 12 14 24 13 11 -79 0
23 12 14 24 13 11 -78 0
23 12 14 13 27 11 -77 0
23 12 14 13 27 11 -80 0
23 12 14 13 27 11 -79 0
23 12 14 13 27 11 -78 0
23 12 24 13 27 11 -77 0
23 12 24 13 27 11 -80 0
23 12 24 13 27 11 -79 0
23 12 24 13 27 11 -78 0
23 63 26 64 24 27 -146 0
23 63 26 64 24 27 -148 0
23 63 26 64 24 27 -145 0
23 63 26 64 24 27 -147 0
23 63 26 24 69 27 -146 0
23 63 26 24 69 27 -148 0
23 63 26 24 69 27 -145 0
23 63 26 24 69 27 -147 0
23 57 26 61 24 27 -142 0
23 57 26 61 24 27 -144 0
23 57 26 61 24 27 -141 0
23 57 26 61 24 27 -143 0
23 57 26 24 58 27 -142 0
23 57 26 24 58 27 -144 0
23 57 26 24 58 27 -141 0
23 57 26 24 58 27 -143 0
23 6 26 3 24 27 -30 0
23 6 26 3 24 27 -25 0
23 6 26 3 24 27 -29 0
23 6 26 3 24 27 -28 0
23 6 26 24 4 27 -30 0
23 6 26 24 4 27 -25 0
23 6 26 24 4 27 -29 0
23 6 26 24 4 27 -28 0
23 36 26 34 24 27 -132 0
23 36 26 34 24 27 -129 0
23 36 26 34 24 27 -131 0
23 36 26 34 24 27 -130 0
23 36 26 24 31 27 -132 0
23 36 26 24 31 27 -129 0
23 36 26 24 31 27 -131 0
23 36 26 24 31 27 -130 0
23 26 22 24 19 27 -104 0
23 26 22 24 19 27 -106 0
23 26 22 24 19 27 -103 0
23 26 22 24 19 27 -105 0
23 26 22 24 27 16 -104 0
23 26 22 24 27 16 -106 0
23 26 22 24 27 16 -103 0
23 26 22 24 27 16 -105 0
23 26 51 24 48 27 -139 0
23 26 51 24 48 27 -140 0
23 26 51 24 48 27 -137 0
23 26 51 24 48 27 -138 0
23 26 51 24 27 54 -139 0
23 26 51 24 27 54 -140 0
23 26 51 24 27 54 -137 0
23 26 51 24 27 54 -138 0
23 26 44 24 45 27 -133 0
23 26 44 24 45 27 -135 0
23 26 44 24 45 27 -136 0
23 26 44 24 45 27 -134 0
23 26 44 24 27 46 -133 0
23 26 44 24 27 46 -135 0
23 26 44 24 27 46 -136 0
23 26 44 24 27 46 -134 0
23 26 14 24 13 27 -77 0
23 26 14 24 13 27 -80 0
23 26 14 24 13 27 -79 0
23 26 14 24 13 27 -78 0
23 26 14 24 27 11 -77 0
23 26 14 24 27 11 -80 0
23 26 14 24 27 11 -79 0
23 26 14 24 27 11 -78 0
23 26 64 24 69 27 -146 0
23 26 64 24 69 27 -148 0
23 26 64 24 69 27 -145 0
23 26 64 24 69 27 -147 0
23 26 61 24 58 27 -142 0
23 26 61 24 58 27 -144 0
23 26 61 24 58 27 -141 0
23 26 61 24 58 27 -143 0
23 26 3 24 4 27 -30 0
23 26 3 24 4 27 -25 0
23 26 3 24 4 27 -29 0
23 26 3 24 4 27 -28 0
23 26 34 24 31 27 -132 0
23 26 34 24 31 27 -129 0
23 26 34 24 31 27 -131 0
23 26 34 24 31 27 -130 0
23 26 24 19 27 16 -104 0
23 26 24 19 27 16 -106 0
23 26 24 19 27 16 -103 0
23 26 24 19 27 16 -105 0
23 26 24 48 27 54 -139 0
23 26 24 48 27 54 -140 0
23 26 24 48 27 54 -137 0
23 26 24 48 27 54 -138 0
23 26 24 45 27 46 -133 0
23 26 24 45 27 46 -135 0
23 26 24 45 27 46 -136 0
23 26 24 45 27 46 -134 0
23 26 24 13 27 11 -77 0
23 26 24 13 27 11 -80 0
23 26 24 13 27 11 -79 0
23 26 24 13 27 11 -78 0
15 47 22 51 19 48 -115 0
15 47 22 51 19 48 -118 0
15 47 22 51 19 48 -117 0
15 47 22 51 19 48 -116 0
15 47 22 51 19 16 -115 0
15 47 22 51 19 16 -118 0
15 47 22 51 19 16 -117 0
15 47 22 51 19 16 -116 0
15 47 22 51 48 54 -115 0
15 47 22 51 48 54 -118 0
15 47 22 51 48 54 -117 0
15 47 22 51 48 54 -116 0
15 47 22 51 16 54 -115 0
15 47 22 51 16 54 -118 0
15 47 22 51 16 54 -117 0
15 47 22 51 16 54 -116 0
15 47 22 19 48 16 -115 0
15 47 22 19 48 16 -118 0
15 47 22 19 48 16 -117 0
15 47 22 19 48 16 -116 0
15 47 22 19 16 54 -115 0
15 47 22 19 16 54 -118 0
15 47 22 19 16 54 -117 0
15 47 22 19 16 54 -116 0
15 47 51 19 48 54 -115 0
15 47 51 19 48 54 -118 0
15 47 51 19 48 54 -117 0
15 47 51 19 48 54 -116 0
15 47 51 48 16 54 -115 0
15 47 51 48 16 54 -118 0
15 47 51 48 16 54 -117 0
15 47 51 48 16 54 -116 0
15 47 19 48 16 54 -115 0
15 47 19 48 16 54 -118 0
15 47 19 48 16 54 -117 0
15 47 19 48 16 54 -116 0
15 39 22 44 19 45 -114 0
15 39 22 44 19 45 -111 0
15 39 22 44 19 45 -113 0
15 39 22 44 19 45 -112 0
15 39 22 44 19 16 -114 0
15 39 22 44 19 16 -111 0
15 39 22 44 19 16 -113 0
15 39 22 44 19 16 -112 0
15 39 22 44 45 46 -114 0
15 39 22 44 45 46 -111 0
15 39 22 44 45 46 -113 0
15 39 22 44 45 46 -112 0
15 39 22 44 16 46 -114 0
15 39 22 44 16 46 -111 0
15 39 22 44 16 46 -113 0
15 39 22 44 16 46 -112 0
15 39 22 19 45 16 -114 0
15 39 22 19 45 16 -111 0
15 39 22 19 45 16 -113 0
15 39 22 19 45 16 -112 0
15 39 22 19 16 46 -114 0
15 39 22 19 16 46 -111 0
15 39 22 19 16 46 -113 0
15 39 22 19 16 46 -112 0
15 39 44 19 45 46 -114 0
15 39 44 19 45 46 -111 0
15 39 44 19 45 46 -113 0
15 39 44 19 45 46 -112 0
15 39 44 45 16 46 -114 0
15 39 44 45 16 46 -111 0
15 39 44 45 16 46 -113 0
15 39 44 45 16 46 -112 0
15 39 19 45 16 46 -114 0
15 39 19 45 16 46 -111 0
15 39 19 45 16 46 -113 0
15 39 19 45 16 46 -112 0
15 12 22 14 19 13 -75 0
15 12 22 14 19 13 -76 0
15 12 22 14 19 13 -73 0
15 12 22 14 19 13 -74 0
15 12 22 14 19 16 -75 0
15 12 22 14 19 16 -76 0
15 12 22 14 19 16 -73 0
15 12 22 14 19 16 -74 0
15 12 22 14 13 11 -75 0
15 12 22 14 13 11 -76 0
15 12 22 14 13 11 -73 0
15 12 22 14 13 11 -74 0
15 12 22 14 16 11 -75 0
15 12 22 14 16 11 -76 0
15 12 22 14 16 11 -73 0
15 12 22 14 16 11 -74 0
15 12 22 19 13 16 -75 0
15 12 22 19 13 16 -76 0
15 12 22 19 13 16 -73 0
15 12 22 19 13 16 -74 0
15 12 22 19 16 11 -75 0
15 12 22 19 16 11 -76 0
15 12 22 19 16 11 -73 0
15 12 22 19 16 11 -74 0
15 12 14 19 13 11 -75 0
15 12 14 19 13 11 -76 0
15 12 14 19 13 11 -73 0
15 12 14 19 13 11 -74 0
15 12 14 13 16 11 -75 0
15 12 14 13 16 11 -76 0
15 12 14 13 16 11 -73 0
15 12 14 13 16 11 -74 0
15 12 19 13 16 11 -75 0
15 12 19 13 16 11 -76 0
15 12 19 13 16 11 -73 0
15 12 19 13 16 11 -74 0
15 63 22 64 19 16 -124 0
15 63 22 64 19 16 -125 0
15 63 22 64 19 16 -126 0
15 63 22 64 19 16 -123 0
15 63 22 19 69 16 -124 0
15 63 22 19 69 16 -125 0
15 63 22 19 69 16 -126 0
15 63 22 19 69 16 -123 0
15 57 22 61 19 16 -122 0
15 57 22 61 19 16 -121 0
15 57 22 61 19 16 -120 0
15 57 22 61 19 16 -119 0
15 57 22 19 58 16 -122 0
15 57 22 19 58 16 -121 0
15 57 22 19 58 16 -120 0
15 57 22 19 58 16 -119 0
15 6 22 3 19 16 -21 0
15 6 22 3 19 16 -20 0
15 6 22 3 19 16 -18 0
15 6 22 3 19 16 -17 0
15 6 22 19 4 16 -21 0
15 6 22 19 4 16 -20 0
15 6 22 19 4 16 -18 0
15 6 22 19 4 16 -17 0
15 36 22 34 19 16 -109 0
15 36 22 34 19 16 -108 0
15 36 22 34 19 16 -107 0
15 36 22 34 19 16 -110 0
15 36 22 19 31 16 -109 0
15 36 22 19 31 16 -108 0
15 36 22 19 31 16 -107 0
15 36 22 19 31 16 -110 0
15 26 22 24 19 16 -104 0
15 26 22 24 19 16 -106 0
15 26 22 24 19 16 -103 0
15 26 22 24 19 16 -105 0
15 26 22 19 27 16 -104 0
15 26 22 19 27 16 -106 0
15 26 22 19 27 16 -103 0
15 26 22 19 27 16 -105 0
15 22 51 19 48 16 -115 0
15 22 51 19 48 16 -118 0
15 22 51 19 48 16 -117 0
15 22 51 19 48 16 -116 0
15 22 51 19 16 54 -115 0
15 22 51 19 16 54 -118 0
15 22 51 19 16 54 -117 0
15 22 51 19 16 54 -116 0
15 22 44 19 45 16 -114 0
15 22 44 19 45 16 -111 0
15 22 44 19 45 16 -113 0
15 22 44 19 45 16 -112 0
15 22 44 19 16 46 -114 0
15 22 44 19 16 46 -111 0
15 22 44 19 16 46 -113 0
15 22 44 19 16 46 -112 0
15 22 14 19 13 16 -75 0
15 22 14 19 13 16 -76 0
15 22 14 19 13 16 -73 0
15 22 14 19 13 16 -74 0
15 22 14 19 16 11 -75 0
15 22 14 19 16 11 -76 0
15 22 14 19 16 11 -73 0
15 22 14 19 16 11 -74 0
15 22 64 19 69 16 -124 0
15 22 64 19 69 16 -125 0
15 22 64 19 69 16 -126 0
15 22 64 19 69 16 -123 0
15 22 61 19 58 16 -122 0
15 22 61 19 58 16 -121 0
15 22 61 19 58 16 -120 0
15 22 61 19 58 16 -119 0
15 22 3 19 4 16 -21 0
15 22 3 19 4 16 -20 0
15 22 3 19 4 16 -18 0
15 22 3 19 4 16 -17 0
15 22 34 19 31 16 -109 0
15 22 34 19 31 16 -108 0
15 22 34 19 31 16 -107 0
15 22 34 19 31 16 -110 0
15 22 24 19 27 16 -104 0
15 22 24 19 27 16 -106 0
15 22 24 19 27 16 -103 0
15 22 24 19 27 16 -105 0
15 22 19 48 16 54 -115 0
15 22 19 48 16 54 -118 0
15 22 19 48 16 54 -117 0
15 22 19 48 16 54 -116 0
15 22 19 45 16 46 -114 0
15 22 19 45 16 46 -111 0
15 22 19 45 16 46 -113 0
15 22 19 45 16 46 -112 0
15 22 19 13 16 11 -75 0
15 22 19 13 16 11 -76 0
15 22 19 13 16 11 -73 0
15 22 19 13 16 11 -74 0
47 39 51 44 48 45 -172 0
47 39 51 44 48 45 -170 0
47 39 51 44 48 45 -171 0
47 39 51 44 48 45 -169 0
47 39 51 44 48 54 -172 0
47 39 51 44 48 54 -170 0
47 39 51 44 48 54 -171 0
47 39 51 44 48 54 -169 0
47 39 51 44 45 46 -172 0
47 39 51 44 45 46 -170 0
47 39 51 44 45 46 -171 0
47 39 51 44 45 46 -169 0
47 39 51 44 54 46 -172 0
47 39 51 44 54 46 -170 0
47 39 51 44 54 46 -171 0
47 39 51 44 54 46 -169 0
47 39 51 48 45 54 -172 0
47 39 51 48 45 54 -170 0
47 39 51 48 45 54 -171 0
47 39 51 48 45 54 -169 0
47 39 51 48 54 46 -172 0
47 39 51 48 54 46 -170 0
47 39 51 48 54 46 -171 0
47 39 51 48 54 46 -169 0
47 39 44 48 45 46 -172 0
47 39 44 48 45 46 -170 0
47 39 44 48 45 46 -171 0
47 39 44 48 45 46 -169 0
47 39 44 45 54 46 -172 0
47 39 44 45 54 46 -170 0
47 39 44 45 54 46 -171 0
47 39 44 45 54 46 -169 0
47 39 48 45 54 46 -172 0
47 39 48 45 54 46 -170 0
47 39 48 45 54 46 -171 0
47 39 48 45 54 46 -169 0
47 12 51 14 48 13 -92 0
47 12 51 14 48 13 -89 0
47 12 51 14 48 13 -90 0
47 12 51 14 48 13 -91 0
47 12 51 14 48 54 -92 0
47 12 51 14 48 54 -89 0
47 12 51 14 48 54 -90 0
47 12 51 14 48 54 -91 0
47 12 51 14 13 11 -92 0
47 12 51 14 13 11 -89 0
47 12 51 14 13 11 -90 0
47 12 51 14 13 11 -91 0
47 12 51 14 54 11 -92 0
47 12 51 14 54 11 -89 0
47 12 51 14 54 11 -90 0
47 12 51 14 54 11 -91 0
47 12 51 48 13 54 -92 0
47 12 51 48 13 54 -89 0
47 12 51 48 13 54 -90 0
47 12 51 48 13 54 -91 0
47 12 51 48 54 11 -92 0
47 12 51 48 54 11 -89 0
47 12 51 48 54 11 -90 0
47 12 51 48 54 11 -91 0
47 12 14 48 13 11 -92 0
47 12 14 48 13 11 -89 0
47 12 14 48 13 11 -90 0
47 12 14 48 13 11 -91 0
47 12 14 13 54 11 -92 0
47 12 14 13 54 11 -89 0
47 12 14 13 54 11 -90 0
47 12 14 13 54 11 -91 0
47 12 48 13 54 11 -92 0
47 12 48 13 54 11 -89 0
47 12 48 13 54 11 -90 0
47 12 48 13 54 11 -91 0
47 63 51 64 48 54 -188 0
47 63 51 64 48 54 -190 0
47 63 51 64 48 54 -187 0
47 63 51 64 48 54 -189 0
47 63 51 48 69 54 -188 0
47 63 51 48 69 54 -190 0
47 63 51 48 69 54 -187 0
47 63 51 48 69 54 -189 0
47 57 51 61 48 54 -184 0
47 57 51 61 48 54 -186 0
47 57 51 61 48 54 -183 0
47 57 51 61 48 54 -185 0
47 57 51 48 58 54 -184 0
47 57 51 48 58 54 -186 0
47 57 51 48 58 54 -183 0
47 57 51 48 58 54 -185 0
47 6 51 3 48 54 -53 0
47 6 51 3 48 54 -50 0
47 6 51 3 48 54 -52 0
47 6 51 3 48 54 -49 0
47 6 51 48 4 54 -53 0
47 6 51 48 4 54 -50 0
47 6 51 48 4 54 -52 0
47 6 51 48 4 54 -49 0
47 36 51 34 48 54 -156 0
47 36 51 34 48 54 -157 0
47 36 51 34 48 54 -155 0
47 36 51 34 48 54 -158 0
47 36 51 48 31 54 -156 0
47 36 51 48 31 54 -157 0
47 36 51 48 31 54 -155 0
47 36 51 48 31 54 -158 0
47 26 51 24 48 54 -139 0
47 26 51 24 48 54 -140 0
47 26 51 24 48 54 -137 0
47 26 51 24 48 54 -138 0
47 26 51 48 27 54 -139 0
47 26 51 48 27 54 -140 0
47 26 51 48 27 54 -137 0
47 26 51 48 27 54 -138 0
47 22 51 19 48 54 -115 0
47 22 51 19 48 54 -118 0
47 22 51 19 48 54 -117 0
47 22 51 19 48 54 -116 0
47 22 51 48 16 54 -115 0
47 22 51 48 16 54 -118 0
47 22 51 48 16 54 -117 0
47 22 51 48 16 54 -116 0
47 51 44 48 45 54 -172 0
47 51 44 48 45 54 -170 0
47 51 44 48 45 54 -171 0
47 51 44 48 45 54 -169 0
47 51 44 48 54 46 -172 0
47 51 44 48 54 46 -170 0
47 51 44 48 54 46 -171 0
47 51 44 48 54 46 -169 0
47 51 14 48 13 54 -92 0
47 51 14 48 13 54 -89 0
47 51 14 48 13 54 -90 0
47 51 14 48 13 54 -91 0
47 51 14 48 54 11 -92 0
47 51 14 48 54 11 -89 0
47 51 14 48 54 11 -90 0
47 51 14 48 54 11 -91 0
47 51 64 48 69 54 -188 0
47 51 64 48 69 54 -190 0
47 51 64 48 69 54 -187 0
47 51 64 48 69 54 -189 0
47 51 61 48 58 54 -184 0
47 51 61 48 58 54 -186 0
47 51 61 48 58 54 -183 0
47 51 61 48 58 54 -185 0
47 51 3 48 4 54 -53 0
47 51 3 48 4 54 -50 0
47 51 3 48 4 54 -52 0
47 51 3 48 4 54 -49 0
47 51 34 48 31 54 -156 0
47 51 34 48 31 54 -157 0
47 51 34 48 31 54 -155 0
47 51 34 48 31 54 -158 0
47 51 24 48 27 54 -139 0
47 51 24 48 27 54 -140 0
47 51 24 48 27 54 -137 0
47 51 24 48 27 54 -138 0
47 51 19 48 16 54 -115 0
47 51 19 48 16 54 -118 0
47 51 19 48 16 54 -117 0
47 51 19 48 16 54 -116 0
47 51 48 45 54 46 -172 0
47 51 48 45 54 46 -170 0
47 51 48 45 54 46 -171 0
47 51 48 45 54 46 -169 0
47 51 48 13 54 11 -92 0
47 51 48 13 54 11 -89 0
47 51 48 13 54 11 -90 0
47 51 48 13 54 11 -91 0
39 12 44 14 45 13 -85 0
39 12 44 14 45 13 -87 0
39 12 44 14 45 13 -88 0
39 12 44 14 45 13 -86 0
39 12 44 14 45 46 -85 0
39 12 44 14 45 46 -87 0
39 12 44 14 45 46 -88 0
39 12 44 14 45 46 -86 0
39 12 44 14 13 11 -85 0
39 12 44 14 13 11 -87 0
39 12 44 14 13 11 -88 0
39 12 44 14 13 11 -86 0
39 12 44 14 46 11 -85 0
39 12 44 14 46 11 -87 0
39 12 44 14 46 11 -88 0
39 12 44 14 46 11 -86 0
39 12 44 45 13 46 -85 0
39 12 44 45 13 46 -87 0
39 12 44 45 13 46 -88 0
39 12 44 45 13 46 -86 0
39 12 44 45 46 11 -85 0
39 12 44 45 46 11 -87 0
39 12 44 45 46 11 -88 0
39 12 44 45 46 11 -86 0
39 12 14 45 13 11 -85 0
39 12 14 45 13 11 -87 0
39 12 14 45 13 11 -88 0
39 12 14 45 13 11 -86 0
39 12 14 13 46 11 -85 0
39 12 14 13 46 11 -87 0
39 12 14 13 46 11 -88 0
39 12 14 13 46 11 -86 0
39 12 45 13 46 11 -85 0
39 12 45 13 46 11 -87 0
39 12 45 13 46 11 -88 0
39 12 45 13 46 11 -86 0
39 63 44 64 45 46 -179 0
39 63 44 64 45 46 -180 0
39 63 44 64 45 46 -178 0
39 63 44 64 45 46 -177 0
39 63 44 45 69 46 -179 0
39 63 44 45 69 46 -180 0
39 63 44 45 69 46 -178 0
39 63 44 45 69 46 -177 0
39 57 44 61 45 46 -173 0
39 57 44 61 45 46 -176 0
39 57 44 61 45 46 -175 0
39 57 44 61 45 46 -174 0
39 57 44 45 58 46 -173 0
39 57 44 45 58 46 -176 0
39 57 44 45 58 46 -175 0
39 57 44 45 58 46 -174 0
39 6 44 3 45 46 -42 0
39 6 44 3 45 46 -40 0
39 6 44 3 45 46 -41 0
39 6 44 3 45 46 -43 0
39 6 44 45 4 46 -42 0
39 6 44 45 4 46 -40 0
39 6 44 45 4 46 -41 0
39 6 44 45 4 46 -43 0
39 36 44 34 45 46 -151 0
39 36 44 34 45 46 -154 0
39 36 44 34 45 46 -152 0
39 36 44 34 45 46 -153 0
39 36 44 45 31 46 -151 0
39 36 44 45 31 46 -154 0
39 36 44 45 31 46 -152 0
39 36 44 45 31 46 -153 0
39 26 44 24 45 46 -133 0
39 26 44 24 45 46 -135 0
39 26 44 24 45 46 -136 0
39 26 44 24 45 46 -134 0
39 26 44 45 27 46 -133 0
39 26 44 45 27 46 -135 0
39 26 44 45 27 46 -136 0
39 26 44 45 27 46 -134 0
39 22 44 19 45 46 -114 0
39 22 44 19 45 46 -111 0
39 22 44 19 45 46 -113 0
39 22 44 19 45 46 -112 0
39 22 44 45 16 46 -114 0
39 22 44 45 16 46 -111 0
39 22 44 45 16 46 -113 0
39 22 44 45 16 46 -112 0
39 51 44 48 45 46 -172 0
39 51 44 48 45 46 -170 0
39 51 44 48 45 46 -171 0
39 51 44 48 45 46 -169 0
39 51 44 45 54 46 -172 0
39 51 44 45 54 46 -170 0
39 51 44 45 54 46 -171 0
39 51 44 45 54 46 -169 0
39 44 14 45 13 46 -85 0
39 44 14 45 13 46 -87 0
39 44 14 45 13 46 -88 0
39 44 14 45 13 46 -86 0
39 44 14 45 46 11 -85 0
39 44 14 45 46 11 -87 0
39 44 14 45 46 11 -88 0
39 44 14 45 46 11 -86 0
39 44 64 45 69 46 -179 0
39 44 64 45 69 46 -180 0
39 44 64 45 69 46 -178 0
39 44 64 45 69 46 -177 0
39 44 61 45 58 46 -173 0
39 44 61 45 58 46 -176 0
39 44 61 45 58 46 -175 0
39 44 61 45 58 46 -174 0
39 44 3 45 4 46 -42 0
39 44 3 45 4 46 -40 0
39 44 3 45 4 46 -41 0
39 44 3 45 4 46 -43 0
39 44 34 45 31 46 -151 0
39 44 34 45 31 46 -154 0
39 44 34 45 31 46 -152 0
39 44 34 45 31 46 -153 0
39 44 24 45 27 46 -133 0
39 44 24 45 27 46 -135 0
39 44 24 45 27 46 -136 0
39 44 24 45 27 46 -134 0
39 44 19 45 16 46 -114 0
39 44 19 45 16 46 -111 0
39 44 19 45 16 46 -113 0
39 44 19 45 16 46 -112 0
39 44 48 45 54 46 -172 0
39 44 48 45 54 46 -170 0
39 44 48 45 54 46 -171 0
39 44 48 45 54 46 -169 0
39 44 45 13 46 11 -85 0
39 44 45 13 46 11 -87 0
39 44 45 13 46 11 -88 0
39 44 45 13 46 11 -86 0
12 63 14 64 13 11 -100 0
12 63 14 64 13 11 -98 0
12 63 14 64 13 11 -99 0
12 63 14 64 13 11 -97 0
12 63 14 13 69 11 -100 0
12 63 14 13 69 11 -98 0
12 63 14 13 69 11 -99 0
12 63 14 13 69 11 -97 0
12 57 14 61 13 11 -95 0
12 57 14 61 13 11 -93 0
12 57 14 61 13 11 -94 0
12 57 14 61 13 11 -96 0
12 57 14 13 58 11 -95 0
12 57 14 13 58 11 -93 0
12 57 14 13 58 11 -94 0
12 57 14 13 58 11 -96 0
12 6 14 3 13 11 -10 0
12 6 14 3 13 11 -9 0
12 6 14 3 13 11 -7 0
12 6 14 3 13 11 -8 0
12 6 14 13 4 11 -10 0
12 6 14 13 4 11 -9 0
12 6 14 13 4 11 -7 0
12 6 14 13 4 11 -8 0
12 36 14 34 13 11 -84 0
12 36 14 34 13 11 -83 0
12 36 14 34 13 11 -82 0
12 36 14 34 13 11 -81 0
12 36 14 13 31 11 -84 0
12 36 14 13 31 11 -83 0
12 36 14 13 31 11 -82 0
12 36 14 13 31 11 -81 0
12 26 14 24 13 11 -77 0
12 26 14 24 13 11 -80 0
12 26 14 24 13 11 -79 0
12 26 14 24 13 11 -78 0
12 26 14 13 27 11 -77 0
12 26 14 13 27 11 -80 0
12 26 14 13 27 11 -79 0
12 26 14 13 27 11 -78 0
12 22 14 19 13 11 -75 0
12 22 14 19 13 11 -76 0
12 22 14 19 13 11 -73 0
12 22 14 19 13 11 -74 0
12 22 14 13 16 11 -75 0
12 22 14 13 16 11 -76 0
12 22 14 13 16 11 -73 0
12 22 14 13 16 11 -74 0
12 51 14 48 13 11 -92 0
12 51 14 48 13 11 -89 0
12 51 14 48 13 11 -90 0
12 51 14 48 13 11 -91 0
12 51 14 13 54 11 -92 0
12 51 14 13 54 11 -89 0
12 51 14 13 54 11 -90 0
12 51 14 13 54 11 -91 0
12 44 14 45 13 11 -85 0
12 44 14 45 13 11 -87 0
12 44 14 45 13 11 -88 0
12 44 14 45 13 11 -86 0
12 44 14 13 46 11 -85 0
12 44 14 13 46 11 -87 0
12 44 14 13 46 11 -88 0
12 44 14 13 46 11 -86 0
12 14 64 13 69 11 -100 0
12 14 64 13 69 11 -98 0
12 14 64 13 69 11 -99 0
12 14 64 13 69 11 -97 0
12 14 61 13 58 11 -95 0
12 14 61 13 58 11 -93 0
12 14 61 13 58 11 -94 0
12 14 61 13 58 11 -96 0
12 14 3 13 4 11 -10 0
12 14 3 13 4 11 -9 0
12 14 3 13 4 11 -7 0
12 14 3 13 4 11 -8 0
12 14 34 13 31 11 -84 0
12 14 34 13 31 11 -83 0
12 14 34 13 31 11 -82 0
12 14 34 13 31 11 -81 0
12 14 24 13 27 11 -77 0
12 14 24 13 27 11 -80 0
12 14 24 13 27 11 -79 0
12 14 24 13 27 11 -78 0
12 14 19 13 16 11 -75 0
12 14 19 13 16 11 -76 0
12 14 19 13 16 11 -73 0
12 14 19 13 16 11 -74 0
12 14 48 13 54 11 -92 0
12 14 48 13 54 11 -89 0
12 14 48 13 54 11 -90 0
12 14 48 13 54 11 -91 0
12 14 45 13 46 11 -85 0
12 14 45 13 46 11 -87 0
12 14 45 13 46 11 -88 0
12 14 45 13 46 11 -86 0
63 57 64 61 69 58 -196 0
63 57 64 61 69 58 -193 0
63 57 64 61 69 58 -195 0
63 57 64 61 69 58 -194 0
63 6 64 3 69 4 -68 0
63 6 64 3 69 4 -67 0
63 6 64 3 69 4 -66 0
63 6 64 3 69 4 -65 0
63 36 64 34 69 31 -166 0
63 36 64 34 69 31 -164 0
63 36 64 34 69 31 -165 0
63 36 64 34 69 31 -163 0
63 26 64 24 69 27 -146 0
63 26 64 24 69 27 -148 0
63 26 64 24 69 27 -145 0
63 26 64 24 69 27 -147 0
63 22 64 19 69 16 -124 0
63 22 64 19 69 16 -125 0
63 22 64 19 69 16 -126 0
63 22 64 19 69 16 -123 0
63 51 64 48 69 54 -188 0
63 51 64 48 69 54 -190 0
63 51 64 48 69 54 -187 0
63 51 64 48 69 54 -189 0
63 44 64 45 69 46 -179 0
63 44 64 45 69 46 -180 0
63 44 64 45 69 46 -178 0
63 44 64 45 69 46 -177 0
63 14 64 13 69 11 -100 0
63 14 64 13 69 11 -98 0
63 14 64 13 69 11 -99 0
63 14 64 13 69 11 -97 0
57 6 61 3 58 4 -55 0
57 6 61 3 58 4 -59 0
57 6 61 3 58 4 -56 0
57 6 61 3 58 4 -62 0
57 36 61 34 58 31 -160 0
57 36 61 34 58 31 -162 0
57 36 61 34 58 31 -159 0
57 36 61 34 58 31 -161 0
57 26 61 24 58 27 -142 0
57 26 61 24 58 27 -144 0
57 26 61 24 58 27 -141 0
57 26 61 24 58 27 -143 0
57 22 61 19 58 16 -122 0
57 22 61 19 58 16 -121 0
57 22 61 19 58 16 -120 0
57 22 61 19 58 16 -119 0
57 51 61 48 58 54 -184 0
57 51 61 48 58 54 -186 0
57 51 61 48 58 54 -183 0
57 51 61 48 58 54 -185 0
57 44 61 45 58 46 -173 0
57 44 61 45 58 46 -176 0
57 44 61 45 58 46 -175 0
57 44 61 45 58 46 -174 0
57 14 61 13 58 11 -95 0
57 14 61 13 58 11 -93 0
57 14 61 13 58 11 -94 0
57 14 61 13 58 11 -96 0
6 36 3 34 4 31 -33 0
6 36 3 34 4 31 -38 0
6 36 3 34 4 31 -37 0
6 36 3 34 4 31 -32 0
6 26 3 24 4 27 -30 0
6 26 3 24 4 27 -25 0
6 26 3 24 4 27 -29 0
6 26 3 24 4 27 -28 0
6 22 3 19 4 16 -21 0
6 22 3 19 4 16 -20 0
6 22 3 19 4 16 -18 0
6 22 3 19 4 16 -17 0
6 51 3 48 4 54 -53 0
6 51 3 48 4 54 -50 0
6 51 3 48 4 54 -52 0
6 51 3 48 4 54 -49 0
6 44 3 45 4 46 -42 0
6 44 3 45 4 46 -40 0
6 44 3 45 4 46 -41 0
6 44 3 45 4 46 -43 0
6 14 3 13 4 11 -10 0
6 14 3 13 4 11 -9 0
6 14 3 13 4 11 -7 0
6 14 3 13 4 11 -8 0
36 26 34 24 31 27 -132 0
36 26 34 24 31 27 -129 0
36 26 34 24 31 27 -131 0
36 26 34 24 31 27 -130 0
36 22 34 19 31 16 -109 0
36 22 34 19 31 16 -108 0
36 22 34 19 31 16 -107 0
36 22 34 19 31 16 -110 0
36 51 34 48 31 54 -156 0
36 51 34 48 31 54 -157 0
36 51 34 48 31 54 -155 0
36 51 34 48 31 54 -158 0
36 44 34 45 31 46 -151 0
36 44 34 45 31 46 -154 0
36 44 34 45 31 46 -152 0
36 44 34 45 31 46 -153 0
36 14 34 13 31 11 -84 0
36 14 34 13 31 11 -83 0
36 14 34 13 31 11 -82 0
36 14 34 13 31 11 -81 0
26 22 24 19 27 16 -104 0
26 22 24 19 27 16 -106 0
26 22 24 19 27 16 -103 0
26 22 24 19 27 16 -105 0
26 51 24 48 27 54 -139 0
26 51 24 48 27 54 -140 0
26 51 24 48 27 54 -137 0
26 51 24 48 27 54 -138 0
26 44 24 45 27 46 -133 0
26 44 24 45 27 46 -135 0
26 44 24 45 27 46 -136 0
26 44 24 45 27 46 -134 0
26 14 24 13 27 11 -77 0
26 14 24 13 27 11 -80 0
26 14 24 13 27 11 -79 0
26 14 24 13 27 11 -78 0
22 51 19 48 16 54 -115 0
22 51 19 48 16 54 -118 0
22 51 19 48 16 54 -117 0
22 51 19 48 16 54 -116 0
22 44 19 45 16 46 -114 0
22 44 19 45 16 46 -111 0
22 44 19 45 16 46 -113 0
22 44 19 45 16 46 -112 0
22 14 19 13 16 11 -75 0
22 14 19 13 16 11 -76 0
22 14 19 13 16 11 -73 0
22 14 19 13 16 11 -74 0
51 44 48 45 54 46 -172 0
51 44 48 45 54 46 -170 0
51 44 48 45 54 46 -171 0
51 44 48 45 54 46 -169 0
51 14 48 13 54 11 -92 0
51 14 48 13 54 11 -89 0
51 14 48 13 54 11 -90 0
51 14 48 13 54 11 -91 0
44 14 45 13 46 11 -85 0
44 14 45 13 46 11 -87 0
44 14 45 13 46 11 -88 0
44 14 45 13 46 11 -86 0
70 60 63 57 64 61 69 -196 0
70 60 63 57 64 61 69 -193 0
70 60 63 57 64 61 69 -195 0
70 60 63 57 64 61 69 -194 0
70 60 63 57 64 61 58 -196 0
70 60 63 57 64 61 58 -193 0
70 60 63 57 64 61 58 -195 0
70 60 63 57 64 61 58 -194 0
70 60 63 57 64 69 58 -196 0
70 60 63 57 64 69 58 -193 0
70 60 63 57 64 69 58 -195 0
70 60 63 57 64 69 58 -194 0
70 60 63 57 61 69 58 -196 0
70 60 63 57 61 69 58 -193 0
70 60 63 57 61 69 58 -195 0
70 60 63 57 61 69 58 -194 0
70 60 63 64 61 69 58 -196 0
70 60 63 64 61 69 58 -193 0
70 60 63 64 61 69 58 -195 0
70 60 63 64 61 69 58 -194 0
70 60 57 64 61 69 58 -196 0
70 60 57 64 61 69 58 -193 0
70 60 57 64 61 69 58 -195 0
70 60 57 64 61 69 58 -194 0
70 5 63 6 64 3 69 -68 0
70 5 63 6 64 3 69 -67 0
70 5 63 6 64 3 69 -66 0
70 5 63 6 64 3 69 -65 0
70 5 63 6 64 3 4 -68 0
70 5 63 6 64 3 4 -67 0
70 5 63 6 64 3 4 -66 0
70 5 63 6 64 3 4 -65 0
70 5 63 6 64 69 4 -68 0
70 5 63 6 64 69 4 -67 0
70 5 63 6 64 69 4 -66 0
70 5 63 6 64 69 4 -65 0
70 5 63 6 3 69 4 -68 0
70 5 63 6 3 69 4 -67 0
70 5 63 6 3 69 4 -66 0
70 5 63 6 3 69 4 -65 0
70 5 63 64 3 69 4 -68 0
70 5 63 64 3 69 4 -67 0
70 5 63 64 3 69 4 -66 0
70 5 63 64 3 69 4 -65 0
70 5 6 64 3 69 4 -68 0
70 5 6 64 3 69 4 -67 0
70 5 6 64 3 69 4 -66 0
70 5 6 64 3 69 4 -65 0
70 35 63 36 64 34 69 -166 0
70 35 63 36 64 34 69 -164 0
70 35 63 36 64 34 69 -165 0
70 35 63 36 64 34 69 -163 0
70 35 63 36 64 34 31 -166 0
70 35 63 36 64 34 31 -164 0
70 35 63 36 64 34 31 -165 0
70 35 63 36 64 34 31 -163 0
70 35 63 36 64 69 31 -166 0
70 35 63 36 64 69 31 -164 0
70 35 63 36 64 69 31 -165 0
70 35 63 36 64 69 31 -163 0
70 35 63 36 34 69 31 -166 0
70 35 63 36 34 69 31 -164 0
70 35 63 36 34 69 31 -165 0
70 35 63 36 34 69 31 -163 0
70 35 63 64 34 69 31 -166 0
70 35 63 64 34 69 31 -164 0
70 35 63 64 34 69 31 -165 0
70 35 63 64 34 69 31 -163 0
70 35 36 64 34 69 31 -166 0
70 35 36 64 34 69 31 -164 0
70 35 36 64 34 69 31 -165 0
70 35 36 64 34 69 31 -163 0
70 23 63 26 64 24 69 -146 0
70 23 63 26 64 24 69 -148 0
70 23 63 26 64 24 69 -145 0
70 23 63 26 64 24 69 -147 0
70 23 63 26 64 24 27 -146 0
70 23 63 26 64 24 27 -148 0
70 23 63 26 64 24 27 -145 0
70 23 63 26 64 24 27 -147 0
70 23 63 26 64 69 27 -146 0
70 23 63 26 64 69 27 -148 0
70 23 63 26 64 69 27 -145 0
70 23 63 26 64 69 27 -147 0
70 23 63 26 24 69 27 -146 0
70 23 63 26 24 69 27 -148 0
70 23 63 26 24 69 27 -145 0
70 23 63 26 24 69 27 -147 0
70 23 63 64 24 69 27 -146 0
70 23 63 64 24 69 27 -148 0
70 23 63 64 24 69 27 -145 0
70 23 63 64 24 69 27 -147 0
70 23 26 64 24 69 27 -146 0
70 23 26 64 24 69 27 -148 0
70 23 26 64 24 69 27 -145 0
70 23 26 64 24 69 27 -147 0
70 15 63 22 64 19 69 -124 0
70 15 63 22 64 19 69 -125 0
70 15 63 22 64 19 69 -126 0
70 15 63 22 64 19 69 -123 0
70 15 63 22 64 19 16 -124 0
70 15 63 22 64 19 16 -125 0
70 15 63 22 64 19 16 -126 0
70 15 63 22 64 19 16 -123 0
70 15 63 22 64 69 16 -124 0
70 15 63 22 64 69 16 -125 0
70 15 63 22 64 69 16 -126 0
70 15 63 22 64 69 16 -123 0
70 15 63 22 19 69 16 -124 0
70 15 63 22 19 69 16 -125 0
70 15 63 22 19 69 16 -126 0
70 15 63 22 19 69 16 -123 0
70 15 63 64 19 69 16 -124 0
70 15 63 64 19 69 16 -125 0
70 15 63 64 19 69 16 -126 0
70 15 63 64 19 69 16 -123 0
70 15 22 64 19 69 16 -124 0
70 15 22 64 19 69 16 -125 0
70 15 22 64 19 69 16 -126 0
70 15 22 64 19 69 16 -123 0
70 47 63 51 64 48 69 -188 0
70 47 63 51 64 48 69 -190 0
70 47 63 51 64 48 69 -187 0
70 47 63 51 64 48 69 -189 0
70 47 63 51 64 48 54 -188 0
70 47 63 51 64 48 54 -190 0
70 47 63 51 64 48 54 -187 0
70 47 63 51 64 48 54 -189 0
70 47 63 51 64 69 54 -188 0
70 47 63 51 64 69 54 -190 0
70 47 63 51 64 69 54 -187 0
70 47 63 51 64 69 54 -189 0
70 47 63 51 48 69 54 -188 0
70 47 63 51 48 69 54 -190 0
70 47 63 51 48 69 54 -187 0
70 47 63 51 48 69 54 -189 0
70 47 63 64 48 69 54 -188 0
70 47 63 64 48 69 54 -190 0
70 47 63 64 48 69 54 -187 0
70 47 63 64 48 69 54 -189 0
70 47 51 64 48 69 54 -188 0
70 47 51 64 48 69 54 -190 0
70 47 51 64 48 69 54 -187 0
70 47 51 64 48 69 54 -189 0
70 39 63 44 64 45 69 -179 0
70 39 63 44 64 45 69 -180 0
70 39 63 44 64 45 69 -178 0
70 39 63 44 64 45 69 -177 0
70 39 63 44 64 45 46 -179 0
70 39 63 44 64 45 46 -180 0
70 39 63 44 64 45 46 -178 0
70 39 63 44 64 45 46 -177 0
70 39 63 44 64 69 46 -179 0
70 39 63 44 64 69 46 -180 0
70 39 63 44 64 69 46 -178 0
70 39 63 44 64 69 46 -177 0
70 39 63 44 45 69 46 -179 0
70 39 63 44 45 69 46 -180 0
70 39 63 44 45 69 46 -178 0
70 39 63 44 45 69 46 -177 0
70 39 63 64 45 69 46 -179 0
70 39 63 64 45 69 46 -180 0
70 39 63 64 45 69 46 -178 0
70 39 63 64 45 69 46 -177 0
70 39 44 64 45 69 46 -179 0
70 39 44 64 45 69 46 -180 0
70 39 44 64 45 69 46 -178 0
70 39 44 64 45 69 46 -177 0
70 12 63 14 64 13 69 -100 0
70 12 63 14 64 13 69 -98 0
70 12 63 14 64 13 69 -99 0
70 12 63 14 64 13 69 -97 0
70 12 63 14 64 13 11 -100 0
70 12 63 14 64 13 11 -98 0
70 12 63 14 64 13 11 -99 0
70 12 63 14 64 13 11 -97 0
70 12 63 14 64 69 11 -100 0
70 12 63 14 64 69 11 -98 0
70 12 63 14 64 69 11 -99 0
70 12 63 14 64 69 11 -97 0
70 12 63 14 13 69 11 -100 0
70 12 63 14 13 69 11 -98 0
70 12 63 14 13 69 11 -99 0
70 12 63 14 13 69 11 -97 0
70 12 63 64 13 69 11 -100 0
70 12 63 64 13 69 11 -98 0
70 12 63 64 13 69 11 -99 0
70 12 63 64 13 69 11 -97 0
70 12 14 64 13 69 11 -100 0
70 12 14 64 13 69 11 -98 0
70 12 14 64 13 69 11 -99 0
70 12 14 64 13 69 11 -97 0
70 63 57 64 61 69 58 -196 0
70 63 57 64 61 69 58 -193 0
70 63 57 64 61 69 58 -195 0
70 63 57 64 61 69 58 -194 0
70 63 6 64 3 69 4 -68 0
70 63 6 64 3 69 4 -67 0
70 63 6 64 3 69 4 -66 0
70 63 6 64 3 69 4 -65 0
70 63 36 64 34 69 31 -166 0
70 63 36 64 34 69 31 -164 0
70 63 36 64 34 69 31 -165 0
70 63 36 64 34 69 31 -163 0
70 63 26 64 24 69 27 -146 0
70 63 26 64 24 69 27 -148 0
70 63 26 64 24 69 27 -145 0
70 63 26 64 24 69 27 -147 0
70 63 22 64 19 69 16 -124 0
70 63 22 64 19 69 16 -125 0
70 63 22 64 19 69 16 -126 0
70 63 22 64 19 69 16 -123 0
70 63 51 64 48 69 54 -188 0
70 63 51 64 48 69 54 -190 0
70 63 51 64 48 69 54 -187 0
70 63 51 64 48 69 54 -189 0
70 63 44 64 45 69 46 -179 0
70 63 44 64 45 69 46 -180 0
70 63 44 64 45 69 46 -178 0
70 63 44 64 45 69 46 -177 0
70 63 14 64 13 69 11 -100 0
70 63 14 64 13 69 11 -98 0
70 63 14 64 13 69 11 -99 0
70 63 14 64 13 69 11 -97 0
60 5 57 6 61 3 58 -55 0
60 5 57 6 61 3 58 -59 0
60 5 57 6 61 3 58 -56 0
60 5 57 6 61 3 58 -62 0
60 5 57 6 61 3 4 -55 0
60 5 57 6 61 3 4 -59 0
60 5 57 6 61 3 4 -56 0
60 5 57 6 61 3 4 -62 0
60 5 57 6 61 58 4 -55 0
60 5 57 6 61 58 4 -59 0
60 5 57 6 61 58 4 -56 0
60 5 57 6 61 58 4 -62 0
60 5 57 6 3 58 4 -55 0
60 5 57 6 3 58 4 -59 0
60 5 57 6 3 58 4 -56 0
60 5 57 6 3 58 4 -62 0
60 5 57 61 3 58 4 -55 0
60 5 57 61 3 58 4 -59 0
60 5 57 61 3 58 4 -56 0
60 5 57 61 3 58 4 -62 0
60 5 6 61 3 58 4 -55 0
60 5 6 61 3 58 4 -59 0
60 5 6 61 3 58 4 -56 0
60 5 6 61 3 58 4 -62 0
60 35 57 36 61 34 58 -160 0
60 35 57 36 61 34 58 -162 0
60 35 57 36 61 34 58 -159 0
60 35 57 36 61 34 58 -161 0
60 35 57 36 61 34 31 -160 0
60 35 57 36 61 34 31 -162 0
60 35 57 36 61 34 31 -159 0
60 35 57 36 61 34 31 -161 0
60 35 57 36 61 58 31 -160 0
60 35 57 36 61 58 31 -162 0
60 35 57 36 61 58 31 -159 0
60 35 57 36 61 58 31 -161 0
60 35 57 36 34 58 31 -160 0
60 35 57 36 34 58 31 -162 0
60 35 57 36 34 58 31 -159 0
60 35 57 36 34 58 31 -161 0
60 35 57 61 34 58 31 -160 0
60 35 57 61 34 58 31 -162 0
60 35 57 61 34 58 31 -159 0
60 35 57 61 34 58 31 -161 0
60 35 36 61 34 58 31 -160 0
60 35 36 61 34 58 31 -162 0
60 35 36 61 34 58 31 -159 0
60 35 36 61 34 58 31 -161 0
60 23 57 26 61 24 58 -142 0
60 23 57 26 61 24 58 -144 0
60 23 57 26 61 24 58 -141 0
60 23 57 26 61 24 58 -143 0
60 23 57 26 61 24 27 -142 0
60 23 57 26 61 24 27 -144 0
60 23 57 26 61 24 27 -141 0
60 23 57 26 61 24 27 -143 0
60 23 57 26 61 58 27 -142 0
60 23 57 26 61 58 27 -144 0
60 23 57 26 61 58 27 -141 0
60 23 57 26 61 58 27 -143 0
60 23 57 26 24 58 27 -142 0
60 23 57 26 24 58 27 -144 0
60 23 57 26 24 58 27 -141 0
60 23 57 26 24 58 27 -143 0
60 23 57 61 24 58 27 -142 0
60 23 57 61 24 58 27 -144 0
60 23 57 61 24 58 27 -141 0
60 23 57 61 24 58 27 -143 0
60 23 26 61 24 58 27 -142 0
60 23 26 61 24 58 27 -144 0
60 23 26 61 24 58 27 -141 0
60 23 26 61 24 58 27 -143 0
60 15 57 22 61 19 58 -122 0
60 15 57 22 61 19 58 -121 0
60 15 57 22 61 19 58 -120 0
60 15 57 22 61 19 58 -119 0
60 15 57 22 61 19 16 -122 0
60 15 57 22 61 19 16 -121 0
60 15 57 22 61 19 16 -120 0
60 15 57 22 61 19 16 -119 0
60 15 57 22 61 58 16 -122 0
60 15 57 22 61 58 16 -121 0
60 15 57 22 61 58 16 -120 0
60 15 57 22 61 58 16 -119 0
60 15 57 22 19 58 16 -122 0
60 15 57 22 19 58 16 -121 0
60 15 57 22 19 58 16 -120 0
60 15 57 22 19 58 16 -119 0
60 15 57 61 19 58 16 -122 0
60 15 57 61 19 58 16 -121 0
60 15 57 61 19 58 16 -120 0
60 15 57 61 19 58 16 -119 0
60 15 22 61 19 58 16 -122 0
60 15 22 61 19 58 16 -121 0
60 15 22 61 19 58 16 -120 0
60 15 22 61 19 58 16 -119 0
60 47 57 51 61 48 58 -184 0
60 47 57 51 61 48 58 -186 0
60 47 57 51 61 48 58 -183 0
60 47 57 51 61 48 58 -185 0
60 47 57 51 61 48 54 -184 0
60 47 57 51 61 48 54 -186 0
60 47 57 51 61 48 54 -183 0
60 47 57 51 61 48 54 -185 0
60 47 57 51 61 58 54 -184 0
60 47 57 51 61 58 54 -186 0
60 47 57 51 61 58 54 -183 0
60 47 57 51 61 58 54 -185 0
60 47 57 51 48 58 54 -184 0
60 47 57 51 48 58 54 -186 0
60 47 57 51 48 58 54 -183 0
60 47 57 51 48 58 54 -185 0
60 47 57 61 48 58 54 -184 0
60 47 57 61 48 58 54 -186 0
60 47 57 61 48 58 54 -183 0
60 47 57 61 48 58 54 -185 0
60 47 51 61 48 58 54 -184 0
60 47 51 61 48 58 54 -186 0
60 47 51 61 48 58 54 -183 0
60 47 51 61 48 58 54 -185 0
60 39 57 44 61 45 58 -173 0
60 39 57 44 61 45 58 -176 0
60 39 57 44 61 45 58 -175 0
60 39 57 44 61 45 58 -174 0
60 39 57 44 61 45 46 -173 0
60 39 57 44 61 45 46 -176 0
60 39 57 44 61 45 46 -175 0
60 39 57 44 61 45 46 -174 0
60 39 57 44 61 58 46 -173 0
60 39 57 44 61 58 46 -176 0
60 39 57 44 61 58 46 -175 0
60 39 57 44 61 58 46 -174 0
60 39 57 44 45 58 46 -173 0
60 39 57 44 45 58 46 -176 0
60 39 57 44 45 58 46 -175 0
60 39 57 44 45 58 46 -174 0
60 39 57 61 45 58 46 -173 0
60 39 57 61 45 58 46 -176 0
60 39 57 61 45 58 46 -175 0
60 39 57 61 45 58 46 -174 0
60 39 44 61 45 58 46 -173 0
60 39 44 61 45 58 46 -176 0
60 39 44 61 45 58 46 -175 0
60 39 44 61 45 58 46 -174 0
60 12 57 14 61 13 58 -95 0
60 12 57 14 61 13 58 -93 0
60 12 57 14 61 13 58 -94 0
60 12 57 14 61 13 58 -96 0
60 12 57 14 61 13 11 -95 0
60 12 57 14 61 13 11 -93 0
60 12 57 14 61 13 11 -94 0
60 12 57 14 61 13 11 -96 0
60 12 57 14 61 58 11 -95 0
60 12 57 14 61 58 11 -93 0
60 12 57 14 61 58 11 -94 0
60 12 57 14 61 58 11 -96 0
60 12 57 14 13 58 11 -95 0
60 12 57 14 13 58 11 -93 0
60 12 57 14 13 58 11 -94 0
60 12 57 14 13 58 11 -96 0
60 12 57 61 13 58 11 -95 0
60 12 57 61 13 58 11 -93 0
60 12 57 61 13 58 11 -94 0
60 12 57 61 13 58 11 -96 0
60 12 14 61 13 58 11 -95 0
60 12 14 61 13 58 11 -93 0
60 12 14 61 13 58 11 -94 0
60 12 14 61 13 58 11 -96 0
60 63 57 64 61 69 58 -196 0
60 63 57 64 61 69 58 -193 0
60 63 57 64 61 69 58 -195 0
60 63 57 64 61 69 58 -194 0
60 57 6 61 3 58 4 -55 0
60 57 6 61 3 58 4 -59 0
60 57 6 61 3 58 4 -56 0
60 57 6 61 3 58 4 -62 0
60 57 36 61 34 58 31 -160 0
60 57 36 61 34 58 31 -162 0
60 57 36 61 34 58 31 -159 0
60 57 36 61 34 58 31 -161 0
60 57 26 61 24 58 27 -142 0
60 57 26 61 24 58 27 -144 0
60 57 26 61 24 58 27 -141 0
60 57 26 61 24 58 27 -143 0
60 57 22 61 19 58 16 -122 0
60 57 22 61 19 58 16 -121 0
60 57 22 61 19 58 16 -120 0
60 57 22 61 19 58 16 -119 0
60 57 51 61 48 58 54 -184 0
60 57 51 61 48 58 54 -186 0
60 57 51 61 48 58 54 -183 0
60 57 51 61 48 58 54 -185 0
60 57 44 61 45 58 46 -173 0
60 57 44 61 45 58 46 -176 0
60 57 44 61 45 58 46 -175 0
60 57 44 61 45 58 46 -174 0
60 57 14 61 13 58 11 -95 0
60 57 14 61 13 58 11 -93 0
60 57 14 61 13 58 11 -94 0
60 57 14 61 13 58 11 -96 0
5 35 6 36 3 34 4 -33 0
5 35 6 36 3 34 4 -38 0
5 35 6 36 3 34 4 -37 0
5 35 6 36 3 34 4 -32 0
5 35 6 36 3 34 31 -33 0
5 35 6 36 3 34 31 -38 0
5 35 6 36 3 34 31 -37 0
5 35 6 36 3 34 31 -32 0
5 35 6 36 3 4 31 -33 0
5 35 6 36 3 4 31 -38 0
5 35 6 36 3 4 31 -37 0
5 35 6 36 3 4 31 -32 0
5 35 6 36 34 4 31 -33 0
5 35 6 36 34 4 31 -38 0
5 35 6 36 34 4 31 -37 0
5 35 6 36 34 4 31 -32 0
5 35 6 3 34 4 31 -33 0
5 35 6 3 34 4 31 -38 0
5 35 6 3 34 4 31 -37 0
5 35 6 3 34 4 31 -32 0
5 35 36 3 34 4 31 -33 0
5 35 36 3 34 4 31 -38 0
5 35 36 3 34 4 31 -37 0
5 35 36 3 34 4 31 -32 0
5 23 6 26 3 24 4 -30 0
5 23 6 26 3 24 4 -25 0
5 23 6 26 3 24 4 -29 0
5 23 6 26 3 24 4 -28 0
5 23 6 26 3 24 27 -30 0
5 23 6 26 3 24 27 -25 0
5 23 6 26 3 24 27 -29 0
5 23 6 26 3 24 27 -28 0
5 23 6 26 3 4 27 -30 0
5 23 6 26 3 4 27 -25 0
5 23 6 26 3 4 27 -29 0
5 23 6 26 3 4 27 -28 0
5 23 6 26 24 4 27 -30 0
5 23 6 26 24 4 27 -25 0
5 23 6 26 24 4 27 -29 0
5 23 6 26 24 4 27 -28 0
5 23 6 3 24 4 27 -30 0
5 23 6 3 24 4 27 -25 0
5 23 6 3 24 4 27 -29 0
5 23 6 3 24 4 27 -28 0
5 23 26 3 24 4 27 -30 0
5 23 26 3 24 4 27 -25 0
5 23 26 3 24 4 27 -29 0
5 23 26 3 24 4 27 -28 0
5 15 6 22 3 19 4 -21 0
5 15 6 22 3 19 4 -20 0
5 15 6 22 3 19 4 -18 0
5 15 6 22 3 19 4 -17 0
5 15 6 22 3 19 16 -21 0
5 15 6 22 3 19 16 -20 0
5 15 6 22 3 19 16 -18 0
5 15 6 22 3 19 16 -17 0
5 15 6 22 3 4 16 -21 0
5 15 6 22 3 4 16 -20 0
5 15 6 22 3 4 16 -18 0
5 15 6 22 3 4 16 -17 0
5 15 6 22 19 4 16 -21 0
5 15 6 22 19 4 16 -20 0
5 15 6 22 19 4 16 -18 0
5 15 6 22 19 4 16 -17 0
5 15 6 3 19 4 16 -21 0
5 15 6 3 19 4 16 -20 0
5 15 6 3 19 4 16 -18 0
5 15 6 3 19 4 16 -17 0
5 15 22 3 19 4 16 -21 0
5 15 22 3 19 4 16 -20 0
5 15 22 3 19 4 16 -18 0
5 15 22 3 19 4 16 -17 0
5 47 6 51 3 48 4 -53 0
5 47 6 51 3 48 4 -50 0
5 47 6 51 3 48 4 -52 0
5 47 6 51 3 48 4 -49 0
5 47 6 51 3 48 54 -53 0
5 47 6 51 3 48 54 -50 0
5 47 6 51 3 48 54 -52 0
5 47 6 51 3 48 54 -49 0
5 47 6 51 3 4 54 -53 0
5 47 6 51 3 4 54 -50 0
5 47 6 51 3 4 54 -52 0
5 47 6 51 3 4 54 -49 0
5 47 6 51 48 4 54 -53 0
5 47 6 51 48 4 54 -50 0
5 47 6 51 48 4 54 -52 0
5 47 6 51 48 4 54 -49 0
5 47 6 3 48 4 54 -53 0
5 47 6 3 48 4 54 -50 0
5 47 6 3 48 4 54 -52 0
5 47 6 3 48 4 54 -49 0
5 47 51 3 48 4 54 -53 0
5 47 51 3 48 4 54 -50 0
5 47 51 3 48 4 54 -52 0
5 47 51 3 48 4 54 -49 0
5 39 6 44 3 45 4 -42 0
5 39 6 44 3 45 4 -40 0
5 39 6 44 3 45 4 -41 0
5 39 6 44 3 45 4 -43 0
5 39 6 44 3 45 46 -42 0
5 39 6 44 3 45 46 -40 0
5 39 6 44 3 45 46 -41 0
5 39 6 44 3 45 46 -43 0
5 39 6 44 3 4 46 -42 0
5 39 6 44 3 4 46 -40 0
5 39 6 44 3 4 46 -41 0
5 39 6 44 3 4 46 -43 0
5 39 6 44 45 4 46 -42 0
5 39 6 44 45 4 46 -40 0
5 39 6 44 45 4 46 -41 0
5 39 6 44 45 4 46 -43 0
5 39 6 3 45 4 46 -42 0
5 39 6 3 45 4 46 -40 0
5 39 6 3 45 4 46 -41 0
5 39 6 3 45 4 46 -43 0
5 39 44 3 45 4 46 -42 0
5 39 44 3 45 4 46 -40 0
5 39 44 3 45 4 46 -41 0
5 39 44 3 45 4 46 -43 0
5 12 6 14 3 13 4 -10 0
5 12 6 14 3 13 4 -9 0
5 12 6 14 3 13 4 -7 0
5 12 6 14 3 13 4 -8 0
5 12 6 14 3 13 11 -10 0
5 12 6 14 3 13 11 -9 0
5 12 6 14 3 13 11 -7 0
5 12 6 14 3 13 11 -8 0
5 12 6 14 3 4 11 -10 0
5 12 6 14 3 4 11 -9 0
5 12 6 14 3 4 11 -7 0
5 12 6 14 3 4 11 -8 0
5 12 6 14 13 4 11 -10 0
5 12 6 14 13 4 11 -9 0
5 12 6 14 13 4 11 -7 0
5 12 6 14 13 4 11 -8 0
5 12 6 3 13 4 11 -10 0
5 12 6 3 13 4 11 -9 0
5 12 6 3 13 4 11 -7 0
5 12 6 3 13 4 11 -8 0
5 12 14 3 13 4 11 -10 0
5 12 14 3 13 4 11 -9 0
5 12 14 3 13 4 11 -7 0
5 12 14 3 13 4 11 -8 0
5 63 6 64 3 69 4 -68 0
5 63 6 64 3 69 4 -67 0
5 63 6 64 3 69 4 -66 0
5 63 6 64 3 69 4 -65 0
5 57 6 61 3 58 4 -55 0
5 57 6 61 3 58 4 -59 0
5 57 6 61 3 58 4 -56 0
5 57 6 61 3 58 4 -62 0
5 6 36 3 34 4 31 -33 0
5 6 36 3 34 4 31 -38 0
5 6 36 3 34 4 31 -37 0
5 6 36 3 34 4 31 -32 0
5 6 26 3 24 4 27 -30 0
5 6 26 3 24 4 27 -25 0
5 6 26 3 24 4 27 -29 0
5 6 26 3 24 4 27 -28 0
5 6 22 3 19 4 16 -21 0
5 6 22 3 19 4 16 -20 0
5 6 22 3 19 4 16 -18 0
5 6 22 3 19 4 16 -17 0
5 6 51 3 48 4 54 -53 0
5 6 51 3 48 4 54 -50 0
5 6 51 3 48 4 54 -52 0
5 6 51 3 48 4 54 -49 0
5 6 44 3 45 4 46 -42 0
5 6 44 3 45 4 46 -40 0
5 6 44 3 45 4 46 -41 0
5 6 44 3 45 4 46 -43 0
5 6 14 3 13 4 11 -10 0
5 6 14 3 13 4 11 -9 0
5 6 14 3 13 4 11 -7 0
5 6 14 3 13 4 11 -8 0
35 23 36 26 34 24 31 -132 0
35 23 36 26 34 24 31 -129 0
35 23 36 26 34 24 31 -131 0
35 23 36 26 34 24 31 -130 0
35 23 36 26 34 24 27 -132 0
35 23 36 26 34 24 27 -129 0
35 23 36 26 34 24 27 -131 0
35 23 36 26 34 24 27 -130 0
35 23 36 26 34 31 27 -132 0
35 23 36 26 34 31 27 -129 0
35 23 36 26 34 31 27 -131 0
35 23 36 26 34 31 27 -130 0
35 23 36 26 24 31 27 -132 0
35 23 36 26 24 31 27 -129 0
35 23 36 26 24 31 27 -131 0
35 23 36 26 24 31 27 -130 0
35 23 36 34 24 31 27 -132 0
35 23 36 34 24 31 27 -129 0
35 23 36 34 24 31 27 -131 0
35 23 36 34 24 31 27 -130 0
35 23 26 34 24 31 27 -132 0
35 23 26 34 24 31 27 -129 0
35 23 26 34 24 31 27 -131 0
35 23 26 34 24 31 27 -130 0
35 15 36 22 34 19 31 -109 0
35 15 36 22 34 19 31 -108 0
35 15 36 22 34 19 31 -107 0
35 15 36 22 34 19 31 -110 0
35 15 36 22 34 19 16 -109 0
35 15 36 22 34 19 16 -108 0
35 15 36 22 34 19 16 -107 0
35 15 36 22 34 19 16 -110 0
35 15 36 22 34 31 16 -109 0
35 15 36 22 34 31 16 -108 0
35 15 36 22 34 31 16 -107 0
35 15 36 22 34 31 16 -110 0
35 15 36 22 19 31 16 -109 0
35 15 36 22 19 31 16 -108 0
35 15 36 22 19 31 16 -107 0
35 15 36 22 19 31 16 -110 0
35 15 36 34 19 31 16 -109 0
35 15 36 34 19 31 16 -108 0
35 15 36 34 19 31 16 -107 0
35 15 36 34 19 31 16 -110 0
35 15 22 34 19 31 16 -109 0
35 15 22 34 19 31 16 -108 0
35 15 22 34 19 31 16 -107 0
35 15 22 34 19 31 16 -110 0
35 47 36 51 34 48 31 -156 0
35 47 36 51 34 48 31 -157 0
35 47 36 51 34 48 31 -155 0
35 47 36 51 34 48 31 -158 0
35 47 36 51 34 48 54 -156 0
35 47 36 51 34 48 54 -157 0
35 47 36 51 34 48 54 -155 0
35 47 36 51 34 48 54 -158 0
35 47 36 51 34 31 54 -156 0
35 47 36 51 34 31 54 -157 0
35 47 36 51 34 31 54 -155 0
35 47 36 51 34 31 54 -158 0
35 47 36 51 48 31 54 -156 0
35 47 36 51 48 31 54 -157 0
35 47 36 51 48 31 54 -155 0
35 47 36 51 48 31 54 -158 0
35 47 36 34 48 31 54 -156 0
35 47 36 34 48 31 54 -157 0
35 47 36 34 48 31 54 -155 0
35 47 36 34 48 31 54 -158 0
35 47 51 34 48 31 54 -156 0
35 47 51 34 48 31 54 -157 0
35 47 51 34 48 31 54 -155 0
35 47 51 34 48 31 54 -158 0
35 39 36 44 34 45 31 -151 0
35 39 36 44 34 45 31 -154 0
35 39 36 44 34 45 31 -152 0
35 39 36 44 34 45 31 -153 0
35 39 36 44 34 45 46 -151 0
35 39 36 44 34 45 46 -154 0
35 39 36 44 34 45 46 -152 0
35 39 36 44 34 45 46 -153 0
35 39 36 44 34 31 46 -151 0
35 39 36 44 34 31 46 -154 0
35 39 36 44 34 31 46 -152 0
35 39 36 44 34 31 46 -153 0
35 39 36 44 45 31 46 -151 0
35 39 36 44 45 31 46 -154 0
35 39 36 44 45 31 46 -152 0
35 39 36 44 45 31 46 -153 0
35 39 36 34 45 31 46 -151 0
35 39 36 34 45 31 46 -154 0
35 39 36 34 45 31 46 -152 0
35 39 36 34 45 31 46 -153 0
35 39 44 34 45 31 46 -151 0
35 39 44 34 45 31 46 -154 0
35 39 44 34 45 31 46 -152 0
35 39 44 34 45 31 46 -153 0
35 12 36 14 34 13 31 -84 0
35 12 36 14 34 13 31 -83 0
35 12 36 14 34 13 31 -82 0
35 12 36 14 34 13 31 -81 0
35 12 36 14 34 13 11 -84 0
35 12 36 14 34 13 11 -83 0
35 12 36 14 34 13 11 -82 0
35 12 36 14 34 13 11 -81 0
35 12 36 14 34 31 11 -84 0
35 12 36 14 34 31 11 -83 0
35 12 36 14 34 31 11 -82 0
35 12 36 14 34 31 11 -81 0
35 12 36 14 13 31 11 -84 0
35 12 36 14 13 31 11 -83 0
35 12 36 14 13 31 11 -82 0
35 12 36 14 13 31 11 -81 0
35 12 36 34 13 31 11 -84 0
35 12 36 34 13 31 11 -83 0
35 12 36 34 13 31 11 -82 0
35 12 36 34 13 31 11 -81 0
35 12 14 34 13 31 11 -84 0
35 12 14 34 13 31 11 -83 0
35 12 14 34 13 31 11 -82 0
35 12 14 34 13 31 11 -81 0
35 63 36 64 34 69 31 -166 0
35 63 36 64 34 69 31 -164 0
35 63 36 64 34 69 31 -165 0
35 63 36 64 34 69 31 -163 0
35 57 36 61 34 58 31 -160 0
35 57 36 61 34 58 31 -162 0
35 57 36 61 34 58 31 -159 0
35 57 36 61 34 58 31 -161 0
35 6 36 3 34 4 31 -33 0
35 6 36 3 34 4 31 -38 0
35 6 36 3 34 4 31 -37 0
35 6 36 3 34 4 31 -32 0
35 36 26 34 24 31 27 -132 0
35 36 26 34 24 31 27 -129 0
35 36 26 34 24 31 27 -131 0
35 36 26 34 24 31 27 -130 0
35 36 22 34 19 31 16 -109 0
35 36 22 34 19 31 16 -108 0
35 36 22 34 19 31 16 -107 0
35 36 22 34 19 31 16 -110 0
35 36 51 34 48 31 54 -156 0
35 36 51 34 48 31 54 -157 0
35 36 51 34 48 31 54 -155 0
35 36 51 34 48 31 54 -158 0
35 36 44 34 45 31 46 -151 0
35 36 44 34 45 31 46 -154 0
35 36 44 34 45 31 46 -152 0
35 36 44 34 45 31 46 -153 0
35 36 14 34 13 31 11 -84 0
35 36 14 34 13 31 11 -83 0
35 36 14 34 13 31 11 -82 0
35 36 14 34 13 31 11 -81 0
23 15 26 22 24 19 27 -104 0
23 15 26 22 24 19 27 -106 0
23 15 26 22 24 19 27 -103 0
23 15 26 22 24 19 27 -105 0
23 15 26 22 24 19 16 -104 0
23 15 26 22 24 19 16 -106 0
23 15 26 22 24 19 16 -103 0
23 15 26 22 24 19 16 -105 0
23 15 26 22 24 27 16 -104 0
23 15 26 22 24 27 16 -106 0
23 15 26 22 24 27 16 -103 0
23 15 26 22 24 27 16 -105 0
23 15 26 22 19 27 16 -104 0
23 15 26 22 19 27 16 -106 0
23 15 26 22 19 27 16 -103 0
23 15 26 22 19 27 16 -105 0
23 15 26 24 19 27 16 -104 0
23 15 26 24 19 27 16 -106 0
23 15 26 24 19 27 16 -103 0
23 15 26 24 19 27 16 -105 0
23 15 22 24 19 27 16 -104 0
23 15 22 24 19 27 16 -106 0
23 15 22 24 19 27 16 -103 0
23 15 22 24 19 27 16 -105 0
23 47 26 51 24 48 27 -139 0
23 47 26 51 24 48 27 -140 0
23 47 26 51 24 48 27 -137 0
23 47 26 51 24 48 27 -138 0
23 47 26 51 24 48 54 -139 0
23 47 26 51 24 48 54 -140 0
23 47 26 51 24 48 54 -137 0
23 47 26 51 24 48 54 -138 0
23 47 26 51 24 27 54 -139 0
23 47 26 51 24 27 54 -140 0
23 47 26 51 24 27 54 -137 0
23 47 26 51 24 27 54 -138 0
23 47 26 51 48 27 54 -139 0
23 47 26 51 48 27 54 -140 0
23 47 26 51 48 27 54 -137 0
23 47 26 51 48 27 54 -138 0
23 47 26 24 48 27 54 -139 0
23 47 26 24 48 27 54 -140 0
23 47 26 24 48 27 54 -137 0
23 47 26 24 48 27 54 -138 0
23 47 51 24 48 27 54 -139 0
23 47 51 24 48 27 54 -140 0
23 47 51 24 48 27 54 -137 0
23 47 51 24 48 27 54 -138 0
23 39 26 44 24 45 27 -133 0
23 39 26 44 24 45 27 -135 0
23 39 26 44 24 45 27 -136 0
23 39 26 44 24 45 27 -134 0
23 39 26 44 24 45 46 -133 0
23 39 26 44 24 45 46 -135 0
23 39 26 44 24 45 46 -136 0
23 39 26 44 24 45 46 -134 0
23 39 26 44 24 27 46 -133 0
23 39 26 44 24 27 46 -135 0
23 39 26 44 24 27 46 -136 0
23 39 26 44 24 27 46 -134 0
23 39 26 44 45 27 46 -133 0
23 39 26 44 45 27 46 -135 0
23 39 26 44 45 27 46 -136 0
23 39 26 44 45 27 46 -134 0
23 39 26 24 45 27 46 -133 0
23 39 26 24 45 27 46 -135 0
23 39 26 24 45 27 46 -136 0
23 39 26 24 45 27 46 -134 0
23 39 44 24 45 27 46 -133 0
23 39 44 24 45 27 46 -135 0
23 39 44 24 45 27 46 -136 0
23 39 44 24 45 27 46 -134 0
23 12 26 14 24 13 27 -77 0
23 12 26 14 24 13 27 -80 0
23 12 26 14 24 13 27 -79 0
23 12 26 14 24 13 27 -78 0
23 12 26 14 24 13 11 -77 0
23 12 26 14 24 13 11 -80 0
23 12 26 14 24 13 11 -79 0
23 12 26 14 24 13 11 -78 0
23 12 26 14 24 27 11 -77 0
23 12 26 14 24 27 11 -80 0
23 12 26 14 24 27 11 -79 0
23 12 26 14 24 27 11 -78 0
23 12 26 14 13 27 11 -77 0
23 12 26 14 13 27 11 -80 0
23 12 26 14 13 27 11 -79 0
23 12 26 14 13 27 11 -78 0
23 12 26 24 13 27 11 -77 0
23 12 26 24 13 27 11 -80 0
23 12 26 24 13 27 11 -79 0
23 12 26 24 13 27 11 -78 0
23 12 14 24 13 27 11 -77 0
23 12 14 24 13 27 11 -80 0
23 12 14 24 13 27 11 -79 0
23 12 14 24 13 27 11 -78 0
23 63 26 64 24 69 27 -146 0
23 63 26 64 24 69 27 -148 0
23 63 26 64 24 69 27 -145 0
23 63 26 64 24 69 27 -147 0
23 57 26 61 24 58 27 -142 0
23 57 26 61 24 58 27 -144 0
23 57 26 61 24 58 27 -141 0
23 57 26 61 24 58 27 -143 0
23 6 26 3 24 4 27 -30 0
23 6 26 3 24 4 27 -25 0
23 6 26 3 24 4 27 -29 0
23 6 26 3 24 4 27 -28 0
23 36 26 34 24 31 27 -132 0
23 36 26 34 24 31 27 -129 0
23 36 26 34 24 31 27 -131 0
23 36 26 34 24 31 27 -130 0
23 26 22 24 19 27 16 -104 0
23 26 22 24 19 27 16 -106 0
23 26 22 24 19 27 16 -103 0
23 26 22 24 19 27 16 -105 0
23 26 51 24 48 27 54 -139 0
23 26 51 24 48 27 54 -140 0
23 26 51 24 48 27 54 -137 0
23 26 51 24 48 27 54 -138 0
23 26 44 24 45 27 46 -133 0
23 26 44 24 45 27 46 -135 0
23 26 44 24 45 27 46 -136 0
23 26 44 24 45 27 46 -134 0
23 26 14 24 13 27 11 -77 0
23 26 14 24 13 27 11 -80 0
23 26 14 24 13 27 11 -79 0
23 26 14 24 13 27 11 -78 0
15 47 22 51 19 48 16 -115 0
15 47 22 51 19 48 16 -118 0
15 47 22 51 19 48 16 -117 0
15 47 22 51 19 48 16 -116 0
15 47 22 51 19 48 54 -115 0
15 47 22 51 19 48 54 -118 0
15 47 22 51 19 48 54 -117 0
15 47 22 51 19 48 54 -116 0
15 47 22 51 19 16 54 -115 0
15 47 22 51 19 16 54 -118 0
15 47 22 51 19 16 54 -117 0
15 47 22 51 19 16 54 -116 0
15 47 22 51 48 16 54 -115 0
15 47 22 51 48 16 54 -118 0
15 47 22 51 48 16 54 -117 0
15 47 22 51 48 16 54 -116 0
15 47 22 19 48 16 54 -115 0
15 47 22 19 48 16 54 -118 0
15 47 22 19 48 16 54 -117 0
15 47 22 19 48 16 54 -116 0
15 47 51 19 48 16 54 -115 0
15 47 51 19 48 16 54 -118 0
15 47 51 19 48 16 54 -117 0
15 47 51 19 48 16 54 -116 0
15 39 22 44 19 45 16 -114 0
15 39 22 44 19 45 16 -111 0
15 39 22 44 19 45 16 -113 0
15 39 22 44 19 45 16 -112 0
15 39 22 44 19 45 46 -114 0
15 39 22 44 19 45 46 -111 0
15 39 22 44 19 45 46 -113 0
15 39 22 44 19 45 46 -112 0
15 39 22 44 19 16 46 -114 0
15 39 22 44 19 16 46 -111 0
15 39 22 44 19 16 46 -113 0
15 39 22 44 19 16 46 -112 0
15 39 22 44 45 16 46 -114 0
15 39 22 44 45 16 46 -111 0
15 39 22 44 45 16 46 -113 0
15 39 22 44 45 16 46 -112 0
15 39 22 19 45 16 46 -114 0
15 39 22 19 45 16 46 -111 0
15 39 22 19 45 16 46 -113 0
15 39 22 19 45 16 46 -112 0
15 39 44 19 45 16 46 -114 0
15 39 44 19 45 16 46 -111 0
15 39 44 19 45 16 46 -113 0
15 39 44 19 45 16 46 -112 0
15 12 22 14 19 13 16 -75 0
15 12 22 14 19 13 16 -76 0
15 12 22 14 19 13 16 -73 0
15 12 22 14 19 13 16 -74 0
15 12 22 14 19 13 11 -75 0
15 12 22 14 19 13 11 -76 0
15 12 22 14 19 13 11 -73 0
15 12 22 14 19 13 11 -74 0
15 12 22 14 19 16 11 -75 0
15 12 22 14 19 16 11 -76 0
15 12 22 14 19 16 11 -73 0
15 12 22 14 19 16 11 -74 0
15 12 22 14 13 16 11 -75 0
15 12 22 14 13 16 11 -76 0
15 12 22 14 13 16 11 -73 0
15 12 22 14 13 16 11 -74 0
15 12 22 19 13 16 11 -75 0
15 12 22 19 13 16 11 -76 0
15 12 22 19 13 16 11 -73 0
15 12 22 19 13 16 11 -74 0
15 12 14 19 13 16 11 -75 0
15 12 14 19 13 16 11 -76 0
15 12 14 19 13 16 11 -73 0
15 12 14 19 13 16 11 -74 0
15 63 22 64 19 69 16 -124 0
15 63 22 64 19 69 16 -125 0
15 63 22 64 19 69 16 -126 0
15 63 22 64 19 69 16 -123 0
15 57 22 61 19 58 16 -122 0
15 57 22 61 19 58 16 -121 0
15 57 22 61 19 58 16 -120 0
15 57 22 61 19 58 16 -119 0
15 6 22 3 19 4 16 -21 0
15 6 22 3 19 4 16 -20 0
15 6 22 3 19 4 16 -18 0
15 6 22 3 19 4 16 -17 0
15 36 22 34 19 31 16 -109 0
15 36 22 34 19 31 16 -108 0
15 36 22 34 19 31 16 -107 0
15 36 22 34 19 31 16 -110 0
15 26 22 24 19 27 16 -104 0
15 26 22 24 19 27 16 -106 0
15 26 22 24 19 27 16 -103 0
15 26 22 24 19 27 16 -105 0
15 22 51 19 48 16 54 -115 0
15 22 51 19 48 16 54 -118 0
15 22 51 19 48 16 54 -117 0
15 22 51 19 48 16 54 -116 0
15 22 44 19 45 16 46 -114 0
15 22 44 19 45 16 46 -111 0
15 22 44 19 45 16 46 -113 0
15 22 44 19 45 16 46 -112 0
15 22 14 19 13 16 11 -75 0
15 22 14 19 13 16 11 -76 0
15 22 14 19 13 16 11 -73 0
15 22 14 19 13 16 11 -74 0
47 39 51 44 48 45 54 -172 0
47 39 51 44 48 45 54 -170 0
47 39 51 44 48 45 54 -171 0
47 39 51 44 48 45 54 -169 0
47 39 51 44 48 45 46 -172 0
47 39 51 44 48 45 46 -170 0
47 39 51 44 48 45 46 -171 0
47 39 51 44 48 45 46 -169 0
47 39 51 44 48 54 46 -172 0
47 39 51 44 48 54 46 -170 0
47 39 51 44 48 54 46 -171 0
47 39 51 44 48 54 46 -169 0
47 39 51 44 45 54 46 -172 0
47 39 51 44 45 54 46 -170 0
47 39 51 44 45 54 46 -171 0
47 39 51 44 45 54 46 -169 0
47 39 51 48 45 54 46 -172 0
47 39 51 48 45 54 46 -170 0
47 39 51 48 45 54 46 -171 0
47 39 51 48 45 54 46 -169 0
47 39 44 48 45 54 46 -172 0
47 39 44 48 45 54 46 -170 0
47 39 44 48 45 54 46 -171 0
47 39 44 48 45 54 46 -169 0
47 12 51 14 48 13 54 -92 0
47 12 51 14 48 13 54 -89 0
47 12 51 14 48 13 54 -90 0
47 12 51 14 48 13 54 -91 0
47 12 51 14 48 13 11 -92 0
47 12 51 14 48 13 11 -89 0
47 12 51 14 48 13 11 -90 0
47 12 51 14 48 13 11 -91 0
47 12 51 14 48 54 11 -92 0
47 12 51 14 48 54 11 -89 0
47 12 51 14 48 54 11 -90 0
47 12 51 14 48 54 11 -91 0
47 12 51 14 13 54 11 -92 0
47 12 51 14 13 54 11 -89 0
47 12 51 14 13 54 11 -90 0
47 12 51 14 13 54 11 -91 0
47 12 51 48 13 54 11 -92 0
47 12 51 48 13 54 11 -89 0
47 12 51 48 13 54 11 -90 0
47 12 51 48 13 54 11 -91 0
47 12 14 48 13 54 11 -92 0
47 12 14 48 13 54 11 -89 0
47 12 14 48 13 54 11 -90 0
47 12 14 48 13 54 11 -91 0
47 63 51 64 48 69 54 -188 0
47 63 51 64 48 69 54 -190 0
47 63 51 64 48 69 54 -187 0
47 63 51 64 48 69 54 -189 0
47 57 51 61 48 58 54 -184 0
47 57 51 61 48 58 54 -186 0
47 57 51 61 48 58 54 -183 0
47 57 51 61 48 58 54 -185 0
47 6 51 3 48 4 54 -53 0
47 6 51 3 48 4 54 -50 0
47 6 51 3 48 4 54 -52 0
47 6 51 3 48 4 54 -49 0
47 36 51 34 48 31 54 -156 0
47 36 51 34 48 31 54 -157 0
47 36 51 34 48 31 54 -155 0
47 36 51 34 48 31 54 -158 0
47 26 51 24 48 27 54 -139 0
47 26 51 24 48 27 54 -140 0
47 26 51 24 48 27 54 -137 0
47 26 51 24 48 27 54 -138 0
47 22 51 19 48 16 54 -115 0
47 22 51 19 48 16 54 -118 0
47 22 51 19 48 16 54 -117 0
47 22 51 19 48 16 54 -116 0
47 51 44 48 45 54 46 -172 0
47 51 44 48 45 54 46 -170 0
47 51 44 48 45 54 46 -171 0
47 51 44 48 45 54 46 -169 0
47 51 14 48 13 54 11 -92 0
47 51 14 48 13 54 11 -89 0
47 51 14 48 13 54 11 -90 0
47 51 14 48 13 54 11 -91 0
39 12 44 14 45 13 46 -85 0
39 12 44 14 45 13 46 -87 0
39 12 44 14 45 13 46 -88 0
39 12 44 14 45 13 46 -86 0
39 12 44 14 45 13 11 -85 0
39 12 44 14 45 13 11 -87 0
39 12 44 14 45 13 11 -88 0
39 12 44 14 45 13 11 -86 0
39 12 44 14 45 46 11 -85 0
39 12 44 14 45 46 11 -87 0
39 12 44 14 45 46 11 -88 0
39 12 44 14 45 46 11 -86 0
39 12 44 14 13 46 11 -85 0
39 12 44 14 13 46 11 -87 0
39 12 44 14 13 46 11 -88 0
39 12 44 14 13 46 11 -86 0
39 12 44 45 13 46 11 -85 0
39 12 44 45 13 46 11 -87 0
39 12 44 45 13 46 11 -88 0
39 12 44 45 13 46 11 -86 0
39 12 14 45 13 46 11 -85 0
39 12 14 45 13 46 11 -87 0
39 12 14 45 13 46 11 -88 0
39 12 14 45 13 46 11 -86 0
39 63 44 64 45 69 46 -179 0
39 63 44 64 45 69 46 -180 0
39 63 44 64 45 69 46 -178 0
39 63 44 64 45 69 46 -177 0
39 57 44 61 45 58 46 -173 0
39 57 44 61 45 58 46 -176 0
39 57 44 61 45 58 46 -175 0
39 57 44 61 45 58 46 -174 0
39 6 44 3 45 4 46 -42 0
39 6 44 3 45 4 46 -40 0
39 6 44 3 45 4 46 -41 0
39 6 44 3 45 4 46 -43 0
39 36 44 34 45 31 46 -151 0
39 36 44 34 45 31 46 -154 0
39 36 44 34 45 31 46 -152 0
39 36 44 34 45 31 46 -153 0
39 26 44 24 45 27 46 -133 0
39 26 44 24 45 27 46 -135 0
39 26 44 24 45 27 46 -136 0
39 26 44 24 45 27 46 -134 0
39 22 44 19 45 16 46 -114 0
39 22 44 19 45 16 46 -111 0
39 22 44 19 45 16 46 -113 0
39 22 44 19 45 16 46 -112 0
39 51 44 48 45 54 46 -172 0
39 51 44 48 45 54 46 -170 0
39 51 44 48 45 54 46 -171 0
39 51 44 48 45 54 46 -169 0
39 44 14 45 13 46 11 -85 0
39 44 14 45 13 46 11 -87 0
39 44 14 45 13 46 11 -88 0
39 44 14 45 13 46 11 -86 0
12 63 14 64 13 69 11 -100 0
12 63 14 64 13 69 11 -98 0
12 63 14 64 13 69 11 -99 0
12 63 14 64 13 69 11 -97 0
12 57 14 61 13 58 11 -95 0
12 57 14 61 13 58 11 -93 0
12 57 14 61 13 58 11 -94 0
12 57 14 61 13 58 11 -96 0
12 6 14 3 13 4 11 -10 0
12 6 14 3 13 4 11 -9 0
12 6 14 3 13 4 11 -7 0
12 6 14 3 13 4 11 -8 0
12 36 14 34 13 31 11 -84 0
12 36 14 34 13 31 11 -83 0
12 36 14 34 13 31 11 -82 0
12 36 14 34 13 31 11 -81 0
12 26 14 24 13 27 11 -77 0
12 26 14 24 13 27 11 -80 0
12 26 14 24 13 27 11 -79 0
12 26 14 24 13 27 11 -78 0
12 22 14 19 13 16 11 -75 0
12 22 14 19 13 16 11 -76 0
12 22 14 19 13 16 11 -73 0
12 22 14 19 13 16 11 -74 0
12 51 14 48 13 54 11 -92 0
12 51 14 48 13 54 11 -89 0
12 51 14 48 13 54 11 -90 0
12 51 14 48 13 54 11 -91 0
12 44 14 45 13 46 11 -85 0
12 44 14 45 13 46 11 -87 0
12 44 14 45 13 46 11 -88 0
12 44 14 45 13 46 11 -86 0
198 196 68 166 146 124 188 179 100 0
193 191 55 160 142 122 184 173 95 0
67 59 2 33 30 21 53 42 10 0
164 162 38 150 132 109 156 151 84 0
148 144 25 129 127 104 139 133 77 0
125 121 20 108 106 102 115 114 75 0
190 186 50 157 140 118 181 172 92 0
180 176 40 154 135 111 170 168 85 0
98 93 9 83 80 76 89 87 71 0
197 195 66 165 145 126 187 178 99 0
194 192 56 159 141 120 183 175 94 0
65 62 1 37 29 18 52 41 7 0
163 161 32 149 131 107 155 152 82 0
147 143 28 130 128 103 137 136 79 0
123 119 17 110 105 101 117 113 73 0
189 185 49 158 138 116 182 171 90 0
177 174 43 153 134 112 169 167 88 0
97 96 8 81 78 74 91 86 72 0
70 60 63 57 64 61 69 58 -196 0
70 60 63 57 64 61 69 58 -193 0
70 60 63 57 64 61 69 58 -195 0
70 60 63 57 64 61 69 58 -194 0
70 5 63 6 64 3 69 4 -68 0
70 5 63 6 64 3 69 4 -67 0
70 5 63 6 64 3 69 4 -66 0
70 5 63 6 64 3 69 4 -65 0
70 35 63 36 64 34 69 31 -166 0
70 35 63 36 64 34 69 31 -164 0
70 35 63 36 64 34 69 31 -165 0
70 35 63 36 64 34 69 31 -163 0
70 23 63 26 64 24 69 27 -146 0
70 23 63 26 64 24 69 27 -148 0
70 23 63 26 64 24 69 27 -145 0
70 23 63 26 64 24 69 27 -147 0
70 15 63 22 64 19 69 16 -124 0
70 15 63 22 64 19 69 16 -125 0
70 15 63 22 64 19 69 16 -126 0
70 15 63 22 64 19 69 16 -123 0
70 47 63 51 64 48 69 54 -188 0
70 47 63 51 64 48 69 54 -190 0
70 47 63 51 64 48 69 54 -187 0
70 47 63 51 64 48 69 54 -189 0
70 39 63 44 64 45 69 46 -179 0
70 39 63 44 64 45 69 46 -180 0
70 39 63 44 64 45 69 46 -178 0
70 39 63 44 64 45 69 46 -177 0
70 12 63 14 64 13 69 11 -100 0
70 12 63 14 64 13 69 11 -98 0
70 12 63 14 64 13 69 11 -99 0
70 12 63 14 64 13 69 11 -97 0
60 5 57 6 61 3 58 4 -55 0
60 5 57 6 61 3 58 4 -59 0
60 5 57 6 61 3 58 4 -56 0
60 5 57 6 61 3 58 4 -62 0
60 35 57 36 61 34 58 31 -160 0
60 35 57 36 61 34 58 31 -162 0
60 35 57 36 61 34 58 31 -159 0
60 35 57 36 61 34 58 31 -161 0
60 23 57 26 61 24 58 27 -142 0
60 23 57 26 61 24 58 27 -144 0
60 23 57 26 61 24 58 27 -141 0
60 23 57 26 61 24 58 27 -143 0
60 15 57 22 61 19 58 16 -122 0
60 15 57 22 61 19 58 16 -121 0
60 15 57 22 61 19 58 16 -120 0
60 15 57 22 61 19 58 16 -119 0
60 47 57 51 61 48 58 54 -184 0
60 47 57 51 61 48 58 54 -186 0
60 47 57 51 61 48 58 54 -183 0
60 47 57 51 61 48 58 54 -185 0
60 39 57 44 61 45 58 46 -173 0
60 39 57 44 61 45 58 46 -176 0
60 39 57 44 61 45 58 46 -175 0
60 39 57 44 61 45 58 46 -174 0
60 12 57 14 61 13 58 11 -95 0
60 12 57 14 61 13 58 11 -93 0
60 12 57 14 61 13 58 11 -94 0
60 12 57 14 61 13 58 11 -96 0
5 35 6 36 3 34 4 31 -33 0
5 35 6 36 3 34 4 31 -38 0
5 35 6 36 3 34 4 31 -37 0
5 35 6 36 3 34 4 31 -32 0
5 23 6 26 3 24 4 27 -30 0
5 23 6 26 3 24 4 27 -25 0
5 23 6 26 3 24 4 27 -29 0
5 23 6 26 3 24 4 27 -28 0
5 15 6 22 3 19 4 16 -21 0
5 15 6 22 3 19 4 16 -20 0
5 15 6 22 3 19 4 16 -18 0
5 15 6 22 3 19 4 16 -17 0
5 47 6 51 3 48 4 54 -53 0
5 47 6 51 3 48 4 54 -50 0
5 47 6 51 3 48 4 54 -52 0
5 47 6 51 3 48 4 54 -49 0
5 39 6 44 3 45 4 46 -42 0
5 39 6 44 3 45 4 46 -40 0
5 39 6 44 3 45 4 46 -41 0
5 39 6 44 3 45 4 46 -43 0
5 12 6 14 3 13 4 11 -10 0
5 12 6 14 3 13 4 11 -9 0
5 12 6 14 3 13 4 11 -7 0
5 12 6 14 3 13 4 11 -8 0
35 23 36 26 34 24 31 27 -132 0
35 23 36 26 34 24 31 27 -129 0
35 23 36 26 34 24 31 27 -131 0
35 23 36 26 34 24 31 27 -130 0
35 15 36 22 34 19 31 16 -109 0
35 15 36 22 34 19 31 16 -108 0
35 15 36 22 34 19 31 16 -107 0
35 15 36 22 34 19 31 16 -110 0
35 47 36 51 34 48 31 54 -156 0
35 47 36 51 34 48 31 54 -157 0
35 47 36 51 34 48 31 54 -155 0
35 47 36 51 34 48 31 54 -158 0
35 39 36 44 34 45 31 46 -151 0
35 39 36 44 34 45 31 46 -154 0
35 39 36 44 34 45 31 46 -152 0
35 39 36 44 34 45 31 46 -153 0
35 12 36 14 34 13 31 11 -84 0
35 12 36 14 34 13 31 11 -83 0
35 12 36 14 34 13 31 11 -82 0
35 12 36 14 34 13 31 11 -81 0
23 15 26 22 24 19 27 16 -104 0
23 15 26 22 24 19 27 16 -106 0
23 15 26 22 24 19 27 16 -103 0
23 15 26 22 24 19 27 16 -105 0
23 47 26 51 24 48 27 54 -139 0
23 47 26 51 24 48 27 54 -140 0
23 47 26 51 24 48 27 54 -137 0
23 47 26 51 24 48 27 54 -138 0
23 39 26 44 24 45 27 46 -133 0
23 39 26 44 24 45 27 46 -135 0
23 39 26 44 24 45 27 46 -136 0
23 39 26 44 24 45 27 46 -134 0
23 12 26 14 24 13 27 11 -77 0
23 12 26 14 24 13 27 11 -80 0
23 12 26 14 24 13 27 11 -79 0
23 12 26 14 24 13 27 11 -78 0
15 47 22 51 19 48 16 54 -115 0
15 47 22 51 19 48 16 54 -118 0
15 47 22 51 19 48 16 54 -117 0
15 47 22 51 19 48 16 54 -116 0
15 39 22 44 19 45 16 46 -114 0
15 39 22 44 19 45 16 46 -111 0
15 39 22 44 19 45 16 46 -113 0
15 39 22 44 19 45 16 46 -112 0
15 12 22 14 19 13 16 11 -75 0
15 12 22 14 19 13 16 11 -76 0
15 12 22 14 19 13 16 11 -73 0
15 12 22 14 19 13 16 11 -74 0
47 39 51 44 48 45 54 46 -172 0
47 39 51 44 48 45 54 46 -170 0
47 39 51 44 48 45 54 46 -171 0
47 39 51 44 48 45 54 46 -169 0
47 12 51 14 48 13 54 11 -92 0
47 12 51 14 48 13 54 11 -89 0
47 12 51 14 48 13 54 11 -90 0
47 12 51 14 48 13 54 11 -91 0
39 12 44 14 45 13 46 11 -85 0
39 12 44 14 45 13 46 11 -87 0
39 12 44 14 45 13 46 11 -88 0
39 12 44 14 45 13 46 11 -86 0
