c P(9,9) P(9,6) P(9,2) P(9,0) P(9,1) P(9,4) P(9,7) P(9,5) P(9,3) P(9,8) P(6,9) P(2,9) P(0,9) P(1,9) P(4,9) P(7,9) P(5,9) P(3,9) P(8,9) P(6,6) P(6,2) P(6,0) P(6,1) P(6,4) P(6,7) P(6,5) P(6,3) P(6,8) P(2,6) P(0,6) P(1,6) P(4,6) P(7,6) P(5,6) P(3,6) P(8,6) P(2,2) P(2,0) P(2,1) P(2,4) P(2,7) P(2,5) P(2,3) P(2,8) P(0,2) P(1,2) P(4,2) P(7,2) P(5,2) P(3,2) P(8,2) P(0,0) P(0,1) P(0,4) P(0,7) P(0,5) P(0,3) P(0,8) P(1,0) P(4,0) P(7,0) P(5,0) P(3,0) P(8,0) P(1,1) P(1,4) P(1,7) P(1,5) P(1,3) P(1,8) P(4,1) P(7,1) P(5,1) P(3,1) P(8,1) P(4,4) P(4,7) P(4,5) P(4,3) P(4,8) P(7,4) P(5,4) P(3,4) P(8,4) P(7,7) P(7,5) P(7,3) P(7,8) P(5,7) P(3,7) P(8,7) P(5,5) P(5,3) P(5,8) P(3,5) P(8,5) P(3,3) P(3,8) P(8,3) P(8,8)
c 1 2 3 4 5 6 7 8 9 10 11 12 13 14 15 16 17 18 19 20 21 22 23 24 25 26 27 28 29 30 31 32 33 34 35 36 37 38 39 40 41 42 43 44 45 46 47 48 49 50 51 52 53 54 55 56 57 58 59 60 61 62 63 64 65 66 67 68 69 70 71 72 73 74 75 76 77 78 79 80 81 82 83 84 85 86 87 88 89 90 91 92 93 94 95 96 97 98 99 100
p cnf 100 20
52 53 45 57 54 56 30 55 58 13 0
52 59 38 63 60 62 22 61 64 4 0
53 65 39 74 71 73 23 72 75 5 0
45 46 37 50 47 49 21 48 51 3 0
57 69 43 97 79 93 27 87 99 9 0
54 66 40 83 76 82 24 81 84 6 0
56 68 42 95 78 92 26 86 96 8 0
30 31 29 35 32 34 20 33 36 2 0
55 67 41 90 77 89 25 85 91 7 0
58 70 44 98 80 94 28 88 100 10 0
13 14 12 18 15 17 11 16 19 1 0
59 65 46 69 66 68 31 67 70 14 0
38 39 37 43 40 42 29 41 44 12 0
63 74 50 97 83 95 35 90 98 18 0
60 71 47 79 76 78 32 77 80 15 0
62 73 49 93 82 92 34 89 94 17 0
22 23 21 27 24 26 20 25 28 11 0
61 72 48 87 81 86 33 85 88 16 0
64 75 51 99 84 96 36 91 100 19 0
4 5 3 9 6 8 2 7 10 1 0
