c P(3,3) P(3,6) P(3,2) P(3,9) P(3,1) P(3,5) P(3,10) P(3,0) P(3,7) P(3,4) P(3,8) P(6,3) P(2,3) P(9,3) P(1,3) P(5,3) P(10,3) P(0,3) P(7,3) P(4,3) P(8,3) P(6,6) P(6,2) P(6,9) P(6,1) P(6,5) P(6,10) P(6,0) P(6,7) P(6,4) P(6,8) P(2,6) P(9,6) P(1,6) P(5,6) P(10,6) P(0,6) P(7,6) P(4,6) P(8,6) P(2,2) P(2,9) P(2,1) P(2,5) P(2,10) P(2,0) P(2,7) P(2,4) P(2,8) P(9,2) P(1,2) P(5,2) P(10,2) P(0,2) P(7,2) P(4,2) P(8,2) P(9,9) P(9,1) P(9,5) P(9,10) P(9,0) P(9,7) P(9,4) P(9,8) P(1,9) P(5,9) P(10,9) P(0,9) P(7,9) P(4,9) P(8,9) P(1,1) P(1,5) P(1,10) P(1,0) P(1,7) P(1,4) P(1,8) P(5,1) P(10,1) P(0,1) P(7,1) P(4,1) P(8,1) P(5,5) P(5,10) P(5,0) P(5,7) P(5,4) P(5,8) P(10,5) P(0,5) P(7,5) P(4,5) P(8,5) P(10,10) P(10,0) P(10,7) P(10,4) P(10,8) P(0,10) P(7,10) P(4,10) P(8,10) P(0,0) P(0,7) P(0,4) P(0,8) P(7,0) P(4,0) P(8,0) P(7,7) P(7,4) P(7,8) P(4,7) P(8,7) P(4,4) P(4,8) P(8,4) P(8,8)
c 1 2 3 4 5 6 7 8 9 10 11 12 13 14 15 16 17 18 19 20 21 22 23 24 25 26 27 28 29 30 31 32 33 34 35 36 37 38 39 40 41 42 43 44 45 46 47 48 49 50 51 52 53 54 55 56 57 58 59 60 61 62 63 64 65 66 67 68 69 70 71 72 73 74 75 76 77 78 79 80 81 82 83 84 85 86 87 88 89 90 91 92 93 94 95 96 97 98 99 100 101 102 103 104 105 106 107 108 109 110 111 112 113 114 115 116 117 118 119 120 121
p cnf 121 22
106 82 102 54 18 108 93 37 107 109 69 0
106 76 98 46 8 111 88 28 110 112 62 0
82 73 81 43 5 84 80 25 83 85 59 0
102 75 97 45 7 104 87 27 103 105 61 0
54 51 53 41 3 56 52 23 55 57 50 0
18 15 17 13 1 20 16 12 19 21 14 0
108 78 100 48 10 118 90 30 114 120 64 0
93 74 92 44 6 95 86 26 94 96 60 0
37 34 36 32 2 39 35 22 38 40 33 0
107 77 99 47 9 116 89 29 113 117 63 0
109 79 101 49 11 119 91 31 115 121 65 0
69 66 68 42 4 71 67 24 70 72 58 0
76 73 75 51 15 78 74 34 77 79 66 0
98 81 97 53 17 100 92 36 99 101 68 0
46 43 45 41 13 48 44 32 47 49 42 0
8 5 7 3 1 10 6 2 9 11 4 0
111 84 104 56 20 118 95 39 116 119 71 0
88 80 87 52 16 90 86 35 89 91 67 0
28 25 27 23 12 30 26 22 29 31 24 0
110 83 103 55 19 114 94 38 113 115 70 0
112 85 105 57 21 120 96 40 117 121 72 0
62 59 61 50 14 64 60 33 63 65 58 0
