c P(3,3) P(3,9) P(3,8) P(3,4) P(3,7) P(3,0) P(3,2) P(3,6) P(3,10) P(3,11) P(3,5) P(3,1) P(9,3) P(8,3) P(4,3) P(7,3) P(0,3) P(2,3) P(6,3) P(10,3) P(11,3) P(5,3) P(1,3) P(9,9) P(9,8) P(9,4) P(9,7) P(9,0) P(9,2) P(9,6) P(9,10) P(9,11) P(9,5) P(9,1) P(8,9) P(4,9) P(7,9) P(0,9) P(2,9) P(6,9) P(10,9) P(11,9) P(5,9) P(1,9) P(8,8) P(8,4) P(8,7) P(8,0) P(8,2) P(8,6) P(8,10) P(8,11) P(8,5) P(8,1) P(4,8) P(7,8) P(0,8) P(2,8) P(6,8) P(10,8) P(11,8) P(5,8) P(1,8) P(4,4) P(4,7) P(4,0) P(4,2) P(4,6) P(4,10) P(4,11) P(4,5) P(4,1) P(7,4) P(0,4) P(2,4) P(6,4) P(10,4) P(11,4) P(5,4) P(1,4) P(7,7) P(7,0) P(7,2) P(7,6) P(7,10) P(7,11) P(7,5) P(7,1) P(0,7) P(2,7) P(6,7) P(10,7) P(11,7) P(5,7) P(1,7) P(0,0) P(0,2) P(0,6) P(0,10) P(0,11) P(0,5) P(0,1) P(2,0) P(6,0) P(10,0) P(11,0) P(5,0) P(1,0) P(2,2) P(2,6) P(2,10) P(2,11) P(2,5) P(2,1) P(6,2) P(10,2) P(11,2) P(5,2) P(1,2) P(6,6) P(6,10) P(6,11) P(6,5) P(6,1) P(10,6) P(11,6) P(5,6) P(1,6) P(10,10) P(10,11) P(10,5) P(10,1) P(11,10) P(5,10) P(1,10) P(11,11) P(11,5) P(11,1) P(5,11) P(1,11) P(5,5) P(5,1) P(1,5) P(1,1)
c 1 2 3 4 5 6 7 8 9 10 11 12 13 14 15 16 17 18 19 20 21 22 23 24 25 26 27 28 29 30 31 32 33 34 35 36 37 38 39 40 41 42 43 44 45 46 47 48 49 50 51 52 53 54 55 56 57 58 59 60 61 62 63 64 65 66 67 68 69 70 71 72 73 74 75 76 77 78 79 80 81 82 83 84 85 86 87 88 89 90 91 92 93 94 95 96 97 98 99 100 101 102 103 104 105 106 107 108 109 110 111 112 113 114 115 116 117 118 119 120 121 122 123 124 125 126 127 128 129 130 131 132 133 134 135 136 137 138 139 140 141 142 143 144
p cnf 144 24
96 102 99 100 97 17 74 101 98 89 57 38 0
96 108 105 106 103 6 66 107 104 82 48 28 0
102 144 132 138 114 12 72 142 124 88 54 34 0
99 135 129 133 111 9 69 134 121 85 51 31 0
100 140 130 136 112 10 70 139 122 86 52 32 0
97 119 116 117 109 7 67 118 115 83 49 29 0
17 23 20 21 18 1 15 22 19 16 14 13 0
74 80 77 78 75 4 64 79 76 73 46 26 0
101 143 131 137 113 11 71 141 123 87 53 33 0
98 128 125 126 110 8 68 127 120 84 50 30 0
89 95 92 93 90 5 65 94 91 81 47 27 0
57 63 60 61 58 3 55 62 59 56 45 25 0
38 44 41 42 39 2 36 43 40 37 35 24 0
108 144 135 140 119 23 80 143 128 95 63 44 0
105 132 129 130 116 20 77 131 125 92 60 41 0
106 138 133 136 117 21 78 137 126 93 61 42 0
103 114 111 112 109 18 75 113 110 90 58 39 0
6 12 9 10 7 1 4 11 8 5 3 2 0
66 72 69 70 67 15 64 71 68 65 55 36 0
107 142 134 139 118 22 79 141 127 94 62 43 0
104 124 121 122 115 19 76 123 120 91 59 40 0
82 88 85 86 83 16 73 87 84 81 56 37 0
48 54 51 52 49 14 46 53 50 47 45 35 0
28 34 31 32 29 13 26 33 30 27 25 24 0
