c P(1,1) P(1,7) P(1,5) P(1,6) P(1,3) P(1,9) P(1,11) P(1,4) P(1,0) P(1,2) P(1,8) P(1,10) P(1,12) P(7,1) P(5,1) P(6,1) P(3,1) P(9,1) P(11,1) P(4,1) P(0,1) P(2,1) P(8,1) P(10,1) P(12,1) P(7,7) P(7,5) P(7,6) P(7,3) P(7,9) P(7,11) P(7,4) P(7,0) P(7,2) P(7,8) P(7,10) P(7,12) P(5,7) P(6,7) P(3,7) P(9,7) P(11,7) P(4,7) P(0,7) P(2,7) P(8,7) P(10,7) P(12,7) P(5,5) P(5,6) P(5,3) P(5,9) P(5,11) P(5,4) P(5,0) P(5,2) P(5,8) P(5,10) P(5,12) P(6,5) P(3,5) P(9,5) P(11,5) P(4,5) P(0,5) P(2,5) P(8,5) P(10,5) P(12,5) P(6,6) P(6,3) P(6,9) P(6,11) P(6,4) P(6,0) P(6,2) P(6,8) P(6,10) P(6,12) P(3,6) P(9,6) P(11,6) P(4,6) P(0,6) P(2,6) P(8,6) P(10,6) P(12,6) P(3,3) P(3,9) P(3,11) P(3,4) P(3,0) P(3,2) P(3,8) P(3,10) P(3,12) P(9,3) P(11,3) P(4,3) P(0,3) P(2,3) P(8,3) P(10,3) P(12,3) P(9,9) P(9,11) P(9,4) P(9,0) P(9,2) P(9,8) P(9,10) P(9,12) P(11,9) P(4,9) P(0,9) P(2,9) P(8,9) P(10,9) P(12,9) P(11,11) P(11,4) P(11,0) P(11,2) P(11,8) P(11,10) P(11,12) P(4,11) P(0,11) P(2,11) P(8,11) P(10,11) P(12,11) P(4,4) P(4,0) P(4,2) P(4,8) P(4,10) P(4,12) P(0,4) P(2,4) P(8,4) P(10,4) P(12,4) P(0,0) P(0,2) P(0,8) P(0,10) P(0,12) P(2,0) P(8,0) P(10,0) P(12,0) P(2,2) P(2,8) P(2,10) P(2,12) P(8,2) P(10,2) P(12,2) P(8,8) P(8,10) P(8,12) P(10,8) P(12,8) P(10,10) P(10,12) P(12,10) P(12,12)
c 1 2 3 4 5 6 7 8 9 10 11 12 13 14 15 16 17 18 19 20 21 22 23 24 25 26 27 28 29 30 31 32 33 34 35 36 37 38 39 40 41 42 43 44 45 46 47 48 49 50 51 52 53 54 55 56 57 58 59 60 61 62 63 64 65 66 67 68 69 70 71 72 73 74 75 76 77 78 79 80 81 82 83 84 85 86 87 88 89 90 91 92 93 94 95 96 97 98 99 100 101 102 103 104 105 106 107 108 109 110 111 112 113 114 115 116 117 118 119 120 121 122 123 124 125 126 127 128 129 130 131 132 133 134 135 136 137 138 139 140 141 142 143 144 145 146 147 148 149 150 151 152 153 154 155 156 157 158 159 160 161 162 163 164 165 166 167 168 169
p cnf 169 26
145 21 148 129 149 146 101 140 65 84 44 147 116 0
145 9 152 123 153 150 93 135 55 75 33 151 109 0
21 1 24 19 25 22 17 20 15 16 14 23 18 0
148 12 166 126 168 156 96 138 58 78 36 162 112 0
129 7 132 121 133 130 91 128 53 73 31 131 107 0
149 13 167 127 169 157 97 139 59 79 37 163 113 0
146 10 159 124 160 154 94 136 56 76 34 158 110 0
101 5 104 99 105 102 89 100 51 71 29 103 98 0
140 8 143 122 144 141 92 134 54 74 32 142 108 0
65 3 68 63 69 66 61 64 49 60 27 67 62 0
84 4 87 82 88 85 80 83 50 70 28 86 81 0
44 2 47 42 48 45 40 43 38 39 26 46 41 0
147 11 164 125 165 155 95 137 57 77 35 161 111 0
116 6 119 114 120 117 90 115 52 72 30 118 106 0
9 1 12 7 13 10 5 8 3 4 2 11 6 0
152 24 166 132 167 159 104 143 68 87 47 164 119 0
123 19 126 121 127 124 99 122 63 82 42 125 114 0
153 25 168 133 169 160 105 144 69 88 48 165 120 0
150 22 156 130 157 154 102 141 66 85 45 155 117 0
93 17 96 91 97 94 89 92 61 80 40 95 90 0
135 20 138 128 139 136 100 134 64 83 43 137 115 0
55 15 58 53 59 56 51 54 49 50 38 57 52 0
75 16 78 73 79 76 71 74 60 70 39 77 72 0
33 14 36 31 37 34 29 32 27 28 26 35 30 0
151 23 162 131 163 158 103 142 67 86 46 161 118 0
109 18 112 107 113 110 98 108 62 81 41 111 106 0
