c P(4,4) P(4,1) P(4,0) P(4,9) P(4,10) P(4,2) P(4,5) P(4,6) P(4,3) P(4,13) P(4,8) P(4,12) P(4,7) P(4,11) P(1,4) P(0,4) P(9,4) P(10,4) P(2,4) P(5,4) P(6,4) P(3,4) P(13,4) P(8,4) P(12,4) P(7,4) P(11,4) P(1,1) P(1,0) P(1,9) P(1,10) P(1,2) P(1,5) P(1,6) P(1,3) P(1,13) P(1,8) P(1,12) P(1,7) P(1,11) P(0,1) P(9,1) P(10,1) P(2,1) P(5,1) P(6,1) P(3,1) P(13,1) P(8,1) P(12,1) P(7,1) P(11,1) P(0,0) P(0,9) P(0,10) P(0,2) P(0,5) P(0,6) P(0,3) P(0,13) P(0,8) P(0,12) P(0,7) P(0,11) P(9,0) P(10,0) P(2,0) P(5,0) P(6,0) P(3,0) P(13,0) P(8,0) P(12,0) P(7,0) P(11,0) P(9,9) P(9,10) P(9,2) P(9,5) P(9,6) P(9,3) P(9,13) P(9,8) P(9,12) P(9,7) P(9,11) P(10,9) P(2,9) P(5,9) P(6,9) P(3,9) P(13,9) P(8,9) P(12,9) P(7,9) P(11,9) P(10,10) P(10,2) P(10,5) P(10,6) P(10,3) P(10,13) P(10,8) P(10,12) P(10,7) P(10,11) P(2,10) P(5,10) P(6,10) P(3,10) P(13,10) P(8,10) P(12,10) P(7,10) P(11,10) P(2,2) P(2,5) P(2,6) P(2,3) P(2,13) P(2,8) P(2,12) P(2,7) P(2,11) P(5,2) P(6,2) P(3,2) P(13,2) P(8,2) P(12,2) P(7,2) P(11,2) P(5,5) P(5,6) P(5,3) P(5,13) P(5,8) P(5,12) P(5,7) P(5,11) P(6,5) P(3,5) P(13,5) P(8,5) P(12,5) P(7,5) P(11,5) P(6,6) P(6,3) P(6,13) P(6,8) P(6,12) P(6,7) P(6,11) P(3,6) P(13,6) P(8,6) P(12,6) P(7,6) P(11,6) P(3,3) P(3,13) P(3,8) P(3,12) P(3,7) P(3,11) P(13,3) P(8,3) P(12,3) P(7,3) P(11,3) P(13,13) P(13,8) P(13,12) P(13,7) P(13,11) P(8,13) P(12,13) P(7,13) P(11,13) P(8,8) P(8,12) P(8,7) P(8,11) P(12,8) P(7,8) P(11,8) P(12,12) P(12,7) P(12,11) P(7,12) P(11,12) P(7,7) P(7,11) P(11,7) P(11,11)
c 1 2 3 4 5 6 7 8 9 10 11 12 13 14 15 16 17 18 19 20 21 22 23 24 25 26 27 28 29 30 31 32 33 34 35 36 37 38 39 40 41 42 43 44 45 46 47 48 49 50 51 52 53 54 55 56 57 58 59 60 61 62 63 64 65 66 67 68 69 70 71 72 73 74 75 76 77 78 79 80 81 82 83 84 85 86 87 88 89 90 91 92 93 94 95 96 97 98 99 100 101 102 103 104 105 106 107 108 109 110 111 112 113 114 115 116 117 118 119 120 121 122 123 124 125 126 127 128 129 130 131 132 133 134 135 136 137 138 139 140 141 142 143 144 145 146 147 148 149 150 151 152 153 154 155 156 157 158 159 160 161 162 163 164 165 166 167 168 169 170 171 172 173 174 175 176 177 178 179 180 181 182 183 184 185 186 187 188 189 190 191 192 193 194 195 196
p cnf 196 28
53 41 55 64 62 60 56 59 16 57 58 63 61 54 0
53 29 66 75 73 71 67 70 3 68 69 74 72 65 0
41 28 43 52 50 48 44 47 2 45 46 51 49 42 0
55 31 97 115 113 111 107 110 5 108 109 114 112 77 0
64 40 106 196 190 176 124 166 14 140 154 194 184 86 0
62 38 104 192 188 174 122 164 12 138 152 191 182 84 0
60 36 102 180 178 172 120 162 10 136 150 179 177 82 0
56 32 98 132 130 128 116 127 6 125 126 131 129 78 0
59 35 101 171 169 167 119 161 9 135 149 170 168 81 0
16 15 18 27 25 23 19 22 1 20 21 26 24 17 0
57 33 99 147 145 143 117 142 7 133 141 146 144 79 0
58 34 100 160 158 156 118 155 8 134 148 159 157 80 0
63 39 105 195 189 175 123 165 13 139 153 193 183 85 0
61 37 103 187 185 173 121 163 11 137 151 186 181 83 0
54 30 87 96 94 92 88 91 4 89 90 95 93 76 0
29 28 31 40 38 36 32 35 15 33 34 39 37 30 0
66 43 97 106 104 102 98 101 18 99 100 105 103 87 0
75 52 115 196 192 180 132 171 27 147 160 195 187 96 0
73 50 113 190 188 178 130 169 25 145 158 189 185 94 0
71 48 111 176 174 172 128 167 23 143 156 175 173 92 0
67 44 107 124 122 120 116 119 19 117 118 123 121 88 0
70 47 110 166 164 162 127 161 22 142 155 165 163 91 0
3 2 5 14 12 10 6 9 1 7 8 13 11 4 0
68 45 108 140 138 136 125 135 20 133 134 139 137 89 0
69 46 109 154 152 150 126 149 21 141 148 153 151 90 0
74 51 114 194 191 179 131 170 26 146 159 193 186 95 0
72 49 112 184 182 177 129 168 24 144 157 183 181 93 0
65 42 77 86 84 82 78 81 17 79 80 85 83 76 0
