c P(2,2) P(2,13) P(2,7) P(2,0) P(2,10) P(2,9) P(2,6) P(2,11) P(2,14) P(2,4) P(2,1) P(2,5) P(2,8) P(2,3) P(2,12) P(13,2) P(7,2) P(0,2) P(10,2) P(9,2) P(6,2) P(11,2) P(14,2) P(4,2) P(1,2) P(5,2) P(8,2) P(3,2) P(12,2) P(13,13) P(13,7) P(13,0) P(13,10) P(13,9) P(13,6) P(13,11) P(13,14) P(13,4) P(13,1) P(13,5) P(13,8) P(13,3) P(13,12) P(7,13) P(0,13) P(10,13) P(9,13) P(6,13) P(11,13) P(14,13) P(4,13) P(1,13) P(5,13) P(8,13) P(3,13) P(12,13) P(7,7) P(7,0) P(7,10) P(7,9) P(7,6) P(7,11) P(7,14) P(7,4) P(7,1) P(7,5) P(7,8) P(7,3) P(7,12) P(0,7) P(10,7) P(9,7) P(6,7) P(11,7) P(14,7) P(4,7) P(1,7) P(5,7) P(8,7) P(3,7) P(12,7) P(0,0) P(0,10) P(0,9) P(0,6) P(0,11) P(0,14) P(0,4) P(0,1) P(0,5) P(0,8) P(0,3) P(0,12) P(10,0) P(9,0) P(6,0) P(11,0) P(14,0) P(4,0) P(1,0) P(5,0) P(8,0) P(3,0) P(12,0) P(10,10) P(10,9) P(10,6) P(10,11) P(10,14) P(10,4) P(10,1) P(10,5) P(10,8) P(10,3) P(10,12) P(9,10) P(6,10) P(11,10) P(14,10) P(4,10) P(1,10) P(5,10) P(8,10) P(3,10) P(12,10) P(9,9) P(9,6) P(9,11) P(9,14) P(9,4) P(9,1) P(9,5) P(9,8) P(9,3) P(9,12) P(6,9) P(11,9) P(14,9) P(4,9) P(1,9) P(5,9) P(8,9) P(3,9) P(12,9) P(6,6) P(6,11) P(6,14) P(6,4) P(6,1) P(6,5) P(6,8) P(6,3) P(6,12) P(11,6) P(14,6) P(4,6) P(1,6) P(5,6) P(8,6) P(3,6) P(12,6) P(11,11) P(11,14) P(11,4) P(11,1) P(11,5) P(11,8) P(11,3) P(11,12) P(14,11) P(4,11) P(1,11) P(5,11) P(8,11) P(3,11) P(12,11) P(14,14) P(14,4) P(14,1) P(14,5) P(14,8) P(14,3) P(14,12) P(4,14) P(1,14) P(5,14) P(8,14) P(3,14) P(12,14) P(4,4) P(4,1) P(4,5) P(4,8) P(4,3) P(4,12) P(1,4) P(5,4) P(8,4) P(3,4) P(12,4) P(1,1) P(1,5) P(1,8) P(1,3) P(1,12) P(5,1) P(8,1) P(3,1) P(12,1) P(5,5) P(5,8) P(5,3) P(5,12) P(8,5) P(3,5) P(12,5) P(8,8) P(8,3) P(8,12) P(3,8) P(12,8) P(3,3) P(3,12) P(12,3) P(12,12)
c 1 2 3 4 5 6 7 8 9 10 11 12 13 14 15 16 17 18 19 20 21 22 23 24 25 26 27 28 29 30 31 32 33 34 35 36 37 38 39 40 41 42 43 44 45 46 47 48 49 50 51 52 53 54 55 56 57 58 59 60 61 62 63 64 65 66 67 68 69 70 71 72 73 74 75 76 77 78 79 80 81 82 83 84 85 86 87 88 89 90 91 92 93 94 95 96 97 98 99 100 101 102 103 104 105 106 107 108 109 110 111 112 113 114 115 116 117 118 119 120 121 122 123 124 125 126 127 128 129 130 131 132 133 134 135 136 137 138 139 140 141 142 143 144 145 146 147 148 149 150 151 152 153 154 155 156 157 158 159 160 161 162 163 164 165 166 167 168 169 170 171 172 173 174 175 176 177 178 179 180 181 182 183 184 185 186 187 188 189 190 191 192 193 194 195 196 197 198 199 200 201 202 203 204 205 206 207 208 209 210 211 212 213 214 215 216 217 218 219 220 221 222 223 224 225
p cnf 225 30
82 89 83 86 93 45 87 18 92 88 90 85 70 91 84 0
82 100 94 97 104 32 98 4 103 99 101 96 58 102 95 0
89 201 111 165 209 39 179 11 208 191 206 149 65 207 131 0
83 121 105 118 125 33 119 5 124 120 122 117 59 123 116 0
86 172 108 162 176 36 170 8 175 171 173 146 62 174 128 0
93 205 115 169 225 43 183 15 223 195 213 153 69 219 135 0
45 52 46 49 56 30 50 2 55 51 53 48 44 54 47 0
87 185 109 163 189 37 177 9 188 184 186 147 63 187 129 0
18 25 19 22 29 16 23 1 28 24 26 21 17 27 20 0
92 204 114 168 224 42 182 14 222 194 212 152 68 218 134 0
88 196 110 164 200 38 178 10 199 190 197 148 64 198 130 0
90 202 112 166 216 40 180 12 215 192 210 150 66 214 132 0
85 157 107 154 161 35 155 7 160 156 158 145 61 159 127 0
70 77 71 74 81 31 75 3 80 76 78 73 57 79 72 0
91 203 113 167 221 41 181 13 220 193 211 151 67 217 133 0
84 140 106 137 144 34 138 6 143 139 141 136 60 142 126 0
100 201 121 172 205 52 185 25 204 196 202 157 77 203 140 0
94 111 105 108 115 46 109 19 114 110 112 107 71 113 106 0
97 165 118 162 169 49 163 22 168 164 166 154 74 167 137 0
104 209 125 176 225 56 189 29 224 200 216 161 81 221 144 0
32 39 33 36 43 30 37 16 42 38 40 35 31 41 34 0
98 179 119 170 183 50 177 23 182 178 180 155 75 181 138 0
4 11 5 8 15 2 9 1 14 10 12 7 3 13 6 0
103 208 124 175 223 55 188 28 222 199 215 160 80 220 143 0
99 191 120 171 195 51 184 24 194 190 192 156 76 193 139 0
101 206 122 173 213 53 186 26 212 197 210 158 78 211 141 0
96 149 117 146 153 48 147 21 152 148 150 145 73 151 136 0
58 65 59 62 69 44 63 17 68 64 66 61 57 67 60 0
102 207 123 174 219 54 187 27 218 198 214 159 79 217 142 0
95 131 116 128 135 47 129 20 134 130 132 127 72 133 126 0
