c P(2,2) P(2,4) P(2,5) P(2,1) P(2,3) P(2,0) P(4,2) P(5,2) P(1,2) P(3,2) P(0,2) P(4,4) P(4,5) P(4,1) P(4,3) P(4,0) P(5,4) P(1,4) P(3,4) P(0,4) P(5,5) P(5,1) P(5,3) P(5,0) P(1,5) P(3,5) P(0,5) P(1,1) P(1,3) P(1,0) P(3,1) P(0,1) P(3,3) P(3,0) P(0,3) P(0,0)
c 1 2 3 4 5 6 7 8 9 10 11 12 13 14 15 16 17 18 19 20 21 22 23 24 25 26 27 28 29 30 31 32 33 34 35 36
p cnf 36 12
36 32 11 35 20 27 0
36 30 6 34 16 24 0
32 28 4 31 14 22 0
11 9 1 10 7 8 0
35 29 5 33 15 23 0
20 18 2 19 12 17 0
27 25 3 26 13 21 0
30 28 9 29 18 25 0
6 4 1 5 2 3 0
34 31 10 33 19 26 0
16 14 7 15 12 13 0
24 22 8 23 17 21 0
