c P(3,3) P(3,6) P(3,2) P(3,4) P(3,1) P(3,5) P(3,0) P(6,3) P(2,3) P(4,3) P(1,3) P(5,3) P(0,3) P(6,6) P(6,2) P(6,4) P(6,1) P(6,5) P(6,0) P(2,6) P(4,6) P(1,6) P(5,6) P(0,6) P(2,2) P(2,4) P(2,1) P(2,5) P(2,0) P(4,2) P(1,2) P(5,2) P(0,2) P(4,4) P(4,1) P(4,5) P(4,0) P(1,4) P(5,4) P(0,4) P(1,1) P(1,5) P(1,0) P(5,1) P(0,1) P(5,5) P(5,0) P(0,5) P(0,0)
c 1 2 3 4 5 6 7 8 9 10 11 12 13 14 15 16 17 18 19 20 21 22 23 24 25 26 27 28 29 30 31 32 33 34 35 36 37 38 39 40 41 42 43 44 45 46 47 48 49
p cnf 49 14
49 45 33 13 40 48 24 0
49 43 29 7 37 47 19 0
45 41 27 5 35 44 17 0
33 31 25 3 30 32 15 0
13 11 9 1 10 12 8 0
40 38 26 4 34 39 16 0
48 42 28 6 36 46 18 0
24 22 20 2 21 23 14 0
43 41 31 11 38 42 22 0
29 27 25 9 26 28 20 0
7 5 3 1 4 6 2 0
37 35 30 10 34 36 21 0
47 44 32 12 39 46 23 0
19 17 15 8 16 18 14 0
