c P(5,5) P(5,7) P(5,1) P(5,4) P(5,6) P(5,3) P(5,2) P(5,0) P(7,5) P(1,5) P(4,5) P(6,5) P(3,5) P(2,5) P(0,5) P(7,7) P(7,1) P(7,4) P(7,6) P(7,3) P(7,2) P(7,0) P(1,7) P(4,7) P(6,7) P(3,7) P(2,7) P(0,7) P(1,1) P(1,4) P(1,6) P(1,3) P(1,2) P(1,0) P(4,1) P(6,1) P(3,1) P(2,1) P(0,1) P(4,4) P(4,6) P(4,3) P(4,2) P(4,0) P(6,4) P(3,4) P(2,4) P(0,4) P(6,6) P(6,3) P(6,2) P(6,0) P(3,6) P(2,6) P(0,6) P(3,3) P(3,2) P(3,0) P(2,3) P(0,3) P(2,2) P(2,0) P(0,2) P(0,0)
c 1 2 3 4 5 6 7 8 9 10 11 12 13 14 15 16 17 18 19 20 21 22 23 24 25 26 27 28 29 30 31 32 33 34 35 36 37 38 39 40 41 42 43 44 45 46 47 48 49 50 51 52 53 54 55 56 57 58 59 60 61 62 63 64
p cnf 64 16
64 39 63 60 48 15 55 28 0
64 34 62 58 44 8 52 22 0
39 29 38 37 35 3 36 17 0
63 33 61 57 43 7 51 21 0
60 32 59 56 42 6 50 20 0
48 30 47 46 40 4 45 18 0
15 10 14 13 11 1 12 9 0
55 31 54 53 41 5 49 19 0
28 23 27 26 24 2 25 16 0
34 29 33 32 30 10 31 23 0
62 38 61 59 47 14 54 27 0
58 37 57 56 46 13 53 26 0
44 35 43 42 40 11 41 24 0
8 3 7 6 4 1 5 2 0
52 36 51 50 45 12 49 25 0
22 17 21 20 18 9 19 16 0
