c P(8,8) P(8,2) P(8,3) P(8,0) P(8,4) P(8,1) P(8,6) P(8,5) P(8,7) P(2,8) P(3,8) P(0,8) P(4,8) P(1,8) P(6,8) P(5,8) P(7,8) P(2,2) P(2,3) P(2,0) P(2,4) P(2,1) P(2,6) P(2,5) P(2,7) P(3,2) P(0,2) P(4,2) P(1,2) P(6,2) P(5,2) P(7,2) P(3,3) P(3,0) P(3,4) P(3,1) P(3,6) P(3,5) P(3,7) P(0,3) P(4,3) P(1,3) P(6,3) P(5,3) P(7,3) P(0,0) P(0,4) P(0,1) P(0,6) P(0,5) P(0,7) P(4,0) P(1,0) P(6,0) P(5,0) P(7,0) P(4,4) P(4,1) P(4,6) P(4,5) P(4,7) P(1,4) P(6,4) P(5,4) P(7,4) P(1,1) P(1,6) P(1,5) P(1,7) P(6,1) P(5,1) P(7,1) P(6,6) P(6,5) P(6,7) P(5,6) P(7,6) P(5,5) P(5,7) P(7,5) P(7,7)
c 1 2 3 4 5 6 7 8 9 10 11 12 13 14 15 16 17 18 19 20 21 22 23 24 25 26 27 28 29 30 31 32 33 34 35 36 37 38 39 40 41 42 43 44 45 46 47 48 49 50 51 52 53 54 55 56 57 58 59 60 61 62 63 64 65 66 67 68 69 70 71 72 73 74 75 76 77 78 79 80 81
p cnf 81 18
46 48 27 40 47 50 49 51 12 0
46 53 20 34 52 55 54 56 4 0
48 66 22 36 58 71 70 72 6 0
27 29 18 26 28 31 30 32 2 0
40 42 19 33 41 44 43 45 3 0
47 62 21 35 57 64 63 65 5 0
50 68 24 38 60 78 74 80 8 0
49 67 23 37 59 76 73 77 7 0
51 69 25 39 61 79 75 81 9 0
12 14 10 11 13 16 15 17 1 0
53 66 29 42 62 68 67 69 14 0
20 22 18 19 21 24 23 25 10 0
34 36 26 33 35 38 37 39 11 0
52 58 28 41 57 60 59 61 13 0
55 71 31 44 64 78 76 79 16 0
54 70 30 43 63 74 73 75 15 0
56 72 32 45 65 80 77 81 17 0
4 6 2 3 5 8 7 9 1 0
