c B(7) E(7,7) G(7) R(7) E(4,7) E(4,4) B(4) R(4) G(4) E(7,4) E(7,1) E(1,7) E(1,1) G(1) R(1) B(1) E(3,7) E(7,3) B(3) G(3) E(3,3) R(3) B(2) E(7,2) E(2,2) R(2) G(2) E(2,7) R(9) G(9) E(9,9) E(9,7) B(9) E(7,9) R(0) B(0) E(0,7) G(0) E(0,0) E(7,0) E(5,5) B(5) R(5) G(5) E(7,5) E(5,7) E(7,8) E(8,7) G(8) E(8,8) B(8) R(8) E(7,6) R(6) E(6,6) B(6) E(6,7) G(6) E(4,1) E(1,4) E(4,3) E(3,4) E(2,4) E(4,2) E(4,9) E(9,4) E(4,0) E(0,4) E(5,4) E(4,5) E(4,8) E(8,4) E(4,6) E(6,4) E(3,1) E(1,3) E(1,2) E(2,1) E(9,1) E(1,9) E(1,0) E(0,1) E(1,5) E(5,1) E(1,8) E(8,1) E(1,6) E(6,1) E(3,2) E(2,3) E(3,9) E(9,3) E(3,0) E(0,3) E(5,3) E(3,5) E(3,8) E(8,3) E(3,6) E(6,3) E(9,2) E(2,9) E(0,2) E(2,0) E(2,5) E(5,2) E(8,2) E(2,8) E(2,6) E(6,2) E(0,9) E(9,0) E(9,5) E(5,9) E(9,8) E(8,9) E(6,9) E(9,6) E(0,5) E(5,0) E(0,8) E(8,0) E(0,6) E(6,0) E(8,5) E(5,8) E(6,5) E(5,6) E(8,6) E(6,8)
c 1 2 3 4 5 6 7 8 9 10 11 12 13 14 15 16 17 18 19 20 21 22 23 24 25 26 27 28 29 30 31 32 33 34 35 36 37 38 39 40 41 42 43 44 45 46 47 48 49 50 51 52 53 54 55 56 57 58 59 60 61 62 63 64 65 66 67 68 69 70 71 72 73 74 75 76 77 78 79 80 81 82 83 84 85 86 87 88 89 90 91 92 93 94 95 96 97 98 99 100 101 102 103 104 105 106 107 108 109 110 111 112 113 114 115 116 117 118 119 120 121 122 123 124 125 126 127 128 129 130
p cnf 130 460
-39 0
-13 0
-25 0
-21 0
-6 0
-41 0
-55 0
-2 0
-50 0
-31 0
39 -39 0
82 -81 0
103 -104 0
94 -93 0
68 -67 0
119 -120 0
123 -124 0
37 -40 0
121 -122 0
111 -112 0
81 -82 0
13 -13 0
77 -78 0
76 -75 0
60 -59 0
83 -84 0
87 -88 0
12 -11 0
85 -86 0
80 -79 0
104 -103 0
78 -77 0
25 -25 0
90 -89 0
63 -64 0
105 -106 0
109 -110 0
28 -24 0
108 -107 0
102 -101 0
93 -94 0
75 -76 0
89 -90 0
21 -21 0
62 -61 0
96 -95 0
99 -100 0
17 -18 0
97 -98 0
91 -92 0
67 -68 0
59 -60 0
64 -63 0
61 -62 0
6 -6 0
70 -69 0
73 -74 0
5 -10 0
71 -72 0
65 -66 0
120 -119 0
84 -83 0
106 -105 0
95 -96 0
69 -70 0
41 -41 0
128 -127 0
46 -45 0
126 -125 0
114 -113 0
124 -123 0
88 -87 0
110 -109 0
100 -99 0
74 -73 0
127 -128 0
55 -55 0
57 -53 0
130 -129 0
117 -118 0
40 -37 0
11 -12 0
24 -28 0
18 -17 0
10 -5 0
45 -46 0
53 -57 0
2 -2 0
47 -48 0
34 -32 0
122 -121 0
86 -85 0
107 -108 0
98 -97 0
72 -71 0
125 -126 0
129 -130 0
48 -47 0
50 -50 0
116 -115 0
112 -111 0
79 -80 0
101 -102 0
92 -91 0
66 -65 0
113 -114 0
118 -117 0
32 -34 0
115 -116 0
31 -31 0
36 38 35 0
16 14 15 0
23 27 26 0
19 20 22 0
7 9 8 0
42 44 43 0
56 58 54 0
1 3 4 0
51 49 52 0
33 30 29 0
-36 -39 0
-36 -38 0
-36 -35 0
-16 -13 0
-16 -14 0
-16 -15 0
-23 -25 0
-23 -27 0
-23 -26 0
-19 -21 0
-19 -20 0
-19 -22 0
-7 -6 0
-7 -9 0
-7 -8 0
-42 -41 0
-42 -44 0
-42 -43 0
-56 -55 0
-56 -58 0
-56 -54 0
-1 -2 0
-1 -3 0
-1 -4 0
-51 -50 0
-51 -49 0
-51 -52 0
-33 -31 0
-33 -30 0
-33 -29 0
-39 -38 0
-39 -35 0
-13 -14 0
-13 -15 0
-25 -27 0
-25 -26 0
-21 -20 0
-21 -22 0
-6 -9 0
-6 -8 0
-41 -44 0
-41 -43 0
-55 -58 0
-55 -54 0
-2 -3 0
-2 -4 0
-50 -49 0
-50 -52 0
-31 -30 0
-31 -29 0
-38 -35 0
-14 -15 0
-27 -26 0
-20 -22 0
-9 -8 0
-44 -43 0
-58 -54 0
-3 -4 0
-49 -52 0
-30 -29 0
-36 -16 -82 0
-36 -16 -81 0
-36 -23 -103 0
-36 -23 -104 0
-36 -19 -94 0
-36 -19 -93 0
-36 -7 -68 0
-36 -7 -67 0
-36 -42 -119 0
-36 -42 -120 0
-36 -56 -123 0
-36 -56 -124 0
-36 -1 -37 0
-36 -1 -40 0
-36 -51 -121 0
-36 -51 -122 0
-36 -33 -111 0
-36 -33 -112 0
-16 -23 -77 0
-16 -23 -78 0
-16 -19 -76 0
-16 -19 -75 0
-16 -7 -60 0
-16 -7 -59 0
-16 -42 -83 0
-16 -42 -84 0
-16 -56 -87 0
-16 -56 -88 0
-16 -1 -12 0
-16 -1 -11 0
-16 -51 -85 0
-16 -51 -86 0
-16 -33 -80 0
-16 -33 -79 0
-23 -19 -90 0
-23 -19 -89 0
-23 -7 -63 0
-23 -7 -64 0
-23 -42 -105 0
-23 -42 -106 0
-23 -56 -109 0
-23 -56 -110 0
-23 -1 -28 0
-23 -1 -24 0
-23 -51 -108 0
-23 -51 -107 0
-23 -33 -102 0
-23 -33 -101 0
-19 -7 -62 0
-19 -7 -61 0
-19 -42 -96 0
-19 -42 -95 0
-19 -56 -99 0
-19 -56 -100 0
-19 -1 -17 0
-19 -1 -18 0
-19 -51 -97 0
-19 -51 -98 0
-19 -33 -91 0
-19 -33 -92 0
-7 -42 -70 0
-7 -42 -69 0
-7 -56 -73 0
-7 -56 -74 0
-7 -1 -5 0
-7 -1 -10 0
-7 -51 -71 0
-7 -51 -72 0
-7 -33 -65 0
-7 -33 -66 0
-42 -56 -128 0
-42 -56 -127 0
-42 -1 -46 0
-42 -1 -45 0
-42 -51 -126 0
-42 -51 -125 0
-42 -33 -114 0
-42 -33 -113 0
-56 -1 -57 0
-56 -1 -53 0
-56 -51 -130 0
-56 -51 -129 0
-56 -33 -117 0
-56 -33 -118 0
-1 -51 -47 0
-1 -51 -48 0
-1 -33 -34 0
-1 -33 -32 0
-51 -33 -116 0
-51 -33 -115 0
-82 -38 -14 0
-82 -35 -15 0
-103 -38 -27 0
-103 -35 -26 0
-94 -38 -20 0
-94 -35 -22 0
-68 -38 -9 0
-68 -35 -8 0
-119 -38 -44 0
-119 -35 -43 0
-123 -38 -58 0
-123 -35 -54 0
-37 -38 -3 0
-37 -35 -4 0
-121 -38 -49 0
-121 -35 -52 0
-111 -38 -30 0
-111 -35 -29 0
-81 -38 -14 0
-81 -35 -15 0
-77 -14 -27 0
-77 -15 -26 0
-76 -14 -20 0
-76 -15 -22 0
-60 -14 -9 0
-60 -15 -8 0
-83 -14 -44 0
-83 -15 -43 0
-87 -14 -58 0
-87 -15 -54 0
-12 -14 -3 0
-12 -15 -4 0
-85 -14 -49 0
-85 -15 -52 0
-80 -14 -30 0
-80 -15 -29 0
-104 -38 -27 0
-104 -35 -26 0
-78 -14 -27 0
-78 -15 -26 0
-90 -27 -20 0
-90 -26 -22 0
-63 -27 -9 0
-63 -26 -8 0
-105 -27 -44 0
-105 -26 -43 0
-109 -27 -58 0
-109 -26 -54 0
-28 -27 -3 0
-28 -26 -4 0
-108 -27 -49 0
-108 -26 -52 0
-102 -27 -30 0
-102 -26 -29 0
-93 -38 -20 0
-93 -35 -22 0
-75 -14 -20 0
-75 -15 -22 0
-89 -27 -20 0
-89 -26 -22 0
-62 -20 -9 0
-62 -22 -8 0
-96 -20 -44 0
-96 -22 -43 0
-99 -20 -58 0
-99 -22 -54 0
-17 -20 -3 0
-17 -22 -4 0
-97 -20 -49 0
-97 -22 -52 0
-91 -20 -30 0
-91 -22 -29 0
-67 -38 -9 0
-67 -35 -8 0
-59 -14 -9 0
-59 -15 -8 0
-64 -27 -9 0
-64 -26 -8 0
-61 -20 -9 0
-61 -22 -8 0
-70 -9 -44 0
-70 -8 -43 0
-73 -9 -58 0
-73 -8 -54 0
-5 -9 -3 0
-5 -8 -4 0
-71 -9 -49 0
-71 -8 -52 0
-65 -9 -30 0
-65 -8 -29 0
-120 -38 -44 0
-120 -35 -43 0
-84 -14 -44 0
-84 -15 -43 0
-106 -27 -44 0
-106 -26 -43 0
-95 -20 -44 0
-95 -22 -43 0
-69 -9 -44 0
-69 -8 -43 0
-128 -44 -58 0
-128 -43 -54 0
-46 -44 -3 0
-46 -43 -4 0
-126 -44 -49 0
-126 -43 -52 0
-114 -44 -30 0
-114 -43 -29 0
-124 -38 -58 0
-124 -35 -54 0
-88 -14 -58 0
-88 -15 -54 0
-110 -27 -58 0
-110 -26 -54 0
-100 -20 -58 0
-100 -22 -54 0
-74 -9 -58 0
-74 -8 -54 0
-127 -44 -58 0
-127 -43 -54 0
-57 -58 -3 0
-57 -54 -4 0
-130 -58 -49 0
-130 -54 -52 0
-117 -58 -30 0
-117 -54 -29 0
-40 -38 -3 0
-40 -35 -4 0
-11 -14 -3 0
-11 -15 -4 0
-24 -27 -3 0
-24 -26 -4 0
-18 -20 -3 0
-18 -22 -4 0
-10 -9 -3 0
-10 -8 -4 0
-45 -44 -3 0
-45 -43 -4 0
-53 -58 -3 0
-53 -54 -4 0
-47 -3 -49 0
-47 -4 -52 0
-34 -3 -30 0
-34 -4 -29 0
-122 -38 -49 0
-122 -35 -52 0
-86 -14 -49 0
-86 -15 -52 0
-107 -27 -49 0
-107 -26 -52 0
-98 -20 -49 0
-98 -22 -52 0
-72 -9 -49 0
-72 -8 -52 0
-125 -44 -49 0
-125 -43 -52 0
-129 -58 -49 0
-129 -54 -52 0
-48 -3 -49 0
-48 -4 -52 0
-116 -49 -30 0
-116 -52 -29 0
-112 -38 -30 0
-112 -35 -29 0
-79 -14 -30 0
-79 -15 -29 0
-101 -27 -30 0
-101 -26 -29 0
-92 -20 -30 0
-92 -22 -29 0
-66 -9 -30 0
-66 -8 -29 0
-113 -44 -30 0
-113 -43 -29 0
-118 -58 -30 0
-118 -54 -29 0
-32 -3 -30 0
-32 -4 -29 0
-115 -49 -30 0
-115 -52 -29 0
39 82 103 94 68 119 123 37 121 111 0
81 13 77 76 60 83 87 12 85 80 0
104 78 25 90 63 105 109 28 108 102 0
93 75 89 21 62 96 99 17 97 91 0
67 59 64 61 6 70 73 5 71 65 0
120 84 106 95 69 41 128 46 126 114 0
124 88 110 100 74 127 55 57 130 117 0
40 11 24 18 10 45 53 2 47 34 0
122 86 107 98 72 125 129 48 50 116 0
112 79 101 92 66 113 118 32 115 31 0
