c E(4,4) B(4) R(4) G(4) R(5) B(5) G(5) E(5,5) E(5,4) E(4,5) E(4,6) R(6) B(6) E(6,4) E(6,6) G(6) B(2) E(2,4) R(2) G(2) E(4,2) E(2,2) B(8) E(4,8) E(8,4) R(8) E(8,8) G(8) E(1,4) B(1) E(4,1) E(1,1) R(1) G(1) E(9,9) B(9) E(4,9) R(9) E(9,4) G(9) G(0) E(0,0) R(0) E(0,4) B(0) E(4,0) E(7,4) E(4,7) R(7) B(7) E(7,7) G(7) G(3) E(3,4) R(3) E(3,3) E(4,3) B(3) R(10) E(10,10) B(10) E(4,10) E(10,4) G(10) E(5,6) E(6,5) E(2,5) E(5,2) E(5,8) E(8,5) E(1,5) E(5,1) E(5,9) E(9,5) E(5,0) E(0,5) E(5,7) E(7,5) E(5,3) E(3,5) E(5,10) E(10,5) E(2,6) E(6,2) E(6,8) E(8,6) E(6,1) E(1,6) E(6,9) E(9,6) E(6,0) E(0,6) E(6,7) E(7,6) E(3,6) E(6,3) E(6,10) E(10,6) E(8,2) E(2,8) E(1,2) E(2,1) E(9,2) E(2,9) E(0,2) E(2,0) E(7,2) E(2,7) E(3,2) E(2,3) E(2,10) E(10,2) E(8,1) E(1,8) E(8,9) E(9,8) E(8,0) E(0,8) E(8,7) E(7,8) E(3,8) E(8,3) E(10,8) E(8,10) E(9,1) E(1,9) E(1,0) E(0,1) E(1,7) E(7,1) E(3,1) E(1,3) E(10,1) E(1,10) E(0,9) E(9,0) E(9,7) E(7,9) E(9,3) E(3,9) E(9,10) E(10,9) E(0,7) E(7,0) E(0,3) E(3,0) E(0,10) E(10,0) E(3,7) E(7,3) E(10,7) E(7,10) E(10,3) E(3,10)
c 1 2 3 4 5 6 7 8 9 10 11 12 13 14 15 16 17 18 19 20 21 22 23 24 25 26 27 28 29 30 31 32 33 34 35 36 37 38 39 40 41 42 43 44 45 46 47 48 49 50 51 52 53 54 55 56 57 58 59 60 61 62 63 64 65 66 67 68 69 70 71 72 73 74 75 76 77 78 79 80 81 82 83 84 85 86 87 88 89 90 91 92 93 94 95 96 97 98 99 100 101 102 103 104 105 106 107 108 109 110 111 112 113 114 115 116 117 118 119 120 121 122 123 124 125 126 127 128 129 130 131 132 133 134 135 136 137 138 139 140 141 142 143 144 145 146 147 148 149 150 151 152 153 154
p cnf 154 550
-42 0
-32 0
-60 0
-22 0
-56 0
-1 0
-8 0
-15 0
-51 0
-27 0
-35 0
42 -42 0
128 -127 0
147 -148 0
105 -106 0
145 -146 0
44 -46 0
76 -75 0
92 -91 0
143 -144 0
118 -117 0
135 -136 0
127 -128 0
32 -32 0
134 -133 0
101 -102 0
132 -131 0
29 -31 0
71 -72 0
88 -87 0
129 -130 0
114 -113 0
126 -125 0
148 -147 0
133 -134 0
60 -60 0
112 -111 0
153 -154 0
63 -62 0
82 -81 0
98 -97 0
151 -152 0
123 -124 0
142 -141 0
106 -105 0
102 -101 0
111 -112 0
22 -22 0
110 -109 0
18 -21 0
67 -68 0
83 -84 0
108 -107 0
100 -99 0
104 -103 0
146 -145 0
131 -132 0
154 -153 0
109 -110 0
56 -56 0
54 -57 0
80 -79 0
95 -96 0
149 -150 0
121 -122 0
140 -139 0
46 -44 0
31 -29 0
62 -63 0
21 -18 0
57 -54 0
1 -1 0
10 -9 0
11 -14 0
48 -47 0
24 -25 0
37 -39 0
75 -76 0
72 -71 0
81 -82 0
68 -67 0
79 -80 0
9 -10 0
8 -8 0
65 -66 0
77 -78 0
69 -70 0
73 -74 0
91 -92 0
87 -88 0
97 -98 0
84 -83 0
96 -95 0
14 -11 0
66 -65 0
15 -15 0
93 -94 0
85 -86 0
89 -90 0
144 -143 0
130 -129 0
152 -151 0
107 -108 0
150 -149 0
47 -48 0
78 -77 0
94 -93 0
51 -51 0
120 -119 0
138 -137 0
117 -118 0
113 -114 0
124 -123 0
99 -100 0
122 -121 0
25 -24 0
70 -69 0
86 -85 0
119 -120 0
27 -27 0
115 -116 0
136 -135 0
125 -126 0
141 -142 0
103 -104 0
139 -140 0
39 -37 0
74 -73 0
90 -89 0
137 -138 0
116 -115 0
35 -35 0
45 41 43 0
30 34 33 0
61 64 59 0
17 20 19 0
58 53 55 0
2 4 3 0
6 7 5 0
13 16 12 0
50 52 49 0
23 28 26 0
36 40 38 0
-45 -42 0
-45 -41 0
-45 -43 0
-30 -32 0
-30 -34 0
-30 -33 0
-61 -60 0
-61 -64 0
-61 -59 0
-17 -22 0
-17 -20 0
-17 -19 0
-58 -56 0
-58 -53 0
-58 -55 0
-2 -1 0
-2 -4 0
-2 -3 0
-6 -8 0
-6 -7 0
-6 -5 0
-13 -15 0
-13 -16 0
-13 -12 0
-50 -51 0
-50 -52 0
-50 -49 0
-23 -27 0
-23 -28 0
-23 -26 0
-36 -35 0
-36 -40 0
-36 -38 0
-42 -41 0
-42 -43 0
-32 -34 0
-32 -33 0
-60 -64 0
-60 -59 0
-22 -20 0
-22 -19 0
-56 -53 0
-56 -55 0
-1 -4 0
-1 -3 0
-8 -7 0
-8 -5 0
-15 -16 0
-15 -12 0
-51 -52 0
-51 -49 0
-27 -28 0
-27 -26 0
-35 -40 0
-35 -38 0
-41 -43 0
-34 -33 0
-64 -59 0
-20 -19 0
-53 -55 0
-4 -3 0
-7 -5 0
-16 -12 0
-52 -49 0
-28 -26 0
-40 -38 0
-45 -30 -128 0
-45 -30 -127 0
-45 -61 -147 0
-45 -61 -148 0
-45 -17 -105 0
-45 -17 -106 0
-45 -58 -145 0
-45 -58 -146 0
-45 -2 -44 0
-45 -2 -46 0
-45 -6 -76 0
-45 -6 -75 0
-45 -13 -92 0
-45 -13 -91 0
-45 -50 -143 0
-45 -50 -144 0
-45 -23 -118 0
-45 -23 -117 0
-45 -36 -135 0
-45 -36 -136 0
-30 -61 -134 0
-30 -61 -133 0
-30 -17 -101 0
-30 -17 -102 0
-30 -58 -132 0
-30 -58 -131 0
-30 -2 -29 0
-30 -2 -31 0
-30 -6 -71 0
-30 -6 -72 0
-30 -13 -88 0
-30 -13 -87 0
-30 -50 -129 0
-30 -50 -130 0
-30 -23 -114 0
-30 -23 -113 0
-30 -36 -126 0
-30 -36 -125 0
-61 -17 -112 0
-61 -17 -111 0
-61 -58 -153 0
-61 -58 -154 0
-61 -2 -63 0
-61 -2 -62 0
-61 -6 -82 0
-61 -6 -81 0
-61 -13 -98 0
-61 -13 -97 0
-61 -50 -151 0
-61 -50 -152 0
-61 -23 -123 0
-61 -23 -124 0
-61 -36 -142 0
-61 -36 -141 0
-17 -58 -110 0
-17 -58 -109 0
-17 -2 -18 0
-17 -2 -21 0
-17 -6 -67 0
-17 -6 -68 0
-17 -13 -83 0
-17 -13 -84 0
-17 -50 -108 0
-17 -50 -107 0
-17 -23 -100 0
-17 -23 -99 0
-17 -36 -104 0
-17 -36 -103 0
-58 -2 -54 0
-58 -2 -57 0
-58 -6 -80 0
-58 -6 -79 0
-58 -13 -95 0
-58 -13 -96 0
-58 -50 -149 0
-58 -50 -150 0
-58 -23 -121 0
-58 -23 -122 0
-58 -36 -140 0
-58 -36 -139 0
-2 -6 -10 0
-2 -6 -9 0
-2 -13 -11 0
-2 -13 -14 0
-2 -50 -48 0
-2 -50 -47 0
-2 -23 -24 0
-2 -23 -25 0
-2 -36 -37 0
-2 -36 -39 0
-6 -13 -65 0
-6 -13 -66 0
-6 -50 -77 0
-6 -50 -78 0
-6 -23 -69 0
-6 -23 -70 0
-6 -36 -73 0
-6 -36 -74 0
-13 -50 -93 0
-13 -50 -94 0
-13 -23 -85 0
-13 -23 -86 0
-13 -36 -89 0
-13 -36 -90 0
-50 -23 -120 0
-50 -23 -119 0
-50 -36 -138 0
-50 -36 -137 0
-23 -36 -115 0
-23 -36 -116 0
-128 -41 -34 0
-128 -43 -33 0
-147 -41 -64 0
-147 -43 -59 0
-105 -41 -20 0
-105 -43 -19 0
-145 -41 -53 0
-145 -43 -55 0
-44 -41 -4 0
-44 -43 -3 0
-76 -41 -7 0
-76 -43 -5 0
-92 -41 -16 0
-92 -43 -12 0
-143 -41 -52 0
-143 -43 -49 0
-118 -41 -28 0
-118 -43 -26 0
-135 -41 -40 0
-135 -43 -38 0
-127 -41 -34 0
-127 -43 -33 0
-134 -34 -64 0
-134 -33 -59 0
-101 -34 -20 0
-101 -33 -19 0
-132 -34 -53 0
-132 -33 -55 0
-29 -34 -4 0
-29 -33 -3 0
-71 -34 -7 0
-71 -33 -5 0
-88 -34 -16 0
-88 -33 -12 0
-129 -34 -52 0
-129 -33 -49 0
-114 -34 -28 0
-114 -33 -26 0
-126 -34 -40 0
-126 -33 -38 0
-148 -41 -64 0
-148 -43 -59 0
-133 -34 -64 0
-133 -33 -59 0
-112 -64 -20 0
-112 -59 -19 0
-153 -64 -53 0
-153 -59 -55 0
-63 -64 -4 0
-63 -59 -3 0
-82 -64 -7 0
-82 -59 -5 0
-98 -64 -16 0
-98 -59 -12 0
-151 -64 -52 0
-151 -59 -49 0
-123 -64 -28 0
-123 -59 -26 0
-142 -64 -40 0
-142 -59 -38 0
-106 -41 -20 0
-106 -43 -19 0
-102 -34 -20 0
-102 -33 -19 0
-111 -64 -20 0
-111 -59 -19 0
-110 -20 -53 0
-110 -19 -55 0
-18 -20 -4 0
-18 -19 -3 0
-67 -20 -7 0
-67 -19 -5 0
-83 -20 -16 0
-83 -19 -12 0
-108 -20 -52 0
-108 -19 -49 0
-100 -20 -28 0
-100 -19 -26 0
-104 -20 -40 0
-104 -19 -38 0
-146 -41 -53 0
-146 -43 -55 0
-131 -34 -53 0
-131 -33 -55 0
-154 -64 -53 0
-154 -59 -55 0
-109 -20 -53 0
-109 -19 -55 0
-54 -53 -4 0
-54 -55 -3 0
-80 -53 -7 0
-80 -55 -5 0
-95 -53 -16 0
-95 -55 -12 0
-149 -53 -52 0
-149 -55 -49 0
-121 -53 -28 0
-121 -55 -26 0
-140 -53 -40 0
-140 -55 -38 0
-46 -41 -4 0
-46 -43 -3 0
-31 -34 -4 0
-31 -33 -3 0
-62 -64 -4 0
-62 -59 -3 0
-21 -20 -4 0
-21 -19 -3 0
-57 -53 -4 0
-57 -55 -3 0
-10 -4 -7 0
-10 -3 -5 0
-11 -4 -16 0
-11 -3 -12 0
-48 -4 -52 0
-48 -3 -49 0
-24 -4 -28 0
-24 -3 -26 0
-37 -4 -40 0
-37 -3 -38 0
-75 -41 -7 0
-75 -43 -5 0
-72 -34 -7 0
-72 -33 -5 0
-81 -64 -7 0
-81 -59 -5 0
-68 -20 -7 0
-68 -19 -5 0
-79 -53 -7 0
-79 -55 -5 0
-9 -4 -7 0
-9 -3 -5 0
-65 -7 -16 0
-65 -5 -12 0
-77 -7 -52 0
-77 -5 -49 0
-69 -7 -28 0
-69 -5 -26 0
-73 -7 -40 0
-73 -5 -38 0
-91 -41 -16 0
-91 -43 -12 0
-87 -34 -16 0
-87 -33 -12 0
-97 -64 -16 0
-97 -59 -12 0
-84 -20 -16 0
-84 -19 -12 0
-96 -53 -16 0
-96 -55 -12 0
-14 -4 -16 0
-14 -3 -12 0
-66 -7 -16 0
-66 -5 -12 0
-93 -16 -52 0
-93 -12 -49 0
-85 -16 -28 0
-85 -12 -26 0
-89 -16 -40 0
-89 -12 -38 0
-144 -41 -52 0
-144 -43 -49 0
-130 -34 -52 0
-130 -33 -49 0
-152 -64 -52 0
-152 -59 -49 0
-107 -20 -52 0
-107 -19 -49 0
-150 -53 -52 0
-150 -55 -49 0
-47 -4 -52 0
-47 -3 -49 0
-78 -7 -52 0
-78 -5 -49 0
-94 -16 -52 0
-94 -12 -49 0
-120 -52 -28 0
-120 -49 -26 0
-138 -52 -40 0
-138 -49 -38 0
-117 -41 -28 0
-117 -43 -26 0
-113 -34 -28 0
-113 -33 -26 0
-124 -64 -28 0
-124 -59 -26 0
-99 -20 -28 0
-99 -19 -26 0
-122 -53 -28 0
-122 -55 -26 0
-25 -4 -28 0
-25 -3 -26 0
-70 -7 -28 0
-70 -5 -26 0
-86 -16 -28 0
-86 -12 -26 0
-119 -52 -28 0
-119 -49 -26 0
-115 -28 -40 0
-115 -26 -38 0
-136 -41 -40 0
-136 -43 -38 0
-125 -34 -40 0
-125 -33 -38 0
-141 -64 -40 0
-141 -59 -38 0
-103 -20 -40 0
-103 -19 -38 0
-139 -53 -40 0
-139 -55 -38 0
-39 -4 -40 0
-39 -3 -38 0
-74 -7 -40 0
-74 -5 -38 0
-90 -16 -40 0
-90 -12 -38 0
-137 -52 -40 0
-137 -49 -38 0
-116 -28 -40 0
-116 -26 -38 0
42 128 147 105 145 44 76 92 143 118 135 0
127 32 134 101 132 29 71 88 129 114 126 0
148 133 60 112 153 63 82 98 151 123 142 0
106 102 111 22 110 18 67 83 108 100 104 0
146 131 154 109 56 54 80 95 149 121 140 0
46 31 62 21 57 1 10 11 48 24 37 0
75 72 81 68 79 9 8 65 77 69 73 0
91 87 97 84 96 14 66 15 93 85 89 0
144 130 152 107 150 47 78 94 51 120 138 0
117 113 124 99 122 25 70 86 119 27 115 0
136 125 141 103 139 39 74 90 137 116 35 0
