c G(2) E(2,2) B(2) R(2) E(9,2) B(9) E(9,9) G(9) R(9) E(2,9) E(5,2) E(2,5) G(5) R(5) B(5) E(5,5) E(11,2) E(2,11) B(11) E(11,11) R(11) G(11) G(10) E(2,10) E(10,10) E(10,2) B(10) R(10) E(0,0) B(0) G(0) R(0) E(0,2) E(2,0) R(7) G(7) E(7,7) E(7,2) B(7) E(2,7) R(8) E(2,8) E(8,8) G(8) B(8) E(8,2) E(3,2) G(3) E(3,3) E(2,3) B(3) R(3) E(6,2) G(6) R(6) E(2,6) E(6,6) B(6) B(4) G(4) E(4,4) E(4,2) E(2,4) R(4) B(1) E(1,1) E(1,2) G(1) E(2,1) R(1) E(5,9) E(9,5) E(11,9) E(9,11) E(10,9) E(9,10) E(9,0) E(0,9) E(9,7) E(7,9) E(8,9) E(9,8) E(9,3) E(3,9) E(9,6) E(6,9) E(4,9) E(9,4) E(9,1) E(1,9) E(5,11) E(11,5) E(10,5) E(5,10) E(0,5) E(5,0) E(5,7) E(7,5) E(8,5) E(5,8) E(3,5) E(5,3) E(6,5) E(5,6) E(4,5) E(5,4) E(1,5) E(5,1) E(10,11) E(11,10) E(11,0) E(0,11) E(11,7) E(7,11) E(11,8) E(8,11) E(3,11) E(11,3) E(6,11) E(11,6) E(4,11) E(11,4) E(11,1) E(1,11) E(0,10) E(10,0) E(10,7) E(7,10) E(10,8) E(8,10) E(3,10) E(10,3) E(10,6) E(6,10) E(10,4) E(4,10) E(10,1) E(1,10) E(7,0) E(0,7) E(0,8) E(8,0) E(3,0) E(0,3) E(6,0) E(0,6) E(4,0) E(0,4) E(0,1) E(1,0) E(8,7) E(7,8) E(7,3) E(3,7) E(6,7) E(7,6) E(4,7) E(7,4) E(7,1) E(1,7) E(3,8) E(8,3) E(8,6) E(6,8) E(8,4) E(4,8) E(1,8) E(8,1) E(3,6) E(6,3) E(4,3) E(3,4) E(1,3) E(3,1) E(4,6) E(6,4) E(6,1) E(1,6) E(1,4) E(4,1)
c 1 2 3 4 5 6 7 8 9 10 11 12 13 14 15 16 17 18 19 20 21 22 23 24 25 26 27 28 29 30 31 32 33 34 35 36 37 38 39 40 41 42 43 44 45 46 47 48 49 50 51 52 53 54 55 56 57 58 59 60 61 62 63 64 65 66 67 68 69 70 71 72 73 74 75 76 77 78 79 80 81 82 83 84 85 86 87 88 89 90 91 92 93 94 95 96 97 98 99 100 101 102 103 104 105 106 107 108 109 110 111 112 113 114 115 116 117 118 119 120 121 122 123 124 125 126 127 128 129 130 131 132 133 134 135 136 137 138 139 140 141 142 143 144 145 146 147 148 149 150 151 152 153 154 155 156 157 158 159 160 161 162 163 164 165 166 167 168 169 170 171 172 173 174 175 176 177 178 179 180
p cnf 180 648
-29 0
-66 0
-25 0
-20 0
-2 0
-49 0
-61 0
-16 0
-57 0
-37 0
-43 0
-7 0
29 -29 0
149 -150 0
125 -126 0
112 -111 0
33 -34 0
144 -143 0
148 -147 0
95 -96 0
146 -145 0
140 -139 0
141 -142 0
78 -77 0
150 -149 0
66 -66 0
138 -137 0
124 -123 0
67 -69 0
173 -174 0
179 -180 0
107 -108 0
178 -177 0
160 -159 0
167 -168 0
90 -89 0
126 -125 0
137 -138 0
25 -25 0
109 -110 0
26 -24 0
132 -131 0
135 -136 0
93 -94 0
133 -134 0
127 -128 0
129 -130 0
75 -76 0
111 -112 0
123 -124 0
110 -109 0
20 -20 0
17 -18 0
118 -117 0
122 -121 0
92 -91 0
120 -119 0
113 -114 0
115 -116 0
73 -74 0
34 -33 0
69 -67 0
24 -26 0
18 -17 0
2 -2 0
50 -47 0
63 -62 0
12 -11 0
56 -53 0
40 -38 0
42 -46 0
10 -5 0
143 -144 0
174 -173 0
131 -132 0
117 -118 0
47 -50 0
49 -49 0
172 -171 0
101 -102 0
169 -170 0
154 -153 0
161 -162 0
84 -83 0
147 -148 0
180 -179 0
136 -135 0
121 -122 0
62 -63 0
171 -172 0
61 -61 0
105 -106 0
175 -176 0
157 -158 0
166 -165 0
87 -88 0
96 -95 0
108 -107 0
94 -93 0
91 -92 0
11 -12 0
102 -101 0
106 -105 0
16 -16 0
104 -103 0
97 -98 0
100 -99 0
71 -72 0
145 -146 0
177 -178 0
134 -133 0
119 -120 0
53 -56 0
170 -169 0
176 -175 0
103 -104 0
57 -57 0
155 -156 0
164 -163 0
86 -85 0
139 -140 0
159 -160 0
128 -127 0
114 -113 0
38 -40 0
153 -154 0
158 -157 0
98 -97 0
156 -155 0
37 -37 0
152 -151 0
80 -79 0
142 -141 0
168 -167 0
130 -129 0
116 -115 0
46 -42 0
162 -161 0
165 -166 0
99 -100 0
163 -164 0
151 -152 0
43 -43 0
81 -82 0
77 -78 0
89 -90 0
76 -75 0
74 -73 0
5 -10 0
83 -84 0
88 -87 0
72 -71 0
85 -86 0
79 -80 0
82 -81 0
7 -7 0
30 31 32 0
65 68 70 0
27 23 28 0
19 22 21 0
3 1 4 0
51 48 52 0
59 60 64 0
15 13 14 0
58 54 55 0
39 36 35 0
45 44 41 0
6 8 9 0
-30 -29 0
-30 -31 0
-30 -32 0
-65 -66 0
-65 -68 0
-65 -70 0
-27 -25 0
-27 -23 0
-27 -28 0
-19 -20 0
-19 -22 0
-19 -21 0
-3 -2 0
-3 -1 0
-3 -4 0
-51 -49 0
-51 -48 0
-51 -52 0
-59 -61 0
-59 -60 0
-59 -64 0
-15 -16 0
-15 -13 0
-15 -14 0
-58 -57 0
-58 -54 0
-58 -55 0
-39 -37 0
-39 -36 0
-39 -35 0
-45 -43 0
-45 -44 0
-45 -41 0
-6 -7 0
-6 -8 0
-6 -9 0
-29 -31 0
-29 -32 0
-66 -68 0
-66 -70 0
-25 -23 0
-25 -28 0
-20 -22 0
-20 -21 0
-2 -1 0
-2 -4 0
-49 -48 0
-49 -52 0
-61 -60 0
-61 -64 0
-16 -13 0
-16 -14 0
-57 -54 0
-57 -55 0
-37 -36 0
-37 -35 0
-43 -44 0
-43 -41 0
-7 -8 0
-7 -9 0
-31 -32 0
-68 -70 0
-23 -28 0
-22 -21 0
-1 -4 0
-48 -52 0
-60 -64 0
-13 -14 0
-54 -55 0
-36 -35 0
-44 -41 0
-8 -9 0
-30 -65 -149 0
-30 -65 -150 0
-30 -27 -125 0
-30 -27 -126 0
-30 -19 -112 0
-30 -19 -111 0
-30 -3 -33 0
-30 -3 -34 0
-30 -51 -144 0
-30 -51 -143 0
-30 -59 -148 0
-30 -59 -147 0
-30 -15 -95 0
-30 -15 -96 0
-30 -58 -146 0
-30 -58 -145 0
-30 -39 -140 0
-30 -39 -139 0
-30 -45 -141 0
-30 -45 -142 0
-30 -6 -78 0
-30 -6 -77 0
-65 -27 -138 0
-65 -27 -137 0
-65 -19 -124 0
-65 -19 -123 0
-65 -3 -67 0
-65 -3 -69 0
-65 -51 -173 0
-65 -51 -174 0
-65 -59 -179 0
-65 -59 -180 0
-65 -15 -107 0
-65 -15 -108 0
-65 -58 -178 0
-65 -58 -177 0
-65 -39 -160 0
-65 -39 -159 0
-65 -45 -167 0
-65 -45 -168 0
-65 -6 -90 0
-65 -6 -89 0
-27 -19 -109 0
-27 -19 -110 0
-27 -3 -26 0
-27 -3 -24 0
-27 -51 -132 0
-27 -51 -131 0
-27 -59 -135 0
-27 -59 -136 0
-27 -15 -93 0
-27 -15 -94 0
-27 -58 -133 0
-27 -58 -134 0
-27 -39 -127 0
-27 -39 -128 0
-27 -45 -129 0
-27 -45 -130 0
-27 -6 -75 0
-27 -6 -76 0
-19 -3 -17 0
-19 -3 -18 0
-19 -51 -118 0
-19 -51 -117 0
-19 -59 -122 0
-19 -59 -121 0
-19 -15 -92 0
-19 -15 -91 0
-19 -58 -120 0
-19 -58 -119 0
-19 -39 -113 0
-19 -39 -114 0
-19 -45 -115 0
-19 -45 -116 0
-19 -6 -73 0
-19 -6 -74 0
-3 -51 -50 0
-3 -51 -47 0
-3 -59 -63 0
-3 -59 -62 0
-3 -15 -12 0
-3 -15 -11 0
-3 -58 -56 0
-3 -58 -53 0
-3 -39 -40 0
-3 -39 -38 0
-3 -45 -42 0
-3 -45 -46 0
-3 -6 -10 0
-3 -6 -5 0
-51 -59 -172 0
-51 -59 -171 0
-51 -15 -101 0
-51 -15 -102 0
-51 -58 -169 0
-51 -58 -170 0
-51 -39 -154 0
-51 -39 -153 0
-51 -45 -161 0
-51 -45 -162 0
-51 -6 -84 0
-51 -6 -83 0
-59 -15 -105 0
-59 -15 -106 0
-59 -58 -175 0
-59 -58 -176 0
-59 -39 -157 0
-59 -39 -158 0
-59 -45 -166 0
-59 -45 -165 0
-59 -6 -87 0
-59 -6 -88 0
-15 -58 -104 0
-15 -58 -103 0
-15 -39 -97 0
-15 -39 -98 0
-15 -45 -100 0
-15 -45 -99 0
-15 -6 -71 0
-15 -6 -72 0
-58 -39 -155 0
-58 -39 -156 0
-58 -45 -164 0
-58 -45 -163 0
-58 -6 -86 0
-58 -6 -85 0
-39 -45 -152 0
-39 -45 -151 0
-39 -6 -80 0
-39 -6 -79 0
-45 -6 -81 0
-45 -6 -82 0
-149 -31 -68 0
-149 -32 -70 0
-125 -31 -23 0
-125 -32 -28 0
-112 -31 -22 0
-112 -32 -21 0
-33 -31 -1 0
-33 -32 -4 0
-144 -31 -48 0
-144 -32 -52 0
-148 -31 -60 0
-148 -32 -64 0
-95 -31 -13 0
-95 -32 -14 0
-146 -31 -54 0
-146 -32 -55 0
-140 -31 -36 0
-140 -32 -35 0
-141 -31 -44 0
-141 -32 -41 0
-78 -31 -8 0
-78 -32 -9 0
-150 -31 -68 0
-150 -32 -70 0
-138 -68 -23 0
-138 -70 -28 0
-124 -68 -22 0
-124 -70 -21 0
-67 -68 -1 0
-67 -70 -4 0
-173 -68 -48 0
-173 -70 -52 0
-179 -68 -60 0
-179 -70 -64 0
-107 -68 -13 0
-107 -70 -14 0
-178 -68 -54 0
-178 -70 -55 0
-160 -68 -36 0
-160 -70 -35 0
-167 -68 -44 0
-167 -70 -41 0
-90 -68 -8 0
-90 -70 -9 0
-126 -31 -23 0
-126 -32 -28 0
-137 -68 -23 0
-137 -70 -28 0
-109 -23 -22 0
-109 -28 -21 0
-26 -23 -1 0
-26 -28 -4 0
-132 -23 -48 0
-132 -28 -52 0
-135 -23 -60 0
-135 -28 -64 0
-93 -23 -13 0
-93 -28 -14 0
-133 -23 -54 0
-133 -28 -55 0
-127 -23 -36 0
-127 -28 -35 0
-129 -23 -44 0
-129 -28 -41 0
-75 -23 -8 0
-75 -28 -9 0
-111 -31 -22 0
-111 -32 -21 0
-123 -68 -22 0
-123 -70 -21 0
-110 -23 -22 0
-110 -28 -21 0
-17 -22 -1 0
-17 -21 -4 0
-118 -22 -48 0
-118 -21 -52 0
-122 -22 -60 0
-122 -21 -64 0
-92 -22 -13 0
-92 -21 -14 0
-120 -22 -54 0
-120 -21 -55 0
-113 -22 -36 0
-113 -21 -35 0
-115 -22 -44 0
-115 -21 -41 0
-73 -22 -8 0
-73 -21 -9 0
-34 -31 -1 0
-34 -32 -4 0
-69 -68 -1 0
-69 -70 -4 0
-24 -23 -1 0
-24 -28 -4 0
-18 -22 -1 0
-18 -21 -4 0
-50 -1 -48 0
-50 -4 -52 0
-63 -1 -60 0
-63 -4 -64 0
-12 -1 -13 0
-12 -4 -14 0
-56 -1 -54 0
-56 -4 -55 0
-40 -1 -36 0
-40 -4 -35 0
-42 -1 -44 0
-42 -4 -41 0
-10 -1 -8 0
-10 -4 -9 0
-143 -31 -48 0
-143 -32 -52 0
-174 -68 -48 0
-174 -70 -52 0
-131 -23 -48 0
-131 -28 -52 0
-117 -22 -48 0
-117 -21 -52 0
-47 -1 -48 0
-47 -4 -52 0
-172 -48 -60 0
-172 -52 -64 0
-101 -48 -13 0
-101 -52 -14 0
-169 -48 -54 0
-169 -52 -55 0
-154 -48 -36 0
-154 -52 -35 0
-161 -48 -44 0
-161 -52 -41 0
-84 -48 -8 0
-84 -52 -9 0
-147 -31 -60 0
-147 -32 -64 0
-180 -68 -60 0
-180 -70 -64 0
-136 -23 -60 0
-136 -28 -64 0
-121 -22 -60 0
-121 -21 -64 0
-62 -1 -60 0
-62 -4 -64 0
-171 -48 -60 0
-171 -52 -64 0
-105 -60 -13 0
-105 -64 -14 0
-175 -60 -54 0
-175 -64 -55 0
-157 -60 -36 0
-157 -64 -35 0
-166 -60 -44 0
-166 -64 -41 0
-87 -60 -8 0
-87 -64 -9 0
-96 -31 -13 0
-96 -32 -14 0
-108 -68 -13 0
-108 -70 -14 0
-94 -23 -13 0
-94 -28 -14 0
-91 -22 -13 0
-91 -21 -14 0
-11 -1 -13 0
-11 -4 -14 0
-102 -48 -13 0
-102 -52 -14 0
-106 -60 -13 0
-106 -64 -14 0
-104 -13 -54 0
-104 -14 -55 0
-97 -13 -36 0
-97 -14 -35 0
-100 -13 -44 0
-100 -14 -41 0
-71 -13 -8 0
-71 -14 -9 0
-145 -31 -54 0
-145 -32 -55 0
-177 -68 -54 0
-177 -70 -55 0
-134 -23 -54 0
-134 -28 -55 0
-119 -22 -54 0
-119 -21 -55 0
-53 -1 -54 0
-53 -4 -55 0
-170 -48 -54 0
-170 -52 -55 0
-176 -60 -54 0
-176 -64 -55 0
-103 -13 -54 0
-103 -14 -55 0
-155 -54 -36 0
-155 -55 -35 0
-164 -54 -44 0
-164 -55 -41 0
-86 -54 -8 0
-86 -55 -9 0
-139 -31 -36 0
-139 -32 -35 0
-159 -68 -36 0
-159 -70 -35 0
-128 -23 -36 0
-128 -28 -35 0
-114 -22 -36 0
-114 -21 -35 0
-38 -1 -36 0
-38 -4 -35 0
-153 -48 -36 0
-153 -52 -35 0
-158 -60 -36 0
-158 -64 -35 0
-98 -13 -36 0
-98 -14 -35 0
-156 -54 -36 0
-156 -55 -35 0
-152 -36 -44 0
-152 -35 -41 0
-80 -36 -8 0
-80 -35 -9 0
-142 -31 -44 0
-142 -32 -41 0
-168 -68 -44 0
-168 -70 -41 0
-130 -23 -44 0
-130 -28 -41 0
-116 -22 -44 0
-116 -21 -41 0
-46 -1 -44 0
-46 -4 -41 0
-162 -48 -44 0
-162 -52 -41 0
-165 -60 -44 0
-165 -64 -41 0
-99 -13 -44 0
-99 -14 -41 0
-163 -54 -44 0
-163 -55 -41 0
-151 -36 -44 0
-151 -35 -41 0
-81 -44 -8 0
-81 -41 -9 0
-77 -31 -8 0
-77 -32 -9 0
-89 -68 -8 0
-89 -70 -9 0
-76 -23 -8 0
-76 -28 -9 0
-74 -22 -8 0
-74 -21 -9 0
-5 -1 -8 0
-5 -4 -9 0
-83 -48 -8 0
-83 -52 -9 0
-88 -60 -8 0
-88 -64 -9 0
-72 -13 -8 0
-72 -14 -9 0
-85 -54 -8 0
-85 -55 -9 0
-79 -36 -8 0
-79 -35 -9 0
-82 -44 -8 0
-82 -41 -9 0
29 149 125 112 33 144 148 95 146 140 141 78 0
150 66 138 124 67 173 179 107 178 160 167 90 0
126 137 25 109 26 132 135 93 133 127 129 75 0
111 123 110 20 17 118 122 92 120 113 115 73 0
34 69 24 18 2 50 63 12 56 40 42 10 0
143 174 131 117 47 49 172 101 169 154 161 84 0
147 180 136 121 62 171 61 105 175 157 166 87 0
96 108 94 91 11 102 106 16 104 97 100 71 0
145 177 134 119 53 170 176 103 57 155 164 86 0
139 159 128 114 38 153 158 98 156 37 152 80 0
142 168 130 116 46 162 165 99 163 151 43 81 0
77 89 76 74 5 83 88 72 85 79 82 7 0
