c G(2) E(2,2) R(2) B(2) E(4,2) B(4) G(4) E(2,4) E(4,4) R(4) E(8,2) E(8,8) E(2,8) G(8) R(8) B(8) G(12) R(12) E(2,12) B(12) E(12,12) E(12,2) E(2,0) R(0) G(0) E(0,2) B(0) E(0,0) B(3) E(3,2) G(3) E(3,3) E(2,3) R(3) R(1) E(2,1) E(1,1) B(1) G(1) E(1,2) E(5,2) R(5) B(5) E(5,5) G(5) E(2,5) E(6,6) G(6) E(2,6) R(6) B(6) E(6,2) G(10) R(10) E(10,10) B(10) E(10,2) E(2,10) E(9,9) E(2,9) R(9) G(9) E(9,2) B(9) R(7) B(7) E(7,7) E(7,2) G(7) E(2,7) R(11) G(11) E(2,11) E(11,2) E(11,11) B(11) E(4,8) E(8,4) E(4,12) E(12,4) E(4,0) E(0,4) E(3,4) E(4,3) E(4,1) E(1,4) E(4,5) E(5,4) E(6,4) E(4,6) E(4,10) E(10,4) E(4,9) E(9,4) E(4,7) E(7,4) E(4,11) E(11,4) E(12,8) E(8,12) E(8,0) E(0,8) E(3,8) E(8,3) E(1,8) E(8,1) E(5,8) E(8,5) E(6,8) E(8,6) E(10,8) E(8,10) E(8,9) E(9,8) E(8,7) E(7,8) E(11,8) E(8,11) E(12,0) E(0,12) E(12,3) E(3,12) E(1,12) E(12,1) E(5,12) E(12,5) E(12,6) E(6,12) E(10,12) E(12,10) E(9,12) E(12,9) E(7,12) E(12,7) E(12,11) E(11,12) E(0,3) E(3,0) E(1,0) E(0,1) E(5,0) E(0,5) E(0,6) E(6,0) E(10,0) E(0,10) E(9,0) E(0,9) E(0,7) E(7,0) E(0,11) E(11,0) E(3,1) E(1,3) E(5,3) E(3,5) E(3,6) E(6,3) E(10,3) E(3,10) E(3,9) E(9,3) E(7,3) E(3,7) E(3,11) E(11,3) E(1,5) E(5,1) E(6,1) E(1,6) E(10,1) E(1,10) E(1,9) E(9,1) E(1,7) E(7,1) E(11,1) E(1,11) E(5,6) E(6,5) E(10,5) E(5,10) E(5,9) E(9,5) E(7,5) E(5,7) E(5,11) E(11,5) E(6,10) E(10,6) E(6,9) E(9,6) E(7,6) E(6,7) E(6,11) E(11,6) E(9,10) E(10,9) E(10,7) E(7,10) E(10,11) E(11,10) E(7,9) E(9,7) E(9,11) E(11,9) E(7,11) E(11,7)
c 1 2 3 4 5 6 7 8 9 10 11 12 13 14 15 16 17 18 19 20 21 22 23 24 25 26 27 28 29 30 31 32 33 34 35 36 37 38 39 40 41 42 43 44 45 46 47 48 49 50 51 52 53 54 55 56 57 58 59 60 61 62 63 64 65 66 67 68 69 70 71 72 73 74 75 76 77 78 79 80 81 82 83 84 85 86 87 88 89 90 91 92 93 94 95 96 97 98 99 100 101 102 103 104 105 106 107 108 109 110 111 112 113 114 115 116 117 118 119 120 121 122 123 124 125 126 127 128 129 130 131 132 133 134 135 136 137 138 139 140 141 142 143 144 145 146 147 148 149 150 151 152 153 154 155 156 157 158 159 160 161 162 163 164 165 166 167 168 169 170 171 172 173 174 175 176 177 178 179 180 181 182 183 184 185 186 187 188 189 190 191 192 193 194 195 196 197 198 199 200 201 202 203 204 205 206 207 208
p cnf 208 754
-28 0
-37 0
-55 0
-75 0
-21 0
-2 0
-32 0
-9 0
-44 0
-47 0
-67 0
-12 0
-59 0
28 -28 0
140 -139 0
146 -145 0
151 -152 0
120 -119 0
26 -23 0
137 -138 0
82 -81 0
142 -141 0
143 -144 0
149 -150 0
102 -101 0
148 -147 0
139 -140 0
37 -37 0
172 -171 0
178 -177 0
123 -124 0
40 -36 0
154 -153 0
86 -85 0
167 -168 0
170 -169 0
175 -176 0
105 -106 0
173 -174 0
145 -146 0
171 -172 0
55 -55 0
201 -202 0
129 -130 0
57 -58 0
159 -160 0
92 -91 0
181 -182 0
190 -189 0
199 -200 0
111 -112 0
198 -197 0
152 -151 0
177 -178 0
202 -201 0
75 -75 0
136 -135 0
74 -73 0
166 -165 0
98 -97 0
188 -187 0
196 -195 0
208 -207 0
117 -118 0
206 -205 0
119 -120 0
124 -123 0
130 -129 0
135 -136 0
21 -21 0
22 -19 0
121 -122 0
80 -79 0
126 -125 0
127 -128 0
134 -133 0
99 -100 0
132 -131 0
23 -26 0
36 -40 0
58 -57 0
73 -74 0
19 -22 0
2 -2 0
33 -30 0
8 -5 0
46 -41 0
49 -52 0
70 -68 0
13 -11 0
60 -63 0
138 -137 0
153 -154 0
160 -159 0
165 -166 0
122 -121 0
30 -33 0
32 -32 0
83 -84 0
156 -155 0
157 -158 0
164 -163 0
103 -104 0
161 -162 0
81 -82 0
85 -86 0
91 -92 0
97 -98 0
79 -80 0
5 -8 0
84 -83 0
9 -9 0
87 -88 0
90 -89 0
95 -96 0
77 -78 0
93 -94 0
141 -142 0
168 -167 0
182 -181 0
187 -188 0
125 -126 0
41 -46 0
155 -156 0
88 -87 0
44 -44 0
179 -180 0
186 -185 0
107 -108 0
183 -184 0
144 -143 0
169 -170 0
189 -190 0
195 -196 0
128 -127 0
52 -49 0
158 -157 0
89 -90 0
180 -179 0
47 -47 0
194 -193 0
109 -110 0
191 -192 0
150 -149 0
176 -175 0
200 -199 0
207 -208 0
133 -134 0
68 -70 0
163 -164 0
96 -95 0
185 -186 0
193 -194 0
67 -67 0
116 -115 0
203 -204 0
101 -102 0
106 -105 0
112 -111 0
118 -117 0
100 -99 0
11 -13 0
104 -103 0
78 -77 0
108 -107 0
110 -109 0
115 -116 0
12 -12 0
113 -114 0
147 -148 0
174 -173 0
197 -198 0
205 -206 0
131 -132 0
63 -60 0
162 -161 0
94 -93 0
184 -183 0
192 -191 0
204 -203 0
114 -113 0
59 -59 0
27 25 24 0
38 39 35 0
56 53 54 0
76 72 71 0
20 17 18 0
4 1 3 0
29 31 34 0
6 7 10 0
43 45 42 0
51 48 50 0
66 69 65 0
16 14 15 0
64 62 61 0
-27 -28 0
-27 -25 0
-27 -24 0
-38 -37 0
-38 -39 0
-38 -35 0
-56 -55 0
-56 -53 0
-56 -54 0
-76 -75 0
-76 -72 0
-76 -71 0
-20 -21 0
-20 -17 0
-20 -18 0
-4 -2 0
-4 -1 0
-4 -3 0
-29 -32 0
-29 -31 0
-29 -34 0
-6 -9 0
-6 -7 0
-6 -10 0
-43 -44 0
-43 -45 0
-43 -42 0
-51 -47 0
-51 -48 0
-51 -50 0
-66 -67 0
-66 -69 0
-66 -65 0
-16 -12 0
-16 -14 0
-16 -15 0
-64 -59 0
-64 -62 0
-64 -61 0
-28 -25 0
-28 -24 0
-37 -39 0
-37 -35 0
-55 -53 0
-55 -54 0
-75 -72 0
-75 -71 0
-21 -17 0
-21 -18 0
-2 -1 0
-2 -3 0
-32 -31 0
-32 -34 0
-9 -7 0
-9 -10 0
-44 -45 0
-44 -42 0
-47 -48 0
-47 -50 0
-67 -69 0
-67 -65 0
-12 -14 0
-12 -15 0
-59 -62 0
-59 -61 0
-25 -24 0
-39 -35 0
-53 -54 0
-72 -71 0
-17 -18 0
-1 -3 0
-31 -34 0
-7 -10 0
-45 -42 0
-48 -50 0
-69 -65 0
-14 -15 0
-62 -61 0
-27 -38 -140 0
-27 -38 -139 0
-27 -56 -146 0
-27 -56 -145 0
-27 -76 -151 0
-27 -76 -152 0
-27 -20 -120 0
-27 -20 -119 0
-27 -4 -26 0
-27 -4 -23 0
-27 -29 -137 0
-27 -29 -138 0
-27 -6 -82 0
-27 -6 -81 0
-27 -43 -142 0
-27 -43 -141 0
-27 -51 -143 0
-27 -51 -144 0
-27 -66 -149 0
-27 -66 -150 0
-27 -16 -102 0
-27 -16 -101 0
-27 -64 -148 0
-27 -64 -147 0
-38 -56 -172 0
-38 -56 -171 0
-38 -76 -178 0
-38 -76 -177 0
-38 -20 -123 0
-38 -20 -124 0
-38 -4 -40 0
-38 -4 -36 0
-38 -29 -154 0
-38 -29 -153 0
-38 -6 -86 0
-38 -6 -85 0
-38 -43 -167 0
-38 -43 -168 0
-38 -51 -170 0
-38 -51 -169 0
-38 -66 -175 0
-38 -66 -176 0
-38 -16 -105 0
-38 -16 -106 0
-38 -64 -173 0
-38 -64 -174 0
-56 -76 -201 0
-56 -76 -202 0
-56 -20 -129 0
-56 -20 -130 0
-56 -4 -57 0
-56 -4 -58 0
-56 -29 -159 0
-56 -29 -160 0
-56 -6 -92 0
-56 -6 -91 0
-56 -43 -181 0
-56 -43 -182 0
-56 -51 -190 0
-56 -51 -189 0
-56 -66 -199 0
-56 -66 -200 0
-56 -16 -111 0
-56 -16 -112 0
-56 -64 -198 0
-56 -64 -197 0
-76 -20 -136 0
-76 -20 -135 0
-76 -4 -74 0
-76 -4 -73 0
-76 -29 -166 0
-76 -29 -165 0
-76 -6 -98 0
-76 -6 -97 0
-76 -43 -188 0
-76 -43 -187 0
-76 -51 -196 0
-76 -51 -195 0
-76 -66 -208 0
-76 -66 -207 0
-76 -16 -117 0
-76 -16 -118 0
-76 -64 -206 0
-76 -64 -205 0
-20 -4 -22 0
-20 -4 -19 0
-20 -29 -121 0
-20 -29 -122 0
-20 -6 -80 0
-20 -6 -79 0
-20 -43 -126 0
-20 -43 -125 0
-20 -51 -127 0
-20 -51 -128 0
-20 -66 -134 0
-20 -66 -133 0
-20 -16 -99 0
-20 -16 -100 0
-20 -64 -132 0
-20 -64 -131 0
-4 -29 -33 0
-4 -29 -30 0
-4 -6 -8 0
-4 -6 -5 0
-4 -43 -46 0
-4 -43 -41 0
-4 -51 -49 0
-4 -51 -52 0
-4 -66 -70 0
-4 -66 -68 0
-4 -16 -13 0
-4 -16 -11 0
-4 -64 -60 0
-4 -64 -63 0
-29 -6 -83 0
-29 -6 -84 0
-29 -43 -156 0
-29 -43 -155 0
-29 -51 -157 0
-29 -51 -158 0
-29 -66 -164 0
-29 -66 -163 0
-29 -16 -103 0
-29 -16 -104 0
-29 -64 -161 0
-29 -64 -162 0
-6 -43 -87 0
-6 -43 -88 0
-6 -51 -90 0
-6 -51 -89 0
-6 -66 -95 0
-6 -66 -96 0
-6 -16 -77 0
-6 -16 -78 0
-6 -64 -93 0
-6 -64 -94 0
-43 -51 -179 0
-43 -51 -180 0
-43 -66 -186 0
-43 -66 -185 0
-43 -16 -107 0
-43 -16 -108 0
-43 -64 -183 0
-43 -64 -184 0
-51 -66 -194 0
-51 -66 -193 0
-51 -16 -109 0
-51 -16 -110 0
-51 -64 -191 0
-51 -64 -192 0
-66 -16 -116 0
-66 -16 -115 0
-66 -64 -203 0
-66 -64 -204 0
-16 -64 -113 0
-16 -64 -114 0
-140 -25 -39 0
-140 -24 -35 0
-146 -25 -53 0
-146 -24 -54 0
-151 -25 -72 0
-151 -24 -71 0
-120 -25 -17 0
-120 -24 -18 0
-26 -25 -1 0
-26 -24 -3 0
-137 -25 -31 0
-137 -24 -34 0
-82 -25 -7 0
-82 -24 -10 0
-142 -25 -45 0
-142 -24 -42 0
-143 -25 -48 0
-143 -24 -50 0
-149 -25 -69 0
-149 -24 -65 0
-102 -25 -14 0
-102 -24 -15 0
-148 -25 -62 0
-148 -24 -61 0
-139 -25 -39 0
-139 -24 -35 0
-172 -39 -53 0
-172 -35 -54 0
-178 -39 -72 0
-178 -35 -71 0
-123 -39 -17 0
-123 -35 -18 0
-40 -39 -1 0
-40 -35 -3 0
-154 -39 -31 0
-154 -35 -34 0
-86 -39 -7 0
-86 -35 -10 0
-167 -39 -45 0
-167 -35 -42 0
-170 -39 -48 0
-170 -35 -50 0
-175 -39 -69 0
-175 -35 -65 0
-105 -39 -14 0
-105 -35 -15 0
-173 -39 -62 0
-173 -35 -61 0
-145 -25 -53 0
-145 -24 -54 0
-171 -39 -53 0
-171 -35 -54 0
-201 -53 -72 0
-201 -54 -71 0
-129 -53 -17 0
-129 -54 -18 0
-57 -53 -1 0
-57 -54 -3 0
-159 -53 -31 0
-159 -54 -34 0
-92 -53 -7 0
-92 -54 -10 0
-181 -53 -45 0
-181 -54 -42 0
-190 -53 -48 0
-190 -54 -50 0
-199 -53 -69 0
-199 -54 -65 0
-111 -53 -14 0
-111 -54 -15 0
-198 -53 -62 0
-198 -54 -61 0
-152 -25 -72 0
-152 -24 -71 0
-177 -39 -72 0
-177 -35 -71 0
-202 -53 -72 0
-202 -54 -71 0
-136 -72 -17 0
-136 -71 -18 0
-74 -72 -1 0
-74 -71 -3 0
-166 -72 -31 0
-166 -71 -34 0
-98 -72 -7 0
-98 -71 -10 0
-188 -72 -45 0
-188 -71 -42 0
-196 -72 -48 0
-196 -71 -50 0
-208 -72 -69 0
-208 -71 -65 0
-117 -72 -14 0
-117 -71 -15 0
-206 -72 -62 0
-206 -71 -61 0
-119 -25 -17 0
-119 -24 -18 0
-124 -39 -17 0
-124 -35 -18 0
-130 -53 -17 0
-130 -54 -18 0
-135 -72 -17 0
-135 -71 -18 0
-22 -17 -1 0
-22 -18 -3 0
-121 -17 -31 0
-121 -18 -34 0
-80 -17 -7 0
-80 -18 -10 0
-126 -17 -45 0
-126 -18 -42 0
-127 -17 -48 0
-127 -18 -50 0
-134 -17 -69 0
-134 -18 -65 0
-99 -17 -14 0
-99 -18 -15 0
-132 -17 -62 0
-132 -18 -61 0
-23 -25 -1 0
-23 -24 -3 0
-36 -39 -1 0
-36 -35 -3 0
-58 -53 -1 0
-58 -54 -3 0
-73 -72 -1 0
-73 -71 -3 0
-19 -17 -1 0
-19 -18 -3 0
-33 -1 -31 0
-33 -3 -34 0
-8 -1 -7 0
-8 -3 -10 0
-46 -1 -45 0
-46 -3 -42 0
-49 -1 -48 0
-49 -3 -50 0
-70 -1 -69 0
-70 -3 -65 0
-13 -1 -14 0
-13 -3 -15 0
-60 -1 -62 0
-60 -3 -61 0
-138 -25 -31 0
-138 -24 -34 0
-153 -39 -31 0
-153 -35 -34 0
-160 -53 -31 0
-160 -54 -34 0
-165 -72 -31 0
-165 -71 -34 0
-122 -17 -31 0
-122 -18 -34 0
-30 -1 -31 0
-30 -3 -34 0
-83 -31 -7 0
-83 -34 -10 0
-156 -31 -45 0
-156 -34 -42 0
-157 -31 -48 0
-157 -34 -50 0
-164 -31 -69 0
-164 -34 -65 0
-103 -31 -14 0
-103 -34 -15 0
-161 -31 -62 0
-161 -34 -61 0
-81 -25 -7 0
-81 -24 -10 0
-85 -39 -7 0
-85 -35 -10 0
-91 -53 -7 0
-91 -54 -10 0
-97 -72 -7 0
-97 -71 -10 0
-79 -17 -7 0
-79 -18 -10 0
-5 -1 -7 0
-5 -3 -10 0
-84 -31 -7 0
-84 -34 -10 0
-87 -7 -45 0
-87 -10 -42 0
-90 -7 -48 0
-90 -10 -50 0
-95 -7 -69 0
-95 -10 -65 0
-77 -7 -14 0
-77 -10 -15 0
-93 -7 -62 0
-93 -10 -61 0
-141 -25 -45 0
-141 -24 -42 0
-168 -39 -45 0
-168 -35 -42 0
-182 -53 -45 0
-182 -54 -42 0
-187 -72 -45 0
-187 -71 -42 0
-125 -17 -45 0
-125 -18 -42 0
-41 -1 -45 0
-41 -3 -42 0
-155 -31 -45 0
-155 -34 -42 0
-88 -7 -45 0
-88 -10 -42 0
-179 -45 -48 0
-179 -42 -50 0
-186 -45 -69 0
-186 -42 -65 0
-107 -45 -14 0
-107 -42 -15 0
-183 -45 -62 0
-183 -42 -61 0
-144 -25 -48 0
-144 -24 -50 0
-169 -39 -48 0
-169 -35 -50 0
-189 -53 -48 0
-189 -54 -50 0
-195 -72 -48 0
-195 -71 -50 0
-128 -17 -48 0
-128 -18 -50 0
-52 -1 -48 0
-52 -3 -50 0
-158 -31 -48 0
-158 -34 -50 0
-89 -7 -48 0
-89 -10 -50 0
-180 -45 -48 0
-180 -42 -50 0
-194 -48 -69 0
-194 -50 -65 0
-109 -48 -14 0
-109 -50 -15 0
-191 -48 -62 0
-191 -50 -61 0
-150 -25 -69 0
-150 -24 -65 0
-176 -39 -69 0
-176 -35 -65 0
-200 -53 -69 0
-200 -54 -65 0
-207 -72 -69 0
-207 -71 -65 0
-133 -17 -69 0
-133 -18 -65 0
-68 -1 -69 0
-68 -3 -65 0
-163 -31 -69 0
-163 -34 -65 0
-96 -7 -69 0
-96 -10 -65 0
-185 -45 -69 0
-185 -42 -65 0
-193 -48 -69 0
-193 -50 -65 0
-116 -69 -14 0
-116 -65 -15 0
-203 -69 -62 0
-203 -65 -61 0
-101 -25 -14 0
-101 -24 -15 0
-106 -39 -14 0
-106 -35 -15 0
-112 -53 -14 0
-112 -54 -15 0
-118 -72 -14 0
-118 -71 -15 0
-100 -17 -14 0
-100 -18 -15 0
-11 -1 -14 0
-11 -3 -15 0
-104 -31 -14 0
-104 -34 -15 0
-78 -7 -14 0
-78 -10 -15 0
-108 -45 -14 0
-108 -42 -15 0
-110 -48 -14 0
-110 -50 -15 0
-115 -69 -14 0
-115 -65 -15 0
-113 -14 -62 0
-113 -15 -61 0
-147 -25 -62 0
-147 -24 -61 0
-174 -39 -62 0
-174 -35 -61 0
-197 -53 -62 0
-197 -54 -61 0
-205 -72 -62 0
-205 -71 -61 0
-131 -17 -62 0
-131 -18 -61 0
-63 -1 -62 0
-63 -3 -61 0
-162 -31 -62 0
-162 -34 -61 0
-94 -7 -62 0
-94 -10 -61 0
-184 -45 -62 0
-184 -42 -61 0
-192 -48 -62 0
-192 -50 -61 0
-204 -69 -62 0
-204 -65 -61 0
-114 -14 -62 0
-114 -15 -61 0
28 140 146 151 120 26 137 82 142 143 149 102 148 0
139 37 172 178 123 40 154 86 167 170 175 105 173 0
145 171 55 201 129 57 159 92 181 190 199 111 198 0
152 177 202 75 136 74 166 98 188 196 208 117 206 0
119 124 130 135 21 22 121 80 126 127 134 99 132 0
23 36 58 73 19 2 33 8 46 49 70 13 60 0
138 153 160 165 122 30 32 83 156 157 164 103 161 0
81 85 91 97 79 5 84 9 87 90 95 77 93 0
141 168 182 187 125 41 155 88 44 179 186 107 183 0
144 169 189 195 128 52 158 89 180 47 194 109 191 0
150 176 200 207 133 68 163 96 185 193 67 116 203 0
101 106 112 118 100 11 104 78 108 110 115 12 113 0
147 174 197 205 131 63 162 94 184 192 204 114 59 0
