c E(10,10) R(10) B(10) G(10) E(9,9) R(9) E(9,10) E(10,9) G(9) B(9) G(5) R(5) E(10,5) E(5,5) B(5) E(5,10) E(4,4) G(4) B(4) E(4,10) E(10,4) R(4) B(12) E(10,12) E(12,10) E(12,12) G(12) R(12) G(3) E(10,3) R(3) E(3,10) E(3,3) B(3) E(6,6) R(6) E(6,10) E(10,6) G(6) B(6) E(10,11) G(11) E(11,11) E(11,10) R(11) B(11) E(10,2) E(2,2) R(2) B(2) E(2,10) G(2) G(7) B(7) E(7,7) E(7,10) R(7) E(10,7) G(1) B(1) E(1,1) R(1) E(1,10) E(10,1) G(0) R(0) E(0,0) E(0,10) B(0) E(10,0) R(13) E(13,13) E(10,13) B(13) E(13,10) G(13) B(8) E(10,8) G(8) E(8,10) E(8,8) R(8) E(5,9) E(9,5) E(9,4) E(4,9) E(12,9) E(9,12) E(3,9) E(9,3) E(9,6) E(6,9) E(11,9) E(9,11) E(9,2) E(2,9) E(9,7) E(7,9) E(9,1) E(1,9) E(0,9) E(9,0) E(13,9) E(9,13) E(8,9) E(9,8) E(5,4) E(4,5) E(12,5) E(5,12) E(3,5) E(5,3) E(6,5) E(5,6) E(11,5) E(5,11) E(2,5) E(5,2) E(5,7) E(7,5) E(1,5) E(5,1) E(0,5) E(5,0) E(13,5) E(5,13) E(5,8) E(8,5) E(4,12) E(12,4) E(3,4) E(4,3) E(4,6) E(6,4) E(4,11) E(11,4) E(4,2) E(2,4) E(7,4) E(4,7) E(4,1) E(1,4) E(4,0) E(0,4) E(13,4) E(4,13) E(8,4) E(4,8) E(3,12) E(12,3) E(6,12) E(12,6) E(12,11) E(11,12) E(2,12) E(12,2) E(7,12) E(12,7) E(12,1) E(1,12) E(0,12) E(12,0) E(13,12) E(12,13) E(8,12) E(12,8) E(6,3) E(3,6) E(3,11) E(11,3) E(3,2) E(2,3) E(3,7) E(7,3) E(1,3) E(3,1) E(3,0) E(0,3) E(3,13) E(13,3) E(8,3) E(3,8) E(11,6) E(6,11) E(6,2) E(2,6) E(7,6) E(6,7) E(1,6) E(6,1) E(6,0) E(0,6) E(13,6) E(6,13) E(6,8) E(8,6) E(2,11) E(11,2) E(11,7) E(7,11) E(1,11) E(11,1) E(11,0) E(0,11) E(13,11) E(11,13) E(8,11) E(11,8) E(7,2) E(2,7) E(2,1) E(1,2) E(0,2) E(2,0) E(13,2) E(2,13) E(2,8) E(8,2) E(7,1) E(1,7) E(7,0) E(0,7) E(13,7) E(7,13) E(7,8) E(8,7) E(1,0) E(0,1) E(13,1) E(1,13) E(1,8) E(8,1) E(13,0) E(0,13) E(8,0) E(0,8) E(8,13) E(13,8)
c 1 2 3 4 5 6 7 8 9 10 11 12 13 14 15 16 17 18 19 20 21 22 23 24 25 26 27 28 29 30 31 32 33 34 35 36 37 38 39 40 41 42 43 44 45 46 47 48 49 50 51 52 53 54 55 56 57 58 59 60 61 62 63 64 65 66 67 68 69 70 71 72 73 74 75 76 77 78 79 80 81 82 83 84 85 86 87 88 89 90 91 92 93 94 95 96 97 98 99 100 101 102 103 104 105 106 107 108 109 110 111 112 113 114 115 116 117 118 119 120 121 122 123 124 125 126 127 128 129 130 131 132 133 134 135 136 137 138 139 140 141 142 143 144 145 146 147 148 149 150 151 152 153 154 155 156 157 158 159 160 161 162 163 164 165 166 167 168 169 170 171 172 173 174 175 176 177 178 179 180 181 182 183 184 185 186 187 188 189 190 191 192 193 194 195 196 197 198 199 200 201 202 203 204 205 206 207 208 209 210 211 212 213 214 215 216 217 218 219 220 221 222 223 224 225 226 227 228 229 230 231 232 233 234 235 236 237 238
p cnf 238 868
-67 0
-61 0
-1 0
-43 0
-26 0
-72 0
-48 0
-33 0
-17 0
-14 0
-35 0
-55 0
-81 0
-5 0
67 -67 0
228 -227 0
68 -70 0
204 -203 0
161 -162 0
234 -233 0
213 -214 0
178 -177 0
144 -143 0
123 -124 0
192 -191 0
222 -221 0
236 -235 0
101 -102 0
227 -228 0
61 -61 0
63 -64 0
201 -202 0
160 -159 0
230 -229 0
212 -211 0
175 -176 0
142 -141 0
121 -122 0
189 -190 0
220 -219 0
231 -232 0
100 -99 0
70 -68 0
64 -63 0
1 -1 0
41 -44 0
24 -25 0
73 -75 0
47 -51 0
30 -32 0
21 -20 0
13 -16 0
38 -37 0
58 -56 0
78 -80 0
8 -7 0
203 -204 0
202 -201 0
44 -41 0
43 -43 0
154 -153 0
206 -205 0
198 -197 0
170 -169 0
136 -135 0
115 -116 0
183 -184 0
199 -200 0
208 -207 0
93 -94 0
162 -161 0
159 -160 0
25 -24 0
153 -154 0
26 -26 0
164 -163 0
156 -155 0
150 -149 0
130 -129 0
109 -110 0
152 -151 0
158 -157 0
166 -165 0
87 -88 0
233 -234 0
229 -230 0
75 -73 0
205 -206 0
163 -164 0
72 -72 0
215 -216 0
180 -179 0
145 -146 0
125 -126 0
193 -194 0
223 -224 0
238 -237 0
103 -104 0
214 -213 0
211 -212 0
51 -47 0
197 -198 0
155 -156 0
216 -215 0
48 -48 0
172 -171 0
138 -137 0
117 -118 0
186 -185 0
210 -209 0
217 -218 0
96 -95 0
177 -178 0
176 -175 0
32 -30 0
169 -170 0
149 -150 0
179 -180 0
171 -172 0
33 -33 0
131 -132 0
111 -112 0
168 -167 0
173 -174 0
182 -181 0
89 -90 0
143 -144 0
141 -142 0
20 -21 0
135 -136 0
129 -130 0
146 -145 0
137 -138 0
132 -131 0
17 -17 0
108 -107 0
133 -134 0
140 -139 0
148 -147 0
86 -85 0
124 -123 0
122 -121 0
16 -13 0
116 -115 0
110 -109 0
126 -125 0
118 -117 0
112 -111 0
107 -108 0
14 -14 0
114 -113 0
119 -120 0
127 -128 0
83 -84 0
191 -192 0
190 -189 0
37 -38 0
184 -183 0
151 -152 0
194 -193 0
185 -186 0
167 -168 0
134 -133 0
113 -114 0
35 -35 0
188 -187 0
195 -196 0
92 -91 0
221 -222 0
219 -220 0
56 -58 0
200 -199 0
157 -158 0
224 -223 0
209 -210 0
174 -173 0
139 -140 0
120 -119 0
187 -188 0
55 -55 0
225 -226 0
98 -97 0
235 -236 0
232 -231 0
80 -78 0
207 -208 0
165 -166 0
237 -238 0
218 -217 0
181 -182 0
147 -148 0
128 -127 0
196 -195 0
226 -225 0
81 -81 0
105 -106 0
102 -101 0
99 -100 0
7 -8 0
94 -93 0
88 -87 0
104 -103 0
95 -96 0
90 -89 0
85 -86 0
84 -83 0
91 -92 0
97 -98 0
106 -105 0
5 -5 0
69 65 66 0
60 59 62 0
3 4 2 0
46 42 45 0
23 27 28 0
74 76 71 0
50 52 49 0
34 29 31 0
19 18 22 0
15 11 12 0
40 39 36 0
54 53 57 0
77 79 82 0
10 9 6 0
-69 -67 0
-69 -65 0
-69 -66 0
-60 -61 0
-60 -59 0
-60 -62 0
-3 -1 0
-3 -4 0
-3 -2 0
-46 -43 0
-46 -42 0
-46 -45 0
-23 -26 0
-23 -27 0
-23 -28 0
-74 -72 0
-74 -76 0
-74 -71 0
-50 -48 0
-50 -52 0
-50 -49 0
-34 -33 0
-34 -29 0
-34 -31 0
-19 -17 0
-19 -18 0
-19 -22 0
-15 -14 0
-15 -11 0
-15 -12 0
-40 -35 0
-40 -39 0
-40 -36 0
-54 -55 0
-54 -53 0
-54 -57 0
-77 -81 0
-77 -79 0
-77 -82 0
-10 -5 0
-10 -9 0
-10 -6 0
-67 -65 0
-67 -66 0
-61 -59 0
-61 -62 0
-1 -4 0
-1 -2 0
-43 -42 0
-43 -45 0
-26 -27 0
-26 -28 0
-72 -76 0
-72 -71 0
-48 -52 0
-48 -49 0
-33 -29 0
-33 -31 0
-17 -18 0
-17 -22 0
-14 -11 0
-14 -12 0
-35 -39 0
-35 -36 0
-55 -53 0
-55 -57 0
-81 -79 0
-81 -82 0
-5 -9 0
-5 -6 0
-65 -66 0
-59 -62 0
-4 -2 0
-42 -45 0
-27 -28 0
-76 -71 0
-52 -49 0
-29 -31 0
-18 -22 0
-11 -12 0
-39 -36 0
-53 -57 0
-79 -82 0
-9 -6 0
-69 -60 -228 0
-69 -60 -227 0
-69 -3 -68 0
-69 -3 -70 0
-69 -46 -204 0
-69 -46 -203 0
-69 -23 -161 0
-69 -23 -162 0
-69 -74 -234 0
-69 -74 -233 0
-69 -50 -213 0
-69 -50 -214 0
-69 -34 -178 0
-69 -34 -177 0
-69 -19 -144 0
-69 -19 -143 0
-69 -15 -123 0
-69 -15 -124 0
-69 -40 -192 0
-69 -40 -191 0
-69 -54 -222 0
-69 -54 -221 0
-69 -77 -236 0
-69 -77 -235 0
-69 -10 -101 0
-69 -10 -102 0
-60 -3 -63 0
-60 -3 -64 0
-60 -46 -201 0
-60 -46 -202 0
-60 -23 -160 0
-60 -23 -159 0
-60 -74 -230 0
-60 -74 -229 0
-60 -50 -212 0
-60 -50 -211 0
-60 -34 -175 0
-60 -34 -176 0
-60 -19 -142 0
-60 -19 -141 0
-60 -15 -121 0
-60 -15 -122 0
-60 -40 -189 0
-60 -40 -190 0
-60 -54 -220 0
-60 -54 -219 0
-60 -77 -231 0
-60 -77 -232 0
-60 -10 -100 0
-60 -10 -99 0
-3 -46 -41 0
-3 -46 -44 0
-3 -23 -24 0
-3 -23 -25 0
-3 -74 -73 0
-3 -74 -75 0
-3 -50 -47 0
-3 -50 -51 0
-3 -34 -30 0
-3 -34 -32 0
-3 -19 -21 0
-3 -19 -20 0
-3 -15 -13 0
-3 -15 -16 0
-3 -40 -38 0
-3 -40 -37 0
-3 -54 -58 0
-3 -54 -56 0
-3 -77 -78 0
-3 -77 -80 0
-3 -10 -8 0
-3 -10 -7 0
-46 -23 -154 0
-46 -23 -153 0
-46 -74 -206 0
-46 -74 -205 0
-46 -50 -198 0
-46 -50 -197 0
-46 -34 -170 0
-46 -34 -169 0
-46 -19 -136 0
-46 -19 -135 0
-46 -15 -115 0
-46 -15 -116 0
-46 -40 -183 0
-46 -40 -184 0
-46 -54 -199 0
-46 -54 -200 0
-46 -77 -208 0
-46 -77 -207 0
-46 -10 -93 0
-46 -10 -94 0
-23 -74 -164 0
-23 -74 -163 0
-23 -50 -156 0
-23 -50 -155 0
-23 -34 -150 0
-23 -34 -149 0
-23 -19 -130 0
-23 -19 -129 0
-23 -15 -109 0
-23 -15 -110 0
-23 -40 -152 0
-23 -40 -151 0
-23 -54 -158 0
-23 -54 -157 0
-23 -77 -166 0
-23 -77 -165 0
-23 -10 -87 0
-23 -10 -88 0
-74 -50 -215 0
-74 -50 -216 0
-74 -34 -180 0
-74 -34 -179 0
-74 -19 -145 0
-74 -19 -146 0
-74 -15 -125 0
-74 -15 -126 0
-74 -40 -193 0
-74 -40 -194 0
-74 -54 -223 0
-74 -54 -224 0
-74 -77 -238 0
-74 -77 -237 0
-74 -10 -103 0
-74 -10 -104 0
-50 -34 -172 0
-50 -34 -171 0
-50 -19 -138 0
-50 -19 -137 0
-50 -15 -117 0
-50 -15 -118 0
-50 -40 -186 0
-50 -40 -185 0
-50 -54 -210 0
-50 -54 -209 0
-50 -77 -217 0
-50 -77 -218 0
-50 -10 -96 0
-50 -10 -95 0
-34 -19 -131 0
-34 -19 -132 0
-34 -15 -111 0
-34 -15 -112 0
-34 -40 -168 0
-34 -40 -167 0
-34 -54 -173 0
-34 -54 -174 0
-34 -77 -182 0
-34 -77 -181 0
-34 -10 -89 0
-34 -10 -90 0
-19 -15 -108 0
-19 -15 -107 0
-19 -40 -133 0
-19 -40 -134 0
-19 -54 -140 0
-19 -54 -139 0
-19 -77 -148 0
-19 -77 -147 0
-19 -10 -86 0
-19 -10 -85 0
-15 -40 -114 0
-15 -40 -113 0
-15 -54 -119 0
-15 -54 -120 0
-15 -77 -127 0
-15 -77 -128 0
-15 -10 -83 0
-15 -10 -84 0
-40 -54 -188 0
-40 -54 -187 0
-40 -77 -195 0
-40 -77 -196 0
-40 -10 -92 0
-40 -10 -91 0
-54 -77 -225 0
-54 -77 -226 0
-54 -10 -98 0
-54 -10 -97 0
-77 -10 -105 0
-77 -10 -106 0
-228 -65 -59 0
-228 -66 -62 0
-68 -65 -4 0
-68 -66 -2 0
-204 -65 -42 0
-204 -66 -45 0
-161 -65 -27 0
-161 -66 -28 0
-234 -65 -76 0
-234 -66 -71 0
-213 -65 -52 0
-213 -66 -49 0
-178 -65 -29 0
-178 -66 -31 0
-144 -65 -18 0
-144 -66 -22 0
-123 -65 -11 0
-123 -66 -12 0
-192 -65 -39 0
-192 -66 -36 0
-222 -65 -53 0
-222 -66 -57 0
-236 -65 -79 0
-236 -66 -82 0
-101 -65 -9 0
-101 -66 -6 0
-227 -65 -59 0
-227 -66 -62 0
-63 -59 -4 0
-63 -62 -2 0
-201 -59 -42 0
-201 -62 -45 0
-160 -59 -27 0
-160 -62 -28 0
-230 -59 -76 0
-230 -62 -71 0
-212 -59 -52 0
-212 -62 -49 0
-175 -59 -29 0
-175 -62 -31 0
-142 -59 -18 0
-142 -62 -22 0
-121 -59 -11 0
-121 -62 -12 0
-189 -59 -39 0
-189 -62 -36 0
-220 -59 -53 0
-220 -62 -57 0
-231 -59 -79 0
-231 -62 -82 0
-100 -59 -9 0
-100 -62 -6 0
-70 -65 -4 0
-70 -66 -2 0
-64 -59 -4 0
-64 -62 -2 0
-41 -4 -42 0
-41 -2 -45 0
-24 -4 -27 0
-24 -2 -28 0
-73 -4 -76 0
-73 -2 -71 0
-47 -4 -52 0
-47 -2 -49 0
-30 -4 -29 0
-30 -2 -31 0
-21 -4 -18 0
-21 -2 -22 0
-13 -4 -11 0
-13 -2 -12 0
-38 -4 -39 0
-38 -2 -36 0
-58 -4 -53 0
-58 -2 -57 0
-78 -4 -79 0
-78 -2 -82 0
-8 -4 -9 0
-8 -2 -6 0
-203 -65 -42 0
-203 -66 -45 0
-202 -59 -42 0
-202 -62 -45 0
-44 -4 -42 0
-44 -2 -45 0
-154 -42 -27 0
-154 -45 -28 0
-206 -42 -76 0
-206 -45 -71 0
-198 -42 -52 0
-198 -45 -49 0
-170 -42 -29 0
-170 -45 -31 0
-136 -42 -18 0
-136 -45 -22 0
-115 -42 -11 0
-115 -45 -12 0
-183 -42 -39 0
-183 -45 -36 0
-199 -42 -53 0
-199 -45 -57 0
-208 -42 -79 0
-208 -45 -82 0
-93 -42 -9 0
-93 -45 -6 0
-162 -65 -27 0
-162 -66 -28 0
-159 -59 -27 0
-159 -62 -28 0
-25 -4 -27 0
-25 -2 -28 0
-153 -42 -27 0
-153 -45 -28 0
-164 -27 -76 0
-164 -28 -71 0
-156 -27 -52 0
-156 -28 -49 0
-150 -27 -29 0
-150 -28 -31 0
-130 -27 -18 0
-130 -28 -22 0
-109 -27 -11 0
-109 -28 -12 0
-152 -27 -39 0
-152 -28 -36 0
-158 -27 -53 0
-158 -28 -57 0
-166 -27 -79 0
-166 -28 -82 0
-87 -27 -9 0
-87 -28 -6 0
-233 -65 -76 0
-233 -66 -71 0
-229 -59 -76 0
-229 -62 -71 0
-75 -4 -76 0
-75 -2 -71 0
-205 -42 -76 0
-205 -45 -71 0
-163 -27 -76 0
-163 -28 -71 0
-215 -76 -52 0
-215 -71 -49 0
-180 -76 -29 0
-180 -71 -31 0
-145 -76 -18 0
-145 -71 -22 0
-125 -76 -11 0
-125 -71 -12 0
-193 -76 -39 0
-193 -71 -36 0
-223 -76 -53 0
-223 -71 -57 0
-238 -76 -79 0
-238 -71 -82 0
-103 -76 -9 0
-103 -71 -6 0
-214 -65 -52 0
-214 -66 -49 0
-211 -59 -52 0
-211 -62 -49 0
-51 -4 -52 0
-51 -2 -49 0
-197 -42 -52 0
-197 -45 -49 0
-155 -27 -52 0
-155 -28 -49 0
-216 -76 -52 0
-216 -71 -49 0
-172 -52 -29 0
-172 -49 -31 0
-138 -52 -18 0
-138 -49 -22 0
-117 -52 -11 0
-117 -49 -12 0
-186 -52 -39 0
-186 -49 -36 0
-210 -52 -53 0
-210 -49 -57 0
-217 -52 -79 0
-217 -49 -82 0
-96 -52 -9 0
-96 -49 -6 0
-177 -65 -29 0
-177 -66 -31 0
-176 -59 -29 0
-176 -62 -31 0
-32 -4 -29 0
-32 -2 -31 0
-169 -42 -29 0
-169 -45 -31 0
-149 -27 -29 0
-149 -28 -31 0
-179 -76 -29 0
-179 -71 -31 0
-171 -52 -29 0
-171 -49 -31 0
-131 -29 -18 0
-131 -31 -22 0
-111 -29 -11 0
-111 -31 -12 0
-168 -29 -39 0
-168 -31 -36 0
-173 -29 -53 0
-173 -31 -57 0
-182 -29 -79 0
-182 -31 -82 0
-89 -29 -9 0
-89 -31 -6 0
-143 -65 -18 0
-143 -66 -22 0
-141 -59 -18 0
-141 -62 -22 0
-20 -4 -18 0
-20 -2 -22 0
-135 -42 -18 0
-135 -45 -22 0
-129 -27 -18 0
-129 -28 -22 0
-146 -76 -18 0
-146 -71 -22 0
-137 -52 -18 0
-137 -49 -22 0
-132 -29 -18 0
-132 -31 -22 0
-108 -18 -11 0
-108 -22 -12 0
-133 -18 -39 0
-133 -22 -36 0
-140 -18 -53 0
-140 -22 -57 0
-148 -18 -79 0
-148 -22 -82 0
-86 -18 -9 0
-86 -22 -6 0
-124 -65 -11 0
-124 -66 -12 0
-122 -59 -11 0
-122 -62 -12 0
-16 -4 -11 0
-16 -2 -12 0
-116 -42 -11 0
-116 -45 -12 0
-110 -27 -11 0
-110 -28 -12 0
-126 -76 -11 0
-126 -71 -12 0
-118 -52 -11 0
-118 -49 -12 0
-112 -29 -11 0
-112 -31 -12 0
-107 -18 -11 0
-107 -22 -12 0
-114 -11 -39 0
-114 -12 -36 0
-119 -11 -53 0
-119 -12 -57 0
-127 -11 -79 0
-127 -12 -82 0
-83 -11 -9 0
-83 -12 -6 0
-191 -65 -39 0
-191 -66 -36 0
-190 -59 -39 0
-190 -62 -36 0
-37 -4 -39 0
-37 -2 -36 0
-184 -42 -39 0
-184 -45 -36 0
-151 -27 -39 0
-151 -28 -36 0
-194 -76 -39 0
-194 -71 -36 0
-185 -52 -39 0
-185 -49 -36 0
-167 -29 -39 0
-167 -31 -36 0
-134 -18 -39 0
-134 -22 -36 0
-113 -11 -39 0
-113 -12 -36 0
-188 -39 -53 0
-188 -36 -57 0
-195 -39 -79 0
-195 -36 -82 0
-92 -39 -9 0
-92 -36 -6 0
-221 -65 -53 0
-221 -66 -57 0
-219 -59 -53 0
-219 -62 -57 0
-56 -4 -53 0
-56 -2 -57 0
-200 -42 -53 0
-200 -45 -57 0
-157 -27 -53 0
-157 -28 -57 0
-224 -76 -53 0
-224 -71 -57 0
-209 -52 -53 0
-209 -49 -57 0
-174 -29 -53 0
-174 -31 -57 0
-139 -18 -53 0
-139 -22 -57 0
-120 -11 -53 0
-120 -12 -57 0
-187 -39 -53 0
-187 -36 -57 0
-225 -53 -79 0
-225 -57 -82 0
-98 -53 -9 0
-98 -57 -6 0
-235 -65 -79 0
-235 -66 -82 0
-232 -59 -79 0
-232 -62 -82 0
-80 -4 -79 0
-80 -2 -82 0
-207 -42 -79 0
-207 -45 -82 0
-165 -27 -79 0
-165 -28 -82 0
-237 -76 -79 0
-237 -71 -82 0
-218 -52 -79 0
-218 -49 -82 0
-181 -29 -79 0
-181 -31 -82 0
-147 -18 -79 0
-147 -22 -82 0
-128 -11 -79 0
-128 -12 -82 0
-196 -39 -79 0
-196 -36 -82 0
-226 -53 -79 0
-226 -57 -82 0
-105 -79 -9 0
-105 -82 -6 0
-102 -65 -9 0
-102 -66 -6 0
-99 -59 -9 0
-99 -62 -6 0
-7 -4 -9 0
-7 -2 -6 0
-94 -42 -9 0
-94 -45 -6 0
-88 -27 -9 0
-88 -28 -6 0
-104 -76 -9 0
-104 -71 -6 0
-95 -52 -9 0
-95 -49 -6 0
-90 -29 -9 0
-90 -31 -6 0
-85 -18 -9 0
-85 -22 -6 0
-84 -11 -9 0
-84 -12 -6 0
-91 -39 -9 0
-91 -36 -6 0
-97 -53 -9 0
-97 -57 -6 0
-106 -79 -9 0
-106 -82 -6 0
67 228 68 204 161 234 213 178 144 123 192 222 236 101 0
227 61 63 201 160 230 212 175 142 121 189 220 231 100 0
70 64 1 41 24 73 47 30 21 13 38 58 78 8 0
203 202 44 43 154 206 198 170 136 115 183 199 208 93 0
162 159 25 153 26 164 156 150 130 109 152 158 166 87 0
233 229 75 205 163 72 215 180 145 125 193 223 238 103 0
214 211 51 197 155 216 48 172 138 117 186 210 217 96 0
177 176 32 169 149 179 171 33 131 111 168 173 182 89 0
143 141 20 135 129 146 137 132 17 108 133 140 148 86 0
124 122 16 116 110 126 118 112 107 14 114 119 127 83 0
191 190 37 184 151 194 185 167 134 113 35 188 195 92 0
221 219 56 200 157 224 209 174 139 120 187 55 225 98 0
235 232 80 207 165 237 218 181 147 128 196 226 81 105 0
102 99 7 94 88 104 95 90 85 84 91 97 106 5 0
