c R(8) B(8) E(8,8) G(8) E(8,0) E(0,0) R(0) G(0) E(0,8) B(0) E(8,3) G(3) E(3,8) B(3) R(3) E(3,3) R(1) B(1) E(1,1) E(1,8) E(8,1) G(1) B(11) E(11,11) E(8,11) G(11) R(11) E(11,8) B(12) E(12,8) G(12) E(8,12) R(12) E(12,12) G(5) B(5) E(5,8) R(5) E(8,5) E(5,5) R(10) E(10,8) B(10) E(8,10) G(10) E(10,10) R(14) G(14) B(14) E(14,14) E(8,14) E(14,8) E(4,4) B(4) E(4,8) E(8,4) R(4) G(4) R(2) E(2,2) E(8,2) G(2) E(2,8) B(2) G(13) E(13,8) E(13,13) R(13) B(13) E(8,13) E(8,7) R(7) E(7,7) B(7) G(7) E(7,8) E(8,9) G(9) E(9,9) E(9,8) R(9) B(9) G(6) E(6,8) B(6) E(6,6) R(6) E(8,6) E(0,3) E(3,0) E(1,0) E(0,1) E(0,11) E(11,0) E(12,0) E(0,12) E(0,5) E(5,0) E(10,0) E(0,10) E(0,14) E(14,0) E(0,4) E(4,0) E(0,2) E(2,0) E(0,13) E(13,0) E(0,7) E(7,0) E(9,0) E(0,9) E(0,6) E(6,0) E(3,1) E(1,3) E(11,3) E(3,11) E(3,12) E(12,3) E(5,3) E(3,5) E(3,10) E(10,3) E(14,3) E(3,14) E(4,3) E(3,4) E(3,2) E(2,3) E(3,13) E(13,3) E(7,3) E(3,7) E(3,9) E(9,3) E(3,6) E(6,3) E(1,11) E(11,1) E(1,12) E(12,1) E(1,5) E(5,1) E(1,10) E(10,1) E(1,14) E(14,1) E(1,4) E(4,1) E(2,1) E(1,2) E(1,13) E(13,1) E(1,7) E(7,1) E(9,1) E(1,9) E(1,6) E(6,1) E(11,12) E(12,11) E(5,11) E(11,5) E(11,10) E(10,11) E(11,14) E(14,11) E(4,11) E(11,4) E(11,2) E(2,11) E(11,13) E(13,11) E(7,11) E(11,7) E(11,9) E(9,11) E(6,11) E(11,6) E(12,5) E(5,12) E(12,10) E(10,12) E(14,12) E(12,14) E(4,12) E(12,4) E(12,2) E(2,12) E(12,13) E(13,12) E(7,12) E(12,7) E(12,9) E(9,12) E(12,6) E(6,12) E(10,5) E(5,10) E(5,14) E(14,5) E(5,4) E(4,5) E(5,2) E(2,5) E(13,5) E(5,13) E(5,7) E(7,5) E(9,5) E(5,9) E(6,5) E(5,6) E(10,14) E(14,10) E(4,10) E(10,4) E(10,2) E(2,10) E(13,10) E(10,13) E(10,7) E(7,10) E(9,10) E(10,9) E(6,10) E(10,6) E(14,4) E(4,14) E(14,2) E(2,14) E(14,13) E(13,14) E(14,7) E(7,14) E(9,14) E(14,9) E(14,6) E(6,14) E(4,2) E(2,4) E(4,13) E(13,4) E(7,4) E(4,7) E(4,9) E(9,4) E(4,6) E(6,4) E(13,2) E(2,13) E(2,7) E(7,2) E(9,2) E(2,9) E(6,2) E(2,6) E(7,13) E(13,7) E(13,9) E(9,13) E(6,13) E(13,6) E(7,9) E(9,7) E(7,6) E(6,7) E(6,9) E(9,6)
c 1 2 3 4 5 6 7 8 9 10 11 12 13 14 15 16 17 18 19 20 21 22 23 24 25 26 27 28 29 30 31 32 33 34 35 36 37 38 39 40 41 42 43 44 45 46 47 48 49 50 51 52 53 54 55 56 57 58 59 60 61 62 63 64 65 66 67 68 69 70 71 72 73 74 75 76 77 78 79 80 81 82 83 84 85 86 87 88 89 90 91 92 93 94 95 96 97 98 99 100 101 102 103 104 105 106 107 108 109 110 111 112 113 114 115 116 117 118 119 120 121 122 123 124 125 126 127 128 129 130 131 132 133 134 135 136 137 138 139 140 141 142 143 144 145 146 147 148 149 150 151 152 153 154 155 156 157 158 159 160 161 162 163 164 165 166 167 168 169 170 171 172 173 174 175 176 177 178 179 180 181 182 183 184 185 186 187 188 189 190 191 192 193 194 195 196 197 198 199 200 201 202 203 204 205 206 207 208 209 210 211 212 213 214 215 216 217 218 219 220 221 222 223 224 225 226 227 228 229 230 231 232 233 234 235 236 237 238 239 240 241 242 243 244 245 246 247 248 249 250 251 252 253 254 255 256 257 258 259 260 261 262 263 264 265 266 267 268 269 270
p cnf 270 990
-6 0
-19 0
-46 0
-24 0
-34 0
-67 0
-50 0
-60 0
-16 0
-53 0
-40 0
-86 0
-73 0
-3 0
-79 0
6 -6 0
92 -91 0
100 -99 0
93 -94 0
96 -95 0
107 -108 0
101 -102 0
105 -106 0
89 -90 0
103 -104 0
97 -98 0
113 -114 0
109 -110 0
9 -5 0
112 -111 0
91 -92 0
19 -19 0
145 -146 0
139 -140 0
141 -142 0
153 -154 0
147 -148 0
152 -151 0
116 -115 0
149 -150 0
143 -144 0
159 -160 0
155 -156 0
20 -21 0
158 -157 0
99 -100 0
146 -145 0
46 -46 0
166 -165 0
184 -183 0
222 -221 0
215 -216 0
219 -220 0
124 -123 0
218 -217 0
199 -200 0
228 -227 0
223 -224 0
42 -44 0
226 -225 0
94 -93 0
140 -139 0
165 -166 0
24 -24 0
161 -162 0
173 -174 0
167 -168 0
171 -172 0
117 -118 0
170 -169 0
164 -163 0
180 -179 0
176 -175 0
28 -25 0
177 -178 0
95 -96 0
142 -141 0
183 -184 0
162 -161 0
34 -34 0
191 -192 0
186 -185 0
189 -190 0
120 -119 0
188 -187 0
181 -182 0
197 -198 0
194 -193 0
30 -32 0
195 -196 0
108 -107 0
154 -153 0
221 -222 0
174 -173 0
192 -191 0
67 -67 0
234 -233 0
251 -252 0
132 -131 0
244 -243 0
207 -208 0
264 -263 0
260 -259 0
66 -70 0
261 -262 0
102 -101 0
148 -147 0
216 -215 0
168 -167 0
185 -186 0
233 -234 0
50 -50 0
231 -232 0
125 -126 0
229 -230 0
202 -201 0
239 -240 0
235 -236 0
52 -51 0
238 -237 0
106 -105 0
151 -152 0
220 -219 0
172 -171 0
190 -189 0
252 -251 0
232 -231 0
60 -60 0
130 -129 0
242 -241 0
206 -205 0
258 -257 0
253 -254 0
63 -61 0
256 -255 0
90 -89 0
115 -116 0
123 -124 0
118 -117 0
119 -120 0
131 -132 0
126 -125 0
129 -130 0
16 -16 0
128 -127 0
122 -121 0
137 -138 0
134 -133 0
13 -11 0
135 -136 0
104 -103 0
150 -149 0
217 -218 0
169 -170 0
187 -188 0
243 -244 0
230 -229 0
241 -242 0
127 -128 0
53 -53 0
204 -203 0
249 -250 0
246 -245 0
55 -56 0
247 -248 0
98 -97 0
144 -143 0
200 -199 0
163 -164 0
182 -181 0
208 -207 0
201 -202 0
205 -206 0
121 -122 0
203 -204 0
40 -40 0
214 -213 0
209 -210 0
37 -39 0
212 -211 0
114 -113 0
160 -159 0
227 -228 0
179 -180 0
198 -197 0
263 -264 0
240 -239 0
257 -258 0
138 -137 0
250 -249 0
213 -214 0
86 -86 0
268 -267 0
84 -88 0
269 -270 0
110 -109 0
156 -155 0
224 -223 0
175 -176 0
193 -194 0
259 -260 0
236 -235 0
254 -253 0
133 -134 0
245 -246 0
210 -209 0
267 -268 0
73 -73 0
76 -71 0
265 -266 0
5 -9 0
21 -20 0
44 -42 0
25 -28 0
32 -30 0
70 -66 0
51 -52 0
61 -63 0
11 -13 0
56 -55 0
39 -37 0
88 -84 0
71 -76 0
3 -3 0
77 -80 0
111 -112 0
157 -158 0
225 -226 0
178 -177 0
196 -195 0
262 -261 0
237 -238 0
255 -256 0
136 -135 0
248 -247 0
211 -212 0
270 -269 0
266 -265 0
80 -77 0
79 -79 0
10 8 7 0
18 22 17 0
43 45 41 0
23 26 27 0
29 31 33 0
69 65 68 0
49 48 47 0
64 62 59 0
14 12 15 0
54 58 57 0
36 35 38 0
85 83 87 0
74 75 72 0
2 4 1 0
82 78 81 0
-10 -6 0
-10 -8 0
-10 -7 0
-18 -19 0
-18 -22 0
-18 -17 0
-43 -46 0
-43 -45 0
-43 -41 0
-23 -24 0
-23 -26 0
-23 -27 0
-29 -34 0
-29 -31 0
-29 -33 0
-69 -67 0
-69 -65 0
-69 -68 0
-49 -50 0
-49 -48 0
-49 -47 0
-64 -60 0
-64 -62 0
-64 -59 0
-14 -16 0
-14 -12 0
-14 -15 0
-54 -53 0
-54 -58 0
-54 -57 0
-36 -40 0
-36 -35 0
-36 -38 0
-85 -86 0
-85 -83 0
-85 -87 0
-74 -73 0
-74 -75 0
-74 -72 0
-2 -3 0
-2 -4 0
-2 -1 0
-82 -79 0
-82 -78 0
-82 -81 0
-6 -8 0
-6 -7 0
-19 -22 0
-19 -17 0
-46 -45 0
-46 -41 0
-24 -26 0
-24 -27 0
-34 -31 0
-34 -33 0
-67 -65 0
-67 -68 0
-50 -48 0
-50 -47 0
-60 -62 0
-60 -59 0
-16 -12 0
-16 -15 0
-53 -58 0
-53 -57 0
-40 -35 0
-40 -38 0
-86 -83 0
-86 -87 0
-73 -75 0
-73 -72 0
-3 -4 0
-3 -1 0
-79 -78 0
-79 -81 0
-8 -7 0
-22 -17 0
-45 -41 0
-26 -27 0
-31 -33 0
-65 -68 0
-48 -47 0
-62 -59 0
-12 -15 0
-58 -57 0
-35 -38 0
-83 -87 0
-75 -72 0
-4 -1 0
-78 -81 0
-10 -18 -92 0
-10 -18 -91 0
-10 -43 -100 0
-10 -43 -99 0
-10 -23 -93 0
-10 -23 -94 0
-10 -29 -96 0
-10 -29 -95 0
-10 -69 -107 0
-10 -69 -108 0
-10 -49 -101 0
-10 -49 -102 0
-10 -64 -105 0
-10 -64 -106 0
-10 -14 -89 0
-10 -14 -90 0
-10 -54 -103 0
-10 -54 -104 0
-10 -36 -97 0
-10 -36 -98 0
-10 -85 -113 0
-10 -85 -114 0
-10 -74 -109 0
-10 -74 -110 0
-10 -2 -9 0
-10 -2 -5 0
-10 -82 -112 0
-10 -82 -111 0
-18 -43 -145 0
-18 -43 -146 0
-18 -23 -139 0
-18 -23 -140 0
-18 -29 -141 0
-18 -29 -142 0
-18 -69 -153 0
-18 -69 -154 0
-18 -49 -147 0
-18 -49 -148 0
-18 -64 -152 0
-18 -64 -151 0
-18 -14 -116 0
-18 -14 -115 0
-18 -54 -149 0
-18 -54 -150 0
-18 -36 -143 0
-18 -36 -144 0
-18 -85 -159 0
-18 -85 -160 0
-18 -74 -155 0
-18 -74 -156 0
-18 -2 -20 0
-18 -2 -21 0
-18 -82 -158 0
-18 -82 -157 0
-43 -23 -166 0
-43 -23 -165 0
-43 -29 -184 0
-43 -29 -183 0
-43 -69 -222 0
-43 -69 -221 0
-43 -49 -215 0
-43 -49 -216 0
-43 -64 -219 0
-43 -64 -220 0
-43 -14 -124 0
-43 -14 -123 0
-43 -54 -218 0
-43 -54 -217 0
-43 -36 -199 0
-43 -36 -200 0
-43 -85 -228 0
-43 -85 -227 0
-43 -74 -223 0
-43 -74 -224 0
-43 -2 -42 0
-43 -2 -44 0
-43 -82 -226 0
-43 -82 -225 0
-23 -29 -161 0
-23 -29 -162 0
-23 -69 -173 0
-23 -69 -174 0
-23 -49 -167 0
-23 -49 -168 0
-23 -64 -171 0
-23 -64 -172 0
-23 -14 -117 0
-23 -14 -118 0
-23 -54 -170 0
-23 -54 -169 0
-23 -36 -164 0
-23 -36 -163 0
-23 -85 -180 0
-23 -85 -179 0
-23 -74 -176 0
-23 -74 -175 0
-23 -2 -28 0
-23 -2 -25 0
-23 -82 -177 0
-23 -82 -178 0
-29 -69 -191 0
-29 -69 -192 0
-29 -49 -186 0
-29 -49 -185 0
-29 -64 -189 0
-29 -64 -190 0
-29 -14 -120 0
-29 -14 -119 0
-29 -54 -188 0
-29 -54 -187 0
-29 -36 -181 0
-29 -36 -182 0
-29 -85 -197 0
-29 -85 -198 0
-29 -74 -194 0
-29 -74 -193 0
-29 -2 -30 0
-29 -2 -32 0
-29 -82 -195 0
-29 -82 -196 0
-69 -49 -234 0
-69 -49 -233 0
-69 -64 -251 0
-69 -64 -252 0
-69 -14 -132 0
-69 -14 -131 0
-69 -54 -244 0
-69 -54 -243 0
-69 -36 -207 0
-69 -36 -208 0
-69 -85 -264 0
-69 -85 -263 0
-69 -74 -260 0
-69 -74 -259 0
-69 -2 -66 0
-69 -2 -70 0
-69 -82 -261 0
-69 -82 -262 0
-49 -64 -231 0
-49 -64 -232 0
-49 -14 -125 0
-49 -14 -126 0
-49 -54 -229 0
-49 -54 -230 0
-49 -36 -202 0
-49 -36 -201 0
-49 -85 -239 0
-49 -85 -240 0
-49 -74 -235 0
-49 -74 -236 0
-49 -2 -52 0
-49 -2 -51 0
-49 -82 -238 0
-49 -82 -237 0
-64 -14 -130 0
-64 -14 -129 0
-64 -54 -242 0
-64 -54 -241 0
-64 -36 -206 0
-64 -36 -205 0
-64 -85 -258 0
-64 -85 -257 0
-64 -74 -253 0
-64 -74 -254 0
-64 -2 -63 0
-64 -2 -61 0
-64 -82 -256 0
-64 -82 -255 0
-14 -54 -128 0
-14 -54 -127 0
-14 -36 -122 0
-14 -36 -121 0
-14 -85 -137 0
-14 -85 -138 0
-14 -74 -134 0
-14 -74 -133 0
-14 -2 -13 0
-14 -2 -11 0
-14 -82 -135 0
-14 -82 -136 0
-54 -36 -204 0
-54 -36 -203 0
-54 -85 -249 0
-54 -85 -250 0
-54 -74 -246 0
-54 -74 -245 0
-54 -2 -55 0
-54 -2 -56 0
-54 -82 -247 0
-54 -82 -248 0
-36 -85 -214 0
-36 -85 -213 0
-36 -74 -209 0
-36 -74 -210 0
-36 -2 -37 0
-36 -2 -39 0
-36 -82 -212 0
-36 -82 -211 0
-85 -74 -268 0
-85 -74 -267 0
-85 -2 -84 0
-85 -2 -88 0
-85 -82 -269 0
-85 -82 -270 0
-74 -2 -76 0
-74 -2 -71 0
-74 -82 -265 0
-74 -82 -266 0
-2 -82 -77 0
-2 -82 -80 0
-92 -8 -22 0
-92 -7 -17 0
-100 -8 -45 0
-100 -7 -41 0
-93 -8 -26 0
-93 -7 -27 0
-96 -8 -31 0
-96 -7 -33 0
-107 -8 -65 0
-107 -7 -68 0
-101 -8 -48 0
-101 -7 -47 0
-105 -8 -62 0
-105 -7 -59 0
-89 -8 -12 0
-89 -7 -15 0
-103 -8 -58 0
-103 -7 -57 0
-97 -8 -35 0
-97 -7 -38 0
-113 -8 -83 0
-113 -7 -87 0
-109 -8 -75 0
-109 -7 -72 0
-9 -8 -4 0
-9 -7 -1 0
-112 -8 -78 0
-112 -7 -81 0
-91 -8 -22 0
-91 -7 -17 0
-145 -22 -45 0
-145 -17 -41 0
-139 -22 -26 0
-139 -17 -27 0
-141 -22 -31 0
-141 -17 -33 0
-153 -22 -65 0
-153 -17 -68 0
-147 -22 -48 0
-147 -17 -47 0
-152 -22 -62 0
-152 -17 -59 0
-116 -22 -12 0
-116 -17 -15 0
-149 -22 -58 0
-149 -17 -57 0
-143 -22 -35 0
-143 -17 -38 0
-159 -22 -83 0
-159 -17 -87 0
-155 -22 -75 0
-155 -17 -72 0
-20 -22 -4 0
-20 -17 -1 0
-158 -22 -78 0
-158 -17 -81 0
-99 -8 -45 0
-99 -7 -41 0
-146 -22 -45 0
-146 -17 -41 0
-166 -45 -26 0
-166 -41 -27 0
-184 -45 -31 0
-184 -41 -33 0
-222 -45 -65 0
-222 -41 -68 0
-215 -45 -48 0
-215 -41 -47 0
-219 -45 -62 0
-219 -41 -59 0
-124 -45 -12 0
-124 -41 -15 0
-218 -45 -58 0
-218 -41 -57 0
-199 -45 -35 0
-199 -41 -38 0
-228 -45 -83 0
-228 -41 -87 0
-223 -45 -75 0
-223 -41 -72 0
-42 -45 -4 0
-42 -41 -1 0
-226 -45 -78 0
-226 -41 -81 0
-94 -8 -26 0
-94 -7 -27 0
-140 -22 -26 0
-140 -17 -27 0
-165 -45 -26 0
-165 -41 -27 0
-161 -26 -31 0
-161 -27 -33 0
-173 -26 -65 0
-173 -27 -68 0
-167 -26 -48 0
-167 -27 -47 0
-171 -26 -62 0
-171 -27 -59 0
-117 -26 -12 0
-117 -27 -15 0
-170 -26 -58 0
-170 -27 -57 0
-164 -26 -35 0
-164 -27 -38 0
-180 -26 -83 0
-180 -27 -87 0
-176 -26 -75 0
-176 -27 -72 0
-28 -26 -4 0
-28 -27 -1 0
-177 -26 -78 0
-177 -27 -81 0
-95 -8 -31 0
-95 -7 -33 0
-142 -22 -31 0
-142 -17 -33 0
-183 -45 -31 0
-183 -41 -33 0
-162 -26 -31 0
-162 -27 -33 0
-191 -31 -65 0
-191 -33 -68 0
-186 -31 -48 0
-186 -33 -47 0
-189 -31 -62 0
-189 -33 -59 0
-120 -31 -12 0
-120 -33 -15 0
-188 -31 -58 0
-188 -33 -57 0
-181 -31 -35 0
-181 -33 -38 0
-197 -31 -83 0
-197 -33 -87 0
-194 -31 -75 0
-194 -33 -72 0
-30 -31 -4 0
-30 -33 -1 0
-195 -31 -78 0
-195 -33 -81 0
-108 -8 -65 0
-108 -7 -68 0
-154 -22 -65 0
-154 -17 -68 0
-221 -45 -65 0
-221 -41 -68 0
-174 -26 -65 0
-174 -27 -68 0
-192 -31 -65 0
-192 -33 -68 0
-234 -65 -48 0
-234 -68 -47 0
-251 -65 -62 0
-251 -68 -59 0
-132 -65 -12 0
-132 -68 -15 0
-244 -65 -58 0
-244 -68 -57 0
-207 -65 -35 0
-207 -68 -38 0
-264 -65 -83 0
-264 -68 -87 0
-260 -65 -75 0
-260 -68 -72 0
-66 -65 -4 0
-66 -68 -1 0
-261 -65 -78 0
-261 -68 -81 0
-102 -8 -48 0
-102 -7 -47 0
-148 -22 -48 0
-148 -17 -47 0
-216 -45 -48 0
-216 -41 -47 0
-168 -26 -48 0
-168 -27 -47 0
-185 -31 -48 0
-185 -33 -47 0
-233 -65 -48 0
-233 -68 -47 0
-231 -48 -62 0
-231 -47 -59 0
-125 -48 -12 0
-125 -47 -15 0
-229 -48 -58 0
-229 -47 -57 0
-202 -48 -35 0
-202 -47 -38 0
-239 -48 -83 0
-239 -47 -87 0
-235 -48 -75 0
-235 -47 -72 0
-52 -48 -4 0
-52 -47 -1 0
-238 -48 -78 0
-238 -47 -81 0
-106 -8 -62 0
-106 -7 -59 0
-151 -22 -62 0
-151 -17 -59 0
-220 -45 -62 0
-220 -41 -59 0
-172 -26 -62 0
-172 -27 -59 0
-190 -31 -62 0
-190 -33 -59 0
-252 -65 -62 0
-252 -68 -59 0
-232 -48 -62 0
-232 -47 -59 0
-130 -62 -12 0
-130 -59 -15 0
-242 -62 -58 0
-242 -59 -57 0
-206 -62 -35 0
-206 -59 -38 0
-258 -62 -83 0
-258 -59 -87 0
-253 -62 -75 0
-253 -59 -72 0
-63 -62 -4 0
-63 -59 -1 0
-256 -62 -78 0
-256 -59 -81 0
-90 -8 -12 0
-90 -7 -15 0
-115 -22 -12 0
-115 -17 -15 0
-123 -45 -12 0
-123 -41 -15 0
-118 -26 -12 0
-118 -27 -15 0
-119 -31 -12 0
-119 -33 -15 0
-131 -65 -12 0
-131 -68 -15 0
-126 -48 -12 0
-126 -47 -15 0
-129 -62 -12 0
-129 -59 -15 0
-128 -12 -58 0
-128 -15 -57 0
-122 -12 -35 0
-122 -15 -38 0
-137 -12 -83 0
-137 -15 -87 0
-134 -12 -75 0
-134 -15 -72 0
-13 -12 -4 0
-13 -15 -1 0
-135 -12 -78 0
-135 -15 -81 0
-104 -8 -58 0
-104 -7 -57 0
-150 -22 -58 0
-150 -17 -57 0
-217 -45 -58 0
-217 -41 -57 0
-169 -26 -58 0
-169 -27 -57 0
-187 -31 -58 0
-187 -33 -57 0
-243 -65 -58 0
-243 -68 -57 0
-230 -48 -58 0
-230 -47 -57 0
-241 -62 -58 0
-241 -59 -57 0
-127 -12 -58 0
-127 -15 -57 0
-204 -58 -35 0
-204 -57 -38 0
-249 -58 -83 0
-249 -57 -87 0
-246 -58 -75 0
-246 -57 -72 0
-55 -58 -4 0
-55 -57 -1 0
-247 -58 -78 0
-247 -57 -81 0
-98 -8 -35 0
-98 -7 -38 0
-144 -22 -35 0
-144 -17 -38 0
-200 -45 -35 0
-200 -41 -38 0
-163 -26 -35 0
-163 -27 -38 0
-182 -31 -35 0
-182 -33 -38 0
-208 -65 -35 0
-208 -68 -38 0
-201 -48 -35 0
-201 -47 -38 0
-205 -62 -35 0
-205 -59 -38 0
-121 -12 -35 0
-121 -15 -38 0
-203 -58 -35 0
-203 -57 -38 0
-214 -35 -83 0
-214 -38 -87 0
-209 -35 -75 0
-209 -38 -72 0
-37 -35 -4 0
-37 -38 -1 0
-212 -35 -78 0
-212 -38 -81 0
-114 -8 -83 0
-114 -7 -87 0
-160 -22 -83 0
-160 -17 -87 0
-227 -45 -83 0
-227 -41 -87 0
-179 -26 -83 0
-179 -27 -87 0
-198 -31 -83 0
-198 -33 -87 0
-263 -65 -83 0
-263 -68 -87 0
-240 -48 -83 0
-240 -47 -87 0
-257 -62 -83 0
-257 -59 -87 0
-138 -12 -83 0
-138 -15 -87 0
-250 -58 -83 0
-250 -57 -87 0
-213 -35 -83 0
-213 -38 -87 0
-268 -83 -75 0
-268 -87 -72 0
-84 -83 -4 0
-84 -87 -1 0
-269 -83 -78 0
-269 -87 -81 0
-110 -8 -75 0
-110 -7 -72 0
-156 -22 -75 0
-156 -17 -72 0
-224 -45 -75 0
-224 -41 -72 0
-175 -26 -75 0
-175 -27 -72 0
-193 -31 -75 0
-193 -33 -72 0
-259 -65 -75 0
-259 -68 -72 0
-236 -48 -75 0
-236 -47 -72 0
-254 -62 -75 0
-254 -59 -72 0
-133 -12 -75 0
-133 -15 -72 0
-245 -58 -75 0
-245 -57 -72 0
-210 -35 -75 0
-210 -38 -72 0
-267 -83 -75 0
-267 -87 -72 0
-76 -75 -4 0
-76 -72 -1 0
-265 -75 -78 0
-265 -72 -81 0
-5 -8 -4 0
-5 -7 -1 0
-21 -22 -4 0
-21 -17 -1 0
-44 -45 -4 0
-44 -41 -1 0
-25 -26 -4 0
-25 -27 -1 0
-32 -31 -4 0
-32 -33 -1 0
-70 -65 -4 0
-70 -68 -1 0
-51 -48 -4 0
-51 -47 -1 0
-61 -62 -4 0
-61 -59 -1 0
-11 -12 -4 0
-11 -15 -1 0
-56 -58 -4 0
-56 -57 -1 0
-39 -35 -4 0
-39 -38 -1 0
-88 -83 -4 0
-88 -87 -1 0
-71 -75 -4 0
-71 -72 -1 0
-77 -4 -78 0
-77 -1 -81 0
-111 -8 -78 0
-111 -7 -81 0
-157 -22 -78 0
-157 -17 -81 0
-225 -45 -78 0
-225 -41 -81 0
-178 -26 -78 0
-178 -27 -81 0
-196 -31 -78 0
-196 -33 -81 0
-262 -65 -78 0
-262 -68 -81 0
-237 -48 -78 0
-237 -47 -81 0
-255 -62 -78 0
-255 -59 -81 0
-136 -12 -78 0
-136 -15 -81 0
-248 -58 -78 0
-248 -57 -81 0
-211 -35 -78 0
-211 -38 -81 0
-270 -83 -78 0
-270 -87 -81 0
-266 -75 -78 0
-266 -72 -81 0
-80 -4 -78 0
-80 -1 -81 0
6 92 100 93 96 107 101 105 89 103 97 113 109 9 112 0
91 19 145 139 141 153 147 152 116 149 143 159 155 20 158 0
99 146 46 166 184 222 215 219 124 218 199 228 223 42 226 0
94 140 165 24 161 173 167 171 117 170 164 180 176 28 177 0
95 142 183 162 34 191 186 189 120 188 181 197 194 30 195 0
108 154 221 174 192 67 234 251 132 244 207 264 260 66 261 0
102 148 216 168 185 233 50 231 125 229 202 239 235 52 238 0
106 151 220 172 190 252 232 60 130 242 206 258 253 63 256 0
90 115 123 118 119 131 126 129 16 128 122 137 134 13 135 0
104 150 217 169 187 243 230 241 127 53 204 249 246 55 247 0
98 144 200 163 182 208 201 205 121 203 40 214 209 37 212 0
114 160 227 179 198 263 240 257 138 250 213 86 268 84 269 0
110 156 224 175 193 259 236 254 133 245 210 267 73 76 265 0
5 21 44 25 32 70 51 61 11 56 39 88 71 3 77 0
111 157 225 178 196 262 237 255 136 248 211 270 266 80 79 0
