c E(2,2) G(2) B(2) R(2) E(2,1) R(1) E(1,2) E(1,1) B(1) G(1) B(4) E(2,4) E(4,2) R(4) E(4,4) G(4) E(2,3) G(3) E(3,3) E(3,2) B(3) R(3) E(2,0) R(0) E(0,0) B(0) E(0,2) G(0) E(1,4) E(4,1) E(3,1) E(1,3) E(1,0) E(0,1) E(4,3) E(3,4) E(0,4) E(4,0) E(3,0) E(0,3)
c 1 2 3 4 5 6 7 8 9 10 11 12 13 14 15 16 17 18 19 20 21 22 23 24 25 26 27 28 29 30 31 32 33 34 35 36 37 38 39 40
p cnf 40 130
-25 0
-8 0
-1 0
-19 0
-15 0
25 -25 0
34 -33 0
27 -23 0
40 -39 0
37 -38 0
33 -34 0
8 -8 0
7 -5 0
32 -31 0
29 -30 0
23 -27 0
5 -7 0
1 -1 0
17 -20 0
12 -13 0
39 -40 0
31 -32 0
20 -17 0
19 -19 0
36 -35 0
38 -37 0
30 -29 0
13 -12 0
35 -36 0
15 -15 0
26 28 24 0
9 10 6 0
3 2 4 0
21 18 22 0
11 16 14 0
-26 -25 0
-26 -28 0
-26 -24 0
-9 -8 0
-9 -10 0
-9 -6 0
-3 -1 0
-3 -2 0
-3 -4 0
-21 -19 0
-21 -18 0
-21 -22 0
-11 -15 0
-11 -16 0
-11 -14 0
-25 -28 0
-25 -24 0
-8 -10 0
-8 -6 0
-1 -2 0
-1 -4 0
-19 -18 0
-19 -22 0
-15 -16 0
-15 -14 0
-28 -24 0
-10 -6 0
-2 -4 0
-18 -22 0
-16 -14 0
25 34 27 40 37 0
33 8 7 32 29 0
23 5 1 17 12 0
39 31 20 19 36 0
38 30 13 35 15 0
-26 -9 -34 0
-26 -9 -33 0
-26 -3 -27 0
-26 -3 -23 0
-26 -21 -40 0
-26 -21 -39 0
-26 -11 -37 0
-26 -11 -38 0
-9 -3 -7 0
-9 -3 -5 0
-9 -21 -32 0
-9 -21 -31 0
-9 -11 -29 0
-9 -11 -30 0
-3 -21 -17 0
-3 -21 -20 0
-3 -11 -12 0
-3 -11 -13 0
-21 -11 -36 0
-21 -11 -35 0
-34 -28 -10 0
-34 -24 -6 0
-27 -28 -2 0
-27 -24 -4 0
-40 -28 -18 0
-40 -24 -22 0
-37 -28 -16 0
-37 -24 -14 0
-33 -28 -10 0
-33 -24 -6 0
-7 -10 -2 0
-7 -6 -4 0
-32 -10 -18 0
-32 -6 -22 0
-29 -10 -16 0
-29 -6 -14 0
-23 -28 -2 0
-23 -24 -4 0
-5 -10 -2 0
-5 -6 -4 0
-17 -2 -18 0
-17 -4 -22 0
-12 -2 -16 0
-12 -4 -14 0
-39 -28 -18 0
-39 -24 -22 0
-31 -10 -18 0
-31 -6 -22 0
-20 -2 -18 0
-20 -4 -22 0
-36 -18 -16 0
-36 -22 -14 0
-38 -28 -16 0
-38 -24 -14 0
-30 -10 -16 0
-30 -6 -14 0
-13 -2 -16 0
-13 -4 -14 0
-35 -18 -16 0
-35 -22 -14 0
