c G(1) B(1) E(1,1) R(1) B(4) R(4) E(4,1) E(1,4) G(4) E(4,4) E(2,2) E(1,2) R(2) E(2,1) G(2) B(2) B(0) R(0) G(0) E(1,0) E(0,1) E(0,0) R(3) E(3,3) B(3) E(3,1) E(1,3) G(3) B(5) R(5) E(5,1) E(1,5) G(5) E(5,5) E(4,2) E(2,4) E(4,0) E(0,4) E(4,3) E(3,4) E(4,5) E(5,4) E(0,2) E(2,0) E(3,2) E(2,3) E(5,2) E(2,5) E(0,3) E(3,0) E(5,0) E(0,5) E(5,3) E(3,5)
c 1 2 3 4 5 6 7 8 9 10 11 12 13 14 15 16 17 18 19 20 21 22 23 24 25 26 27 28 29 30 31 32 33 34 35 36 37 38 39 40 41 42 43 44 45 46 47 48 49 50 51 52 53 54
p cnf 54 180
-22 0
-3 0
-11 0
-24 0
-10 0
-34 0
22 -22 0
21 -20 0
43 -44 0
49 -50 0
38 -37 0
52 -51 0
20 -21 0
3 -3 0
12 -14 0
27 -26 0
8 -7 0
32 -31 0
44 -43 0
14 -12 0
11 -11 0
46 -45 0
36 -35 0
48 -47 0
50 -49 0
26 -27 0
45 -46 0
24 -24 0
40 -39 0
54 -53 0
37 -38 0
7 -8 0
35 -36 0
39 -40 0
10 -10 0
41 -42 0
51 -52 0
31 -32 0
47 -48 0
53 -54 0
42 -41 0
34 -34 0
17 19 18 0
2 1 4 0
16 15 13 0
25 28 23 0
5 9 6 0
29 33 30 0
-17 -22 0
-17 -19 0
-17 -18 0
-2 -3 0
-2 -1 0
-2 -4 0
-16 -11 0
-16 -15 0
-16 -13 0
-25 -24 0
-25 -28 0
-25 -23 0
-5 -10 0
-5 -9 0
-5 -6 0
-29 -34 0
-29 -33 0
-29 -30 0
-22 -19 0
-22 -18 0
-3 -1 0
-3 -4 0
-11 -15 0
-11 -13 0
-24 -28 0
-24 -23 0
-10 -9 0
-10 -6 0
-34 -33 0
-34 -30 0
-19 -18 0
-1 -4 0
-15 -13 0
-28 -23 0
-9 -6 0
-33 -30 0
-17 -2 -21 0
-17 -2 -20 0
-17 -16 -43 0
-17 -16 -44 0
-17 -25 -49 0
-17 -25 -50 0
-17 -5 -38 0
-17 -5 -37 0
-17 -29 -52 0
-17 -29 -51 0
-2 -16 -12 0
-2 -16 -14 0
-2 -25 -27 0
-2 -25 -26 0
-2 -5 -8 0
-2 -5 -7 0
-2 -29 -32 0
-2 -29 -31 0
-16 -25 -46 0
-16 -25 -45 0
-16 -5 -36 0
-16 -5 -35 0
-16 -29 -48 0
-16 -29 -47 0
-25 -5 -40 0
-25 -5 -39 0
-25 -29 -54 0
-25 -29 -53 0
-5 -29 -41 0
-5 -29 -42 0
-21 -19 -1 0
-21 -18 -4 0
-43 -19 -15 0
-43 -18 -13 0
-49 -19 -28 0
-49 -18 -23 0
-38 -19 -9 0
-38 -18 -6 0
-52 -19 -33 0
-52 -18 -30 0
-20 -19 -1 0
-20 -18 -4 0
-12 -1 -15 0
-12 -4 -13 0
-27 -1 -28 0
-27 -4 -23 0
-8 -1 -9 0
-8 -4 -6 0
-32 -1 -33 0
-32 -4 -30 0
-44 -19 -15 0
-44 -18 -13 0
-14 -1 -15 0
-14 -4 -13 0
-46 -15 -28 0
-46 -13 -23 0
-36 -15 -9 0
-36 -13 -6 0
-48 -15 -33 0
-48 -13 -30 0
-50 -19 -28 0
-50 -18 -23 0
-26 -1 -28 0
-26 -4 -23 0
-45 -15 -28 0
-45 -13 -23 0
-40 -28 -9 0
-40 -23 -6 0
-54 -28 -33 0
-54 -23 -30 0
-37 -19 -9 0
-37 -18 -6 0
-7 -1 -9 0
-7 -4 -6 0
-35 -15 -9 0
-35 -13 -6 0
-39 -28 -9 0
-39 -23 -6 0
-41 -9 -33 0
-41 -6 -30 0
-51 -19 -33 0
-51 -18 -30 0
-31 -1 -33 0
-31 -4 -30 0
-47 -15 -33 0
-47 -13 -30 0
-53 -28 -33 0
-53 -23 -30 0
-42 -9 -33 0
-42 -6 -30 0
22 21 43 49 38 52 0
20 3 12 27 8 32 0
44 14 11 46 36 48 0
50 26 45 24 40 54 0
37 7 35 39 10 41 0
51 31 47 53 42 34 0
