c B(2) E(2,2) R(2) G(2) E(6,6) R(6) E(2,6) E(6,2) B(6) G(6) G(5) B(5) R(5) E(5,5) E(5,2) E(2,5) G(1) E(2,1) B(1) E(1,2) E(1,1) R(1) E(0,2) B(0) E(0,0) E(2,0) G(0) R(0) E(2,3) G(3) E(3,2) R(3) B(3) E(3,3) R(4) G(4) B(4) E(4,2) E(4,4) E(2,4) E(6,5) E(5,6) E(1,6) E(6,1) E(0,6) E(6,0) E(6,3) E(3,6) E(6,4) E(4,6) E(1,5) E(5,1) E(5,0) E(0,5) E(3,5) E(5,3) E(5,4) E(4,5) E(1,0) E(0,1) E(3,1) E(1,3) E(1,4) E(4,1) E(0,3) E(3,0) E(0,4) E(4,0) E(4,3) E(3,4)
c 1 2 3 4 5 6 7 8 9 10 11 12 13 14 15 16 17 18 19 20 21 22 23 24 25 26 27 28 29 30 31 32 33 34 35 36 37 38 39 40 41 42 43 44 45 46 47 48 49 50 51 52 53 54 55 56 57 58 59 60 61 62 63 64 65 66 67 68 69 70
p cnf 70 238
-25 0
-21 0
-2 0
-34 0
-39 0
-14 0
-5 0
25 -25 0
60 -59 0
23 -26 0
65 -66 0
67 -68 0
54 -53 0
45 -46 0
59 -60 0
21 -21 0
20 -18 0
62 -61 0
63 -64 0
51 -52 0
43 -44 0
26 -23 0
18 -20 0
2 -2 0
29 -31 0
40 -38 0
16 -15 0
7 -8 0
66 -65 0
61 -62 0
31 -29 0
34 -34 0
70 -69 0
55 -56 0
48 -47 0
68 -67 0
64 -63 0
38 -40 0
69 -70 0
39 -39 0
58 -57 0
50 -49 0
53 -54 0
52 -51 0
15 -16 0
56 -55 0
57 -58 0
14 -14 0
42 -41 0
46 -45 0
44 -43 0
8 -7 0
47 -48 0
49 -50 0
41 -42 0
5 -5 0
24 27 28 0
19 17 22 0
1 4 3 0
33 30 32 0
37 36 35 0
12 11 13 0
9 10 6 0
-24 -25 0
-24 -27 0
-24 -28 0
-19 -21 0
-19 -17 0
-19 -22 0
-1 -2 0
-1 -4 0
-1 -3 0
-33 -34 0
-33 -30 0
-33 -32 0
-37 -39 0
-37 -36 0
-37 -35 0
-12 -14 0
-12 -11 0
-12 -13 0
-9 -5 0
-9 -10 0
-9 -6 0
-25 -27 0
-25 -28 0
-21 -17 0
-21 -22 0
-2 -4 0
-2 -3 0
-34 -30 0
-34 -32 0
-39 -36 0
-39 -35 0
-14 -11 0
-14 -13 0
-5 -10 0
-5 -6 0
-27 -28 0
-17 -22 0
-4 -3 0
-30 -32 0
-36 -35 0
-11 -13 0
-10 -6 0
-24 -19 -60 0
-24 -19 -59 0
-24 -1 -23 0
-24 -1 -26 0
-24 -33 -65 0
-24 -33 -66 0
-24 -37 -67 0
-24 -37 -68 0
-24 -12 -54 0
-24 -12 -53 0
-24 -9 -45 0
-24 -9 -46 0
-19 -1 -20 0
-19 -1 -18 0
-19 -33 -62 0
-19 -33 -61 0
-19 -37 -63 0
-19 -37 -64 0
-19 -12 -51 0
-19 -12 -52 0
-19 -9 -43 0
-19 -9 -44 0
-1 -33 -29 0
-1 -33 -31 0
-1 -37 -40 0
-1 -37 -38 0
-1 -12 -16 0
-1 -12 -15 0
-1 -9 -7 0
-1 -9 -8 0
-33 -37 -70 0
-33 -37 -69 0
-33 -12 -55 0
-33 -12 -56 0
-33 -9 -48 0
-33 -9 -47 0
-37 -12 -58 0
-37 -12 -57 0
-37 -9 -50 0
-37 -9 -49 0
-12 -9 -42 0
-12 -9 -41 0
-60 -27 -17 0
-60 -28 -22 0
-23 -27 -4 0
-23 -28 -3 0
-65 -27 -30 0
-65 -28 -32 0
-67 -27 -36 0
-67 -28 -35 0
-54 -27 -11 0
-54 -28 -13 0
-45 -27 -10 0
-45 -28 -6 0
-59 -27 -17 0
-59 -28 -22 0
-20 -17 -4 0
-20 -22 -3 0
-62 -17 -30 0
-62 -22 -32 0
-63 -17 -36 0
-63 -22 -35 0
-51 -17 -11 0
-51 -22 -13 0
-43 -17 -10 0
-43 -22 -6 0
-26 -27 -4 0
-26 -28 -3 0
-18 -17 -4 0
-18 -22 -3 0
-29 -4 -30 0
-29 -3 -32 0
-40 -4 -36 0
-40 -3 -35 0
-16 -4 -11 0
-16 -3 -13 0
-7 -4 -10 0
-7 -3 -6 0
-66 -27 -30 0
-66 -28 -32 0
-61 -17 -30 0
-61 -22 -32 0
-31 -4 -30 0
-31 -3 -32 0
-70 -30 -36 0
-70 -32 -35 0
-55 -30 -11 0
-55 -32 -13 0
-48 -30 -10 0
-48 -32 -6 0
-68 -27 -36 0
-68 -28 -35 0
-64 -17 -36 0
-64 -22 -35 0
-38 -4 -36 0
-38 -3 -35 0
-69 -30 -36 0
-69 -32 -35 0
-58 -36 -11 0
-58 -35 -13 0
-50 -36 -10 0
-50 -35 -6 0
-53 -27 -11 0
-53 -28 -13 0
-52 -17 -11 0
-52 -22 -13 0
-15 -4 -11 0
-15 -3 -13 0
-56 -30 -11 0
-56 -32 -13 0
-57 -36 -11 0
-57 -35 -13 0
-42 -11 -10 0
-42 -13 -6 0
-46 -27 -10 0
-46 -28 -6 0
-44 -17 -10 0
-44 -22 -6 0
-8 -4 -10 0
-8 -3 -6 0
-47 -30 -10 0
-47 -32 -6 0
-49 -36 -10 0
-49 -35 -6 0
-41 -11 -10 0
-41 -13 -6 0
25 60 23 65 67 54 45 0
59 21 20 62 63 51 43 0
26 18 2 29 40 16 7 0
66 61 31 34 70 55 48 0
68 64 38 69 39 58 50 0
53 52 15 56 57 14 42 0
46 44 8 47 49 41 5 0
