c G(5) E(5,5) R(5) B(5) B(4) E(4,5) E(5,4) E(4,4) G(4) R(4) E(6,5) E(6,6) R(6) G(6) B(6) E(5,6) G(7) R(7) E(7,5) E(5,7) E(7,7) B(7) R(0) E(5,0) E(0,5) E(0,0) B(0) G(0) E(5,3) E(3,3) G(3) R(3) E(3,5) B(3) G(1) R(1) E(1,5) E(5,1) E(1,1) B(1) E(2,2) E(2,5) R(2) B(2) E(5,2) G(2) E(4,6) E(6,4) E(4,7) E(7,4) E(4,0) E(0,4) E(4,3) E(3,4) E(1,4) E(4,1) E(4,2) E(2,4) E(6,7) E(7,6) E(0,6) E(6,0) E(6,3) E(3,6) E(6,1) E(1,6) E(2,6) E(6,2) E(0,7) E(7,0) E(3,7) E(7,3) E(1,7) E(7,1) E(2,7) E(7,2) E(3,0) E(0,3) E(0,1) E(1,0) E(2,0) E(0,2) E(1,3) E(3,1) E(3,2) E(2,3) E(1,2) E(2,1)
c 1 2 3 4 5 6 7 8 9 10 11 12 13 14 15 16 17 18 19 20 21 22 23 24 25 26 27 28 29 30 31 32 33 34 35 36 37 38 39 40 41 42 43 44 45 46 47 48 49 50 51 52 53 54 55 56 57 58 59 60 61 62 63 64 65 66 67 68 69 70 71 72 73 74 75 76 77 78 79 80 81 82 83 84 85 86 87 88
p cnf 88 304
-26 0
-39 0
-41 0
-30 0
-8 0
-2 0
-12 0
-21 0
26 -26 0
79 -80 0
82 -81 0
78 -77 0
52 -51 0
25 -24 0
61 -62 0
69 -70 0
80 -79 0
39 -39 0
87 -88 0
83 -84 0
55 -56 0
37 -38 0
66 -65 0
73 -74 0
81 -82 0
88 -87 0
41 -41 0
86 -85 0
58 -57 0
42 -45 0
67 -68 0
75 -76 0
77 -78 0
84 -83 0
85 -86 0
30 -30 0
54 -53 0
33 -29 0
64 -63 0
71 -72 0
51 -52 0
56 -55 0
57 -58 0
53 -54 0
8 -8 0
6 -7 0
47 -48 0
49 -50 0
24 -25 0
38 -37 0
45 -42 0
29 -33 0
7 -6 0
2 -2 0
16 -11 0
20 -19 0
62 -61 0
65 -66 0
68 -67 0
63 -64 0
48 -47 0
11 -16 0
12 -12 0
59 -60 0
70 -69 0
74 -73 0
76 -75 0
72 -71 0
50 -49 0
19 -20 0
60 -59 0
21 -21 0
27 28 23 0
40 35 36 0
44 46 43 0
34 31 32 0
5 9 10 0
4 1 3 0
15 14 13 0
22 17 18 0
-27 -26 0
-27 -28 0
-27 -23 0
-40 -39 0
-40 -35 0
-40 -36 0
-44 -41 0
-44 -46 0
-44 -43 0
-34 -30 0
-34 -31 0
-34 -32 0
-5 -8 0
-5 -9 0
-5 -10 0
-4 -2 0
-4 -1 0
-4 -3 0
-15 -12 0
-15 -14 0
-15 -13 0
-22 -21 0
-22 -17 0
-22 -18 0
-26 -28 0
-26 -23 0
-39 -35 0
-39 -36 0
-41 -46 0
-41 -43 0
-30 -31 0
-30 -32 0
-8 -9 0
-8 -10 0
-2 -1 0
-2 -3 0
-12 -14 0
-12 -13 0
-21 -17 0
-21 -18 0
-28 -23 0
-35 -36 0
-46 -43 0
-31 -32 0
-9 -10 0
-1 -3 0
-14 -13 0
-17 -18 0
-27 -40 -79 0
-27 -40 -80 0
-27 -44 -82 0
-27 -44 -81 0
-27 -34 -78 0
-27 -34 -77 0
-27 -5 -52 0
-27 -5 -51 0
-27 -4 -25 0
-27 -4 -24 0
-27 -15 -61 0
-27 -15 -62 0
-27 -22 -69 0
-27 -22 -70 0
-40 -44 -87 0
-40 -44 -88 0
-40 -34 -83 0
-40 -34 -84 0
-40 -5 -55 0
-40 -5 -56 0
-40 -4 -37 0
-40 -4 -38 0
-40 -15 -66 0
-40 -15 -65 0
-40 -22 -73 0
-40 -22 -74 0
-44 -34 -86 0
-44 -34 -85 0
-44 -5 -58 0
-44 -5 -57 0
-44 -4 -42 0
-44 -4 -45 0
-44 -15 -67 0
-44 -15 -68 0
-44 -22 -75 0
-44 -22 -76 0
-34 -5 -54 0
-34 -5 -53 0
-34 -4 -33 0
-34 -4 -29 0
-34 -15 -64 0
-34 -15 -63 0
-34 -22 -71 0
-34 -22 -72 0
-5 -4 -6 0
-5 -4 -7 0
-5 -15 -47 0
-5 -15 -48 0
-5 -22 -49 0
-5 -22 -50 0
-4 -15 -16 0
-4 -15 -11 0
-4 -22 -20 0
-4 -22 -19 0
-15 -22 -59 0
-15 -22 -60 0
-79 -28 -35 0
-79 -23 -36 0
-82 -28 -46 0
-82 -23 -43 0
-78 -28 -31 0
-78 -23 -32 0
-52 -28 -9 0
-52 -23 -10 0
-25 -28 -1 0
-25 -23 -3 0
-61 -28 -14 0
-61 -23 -13 0
-69 -28 -17 0
-69 -23 -18 0
-80 -28 -35 0
-80 -23 -36 0
-87 -35 -46 0
-87 -36 -43 0
-83 -35 -31 0
-83 -36 -32 0
-55 -35 -9 0
-55 -36 -10 0
-37 -35 -1 0
-37 -36 -3 0
-66 -35 -14 0
-66 -36 -13 0
-73 -35 -17 0
-73 -36 -18 0
-81 -28 -46 0
-81 -23 -43 0
-88 -35 -46 0
-88 -36 -43 0
-86 -46 -31 0
-86 -43 -32 0
-58 -46 -9 0
-58 -43 -10 0
-42 -46 -1 0
-42 -43 -3 0
-67 -46 -14 0
-67 -43 -13 0
-75 -46 -17 0
-75 -43 -18 0
-77 -28 -31 0
-77 -23 -32 0
-84 -35 -31 0
-84 -36 -32 0
-85 -46 -31 0
-85 -43 -32 0
-54 -31 -9 0
-54 -32 -10 0
-33 -31 -1 0
-33 -32 -3 0
-64 -31 -14 0
-64 -32 -13 0
-71 -31 -17 0
-71 -32 -18 0
-51 -28 -9 0
-51 -23 -10 0
-56 -35 -9 0
-56 -36 -10 0
-57 -46 -9 0
-57 -43 -10 0
-53 -31 -9 0
-53 -32 -10 0
-6 -9 -1 0
-6 -10 -3 0
-47 -9 -14 0
-47 -10 -13 0
-49 -9 -17 0
-49 -10 -18 0
-24 -28 -1 0
-24 -23 -3 0
-38 -35 -1 0
-38 -36 -3 0
-45 -46 -1 0
-45 -43 -3 0
-29 -31 -1 0
-29 -32 -3 0
-7 -9 -1 0
-7 -10 -3 0
-16 -1 -14 0
-16 -3 -13 0
-20 -1 -17 0
-20 -3 -18 0
-62 -28 -14 0
-62 -23 -13 0
-65 -35 -14 0
-65 -36 -13 0
-68 -46 -14 0
-68 -43 -13 0
-63 -31 -14 0
-63 -32 -13 0
-48 -9 -14 0
-48 -10 -13 0
-11 -1 -14 0
-11 -3 -13 0
-59 -14 -17 0
-59 -13 -18 0
-70 -28 -17 0
-70 -23 -18 0
-74 -35 -17 0
-74 -36 -18 0
-76 -46 -17 0
-76 -43 -18 0
-72 -31 -17 0
-72 -32 -18 0
-50 -9 -17 0
-50 -10 -18 0
-19 -1 -17 0
-19 -3 -18 0
-60 -14 -17 0
-60 -13 -18 0
26 79 82 78 52 25 61 69 0
80 39 87 83 55 37 66 73 0
81 88 41 86 58 42 67 75 0
77 84 85 30 54 33 64 71 0
51 56 57 53 8 6 47 49 0
24 38 45 29 7 2 16 20 0
62 65 68 63 48 11 12 59 0
70 74 76 72 50 19 60 21 0
