c G(0) R(0) B(0) E(0,0) E(4,4) R(4) E(0,4) G(4) B(4) E(4,0) E(0,7) R(7) B(7) E(7,7) G(7) E(7,0) B(3) G(3) E(0,3) E(3,0) E(3,3) R(3) E(8,8) E(0,8) E(8,0) R(8) G(8) B(8) E(5,0) E(5,5) B(5) R(5) G(5) E(0,5) E(0,2) G(2) B(2) E(2,0) R(2) E(2,2) B(1) R(1) E(0,1) G(1) E(1,1) E(1,0) G(6) B(6) R(6) E(0,6) E(6,6) E(6,0) E(7,4) E(4,7) E(4,3) E(3,4) E(4,8) E(8,4) E(4,5) E(5,4) E(4,2) E(2,4) E(1,4) E(4,1) E(4,6) E(6,4) E(7,3) E(3,7) E(7,8) E(8,7) E(5,7) E(7,5) E(2,7) E(7,2) E(1,7) E(7,1) E(6,7) E(7,6) E(3,8) E(8,3) E(3,5) E(5,3) E(3,2) E(2,3) E(3,1) E(1,3) E(6,3) E(3,6) E(5,8) E(8,5) E(2,8) E(8,2) E(8,1) E(1,8) E(8,6) E(6,8) E(2,5) E(5,2) E(1,5) E(5,1) E(5,6) E(6,5) E(2,1) E(1,2) E(2,6) E(6,2) E(6,1) E(1,6)
c 1 2 3 4 5 6 7 8 9 10 11 12 13 14 15 16 17 18 19 20 21 22 23 24 25 26 27 28 29 30 31 32 33 34 35 36 37 38 39 40 41 42 43 44 45 46 47 48 49 50 51 52 53 54 55 56 57 58 59 60 61 62 63 64 65 66 67 68 69 70 71 72 73 74 75 76 77 78 79 80 81 82 83 84 85 86 87 88 89 90 91 92 93 94 95 96 97 98 99 100 101 102 103 104 105 106 107 108
p cnf 108 378
-4 0
-45 0
-40 0
-21 0
-5 0
-30 0
-51 0
-14 0
-23 0
4 -4 0
43 -46 0
35 -38 0
19 -20 0
7 -10 0
34 -29 0
50 -52 0
11 -16 0
24 -25 0
46 -43 0
45 -45 0
104 -103 0
86 -85 0
63 -64 0
99 -100 0
108 -107 0
75 -76 0
94 -93 0
38 -35 0
103 -104 0
40 -40 0
84 -83 0
62 -61 0
97 -98 0
105 -106 0
73 -74 0
91 -92 0
20 -19 0
85 -86 0
83 -84 0
21 -21 0
56 -55 0
81 -82 0
88 -87 0
68 -67 0
79 -80 0
10 -7 0
64 -63 0
61 -62 0
55 -56 0
5 -5 0
59 -60 0
65 -66 0
54 -53 0
57 -58 0
29 -34 0
100 -99 0
98 -97 0
82 -81 0
60 -59 0
30 -30 0
101 -102 0
71 -72 0
89 -90 0
52 -50 0
107 -108 0
106 -105 0
87 -88 0
66 -65 0
102 -101 0
51 -51 0
77 -78 0
96 -95 0
16 -11 0
76 -75 0
74 -73 0
67 -68 0
53 -54 0
72 -71 0
78 -77 0
14 -14 0
69 -70 0
25 -24 0
93 -94 0
92 -91 0
80 -79 0
58 -57 0
90 -89 0
95 -96 0
70 -69 0
23 -23 0
3 1 2 0
41 44 42 0
37 36 39 0
17 18 22 0
9 8 6 0
31 33 32 0
48 47 49 0
13 15 12 0
28 27 26 0
-3 -4 0
-3 -1 0
-3 -2 0
-41 -45 0
-41 -44 0
-41 -42 0
-37 -40 0
-37 -36 0
-37 -39 0
-17 -21 0
-17 -18 0
-17 -22 0
-9 -5 0
-9 -8 0
-9 -6 0
-31 -30 0
-31 -33 0
-31 -32 0
-48 -51 0
-48 -47 0
-48 -49 0
-13 -14 0
-13 -15 0
-13 -12 0
-28 -23 0
-28 -27 0
-28 -26 0
-4 -1 0
-4 -2 0
-45 -44 0
-45 -42 0
-40 -36 0
-40 -39 0
-21 -18 0
-21 -22 0
-5 -8 0
-5 -6 0
-30 -33 0
-30 -32 0
-51 -47 0
-51 -49 0
-14 -15 0
-14 -12 0
-23 -27 0
-23 -26 0
-1 -2 0
-44 -42 0
-36 -39 0
-18 -22 0
-8 -6 0
-33 -32 0
-47 -49 0
-15 -12 0
-27 -26 0
-3 -41 -43 0
-3 -41 -46 0
-3 -37 -35 0
-3 -37 -38 0
-3 -17 -19 0
-3 -17 -20 0
-3 -9 -7 0
-3 -9 -10 0
-3 -31 -34 0
-3 -31 -29 0
-3 -48 -50 0
-3 -48 -52 0
-3 -13 -11 0
-3 -13 -16 0
-3 -28 -24 0
-3 -28 -25 0
-41 -37 -104 0
-41 -37 -103 0
-41 -17 -86 0
-41 -17 -85 0
-41 -9 -63 0
-41 -9 -64 0
-41 -31 -99 0
-41 -31 -100 0
-41 -48 -108 0
-41 -48 -107 0
-41 -13 -75 0
-41 -13 -76 0
-41 -28 -94 0
-41 -28 -93 0
-37 -17 -84 0
-37 -17 -83 0
-37 -9 -62 0
-37 -9 -61 0
-37 -31 -97 0
-37 -31 -98 0
-37 -48 -105 0
-37 -48 -106 0
-37 -13 -73 0
-37 -13 -74 0
-37 -28 -91 0
-37 -28 -92 0
-17 -9 -56 0
-17 -9 -55 0
-17 -31 -81 0
-17 -31 -82 0
-17 -48 -88 0
-17 -48 -87 0
-17 -13 -68 0
-17 -13 -67 0
-17 -28 -79 0
-17 -28 -80 0
-9 -31 -59 0
-9 -31 -60 0
-9 -48 -65 0
-9 -48 -66 0
-9 -13 -54 0
-9 -13 -53 0
-9 -28 -57 0
-9 -28 -58 0
-31 -48 -101 0
-31 -48 -102 0
-31 -13 -71 0
-31 -13 -72 0
-31 -28 -89 0
-31 -28 -90 0
-48 -13 -77 0
-48 -13 -78 0
-48 -28 -96 0
-48 -28 -95 0
-13 -28 -69 0
-13 -28 -70 0
-43 -1 -44 0
-43 -2 -42 0
-35 -1 -36 0
-35 -2 -39 0
-19 -1 -18 0
-19 -2 -22 0
-7 -1 -8 0
-7 -2 -6 0
-34 -1 -33 0
-34 -2 -32 0
-50 -1 -47 0
-50 -2 -49 0
-11 -1 -15 0
-11 -2 -12 0
-24 -1 -27 0
-24 -2 -26 0
-46 -1 -44 0
-46 -2 -42 0
-104 -44 -36 0
-104 -42 -39 0
-86 -44 -18 0
-86 -42 -22 0
-63 -44 -8 0
-63 -42 -6 0
-99 -44 -33 0
-99 -42 -32 0
-108 -44 -47 0
-108 -42 -49 0
-75 -44 -15 0
-75 -42 -12 0
-94 -44 -27 0
-94 -42 -26 0
-38 -1 -36 0
-38 -2 -39 0
-103 -44 -36 0
-103 -42 -39 0
-84 -36 -18 0
-84 -39 -22 0
-62 -36 -8 0
-62 -39 -6 0
-97 -36 -33 0
-97 -39 -32 0
-105 -36 -47 0
-105 -39 -49 0
-73 -36 -15 0
-73 -39 -12 0
-91 -36 -27 0
-91 -39 -26 0
-20 -1 -18 0
-20 -2 -22 0
-85 -44 -18 0
-85 -42 -22 0
-83 -36 -18 0
-83 -39 -22 0
-56 -18 -8 0
-56 -22 -6 0
-81 -18 -33 0
-81 -22 -32 0
-88 -18 -47 0
-88 -22 -49 0
-68 -18 -15 0
-68 -22 -12 0
-79 -18 -27 0
-79 -22 -26 0
-10 -1 -8 0
-10 -2 -6 0
-64 -44 -8 0
-64 -42 -6 0
-61 -36 -8 0
-61 -39 -6 0
-55 -18 -8 0
-55 -22 -6 0
-59 -8 -33 0
-59 -6 -32 0
-65 -8 -47 0
-65 -6 -49 0
-54 -8 -15 0
-54 -6 -12 0
-57 -8 -27 0
-57 -6 -26 0
-29 -1 -33 0
-29 -2 -32 0
-100 -44 -33 0
-100 -42 -32 0
-98 -36 -33 0
-98 -39 -32 0
-82 -18 -33 0
-82 -22 -32 0
-60 -8 -33 0
-60 -6 -32 0
-101 -33 -47 0
-101 -32 -49 0
-71 -33 -15 0
-71 -32 -12 0
-89 -33 -27 0
-89 -32 -26 0
-52 -1 -47 0
-52 -2 -49 0
-107 -44 -47 0
-107 -42 -49 0
-106 -36 -47 0
-106 -39 -49 0
-87 -18 -47 0
-87 -22 -49 0
-66 -8 -47 0
-66 -6 -49 0
-102 -33 -47 0
-102 -32 -49 0
-77 -47 -15 0
-77 -49 -12 0
-96 -47 -27 0
-96 -49 -26 0
-16 -1 -15 0
-16 -2 -12 0
-76 -44 -15 0
-76 -42 -12 0
-74 -36 -15 0
-74 -39 -12 0
-67 -18 -15 0
-67 -22 -12 0
-53 -8 -15 0
-53 -6 -12 0
-72 -33 -15 0
-72 -32 -12 0
-78 -47 -15 0
-78 -49 -12 0
-69 -15 -27 0
-69 -12 -26 0
-25 -1 -27 0
-25 -2 -26 0
-93 -44 -27 0
-93 -42 -26 0
-92 -36 -27 0
-92 -39 -26 0
-80 -18 -27 0
-80 -22 -26 0
-58 -8 -27 0
-58 -6 -26 0
-90 -33 -27 0
-90 -32 -26 0
-95 -47 -27 0
-95 -49 -26 0
-70 -15 -27 0
-70 -12 -26 0
4 43 35 19 7 34 50 11 24 0
46 45 104 86 63 99 108 75 94 0
38 103 40 84 62 97 105 73 91 0
20 85 83 21 56 81 88 68 79 0
10 64 61 55 5 59 65 54 57 0
29 100 98 82 60 30 101 71 89 0
52 107 106 87 66 102 51 77 96 0
16 76 74 67 53 72 78 14 69 0
25 93 92 80 58 90 95 70 23 0
