c R(6) E(6,6) B(6) E(1,6) E(6,1) R(1) B(1) E(6,7) R(7) B(7) E(7,6) R(3) E(6,3) B(3) E(3,6) B(9) E(6,9) R(9) E(9,6) E(0,6) E(6,0) R(0) B(0) E(6,2) R(2) B(2) E(2,6) R(5) E(6,5) E(5,6) B(5) R(8) E(6,8) E(8,6) B(8) B(4) E(4,6) E(6,4) R(4) E(1,1) E(1,7) E(7,1) E(3,1) E(1,3) E(1,9) E(9,1) E(1,0) E(0,1) E(2,1) E(1,2) E(5,1) E(1,5) E(8,1) E(1,8) E(4,1) E(1,4) E(7,7) E(3,7) E(7,3) E(7,9) E(9,7) E(0,7) E(7,0) E(2,7) E(7,2) E(5,7) E(7,5) E(8,7) E(7,8) E(4,7) E(7,4) E(3,3) E(3,9) E(9,3) E(3,0) E(0,3) E(3,2) E(2,3) E(3,5) E(5,3) E(3,8) E(8,3) E(4,3) E(3,4) E(9,9) E(9,0) E(0,9) E(9,2) E(2,9) E(9,5) E(5,9) E(9,8) E(8,9) E(9,4) E(4,9) E(0,0) E(2,0) E(0,2) E(0,5) E(5,0) E(8,0) E(0,8) E(4,0) E(0,4) E(2,2) E(2,5) E(5,2) E(8,2) E(2,8) E(4,2) E(2,4) E(5,5) E(8,5) E(5,8) E(4,5) E(5,4) E(8,8) E(4,8) E(8,4) E(4,4)
c 1 2 3 4 5 6 7 8 9 10 11 12 13 14 15 16 17 18 19 20 21 22 23 24 25 26 27 28 29 30 31 32 33 34 35 36 37 38 39 40 41 42 43 44 45 46 47 48 49 50 51 52 53 54 55 56 57 58 59 60 61 62 63 64 65 66 67 68 69 70 71 72 73 74 75 76 77 78 79 80 81 82 83 84 85 86 87 88 89 90 91 92 93 94 95 96 97 98 99 100 101 102 103 104 105 106 107 108 109 110 111 112 113 114 115 116 117 118 119 120
p cnf 120 510
23 22 0
7 6 0
26 25 0
14 12 0
36 39 0
31 28 0
3 1 0
10 9 0
35 32 0
16 18 0
23 -96 0
7 -40 0
26 -105 0
14 -72 0
36 -120 0
31 -112 0
3 -2 0
10 -57 0
35 -117 0
16 -85 0
96 -96 0
48 -47 0
98 -97 0
76 -75 0
104 -103 0
99 -100 0
20 -21 0
62 -63 0
102 -101 0
87 -86 0
47 -48 0
40 -40 0
50 -49 0
44 -43 0
56 -55 0
52 -51 0
4 -5 0
41 -42 0
54 -53 0
45 -46 0
97 -98 0
49 -50 0
105 -105 0
78 -77 0
111 -110 0
106 -107 0
27 -24 0
64 -65 0
109 -108 0
89 -88 0
75 -76 0
43 -44 0
77 -78 0
72 -72 0
84 -83 0
79 -80 0
15 -13 0
58 -59 0
81 -82 0
73 -74 0
103 -104 0
55 -56 0
110 -111 0
83 -84 0
120 -120 0
115 -116 0
37 -38 0
70 -71 0
118 -119 0
95 -94 0
100 -99 0
51 -52 0
107 -106 0
80 -79 0
116 -115 0
112 -112 0
30 -29 0
66 -67 0
114 -113 0
91 -90 0
21 -20 0
5 -4 0
24 -27 0
13 -15 0
38 -37 0
29 -30 0
2 -2 0
8 -11 0
33 -34 0
17 -19 0
63 -62 0
42 -41 0
65 -64 0
59 -58 0
71 -70 0
67 -66 0
11 -8 0
57 -57 0
69 -68 0
60 -61 0
101 -102 0
53 -54 0
108 -109 0
82 -81 0
119 -118 0
113 -114 0
34 -33 0
68 -69 0
117 -117 0
93 -92 0
86 -87 0
46 -45 0
88 -89 0
74 -73 0
94 -95 0
90 -91 0
19 -17 0
61 -60 0
92 -93 0
85 -85 0
22 -96 0
6 -40 0
25 -105 0
12 -72 0
39 -120 0
28 -112 0
1 -2 0
9 -57 0
32 -117 0
18 -85 0
-23 -22 0
-7 -6 0
-26 -25 0
-14 -12 0
-36 -39 0
-31 -28 0
-3 -1 0
-10 -9 0
-35 -32 0
-16 -18 0
23 7 -48 0
23 7 -47 0
23 26 -98 0
23 26 -97 0
23 14 -76 0
23 14 -75 0
23 36 -104 0
23 36 -103 0
23 31 -99 0
23 31 -100 0
23 3 -20 0
23 3 -21 0
23 10 -62 0
23 10 -63 0
23 35 -102 0
23 35 -101 0
23 16 -87 0
23 16 -86 0
23 22 -48 0
23 22 -98 0
23 22 -76 0
23 22 -104 0
23 22 -99 0
23 22 -20 0
23 22 -62 0
23 22 -102 0
23 22 -87 0
23 22 -47 0
23 22 -97 0
23 22 -75 0
23 22 -103 0
23 22 -100 0
23 22 -21 0
23 22 -63 0
23 22 -101 0
23 22 -86 0
7 26 -50 0
7 26 -49 0
7 14 -44 0
7 14 -43 0
7 36 -56 0
7 36 -55 0
7 31 -52 0
7 31 -51 0
7 3 -4 0
7 3 -5 0
7 10 -41 0
7 10 -42 0
7 35 -54 0
7 35 -53 0
7 16 -45 0
7 16 -46 0
7 6 -48 0
7 6 -47 0
7 6 -50 0
7 6 -44 0
7 6 -56 0
7 6 -52 0
7 6 -4 0
7 6 -41 0
7 6 -54 0
7 6 -45 0
7 6 -49 0
7 6 -43 0
7 6 -55 0
7 6 -51 0
7 6 -5 0
7 6 -42 0
7 6 -53 0
7 6 -46 0
26 14 -78 0
26 14 -77 0
26 36 -111 0
26 36 -110 0
26 31 -106 0
26 31 -107 0
26 3 -27 0
26 3 -24 0
26 10 -64 0
26 10 -65 0
26 35 -109 0
26 35 -108 0
26 16 -89 0
26 16 -88 0
26 25 -98 0
26 25 -50 0
26 25 -97 0
26 25 -49 0
26 25 -78 0
26 25 -111 0
26 25 -106 0
26 25 -27 0
26 25 -64 0
26 25 -109 0
26 25 -89 0
26 25 -77 0
26 25 -110 0
26 25 -107 0
26 25 -24 0
26 25 -65 0
26 25 -108 0
26 25 -88 0
14 36 -84 0
14 36 -83 0
14 31 -79 0
14 31 -80 0
14 3 -15 0
14 3 -13 0
14 10 -58 0
14 10 -59 0
14 35 -81 0
14 35 -82 0
14 16 -73 0
14 16 -74 0
14 12 -76 0
14 12 -44 0
14 12 -78 0
14 12 -75 0
14 12 -43 0
14 12 -77 0
14 12 -84 0
14 12 -79 0
14 12 -15 0
14 12 -58 0
14 12 -81 0
14 12 -73 0
14 12 -83 0
14 12 -80 0
14 12 -13 0
14 12 -59 0
14 12 -82 0
14 12 -74 0
36 31 -115 0
36 31 -116 0
36 3 -37 0
36 3 -38 0
36 10 -70 0
36 10 -71 0
36 35 -118 0
36 35 -119 0
36 16 -95 0
36 16 -94 0
36 39 -104 0
36 39 -56 0
36 39 -111 0
36 39 -84 0
36 39 -103 0
36 39 -55 0
36 39 -110 0
36 39 -83 0
36 39 -115 0
36 39 -37 0
36 39 -70 0
36 39 -118 0
36 39 -95 0
36 39 -116 0
36 39 -38 0
36 39 -71 0
36 39 -119 0
36 39 -94 0
31 3 -30 0
31 3 -29 0
31 10 -66 0
31 10 -67 0
31 35 -114 0
31 35 -113 0
31 16 -91 0
31 16 -90 0
31 28 -99 0
31 28 -52 0
31 28 -106 0
31 28 -79 0
31 28 -115 0
31 28 -100 0
31 28 -51 0
31 28 -107 0
31 28 -80 0
31 28 -116 0
31 28 -30 0
31 28 -66 0
31 28 -114 0
31 28 -91 0
31 28 -29 0
31 28 -67 0
31 28 -113 0
31 28 -90 0
3 10 -8 0
3 10 -11 0
3 35 -33 0
3 35 -34 0
3 16 -17 0
3 16 -19 0
3 1 -20 0
3 1 -4 0
3 1 -27 0
3 1 -15 0
3 1 -37 0
3 1 -30 0
3 1 -21 0
3 1 -5 0
3 1 -24 0
3 1 -13 0
3 1 -38 0
3 1 -29 0
3 1 -8 0
3 1 -33 0
3 1 -17 0
3 1 -11 0
3 1 -34 0
3 1 -19 0
10 35 -69 0
10 35 -68 0
10 16 -60 0
10 16 -61 0
10 9 -62 0
10 9 -41 0
10 9 -64 0
10 9 -58 0
10 9 -70 0
10 9 -66 0
10 9 -8 0
10 9 -63 0
10 9 -42 0
10 9 -65 0
10 9 -59 0
10 9 -71 0
10 9 -67 0
10 9 -11 0
10 9 -69 0
10 9 -60 0
10 9 -68 0
10 9 -61 0
35 16 -93 0
35 16 -92 0
35 32 -102 0
35 32 -54 0
35 32 -109 0
35 32 -81 0
35 32 -118 0
35 32 -114 0
35 32 -33 0
35 32 -69 0
35 32 -101 0
35 32 -53 0
35 32 -108 0
35 32 -82 0
35 32 -119 0
35 32 -113 0
35 32 -34 0
35 32 -68 0
35 32 -93 0
35 32 -92 0
16 18 -87 0
16 18 -45 0
16 18 -89 0
16 18 -73 0
16 18 -95 0
16 18 -91 0
16 18 -17 0
16 18 -60 0
16 18 -93 0
16 18 -86 0
16 18 -46 0
16 18 -88 0
16 18 -74 0
16 18 -94 0
16 18 -90 0
16 18 -19 0
16 18 -61 0
16 18 -92 0
22 6 -48 0
22 6 -47 0
22 25 -98 0
22 25 -97 0
22 12 -76 0
22 12 -75 0
22 39 -104 0
22 39 -103 0
22 28 -99 0
22 28 -100 0
22 1 -20 0
22 1 -21 0
22 9 -62 0
22 9 -63 0
22 32 -102 0
22 32 -101 0
22 18 -87 0
22 18 -86 0
6 25 -50 0
6 25 -49 0
6 12 -44 0
6 12 -43 0
6 39 -56 0
6 39 -55 0
6 28 -52 0
6 28 -51 0
6 1 -4 0
6 1 -5 0
6 9 -41 0
6 9 -42 0
6 32 -54 0
6 32 -53 0
6 18 -45 0
6 18 -46 0
25 12 -78 0
25 12 -77 0
25 39 -111 0
25 39 -110 0
25 28 -106 0
25 28 -107 0
25 1 -27 0
25 1 -24 0
25 9 -64 0
25 9 -65 0
25 32 -109 0
25 32 -108 0
25 18 -89 0
25 18 -88 0
12 39 -84 0
12 39 -83 0
12 28 -79 0
12 28 -80 0
12 1 -15 0
12 1 -13 0
12 9 -58 0
12 9 -59 0
12 32 -81 0
12 32 -82 0
12 18 -73 0
12 18 -74 0
39 28 -115 0
39 28 -116 0
39 1 -37 0
39 1 -38 0
39 9 -70 0
39 9 -71 0
39 32 -118 0
39 32 -119 0
39 18 -95 0
39 18 -94 0
28 1 -30 0
28 1 -29 0
28 9 -66 0
28 9 -67 0
28 32 -114 0
28 32 -113 0
28 18 -91 0
28 18 -90 0
1 9 -8 0
1 9 -11 0
1 32 -33 0
1 32 -34 0
1 18 -17 0
1 18 -19 0
9 32 -69 0
9 32 -68 0
9 18 -60 0
9 18 -61 0
32 18 -93 0
32 18 -92 0
96 48 98 76 104 99 20 62 102 87 0
47 40 50 44 56 52 4 41 54 45 0
97 49 105 78 111 106 27 64 109 89 0
75 43 77 72 84 79 15 58 81 73 0
103 55 110 83 120 115 37 70 118 95 0
100 51 107 80 116 112 30 66 114 91 0
21 5 24 13 38 29 2 8 33 17 0
63 42 65 59 71 67 11 57 69 60 0
101 53 108 82 119 113 34 68 117 93 0
86 46 88 74 94 90 19 61 92 85 0
