c R(10) B(10) E(10,10) E(0,10) B(0) E(10,0) R(0) E(1,10) E(10,1) B(1) R(1) B(5) E(5,10) E(10,5) R(5) E(10,9) E(9,10) B(9) R(9) B(6) E(6,10) E(10,6) R(6) E(4,10) B(4) E(10,4) R(4) B(2) E(2,10) R(2) E(10,2) E(10,3) B(3) E(3,10) R(3) E(10,7) B(7) E(7,10) R(7) B(8) R(8) E(8,10) E(10,8) E(0,0) E(1,0) E(0,1) E(0,5) E(5,0) E(9,0) E(0,9) E(6,0) E(0,6) E(4,0) E(0,4) E(2,0) E(0,2) E(3,0) E(0,3) E(0,7) E(7,0) E(0,8) E(8,0) E(1,1) E(5,1) E(1,5) E(9,1) E(1,9) E(1,6) E(6,1) E(4,1) E(1,4) E(1,2) E(2,1) E(1,3) E(3,1) E(7,1) E(1,7) E(8,1) E(1,8) E(5,5) E(5,9) E(9,5) E(5,6) E(6,5) E(5,4) E(4,5) E(2,5) E(5,2) E(3,5) E(5,3) E(7,5) E(5,7) E(5,8) E(8,5) E(9,9) E(6,9) E(9,6) E(4,9) E(9,4) E(2,9) E(9,2) E(3,9) E(9,3) E(7,9) E(9,7) E(8,9) E(9,8) E(6,6) E(4,6) E(6,4) E(2,6) E(6,2) E(6,3) E(3,6) E(6,7) E(7,6) E(6,8) E(8,6) E(4,4) E(2,4) E(4,2) E(3,4) E(4,3) E(7,4) E(4,7) E(8,4) E(4,8) E(2,2) E(3,2) E(2,3) E(2,7) E(7,2) E(2,8) E(8,2) E(3,3) E(3,7) E(7,3) E(3,8) E(8,3) E(7,7) E(8,7) E(7,8) E(8,8)
c 1 2 3 4 5 6 7 8 9 10 11 12 13 14 15 16 17 18 19 20 21 22 23 24 25 26 27 28 29 30 31 32 33 34 35 36 37 38 39 40 41 42 43 44 45 46 47 48 49 50 51 52 53 54 55 56 57 58 59 60 61 62 63 64 65 66 67 68 69 70 71 72 73 74 75 76 77 78 79 80 81 82 83 84 85 86 87 88 89 90 91 92 93 94 95 96 97 98 99 100 101 102 103 104 105 106 107 108 109 110 111 112 113 114 115 116 117 118 119 120 121 122 123 124 125 126 127 128 129 130 131 132 133 134 135 136 137 138 139 140 141 142 143
p cnf 143 616
5 7 0
10 11 0
2 1 0
28 30 0
33 35 0
25 27 0
12 15 0
20 23 0
37 39 0
40 41 0
18 19 0
5 -44 0
10 -63 0
2 -3 0
28 -128 0
33 -135 0
25 -119 0
12 -80 0
20 -108 0
37 -140 0
40 -143 0
18 -95 0
44 -44 0
46 -45 0
4 -6 0
56 -55 0
58 -57 0
54 -53 0
47 -48 0
52 -51 0
59 -60 0
61 -62 0
50 -49 0
45 -46 0
63 -63 0
8 -9 0
72 -73 0
74 -75 0
71 -70 0
65 -64 0
68 -69 0
77 -76 0
79 -78 0
67 -66 0
6 -4 0
9 -8 0
3 -3 0
31 -29 0
32 -34 0
26 -24 0
14 -13 0
22 -21 0
36 -38 0
43 -42 0
16 -17 0
55 -56 0
73 -72 0
29 -31 0
128 -128 0
130 -129 0
120 -121 0
87 -88 0
111 -112 0
131 -132 0
133 -134 0
100 -101 0
57 -58 0
75 -74 0
34 -32 0
129 -130 0
135 -135 0
122 -123 0
89 -90 0
114 -113 0
136 -137 0
138 -139 0
102 -103 0
53 -54 0
70 -71 0
24 -26 0
121 -120 0
123 -122 0
119 -119 0
86 -85 0
109 -110 0
125 -124 0
127 -126 0
98 -99 0
48 -47 0
64 -65 0
13 -14 0
88 -87 0
90 -89 0
85 -86 0
80 -80 0
83 -84 0
92 -91 0
93 -94 0
81 -82 0
51 -52 0
69 -68 0
21 -22 0
112 -111 0
113 -114 0
110 -109 0
84 -83 0
108 -108 0
115 -116 0
117 -118 0
96 -97 0
60 -59 0
76 -77 0
38 -36 0
132 -131 0
137 -136 0
124 -125 0
91 -92 0
116 -115 0
140 -140 0
142 -141 0
104 -105 0
62 -61 0
78 -79 0
42 -43 0
134 -133 0
139 -138 0
126 -127 0
94 -93 0
118 -117 0
141 -142 0
143 -143 0
106 -107 0
49 -50 0
66 -67 0
17 -16 0
101 -100 0
103 -102 0
99 -98 0
82 -81 0
97 -96 0
105 -104 0
107 -106 0
95 -95 0
7 -44 0
11 -63 0
1 -3 0
30 -128 0
35 -135 0
27 -119 0
15 -80 0
23 -108 0
39 -140 0
41 -143 0
19 -95 0
-5 -7 0
-10 -11 0
-2 -1 0
-28 -30 0
-33 -35 0
-25 -27 0
-12 -15 0
-20 -23 0
-37 -39 0
-40 -41 0
-18 -19 0
5 10 -46 0
5 10 -45 0
5 2 -4 0
5 2 -6 0
5 28 -56 0
5 28 -55 0
5 33 -58 0
5 33 -57 0
5 25 -54 0
5 25 -53 0
5 12 -47 0
5 12 -48 0
5 20 -52 0
5 20 -51 0
5 37 -59 0
5 37 -60 0
5 40 -61 0
5 40 -62 0
5 18 -50 0
5 18 -49 0
5 7 -46 0
5 7 -4 0
5 7 -56 0
5 7 -58 0
5 7 -54 0
5 7 -47 0
5 7 -52 0
5 7 -59 0
5 7 -61 0
5 7 -50 0
5 7 -45 0
5 7 -6 0
5 7 -55 0
5 7 -57 0
5 7 -53 0
5 7 -48 0
5 7 -51 0
5 7 -60 0
5 7 -62 0
5 7 -49 0
10 2 -8 0
10 2 -9 0
10 28 -72 0
10 28 -73 0
10 33 -74 0
10 33 -75 0
10 25 -71 0
10 25 -70 0
10 12 -65 0
10 12 -64 0
10 20 -68 0
10 20 -69 0
10 37 -77 0
10 37 -76 0
10 40 -79 0
10 40 -78 0
10 18 -67 0
10 18 -66 0
10 11 -46 0
10 11 -45 0
10 11 -8 0
10 11 -72 0
10 11 -74 0
10 11 -71 0
10 11 -65 0
10 11 -68 0
10 11 -77 0
10 11 -79 0
10 11 -67 0
10 11 -9 0
10 11 -73 0
10 11 -75 0
10 11 -70 0
10 11 -64 0
10 11 -69 0
10 11 -76 0
10 11 -78 0
10 11 -66 0
2 28 -31 0
2 28 -29 0
2 33 -32 0
2 33 -34 0
2 25 -26 0
2 25 -24 0
2 12 -14 0
2 12 -13 0
2 20 -22 0
2 20 -21 0
2 37 -36 0
2 37 -38 0
2 40 -43 0
2 40 -42 0
2 18 -16 0
2 18 -17 0
2 1 -4 0
2 1 -8 0
2 1 -6 0
2 1 -9 0
2 1 -31 0
2 1 -32 0
2 1 -26 0
2 1 -14 0
2 1 -22 0
2 1 -36 0
2 1 -43 0
2 1 -16 0
2 1 -29 0
2 1 -34 0
2 1 -24 0
2 1 -13 0
2 1 -21 0
2 1 -38 0
2 1 -42 0
2 1 -17 0
28 33 -130 0
28 33 -129 0
28 25 -120 0
28 25 -121 0
28 12 -87 0
28 12 -88 0
28 20 -111 0
28 20 -112 0
28 37 -131 0
28 37 -132 0
28 40 -133 0
28 40 -134 0
28 18 -100 0
28 18 -101 0
28 30 -56 0
28 30 -72 0
28 30 -31 0
28 30 -55 0
28 30 -73 0
28 30 -29 0
28 30 -130 0
28 30 -120 0
28 30 -87 0
28 30 -111 0
28 30 -131 0
28 30 -133 0
28 30 -100 0
28 30 -129 0
28 30 -121 0
28 30 -88 0
28 30 -112 0
28 30 -132 0
28 30 -134 0
28 30 -101 0
33 25 -122 0
33 25 -123 0
33 12 -89 0
33 12 -90 0
33 20 -114 0
33 20 -113 0
33 37 -136 0
33 37 -137 0
33 40 -138 0
33 40 -139 0
33 18 -102 0
33 18 -103 0
33 35 -58 0
33 35 -74 0
33 35 -32 0
33 35 -130 0
33 35 -57 0
33 35 -75 0
33 35 -34 0
33 35 -129 0
33 35 -122 0
33 35 -89 0
33 35 -114 0
33 35 -136 0
33 35 -138 0
33 35 -102 0
33 35 -123 0
33 35 -90 0
33 35 -113 0
33 35 -137 0
33 35 -139 0
33 35 -103 0
25 12 -86 0
25 12 -85 0
25 20 -109 0
25 20 -110 0
25 37 -125 0
25 37 -124 0
25 40 -127 0
25 40 -126 0
25 18 -98 0
25 18 -99 0
25 27 -54 0
25 27 -71 0
25 27 -26 0
25 27 -120 0
25 27 -122 0
25 27 -53 0
25 27 -70 0
25 27 -24 0
25 27 -121 0
25 27 -123 0
25 27 -86 0
25 27 -109 0
25 27 -125 0
25 27 -127 0
25 27 -98 0
25 27 -85 0
25 27 -110 0
25 27 -124 0
25 27 -126 0
25 27 -99 0
12 20 -83 0
12 20 -84 0
12 37 -92 0
12 37 -91 0
12 40 -93 0
12 40 -94 0
12 18 -81 0
12 18 -82 0
12 15 -47 0
12 15 -65 0
12 15 -14 0
12 15 -87 0
12 15 -89 0
12 15 -86 0
12 15 -48 0
12 15 -64 0
12 15 -13 0
12 15 -88 0
12 15 -90 0
12 15 -85 0
12 15 -83 0
12 15 -92 0
12 15 -93 0
12 15 -81 0
12 15 -84 0
12 15 -91 0
12 15 -94 0
12 15 -82 0
20 37 -115 0
20 37 -116 0
20 40 -117 0
20 40 -118 0
20 18 -96 0
20 18 -97 0
20 23 -52 0
20 23 -68 0
20 23 -22 0
20 23 -111 0
20 23 -114 0
20 23 -109 0
20 23 -83 0
20 23 -51 0
20 23 -69 0
20 23 -21 0
20 23 -112 0
20 23 -113 0
20 23 -110 0
20 23 -84 0
20 23 -115 0
20 23 -117 0
20 23 -96 0
20 23 -116 0
20 23 -118 0
20 23 -97 0
37 40 -142 0
37 40 -141 0
37 18 -104 0
37 18 -105 0
37 39 -59 0
37 39 -77 0
37 39 -36 0
37 39 -131 0
37 39 -136 0
37 39 -125 0
37 39 -92 0
37 39 -115 0
37 39 -60 0
37 39 -76 0
37 39 -38 0
37 39 -132 0
37 39 -137 0
37 39 -124 0
37 39 -91 0
37 39 -116 0
37 39 -142 0
37 39 -104 0
37 39 -141 0
37 39 -105 0
40 18 -106 0
40 18 -107 0
40 41 -61 0
40 41 -79 0
40 41 -43 0
40 41 -133 0
40 41 -138 0
40 41 -127 0
40 41 -93 0
40 41 -117 0
40 41 -142 0
40 41 -62 0
40 41 -78 0
40 41 -42 0
40 41 -134 0
40 41 -139 0
40 41 -126 0
40 41 -94 0
40 41 -118 0
40 41 -141 0
40 41 -106 0
40 41 -107 0
18 19 -50 0
18 19 -67 0
18 19 -16 0
18 19 -100 0
18 19 -102 0
18 19 -98 0
18 19 -81 0
18 19 -96 0
18 19 -104 0
18 19 -106 0
18 19 -49 0
18 19 -66 0
18 19 -17 0
18 19 -101 0
18 19 -103 0
18 19 -99 0
18 19 -82 0
18 19 -97 0
18 19 -105 0
18 19 -107 0
7 11 -46 0
7 11 -45 0
7 1 -4 0
7 1 -6 0
7 30 -56 0
7 30 -55 0
7 35 -58 0
7 35 -57 0
7 27 -54 0
7 27 -53 0
7 15 -47 0
7 15 -48 0
7 23 -52 0
7 23 -51 0
7 39 -59 0
7 39 -60 0
7 41 -61 0
7 41 -62 0
7 19 -50 0
7 19 -49 0
11 1 -8 0
11 1 -9 0
11 30 -72 0
11 30 -73 0
11 35 -74 0
11 35 -75 0
11 27 -71 0
11 27 -70 0
11 15 -65 0
11 15 -64 0
11 23 -68 0
11 23 -69 0
11 39 -77 0
11 39 -76 0
11 41 -79 0
11 41 -78 0
11 19 -67 0
11 19 -66 0
1 30 -31 0
1 30 -29 0
1 35 -32 0
1 35 -34 0
1 27 -26 0
1 27 -24 0
1 15 -14 0
1 15 -13 0
1 23 -22 0
1 23 -21 0
1 39 -36 0
1 39 -38 0
1 41 -43 0
1 41 -42 0
1 19 -16 0
1 19 -17 0
30 35 -130 0
30 35 -129 0
30 27 -120 0
30 27 -121 0
30 15 -87 0
30 15 -88 0
30 23 -111 0
30 23 -112 0
30 39 -131 0
30 39 -132 0
30 41 -133 0
30 41 -134 0
30 19 -100 0
30 19 -101 0
35 27 -122 0
35 27 -123 0
35 15 -89 0
35 15 -90 0
35 23 -114 0
35 23 -113 0
35 39 -136 0
35 39 -137 0
35 41 -138 0
35 41 -139 0
35 19 -102 0
35 19 -103 0
27 15 -86 0
27 15 -85 0
27 23 -109 0
27 23 -110 0
27 39 -125 0
27 39 -124 0
27 41 -127 0
27 41 -126 0
27 19 -98 0
27 19 -99 0
15 23 -83 0
15 23 -84 0
15 39 -92 0
15 39 -91 0
15 41 -93 0
15 41 -94 0
15 19 -81 0
15 19 -82 0
23 39 -115 0
23 39 -116 0
23 41 -117 0
23 41 -118 0
23 19 -96 0
23 19 -97 0
39 41 -142 0
39 41 -141 0
39 19 -104 0
39 19 -105 0
41 19 -106 0
41 19 -107 0
44 46 4 56 58 54 47 52 59 61 50 0
45 63 8 72 74 71 65 68 77 79 67 0
6 9 3 31 32 26 14 22 36 43 16 0
55 73 29 128 130 120 87 111 131 133 100 0
57 75 34 129 135 122 89 114 136 138 102 0
53 70 24 121 123 119 86 109 125 127 98 0
48 64 13 88 90 85 80 83 92 93 81 0
51 69 21 112 113 110 84 108 115 117 96 0
60 76 38 132 137 124 91 116 140 142 104 0
62 78 42 134 139 126 94 118 141 143 106 0
49 66 17 101 103 99 82 97 105 107 95 0
