c R(2) E(2,2) B(2) E(0,2) E(2,0) B(0) R(0) E(2,9) R(9) E(9,2) B(9) E(2,6) R(6) E(6,2) B(6) B(7) E(7,2) E(2,7) R(7) R(8) E(8,2) B(8) E(2,8) R(4) E(2,4) E(4,2) B(4) B(11) R(11) E(2,11) E(11,2) R(10) E(2,10) B(10) E(10,2) B(5) E(2,5) R(5) E(5,2) E(1,2) B(1) E(2,1) R(1) E(2,3) E(3,2) R(3) B(3) E(0,0) E(0,9) E(9,0) E(0,6) E(6,0) E(0,7) E(7,0) E(0,8) E(8,0) E(4,0) E(0,4) E(0,11) E(11,0) E(0,10) E(10,0) E(0,5) E(5,0) E(0,1) E(1,0) E(0,3) E(3,0) E(9,9) E(6,9) E(9,6) E(9,7) E(7,9) E(9,8) E(8,9) E(9,4) E(4,9) E(11,9) E(9,11) E(9,10) E(10,9) E(9,5) E(5,9) E(9,1) E(1,9) E(3,9) E(9,3) E(6,6) E(6,7) E(7,6) E(6,8) E(8,6) E(6,4) E(4,6) E(6,11) E(11,6) E(10,6) E(6,10) E(6,5) E(5,6) E(1,6) E(6,1) E(6,3) E(3,6) E(7,7) E(7,8) E(8,7) E(7,4) E(4,7) E(7,11) E(11,7) E(10,7) E(7,10) E(7,5) E(5,7) E(7,1) E(1,7) E(3,7) E(7,3) E(8,8) E(4,8) E(8,4) E(8,11) E(11,8) E(10,8) E(8,10) E(5,8) E(8,5) E(1,8) E(8,1) E(3,8) E(8,3) E(4,4) E(4,11) E(11,4) E(10,4) E(4,10) E(4,5) E(5,4) E(4,1) E(1,4) E(4,3) E(3,4) E(11,11) E(11,10) E(10,11) E(11,5) E(5,11) E(11,1) E(1,11) E(11,3) E(3,11) E(10,10) E(5,10) E(10,5) E(10,1) E(1,10) E(3,10) E(10,3) E(5,5) E(1,5) E(5,1) E(5,3) E(3,5) E(1,1) E(1,3) E(3,1) E(3,3)
c 1 2 3 4 5 6 7 8 9 10 11 12 13 14 15 16 17 18 19 20 21 22 23 24 25 26 27 28 29 30 31 32 33 34 35 36 37 38 39 40 41 42 43 44 45 46 47 48 49 50 51 52 53 54 55 56 57 58 59 60 61 62 63 64 65 66 67 68 69 70 71 72 73 74 75 76 77 78 79 80 81 82 83 84 85 86 87 88 89 90 91 92 93 94 95 96 97 98 99 100 101 102 103 104 105 106 107 108 109 110 111 112 113 114 115 116 117 118 119 120 121 122 123 124 125 126 127 128 129 130 131 132 133 134 135 136 137 138 139 140 141 142 143 144 145 146 147 148 149 150 151 152 153 154 155 156 157 158 159 160 161 162 163 164 165 166 167 168
p cnf 168 732
6 7 0
41 43 0
34 32 0
28 29 0
3 1 0
47 46 0
27 24 0
36 38 0
15 13 0
16 19 0
22 20 0
11 9 0
6 -48 0
41 -165 0
34 -153 0
28 -144 0
3 -2 0
47 -168 0
27 -133 0
36 -160 0
15 -88 0
16 -105 0
22 -120 0
11 -69 0
48 -48 0
65 -66 0
61 -62 0
59 -60 0
4 -5 0
67 -68 0
58 -57 0
63 -64 0
51 -52 0
53 -54 0
55 -56 0
49 -50 0
66 -65 0
165 -165 0
157 -156 0
150 -149 0
40 -42 0
166 -167 0
141 -140 0
161 -162 0
101 -102 0
117 -116 0
129 -130 0
85 -84 0
62 -61 0
156 -157 0
153 -153 0
146 -145 0
35 -33 0
159 -158 0
136 -137 0
155 -154 0
97 -98 0
112 -113 0
125 -126 0
81 -80 0
60 -59 0
149 -150 0
145 -146 0
144 -144 0
31 -30 0
151 -152 0
135 -134 0
147 -148 0
96 -95 0
111 -110 0
124 -123 0
78 -79 0
5 -4 0
42 -40 0
33 -35 0
30 -31 0
2 -2 0
44 -45 0
25 -26 0
37 -39 0
12 -14 0
18 -17 0
23 -21 0
8 -10 0
68 -67 0
167 -166 0
158 -159 0
152 -151 0
45 -44 0
168 -168 0
143 -142 0
164 -163 0
104 -103 0
118 -119 0
131 -132 0
86 -87 0
57 -58 0
140 -141 0
137 -136 0
134 -135 0
26 -25 0
142 -143 0
133 -133 0
138 -139 0
94 -93 0
109 -108 0
121 -122 0
77 -76 0
64 -63 0
162 -161 0
154 -155 0
148 -147 0
39 -37 0
163 -164 0
139 -138 0
160 -160 0
100 -99 0
115 -114 0
127 -128 0
83 -82 0
52 -51 0
102 -101 0
98 -97 0
95 -96 0
14 -12 0
103 -104 0
93 -94 0
99 -100 0
88 -88 0
89 -90 0
91 -92 0
70 -71 0
54 -53 0
116 -117 0
113 -112 0
110 -111 0
17 -18 0
119 -118 0
108 -109 0
114 -115 0
90 -89 0
105 -105 0
106 -107 0
73 -72 0
56 -55 0
130 -129 0
126 -125 0
123 -124 0
21 -23 0
132 -131 0
122 -121 0
128 -127 0
92 -91 0
107 -106 0
120 -120 0
75 -74 0
50 -49 0
84 -85 0
80 -81 0
79 -78 0
10 -8 0
87 -86 0
76 -77 0
82 -83 0
71 -70 0
72 -73 0
74 -75 0
69 -69 0
7 -48 0
43 -165 0
32 -153 0
29 -144 0
1 -2 0
46 -168 0
24 -133 0
38 -160 0
13 -88 0
19 -105 0
20 -120 0
9 -69 0
-6 -7 0
-41 -43 0
-34 -32 0
-28 -29 0
-3 -1 0
-47 -46 0
-27 -24 0
-36 -38 0
-15 -13 0
-16 -19 0
-22 -20 0
-11 -9 0
6 41 -65 0
6 41 -66 0
6 34 -61 0
6 34 -62 0
6 28 -59 0
6 28 -60 0
6 3 -4 0
6 3 -5 0
6 47 -67 0
6 47 -68 0
6 27 -58 0
6 27 -57 0
6 36 -63 0
6 36 -64 0
6 15 -51 0
6 15 -52 0
6 16 -53 0
6 16 -54 0
6 22 -55 0
6 22 -56 0
6 11 -49 0
6 11 -50 0
6 7 -65 0
6 7 -61 0
6 7 -59 0
6 7 -4 0
6 7 -67 0
6 7 -58 0
6 7 -63 0
6 7 -51 0
6 7 -53 0
6 7 -55 0
6 7 -49 0
6 7 -66 0
6 7 -62 0
6 7 -60 0
6 7 -5 0
6 7 -68 0
6 7 -57 0
6 7 -64 0
6 7 -52 0
6 7 -54 0
6 7 -56 0
6 7 -50 0
41 34 -157 0
41 34 -156 0
41 28 -150 0
41 28 -149 0
41 3 -40 0
41 3 -42 0
41 47 -166 0
41 47 -167 0
41 27 -141 0
41 27 -140 0
41 36 -161 0
41 36 -162 0
41 15 -101 0
41 15 -102 0
41 16 -117 0
41 16 -116 0
41 22 -129 0
41 22 -130 0
41 11 -85 0
41 11 -84 0
41 43 -65 0
41 43 -66 0
41 43 -157 0
41 43 -150 0
41 43 -40 0
41 43 -166 0
41 43 -141 0
41 43 -161 0
41 43 -101 0
41 43 -117 0
41 43 -129 0
41 43 -85 0
41 43 -156 0
41 43 -149 0
41 43 -42 0
41 43 -167 0
41 43 -140 0
41 43 -162 0
41 43 -102 0
41 43 -116 0
41 43 -130 0
41 43 -84 0
34 28 -146 0
34 28 -145 0
34 3 -35 0
34 3 -33 0
34 47 -159 0
34 47 -158 0
34 27 -136 0
34 27 -137 0
34 36 -155 0
34 36 -154 0
34 15 -97 0
34 15 -98 0
34 16 -112 0
34 16 -113 0
34 22 -125 0
34 22 -126 0
34 11 -81 0
34 11 -80 0
34 32 -61 0
34 32 -157 0
34 32 -62 0
34 32 -156 0
34 32 -146 0
34 32 -35 0
34 32 -159 0
34 32 -136 0
34 32 -155 0
34 32 -97 0
34 32 -112 0
34 32 -125 0
34 32 -81 0
34 32 -145 0
34 32 -33 0
34 32 -158 0
34 32 -137 0
34 32 -154 0
34 32 -98 0
34 32 -113 0
34 32 -126 0
34 32 -80 0
28 3 -31 0
28 3 -30 0
28 47 -151 0
28 47 -152 0
28 27 -135 0
28 27 -134 0
28 36 -147 0
28 36 -148 0
28 15 -96 0
28 15 -95 0
28 16 -111 0
28 16 -110 0
28 22 -124 0
28 22 -123 0
28 11 -78 0
28 11 -79 0
28 29 -59 0
28 29 -150 0
28 29 -146 0
28 29 -60 0
28 29 -149 0
28 29 -145 0
28 29 -31 0
28 29 -151 0
28 29 -135 0
28 29 -147 0
28 29 -96 0
28 29 -111 0
28 29 -124 0
28 29 -78 0
28 29 -30 0
28 29 -152 0
28 29 -134 0
28 29 -148 0
28 29 -95 0
28 29 -110 0
28 29 -123 0
28 29 -79 0
3 47 -44 0
3 47 -45 0
3 27 -25 0
3 27 -26 0
3 36 -37 0
3 36 -39 0
3 15 -12 0
3 15 -14 0
3 16 -18 0
3 16 -17 0
3 22 -23 0
3 22 -21 0
3 11 -8 0
3 11 -10 0
3 1 -4 0
3 1 -40 0
3 1 -35 0
3 1 -31 0
3 1 -5 0
3 1 -42 0
3 1 -33 0
3 1 -30 0
3 1 -44 0
3 1 -25 0
3 1 -37 0
3 1 -12 0
3 1 -18 0
3 1 -23 0
3 1 -8 0
3 1 -45 0
3 1 -26 0
3 1 -39 0
3 1 -14 0
3 1 -17 0
3 1 -21 0
3 1 -10 0
47 27 -143 0
47 27 -142 0
47 36 -164 0
47 36 -163 0
47 15 -104 0
47 15 -103 0
47 16 -118 0
47 16 -119 0
47 22 -131 0
47 22 -132 0
47 11 -86 0
47 11 -87 0
47 46 -67 0
47 46 -166 0
47 46 -159 0
47 46 -151 0
47 46 -44 0
47 46 -68 0
47 46 -167 0
47 46 -158 0
47 46 -152 0
47 46 -45 0
47 46 -143 0
47 46 -164 0
47 46 -104 0
47 46 -118 0
47 46 -131 0
47 46 -86 0
47 46 -142 0
47 46 -163 0
47 46 -103 0
47 46 -119 0
47 46 -132 0
47 46 -87 0
27 36 -138 0
27 36 -139 0
27 15 -94 0
27 15 -93 0
27 16 -109 0
27 16 -108 0
27 22 -121 0
27 22 -122 0
27 11 -77 0
27 11 -76 0
27 24 -58 0
27 24 -141 0
27 24 -136 0
27 24 -135 0
27 24 -25 0
27 24 -143 0
27 24 -57 0
27 24 -140 0
27 24 -137 0
27 24 -134 0
27 24 -26 0
27 24 -142 0
27 24 -138 0
27 24 -94 0
27 24 -109 0
27 24 -121 0
27 24 -77 0
27 24 -139 0
27 24 -93 0
27 24 -108 0
27 24 -122 0
27 24 -76 0
36 15 -100 0
36 15 -99 0
36 16 -115 0
36 16 -114 0
36 22 -127 0
36 22 -128 0
36 11 -83 0
36 11 -82 0
36 38 -63 0
36 38 -161 0
36 38 -155 0
36 38 -147 0
36 38 -37 0
36 38 -164 0
36 38 -138 0
36 38 -64 0
36 38 -162 0
36 38 -154 0
36 38 -148 0
36 38 -39 0
36 38 -163 0
36 38 -139 0
36 38 -100 0
36 38 -115 0
36 38 -127 0
36 38 -83 0
36 38 -99 0
36 38 -114 0
36 38 -128 0
36 38 -82 0
15 16 -89 0
15 16 -90 0
15 22 -91 0
15 22 -92 0
15 11 -70 0
15 11 -71 0
15 13 -51 0
15 13 -101 0
15 13 -97 0
15 13 -96 0
15 13 -12 0
15 13 -104 0
15 13 -94 0
15 13 -100 0
15 13 -52 0
15 13 -102 0
15 13 -98 0
15 13 -95 0
15 13 -14 0
15 13 -103 0
15 13 -93 0
15 13 -99 0
15 13 -89 0
15 13 -91 0
15 13 -70 0
15 13 -90 0
15 13 -92 0
15 13 -71 0
16 22 -106 0
16 22 -107 0
16 11 -73 0
16 11 -72 0
16 19 -53 0
16 19 -117 0
16 19 -112 0
16 19 -111 0
16 19 -18 0
16 19 -118 0
16 19 -109 0
16 19 -115 0
16 19 -89 0
16 19 -54 0
16 19 -116 0
16 19 -113 0
16 19 -110 0
16 19 -17 0
16 19 -119 0
16 19 -108 0
16 19 -114 0
16 19 -90 0
16 19 -106 0
16 19 -73 0
16 19 -107 0
16 19 -72 0
22 11 -75 0
22 11 -74 0
22 20 -55 0
22 20 -129 0
22 20 -125 0
22 20 -124 0
22 20 -23 0
22 20 -131 0
22 20 -121 0
22 20 -127 0
22 20 -91 0
22 20 -106 0
22 20 -56 0
22 20 -130 0
22 20 -126 0
22 20 -123 0
22 20 -21 0
22 20 -132 0
22 20 -122 0
22 20 -128 0
22 20 -92 0
22 20 -107 0
22 20 -75 0
22 20 -74 0
11 9 -49 0
11 9 -85 0
11 9 -81 0
11 9 -78 0
11 9 -8 0
11 9 -86 0
11 9 -77 0
11 9 -83 0
11 9 -70 0
11 9 -73 0
11 9 -75 0
11 9 -50 0
11 9 -84 0
11 9 -80 0
11 9 -79 0
11 9 -10 0
11 9 -87 0
11 9 -76 0
11 9 -82 0
11 9 -71 0
11 9 -72 0
11 9 -74 0
7 43 -65 0
7 43 -66 0
7 32 -61 0
7 32 -62 0
7 29 -59 0
7 29 -60 0
7 1 -4 0
7 1 -5 0
7 46 -67 0
7 46 -68 0
7 24 -58 0
7 24 -57 0
7 38 -63 0
7 38 -64 0
7 13 -51 0
7 13 -52 0
7 19 -53 0
7 19 -54 0
7 20 -55 0
7 20 -56 0
7 9 -49 0
7 9 -50 0
43 32 -157 0
43 32 -156 0
43 29 -150 0
43 29 -149 0
43 1 -40 0
43 1 -42 0
43 46 -166 0
43 46 -167 0
43 24 -141 0
43 24 -140 0
43 38 -161 0
43 38 -162 0
43 13 -101 0
43 13 -102 0
43 19 -117 0
43 19 -116 0
43 20 -129 0
43 20 -130 0
43 9 -85 0
43 9 -84 0
32 29 -146 0
32 29 -145 0
32 1 -35 0
32 1 -33 0
32 46 -159 0
32 46 -158 0
32 24 -136 0
32 24 -137 0
32 38 -155 0
32 38 -154 0
32 13 -97 0
32 13 -98 0
32 19 -112 0
32 19 -113 0
32 20 -125 0
32 20 -126 0
32 9 -81 0
32 9 -80 0
29 1 -31 0
29 1 -30 0
29 46 -151 0
29 46 -152 0
29 24 -135 0
29 24 -134 0
29 38 -147 0
29 38 -148 0
29 13 -96 0
29 13 -95 0
29 19 -111 0
29 19 -110 0
29 20 -124 0
29 20 -123 0
29 9 -78 0
29 9 -79 0
1 46 -44 0
1 46 -45 0
1 24 -25 0
1 24 -26 0
1 38 -37 0
1 38 -39 0
1 13 -12 0
1 13 -14 0
1 19 -18 0
1 19 -17 0
1 20 -23 0
1 20 -21 0
1 9 -8 0
1 9 -10 0
46 24 -143 0
46 24 -142 0
46 38 -164 0
46 38 -163 0
46 13 -104 0
46 13 -103 0
46 19 -118 0
46 19 -119 0
46 20 -131 0
46 20 -132 0
46 9 -86 0
46 9 -87 0
24 38 -138 0
24 38 -139 0
24 13 -94 0
24 13 -93 0
24 19 -109 0
24 19 -108 0
24 20 -121 0
24 20 -122 0
24 9 -77 0
24 9 -76 0
38 13 -100 0
38 13 -99 0
38 19 -115 0
38 19 -114 0
38 20 -127 0
38 20 -128 0
38 9 -83 0
38 9 -82 0
13 19 -89 0
13 19 -90 0
13 20 -91 0
13 20 -92 0
13 9 -70 0
13 9 -71 0
19 20 -106 0
19 20 -107 0
19 9 -73 0
19 9 -72 0
20 9 -75 0
20 9 -74 0
48 65 61 59 4 67 58 63 51 53 55 49 0
66 165 157 150 40 166 141 161 101 117 129 85 0
62 156 153 146 35 159 136 155 97 112 125 81 0
60 149 145 144 31 151 135 147 96 111 124 78 0
5 42 33 30 2 44 25 37 12 18 23 8 0
68 167 158 152 45 168 143 164 104 118 131 86 0
57 140 137 134 26 142 133 138 94 109 121 77 0
64 162 154 148 39 163 139 160 100 115 127 83 0
52 102 98 95 14 103 93 99 88 89 91 70 0
54 116 113 110 17 119 108 114 90 105 106 73 0
56 130 126 123 21 132 122 128 92 107 120 75 0
50 84 80 79 10 87 76 82 71 72 74 69 0
