c R(10) B(10) E(10,10) E(2,10) E(10,2) R(2) B(2) E(10,0) R(0) E(0,10) B(0) E(10,11) R(11) B(11) E(11,10) E(6,10) E(10,6) R(6) B(6) B(8) E(10,8) R(8) E(8,10) R(5) E(10,5) E(5,10) B(5) E(10,3) E(3,10) R(3) B(3) E(10,12) R(12) E(12,10) B(12) E(10,7) B(7) R(7) E(7,10) E(4,10) E(10,4) R(4) B(4) E(1,10) R(1) B(1) E(10,1) R(9) B(9) E(9,10) E(10,9) E(2,2) E(0,2) E(2,0) E(2,11) E(11,2) E(2,6) E(6,2) E(2,8) E(8,2) E(2,5) E(5,2) E(2,3) E(3,2) E(2,12) E(12,2) E(2,7) E(7,2) E(4,2) E(2,4) E(2,1) E(1,2) E(2,9) E(9,2) E(0,0) E(11,0) E(0,11) E(0,6) E(6,0) E(0,8) E(8,0) E(0,5) E(5,0) E(0,3) E(3,0) E(12,0) E(0,12) E(0,7) E(7,0) E(0,4) E(4,0) E(1,0) E(0,1) E(0,9) E(9,0) E(11,11) E(11,6) E(6,11) E(8,11) E(11,8) E(11,5) E(5,11) E(11,3) E(3,11) E(11,12) E(12,11) E(11,7) E(7,11) E(11,4) E(4,11) E(1,11) E(11,1) E(9,11) E(11,9) E(6,6) E(8,6) E(6,8) E(5,6) E(6,5) E(6,3) E(3,6) E(6,12) E(12,6) E(6,7) E(7,6) E(4,6) E(6,4) E(1,6) E(6,1) E(6,9) E(9,6) E(8,8) E(8,5) E(5,8) E(3,8) E(8,3) E(8,12) E(12,8) E(7,8) E(8,7) E(8,4) E(4,8) E(8,1) E(1,8) E(9,8) E(8,9) E(5,5) E(5,3) E(3,5) E(12,5) E(5,12) E(7,5) E(5,7) E(5,4) E(4,5) E(1,5) E(5,1) E(9,5) E(5,9) E(3,3) E(3,12) E(12,3) E(7,3) E(3,7) E(4,3) E(3,4) E(1,3) E(3,1) E(9,3) E(3,9) E(12,12) E(12,7) E(7,12) E(12,4) E(4,12) E(12,1) E(1,12) E(9,12) E(12,9) E(7,7) E(4,7) E(7,4) E(7,1) E(1,7) E(9,7) E(7,9) E(4,4) E(1,4) E(4,1) E(9,4) E(4,9) E(1,1) E(1,9) E(9,1) E(9,9)
c 1 2 3 4 5 6 7 8 9 10 11 12 13 14 15 16 17 18 19 20 21 22 23 24 25 26 27 28 29 30 31 32 33 34 35 36 37 38 39 40 41 42 43 44 45 46 47 48 49 50 51 52 53 54 55 56 57 58 59 60 61 62 63 64 65 66 67 68 69 70 71 72 73 74 75 76 77 78 79 80 81 82 83 84 85 86 87 88 89 90 91 92 93 94 95 96 97 98 99 100 101 102 103 104 105 106 107 108 109 110 111 112 113 114 115 116 117 118 119 120 121 122 123 124 125 126 127 128 129 130 131 132 133 134 135 136 137 138 139 140 141 142 143 144 145 146 147 148 149 150 151 152 153 154 155 156 157 158 159 160 161 162 163 164 165 166 167 168 169 170 171 172 173 174 175 176 177 178 179 180 181 182 183 184 185 186 187 188 189 190 191 192 193 194 195
p cnf 195 858
11 9 0
46 45 0
2 1 0
14 13 0
35 33 0
7 6 0
31 30 0
43 42 0
27 24 0
19 18 0
37 38 0
20 22 0
49 48 0
11 -75 0
46 -192 0
2 -3 0
14 -96 0
35 -171 0
7 -52 0
31 -160 0
43 -187 0
27 -147 0
19 -115 0
37 -180 0
20 -132 0
49 -195 0
75 -75 0
93 -92 0
10 -8 0
77 -76 0
87 -86 0
53 -54 0
84 -85 0
90 -91 0
82 -83 0
78 -79 0
88 -89 0
80 -81 0
94 -95 0
92 -93 0
192 -192 0
44 -47 0
111 -112 0
177 -176 0
72 -71 0
167 -168 0
188 -189 0
156 -157 0
128 -129 0
184 -183 0
144 -143 0
193 -194 0
8 -10 0
47 -44 0
3 -3 0
12 -15 0
32 -34 0
5 -4 0
28 -29 0
41 -40 0
25 -26 0
17 -16 0
36 -39 0
21 -23 0
51 -50 0
76 -77 0
112 -111 0
15 -12 0
96 -96 0
105 -106 0
56 -55 0
103 -104 0
109 -110 0
101 -102 0
97 -98 0
107 -108 0
100 -99 0
114 -113 0
86 -87 0
176 -177 0
34 -32 0
106 -105 0
171 -171 0
66 -65 0
162 -161 0
174 -175 0
150 -151 0
123 -122 0
172 -173 0
138 -137 0
179 -178 0
54 -53 0
71 -72 0
4 -5 0
55 -56 0
65 -66 0
52 -52 0
63 -64 0
70 -69 0
61 -62 0
57 -58 0
67 -68 0
59 -60 0
73 -74 0
85 -84 0
168 -167 0
29 -28 0
104 -103 0
161 -162 0
64 -63 0
160 -160 0
166 -165 0
149 -148 0
121 -120 0
164 -163 0
135 -136 0
170 -169 0
91 -90 0
189 -188 0
40 -41 0
110 -109 0
175 -174 0
69 -70 0
165 -166 0
187 -187 0
155 -154 0
126 -127 0
181 -182 0
142 -141 0
191 -190 0
83 -82 0
157 -156 0
26 -25 0
102 -101 0
151 -150 0
62 -61 0
148 -149 0
154 -155 0
147 -147 0
118 -119 0
153 -152 0
134 -133 0
159 -158 0
79 -78 0
129 -128 0
16 -17 0
98 -97 0
122 -123 0
58 -57 0
120 -121 0
127 -126 0
119 -118 0
115 -115 0
124 -125 0
117 -116 0
130 -131 0
89 -88 0
183 -184 0
39 -36 0
108 -107 0
173 -172 0
68 -67 0
163 -164 0
182 -181 0
152 -153 0
125 -124 0
180 -180 0
139 -140 0
186 -185 0
81 -80 0
143 -144 0
23 -21 0
99 -100 0
137 -138 0
60 -59 0
136 -135 0
141 -142 0
133 -134 0
116 -117 0
140 -139 0
132 -132 0
146 -145 0
95 -94 0
194 -193 0
50 -51 0
113 -114 0
178 -179 0
74 -73 0
169 -170 0
190 -191 0
158 -159 0
131 -130 0
185 -186 0
145 -146 0
195 -195 0
9 -75 0
45 -192 0
1 -3 0
13 -96 0
33 -171 0
6 -52 0
30 -160 0
42 -187 0
24 -147 0
18 -115 0
38 -180 0
22 -132 0
48 -195 0
-11 -9 0
-46 -45 0
-2 -1 0
-14 -13 0
-35 -33 0
-7 -6 0
-31 -30 0
-43 -42 0
-27 -24 0
-19 -18 0
-37 -38 0
-20 -22 0
-49 -48 0
11 46 -93 0
11 46 -92 0
11 2 -10 0
11 2 -8 0
11 14 -77 0
11 14 -76 0
11 35 -87 0
11 35 -86 0
11 7 -53 0
11 7 -54 0
11 31 -84 0
11 31 -85 0
11 43 -90 0
11 43 -91 0
11 27 -82 0
11 27 -83 0
11 19 -78 0
11 19 -79 0
11 37 -88 0
11 37 -89 0
11 20 -80 0
11 20 -81 0
11 49 -94 0
11 49 -95 0
11 9 -93 0
11 9 -10 0
11 9 -77 0
11 9 -87 0
11 9 -53 0
11 9 -84 0
11 9 -90 0
11 9 -82 0
11 9 -78 0
11 9 -88 0
11 9 -80 0
11 9 -94 0
11 9 -92 0
11 9 -8 0
11 9 -76 0
11 9 -86 0
11 9 -54 0
11 9 -85 0
11 9 -91 0
11 9 -83 0
11 9 -79 0
11 9 -89 0
11 9 -81 0
11 9 -95 0
46 2 -44 0
46 2 -47 0
46 14 -111 0
46 14 -112 0
46 35 -177 0
46 35 -176 0
46 7 -72 0
46 7 -71 0
46 31 -167 0
46 31 -168 0
46 43 -188 0
46 43 -189 0
46 27 -156 0
46 27 -157 0
46 19 -128 0
46 19 -129 0
46 37 -184 0
46 37 -183 0
46 20 -144 0
46 20 -143 0
46 49 -193 0
46 49 -194 0
46 45 -93 0
46 45 -92 0
46 45 -44 0
46 45 -111 0
46 45 -177 0
46 45 -72 0
46 45 -167 0
46 45 -188 0
46 45 -156 0
46 45 -128 0
46 45 -184 0
46 45 -144 0
46 45 -193 0
46 45 -47 0
46 45 -112 0
46 45 -176 0
46 45 -71 0
46 45 -168 0
46 45 -189 0
46 45 -157 0
46 45 -129 0
46 45 -183 0
46 45 -143 0
46 45 -194 0
2 14 -12 0
2 14 -15 0
2 35 -32 0
2 35 -34 0
2 7 -5 0
2 7 -4 0
2 31 -28 0
2 31 -29 0
2 43 -41 0
2 43 -40 0
2 27 -25 0
2 27 -26 0
2 19 -17 0
2 19 -16 0
2 37 -36 0
2 37 -39 0
2 20 -21 0
2 20 -23 0
2 49 -51 0
2 49 -50 0
2 1 -10 0
2 1 -44 0
2 1 -8 0
2 1 -47 0
2 1 -12 0
2 1 -32 0
2 1 -5 0
2 1 -28 0
2 1 -41 0
2 1 -25 0
2 1 -17 0
2 1 -36 0
2 1 -21 0
2 1 -51 0
2 1 -15 0
2 1 -34 0
2 1 -4 0
2 1 -29 0
2 1 -40 0
2 1 -26 0
2 1 -16 0
2 1 -39 0
2 1 -23 0
2 1 -50 0
14 35 -105 0
14 35 -106 0
14 7 -56 0
14 7 -55 0
14 31 -103 0
14 31 -104 0
14 43 -109 0
14 43 -110 0
14 27 -101 0
14 27 -102 0
14 19 -97 0
14 19 -98 0
14 37 -107 0
14 37 -108 0
14 20 -100 0
14 20 -99 0
14 49 -114 0
14 49 -113 0
14 13 -77 0
14 13 -111 0
14 13 -12 0
14 13 -76 0
14 13 -112 0
14 13 -15 0
14 13 -105 0
14 13 -56 0
14 13 -103 0
14 13 -109 0
14 13 -101 0
14 13 -97 0
14 13 -107 0
14 13 -100 0
14 13 -114 0
14 13 -106 0
14 13 -55 0
14 13 -104 0
14 13 -110 0
14 13 -102 0
14 13 -98 0
14 13 -108 0
14 13 -99 0
14 13 -113 0
35 7 -66 0
35 7 -65 0
35 31 -162 0
35 31 -161 0
35 43 -174 0
35 43 -175 0
35 27 -150 0
35 27 -151 0
35 19 -123 0
35 19 -122 0
35 37 -172 0
35 37 -173 0
35 20 -138 0
35 20 -137 0
35 49 -179 0
35 49 -178 0
35 33 -87 0
35 33 -177 0
35 33 -32 0
35 33 -105 0
35 33 -86 0
35 33 -176 0
35 33 -34 0
35 33 -106 0
35 33 -66 0
35 33 -162 0
35 33 -174 0
35 33 -150 0
35 33 -123 0
35 33 -172 0
35 33 -138 0
35 33 -179 0
35 33 -65 0
35 33 -161 0
35 33 -175 0
35 33 -151 0
35 33 -122 0
35 33 -173 0
35 33 -137 0
35 33 -178 0
7 31 -63 0
7 31 -64 0
7 43 -70 0
7 43 -69 0
7 27 -61 0
7 27 -62 0
7 19 -57 0
7 19 -58 0
7 37 -67 0
7 37 -68 0
7 20 -59 0
7 20 -60 0
7 49 -73 0
7 49 -74 0
7 6 -53 0
7 6 -72 0
7 6 -5 0
7 6 -56 0
7 6 -66 0
7 6 -54 0
7 6 -71 0
7 6 -4 0
7 6 -55 0
7 6 -65 0
7 6 -63 0
7 6 -70 0
7 6 -61 0
7 6 -57 0
7 6 -67 0
7 6 -59 0
7 6 -73 0
7 6 -64 0
7 6 -69 0
7 6 -62 0
7 6 -58 0
7 6 -68 0
7 6 -60 0
7 6 -74 0
31 43 -166 0
31 43 -165 0
31 27 -149 0
31 27 -148 0
31 19 -121 0
31 19 -120 0
31 37 -164 0
31 37 -163 0
31 20 -135 0
31 20 -136 0
31 49 -170 0
31 49 -169 0
31 30 -84 0
31 30 -167 0
31 30 -28 0
31 30 -103 0
31 30 -162 0
31 30 -63 0
31 30 -85 0
31 30 -168 0
31 30 -29 0
31 30 -104 0
31 30 -161 0
31 30 -64 0
31 30 -166 0
31 30 -149 0
31 30 -121 0
31 30 -164 0
31 30 -135 0
31 30 -170 0
31 30 -165 0
31 30 -148 0
31 30 -120 0
31 30 -163 0
31 30 -136 0
31 30 -169 0
43 27 -155 0
43 27 -154 0
43 19 -126 0
43 19 -127 0
43 37 -181 0
43 37 -182 0
43 20 -142 0
43 20 -141 0
43 49 -191 0
43 49 -190 0
43 42 -90 0
43 42 -188 0
43 42 -41 0
43 42 -109 0
43 42 -174 0
43 42 -70 0
43 42 -166 0
43 42 -91 0
43 42 -189 0
43 42 -40 0
43 42 -110 0
43 42 -175 0
43 42 -69 0
43 42 -165 0
43 42 -155 0
43 42 -126 0
43 42 -181 0
43 42 -142 0
43 42 -191 0
43 42 -154 0
43 42 -127 0
43 42 -182 0
43 42 -141 0
43 42 -190 0
27 19 -118 0
27 19 -119 0
27 37 -153 0
27 37 -152 0
27 20 -134 0
27 20 -133 0
27 49 -159 0
27 49 -158 0
27 24 -82 0
27 24 -156 0
27 24 -25 0
27 24 -101 0
27 24 -150 0
27 24 -61 0
27 24 -149 0
27 24 -155 0
27 24 -83 0
27 24 -157 0
27 24 -26 0
27 24 -102 0
27 24 -151 0
27 24 -62 0
27 24 -148 0
27 24 -154 0
27 24 -118 0
27 24 -153 0
27 24 -134 0
27 24 -159 0
27 24 -119 0
27 24 -152 0
27 24 -133 0
27 24 -158 0
19 37 -124 0
19 37 -125 0
19 20 -117 0
19 20 -116 0
19 49 -130 0
19 49 -131 0
19 18 -78 0
19 18 -128 0
19 18 -17 0
19 18 -97 0
19 18 -123 0
19 18 -57 0
19 18 -121 0
19 18 -126 0
19 18 -118 0
19 18 -79 0
19 18 -129 0
19 18 -16 0
19 18 -98 0
19 18 -122 0
19 18 -58 0
19 18 -120 0
19 18 -127 0
19 18 -119 0
19 18 -124 0
19 18 -117 0
19 18 -130 0
19 18 -125 0
19 18 -116 0
19 18 -131 0
37 20 -139 0
37 20 -140 0
37 49 -186 0
37 49 -185 0
37 38 -88 0
37 38 -184 0
37 38 -36 0
37 38 -107 0
37 38 -172 0
37 38 -67 0
37 38 -164 0
37 38 -181 0
37 38 -153 0
37 38 -124 0
37 38 -89 0
37 38 -183 0
37 38 -39 0
37 38 -108 0
37 38 -173 0
37 38 -68 0
37 38 -163 0
37 38 -182 0
37 38 -152 0
37 38 -125 0
37 38 -139 0
37 38 -186 0
37 38 -140 0
37 38 -185 0
20 49 -146 0
20 49 -145 0
20 22 -80 0
20 22 -144 0
20 22 -21 0
20 22 -100 0
20 22 -138 0
20 22 -59 0
20 22 -135 0
20 22 -142 0
20 22 -134 0
20 22 -117 0
20 22 -139 0
20 22 -81 0
20 22 -143 0
20 22 -23 0
20 22 -99 0
20 22 -137 0
20 22 -60 0
20 22 -136 0
20 22 -141 0
20 22 -133 0
20 22 -116 0
20 22 -140 0
20 22 -146 0
20 22 -145 0
49 48 -94 0
49 48 -193 0
49 48 -51 0
49 48 -114 0
49 48 -179 0
49 48 -73 0
49 48 -170 0
49 48 -191 0
49 48 -159 0
49 48 -130 0
49 48 -186 0
49 48 -146 0
49 48 -95 0
49 48 -194 0
49 48 -50 0
49 48 -113 0
49 48 -178 0
49 48 -74 0
49 48 -169 0
49 48 -190 0
49 48 -158 0
49 48 -131 0
49 48 -185 0
49 48 -145 0
9 45 -93 0
9 45 -92 0
9 1 -10 0
9 1 -8 0
9 13 -77 0
9 13 -76 0
9 33 -87 0
9 33 -86 0
9 6 -53 0
9 6 -54 0
9 30 -84 0
9 30 -85 0
9 42 -90 0
9 42 -91 0
9 24 -82 0
9 24 -83 0
9 18 -78 0
9 18 -79 0
9 38 -88 0
9 38 -89 0
9 22 -80 0
9 22 -81 0
9 48 -94 0
9 48 -95 0
45 1 -44 0
45 1 -47 0
45 13 -111 0
45 13 -112 0
45 33 -177 0
45 33 -176 0
45 6 -72 0
45 6 -71 0
45 30 -167 0
45 30 -168 0
45 42 -188 0
45 42 -189 0
45 24 -156 0
45 24 -157 0
45 18 -128 0
45 18 -129 0
45 38 -184 0
45 38 -183 0
45 22 -144 0
45 22 -143 0
45 48 -193 0
45 48 -194 0
1 13 -12 0
1 13 -15 0
1 33 -32 0
1 33 -34 0
1 6 -5 0
1 6 -4 0
1 30 -28 0
1 30 -29 0
1 42 -41 0
1 42 -40 0
1 24 -25 0
1 24 -26 0
1 18 -17 0
1 18 -16 0
1 38 -36 0
1 38 -39 0
1 22 -21 0
1 22 -23 0
1 48 -51 0
1 48 -50 0
13 33 -105 0
13 33 -106 0
13 6 -56 0
13 6 -55 0
13 30 -103 0
13 30 -104 0
13 42 -109 0
13 42 -110 0
13 24 -101 0
13 24 -102 0
13 18 -97 0
13 18 -98 0
13 38 -107 0
13 38 -108 0
13 22 -100 0
13 22 -99 0
13 48 -114 0
13 48 -113 0
33 6 -66 0
33 6 -65 0
33 30 -162 0
33 30 -161 0
33 42 -174 0
33 42 -175 0
33 24 -150 0
33 24 -151 0
33 18 -123 0
33 18 -122 0
33 38 -172 0
33 38 -173 0
33 22 -138 0
33 22 -137 0
33 48 -179 0
33 48 -178 0
6 30 -63 0
6 30 -64 0
6 42 -70 0
6 42 -69 0
6 24 -61 0
6 24 -62 0
6 18 -57 0
6 18 -58 0
6 38 -67 0
6 38 -68 0
6 22 -59 0
6 22 -60 0
6 48 -73 0
6 48 -74 0
30 42 -166 0
30 42 -165 0
30 24 -149 0
30 24 -148 0
30 18 -121 0
30 18 -120 0
30 38 -164 0
30 38 -163 0
30 22 -135 0
30 22 -136 0
30 48 -170 0
30 48 -169 0
42 24 -155 0
42 24 -154 0
42 18 -126 0
42 18 -127 0
42 38 -181 0
42 38 -182 0
42 22 -142 0
42 22 -141 0
42 48 -191 0
42 48 -190 0
24 18 -118 0
24 18 -119 0
24 38 -153 0
24 38 -152 0
24 22 -134 0
24 22 -133 0
24 48 -159 0
24 48 -158 0
18 38 -124 0
18 38 -125 0
18 22 -117 0
18 22 -116 0
18 48 -130 0
18 48 -131 0
38 22 -139 0
38 22 -140 0
38 48 -186 0
38 48 -185 0
22 48 -146 0
22 48 -145 0
75 93 10 77 87 53 84 90 82 78 88 80 94 0
92 192 44 111 177 72 167 188 156 128 184 144 193 0
8 47 3 12 32 5 28 41 25 17 36 21 51 0
76 112 15 96 105 56 103 109 101 97 107 100 114 0
86 176 34 106 171 66 162 174 150 123 172 138 179 0
54 71 4 55 65 52 63 70 61 57 67 59 73 0
85 168 29 104 161 64 160 166 149 121 164 135 170 0
91 189 40 110 175 69 165 187 155 126 181 142 191 0
83 157 26 102 151 62 148 154 147 118 153 134 159 0
79 129 16 98 122 58 120 127 119 115 124 117 130 0
89 183 39 108 173 68 163 182 152 125 180 139 186 0
81 143 23 99 137 60 136 141 133 116 140 132 146 0
95 194 50 113 178 74 169 190 158 131 185 145 195 0
