c R(11) E(11,11) B(11) E(5,11) B(5) E(11,5) R(5) E(9,11) B(9) E(11,9) R(9) B(3) R(3) E(11,3) E(3,11) B(8) E(8,11) R(8) E(11,8) E(6,11) B(6) E(11,6) R(6) E(12,11) R(12) B(12) E(11,12) R(4) E(4,11) B(4) E(11,4) E(2,11) B(2) E(11,2) R(2) E(11,10) R(10) E(10,11) B(10) B(1) E(11,1) E(1,11) R(1) B(13) R(13) E(11,13) E(13,11) E(7,11) B(7) R(7) E(11,7) R(0) E(11,0) B(0) E(0,11) E(5,5) E(9,5) E(5,9) E(3,5) E(5,3) E(5,8) E(8,5) E(5,6) E(6,5) E(5,12) E(12,5) E(4,5) E(5,4) E(2,5) E(5,2) E(10,5) E(5,10) E(5,1) E(1,5) E(5,13) E(13,5) E(5,7) E(7,5) E(5,0) E(0,5) E(9,9) E(9,3) E(3,9) E(8,9) E(9,8) E(6,9) E(9,6) E(9,12) E(12,9) E(9,4) E(4,9) E(2,9) E(9,2) E(9,10) E(10,9) E(1,9) E(9,1) E(13,9) E(9,13) E(9,7) E(7,9) E(9,0) E(0,9) E(3,3) E(8,3) E(3,8) E(6,3) E(3,6) E(3,12) E(12,3) E(3,4) E(4,3) E(2,3) E(3,2) E(3,10) E(10,3) E(1,3) E(3,1) E(13,3) E(3,13) E(3,7) E(7,3) E(0,3) E(3,0) E(8,8) E(6,8) E(8,6) E(12,8) E(8,12) E(8,4) E(4,8) E(8,2) E(2,8) E(8,10) E(10,8) E(1,8) E(8,1) E(8,13) E(13,8) E(7,8) E(8,7) E(0,8) E(8,0) E(6,6) E(12,6) E(6,12) E(6,4) E(4,6) E(6,2) E(2,6) E(6,10) E(10,6) E(6,1) E(1,6) E(6,13) E(13,6) E(7,6) E(6,7) E(0,6) E(6,0) E(12,12) E(4,12) E(12,4) E(2,12) E(12,2) E(12,10) E(10,12) E(12,1) E(1,12) E(13,12) E(12,13) E(7,12) E(12,7) E(0,12) E(12,0) E(4,4) E(4,2) E(2,4) E(10,4) E(4,10) E(1,4) E(4,1) E(13,4) E(4,13) E(7,4) E(4,7) E(4,0) E(0,4) E(2,2) E(10,2) E(2,10) E(1,2) E(2,1) E(13,2) E(2,13) E(2,7) E(7,2) E(0,2) E(2,0) E(10,10) E(1,10) E(10,1) E(13,10) E(10,13) E(10,7) E(7,10) E(0,10) E(10,0) E(1,1) E(13,1) E(1,13) E(1,7) E(7,1) E(1,0) E(0,1) E(13,13) E(13,7) E(7,13) E(13,0) E(0,13) E(7,7) E(0,7) E(7,0) E(0,0)
c 1 2 3 4 5 6 7 8 9 10 11 12 13 14 15 16 17 18 19 20 21 22 23 24 25 26 27 28 29 30 31 32 33 34 35 36 37 38 39 40 41 42 43 44 45 46 47 48 49 50 51 52 53 54 55 56 57 58 59 60 61 62 63 64 65 66 67 68 69 70 71 72 73 74 75 76 77 78 79 80 81 82 83 84 85 86 87 88 89 90 91 92 93 94 95 96 97 98 99 100 101 102 103 104 105 106 107 108 109 110 111 112 113 114 115 116 117 118 119 120 121 122 123 124 125 126 127 128 129 130 131 132 133 134 135 136 137 138 139 140 141 142 143 144 145 146 147 148 149 150 151 152 153 154 155 156 157 158 159 160 161 162 163 164 165 166 167 168 169 170 171 172 173 174 175 176 177 178 179 180 181 182 183 184 185 186 187 188 189 190 191 192 193 194 195 196 197 198 199 200 201 202 203 204 205 206 207 208 209 210 211 212 213 214 215 216 217 218 219 220 221 222 223 224
p cnf 224 994
54 52 0
40 43 0
39 37 0
3 1 0
26 25 0
44 45 0
33 35 0
12 13 0
30 28 0
5 7 0
21 23 0
49 50 0
16 18 0
9 11 0
54 -224 0
40 -209 0
39 -200 0
3 -2 0
26 -161 0
44 -216 0
33 -189 0
12 -104 0
30 -176 0
5 -56 0
21 -144 0
49 -221 0
16 -125 0
9 -81 0
224 -224 0
215 -214 0
207 -208 0
55 -53 0
174 -175 0
220 -219 0
198 -199 0
123 -124 0
188 -187 0
80 -79 0
159 -160 0
222 -223 0
142 -143 0
103 -102 0
214 -215 0
209 -209 0
201 -202 0
42 -41 0
169 -168 0
211 -210 0
192 -193 0
117 -118 0
181 -182 0
74 -73 0
154 -153 0
212 -213 0
136 -137 0
96 -97 0
208 -207 0
202 -201 0
200 -200 0
38 -36 0
167 -166 0
204 -203 0
190 -191 0
116 -115 0
179 -180 0
71 -72 0
152 -151 0
205 -206 0
135 -134 0
95 -94 0
53 -55 0
41 -42 0
36 -38 0
2 -2 0
27 -24 0
46 -47 0
34 -32 0
14 -15 0
31 -29 0
6 -4 0
22 -20 0
51 -48 0
19 -17 0
10 -8 0
175 -174 0
168 -169 0
166 -167 0
24 -27 0
161 -161 0
171 -170 0
165 -164 0
110 -109 0
163 -162 0
66 -65 0
145 -146 0
173 -172 0
128 -129 0
89 -88 0
219 -220 0
210 -211 0
203 -204 0
47 -46 0
170 -171 0
216 -216 0
194 -195 0
119 -120 0
183 -184 0
76 -75 0
156 -155 0
217 -218 0
139 -138 0
98 -99 0
199 -198 0
193 -192 0
191 -190 0
32 -34 0
164 -165 0
195 -194 0
189 -189 0
113 -114 0
178 -177 0
69 -70 0
150 -149 0
196 -197 0
133 -132 0
92 -93 0
124 -123 0
118 -117 0
115 -116 0
15 -14 0
109 -110 0
120 -119 0
114 -113 0
104 -104 0
111 -112 0
59 -60 0
108 -107 0
121 -122 0
106 -105 0
83 -82 0
187 -188 0
182 -181 0
180 -179 0
29 -31 0
162 -163 0
184 -183 0
177 -178 0
112 -111 0
176 -176 0
67 -68 0
148 -147 0
186 -185 0
131 -130 0
91 -90 0
79 -80 0
73 -74 0
72 -71 0
4 -6 0
65 -66 0
75 -76 0
70 -69 0
60 -59 0
68 -67 0
56 -56 0
63 -64 0
77 -78 0
61 -62 0
58 -57 0
160 -159 0
153 -154 0
151 -152 0
20 -22 0
146 -145 0
155 -156 0
149 -150 0
107 -108 0
147 -148 0
64 -63 0
144 -144 0
158 -157 0
126 -127 0
86 -87 0
223 -222 0
213 -212 0
206 -205 0
48 -51 0
172 -173 0
218 -217 0
197 -196 0
122 -121 0
185 -186 0
78 -77 0
157 -158 0
221 -221 0
140 -141 0
101 -100 0
143 -142 0
137 -136 0
134 -135 0
17 -19 0
129 -128 0
138 -139 0
132 -133 0
105 -106 0
130 -131 0
62 -61 0
127 -126 0
141 -140 0
125 -125 0
84 -85 0
102 -103 0
97 -96 0
94 -95 0
8 -10 0
88 -89 0
99 -98 0
93 -92 0
82 -83 0
90 -91 0
57 -58 0
87 -86 0
100 -101 0
85 -84 0
81 -81 0
52 -224 0
43 -209 0
37 -200 0
1 -2 0
25 -161 0
45 -216 0
35 -189 0
13 -104 0
28 -176 0
7 -56 0
23 -144 0
50 -221 0
18 -125 0
11 -81 0
-54 -52 0
-40 -43 0
-39 -37 0
-3 -1 0
-26 -25 0
-44 -45 0
-33 -35 0
-12 -13 0
-30 -28 0
-5 -7 0
-21 -23 0
-49 -50 0
-16 -18 0
-9 -11 0
54 40 -215 0
54 40 -214 0
54 39 -207 0
54 39 -208 0
54 3 -55 0
54 3 -53 0
54 26 -174 0
54 26 -175 0
54 44 -220 0
54 44 -219 0
54 33 -198 0
54 33 -199 0
54 12 -123 0
54 12 -124 0
54 30 -188 0
54 30 -187 0
54 5 -80 0
54 5 -79 0
54 21 -159 0
54 21 -160 0
54 49 -222 0
54 49 -223 0
54 16 -142 0
54 16 -143 0
54 9 -103 0
54 9 -102 0
54 52 -215 0
54 52 -207 0
54 52 -55 0
54 52 -174 0
54 52 -220 0
54 52 -198 0
54 52 -123 0
54 52 -188 0
54 52 -80 0
54 52 -159 0
54 52 -222 0
54 52 -142 0
54 52 -103 0
54 52 -214 0
54 52 -208 0
54 52 -53 0
54 52 -175 0
54 52 -219 0
54 52 -199 0
54 52 -124 0
54 52 -187 0
54 52 -79 0
54 52 -160 0
54 52 -223 0
54 52 -143 0
54 52 -102 0
40 39 -201 0
40 39 -202 0
40 3 -42 0
40 3 -41 0
40 26 -169 0
40 26 -168 0
40 44 -211 0
40 44 -210 0
40 33 -192 0
40 33 -193 0
40 12 -117 0
40 12 -118 0
40 30 -181 0
40 30 -182 0
40 5 -74 0
40 5 -73 0
40 21 -154 0
40 21 -153 0
40 49 -212 0
40 49 -213 0
40 16 -136 0
40 16 -137 0
40 9 -96 0
40 9 -97 0
40 43 -215 0
40 43 -214 0
40 43 -201 0
40 43 -42 0
40 43 -169 0
40 43 -211 0
40 43 -192 0
40 43 -117 0
40 43 -181 0
40 43 -74 0
40 43 -154 0
40 43 -212 0
40 43 -136 0
40 43 -96 0
40 43 -202 0
40 43 -41 0
40 43 -168 0
40 43 -210 0
40 43 -193 0
40 43 -118 0
40 43 -182 0
40 43 -73 0
40 43 -153 0
40 43 -213 0
40 43 -137 0
40 43 -97 0
39 3 -38 0
39 3 -36 0
39 26 -167 0
39 26 -166 0
39 44 -204 0
39 44 -203 0
39 33 -190 0
39 33 -191 0
39 12 -116 0
39 12 -115 0
39 30 -179 0
39 30 -180 0
39 5 -71 0
39 5 -72 0
39 21 -152 0
39 21 -151 0
39 49 -205 0
39 49 -206 0
39 16 -135 0
39 16 -134 0
39 9 -95 0
39 9 -94 0
39 37 -207 0
39 37 -201 0
39 37 -208 0
39 37 -202 0
39 37 -38 0
39 37 -167 0
39 37 -204 0
39 37 -190 0
39 37 -116 0
39 37 -179 0
39 37 -71 0
39 37 -152 0
39 37 -205 0
39 37 -135 0
39 37 -95 0
39 37 -36 0
39 37 -166 0
39 37 -203 0
39 37 -191 0
39 37 -115 0
39 37 -180 0
39 37 -72 0
39 37 -151 0
39 37 -206 0
39 37 -134 0
39 37 -94 0
3 26 -27 0
3 26 -24 0
3 44 -46 0
3 44 -47 0
3 33 -34 0
3 33 -32 0
3 12 -14 0
3 12 -15 0
3 30 -31 0
3 30 -29 0
3 5 -6 0
3 5 -4 0
3 21 -22 0
3 21 -20 0
3 49 -51 0
3 49 -48 0
3 16 -19 0
3 16 -17 0
3 9 -10 0
3 9 -8 0
3 1 -55 0
3 1 -42 0
3 1 -38 0
3 1 -53 0
3 1 -41 0
3 1 -36 0
3 1 -27 0
3 1 -46 0
3 1 -34 0
3 1 -14 0
3 1 -31 0
3 1 -6 0
3 1 -22 0
3 1 -51 0
3 1 -19 0
3 1 -10 0
3 1 -24 0
3 1 -47 0
3 1 -32 0
3 1 -15 0
3 1 -29 0
3 1 -4 0
3 1 -20 0
3 1 -48 0
3 1 -17 0
3 1 -8 0
26 44 -171 0
26 44 -170 0
26 33 -165 0
26 33 -164 0
26 12 -110 0
26 12 -109 0
26 30 -163 0
26 30 -162 0
26 5 -66 0
26 5 -65 0
26 21 -145 0
26 21 -146 0
26 49 -173 0
26 49 -172 0
26 16 -128 0
26 16 -129 0
26 9 -89 0
26 9 -88 0
26 25 -174 0
26 25 -169 0
26 25 -167 0
26 25 -27 0
26 25 -175 0
26 25 -168 0
26 25 -166 0
26 25 -24 0
26 25 -171 0
26 25 -165 0
26 25 -110 0
26 25 -163 0
26 25 -66 0
26 25 -145 0
26 25 -173 0
26 25 -128 0
26 25 -89 0
26 25 -170 0
26 25 -164 0
26 25 -109 0
26 25 -162 0
26 25 -65 0
26 25 -146 0
26 25 -172 0
26 25 -129 0
26 25 -88 0
44 33 -194 0
44 33 -195 0
44 12 -119 0
44 12 -120 0
44 30 -183 0
44 30 -184 0
44 5 -76 0
44 5 -75 0
44 21 -156 0
44 21 -155 0
44 49 -217 0
44 49 -218 0
44 16 -139 0
44 16 -138 0
44 9 -98 0
44 9 -99 0
44 45 -220 0
44 45 -211 0
44 45 -204 0
44 45 -46 0
44 45 -171 0
44 45 -219 0
44 45 -210 0
44 45 -203 0
44 45 -47 0
44 45 -170 0
44 45 -194 0
44 45 -119 0
44 45 -183 0
44 45 -76 0
44 45 -156 0
44 45 -217 0
44 45 -139 0
44 45 -98 0
44 45 -195 0
44 45 -120 0
44 45 -184 0
44 45 -75 0
44 45 -155 0
44 45 -218 0
44 45 -138 0
44 45 -99 0
33 12 -113 0
33 12 -114 0
33 30 -178 0
33 30 -177 0
33 5 -69 0
33 5 -70 0
33 21 -150 0
33 21 -149 0
33 49 -196 0
33 49 -197 0
33 16 -133 0
33 16 -132 0
33 9 -92 0
33 9 -93 0
33 35 -198 0
33 35 -192 0
33 35 -190 0
33 35 -34 0
33 35 -165 0
33 35 -194 0
33 35 -199 0
33 35 -193 0
33 35 -191 0
33 35 -32 0
33 35 -164 0
33 35 -195 0
33 35 -113 0
33 35 -178 0
33 35 -69 0
33 35 -150 0
33 35 -196 0
33 35 -133 0
33 35 -92 0
33 35 -114 0
33 35 -177 0
33 35 -70 0
33 35 -149 0
33 35 -197 0
33 35 -132 0
33 35 -93 0
12 30 -111 0
12 30 -112 0
12 5 -59 0
12 5 -60 0
12 21 -108 0
12 21 -107 0
12 49 -121 0
12 49 -122 0
12 16 -106 0
12 16 -105 0
12 9 -83 0
12 9 -82 0
12 13 -123 0
12 13 -117 0
12 13 -116 0
12 13 -14 0
12 13 -110 0
12 13 -119 0
12 13 -113 0
12 13 -124 0
12 13 -118 0
12 13 -115 0
12 13 -15 0
12 13 -109 0
12 13 -120 0
12 13 -114 0
12 13 -111 0
12 13 -59 0
12 13 -108 0
12 13 -121 0
12 13 -106 0
12 13 -83 0
12 13 -112 0
12 13 -60 0
12 13 -107 0
12 13 -122 0
12 13 -105 0
12 13 -82 0
30 5 -67 0
30 5 -68 0
30 21 -148 0
30 21 -147 0
30 49 -186 0
30 49 -185 0
30 16 -131 0
30 16 -130 0
30 9 -91 0
30 9 -90 0
30 28 -188 0
30 28 -181 0
30 28 -179 0
30 28 -31 0
30 28 -163 0
30 28 -183 0
30 28 -178 0
30 28 -111 0
30 28 -187 0
30 28 -182 0
30 28 -180 0
30 28 -29 0
30 28 -162 0
30 28 -184 0
30 28 -177 0
30 28 -112 0
30 28 -67 0
30 28 -148 0
30 28 -186 0
30 28 -131 0
30 28 -91 0
30 28 -68 0
30 28 -147 0
30 28 -185 0
30 28 -130 0
30 28 -90 0
5 21 -63 0
5 21 -64 0
5 49 -77 0
5 49 -78 0
5 16 -61 0
5 16 -62 0
5 9 -58 0
5 9 -57 0
5 7 -80 0
5 7 -74 0
5 7 -71 0
5 7 -6 0
5 7 -66 0
5 7 -76 0
5 7 -69 0
5 7 -59 0
5 7 -67 0
5 7 -79 0
5 7 -73 0
5 7 -72 0
5 7 -4 0
5 7 -65 0
5 7 -75 0
5 7 -70 0
5 7 -60 0
5 7 -68 0
5 7 -63 0
5 7 -77 0
5 7 -61 0
5 7 -58 0
5 7 -64 0
5 7 -78 0
5 7 -62 0
5 7 -57 0
21 49 -158 0
21 49 -157 0
21 16 -126 0
21 16 -127 0
21 9 -86 0
21 9 -87 0
21 23 -159 0
21 23 -154 0
21 23 -152 0
21 23 -22 0
21 23 -145 0
21 23 -156 0
21 23 -150 0
21 23 -108 0
21 23 -148 0
21 23 -63 0
21 23 -160 0
21 23 -153 0
21 23 -151 0
21 23 -20 0
21 23 -146 0
21 23 -155 0
21 23 -149 0
21 23 -107 0
21 23 -147 0
21 23 -64 0
21 23 -158 0
21 23 -126 0
21 23 -86 0
21 23 -157 0
21 23 -127 0
21 23 -87 0
49 16 -140 0
49 16 -141 0
49 9 -101 0
49 9 -100 0
49 50 -222 0
49 50 -212 0
49 50 -205 0
49 50 -51 0
49 50 -173 0
49 50 -217 0
49 50 -196 0
49 50 -121 0
49 50 -186 0
49 50 -77 0
49 50 -158 0
49 50 -223 0
49 50 -213 0
49 50 -206 0
49 50 -48 0
49 50 -172 0
49 50 -218 0
49 50 -197 0
49 50 -122 0
49 50 -185 0
49 50 -78 0
49 50 -157 0
49 50 -140 0
49 50 -101 0
49 50 -141 0
49 50 -100 0
16 9 -84 0
16 9 -85 0
16 18 -142 0
16 18 -136 0
16 18 -135 0
16 18 -19 0
16 18 -128 0
16 18 -139 0
16 18 -133 0
16 18 -106 0
16 18 -131 0
16 18 -61 0
16 18 -126 0
16 18 -140 0
16 18 -143 0
16 18 -137 0
16 18 -134 0
16 18 -17 0
16 18 -129 0
16 18 -138 0
16 18 -132 0
16 18 -105 0
16 18 -130 0
16 18 -62 0
16 18 -127 0
16 18 -141 0
16 18 -84 0
16 18 -85 0
9 11 -103 0
9 11 -96 0
9 11 -95 0
9 11 -10 0
9 11 -89 0
9 11 -98 0
9 11 -92 0
9 11 -83 0
9 11 -91 0
9 11 -58 0
9 11 -86 0
9 11 -101 0
9 11 -84 0
9 11 -102 0
9 11 -97 0
9 11 -94 0
9 11 -8 0
9 11 -88 0
9 11 -99 0
9 11 -93 0
9 11 -82 0
9 11 -90 0
9 11 -57 0
9 11 -87 0
9 11 -100 0
9 11 -85 0
52 43 -215 0
52 43 -214 0
52 37 -207 0
52 37 -208 0
52 1 -55 0
52 1 -53 0
52 25 -174 0
52 25 -175 0
52 45 -220 0
52 45 -219 0
52 35 -198 0
52 35 -199 0
52 13 -123 0
52 13 -124 0
52 28 -188 0
52 28 -187 0
52 7 -80 0
52 7 -79 0
52 23 -159 0
52 23 -160 0
52 50 -222 0
52 50 -223 0
52 18 -142 0
52 18 -143 0
52 11 -103 0
52 11 -102 0
43 37 -201 0
43 37 -202 0
43 1 -42 0
43 1 -41 0
43 25 -169 0
43 25 -168 0
43 45 -211 0
43 45 -210 0
43 35 -192 0
43 35 -193 0
43 13 -117 0
43 13 -118 0
43 28 -181 0
43 28 -182 0
43 7 -74 0
43 7 -73 0
43 23 -154 0
43 23 -153 0
43 50 -212 0
43 50 -213 0
43 18 -136 0
43 18 -137 0
43 11 -96 0
43 11 -97 0
37 1 -38 0
37 1 -36 0
37 25 -167 0
37 25 -166 0
37 45 -204 0
37 45 -203 0
37 35 -190 0
37 35 -191 0
37 13 -116 0
37 13 -115 0
37 28 -179 0
37 28 -180 0
37 7 -71 0
37 7 -72 0
37 23 -152 0
37 23 -151 0
37 50 -205 0
37 50 -206 0
37 18 -135 0
37 18 -134 0
37 11 -95 0
37 11 -94 0
1 25 -27 0
1 25 -24 0
1 45 -46 0
1 45 -47 0
1 35 -34 0
1 35 -32 0
1 13 -14 0
1 13 -15 0
1 28 -31 0
1 28 -29 0
1 7 -6 0
1 7 -4 0
1 23 -22 0
1 23 -20 0
1 50 -51 0
1 50 -48 0
1 18 -19 0
1 18 -17 0
1 11 -10 0
1 11 -8 0
25 45 -171 0
25 45 -170 0
25 35 -165 0
25 35 -164 0
25 13 -110 0
25 13 -109 0
25 28 -163 0
25 28 -162 0
25 7 -66 0
25 7 -65 0
25 23 -145 0
25 23 -146 0
25 50 -173 0
25 50 -172 0
25 18 -128 0
25 18 -129 0
25 11 -89 0
25 11 -88 0
45 35 -194 0
45 35 -195 0
45 13 -119 0
45 13 -120 0
45 28 -183 0
45 28 -184 0
45 7 -76 0
45 7 -75 0
45 23 -156 0
45 23 -155 0
45 50 -217 0
45 50 -218 0
45 18 -139 0
45 18 -138 0
45 11 -98 0
45 11 -99 0
35 13 -113 0
35 13 -114 0
35 28 -178 0
35 28 -177 0
35 7 -69 0
35 7 -70 0
35 23 -150 0
35 23 -149 0
35 50 -196 0
35 50 -197 0
35 18 -133 0
35 18 -132 0
35 11 -92 0
35 11 -93 0
13 28 -111 0
13 28 -112 0
13 7 -59 0
13 7 -60 0
13 23 -108 0
13 23 -107 0
13 50 -121 0
13 50 -122 0
13 18 -106 0
13 18 -105 0
13 11 -83 0
13 11 -82 0
28 7 -67 0
28 7 -68 0
28 23 -148 0
28 23 -147 0
28 50 -186 0
28 50 -185 0
28 18 -131 0
28 18 -130 0
28 11 -91 0
28 11 -90 0
7 23 -63 0
7 23 -64 0
7 50 -77 0
7 50 -78 0
7 18 -61 0
7 18 -62 0
7 11 -58 0
7 11 -57 0
23 50 -158 0
23 50 -157 0
23 18 -126 0
23 18 -127 0
23 11 -86 0
23 11 -87 0
50 18 -140 0
50 18 -141 0
50 11 -101 0
50 11 -100 0
18 11 -84 0
18 11 -85 0
224 215 207 55 174 220 198 123 188 80 159 222 142 103 0
214 209 201 42 169 211 192 117 181 74 154 212 136 96 0
208 202 200 38 167 204 190 116 179 71 152 205 135 95 0
53 41 36 2 27 46 34 14 31 6 22 51 19 10 0
175 168 166 24 161 171 165 110 163 66 145 173 128 89 0
219 210 203 47 170 216 194 119 183 76 156 217 139 98 0
199 193 191 32 164 195 189 113 178 69 150 196 133 92 0
124 118 115 15 109 120 114 104 111 59 108 121 106 83 0
187 182 180 29 162 184 177 112 176 67 148 186 131 91 0
79 73 72 4 65 75 70 60 68 56 63 77 61 58 0
160 153 151 20 146 155 149 107 147 64 144 158 126 86 0
223 213 206 48 172 218 197 122 185 78 157 221 140 101 0
143 137 134 17 129 138 132 105 130 62 127 141 125 84 0
102 97 94 8 88 99 93 82 90 57 87 100 85 81 0
