c R(14) B(14) E(14,14) R(1) B(1) E(1,14) E(14,1) E(14,9) E(9,14) B(9) R(9) R(8) B(8) E(14,8) E(8,14) E(14,5) B(5) R(5) E(5,14) R(4) B(4) E(14,4) E(4,14) E(14,3) B(3) E(3,14) R(3) E(14,7) E(7,14) R(7) B(7) E(14,2) R(2) E(2,14) B(2) R(6) E(14,6) E(6,14) B(6) E(0,14) E(14,0) R(0) B(0) B(10) R(10) E(14,10) E(10,14) R(13) B(13) E(14,13) E(13,14) E(14,12) E(12,14) R(12) B(12) E(14,11) E(11,14) R(11) B(11) E(1,1) E(9,1) E(1,9) E(1,8) E(8,1) E(1,5) E(5,1) E(1,4) E(4,1) E(3,1) E(1,3) E(1,7) E(7,1) E(2,1) E(1,2) E(1,6) E(6,1) E(0,1) E(1,0) E(1,10) E(10,1) E(13,1) E(1,13) E(12,1) E(1,12) E(11,1) E(1,11) E(9,9) E(8,9) E(9,8) E(5,9) E(9,5) E(4,9) E(9,4) E(3,9) E(9,3) E(9,7) E(7,9) E(2,9) E(9,2) E(6,9) E(9,6) E(9,0) E(0,9) E(10,9) E(9,10) E(13,9) E(9,13) E(9,12) E(12,9) E(11,9) E(9,11) E(8,8) E(5,8) E(8,5) E(4,8) E(8,4) E(8,3) E(3,8) E(8,7) E(7,8) E(2,8) E(8,2) E(8,6) E(6,8) E(0,8) E(8,0) E(10,8) E(8,10) E(8,13) E(13,8) E(8,12) E(12,8) E(8,11) E(11,8) E(5,5) E(5,4) E(4,5) E(3,5) E(5,3) E(5,7) E(7,5) E(2,5) E(5,2) E(6,5) E(5,6) E(0,5) E(5,0) E(10,5) E(5,10) E(5,13) E(13,5) E(12,5) E(5,12) E(11,5) E(5,11) E(4,4) E(3,4) E(4,3) E(7,4) E(4,7) E(4,2) E(2,4) E(4,6) E(6,4) E(4,0) E(0,4) E(4,10) E(10,4) E(13,4) E(4,13) E(12,4) E(4,12) E(4,11) E(11,4) E(3,3) E(7,3) E(3,7) E(3,2) E(2,3) E(3,6) E(6,3) E(3,0) E(0,3) E(10,3) E(3,10) E(3,13) E(13,3) E(3,12) E(12,3) E(11,3) E(3,11) E(7,7) E(2,7) E(7,2) E(7,6) E(6,7) E(0,7) E(7,0) E(7,10) E(10,7) E(7,13) E(13,7) E(7,12) E(12,7) E(7,11) E(11,7) E(2,2) E(6,2) E(2,6) E(2,0) E(0,2) E(10,2) E(2,10) E(13,2) E(2,13) E(2,12) E(12,2) E(11,2) E(2,11) E(6,6) E(6,0) E(0,6) E(6,10) E(10,6) E(6,13) E(13,6) E(12,6) E(6,12) E(11,6) E(6,11) E(0,0) E(10,0) E(0,10) E(0,13) E(13,0) E(12,0) E(0,12) E(11,0) E(0,11) E(10,10) E(13,10) E(10,13) E(12,10) E(10,12) E(11,10) E(10,11) E(13,13) E(12,13) E(13,12) E(11,13) E(13,11) E(12,12) E(12,11) E(11,12) E(11,11)
c 1 2 3 4 5 6 7 8 9 10 11 12 13 14 15 16 17 18 19 20 21 22 23 24 25 26 27 28 29 30 31 32 33 34 35 36 37 38 39 40 41 42 43 44 45 46 47 48 49 50 51 52 53 54 55 56 57 58 59 60 61 62 63 64 65 66 67 68 69 70 71 72 73 74 75 76 77 78 79 80 81 82 83 84 85 86 87 88 89 90 91 92 93 94 95 96 97 98 99 100 101 102 103 104 105 106 107 108 109 110 111 112 113 114 115 116 117 118 119 120 121 122 123 124 125 126 127 128 129 130 131 132 133 134 135 136 137 138 139 140 141 142 143 144 145 146 147 148 149 150 151 152 153 154 155 156 157 158 159 160 161 162 163 164 165 166 167 168 169 170 171 172 173 174 175 176 177 178 179 180 181 182 183 184 185 186 187 188 189 190 191 192 193 194 195 196 197 198 199 200 201 202 203 204 205 206 207 208 209 210 211 212 213 214 215 216 217 218 219 220 221 222 223 224 225 226 227 228 229 230 231 232 233 234 235 236 237 238 239 240 241 242 243 244 245 246 247 248 249 250 251 252 253 254 255
p cnf 255 1140
43 42 0
5 4 0
44 45 0
59 58 0
55 54 0
49 48 0
2 1 0
35 33 0
25 27 0
21 20 0
17 18 0
39 36 0
31 30 0
13 12 0
10 11 0
43 -231 0
5 -60 0
44 -240 0
59 -255 0
55 -252 0
49 -247 0
2 -3 0
35 -207 0
25 -175 0
21 -156 0
17 -135 0
39 -220 0
31 -192 0
13 -112 0
10 -87 0
231 -231 0
77 -78 0
233 -232 0
239 -238 0
237 -236 0
234 -235 0
40 -41 0
211 -210 0
183 -182 0
166 -165 0
146 -147 0
222 -221 0
197 -198 0
125 -126 0
103 -102 0
78 -77 0
60 -60 0
79 -80 0
86 -85 0
84 -83 0
82 -81 0
6 -7 0
74 -73 0
70 -69 0
67 -68 0
65 -66 0
75 -76 0
71 -72 0
63 -64 0
62 -61 0
232 -233 0
80 -79 0
240 -240 0
246 -245 0
244 -243 0
242 -241 0
47 -46 0
212 -213 0
184 -185 0
168 -167 0
148 -149 0
224 -223 0
200 -199 0
127 -128 0
104 -105 0
238 -239 0
85 -86 0
245 -246 0
255 -255 0
254 -253 0
250 -251 0
57 -56 0
218 -219 0
190 -191 0
174 -173 0
154 -155 0
229 -230 0
206 -205 0
134 -133 0
110 -111 0
236 -237 0
83 -84 0
243 -244 0
253 -254 0
252 -252 0
248 -249 0
53 -52 0
217 -216 0
189 -188 0
171 -172 0
152 -153 0
227 -228 0
204 -203 0
132 -131 0
109 -108 0
235 -234 0
81 -82 0
241 -242 0
251 -250 0
249 -248 0
247 -247 0
51 -50 0
214 -215 0
187 -186 0
169 -170 0
151 -150 0
226 -225 0
202 -201 0
130 -129 0
106 -107 0
41 -40 0
7 -6 0
46 -47 0
56 -57 0
52 -53 0
50 -51 0
3 -3 0
32 -34 0
24 -26 0
22 -23 0
16 -19 0
37 -38 0
28 -29 0
14 -15 0
8 -9 0
210 -211 0
73 -74 0
213 -212 0
219 -218 0
216 -217 0
215 -214 0
34 -32 0
207 -207 0
179 -178 0
162 -161 0
142 -143 0
209 -208 0
193 -194 0
121 -122 0
98 -99 0
182 -183 0
69 -70 0
185 -184 0
191 -190 0
188 -189 0
186 -187 0
26 -24 0
178 -179 0
175 -175 0
157 -158 0
138 -139 0
180 -181 0
177 -176 0
118 -117 0
94 -95 0
165 -166 0
68 -67 0
167 -168 0
173 -174 0
172 -171 0
170 -169 0
23 -22 0
161 -162 0
158 -157 0
156 -156 0
137 -136 0
163 -164 0
160 -159 0
115 -116 0
92 -93 0
147 -146 0
66 -65 0
149 -148 0
155 -154 0
153 -152 0
150 -151 0
19 -16 0
143 -142 0
139 -138 0
136 -137 0
135 -135 0
145 -144 0
140 -141 0
113 -114 0
90 -91 0
221 -222 0
76 -75 0
223 -224 0
230 -229 0
228 -227 0
225 -226 0
38 -37 0
208 -209 0
181 -180 0
164 -163 0
144 -145 0
220 -220 0
196 -195 0
124 -123 0
100 -101 0
198 -197 0
72 -71 0
199 -200 0
205 -206 0
203 -204 0
201 -202 0
29 -28 0
194 -193 0
176 -177 0
159 -160 0
141 -140 0
195 -196 0
192 -192 0
120 -119 0
97 -96 0
126 -125 0
64 -63 0
128 -127 0
133 -134 0
131 -132 0
129 -130 0
15 -14 0
122 -121 0
117 -118 0
116 -115 0
114 -113 0
123 -124 0
119 -120 0
112 -112 0
88 -89 0
102 -103 0
61 -62 0
105 -104 0
111 -110 0
108 -109 0
107 -106 0
9 -8 0
99 -98 0
95 -94 0
93 -92 0
91 -90 0
101 -100 0
96 -97 0
89 -88 0
87 -87 0
42 -231 0
4 -60 0
45 -240 0
58 -255 0
54 -252 0
48 -247 0
1 -3 0
33 -207 0
27 -175 0
20 -156 0
18 -135 0
36 -220 0
30 -192 0
12 -112 0
11 -87 0
-43 -42 0
-5 -4 0
-44 -45 0
-59 -58 0
-55 -54 0
-49 -48 0
-2 -1 0
-35 -33 0
-25 -27 0
-21 -20 0
-17 -18 0
-39 -36 0
-31 -30 0
-13 -12 0
-10 -11 0
43 5 -77 0
43 5 -78 0
43 44 -233 0
43 44 -232 0
43 59 -239 0
43 59 -238 0
43 55 -237 0
43 55 -236 0
43 49 -234 0
43 49 -235 0
43 2 -40 0
43 2 -41 0
43 35 -211 0
43 35 -210 0
43 25 -183 0
43 25 -182 0
43 21 -166 0
43 21 -165 0
43 17 -146 0
43 17 -147 0
43 39 -222 0
43 39 -221 0
43 31 -197 0
43 31 -198 0
43 13 -125 0
43 13 -126 0
43 10 -103 0
43 10 -102 0
43 42 -77 0
43 42 -233 0
43 42 -239 0
43 42 -237 0
43 42 -234 0
43 42 -40 0
43 42 -211 0
43 42 -183 0
43 42 -166 0
43 42 -146 0
43 42 -222 0
43 42 -197 0
43 42 -125 0
43 42 -103 0
43 42 -78 0
43 42 -232 0
43 42 -238 0
43 42 -236 0
43 42 -235 0
43 42 -41 0
43 42 -210 0
43 42 -182 0
43 42 -165 0
43 42 -147 0
43 42 -221 0
43 42 -198 0
43 42 -126 0
43 42 -102 0
5 44 -79 0
5 44 -80 0
5 59 -86 0
5 59 -85 0
5 55 -84 0
5 55 -83 0
5 49 -82 0
5 49 -81 0
5 2 -6 0
5 2 -7 0
5 35 -74 0
5 35 -73 0
5 25 -70 0
5 25 -69 0
5 21 -67 0
5 21 -68 0
5 17 -65 0
5 17 -66 0
5 39 -75 0
5 39 -76 0
5 31 -71 0
5 31 -72 0
5 13 -63 0
5 13 -64 0
5 10 -62 0
5 10 -61 0
5 4 -77 0
5 4 -78 0
5 4 -79 0
5 4 -86 0
5 4 -84 0
5 4 -82 0
5 4 -6 0
5 4 -74 0
5 4 -70 0
5 4 -67 0
5 4 -65 0
5 4 -75 0
5 4 -71 0
5 4 -63 0
5 4 -62 0
5 4 -80 0
5 4 -85 0
5 4 -83 0
5 4 -81 0
5 4 -7 0
5 4 -73 0
5 4 -69 0
5 4 -68 0
5 4 -66 0
5 4 -76 0
5 4 -72 0
5 4 -64 0
5 4 -61 0
44 59 -246 0
44 59 -245 0
44 55 -244 0
44 55 -243 0
44 49 -242 0
44 49 -241 0
44 2 -47 0
44 2 -46 0
44 35 -212 0
44 35 -213 0
44 25 -184 0
44 25 -185 0
44 21 -168 0
44 21 -167 0
44 17 -148 0
44 17 -149 0
44 39 -224 0
44 39 -223 0
44 31 -200 0
44 31 -199 0
44 13 -127 0
44 13 -128 0
44 10 -104 0
44 10 -105 0
44 45 -233 0
44 45 -79 0
44 45 -232 0
44 45 -80 0
44 45 -246 0
44 45 -244 0
44 45 -242 0
44 45 -47 0
44 45 -212 0
44 45 -184 0
44 45 -168 0
44 45 -148 0
44 45 -224 0
44 45 -200 0
44 45 -127 0
44 45 -104 0
44 45 -245 0
44 45 -243 0
44 45 -241 0
44 45 -46 0
44 45 -213 0
44 45 -185 0
44 45 -167 0
44 45 -149 0
44 45 -223 0
44 45 -199 0
44 45 -128 0
44 45 -105 0
59 55 -254 0
59 55 -253 0
59 49 -250 0
59 49 -251 0
59 2 -57 0
59 2 -56 0
59 35 -218 0
59 35 -219 0
59 25 -190 0
59 25 -191 0
59 21 -174 0
59 21 -173 0
59 17 -154 0
59 17 -155 0
59 39 -229 0
59 39 -230 0
59 31 -206 0
59 31 -205 0
59 13 -134 0
59 13 -133 0
59 10 -110 0
59 10 -111 0
59 58 -239 0
59 58 -86 0
59 58 -246 0
59 58 -238 0
59 58 -85 0
59 58 -245 0
59 58 -254 0
59 58 -250 0
59 58 -57 0
59 58 -218 0
59 58 -190 0
59 58 -174 0
59 58 -154 0
59 58 -229 0
59 58 -206 0
59 58 -134 0
59 58 -110 0
59 58 -253 0
59 58 -251 0
59 58 -56 0
59 58 -219 0
59 58 -191 0
59 58 -173 0
59 58 -155 0
59 58 -230 0
59 58 -205 0
59 58 -133 0
59 58 -111 0
55 49 -248 0
55 49 -249 0
55 2 -53 0
55 2 -52 0
55 35 -217 0
55 35 -216 0
55 25 -189 0
55 25 -188 0
55 21 -171 0
55 21 -172 0
55 17 -152 0
55 17 -153 0
55 39 -227 0
55 39 -228 0
55 31 -204 0
55 31 -203 0
55 13 -132 0
55 13 -131 0
55 10 -109 0
55 10 -108 0
55 54 -237 0
55 54 -84 0
55 54 -244 0
55 54 -254 0
55 54 -236 0
55 54 -83 0
55 54 -243 0
55 54 -253 0
55 54 -248 0
55 54 -53 0
55 54 -217 0
55 54 -189 0
55 54 -171 0
55 54 -152 0
55 54 -227 0
55 54 -204 0
55 54 -132 0
55 54 -109 0
55 54 -249 0
55 54 -52 0
55 54 -216 0
55 54 -188 0
55 54 -172 0
55 54 -153 0
55 54 -228 0
55 54 -203 0
55 54 -131 0
55 54 -108 0
49 2 -51 0
49 2 -50 0
49 35 -214 0
49 35 -215 0
49 25 -187 0
49 25 -186 0
49 21 -169 0
49 21 -170 0
49 17 -151 0
49 17 -150 0
49 39 -226 0
49 39 -225 0
49 31 -202 0
49 31 -201 0
49 13 -130 0
49 13 -129 0
49 10 -106 0
49 10 -107 0
49 48 -234 0
49 48 -82 0
49 48 -242 0
49 48 -250 0
49 48 -248 0
49 48 -235 0
49 48 -81 0
49 48 -241 0
49 48 -251 0
49 48 -249 0
49 48 -51 0
49 48 -214 0
49 48 -187 0
49 48 -169 0
49 48 -151 0
49 48 -226 0
49 48 -202 0
49 48 -130 0
49 48 -106 0
49 48 -50 0
49 48 -215 0
49 48 -186 0
49 48 -170 0
49 48 -150 0
49 48 -225 0
49 48 -201 0
49 48 -129 0
49 48 -107 0
2 35 -32 0
2 35 -34 0
2 25 -24 0
2 25 -26 0
2 21 -22 0
2 21 -23 0
2 17 -16 0
2 17 -19 0
2 39 -37 0
2 39 -38 0
2 31 -28 0
2 31 -29 0
2 13 -14 0
2 13 -15 0
2 10 -8 0
2 10 -9 0
2 1 -40 0
2 1 -6 0
2 1 -47 0
2 1 -57 0
2 1 -53 0
2 1 -51 0
2 1 -41 0
2 1 -7 0
2 1 -46 0
2 1 -56 0
2 1 -52 0
2 1 -50 0
2 1 -32 0
2 1 -24 0
2 1 -22 0
2 1 -16 0
2 1 -37 0
2 1 -28 0
2 1 -14 0
2 1 -8 0
2 1 -34 0
2 1 -26 0
2 1 -23 0
2 1 -19 0
2 1 -38 0
2 1 -29 0
2 1 -15 0
2 1 -9 0
35 25 -179 0
35 25 -178 0
35 21 -162 0
35 21 -161 0
35 17 -142 0
35 17 -143 0
35 39 -209 0
35 39 -208 0
35 31 -193 0
35 31 -194 0
35 13 -121 0
35 13 -122 0
35 10 -98 0
35 10 -99 0
35 33 -211 0
35 33 -74 0
35 33 -212 0
35 33 -218 0
35 33 -217 0
35 33 -214 0
35 33 -32 0
35 33 -210 0
35 33 -73 0
35 33 -213 0
35 33 -219 0
35 33 -216 0
35 33 -215 0
35 33 -34 0
35 33 -179 0
35 33 -162 0
35 33 -142 0
35 33 -209 0
35 33 -193 0
35 33 -121 0
35 33 -98 0
35 33 -178 0
35 33 -161 0
35 33 -143 0
35 33 -208 0
35 33 -194 0
35 33 -122 0
35 33 -99 0
25 21 -157 0
25 21 -158 0
25 17 -138 0
25 17 -139 0
25 39 -180 0
25 39 -181 0
25 31 -177 0
25 31 -176 0
25 13 -118 0
25 13 -117 0
25 10 -94 0
25 10 -95 0
25 27 -183 0
25 27 -70 0
25 27 -184 0
25 27 -190 0
25 27 -189 0
25 27 -187 0
25 27 -24 0
25 27 -179 0
25 27 -182 0
25 27 -69 0
25 27 -185 0
25 27 -191 0
25 27 -188 0
25 27 -186 0
25 27 -26 0
25 27 -178 0
25 27 -157 0
25 27 -138 0
25 27 -180 0
25 27 -177 0
25 27 -118 0
25 27 -94 0
25 27 -158 0
25 27 -139 0
25 27 -181 0
25 27 -176 0
25 27 -117 0
25 27 -95 0
21 17 -137 0
21 17 -136 0
21 39 -163 0
21 39 -164 0
21 31 -160 0
21 31 -159 0
21 13 -115 0
21 13 -116 0
21 10 -92 0
21 10 -93 0
21 20 -166 0
21 20 -67 0
21 20 -168 0
21 20 -174 0
21 20 -171 0
21 20 -169 0
21 20 -22 0
21 20 -162 0
21 20 -157 0
21 20 -165 0
21 20 -68 0
21 20 -167 0
21 20 -173 0
21 20 -172 0
21 20 -170 0
21 20 -23 0
21 20 -161 0
21 20 -158 0
21 20 -137 0
21 20 -163 0
21 20 -160 0
21 20 -115 0
21 20 -92 0
21 20 -136 0
21 20 -164 0
21 20 -159 0
21 20 -116 0
21 20 -93 0
17 39 -145 0
17 39 -144 0
17 31 -140 0
17 31 -141 0
17 13 -113 0
17 13 -114 0
17 10 -90 0
17 10 -91 0
17 18 -146 0
17 18 -65 0
17 18 -148 0
17 18 -154 0
17 18 -152 0
17 18 -151 0
17 18 -16 0
17 18 -142 0
17 18 -138 0
17 18 -137 0
17 18 -147 0
17 18 -66 0
17 18 -149 0
17 18 -155 0
17 18 -153 0
17 18 -150 0
17 18 -19 0
17 18 -143 0
17 18 -139 0
17 18 -136 0
17 18 -145 0
17 18 -140 0
17 18 -113 0
17 18 -90 0
17 18 -144 0
17 18 -141 0
17 18 -114 0
17 18 -91 0
39 31 -196 0
39 31 -195 0
39 13 -124 0
39 13 -123 0
39 10 -100 0
39 10 -101 0
39 36 -222 0
39 36 -75 0
39 36 -224 0
39 36 -229 0
39 36 -227 0
39 36 -226 0
39 36 -37 0
39 36 -209 0
39 36 -180 0
39 36 -163 0
39 36 -145 0
39 36 -221 0
39 36 -76 0
39 36 -223 0
39 36 -230 0
39 36 -228 0
39 36 -225 0
39 36 -38 0
39 36 -208 0
39 36 -181 0
39 36 -164 0
39 36 -144 0
39 36 -196 0
39 36 -124 0
39 36 -100 0
39 36 -195 0
39 36 -123 0
39 36 -101 0
31 13 -120 0
31 13 -119 0
31 10 -97 0
31 10 -96 0
31 30 -197 0
31 30 -71 0
31 30 -200 0
31 30 -206 0
31 30 -204 0
31 30 -202 0
31 30 -28 0
31 30 -193 0
31 30 -177 0
31 30 -160 0
31 30 -140 0
31 30 -196 0
31 30 -198 0
31 30 -72 0
31 30 -199 0
31 30 -205 0
31 30 -203 0
31 30 -201 0
31 30 -29 0
31 30 -194 0
31 30 -176 0
31 30 -159 0
31 30 -141 0
31 30 -195 0
31 30 -120 0
31 30 -97 0
31 30 -119 0
31 30 -96 0
13 10 -88 0
13 10 -89 0
13 12 -125 0
13 12 -63 0
13 12 -127 0
13 12 -134 0
13 12 -132 0
13 12 -130 0
13 12 -14 0
13 12 -121 0
13 12 -118 0
13 12 -115 0
13 12 -113 0
13 12 -124 0
13 12 -120 0
13 12 -126 0
13 12 -64 0
13 12 -128 0
13 12 -133 0
13 12 -131 0
13 12 -129 0
13 12 -15 0
13 12 -122 0
13 12 -117 0
13 12 -116 0
13 12 -114 0
13 12 -123 0
13 12 -119 0
13 12 -88 0
13 12 -89 0
10 11 -103 0
10 11 -62 0
10 11 -104 0
10 11 -110 0
10 11 -109 0
10 11 -106 0
10 11 -8 0
10 11 -98 0
10 11 -94 0
10 11 -92 0
10 11 -90 0
10 11 -100 0
10 11 -97 0
10 11 -88 0
10 11 -102 0
10 11 -61 0
10 11 -105 0
10 11 -111 0
10 11 -108 0
10 11 -107 0
10 11 -9 0
10 11 -99 0
10 11 -95 0
10 11 -93 0
10 11 -91 0
10 11 -101 0
10 11 -96 0
10 11 -89 0
42 4 -77 0
42 4 -78 0
42 45 -233 0
42 45 -232 0
42 58 -239 0
42 58 -238 0
42 54 -237 0
42 54 -236 0
42 48 -234 0
42 48 -235 0
42 1 -40 0
42 1 -41 0
42 33 -211 0
42 33 -210 0
42 27 -183 0
42 27 -182 0
42 20 -166 0
42 20 -165 0
42 18 -146 0
42 18 -147 0
42 36 -222 0
42 36 -221 0
42 30 -197 0
42 30 -198 0
42 12 -125 0
42 12 -126 0
42 11 -103 0
42 11 -102 0
4 45 -79 0
4 45 -80 0
4 58 -86 0
4 58 -85 0
4 54 -84 0
4 54 -83 0
4 48 -82 0
4 48 -81 0
4 1 -6 0
4 1 -7 0
4 33 -74 0
4 33 -73 0
4 27 -70 0
4 27 -69 0
4 20 -67 0
4 20 -68 0
4 18 -65 0
4 18 -66 0
4 36 -75 0
4 36 -76 0
4 30 -71 0
4 30 -72 0
4 12 -63 0
4 12 -64 0
4 11 -62 0
4 11 -61 0
45 58 -246 0
45 58 -245 0
45 54 -244 0
45 54 -243 0
45 48 -242 0
45 48 -241 0
45 1 -47 0
45 1 -46 0
45 33 -212 0
45 33 -213 0
45 27 -184 0
45 27 -185 0
45 20 -168 0
45 20 -167 0
45 18 -148 0
45 18 -149 0
45 36 -224 0
45 36 -223 0
45 30 -200 0
45 30 -199 0
45 12 -127 0
45 12 -128 0
45 11 -104 0
45 11 -105 0
58 54 -254 0
58 54 -253 0
58 48 -250 0
58 48 -251 0
58 1 -57 0
58 1 -56 0
58 33 -218 0
58 33 -219 0
58 27 -190 0
58 27 -191 0
58 20 -174 0
58 20 -173 0
58 18 -154 0
58 18 -155 0
58 36 -229 0
58 36 -230 0
58 30 -206 0
58 30 -205 0
58 12 -134 0
58 12 -133 0
58 11 -110 0
58 11 -111 0
54 48 -248 0
54 48 -249 0
54 1 -53 0
54 1 -52 0
54 33 -217 0
54 33 -216 0
54 27 -189 0
54 27 -188 0
54 20 -171 0
54 20 -172 0
54 18 -152 0
54 18 -153 0
54 36 -227 0
54 36 -228 0
54 30 -204 0
54 30 -203 0
54 12 -132 0
54 12 -131 0
54 11 -109 0
54 11 -108 0
48 1 -51 0
48 1 -50 0
48 33 -214 0
48 33 -215 0
48 27 -187 0
48 27 -186 0
48 20 -169 0
48 20 -170 0
48 18 -151 0
48 18 -150 0
48 36 -226 0
48 36 -225 0
48 30 -202 0
48 30 -201 0
48 12 -130 0
48 12 -129 0
48 11 -106 0
48 11 -107 0
1 33 -32 0
1 33 -34 0
1 27 -24 0
1 27 -26 0
1 20 -22 0
1 20 -23 0
1 18 -16 0
1 18 -19 0
1 36 -37 0
1 36 -38 0
1 30 -28 0
1 30 -29 0
1 12 -14 0
1 12 -15 0
1 11 -8 0
1 11 -9 0
33 27 -179 0
33 27 -178 0
33 20 -162 0
33 20 -161 0
33 18 -142 0
33 18 -143 0
33 36 -209 0
33 36 -208 0
33 30 -193 0
33 30 -194 0
33 12 -121 0
33 12 -122 0
33 11 -98 0
33 11 -99 0
27 20 -157 0
27 20 -158 0
27 18 -138 0
27 18 -139 0
27 36 -180 0
27 36 -181 0
27 30 -177 0
27 30 -176 0
27 12 -118 0
27 12 -117 0
27 11 -94 0
27 11 -95 0
20 18 -137 0
20 18 -136 0
20 36 -163 0
20 36 -164 0
20 30 -160 0
20 30 -159 0
20 12 -115 0
20 12 -116 0
20 11 -92 0
20 11 -93 0
18 36 -145 0
18 36 -144 0
18 30 -140 0
18 30 -141 0
18 12 -113 0
18 12 -114 0
18 11 -90 0
18 11 -91 0
36 30 -196 0
36 30 -195 0
36 12 -124 0
36 12 -123 0
36 11 -100 0
36 11 -101 0
30 12 -120 0
30 12 -119 0
30 11 -97 0
30 11 -96 0
12 11 -88 0
12 11 -89 0
231 77 233 239 237 234 40 211 183 166 146 222 197 125 103 0
78 60 79 86 84 82 6 74 70 67 65 75 71 63 62 0
232 80 240 246 244 242 47 212 184 168 148 224 200 127 104 0
238 85 245 255 254 250 57 218 190 174 154 229 206 134 110 0
236 83 243 253 252 248 53 217 189 171 152 227 204 132 109 0
235 81 241 251 249 247 51 214 187 169 151 226 202 130 106 0
41 7 46 56 52 50 3 32 24 22 16 37 28 14 8 0
210 73 213 219 216 215 34 207 179 162 142 209 193 121 98 0
182 69 185 191 188 186 26 178 175 157 138 180 177 118 94 0
165 68 167 173 172 170 23 161 158 156 137 163 160 115 92 0
147 66 149 155 153 150 19 143 139 136 135 145 140 113 90 0
221 76 223 230 228 225 38 208 181 164 144 220 196 124 100 0
198 72 199 205 203 201 29 194 176 159 141 195 192 120 97 0
126 64 128 133 131 129 15 122 117 116 114 123 119 112 88 0
102 61 105 111 108 107 9 99 95 93 91 101 96 89 87 0
