c E(7,7) B(7) R(7) E(7,8) R(8) B(8) E(8,7) E(9,7) E(7,9) R(9) B(9) E(7,13) E(13,7) B(13) R(13) E(7,1) B(1) E(1,7) R(1) E(7,3) E(3,7) B(3) R(3) R(10) B(10) E(10,7) E(7,10) R(5) E(7,5) B(5) E(5,7) E(7,14) R(14) B(14) E(14,7) B(15) E(7,15) E(15,7) R(15) B(11) R(11) E(7,11) E(11,7) E(12,7) R(12) B(12) E(7,12) E(2,7) B(2) R(2) E(7,2) E(7,4) E(4,7) B(4) R(4) R(6) B(6) E(6,7) E(7,6) R(0) E(0,7) E(7,0) B(0) E(8,8) E(8,9) E(9,8) E(8,13) E(13,8) E(1,8) E(8,1) E(3,8) E(8,3) E(10,8) E(8,10) E(8,5) E(5,8) E(14,8) E(8,14) E(15,8) E(8,15) E(8,11) E(11,8) E(8,12) E(12,8) E(2,8) E(8,2) E(8,4) E(4,8) E(6,8) E(8,6) E(8,0) E(0,8) E(9,9) E(9,13) E(13,9) E(1,9) E(9,1) E(9,3) E(3,9) E(9,10) E(10,9) E(5,9) E(9,5) E(14,9) E(9,14) E(9,15) E(15,9) E(11,9) E(9,11) E(12,9) E(9,12) E(9,2) E(2,9) E(9,4) E(4,9) E(6,9) E(9,6) E(0,9) E(9,0) E(13,13) E(1,13) E(13,1) E(13,3) E(3,13) E(10,13) E(13,10) E(5,13) E(13,5) E(14,13) E(13,14) E(13,15) E(15,13) E(13,11) E(11,13) E(12,13) E(13,12) E(2,13) E(13,2) E(4,13) E(13,4) E(13,6) E(6,13) E(0,13) E(13,0) E(1,1) E(1,3) E(3,1) E(10,1) E(1,10) E(5,1) E(1,5) E(14,1) E(1,14) E(15,1) E(1,15) E(11,1) E(1,11) E(12,1) E(1,12) E(2,1) E(1,2) E(4,1) E(1,4) E(6,1) E(1,6) E(1,0) E(0,1) E(3,3) E(10,3) E(3,10) E(3,5) E(5,3) E(3,14) E(14,3) E(15,3) E(3,15) E(11,3) E(3,11) E(3,12) E(12,3) E(2,3) E(3,2) E(3,4) E(4,3) E(6,3) E(3,6) E(3,0) E(0,3) E(10,10) E(10,5) E(5,10) E(14,10) E(10,14) E(15,10) E(10,15) E(10,11) E(11,10) E(10,12) E(12,10) E(2,10) E(10,2) E(10,4) E(4,10) E(10,6) E(6,10) E(0,10) E(10,0) E(5,5) E(5,14) E(14,5) E(15,5) E(5,15) E(11,5) E(5,11) E(12,5) E(5,12) E(2,5) E(5,2) E(5,4) E(4,5) E(5,6) E(6,5) E(5,0) E(0,5) E(14,14) E(14,15) E(15,14) E(11,14) E(14,11) E(14,12) E(12,14) E(2,14) E(14,2) E(4,14) E(14,4) E(6,14) E(14,6) E(14,0) E(0,14) E(15,15) E(11,15) E(15,11) E(15,12) E(12,15) E(2,15) E(15,2) E(4,15) E(15,4) E(6,15) E(15,6) E(0,15) E(15,0) E(11,11) E(12,11) E(11,12) E(2,11) E(11,2) E(11,4) E(4,11) E(11,6) E(6,11) E(0,11) E(11,0) E(12,12) E(2,12) E(12,2) E(4,12) E(12,4) E(12,6) E(6,12) E(12,0) E(0,12) E(2,2) E(2,4) E(4,2) E(2,6) E(6,2) E(0,2) E(2,0) E(4,4) E(6,4) E(4,6) E(0,4) E(4,0) E(6,6) E(0,6) E(6,0) E(0,0)
c 1 2 3 4 5 6 7 8 9 10 11 12 13 14 15 16 17 18 19 20 21 22 23 24 25 26 27 28 29 30 31 32 33 34 35 36 37 38 39 40 41 42 43 44 45 46 47 48 49 50 51 52 53 54 55 56 57 58 59 60 61 62 63 64 65 66 67 68 69 70 71 72 73 74 75 76 77 78 79 80 81 82 83 84 85 86 87 88 89 90 91 92 93 94 95 96 97 98 99 100 101 102 103 104 105 106 107 108 109 110 111 112 113 114 115 116 117 118 119 120 121 122 123 124 125 126 127 128 129 130 131 132 133 134 135 136 137 138 139 140 141 142 143 144 145 146 147 148 149 150 151 152 153 154 155 156 157 158 159 160 161 162 163 164 165 166 167 168 169 170 171 172 173 174 175 176 177 178 179 180 181 182 183 184 185 186 187 188 189 190 191 192 193 194 195 196 197 198 199 200 201 202 203 204 205 206 207 208 209 210 211 212 213 214 215 216 217 218 219 220 221 222 223 224 225 226 227 228 229 230 231 232 233 234 235 236 237 238 239 240 241 242 243 244 245 246 247 248 249 250 251 252 253 254 255 256 257 258 259 260 261 262 263 264 265 266 267 268 269 270 271 272 273 274 275 276 277 278 279 280 281 282 283 284 285 286 287 288
p cnf 288 1296
63 60 0
17 19 0
25 24 0
40 41 0
46 45 0
14 15 0
34 33 0
36 39 0
49 50 0
22 23 0
54 55 0
30 28 0
57 56 0
2 3 0
6 5 0
11 10 0
63 -288 0
17 -145 0
25 -189 0
40 -253 0
46 -264 0
14 -120 0
34 -225 0
36 -240 0
49 -273 0
22 -168 0
54 -280 0
30 -208 0
57 -285 0
2 -1 0
6 -64 0
11 -93 0
288 -288 0
167 -166 0
206 -207 0
262 -263 0
272 -271 0
143 -144 0
239 -238 0
251 -252 0
278 -279 0
188 -187 0
283 -284 0
224 -223 0
286 -287 0
61 -62 0
92 -91 0
118 -119 0
166 -167 0
145 -145 0
149 -148 0
157 -156 0
159 -158 0
121 -122 0
153 -152 0
155 -154 0
161 -160 0
146 -147 0
163 -162 0
151 -150 0
165 -164 0
18 -16 0
69 -70 0
96 -97 0
207 -206 0
148 -149 0
189 -189 0
196 -197 0
198 -199 0
125 -126 0
193 -192 0
195 -194 0
201 -200 0
169 -170 0
202 -203 0
190 -191 0
204 -205 0
26 -27 0
73 -74 0
101 -100 0
263 -262 0
156 -157 0
197 -196 0
253 -253 0
255 -254 0
134 -133 0
228 -229 0
241 -242 0
257 -256 0
177 -178 0
258 -259 0
213 -214 0
260 -261 0
43 -42 0
82 -81 0
108 -109 0
271 -272 0
158 -159 0
199 -198 0
254 -255 0
264 -264 0
135 -136 0
231 -230 0
244 -243 0
266 -265 0
180 -179 0
268 -267 0
215 -216 0
269 -270 0
44 -47 0
84 -83 0
110 -111 0
144 -143 0
122 -121 0
126 -125 0
133 -134 0
136 -135 0
120 -120 0
130 -129 0
131 -132 0
138 -137 0
123 -124 0
140 -139 0
128 -127 0
141 -142 0
13 -12 0
68 -67 0
95 -94 0
238 -239 0
152 -153 0
192 -193 0
229 -228 0
230 -231 0
129 -130 0
225 -225 0
226 -227 0
233 -232 0
174 -173 0
235 -234 0
210 -209 0
237 -236 0
35 -32 0
77 -78 0
104 -105 0
252 -251 0
154 -155 0
194 -195 0
242 -241 0
243 -244 0
132 -131 0
227 -226 0
240 -240 0
246 -245 0
175 -176 0
248 -247 0
211 -212 0
250 -249 0
38 -37 0
79 -80 0
107 -106 0
279 -278 0
160 -161 0
200 -201 0
256 -257 0
265 -266 0
137 -138 0
232 -233 0
245 -246 0
273 -273 0
181 -182 0
274 -275 0
217 -218 0
276 -277 0
48 -51 0
85 -86 0
113 -112 0
187 -188 0
147 -146 0
170 -169 0
178 -177 0
179 -180 0
124 -123 0
173 -174 0
176 -175 0
182 -181 0
168 -168 0
183 -184 0
171 -172 0
186 -185 0
21 -20 0
71 -72 0
99 -98 0
284 -283 0
162 -163 0
203 -202 0
259 -258 0
267 -268 0
139 -140 0
234 -235 0
247 -248 0
275 -274 0
184 -183 0
280 -280 0
220 -219 0
282 -281 0
53 -52 0
88 -87 0
115 -114 0
223 -224 0
150 -151 0
191 -190 0
214 -213 0
216 -215 0
127 -128 0
209 -210 0
212 -211 0
218 -217 0
172 -171 0
219 -220 0
208 -208 0
221 -222 0
31 -29 0
76 -75 0
102 -103 0
287 -286 0
164 -165 0
205 -204 0
261 -260 0
270 -269 0
142 -141 0
236 -237 0
249 -250 0
277 -276 0
185 -186 0
281 -282 0
222 -221 0
285 -285 0
58 -59 0
89 -90 0
116 -117 0
62 -61 0
16 -18 0
27 -26 0
42 -43 0
47 -44 0
12 -13 0
32 -35 0
37 -38 0
51 -48 0
20 -21 0
52 -53 0
29 -31 0
59 -58 0
1 -1 0
4 -7 0
9 -8 0
91 -92 0
70 -69 0
74 -73 0
81 -82 0
83 -84 0
67 -68 0
78 -77 0
80 -79 0
86 -85 0
72 -71 0
87 -88 0
75 -76 0
90 -89 0
7 -4 0
64 -64 0
65 -66 0
119 -118 0
97 -96 0
100 -101 0
109 -108 0
111 -110 0
94 -95 0
105 -104 0
106 -107 0
112 -113 0
98 -99 0
114 -115 0
103 -102 0
117 -116 0
8 -9 0
66 -65 0
93 -93 0
60 -288 0
19 -145 0
24 -189 0
41 -253 0
45 -264 0
15 -120 0
33 -225 0
39 -240 0
50 -273 0
23 -168 0
55 -280 0
28 -208 0
56 -285 0
3 -1 0
5 -64 0
10 -93 0
-63 -60 0
-17 -19 0
-25 -24 0
-40 -41 0
-46 -45 0
-14 -15 0
-34 -33 0
-36 -39 0
-49 -50 0
-22 -23 0
-54 -55 0
-30 -28 0
-57 -56 0
-2 -3 0
-6 -5 0
-11 -10 0
63 17 -167 0
63 17 -166 0
63 25 -206 0
63 25 -207 0
63 40 -262 0
63 40 -263 0
63 46 -272 0
63 46 -271 0
63 14 -143 0
63 14 -144 0
63 34 -239 0
63 34 -238 0
63 36 -251 0
63 36 -252 0
63 49 -278 0
63 49 -279 0
63 22 -188 0
63 22 -187 0
63 54 -283 0
63 54 -284 0
63 30 -224 0
63 30 -223 0
63 57 -286 0
63 57 -287 0
63 2 -61 0
63 2 -62 0
63 6 -92 0
63 6 -91 0
63 11 -118 0
63 11 -119 0
63 60 -167 0
63 60 -206 0
63 60 -262 0
63 60 -272 0
63 60 -143 0
63 60 -239 0
63 60 -251 0
63 60 -278 0
63 60 -188 0
63 60 -283 0
63 60 -224 0
63 60 -286 0
63 60 -61 0
63 60 -92 0
63 60 -118 0
63 60 -166 0
63 60 -207 0
63 60 -263 0
63 60 -271 0
63 60 -144 0
63 60 -238 0
63 60 -252 0
63 60 -279 0
63 60 -187 0
63 60 -284 0
63 60 -223 0
63 60 -287 0
63 60 -62 0
63 60 -91 0
63 60 -119 0
17 25 -149 0
17 25 -148 0
17 40 -157 0
17 40 -156 0
17 46 -159 0
17 46 -158 0
17 14 -121 0
17 14 -122 0
17 34 -153 0
17 34 -152 0
17 36 -155 0
17 36 -154 0
17 49 -161 0
17 49 -160 0
17 22 -146 0
17 22 -147 0
17 54 -163 0
17 54 -162 0
17 30 -151 0
17 30 -150 0
17 57 -165 0
17 57 -164 0
17 2 -18 0
17 2 -16 0
17 6 -69 0
17 6 -70 0
17 11 -96 0
17 11 -97 0
17 19 -167 0
17 19 -166 0
17 19 -149 0
17 19 -157 0
17 19 -159 0
17 19 -121 0
17 19 -153 0
17 19 -155 0
17 19 -161 0
17 19 -146 0
17 19 -163 0
17 19 -151 0
17 19 -165 0
17 19 -18 0
17 19 -69 0
17 19 -96 0
17 19 -148 0
17 19 -156 0
17 19 -158 0
17 19 -122 0
17 19 -152 0
17 19 -154 0
17 19 -160 0
17 19 -147 0
17 19 -162 0
17 19 -150 0
17 19 -164 0
17 19 -16 0
17 19 -70 0
17 19 -97 0
25 40 -196 0
25 40 -197 0
25 46 -198 0
25 46 -199 0
25 14 -125 0
25 14 -126 0
25 34 -193 0
25 34 -192 0
25 36 -195 0
25 36 -194 0
25 49 -201 0
25 49 -200 0
25 22 -169 0
25 22 -170 0
25 54 -202 0
25 54 -203 0
25 30 -190 0
25 30 -191 0
25 57 -204 0
25 57 -205 0
25 2 -26 0
25 2 -27 0
25 6 -73 0
25 6 -74 0
25 11 -101 0
25 11 -100 0
25 24 -206 0
25 24 -149 0
25 24 -207 0
25 24 -148 0
25 24 -196 0
25 24 -198 0
25 24 -125 0
25 24 -193 0
25 24 -195 0
25 24 -201 0
25 24 -169 0
25 24 -202 0
25 24 -190 0
25 24 -204 0
25 24 -26 0
25 24 -73 0
25 24 -101 0
25 24 -197 0
25 24 -199 0
25 24 -126 0
25 24 -192 0
25 24 -194 0
25 24 -200 0
25 24 -170 0
25 24 -203 0
25 24 -191 0
25 24 -205 0
25 24 -27 0
25 24 -74 0
25 24 -100 0
40 46 -255 0
40 46 -254 0
40 14 -134 0
40 14 -133 0
40 34 -228 0
40 34 -229 0
40 36 -241 0
40 36 -242 0
40 49 -257 0
40 49 -256 0
40 22 -177 0
40 22 -178 0
40 54 -258 0
40 54 -259 0
40 30 -213 0
40 30 -214 0
40 57 -260 0
40 57 -261 0
40 2 -43 0
40 2 -42 0
40 6 -82 0
40 6 -81 0
40 11 -108 0
40 11 -109 0
40 41 -262 0
40 41 -157 0
40 41 -196 0
40 41 -263 0
40 41 -156 0
40 41 -197 0
40 41 -255 0
40 41 -134 0
40 41 -228 0
40 41 -241 0
40 41 -257 0
40 41 -177 0
40 41 -258 0
40 41 -213 0
40 41 -260 0
40 41 -43 0
40 41 -82 0
40 41 -108 0
40 41 -254 0
40 41 -133 0
40 41 -229 0
40 41 -242 0
40 41 -256 0
40 41 -178 0
40 41 -259 0
40 41 -214 0
40 41 -261 0
40 41 -42 0
40 41 -81 0
40 41 -109 0
46 14 -135 0
46 14 -136 0
46 34 -231 0
46 34 -230 0
46 36 -244 0
46 36 -243 0
46 49 -266 0
46 49 -265 0
46 22 -180 0
46 22 -179 0
46 54 -268 0
46 54 -267 0
46 30 -215 0
46 30 -216 0
46 57 -269 0
46 57 -270 0
46 2 -44 0
46 2 -47 0
46 6 -84 0
46 6 -83 0
46 11 -110 0
46 11 -111 0
46 45 -272 0
46 45 -159 0
46 45 -198 0
46 45 -255 0
46 45 -271 0
46 45 -158 0
46 45 -199 0
46 45 -254 0
46 45 -135 0
46 45 -231 0
46 45 -244 0
46 45 -266 0
46 45 -180 0
46 45 -268 0
46 45 -215 0
46 45 -269 0
46 45 -44 0
46 45 -84 0
46 45 -110 0
46 45 -136 0
46 45 -230 0
46 45 -243 0
46 45 -265 0
46 45 -179 0
46 45 -267 0
46 45 -216 0
46 45 -270 0
46 45 -47 0
46 45 -83 0
46 45 -111 0
14 34 -130 0
14 34 -129 0
14 36 -131 0
14 36 -132 0
14 49 -138 0
14 49 -137 0
14 22 -123 0
14 22 -124 0
14 54 -140 0
14 54 -139 0
14 30 -128 0
14 30 -127 0
14 57 -141 0
14 57 -142 0
14 2 -13 0
14 2 -12 0
14 6 -68 0
14 6 -67 0
14 11 -95 0
14 11 -94 0
14 15 -143 0
14 15 -121 0
14 15 -125 0
14 15 -134 0
14 15 -135 0
14 15 -144 0
14 15 -122 0
14 15 -126 0
14 15 -133 0
14 15 -136 0
14 15 -130 0
14 15 -131 0
14 15 -138 0
14 15 -123 0
14 15 -140 0
14 15 -128 0
14 15 -141 0
14 15 -13 0
14 15 -68 0
14 15 -95 0
14 15 -129 0
14 15 -132 0
14 15 -137 0
14 15 -124 0
14 15 -139 0
14 15 -127 0
14 15 -142 0
14 15 -12 0
14 15 -67 0
14 15 -94 0
34 36 -226 0
34 36 -227 0
34 49 -233 0
34 49 -232 0
34 22 -174 0
34 22 -173 0
34 54 -235 0
34 54 -234 0
34 30 -210 0
34 30 -209 0
34 57 -237 0
34 57 -236 0
34 2 -35 0
34 2 -32 0
34 6 -77 0
34 6 -78 0
34 11 -104 0
34 11 -105 0
34 33 -239 0
34 33 -153 0
34 33 -193 0
34 33 -228 0
34 33 -231 0
34 33 -130 0
34 33 -238 0
34 33 -152 0
34 33 -192 0
34 33 -229 0
34 33 -230 0
34 33 -129 0
34 33 -226 0
34 33 -233 0
34 33 -174 0
34 33 -235 0
34 33 -210 0
34 33 -237 0
34 33 -35 0
34 33 -77 0
34 33 -104 0
34 33 -227 0
34 33 -232 0
34 33 -173 0
34 33 -234 0
34 33 -209 0
34 33 -236 0
34 33 -32 0
34 33 -78 0
34 33 -105 0
36 49 -246 0
36 49 -245 0
36 22 -175 0
36 22 -176 0
36 54 -248 0
36 54 -247 0
36 30 -211 0
36 30 -212 0
36 57 -250 0
36 57 -249 0
36 2 -38 0
36 2 -37 0
36 6 -79 0
36 6 -80 0
36 11 -107 0
36 11 -106 0
36 39 -251 0
36 39 -155 0
36 39 -195 0
36 39 -241 0
36 39 -244 0
36 39 -131 0
36 39 -226 0
36 39 -252 0
36 39 -154 0
36 39 -194 0
36 39 -242 0
36 39 -243 0
36 39 -132 0
36 39 -227 0
36 39 -246 0
36 39 -175 0
36 39 -248 0
36 39 -211 0
36 39 -250 0
36 39 -38 0
36 39 -79 0
36 39 -107 0
36 39 -245 0
36 39 -176 0
36 39 -247 0
36 39 -212 0
36 39 -249 0
36 39 -37 0
36 39 -80 0
36 39 -106 0
49 22 -181 0
49 22 -182 0
49 54 -274 0
49 54 -275 0
49 30 -217 0
49 30 -218 0
49 57 -276 0
49 57 -277 0
49 2 -48 0
49 2 -51 0
49 6 -85 0
49 6 -86 0
49 11 -113 0
49 11 -112 0
49 50 -278 0
49 50 -161 0
49 50 -201 0
49 50 -257 0
49 50 -266 0
49 50 -138 0
49 50 -233 0
49 50 -246 0
49 50 -279 0
49 50 -160 0
49 50 -200 0
49 50 -256 0
49 50 -265 0
49 50 -137 0
49 50 -232 0
49 50 -245 0
49 50 -181 0
49 50 -274 0
49 50 -217 0
49 50 -276 0
49 50 -48 0
49 50 -85 0
49 50 -113 0
49 50 -182 0
49 50 -275 0
49 50 -218 0
49 50 -277 0
49 50 -51 0
49 50 -86 0
49 50 -112 0
22 54 -183 0
22 54 -184 0
22 30 -171 0
22 30 -172 0
22 57 -186 0
22 57 -185 0
22 2 -21 0
22 2 -20 0
22 6 -71 0
22 6 -72 0
22 11 -99 0
22 11 -98 0
22 23 -188 0
22 23 -146 0
22 23 -169 0
22 23 -177 0
22 23 -180 0
22 23 -123 0
22 23 -174 0
22 23 -175 0
22 23 -181 0
22 23 -187 0
22 23 -147 0
22 23 -170 0
22 23 -178 0
22 23 -179 0
22 23 -124 0
22 23 -173 0
22 23 -176 0
22 23 -182 0
22 23 -183 0
22 23 -171 0
22 23 -186 0
22 23 -21 0
22 23 -71 0
22 23 -99 0
22 23 -184 0
22 23 -172 0
22 23 -185 0
22 23 -20 0
22 23 -72 0
22 23 -98 0
54 30 -220 0
54 30 -219 0
54 57 -282 0
54 57 -281 0
54 2 -53 0
54 2 -52 0
54 6 -88 0
54 6 -87 0
54 11 -115 0
54 11 -114 0
54 55 -283 0
54 55 -163 0
54 55 -202 0
54 55 -258 0
54 55 -268 0
54 55 -140 0
54 55 -235 0
54 55 -248 0
54 55 -274 0
54 55 -183 0
54 55 -284 0
54 55 -162 0
54 55 -203 0
54 55 -259 0
54 55 -267 0
54 55 -139 0
54 55 -234 0
54 55 -247 0
54 55 -275 0
54 55 -184 0
54 55 -220 0
54 55 -282 0
54 55 -53 0
54 55 -88 0
54 55 -115 0
54 55 -219 0
54 55 -281 0
54 55 -52 0
54 55 -87 0
54 55 -114 0
30 57 -221 0
30 57 -222 0
30 2 -31 0
30 2 -29 0
30 6 -76 0
30 6 -75 0
30 11 -102 0
30 11 -103 0
30 28 -224 0
30 28 -151 0
30 28 -190 0
30 28 -213 0
30 28 -215 0
30 28 -128 0
30 28 -210 0
30 28 -211 0
30 28 -217 0
30 28 -171 0
30 28 -220 0
30 28 -223 0
30 28 -150 0
30 28 -191 0
30 28 -214 0
30 28 -216 0
30 28 -127 0
30 28 -209 0
30 28 -212 0
30 28 -218 0
30 28 -172 0
30 28 -219 0
30 28 -221 0
30 28 -31 0
30 28 -76 0
30 28 -102 0
30 28 -222 0
30 28 -29 0
30 28 -75 0
30 28 -103 0
57 2 -58 0
57 2 -59 0
57 6 -89 0
57 6 -90 0
57 11 -116 0
57 11 -117 0
57 56 -286 0
57 56 -165 0
57 56 -204 0
57 56 -260 0
57 56 -269 0
57 56 -141 0
57 56 -237 0
57 56 -250 0
57 56 -276 0
57 56 -186 0
57 56 -282 0
57 56 -221 0
57 56 -287 0
57 56 -164 0
57 56 -205 0
57 56 -261 0
57 56 -270 0
57 56 -142 0
57 56 -236 0
57 56 -249 0
57 56 -277 0
57 56 -185 0
57 56 -281 0
57 56 -222 0
57 56 -58 0
57 56 -89 0
57 56 -116 0
57 56 -59 0
57 56 -90 0
57 56 -117 0
2 6 -4 0
2 6 -7 0
2 11 -9 0
2 11 -8 0
2 3 -61 0
2 3 -18 0
2 3 -26 0
2 3 -43 0
2 3 -44 0
2 3 -13 0
2 3 -35 0
2 3 -38 0
2 3 -48 0
2 3 -21 0
2 3 -53 0
2 3 -31 0
2 3 -58 0
2 3 -62 0
2 3 -16 0
2 3 -27 0
2 3 -42 0
2 3 -47 0
2 3 -12 0
2 3 -32 0
2 3 -37 0
2 3 -51 0
2 3 -20 0
2 3 -52 0
2 3 -29 0
2 3 -59 0
2 3 -4 0
2 3 -9 0
2 3 -7 0
2 3 -8 0
6 11 -65 0
6 11 -66 0
6 5 -92 0
6 5 -69 0
6 5 -73 0
6 5 -82 0
6 5 -84 0
6 5 -68 0
6 5 -77 0
6 5 -79 0
6 5 -85 0
6 5 -71 0
6 5 -88 0
6 5 -76 0
6 5 -89 0
6 5 -4 0
6 5 -91 0
6 5 -70 0
6 5 -74 0
6 5 -81 0
6 5 -83 0
6 5 -67 0
6 5 -78 0
6 5 -80 0
6 5 -86 0
6 5 -72 0
6 5 -87 0
6 5 -75 0
6 5 -90 0
6 5 -7 0
6 5 -65 0
6 5 -66 0
11 10 -118 0
11 10 -96 0
11 10 -101 0
11 10 -108 0
11 10 -110 0
11 10 -95 0
11 10 -104 0
11 10 -107 0
11 10 -113 0
11 10 -99 0
11 10 -115 0
11 10 -102 0
11 10 -116 0
11 10 -9 0
11 10 -65 0
11 10 -119 0
11 10 -97 0
11 10 -100 0
11 10 -109 0
11 10 -111 0
11 10 -94 0
11 10 -105 0
11 10 -106 0
11 10 -112 0
11 10 -98 0
11 10 -114 0
11 10 -103 0
11 10 -117 0
11 10 -8 0
11 10 -66 0
60 19 -167 0
60 19 -166 0
60 24 -206 0
60 24 -207 0
60 41 -262 0
60 41 -263 0
60 45 -272 0
60 45 -271 0
60 15 -143 0
60 15 -144 0
60 33 -239 0
60 33 -238 0
60 39 -251 0
60 39 -252 0
60 50 -278 0
60 50 -279 0
60 23 -188 0
60 23 -187 0
60 55 -283 0
60 55 -284 0
60 28 -224 0
60 28 -223 0
60 56 -286 0
60 56 -287 0
60 3 -61 0
60 3 -62 0
60 5 -92 0
60 5 -91 0
60 10 -118 0
60 10 -119 0
19 24 -149 0
19 24 -148 0
19 41 -157 0
19 41 -156 0
19 45 -159 0
19 45 -158 0
19 15 -121 0
19 15 -122 0
19 33 -153 0
19 33 -152 0
19 39 -155 0
19 39 -154 0
19 50 -161 0
19 50 -160 0
19 23 -146 0
19 23 -147 0
19 55 -163 0
19 55 -162 0
19 28 -151 0
19 28 -150 0
19 56 -165 0
19 56 -164 0
19 3 -18 0
19 3 -16 0
19 5 -69 0
19 5 -70 0
19 10 -96 0
19 10 -97 0
24 41 -196 0
24 41 -197 0
24 45 -198 0
24 45 -199 0
24 15 -125 0
24 15 -126 0
24 33 -193 0
24 33 -192 0
24 39 -195 0
24 39 -194 0
24 50 -201 0
24 50 -200 0
24 23 -169 0
24 23 -170 0
24 55 -202 0
24 55 -203 0
24 28 -190 0
24 28 -191 0
24 56 -204 0
24 56 -205 0
24 3 -26 0
24 3 -27 0
24 5 -73 0
24 5 -74 0
24 10 -101 0
24 10 -100 0
41 45 -255 0
41 45 -254 0
41 15 -134 0
41 15 -133 0
41 33 -228 0
41 33 -229 0
41 39 -241 0
41 39 -242 0
41 50 -257 0
41 50 -256 0
41 23 -177 0
41 23 -178 0
41 55 -258 0
41 55 -259 0
41 28 -213 0
41 28 -214 0
41 56 -260 0
41 56 -261 0
41 3 -43 0
41 3 -42 0
41 5 -82 0
41 5 -81 0
41 10 -108 0
41 10 -109 0
45 15 -135 0
45 15 -136 0
45 33 -231 0
45 33 -230 0
45 39 -244 0
45 39 -243 0
45 50 -266 0
45 50 -265 0
45 23 -180 0
45 23 -179 0
45 55 -268 0
45 55 -267 0
45 28 -215 0
45 28 -216 0
45 56 -269 0
45 56 -270 0
45 3 -44 0
45 3 -47 0
45 5 -84 0
45 5 -83 0
45 10 -110 0
45 10 -111 0
15 33 -130 0
15 33 -129 0
15 39 -131 0
15 39 -132 0
15 50 -138 0
15 50 -137 0
15 23 -123 0
15 23 -124 0
15 55 -140 0
15 55 -139 0
15 28 -128 0
15 28 -127 0
15 56 -141 0
15 56 -142 0
15 3 -13 0
15 3 -12 0
15 5 -68 0
15 5 -67 0
15 10 -95 0
15 10 -94 0
33 39 -226 0
33 39 -227 0
33 50 -233 0
33 50 -232 0
33 23 -174 0
33 23 -173 0
33 55 -235 0
33 55 -234 0
33 28 -210 0
33 28 -209 0
33 56 -237 0
33 56 -236 0
33 3 -35 0
33 3 -32 0
33 5 -77 0
33 5 -78 0
33 10 -104 0
33 10 -105 0
39 50 -246 0
39 50 -245 0
39 23 -175 0
39 23 -176 0
39 55 -248 0
39 55 -247 0
39 28 -211 0
39 28 -212 0
39 56 -250 0
39 56 -249 0
39 3 -38 0
39 3 -37 0
39 5 -79 0
39 5 -80 0
39 10 -107 0
39 10 -106 0
50 23 -181 0
50 23 -182 0
50 55 -274 0
50 55 -275 0
50 28 -217 0
50 28 -218 0
50 56 -276 0
50 56 -277 0
50 3 -48 0
50 3 -51 0
50 5 -85 0
50 5 -86 0
50 10 -113 0
50 10 -112 0
23 55 -183 0
23 55 -184 0
23 28 -171 0
23 28 -172 0
23 56 -186 0
23 56 -185 0
23 3 -21 0
23 3 -20 0
23 5 -71 0
23 5 -72 0
23 10 -99 0
23 10 -98 0
55 28 -220 0
55 28 -219 0
55 56 -282 0
55 56 -281 0
55 3 -53 0
55 3 -52 0
55 5 -88 0
55 5 -87 0
55 10 -115 0
55 10 -114 0
28 56 -221 0
28 56 -222 0
28 3 -31 0
28 3 -29 0
28 5 -76 0
28 5 -75 0
28 10 -102 0
28 10 -103 0
56 3 -58 0
56 3 -59 0
56 5 -89 0
56 5 -90 0
56 10 -116 0
56 10 -117 0
3 5 -4 0
3 5 -7 0
3 10 -9 0
3 10 -8 0
5 10 -65 0
5 10 -66 0
288 167 206 262 272 143 239 251 278 188 283 224 286 61 92 118 0
166 145 149 157 159 121 153 155 161 146 163 151 165 18 69 96 0
207 148 189 196 198 125 193 195 201 169 202 190 204 26 73 101 0
263 156 197 253 255 134 228 241 257 177 258 213 260 43 82 108 0
271 158 199 254 264 135 231 244 266 180 268 215 269 44 84 110 0
144 122 126 133 136 120 130 131 138 123 140 128 141 13 68 95 0
238 152 192 229 230 129 225 226 233 174 235 210 237 35 77 104 0
252 154 194 242 243 132 227 240 246 175 248 211 250 38 79 107 0
279 160 200 256 265 137 232 245 273 181 274 217 276 48 85 113 0
187 147 170 178 179 124 173 176 182 168 183 171 186 21 71 99 0
284 162 203 259 267 139 234 247 275 184 280 220 282 53 88 115 0
223 150 191 214 216 127 209 212 218 172 219 208 221 31 76 102 0
287 164 205 261 270 142 236 249 277 185 281 222 285 58 89 116 0
62 16 27 42 47 12 32 37 51 20 52 29 59 1 4 9 0
91 70 74 81 83 67 78 80 86 72 87 75 90 7 64 65 0
119 97 100 109 111 94 105 106 112 98 114 103 117 8 66 93 0
