c B(15) R(15) E(15,15) R(8) E(8,15) E(15,8) B(8) E(15,12) R(12) B(12) E(12,15) R(4) B(4) E(4,15) E(15,4) E(10,15) E(15,10) R(10) B(10) E(15,0) R(0) B(0) E(0,15) R(13) E(15,13) B(13) E(13,15) E(15,1) R(1) B(1) E(1,15) B(5) E(15,5) E(5,15) R(5) B(6) E(6,15) R(6) E(15,6) E(15,9) R(9) B(9) E(9,15) B(14) E(14,15) E(15,14) R(14) B(11) E(15,11) E(11,15) R(11) E(7,15) E(15,7) R(7) B(7) E(2,15) E(15,2) R(2) B(2) E(15,3) R(3) B(3) E(3,15) R(16) E(16,15) B(16) E(15,16) E(8,8) E(8,12) E(12,8) E(8,4) E(4,8) E(10,8) E(8,10) E(0,8) E(8,0) E(8,13) E(13,8) E(8,1) E(1,8) E(8,5) E(5,8) E(8,6) E(6,8) E(8,9) E(9,8) E(14,8) E(8,14) E(11,8) E(8,11) E(8,7) E(7,8) E(8,2) E(2,8) E(8,3) E(3,8) E(8,16) E(16,8) E(12,12) E(12,4) E(4,12) E(12,10) E(10,12) E(0,12) E(12,0) E(12,13) E(13,12) E(12,1) E(1,12) E(5,12) E(12,5) E(6,12) E(12,6) E(12,9) E(9,12) E(14,12) E(12,14) E(11,12) E(12,11) E(7,12) E(12,7) E(12,2) E(2,12) E(3,12) E(12,3) E(12,16) E(16,12) E(4,4) E(10,4) E(4,10) E(4,0) E(0,4) E(4,13) E(13,4) E(4,1) E(1,4) E(4,5) E(5,4) E(6,4) E(4,6) E(4,9) E(9,4) E(14,4) E(4,14) E(11,4) E(4,11) E(4,7) E(7,4) E(4,2) E(2,4) E(4,3) E(3,4) E(16,4) E(4,16) E(10,10) E(0,10) E(10,0) E(10,13) E(13,10) E(1,10) E(10,1) E(10,5) E(5,10) E(10,6) E(6,10) E(10,9) E(9,10) E(10,14) E(14,10) E(10,11) E(11,10) E(10,7) E(7,10) E(10,2) E(2,10) E(10,3) E(3,10) E(16,10) E(10,16) E(0,0) E(13,0) E(0,13) E(0,1) E(1,0) E(5,0) E(0,5) E(6,0) E(0,6) E(0,9) E(9,0) E(14,0) E(0,14) E(11,0) E(0,11) E(0,7) E(7,0) E(2,0) E(0,2) E(3,0) E(0,3) E(16,0) E(0,16) E(13,13) E(1,13) E(13,1) E(13,5) E(5,13) E(13,6) E(6,13) E(13,9) E(9,13) E(13,14) E(14,13) E(13,11) E(11,13) E(13,7) E(7,13) E(13,2) E(2,13) E(13,3) E(3,13) E(16,13) E(13,16) E(1,1) E(1,5) E(5,1) E(6,1) E(1,6) E(1,9) E(9,1) E(14,1) E(1,14) E(11,1) E(1,11) E(7,1) E(1,7) E(2,1) E(1,2) E(3,1) E(1,3) E(1,16) E(16,1) E(5,5) E(6,5) E(5,6) E(9,5) E(5,9) E(14,5) E(5,14) E(11,5) E(5,11) E(5,7) E(7,5) E(5,2) E(2,5) E(3,5) E(5,3) E(5,16) E(16,5) E(6,6) E(9,6) E(6,9) E(6,14) E(14,6) E(6,11) E(11,6) E(7,6) E(6,7) E(2,6) E(6,2) E(6,3) E(3,6) E(16,6) E(6,16) E(9,9) E(14,9) E(9,14) E(11,9) E(9,11) E(7,9) E(9,7) E(9,2) E(2,9) E(9,3) E(3,9) E(16,9) E(9,16) E(14,14) E(11,14) E(14,11) E(14,7) E(7,14) E(14,2) E(2,14) E(3,14) E(14,3) E(16,14) E(14,16) E(11,11) E(7,11) E(11,7) E(2,11) E(11,2) E(11,3) E(3,11) E(16,11) E(11,16) E(7,7) E(2,7) E(7,2) E(3,7) E(7,3) E(16,7) E(7,16) E(2,2) E(2,3) E(3,2) E(2,16) E(16,2) E(3,3) E(16,3) E(3,16) E(16,16)
c 1 2 3 4 5 6 7 8 9 10 11 12 13 14 15 16 17 18 19 20 21 22 23 24 25 26 27 28 29 30 31 32 33 34 35 36 37 38 39 40 41 42 43 44 45 46 47 48 49 50 51 52 53 54 55 56 57 58 59 60 61 62 63 64 65 66 67 68 69 70 71 72 73 74 75 76 77 78 79 80 81 82 83 84 85 86 87 88 89 90 91 92 93 94 95 96 97 98 99 100 101 102 103 104 105 106 107 108 109 110 111 112 113 114 115 116 117 118 119 120 121 122 123 124 125 126 127 128 129 130 131 132 133 134 135 136 137 138 139 140 141 142 143 144 145 146 147 148 149 150 151 152 153 154 155 156 157 158 159 160 161 162 163 164 165 166 167 168 169 170 171 172 173 174 175 176 177 178 179 180 181 182 183 184 185 186 187 188 189 190 191 192 193 194 195 196 197 198 199 200 201 202 203 204 205 206 207 208 209 210 211 212 213 214 215 216 217 218 219 220 221 222 223 224 225 226 227 228 229 230 231 232 233 234 235 236 237 238 239 240 241 242 243 244 245 246 247 248 249 250 251 252 253 254 255 256 257 258 259 260 261 262 263 264 265 266 267 268 269 270 271 272 273 274 275 276 277 278 279 280 281 282 283 284 285 286 287 288 289 290 291 292 293 294 295 296 297 298 299 300 301 302 303 304 305 306 307 308 309 310 311 312 313 314 315 316 317 318 319 320 321 322 323
p cnf 323 1462
22 21 0
30 29 0
19 18 0
48 51 0
10 9 0
26 24 0
44 47 0
1 2 0
66 64 0
59 58 0
62 61 0
13 12 0
32 35 0
36 38 0
55 54 0
7 4 0
42 41 0
22 -180 0
30 -224 0
19 -155 0
48 -299 0
10 -99 0
26 -203 0
44 -288 0
1 -3 0
66 -323 0
59 -315 0
62 -320 0
13 -128 0
32 -243 0
36 -260 0
55 -308 0
7 -68 0
42 -275 0
180 -180 0
183 -184 0
156 -157 0
194 -193 0
104 -105 0
182 -181 0
192 -191 0
23 -20 0
202 -201 0
198 -197 0
200 -199 0
132 -131 0
186 -185 0
188 -187 0
195 -196 0
75 -76 0
189 -190 0
184 -183 0
224 -224 0
160 -161 0
234 -233 0
109 -108 0
204 -205 0
232 -231 0
31 -28 0
241 -242 0
238 -237 0
240 -239 0
136 -135 0
225 -226 0
228 -227 0
236 -235 0
80 -79 0
229 -230 0
157 -156 0
161 -160 0
155 -155 0
170 -171 0
103 -102 0
158 -159 0
168 -169 0
16 -17 0
179 -178 0
174 -175 0
176 -177 0
129 -130 0
162 -163 0
164 -165 0
172 -173 0
73 -74 0
166 -167 0
193 -194 0
233 -234 0
171 -170 0
299 -299 0
118 -119 0
215 -214 0
289 -290 0
50 -49 0
307 -306 0
303 -302 0
304 -305 0
145 -146 0
250 -251 0
266 -265 0
301 -300 0
89 -90 0
278 -279 0
105 -104 0
108 -109 0
102 -103 0
119 -118 0
99 -99 0
106 -107 0
117 -116 0
11 -8 0
126 -127 0
122 -123 0
125 -124 0
100 -101 0
111 -110 0
113 -112 0
121 -120 0
70 -69 0
114 -115 0
181 -182 0
205 -204 0
159 -158 0
214 -215 0
107 -106 0
203 -203 0
212 -213 0
27 -25 0
223 -222 0
218 -219 0
220 -221 0
134 -133 0
206 -207 0
208 -209 0
216 -217 0
78 -77 0
210 -211 0
191 -192 0
231 -232 0
169 -168 0
290 -289 0
116 -117 0
213 -212 0
288 -288 0
45 -46 0
298 -297 0
293 -294 0
296 -295 0
143 -144 0
248 -249 0
264 -263 0
291 -292 0
87 -88 0
276 -277 0
20 -23 0
28 -31 0
17 -16 0
49 -50 0
8 -11 0
25 -27 0
46 -45 0
3 -3 0
67 -65 0
57 -56 0
60 -63 0
15 -14 0
33 -34 0
39 -37 0
53 -52 0
6 -5 0
40 -43 0
201 -202 0
242 -241 0
178 -179 0
306 -307 0
127 -126 0
222 -223 0
297 -298 0
65 -67 0
323 -323 0
319 -318 0
321 -322 0
153 -154 0
259 -258 0
273 -274 0
313 -314 0
98 -97 0
286 -287 0
197 -198 0
237 -238 0
175 -174 0
302 -303 0
123 -122 0
219 -218 0
294 -293 0
56 -57 0
318 -319 0
315 -315 0
316 -317 0
150 -149 0
255 -254 0
269 -270 0
309 -310 0
94 -93 0
283 -282 0
199 -200 0
239 -240 0
177 -176 0
305 -304 0
124 -125 0
221 -220 0
295 -296 0
63 -60 0
322 -321 0
317 -316 0
320 -320 0
152 -151 0
256 -257 0
272 -271 0
311 -312 0
96 -95 0
285 -284 0
131 -132 0
135 -136 0
130 -129 0
146 -145 0
101 -100 0
133 -134 0
144 -143 0
14 -15 0
154 -153 0
149 -150 0
151 -152 0
128 -128 0
137 -138 0
140 -139 0
147 -148 0
72 -71 0
141 -142 0
185 -186 0
226 -225 0
163 -162 0
251 -250 0
110 -111 0
207 -206 0
249 -248 0
34 -33 0
258 -259 0
254 -255 0
257 -256 0
138 -137 0
243 -243 0
245 -244 0
252 -253 0
82 -81 0
247 -246 0
187 -188 0
227 -228 0
165 -164 0
265 -266 0
112 -113 0
209 -208 0
263 -264 0
37 -39 0
274 -273 0
270 -269 0
271 -272 0
139 -140 0
244 -245 0
260 -260 0
268 -267 0
84 -83 0
262 -261 0
196 -195 0
235 -236 0
173 -172 0
300 -301 0
120 -121 0
217 -216 0
292 -291 0
52 -53 0
314 -313 0
310 -309 0
312 -311 0
148 -147 0
253 -252 0
267 -268 0
308 -308 0
92 -91 0
280 -281 0
76 -75 0
79 -80 0
74 -73 0
90 -89 0
69 -70 0
77 -78 0
88 -87 0
5 -6 0
97 -98 0
93 -94 0
95 -96 0
71 -72 0
81 -82 0
83 -84 0
91 -92 0
68 -68 0
85 -86 0
190 -189 0
230 -229 0
167 -166 0
279 -278 0
115 -114 0
211 -210 0
277 -276 0
43 -40 0
287 -286 0
282 -283 0
284 -285 0
142 -141 0
246 -247 0
261 -262 0
281 -280 0
86 -85 0
275 -275 0
21 -180 0
29 -224 0
18 -155 0
51 -299 0
9 -99 0
24 -203 0
47 -288 0
2 -3 0
64 -323 0
58 -315 0
61 -320 0
12 -128 0
35 -243 0
38 -260 0
54 -308 0
4 -68 0
41 -275 0
-22 -21 0
-30 -29 0
-19 -18 0
-48 -51 0
-10 -9 0
-26 -24 0
-44 -47 0
-1 -2 0
-66 -64 0
-59 -58 0
-62 -61 0
-13 -12 0
-32 -35 0
-36 -38 0
-55 -54 0
-7 -4 0
-42 -41 0
22 30 -183 0
22 30 -184 0
22 19 -156 0
22 19 -157 0
22 48 -194 0
22 48 -193 0
22 10 -104 0
22 10 -105 0
22 26 -182 0
22 26 -181 0
22 44 -192 0
22 44 -191 0
22 1 -23 0
22 1 -20 0
22 66 -202 0
22 66 -201 0
22 59 -198 0
22 59 -197 0
22 62 -200 0
22 62 -199 0
22 13 -132 0
22 13 -131 0
22 32 -186 0
22 32 -185 0
22 36 -188 0
22 36 -187 0
22 55 -195 0
22 55 -196 0
22 7 -75 0
22 7 -76 0
22 42 -189 0
22 42 -190 0
22 21 -183 0
22 21 -156 0
22 21 -194 0
22 21 -104 0
22 21 -182 0
22 21 -192 0
22 21 -23 0
22 21 -202 0
22 21 -198 0
22 21 -200 0
22 21 -132 0
22 21 -186 0
22 21 -188 0
22 21 -195 0
22 21 -75 0
22 21 -189 0
22 21 -184 0
22 21 -157 0
22 21 -193 0
22 21 -105 0
22 21 -181 0
22 21 -191 0
22 21 -20 0
22 21 -201 0
22 21 -197 0
22 21 -199 0
22 21 -131 0
22 21 -185 0
22 21 -187 0
22 21 -196 0
22 21 -76 0
22 21 -190 0
30 19 -160 0
30 19 -161 0
30 48 -234 0
30 48 -233 0
30 10 -109 0
30 10 -108 0
30 26 -204 0
30 26 -205 0
30 44 -232 0
30 44 -231 0
30 1 -31 0
30 1 -28 0
30 66 -241 0
30 66 -242 0
30 59 -238 0
30 59 -237 0
30 62 -240 0
30 62 -239 0
30 13 -136 0
30 13 -135 0
30 32 -225 0
30 32 -226 0
30 36 -228 0
30 36 -227 0
30 55 -236 0
30 55 -235 0
30 7 -80 0
30 7 -79 0
30 42 -229 0
30 42 -230 0
30 29 -183 0
30 29 -184 0
30 29 -160 0
30 29 -234 0
30 29 -109 0
30 29 -204 0
30 29 -232 0
30 29 -31 0
30 29 -241 0
30 29 -238 0
30 29 -240 0
30 29 -136 0
30 29 -225 0
30 29 -228 0
30 29 -236 0
30 29 -80 0
30 29 -229 0
30 29 -161 0
30 29 -233 0
30 29 -108 0
30 29 -205 0
30 29 -231 0
30 29 -28 0
30 29 -242 0
30 29 -237 0
30 29 -239 0
30 29 -135 0
30 29 -226 0
30 29 -227 0
30 29 -235 0
30 29 -79 0
30 29 -230 0
19 48 -170 0
19 48 -171 0
19 10 -103 0
19 10 -102 0
19 26 -158 0
19 26 -159 0
19 44 -168 0
19 44 -169 0
19 1 -16 0
19 1 -17 0
19 66 -179 0
19 66 -178 0
19 59 -174 0
19 59 -175 0
19 62 -176 0
19 62 -177 0
19 13 -129 0
19 13 -130 0
19 32 -162 0
19 32 -163 0
19 36 -164 0
19 36 -165 0
19 55 -172 0
19 55 -173 0
19 7 -73 0
19 7 -74 0
19 42 -166 0
19 42 -167 0
19 18 -156 0
19 18 -160 0
19 18 -157 0
19 18 -161 0
19 18 -170 0
19 18 -103 0
19 18 -158 0
19 18 -168 0
19 18 -16 0
19 18 -179 0
19 18 -174 0
19 18 -176 0
19 18 -129 0
19 18 -162 0
19 18 -164 0
19 18 -172 0
19 18 -73 0
19 18 -166 0
19 18 -171 0
19 18 -102 0
19 18 -159 0
19 18 -169 0
19 18 -17 0
19 18 -178 0
19 18 -175 0
19 18 -177 0
19 18 -130 0
19 18 -163 0
19 18 -165 0
19 18 -173 0
19 18 -74 0
19 18 -167 0
48 10 -118 0
48 10 -119 0
48 26 -215 0
48 26 -214 0
48 44 -289 0
48 44 -290 0
48 1 -50 0
48 1 -49 0
48 66 -307 0
48 66 -306 0
48 59 -303 0
48 59 -302 0
48 62 -304 0
48 62 -305 0
48 13 -145 0
48 13 -146 0
48 32 -250 0
48 32 -251 0
48 36 -266 0
48 36 -265 0
48 55 -301 0
48 55 -300 0
48 7 -89 0
48 7 -90 0
48 42 -278 0
48 42 -279 0
48 51 -194 0
48 51 -234 0
48 51 -170 0
48 51 -193 0
48 51 -233 0
48 51 -171 0
48 51 -118 0
48 51 -215 0
48 51 -289 0
48 51 -50 0
48 51 -307 0
48 51 -303 0
48 51 -304 0
48 51 -145 0
48 51 -250 0
48 51 -266 0
48 51 -301 0
48 51 -89 0
48 51 -278 0
48 51 -119 0
48 51 -214 0
48 51 -290 0
48 51 -49 0
48 51 -306 0
48 51 -302 0
48 51 -305 0
48 51 -146 0
48 51 -251 0
48 51 -265 0
48 51 -300 0
48 51 -90 0
48 51 -279 0
10 26 -106 0
10 26 -107 0
10 44 -117 0
10 44 -116 0
10 1 -11 0
10 1 -8 0
10 66 -126 0
10 66 -127 0
10 59 -122 0
10 59 -123 0
10 62 -125 0
10 62 -124 0
10 13 -100 0
10 13 -101 0
10 32 -111 0
10 32 -110 0
10 36 -113 0
10 36 -112 0
10 55 -121 0
10 55 -120 0
10 7 -70 0
10 7 -69 0
10 42 -114 0
10 42 -115 0
10 9 -104 0
10 9 -109 0
10 9 -103 0
10 9 -118 0
10 9 -105 0
10 9 -108 0
10 9 -102 0
10 9 -119 0
10 9 -106 0
10 9 -117 0
10 9 -11 0
10 9 -126 0
10 9 -122 0
10 9 -125 0
10 9 -100 0
10 9 -111 0
10 9 -113 0
10 9 -121 0
10 9 -70 0
10 9 -114 0
10 9 -107 0
10 9 -116 0
10 9 -8 0
10 9 -127 0
10 9 -123 0
10 9 -124 0
10 9 -101 0
10 9 -110 0
10 9 -112 0
10 9 -120 0
10 9 -69 0
10 9 -115 0
26 44 -212 0
26 44 -213 0
26 1 -27 0
26 1 -25 0
26 66 -223 0
26 66 -222 0
26 59 -218 0
26 59 -219 0
26 62 -220 0
26 62 -221 0
26 13 -134 0
26 13 -133 0
26 32 -206 0
26 32 -207 0
26 36 -208 0
26 36 -209 0
26 55 -216 0
26 55 -217 0
26 7 -78 0
26 7 -77 0
26 42 -210 0
26 42 -211 0
26 24 -182 0
26 24 -204 0
26 24 -158 0
26 24 -215 0
26 24 -106 0
26 24 -181 0
26 24 -205 0
26 24 -159 0
26 24 -214 0
26 24 -107 0
26 24 -212 0
26 24 -27 0
26 24 -223 0
26 24 -218 0
26 24 -220 0
26 24 -134 0
26 24 -206 0
26 24 -208 0
26 24 -216 0
26 24 -78 0
26 24 -210 0
26 24 -213 0
26 24 -25 0
26 24 -222 0
26 24 -219 0
26 24 -221 0
26 24 -133 0
26 24 -207 0
26 24 -209 0
26 24 -217 0
26 24 -77 0
26 24 -211 0
44 1 -45 0
44 1 -46 0
44 66 -298 0
44 66 -297 0
44 59 -293 0
44 59 -294 0
44 62 -296 0
44 62 -295 0
44 13 -143 0
44 13 -144 0
44 32 -248 0
44 32 -249 0
44 36 -264 0
44 36 -263 0
44 55 -291 0
44 55 -292 0
44 7 -87 0
44 7 -88 0
44 42 -276 0
44 42 -277 0
44 47 -192 0
44 47 -232 0
44 47 -168 0
44 47 -289 0
44 47 -117 0
44 47 -212 0
44 47 -191 0
44 47 -231 0
44 47 -169 0
44 47 -290 0
44 47 -116 0
44 47 -213 0
44 47 -45 0
44 47 -298 0
44 47 -293 0
44 47 -296 0
44 47 -143 0
44 47 -248 0
44 47 -264 0
44 47 -291 0
44 47 -87 0
44 47 -276 0
44 47 -46 0
44 47 -297 0
44 47 -294 0
44 47 -295 0
44 47 -144 0
44 47 -249 0
44 47 -263 0
44 47 -292 0
44 47 -88 0
44 47 -277 0
1 66 -67 0
1 66 -65 0
1 59 -57 0
1 59 -56 0
1 62 -60 0
1 62 -63 0
1 13 -15 0
1 13 -14 0
1 32 -33 0
1 32 -34 0
1 36 -39 0
1 36 -37 0
1 55 -53 0
1 55 -52 0
1 7 -6 0
1 7 -5 0
1 42 -40 0
1 42 -43 0
1 2 -23 0
1 2 -31 0
1 2 -16 0
1 2 -50 0
1 2 -11 0
1 2 -27 0
1 2 -45 0
1 2 -20 0
1 2 -28 0
1 2 -17 0
1 2 -49 0
1 2 -8 0
1 2 -25 0
1 2 -46 0
1 2 -67 0
1 2 -57 0
1 2 -60 0
1 2 -15 0
1 2 -33 0
1 2 -39 0
1 2 -53 0
1 2 -6 0
1 2 -40 0
1 2 -65 0
1 2 -56 0
1 2 -63 0
1 2 -14 0
1 2 -34 0
1 2 -37 0
1 2 -52 0
1 2 -5 0
1 2 -43 0
66 59 -319 0
66 59 -318 0
66 62 -321 0
66 62 -322 0
66 13 -153 0
66 13 -154 0
66 32 -259 0
66 32 -258 0
66 36 -273 0
66 36 -274 0
66 55 -313 0
66 55 -314 0
66 7 -98 0
66 7 -97 0
66 42 -286 0
66 42 -287 0
66 64 -202 0
66 64 -241 0
66 64 -179 0
66 64 -307 0
66 64 -126 0
66 64 -223 0
66 64 -298 0
66 64 -67 0
66 64 -201 0
66 64 -242 0
66 64 -178 0
66 64 -306 0
66 64 -127 0
66 64 -222 0
66 64 -297 0
66 64 -65 0
66 64 -319 0
66 64 -321 0
66 64 -153 0
66 64 -259 0
66 64 -273 0
66 64 -313 0
66 64 -98 0
66 64 -286 0
66 64 -318 0
66 64 -322 0
66 64 -154 0
66 64 -258 0
66 64 -274 0
66 64 -314 0
66 64 -97 0
66 64 -287 0
59 62 -316 0
59 62 -317 0
59 13 -150 0
59 13 -149 0
59 32 -255 0
59 32 -254 0
59 36 -269 0
59 36 -270 0
59 55 -309 0
59 55 -310 0
59 7 -94 0
59 7 -93 0
59 42 -283 0
59 42 -282 0
59 58 -198 0
59 58 -238 0
59 58 -174 0
59 58 -303 0
59 58 -122 0
59 58 -218 0
59 58 -293 0
59 58 -57 0
59 58 -319 0
59 58 -197 0
59 58 -237 0
59 58 -175 0
59 58 -302 0
59 58 -123 0
59 58 -219 0
59 58 -294 0
59 58 -56 0
59 58 -318 0
59 58 -316 0
59 58 -150 0
59 58 -255 0
59 58 -269 0
59 58 -309 0
59 58 -94 0
59 58 -283 0
59 58 -317 0
59 58 -149 0
59 58 -254 0
59 58 -270 0
59 58 -310 0
59 58 -93 0
59 58 -282 0
62 13 -152 0
62 13 -151 0
62 32 -256 0
62 32 -257 0
62 36 -272 0
62 36 -271 0
62 55 -311 0
62 55 -312 0
62 7 -96 0
62 7 -95 0
62 42 -285 0
62 42 -284 0
62 61 -200 0
62 61 -240 0
62 61 -176 0
62 61 -304 0
62 61 -125 0
62 61 -220 0
62 61 -296 0
62 61 -60 0
62 61 -321 0
62 61 -316 0
62 61 -199 0
62 61 -239 0
62 61 -177 0
62 61 -305 0
62 61 -124 0
62 61 -221 0
62 61 -295 0
62 61 -63 0
62 61 -322 0
62 61 -317 0
62 61 -152 0
62 61 -256 0
62 61 -272 0
62 61 -311 0
62 61 -96 0
62 61 -285 0
62 61 -151 0
62 61 -257 0
62 61 -271 0
62 61 -312 0
62 61 -95 0
62 61 -284 0
13 32 -137 0
13 32 -138 0
13 36 -140 0
13 36 -139 0
13 55 -147 0
13 55 -148 0
13 7 -72 0
13 7 -71 0
13 42 -141 0
13 42 -142 0
13 12 -132 0
13 12 -136 0
13 12 -129 0
13 12 -145 0
13 12 -100 0
13 12 -134 0
13 12 -143 0
13 12 -15 0
13 12 -153 0
13 12 -150 0
13 12 -152 0
13 12 -131 0
13 12 -135 0
13 12 -130 0
13 12 -146 0
13 12 -101 0
13 12 -133 0
13 12 -144 0
13 12 -14 0
13 12 -154 0
13 12 -149 0
13 12 -151 0
13 12 -137 0
13 12 -140 0
13 12 -147 0
13 12 -72 0
13 12 -141 0
13 12 -138 0
13 12 -139 0
13 12 -148 0
13 12 -71 0
13 12 -142 0
32 36 -245 0
32 36 -244 0
32 55 -252 0
32 55 -253 0
32 7 -82 0
32 7 -81 0
32 42 -247 0
32 42 -246 0
32 35 -186 0
32 35 -225 0
32 35 -162 0
32 35 -250 0
32 35 -111 0
32 35 -206 0
32 35 -248 0
32 35 -33 0
32 35 -259 0
32 35 -255 0
32 35 -256 0
32 35 -137 0
32 35 -185 0
32 35 -226 0
32 35 -163 0
32 35 -251 0
32 35 -110 0
32 35 -207 0
32 35 -249 0
32 35 -34 0
32 35 -258 0
32 35 -254 0
32 35 -257 0
32 35 -138 0
32 35 -245 0
32 35 -252 0
32 35 -82 0
32 35 -247 0
32 35 -244 0
32 35 -253 0
32 35 -81 0
32 35 -246 0
36 55 -268 0
36 55 -267 0
36 7 -84 0
36 7 -83 0
36 42 -262 0
36 42 -261 0
36 38 -188 0
36 38 -228 0
36 38 -164 0
36 38 -266 0
36 38 -113 0
36 38 -208 0
36 38 -264 0
36 38 -39 0
36 38 -273 0
36 38 -269 0
36 38 -272 0
36 38 -140 0
36 38 -245 0
36 38 -187 0
36 38 -227 0
36 38 -165 0
36 38 -265 0
36 38 -112 0
36 38 -209 0
36 38 -263 0
36 38 -37 0
36 38 -274 0
36 38 -270 0
36 38 -271 0
36 38 -139 0
36 38 -244 0
36 38 -268 0
36 38 -84 0
36 38 -262 0
36 38 -267 0
36 38 -83 0
36 38 -261 0
55 7 -92 0
55 7 -91 0
55 42 -280 0
55 42 -281 0
55 54 -195 0
55 54 -236 0
55 54 -172 0
55 54 -301 0
55 54 -121 0
55 54 -216 0
55 54 -291 0
55 54 -53 0
55 54 -313 0
55 54 -309 0
55 54 -311 0
55 54 -147 0
55 54 -252 0
55 54 -268 0
55 54 -196 0
55 54 -235 0
55 54 -173 0
55 54 -300 0
55 54 -120 0
55 54 -217 0
55 54 -292 0
55 54 -52 0
55 54 -314 0
55 54 -310 0
55 54 -312 0
55 54 -148 0
55 54 -253 0
55 54 -267 0
55 54 -92 0
55 54 -280 0
55 54 -91 0
55 54 -281 0
7 42 -85 0
7 42 -86 0
7 4 -75 0
7 4 -80 0
7 4 -73 0
7 4 -89 0
7 4 -70 0
7 4 -78 0
7 4 -87 0
7 4 -6 0
7 4 -98 0
7 4 -94 0
7 4 -96 0
7 4 -72 0
7 4 -82 0
7 4 -84 0
7 4 -92 0
7 4 -76 0
7 4 -79 0
7 4 -74 0
7 4 -90 0
7 4 -69 0
7 4 -77 0
7 4 -88 0
7 4 -5 0
7 4 -97 0
7 4 -93 0
7 4 -95 0
7 4 -71 0
7 4 -81 0
7 4 -83 0
7 4 -91 0
7 4 -85 0
7 4 -86 0
42 41 -189 0
42 41 -229 0
42 41 -166 0
42 41 -278 0
42 41 -114 0
42 41 -210 0
42 41 -276 0
42 41 -40 0
42 41 -286 0
42 41 -283 0
42 41 -285 0
42 41 -141 0
42 41 -247 0
42 41 -262 0
42 41 -280 0
42 41 -85 0
42 41 -190 0
42 41 -230 0
42 41 -167 0
42 41 -279 0
42 41 -115 0
42 41 -211 0
42 41 -277 0
42 41 -43 0
42 41 -287 0
42 41 -282 0
42 41 -284 0
42 41 -142 0
42 41 -246 0
42 41 -261 0
42 41 -281 0
42 41 -86 0
21 29 -183 0
21 29 -184 0
21 18 -156 0
21 18 -157 0
21 51 -194 0
21 51 -193 0
21 9 -104 0
21 9 -105 0
21 24 -182 0
21 24 -181 0
21 47 -192 0
21 47 -191 0
21 2 -23 0
21 2 -20 0
21 64 -202 0
21 64 -201 0
21 58 -198 0
21 58 -197 0
21 61 -200 0
21 61 -199 0
21 12 -132 0
21 12 -131 0
21 35 -186 0
21 35 -185 0
21 38 -188 0
21 38 -187 0
21 54 -195 0
21 54 -196 0
21 4 -75 0
21 4 -76 0
21 41 -189 0
21 41 -190 0
29 18 -160 0
29 18 -161 0
29 51 -234 0
29 51 -233 0
29 9 -109 0
29 9 -108 0
29 24 -204 0
29 24 -205 0
29 47 -232 0
29 47 -231 0
29 2 -31 0
29 2 -28 0
29 64 -241 0
29 64 -242 0
29 58 -238 0
29 58 -237 0
29 61 -240 0
29 61 -239 0
29 12 -136 0
29 12 -135 0
29 35 -225 0
29 35 -226 0
29 38 -228 0
29 38 -227 0
29 54 -236 0
29 54 -235 0
29 4 -80 0
29 4 -79 0
29 41 -229 0
29 41 -230 0
18 51 -170 0
18 51 -171 0
18 9 -103 0
18 9 -102 0
18 24 -158 0
18 24 -159 0
18 47 -168 0
18 47 -169 0
18 2 -16 0
18 2 -17 0
18 64 -179 0
18 64 -178 0
18 58 -174 0
18 58 -175 0
18 61 -176 0
18 61 -177 0
18 12 -129 0
18 12 -130 0
18 35 -162 0
18 35 -163 0
18 38 -164 0
18 38 -165 0
18 54 -172 0
18 54 -173 0
18 4 -73 0
18 4 -74 0
18 41 -166 0
18 41 -167 0
51 9 -118 0
51 9 -119 0
51 24 -215 0
51 24 -214 0
51 47 -289 0
51 47 -290 0
51 2 -50 0
51 2 -49 0
51 64 -307 0
51 64 -306 0
51 58 -303 0
51 58 -302 0
51 61 -304 0
51 61 -305 0
51 12 -145 0
51 12 -146 0
51 35 -250 0
51 35 -251 0
51 38 -266 0
51 38 -265 0
51 54 -301 0
51 54 -300 0
51 4 -89 0
51 4 -90 0
51 41 -278 0
51 41 -279 0
9 24 -106 0
9 24 -107 0
9 47 -117 0
9 47 -116 0
9 2 -11 0
9 2 -8 0
9 64 -126 0
9 64 -127 0
9 58 -122 0
9 58 -123 0
9 61 -125 0
9 61 -124 0
9 12 -100 0
9 12 -101 0
9 35 -111 0
9 35 -110 0
9 38 -113 0
9 38 -112 0
9 54 -121 0
9 54 -120 0
9 4 -70 0
9 4 -69 0
9 41 -114 0
9 41 -115 0
24 47 -212 0
24 47 -213 0
24 2 -27 0
24 2 -25 0
24 64 -223 0
24 64 -222 0
24 58 -218 0
24 58 -219 0
24 61 -220 0
24 61 -221 0
24 12 -134 0
24 12 -133 0
24 35 -206 0
24 35 -207 0
24 38 -208 0
24 38 -209 0
24 54 -216 0
24 54 -217 0
24 4 -78 0
24 4 -77 0
24 41 -210 0
24 41 -211 0
47 2 -45 0
47 2 -46 0
47 64 -298 0
47 64 -297 0
47 58 -293 0
47 58 -294 0
47 61 -296 0
47 61 -295 0
47 12 -143 0
47 12 -144 0
47 35 -248 0
47 35 -249 0
47 38 -264 0
47 38 -263 0
47 54 -291 0
47 54 -292 0
47 4 -87 0
47 4 -88 0
47 41 -276 0
47 41 -277 0
2 64 -67 0
2 64 -65 0
2 58 -57 0
2 58 -56 0
2 61 -60 0
2 61 -63 0
2 12 -15 0
2 12 -14 0
2 35 -33 0
2 35 -34 0
2 38 -39 0
2 38 -37 0
2 54 -53 0
2 54 -52 0
2 4 -6 0
2 4 -5 0
2 41 -40 0
2 41 -43 0
64 58 -319 0
64 58 -318 0
64 61 -321 0
64 61 -322 0
64 12 -153 0
64 12 -154 0
64 35 -259 0
64 35 -258 0
64 38 -273 0
64 38 -274 0
64 54 -313 0
64 54 -314 0
64 4 -98 0
64 4 -97 0
64 41 -286 0
64 41 -287 0
58 61 -316 0
58 61 -317 0
58 12 -150 0
58 12 -149 0
58 35 -255 0
58 35 -254 0
58 38 -269 0
58 38 -270 0
58 54 -309 0
58 54 -310 0
58 4 -94 0
58 4 -93 0
58 41 -283 0
58 41 -282 0
61 12 -152 0
61 12 -151 0
61 35 -256 0
61 35 -257 0
61 38 -272 0
61 38 -271 0
61 54 -311 0
61 54 -312 0
61 4 -96 0
61 4 -95 0
61 41 -285 0
61 41 -284 0
12 35 -137 0
12 35 -138 0
12 38 -140 0
12 38 -139 0
12 54 -147 0
12 54 -148 0
12 4 -72 0
12 4 -71 0
12 41 -141 0
12 41 -142 0
35 38 -245 0
35 38 -244 0
35 54 -252 0
35 54 -253 0
35 4 -82 0
35 4 -81 0
35 41 -247 0
35 41 -246 0
38 54 -268 0
38 54 -267 0
38 4 -84 0
38 4 -83 0
38 41 -262 0
38 41 -261 0
54 4 -92 0
54 4 -91 0
54 41 -280 0
54 41 -281 0
4 41 -85 0
4 41 -86 0
180 183 156 194 104 182 192 23 202 198 200 132 186 188 195 75 189 0
184 224 160 234 109 204 232 31 241 238 240 136 225 228 236 80 229 0
157 161 155 170 103 158 168 16 179 174 176 129 162 164 172 73 166 0
193 233 171 299 118 215 289 50 307 303 304 145 250 266 301 89 278 0
105 108 102 119 99 106 117 11 126 122 125 100 111 113 121 70 114 0
181 205 159 214 107 203 212 27 223 218 220 134 206 208 216 78 210 0
191 231 169 290 116 213 288 45 298 293 296 143 248 264 291 87 276 0
20 28 17 49 8 25 46 3 67 57 60 15 33 39 53 6 40 0
201 242 178 306 127 222 297 65 323 319 321 153 259 273 313 98 286 0
197 237 175 302 123 219 294 56 318 315 316 150 255 269 309 94 283 0
199 239 177 305 124 221 295 63 322 317 320 152 256 272 311 96 285 0
131 135 130 146 101 133 144 14 154 149 151 128 137 140 147 72 141 0
185 226 163 251 110 207 249 34 258 254 257 138 243 245 252 82 247 0
187 227 165 265 112 209 263 37 274 270 271 139 244 260 268 84 262 0
196 235 173 300 120 217 292 52 314 310 312 148 253 267 308 92 280 0
76 79 74 90 69 77 88 5 97 93 95 71 81 83 91 68 85 0
190 230 167 279 115 211 277 43 287 282 284 142 246 261 281 86 275 0
