c R(2) E(2,2) B(2) E(2,7) R(7) E(7,2) B(7) E(2,4) E(4,2) B(4) R(4) R(8) B(8) E(8,2) E(2,8) R(9) E(9,2) B(9) E(2,9) R(6) E(2,6) B(6) E(6,2) R(17) E(17,2) E(2,17) B(17) R(1) E(2,1) B(1) E(1,2) R(5) E(5,2) E(2,5) B(5) R(3) E(3,2) B(3) E(2,3) E(12,2) E(2,12) B(12) R(12) R(10) E(10,2) E(2,10) B(10) E(13,2) E(2,13) B(13) R(13) E(2,15) R(15) B(15) E(15,2) R(11) E(11,2) B(11) E(2,11) E(2,16) R(16) E(16,2) B(16) E(2,14) B(14) R(14) E(14,2) E(0,2) E(2,0) R(0) B(0) E(7,7) E(7,4) E(4,7) E(8,7) E(7,8) E(7,9) E(9,7) E(7,6) E(6,7) E(17,7) E(7,17) E(7,1) E(1,7) E(7,5) E(5,7) E(3,7) E(7,3) E(7,12) E(12,7) E(7,10) E(10,7) E(13,7) E(7,13) E(7,15) E(15,7) E(11,7) E(7,11) E(7,16) E(16,7) E(14,7) E(7,14) E(0,7) E(7,0) E(4,4) E(8,4) E(4,8) E(4,9) E(9,4) E(6,4) E(4,6) E(17,4) E(4,17) E(4,1) E(1,4) E(4,5) E(5,4) E(3,4) E(4,3) E(12,4) E(4,12) E(4,10) E(10,4) E(4,13) E(13,4) E(4,15) E(15,4) E(11,4) E(4,11) E(4,16) E(16,4) E(14,4) E(4,14) E(4,0) E(0,4) E(8,8) E(8,9) E(9,8) E(8,6) E(6,8) E(17,8) E(8,17) E(1,8) E(8,1) E(8,5) E(5,8) E(8,3) E(3,8) E(12,8) E(8,12) E(10,8) E(8,10) E(13,8) E(8,13) E(15,8) E(8,15) E(8,11) E(11,8) E(8,16) E(16,8) E(8,14) E(14,8) E(8,0) E(0,8) E(9,9) E(6,9) E(9,6) E(9,17) E(17,9) E(1,9) E(9,1) E(5,9) E(9,5) E(3,9) E(9,3) E(9,12) E(12,9) E(9,10) E(10,9) E(13,9) E(9,13) E(9,15) E(15,9) E(11,9) E(9,11) E(9,16) E(16,9) E(14,9) E(9,14) E(0,9) E(9,0) E(6,6) E(17,6) E(6,17) E(6,1) E(1,6) E(6,5) E(5,6) E(3,6) E(6,3) E(6,12) E(12,6) E(10,6) E(6,10) E(6,13) E(13,6) E(6,15) E(15,6) E(11,6) E(6,11) E(16,6) E(6,16) E(14,6) E(6,14) E(6,0) E(0,6) E(17,17) E(17,1) E(1,17) E(17,5) E(5,17) E(3,17) E(17,3) E(17,12) E(12,17) E(17,10) E(10,17) E(13,17) E(17,13) E(15,17) E(17,15) E(17,11) E(11,17) E(17,16) E(16,17) E(14,17) E(17,14) E(0,17) E(17,0) E(1,1) E(5,1) E(1,5) E(3,1) E(1,3) E(12,1) E(1,12) E(1,10) E(10,1) E(1,13) E(13,1) E(15,1) E(1,15) E(11,1) E(1,11) E(16,1) E(1,16) E(14,1) E(1,14) E(1,0) E(0,1) E(5,5) E(5,3) E(3,5) E(12,5) E(5,12) E(5,10) E(10,5) E(13,5) E(5,13) E(15,5) E(5,15) E(11,5) E(5,11) E(16,5) E(5,16) E(5,14) E(14,5) E(5,0) E(0,5) E(3,3) E(3,12) E(12,3) E(10,3) E(3,10) E(3,13) E(13,3) E(3,15) E(15,3) E(11,3) E(3,11) E(3,16) E(16,3) E(14,3) E(3,14) E(0,3) E(3,0) E(12,12) E(12,10) E(10,12) E(13,12) E(12,13) E(15,12) E(12,15) E(11,12) E(12,11) E(12,16) E(16,12) E(14,12) E(12,14) E(0,12) E(12,0) E(10,10) E(13,10) E(10,13) E(15,10) E(10,15) E(11,10) E(10,11) E(16,10) E(10,16) E(10,14) E(14,10) E(0,10) E(10,0) E(13,13) E(13,15) E(15,13) E(13,11) E(11,13) E(16,13) E(13,16) E(14,13) E(13,14) E(0,13) E(13,0) E(15,15) E(15,11) E(11,15) E(15,16) E(16,15) E(14,15) E(15,14) E(0,15) E(15,0) E(11,11) E(11,16) E(16,11) E(14,11) E(11,14) E(0,11) E(11,0) E(16,16) E(16,14) E(14,16) E(16,0) E(0,16) E(14,14) E(14,0) E(0,14) E(0,0)
c 1 2 3 4 5 6 7 8 9 10 11 12 13 14 15 16 17 18 19 20 21 22 23 24 25 26 27 28 29 30 31 32 33 34 35 36 37 38 39 40 41 42 43 44 45 46 47 48 49 50 51 52 53 54 55 56 57 58 59 60 61 62 63 64 65 66 67 68 69 70 71 72 73 74 75 76 77 78 79 80 81 82 83 84 85 86 87 88 89 90 91 92 93 94 95 96 97 98 99 100 101 102 103 104 105 106 107 108 109 110 111 112 113 114 115 116 117 118 119 120 121 122 123 124 125 126 127 128 129 130 131 132 133 134 135 136 137 138 139 140 141 142 143 144 145 146 147 148 149 150 151 152 153 154 155 156 157 158 159 160 161 162 163 164 165 166 167 168 169 170 171 172 173 174 175 176 177 178 179 180 181 182 183 184 185 186 187 188 189 190 191 192 193 194 195 196 197 198 199 200 201 202 203 204 205 206 207 208 209 210 211 212 213 214 215 216 217 218 219 220 221 222 223 224 225 226 227 228 229 230 231 232 233 234 235 236 237 238 239 240 241 242 243 244 245 246 247 248 249 250 251 252 253 254 255 256 257 258 259 260 261 262 263 264 265 266 267 268 269 270 271 272 273 274 275 276 277 278 279 280 281 282 283 284 285 286 287 288 289 290 291 292 293 294 295 296 297 298 299 300 301 302 303 304 305 306 307 308 309 310 311 312 313 314 315 316 317 318 319 320 321 322 323 324 325 326 327 328 329 330 331 332 333 334 335 336 337 338 339 340 341 342 343 344 345 346 347 348 349 350 351 352 353 354 355 356 357 358 359 360
p cnf 360 1638
71 70 0
30 28 0
47 44 0
58 56 0
42 43 0
50 51 0
65 66 0
54 53 0
63 61 0
27 24 0
3 1 0
38 36 0
10 11 0
35 32 0
22 20 0
7 5 0
13 12 0
18 16 0
71 -360 0
30 -240 0
47 -312 0
58 -345 0
42 -297 0
50 -325 0
65 -357 0
54 -336 0
63 -352 0
27 -217 0
3 -2 0
38 -280 0
10 -105 0
35 -261 0
22 -192 0
7 -72 0
13 -136 0
18 -165 0
360 -360 0
260 -259 0
323 -324 0
350 -351 0
310 -311 0
334 -335 0
359 -358 0
343 -344 0
356 -355 0
238 -239 0
68 -69 0
295 -296 0
135 -134 0
279 -278 0
216 -215 0
103 -104 0
164 -163 0
190 -191 0
259 -260 0
240 -240 0
247 -248 0
254 -253 0
246 -245 0
249 -250 0
258 -257 0
252 -251 0
256 -255 0
219 -218 0
31 -29 0
244 -243 0
115 -114 0
242 -241 0
196 -195 0
84 -83 0
143 -144 0
170 -171 0
324 -323 0
248 -247 0
312 -312 0
318 -317 0
299 -298 0
314 -313 0
321 -322 0
316 -315 0
320 -319 0
227 -226 0
45 -46 0
283 -284 0
123 -122 0
267 -266 0
203 -204 0
92 -91 0
151 -152 0
179 -178 0
351 -350 0
253 -254 0
317 -318 0
345 -345 0
304 -305 0
329 -328 0
349 -348 0
338 -337 0
346 -347 0
233 -232 0
57 -59 0
289 -290 0
128 -129 0
272 -273 0
209 -210 0
97 -98 0
158 -157 0
184 -185 0
311 -310 0
245 -246 0
298 -299 0
305 -304 0
297 -297 0
301 -300 0
309 -308 0
303 -302 0
306 -307 0
225 -224 0
40 -41 0
282 -281 0
120 -121 0
264 -265 0
202 -201 0
90 -89 0
149 -150 0
177 -176 0
335 -334 0
250 -249 0
313 -314 0
328 -329 0
300 -301 0
325 -325 0
333 -332 0
326 -327 0
331 -330 0
228 -229 0
48 -49 0
286 -285 0
125 -124 0
268 -269 0
206 -205 0
93 -94 0
153 -154 0
180 -181 0
358 -359 0
257 -258 0
322 -321 0
348 -349 0
308 -309 0
332 -333 0
357 -357 0
341 -342 0
354 -353 0
236 -237 0
67 -64 0
293 -294 0
132 -133 0
277 -276 0
213 -214 0
101 -102 0
162 -161 0
188 -189 0
344 -343 0
251 -252 0
315 -316 0
337 -338 0
302 -303 0
327 -326 0
342 -341 0
336 -336 0
339 -340 0
230 -231 0
55 -52 0
288 -287 0
127 -126 0
270 -271 0
208 -207 0
96 -95 0
155 -156 0
183 -182 0
355 -356 0
255 -256 0
319 -320 0
347 -346 0
307 -306 0
330 -331 0
353 -354 0
340 -339 0
352 -352 0
235 -234 0
62 -60 0
292 -291 0
131 -130 0
274 -275 0
211 -212 0
100 -99 0
160 -159 0
187 -186 0
239 -238 0
218 -219 0
226 -227 0
232 -233 0
224 -225 0
229 -228 0
237 -236 0
231 -230 0
234 -235 0
217 -217 0
25 -26 0
223 -222 0
112 -113 0
220 -221 0
193 -194 0
81 -82 0
141 -142 0
169 -168 0
69 -68 0
29 -31 0
46 -45 0
59 -57 0
41 -40 0
49 -48 0
64 -67 0
52 -55 0
60 -62 0
26 -25 0
2 -2 0
39 -37 0
8 -9 0
34 -33 0
21 -23 0
4 -6 0
15 -14 0
19 -17 0
296 -295 0
243 -244 0
284 -283 0
290 -289 0
281 -282 0
285 -286 0
294 -293 0
287 -288 0
291 -292 0
222 -223 0
37 -39 0
280 -280 0
118 -119 0
263 -262 0
199 -200 0
87 -88 0
148 -147 0
174 -175 0
134 -135 0
114 -115 0
122 -123 0
129 -128 0
121 -120 0
124 -125 0
133 -132 0
126 -127 0
130 -131 0
113 -112 0
9 -8 0
119 -118 0
105 -105 0
116 -117 0
111 -110 0
74 -73 0
107 -106 0
108 -109 0
278 -279 0
241 -242 0
266 -267 0
273 -272 0
265 -264 0
269 -268 0
276 -277 0
271 -270 0
275 -274 0
221 -220 0
33 -34 0
262 -263 0
117 -116 0
261 -261 0
198 -197 0
86 -85 0
146 -145 0
172 -173 0
215 -216 0
195 -196 0
204 -203 0
210 -209 0
201 -202 0
205 -206 0
214 -213 0
207 -208 0
212 -211 0
194 -193 0
23 -21 0
200 -199 0
110 -111 0
197 -198 0
192 -192 0
80 -79 0
140 -139 0
166 -167 0
104 -103 0
83 -84 0
91 -92 0
98 -97 0
89 -90 0
94 -93 0
102 -101 0
95 -96 0
99 -100 0
82 -81 0
6 -4 0
88 -87 0
73 -74 0
85 -86 0
79 -80 0
72 -72 0
76 -75 0
77 -78 0
163 -164 0
144 -143 0
152 -151 0
157 -158 0
150 -149 0
154 -153 0
161 -162 0
156 -155 0
159 -160 0
142 -141 0
14 -15 0
147 -148 0
106 -107 0
145 -146 0
139 -140 0
75 -76 0
136 -136 0
137 -138 0
191 -190 0
171 -170 0
178 -179 0
185 -184 0
176 -177 0
181 -180 0
189 -188 0
182 -183 0
186 -187 0
168 -169 0
17 -19 0
175 -174 0
109 -108 0
173 -172 0
167 -166 0
78 -77 0
138 -137 0
165 -165 0
70 -360 0
28 -240 0
44 -312 0
56 -345 0
43 -297 0
51 -325 0
66 -357 0
53 -336 0
61 -352 0
24 -217 0
1 -2 0
36 -280 0
11 -105 0
32 -261 0
20 -192 0
5 -72 0
12 -136 0
16 -165 0
-71 -70 0
-30 -28 0
-47 -44 0
-58 -56 0
-42 -43 0
-50 -51 0
-65 -66 0
-54 -53 0
-63 -61 0
-27 -24 0
-3 -1 0
-38 -36 0
-10 -11 0
-35 -32 0
-22 -20 0
-7 -5 0
-13 -12 0
-18 -16 0
71 30 -260 0
71 30 -259 0
71 47 -323 0
71 47 -324 0
71 58 -350 0
71 58 -351 0
71 42 -310 0
71 42 -311 0
71 50 -334 0
71 50 -335 0
71 65 -359 0
71 65 -358 0
71 54 -343 0
71 54 -344 0
71 63 -356 0
71 63 -355 0
71 27 -238 0
71 27 -239 0
71 3 -68 0
71 3 -69 0
71 38 -295 0
71 38 -296 0
71 10 -135 0
71 10 -134 0
71 35 -279 0
71 35 -278 0
71 22 -216 0
71 22 -215 0
71 7 -103 0
71 7 -104 0
71 13 -164 0
71 13 -163 0
71 18 -190 0
71 18 -191 0
71 70 -260 0
71 70 -323 0
71 70 -350 0
71 70 -310 0
71 70 -334 0
71 70 -359 0
71 70 -343 0
71 70 -356 0
71 70 -238 0
71 70 -68 0
71 70 -295 0
71 70 -135 0
71 70 -279 0
71 70 -216 0
71 70 -103 0
71 70 -164 0
71 70 -190 0
71 70 -259 0
71 70 -324 0
71 70 -351 0
71 70 -311 0
71 70 -335 0
71 70 -358 0
71 70 -344 0
71 70 -355 0
71 70 -239 0
71 70 -69 0
71 70 -296 0
71 70 -134 0
71 70 -278 0
71 70 -215 0
71 70 -104 0
71 70 -163 0
71 70 -191 0
30 47 -247 0
30 47 -248 0
30 58 -254 0
30 58 -253 0
30 42 -246 0
30 42 -245 0
30 50 -249 0
30 50 -250 0
30 65 -258 0
30 65 -257 0
30 54 -252 0
30 54 -251 0
30 63 -256 0
30 63 -255 0
30 27 -219 0
30 27 -218 0
30 3 -31 0
30 3 -29 0
30 38 -244 0
30 38 -243 0
30 10 -115 0
30 10 -114 0
30 35 -242 0
30 35 -241 0
30 22 -196 0
30 22 -195 0
30 7 -84 0
30 7 -83 0
30 13 -143 0
30 13 -144 0
30 18 -170 0
30 18 -171 0
30 28 -260 0
30 28 -259 0
30 28 -247 0
30 28 -254 0
30 28 -246 0
30 28 -249 0
30 28 -258 0
30 28 -252 0
30 28 -256 0
30 28 -219 0
30 28 -31 0
30 28 -244 0
30 28 -115 0
30 28 -242 0
30 28 -196 0
30 28 -84 0
30 28 -143 0
30 28 -170 0
30 28 -248 0
30 28 -253 0
30 28 -245 0
30 28 -250 0
30 28 -257 0
30 28 -251 0
30 28 -255 0
30 28 -218 0
30 28 -29 0
30 28 -243 0
30 28 -114 0
30 28 -241 0
30 28 -195 0
30 28 -83 0
30 28 -144 0
30 28 -171 0
47 58 -318 0
47 58 -317 0
47 42 -299 0
47 42 -298 0
47 50 -314 0
47 50 -313 0
47 65 -321 0
47 65 -322 0
47 54 -316 0
47 54 -315 0
47 63 -320 0
47 63 -319 0
47 27 -227 0
47 27 -226 0
47 3 -45 0
47 3 -46 0
47 38 -283 0
47 38 -284 0
47 10 -123 0
47 10 -122 0
47 35 -267 0
47 35 -266 0
47 22 -203 0
47 22 -204 0
47 7 -92 0
47 7 -91 0
47 13 -151 0
47 13 -152 0
47 18 -179 0
47 18 -178 0
47 44 -323 0
47 44 -247 0
47 44 -324 0
47 44 -248 0
47 44 -318 0
47 44 -299 0
47 44 -314 0
47 44 -321 0
47 44 -316 0
47 44 -320 0
47 44 -227 0
47 44 -45 0
47 44 -283 0
47 44 -123 0
47 44 -267 0
47 44 -203 0
47 44 -92 0
47 44 -151 0
47 44 -179 0
47 44 -317 0
47 44 -298 0
47 44 -313 0
47 44 -322 0
47 44 -315 0
47 44 -319 0
47 44 -226 0
47 44 -46 0
47 44 -284 0
47 44 -122 0
47 44 -266 0
47 44 -204 0
47 44 -91 0
47 44 -152 0
47 44 -178 0
58 42 -304 0
58 42 -305 0
58 50 -329 0
58 50 -328 0
58 65 -349 0
58 65 -348 0
58 54 -338 0
58 54 -337 0
58 63 -346 0
58 63 -347 0
58 27 -233 0
58 27 -232 0
58 3 -57 0
58 3 -59 0
58 38 -289 0
58 38 -290 0
58 10 -128 0
58 10 -129 0
58 35 -272 0
58 35 -273 0
58 22 -209 0
58 22 -210 0
58 7 -97 0
58 7 -98 0
58 13 -158 0
58 13 -157 0
58 18 -184 0
58 18 -185 0
58 56 -350 0
58 56 -254 0
58 56 -318 0
58 56 -351 0
58 56 -253 0
58 56 -317 0
58 56 -304 0
58 56 -329 0
58 56 -349 0
58 56 -338 0
58 56 -346 0
58 56 -233 0
58 56 -57 0
58 56 -289 0
58 56 -128 0
58 56 -272 0
58 56 -209 0
58 56 -97 0
58 56 -158 0
58 56 -184 0
58 56 -305 0
58 56 -328 0
58 56 -348 0
58 56 -337 0
58 56 -347 0
58 56 -232 0
58 56 -59 0
58 56 -290 0
58 56 -129 0
58 56 -273 0
58 56 -210 0
58 56 -98 0
58 56 -157 0
58 56 -185 0
42 50 -301 0
42 50 -300 0
42 65 -309 0
42 65 -308 0
42 54 -303 0
42 54 -302 0
42 63 -306 0
42 63 -307 0
42 27 -225 0
42 27 -224 0
42 3 -40 0
42 3 -41 0
42 38 -282 0
42 38 -281 0
42 10 -120 0
42 10 -121 0
42 35 -264 0
42 35 -265 0
42 22 -202 0
42 22 -201 0
42 7 -90 0
42 7 -89 0
42 13 -149 0
42 13 -150 0
42 18 -177 0
42 18 -176 0
42 43 -310 0
42 43 -246 0
42 43 -299 0
42 43 -304 0
42 43 -311 0
42 43 -245 0
42 43 -298 0
42 43 -305 0
42 43 -301 0
42 43 -309 0
42 43 -303 0
42 43 -306 0
42 43 -225 0
42 43 -40 0
42 43 -282 0
42 43 -120 0
42 43 -264 0
42 43 -202 0
42 43 -90 0
42 43 -149 0
42 43 -177 0
42 43 -300 0
42 43 -308 0
42 43 -302 0
42 43 -307 0
42 43 -224 0
42 43 -41 0
42 43 -281 0
42 43 -121 0
42 43 -265 0
42 43 -201 0
42 43 -89 0
42 43 -150 0
42 43 -176 0
50 65 -333 0
50 65 -332 0
50 54 -326 0
50 54 -327 0
50 63 -331 0
50 63 -330 0
50 27 -228 0
50 27 -229 0
50 3 -48 0
50 3 -49 0
50 38 -286 0
50 38 -285 0
50 10 -125 0
50 10 -124 0
50 35 -268 0
50 35 -269 0
50 22 -206 0
50 22 -205 0
50 7 -93 0
50 7 -94 0
50 13 -153 0
50 13 -154 0
50 18 -180 0
50 18 -181 0
50 51 -334 0
50 51 -249 0
50 51 -314 0
50 51 -329 0
50 51 -301 0
50 51 -335 0
50 51 -250 0
50 51 -313 0
50 51 -328 0
50 51 -300 0
50 51 -333 0
50 51 -326 0
50 51 -331 0
50 51 -228 0
50 51 -48 0
50 51 -286 0
50 51 -125 0
50 51 -268 0
50 51 -206 0
50 51 -93 0
50 51 -153 0
50 51 -180 0
50 51 -332 0
50 51 -327 0
50 51 -330 0
50 51 -229 0
50 51 -49 0
50 51 -285 0
50 51 -124 0
50 51 -269 0
50 51 -205 0
50 51 -94 0
50 51 -154 0
50 51 -181 0
65 54 -341 0
65 54 -342 0
65 63 -354 0
65 63 -353 0
65 27 -236 0
65 27 -237 0
65 3 -67 0
65 3 -64 0
65 38 -293 0
65 38 -294 0
65 10 -132 0
65 10 -133 0
65 35 -277 0
65 35 -276 0
65 22 -213 0
65 22 -214 0
65 7 -101 0
65 7 -102 0
65 13 -162 0
65 13 -161 0
65 18 -188 0
65 18 -189 0
65 66 -359 0
65 66 -258 0
65 66 -321 0
65 66 -349 0
65 66 -309 0
65 66 -333 0
65 66 -358 0
65 66 -257 0
65 66 -322 0
65 66 -348 0
65 66 -308 0
65 66 -332 0
65 66 -341 0
65 66 -354 0
65 66 -236 0
65 66 -67 0
65 66 -293 0
65 66 -132 0
65 66 -277 0
65 66 -213 0
65 66 -101 0
65 66 -162 0
65 66 -188 0
65 66 -342 0
65 66 -353 0
65 66 -237 0
65 66 -64 0
65 66 -294 0
65 66 -133 0
65 66 -276 0
65 66 -214 0
65 66 -102 0
65 66 -161 0
65 66 -189 0
54 63 -339 0
54 63 -340 0
54 27 -230 0
54 27 -231 0
54 3 -55 0
54 3 -52 0
54 38 -288 0
54 38 -287 0
54 10 -127 0
54 10 -126 0
54 35 -270 0
54 35 -271 0
54 22 -208 0
54 22 -207 0
54 7 -96 0
54 7 -95 0
54 13 -155 0
54 13 -156 0
54 18 -183 0
54 18 -182 0
54 53 -343 0
54 53 -252 0
54 53 -316 0
54 53 -338 0
54 53 -303 0
54 53 -326 0
54 53 -341 0
54 53 -344 0
54 53 -251 0
54 53 -315 0
54 53 -337 0
54 53 -302 0
54 53 -327 0
54 53 -342 0
54 53 -339 0
54 53 -230 0
54 53 -55 0
54 53 -288 0
54 53 -127 0
54 53 -270 0
54 53 -208 0
54 53 -96 0
54 53 -155 0
54 53 -183 0
54 53 -340 0
54 53 -231 0
54 53 -52 0
54 53 -287 0
54 53 -126 0
54 53 -271 0
54 53 -207 0
54 53 -95 0
54 53 -156 0
54 53 -182 0
63 27 -235 0
63 27 -234 0
63 3 -62 0
63 3 -60 0
63 38 -292 0
63 38 -291 0
63 10 -131 0
63 10 -130 0
63 35 -274 0
63 35 -275 0
63 22 -211 0
63 22 -212 0
63 7 -100 0
63 7 -99 0
63 13 -160 0
63 13 -159 0
63 18 -187 0
63 18 -186 0
63 61 -356 0
63 61 -256 0
63 61 -320 0
63 61 -346 0
63 61 -306 0
63 61 -331 0
63 61 -354 0
63 61 -339 0
63 61 -355 0
63 61 -255 0
63 61 -319 0
63 61 -347 0
63 61 -307 0
63 61 -330 0
63 61 -353 0
63 61 -340 0
63 61 -235 0
63 61 -62 0
63 61 -292 0
63 61 -131 0
63 61 -274 0
63 61 -211 0
63 61 -100 0
63 61 -160 0
63 61 -187 0
63 61 -234 0
63 61 -60 0
63 61 -291 0
63 61 -130 0
63 61 -275 0
63 61 -212 0
63 61 -99 0
63 61 -159 0
63 61 -186 0
27 3 -25 0
27 3 -26 0
27 38 -223 0
27 38 -222 0
27 10 -112 0
27 10 -113 0
27 35 -220 0
27 35 -221 0
27 22 -193 0
27 22 -194 0
27 7 -81 0
27 7 -82 0
27 13 -141 0
27 13 -142 0
27 18 -169 0
27 18 -168 0
27 24 -238 0
27 24 -219 0
27 24 -227 0
27 24 -233 0
27 24 -225 0
27 24 -228 0
27 24 -236 0
27 24 -230 0
27 24 -235 0
27 24 -239 0
27 24 -218 0
27 24 -226 0
27 24 -232 0
27 24 -224 0
27 24 -229 0
27 24 -237 0
27 24 -231 0
27 24 -234 0
27 24 -25 0
27 24 -223 0
27 24 -112 0
27 24 -220 0
27 24 -193 0
27 24 -81 0
27 24 -141 0
27 24 -169 0
27 24 -26 0
27 24 -222 0
27 24 -113 0
27 24 -221 0
27 24 -194 0
27 24 -82 0
27 24 -142 0
27 24 -168 0
3 38 -39 0
3 38 -37 0
3 10 -8 0
3 10 -9 0
3 35 -34 0
3 35 -33 0
3 22 -21 0
3 22 -23 0
3 7 -4 0
3 7 -6 0
3 13 -15 0
3 13 -14 0
3 18 -19 0
3 18 -17 0
3 1 -68 0
3 1 -31 0
3 1 -45 0
3 1 -57 0
3 1 -40 0
3 1 -48 0
3 1 -67 0
3 1 -55 0
3 1 -62 0
3 1 -25 0
3 1 -69 0
3 1 -29 0
3 1 -46 0
3 1 -59 0
3 1 -41 0
3 1 -49 0
3 1 -64 0
3 1 -52 0
3 1 -60 0
3 1 -26 0
3 1 -39 0
3 1 -8 0
3 1 -34 0
3 1 -21 0
3 1 -4 0
3 1 -15 0
3 1 -19 0
3 1 -37 0
3 1 -9 0
3 1 -33 0
3 1 -23 0
3 1 -6 0
3 1 -14 0
3 1 -17 0
38 10 -118 0
38 10 -119 0
38 35 -263 0
38 35 -262 0
38 22 -199 0
38 22 -200 0
38 7 -87 0
38 7 -88 0
38 13 -148 0
38 13 -147 0
38 18 -174 0
38 18 -175 0
38 36 -295 0
38 36 -244 0
38 36 -283 0
38 36 -289 0
38 36 -282 0
38 36 -286 0
38 36 -293 0
38 36 -288 0
38 36 -292 0
38 36 -223 0
38 36 -39 0
38 36 -296 0
38 36 -243 0
38 36 -284 0
38 36 -290 0
38 36 -281 0
38 36 -285 0
38 36 -294 0
38 36 -287 0
38 36 -291 0
38 36 -222 0
38 36 -37 0
38 36 -118 0
38 36 -263 0
38 36 -199 0
38 36 -87 0
38 36 -148 0
38 36 -174 0
38 36 -119 0
38 36 -262 0
38 36 -200 0
38 36 -88 0
38 36 -147 0
38 36 -175 0
10 35 -116 0
10 35 -117 0
10 22 -111 0
10 22 -110 0
10 7 -74 0
10 7 -73 0
10 13 -107 0
10 13 -106 0
10 18 -108 0
10 18 -109 0
10 11 -135 0
10 11 -115 0
10 11 -123 0
10 11 -128 0
10 11 -120 0
10 11 -125 0
10 11 -132 0
10 11 -127 0
10 11 -131 0
10 11 -112 0
10 11 -8 0
10 11 -118 0
10 11 -134 0
10 11 -114 0
10 11 -122 0
10 11 -129 0
10 11 -121 0
10 11 -124 0
10 11 -133 0
10 11 -126 0
10 11 -130 0
10 11 -113 0
10 11 -9 0
10 11 -119 0
10 11 -116 0
10 11 -111 0
10 11 -74 0
10 11 -107 0
10 11 -108 0
10 11 -117 0
10 11 -110 0
10 11 -73 0
10 11 -106 0
10 11 -109 0
35 22 -198 0
35 22 -197 0
35 7 -86 0
35 7 -85 0
35 13 -146 0
35 13 -145 0
35 18 -172 0
35 18 -173 0
35 32 -279 0
35 32 -242 0
35 32 -267 0
35 32 -272 0
35 32 -264 0
35 32 -268 0
35 32 -277 0
35 32 -270 0
35 32 -274 0
35 32 -220 0
35 32 -34 0
35 32 -263 0
35 32 -116 0
35 32 -278 0
35 32 -241 0
35 32 -266 0
35 32 -273 0
35 32 -265 0
35 32 -269 0
35 32 -276 0
35 32 -271 0
35 32 -275 0
35 32 -221 0
35 32 -33 0
35 32 -262 0
35 32 -117 0
35 32 -198 0
35 32 -86 0
35 32 -146 0
35 32 -172 0
35 32 -197 0
35 32 -85 0
35 32 -145 0
35 32 -173 0
22 7 -80 0
22 7 -79 0
22 13 -140 0
22 13 -139 0
22 18 -166 0
22 18 -167 0
22 20 -216 0
22 20 -196 0
22 20 -203 0
22 20 -209 0
22 20 -202 0
22 20 -206 0
22 20 -213 0
22 20 -208 0
22 20 -211 0
22 20 -193 0
22 20 -21 0
22 20 -199 0
22 20 -111 0
22 20 -198 0
22 20 -215 0
22 20 -195 0
22 20 -204 0
22 20 -210 0
22 20 -201 0
22 20 -205 0
22 20 -214 0
22 20 -207 0
22 20 -212 0
22 20 -194 0
22 20 -23 0
22 20 -200 0
22 20 -110 0
22 20 -197 0
22 20 -80 0
22 20 -140 0
22 20 -166 0
22 20 -79 0
22 20 -139 0
22 20 -167 0
7 13 -76 0
7 13 -75 0
7 18 -77 0
7 18 -78 0
7 5 -103 0
7 5 -84 0
7 5 -92 0
7 5 -97 0
7 5 -90 0
7 5 -93 0
7 5 -101 0
7 5 -96 0
7 5 -100 0
7 5 -81 0
7 5 -4 0
7 5 -87 0
7 5 -74 0
7 5 -86 0
7 5 -80 0
7 5 -104 0
7 5 -83 0
7 5 -91 0
7 5 -98 0
7 5 -89 0
7 5 -94 0
7 5 -102 0
7 5 -95 0
7 5 -99 0
7 5 -82 0
7 5 -6 0
7 5 -88 0
7 5 -73 0
7 5 -85 0
7 5 -79 0
7 5 -76 0
7 5 -77 0
7 5 -75 0
7 5 -78 0
13 18 -137 0
13 18 -138 0
13 12 -164 0
13 12 -143 0
13 12 -151 0
13 12 -158 0
13 12 -149 0
13 12 -153 0
13 12 -162 0
13 12 -155 0
13 12 -160 0
13 12 -141 0
13 12 -15 0
13 12 -148 0
13 12 -107 0
13 12 -146 0
13 12 -140 0
13 12 -76 0
13 12 -163 0
13 12 -144 0
13 12 -152 0
13 12 -157 0
13 12 -150 0
13 12 -154 0
13 12 -161 0
13 12 -156 0
13 12 -159 0
13 12 -142 0
13 12 -14 0
13 12 -147 0
13 12 -106 0
13 12 -145 0
13 12 -139 0
13 12 -75 0
13 12 -137 0
13 12 -138 0
18 16 -190 0
18 16 -170 0
18 16 -179 0
18 16 -184 0
18 16 -177 0
18 16 -180 0
18 16 -188 0
18 16 -183 0
18 16 -187 0
18 16 -169 0
18 16 -19 0
18 16 -174 0
18 16 -108 0
18 16 -172 0
18 16 -166 0
18 16 -77 0
18 16 -137 0
18 16 -191 0
18 16 -171 0
18 16 -178 0
18 16 -185 0
18 16 -176 0
18 16 -181 0
18 16 -189 0
18 16 -182 0
18 16 -186 0
18 16 -168 0
18 16 -17 0
18 16 -175 0
18 16 -109 0
18 16 -173 0
18 16 -167 0
18 16 -78 0
18 16 -138 0
70 28 -260 0
70 28 -259 0
70 44 -323 0
70 44 -324 0
70 56 -350 0
70 56 -351 0
70 43 -310 0
70 43 -311 0
70 51 -334 0
70 51 -335 0
70 66 -359 0
70 66 -358 0
70 53 -343 0
70 53 -344 0
70 61 -356 0
70 61 -355 0
70 24 -238 0
70 24 -239 0
70 1 -68 0
70 1 -69 0
70 36 -295 0
70 36 -296 0
70 11 -135 0
70 11 -134 0
70 32 -279 0
70 32 -278 0
70 20 -216 0
70 20 -215 0
70 5 -103 0
70 5 -104 0
70 12 -164 0
70 12 -163 0
70 16 -190 0
70 16 -191 0
28 44 -247 0
28 44 -248 0
28 56 -254 0
28 56 -253 0
28 43 -246 0
28 43 -245 0
28 51 -249 0
28 51 -250 0
28 66 -258 0
28 66 -257 0
28 53 -252 0
28 53 -251 0
28 61 -256 0
28 61 -255 0
28 24 -219 0
28 24 -218 0
28 1 -31 0
28 1 -29 0
28 36 -244 0
28 36 -243 0
28 11 -115 0
28 11 -114 0
28 32 -242 0
28 32 -241 0
28 20 -196 0
28 20 -195 0
28 5 -84 0
28 5 -83 0
28 12 -143 0
28 12 -144 0
28 16 -170 0
28 16 -171 0
44 56 -318 0
44 56 -317 0
44 43 -299 0
44 43 -298 0
44 51 -314 0
44 51 -313 0
44 66 -321 0
44 66 -322 0
44 53 -316 0
44 53 -315 0
44 61 -320 0
44 61 -319 0
44 24 -227 0
44 24 -226 0
44 1 -45 0
44 1 -46 0
44 36 -283 0
44 36 -284 0
44 11 -123 0
44 11 -122 0
44 32 -267 0
44 32 -266 0
44 20 -203 0
44 20 -204 0
44 5 -92 0
44 5 -91 0
44 12 -151 0
44 12 -152 0
44 16 -179 0
44 16 -178 0
56 43 -304 0
56 43 -305 0
56 51 -329 0
56 51 -328 0
56 66 -349 0
56 66 -348 0
56 53 -338 0
56 53 -337 0
56 61 -346 0
56 61 -347 0
56 24 -233 0
56 24 -232 0
56 1 -57 0
56 1 -59 0
56 36 -289 0
56 36 -290 0
56 11 -128 0
56 11 -129 0
56 32 -272 0
56 32 -273 0
56 20 -209 0
56 20 -210 0
56 5 -97 0
56 5 -98 0
56 12 -158 0
56 12 -157 0
56 16 -184 0
56 16 -185 0
43 51 -301 0
43 51 -300 0
43 66 -309 0
43 66 -308 0
43 53 -303 0
43 53 -302 0
43 61 -306 0
43 61 -307 0
43 24 -225 0
43 24 -224 0
43 1 -40 0
43 1 -41 0
43 36 -282 0
43 36 -281 0
43 11 -120 0
43 11 -121 0
43 32 -264 0
43 32 -265 0
43 20 -202 0
43 20 -201 0
43 5 -90 0
43 5 -89 0
43 12 -149 0
43 12 -150 0
43 16 -177 0
43 16 -176 0
51 66 -333 0
51 66 -332 0
51 53 -326 0
51 53 -327 0
51 61 -331 0
51 61 -330 0
51 24 -228 0
51 24 -229 0
51 1 -48 0
51 1 -49 0
51 36 -286 0
51 36 -285 0
51 11 -125 0
51 11 -124 0
51 32 -268 0
51 32 -269 0
51 20 -206 0
51 20 -205 0
51 5 -93 0
51 5 -94 0
51 12 -153 0
51 12 -154 0
51 16 -180 0
51 16 -181 0
66 53 -341 0
66 53 -342 0
66 61 -354 0
66 61 -353 0
66 24 -236 0
66 24 -237 0
66 1 -67 0
66 1 -64 0
66 36 -293 0
66 36 -294 0
66 11 -132 0
66 11 -133 0
66 32 -277 0
66 32 -276 0
66 20 -213 0
66 20 -214 0
66 5 -101 0
66 5 -102 0
66 12 -162 0
66 12 -161 0
66 16 -188 0
66 16 -189 0
53 61 -339 0
53 61 -340 0
53 24 -230 0
53 24 -231 0
53 1 -55 0
53 1 -52 0
53 36 -288 0
53 36 -287 0
53 11 -127 0
53 11 -126 0
53 32 -270 0
53 32 -271 0
53 20 -208 0
53 20 -207 0
53 5 -96 0
53 5 -95 0
53 12 -155 0
53 12 -156 0
53 16 -183 0
53 16 -182 0
61 24 -235 0
61 24 -234 0
61 1 -62 0
61 1 -60 0
61 36 -292 0
61 36 -291 0
61 11 -131 0
61 11 -130 0
61 32 -274 0
61 32 -275 0
61 20 -211 0
61 20 -212 0
61 5 -100 0
61 5 -99 0
61 12 -160 0
61 12 -159 0
61 16 -187 0
61 16 -186 0
24 1 -25 0
24 1 -26 0
24 36 -223 0
24 36 -222 0
24 11 -112 0
24 11 -113 0
24 32 -220 0
24 32 -221 0
24 20 -193 0
24 20 -194 0
24 5 -81 0
24 5 -82 0
24 12 -141 0
24 12 -142 0
24 16 -169 0
24 16 -168 0
1 36 -39 0
1 36 -37 0
1 11 -8 0
1 11 -9 0
1 32 -34 0
1 32 -33 0
1 20 -21 0
1 20 -23 0
1 5 -4 0
1 5 -6 0
1 12 -15 0
1 12 -14 0
1 16 -19 0
1 16 -17 0
36 11 -118 0
36 11 -119 0
36 32 -263 0
36 32 -262 0
36 20 -199 0
36 20 -200 0
36 5 -87 0
36 5 -88 0
36 12 -148 0
36 12 -147 0
36 16 -174 0
36 16 -175 0
11 32 -116 0
11 32 -117 0
11 20 -111 0
11 20 -110 0
11 5 -74 0
11 5 -73 0
11 12 -107 0
11 12 -106 0
11 16 -108 0
11 16 -109 0
32 20 -198 0
32 20 -197 0
32 5 -86 0
32 5 -85 0
32 12 -146 0
32 12 -145 0
32 16 -172 0
32 16 -173 0
20 5 -80 0
20 5 -79 0
20 12 -140 0
20 12 -139 0
20 16 -166 0
20 16 -167 0
5 12 -76 0
5 12 -75 0
5 16 -77 0
5 16 -78 0
12 16 -137 0
12 16 -138 0
360 260 323 350 310 334 359 343 356 238 68 295 135 279 216 103 164 190 0
259 240 247 254 246 249 258 252 256 219 31 244 115 242 196 84 143 170 0
324 248 312 318 299 314 321 316 320 227 45 283 123 267 203 92 151 179 0
351 253 317 345 304 329 349 338 346 233 57 289 128 272 209 97 158 184 0
311 245 298 305 297 301 309 303 306 225 40 282 120 264 202 90 149 177 0
335 250 313 328 300 325 333 326 331 228 48 286 125 268 206 93 153 180 0
358 257 322 348 308 332 357 341 354 236 67 293 132 277 213 101 162 188 0
344 251 315 337 302 327 342 336 339 230 55 288 127 270 208 96 155 183 0
355 255 319 347 307 330 353 340 352 235 62 292 131 274 211 100 160 187 0
239 218 226 232 224 229 237 231 234 217 25 223 112 220 193 81 141 169 0
69 29 46 59 41 49 64 52 60 26 2 39 8 34 21 4 15 19 0
296 243 284 290 281 285 294 287 291 222 37 280 118 263 199 87 148 174 0
134 114 122 129 121 124 133 126 130 113 9 119 105 116 111 74 107 108 0
278 241 266 273 265 269 276 271 275 221 33 262 117 261 198 86 146 172 0
215 195 204 210 201 205 214 207 212 194 23 200 110 197 192 80 140 166 0
104 83 91 98 89 94 102 95 99 82 6 88 73 85 79 72 76 77 0
163 144 152 157 150 154 161 156 159 142 14 147 106 145 139 75 136 137 0
191 171 178 185 176 181 189 182 186 168 17 175 109 173 167 78 138 165 0
