c B(10) R(10) E(10,10) E(14,10) E(10,14) R(14) B(14) E(18,10) B(18) E(10,18) R(18) B(4) E(4,10) E(10,4) R(4) B(15) R(15) E(15,10) E(10,15) B(16) R(16) E(10,16) E(16,10) E(10,8) B(8) E(8,10) R(8) E(13,10) E(10,13) R(13) B(13) B(7) E(7,10) E(10,7) R(7) R(17) E(10,17) B(17) E(17,10) R(1) E(1,10) B(1) E(10,1) E(10,12) B(12) E(12,10) R(12) E(10,3) B(3) R(3) E(3,10) B(11) R(11) E(11,10) E(10,11) R(5) B(5) E(5,10) E(10,5) R(0) B(0) E(0,10) E(10,0) E(9,10) B(9) E(10,9) R(9) E(10,2) R(2) E(2,10) B(2) R(6) E(10,6) B(6) E(6,10) E(14,14) E(18,14) E(14,18) E(14,4) E(4,14) E(14,15) E(15,14) E(14,16) E(16,14) E(8,14) E(14,8) E(14,13) E(13,14) E(7,14) E(14,7) E(17,14) E(14,17) E(14,1) E(1,14) E(12,14) E(14,12) E(14,3) E(3,14) E(11,14) E(14,11) E(14,5) E(5,14) E(0,14) E(14,0) E(14,9) E(9,14) E(14,2) E(2,14) E(14,6) E(6,14) E(18,18) E(18,4) E(4,18) E(18,15) E(15,18) E(16,18) E(18,16) E(8,18) E(18,8) E(13,18) E(18,13) E(7,18) E(18,7) E(18,17) E(17,18) E(18,1) E(1,18) E(18,12) E(12,18) E(18,3) E(3,18) E(11,18) E(18,11) E(5,18) E(18,5) E(0,18) E(18,0) E(18,9) E(9,18) E(18,2) E(2,18) E(6,18) E(18,6) E(4,4) E(4,15) E(15,4) E(4,16) E(16,4) E(8,4) E(4,8) E(4,13) E(13,4) E(4,7) E(7,4) E(17,4) E(4,17) E(4,1) E(1,4) E(12,4) E(4,12) E(3,4) E(4,3) E(4,11) E(11,4) E(4,5) E(5,4) E(4,0) E(0,4) E(4,9) E(9,4) E(2,4) E(4,2) E(4,6) E(6,4) E(15,15) E(16,15) E(15,16) E(8,15) E(15,8) E(13,15) E(15,13) E(7,15) E(15,7) E(17,15) E(15,17) E(15,1) E(1,15) E(12,15) E(15,12) E(15,3) E(3,15) E(15,11) E(11,15) E(5,15) E(15,5) E(15,0) E(0,15) E(9,15) E(15,9) E(15,2) E(2,15) E(15,6) E(6,15) E(16,16) E(16,8) E(8,16) E(13,16) E(16,13) E(16,7) E(7,16) E(16,17) E(17,16) E(16,1) E(1,16) E(16,12) E(12,16) E(3,16) E(16,3) E(11,16) E(16,11) E(5,16) E(16,5) E(16,0) E(0,16) E(9,16) E(16,9) E(2,16) E(16,2) E(16,6) E(6,16) E(8,8) E(8,13) E(13,8) E(8,7) E(7,8) E(8,17) E(17,8) E(8,1) E(1,8) E(8,12) E(12,8) E(8,3) E(3,8) E(11,8) E(8,11) E(5,8) E(8,5) E(8,0) E(0,8) E(8,9) E(9,8) E(8,2) E(2,8) E(6,8) E(8,6) E(13,13) E(7,13) E(13,7) E(13,17) E(17,13) E(13,1) E(1,13) E(12,13) E(13,12) E(3,13) E(13,3) E(13,11) E(11,13) E(13,5) E(5,13) E(0,13) E(13,0) E(13,9) E(9,13) E(2,13) E(13,2) E(13,6) E(6,13) E(7,7) E(7,17) E(17,7) E(7,1) E(1,7) E(12,7) E(7,12) E(7,3) E(3,7) E(7,11) E(11,7) E(5,7) E(7,5) E(0,7) E(7,0) E(7,9) E(9,7) E(2,7) E(7,2) E(6,7) E(7,6) E(17,17) E(17,1) E(1,17) E(17,12) E(12,17) E(3,17) E(17,3) E(11,17) E(17,11) E(17,5) E(5,17) E(17,0) E(0,17) E(17,9) E(9,17) E(17,2) E(2,17) E(6,17) E(17,6) E(1,1) E(12,1) E(1,12) E(3,1) E(1,3) E(1,11) E(11,1) E(5,1) E(1,5) E(0,1) E(1,0) E(1,9) E(9,1) E(2,1) E(1,2) E(6,1) E(1,6) E(12,12) E(12,3) E(3,12) E(11,12) E(12,11) E(12,5) E(5,12) E(0,12) E(12,0) E(9,12) E(12,9) E(2,12) E(12,2) E(6,12) E(12,6) E(3,3) E(3,11) E(11,3) E(5,3) E(3,5) E(3,0) E(0,3) E(9,3) E(3,9) E(3,2) E(2,3) E(3,6) E(6,3) E(11,11) E(5,11) E(11,5) E(11,0) E(0,11) E(9,11) E(11,9) E(2,11) E(11,2) E(11,6) E(6,11) E(5,5) E(5,0) E(0,5) E(5,9) E(9,5) E(2,5) E(5,2) E(6,5) E(5,6) E(0,0) E(9,0) E(0,9) E(0,2) E(2,0) E(6,0) E(0,6) E(9,9) E(9,2) E(2,9) E(9,6) E(6,9) E(2,2) E(6,2) E(2,6) E(6,6)
c 1 2 3 4 5 6 7 8 9 10 11 12 13 14 15 16 17 18 19 20 21 22 23 24 25 26 27 28 29 30 31 32 33 34 35 36 37 38 39 40 41 42 43 44 45 46 47 48 49 50 51 52 53 54 55 56 57 58 59 60 61 62 63 64 65 66 67 68 69 70 71 72 73 74 75 76 77 78 79 80 81 82 83 84 85 86 87 88 89 90 91 92 93 94 95 96 97 98 99 100 101 102 103 104 105 106 107 108 109 110 111 112 113 114 115 116 117 118 119 120 121 122 123 124 125 126 127 128 129 130 131 132 133 134 135 136 137 138 139 140 141 142 143 144 145 146 147 148 149 150 151 152 153 154 155 156 157 158 159 160 161 162 163 164 165 166 167 168 169 170 171 172 173 174 175 176 177 178 179 180 181 182 183 184 185 186 187 188 189 190 191 192 193 194 195 196 197 198 199 200 201 202 203 204 205 206 207 208 209 210 211 212 213 214 215 216 217 218 219 220 221 222 223 224 225 226 227 228 229 230 231 232 233 234 235 236 237 238 239 240 241 242 243 244 245 246 247 248 249 250 251 252 253 254 255 256 257 258 259 260 261 262 263 264 265 266 267 268 269 270 271 272 273 274 275 276 277 278 279 280 281 282 283 284 285 286 287 288 289 290 291 292 293 294 295 296 297 298 299 300 301 302 303 304 305 306 307 308 309 310 311 312 313 314 315 316 317 318 319 320 321 322 323 324 325 326 327 328 329 330 331 332 333 334 335 336 337 338 339 340 341 342 343 344 345 346 347 348 349 350 351 352 353 354 355 356 357 358 359 360 361 362 363 364 365 366 367 368 369 370 371 372 373 374 375 376 377 378 379 380 381 382 383 384 385 386 387 388 389 390 391 392 393 394 395 396 397 398 399
p cnf 399 1824
61 60 0
42 40 0
1 2 0
52 53 0
45 47 0
31 30 0
7 6 0
16 17 0
20 21 0
38 36 0
9 11 0
71 69 0
49 50 0
12 15 0
57 56 0
74 72 0
32 35 0
25 27 0
65 67 0
61 -384 0
42 -319 0
1 -3 0
52 -364 0
45 -336 0
31 -256 0
7 -76 0
16 -175 0
20 -204 0
38 -300 0
9 -111 0
71 -396 0
49 -351 0
12 -144 0
57 -375 0
74 -399 0
32 -279 0
25 -231 0
65 -391 0
384 -384 0
328 -329 0
62 -63 0
368 -367 0
343 -344 0
271 -272 0
103 -104 0
197 -196 0
224 -223 0
312 -311 0
136 -137 0
387 -388 0
357 -356 0
168 -167 0
377 -376 0
390 -389 0
292 -293 0
249 -248 0
386 -385 0
329 -328 0
319 -319 0
41 -43 0
324 -325 0
321 -320 0
262 -261 0
94 -93 0
187 -186 0
214 -213 0
302 -301 0
127 -126 0
333 -332 0
323 -322 0
158 -157 0
327 -326 0
335 -334 0
283 -282 0
239 -238 0
330 -331 0
63 -62 0
43 -41 0
3 -3 0
55 -54 0
44 -46 0
29 -28 0
5 -4 0
19 -18 0
22 -23 0
37 -39 0
10 -8 0
68 -70 0
48 -51 0
14 -13 0
59 -58 0
73 -75 0
34 -33 0
24 -26 0
66 -64 0
367 -368 0
325 -324 0
54 -55 0
364 -364 0
339 -340 0
268 -267 0
99 -100 0
193 -192 0
219 -220 0
307 -308 0
132 -133 0
372 -371 0
353 -352 0
164 -163 0
366 -365 0
373 -374 0
289 -288 0
244 -245 0
370 -369 0
344 -343 0
320 -321 0
46 -44 0
340 -339 0
336 -336 0
263 -264 0
95 -96 0
188 -189 0
216 -215 0
304 -303 0
129 -128 0
348 -347 0
337 -338 0
159 -160 0
341 -342 0
350 -349 0
284 -285 0
241 -240 0
346 -345 0
272 -271 0
261 -262 0
28 -29 0
267 -268 0
264 -263 0
256 -256 0
88 -87 0
180 -181 0
207 -208 0
259 -260 0
120 -121 0
276 -275 0
266 -265 0
152 -151 0
269 -270 0
277 -278 0
258 -257 0
233 -232 0
273 -274 0
104 -103 0
93 -94 0
4 -5 0
100 -99 0
96 -95 0
87 -88 0
76 -76 0
81 -82 0
83 -84 0
92 -91 0
78 -77 0
107 -108 0
97 -98 0
79 -80 0
101 -102 0
109 -110 0
90 -89 0
86 -85 0
105 -106 0
196 -197 0
186 -187 0
18 -19 0
192 -193 0
189 -188 0
181 -180 0
82 -81 0
175 -175 0
177 -176 0
185 -184 0
115 -114 0
200 -201 0
190 -191 0
146 -145 0
195 -194 0
202 -203 0
183 -182 0
179 -178 0
199 -198 0
223 -224 0
213 -214 0
23 -22 0
220 -219 0
215 -216 0
208 -207 0
84 -83 0
176 -177 0
204 -204 0
211 -212 0
116 -117 0
228 -227 0
218 -217 0
148 -147 0
222 -221 0
229 -230 0
209 -210 0
205 -206 0
226 -225 0
311 -312 0
301 -302 0
39 -37 0
308 -307 0
303 -304 0
260 -259 0
91 -92 0
184 -185 0
212 -211 0
300 -300 0
125 -124 0
315 -316 0
306 -305 0
155 -156 0
309 -310 0
318 -317 0
281 -280 0
237 -236 0
313 -314 0
137 -136 0
126 -127 0
8 -10 0
133 -132 0
128 -129 0
121 -120 0
77 -78 0
114 -115 0
117 -116 0
124 -125 0
111 -111 0
140 -141 0
130 -131 0
112 -113 0
135 -134 0
143 -142 0
123 -122 0
119 -118 0
138 -139 0
388 -387 0
332 -333 0
70 -68 0
371 -372 0
347 -348 0
275 -276 0
108 -107 0
201 -200 0
227 -228 0
316 -315 0
141 -140 0
396 -396 0
361 -360 0
171 -172 0
380 -381 0
398 -397 0
296 -297 0
253 -252 0
393 -392 0
356 -357 0
322 -323 0
51 -48 0
352 -353 0
338 -337 0
265 -266 0
98 -97 0
191 -190 0
217 -218 0
305 -306 0
131 -130 0
360 -361 0
351 -351 0
161 -162 0
355 -354 0
362 -363 0
287 -286 0
243 -242 0
359 -358 0
167 -168 0
157 -158 0
13 -14 0
163 -164 0
160 -159 0
151 -152 0
80 -79 0
145 -146 0
147 -148 0
156 -155 0
113 -112 0
172 -171 0
162 -161 0
144 -144 0
165 -166 0
173 -174 0
153 -154 0
150 -149 0
169 -170 0
376 -377 0
326 -327 0
58 -59 0
365 -366 0
342 -341 0
270 -269 0
102 -101 0
194 -195 0
221 -222 0
310 -309 0
134 -135 0
381 -380 0
354 -355 0
166 -165 0
375 -375 0
383 -382 0
290 -291 0
246 -247 0
378 -379 0
389 -390 0
334 -335 0
75 -73 0
374 -373 0
349 -350 0
278 -277 0
110 -109 0
203 -202 0
230 -229 0
317 -318 0
142 -143 0
397 -398 0
363 -362 0
174 -173 0
382 -383 0
399 -399 0
298 -299 0
254 -255 0
395 -394 0
293 -292 0
282 -283 0
33 -34 0
288 -289 0
285 -284 0
257 -258 0
89 -90 0
182 -183 0
210 -209 0
280 -281 0
122 -123 0
297 -296 0
286 -287 0
154 -153 0
291 -290 0
299 -298 0
279 -279 0
235 -234 0
294 -295 0
248 -249 0
238 -239 0
26 -24 0
245 -244 0
240 -241 0
232 -233 0
85 -86 0
178 -179 0
206 -205 0
236 -237 0
118 -119 0
252 -253 0
242 -243 0
149 -150 0
247 -246 0
255 -254 0
234 -235 0
231 -231 0
250 -251 0
385 -386 0
331 -330 0
64 -66 0
369 -370 0
345 -346 0
274 -273 0
106 -105 0
198 -199 0
225 -226 0
314 -313 0
139 -138 0
392 -393 0
358 -359 0
170 -169 0
379 -378 0
394 -395 0
295 -294 0
251 -250 0
391 -391 0
60 -384 0
40 -319 0
2 -3 0
53 -364 0
47 -336 0
30 -256 0
6 -76 0
17 -175 0
21 -204 0
36 -300 0
11 -111 0
69 -396 0
50 -351 0
15 -144 0
56 -375 0
72 -399 0
35 -279 0
27 -231 0
67 -391 0
-61 -60 0
-42 -40 0
-1 -2 0
-52 -53 0
-45 -47 0
-31 -30 0
-7 -6 0
-16 -17 0
-20 -21 0
-38 -36 0
-9 -11 0
-71 -69 0
-49 -50 0
-12 -15 0
-57 -56 0
-74 -72 0
-32 -35 0
-25 -27 0
-65 -67 0
61 42 -328 0
61 42 -329 0
61 1 -62 0
61 1 -63 0
61 52 -368 0
61 52 -367 0
61 45 -343 0
61 45 -344 0
61 31 -271 0
61 31 -272 0
61 7 -103 0
61 7 -104 0
61 16 -197 0
61 16 -196 0
61 20 -224 0
61 20 -223 0
61 38 -312 0
61 38 -311 0
61 9 -136 0
61 9 -137 0
61 71 -387 0
61 71 -388 0
61 49 -357 0
61 49 -356 0
61 12 -168 0
61 12 -167 0
61 57 -377 0
61 57 -376 0
61 74 -390 0
61 74 -389 0
61 32 -292 0
61 32 -293 0
61 25 -249 0
61 25 -248 0
61 65 -386 0
61 65 -385 0
61 60 -328 0
61 60 -62 0
61 60 -368 0
61 60 -343 0
61 60 -271 0
61 60 -103 0
61 60 -197 0
61 60 -224 0
61 60 -312 0
61 60 -136 0
61 60 -387 0
61 60 -357 0
61 60 -168 0
61 60 -377 0
61 60 -390 0
61 60 -292 0
61 60 -249 0
61 60 -386 0
61 60 -329 0
61 60 -63 0
61 60 -367 0
61 60 -344 0
61 60 -272 0
61 60 -104 0
61 60 -196 0
61 60 -223 0
61 60 -311 0
61 60 -137 0
61 60 -388 0
61 60 -356 0
61 60 -167 0
61 60 -376 0
61 60 -389 0
61 60 -293 0
61 60 -248 0
61 60 -385 0
42 1 -41 0
42 1 -43 0
42 52 -324 0
42 52 -325 0
42 45 -321 0
42 45 -320 0
42 31 -262 0
42 31 -261 0
42 7 -94 0
42 7 -93 0
42 16 -187 0
42 16 -186 0
42 20 -214 0
42 20 -213 0
42 38 -302 0
42 38 -301 0
42 9 -127 0
42 9 -126 0
42 71 -333 0
42 71 -332 0
42 49 -323 0
42 49 -322 0
42 12 -158 0
42 12 -157 0
42 57 -327 0
42 57 -326 0
42 74 -335 0
42 74 -334 0
42 32 -283 0
42 32 -282 0
42 25 -239 0
42 25 -238 0
42 65 -330 0
42 65 -331 0
42 40 -328 0
42 40 -329 0
42 40 -41 0
42 40 -324 0
42 40 -321 0
42 40 -262 0
42 40 -94 0
42 40 -187 0
42 40 -214 0
42 40 -302 0
42 40 -127 0
42 40 -333 0
42 40 -323 0
42 40 -158 0
42 40 -327 0
42 40 -335 0
42 40 -283 0
42 40 -239 0
42 40 -330 0
42 40 -43 0
42 40 -325 0
42 40 -320 0
42 40 -261 0
42 40 -93 0
42 40 -186 0
42 40 -213 0
42 40 -301 0
42 40 -126 0
42 40 -332 0
42 40 -322 0
42 40 -157 0
42 40 -326 0
42 40 -334 0
42 40 -282 0
42 40 -238 0
42 40 -331 0
1 52 -55 0
1 52 -54 0
1 45 -44 0
1 45 -46 0
1 31 -29 0
1 31 -28 0
1 7 -5 0
1 7 -4 0
1 16 -19 0
1 16 -18 0
1 20 -22 0
1 20 -23 0
1 38 -37 0
1 38 -39 0
1 9 -10 0
1 9 -8 0
1 71 -68 0
1 71 -70 0
1 49 -48 0
1 49 -51 0
1 12 -14 0
1 12 -13 0
1 57 -59 0
1 57 -58 0
1 74 -73 0
1 74 -75 0
1 32 -34 0
1 32 -33 0
1 25 -24 0
1 25 -26 0
1 65 -66 0
1 65 -64 0
1 2 -62 0
1 2 -41 0
1 2 -63 0
1 2 -43 0
1 2 -55 0
1 2 -44 0
1 2 -29 0
1 2 -5 0
1 2 -19 0
1 2 -22 0
1 2 -37 0
1 2 -10 0
1 2 -68 0
1 2 -48 0
1 2 -14 0
1 2 -59 0
1 2 -73 0
1 2 -34 0
1 2 -24 0
1 2 -66 0
1 2 -54 0
1 2 -46 0
1 2 -28 0
1 2 -4 0
1 2 -18 0
1 2 -23 0
1 2 -39 0
1 2 -8 0
1 2 -70 0
1 2 -51 0
1 2 -13 0
1 2 -58 0
1 2 -75 0
1 2 -33 0
1 2 -26 0
1 2 -64 0
52 45 -339 0
52 45 -340 0
52 31 -268 0
52 31 -267 0
52 7 -99 0
52 7 -100 0
52 16 -193 0
52 16 -192 0
52 20 -219 0
52 20 -220 0
52 38 -307 0
52 38 -308 0
52 9 -132 0
52 9 -133 0
52 71 -372 0
52 71 -371 0
52 49 -353 0
52 49 -352 0
52 12 -164 0
52 12 -163 0
52 57 -366 0
52 57 -365 0
52 74 -373 0
52 74 -374 0
52 32 -289 0
52 32 -288 0
52 25 -244 0
52 25 -245 0
52 65 -370 0
52 65 -369 0
52 53 -368 0
52 53 -324 0
52 53 -55 0
52 53 -367 0
52 53 -325 0
52 53 -54 0
52 53 -339 0
52 53 -268 0
52 53 -99 0
52 53 -193 0
52 53 -219 0
52 53 -307 0
52 53 -132 0
52 53 -372 0
52 53 -353 0
52 53 -164 0
52 53 -366 0
52 53 -373 0
52 53 -289 0
52 53 -244 0
52 53 -370 0
52 53 -340 0
52 53 -267 0
52 53 -100 0
52 53 -192 0
52 53 -220 0
52 53 -308 0
52 53 -133 0
52 53 -371 0
52 53 -352 0
52 53 -163 0
52 53 -365 0
52 53 -374 0
52 53 -288 0
52 53 -245 0
52 53 -369 0
45 31 -263 0
45 31 -264 0
45 7 -95 0
45 7 -96 0
45 16 -188 0
45 16 -189 0
45 20 -216 0
45 20 -215 0
45 38 -304 0
45 38 -303 0
45 9 -129 0
45 9 -128 0
45 71 -348 0
45 71 -347 0
45 49 -337 0
45 49 -338 0
45 12 -159 0
45 12 -160 0
45 57 -341 0
45 57 -342 0
45 74 -350 0
45 74 -349 0
45 32 -284 0
45 32 -285 0
45 25 -241 0
45 25 -240 0
45 65 -346 0
45 65 -345 0
45 47 -343 0
45 47 -321 0
45 47 -44 0
45 47 -339 0
45 47 -344 0
45 47 -320 0
45 47 -46 0
45 47 -340 0
45 47 -263 0
45 47 -95 0
45 47 -188 0
45 47 -216 0
45 47 -304 0
45 47 -129 0
45 47 -348 0
45 47 -337 0
45 47 -159 0
45 47 -341 0
45 47 -350 0
45 47 -284 0
45 47 -241 0
45 47 -346 0
45 47 -264 0
45 47 -96 0
45 47 -189 0
45 47 -215 0
45 47 -303 0
45 47 -128 0
45 47 -347 0
45 47 -338 0
45 47 -160 0
45 47 -342 0
45 47 -349 0
45 47 -285 0
45 47 -240 0
45 47 -345 0
31 7 -88 0
31 7 -87 0
31 16 -180 0
31 16 -181 0
31 20 -207 0
31 20 -208 0
31 38 -259 0
31 38 -260 0
31 9 -120 0
31 9 -121 0
31 71 -276 0
31 71 -275 0
31 49 -266 0
31 49 -265 0
31 12 -152 0
31 12 -151 0
31 57 -269 0
31 57 -270 0
31 74 -277 0
31 74 -278 0
31 32 -258 0
31 32 -257 0
31 25 -233 0
31 25 -232 0
31 65 -273 0
31 65 -274 0
31 30 -271 0
31 30 -262 0
31 30 -29 0
31 30 -268 0
31 30 -263 0
31 30 -272 0
31 30 -261 0
31 30 -28 0
31 30 -267 0
31 30 -264 0
31 30 -88 0
31 30 -180 0
31 30 -207 0
31 30 -259 0
31 30 -120 0
31 30 -276 0
31 30 -266 0
31 30 -152 0
31 30 -269 0
31 30 -277 0
31 30 -258 0
31 30 -233 0
31 30 -273 0
31 30 -87 0
31 30 -181 0
31 30 -208 0
31 30 -260 0
31 30 -121 0
31 30 -275 0
31 30 -265 0
31 30 -151 0
31 30 -270 0
31 30 -278 0
31 30 -257 0
31 30 -232 0
31 30 -274 0
7 16 -81 0
7 16 -82 0
7 20 -83 0
7 20 -84 0
7 38 -92 0
7 38 -91 0
7 9 -78 0
7 9 -77 0
7 71 -107 0
7 71 -108 0
7 49 -97 0
7 49 -98 0
7 12 -79 0
7 12 -80 0
7 57 -101 0
7 57 -102 0
7 74 -109 0
7 74 -110 0
7 32 -90 0
7 32 -89 0
7 25 -86 0
7 25 -85 0
7 65 -105 0
7 65 -106 0
7 6 -103 0
7 6 -94 0
7 6 -5 0
7 6 -99 0
7 6 -95 0
7 6 -88 0
7 6 -104 0
7 6 -93 0
7 6 -4 0
7 6 -100 0
7 6 -96 0
7 6 -87 0
7 6 -81 0
7 6 -83 0
7 6 -92 0
7 6 -78 0
7 6 -107 0
7 6 -97 0
7 6 -79 0
7 6 -101 0
7 6 -109 0
7 6 -90 0
7 6 -86 0
7 6 -105 0
7 6 -82 0
7 6 -84 0
7 6 -91 0
7 6 -77 0
7 6 -108 0
7 6 -98 0
7 6 -80 0
7 6 -102 0
7 6 -110 0
7 6 -89 0
7 6 -85 0
7 6 -106 0
16 20 -177 0
16 20 -176 0
16 38 -185 0
16 38 -184 0
16 9 -115 0
16 9 -114 0
16 71 -200 0
16 71 -201 0
16 49 -190 0
16 49 -191 0
16 12 -146 0
16 12 -145 0
16 57 -195 0
16 57 -194 0
16 74 -202 0
16 74 -203 0
16 32 -183 0
16 32 -182 0
16 25 -179 0
16 25 -178 0
16 65 -199 0
16 65 -198 0
16 17 -197 0
16 17 -187 0
16 17 -19 0
16 17 -193 0
16 17 -188 0
16 17 -180 0
16 17 -81 0
16 17 -196 0
16 17 -186 0
16 17 -18 0
16 17 -192 0
16 17 -189 0
16 17 -181 0
16 17 -82 0
16 17 -177 0
16 17 -185 0
16 17 -115 0
16 17 -200 0
16 17 -190 0
16 17 -146 0
16 17 -195 0
16 17 -202 0
16 17 -183 0
16 17 -179 0
16 17 -199 0
16 17 -176 0
16 17 -184 0
16 17 -114 0
16 17 -201 0
16 17 -191 0
16 17 -145 0
16 17 -194 0
16 17 -203 0
16 17 -182 0
16 17 -178 0
16 17 -198 0
20 38 -211 0
20 38 -212 0
20 9 -116 0
20 9 -117 0
20 71 -228 0
20 71 -227 0
20 49 -218 0
20 49 -217 0
20 12 -148 0
20 12 -147 0
20 57 -222 0
20 57 -221 0
20 74 -229 0
20 74 -230 0
20 32 -209 0
20 32 -210 0
20 25 -205 0
20 25 -206 0
20 65 -226 0
20 65 -225 0
20 21 -224 0
20 21 -214 0
20 21 -22 0
20 21 -219 0
20 21 -216 0
20 21 -207 0
20 21 -83 0
20 21 -177 0
20 21 -223 0
20 21 -213 0
20 21 -23 0
20 21 -220 0
20 21 -215 0
20 21 -208 0
20 21 -84 0
20 21 -176 0
20 21 -211 0
20 21 -116 0
20 21 -228 0
20 21 -218 0
20 21 -148 0
20 21 -222 0
20 21 -229 0
20 21 -209 0
20 21 -205 0
20 21 -226 0
20 21 -212 0
20 21 -117 0
20 21 -227 0
20 21 -217 0
20 21 -147 0
20 21 -221 0
20 21 -230 0
20 21 -210 0
20 21 -206 0
20 21 -225 0
38 9 -125 0
38 9 -124 0
38 71 -315 0
38 71 -316 0
38 49 -306 0
38 49 -305 0
38 12 -155 0
38 12 -156 0
38 57 -309 0
38 57 -310 0
38 74 -318 0
38 74 -317 0
38 32 -281 0
38 32 -280 0
38 25 -237 0
38 25 -236 0
38 65 -313 0
38 65 -314 0
38 36 -312 0
38 36 -302 0
38 36 -37 0
38 36 -307 0
38 36 -304 0
38 36 -259 0
38 36 -92 0
38 36 -185 0
38 36 -211 0
38 36 -311 0
38 36 -301 0
38 36 -39 0
38 36 -308 0
38 36 -303 0
38 36 -260 0
38 36 -91 0
38 36 -184 0
38 36 -212 0
38 36 -125 0
38 36 -315 0
38 36 -306 0
38 36 -155 0
38 36 -309 0
38 36 -318 0
38 36 -281 0
38 36 -237 0
38 36 -313 0
38 36 -124 0
38 36 -316 0
38 36 -305 0
38 36 -156 0
38 36 -310 0
38 36 -317 0
38 36 -280 0
38 36 -236 0
38 36 -314 0
9 71 -140 0
9 71 -141 0
9 49 -130 0
9 49 -131 0
9 12 -112 0
9 12 -113 0
9 57 -135 0
9 57 -134 0
9 74 -143 0
9 74 -142 0
9 32 -123 0
9 32 -122 0
9 25 -119 0
9 25 -118 0
9 65 -138 0
9 65 -139 0
9 11 -136 0
9 11 -127 0
9 11 -10 0
9 11 -132 0
9 11 -129 0
9 11 -120 0
9 11 -78 0
9 11 -115 0
9 11 -116 0
9 11 -125 0
9 11 -137 0
9 11 -126 0
9 11 -8 0
9 11 -133 0
9 11 -128 0
9 11 -121 0
9 11 -77 0
9 11 -114 0
9 11 -117 0
9 11 -124 0
9 11 -140 0
9 11 -130 0
9 11 -112 0
9 11 -135 0
9 11 -143 0
9 11 -123 0
9 11 -119 0
9 11 -138 0
9 11 -141 0
9 11 -131 0
9 11 -113 0
9 11 -134 0
9 11 -142 0
9 11 -122 0
9 11 -118 0
9 11 -139 0
71 49 -361 0
71 49 -360 0
71 12 -171 0
71 12 -172 0
71 57 -380 0
71 57 -381 0
71 74 -398 0
71 74 -397 0
71 32 -296 0
71 32 -297 0
71 25 -253 0
71 25 -252 0
71 65 -393 0
71 65 -392 0
71 69 -387 0
71 69 -333 0
71 69 -68 0
71 69 -372 0
71 69 -348 0
71 69 -276 0
71 69 -107 0
71 69 -200 0
71 69 -228 0
71 69 -315 0
71 69 -140 0
71 69 -388 0
71 69 -332 0
71 69 -70 0
71 69 -371 0
71 69 -347 0
71 69 -275 0
71 69 -108 0
71 69 -201 0
71 69 -227 0
71 69 -316 0
71 69 -141 0
71 69 -361 0
71 69 -171 0
71 69 -380 0
71 69 -398 0
71 69 -296 0
71 69 -253 0
71 69 -393 0
71 69 -360 0
71 69 -172 0
71 69 -381 0
71 69 -397 0
71 69 -297 0
71 69 -252 0
71 69 -392 0
49 12 -161 0
49 12 -162 0
49 57 -355 0
49 57 -354 0
49 74 -362 0
49 74 -363 0
49 32 -287 0
49 32 -286 0
49 25 -243 0
49 25 -242 0
49 65 -359 0
49 65 -358 0
49 50 -357 0
49 50 -323 0
49 50 -48 0
49 50 -353 0
49 50 -337 0
49 50 -266 0
49 50 -97 0
49 50 -190 0
49 50 -218 0
49 50 -306 0
49 50 -130 0
49 50 -361 0
49 50 -356 0
49 50 -322 0
49 50 -51 0
49 50 -352 0
49 50 -338 0
49 50 -265 0
49 50 -98 0
49 50 -191 0
49 50 -217 0
49 50 -305 0
49 50 -131 0
49 50 -360 0
49 50 -161 0
49 50 -355 0
49 50 -362 0
49 50 -287 0
49 50 -243 0
49 50 -359 0
49 50 -162 0
49 50 -354 0
49 50 -363 0
49 50 -286 0
49 50 -242 0
49 50 -358 0
12 57 -165 0
12 57 -166 0
12 74 -173 0
12 74 -174 0
12 32 -153 0
12 32 -154 0
12 25 -150 0
12 25 -149 0
12 65 -169 0
12 65 -170 0
12 15 -168 0
12 15 -158 0
12 15 -14 0
12 15 -164 0
12 15 -159 0
12 15 -152 0
12 15 -79 0
12 15 -146 0
12 15 -148 0
12 15 -155 0
12 15 -112 0
12 15 -171 0
12 15 -161 0
12 15 -167 0
12 15 -157 0
12 15 -13 0
12 15 -163 0
12 15 -160 0
12 15 -151 0
12 15 -80 0
12 15 -145 0
12 15 -147 0
12 15 -156 0
12 15 -113 0
12 15 -172 0
12 15 -162 0
12 15 -165 0
12 15 -173 0
12 15 -153 0
12 15 -150 0
12 15 -169 0
12 15 -166 0
12 15 -174 0
12 15 -154 0
12 15 -149 0
12 15 -170 0
57 74 -383 0
57 74 -382 0
57 32 -290 0
57 32 -291 0
57 25 -246 0
57 25 -247 0
57 65 -378 0
57 65 -379 0
57 56 -377 0
57 56 -327 0
57 56 -59 0
57 56 -366 0
57 56 -341 0
57 56 -269 0
57 56 -101 0
57 56 -195 0
57 56 -222 0
57 56 -309 0
57 56 -135 0
57 56 -380 0
57 56 -355 0
57 56 -165 0
57 56 -376 0
57 56 -326 0
57 56 -58 0
57 56 -365 0
57 56 -342 0
57 56 -270 0
57 56 -102 0
57 56 -194 0
57 56 -221 0
57 56 -310 0
57 56 -134 0
57 56 -381 0
57 56 -354 0
57 56 -166 0
57 56 -383 0
57 56 -290 0
57 56 -246 0
57 56 -378 0
57 56 -382 0
57 56 -291 0
57 56 -247 0
57 56 -379 0
74 32 -298 0
74 32 -299 0
74 25 -254 0
74 25 -255 0
74 65 -395 0
74 65 -394 0
74 72 -390 0
74 72 -335 0
74 72 -73 0
74 72 -373 0
74 72 -350 0
74 72 -277 0
74 72 -109 0
74 72 -202 0
74 72 -229 0
74 72 -318 0
74 72 -143 0
74 72 -398 0
74 72 -362 0
74 72 -173 0
74 72 -383 0
74 72 -389 0
74 72 -334 0
74 72 -75 0
74 72 -374 0
74 72 -349 0
74 72 -278 0
74 72 -110 0
74 72 -203 0
74 72 -230 0
74 72 -317 0
74 72 -142 0
74 72 -397 0
74 72 -363 0
74 72 -174 0
74 72 -382 0
74 72 -298 0
74 72 -254 0
74 72 -395 0
74 72 -299 0
74 72 -255 0
74 72 -394 0
32 25 -235 0
32 25 -234 0
32 65 -294 0
32 65 -295 0
32 35 -292 0
32 35 -283 0
32 35 -34 0
32 35 -289 0
32 35 -284 0
32 35 -258 0
32 35 -90 0
32 35 -183 0
32 35 -209 0
32 35 -281 0
32 35 -123 0
32 35 -296 0
32 35 -287 0
32 35 -153 0
32 35 -290 0
32 35 -298 0
32 35 -293 0
32 35 -282 0
32 35 -33 0
32 35 -288 0
32 35 -285 0
32 35 -257 0
32 35 -89 0
32 35 -182 0
32 35 -210 0
32 35 -280 0
32 35 -122 0
32 35 -297 0
32 35 -286 0
32 35 -154 0
32 35 -291 0
32 35 -299 0
32 35 -235 0
32 35 -294 0
32 35 -234 0
32 35 -295 0
25 65 -250 0
25 65 -251 0
25 27 -249 0
25 27 -239 0
25 27 -24 0
25 27 -244 0
25 27 -241 0
25 27 -233 0
25 27 -86 0
25 27 -179 0
25 27 -205 0
25 27 -237 0
25 27 -119 0
25 27 -253 0
25 27 -243 0
25 27 -150 0
25 27 -246 0
25 27 -254 0
25 27 -235 0
25 27 -248 0
25 27 -238 0
25 27 -26 0
25 27 -245 0
25 27 -240 0
25 27 -232 0
25 27 -85 0
25 27 -178 0
25 27 -206 0
25 27 -236 0
25 27 -118 0
25 27 -252 0
25 27 -242 0
25 27 -149 0
25 27 -247 0
25 27 -255 0
25 27 -234 0
25 27 -250 0
25 27 -251 0
65 67 -386 0
65 67 -330 0
65 67 -66 0
65 67 -370 0
65 67 -346 0
65 67 -273 0
65 67 -105 0
65 67 -199 0
65 67 -226 0
65 67 -313 0
65 67 -138 0
65 67 -393 0
65 67 -359 0
65 67 -169 0
65 67 -378 0
65 67 -395 0
65 67 -294 0
65 67 -250 0
65 67 -385 0
65 67 -331 0
65 67 -64 0
65 67 -369 0
65 67 -345 0
65 67 -274 0
65 67 -106 0
65 67 -198 0
65 67 -225 0
65 67 -314 0
65 67 -139 0
65 67 -392 0
65 67 -358 0
65 67 -170 0
65 67 -379 0
65 67 -394 0
65 67 -295 0
65 67 -251 0
60 40 -328 0
60 40 -329 0
60 2 -62 0
60 2 -63 0
60 53 -368 0
60 53 -367 0
60 47 -343 0
60 47 -344 0
60 30 -271 0
60 30 -272 0
60 6 -103 0
60 6 -104 0
60 17 -197 0
60 17 -196 0
60 21 -224 0
60 21 -223 0
60 36 -312 0
60 36 -311 0
60 11 -136 0
60 11 -137 0
60 69 -387 0
60 69 -388 0
60 50 -357 0
60 50 -356 0
60 15 -168 0
60 15 -167 0
60 56 -377 0
60 56 -376 0
60 72 -390 0
60 72 -389 0
60 35 -292 0
60 35 -293 0
60 27 -249 0
60 27 -248 0
60 67 -386 0
60 67 -385 0
40 2 -41 0
40 2 -43 0
40 53 -324 0
40 53 -325 0
40 47 -321 0
40 47 -320 0
40 30 -262 0
40 30 -261 0
40 6 -94 0
40 6 -93 0
40 17 -187 0
40 17 -186 0
40 21 -214 0
40 21 -213 0
40 36 -302 0
40 36 -301 0
40 11 -127 0
40 11 -126 0
40 69 -333 0
40 69 -332 0
40 50 -323 0
40 50 -322 0
40 15 -158 0
40 15 -157 0
40 56 -327 0
40 56 -326 0
40 72 -335 0
40 72 -334 0
40 35 -283 0
40 35 -282 0
40 27 -239 0
40 27 -238 0
40 67 -330 0
40 67 -331 0
2 53 -55 0
2 53 -54 0
2 47 -44 0
2 47 -46 0
2 30 -29 0
2 30 -28 0
2 6 -5 0
2 6 -4 0
2 17 -19 0
2 17 -18 0
2 21 -22 0
2 21 -23 0
2 36 -37 0
2 36 -39 0
2 11 -10 0
2 11 -8 0
2 69 -68 0
2 69 -70 0
2 50 -48 0
2 50 -51 0
2 15 -14 0
2 15 -13 0
2 56 -59 0
2 56 -58 0
2 72 -73 0
2 72 -75 0
2 35 -34 0
2 35 -33 0
2 27 -24 0
2 27 -26 0
2 67 -66 0
2 67 -64 0
53 47 -339 0
53 47 -340 0
53 30 -268 0
53 30 -267 0
53 6 -99 0
53 6 -100 0
53 17 -193 0
53 17 -192 0
53 21 -219 0
53 21 -220 0
53 36 -307 0
53 36 -308 0
53 11 -132 0
53 11 -133 0
53 69 -372 0
53 69 -371 0
53 50 -353 0
53 50 -352 0
53 15 -164 0
53 15 -163 0
53 56 -366 0
53 56 -365 0
53 72 -373 0
53 72 -374 0
53 35 -289 0
53 35 -288 0
53 27 -244 0
53 27 -245 0
53 67 -370 0
53 67 -369 0
47 30 -263 0
47 30 -264 0
47 6 -95 0
47 6 -96 0
47 17 -188 0
47 17 -189 0
47 21 -216 0
47 21 -215 0
47 36 -304 0
47 36 -303 0
47 11 -129 0
47 11 -128 0
47 69 -348 0
47 69 -347 0
47 50 -337 0
47 50 -338 0
47 15 -159 0
47 15 -160 0
47 56 -341 0
47 56 -342 0
47 72 -350 0
47 72 -349 0
47 35 -284 0
47 35 -285 0
47 27 -241 0
47 27 -240 0
47 67 -346 0
47 67 -345 0
30 6 -88 0
30 6 -87 0
30 17 -180 0
30 17 -181 0
30 21 -207 0
30 21 -208 0
30 36 -259 0
30 36 -260 0
30 11 -120 0
30 11 -121 0
30 69 -276 0
30 69 -275 0
30 50 -266 0
30 50 -265 0
30 15 -152 0
30 15 -151 0
30 56 -269 0
30 56 -270 0
30 72 -277 0
30 72 -278 0
30 35 -258 0
30 35 -257 0
30 27 -233 0
30 27 -232 0
30 67 -273 0
30 67 -274 0
6 17 -81 0
6 17 -82 0
6 21 -83 0
6 21 -84 0
6 36 -92 0
6 36 -91 0
6 11 -78 0
6 11 -77 0
6 69 -107 0
6 69 -108 0
6 50 -97 0
6 50 -98 0
6 15 -79 0
6 15 -80 0
6 56 -101 0
6 56 -102 0
6 72 -109 0
6 72 -110 0
6 35 -90 0
6 35 -89 0
6 27 -86 0
6 27 -85 0
6 67 -105 0
6 67 -106 0
17 21 -177 0
17 21 -176 0
17 36 -185 0
17 36 -184 0
17 11 -115 0
17 11 -114 0
17 69 -200 0
17 69 -201 0
17 50 -190 0
17 50 -191 0
17 15 -146 0
17 15 -145 0
17 56 -195 0
17 56 -194 0
17 72 -202 0
17 72 -203 0
17 35 -183 0
17 35 -182 0
17 27 -179 0
17 27 -178 0
17 67 -199 0
17 67 -198 0
21 36 -211 0
21 36 -212 0
21 11 -116 0
21 11 -117 0
21 69 -228 0
21 69 -227 0
21 50 -218 0
21 50 -217 0
21 15 -148 0
21 15 -147 0
21 56 -222 0
21 56 -221 0
21 72 -229 0
21 72 -230 0
21 35 -209 0
21 35 -210 0
21 27 -205 0
21 27 -206 0
21 67 -226 0
21 67 -225 0
36 11 -125 0
36 11 -124 0
36 69 -315 0
36 69 -316 0
36 50 -306 0
36 50 -305 0
36 15 -155 0
36 15 -156 0
36 56 -309 0
36 56 -310 0
36 72 -318 0
36 72 -317 0
36 35 -281 0
36 35 -280 0
36 27 -237 0
36 27 -236 0
36 67 -313 0
36 67 -314 0
11 69 -140 0
11 69 -141 0
11 50 -130 0
11 50 -131 0
11 15 -112 0
11 15 -113 0
11 56 -135 0
11 56 -134 0
11 72 -143 0
11 72 -142 0
11 35 -123 0
11 35 -122 0
11 27 -119 0
11 27 -118 0
11 67 -138 0
11 67 -139 0
69 50 -361 0
69 50 -360 0
69 15 -171 0
69 15 -172 0
69 56 -380 0
69 56 -381 0
69 72 -398 0
69 72 -397 0
69 35 -296 0
69 35 -297 0
69 27 -253 0
69 27 -252 0
69 67 -393 0
69 67 -392 0
50 15 -161 0
50 15 -162 0
50 56 -355 0
50 56 -354 0
50 72 -362 0
50 72 -363 0
50 35 -287 0
50 35 -286 0
50 27 -243 0
50 27 -242 0
50 67 -359 0
50 67 -358 0
15 56 -165 0
15 56 -166 0
15 72 -173 0
15 72 -174 0
15 35 -153 0
15 35 -154 0
15 27 -150 0
15 27 -149 0
15 67 -169 0
15 67 -170 0
56 72 -383 0
56 72 -382 0
56 35 -290 0
56 35 -291 0
56 27 -246 0
56 27 -247 0
56 67 -378 0
56 67 -379 0
72 35 -298 0
72 35 -299 0
72 27 -254 0
72 27 -255 0
72 67 -395 0
72 67 -394 0
35 27 -235 0
35 27 -234 0
35 67 -294 0
35 67 -295 0
27 67 -250 0
27 67 -251 0
384 328 62 368 343 271 103 197 224 312 136 387 357 168 377 390 292 249 386 0
329 319 41 324 321 262 94 187 214 302 127 333 323 158 327 335 283 239 330 0
63 43 3 55 44 29 5 19 22 37 10 68 48 14 59 73 34 24 66 0
367 325 54 364 339 268 99 193 219 307 132 372 353 164 366 373 289 244 370 0
344 320 46 340 336 263 95 188 216 304 129 348 337 159 341 350 284 241 346 0
272 261 28 267 264 256 88 180 207 259 120 276 266 152 269 277 258 233 273 0
104 93 4 100 96 87 76 81 83 92 78 107 97 79 101 109 90 86 105 0
196 186 18 192 189 181 82 175 177 185 115 200 190 146 195 202 183 179 199 0
223 213 23 220 215 208 84 176 204 211 116 228 218 148 222 229 209 205 226 0
311 301 39 308 303 260 91 184 212 300 125 315 306 155 309 318 281 237 313 0
137 126 8 133 128 121 77 114 117 124 111 140 130 112 135 143 123 119 138 0
388 332 70 371 347 275 108 201 227 316 141 396 361 171 380 398 296 253 393 0
356 322 51 352 338 265 98 191 217 305 131 360 351 161 355 362 287 243 359 0
167 157 13 163 160 151 80 145 147 156 113 172 162 144 165 173 153 150 169 0
376 326 58 365 342 270 102 194 221 310 134 381 354 166 375 383 290 246 378 0
389 334 75 374 349 278 110 203 230 317 142 397 363 174 382 399 298 254 395 0
293 282 33 288 285 257 89 182 210 280 122 297 286 154 291 299 279 235 294 0
248 238 26 245 240 232 85 178 206 236 118 252 242 149 247 255 234 231 250 0
385 331 64 369 345 274 106 198 225 314 139 392 358 170 379 394 295 251 391 0
