c R(0) B(0) E(0,0) E(2,0) E(0,2) R(2) B(2) R(3) B(3) E(3,0) E(0,3) R(1) B(1) E(1,0) E(0,1) E(2,2) E(3,2) E(2,3) E(1,2) E(2,1) E(3,3) E(3,1) E(1,3) E(1,1)
c 1 2 3 4 5 6 7 8 9 10 11 12 13 14 15 16 17 18 19 20 21 22 23 24
p cnf 24 40
-3 0
-24 0
-16 0
-21 0
2 1 0
13 12 0
7 6 0
9 8 0
15 -14 0
5 -4 0
11 -10 0
14 -15 0
19 -20 0
23 -22 0
4 -5 0
20 -19 0
18 -17 0
10 -11 0
22 -23 0
17 -18 0
-2 -1 0
-13 -12 0
-7 -6 0
-9 -8 0
2 13 -14 0
2 7 -4 0
2 9 -10 0
13 7 -20 0
13 9 -22 0
7 9 -17 0
1 12 -14 0
1 6 -4 0
1 8 -10 0
12 6 -20 0
12 8 -22 0
6 8 -17 0
3 15 5 11 0
14 24 19 23 0
4 20 16 18 0
10 22 17 21 0
