c E(4,4) R(4) B(4) B(1) E(1,4) R(1) E(4,1) E(2,4) B(2) R(2) E(4,2) E(3,4) E(4,3) B(3) R(3) E(4,0) E(0,4) B(0) R(0) E(1,1) E(2,1) E(1,2) E(1,3) E(3,1) E(1,0) E(0,1) E(2,2) E(2,3) E(3,2) E(2,0) E(0,2) E(3,3) E(3,0) E(0,3) E(0,0)
c 1 2 3 4 5 6 7 8 9 10 11 12 13 14 15 16 17 18 19 20 21 22 23 24 25 26 27 28 29 30 31 32 33 34 35
p cnf 35 60
-35 0
-20 0
-27 0
-32 0
-1 0
18 19 0
4 6 0
9 10 0
14 15 0
3 2 0
26 -25 0
31 -30 0
34 -33 0
17 -16 0
25 -26 0
22 -21 0
23 -24 0
5 -7 0
30 -31 0
21 -22 0
28 -29 0
8 -11 0
33 -34 0
24 -23 0
29 -28 0
12 -13 0
16 -17 0
7 -5 0
11 -8 0
13 -12 0
-18 -19 0
-4 -6 0
-9 -10 0
-14 -15 0
-3 -2 0
18 4 -25 0
18 9 -30 0
18 14 -33 0
18 3 -16 0
4 9 -21 0
4 14 -24 0
4 3 -7 0
9 14 -29 0
9 3 -11 0
14 3 -13 0
19 6 -25 0
19 10 -30 0
19 15 -33 0
19 2 -16 0
6 10 -21 0
6 15 -24 0
6 2 -7 0
10 15 -29 0
10 2 -11 0
15 2 -13 0
35 26 31 34 17 0
25 20 22 23 5 0
30 21 27 28 8 0
33 24 29 32 12 0
16 7 11 13 1 0
