c R(3) E(3,3) B(3) E(3,2) R(2) B(2) E(2,3) R(5) E(5,3) B(5) E(3,5) E(3,1) E(1,3) R(1) B(1) E(4,3) B(4) R(4) E(3,4) B(0) E(3,0) E(0,3) R(0) E(2,2) E(5,2) E(2,5) E(1,2) E(2,1) E(4,2) E(2,4) E(2,0) E(0,2) E(5,5) E(1,5) E(5,1) E(5,4) E(4,5) E(5,0) E(0,5) E(1,1) E(1,4) E(4,1) E(0,1) E(1,0) E(4,4) E(0,4) E(4,0) E(0,0)
c 1 2 3 4 5 6 7 8 9 10 11 12 13 14 15 16 17 18 19 20 21 22 23 24 25 26 27 28 29 30 31 32 33 34 35 36 37 38 39 40 41 42 43 44 45 46 47 48
p cnf 48 84
-48 0
-40 0
-24 0
-2 0
-45 0
-33 0
20 23 0
15 14 0
6 5 0
3 1 0
17 18 0
10 8 0
43 -44 0
32 -31 0
22 -21 0
46 -47 0
39 -38 0
44 -43 0
27 -28 0
13 -12 0
41 -42 0
34 -35 0
31 -32 0
28 -27 0
7 -4 0
30 -29 0
26 -25 0
21 -22 0
12 -13 0
4 -7 0
19 -16 0
11 -9 0
47 -46 0
42 -41 0
29 -30 0
16 -19 0
37 -36 0
38 -39 0
35 -34 0
25 -26 0
9 -11 0
36 -37 0
-20 -23 0
-15 -14 0
-6 -5 0
-3 -1 0
-17 -18 0
-10 -8 0
20 15 -44 0
20 6 -31 0
20 3 -21 0
20 17 -47 0
20 10 -38 0
15 6 -28 0
15 3 -12 0
15 17 -42 0
15 10 -35 0
6 3 -4 0
6 17 -29 0
6 10 -25 0
3 17 -16 0
3 10 -9 0
17 10 -36 0
23 14 -44 0
23 5 -31 0
23 1 -21 0
23 18 -47 0
23 8 -38 0
14 5 -28 0
14 1 -12 0
14 18 -42 0
14 8 -35 0
5 1 -4 0
5 18 -29 0
5 8 -25 0
1 18 -16 0
1 8 -9 0
18 8 -36 0
48 43 32 22 46 39 0
44 40 27 13 41 34 0
31 28 24 7 30 26 0
21 12 4 2 19 11 0
47 42 29 16 45 37 0
38 35 25 9 36 33 0
