c B(2) E(2,2) R(2) E(2,0) B(0) E(0,2) R(0) E(6,2) B(6) R(6) E(2,6) R(4) E(2,4) B(4) E(4,2) E(1,2) R(1) B(1) E(2,1) R(3) B(3) E(2,3) E(3,2) R(5) E(5,2) B(5) E(2,5) E(0,0) E(6,0) E(0,6) E(4,0) E(0,4) E(1,0) E(0,1) E(0,3) E(3,0) E(0,5) E(5,0) E(6,6) E(6,4) E(4,6) E(6,1) E(1,6) E(3,6) E(6,3) E(5,6) E(6,5) E(4,4) E(1,4) E(4,1) E(4,3) E(3,4) E(4,5) E(5,4) E(1,1) E(3,1) E(1,3) E(5,1) E(1,5) E(3,3) E(3,5) E(5,3) E(5,5)
c 1 2 3 4 5 6 7 8 9 10 11 12 13 14 15 16 17 18 19 20 21 22 23 24 25 26 27 28 29 30 31 32 33 34 35 36 37 38 39 40 41 42 43 44 45 46 47 48 49 50 51 52 53 54 55 56 57 58 59 60 61 62 63
p cnf 63 112
-28 0
-55 0
-2 0
-60 0
-48 0
-63 0
-39 0
5 7 0
18 17 0
1 3 0
21 20 0
14 12 0
26 24 0
9 10 0
34 -33 0
6 -4 0
35 -36 0
32 -31 0
37 -38 0
30 -29 0
33 -34 0
16 -19 0
57 -56 0
49 -50 0
59 -58 0
43 -42 0
4 -6 0
19 -16 0
22 -23 0
13 -15 0
27 -25 0
11 -8 0
36 -35 0
56 -57 0
23 -22 0
52 -51 0
61 -62 0
44 -45 0
31 -32 0
50 -49 0
15 -13 0
51 -52 0
53 -54 0
41 -40 0
38 -37 0
58 -59 0
25 -27 0
62 -61 0
54 -53 0
46 -47 0
29 -30 0
42 -43 0
8 -11 0
45 -44 0
40 -41 0
47 -46 0
-5 -7 0
-18 -17 0
-1 -3 0
-21 -20 0
-14 -12 0
-26 -24 0
-9 -10 0
5 18 -33 0
5 1 -4 0
5 21 -36 0
5 14 -31 0
5 26 -38 0
5 9 -29 0
18 1 -19 0
18 21 -56 0
18 14 -50 0
18 26 -58 0
18 9 -42 0
1 21 -23 0
1 14 -15 0
1 26 -25 0
1 9 -8 0
21 14 -51 0
21 26 -62 0
21 9 -45 0
14 26 -54 0
14 9 -40 0
26 9 -47 0
7 17 -33 0
7 3 -4 0
7 20 -36 0
7 12 -31 0
7 24 -38 0
7 10 -29 0
17 3 -19 0
17 20 -56 0
17 12 -50 0
17 24 -58 0
17 10 -42 0
3 20 -23 0
3 12 -15 0
3 24 -25 0
3 10 -8 0
20 12 -51 0
20 24 -62 0
20 10 -45 0
12 24 -54 0
12 10 -40 0
24 10 -47 0
28 34 6 35 32 37 30 0
33 55 16 57 49 59 43 0
4 19 2 22 13 27 11 0
36 56 23 60 52 61 44 0
31 50 15 51 48 53 41 0
38 58 25 62 54 63 46 0
29 42 8 45 40 47 39 0
