c B(0) E(0,0) R(0) B(2) R(2) E(2,0) E(0,2) R(3) E(3,0) B(3) E(0,3) R(5) B(5) E(0,5) E(5,0) E(0,7) E(7,0) R(7) B(7) B(4) E(4,0) R(4) E(0,4) R(6) E(0,6) E(6,0) B(6) R(1) E(1,0) E(0,1) B(1) E(2,2) E(2,3) E(3,2) E(5,2) E(2,5) E(2,7) E(7,2) E(4,2) E(2,4) E(2,6) E(6,2) E(1,2) E(2,1) E(3,3) E(3,5) E(5,3) E(7,3) E(3,7) E(4,3) E(3,4) E(3,6) E(6,3) E(3,1) E(1,3) E(5,5) E(5,7) E(7,5) E(4,5) E(5,4) E(5,6) E(6,5) E(5,1) E(1,5) E(7,7) E(4,7) E(7,4) E(6,7) E(7,6) E(7,1) E(1,7) E(4,4) E(4,6) E(6,4) E(4,1) E(1,4) E(6,6) E(6,1) E(1,6) E(1,1)
c 1 2 3 4 5 6 7 8 9 10 11 12 13 14 15 16 17 18 19 20 21 22 23 24 25 26 27 28 29 30 31 32 33 34 35 36 37 38 39 40 41 42 43 44 45 46 47 48 49 50 51 52 53 54 55 56 57 58 59 60 61 62 63 64 65 66 67 68 69 70 71 72 73 74 75 76 77 78 79 80
p cnf 80 328
1 3 0
31 28 0
4 5 0
10 8 0
20 22 0
13 12 0
27 24 0
19 18 0
1 -2 0
31 -80 0
4 -32 0
10 -45 0
20 -72 0
13 -56 0
27 -77 0
19 -65 0
2 -2 0
30 -29 0
7 -6 0
11 -9 0
23 -21 0
14 -15 0
25 -26 0
16 -17 0
29 -30 0
80 -80 0
43 -44 0
55 -54 0
76 -75 0
64 -63 0
79 -78 0
71 -70 0
6 -7 0
44 -43 0
32 -32 0
33 -34 0
40 -39 0
36 -35 0
41 -42 0
37 -38 0
9 -11 0
54 -55 0
34 -33 0
45 -45 0
51 -50 0
46 -47 0
52 -53 0
49 -48 0
21 -23 0
75 -76 0
39 -40 0
50 -51 0
72 -72 0
59 -60 0
73 -74 0
66 -67 0
15 -14 0
63 -64 0
35 -36 0
47 -46 0
60 -59 0
56 -56 0
61 -62 0
57 -58 0
26 -25 0
78 -79 0
42 -41 0
53 -52 0
74 -73 0
62 -61 0
77 -77 0
68 -69 0
17 -16 0
70 -71 0
38 -37 0
48 -49 0
67 -66 0
58 -57 0
69 -68 0
65 -65 0
3 -2 0
28 -80 0
5 -32 0
8 -45 0
22 -72 0
12 -56 0
24 -77 0
18 -65 0
-1 -3 0
-31 -28 0
-4 -5 0
-10 -8 0
-20 -22 0
-13 -12 0
-27 -24 0
-19 -18 0
1 31 -30 0
1 31 -29 0
1 4 -7 0
1 4 -6 0
1 10 -11 0
1 10 -9 0
1 20 -23 0
1 20 -21 0
1 13 -14 0
1 13 -15 0
1 27 -25 0
1 27 -26 0
1 19 -16 0
1 19 -17 0
1 3 -30 0
1 3 -7 0
1 3 -11 0
1 3 -23 0
1 3 -14 0
1 3 -25 0
1 3 -16 0
1 3 -29 0
1 3 -6 0
1 3 -9 0
1 3 -21 0
1 3 -15 0
1 3 -26 0
1 3 -17 0
31 4 -43 0
31 4 -44 0
31 10 -55 0
31 10 -54 0
31 20 -76 0
31 20 -75 0
31 13 -64 0
31 13 -63 0
31 27 -79 0
31 27 -78 0
31 19 -71 0
31 19 -70 0
31 28 -30 0
31 28 -29 0
31 28 -43 0
31 28 -55 0
31 28 -76 0
31 28 -64 0
31 28 -79 0
31 28 -71 0
31 28 -44 0
31 28 -54 0
31 28 -75 0
31 28 -63 0
31 28 -78 0
31 28 -70 0
4 10 -33 0
4 10 -34 0
4 20 -40 0
4 20 -39 0
4 13 -36 0
4 13 -35 0
4 27 -41 0
4 27 -42 0
4 19 -37 0
4 19 -38 0
4 5 -7 0
4 5 -43 0
4 5 -6 0
4 5 -44 0
4 5 -33 0
4 5 -40 0
4 5 -36 0
4 5 -41 0
4 5 -37 0
4 5 -34 0
4 5 -39 0
4 5 -35 0
4 5 -42 0
4 5 -38 0
10 20 -51 0
10 20 -50 0
10 13 -46 0
10 13 -47 0
10 27 -52 0
10 27 -53 0
10 19 -49 0
10 19 -48 0
10 8 -11 0
10 8 -55 0
10 8 -33 0
10 8 -9 0
10 8 -54 0
10 8 -34 0
10 8 -51 0
10 8 -46 0
10 8 -52 0
10 8 -49 0
10 8 -50 0
10 8 -47 0
10 8 -53 0
10 8 -48 0
20 13 -59 0
20 13 -60 0
20 27 -73 0
20 27 -74 0
20 19 -66 0
20 19 -67 0
20 22 -23 0
20 22 -76 0
20 22 -40 0
20 22 -51 0
20 22 -21 0
20 22 -75 0
20 22 -39 0
20 22 -50 0
20 22 -59 0
20 22 -73 0
20 22 -66 0
20 22 -60 0
20 22 -74 0
20 22 -67 0
13 27 -61 0
13 27 -62 0
13 19 -57 0
13 19 -58 0
13 12 -14 0
13 12 -64 0
13 12 -36 0
13 12 -46 0
13 12 -59 0
13 12 -15 0
13 12 -63 0
13 12 -35 0
13 12 -47 0
13 12 -60 0
13 12 -61 0
13 12 -57 0
13 12 -62 0
13 12 -58 0
27 19 -68 0
27 19 -69 0
27 24 -25 0
27 24 -79 0
27 24 -41 0
27 24 -52 0
27 24 -73 0
27 24 -61 0
27 24 -26 0
27 24 -78 0
27 24 -42 0
27 24 -53 0
27 24 -74 0
27 24 -62 0
27 24 -68 0
27 24 -69 0
19 18 -16 0
19 18 -71 0
19 18 -37 0
19 18 -49 0
19 18 -66 0
19 18 -57 0
19 18 -68 0
19 18 -17 0
19 18 -70 0
19 18 -38 0
19 18 -48 0
19 18 -67 0
19 18 -58 0
19 18 -69 0
3 28 -30 0
3 28 -29 0
3 5 -7 0
3 5 -6 0
3 8 -11 0
3 8 -9 0
3 22 -23 0
3 22 -21 0
3 12 -14 0
3 12 -15 0
3 24 -25 0
3 24 -26 0
3 18 -16 0
3 18 -17 0
28 5 -43 0
28 5 -44 0
28 8 -55 0
28 8 -54 0
28 22 -76 0
28 22 -75 0
28 12 -64 0
28 12 -63 0
28 24 -79 0
28 24 -78 0
28 18 -71 0
28 18 -70 0
5 8 -33 0
5 8 -34 0
5 22 -40 0
5 22 -39 0
5 12 -36 0
5 12 -35 0
5 24 -41 0
5 24 -42 0
5 18 -37 0
5 18 -38 0
8 22 -51 0
8 22 -50 0
8 12 -46 0
8 12 -47 0
8 24 -52 0
8 24 -53 0
8 18 -49 0
8 18 -48 0
22 12 -59 0
22 12 -60 0
22 24 -73 0
22 24 -74 0
22 18 -66 0
22 18 -67 0
12 24 -61 0
12 24 -62 0
12 18 -57 0
12 18 -58 0
24 18 -68 0
24 18 -69 0
2 30 7 11 23 14 25 16 0
29 80 43 55 76 64 79 71 0
6 44 32 33 40 36 41 37 0
9 54 34 45 51 46 52 49 0
21 75 39 50 72 59 73 66 0
15 63 35 47 60 56 61 57 0
26 78 42 53 74 62 77 68 0
17 70 38 48 67 58 69 65 0
