c R(1) B(1) E(1,1) E(1,3) E(3,1) B(3) R(3) E(1,0) E(0,1) B(0) R(0) R(5) B(5) E(5,1) E(1,5) R(6) E(6,1) E(1,6) B(6) E(1,7) R(7) E(7,1) B(7) B(8) E(1,8) R(8) E(8,1) R(2) E(2,1) B(2) E(1,2) E(4,1) E(1,4) B(4) R(4) E(3,3) E(3,0) E(0,3) E(5,3) E(3,5) E(3,6) E(6,3) E(3,7) E(7,3) E(8,3) E(3,8) E(2,3) E(3,2) E(4,3) E(3,4) E(0,0) E(5,0) E(0,5) E(6,0) E(0,6) E(0,7) E(7,0) E(0,8) E(8,0) E(2,0) E(0,2) E(4,0) E(0,4) E(5,5) E(5,6) E(6,5) E(5,7) E(7,5) E(8,5) E(5,8) E(2,5) E(5,2) E(5,4) E(4,5) E(6,6) E(7,6) E(6,7) E(8,6) E(6,8) E(2,6) E(6,2) E(6,4) E(4,6) E(7,7) E(7,8) E(8,7) E(7,2) E(2,7) E(4,7) E(7,4) E(8,8) E(2,8) E(8,2) E(8,4) E(4,8) E(2,2) E(2,4) E(4,2) E(4,4)
c 1 2 3 4 5 6 7 8 9 10 11 12 13 14 15 16 17 18 19 20 21 22 23 24 25 26 27 28 29 30 31 32 33 34 35 36 37 38 39 40 41 42 43 44 45 46 47 48 49 50 51 52 53 54 55 56 57 58 59 60 61 62 63 64 65 66 67 68 69 70 71 72 73 74 75 76 77 78 79 80 81 82 83 84 85 86 87 88 89 90 91 92 93 94 95 96 97 98 99
p cnf 99 414
10 11 0
2 1 0
30 28 0
6 7 0
34 35 0
13 12 0
19 16 0
23 21 0
24 26 0
10 -51 0
2 -3 0
30 -96 0
6 -36 0
34 -99 0
13 -64 0
19 -75 0
23 -84 0
24 -91 0
51 -51 0
9 -8 0
61 -60 0
38 -37 0
63 -62 0
53 -52 0
55 -54 0
56 -57 0
58 -59 0
8 -9 0
3 -3 0
31 -29 0
4 -5 0
33 -32 0
15 -14 0
18 -17 0
20 -22 0
25 -27 0
60 -61 0
29 -31 0
96 -96 0
47 -48 0
97 -98 0
71 -72 0
80 -81 0
88 -87 0
92 -93 0
37 -38 0
5 -4 0
48 -47 0
36 -36 0
50 -49 0
40 -39 0
41 -42 0
43 -44 0
46 -45 0
62 -63 0
32 -33 0
98 -97 0
49 -50 0
99 -99 0
74 -73 0
83 -82 0
89 -90 0
95 -94 0
52 -53 0
14 -15 0
72 -71 0
39 -40 0
73 -74 0
64 -64 0
65 -66 0
67 -68 0
70 -69 0
54 -55 0
17 -18 0
81 -80 0
42 -41 0
82 -83 0
66 -65 0
75 -75 0
77 -76 0
79 -78 0
57 -56 0
22 -20 0
87 -88 0
44 -43 0
90 -89 0
68 -67 0
76 -77 0
84 -84 0
85 -86 0
59 -58 0
27 -25 0
93 -92 0
45 -46 0
94 -95 0
69 -70 0
78 -79 0
86 -85 0
91 -91 0
11 -51 0
1 -3 0
28 -96 0
7 -36 0
35 -99 0
12 -64 0
16 -75 0
21 -84 0
26 -91 0
-10 -11 0
-2 -1 0
-30 -28 0
-6 -7 0
-34 -35 0
-13 -12 0
-19 -16 0
-23 -21 0
-24 -26 0
10 2 -9 0
10 2 -8 0
10 30 -61 0
10 30 -60 0
10 6 -38 0
10 6 -37 0
10 34 -63 0
10 34 -62 0
10 13 -53 0
10 13 -52 0
10 19 -55 0
10 19 -54 0
10 23 -56 0
10 23 -57 0
10 24 -58 0
10 24 -59 0
10 11 -9 0
10 11 -61 0
10 11 -38 0
10 11 -63 0
10 11 -53 0
10 11 -55 0
10 11 -56 0
10 11 -58 0
10 11 -8 0
10 11 -60 0
10 11 -37 0
10 11 -62 0
10 11 -52 0
10 11 -54 0
10 11 -57 0
10 11 -59 0
2 30 -31 0
2 30 -29 0
2 6 -4 0
2 6 -5 0
2 34 -33 0
2 34 -32 0
2 13 -15 0
2 13 -14 0
2 19 -18 0
2 19 -17 0
2 23 -20 0
2 23 -22 0
2 24 -25 0
2 24 -27 0
2 1 -9 0
2 1 -8 0
2 1 -31 0
2 1 -4 0
2 1 -33 0
2 1 -15 0
2 1 -18 0
2 1 -20 0
2 1 -25 0
2 1 -29 0
2 1 -5 0
2 1 -32 0
2 1 -14 0
2 1 -17 0
2 1 -22 0
2 1 -27 0
30 6 -47 0
30 6 -48 0
30 34 -97 0
30 34 -98 0
30 13 -71 0
30 13 -72 0
30 19 -80 0
30 19 -81 0
30 23 -88 0
30 23 -87 0
30 24 -92 0
30 24 -93 0
30 28 -61 0
30 28 -31 0
30 28 -60 0
30 28 -29 0
30 28 -47 0
30 28 -97 0
30 28 -71 0
30 28 -80 0
30 28 -88 0
30 28 -92 0
30 28 -48 0
30 28 -98 0
30 28 -72 0
30 28 -81 0
30 28 -87 0
30 28 -93 0
6 34 -50 0
6 34 -49 0
6 13 -40 0
6 13 -39 0
6 19 -41 0
6 19 -42 0
6 23 -43 0
6 23 -44 0
6 24 -46 0
6 24 -45 0
6 7 -38 0
6 7 -4 0
6 7 -47 0
6 7 -37 0
6 7 -5 0
6 7 -48 0
6 7 -50 0
6 7 -40 0
6 7 -41 0
6 7 -43 0
6 7 -46 0
6 7 -49 0
6 7 -39 0
6 7 -42 0
6 7 -44 0
6 7 -45 0
34 13 -74 0
34 13 -73 0
34 19 -83 0
34 19 -82 0
34 23 -89 0
34 23 -90 0
34 24 -95 0
34 24 -94 0
34 35 -63 0
34 35 -33 0
34 35 -97 0
34 35 -50 0
34 35 -62 0
34 35 -32 0
34 35 -98 0
34 35 -49 0
34 35 -74 0
34 35 -83 0
34 35 -89 0
34 35 -95 0
34 35 -73 0
34 35 -82 0
34 35 -90 0
34 35 -94 0
13 19 -65 0
13 19 -66 0
13 23 -67 0
13 23 -68 0
13 24 -70 0
13 24 -69 0
13 12 -53 0
13 12 -15 0
13 12 -71 0
13 12 -40 0
13 12 -74 0
13 12 -52 0
13 12 -14 0
13 12 -72 0
13 12 -39 0
13 12 -73 0
13 12 -65 0
13 12 -67 0
13 12 -70 0
13 12 -66 0
13 12 -68 0
13 12 -69 0
19 23 -77 0
19 23 -76 0
19 24 -79 0
19 24 -78 0
19 16 -55 0
19 16 -18 0
19 16 -80 0
19 16 -41 0
19 16 -83 0
19 16 -65 0
19 16 -54 0
19 16 -17 0
19 16 -81 0
19 16 -42 0
19 16 -82 0
19 16 -66 0
19 16 -77 0
19 16 -79 0
19 16 -76 0
19 16 -78 0
23 24 -85 0
23 24 -86 0
23 21 -56 0
23 21 -20 0
23 21 -88 0
23 21 -43 0
23 21 -89 0
23 21 -67 0
23 21 -77 0
23 21 -57 0
23 21 -22 0
23 21 -87 0
23 21 -44 0
23 21 -90 0
23 21 -68 0
23 21 -76 0
23 21 -85 0
23 21 -86 0
24 26 -58 0
24 26 -25 0
24 26 -92 0
24 26 -46 0
24 26 -95 0
24 26 -70 0
24 26 -79 0
24 26 -85 0
24 26 -59 0
24 26 -27 0
24 26 -93 0
24 26 -45 0
24 26 -94 0
24 26 -69 0
24 26 -78 0
24 26 -86 0
11 1 -9 0
11 1 -8 0
11 28 -61 0
11 28 -60 0
11 7 -38 0
11 7 -37 0
11 35 -63 0
11 35 -62 0
11 12 -53 0
11 12 -52 0
11 16 -55 0
11 16 -54 0
11 21 -56 0
11 21 -57 0
11 26 -58 0
11 26 -59 0
1 28 -31 0
1 28 -29 0
1 7 -4 0
1 7 -5 0
1 35 -33 0
1 35 -32 0
1 12 -15 0
1 12 -14 0
1 16 -18 0
1 16 -17 0
1 21 -20 0
1 21 -22 0
1 26 -25 0
1 26 -27 0
28 7 -47 0
28 7 -48 0
28 35 -97 0
28 35 -98 0
28 12 -71 0
28 12 -72 0
28 16 -80 0
28 16 -81 0
28 21 -88 0
28 21 -87 0
28 26 -92 0
28 26 -93 0
7 35 -50 0
7 35 -49 0
7 12 -40 0
7 12 -39 0
7 16 -41 0
7 16 -42 0
7 21 -43 0
7 21 -44 0
7 26 -46 0
7 26 -45 0
35 12 -74 0
35 12 -73 0
35 16 -83 0
35 16 -82 0
35 21 -89 0
35 21 -90 0
35 26 -95 0
35 26 -94 0
12 16 -65 0
12 16 -66 0
12 21 -67 0
12 21 -68 0
12 26 -70 0
12 26 -69 0
16 21 -77 0
16 21 -76 0
16 26 -79 0
16 26 -78 0
21 26 -85 0
21 26 -86 0
51 9 61 38 63 53 55 56 58 0
8 3 31 4 33 15 18 20 25 0
60 29 96 47 97 71 80 88 92 0
37 5 48 36 50 40 41 43 46 0
62 32 98 49 99 74 83 89 95 0
52 14 72 39 73 64 65 67 70 0
54 17 81 42 82 66 75 77 79 0
57 22 87 44 90 68 76 84 85 0
59 27 93 45 94 69 78 86 91 0
