c U4(1) U2(1) E2(1,1) U1(1) E1(1,1) U3(1) E1(1,5) U1(5) U4(5) E1(5,1) E2(5,1) U3(5) U2(5) E2(1,5) E2(6,1) E1(1,6) U1(6) E2(1,6) U2(6) U4(6) E1(6,1) U3(6) E2(3,1) U1(3) E2(1,3) U2(3) E1(1,3) U4(3) U3(3) E1(3,1) U2(4) U1(4) E1(1,4) E2(1,4) E1(4,1) U4(4) U3(4) E2(4,1) U1(2) U2(2) U4(2) E1(1,2) U3(2) E2(1,2) E1(2,1) E2(2,1) U4(9) E2(1,9) U2(9) E2(9,1) E1(9,1) U3(9) U1(9) E1(1,9) U1(8) E1(1,8) E1(8,1) U2(8) E2(8,1) U4(8) U3(8) E2(1,8) E2(0,1) E2(1,0) E1(1,0) E1(0,1) U2(0) U1(0) U4(0) U3(0) E2(1,7) E1(7,1) E1(1,7) U2(7) E2(7,1) U1(7) U4(7) U3(7) E1(5,5) E2(5,5) E1(5,6) E2(5,6) E1(6,5) E2(6,5) E2(3,5) E1(3,5) E1(5,3) E2(5,3) E1(4,5) E1(5,4) E2(5,4) E2(4,5) E2(5,2) E1(5,2) E2(2,5) E1(2,5) E2(5,9) E1(5,9) E1(9,5) E2(9,5) E1(5,8) E1(8,5) E2(5,8) E2(8,5) E1(0,5) E2(0,5) E2(5,0) E1(5,0) E2(7,5) E1(7,5) E2(5,7) E1(5,7) E2(6,6) E1(6,6) E2(3,6) E1(6,3) E1(3,6) E2(6,3) E2(4,6) E1(4,6) E2(6,4) E1(6,4) E1(6,2) E2(6,2) E1(2,6) E2(2,6) E2(6,9) E1(6,9) E2(9,6) E1(9,6) E1(8,6) E1(6,8) E2(8,6) E2(6,8) E2(0,6) E1(6,0) E2(6,0) E1(0,6) E2(6,7) E2(7,6) E1(7,6) E1(6,7) E2(3,3) E1(3,3) E1(4,3) E2(4,3) E2(3,4) E1(3,4) E2(2,3) E1(2,3) E2(3,2) E1(3,2) E2(3,9) E1(9,3) E2(9,3) E1(3,9) E1(3,8) E2(8,3) E1(8,3) E2(3,8) E2(3,0) E1(3,0) E2(0,3) E1(0,3) E1(7,3) E2(3,7) E1(3,7) E2(7,3) E2(4,4) E1(4,4) E2(4,2) E1(2,4) E1(4,2) E2(2,4) E1(4,9) E2(9,4) E2(4,9) E1(9,4) E1(8,4) E2(8,4) E2(4,8) E1(4,8) E2(4,0) E1(4,0) E2(0,4) E1(0,4) E1(7,4) E1(4,7) E2(4,7) E2(7,4) E1(2,2) E2(2,2) E1(9,2) E2(2,9) E2(9,2) E1(2,9) E1(8,2) E2(2,8) E2(8,2) E1(2,8) E1(2,0) E2(2,0) E1(0,2) E2(0,2) E1(2,7) E2(7,2) E2(2,7) E1(7,2) E2(9,9) E1(9,9) E2(8,9) E2(9,8) E1(9,8) E1(8,9) E1(0,9) E1(9,0) E2(0,9) E2(9,0) E2(7,9) E1(7,9) E1(9,7) E2(9,7) E2(8,8) E1(8,8) E1(0,8) E2(8,0) E1(8,0) E2(0,8) E1(7,8) E2(7,8) E1(8,7) E2(8,7) E2(0,0) E1(0,0) E2(0,7) E2(7,0) E1(7,0) E1(0,7) E1(7,7) E2(7,7)
c 1 2 3 4 5 6 7 8 9 10 11 12 13 14 15 16 17 18 19 20 21 22 23 24 25 26 27 28 29 30 31 32 33 34 35 36 37 38 39 40 41 42 43 44 45 46 47 48 49 50 51 52 53 54 55 56 57 58 59 60 61 62 63 64 65 66 67 68 69 70 71 72 73 74 75 76 77 78 79 80 81 82 83 84 85 86 87 88 89 90 91 92 93 94 95 96 97 98 99 100 101 102 103 104 105 106 107 108 109 110 111 112 113 114 115 116 117 118 119 120 121 122 123 124 125 126 127 128 129 130 131 132 133 134 135 136 137 138 139 140 141 142 143 144 145 146 147 148 149 150 151 152 153 154 155 156 157 158 159 160 161 162 163 164 165 166 167 168 169 170 171 172 173 174 175 176 177 178 179 180 181 182 183 184 185 186 187 188 189 190 191 192 193 194 195 196 197 198 199 200 201 202 203 204 205 206 207 208 209 210 211 212 213 214 215 216 217 218 219 220 221 222 223 224 225 226 227 228 229 230 231 232 233 234 235 236 237 238 239 240
p cnf 240 6490
-68 -67 0
-68 -70 0
-68 -69 0
-4 -2 0
-4 -6 0
-4 -1 0
-39 -40 0
-39 -43 0
-39 -41 0
-24 -26 0
-24 -29 0
-24 -28 0
-32 -31 0
-32 -37 0
-32 -36 0
-8 -13 0
-8 -12 0
-8 -9 0
-17 -19 0
-17 -22 0
-17 -20 0
-76 -74 0
-76 -78 0
-76 -77 0
-55 -58 0
-55 -61 0
-55 -60 0
-53 -49 0
-53 -52 0
-53 -47 0
-67 -70 0
-67 -69 0
-2 -6 0
-2 -1 0
-40 -43 0
-40 -41 0
-26 -29 0
-26 -28 0
-31 -37 0
-31 -36 0
-13 -12 0
-13 -9 0
-19 -22 0
-19 -20 0
-74 -78 0
-74 -77 0
-58 -61 0
-58 -60 0
-49 -52 0
-49 -47 0
-70 -69 0
-6 -1 0
-43 -41 0
-29 -28 0
-37 -36 0
-12 -9 0
-22 -20 0
-78 -77 0
-61 -60 0
-52 -47 0
68 67 70 69 0
4 2 6 1 0
39 40 43 41 0
24 26 29 28 0
32 31 37 36 0
8 13 12 9 0
17 19 22 20 0
76 74 78 77 0
55 58 61 60 0
53 49 52 47 0
68 67 70 -234 0
68 67 70 -233 0
68 67 69 -234 0
68 67 69 -233 0
68 70 69 -234 0
68 70 69 -233 0
4 2 6 -5 0
4 2 6 -3 0
4 2 1 -5 0
4 2 1 -3 0
4 6 1 -5 0
4 6 1 -3 0
39 40 43 -191 0
39 40 43 -192 0
39 40 41 -191 0
39 40 41 -192 0
39 43 41 -191 0
39 43 41 -192 0
24 26 29 -144 0
24 26 29 -143 0
24 26 28 -144 0
24 26 28 -143 0
24 29 28 -144 0
24 29 28 -143 0
32 31 37 -170 0
32 31 37 -169 0
32 31 36 -170 0
32 31 36 -169 0
32 37 36 -170 0
32 37 36 -169 0
8 13 12 -79 0
8 13 12 -80 0
8 13 9 -79 0
8 13 9 -80 0
8 12 9 -79 0
8 12 9 -80 0
17 19 22 -114 0
17 19 22 -113 0
17 19 20 -114 0
17 19 20 -113 0
17 22 20 -114 0
17 22 20 -113 0
76 74 78 -239 0
76 74 78 -240 0
76 74 77 -239 0
76 74 77 -240 0
76 78 77 -239 0
76 78 77 -240 0
55 58 61 -224 0
55 58 61 -223 0
55 58 60 -224 0
55 58 60 -223 0
55 61 60 -224 0
55 61 60 -223 0
53 49 52 -210 0
53 49 52 -209 0
53 49 47 -210 0
53 49 47 -209 0
53 52 47 -210 0
53 52 47 -209 0
67 70 69 -234 0
67 70 69 -233 0
2 6 1 -5 0
2 6 1 -3 0
40 43 41 -191 0
40 43 41 -192 0
26 29 28 -144 0
26 29 28 -143 0
31 37 36 -170 0
31 37 36 -169 0
13 12 9 -79 0
13 12 9 -80 0
19 22 20 -114 0
19 22 20 -113 0
74 78 77 -239 0
74 78 77 -240 0
58 61 60 -224 0
58 61 60 -223 0
49 52 47 -210 0
49 52 47 -209 0
68 67 70 69 -234 0
68 67 70 69 -66 0
68 67 70 69 -203 0
68 67 70 69 -164 0
68 67 70 69 -186 0
68 67 70 69 -105 0
68 67 70 69 -138 0
68 67 70 69 -238 0
68 67 70 69 -225 0
68 67 70 69 -215 0
68 67 70 69 -65 0
68 67 70 69 -201 0
68 67 70 69 -162 0
68 67 70 69 -184 0
68 67 70 69 -108 0
68 67 70 69 -136 0
68 67 70 69 -237 0
68 67 70 69 -227 0
68 67 70 69 -216 0
68 67 70 69 -233 0
68 67 70 69 -63 0
68 67 70 69 -204 0
68 67 70 69 -163 0
68 67 70 69 -185 0
68 67 70 69 -106 0
68 67 70 69 -135 0
68 67 70 69 -235 0
68 67 70 69 -228 0
68 67 70 69 -217 0
68 67 70 69 -64 0
68 67 70 69 -202 0
68 67 70 69 -161 0
68 67 70 69 -183 0
68 67 70 69 -107 0
68 67 70 69 -137 0
68 67 70 69 -236 0
68 67 70 69 -226 0
68 67 70 69 -218 0
4 2 6 1 -66 0
4 2 6 1 -65 0
4 2 6 1 -5 0
4 2 6 1 -42 0
4 2 6 1 -27 0
4 2 6 1 -33 0
4 2 6 1 -7 0
4 2 6 1 -16 0
4 2 6 1 -73 0
4 2 6 1 -56 0
4 2 6 1 -54 0
4 2 6 1 -45 0
4 2 6 1 -30 0
4 2 6 1 -35 0
4 2 6 1 -10 0
4 2 6 1 -21 0
4 2 6 1 -72 0
4 2 6 1 -57 0
4 2 6 1 -51 0
4 2 6 1 -63 0
4 2 6 1 -64 0
4 2 6 1 -3 0
4 2 6 1 -44 0
4 2 6 1 -25 0
4 2 6 1 -34 0
4 2 6 1 -14 0
4 2 6 1 -18 0
4 2 6 1 -71 0
4 2 6 1 -62 0
4 2 6 1 -48 0
4 2 6 1 -46 0
4 2 6 1 -23 0
4 2 6 1 -38 0
4 2 6 1 -11 0
4 2 6 1 -15 0
4 2 6 1 -75 0
4 2 6 1 -59 0
4 2 6 1 -50 0
39 40 43 41 -203 0
39 40 43 41 -42 0
39 40 43 41 -201 0
39 40 43 41 -45 0
39 40 43 41 -191 0
39 40 43 41 -150 0
39 40 43 41 -172 0
39 40 43 41 -96 0
39 40 43 41 -125 0
39 40 43 41 -205 0
39 40 43 41 -200 0
39 40 43 41 -196 0
39 40 43 41 -152 0
39 40 43 41 -173 0
39 40 43 41 -94 0
39 40 43 41 -123 0
39 40 43 41 -208 0
39 40 43 41 -197 0
39 40 43 41 -193 0
39 40 43 41 -204 0
39 40 43 41 -44 0
39 40 43 41 -202 0
39 40 43 41 -46 0
39 40 43 41 -192 0
39 40 43 41 -149 0
39 40 43 41 -174 0
39 40 43 41 -95 0
39 40 43 41 -126 0
39 40 43 41 -207 0
39 40 43 41 -198 0
39 40 43 41 -194 0
39 40 43 41 -151 0
39 40 43 41 -171 0
39 40 43 41 -93 0
39 40 43 41 -124 0
39 40 43 41 -206 0
39 40 43 41 -199 0
39 40 43 41 -195 0
24 26 29 28 -164 0
24 26 29 28 -27 0
24 26 29 28 -150 0
24 26 29 28 -162 0
24 26 29 28 -30 0
24 26 29 28 -152 0
24 26 29 28 -144 0
24 26 29 28 -148 0
24 26 29 28 -86 0
24 26 29 28 -117 0
24 26 29 28 -167 0
24 26 29 28 -157 0
24 26 29 28 -156 0
24 26 29 28 -145 0
24 26 29 28 -87 0
24 26 29 28 -116 0
24 26 29 28 -165 0
24 26 29 28 -159 0
24 26 29 28 -154 0
24 26 29 28 -163 0
24 26 29 28 -25 0
24 26 29 28 -149 0
24 26 29 28 -161 0
24 26 29 28 -23 0
24 26 29 28 -151 0
24 26 29 28 -143 0
24 26 29 28 -147 0
24 26 29 28 -85 0
24 26 29 28 -115 0
24 26 29 28 -166 0
24 26 29 28 -160 0
24 26 29 28 -153 0
24 26 29 28 -146 0
24 26 29 28 -88 0
24 26 29 28 -118 0
24 26 29 28 -168 0
24 26 29 28 -158 0
24 26 29 28 -155 0
32 31 37 36 -186 0
32 31 37 36 -33 0
32 31 37 36 -172 0
32 31 37 36 -148 0
32 31 37 36 -184 0
32 31 37 36 -35 0
32 31 37 36 -173 0
32 31 37 36 -145 0
32 31 37 36 -170 0
32 31 37 36 -89 0
32 31 37 36 -120 0
32 31 37 36 -188 0
32 31 37 36 -182 0
32 31 37 36 -175 0
32 31 37 36 -90 0
32 31 37 36 -122 0
32 31 37 36 -187 0
32 31 37 36 -179 0
32 31 37 36 -178 0
32 31 37 36 -185 0
32 31 37 36 -34 0
32 31 37 36 -174 0
32 31 37 36 -147 0
32 31 37 36 -183 0
32 31 37 36 -38 0
32 31 37 36 -171 0
32 31 37 36 -146 0
32 31 37 36 -169 0
32 31 37 36 -92 0
32 31 37 36 -119 0
32 31 37 36 -189 0
32 31 37 36 -181 0
32 31 37 36 -177 0
32 31 37 36 -91 0
32 31 37 36 -121 0
32 31 37 36 -190 0
32 31 37 36 -180 0
32 31 37 36 -176 0
8 13 12 9 -105 0
8 13 12 9 -7 0
8 13 12 9 -96 0
8 13 12 9 -86 0
8 13 12 9 -89 0
8 13 12 9 -108 0
8 13 12 9 -10 0
8 13 12 9 -94 0
8 13 12 9 -87 0
8 13 12 9 -90 0
8 13 12 9 -79 0
8 13 12 9 -81 0
8 13 12 9 -112 0
8 13 12 9 -101 0
8 13 12 9 -98 0
8 13 12 9 -83 0
8 13 12 9 -110 0
8 13 12 9 -102 0
8 13 12 9 -99 0
8 13 12 9 -106 0
8 13 12 9 -14 0
8 13 12 9 -95 0
8 13 12 9 -85 0
8 13 12 9 -92 0
8 13 12 9 -107 0
8 13 12 9 -11 0
8 13 12 9 -93 0
8 13 12 9 -88 0
8 13 12 9 -91 0
8 13 12 9 -80 0
8 13 12 9 -82 0
8 13 12 9 -111 0
8 13 12 9 -103 0
8 13 12 9 -97 0
8 13 12 9 -84 0
8 13 12 9 -109 0
8 13 12 9 -104 0
8 13 12 9 -100 0
17 19 22 20 -138 0
17 19 22 20 -16 0
17 19 22 20 -125 0
17 19 22 20 -117 0
17 19 22 20 -120 0
17 19 22 20 -81 0
17 19 22 20 -136 0
17 19 22 20 -21 0
17 19 22 20 -123 0
17 19 22 20 -116 0
17 19 22 20 -122 0
17 19 22 20 -83 0
17 19 22 20 -114 0
17 19 22 20 -142 0
17 19 22 20 -132 0
17 19 22 20 -128 0
17 19 22 20 -141 0
17 19 22 20 -131 0
17 19 22 20 -130 0
17 19 22 20 -135 0
17 19 22 20 -18 0
17 19 22 20 -126 0
17 19 22 20 -115 0
17 19 22 20 -119 0
17 19 22 20 -82 0
17 19 22 20 -137 0
17 19 22 20 -15 0
17 19 22 20 -124 0
17 19 22 20 -118 0
17 19 22 20 -121 0
17 19 22 20 -84 0
17 19 22 20 -113 0
17 19 22 20 -139 0
17 19 22 20 -134 0
17 19 22 20 -127 0
17 19 22 20 -140 0
17 19 22 20 -133 0
17 19 22 20 -129 0
76 74 78 77 -238 0
76 74 78 77 -73 0
76 74 78 77 -205 0
76 74 78 77 -167 0
76 74 78 77 -188 0
76 74 78 77 -112 0
76 74 78 77 -142 0
76 74 78 77 -237 0
76 74 78 77 -72 0
76 74 78 77 -208 0
76 74 78 77 -165 0
76 74 78 77 -187 0
76 74 78 77 -110 0
76 74 78 77 -141 0
76 74 78 77 -239 0
76 74 78 77 -229 0
76 74 78 77 -220 0
76 74 78 77 -231 0
76 74 78 77 -221 0
76 74 78 77 -235 0
76 74 78 77 -71 0
76 74 78 77 -207 0
76 74 78 77 -166 0
76 74 78 77 -189 0
76 74 78 77 -111 0
76 74 78 77 -139 0
76 74 78 77 -236 0
76 74 78 77 -75 0
76 74 78 77 -206 0
76 74 78 77 -168 0
76 74 78 77 -190 0
76 74 78 77 -109 0
76 74 78 77 -140 0
76 74 78 77 -240 0
76 74 78 77 -230 0
76 74 78 77 -219 0
76 74 78 77 -232 0
76 74 78 77 -222 0
55 58 61 60 -225 0
55 58 61 60 -56 0
55 58 61 60 -200 0
55 58 61 60 -157 0
55 58 61 60 -182 0
55 58 61 60 -101 0
55 58 61 60 -132 0
55 58 61 60 -229 0
55 58 61 60 -227 0
55 58 61 60 -57 0
55 58 61 60 -197 0
55 58 61 60 -159 0
55 58 61 60 -179 0
55 58 61 60 -102 0
55 58 61 60 -131 0
55 58 61 60 -231 0
55 58 61 60 -224 0
55 58 61 60 -214 0
55 58 61 60 -213 0
55 58 61 60 -228 0
55 58 61 60 -62 0
55 58 61 60 -198 0
55 58 61 60 -160 0
55 58 61 60 -181 0
55 58 61 60 -103 0
55 58 61 60 -134 0
55 58 61 60 -230 0
55 58 61 60 -226 0
55 58 61 60 -59 0
55 58 61 60 -199 0
55 58 61 60 -158 0
55 58 61 60 -180 0
55 58 61 60 -104 0
55 58 61 60 -133 0
55 58 61 60 -232 0
55 58 61 60 -223 0
55 58 61 60 -211 0
55 58 61 60 -212 0
53 49 52 47 -215 0
53 49 52 47 -54 0
53 49 52 47 -196 0
53 49 52 47 -156 0
53 49 52 47 -175 0
53 49 52 47 -98 0
53 49 52 47 -128 0
53 49 52 47 -220 0
53 49 52 47 -214 0
53 49 52 47 -216 0
53 49 52 47 -51 0
53 49 52 47 -193 0
53 49 52 47 -154 0
53 49 52 47 -178 0
53 49 52 47 -99 0
53 49 52 47 -130 0
53 49 52 47 -221 0
53 49 52 47 -213 0
53 49 52 47 -210 0
53 49 52 47 -217 0
53 49 52 47 -48 0
53 49 52 47 -194 0
53 49 52 47 -153 0
53 49 52 47 -177 0
53 49 52 47 -97 0
53 49 52 47 -127 0
53 49 52 47 -219 0
53 49 52 47 -211 0
53 49 52 47 -218 0
53 49 52 47 -50 0
53 49 52 47 -195 0
53 49 52 47 -155 0
53 49 52 47 -176 0
53 49 52 47 -100 0
53 49 52 47 -129 0
53 49 52 47 -222 0
53 49 52 47 -212 0
53 49 52 47 -209 0
68 4 67 70 69 -66 0
68 4 67 70 69 -65 0
68 4 67 70 69 -63 0
68 4 67 70 69 -64 0
68 4 2 6 1 -66 0
68 4 2 6 1 -65 0
68 4 2 6 1 -63 0
68 4 2 6 1 -64 0
68 39 67 70 69 -203 0
68 39 67 70 69 -201 0
68 39 67 70 69 -204 0
68 39 67 70 69 -202 0
68 39 40 43 41 -203 0
68 39 40 43 41 -201 0
68 39 40 43 41 -204 0
68 39 40 43 41 -202 0
68 24 67 70 69 -164 0
68 24 67 70 69 -162 0
68 24 67 70 69 -163 0
68 24 67 70 69 -161 0
68 24 26 29 28 -164 0
68 24 26 29 28 -162 0
68 24 26 29 28 -163 0
68 24 26 29 28 -161 0
68 32 67 70 69 -186 0
68 32 67 70 69 -184 0
68 32 67 70 69 -185 0
68 32 67 70 69 -183 0
68 32 31 37 36 -186 0
68 32 31 37 36 -184 0
68 32 31 37 36 -185 0
68 32 31 37 36 -183 0
68 8 67 70 69 -105 0
68 8 67 70 69 -108 0
68 8 67 70 69 -106 0
68 8 67 70 69 -107 0
68 8 13 12 9 -105 0
68 8 13 12 9 -108 0
68 8 13 12 9 -106 0
68 8 13 12 9 -107 0
68 17 67 70 69 -138 0
68 17 67 70 69 -136 0
68 17 67 70 69 -135 0
68 17 67 70 69 -137 0
68 17 19 22 20 -138 0
68 17 19 22 20 -136 0
68 17 19 22 20 -135 0
68 17 19 22 20 -137 0
68 76 67 70 69 -238 0
68 76 67 70 69 -237 0
68 76 67 70 69 -235 0
68 76 67 70 69 -236 0
68 76 74 78 77 -238 0
68 76 74 78 77 -237 0
68 76 74 78 77 -235 0
68 76 74 78 77 -236 0
68 55 67 70 69 -225 0
68 55 67 70 69 -227 0
68 55 67 70 69 -228 0
68 55 67 70 69 -226 0
68 55 58 61 60 -225 0
68 55 58 61 60 -227 0
68 55 58 61 60 -228 0
68 55 58 61 60 -226 0
68 53 67 70 69 -215 0
68 53 67 70 69 -216 0
68 53 67 70 69 -217 0
68 53 67 70 69 -218 0
68 53 49 52 47 -215 0
68 53 49 52 47 -216 0
68 53 49 52 47 -217 0
68 53 49 52 47 -218 0
68 67 2 70 69 -66 0
68 67 2 70 69 -65 0
68 67 2 70 69 -63 0
68 67 2 70 69 -64 0
68 67 40 70 69 -203 0
68 67 40 70 69 -201 0
68 67 40 70 69 -204 0
68 67 40 70 69 -202 0
68 67 26 70 69 -164 0
68 67 26 70 69 -162 0
68 67 26 70 69 -163 0
68 67 26 70 69 -161 0
68 67 31 70 69 -186 0
68 67 31 70 69 -184 0
68 67 31 70 69 -185 0
68 67 31 70 69 -183 0
68 67 13 70 69 -105 0
68 67 13 70 69 -108 0
68 67 13 70 69 -106 0
68 67 13 70 69 -107 0
68 67 19 70 69 -138 0
68 67 19 70 69 -136 0
68 67 19 70 69 -135 0
68 67 19 70 69 -137 0
68 67 74 70 69 -238 0
68 67 74 70 69 -237 0
68 67 74 70 69 -235 0
68 67 74 70 69 -236 0
68 67 58 70 69 -225 0
68 67 58 70 69 -227 0
68 67 58 70 69 -228 0
68 67 58 70 69 -226 0
68 67 49 70 69 -215 0
68 67 49 70 69 -216 0
68 67 49 70 69 -217 0
68 67 49 70 69 -218 0
68 67 70 6 69 -66 0
68 67 70 6 69 -65 0
68 67 70 6 69 -63 0
68 67 70 6 69 -64 0
68 67 70 43 69 -203 0
68 67 70 43 69 -201 0
68 67 70 43 69 -204 0
68 67 70 43 69 -202 0
68 67 70 29 69 -164 0
68 67 70 29 69 -162 0
68 67 70 29 69 -163 0
68 67 70 29 69 -161 0
68 67 70 37 69 -186 0
68 67 70 37 69 -184 0
68 67 70 37 69 -185 0
68 67 70 37 69 -183 0
68 67 70 12 69 -105 0
68 67 70 12 69 -108 0
68 67 70 12 69 -106 0
68 67 70 12 69 -107 0
68 67 70 22 69 -138 0
68 67 70 22 69 -136 0
68 67 70 22 69 -135 0
68 67 70 22 69 -137 0
68 67 70 78 69 -238 0
68 67 70 78 69 -237 0
68 67 70 78 69 -235 0
68 67 70 78 69 -236 0
68 67 70 61 69 -225 0
68 67 70 61 69 -227 0
68 67 70 61 69 -228 0
68 67 70 61 69 -226 0
68 67 70 52 69 -215 0
68 67 70 52 69 -216 0
68 67 70 52 69 -217 0
68 67 70 52 69 -218 0
68 67 70 69 1 -66 0
68 67 70 69 1 -65 0
68 67 70 69 1 -63 0
68 67 70 69 1 -64 0
68 67 70 69 41 -203 0
68 67 70 69 41 -201 0
68 67 70 69 41 -204 0
68 67 70 69 41 -202 0
68 67 70 69 28 -164 0
68 67 70 69 28 -162 0
68 67 70 69 28 -163 0
68 67 70 69 28 -161 0
68 67 70 69 36 -186 0
68 67 70 69 36 -184 0
68 67 70 69 36 -185 0
68 67 70 69 36 -183 0
68 67 70 69 9 -105 0
68 67 70 69 9 -108 0
68 67 70 69 9 -106 0
68 67 70 69 9 -107 0
68 67 70 69 20 -138 0
68 67 70 69 20 -136 0
68 67 70 69 20 -135 0
68 67 70 69 20 -137 0
68 67 70 69 77 -238 0
68 67 70 69 77 -237 0
68 67 70 69 77 -235 0
68 67 70 69 77 -236 0
68 67 70 69 60 -225 0
68 67 70 69 60 -227 0
68 67 70 69 60 -228 0
68 67 70 69 60 -226 0
68 67 70 69 47 -215 0
68 67 70 69 47 -216 0
68 67 70 69 47 -217 0
68 67 70 69 47 -218 0
4 39 2 6 1 -42 0
4 39 2 6 1 -45 0
4 39 2 6 1 -44 0
4 39 2 6 1 -46 0
4 39 40 43 41 -42 0
4 39 40 43 41 -45 0
4 39 40 43 41 -44 0
4 39 40 43 41 -46 0
4 24 2 6 1 -27 0
4 24 2 6 1 -30 0
4 24 2 6 1 -25 0
4 24 2 6 1 -23 0
4 24 26 29 28 -27 0
4 24 26 29 28 -30 0
4 24 26 29 28 -25 0
4 24 26 29 28 -23 0
4 32 2 6 1 -33 0
4 32 2 6 1 -35 0
4 32 2 6 1 -34 0
4 32 2 6 1 -38 0
4 32 31 37 36 -33 0
4 32 31 37 36 -35 0
4 32 31 37 36 -34 0
4 32 31 37 36 -38 0
4 8 2 6 1 -7 0
4 8 2 6 1 -10 0
4 8 2 6 1 -14 0
4 8 2 6 1 -11 0
4 8 13 12 9 -7 0
4 8 13 12 9 -10 0
4 8 13 12 9 -14 0
4 8 13 12 9 -11 0
4 17 2 6 1 -16 0
4 17 2 6 1 -21 0
4 17 2 6 1 -18 0
4 17 2 6 1 -15 0
4 17 19 22 20 -16 0
4 17 19 22 20 -21 0
4 17 19 22 20 -18 0
4 17 19 22 20 -15 0
4 76 2 6 1 -73 0
4 76 2 6 1 -72 0
4 76 2 6 1 -71 0
4 76 2 6 1 -75 0
4 76 74 78 77 -73 0
4 76 74 78 77 -72 0
4 76 74 78 77 -71 0
4 76 74 78 77 -75 0
4 55 2 6 1 -56 0
4 55 2 6 1 -57 0
4 55 2 6 1 -62 0
4 55 2 6 1 -59 0
4 55 58 61 60 -56 0
4 55 58 61 60 -57 0
4 55 58 61 60 -62 0
4 55 58 61 60 -59 0
4 53 2 6 1 -54 0
4 53 2 6 1 -51 0
4 53 2 6 1 -48 0
4 53 2 6 1 -50 0
4 53 49 52 47 -54 0
4 53 49 52 47 -51 0
4 53 49 52 47 -48 0
4 53 49 52 47 -50 0
4 67 2 6 1 -66 0
4 67 2 6 1 -65 0
4 67 2 6 1 -63 0
4 67 2 6 1 -64 0
4 2 40 6 1 -42 0
4 2 40 6 1 -45 0
4 2 40 6 1 -44 0
4 2 40 6 1 -46 0
4 2 26 6 1 -27 0
4 2 26 6 1 -30 0
4 2 26 6 1 -25 0
4 2 26 6 1 -23 0
4 2 31 6 1 -33 0
4 2 31 6 1 -35 0
4 2 31 6 1 -34 0
4 2 31 6 1 -38 0
4 2 13 6 1 -7 0
4 2 13 6 1 -10 0
4 2 13 6 1 -14 0
4 2 13 6 1 -11 0
4 2 19 6 1 -16 0
4 2 19 6 1 -21 0
4 2 19 6 1 -18 0
4 2 19 6 1 -15 0
4 2 74 6 1 -73 0
4 2 74 6 1 -72 0
4 2 74 6 1 -71 0
4 2 74 6 1 -75 0
4 2 58 6 1 -56 0
4 2 58 6 1 -57 0
4 2 58 6 1 -62 0
4 2 58 6 1 -59 0
4 2 49 6 1 -54 0
4 2 49 6 1 -51 0
4 2 49 6 1 -48 0
4 2 49 6 1 -50 0
4 2 70 6 1 -66 0
4 2 70 6 1 -65 0
4 2 70 6 1 -63 0
4 2 70 6 1 -64 0
4 2 6 43 1 -42 0
4 2 6 43 1 -45 0
4 2 6 43 1 -44 0
4 2 6 43 1 -46 0
4 2 6 29 1 -27 0
4 2 6 29 1 -30 0
4 2 6 29 1 -25 0
4 2 6 29 1 -23 0
4 2 6 37 1 -33 0
4 2 6 37 1 -35 0
4 2 6 37 1 -34 0
4 2 6 37 1 -38 0
4 2 6 12 1 -7 0
4 2 6 12 1 -10 0
4 2 6 12 1 -14 0
4 2 6 12 1 -11 0
4 2 6 22 1 -16 0
4 2 6 22 1 -21 0
4 2 6 22 1 -18 0
4 2 6 22 1 -15 0
4 2 6 78 1 -73 0
4 2 6 78 1 -72 0
4 2 6 78 1 -71 0
4 2 6 78 1 -75 0
4 2 6 61 1 -56 0
4 2 6 61 1 -57 0
4 2 6 61 1 -62 0
4 2 6 61 1 -59 0
4 2 6 52 1 -54 0
4 2 6 52 1 -51 0
4 2 6 52 1 -48 0
4 2 6 52 1 -50 0
4 2 6 69 1 -66 0
4 2 6 69 1 -65 0
4 2 6 69 1 -63 0
4 2 6 69 1 -64 0
4 2 6 1 41 -42 0
4 2 6 1 41 -45 0
4 2 6 1 41 -44 0
4 2 6 1 41 -46 0
4 2 6 1 28 -27 0
4 2 6 1 28 -30 0
4 2 6 1 28 -25 0
4 2 6 1 28 -23 0
4 2 6 1 36 -33 0
4 2 6 1 36 -35 0
4 2 6 1 36 -34 0
4 2 6 1 36 -38 0
4 2 6 1 9 -7 0
4 2 6 1 9 -10 0
4 2 6 1 9 -14 0
4 2 6 1 9 -11 0
4 2 6 1 20 -16 0
4 2 6 1 20 -21 0
4 2 6 1 20 -18 0
4 2 6 1 20 -15 0
4 2 6 1 77 -73 0
4 2 6 1 77 -72 0
4 2 6 1 77 -71 0
4 2 6 1 77 -75 0
4 2 6 1 60 -56 0
4 2 6 1 60 -57 0
4 2 6 1 60 -62 0
4 2 6 1 60 -59 0
4 2 6 1 47 -54 0
4 2 6 1 47 -51 0
4 2 6 1 47 -48 0
4 2 6 1 47 -50 0
39 24 40 43 41 -150 0
39 24 40 43 41 -152 0
39 24 40 43 41 -149 0
39 24 40 43 41 -151 0
39 24 26 29 28 -150 0
39 24 26 29 28 -152 0
39 24 26 29 28 -149 0
39 24 26 29 28 -151 0
39 32 40 43 41 -172 0
39 32 40 43 41 -173 0
39 32 40 43 41 -174 0
39 32 40 43 41 -171 0
39 32 31 37 36 -172 0
39 32 31 37 36 -173 0
39 32 31 37 36 -174 0
39 32 31 37 36 -171 0
39 8 40 43 41 -96 0
39 8 40 43 41 -94 0
39 8 40 43 41 -95 0
39 8 40 43 41 -93 0
39 8 13 12 9 -96 0
39 8 13 12 9 -94 0
39 8 13 12 9 -95 0
39 8 13 12 9 -93 0
39 17 40 43 41 -125 0
39 17 40 43 41 -123 0
39 17 40 43 41 -126 0
39 17 40 43 41 -124 0
39 17 19 22 20 -125 0
39 17 19 22 20 -123 0
39 17 19 22 20 -126 0
39 17 19 22 20 -124 0
39 76 40 43 41 -205 0
39 76 40 43 41 -208 0
39 76 40 43 41 -207 0
39 76 40 43 41 -206 0
39 76 74 78 77 -205 0
39 76 74 78 77 -208 0
39 76 74 78 77 -207 0
39 76 74 78 77 -206 0
39 55 40 43 41 -200 0
39 55 40 43 41 -197 0
39 55 40 43 41 -198 0
39 55 40 43 41 -199 0
39 55 58 61 60 -200 0
39 55 58 61 60 -197 0
39 55 58 61 60 -198 0
39 55 58 61 60 -199 0
39 53 40 43 41 -196 0
39 53 40 43 41 -193 0
39 53 40 43 41 -194 0
39 53 40 43 41 -195 0
39 53 49 52 47 -196 0
39 53 49 52 47 -193 0
39 53 49 52 47 -194 0
39 53 49 52 47 -195 0
39 67 40 43 41 -203 0
39 67 40 43 41 -201 0
39 67 40 43 41 -204 0
39 67 40 43 41 -202 0
39 2 40 43 41 -42 0
39 2 40 43 41 -45 0
39 2 40 43 41 -44 0
39 2 40 43 41 -46 0
39 40 26 43 41 -150 0
39 40 26 43 41 -152 0
39 40 26 43 41 -149 0
39 40 26 43 41 -151 0
39 40 31 43 41 -172 0
39 40 31 43 41 -173 0
39 40 31 43 41 -174 0
39 40 31 43 41 -171 0
39 40 13 43 41 -96 0
39 40 13 43 41 -94 0
39 40 13 43 41 -95 0
39 40 13 43 41 -93 0
39 40 19 43 41 -125 0
39 40 19 43 41 -123 0
39 40 19 43 41 -126 0
39 40 19 43 41 -124 0
39 40 74 43 41 -205 0
39 40 74 43 41 -208 0
39 40 74 43 41 -207 0
39 40 74 43 41 -206 0
39 40 58 43 41 -200 0
39 40 58 43 41 -197 0
39 40 58 43 41 -198 0
39 40 58 43 41 -199 0
39 40 49 43 41 -196 0
39 40 49 43 41 -193 0
39 40 49 43 41 -194 0
39 40 49 43 41 -195 0
39 40 70 43 41 -203 0
39 40 70 43 41 -201 0
39 40 70 43 41 -204 0
39 40 70 43 41 -202 0
39 40 6 43 41 -42 0
39 40 6 43 41 -45 0
39 40 6 43 41 -44 0
39 40 6 43 41 -46 0
39 40 43 29 41 -150 0
39 40 43 29 41 -152 0
39 40 43 29 41 -149 0
39 40 43 29 41 -151 0
39 40 43 37 41 -172 0
39 40 43 37 41 -173 0
39 40 43 37 41 -174 0
39 40 43 37 41 -171 0
39 40 43 12 41 -96 0
39 40 43 12 41 -94 0
39 40 43 12 41 -95 0
39 40 43 12 41 -93 0
39 40 43 22 41 -125 0
39 40 43 22 41 -123 0
39 40 43 22 41 -126 0
39 40 43 22 41 -124 0
39 40 43 78 41 -205 0
39 40 43 78 41 -208 0
39 40 43 78 41 -207 0
39 40 43 78 41 -206 0
39 40 43 61 41 -200 0
39 40 43 61 41 -197 0
39 40 43 61 41 -198 0
39 40 43 61 41 -199 0
39 40 43 52 41 -196 0
39 40 43 52 41 -193 0
39 40 43 52 41 -194 0
39 40 43 52 41 -195 0
39 40 43 69 41 -203 0
39 40 43 69 41 -201 0
39 40 43 69 41 -204 0
39 40 43 69 41 -202 0
39 40 43 1 41 -42 0
39 40 43 1 41 -45 0
39 40 43 1 41 -44 0
39 40 43 1 41 -46 0
39 40 43 41 28 -150 0
39 40 43 41 28 -152 0
39 40 43 41 28 -149 0
39 40 43 41 28 -151 0
39 40 43 41 36 -172 0
39 40 43 41 36 -173 0
39 40 43 41 36 -174 0
39 40 43 41 36 -171 0
39 40 43 41 9 -96 0
39 40 43 41 9 -94 0
39 40 43 41 9 -95 0
39 40 43 41 9 -93 0
39 40 43 41 20 -125 0
39 40 43 41 20 -123 0
39 40 43 41 20 -126 0
39 40 43 41 20 -124 0
39 40 43 41 77 -205 0
39 40 43 41 77 -208 0
39 40 43 41 77 -207 0
39 40 43 41 77 -206 0
39 40 43 41 60 -200 0
39 40 43 41 60 -197 0
39 40 43 41 60 -198 0
39 40 43 41 60 -199 0
39 40 43 41 47 -196 0
39 40 43 41 47 -193 0
39 40 43 41 47 -194 0
39 40 43 41 47 -195 0
24 32 26 29 28 -148 0
24 32 26 29 28 -145 0
24 32 26 29 28 -147 0
24 32 26 29 28 -146 0
24 32 31 37 36 -148 0
24 32 31 37 36 -145 0
24 32 31 37 36 -147 0
24 32 31 37 36 -146 0
24 8 26 29 28 -86 0
24 8 26 29 28 -87 0
24 8 26 29 28 -85 0
24 8 26 29 28 -88 0
24 8 13 12 9 -86 0
24 8 13 12 9 -87 0
24 8 13 12 9 -85 0
24 8 13 12 9 -88 0
24 17 26 29 28 -117 0
24 17 26 29 28 -116 0
24 17 26 29 28 -115 0
24 17 26 29 28 -118 0
24 17 19 22 20 -117 0
24 17 19 22 20 -116 0
24 17 19 22 20 -115 0
24 17 19 22 20 -118 0
24 76 26 29 28 -167 0
24 76 26 29 28 -165 0
24 76 26 29 28 -166 0
24 76 26 29 28 -168 0
24 76 74 78 77 -167 0
24 76 74 78 77 -165 0
24 76 74 78 77 -166 0
24 76 74 78 77 -168 0
24 55 26 29 28 -157 0
24 55 26 29 28 -159 0
24 55 26 29 28 -160 0
24 55 26 29 28 -158 0
24 55 58 61 60 -157 0
24 55 58 61 60 -159 0
24 55 58 61 60 -160 0
24 55 58 61 60 -158 0
24 53 26 29 28 -156 0
24 53 26 29 28 -154 0
24 53 26 29 28 -153 0
24 53 26 29 28 -155 0
24 53 49 52 47 -156 0
24 53 49 52 47 -154 0
24 53 49 52 47 -153 0
24 53 49 52 47 -155 0
24 67 26 29 28 -164 0
24 67 26 29 28 -162 0
24 67 26 29 28 -163 0
24 67 26 29 28 -161 0
24 2 26 29 28 -27 0
24 2 26 29 28 -30 0
24 2 26 29 28 -25 0
24 2 26 29 28 -23 0
24 40 26 29 28 -150 0
24 40 26 29 28 -152 0
24 40 26 29 28 -149 0
24 40 26 29 28 -151 0
24 26 31 29 28 -148 0
24 26 31 29 28 -145 0
24 26 31 29 28 -147 0
24 26 31 29 28 -146 0
24 26 13 29 28 -86 0
24 26 13 29 28 -87 0
24 26 13 29 28 -85 0
24 26 13 29 28 -88 0
24 26 19 29 28 -117 0
24 26 19 29 28 -116 0
24 26 19 29 28 -115 0
24 26 19 29 28 -118 0
24 26 74 29 28 -167 0
24 26 74 29 28 -165 0
24 26 74 29 28 -166 0
24 26 74 29 28 -168 0
24 26 58 29 28 -157 0
24 26 58 29 28 -159 0
24 26 58 29 28 -160 0
24 26 58 29 28 -158 0
24 26 49 29 28 -156 0
24 26 49 29 28 -154 0
24 26 49 29 28 -153 0
24 26 49 29 28 -155 0
24 26 70 29 28 -164 0
24 26 70 29 28 -162 0
24 26 70 29 28 -163 0
24 26 70 29 28 -161 0
24 26 6 29 28 -27 0
24 26 6 29 28 -30 0
24 26 6 29 28 -25 0
24 26 6 29 28 -23 0
24 26 43 29 28 -150 0
24 26 43 29 28 -152 0
24 26 43 29 28 -149 0
24 26 43 29 28 -151 0
24 26 29 37 28 -148 0
24 26 29 37 28 -145 0
24 26 29 37 28 -147 0
24 26 29 37 28 -146 0
24 26 29 12 28 -86 0
24 26 29 12 28 -87 0
24 26 29 12 28 -85 0
24 26 29 12 28 -88 0
24 26 29 22 28 -117 0
24 26 29 22 28 -116 0
24 26 29 22 28 -115 0
24 26 29 22 28 -118 0
24 26 29 78 28 -167 0
24 26 29 78 28 -165 0
24 26 29 78 28 -166 0
24 26 29 78 28 -168 0
24 26 29 61 28 -157 0
24 26 29 61 28 -159 0
24 26 29 61 28 -160 0
24 26 29 61 28 -158 0
24 26 29 52 28 -156 0
24 26 29 52 28 -154 0
24 26 29 52 28 -153 0
24 26 29 52 28 -155 0
24 26 29 69 28 -164 0
24 26 29 69 28 -162 0
24 26 29 69 28 -163 0
24 26 29 69 28 -161 0
24 26 29 1 28 -27 0
24 26 29 1 28 -30 0
24 26 29 1 28 -25 0
24 26 29 1 28 -23 0
24 26 29 41 28 -150 0
24 26 29 41 28 -152 0
24 26 29 41 28 -149 0
24 26 29 41 28 -151 0
24 26 29 28 36 -148 0
24 26 29 28 36 -145 0
24 26 29 28 36 -147 0
24 26 29 28 36 -146 0
24 26 29 28 9 -86 0
24 26 29 28 9 -87 0
24 26 29 28 9 -85 0
24 26 29 28 9 -88 0
24 26 29 28 20 -117 0
24 26 29 28 20 -116 0
24 26 29 28 20 -115 0
24 26 29 28 20 -118 0
24 26 29 28 77 -167 0
24 26 29 28 77 -165 0
24 26 29 28 77 -166 0
24 26 29 28 77 -168 0
24 26 29 28 60 -157 0
24 26 29 28 60 -159 0
24 26 29 28 60 -160 0
24 26 29 28 60 -158 0
24 26 29 28 47 -156 0
24 26 29 28 47 -154 0
24 26 29 28 47 -153 0
24 26 29 28 47 -155 0
32 8 31 37 36 -89 0
32 8 31 37 36 -90 0
32 8 31 37 36 -92 0
32 8 31 37 36 -91 0
32 8 13 12 9 -89 0
32 8 13 12 9 -90 0
32 8 13 12 9 -92 0
32 8 13 12 9 -91 0
32 17 31 37 36 -120 0
32 17 31 37 36 -122 0
32 17 31 37 36 -119 0
32 17 31 37 36 -121 0
32 17 19 22 20 -120 0
32 17 19 22 20 -122 0
32 17 19 22 20 -119 0
32 17 19 22 20 -121 0
32 76 31 37 36 -188 0
32 76 31 37 36 -187 0
32 76 31 37 36 -189 0
32 76 31 37 36 -190 0
32 76 74 78 77 -188 0
32 76 74 78 77 -187 0
32 76 74 78 77 -189 0
32 76 74 78 77 -190 0
32 55 31 37 36 -182 0
32 55 31 37 36 -179 0
32 55 31 37 36 -181 0
32 55 31 37 36 -180 0
32 55 58 61 60 -182 0
32 55 58 61 60 -179 0
32 55 58 61 60 -181 0
32 55 58 61 60 -180 0
32 53 31 37 36 -175 0
32 53 31 37 36 -178 0
32 53 31 37 36 -177 0
32 53 31 37 36 -176 0
32 53 49 52 47 -175 0
32 53 49 52 47 -178 0
32 53 49 52 47 -177 0
32 53 49 52 47 -176 0
32 67 31 37 36 -186 0
32 67 31 37 36 -184 0
32 67 31 37 36 -185 0
32 67 31 37 36 -183 0
32 2 31 37 36 -33 0
32 2 31 37 36 -35 0
32 2 31 37 36 -34 0
32 2 31 37 36 -38 0
32 40 31 37 36 -172 0
32 40 31 37 36 -173 0
32 40 31 37 36 -174 0
32 40 31 37 36 -171 0
32 26 31 37 36 -148 0
32 26 31 37 36 -145 0
32 26 31 37 36 -147 0
32 26 31 37 36 -146 0
32 31 13 37 36 -89 0
32 31 13 37 36 -90 0
32 31 13 37 36 -92 0
32 31 13 37 36 -91 0
32 31 19 37 36 -120 0
32 31 19 37 36 -122 0
32 31 19 37 36 -119 0
32 31 19 37 36 -121 0
32 31 74 37 36 -188 0
32 31 74 37 36 -187 0
32 31 74 37 36 -189 0
32 31 74 37 36 -190 0
32 31 58 37 36 -182 0
32 31 58 37 36 -179 0
32 31 58 37 36 -181 0
32 31 58 37 36 -180 0
32 31 49 37 36 -175 0
32 31 49 37 36 -178 0
32 31 49 37 36 -177 0
32 31 49 37 36 -176 0
32 31 70 37 36 -186 0
32 31 70 37 36 -184 0
32 31 70 37 36 -185 0
32 31 70 37 36 -183 0
32 31 6 37 36 -33 0
32 31 6 37 36 -35 0
32 31 6 37 36 -34 0
32 31 6 37 36 -38 0
32 31 43 37 36 -172 0
32 31 43 37 36 -173 0
32 31 43 37 36 -174 0
32 31 43 37 36 -171 0
32 31 29 37 36 -148 0
32 31 29 37 36 -145 0
32 31 29 37 36 -147 0
32 31 29 37 36 -146 0
32 31 37 12 36 -89 0
32 31 37 12 36 -90 0
32 31 37 12 36 -92 0
32 31 37 12 36 -91 0
32 31 37 22 36 -120 0
32 31 37 22 36 -122 0
32 31 37 22 36 -119 0
32 31 37 22 36 -121 0
32 31 37 78 36 -188 0
32 31 37 78 36 -187 0
32 31 37 78 36 -189 0
32 31 37 78 36 -190 0
32 31 37 61 36 -182 0
32 31 37 61 36 -179 0
32 31 37 61 36 -181 0
32 31 37 61 36 -180 0
32 31 37 52 36 -175 0
32 31 37 52 36 -178 0
32 31 37 52 36 -177 0
32 31 37 52 36 -176 0
32 31 37 69 36 -186 0
32 31 37 69 36 -184 0
32 31 37 69 36 -185 0
32 31 37 69 36 -183 0
32 31 37 1 36 -33 0
32 31 37 1 36 -35 0
32 31 37 1 36 -34 0
32 31 37 1 36 -38 0
32 31 37 41 36 -172 0
32 31 37 41 36 -173 0
32 31 37 41 36 -174 0
32 31 37 41 36 -171 0
32 31 37 28 36 -148 0
32 31 37 28 36 -145 0
32 31 37 28 36 -147 0
32 31 37 28 36 -146 0
32 31 37 36 9 -89 0
32 31 37 36 9 -90 0
32 31 37 36 9 -92 0
32 31 37 36 9 -91 0
32 31 37 36 20 -120 0
32 31 37 36 20 -122 0
32 31 37 36 20 -119 0
32 31 37 36 20 -121 0
32 31 37 36 77 -188 0
32 31 37 36 77 -187 0
32 31 37 36 77 -189 0
32 31 37 36 77 -190 0
32 31 37 36 60 -182 0
32 31 37 36 60 -179 0
32 31 37 36 60 -181 0
32 31 37 36 60 -180 0
32 31 37 36 47 -175 0
32 31 37 36 47 -178 0
32 31 37 36 47 -177 0
32 31 37 36 47 -176 0
8 17 13 12 9 -81 0
8 17 13 12 9 -83 0
8 17 13 12 9 -82 0
8 17 13 12 9 -84 0
8 17 19 22 20 -81 0
8 17 19 22 20 -83 0
8 17 19 22 20 -82 0
8 17 19 22 20 -84 0
8 76 13 12 9 -112 0
8 76 13 12 9 -110 0
8 76 13 12 9 -111 0
8 76 13 12 9 -109 0
8 76 74 78 77 -112 0
8 76 74 78 77 -110 0
8 76 74 78 77 -111 0
8 76 74 78 77 -109 0
8 55 13 12 9 -101 0
8 55 13 12 9 -102 0
8 55 13 12 9 -103 0
8 55 13 12 9 -104 0
8 55 58 61 60 -101 0
8 55 58 61 60 -102 0
8 55 58 61 60 -103 0
8 55 58 61 60 -104 0
8 53 13 12 9 -98 0
8 53 13 12 9 -99 0
8 53 13 12 9 -97 0
8 53 13 12 9 -100 0
8 53 49 52 47 -98 0
8 53 49 52 47 -99 0
8 53 49 52 47 -97 0
8 53 49 52 47 -100 0
8 67 13 12 9 -105 0
8 67 13 12 9 -108 0
8 67 13 12 9 -106 0
8 67 13 12 9 -107 0
8 2 13 12 9 -7 0
8 2 13 12 9 -10 0
8 2 13 12 9 -14 0
8 2 13 12 9 -11 0
8 40 13 12 9 -96 0
8 40 13 12 9 -94 0
8 40 13 12 9 -95 0
8 40 13 12 9 -93 0
8 26 13 12 9 -86 0
8 26 13 12 9 -87 0
8 26 13 12 9 -85 0
8 26 13 12 9 -88 0
8 31 13 12 9 -89 0
8 31 13 12 9 -90 0
8 31 13 12 9 -92 0
8 31 13 12 9 -91 0
8 13 19 12 9 -81 0
8 13 19 12 9 -83 0
8 13 19 12 9 -82 0
8 13 19 12 9 -84 0
8 13 74 12 9 -112 0
8 13 74 12 9 -110 0
8 13 74 12 9 -111 0
8 13 74 12 9 -109 0
8 13 58 12 9 -101 0
8 13 58 12 9 -102 0
8 13 58 12 9 -103 0
8 13 58 12 9 -104 0
8 13 49 12 9 -98 0
8 13 49 12 9 -99 0
8 13 49 12 9 -97 0
8 13 49 12 9 -100 0
8 13 70 12 9 -105 0
8 13 70 12 9 -108 0
8 13 70 12 9 -106 0
8 13 70 12 9 -107 0
8 13 6 12 9 -7 0
8 13 6 12 9 -10 0
8 13 6 12 9 -14 0
8 13 6 12 9 -11 0
8 13 43 12 9 -96 0
8 13 43 12 9 -94 0
8 13 43 12 9 -95 0
8 13 43 12 9 -93 0
8 13 29 12 9 -86 0
8 13 29 12 9 -87 0
8 13 29 12 9 -85 0
8 13 29 12 9 -88 0
8 13 37 12 9 -89 0
8 13 37 12 9 -90 0
8 13 37 12 9 -92 0
8 13 37 12 9 -91 0
8 13 12 22 9 -81 0
8 13 12 22 9 -83 0
8 13 12 22 9 -82 0
8 13 12 22 9 -84 0
8 13 12 78 9 -112 0
8 13 12 78 9 -110 0
8 13 12 78 9 -111 0
8 13 12 78 9 -109 0
8 13 12 61 9 -101 0
8 13 12 61 9 -102 0
8 13 12 61 9 -103 0
8 13 12 61 9 -104 0
8 13 12 52 9 -98 0
8 13 12 52 9 -99 0
8 13 12 52 9 -97 0
8 13 12 52 9 -100 0
8 13 12 69 9 -105 0
8 13 12 69 9 -108 0
8 13 12 69 9 -106 0
8 13 12 69 9 -107 0
8 13 12 1 9 -7 0
8 13 12 1 9 -10 0
8 13 12 1 9 -14 0
8 13 12 1 9 -11 0
8 13 12 41 9 -96 0
8 13 12 41 9 -94 0
8 13 12 41 9 -95 0
8 13 12 41 9 -93 0
8 13 12 28 9 -86 0
8 13 12 28 9 -87 0
8 13 12 28 9 -85 0
8 13 12 28 9 -88 0
8 13 12 36 9 -89 0
8 13 12 36 9 -90 0
8 13 12 36 9 -92 0
8 13 12 36 9 -91 0
8 13 12 9 20 -81 0
8 13 12 9 20 -83 0
8 13 12 9 20 -82 0
8 13 12 9 20 -84 0
8 13 12 9 77 -112 0
8 13 12 9 77 -110 0
8 13 12 9 77 -111 0
8 13 12 9 77 -109 0
8 13 12 9 60 -101 0
8 13 12 9 60 -102 0
8 13 12 9 60 -103 0
8 13 12 9 60 -104 0
8 13 12 9 47 -98 0
8 13 12 9 47 -99 0
8 13 12 9 47 -97 0
8 13 12 9 47 -100 0
17 76 19 22 20 -142 0
17 76 19 22 20 -141 0
17 76 19 22 20 -139 0
17 76 19 22 20 -140 0
17 76 74 78 77 -142 0
17 76 74 78 77 -141 0
17 76 74 78 77 -139 0
17 76 74 78 77 -140 0
17 55 19 22 20 -132 0
17 55 19 22 20 -131 0
17 55 19 22 20 -134 0
17 55 19 22 20 -133 0
17 55 58 61 60 -132 0
17 55 58 61 60 -131 0
17 55 58 61 60 -134 0
17 55 58 61 60 -133 0
17 53 19 22 20 -128 0
17 53 19 22 20 -130 0
17 53 19 22 20 -127 0
17 53 19 22 20 -129 0
17 53 49 52 47 -128 0
17 53 49 52 47 -130 0
17 53 49 52 47 -127 0
17 53 49 52 47 -129 0
17 67 19 22 20 -138 0
17 67 19 22 20 -136 0
17 67 19 22 20 -135 0
17 67 19 22 20 -137 0
17 2 19 22 20 -16 0
17 2 19 22 20 -21 0
17 2 19 22 20 -18 0
17 2 19 22 20 -15 0
17 40 19 22 20 -125 0
17 40 19 22 20 -123 0
17 40 19 22 20 -126 0
17 40 19 22 20 -124 0
17 26 19 22 20 -117 0
17 26 19 22 20 -116 0
17 26 19 22 20 -115 0
17 26 19 22 20 -118 0
17 31 19 22 20 -120 0
17 31 19 22 20 -122 0
17 31 19 22 20 -119 0
17 31 19 22 20 -121 0
17 13 19 22 20 -81 0
17 13 19 22 20 -83 0
17 13 19 22 20 -82 0
17 13 19 22 20 -84 0
17 19 74 22 20 -142 0
17 19 74 22 20 -141 0
17 19 74 22 20 -139 0
17 19 74 22 20 -140 0
17 19 58 22 20 -132 0
17 19 58 22 20 -131 0
17 19 58 22 20 -134 0
17 19 58 22 20 -133 0
17 19 49 22 20 -128 0
17 19 49 22 20 -130 0
17 19 49 22 20 -127 0
17 19 49 22 20 -129 0
17 19 70 22 20 -138 0
17 19 70 22 20 -136 0
17 19 70 22 20 -135 0
17 19 70 22 20 -137 0
17 19 6 22 20 -16 0
17 19 6 22 20 -21 0
17 19 6 22 20 -18 0
17 19 6 22 20 -15 0
17 19 43 22 20 -125 0
17 19 43 22 20 -123 0
17 19 43 22 20 -126 0
17 19 43 22 20 -124 0
17 19 29 22 20 -117 0
17 19 29 22 20 -116 0
17 19 29 22 20 -115 0
17 19 29 22 20 -118 0
17 19 37 22 20 -120 0
17 19 37 22 20 -122 0
17 19 37 22 20 -119 0
17 19 37 22 20 -121 0
17 19 12 22 20 -81 0
17 19 12 22 20 -83 0
17 19 12 22 20 -82 0
17 19 12 22 20 -84 0
17 19 22 78 20 -142 0
17 19 22 78 20 -141 0
17 19 22 78 20 -139 0
17 19 22 78 20 -140 0
17 19 22 61 20 -132 0
17 19 22 61 20 -131 0
17 19 22 61 20 -134 0
17 19 22 61 20 -133 0
17 19 22 52 20 -128 0
17 19 22 52 20 -130 0
17 19 22 52 20 -127 0
17 19 22 52 20 -129 0
17 19 22 69 20 -138 0
17 19 22 69 20 -136 0
17 19 22 69 20 -135 0
17 19 22 69 20 -137 0
17 19 22 1 20 -16 0
17 19 22 1 20 -21 0
17 19 22 1 20 -18 0
17 19 22 1 20 -15 0
17 19 22 41 20 -125 0
17 19 22 41 20 -123 0
17 19 22 41 20 -126 0
17 19 22 41 20 -124 0
17 19 22 28 20 -117 0
17 19 22 28 20 -116 0
17 19 22 28 20 -115 0
17 19 22 28 20 -118 0
17 19 22 36 20 -120 0
17 19 22 36 20 -122 0
17 19 22 36 20 -119 0
17 19 22 36 20 -121 0
17 19 22 9 20 -81 0
17 19 22 9 20 -83 0
17 19 22 9 20 -82 0
17 19 22 9 20 -84 0
17 19 22 20 77 -142 0
17 19 22 20 77 -141 0
17 19 22 20 77 -139 0
17 19 22 20 77 -140 0
17 19 22 20 60 -132 0
17 19 22 20 60 -131 0
17 19 22 20 60 -134 0
17 19 22 20 60 -133 0
17 19 22 20 47 -128 0
17 19 22 20 47 -130 0
17 19 22 20 47 -127 0
17 19 22 20 47 -129 0
76 55 74 78 77 -229 0
76 55 74 78 77 -231 0
76 55 74 78 77 -230 0
76 55 74 78 77 -232 0
76 55 58 61 60 -229 0
76 55 58 61 60 -231 0
76 55 58 61 60 -230 0
76 55 58 61 60 -232 0
76 53 74 78 77 -220 0
76 53 74 78 77 -221 0
76 53 74 78 77 -219 0
76 53 74 78 77 -222 0
76 53 49 52 47 -220 0
76 53 49 52 47 -221 0
76 53 49 52 47 -219 0
76 53 49 52 47 -222 0
76 67 74 78 77 -238 0
76 67 74 78 77 -237 0
76 67 74 78 77 -235 0
76 67 74 78 77 -236 0
76 2 74 78 77 -73 0
76 2 74 78 77 -72 0
76 2 74 78 77 -71 0
76 2 74 78 77 -75 0
76 40 74 78 77 -205 0
76 40 74 78 77 -208 0
76 40 74 78 77 -207 0
76 40 74 78 77 -206 0
76 26 74 78 77 -167 0
76 26 74 78 77 -165 0
76 26 74 78 77 -166 0
76 26 74 78 77 -168 0
76 31 74 78 77 -188 0
76 31 74 78 77 -187 0
76 31 74 78 77 -189 0
76 31 74 78 77 -190 0
76 13 74 78 77 -112 0
76 13 74 78 77 -110 0
76 13 74 78 77 -111 0
76 13 74 78 77 -109 0
76 19 74 78 77 -142 0
76 19 74 78 77 -141 0
76 19 74 78 77 -139 0
76 19 74 78 77 -140 0
76 74 58 78 77 -229 0
76 74 58 78 77 -231 0
76 74 58 78 77 -230 0
76 74 58 78 77 -232 0
76 74 49 78 77 -220 0
76 74 49 78 77 -221 0
76 74 49 78 77 -219 0
76 74 49 78 77 -222 0
76 74 70 78 77 -238 0
76 74 70 78 77 -237 0
76 74 70 78 77 -235 0
76 74 70 78 77 -236 0
76 74 6 78 77 -73 0
76 74 6 78 77 -72 0
76 74 6 78 77 -71 0
76 74 6 78 77 -75 0
76 74 43 78 77 -205 0
76 74 43 78 77 -208 0
76 74 43 78 77 -207 0
76 74 43 78 77 -206 0
76 74 29 78 77 -167 0
76 74 29 78 77 -165 0
76 74 29 78 77 -166 0
76 74 29 78 77 -168 0
76 74 37 78 77 -188 0
76 74 37 78 77 -187 0
76 74 37 78 77 -189 0
76 74 37 78 77 -190 0
76 74 12 78 77 -112 0
76 74 12 78 77 -110 0
76 74 12 78 77 -111 0
76 74 12 78 77 -109 0
76 74 22 78 77 -142 0
76 74 22 78 77 -141 0
76 74 22 78 77 -139 0
76 74 22 78 77 -140 0
76 74 78 61 77 -229 0
76 74 78 61 77 -231 0
76 74 78 61 77 -230 0
76 74 78 61 77 -232 0
76 74 78 52 77 -220 0
76 74 78 52 77 -221 0
76 74 78 52 77 -219 0
76 74 78 52 77 -222 0
76 74 78 69 77 -238 0
76 74 78 69 77 -237 0
76 74 78 69 77 -235 0
76 74 78 69 77 -236 0
76 74 78 1 77 -73 0
76 74 78 1 77 -72 0
76 74 78 1 77 -71 0
76 74 78 1 77 -75 0
76 74 78 41 77 -205 0
76 74 78 41 77 -208 0
76 74 78 41 77 -207 0
76 74 78 41 77 -206 0
76 74 78 28 77 -167 0
76 74 78 28 77 -165 0
76 74 78 28 77 -166 0
76 74 78 28 77 -168 0
76 74 78 36 77 -188 0
76 74 78 36 77 -187 0
76 74 78 36 77 -189 0
76 74 78 36 77 -190 0
76 74 78 9 77 -112 0
76 74 78 9 77 -110 0
76 74 78 9 77 -111 0
76 74 78 9 77 -109 0
76 74 78 20 77 -142 0
76 74 78 20 77 -141 0
76 74 78 20 77 -139 0
76 74 78 20 77 -140 0
76 74 78 77 60 -229 0
76 74 78 77 60 -231 0
76 74 78 77 60 -230 0
76 74 78 77 60 -232 0
76 74 78 77 47 -220 0
76 74 78 77 47 -221 0
76 74 78 77 47 -219 0
76 74 78 77 47 -222 0
55 53 58 61 60 -214 0
55 53 58 61 60 -213 0
55 53 58 61 60 -211 0
55 53 58 61 60 -212 0
55 53 49 52 47 -214 0
55 53 49 52 47 -213 0
55 53 49 52 47 -211 0
55 53 49 52 47 -212 0
55 67 58 61 60 -225 0
55 67 58 61 60 -227 0
55 67 58 61 60 -228 0
55 67 58 61 60 -226 0
55 2 58 61 60 -56 0
55 2 58 61 60 -57 0
55 2 58 61 60 -62 0
55 2 58 61 60 -59 0
55 40 58 61 60 -200 0
55 40 58 61 60 -197 0
55 40 58 61 60 -198 0
55 40 58 61 60 -199 0
55 26 58 61 60 -157 0
55 26 58 61 60 -159 0
55 26 58 61 60 -160 0
55 26 58 61 60 -158 0
55 31 58 61 60 -182 0
55 31 58 61 60 -179 0
55 31 58 61 60 -181 0
55 31 58 61 60 -180 0
55 13 58 61 60 -101 0
55 13 58 61 60 -102 0
55 13 58 61 60 -103 0
55 13 58 61 60 -104 0
55 19 58 61 60 -132 0
55 19 58 61 60 -131 0
55 19 58 61 60 -134 0
55 19 58 61 60 -133 0
55 74 58 61 60 -229 0
55 74 58 61 60 -231 0
55 74 58 61 60 -230 0
55 74 58 61 60 -232 0
55 58 49 61 60 -214 0
55 58 49 61 60 -213 0
55 58 49 61 60 -211 0
55 58 49 61 60 -212 0
55 58 70 61 60 -225 0
55 58 70 61 60 -227 0
55 58 70 61 60 -228 0
55 58 70 61 60 -226 0
55 58 6 61 60 -56 0
55 58 6 61 60 -57 0
55 58 6 61 60 -62 0
55 58 6 61 60 -59 0
55 58 43 61 60 -200 0
55 58 43 61 60 -197 0
55 58 43 61 60 -198 0
55 58 43 61 60 -199 0
55 58 29 61 60 -157 0
55 58 29 61 60 -159 0
55 58 29 61 60 -160 0
55 58 29 61 60 -158 0
55 58 37 61 60 -182 0
55 58 37 61 60 -179 0
55 58 37 61 60 -181 0
55 58 37 61 60 -180 0
55 58 12 61 60 -101 0
55 58 12 61 60 -102 0
55 58 12 61 60 -103 0
55 58 12 61 60 -104 0
55 58 22 61 60 -132 0
55 58 22 61 60 -131 0
55 58 22 61 60 -134 0
55 58 22 61 60 -133 0
55 58 78 61 60 -229 0
55 58 78 61 60 -231 0
55 58 78 61 60 -230 0
55 58 78 61 60 -232 0
55 58 61 52 60 -214 0
55 58 61 52 60 -213 0
55 58 61 52 60 -211 0
55 58 61 52 60 -212 0
55 58 61 69 60 -225 0
55 58 61 69 60 -227 0
55 58 61 69 60 -228 0
55 58 61 69 60 -226 0
55 58 61 1 60 -56 0
55 58 61 1 60 -57 0
55 58 61 1 60 -62 0
55 58 61 1 60 -59 0
55 58 61 41 60 -200 0
55 58 61 41 60 -197 0
55 58 61 41 60 -198 0
55 58 61 41 60 -199 0
55 58 61 28 60 -157 0
55 58 61 28 60 -159 0
55 58 61 28 60 -160 0
55 58 61 28 60 -158 0
55 58 61 36 60 -182 0
55 58 61 36 60 -179 0
55 58 61 36 60 -181 0
55 58 61 36 60 -180 0
55 58 61 9 60 -101 0
55 58 61 9 60 -102 0
55 58 61 9 60 -103 0
55 58 61 9 60 -104 0
55 58 61 20 60 -132 0
55 58 61 20 60 -131 0
55 58 61 20 60 -134 0
55 58 61 20 60 -133 0
55 58 61 77 60 -229 0
55 58 61 77 60 -231 0
55 58 61 77 60 -230 0
55 58 61 77 60 -232 0
55 58 61 60 47 -214 0
55 58 61 60 47 -213 0
55 58 61 60 47 -211 0
55 58 61 60 47 -212 0
53 67 49 52 47 -215 0
53 67 49 52 47 -216 0
53 67 49 52 47 -217 0
53 67 49 52 47 -218 0
53 2 49 52 47 -54 0
53 2 49 52 47 -51 0
53 2 49 52 47 -48 0
53 2 49 52 47 -50 0
53 40 49 52 47 -196 0
53 40 49 52 47 -193 0
53 40 49 52 47 -194 0
53 40 49 52 47 -195 0
53 26 49 52 47 -156 0
53 26 49 52 47 -154 0
53 26 49 52 47 -153 0
53 26 49 52 47 -155 0
53 31 49 52 47 -175 0
53 31 49 52 47 -178 0
53 31 49 52 47 -177 0
53 31 49 52 47 -176 0
53 13 49 52 47 -98 0
53 13 49 52 47 -99 0
53 13 49 52 47 -97 0
53 13 49 52 47 -100 0
53 19 49 52 47 -128 0
53 19 49 52 47 -130 0
53 19 49 52 47 -127 0
53 19 49 52 47 -129 0
53 74 49 52 47 -220 0
53 74 49 52 47 -221 0
53 74 49 52 47 -219 0
53 74 49 52 47 -222 0
53 58 49 52 47 -214 0
53 58 49 52 47 -213 0
53 58 49 52 47 -211 0
53 58 49 52 47 -212 0
53 49 70 52 47 -215 0
53 49 70 52 47 -216 0
53 49 70 52 47 -217 0
53 49 70 52 47 -218 0
53 49 6 52 47 -54 0
53 49 6 52 47 -51 0
53 49 6 52 47 -48 0
53 49 6 52 47 -50 0
53 49 43 52 47 -196 0
53 49 43 52 47 -193 0
53 49 43 52 47 -194 0
53 49 43 52 47 -195 0
53 49 29 52 47 -156 0
53 49 29 52 47 -154 0
53 49 29 52 47 -153 0
53 49 29 52 47 -155 0
53 49 37 52 47 -175 0
53 49 37 52 47 -178 0
53 49 37 52 47 -177 0
53 49 37 52 47 -176 0
53 49 12 52 47 -98 0
53 49 12 52 47 -99 0
53 49 12 52 47 -97 0
53 49 12 52 47 -100 0
53 49 22 52 47 -128 0
53 49 22 52 47 -130 0
53 49 22 52 47 -127 0
53 49 22 52 47 -129 0
53 49 78 52 47 -220 0
53 49 78 52 47 -221 0
53 49 78 52 47 -219 0
53 49 78 52 47 -222 0
53 49 61 52 47 -214 0
53 49 61 52 47 -213 0
53 49 61 52 47 -211 0
53 49 61 52 47 -212 0
53 49 52 69 47 -215 0
53 49 52 69 47 -216 0
53 49 52 69 47 -217 0
53 49 52 69 47 -218 0
53 49 52 1 47 -54 0
53 49 52 1 47 -51 0
53 49 52 1 47 -48 0
53 49 52 1 47 -50 0
53 49 52 41 47 -196 0
53 49 52 41 47 -193 0
53 49 52 41 47 -194 0
53 49 52 41 47 -195 0
53 49 52 28 47 -156 0
53 49 52 28 47 -154 0
53 49 52 28 47 -153 0
53 49 52 28 47 -155 0
53 49 52 36 47 -175 0
53 49 52 36 47 -178 0
53 49 52 36 47 -177 0
53 49 52 36 47 -176 0
53 49 52 9 47 -98 0
53 49 52 9 47 -99 0
53 49 52 9 47 -97 0
53 49 52 9 47 -100 0
53 49 52 20 47 -128 0
53 49 52 20 47 -130 0
53 49 52 20 47 -127 0
53 49 52 20 47 -129 0
53 49 52 77 47 -220 0
53 49 52 77 47 -221 0
53 49 52 77 47 -219 0
53 49 52 77 47 -222 0
53 49 52 60 47 -214 0
53 49 52 60 47 -213 0
53 49 52 60 47 -211 0
53 49 52 60 47 -212 0
68 4 67 2 70 6 -66 0
68 4 67 2 70 6 -65 0
68 4 67 2 70 6 -63 0
68 4 67 2 70 6 -64 0
68 4 67 2 70 69 -66 0
68 4 67 2 70 69 -65 0
68 4 67 2 70 69 -63 0
68 4 67 2 70 69 -64 0
68 4 67 2 6 1 -66 0
68 4 67 2 6 1 -65 0
68 4 67 2 6 1 -63 0
68 4 67 2 6 1 -64 0
68 4 67 2 69 1 -66 0
68 4 67 2 69 1 -65 0
68 4 67 2 69 1 -63 0
68 4 67 2 69 1 -64 0
68 4 67 70 6 69 -66 0
68 4 67 70 6 69 -65 0
68 4 67 70 6 69 -63 0
68 4 67 70 6 69 -64 0
68 4 67 70 69 1 -66 0
68 4 67 70 69 1 -65 0
68 4 67 70 69 1 -63 0
68 4 67 70 69 1 -64 0
68 4 2 70 6 1 -66 0
68 4 2 70 6 1 -65 0
68 4 2 70 6 1 -63 0
68 4 2 70 6 1 -64 0
68 4 2 6 69 1 -66 0
68 4 2 6 69 1 -65 0
68 4 2 6 69 1 -63 0
68 4 2 6 69 1 -64 0
68 4 70 6 69 1 -66 0
68 4 70 6 69 1 -65 0
68 4 70 6 69 1 -63 0
68 4 70 6 69 1 -64 0
68 39 67 40 70 43 -203 0
68 39 67 40 70 43 -201 0
68 39 67 40 70 43 -204 0
68 39 67 40 70 43 -202 0
68 39 67 40 70 69 -203 0
68 39 67 40 70 69 -201 0
68 39 67 40 70 69 -204 0
68 39 67 40 70 69 -202 0
68 39 67 40 43 41 -203 0
68 39 67 40 43 41 -201 0
68 39 67 40 43 41 -204 0
68 39 67 40 43 41 -202 0
68 39 67 40 69 41 -203 0
68 39 67 40 69 41 -201 0
68 39 67 40 69 41 -204 0
68 39 67 40 69 41 -202 0
68 39 67 70 43 69 -203 0
68 39 67 70 43 69 -201 0
68 39 67 70 43 69 -204 0
68 39 67 70 43 69 -202 0
68 39 67 70 69 41 -203 0
68 39 67 70 69 41 -201 0
68 39 67 70 69 41 -204 0
68 39 67 70 69 41 -202 0
68 39 40 70 43 41 -203 0
68 39 40 70 43 41 -201 0
68 39 40 70 43 41 -204 0
68 39 40 70 43 41 -202 0
68 39 40 43 69 41 -203 0
68 39 40 43 69 41 -201 0
68 39 40 43 69 41 -204 0
68 39 40 43 69 41 -202 0
68 39 70 43 69 41 -203 0
68 39 70 43 69 41 -201 0
68 39 70 43 69 41 -204 0
68 39 70 43 69 41 -202 0
68 24 67 26 70 29 -164 0
68 24 67 26 70 29 -162 0
68 24 67 26 70 29 -163 0
68 24 67 26 70 29 -161 0
68 24 67 26 70 69 -164 0
68 24 67 26 70 69 -162 0
68 24 67 26 70 69 -163 0
68 24 67 26 70 69 -161 0
68 24 67 26 29 28 -164 0
68 24 67 26 29 28 -162 0
68 24 67 26 29 28 -163 0
68 24 67 26 29 28 -161 0
68 24 67 26 69 28 -164 0
68 24 67 26 69 28 -162 0
68 24 67 26 69 28 -163 0
68 24 67 26 69 28 -161 0
68 24 67 70 29 69 -164 0
68 24 67 70 29 69 -162 0
68 24 67 70 29 69 -163 0
68 24 67 70 29 69 -161 0
68 24 67 70 69 28 -164 0
68 24 67 70 69 28 -162 0
68 24 67 70 69 28 -163 0
68 24 67 70 69 28 -161 0
68 24 26 70 29 28 -164 0
68 24 26 70 29 28 -162 0
68 24 26 70 29 28 -163 0
68 24 26 70 29 28 -161 0
68 24 26 29 69 28 -164 0
68 24 26 29 69 28 -162 0
68 24 26 29 69 28 -163 0
68 24 26 29 69 28 -161 0
68 24 70 29 69 28 -164 0
68 24 70 29 69 28 -162 0
68 24 70 29 69 28 -163 0
68 24 70 29 69 28 -161 0
68 32 67 31 70 37 -186 0
68 32 67 31 70 37 -184 0
68 32 67 31 70 37 -185 0
68 32 67 31 70 37 -183 0
68 32 67 31 70 69 -186 0
68 32 67 31 70 69 -184 0
68 32 67 31 70 69 -185 0
68 32 67 31 70 69 -183 0
68 32 67 31 37 36 -186 0
68 32 67 31 37 36 -184 0
68 32 67 31 37 36 -185 0
68 32 67 31 37 36 -183 0
68 32 67 31 69 36 -186 0
68 32 67 31 69 36 -184 0
68 32 67 31 69 36 -185 0
68 32 67 31 69 36 -183 0
68 32 67 70 37 69 -186 0
68 32 67 70 37 69 -184 0
68 32 67 70 37 69 -185 0
68 32 67 70 37 69 -183 0
68 32 67 70 69 36 -186 0
68 32 67 70 69 36 -184 0
68 32 67 70 69 36 -185 0
68 32 67 70 69 36 -183 0
68 32 31 70 37 36 -186 0
68 32 31 70 37 36 -184 0
68 32 31 70 37 36 -185 0
68 32 31 70 37 36 -183 0
68 32 31 37 69 36 -186 0
68 32 31 37 69 36 -184 0
68 32 31 37 69 36 -185 0
68 32 31 37 69 36 -183 0
68 32 70 37 69 36 -186 0
68 32 70 37 69 36 -184 0
68 32 70 37 69 36 -185 0
68 32 70 37 69 36 -183 0
68 8 67 13 70 12 -105 0
68 8 67 13 70 12 -108 0
68 8 67 13 70 12 -106 0
68 8 67 13 70 12 -107 0
68 8 67 13 70 69 -105 0
68 8 67 13 70 69 -108 0
68 8 67 13 70 69 -106 0
68 8 67 13 70 69 -107 0
68 8 67 13 12 9 -105 0
68 8 67 13 12 9 -108 0
68 8 67 13 12 9 -106 0
68 8 67 13 12 9 -107 0
68 8 67 13 69 9 -105 0
68 8 67 13 69 9 -108 0
68 8 67 13 69 9 -106 0
68 8 67 13 69 9 -107 0
68 8 67 70 12 69 -105 0
68 8 67 70 12 69 -108 0
68 8 67 70 12 69 -106 0
68 8 67 70 12 69 -107 0
68 8 67 70 69 9 -105 0
68 8 67 70 69 9 -108 0
68 8 67 70 69 9 -106 0
68 8 67 70 69 9 -107 0
68 8 13 70 12 9 -105 0
68 8 13 70 12 9 -108 0
68 8 13 70 12 9 -106 0
68 8 13 70 12 9 -107 0
68 8 13 12 69 9 -105 0
68 8 13 12 69 9 -108 0
68 8 13 12 69 9 -106 0
68 8 13 12 69 9 -107 0
68 8 70 12 69 9 -105 0
68 8 70 12 69 9 -108 0
68 8 70 12 69 9 -106 0
68 8 70 12 69 9 -107 0
68 17 67 19 70 22 -138 0
68 17 67 19 70 22 -136 0
68 17 67 19 70 22 -135 0
68 17 67 19 70 22 -137 0
68 17 67 19 70 69 -138 0
68 17 67 19 70 69 -136 0
68 17 67 19 70 69 -135 0
68 17 67 19 70 69 -137 0
68 17 67 19 22 20 -138 0
68 17 67 19 22 20 -136 0
68 17 67 19 22 20 -135 0
68 17 67 19 22 20 -137 0
68 17 67 19 69 20 -138 0
68 17 67 19 69 20 -136 0
68 17 67 19 69 20 -135 0
68 17 67 19 69 20 -137 0
68 17 67 70 22 69 -138 0
68 17 67 70 22 69 -136 0
68 17 67 70 22 69 -135 0
68 17 67 70 22 69 -137 0
68 17 67 70 69 20 -138 0
68 17 67 70 69 20 -136 0
68 17 67 70 69 20 -135 0
68 17 67 70 69 20 -137 0
68 17 19 70 22 20 -138 0
68 17 19 70 22 20 -136 0
68 17 19 70 22 20 -135 0
68 17 19 70 22 20 -137 0
68 17 19 22 69 20 -138 0
68 17 19 22 69 20 -136 0
68 17 19 22 69 20 -135 0
68 17 19 22 69 20 -137 0
68 17 70 22 69 20 -138 0
68 17 70 22 69 20 -136 0
68 17 70 22 69 20 -135 0
68 17 70 22 69 20 -137 0
68 76 67 74 70 78 -238 0
68 76 67 74 70 78 -237 0
68 76 67 74 70 78 -235 0
68 76 67 74 70 78 -236 0
68 76 67 74 70 69 -238 0
68 76 67 74 70 69 -237 0
68 76 67 74 70 69 -235 0
68 76 67 74 70 69 -236 0
68 76 67 74 78 77 -238 0
68 76 67 74 78 77 -237 0
68 76 67 74 78 77 -235 0
68 76 67 74 78 77 -236 0
68 76 67 74 69 77 -238 0
68 76 67 74 69 77 -237 0
68 76 67 74 69 77 -235 0
68 76 67 74 69 77 -236 0
68 76 67 70 78 69 -238 0
68 76 67 70 78 69 -237 0
68 76 67 70 78 69 -235 0
68 76 67 70 78 69 -236 0
68 76 67 70 69 77 -238 0
68 76 67 70 69 77 -237 0
68 76 67 70 69 77 -235 0
68 76 67 70 69 77 -236 0
68 76 74 70 78 77 -238 0
68 76 74 70 78 77 -237 0
68 76 74 70 78 77 -235 0
68 76 74 70 78 77 -236 0
68 76 74 78 69 77 -238 0
68 76 74 78 69 77 -237 0
68 76 74 78 69 77 -235 0
68 76 74 78 69 77 -236 0
68 76 70 78 69 77 -238 0
68 76 70 78 69 77 -237 0
68 76 70 78 69 77 -235 0
68 76 70 78 69 77 -236 0
68 55 67 58 70 61 -225 0
68 55 67 58 70 61 -227 0
68 55 67 58 70 61 -228 0
68 55 67 58 70 61 -226 0
68 55 67 58 70 69 -225 0
68 55 67 58 70 69 -227 0
68 55 67 58 70 69 -228 0
68 55 67 58 70 69 -226 0
68 55 67 58 61 60 -225 0
68 55 67 58 61 60 -227 0
68 55 67 58 61 60 -228 0
68 55 67 58 61 60 -226 0
68 55 67 58 69 60 -225 0
68 55 67 58 69 60 -227 0
68 55 67 58 69 60 -228 0
68 55 67 58 69 60 -226 0
68 55 67 70 61 69 -225 0
68 55 67 70 61 69 -227 0
68 55 67 70 61 69 -228 0
68 55 67 70 61 69 -226 0
68 55 67 70 69 60 -225 0
68 55 67 70 69 60 -227 0
68 55 67 70 69 60 -228 0
68 55 67 70 69 60 -226 0
68 55 58 70 61 60 -225 0
68 55 58 70 61 60 -227 0
68 55 58 70 61 60 -228 0
68 55 58 70 61 60 -226 0
68 55 58 61 69 60 -225 0
68 55 58 61 69 60 -227 0
68 55 58 61 69 60 -228 0
68 55 58 61 69 60 -226 0
68 55 70 61 69 60 -225 0
68 55 70 61 69 60 -227 0
68 55 70 61 69 60 -228 0
68 55 70 61 69 60 -226 0
68 53 67 49 70 52 -215 0
68 53 67 49 70 52 -216 0
68 53 67 49 70 52 -217 0
68 53 67 49 70 52 -218 0
68 53 67 49 70 69 -215 0
68 53 67 49 70 69 -216 0
68 53 67 49 70 69 -217 0
68 53 67 49 70 69 -218 0
68 53 67 49 52 47 -215 0
68 53 67 49 52 47 -216 0
68 53 67 49 52 47 -217 0
68 53 67 49 52 47 -218 0
68 53 67 49 69 47 -215 0
68 53 67 49 69 47 -216 0
68 53 67 49 69 47 -217 0
68 53 67 49 69 47 -218 0
68 53 67 70 52 69 -215 0
68 53 67 70 52 69 -216 0
68 53 67 70 52 69 -217 0
68 53 67 70 52 69 -218 0
68 53 67 70 69 47 -215 0
68 53 67 70 69 47 -216 0
68 53 67 70 69 47 -217 0
68 53 67 70 69 47 -218 0
68 53 49 70 52 47 -215 0
68 53 49 70 52 47 -216 0
68 53 49 70 52 47 -217 0
68 53 49 70 52 47 -218 0
68 53 49 52 69 47 -215 0
68 53 49 52 69 47 -216 0
68 53 49 52 69 47 -217 0
68 53 49 52 69 47 -218 0
68 53 70 52 69 47 -215 0
68 53 70 52 69 47 -216 0
68 53 70 52 69 47 -217 0
68 53 70 52 69 47 -218 0
68 67 2 70 6 69 -66 0
68 67 2 70 6 69 -65 0
68 67 2 70 6 69 -63 0
68 67 2 70 6 69 -64 0
68 67 2 70 69 1 -66 0
68 67 2 70 69 1 -65 0
68 67 2 70 69 1 -63 0
68 67 2 70 69 1 -64 0
68 67 40 70 43 69 -203 0
68 67 40 70 43 69 -201 0
68 67 40 70 43 69 -204 0
68 67 40 70 43 69 -202 0
68 67 40 70 69 41 -203 0
68 67 40 70 69 41 -201 0
68 67 40 70 69 41 -204 0
68 67 40 70 69 41 -202 0
68 67 26 70 29 69 -164 0
68 67 26 70 29 69 -162 0
68 67 26 70 29 69 -163 0
68 67 26 70 29 69 -161 0
68 67 26 70 69 28 -164 0
68 67 26 70 69 28 -162 0
68 67 26 70 69 28 -163 0
68 67 26 70 69 28 -161 0
68 67 31 70 37 69 -186 0
68 67 31 70 37 69 -184 0
68 67 31 70 37 69 -185 0
68 67 31 70 37 69 -183 0
68 67 31 70 69 36 -186 0
68 67 31 70 69 36 -184 0
68 67 31 70 69 36 -185 0
68 67 31 70 69 36 -183 0
68 67 13 70 12 69 -105 0
68 67 13 70 12 69 -108 0
68 67 13 70 12 69 -106 0
68 67 13 70 12 69 -107 0
68 67 13 70 69 9 -105 0
68 67 13 70 69 9 -108 0
68 67 13 70 69 9 -106 0
68 67 13 70 69 9 -107 0
68 67 19 70 22 69 -138 0
68 67 19 70 22 69 -136 0
68 67 19 70 22 69 -135 0
68 67 19 70 22 69 -137 0
68 67 19 70 69 20 -138 0
68 67 19 70 69 20 -136 0
68 67 19 70 69 20 -135 0
68 67 19 70 69 20 -137 0
68 67 74 70 78 69 -238 0
68 67 74 70 78 69 -237 0
68 67 74 70 78 69 -235 0
68 67 74 70 78 69 -236 0
68 67 74 70 69 77 -238 0
68 67 74 70 69 77 -237 0
68 67 74 70 69 77 -235 0
68 67 74 70 69 77 -236 0
68 67 58 70 61 69 -225 0
68 67 58 70 61 69 -227 0
68 67 58 70 61 69 -228 0
68 67 58 70 61 69 -226 0
68 67 58 70 69 60 -225 0
68 67 58 70 69 60 -227 0
68 67 58 70 69 60 -228 0
68 67 58 70 69 60 -226 0
68 67 49 70 52 69 -215 0
68 67 49 70 52 69 -216 0
68 67 49 70 52 69 -217 0
68 67 49 70 52 69 -218 0
68 67 49 70 69 47 -215 0
68 67 49 70 69 47 -216 0
68 67 49 70 69 47 -217 0
68 67 49 70 69 47 -218 0
68 67 70 6 69 1 -66 0
68 67 70 6 69 1 -65 0
68 67 70 6 69 1 -63 0
68 67 70 6 69 1 -64 0
68 67 70 43 69 41 -203 0
68 67 70 43 69 41 -201 0
68 67 70 43 69 41 -204 0
68 67 70 43 69 41 -202 0
68 67 70 29 69 28 -164 0
68 67 70 29 69 28 -162 0
68 67 70 29 69 28 -163 0
68 67 70 29 69 28 -161 0
68 67 70 37 69 36 -186 0
68 67 70 37 69 36 -184 0
68 67 70 37 69 36 -185 0
68 67 70 37 69 36 -183 0
68 67 70 12 69 9 -105 0
68 67 70 12 69 9 -108 0
68 67 70 12 69 9 -106 0
68 67 70 12 69 9 -107 0
68 67 70 22 69 20 -138 0
68 67 70 22 69 20 -136 0
68 67 70 22 69 20 -135 0
68 67 70 22 69 20 -137 0
68 67 70 78 69 77 -238 0
68 67 70 78 69 77 -237 0
68 67 70 78 69 77 -235 0
68 67 70 78 69 77 -236 0
68 67 70 61 69 60 -225 0
68 67 70 61 69 60 -227 0
68 67 70 61 69 60 -228 0
68 67 70 61 69 60 -226 0
68 67 70 52 69 47 -215 0
68 67 70 52 69 47 -216 0
68 67 70 52 69 47 -217 0
68 67 70 52 69 47 -218 0
4 39 2 40 6 43 -42 0
4 39 2 40 6 43 -45 0
4 39 2 40 6 43 -44 0
4 39 2 40 6 43 -46 0
4 39 2 40 6 1 -42 0
4 39 2 40 6 1 -45 0
4 39 2 40 6 1 -44 0
4 39 2 40 6 1 -46 0
4 39 2 40 43 41 -42 0
4 39 2 40 43 41 -45 0
4 39 2 40 43 41 -44 0
4 39 2 40 43 41 -46 0
4 39 2 40 1 41 -42 0
4 39 2 40 1 41 -45 0
4 39 2 40 1 41 -44 0
4 39 2 40 1 41 -46 0
4 39 2 6 43 1 -42 0
4 39 2 6 43 1 -45 0
4 39 2 6 43 1 -44 0
4 39 2 6 43 1 -46 0
4 39 2 6 1 41 -42 0
4 39 2 6 1 41 -45 0
4 39 2 6 1 41 -44 0
4 39 2 6 1 41 -46 0
4 39 40 6 43 41 -42 0
4 39 40 6 43 41 -45 0
4 39 40 6 43 41 -44 0
4 39 40 6 43 41 -46 0
4 39 40 43 1 41 -42 0
4 39 40 43 1 41 -45 0
4 39 40 43 1 41 -44 0
4 39 40 43 1 41 -46 0
4 39 6 43 1 41 -42 0
4 39 6 43 1 41 -45 0
4 39 6 43 1 41 -44 0
4 39 6 43 1 41 -46 0
4 24 2 26 6 29 -27 0
4 24 2 26 6 29 -30 0
4 24 2 26 6 29 -25 0
4 24 2 26 6 29 -23 0
4 24 2 26 6 1 -27 0
4 24 2 26 6 1 -30 0
4 24 2 26 6 1 -25 0
4 24 2 26 6 1 -23 0
4 24 2 26 29 28 -27 0
4 24 2 26 29 28 -30 0
4 24 2 26 29 28 -25 0
4 24 2 26 29 28 -23 0
4 24 2 26 1 28 -27 0
4 24 2 26 1 28 -30 0
4 24 2 26 1 28 -25 0
4 24 2 26 1 28 -23 0
4 24 2 6 29 1 -27 0
4 24 2 6 29 1 -30 0
4 24 2 6 29 1 -25 0
4 24 2 6 29 1 -23 0
4 24 2 6 1 28 -27 0
4 24 2 6 1 28 -30 0
4 24 2 6 1 28 -25 0
4 24 2 6 1 28 -23 0
4 24 26 6 29 28 -27 0
4 24 26 6 29 28 -30 0
4 24 26 6 29 28 -25 0
4 24 26 6 29 28 -23 0
4 24 26 29 1 28 -27 0
4 24 26 29 1 28 -30 0
4 24 26 29 1 28 -25 0
4 24 26 29 1 28 -23 0
4 24 6 29 1 28 -27 0
4 24 6 29 1 28 -30 0
4 24 6 29 1 28 -25 0
4 24 6 29 1 28 -23 0
4 32 2 31 6 37 -33 0
4 32 2 31 6 37 -35 0
4 32 2 31 6 37 -34 0
4 32 2 31 6 37 -38 0
4 32 2 31 6 1 -33 0
4 32 2 31 6 1 -35 0
4 32 2 31 6 1 -34 0
4 32 2 31 6 1 -38 0
4 32 2 31 37 36 -33 0
4 32 2 31 37 36 -35 0
4 32 2 31 37 36 -34 0
4 32 2 31 37 36 -38 0
4 32 2 31 1 36 -33 0
4 32 2 31 1 36 -35 0
4 32 2 31 1 36 -34 0
4 32 2 31 1 36 -38 0
4 32 2 6 37 1 -33 0
4 32 2 6 37 1 -35 0
4 32 2 6 37 1 -34 0
4 32 2 6 37 1 -38 0
4 32 2 6 1 36 -33 0
4 32 2 6 1 36 -35 0
4 32 2 6 1 36 -34 0
4 32 2 6 1 36 -38 0
4 32 31 6 37 36 -33 0
4 32 31 6 37 36 -35 0
4 32 31 6 37 36 -34 0
4 32 31 6 37 36 -38 0
4 32 31 37 1 36 -33 0
4 32 31 37 1 36 -35 0
4 32 31 37 1 36 -34 0
4 32 31 37 1 36 -38 0
4 32 6 37 1 36 -33 0
4 32 6 37 1 36 -35 0
4 32 6 37 1 36 -34 0
4 32 6 37 1 36 -38 0
4 8 2 13 6 12 -7 0
4 8 2 13 6 12 -10 0
4 8 2 13 6 12 -14 0
4 8 2 13 6 12 -11 0
4 8 2 13 6 1 -7 0
4 8 2 13 6 1 -10 0
4 8 2 13 6 1 -14 0
4 8 2 13 6 1 -11 0
4 8 2 13 12 9 -7 0
4 8 2 13 12 9 -10 0
4 8 2 13 12 9 -14 0
4 8 2 13 12 9 -11 0
4 8 2 13 1 9 -7 0
4 8 2 13 1 9 -10 0
4 8 2 13 1 9 -14 0
4 8 2 13 1 9 -11 0
4 8 2 6 12 1 -7 0
4 8 2 6 12 1 -10 0
4 8 2 6 12 1 -14 0
4 8 2 6 12 1 -11 0
4 8 2 6 1 9 -7 0
4 8 2 6 1 9 -10 0
4 8 2 6 1 9 -14 0
4 8 2 6 1 9 -11 0
4 8 13 6 12 9 -7 0
4 8 13 6 12 9 -10 0
4 8 13 6 12 9 -14 0
4 8 13 6 12 9 -11 0
4 8 13 12 1 9 -7 0
4 8 13 12 1 9 -10 0
4 8 13 12 1 9 -14 0
4 8 13 12 1 9 -11 0
4 8 6 12 1 9 -7 0
4 8 6 12 1 9 -10 0
4 8 6 12 1 9 -14 0
4 8 6 12 1 9 -11 0
4 17 2 19 6 22 -16 0
4 17 2 19 6 22 -21 0
4 17 2 19 6 22 -18 0
4 17 2 19 6 22 -15 0
4 17 2 19 6 1 -16 0
4 17 2 19 6 1 -21 0
4 17 2 19 6 1 -18 0
4 17 2 19 6 1 -15 0
4 17 2 19 22 20 -16 0
4 17 2 19 22 20 -21 0
4 17 2 19 22 20 -18 0
4 17 2 19 22 20 -15 0
4 17 2 19 1 20 -16 0
4 17 2 19 1 20 -21 0
4 17 2 19 1 20 -18 0
4 17 2 19 1 20 -15 0
4 17 2 6 22 1 -16 0
4 17 2 6 22 1 -21 0
4 17 2 6 22 1 -18 0
4 17 2 6 22 1 -15 0
4 17 2 6 1 20 -16 0
4 17 2 6 1 20 -21 0
4 17 2 6 1 20 -18 0
4 17 2 6 1 20 -15 0
4 17 19 6 22 20 -16 0
4 17 19 6 22 20 -21 0
4 17 19 6 22 20 -18 0
4 17 19 6 22 20 -15 0
4 17 19 22 1 20 -16 0
4 17 19 22 1 20 -21 0
4 17 19 22 1 20 -18 0
4 17 19 22 1 20 -15 0
4 17 6 22 1 20 -16 0
4 17 6 22 1 20 -21 0
4 17 6 22 1 20 -18 0
4 17 6 22 1 20 -15 0
4 76 2 74 6 78 -73 0
4 76 2 74 6 78 -72 0
4 76 2 74 6 78 -71 0
4 76 2 74 6 78 -75 0
4 76 2 74 6 1 -73 0
4 76 2 74 6 1 -72 0
4 76 2 74 6 1 -71 0
4 76 2 74 6 1 -75 0
4 76 2 74 78 77 -73 0
4 76 2 74 78 77 -72 0
4 76 2 74 78 77 -71 0
4 76 2 74 78 77 -75 0
4 76 2 74 1 77 -73 0
4 76 2 74 1 77 -72 0
4 76 2 74 1 77 -71 0
4 76 2 74 1 77 -75 0
4 76 2 6 78 1 -73 0
4 76 2 6 78 1 -72 0
4 76 2 6 78 1 -71 0
4 76 2 6 78 1 -75 0
4 76 2 6 1 77 -73 0
4 76 2 6 1 77 -72 0
4 76 2 6 1 77 -71 0
4 76 2 6 1 77 -75 0
4 76 74 6 78 77 -73 0
4 76 74 6 78 77 -72 0
4 76 74 6 78 77 -71 0
4 76 74 6 78 77 -75 0
4 76 74 78 1 77 -73 0
4 76 74 78 1 77 -72 0
4 76 74 78 1 77 -71 0
4 76 74 78 1 77 -75 0
4 76 6 78 1 77 -73 0
4 76 6 78 1 77 -72 0
4 76 6 78 1 77 -71 0
4 76 6 78 1 77 -75 0
4 55 2 58 6 61 -56 0
4 55 2 58 6 61 -57 0
4 55 2 58 6 61 -62 0
4 55 2 58 6 61 -59 0
4 55 2 58 6 1 -56 0
4 55 2 58 6 1 -57 0
4 55 2 58 6 1 -62 0
4 55 2 58 6 1 -59 0
4 55 2 58 61 60 -56 0
4 55 2 58 61 60 -57 0
4 55 2 58 61 60 -62 0
4 55 2 58 61 60 -59 0
4 55 2 58 1 60 -56 0
4 55 2 58 1 60 -57 0
4 55 2 58 1 60 -62 0
4 55 2 58 1 60 -59 0
4 55 2 6 61 1 -56 0
4 55 2 6 61 1 -57 0
4 55 2 6 61 1 -62 0
4 55 2 6 61 1 -59 0
4 55 2 6 1 60 -56 0
4 55 2 6 1 60 -57 0
4 55 2 6 1 60 -62 0
4 55 2 6 1 60 -59 0
4 55 58 6 61 60 -56 0
4 55 58 6 61 60 -57 0
4 55 58 6 61 60 -62 0
4 55 58 6 61 60 -59 0
4 55 58 61 1 60 -56 0
4 55 58 61 1 60 -57 0
4 55 58 61 1 60 -62 0
4 55 58 61 1 60 -59 0
4 55 6 61 1 60 -56 0
4 55 6 61 1 60 -57 0
4 55 6 61 1 60 -62 0
4 55 6 61 1 60 -59 0
4 53 2 49 6 52 -54 0
4 53 2 49 6 52 -51 0
4 53 2 49 6 52 -48 0
4 53 2 49 6 52 -50 0
4 53 2 49 6 1 -54 0
4 53 2 49 6 1 -51 0
4 53 2 49 6 1 -48 0
4 53 2 49 6 1 -50 0
4 53 2 49 52 47 -54 0
4 53 2 49 52 47 -51 0
4 53 2 49 52 47 -48 0
4 53 2 49 52 47 -50 0
4 53 2 49 1 47 -54 0
4 53 2 49 1 47 -51 0
4 53 2 49 1 47 -48 0
4 53 2 49 1 47 -50 0
4 53 2 6 52 1 -54 0
4 53 2 6 52 1 -51 0
4 53 2 6 52 1 -48 0
4 53 2 6 52 1 -50 0
4 53 2 6 1 47 -54 0
4 53 2 6 1 47 -51 0
4 53 2 6 1 47 -48 0
4 53 2 6 1 47 -50 0
4 53 49 6 52 47 -54 0
4 53 49 6 52 47 -51 0
4 53 49 6 52 47 -48 0
4 53 49 6 52 47 -50 0
4 53 49 52 1 47 -54 0
4 53 49 52 1 47 -51 0
4 53 49 52 1 47 -48 0
4 53 49 52 1 47 -50 0
4 53 6 52 1 47 -54 0
4 53 6 52 1 47 -51 0
4 53 6 52 1 47 -48 0
4 53 6 52 1 47 -50 0
4 67 2 70 6 1 -66 0
4 67 2 70 6 1 -65 0
4 67 2 70 6 1 -63 0
4 67 2 70 6 1 -64 0
4 67 2 6 69 1 -66 0
4 67 2 6 69 1 -65 0
4 67 2 6 69 1 -63 0
4 67 2 6 69 1 -64 0
4 2 40 6 43 1 -42 0
4 2 40 6 43 1 -45 0
4 2 40 6 43 1 -44 0
4 2 40 6 43 1 -46 0
4 2 40 6 1 41 -42 0
4 2 40 6 1 41 -45 0
4 2 40 6 1 41 -44 0
4 2 40 6 1 41 -46 0
4 2 26 6 29 1 -27 0
4 2 26 6 29 1 -30 0
4 2 26 6 29 1 -25 0
4 2 26 6 29 1 -23 0
4 2 26 6 1 28 -27 0
4 2 26 6 1 28 -30 0
4 2 26 6 1 28 -25 0
4 2 26 6 1 28 -23 0
4 2 31 6 37 1 -33 0
4 2 31 6 37 1 -35 0
4 2 31 6 37 1 -34 0
4 2 31 6 37 1 -38 0
4 2 31 6 1 36 -33 0
4 2 31 6 1 36 -35 0
4 2 31 6 1 36 -34 0
4 2 31 6 1 36 -38 0
4 2 13 6 12 1 -7 0
4 2 13 6 12 1 -10 0
4 2 13 6 12 1 -14 0
4 2 13 6 12 1 -11 0
4 2 13 6 1 9 -7 0
4 2 13 6 1 9 -10 0
4 2 13 6 1 9 -14 0
4 2 13 6 1 9 -11 0
4 2 19 6 22 1 -16 0
4 2 19 6 22 1 -21 0
4 2 19 6 22 1 -18 0
4 2 19 6 22 1 -15 0
4 2 19 6 1 20 -16 0
4 2 19 6 1 20 -21 0
4 2 19 6 1 20 -18 0
4 2 19 6 1 20 -15 0
4 2 74 6 78 1 -73 0
4 2 74 6 78 1 -72 0
4 2 74 6 78 1 -71 0
4 2 74 6 78 1 -75 0
4 2 74 6 1 77 -73 0
4 2 74 6 1 77 -72 0
4 2 74 6 1 77 -71 0
4 2 74 6 1 77 -75 0
4 2 58 6 61 1 -56 0
4 2 58 6 61 1 -57 0
4 2 58 6 61 1 -62 0
4 2 58 6 61 1 -59 0
4 2 58 6 1 60 -56 0
4 2 58 6 1 60 -57 0
4 2 58 6 1 60 -62 0
4 2 58 6 1 60 -59 0
4 2 49 6 52 1 -54 0
4 2 49 6 52 1 -51 0
4 2 49 6 52 1 -48 0
4 2 49 6 52 1 -50 0
4 2 49 6 1 47 -54 0
4 2 49 6 1 47 -51 0
4 2 49 6 1 47 -48 0
4 2 49 6 1 47 -50 0
4 2 70 6 69 1 -66 0
4 2 70 6 69 1 -65 0
4 2 70 6 69 1 -63 0
4 2 70 6 69 1 -64 0
4 2 6 43 1 41 -42 0
4 2 6 43 1 41 -45 0
4 2 6 43 1 41 -44 0
4 2 6 43 1 41 -46 0
4 2 6 29 1 28 -27 0
4 2 6 29 1 28 -30 0
4 2 6 29 1 28 -25 0
4 2 6 29 1 28 -23 0
4 2 6 37 1 36 -33 0
4 2 6 37 1 36 -35 0
4 2 6 37 1 36 -34 0
4 2 6 37 1 36 -38 0
4 2 6 12 1 9 -7 0
4 2 6 12 1 9 -10 0
4 2 6 12 1 9 -14 0
4 2 6 12 1 9 -11 0
4 2 6 22 1 20 -16 0
4 2 6 22 1 20 -21 0
4 2 6 22 1 20 -18 0
4 2 6 22 1 20 -15 0
4 2 6 78 1 77 -73 0
4 2 6 78 1 77 -72 0
4 2 6 78 1 77 -71 0
4 2 6 78 1 77 -75 0
4 2 6 61 1 60 -56 0
4 2 6 61 1 60 -57 0
4 2 6 61 1 60 -62 0
4 2 6 61 1 60 -59 0
4 2 6 52 1 47 -54 0
4 2 6 52 1 47 -51 0
4 2 6 52 1 47 -48 0
4 2 6 52 1 47 -50 0
39 24 40 26 43 29 -150 0
39 24 40 26 43 29 -152 0
39 24 40 26 43 29 -149 0
39 24 40 26 43 29 -151 0
39 24 40 26 43 41 -150 0
39 24 40 26 43 41 -152 0
39 24 40 26 43 41 -149 0
39 24 40 26 43 41 -151 0
39 24 40 26 29 28 -150 0
39 24 40 26 29 28 -152 0
39 24 40 26 29 28 -149 0
39 24 40 26 29 28 -151 0
39 24 40 26 41 28 -150 0
39 24 40 26 41 28 -152 0
39 24 40 26 41 28 -149 0
39 24 40 26 41 28 -151 0
39 24 40 43 29 41 -150 0
39 24 40 43 29 41 -152 0
39 24 40 43 29 41 -149 0
39 24 40 43 29 41 -151 0
39 24 40 43 41 28 -150 0
39 24 40 43 41 28 -152 0
39 24 40 43 41 28 -149 0
39 24 40 43 41 28 -151 0
39 24 26 43 29 28 -150 0
39 24 26 43 29 28 -152 0
39 24 26 43 29 28 -149 0
39 24 26 43 29 28 -151 0
39 24 26 29 41 28 -150 0
39 24 26 29 41 28 -152 0
39 24 26 29 41 28 -149 0
39 24 26 29 41 28 -151 0
39 24 43 29 41 28 -150 0
39 24 43 29 41 28 -152 0
39 24 43 29 41 28 -149 0
39 24 43 29 41 28 -151 0
39 32 40 31 43 37 -172 0
39 32 40 31 43 37 -173 0
39 32 40 31 43 37 -174 0
39 32 40 31 43 37 -171 0
39 32 40 31 43 41 -172 0
39 32 40 31 43 41 -173 0
39 32 40 31 43 41 -174 0
39 32 40 31 43 41 -171 0
39 32 40 31 37 36 -172 0
39 32 40 31 37 36 -173 0
39 32 40 31 37 36 -174 0
39 32 40 31 37 36 -171 0
39 32 40 31 41 36 -172 0
39 32 40 31 41 36 -173 0
39 32 40 31 41 36 -174 0
39 32 40 31 41 36 -171 0
39 32 40 43 37 41 -172 0
39 32 40 43 37 41 -173 0
39 32 40 43 37 41 -174 0
39 32 40 43 37 41 -171 0
39 32 40 43 41 36 -172 0
39 32 40 43 41 36 -173 0
39 32 40 43 41 36 -174 0
39 32 40 43 41 36 -171 0
39 32 31 43 37 36 -172 0
39 32 31 43 37 36 -173 0
39 32 31 43 37 36 -174 0
39 32 31 43 37 36 -171 0
39 32 31 37 41 36 -172 0
39 32 31 37 41 36 -173 0
39 32 31 37 41 36 -174 0
39 32 31 37 41 36 -171 0
39 32 43 37 41 36 -172 0
39 32 43 37 41 36 -173 0
39 32 43 37 41 36 -174 0
39 32 43 37 41 36 -171 0
39 8 40 13 43 12 -96 0
39 8 40 13 43 12 -94 0
39 8 40 13 43 12 -95 0
39 8 40 13 43 12 -93 0
39 8 40 13 43 41 -96 0
39 8 40 13 43 41 -94 0
39 8 40 13 43 41 -95 0
39 8 40 13 43 41 -93 0
39 8 40 13 12 9 -96 0
39 8 40 13 12 9 -94 0
39 8 40 13 12 9 -95 0
39 8 40 13 12 9 -93 0
39 8 40 13 41 9 -96 0
39 8 40 13 41 9 -94 0
39 8 40 13 41 9 -95 0
39 8 40 13 41 9 -93 0
39 8 40 43 12 41 -96 0
39 8 40 43 12 41 -94 0
39 8 40 43 12 41 -95 0
39 8 40 43 12 41 -93 0
39 8 40 43 41 9 -96 0
39 8 40 43 41 9 -94 0
39 8 40 43 41 9 -95 0
39 8 40 43 41 9 -93 0
39 8 13 43 12 9 -96 0
39 8 13 43 12 9 -94 0
39 8 13 43 12 9 -95 0
39 8 13 43 12 9 -93 0
39 8 13 12 41 9 -96 0
39 8 13 12 41 9 -94 0
39 8 13 12 41 9 -95 0
39 8 13 12 41 9 -93 0
39 8 43 12 41 9 -96 0
39 8 43 12 41 9 -94 0
39 8 43 12 41 9 -95 0
39 8 43 12 41 9 -93 0
39 17 40 19 43 22 -125 0
39 17 40 19 43 22 -123 0
39 17 40 19 43 22 -126 0
39 17 40 19 43 22 -124 0
39 17 40 19 43 41 -125 0
39 17 40 19 43 41 -123 0
39 17 40 19 43 41 -126 0
39 17 40 19 43 41 -124 0
39 17 40 19 22 20 -125 0
39 17 40 19 22 20 -123 0
39 17 40 19 22 20 -126 0
39 17 40 19 22 20 -124 0
39 17 40 19 41 20 -125 0
39 17 40 19 41 20 -123 0
39 17 40 19 41 20 -126 0
39 17 40 19 41 20 -124 0
39 17 40 43 22 41 -125 0
39 17 40 43 22 41 -123 0
39 17 40 43 22 41 -126 0
39 17 40 43 22 41 -124 0
39 17 40 43 41 20 -125 0
39 17 40 43 41 20 -123 0
39 17 40 43 41 20 -126 0
39 17 40 43 41 20 -124 0
39 17 19 43 22 20 -125 0
39 17 19 43 22 20 -123 0
39 17 19 43 22 20 -126 0
39 17 19 43 22 20 -124 0
39 17 19 22 41 20 -125 0
39 17 19 22 41 20 -123 0
39 17 19 22 41 20 -126 0
39 17 19 22 41 20 -124 0
39 17 43 22 41 20 -125 0
39 17 43 22 41 20 -123 0
39 17 43 22 41 20 -126 0
39 17 43 22 41 20 -124 0
39 76 40 74 43 78 -205 0
39 76 40 74 43 78 -208 0
39 76 40 74 43 78 -207 0
39 76 40 74 43 78 -206 0
39 76 40 74 43 41 -205 0
39 76 40 74 43 41 -208 0
39 76 40 74 43 41 -207 0
39 76 40 74 43 41 -206 0
39 76 40 74 78 77 -205 0
39 76 40 74 78 77 -208 0
39 76 40 74 78 77 -207 0
39 76 40 74 78 77 -206 0
39 76 40 74 41 77 -205 0
39 76 40 74 41 77 -208 0
39 76 40 74 41 77 -207 0
39 76 40 74 41 77 -206 0
39 76 40 43 78 41 -205 0
39 76 40 43 78 41 -208 0
39 76 40 43 78 41 -207 0
39 76 40 43 78 41 -206 0
39 76 40 43 41 77 -205 0
39 76 40 43 41 77 -208 0
39 76 40 43 41 77 -207 0
39 76 40 43 41 77 -206 0
39 76 74 43 78 77 -205 0
39 76 74 43 78 77 -208 0
39 76 74 43 78 77 -207 0
39 76 74 43 78 77 -206 0
39 76 74 78 41 77 -205 0
39 76 74 78 41 77 -208 0
39 76 74 78 41 77 -207 0
39 76 74 78 41 77 -206 0
39 76 43 78 41 77 -205 0
39 76 43 78 41 77 -208 0
39 76 43 78 41 77 -207 0
39 76 43 78 41 77 -206 0
39 55 40 58 43 61 -200 0
39 55 40 58 43 61 -197 0
39 55 40 58 43 61 -198 0
39 55 40 58 43 61 -199 0
39 55 40 58 43 41 -200 0
39 55 40 58 43 41 -197 0
39 55 40 58 43 41 -198 0
39 55 40 58 43 41 -199 0
39 55 40 58 61 60 -200 0
39 55 40 58 61 60 -197 0
39 55 40 58 61 60 -198 0
39 55 40 58 61 60 -199 0
39 55 40 58 41 60 -200 0
39 55 40 58 41 60 -197 0
39 55 40 58 41 60 -198 0
39 55 40 58 41 60 -199 0
39 55 40 43 61 41 -200 0
39 55 40 43 61 41 -197 0
39 55 40 43 61 41 -198 0
39 55 40 43 61 41 -199 0
39 55 40 43 41 60 -200 0
39 55 40 43 41 60 -197 0
39 55 40 43 41 60 -198 0
39 55 40 43 41 60 -199 0
39 55 58 43 61 60 -200 0
39 55 58 43 61 60 -197 0
39 55 58 43 61 60 -198 0
39 55 58 43 61 60 -199 0
39 55 58 61 41 60 -200 0
39 55 58 61 41 60 -197 0
39 55 58 61 41 60 -198 0
39 55 58 61 41 60 -199 0
39 55 43 61 41 60 -200 0
39 55 43 61 41 60 -197 0
39 55 43 61 41 60 -198 0
39 55 43 61 41 60 -199 0
39 53 40 49 43 52 -196 0
39 53 40 49 43 52 -193 0
39 53 40 49 43 52 -194 0
39 53 40 49 43 52 -195 0
39 53 40 49 43 41 -196 0
39 53 40 49 43 41 -193 0
39 53 40 49 43 41 -194 0
39 53 40 49 43 41 -195 0
39 53 40 49 52 47 -196 0
39 53 40 49 52 47 -193 0
39 53 40 49 52 47 -194 0
39 53 40 49 52 47 -195 0
39 53 40 49 41 47 -196 0
39 53 40 49 41 47 -193 0
39 53 40 49 41 47 -194 0
39 53 40 49 41 47 -195 0
39 53 40 43 52 41 -196 0
39 53 40 43 52 41 -193 0
39 53 40 43 52 41 -194 0
39 53 40 43 52 41 -195 0
39 53 40 43 41 47 -196 0
39 53 40 43 41 47 -193 0
39 53 40 43 41 47 -194 0
39 53 40 43 41 47 -195 0
39 53 49 43 52 47 -196 0
39 53 49 43 52 47 -193 0
39 53 49 43 52 47 -194 0
39 53 49 43 52 47 -195 0
39 53 49 52 41 47 -196 0
39 53 49 52 41 47 -193 0
39 53 49 52 41 47 -194 0
39 53 49 52 41 47 -195 0
39 53 43 52 41 47 -196 0
39 53 43 52 41 47 -193 0
39 53 43 52 41 47 -194 0
39 53 43 52 41 47 -195 0
39 67 40 70 43 41 -203 0
39 67 40 70 43 41 -201 0
39 67 40 70 43 41 -204 0
39 67 40 70 43 41 -202 0
39 67 40 43 69 41 -203 0
39 67 40 43 69 41 -201 0
39 67 40 43 69 41 -204 0
39 67 40 43 69 41 -202 0
39 2 40 6 43 41 -42 0
39 2 40 6 43 41 -45 0
39 2 40 6 43 41 -44 0
39 2 40 6 43 41 -46 0
39 2 40 43 1 41 -42 0
39 2 40 43 1 41 -45 0
39 2 40 43 1 41 -44 0
39 2 40 43 1 41 -46 0
39 40 26 43 29 41 -150 0
39 40 26 43 29 41 -152 0
39 40 26 43 29 41 -149 0
39 40 26 43 29 41 -151 0
39 40 26 43 41 28 -150 0
39 40 26 43 41 28 -152 0
39 40 26 43 41 28 -149 0
39 40 26 43 41 28 -151 0
39 40 31 43 37 41 -172 0
39 40 31 43 37 41 -173 0
39 40 31 43 37 41 -174 0
39 40 31 43 37 41 -171 0
39 40 31 43 41 36 -172 0
39 40 31 43 41 36 -173 0
39 40 31 43 41 36 -174 0
39 40 31 43 41 36 -171 0
39 40 13 43 12 41 -96 0
39 40 13 43 12 41 -94 0
39 40 13 43 12 41 -95 0
39 40 13 43 12 41 -93 0
39 40 13 43 41 9 -96 0
39 40 13 43 41 9 -94 0
39 40 13 43 41 9 -95 0
39 40 13 43 41 9 -93 0
39 40 19 43 22 41 -125 0
39 40 19 43 22 41 -123 0
39 40 19 43 22 41 -126 0
39 40 19 43 22 41 -124 0
39 40 19 43 41 20 -125 0
39 40 19 43 41 20 -123 0
39 40 19 43 41 20 -126 0
39 40 19 43 41 20 -124 0
39 40 74 43 78 41 -205 0
39 40 74 43 78 41 -208 0
39 40 74 43 78 41 -207 0
39 40 74 43 78 41 -206 0
39 40 74 43 41 77 -205 0
39 40 74 43 41 77 -208 0
39 40 74 43 41 77 -207 0
39 40 74 43 41 77 -206 0
39 40 58 43 61 41 -200 0
39 40 58 43 61 41 -197 0
39 40 58 43 61 41 -198 0
39 40 58 43 61 41 -199 0
39 40 58 43 41 60 -200 0
39 40 58 43 41 60 -197 0
39 40 58 43 41 60 -198 0
39 40 58 43 41 60 -199 0
39 40 49 43 52 41 -196 0
39 40 49 43 52 41 -193 0
39 40 49 43 52 41 -194 0
39 40 49 43 52 41 -195 0
39 40 49 43 41 47 -196 0
39 40 49 43 41 47 -193 0
39 40 49 43 41 47 -194 0
39 40 49 43 41 47 -195 0
39 40 70 43 69 41 -203 0
39 40 70 43 69 41 -201 0
39 40 70 43 69 41 -204 0
39 40 70 43 69 41 -202 0
39 40 6 43 1 41 -42 0
39 40 6 43 1 41 -45 0
39 40 6 43 1 41 -44 0
39 40 6 43 1 41 -46 0
39 40 43 29 41 28 -150 0
39 40 43 29 41 28 -152 0
39 40 43 29 41 28 -149 0
39 40 43 29 41 28 -151 0
39 40 43 37 41 36 -172 0
39 40 43 37 41 36 -173 0
39 40 43 37 41 36 -174 0
39 40 43 37 41 36 -171 0
39 40 43 12 41 9 -96 0
39 40 43 12 41 9 -94 0
39 40 43 12 41 9 -95 0
39 40 43 12 41 9 -93 0
39 40 43 22 41 20 -125 0
39 40 43 22 41 20 -123 0
39 40 43 22 41 20 -126 0
39 40 43 22 41 20 -124 0
39 40 43 78 41 77 -205 0
39 40 43 78 41 77 -208 0
39 40 43 78 41 77 -207 0
39 40 43 78 41 77 -206 0
39 40 43 61 41 60 -200 0
39 40 43 61 41 60 -197 0
39 40 43 61 41 60 -198 0
39 40 43 61 41 60 -199 0
39 40 43 52 41 47 -196 0
39 40 43 52 41 47 -193 0
39 40 43 52 41 47 -194 0
39 40 43 52 41 47 -195 0
24 32 26 31 29 37 -148 0
24 32 26 31 29 37 -145 0
24 32 26 31 29 37 -147 0
24 32 26 31 29 37 -146 0
24 32 26 31 29 28 -148 0
24 32 26 31 29 28 -145 0
24 32 26 31 29 28 -147 0
24 32 26 31 29 28 -146 0
24 32 26 31 37 36 -148 0
24 32 26 31 37 36 -145 0
24 32 26 31 37 36 -147 0
24 32 26 31 37 36 -146 0
24 32 26 31 28 36 -148 0
24 32 26 31 28 36 -145 0
24 32 26 31 28 36 -147 0
24 32 26 31 28 36 -146 0
24 32 26 29 37 28 -148 0
24 32 26 29 37 28 -145 0
24 32 26 29 37 28 -147 0
24 32 26 29 37 28 -146 0
24 32 26 29 28 36 -148 0
24 32 26 29 28 36 -145 0
24 32 26 29 28 36 -147 0
24 32 26 29 28 36 -146 0
24 32 31 29 37 36 -148 0
24 32 31 29 37 36 -145 0
24 32 31 29 37 36 -147 0
24 32 31 29 37 36 -146 0
24 32 31 37 28 36 -148 0
24 32 31 37 28 36 -145 0
24 32 31 37 28 36 -147 0
24 32 31 37 28 36 -146 0
24 32 29 37 28 36 -148 0
24 32 29 37 28 36 -145 0
24 32 29 37 28 36 -147 0
24 32 29 37 28 36 -146 0
24 8 26 13 29 12 -86 0
24 8 26 13 29 12 -87 0
24 8 26 13 29 12 -85 0
24 8 26 13 29 12 -88 0
24 8 26 13 29 28 -86 0
24 8 26 13 29 28 -87 0
24 8 26 13 29 28 -85 0
24 8 26 13 29 28 -88 0
24 8 26 13 12 9 -86 0
24 8 26 13 12 9 -87 0
24 8 26 13 12 9 -85 0
24 8 26 13 12 9 -88 0
24 8 26 13 28 9 -86 0
24 8 26 13 28 9 -87 0
24 8 26 13 28 9 -85 0
24 8 26 13 28 9 -88 0
24 8 26 29 12 28 -86 0
24 8 26 29 12 28 -87 0
24 8 26 29 12 28 -85 0
24 8 26 29 12 28 -88 0
24 8 26 29 28 9 -86 0
24 8 26 29 28 9 -87 0
24 8 26 29 28 9 -85 0
24 8 26 29 28 9 -88 0
24 8 13 29 12 9 -86 0
24 8 13 29 12 9 -87 0
24 8 13 29 12 9 -85 0
24 8 13 29 12 9 -88 0
24 8 13 12 28 9 -86 0
24 8 13 12 28 9 -87 0
24 8 13 12 28 9 -85 0
24 8 13 12 28 9 -88 0
24 8 29 12 28 9 -86 0
24 8 29 12 28 9 -87 0
24 8 29 12 28 9 -85 0
24 8 29 12 28 9 -88 0
24 17 26 19 29 22 -117 0
24 17 26 19 29 22 -116 0
24 17 26 19 29 22 -115 0
24 17 26 19 29 22 -118 0
24 17 26 19 29 28 -117 0
24 17 26 19 29 28 -116 0
24 17 26 19 29 28 -115 0
24 17 26 19 29 28 -118 0
24 17 26 19 22 20 -117 0
24 17 26 19 22 20 -116 0
24 17 26 19 22 20 -115 0
24 17 26 19 22 20 -118 0
24 17 26 19 28 20 -117 0
24 17 26 19 28 20 -116 0
24 17 26 19 28 20 -115 0
24 17 26 19 28 20 -118 0
24 17 26 29 22 28 -117 0
24 17 26 29 22 28 -116 0
24 17 26 29 22 28 -115 0
24 17 26 29 22 28 -118 0
24 17 26 29 28 20 -117 0
24 17 26 29 28 20 -116 0
24 17 26 29 28 20 -115 0
24 17 26 29 28 20 -118 0
24 17 19 29 22 20 -117 0
24 17 19 29 22 20 -116 0
24 17 19 29 22 20 -115 0
24 17 19 29 22 20 -118 0
24 17 19 22 28 20 -117 0
24 17 19 22 28 20 -116 0
24 17 19 22 28 20 -115 0
24 17 19 22 28 20 -118 0
24 17 29 22 28 20 -117 0
24 17 29 22 28 20 -116 0
24 17 29 22 28 20 -115 0
24 17 29 22 28 20 -118 0
24 76 26 74 29 78 -167 0
24 76 26 74 29 78 -165 0
24 76 26 74 29 78 -166 0
24 76 26 74 29 78 -168 0
24 76 26 74 29 28 -167 0
24 76 26 74 29 28 -165 0
24 76 26 74 29 28 -166 0
24 76 26 74 29 28 -168 0
24 76 26 74 78 77 -167 0
24 76 26 74 78 77 -165 0
24 76 26 74 78 77 -166 0
24 76 26 74 78 77 -168 0
24 76 26 74 28 77 -167 0
24 76 26 74 28 77 -165 0
24 76 26 74 28 77 -166 0
24 76 26 74 28 77 -168 0
24 76 26 29 78 28 -167 0
24 76 26 29 78 28 -165 0
24 76 26 29 78 28 -166 0
24 76 26 29 78 28 -168 0
24 76 26 29 28 77 -167 0
24 76 26 29 28 77 -165 0
24 76 26 29 28 77 -166 0
24 76 26 29 28 77 -168 0
24 76 74 29 78 77 -167 0
24 76 74 29 78 77 -165 0
24 76 74 29 78 77 -166 0
24 76 74 29 78 77 -168 0
24 76 74 78 28 77 -167 0
24 76 74 78 28 77 -165 0
24 76 74 78 28 77 -166 0
24 76 74 78 28 77 -168 0
24 76 29 78 28 77 -167 0
24 76 29 78 28 77 -165 0
24 76 29 78 28 77 -166 0
24 76 29 78 28 77 -168 0
24 55 26 58 29 61 -157 0
24 55 26 58 29 61 -159 0
24 55 26 58 29 61 -160 0
24 55 26 58 29 61 -158 0
24 55 26 58 29 28 -157 0
24 55 26 58 29 28 -159 0
24 55 26 58 29 28 -160 0
24 55 26 58 29 28 -158 0
24 55 26 58 61 60 -157 0
24 55 26 58 61 60 -159 0
24 55 26 58 61 60 -160 0
24 55 26 58 61 60 -158 0
24 55 26 58 28 60 -157 0
24 55 26 58 28 60 -159 0
24 55 26 58 28 60 -160 0
24 55 26 58 28 60 -158 0
24 55 26 29 61 28 -157 0
24 55 26 29 61 28 -159 0
24 55 26 29 61 28 -160 0
24 55 26 29 61 28 -158 0
24 55 26 29 28 60 -157 0
24 55 26 29 28 60 -159 0
24 55 26 29 28 60 -160 0
24 55 26 29 28 60 -158 0
24 55 58 29 61 60 -157 0
24 55 58 29 61 60 -159 0
24 55 58 29 61 60 -160 0
24 55 58 29 61 60 -158 0
24 55 58 61 28 60 -157 0
24 55 58 61 28 60 -159 0
24 55 58 61 28 60 -160 0
24 55 58 61 28 60 -158 0
24 55 29 61 28 60 -157 0
24 55 29 61 28 60 -159 0
24 55 29 61 28 60 -160 0
24 55 29 61 28 60 -158 0
24 53 26 49 29 52 -156 0
24 53 26 49 29 52 -154 0
24 53 26 49 29 52 -153 0
24 53 26 49 29 52 -155 0
24 53 26 49 29 28 -156 0
24 53 26 49 29 28 -154 0
24 53 26 49 29 28 -153 0
24 53 26 49 29 28 -155 0
24 53 26 49 52 47 -156 0
24 53 26 49 52 47 -154 0
24 53 26 49 52 47 -153 0
24 53 26 49 52 47 -155 0
24 53 26 49 28 47 -156 0
24 53 26 49 28 47 -154 0
24 53 26 49 28 47 -153 0
24 53 26 49 28 47 -155 0
24 53 26 29 52 28 -156 0
24 53 26 29 52 28 -154 0
24 53 26 29 52 28 -153 0
24 53 26 29 52 28 -155 0
24 53 26 29 28 47 -156 0
24 53 26 29 28 47 -154 0
24 53 26 29 28 47 -153 0
24 53 26 29 28 47 -155 0
24 53 49 29 52 47 -156 0
24 53 49 29 52 47 -154 0
24 53 49 29 52 47 -153 0
24 53 49 29 52 47 -155 0
24 53 49 52 28 47 -156 0
24 53 49 52 28 47 -154 0
24 53 49 52 28 47 -153 0
24 53 49 52 28 47 -155 0
24 53 29 52 28 47 -156 0
24 53 29 52 28 47 -154 0
24 53 29 52 28 47 -153 0
24 53 29 52 28 47 -155 0
24 67 26 70 29 28 -164 0
24 67 26 70 29 28 -162 0
24 67 26 70 29 28 -163 0
24 67 26 70 29 28 -161 0
24 67 26 29 69 28 -164 0
24 67 26 29 69 28 -162 0
24 67 26 29 69 28 -163 0
24 67 26 29 69 28 -161 0
24 2 26 6 29 28 -27 0
24 2 26 6 29 28 -30 0
24 2 26 6 29 28 -25 0
24 2 26 6 29 28 -23 0
24 2 26 29 1 28 -27 0
24 2 26 29 1 28 -30 0
24 2 26 29 1 28 -25 0
24 2 26 29 1 28 -23 0
24 40 26 43 29 28 -150 0
24 40 26 43 29 28 -152 0
24 40 26 43 29 28 -149 0
24 40 26 43 29 28 -151 0
24 40 26 29 41 28 -150 0
24 40 26 29 41 28 -152 0
24 40 26 29 41 28 -149 0
24 40 26 29 41 28 -151 0
24 26 31 29 37 28 -148 0
24 26 31 29 37 28 -145 0
24 26 31 29 37 28 -147 0
24 26 31 29 37 28 -146 0
24 26 31 29 28 36 -148 0
24 26 31 29 28 36 -145 0
24 26 31 29 28 36 -147 0
24 26 31 29 28 36 -146 0
24 26 13 29 12 28 -86 0
24 26 13 29 12 28 -87 0
24 26 13 29 12 28 -85 0
24 26 13 29 12 28 -88 0
24 26 13 29 28 9 -86 0
24 26 13 29 28 9 -87 0
24 26 13 29 28 9 -85 0
24 26 13 29 28 9 -88 0
24 26 19 29 22 28 -117 0
24 26 19 29 22 28 -116 0
24 26 19 29 22 28 -115 0
24 26 19 29 22 28 -118 0
24 26 19 29 28 20 -117 0
24 26 19 29 28 20 -116 0
24 26 19 29 28 20 -115 0
24 26 19 29 28 20 -118 0
24 26 74 29 78 28 -167 0
24 26 74 29 78 28 -165 0
24 26 74 29 78 28 -166 0
24 26 74 29 78 28 -168 0
24 26 74 29 28 77 -167 0
24 26 74 29 28 77 -165 0
24 26 74 29 28 77 -166 0
24 26 74 29 28 77 -168 0
24 26 58 29 61 28 -157 0
24 26 58 29 61 28 -159 0
24 26 58 29 61 28 -160 0
24 26 58 29 61 28 -158 0
24 26 58 29 28 60 -157 0
24 26 58 29 28 60 -159 0
24 26 58 29 28 60 -160 0
24 26 58 29 28 60 -158 0
24 26 49 29 52 28 -156 0
24 26 49 29 52 28 -154 0
24 26 49 29 52 28 -153 0
24 26 49 29 52 28 -155 0
24 26 49 29 28 47 -156 0
24 26 49 29 28 47 -154 0
24 26 49 29 28 47 -153 0
24 26 49 29 28 47 -155 0
24 26 70 29 69 28 -164 0
24 26 70 29 69 28 -162 0
24 26 70 29 69 28 -163 0
24 26 70 29 69 28 -161 0
24 26 6 29 1 28 -27 0
24 26 6 29 1 28 -30 0
24 26 6 29 1 28 -25 0
24 26 6 29 1 28 -23 0
24 26 43 29 41 28 -150 0
24 26 43 29 41 28 -152 0
24 26 43 29 41 28 -149 0
24 26 43 29 41 28 -151 0
24 26 29 37 28 36 -148 0
24 26 29 37 28 36 -145 0
24 26 29 37 28 36 -147 0
24 26 29 37 28 36 -146 0
24 26 29 12 28 9 -86 0
24 26 29 12 28 9 -87 0
24 26 29 12 28 9 -85 0
24 26 29 12 28 9 -88 0
24 26 29 22 28 20 -117 0
24 26 29 22 28 20 -116 0
24 26 29 22 28 20 -115 0
24 26 29 22 28 20 -118 0
24 26 29 78 28 77 -167 0
24 26 29 78 28 77 -165 0
24 26 29 78 28 77 -166 0
24 26 29 78 28 77 -168 0
24 26 29 61 28 60 -157 0
24 26 29 61 28 60 -159 0
24 26 29 61 28 60 -160 0
24 26 29 61 28 60 -158 0
24 26 29 52 28 47 -156 0
24 26 29 52 28 47 -154 0
24 26 29 52 28 47 -153 0
24 26 29 52 28 47 -155 0
32 8 31 13 37 12 -89 0
32 8 31 13 37 12 -90 0
32 8 31 13 37 12 -92 0
32 8 31 13 37 12 -91 0
32 8 31 13 37 36 -89 0
32 8 31 13 37 36 -90 0
32 8 31 13 37 36 -92 0
32 8 31 13 37 36 -91 0
32 8 31 13 12 9 -89 0
32 8 31 13 12 9 -90 0
32 8 31 13 12 9 -92 0
32 8 31 13 12 9 -91 0
32 8 31 13 36 9 -89 0
32 8 31 13 36 9 -90 0
32 8 31 13 36 9 -92 0
32 8 31 13 36 9 -91 0
32 8 31 37 12 36 -89 0
32 8 31 37 12 36 -90 0
32 8 31 37 12 36 -92 0
32 8 31 37 12 36 -91 0
32 8 31 37 36 9 -89 0
32 8 31 37 36 9 -90 0
32 8 31 37 36 9 -92 0
32 8 31 37 36 9 -91 0
32 8 13 37 12 9 -89 0
32 8 13 37 12 9 -90 0
32 8 13 37 12 9 -92 0
32 8 13 37 12 9 -91 0
32 8 13 12 36 9 -89 0
32 8 13 12 36 9 -90 0
32 8 13 12 36 9 -92 0
32 8 13 12 36 9 -91 0
32 8 37 12 36 9 -89 0
32 8 37 12 36 9 -90 0
32 8 37 12 36 9 -92 0
32 8 37 12 36 9 -91 0
32 17 31 19 37 22 -120 0
32 17 31 19 37 22 -122 0
32 17 31 19 37 22 -119 0
32 17 31 19 37 22 -121 0
32 17 31 19 37 36 -120 0
32 17 31 19 37 36 -122 0
32 17 31 19 37 36 -119 0
32 17 31 19 37 36 -121 0
32 17 31 19 22 20 -120 0
32 17 31 19 22 20 -122 0
32 17 31 19 22 20 -119 0
32 17 31 19 22 20 -121 0
32 17 31 19 36 20 -120 0
32 17 31 19 36 20 -122 0
32 17 31 19 36 20 -119 0
32 17 31 19 36 20 -121 0
32 17 31 37 22 36 -120 0
32 17 31 37 22 36 -122 0
32 17 31 37 22 36 -119 0
32 17 31 37 22 36 -121 0
32 17 31 37 36 20 -120 0
32 17 31 37 36 20 -122 0
32 17 31 37 36 20 -119 0
32 17 31 37 36 20 -121 0
32 17 19 37 22 20 -120 0
32 17 19 37 22 20 -122 0
32 17 19 37 22 20 -119 0
32 17 19 37 22 20 -121 0
32 17 19 22 36 20 -120 0
32 17 19 22 36 20 -122 0
32 17 19 22 36 20 -119 0
32 17 19 22 36 20 -121 0
32 17 37 22 36 20 -120 0
32 17 37 22 36 20 -122 0
32 17 37 22 36 20 -119 0
32 17 37 22 36 20 -121 0
32 76 31 74 37 78 -188 0
32 76 31 74 37 78 -187 0
32 76 31 74 37 78 -189 0
32 76 31 74 37 78 -190 0
32 76 31 74 37 36 -188 0
32 76 31 74 37 36 -187 0
32 76 31 74 37 36 -189 0
32 76 31 74 37 36 -190 0
32 76 31 74 78 77 -188 0
32 76 31 74 78 77 -187 0
32 76 31 74 78 77 -189 0
32 76 31 74 78 77 -190 0
32 76 31 74 36 77 -188 0
32 76 31 74 36 77 -187 0
32 76 31 74 36 77 -189 0
32 76 31 74 36 77 -190 0
32 76 31 37 78 36 -188 0
32 76 31 37 78 36 -187 0
32 76 31 37 78 36 -189 0
32 76 31 37 78 36 -190 0
32 76 31 37 36 77 -188 0
32 76 31 37 36 77 -187 0
32 76 31 37 36 77 -189 0
32 76 31 37 36 77 -190 0
32 76 74 37 78 77 -188 0
32 76 74 37 78 77 -187 0
32 76 74 37 78 77 -189 0
32 76 74 37 78 77 -190 0
32 76 74 78 36 77 -188 0
32 76 74 78 36 77 -187 0
32 76 74 78 36 77 -189 0
32 76 74 78 36 77 -190 0
32 76 37 78 36 77 -188 0
32 76 37 78 36 77 -187 0
32 76 37 78 36 77 -189 0
32 76 37 78 36 77 -190 0
32 55 31 58 37 61 -182 0
32 55 31 58 37 61 -179 0
32 55 31 58 37 61 -181 0
32 55 31 58 37 61 -180 0
32 55 31 58 37 36 -182 0
32 55 31 58 37 36 -179 0
32 55 31 58 37 36 -181 0
32 55 31 58 37 36 -180 0
32 55 31 58 61 60 -182 0
32 55 31 58 61 60 -179 0
32 55 31 58 61 60 -181 0
32 55 31 58 61 60 -180 0
32 55 31 58 36 60 -182 0
32 55 31 58 36 60 -179 0
32 55 31 58 36 60 -181 0
32 55 31 58 36 60 -180 0
32 55 31 37 61 36 -182 0
32 55 31 37 61 36 -179 0
32 55 31 37 61 36 -181 0
32 55 31 37 61 36 -180 0
32 55 31 37 36 60 -182 0
32 55 31 37 36 60 -179 0
32 55 31 37 36 60 -181 0
32 55 31 37 36 60 -180 0
32 55 58 37 61 60 -182 0
32 55 58 37 61 60 -179 0
32 55 58 37 61 60 -181 0
32 55 58 37 61 60 -180 0
32 55 58 61 36 60 -182 0
32 55 58 61 36 60 -179 0
32 55 58 61 36 60 -181 0
32 55 58 61 36 60 -180 0
32 55 37 61 36 60 -182 0
32 55 37 61 36 60 -179 0
32 55 37 61 36 60 -181 0
32 55 37 61 36 60 -180 0
32 53 31 49 37 52 -175 0
32 53 31 49 37 52 -178 0
32 53 31 49 37 52 -177 0
32 53 31 49 37 52 -176 0
32 53 31 49 37 36 -175 0
32 53 31 49 37 36 -178 0
32 53 31 49 37 36 -177 0
32 53 31 49 37 36 -176 0
32 53 31 49 52 47 -175 0
32 53 31 49 52 47 -178 0
32 53 31 49 52 47 -177 0
32 53 31 49 52 47 -176 0
32 53 31 49 36 47 -175 0
32 53 31 49 36 47 -178 0
32 53 31 49 36 47 -177 0
32 53 31 49 36 47 -176 0
32 53 31 37 52 36 -175 0
32 53 31 37 52 36 -178 0
32 53 31 37 52 36 -177 0
32 53 31 37 52 36 -176 0
32 53 31 37 36 47 -175 0
32 53 31 37 36 47 -178 0
32 53 31 37 36 47 -177 0
32 53 31 37 36 47 -176 0
32 53 49 37 52 47 -175 0
32 53 49 37 52 47 -178 0
32 53 49 37 52 47 -177 0
32 53 49 37 52 47 -176 0
32 53 49 52 36 47 -175 0
32 53 49 52 36 47 -178 0
32 53 49 52 36 47 -177 0
32 53 49 52 36 47 -176 0
32 53 37 52 36 47 -175 0
32 53 37 52 36 47 -178 0
32 53 37 52 36 47 -177 0
32 53 37 52 36 47 -176 0
32 67 31 70 37 36 -186 0
32 67 31 70 37 36 -184 0
32 67 31 70 37 36 -185 0
32 67 31 70 37 36 -183 0
32 67 31 37 69 36 -186 0
32 67 31 37 69 36 -184 0
32 67 31 37 69 36 -185 0
32 67 31 37 69 36 -183 0
32 2 31 6 37 36 -33 0
32 2 31 6 37 36 -35 0
32 2 31 6 37 36 -34 0
32 2 31 6 37 36 -38 0
32 2 31 37 1 36 -33 0
32 2 31 37 1 36 -35 0
32 2 31 37 1 36 -34 0
32 2 31 37 1 36 -38 0
32 40 31 43 37 36 -172 0
32 40 31 43 37 36 -173 0
32 40 31 43 37 36 -174 0
32 40 31 43 37 36 -171 0
32 40 31 37 41 36 -172 0
32 40 31 37 41 36 -173 0
32 40 31 37 41 36 -174 0
32 40 31 37 41 36 -171 0
32 26 31 29 37 36 -148 0
32 26 31 29 37 36 -145 0
32 26 31 29 37 36 -147 0
32 26 31 29 37 36 -146 0
32 26 31 37 28 36 -148 0
32 26 31 37 28 36 -145 0
32 26 31 37 28 36 -147 0
32 26 31 37 28 36 -146 0
32 31 13 37 12 36 -89 0
32 31 13 37 12 36 -90 0
32 31 13 37 12 36 -92 0
32 31 13 37 12 36 -91 0
32 31 13 37 36 9 -89 0
32 31 13 37 36 9 -90 0
32 31 13 37 36 9 -92 0
32 31 13 37 36 9 -91 0
32 31 19 37 22 36 -120 0
32 31 19 37 22 36 -122 0
32 31 19 37 22 36 -119 0
32 31 19 37 22 36 -121 0
32 31 19 37 36 20 -120 0
32 31 19 37 36 20 -122 0
32 31 19 37 36 20 -119 0
32 31 19 37 36 20 -121 0
32 31 74 37 78 36 -188 0
32 31 74 37 78 36 -187 0
32 31 74 37 78 36 -189 0
32 31 74 37 78 36 -190 0
32 31 74 37 36 77 -188 0
32 31 74 37 36 77 -187 0
32 31 74 37 36 77 -189 0
32 31 74 37 36 77 -190 0
32 31 58 37 61 36 -182 0
32 31 58 37 61 36 -179 0
32 31 58 37 61 36 -181 0
32 31 58 37 61 36 -180 0
32 31 58 37 36 60 -182 0
32 31 58 37 36 60 -179 0
32 31 58 37 36 60 -181 0
32 31 58 37 36 60 -180 0
32 31 49 37 52 36 -175 0
32 31 49 37 52 36 -178 0
32 31 49 37 52 36 -177 0
32 31 49 37 52 36 -176 0
32 31 49 37 36 47 -175 0
32 31 49 37 36 47 -178 0
32 31 49 37 36 47 -177 0
32 31 49 37 36 47 -176 0
32 31 70 37 69 36 -186 0
32 31 70 37 69 36 -184 0
32 31 70 37 69 36 -185 0
32 31 70 37 69 36 -183 0
32 31 6 37 1 36 -33 0
32 31 6 37 1 36 -35 0
32 31 6 37 1 36 -34 0
32 31 6 37 1 36 -38 0
32 31 43 37 41 36 -172 0
32 31 43 37 41 36 -173 0
32 31 43 37 41 36 -174 0
32 31 43 37 41 36 -171 0
32 31 29 37 28 36 -148 0
32 31 29 37 28 36 -145 0
32 31 29 37 28 36 -147 0
32 31 29 37 28 36 -146 0
32 31 37 12 36 9 -89 0
32 31 37 12 36 9 -90 0
32 31 37 12 36 9 -92 0
32 31 37 12 36 9 -91 0
32 31 37 22 36 20 -120 0
32 31 37 22 36 20 -122 0
32 31 37 22 36 20 -119 0
32 31 37 22 36 20 -121 0
32 31 37 78 36 77 -188 0
32 31 37 78 36 77 -187 0
32 31 37 78 36 77 -189 0
32 31 37 78 36 77 -190 0
32 31 37 61 36 60 -182 0
32 31 37 61 36 60 -179 0
32 31 37 61 36 60 -181 0
32 31 37 61 36 60 -180 0
32 31 37 52 36 47 -175 0
32 31 37 52 36 47 -178 0
32 31 37 52 36 47 -177 0
32 31 37 52 36 47 -176 0
8 17 13 19 12 22 -81 0
8 17 13 19 12 22 -83 0
8 17 13 19 12 22 -82 0
8 17 13 19 12 22 -84 0
8 17 13 19 12 9 -81 0
8 17 13 19 12 9 -83 0
8 17 13 19 12 9 -82 0
8 17 13 19 12 9 -84 0
8 17 13 19 22 20 -81 0
8 17 13 19 22 20 -83 0
8 17 13 19 22 20 -82 0
8 17 13 19 22 20 -84 0
8 17 13 19 9 20 -81 0
8 17 13 19 9 20 -83 0
8 17 13 19 9 20 -82 0
8 17 13 19 9 20 -84 0
8 17 13 12 22 9 -81 0
8 17 13 12 22 9 -83 0
8 17 13 12 22 9 -82 0
8 17 13 12 22 9 -84 0
8 17 13 12 9 20 -81 0
8 17 13 12 9 20 -83 0
8 17 13 12 9 20 -82 0
8 17 13 12 9 20 -84 0
8 17 19 12 22 20 -81 0
8 17 19 12 22 20 -83 0
8 17 19 12 22 20 -82 0
8 17 19 12 22 20 -84 0
8 17 19 22 9 20 -81 0
8 17 19 22 9 20 -83 0
8 17 19 22 9 20 -82 0
8 17 19 22 9 20 -84 0
8 17 12 22 9 20 -81 0
8 17 12 22 9 20 -83 0
8 17 12 22 9 20 -82 0
8 17 12 22 9 20 -84 0
8 76 13 74 12 78 -112 0
8 76 13 74 12 78 -110 0
8 76 13 74 12 78 -111 0
8 76 13 74 12 78 -109 0
8 76 13 74 12 9 -112 0
8 76 13 74 12 9 -110 0
8 76 13 74 12 9 -111 0
8 76 13 74 12 9 -109 0
8 76 13 74 78 77 -112 0
8 76 13 74 78 77 -110 0
8 76 13 74 78 77 -111 0
8 76 13 74 78 77 -109 0
8 76 13 74 9 77 -112 0
8 76 13 74 9 77 -110 0
8 76 13 74 9 77 -111 0
8 76 13 74 9 77 -109 0
8 76 13 12 78 9 -112 0
8 76 13 12 78 9 -110 0
8 76 13 12 78 9 -111 0
8 76 13 12 78 9 -109 0
8 76 13 12 9 77 -112 0
8 76 13 12 9 77 -110 0
8 76 13 12 9 77 -111 0
8 76 13 12 9 77 -109 0
8 76 74 12 78 77 -112 0
8 76 74 12 78 77 -110 0
8 76 74 12 78 77 -111 0
8 76 74 12 78 77 -109 0
8 76 74 78 9 77 -112 0
8 76 74 78 9 77 -110 0
8 76 74 78 9 77 -111 0
8 76 74 78 9 77 -109 0
8 76 12 78 9 77 -112 0
8 76 12 78 9 77 -110 0
8 76 12 78 9 77 -111 0
8 76 12 78 9 77 -109 0
8 55 13 58 12 61 -101 0
8 55 13 58 12 61 -102 0
8 55 13 58 12 61 -103 0
8 55 13 58 12 61 -104 0
8 55 13 58 12 9 -101 0
8 55 13 58 12 9 -102 0
8 55 13 58 12 9 -103 0
8 55 13 58 12 9 -104 0
8 55 13 58 61 60 -101 0
8 55 13 58 61 60 -102 0
8 55 13 58 61 60 -103 0
8 55 13 58 61 60 -104 0
8 55 13 58 9 60 -101 0
8 55 13 58 9 60 -102 0
8 55 13 58 9 60 -103 0
8 55 13 58 9 60 -104 0
8 55 13 12 61 9 -101 0
8 55 13 12 61 9 -102 0
8 55 13 12 61 9 -103 0
8 55 13 12 61 9 -104 0
8 55 13 12 9 60 -101 0
8 55 13 12 9 60 -102 0
8 55 13 12 9 60 -103 0
8 55 13 12 9 60 -104 0
8 55 58 12 61 60 -101 0
8 55 58 12 61 60 -102 0
8 55 58 12 61 60 -103 0
8 55 58 12 61 60 -104 0
8 55 58 61 9 60 -101 0
8 55 58 61 9 60 -102 0
8 55 58 61 9 60 -103 0
8 55 58 61 9 60 -104 0
8 55 12 61 9 60 -101 0
8 55 12 61 9 60 -102 0
8 55 12 61 9 60 -103 0
8 55 12 61 9 60 -104 0
8 53 13 49 12 52 -98 0
8 53 13 49 12 52 -99 0
8 53 13 49 12 52 -97 0
8 53 13 49 12 52 -100 0
8 53 13 49 12 9 -98 0
8 53 13 49 12 9 -99 0
8 53 13 49 12 9 -97 0
8 53 13 49 12 9 -100 0
8 53 13 49 52 47 -98 0
8 53 13 49 52 47 -99 0
8 53 13 49 52 47 -97 0
8 53 13 49 52 47 -100 0
8 53 13 49 9 47 -98 0
8 53 13 49 9 47 -99 0
8 53 13 49 9 47 -97 0
8 53 13 49 9 47 -100 0
8 53 13 12 52 9 -98 0
8 53 13 12 52 9 -99 0
8 53 13 12 52 9 -97 0
8 53 13 12 52 9 -100 0
8 53 13 12 9 47 -98 0
8 53 13 12 9 47 -99 0
8 53 13 12 9 47 -97 0
8 53 13 12 9 47 -100 0
8 53 49 12 52 47 -98 0
8 53 49 12 52 47 -99 0
8 53 49 12 52 47 -97 0
8 53 49 12 52 47 -100 0
8 53 49 52 9 47 -98 0
8 53 49 52 9 47 -99 0
8 53 49 52 9 47 -97 0
8 53 49 52 9 47 -100 0
8 53 12 52 9 47 -98 0
8 53 12 52 9 47 -99 0
8 53 12 52 9 47 -97 0
8 53 12 52 9 47 -100 0
8 67 13 70 12 9 -105 0
8 67 13 70 12 9 -108 0
8 67 13 70 12 9 -106 0
8 67 13 70 12 9 -107 0
8 67 13 12 69 9 -105 0
8 67 13 12 69 9 -108 0
8 67 13 12 69 9 -106 0
8 67 13 12 69 9 -107 0
8 2 13 6 12 9 -7 0
8 2 13 6 12 9 -10 0
8 2 13 6 12 9 -14 0
8 2 13 6 12 9 -11 0
8 2 13 12 1 9 -7 0
8 2 13 12 1 9 -10 0
8 2 13 12 1 9 -14 0
8 2 13 12 1 9 -11 0
8 40 13 43 12 9 -96 0
8 40 13 43 12 9 -94 0
8 40 13 43 12 9 -95 0
8 40 13 43 12 9 -93 0
8 40 13 12 41 9 -96 0
8 40 13 12 41 9 -94 0
8 40 13 12 41 9 -95 0
8 40 13 12 41 9 -93 0
8 26 13 29 12 9 -86 0
8 26 13 29 12 9 -87 0
8 26 13 29 12 9 -85 0
8 26 13 29 12 9 -88 0
8 26 13 12 28 9 -86 0
8 26 13 12 28 9 -87 0
8 26 13 12 28 9 -85 0
8 26 13 12 28 9 -88 0
8 31 13 37 12 9 -89 0
8 31 13 37 12 9 -90 0
8 31 13 37 12 9 -92 0
8 31 13 37 12 9 -91 0
8 31 13 12 36 9 -89 0
8 31 13 12 36 9 -90 0
8 31 13 12 36 9 -92 0
8 31 13 12 36 9 -91 0
8 13 19 12 22 9 -81 0
8 13 19 12 22 9 -83 0
8 13 19 12 22 9 -82 0
8 13 19 12 22 9 -84 0
8 13 19 12 9 20 -81 0
8 13 19 12 9 20 -83 0
8 13 19 12 9 20 -82 0
8 13 19 12 9 20 -84 0
8 13 74 12 78 9 -112 0
8 13 74 12 78 9 -110 0
8 13 74 12 78 9 -111 0
8 13 74 12 78 9 -109 0
8 13 74 12 9 77 -112 0
8 13 74 12 9 77 -110 0
8 13 74 12 9 77 -111 0
8 13 74 12 9 77 -109 0
8 13 58 12 61 9 -101 0
8 13 58 12 61 9 -102 0
8 13 58 12 61 9 -103 0
8 13 58 12 61 9 -104 0
8 13 58 12 9 60 -101 0
8 13 58 12 9 60 -102 0
8 13 58 12 9 60 -103 0
8 13 58 12 9 60 -104 0
8 13 49 12 52 9 -98 0
8 13 49 12 52 9 -99 0
8 13 49 12 52 9 -97 0
8 13 49 12 52 9 -100 0
8 13 49 12 9 47 -98 0
8 13 49 12 9 47 -99 0
8 13 49 12 9 47 -97 0
8 13 49 12 9 47 -100 0
8 13 70 12 69 9 -105 0
8 13 70 12 69 9 -108 0
8 13 70 12 69 9 -106 0
8 13 70 12 69 9 -107 0
8 13 6 12 1 9 -7 0
8 13 6 12 1 9 -10 0
8 13 6 12 1 9 -14 0
8 13 6 12 1 9 -11 0
8 13 43 12 41 9 -96 0
8 13 43 12 41 9 -94 0
8 13 43 12 41 9 -95 0
8 13 43 12 41 9 -93 0
8 13 29 12 28 9 -86 0
8 13 29 12 28 9 -87 0
8 13 29 12 28 9 -85 0
8 13 29 12 28 9 -88 0
8 13 37 12 36 9 -89 0
8 13 37 12 36 9 -90 0
8 13 37 12 36 9 -92 0
8 13 37 12 36 9 -91 0
8 13 12 22 9 20 -81 0
8 13 12 22 9 20 -83 0
8 13 12 22 9 20 -82 0
8 13 12 22 9 20 -84 0
8 13 12 78 9 77 -112 0
8 13 12 78 9 77 -110 0
8 13 12 78 9 77 -111 0
8 13 12 78 9 77 -109 0
8 13 12 61 9 60 -101 0
8 13 12 61 9 60 -102 0
8 13 12 61 9 60 -103 0
8 13 12 61 9 60 -104 0
8 13 12 52 9 47 -98 0
8 13 12 52 9 47 -99 0
8 13 12 52 9 47 -97 0
8 13 12 52 9 47 -100 0
17 76 19 74 22 78 -142 0
17 76 19 74 22 78 -141 0
17 76 19 74 22 78 -139 0
17 76 19 74 22 78 -140 0
17 76 19 74 22 20 -142 0
17 76 19 74 22 20 -141 0
17 76 19 74 22 20 -139 0
17 76 19 74 22 20 -140 0
17 76 19 74 78 77 -142 0
17 76 19 74 78 77 -141 0
17 76 19 74 78 77 -139 0
17 76 19 74 78 77 -140 0
17 76 19 74 20 77 -142 0
17 76 19 74 20 77 -141 0
17 76 19 74 20 77 -139 0
17 76 19 74 20 77 -140 0
17 76 19 22 78 20 -142 0
17 76 19 22 78 20 -141 0
17 76 19 22 78 20 -139 0
17 76 19 22 78 20 -140 0
17 76 19 22 20 77 -142 0
17 76 19 22 20 77 -141 0
17 76 19 22 20 77 -139 0
17 76 19 22 20 77 -140 0
17 76 74 22 78 77 -142 0
17 76 74 22 78 77 -141 0
17 76 74 22 78 77 -139 0
17 76 74 22 78 77 -140 0
17 76 74 78 20 77 -142 0
17 76 74 78 20 77 -141 0
17 76 74 78 20 77 -139 0
17 76 74 78 20 77 -140 0
17 76 22 78 20 77 -142 0
17 76 22 78 20 77 -141 0
17 76 22 78 20 77 -139 0
17 76 22 78 20 77 -140 0
17 55 19 58 22 61 -132 0
17 55 19 58 22 61 -131 0
17 55 19 58 22 61 -134 0
17 55 19 58 22 61 -133 0
17 55 19 58 22 20 -132 0
17 55 19 58 22 20 -131 0
17 55 19 58 22 20 -134 0
17 55 19 58 22 20 -133 0
17 55 19 58 61 60 -132 0
17 55 19 58 61 60 -131 0
17 55 19 58 61 60 -134 0
17 55 19 58 61 60 -133 0
17 55 19 58 20 60 -132 0
17 55 19 58 20 60 -131 0
17 55 19 58 20 60 -134 0
17 55 19 58 20 60 -133 0
17 55 19 22 61 20 -132 0
17 55 19 22 61 20 -131 0
17 55 19 22 61 20 -134 0
17 55 19 22 61 20 -133 0
17 55 19 22 20 60 -132 0
17 55 19 22 20 60 -131 0
17 55 19 22 20 60 -134 0
17 55 19 22 20 60 -133 0
17 55 58 22 61 60 -132 0
17 55 58 22 61 60 -131 0
17 55 58 22 61 60 -134 0
17 55 58 22 61 60 -133 0
17 55 58 61 20 60 -132 0
17 55 58 61 20 60 -131 0
17 55 58 61 20 60 -134 0
17 55 58 61 20 60 -133 0
17 55 22 61 20 60 -132 0
17 55 22 61 20 60 -131 0
17 55 22 61 20 60 -134 0
17 55 22 61 20 60 -133 0
17 53 19 49 22 52 -128 0
17 53 19 49 22 52 -130 0
17 53 19 49 22 52 -127 0
17 53 19 49 22 52 -129 0
17 53 19 49 22 20 -128 0
17 53 19 49 22 20 -130 0
17 53 19 49 22 20 -127 0
17 53 19 49 22 20 -129 0
17 53 19 49 52 47 -128 0
17 53 19 49 52 47 -130 0
17 53 19 49 52 47 -127 0
17 53 19 49 52 47 -129 0
17 53 19 49 20 47 -128 0
17 53 19 49 20 47 -130 0
17 53 19 49 20 47 -127 0
17 53 19 49 20 47 -129 0
17 53 19 22 52 20 -128 0
17 53 19 22 52 20 -130 0
17 53 19 22 52 20 -127 0
17 53 19 22 52 20 -129 0
17 53 19 22 20 47 -128 0
17 53 19 22 20 47 -130 0
17 53 19 22 20 47 -127 0
17 53 19 22 20 47 -129 0
17 53 49 22 52 47 -128 0
17 53 49 22 52 47 -130 0
17 53 49 22 52 47 -127 0
17 53 49 22 52 47 -129 0
17 53 49 52 20 47 -128 0
17 53 49 52 20 47 -130 0
17 53 49 52 20 47 -127 0
17 53 49 52 20 47 -129 0
17 53 22 52 20 47 -128 0
17 53 22 52 20 47 -130 0
17 53 22 52 20 47 -127 0
17 53 22 52 20 47 -129 0
17 67 19 70 22 20 -138 0
17 67 19 70 22 20 -136 0
17 67 19 70 22 20 -135 0
17 67 19 70 22 20 -137 0
17 67 19 22 69 20 -138 0
17 67 19 22 69 20 -136 0
17 67 19 22 69 20 -135 0
17 67 19 22 69 20 -137 0
17 2 19 6 22 20 -16 0
17 2 19 6 22 20 -21 0
17 2 19 6 22 20 -18 0
17 2 19 6 22 20 -15 0
17 2 19 22 1 20 -16 0
17 2 19 22 1 20 -21 0
17 2 19 22 1 20 -18 0
17 2 19 22 1 20 -15 0
17 40 19 43 22 20 -125 0
17 40 19 43 22 20 -123 0
17 40 19 43 22 20 -126 0
17 40 19 43 22 20 -124 0
17 40 19 22 41 20 -125 0
17 40 19 22 41 20 -123 0
17 40 19 22 41 20 -126 0
17 40 19 22 41 20 -124 0
17 26 19 29 22 20 -117 0
17 26 19 29 22 20 -116 0
17 26 19 29 22 20 -115 0
17 26 19 29 22 20 -118 0
17 26 19 22 28 20 -117 0
17 26 19 22 28 20 -116 0
17 26 19 22 28 20 -115 0
17 26 19 22 28 20 -118 0
17 31 19 37 22 20 -120 0
17 31 19 37 22 20 -122 0
17 31 19 37 22 20 -119 0
17 31 19 37 22 20 -121 0
17 31 19 22 36 20 -120 0
17 31 19 22 36 20 -122 0
17 31 19 22 36 20 -119 0
17 31 19 22 36 20 -121 0
17 13 19 12 22 20 -81 0
17 13 19 12 22 20 -83 0
17 13 19 12 22 20 -82 0
17 13 19 12 22 20 -84 0
17 13 19 22 9 20 -81 0
17 13 19 22 9 20 -83 0
17 13 19 22 9 20 -82 0
17 13 19 22 9 20 -84 0
17 19 74 22 78 20 -142 0
17 19 74 22 78 20 -141 0
17 19 74 22 78 20 -139 0
17 19 74 22 78 20 -140 0
17 19 74 22 20 77 -142 0
17 19 74 22 20 77 -141 0
17 19 74 22 20 77 -139 0
17 19 74 22 20 77 -140 0
17 19 58 22 61 20 -132 0
17 19 58 22 61 20 -131 0
17 19 58 22 61 20 -134 0
17 19 58 22 61 20 -133 0
17 19 58 22 20 60 -132 0
17 19 58 22 20 60 -131 0
17 19 58 22 20 60 -134 0
17 19 58 22 20 60 -133 0
17 19 49 22 52 20 -128 0
17 19 49 22 52 20 -130 0
17 19 49 22 52 20 -127 0
17 19 49 22 52 20 -129 0
17 19 49 22 20 47 -128 0
17 19 49 22 20 47 -130 0
17 19 49 22 20 47 -127 0
17 19 49 22 20 47 -129 0
17 19 70 22 69 20 -138 0
17 19 70 22 69 20 -136 0
17 19 70 22 69 20 -135 0
17 19 70 22 69 20 -137 0
17 19 6 22 1 20 -16 0
17 19 6 22 1 20 -21 0
17 19 6 22 1 20 -18 0
17 19 6 22 1 20 -15 0
17 19 43 22 41 20 -125 0
17 19 43 22 41 20 -123 0
17 19 43 22 41 20 -126 0
17 19 43 22 41 20 -124 0
17 19 29 22 28 20 -117 0
17 19 29 22 28 20 -116 0
17 19 29 22 28 20 -115 0
17 19 29 22 28 20 -118 0
17 19 37 22 36 20 -120 0
17 19 37 22 36 20 -122 0
17 19 37 22 36 20 -119 0
17 19 37 22 36 20 -121 0
17 19 12 22 9 20 -81 0
17 19 12 22 9 20 -83 0
17 19 12 22 9 20 -82 0
17 19 12 22 9 20 -84 0
17 19 22 78 20 77 -142 0
17 19 22 78 20 77 -141 0
17 19 22 78 20 77 -139 0
17 19 22 78 20 77 -140 0
17 19 22 61 20 60 -132 0
17 19 22 61 20 60 -131 0
17 19 22 61 20 60 -134 0
17 19 22 61 20 60 -133 0
17 19 22 52 20 47 -128 0
17 19 22 52 20 47 -130 0
17 19 22 52 20 47 -127 0
17 19 22 52 20 47 -129 0
76 55 74 58 78 61 -229 0
76 55 74 58 78 61 -231 0
76 55 74 58 78 61 -230 0
76 55 74 58 78 61 -232 0
76 55 74 58 78 77 -229 0
76 55 74 58 78 77 -231 0
76 55 74 58 78 77 -230 0
76 55 74 58 78 77 -232 0
76 55 74 58 61 60 -229 0
76 55 74 58 61 60 -231 0
76 55 74 58 61 60 -230 0
76 55 74 58 61 60 -232 0
76 55 74 58 77 60 -229 0
76 55 74 58 77 60 -231 0
76 55 74 58 77 60 -230 0
76 55 74 58 77 60 -232 0
76 55 74 78 61 77 -229 0
76 55 74 78 61 77 -231 0
76 55 74 78 61 77 -230 0
76 55 74 78 61 77 -232 0
76 55 74 78 77 60 -229 0
76 55 74 78 77 60 -231 0
76 55 74 78 77 60 -230 0
76 55 74 78 77 60 -232 0
76 55 58 78 61 60 -229 0
76 55 58 78 61 60 -231 0
76 55 58 78 61 60 -230 0
76 55 58 78 61 60 -232 0
76 55 58 61 77 60 -229 0
76 55 58 61 77 60 -231 0
76 55 58 61 77 60 -230 0
76 55 58 61 77 60 -232 0
76 55 78 61 77 60 -229 0
76 55 78 61 77 60 -231 0
76 55 78 61 77 60 -230 0
76 55 78 61 77 60 -232 0
76 53 74 49 78 52 -220 0
76 53 74 49 78 52 -221 0
76 53 74 49 78 52 -219 0
76 53 74 49 78 52 -222 0
76 53 74 49 78 77 -220 0
76 53 74 49 78 77 -221 0
76 53 74 49 78 77 -219 0
76 53 74 49 78 77 -222 0
76 53 74 49 52 47 -220 0
76 53 74 49 52 47 -221 0
76 53 74 49 52 47 -219 0
76 53 74 49 52 47 -222 0
76 53 74 49 77 47 -220 0
76 53 74 49 77 47 -221 0
76 53 74 49 77 47 -219 0
76 53 74 49 77 47 -222 0
76 53 74 78 52 77 -220 0
76 53 74 78 52 77 -221 0
76 53 74 78 52 77 -219 0
76 53 74 78 52 77 -222 0
76 53 74 78 77 47 -220 0
76 53 74 78 77 47 -221 0
76 53 74 78 77 47 -219 0
76 53 74 78 77 47 -222 0
76 53 49 78 52 47 -220 0
76 53 49 78 52 47 -221 0
76 53 49 78 52 47 -219 0
76 53 49 78 52 47 -222 0
76 53 49 52 77 47 -220 0
76 53 49 52 77 47 -221 0
76 53 49 52 77 47 -219 0
76 53 49 52 77 47 -222 0
76 53 78 52 77 47 -220 0
76 53 78 52 77 47 -221 0
76 53 78 52 77 47 -219 0
76 53 78 52 77 47 -222 0
76 67 74 70 78 77 -238 0
76 67 74 70 78 77 -237 0
76 67 74 70 78 77 -235 0
76 67 74 70 78 77 -236 0
76 67 74 78 69 77 -238 0
76 67 74 78 69 77 -237 0
76 67 74 78 69 77 -235 0
76 67 74 78 69 77 -236 0
76 2 74 6 78 77 -73 0
76 2 74 6 78 77 -72 0
76 2 74 6 78 77 -71 0
76 2 74 6 78 77 -75 0
76 2 74 78 1 77 -73 0
76 2 74 78 1 77 -72 0
76 2 74 78 1 77 -71 0
76 2 74 78 1 77 -75 0
76 40 74 43 78 77 -205 0
76 40 74 43 78 77 -208 0
76 40 74 43 78 77 -207 0
76 40 74 43 78 77 -206 0
76 40 74 78 41 77 -205 0
76 40 74 78 41 77 -208 0
76 40 74 78 41 77 -207 0
76 40 74 78 41 77 -206 0
76 26 74 29 78 77 -167 0
76 26 74 29 78 77 -165 0
76 26 74 29 78 77 -166 0
76 26 74 29 78 77 -168 0
76 26 74 78 28 77 -167 0
76 26 74 78 28 77 -165 0
76 26 74 78 28 77 -166 0
76 26 74 78 28 77 -168 0
76 31 74 37 78 77 -188 0
76 31 74 37 78 77 -187 0
76 31 74 37 78 77 -189 0
76 31 74 37 78 77 -190 0
76 31 74 78 36 77 -188 0
76 31 74 78 36 77 -187 0
76 31 74 78 36 77 -189 0
76 31 74 78 36 77 -190 0
76 13 74 12 78 77 -112 0
76 13 74 12 78 77 -110 0
76 13 74 12 78 77 -111 0
76 13 74 12 78 77 -109 0
76 13 74 78 9 77 -112 0
76 13 74 78 9 77 -110 0
76 13 74 78 9 77 -111 0
76 13 74 78 9 77 -109 0
76 19 74 22 78 77 -142 0
76 19 74 22 78 77 -141 0
76 19 74 22 78 77 -139 0
76 19 74 22 78 77 -140 0
76 19 74 78 20 77 -142 0
76 19 74 78 20 77 -141 0
76 19 74 78 20 77 -139 0
76 19 74 78 20 77 -140 0
76 74 58 78 61 77 -229 0
76 74 58 78 61 77 -231 0
76 74 58 78 61 77 -230 0
76 74 58 78 61 77 -232 0
76 74 58 78 77 60 -229 0
76 74 58 78 77 60 -231 0
76 74 58 78 77 60 -230 0
76 74 58 78 77 60 -232 0
76 74 49 78 52 77 -220 0
76 74 49 78 52 77 -221 0
76 74 49 78 52 77 -219 0
76 74 49 78 52 77 -222 0
76 74 49 78 77 47 -220 0
76 74 49 78 77 47 -221 0
76 74 49 78 77 47 -219 0
76 74 49 78 77 47 -222 0
76 74 70 78 69 77 -238 0
76 74 70 78 69 77 -237 0
76 74 70 78 69 77 -235 0
76 74 70 78 69 77 -236 0
76 74 6 78 1 77 -73 0
76 74 6 78 1 77 -72 0
76 74 6 78 1 77 -71 0
76 74 6 78 1 77 -75 0
76 74 43 78 41 77 -205 0
76 74 43 78 41 77 -208 0
76 74 43 78 41 77 -207 0
76 74 43 78 41 77 -206 0
76 74 29 78 28 77 -167 0
76 74 29 78 28 77 -165 0
76 74 29 78 28 77 -166 0
76 74 29 78 28 77 -168 0
76 74 37 78 36 77 -188 0
76 74 37 78 36 77 -187 0
76 74 37 78 36 77 -189 0
76 74 37 78 36 77 -190 0
76 74 12 78 9 77 -112 0
76 74 12 78 9 77 -110 0
76 74 12 78 9 77 -111 0
76 74 12 78 9 77 -109 0
76 74 22 78 20 77 -142 0
76 74 22 78 20 77 -141 0
76 74 22 78 20 77 -139 0
76 74 22 78 20 77 -140 0
76 74 78 61 77 60 -229 0
76 74 78 61 77 60 -231 0
76 74 78 61 77 60 -230 0
76 74 78 61 77 60 -232 0
76 74 78 52 77 47 -220 0
76 74 78 52 77 47 -221 0
76 74 78 52 77 47 -219 0
76 74 78 52 77 47 -222 0
55 53 58 49 61 52 -214 0
55 53 58 49 61 52 -213 0
55 53 58 49 61 52 -211 0
55 53 58 49 61 52 -212 0
55 53 58 49 61 60 -214 0
55 53 58 49 61 60 -213 0
55 53 58 49 61 60 -211 0
55 53 58 49 61 60 -212 0
55 53 58 49 52 47 -214 0
55 53 58 49 52 47 -213 0
55 53 58 49 52 47 -211 0
55 53 58 49 52 47 -212 0
55 53 58 49 60 47 -214 0
55 53 58 49 60 47 -213 0
55 53 58 49 60 47 -211 0
55 53 58 49 60 47 -212 0
55 53 58 61 52 60 -214 0
55 53 58 61 52 60 -213 0
55 53 58 61 52 60 -211 0
55 53 58 61 52 60 -212 0
55 53 58 61 60 47 -214 0
55 53 58 61 60 47 -213 0
55 53 58 61 60 47 -211 0
55 53 58 61 60 47 -212 0
55 53 49 61 52 47 -214 0
55 53 49 61 52 47 -213 0
55 53 49 61 52 47 -211 0
55 53 49 61 52 47 -212 0
55 53 49 52 60 47 -214 0
55 53 49 52 60 47 -213 0
55 53 49 52 60 47 -211 0
55 53 49 52 60 47 -212 0
55 53 61 52 60 47 -214 0
55 53 61 52 60 47 -213 0
55 53 61 52 60 47 -211 0
55 53 61 52 60 47 -212 0
55 67 58 70 61 60 -225 0
55 67 58 70 61 60 -227 0
55 67 58 70 61 60 -228 0
55 67 58 70 61 60 -226 0
55 67 58 61 69 60 -225 0
55 67 58 61 69 60 -227 0
55 67 58 61 69 60 -228 0
55 67 58 61 69 60 -226 0
55 2 58 6 61 60 -56 0
55 2 58 6 61 60 -57 0
55 2 58 6 61 60 -62 0
55 2 58 6 61 60 -59 0
55 2 58 61 1 60 -56 0
55 2 58 61 1 60 -57 0
55 2 58 61 1 60 -62 0
55 2 58 61 1 60 -59 0
55 40 58 43 61 60 -200 0
55 40 58 43 61 60 -197 0
55 40 58 43 61 60 -198 0
55 40 58 43 61 60 -199 0
55 40 58 61 41 60 -200 0
55 40 58 61 41 60 -197 0
55 40 58 61 41 60 -198 0
55 40 58 61 41 60 -199 0
55 26 58 29 61 60 -157 0
55 26 58 29 61 60 -159 0
55 26 58 29 61 60 -160 0
55 26 58 29 61 60 -158 0
55 26 58 61 28 60 -157 0
55 26 58 61 28 60 -159 0
55 26 58 61 28 60 -160 0
55 26 58 61 28 60 -158 0
55 31 58 37 61 60 -182 0
55 31 58 37 61 60 -179 0
55 31 58 37 61 60 -181 0
55 31 58 37 61 60 -180 0
55 31 58 61 36 60 -182 0
55 31 58 61 36 60 -179 0
55 31 58 61 36 60 -181 0
55 31 58 61 36 60 -180 0
55 13 58 12 61 60 -101 0
55 13 58 12 61 60 -102 0
55 13 58 12 61 60 -103 0
55 13 58 12 61 60 -104 0
55 13 58 61 9 60 -101 0
55 13 58 61 9 60 -102 0
55 13 58 61 9 60 -103 0
55 13 58 61 9 60 -104 0
55 19 58 22 61 60 -132 0
55 19 58 22 61 60 -131 0
55 19 58 22 61 60 -134 0
55 19 58 22 61 60 -133 0
55 19 58 61 20 60 -132 0
55 19 58 61 20 60 -131 0
55 19 58 61 20 60 -134 0
55 19 58 61 20 60 -133 0
55 74 58 78 61 60 -229 0
55 74 58 78 61 60 -231 0
55 74 58 78 61 60 -230 0
55 74 58 78 61 60 -232 0
55 74 58 61 77 60 -229 0
55 74 58 61 77 60 -231 0
55 74 58 61 77 60 -230 0
55 74 58 61 77 60 -232 0
55 58 49 61 52 60 -214 0
55 58 49 61 52 60 -213 0
55 58 49 61 52 60 -211 0
55 58 49 61 52 60 -212 0
55 58 49 61 60 47 -214 0
55 58 49 61 60 47 -213 0
55 58 49 61 60 47 -211 0
55 58 49 61 60 47 -212 0
55 58 70 61 69 60 -225 0
55 58 70 61 69 60 -227 0
55 58 70 61 69 60 -228 0
55 58 70 61 69 60 -226 0
55 58 6 61 1 60 -56 0
55 58 6 61 1 60 -57 0
55 58 6 61 1 60 -62 0
55 58 6 61 1 60 -59 0
55 58 43 61 41 60 -200 0
55 58 43 61 41 60 -197 0
55 58 43 61 41 60 -198 0
55 58 43 61 41 60 -199 0
55 58 29 61 28 60 -157 0
55 58 29 61 28 60 -159 0
55 58 29 61 28 60 -160 0
55 58 29 61 28 60 -158 0
55 58 37 61 36 60 -182 0
55 58 37 61 36 60 -179 0
55 58 37 61 36 60 -181 0
55 58 37 61 36 60 -180 0
55 58 12 61 9 60 -101 0
55 58 12 61 9 60 -102 0
55 58 12 61 9 60 -103 0
55 58 12 61 9 60 -104 0
55 58 22 61 20 60 -132 0
55 58 22 61 20 60 -131 0
55 58 22 61 20 60 -134 0
55 58 22 61 20 60 -133 0
55 58 78 61 77 60 -229 0
55 58 78 61 77 60 -231 0
55 58 78 61 77 60 -230 0
55 58 78 61 77 60 -232 0
55 58 61 52 60 47 -214 0
55 58 61 52 60 47 -213 0
55 58 61 52 60 47 -211 0
55 58 61 52 60 47 -212 0
53 67 49 70 52 47 -215 0
53 67 49 70 52 47 -216 0
53 67 49 70 52 47 -217 0
53 67 49 70 52 47 -218 0
53 67 49 52 69 47 -215 0
53 67 49 52 69 47 -216 0
53 67 49 52 69 47 -217 0
53 67 49 52 69 47 -218 0
53 2 49 6 52 47 -54 0
53 2 49 6 52 47 -51 0
53 2 49 6 52 47 -48 0
53 2 49 6 52 47 -50 0
53 2 49 52 1 47 -54 0
53 2 49 52 1 47 -51 0
53 2 49 52 1 47 -48 0
53 2 49 52 1 47 -50 0
53 40 49 43 52 47 -196 0
53 40 49 43 52 47 -193 0
53 40 49 43 52 47 -194 0
53 40 49 43 52 47 -195 0
53 40 49 52 41 47 -196 0
53 40 49 52 41 47 -193 0
53 40 49 52 41 47 -194 0
53 40 49 52 41 47 -195 0
53 26 49 29 52 47 -156 0
53 26 49 29 52 47 -154 0
53 26 49 29 52 47 -153 0
53 26 49 29 52 47 -155 0
53 26 49 52 28 47 -156 0
53 26 49 52 28 47 -154 0
53 26 49 52 28 47 -153 0
53 26 49 52 28 47 -155 0
53 31 49 37 52 47 -175 0
53 31 49 37 52 47 -178 0
53 31 49 37 52 47 -177 0
53 31 49 37 52 47 -176 0
53 31 49 52 36 47 -175 0
53 31 49 52 36 47 -178 0
53 31 49 52 36 47 -177 0
53 31 49 52 36 47 -176 0
53 13 49 12 52 47 -98 0
53 13 49 12 52 47 -99 0
53 13 49 12 52 47 -97 0
53 13 49 12 52 47 -100 0
53 13 49 52 9 47 -98 0
53 13 49 52 9 47 -99 0
53 13 49 52 9 47 -97 0
53 13 49 52 9 47 -100 0
53 19 49 22 52 47 -128 0
53 19 49 22 52 47 -130 0
53 19 49 22 52 47 -127 0
53 19 49 22 52 47 -129 0
53 19 49 52 20 47 -128 0
53 19 49 52 20 47 -130 0
53 19 49 52 20 47 -127 0
53 19 49 52 20 47 -129 0
53 74 49 78 52 47 -220 0
53 74 49 78 52 47 -221 0
53 74 49 78 52 47 -219 0
53 74 49 78 52 47 -222 0
53 74 49 52 77 47 -220 0
53 74 49 52 77 47 -221 0
53 74 49 52 77 47 -219 0
53 74 49 52 77 47 -222 0
53 58 49 61 52 47 -214 0
53 58 49 61 52 47 -213 0
53 58 49 61 52 47 -211 0
53 58 49 61 52 47 -212 0
53 58 49 52 60 47 -214 0
53 58 49 52 60 47 -213 0
53 58 49 52 60 47 -211 0
53 58 49 52 60 47 -212 0
53 49 70 52 69 47 -215 0
53 49 70 52 69 47 -216 0
53 49 70 52 69 47 -217 0
53 49 70 52 69 47 -218 0
53 49 6 52 1 47 -54 0
53 49 6 52 1 47 -51 0
53 49 6 52 1 47 -48 0
53 49 6 52 1 47 -50 0
53 49 43 52 41 47 -196 0
53 49 43 52 41 47 -193 0
53 49 43 52 41 47 -194 0
53 49 43 52 41 47 -195 0
53 49 29 52 28 47 -156 0
53 49 29 52 28 47 -154 0
53 49 29 52 28 47 -153 0
53 49 29 52 28 47 -155 0
53 49 37 52 36 47 -175 0
53 49 37 52 36 47 -178 0
53 49 37 52 36 47 -177 0
53 49 37 52 36 47 -176 0
53 49 12 52 9 47 -98 0
53 49 12 52 9 47 -99 0
53 49 12 52 9 47 -97 0
53 49 12 52 9 47 -100 0
53 49 22 52 20 47 -128 0
53 49 22 52 20 47 -130 0
53 49 22 52 20 47 -127 0
53 49 22 52 20 47 -129 0
53 49 78 52 77 47 -220 0
53 49 78 52 77 47 -221 0
53 49 78 52 77 47 -219 0
53 49 78 52 77 47 -222 0
53 49 61 52 60 47 -214 0
53 49 61 52 60 47 -213 0
53 49 61 52 60 47 -211 0
53 49 61 52 60 47 -212 0
67 2 70 6 69 1 -66 0
67 2 70 6 69 1 -65 0
67 2 70 6 69 1 -63 0
67 2 70 6 69 1 -64 0
67 40 70 43 69 41 -203 0
67 40 70 43 69 41 -201 0
67 40 70 43 69 41 -204 0
67 40 70 43 69 41 -202 0
67 26 70 29 69 28 -164 0
67 26 70 29 69 28 -162 0
67 26 70 29 69 28 -163 0
67 26 70 29 69 28 -161 0
67 31 70 37 69 36 -186 0
67 31 70 37 69 36 -184 0
67 31 70 37 69 36 -185 0
67 31 70 37 69 36 -183 0
67 13 70 12 69 9 -105 0
67 13 70 12 69 9 -108 0
67 13 70 12 69 9 -106 0
67 13 70 12 69 9 -107 0
67 19 70 22 69 20 -138 0
67 19 70 22 69 20 -136 0
67 19 70 22 69 20 -135 0
67 19 70 22 69 20 -137 0
67 74 70 78 69 77 -238 0
67 74 70 78 69 77 -237 0
67 74 70 78 69 77 -235 0
67 74 70 78 69 77 -236 0
67 58 70 61 69 60 -225 0
67 58 70 61 69 60 -227 0
67 58 70 61 69 60 -228 0
67 58 70 61 69 60 -226 0
67 49 70 52 69 47 -215 0
67 49 70 52 69 47 -216 0
67 49 70 52 69 47 -217 0
67 49 70 52 69 47 -218 0
2 40 6 43 1 41 -42 0
2 40 6 43 1 41 -45 0
2 40 6 43 1 41 -44 0
2 40 6 43 1 41 -46 0
2 26 6 29 1 28 -27 0
2 26 6 29 1 28 -30 0
2 26 6 29 1 28 -25 0
2 26 6 29 1 28 -23 0
2 31 6 37 1 36 -33 0
2 31 6 37 1 36 -35 0
2 31 6 37 1 36 -34 0
2 31 6 37 1 36 -38 0
2 13 6 12 1 9 -7 0
2 13 6 12 1 9 -10 0
2 13 6 12 1 9 -14 0
2 13 6 12 1 9 -11 0
2 19 6 22 1 20 -16 0
2 19 6 22 1 20 -21 0
2 19 6 22 1 20 -18 0
2 19 6 22 1 20 -15 0
2 74 6 78 1 77 -73 0
2 74 6 78 1 77 -72 0
2 74 6 78 1 77 -71 0
2 74 6 78 1 77 -75 0
2 58 6 61 1 60 -56 0
2 58 6 61 1 60 -57 0
2 58 6 61 1 60 -62 0
2 58 6 61 1 60 -59 0
2 49 6 52 1 47 -54 0
2 49 6 52 1 47 -51 0
2 49 6 52 1 47 -48 0
2 49 6 52 1 47 -50 0
40 26 43 29 41 28 -150 0
40 26 43 29 41 28 -152 0
40 26 43 29 41 28 -149 0
40 26 43 29 41 28 -151 0
40 31 43 37 41 36 -172 0
40 31 43 37 41 36 -173 0
40 31 43 37 41 36 -174 0
40 31 43 37 41 36 -171 0
40 13 43 12 41 9 -96 0
40 13 43 12 41 9 -94 0
40 13 43 12 41 9 -95 0
40 13 43 12 41 9 -93 0
40 19 43 22 41 20 -125 0
40 19 43 22 41 20 -123 0
40 19 43 22 41 20 -126 0
40 19 43 22 41 20 -124 0
40 74 43 78 41 77 -205 0
40 74 43 78 41 77 -208 0
40 74 43 78 41 77 -207 0
40 74 43 78 41 77 -206 0
40 58 43 61 41 60 -200 0
40 58 43 61 41 60 -197 0
40 58 43 61 41 60 -198 0
40 58 43 61 41 60 -199 0
40 49 43 52 41 47 -196 0
40 49 43 52 41 47 -193 0
40 49 43 52 41 47 -194 0
40 49 43 52 41 47 -195 0
26 31 29 37 28 36 -148 0
26 31 29 37 28 36 -145 0
26 31 29 37 28 36 -147 0
26 31 29 37 28 36 -146 0
26 13 29 12 28 9 -86 0
26 13 29 12 28 9 -87 0
26 13 29 12 28 9 -85 0
26 13 29 12 28 9 -88 0
26 19 29 22 28 20 -117 0
26 19 29 22 28 20 -116 0
26 19 29 22 28 20 -115 0
26 19 29 22 28 20 -118 0
26 74 29 78 28 77 -167 0
26 74 29 78 28 77 -165 0
26 74 29 78 28 77 -166 0
26 74 29 78 28 77 -168 0
26 58 29 61 28 60 -157 0
26 58 29 61 28 60 -159 0
26 58 29 61 28 60 -160 0
26 58 29 61 28 60 -158 0
26 49 29 52 28 47 -156 0
26 49 29 52 28 47 -154 0
26 49 29 52 28 47 -153 0
26 49 29 52 28 47 -155 0
31 13 37 12 36 9 -89 0
31 13 37 12 36 9 -90 0
31 13 37 12 36 9 -92 0
31 13 37 12 36 9 -91 0
31 19 37 22 36 20 -120 0
31 19 37 22 36 20 -122 0
31 19 37 22 36 20 -119 0
31 19 37 22 36 20 -121 0
31 74 37 78 36 77 -188 0
31 74 37 78 36 77 -187 0
31 74 37 78 36 77 -189 0
31 74 37 78 36 77 -190 0
31 58 37 61 36 60 -182 0
31 58 37 61 36 60 -179 0
31 58 37 61 36 60 -181 0
31 58 37 61 36 60 -180 0
31 49 37 52 36 47 -175 0
31 49 37 52 36 47 -178 0
31 49 37 52 36 47 -177 0
31 49 37 52 36 47 -176 0
13 19 12 22 9 20 -81 0
13 19 12 22 9 20 -83 0
13 19 12 22 9 20 -82 0
13 19 12 22 9 20 -84 0
13 74 12 78 9 77 -112 0
13 74 12 78 9 77 -110 0
13 74 12 78 9 77 -111 0
13 74 12 78 9 77 -109 0
13 58 12 61 9 60 -101 0
13 58 12 61 9 60 -102 0
13 58 12 61 9 60 -103 0
13 58 12 61 9 60 -104 0
13 49 12 52 9 47 -98 0
13 49 12 52 9 47 -99 0
13 49 12 52 9 47 -97 0
13 49 12 52 9 47 -100 0
19 74 22 78 20 77 -142 0
19 74 22 78 20 77 -141 0
19 74 22 78 20 77 -139 0
19 74 22 78 20 77 -140 0
19 58 22 61 20 60 -132 0
19 58 22 61 20 60 -131 0
19 58 22 61 20 60 -134 0
19 58 22 61 20 60 -133 0
19 49 22 52 20 47 -128 0
19 49 22 52 20 47 -130 0
19 49 22 52 20 47 -127 0
19 49 22 52 20 47 -129 0
74 58 78 61 77 60 -229 0
74 58 78 61 77 60 -231 0
74 58 78 61 77 60 -230 0
74 58 78 61 77 60 -232 0
74 49 78 52 77 47 -220 0
74 49 78 52 77 47 -221 0
74 49 78 52 77 47 -219 0
74 49 78 52 77 47 -222 0
58 49 61 52 60 47 -214 0
58 49 61 52 60 47 -213 0
58 49 61 52 60 47 -211 0
58 49 61 52 60 47 -212 0
68 4 67 2 70 6 69 -66 0
68 4 67 2 70 6 69 -65 0
68 4 67 2 70 6 69 -63 0
68 4 67 2 70 6 69 -64 0
68 4 67 2 70 6 1 -66 0
68 4 67 2 70 6 1 -65 0
68 4 67 2 70 6 1 -63 0
68 4 67 2 70 6 1 -64 0
68 4 67 2 70 69 1 -66 0
68 4 67 2 70 69 1 -65 0
68 4 67 2 70 69 1 -63 0
68 4 67 2 70 69 1 -64 0
68 4 67 2 6 69 1 -66 0
68 4 67 2 6 69 1 -65 0
68 4 67 2 6 69 1 -63 0
68 4 67 2 6 69 1 -64 0
68 4 67 70 6 69 1 -66 0
68 4 67 70 6 69 1 -65 0
68 4 67 70 6 69 1 -63 0
68 4 67 70 6 69 1 -64 0
68 4 2 70 6 69 1 -66 0
68 4 2 70 6 69 1 -65 0
68 4 2 70 6 69 1 -63 0
68 4 2 70 6 69 1 -64 0
68 39 67 40 70 43 69 -203 0
68 39 67 40 70 43 69 -201 0
68 39 67 40 70 43 69 -204 0
68 39 67 40 70 43 69 -202 0
68 39 67 40 70 43 41 -203 0
68 39 67 40 70 43 41 -201 0
68 39 67 40 70 43 41 -204 0
68 39 67 40 70 43 41 -202 0
68 39 67 40 70 69 41 -203 0
68 39 67 40 70 69 41 -201 0
68 39 67 40 70 69 41 -204 0
68 39 67 40 70 69 41 -202 0
68 39 67 40 43 69 41 -203 0
68 39 67 40 43 69 41 -201 0
68 39 67 40 43 69 41 -204 0
68 39 67 40 43 69 41 -202 0
68 39 67 70 43 69 41 -203 0
68 39 67 70 43 69 41 -201 0
68 39 67 70 43 69 41 -204 0
68 39 67 70 43 69 41 -202 0
68 39 40 70 43 69 41 -203 0
68 39 40 70 43 69 41 -201 0
68 39 40 70 43 69 41 -204 0
68 39 40 70 43 69 41 -202 0
68 24 67 26 70 29 69 -164 0
68 24 67 26 70 29 69 -162 0
68 24 67 26 70 29 69 -163 0
68 24 67 26 70 29 69 -161 0
68 24 67 26 70 29 28 -164 0
68 24 67 26 70 29 28 -162 0
68 24 67 26 70 29 28 -163 0
68 24 67 26 70 29 28 -161 0
68 24 67 26 70 69 28 -164 0
68 24 67 26 70 69 28 -162 0
68 24 67 26 70 69 28 -163 0
68 24 67 26 70 69 28 -161 0
68 24 67 26 29 69 28 -164 0
68 24 67 26 29 69 28 -162 0
68 24 67 26 29 69 28 -163 0
68 24 67 26 29 69 28 -161 0
68 24 67 70 29 69 28 -164 0
68 24 67 70 29 69 28 -162 0
68 24 67 70 29 69 28 -163 0
68 24 67 70 29 69 28 -161 0
68 24 26 70 29 69 28 -164 0
68 24 26 70 29 69 28 -162 0
68 24 26 70 29 69 28 -163 0
68 24 26 70 29 69 28 -161 0
68 32 67 31 70 37 69 -186 0
68 32 67 31 70 37 69 -184 0
68 32 67 31 70 37 69 -185 0
68 32 67 31 70 37 69 -183 0
68 32 67 31 70 37 36 -186 0
68 32 67 31 70 37 36 -184 0
68 32 67 31 70 37 36 -185 0
68 32 67 31 70 37 36 -183 0
68 32 67 31 70 69 36 -186 0
68 32 67 31 70 69 36 -184 0
68 32 67 31 70 69 36 -185 0
68 32 67 31 70 69 36 -183 0
68 32 67 31 37 69 36 -186 0
68 32 67 31 37 69 36 -184 0
68 32 67 31 37 69 36 -185 0
68 32 67 31 37 69 36 -183 0
68 32 67 70 37 69 36 -186 0
68 32 67 70 37 69 36 -184 0
68 32 67 70 37 69 36 -185 0
68 32 67 70 37 69 36 -183 0
68 32 31 70 37 69 36 -186 0
68 32 31 70 37 69 36 -184 0
68 32 31 70 37 69 36 -185 0
68 32 31 70 37 69 36 -183 0
68 8 67 13 70 12 69 -105 0
68 8 67 13 70 12 69 -108 0
68 8 67 13 70 12 69 -106 0
68 8 67 13 70 12 69 -107 0
68 8 67 13 70 12 9 -105 0
68 8 67 13 70 12 9 -108 0
68 8 67 13 70 12 9 -106 0
68 8 67 13 70 12 9 -107 0
68 8 67 13 70 69 9 -105 0
68 8 67 13 70 69 9 -108 0
68 8 67 13 70 69 9 -106 0
68 8 67 13 70 69 9 -107 0
68 8 67 13 12 69 9 -105 0
68 8 67 13 12 69 9 -108 0
68 8 67 13 12 69 9 -106 0
68 8 67 13 12 69 9 -107 0
68 8 67 70 12 69 9 -105 0
68 8 67 70 12 69 9 -108 0
68 8 67 70 12 69 9 -106 0
68 8 67 70 12 69 9 -107 0
68 8 13 70 12 69 9 -105 0
68 8 13 70 12 69 9 -108 0
68 8 13 70 12 69 9 -106 0
68 8 13 70 12 69 9 -107 0
68 17 67 19 70 22 69 -138 0
68 17 67 19 70 22 69 -136 0
68 17 67 19 70 22 69 -135 0
68 17 67 19 70 22 69 -137 0
68 17 67 19 70 22 20 -138 0
68 17 67 19 70 22 20 -136 0
68 17 67 19 70 22 20 -135 0
68 17 67 19 70 22 20 -137 0
68 17 67 19 70 69 20 -138 0
68 17 67 19 70 69 20 -136 0
68 17 67 19 70 69 20 -135 0
68 17 67 19 70 69 20 -137 0
68 17 67 19 22 69 20 -138 0
68 17 67 19 22 69 20 -136 0
68 17 67 19 22 69 20 -135 0
68 17 67 19 22 69 20 -137 0
68 17 67 70 22 69 20 -138 0
68 17 67 70 22 69 20 -136 0
68 17 67 70 22 69 20 -135 0
68 17 67 70 22 69 20 -137 0
68 17 19 70 22 69 20 -138 0
68 17 19 70 22 69 20 -136 0
68 17 19 70 22 69 20 -135 0
68 17 19 70 22 69 20 -137 0
68 76 67 74 70 78 69 -238 0
68 76 67 74 70 78 69 -237 0
68 76 67 74 70 78 69 -235 0
68 76 67 74 70 78 69 -236 0
68 76 67 74 70 78 77 -238 0
68 76 67 74 70 78 77 -237 0
68 76 67 74 70 78 77 -235 0
68 76 67 74 70 78 77 -236 0
68 76 67 74 70 69 77 -238 0
68 76 67 74 70 69 77 -237 0
68 76 67 74 70 69 77 -235 0
68 76 67 74 70 69 77 -236 0
68 76 67 74 78 69 77 -238 0
68 76 67 74 78 69 77 -237 0
68 76 67 74 78 69 77 -235 0
68 76 67 74 78 69 77 -236 0
68 76 67 70 78 69 77 -238 0
68 76 67 70 78 69 77 -237 0
68 76 67 70 78 69 77 -235 0
68 76 67 70 78 69 77 -236 0
68 76 74 70 78 69 77 -238 0
68 76 74 70 78 69 77 -237 0
68 76 74 70 78 69 77 -235 0
68 76 74 70 78 69 77 -236 0
68 55 67 58 70 61 69 -225 0
68 55 67 58 70 61 69 -227 0
68 55 67 58 70 61 69 -228 0
68 55 67 58 70 61 69 -226 0
68 55 67 58 70 61 60 -225 0
68 55 67 58 70 61 60 -227 0
68 55 67 58 70 61 60 -228 0
68 55 67 58 70 61 60 -226 0
68 55 67 58 70 69 60 -225 0
68 55 67 58 70 69 60 -227 0
68 55 67 58 70 69 60 -228 0
68 55 67 58 70 69 60 -226 0
68 55 67 58 61 69 60 -225 0
68 55 67 58 61 69 60 -227 0
68 55 67 58 61 69 60 -228 0
68 55 67 58 61 69 60 -226 0
68 55 67 70 61 69 60 -225 0
68 55 67 70 61 69 60 -227 0
68 55 67 70 61 69 60 -228 0
68 55 67 70 61 69 60 -226 0
68 55 58 70 61 69 60 -225 0
68 55 58 70 61 69 60 -227 0
68 55 58 70 61 69 60 -228 0
68 55 58 70 61 69 60 -226 0
68 53 67 49 70 52 69 -215 0
68 53 67 49 70 52 69 -216 0
68 53 67 49 70 52 69 -217 0
68 53 67 49 70 52 69 -218 0
68 53 67 49 70 52 47 -215 0
68 53 67 49 70 52 47 -216 0
68 53 67 49 70 52 47 -217 0
68 53 67 49 70 52 47 -218 0
68 53 67 49 70 69 47 -215 0
68 53 67 49 70 69 47 -216 0
68 53 67 49 70 69 47 -217 0
68 53 67 49 70 69 47 -218 0
68 53 67 49 52 69 47 -215 0
68 53 67 49 52 69 47 -216 0
68 53 67 49 52 69 47 -217 0
68 53 67 49 52 69 47 -218 0
68 53 67 70 52 69 47 -215 0
68 53 67 70 52 69 47 -216 0
68 53 67 70 52 69 47 -217 0
68 53 67 70 52 69 47 -218 0
68 53 49 70 52 69 47 -215 0
68 53 49 70 52 69 47 -216 0
68 53 49 70 52 69 47 -217 0
68 53 49 70 52 69 47 -218 0
68 67 2 70 6 69 1 -66 0
68 67 2 70 6 69 1 -65 0
68 67 2 70 6 69 1 -63 0
68 67 2 70 6 69 1 -64 0
68 67 40 70 43 69 41 -203 0
68 67 40 70 43 69 41 -201 0
68 67 40 70 43 69 41 -204 0
68 67 40 70 43 69 41 -202 0
68 67 26 70 29 69 28 -164 0
68 67 26 70 29 69 28 -162 0
68 67 26 70 29 69 28 -163 0
68 67 26 70 29 69 28 -161 0
68 67 31 70 37 69 36 -186 0
68 67 31 70 37 69 36 -184 0
68 67 31 70 37 69 36 -185 0
68 67 31 70 37 69 36 -183 0
68 67 13 70 12 69 9 -105 0
68 67 13 70 12 69 9 -108 0
68 67 13 70 12 69 9 -106 0
68 67 13 70 12 69 9 -107 0
68 67 19 70 22 69 20 -138 0
68 67 19 70 22 69 20 -136 0
68 67 19 70 22 69 20 -135 0
68 67 19 70 22 69 20 -137 0
68 67 74 70 78 69 77 -238 0
68 67 74 70 78 69 77 -237 0
68 67 74 70 78 69 77 -235 0
68 67 74 70 78 69 77 -236 0
68 67 58 70 61 69 60 -225 0
68 67 58 70 61 69 60 -227 0
68 67 58 70 61 69 60 -228 0
68 67 58 70 61 69 60 -226 0
68 67 49 70 52 69 47 -215 0
68 67 49 70 52 69 47 -216 0
68 67 49 70 52 69 47 -217 0
68 67 49 70 52 69 47 -218 0
4 39 2 40 6 43 1 -42 0
4 39 2 40 6 43 1 -45 0
4 39 2 40 6 43 1 -44 0
4 39 2 40 6 43 1 -46 0
4 39 2 40 6 43 41 -42 0
4 39 2 40 6 43 41 -45 0
4 39 2 40 6 43 41 -44 0
4 39 2 40 6 43 41 -46 0
4 39 2 40 6 1 41 -42 0
4 39 2 40 6 1 41 -45 0
4 39 2 40 6 1 41 -44 0
4 39 2 40 6 1 41 -46 0
4 39 2 40 43 1 41 -42 0
4 39 2 40 43 1 41 -45 0
4 39 2 40 43 1 41 -44 0
4 39 2 40 43 1 41 -46 0
4 39 2 6 43 1 41 -42 0
4 39 2 6 43 1 41 -45 0
4 39 2 6 43 1 41 -44 0
4 39 2 6 43 1 41 -46 0
4 39 40 6 43 1 41 -42 0
4 39 40 6 43 1 41 -45 0
4 39 40 6 43 1 41 -44 0
4 39 40 6 43 1 41 -46 0
4 24 2 26 6 29 1 -27 0
4 24 2 26 6 29 1 -30 0
4 24 2 26 6 29 1 -25 0
4 24 2 26 6 29 1 -23 0
4 24 2 26 6 29 28 -27 0
4 24 2 26 6 29 28 -30 0
4 24 2 26 6 29 28 -25 0
4 24 2 26 6 29 28 -23 0
4 24 2 26 6 1 28 -27 0
4 24 2 26 6 1 28 -30 0
4 24 2 26 6 1 28 -25 0
4 24 2 26 6 1 28 -23 0
4 24 2 26 29 1 28 -27 0
4 24 2 26 29 1 28 -30 0
4 24 2 26 29 1 28 -25 0
4 24 2 26 29 1 28 -23 0
4 24 2 6 29 1 28 -27 0
4 24 2 6 29 1 28 -30 0
4 24 2 6 29 1 28 -25 0
4 24 2 6 29 1 28 -23 0
4 24 26 6 29 1 28 -27 0
4 24 26 6 29 1 28 -30 0
4 24 26 6 29 1 28 -25 0
4 24 26 6 29 1 28 -23 0
4 32 2 31 6 37 1 -33 0
4 32 2 31 6 37 1 -35 0
4 32 2 31 6 37 1 -34 0
4 32 2 31 6 37 1 -38 0
4 32 2 31 6 37 36 -33 0
4 32 2 31 6 37 36 -35 0
4 32 2 31 6 37 36 -34 0
4 32 2 31 6 37 36 -38 0
4 32 2 31 6 1 36 -33 0
4 32 2 31 6 1 36 -35 0
4 32 2 31 6 1 36 -34 0
4 32 2 31 6 1 36 -38 0
4 32 2 31 37 1 36 -33 0
4 32 2 31 37 1 36 -35 0
4 32 2 31 37 1 36 -34 0
4 32 2 31 37 1 36 -38 0
4 32 2 6 37 1 36 -33 0
4 32 2 6 37 1 36 -35 0
4 32 2 6 37 1 36 -34 0
4 32 2 6 37 1 36 -38 0
4 32 31 6 37 1 36 -33 0
4 32 31 6 37 1 36 -35 0
4 32 31 6 37 1 36 -34 0
4 32 31 6 37 1 36 -38 0
4 8 2 13 6 12 1 -7 0
4 8 2 13 6 12 1 -10 0
4 8 2 13 6 12 1 -14 0
4 8 2 13 6 12 1 -11 0
4 8 2 13 6 12 9 -7 0
4 8 2 13 6 12 9 -10 0
4 8 2 13 6 12 9 -14 0
4 8 2 13 6 12 9 -11 0
4 8 2 13 6 1 9 -7 0
4 8 2 13 6 1 9 -10 0
4 8 2 13 6 1 9 -14 0
4 8 2 13 6 1 9 -11 0
4 8 2 13 12 1 9 -7 0
4 8 2 13 12 1 9 -10 0
4 8 2 13 12 1 9 -14 0
4 8 2 13 12 1 9 -11 0
4 8 2 6 12 1 9 -7 0
4 8 2 6 12 1 9 -10 0
4 8 2 6 12 1 9 -14 0
4 8 2 6 12 1 9 -11 0
4 8 13 6 12 1 9 -7 0
4 8 13 6 12 1 9 -10 0
4 8 13 6 12 1 9 -14 0
4 8 13 6 12 1 9 -11 0
4 17 2 19 6 22 1 -16 0
4 17 2 19 6 22 1 -21 0
4 17 2 19 6 22 1 -18 0
4 17 2 19 6 22 1 -15 0
4 17 2 19 6 22 20 -16 0
4 17 2 19 6 22 20 -21 0
4 17 2 19 6 22 20 -18 0
4 17 2 19 6 22 20 -15 0
4 17 2 19 6 1 20 -16 0
4 17 2 19 6 1 20 -21 0
4 17 2 19 6 1 20 -18 0
4 17 2 19 6 1 20 -15 0
4 17 2 19 22 1 20 -16 0
4 17 2 19 22 1 20 -21 0
4 17 2 19 22 1 20 -18 0
4 17 2 19 22 1 20 -15 0
4 17 2 6 22 1 20 -16 0
4 17 2 6 22 1 20 -21 0
4 17 2 6 22 1 20 -18 0
4 17 2 6 22 1 20 -15 0
4 17 19 6 22 1 20 -16 0
4 17 19 6 22 1 20 -21 0
4 17 19 6 22 1 20 -18 0
4 17 19 6 22 1 20 -15 0
4 76 2 74 6 78 1 -73 0
4 76 2 74 6 78 1 -72 0
4 76 2 74 6 78 1 -71 0
4 76 2 74 6 78 1 -75 0
4 76 2 74 6 78 77 -73 0
4 76 2 74 6 78 77 -72 0
4 76 2 74 6 78 77 -71 0
4 76 2 74 6 78 77 -75 0
4 76 2 74 6 1 77 -73 0
4 76 2 74 6 1 77 -72 0
4 76 2 74 6 1 77 -71 0
4 76 2 74 6 1 77 -75 0
4 76 2 74 78 1 77 -73 0
4 76 2 74 78 1 77 -72 0
4 76 2 74 78 1 77 -71 0
4 76 2 74 78 1 77 -75 0
4 76 2 6 78 1 77 -73 0
4 76 2 6 78 1 77 -72 0
4 76 2 6 78 1 77 -71 0
4 76 2 6 78 1 77 -75 0
4 76 74 6 78 1 77 -73 0
4 76 74 6 78 1 77 -72 0
4 76 74 6 78 1 77 -71 0
4 76 74 6 78 1 77 -75 0
4 55 2 58 6 61 1 -56 0
4 55 2 58 6 61 1 -57 0
4 55 2 58 6 61 1 -62 0
4 55 2 58 6 61 1 -59 0
4 55 2 58 6 61 60 -56 0
4 55 2 58 6 61 60 -57 0
4 55 2 58 6 61 60 -62 0
4 55 2 58 6 61 60 -59 0
4 55 2 58 6 1 60 -56 0
4 55 2 58 6 1 60 -57 0
4 55 2 58 6 1 60 -62 0
4 55 2 58 6 1 60 -59 0
4 55 2 58 61 1 60 -56 0
4 55 2 58 61 1 60 -57 0
4 55 2 58 61 1 60 -62 0
4 55 2 58 61 1 60 -59 0
4 55 2 6 61 1 60 -56 0
4 55 2 6 61 1 60 -57 0
4 55 2 6 61 1 60 -62 0
4 55 2 6 61 1 60 -59 0
4 55 58 6 61 1 60 -56 0
4 55 58 6 61 1 60 -57 0
4 55 58 6 61 1 60 -62 0
4 55 58 6 61 1 60 -59 0
4 53 2 49 6 52 1 -54 0
4 53 2 49 6 52 1 -51 0
4 53 2 49 6 52 1 -48 0
4 53 2 49 6 52 1 -50 0
4 53 2 49 6 52 47 -54 0
4 53 2 49 6 52 47 -51 0
4 53 2 49 6 52 47 -48 0
4 53 2 49 6 52 47 -50 0
4 53 2 49 6 1 47 -54 0
4 53 2 49 6 1 47 -51 0
4 53 2 49 6 1 47 -48 0
4 53 2 49 6 1 47 -50 0
4 53 2 49 52 1 47 -54 0
4 53 2 49 52 1 47 -51 0
4 53 2 49 52 1 47 -48 0
4 53 2 49 52 1 47 -50 0
4 53 2 6 52 1 47 -54 0
4 53 2 6 52 1 47 -51 0
4 53 2 6 52 1 47 -48 0
4 53 2 6 52 1 47 -50 0
4 53 49 6 52 1 47 -54 0
4 53 49 6 52 1 47 -51 0
4 53 49 6 52 1 47 -48 0
4 53 49 6 52 1 47 -50 0
4 67 2 70 6 69 1 -66 0
4 67 2 70 6 69 1 -65 0
4 67 2 70 6 69 1 -63 0
4 67 2 70 6 69 1 -64 0
4 2 40 6 43 1 41 -42 0
4 2 40 6 43 1 41 -45 0
4 2 40 6 43 1 41 -44 0
4 2 40 6 43 1 41 -46 0
4 2 26 6 29 1 28 -27 0
4 2 26 6 29 1 28 -30 0
4 2 26 6 29 1 28 -25 0
4 2 26 6 29 1 28 -23 0
4 2 31 6 37 1 36 -33 0
4 2 31 6 37 1 36 -35 0
4 2 31 6 37 1 36 -34 0
4 2 31 6 37 1 36 -38 0
4 2 13 6 12 1 9 -7 0
4 2 13 6 12 1 9 -10 0
4 2 13 6 12 1 9 -14 0
4 2 13 6 12 1 9 -11 0
4 2 19 6 22 1 20 -16 0
4 2 19 6 22 1 20 -21 0
4 2 19 6 22 1 20 -18 0
4 2 19 6 22 1 20 -15 0
4 2 74 6 78 1 77 -73 0
4 2 74 6 78 1 77 -72 0
4 2 74 6 78 1 77 -71 0
4 2 74 6 78 1 77 -75 0
4 2 58 6 61 1 60 -56 0
4 2 58 6 61 1 60 -57 0
4 2 58 6 61 1 60 -62 0
4 2 58 6 61 1 60 -59 0
4 2 49 6 52 1 47 -54 0
4 2 49 6 52 1 47 -51 0
4 2 49 6 52 1 47 -48 0
4 2 49 6 52 1 47 -50 0
39 24 40 26 43 29 41 -150 0
39 24 40 26 43 29 41 -152 0
39 24 40 26 43 29 41 -149 0
39 24 40 26 43 29 41 -151 0
39 24 40 26 43 29 28 -150 0
39 24 40 26 43 29 28 -152 0
39 24 40 26 43 29 28 -149 0
39 24 40 26 43 29 28 -151 0
39 24 40 26 43 41 28 -150 0
39 24 40 26 43 41 28 -152 0
39 24 40 26 43 41 28 -149 0
39 24 40 26 43 41 28 -151 0
39 24 40 26 29 41 28 -150 0
39 24 40 26 29 41 28 -152 0
39 24 40 26 29 41 28 -149 0
39 24 40 26 29 41 28 -151 0
39 24 40 43 29 41 28 -150 0
39 24 40 43 29 41 28 -152 0
39 24 40 43 29 41 28 -149 0
39 24 40 43 29 41 28 -151 0
39 24 26 43 29 41 28 -150 0
39 24 26 43 29 41 28 -152 0
39 24 26 43 29 41 28 -149 0
39 24 26 43 29 41 28 -151 0
39 32 40 31 43 37 41 -172 0
39 32 40 31 43 37 41 -173 0
39 32 40 31 43 37 41 -174 0
39 32 40 31 43 37 41 -171 0
39 32 40 31 43 37 36 -172 0
39 32 40 31 43 37 36 -173 0
39 32 40 31 43 37 36 -174 0
39 32 40 31 43 37 36 -171 0
39 32 40 31 43 41 36 -172 0
39 32 40 31 43 41 36 -173 0
39 32 40 31 43 41 36 -174 0
39 32 40 31 43 41 36 -171 0
39 32 40 31 37 41 36 -172 0
39 32 40 31 37 41 36 -173 0
39 32 40 31 37 41 36 -174 0
39 32 40 31 37 41 36 -171 0
39 32 40 43 37 41 36 -172 0
39 32 40 43 37 41 36 -173 0
39 32 40 43 37 41 36 -174 0
39 32 40 43 37 41 36 -171 0
39 32 31 43 37 41 36 -172 0
39 32 31 43 37 41 36 -173 0
39 32 31 43 37 41 36 -174 0
39 32 31 43 37 41 36 -171 0
39 8 40 13 43 12 41 -96 0
39 8 40 13 43 12 41 -94 0
39 8 40 13 43 12 41 -95 0
39 8 40 13 43 12 41 -93 0
39 8 40 13 43 12 9 -96 0
39 8 40 13 43 12 9 -94 0
39 8 40 13 43 12 9 -95 0
39 8 40 13 43 12 9 -93 0
39 8 40 13 43 41 9 -96 0
39 8 40 13 43 41 9 -94 0
39 8 40 13 43 41 9 -95 0
39 8 40 13 43 41 9 -93 0
39 8 40 13 12 41 9 -96 0
39 8 40 13 12 41 9 -94 0
39 8 40 13 12 41 9 -95 0
39 8 40 13 12 41 9 -93 0
39 8 40 43 12 41 9 -96 0
39 8 40 43 12 41 9 -94 0
39 8 40 43 12 41 9 -95 0
39 8 40 43 12 41 9 -93 0
39 8 13 43 12 41 9 -96 0
39 8 13 43 12 41 9 -94 0
39 8 13 43 12 41 9 -95 0
39 8 13 43 12 41 9 -93 0
39 17 40 19 43 22 41 -125 0
39 17 40 19 43 22 41 -123 0
39 17 40 19 43 22 41 -126 0
39 17 40 19 43 22 41 -124 0
39 17 40 19 43 22 20 -125 0
39 17 40 19 43 22 20 -123 0
39 17 40 19 43 22 20 -126 0
39 17 40 19 43 22 20 -124 0
39 17 40 19 43 41 20 -125 0
39 17 40 19 43 41 20 -123 0
39 17 40 19 43 41 20 -126 0
39 17 40 19 43 41 20 -124 0
39 17 40 19 22 41 20 -125 0
39 17 40 19 22 41 20 -123 0
39 17 40 19 22 41 20 -126 0
39 17 40 19 22 41 20 -124 0
39 17 40 43 22 41 20 -125 0
39 17 40 43 22 41 20 -123 0
39 17 40 43 22 41 20 -126 0
39 17 40 43 22 41 20 -124 0
39 17 19 43 22 41 20 -125 0
39 17 19 43 22 41 20 -123 0
39 17 19 43 22 41 20 -126 0
39 17 19 43 22 41 20 -124 0
39 76 40 74 43 78 41 -205 0
39 76 40 74 43 78 41 -208 0
39 76 40 74 43 78 41 -207 0
39 76 40 74 43 78 41 -206 0
39 76 40 74 43 78 77 -205 0
39 76 40 74 43 78 77 -208 0
39 76 40 74 43 78 77 -207 0
39 76 40 74 43 78 77 -206 0
39 76 40 74 43 41 77 -205 0
39 76 40 74 43 41 77 -208 0
39 76 40 74 43 41 77 -207 0
39 76 40 74 43 41 77 -206 0
39 76 40 74 78 41 77 -205 0
39 76 40 74 78 41 77 -208 0
39 76 40 74 78 41 77 -207 0
39 76 40 74 78 41 77 -206 0
39 76 40 43 78 41 77 -205 0
39 76 40 43 78 41 77 -208 0
39 76 40 43 78 41 77 -207 0
39 76 40 43 78 41 77 -206 0
39 76 74 43 78 41 77 -205 0
39 76 74 43 78 41 77 -208 0
39 76 74 43 78 41 77 -207 0
39 76 74 43 78 41 77 -206 0
39 55 40 58 43 61 41 -200 0
39 55 40 58 43 61 41 -197 0
39 55 40 58 43 61 41 -198 0
39 55 40 58 43 61 41 -199 0
39 55 40 58 43 61 60 -200 0
39 55 40 58 43 61 60 -197 0
39 55 40 58 43 61 60 -198 0
39 55 40 58 43 61 60 -199 0
39 55 40 58 43 41 60 -200 0
39 55 40 58 43 41 60 -197 0
39 55 40 58 43 41 60 -198 0
39 55 40 58 43 41 60 -199 0
39 55 40 58 61 41 60 -200 0
39 55 40 58 61 41 60 -197 0
39 55 40 58 61 41 60 -198 0
39 55 40 58 61 41 60 -199 0
39 55 40 43 61 41 60 -200 0
39 55 40 43 61 41 60 -197 0
39 55 40 43 61 41 60 -198 0
39 55 40 43 61 41 60 -199 0
39 55 58 43 61 41 60 -200 0
39 55 58 43 61 41 60 -197 0
39 55 58 43 61 41 60 -198 0
39 55 58 43 61 41 60 -199 0
39 53 40 49 43 52 41 -196 0
39 53 40 49 43 52 41 -193 0
39 53 40 49 43 52 41 -194 0
39 53 40 49 43 52 41 -195 0
39 53 40 49 43 52 47 -196 0
39 53 40 49 43 52 47 -193 0
39 53 40 49 43 52 47 -194 0
39 53 40 49 43 52 47 -195 0
39 53 40 49 43 41 47 -196 0
39 53 40 49 43 41 47 -193 0
39 53 40 49 43 41 47 -194 0
39 53 40 49 43 41 47 -195 0
39 53 40 49 52 41 47 -196 0
39 53 40 49 52 41 47 -193 0
39 53 40 49 52 41 47 -194 0
39 53 40 49 52 41 47 -195 0
39 53 40 43 52 41 47 -196 0
39 53 40 43 52 41 47 -193 0
39 53 40 43 52 41 47 -194 0
39 53 40 43 52 41 47 -195 0
39 53 49 43 52 41 47 -196 0
39 53 49 43 52 41 47 -193 0
39 53 49 43 52 41 47 -194 0
39 53 49 43 52 41 47 -195 0
39 67 40 70 43 69 41 -203 0
39 67 40 70 43 69 41 -201 0
39 67 40 70 43 69 41 -204 0
39 67 40 70 43 69 41 -202 0
39 2 40 6 43 1 41 -42 0
39 2 40 6 43 1 41 -45 0
39 2 40 6 43 1 41 -44 0
39 2 40 6 43 1 41 -46 0
39 40 26 43 29 41 28 -150 0
39 40 26 43 29 41 28 -152 0
39 40 26 43 29 41 28 -149 0
39 40 26 43 29 41 28 -151 0
39 40 31 43 37 41 36 -172 0
39 40 31 43 37 41 36 -173 0
39 40 31 43 37 41 36 -174 0
39 40 31 43 37 41 36 -171 0
39 40 13 43 12 41 9 -96 0
39 40 13 43 12 41 9 -94 0
39 40 13 43 12 41 9 -95 0
39 40 13 43 12 41 9 -93 0
39 40 19 43 22 41 20 -125 0
39 40 19 43 22 41 20 -123 0
39 40 19 43 22 41 20 -126 0
39 40 19 43 22 41 20 -124 0
39 40 74 43 78 41 77 -205 0
39 40 74 43 78 41 77 -208 0
39 40 74 43 78 41 77 -207 0
39 40 74 43 78 41 77 -206 0
39 40 58 43 61 41 60 -200 0
39 40 58 43 61 41 60 -197 0
39 40 58 43 61 41 60 -198 0
39 40 58 43 61 41 60 -199 0
39 40 49 43 52 41 47 -196 0
39 40 49 43 52 41 47 -193 0
39 40 49 43 52 41 47 -194 0
39 40 49 43 52 41 47 -195 0
24 32 26 31 29 37 28 -148 0
24 32 26 31 29 37 28 -145 0
24 32 26 31 29 37 28 -147 0
24 32 26 31 29 37 28 -146 0
24 32 26 31 29 37 36 -148 0
24 32 26 31 29 37 36 -145 0
24 32 26 31 29 37 36 -147 0
24 32 26 31 29 37 36 -146 0
24 32 26 31 29 28 36 -148 0
24 32 26 31 29 28 36 -145 0
24 32 26 31 29 28 36 -147 0
24 32 26 31 29 28 36 -146 0
24 32 26 31 37 28 36 -148 0
24 32 26 31 37 28 36 -145 0
24 32 26 31 37 28 36 -147 0
24 32 26 31 37 28 36 -146 0
24 32 26 29 37 28 36 -148 0
24 32 26 29 37 28 36 -145 0
24 32 26 29 37 28 36 -147 0
24 32 26 29 37 28 36 -146 0
24 32 31 29 37 28 36 -148 0
24 32 31 29 37 28 36 -145 0
24 32 31 29 37 28 36 -147 0
24 32 31 29 37 28 36 -146 0
24 8 26 13 29 12 28 -86 0
24 8 26 13 29 12 28 -87 0
24 8 26 13 29 12 28 -85 0
24 8 26 13 29 12 28 -88 0
24 8 26 13 29 12 9 -86 0
24 8 26 13 29 12 9 -87 0
24 8 26 13 29 12 9 -85 0
24 8 26 13 29 12 9 -88 0
24 8 26 13 29 28 9 -86 0
24 8 26 13 29 28 9 -87 0
24 8 26 13 29 28 9 -85 0
24 8 26 13 29 28 9 -88 0
24 8 26 13 12 28 9 -86 0
24 8 26 13 12 28 9 -87 0
24 8 26 13 12 28 9 -85 0
24 8 26 13 12 28 9 -88 0
24 8 26 29 12 28 9 -86 0
24 8 26 29 12 28 9 -87 0
24 8 26 29 12 28 9 -85 0
24 8 26 29 12 28 9 -88 0
24 8 13 29 12 28 9 -86 0
24 8 13 29 12 28 9 -87 0
24 8 13 29 12 28 9 -85 0
24 8 13 29 12 28 9 -88 0
24 17 26 19 29 22 28 -117 0
24 17 26 19 29 22 28 -116 0
24 17 26 19 29 22 28 -115 0
24 17 26 19 29 22 28 -118 0
24 17 26 19 29 22 20 -117 0
24 17 26 19 29 22 20 -116 0
24 17 26 19 29 22 20 -115 0
24 17 26 19 29 22 20 -118 0
24 17 26 19 29 28 20 -117 0
24 17 26 19 29 28 20 -116 0
24 17 26 19 29 28 20 -115 0
24 17 26 19 29 28 20 -118 0
24 17 26 19 22 28 20 -117 0
24 17 26 19 22 28 20 -116 0
24 17 26 19 22 28 20 -115 0
24 17 26 19 22 28 20 -118 0
24 17 26 29 22 28 20 -117 0
24 17 26 29 22 28 20 -116 0
24 17 26 29 22 28 20 -115 0
24 17 26 29 22 28 20 -118 0
24 17 19 29 22 28 20 -117 0
24 17 19 29 22 28 20 -116 0
24 17 19 29 22 28 20 -115 0
24 17 19 29 22 28 20 -118 0
24 76 26 74 29 78 28 -167 0
24 76 26 74 29 78 28 -165 0
24 76 26 74 29 78 28 -166 0
24 76 26 74 29 78 28 -168 0
24 76 26 74 29 78 77 -167 0
24 76 26 74 29 78 77 -165 0
24 76 26 74 29 78 77 -166 0
24 76 26 74 29 78 77 -168 0
24 76 26 74 29 28 77 -167 0
24 76 26 74 29 28 77 -165 0
24 76 26 74 29 28 77 -166 0
24 76 26 74 29 28 77 -168 0
24 76 26 74 78 28 77 -167 0
24 76 26 74 78 28 77 -165 0
24 76 26 74 78 28 77 -166 0
24 76 26 74 78 28 77 -168 0
24 76 26 29 78 28 77 -167 0
24 76 26 29 78 28 77 -165 0
24 76 26 29 78 28 77 -166 0
24 76 26 29 78 28 77 -168 0
24 76 74 29 78 28 77 -167 0
24 76 74 29 78 28 77 -165 0
24 76 74 29 78 28 77 -166 0
24 76 74 29 78 28 77 -168 0
24 55 26 58 29 61 28 -157 0
24 55 26 58 29 61 28 -159 0
24 55 26 58 29 61 28 -160 0
24 55 26 58 29 61 28 -158 0
24 55 26 58 29 61 60 -157 0
24 55 26 58 29 61 60 -159 0
24 55 26 58 29 61 60 -160 0
24 55 26 58 29 61 60 -158 0
24 55 26 58 29 28 60 -157 0
24 55 26 58 29 28 60 -159 0
24 55 26 58 29 28 60 -160 0
24 55 26 58 29 28 60 -158 0
24 55 26 58 61 28 60 -157 0
24 55 26 58 61 28 60 -159 0
24 55 26 58 61 28 60 -160 0
24 55 26 58 61 28 60 -158 0
24 55 26 29 61 28 60 -157 0
24 55 26 29 61 28 60 -159 0
24 55 26 29 61 28 60 -160 0
24 55 26 29 61 28 60 -158 0
24 55 58 29 61 28 60 -157 0
24 55 58 29 61 28 60 -159 0
24 55 58 29 61 28 60 -160 0
24 55 58 29 61 28 60 -158 0
24 53 26 49 29 52 28 -156 0
24 53 26 49 29 52 28 -154 0
24 53 26 49 29 52 28 -153 0
24 53 26 49 29 52 28 -155 0
24 53 26 49 29 52 47 -156 0
24 53 26 49 29 52 47 -154 0
24 53 26 49 29 52 47 -153 0
24 53 26 49 29 52 47 -155 0
24 53 26 49 29 28 47 -156 0
24 53 26 49 29 28 47 -154 0
24 53 26 49 29 28 47 -153 0
24 53 26 49 29 28 47 -155 0
24 53 26 49 52 28 47 -156 0
24 53 26 49 52 28 47 -154 0
24 53 26 49 52 28 47 -153 0
24 53 26 49 52 28 47 -155 0
24 53 26 29 52 28 47 -156 0
24 53 26 29 52 28 47 -154 0
24 53 26 29 52 28 47 -153 0
24 53 26 29 52 28 47 -155 0
24 53 49 29 52 28 47 -156 0
24 53 49 29 52 28 47 -154 0
24 53 49 29 52 28 47 -153 0
24 53 49 29 52 28 47 -155 0
24 67 26 70 29 69 28 -164 0
24 67 26 70 29 69 28 -162 0
24 67 26 70 29 69 28 -163 0
24 67 26 70 29 69 28 -161 0
24 2 26 6 29 1 28 -27 0
24 2 26 6 29 1 28 -30 0
24 2 26 6 29 1 28 -25 0
24 2 26 6 29 1 28 -23 0
24 40 26 43 29 41 28 -150 0
24 40 26 43 29 41 28 -152 0
24 40 26 43 29 41 28 -149 0
24 40 26 43 29 41 28 -151 0
24 26 31 29 37 28 36 -148 0
24 26 31 29 37 28 36 -145 0
24 26 31 29 37 28 36 -147 0
24 26 31 29 37 28 36 -146 0
24 26 13 29 12 28 9 -86 0
24 26 13 29 12 28 9 -87 0
24 26 13 29 12 28 9 -85 0
24 26 13 29 12 28 9 -88 0
24 26 19 29 22 28 20 -117 0
24 26 19 29 22 28 20 -116 0
24 26 19 29 22 28 20 -115 0
24 26 19 29 22 28 20 -118 0
24 26 74 29 78 28 77 -167 0
24 26 74 29 78 28 77 -165 0
24 26 74 29 78 28 77 -166 0
24 26 74 29 78 28 77 -168 0
24 26 58 29 61 28 60 -157 0
24 26 58 29 61 28 60 -159 0
24 26 58 29 61 28 60 -160 0
24 26 58 29 61 28 60 -158 0
24 26 49 29 52 28 47 -156 0
24 26 49 29 52 28 47 -154 0
24 26 49 29 52 28 47 -153 0
24 26 49 29 52 28 47 -155 0
32 8 31 13 37 12 36 -89 0
32 8 31 13 37 12 36 -90 0
32 8 31 13 37 12 36 -92 0
32 8 31 13 37 12 36 -91 0
32 8 31 13 37 12 9 -89 0
32 8 31 13 37 12 9 -90 0
32 8 31 13 37 12 9 -92 0
32 8 31 13 37 12 9 -91 0
32 8 31 13 37 36 9 -89 0
32 8 31 13 37 36 9 -90 0
32 8 31 13 37 36 9 -92 0
32 8 31 13 37 36 9 -91 0
32 8 31 13 12 36 9 -89 0
32 8 31 13 12 36 9 -90 0
32 8 31 13 12 36 9 -92 0
32 8 31 13 12 36 9 -91 0
32 8 31 37 12 36 9 -89 0
32 8 31 37 12 36 9 -90 0
32 8 31 37 12 36 9 -92 0
32 8 31 37 12 36 9 -91 0
32 8 13 37 12 36 9 -89 0
32 8 13 37 12 36 9 -90 0
32 8 13 37 12 36 9 -92 0
32 8 13 37 12 36 9 -91 0
32 17 31 19 37 22 36 -120 0
32 17 31 19 37 22 36 -122 0
32 17 31 19 37 22 36 -119 0
32 17 31 19 37 22 36 -121 0
32 17 31 19 37 22 20 -120 0
32 17 31 19 37 22 20 -122 0
32 17 31 19 37 22 20 -119 0
32 17 31 19 37 22 20 -121 0
32 17 31 19 37 36 20 -120 0
32 17 31 19 37 36 20 -122 0
32 17 31 19 37 36 20 -119 0
32 17 31 19 37 36 20 -121 0
32 17 31 19 22 36 20 -120 0
32 17 31 19 22 36 20 -122 0
32 17 31 19 22 36 20 -119 0
32 17 31 19 22 36 20 -121 0
32 17 31 37 22 36 20 -120 0
32 17 31 37 22 36 20 -122 0
32 17 31 37 22 36 20 -119 0
32 17 31 37 22 36 20 -121 0
32 17 19 37 22 36 20 -120 0
32 17 19 37 22 36 20 -122 0
32 17 19 37 22 36 20 -119 0
32 17 19 37 22 36 20 -121 0
32 76 31 74 37 78 36 -188 0
32 76 31 74 37 78 36 -187 0
32 76 31 74 37 78 36 -189 0
32 76 31 74 37 78 36 -190 0
32 76 31 74 37 78 77 -188 0
32 76 31 74 37 78 77 -187 0
32 76 31 74 37 78 77 -189 0
32 76 31 74 37 78 77 -190 0
32 76 31 74 37 36 77 -188 0
32 76 31 74 37 36 77 -187 0
32 76 31 74 37 36 77 -189 0
32 76 31 74 37 36 77 -190 0
32 76 31 74 78 36 77 -188 0
32 76 31 74 78 36 77 -187 0
32 76 31 74 78 36 77 -189 0
32 76 31 74 78 36 77 -190 0
32 76 31 37 78 36 77 -188 0
32 76 31 37 78 36 77 -187 0
32 76 31 37 78 36 77 -189 0
32 76 31 37 78 36 77 -190 0
32 76 74 37 78 36 77 -188 0
32 76 74 37 78 36 77 -187 0
32 76 74 37 78 36 77 -189 0
32 76 74 37 78 36 77 -190 0
32 55 31 58 37 61 36 -182 0
32 55 31 58 37 61 36 -179 0
32 55 31 58 37 61 36 -181 0
32 55 31 58 37 61 36 -180 0
32 55 31 58 37 61 60 -182 0
32 55 31 58 37 61 60 -179 0
32 55 31 58 37 61 60 -181 0
32 55 31 58 37 61 60 -180 0
32 55 31 58 37 36 60 -182 0
32 55 31 58 37 36 60 -179 0
32 55 31 58 37 36 60 -181 0
32 55 31 58 37 36 60 -180 0
32 55 31 58 61 36 60 -182 0
32 55 31 58 61 36 60 -179 0
32 55 31 58 61 36 60 -181 0
32 55 31 58 61 36 60 -180 0
32 55 31 37 61 36 60 -182 0
32 55 31 37 61 36 60 -179 0
32 55 31 37 61 36 60 -181 0
32 55 31 37 61 36 60 -180 0
32 55 58 37 61 36 60 -182 0
32 55 58 37 61 36 60 -179 0
32 55 58 37 61 36 60 -181 0
32 55 58 37 61 36 60 -180 0
32 53 31 49 37 52 36 -175 0
32 53 31 49 37 52 36 -178 0
32 53 31 49 37 52 36 -177 0
32 53 31 49 37 52 36 -176 0
32 53 31 49 37 52 47 -175 0
32 53 31 49 37 52 47 -178 0
32 53 31 49 37 52 47 -177 0
32 53 31 49 37 52 47 -176 0
32 53 31 49 37 36 47 -175 0
32 53 31 49 37 36 47 -178 0
32 53 31 49 37 36 47 -177 0
32 53 31 49 37 36 47 -176 0
32 53 31 49 52 36 47 -175 0
32 53 31 49 52 36 47 -178 0
32 53 31 49 52 36 47 -177 0
32 53 31 49 52 36 47 -176 0
32 53 31 37 52 36 47 -175 0
32 53 31 37 52 36 47 -178 0
32 53 31 37 52 36 47 -177 0
32 53 31 37 52 36 47 -176 0
32 53 49 37 52 36 47 -175 0
32 53 49 37 52 36 47 -178 0
32 53 49 37 52 36 47 -177 0
32 53 49 37 52 36 47 -176 0
32 67 31 70 37 69 36 -186 0
32 67 31 70 37 69 36 -184 0
32 67 31 70 37 69 36 -185 0
32 67 31 70 37 69 36 -183 0
32 2 31 6 37 1 36 -33 0
32 2 31 6 37 1 36 -35 0
32 2 31 6 37 1 36 -34 0
32 2 31 6 37 1 36 -38 0
32 40 31 43 37 41 36 -172 0
32 40 31 43 37 41 36 -173 0
32 40 31 43 37 41 36 -174 0
32 40 31 43 37 41 36 -171 0
32 26 31 29 37 28 36 -148 0
32 26 31 29 37 28 36 -145 0
32 26 31 29 37 28 36 -147 0
32 26 31 29 37 28 36 -146 0
32 31 13 37 12 36 9 -89 0
32 31 13 37 12 36 9 -90 0
32 31 13 37 12 36 9 -92 0
32 31 13 37 12 36 9 -91 0
32 31 19 37 22 36 20 -120 0
32 31 19 37 22 36 20 -122 0
32 31 19 37 22 36 20 -119 0
32 31 19 37 22 36 20 -121 0
32 31 74 37 78 36 77 -188 0
32 31 74 37 78 36 77 -187 0
32 31 74 37 78 36 77 -189 0
32 31 74 37 78 36 77 -190 0
32 31 58 37 61 36 60 -182 0
32 31 58 37 61 36 60 -179 0
32 31 58 37 61 36 60 -181 0
32 31 58 37 61 36 60 -180 0
32 31 49 37 52 36 47 -175 0
32 31 49 37 52 36 47 -178 0
32 31 49 37 52 36 47 -177 0
32 31 49 37 52 36 47 -176 0
8 17 13 19 12 22 9 -81 0
8 17 13 19 12 22 9 -83 0
8 17 13 19 12 22 9 -82 0
8 17 13 19 12 22 9 -84 0
8 17 13 19 12 22 20 -81 0
8 17 13 19 12 22 20 -83 0
8 17 13 19 12 22 20 -82 0
8 17 13 19 12 22 20 -84 0
8 17 13 19 12 9 20 -81 0
8 17 13 19 12 9 20 -83 0
8 17 13 19 12 9 20 -82 0
8 17 13 19 12 9 20 -84 0
8 17 13 19 22 9 20 -81 0
8 17 13 19 22 9 20 -83 0
8 17 13 19 22 9 20 -82 0
8 17 13 19 22 9 20 -84 0
8 17 13 12 22 9 20 -81 0
8 17 13 12 22 9 20 -83 0
8 17 13 12 22 9 20 -82 0
8 17 13 12 22 9 20 -84 0
8 17 19 12 22 9 20 -81 0
8 17 19 12 22 9 20 -83 0
8 17 19 12 22 9 20 -82 0
8 17 19 12 22 9 20 -84 0
8 76 13 74 12 78 9 -112 0
8 76 13 74 12 78 9 -110 0
8 76 13 74 12 78 9 -111 0
8 76 13 74 12 78 9 -109 0
8 76 13 74 12 78 77 -112 0
8 76 13 74 12 78 77 -110 0
8 76 13 74 12 78 77 -111 0
8 76 13 74 12 78 77 -109 0
8 76 13 74 12 9 77 -112 0
8 76 13 74 12 9 77 -110 0
8 76 13 74 12 9 77 -111 0
8 76 13 74 12 9 77 -109 0
8 76 13 74 78 9 77 -112 0
8 76 13 74 78 9 77 -110 0
8 76 13 74 78 9 77 -111 0
8 76 13 74 78 9 77 -109 0
8 76 13 12 78 9 77 -112 0
8 76 13 12 78 9 77 -110 0
8 76 13 12 78 9 77 -111 0
8 76 13 12 78 9 77 -109 0
8 76 74 12 78 9 77 -112 0
8 76 74 12 78 9 77 -110 0
8 76 74 12 78 9 77 -111 0
8 76 74 12 78 9 77 -109 0
8 55 13 58 12 61 9 -101 0
8 55 13 58 12 61 9 -102 0
8 55 13 58 12 61 9 -103 0
8 55 13 58 12 61 9 -104 0
8 55 13 58 12 61 60 -101 0
8 55 13 58 12 61 60 -102 0
8 55 13 58 12 61 60 -103 0
8 55 13 58 12 61 60 -104 0
8 55 13 58 12 9 60 -101 0
8 55 13 58 12 9 60 -102 0
8 55 13 58 12 9 60 -103 0
8 55 13 58 12 9 60 -104 0
8 55 13 58 61 9 60 -101 0
8 55 13 58 61 9 60 -102 0
8 55 13 58 61 9 60 -103 0
8 55 13 58 61 9 60 -104 0
8 55 13 12 61 9 60 -101 0
8 55 13 12 61 9 60 -102 0
8 55 13 12 61 9 60 -103 0
8 55 13 12 61 9 60 -104 0
8 55 58 12 61 9 60 -101 0
8 55 58 12 61 9 60 -102 0
8 55 58 12 61 9 60 -103 0
8 55 58 12 61 9 60 -104 0
8 53 13 49 12 52 9 -98 0
8 53 13 49 12 52 9 -99 0
8 53 13 49 12 52 9 -97 0
8 53 13 49 12 52 9 -100 0
8 53 13 49 12 52 47 -98 0
8 53 13 49 12 52 47 -99 0
8 53 13 49 12 52 47 -97 0
8 53 13 49 12 52 47 -100 0
8 53 13 49 12 9 47 -98 0
8 53 13 49 12 9 47 -99 0
8 53 13 49 12 9 47 -97 0
8 53 13 49 12 9 47 -100 0
8 53 13 49 52 9 47 -98 0
8 53 13 49 52 9 47 -99 0
8 53 13 49 52 9 47 -97 0
8 53 13 49 52 9 47 -100 0
8 53 13 12 52 9 47 -98 0
8 53 13 12 52 9 47 -99 0
8 53 13 12 52 9 47 -97 0
8 53 13 12 52 9 47 -100 0
8 53 49 12 52 9 47 -98 0
8 53 49 12 52 9 47 -99 0
8 53 49 12 52 9 47 -97 0
8 53 49 12 52 9 47 -100 0
8 67 13 70 12 69 9 -105 0
8 67 13 70 12 69 9 -108 0
8 67 13 70 12 69 9 -106 0
8 67 13 70 12 69 9 -107 0
8 2 13 6 12 1 9 -7 0
8 2 13 6 12 1 9 -10 0
8 2 13 6 12 1 9 -14 0
8 2 13 6 12 1 9 -11 0
8 40 13 43 12 41 9 -96 0
8 40 13 43 12 41 9 -94 0
8 40 13 43 12 41 9 -95 0
8 40 13 43 12 41 9 -93 0
8 26 13 29 12 28 9 -86 0
8 26 13 29 12 28 9 -87 0
8 26 13 29 12 28 9 -85 0
8 26 13 29 12 28 9 -88 0
8 31 13 37 12 36 9 -89 0
8 31 13 37 12 36 9 -90 0
8 31 13 37 12 36 9 -92 0
8 31 13 37 12 36 9 -91 0
8 13 19 12 22 9 20 -81 0
8 13 19 12 22 9 20 -83 0
8 13 19 12 22 9 20 -82 0
8 13 19 12 22 9 20 -84 0
8 13 74 12 78 9 77 -112 0
8 13 74 12 78 9 77 -110 0
8 13 74 12 78 9 77 -111 0
8 13 74 12 78 9 77 -109 0
8 13 58 12 61 9 60 -101 0
8 13 58 12 61 9 60 -102 0
8 13 58 12 61 9 60 -103 0
8 13 58 12 61 9 60 -104 0
8 13 49 12 52 9 47 -98 0
8 13 49 12 52 9 47 -99 0
8 13 49 12 52 9 47 -97 0
8 13 49 12 52 9 47 -100 0
17 76 19 74 22 78 20 -142 0
17 76 19 74 22 78 20 -141 0
17 76 19 74 22 78 20 -139 0
17 76 19 74 22 78 20 -140 0
17 76 19 74 22 78 77 -142 0
17 76 19 74 22 78 77 -141 0
17 76 19 74 22 78 77 -139 0
17 76 19 74 22 78 77 -140 0
17 76 19 74 22 20 77 -142 0
17 76 19 74 22 20 77 -141 0
17 76 19 74 22 20 77 -139 0
17 76 19 74 22 20 77 -140 0
17 76 19 74 78 20 77 -142 0
17 76 19 74 78 20 77 -141 0
17 76 19 74 78 20 77 -139 0
17 76 19 74 78 20 77 -140 0
17 76 19 22 78 20 77 -142 0
17 76 19 22 78 20 77 -141 0
17 76 19 22 78 20 77 -139 0
17 76 19 22 78 20 77 -140 0
17 76 74 22 78 20 77 -142 0
17 76 74 22 78 20 77 -141 0
17 76 74 22 78 20 77 -139 0
17 76 74 22 78 20 77 -140 0
17 55 19 58 22 61 20 -132 0
17 55 19 58 22 61 20 -131 0
17 55 19 58 22 61 20 -134 0
17 55 19 58 22 61 20 -133 0
17 55 19 58 22 61 60 -132 0
17 55 19 58 22 61 60 -131 0
17 55 19 58 22 61 60 -134 0
17 55 19 58 22 61 60 -133 0
17 55 19 58 22 20 60 -132 0
17 55 19 58 22 20 60 -131 0
17 55 19 58 22 20 60 -134 0
17 55 19 58 22 20 60 -133 0
17 55 19 58 61 20 60 -132 0
17 55 19 58 61 20 60 -131 0
17 55 19 58 61 20 60 -134 0
17 55 19 58 61 20 60 -133 0
17 55 19 22 61 20 60 -132 0
17 55 19 22 61 20 60 -131 0
17 55 19 22 61 20 60 -134 0
17 55 19 22 61 20 60 -133 0
17 55 58 22 61 20 60 -132 0
17 55 58 22 61 20 60 -131 0
17 55 58 22 61 20 60 -134 0
17 55 58 22 61 20 60 -133 0
17 53 19 49 22 52 20 -128 0
17 53 19 49 22 52 20 -130 0
17 53 19 49 22 52 20 -127 0
17 53 19 49 22 52 20 -129 0
17 53 19 49 22 52 47 -128 0
17 53 19 49 22 52 47 -130 0
17 53 19 49 22 52 47 -127 0
17 53 19 49 22 52 47 -129 0
17 53 19 49 22 20 47 -128 0
17 53 19 49 22 20 47 -130 0
17 53 19 49 22 20 47 -127 0
17 53 19 49 22 20 47 -129 0
17 53 19 49 52 20 47 -128 0
17 53 19 49 52 20 47 -130 0
17 53 19 49 52 20 47 -127 0
17 53 19 49 52 20 47 -129 0
17 53 19 22 52 20 47 -128 0
17 53 19 22 52 20 47 -130 0
17 53 19 22 52 20 47 -127 0
17 53 19 22 52 20 47 -129 0
17 53 49 22 52 20 47 -128 0
17 53 49 22 52 20 47 -130 0
17 53 49 22 52 20 47 -127 0
17 53 49 22 52 20 47 -129 0
17 67 19 70 22 69 20 -138 0
17 67 19 70 22 69 20 -136 0
17 67 19 70 22 69 20 -135 0
17 67 19 70 22 69 20 -137 0
17 2 19 6 22 1 20 -16 0
17 2 19 6 22 1 20 -21 0
17 2 19 6 22 1 20 -18 0
17 2 19 6 22 1 20 -15 0
17 40 19 43 22 41 20 -125 0
17 40 19 43 22 41 20 -123 0
17 40 19 43 22 41 20 -126 0
17 40 19 43 22 41 20 -124 0
17 26 19 29 22 28 20 -117 0
17 26 19 29 22 28 20 -116 0
17 26 19 29 22 28 20 -115 0
17 26 19 29 22 28 20 -118 0
17 31 19 37 22 36 20 -120 0
17 31 19 37 22 36 20 -122 0
17 31 19 37 22 36 20 -119 0
17 31 19 37 22 36 20 -121 0
17 13 19 12 22 9 20 -81 0
17 13 19 12 22 9 20 -83 0
17 13 19 12 22 9 20 -82 0
17 13 19 12 22 9 20 -84 0
17 19 74 22 78 20 77 -142 0
17 19 74 22 78 20 77 -141 0
17 19 74 22 78 20 77 -139 0
17 19 74 22 78 20 77 -140 0
17 19 58 22 61 20 60 -132 0
17 19 58 22 61 20 60 -131 0
17 19 58 22 61 20 60 -134 0
17 19 58 22 61 20 60 -133 0
17 19 49 22 52 20 47 -128 0
17 19 49 22 52 20 47 -130 0
17 19 49 22 52 20 47 -127 0
17 19 49 22 52 20 47 -129 0
76 55 74 58 78 61 77 -229 0
76 55 74 58 78 61 77 -231 0
76 55 74 58 78 61 77 -230 0
76 55 74 58 78 61 77 -232 0
76 55 74 58 78 61 60 -229 0
76 55 74 58 78 61 60 -231 0
76 55 74 58 78 61 60 -230 0
76 55 74 58 78 61 60 -232 0
76 55 74 58 78 77 60 -229 0
76 55 74 58 78 77 60 -231 0
76 55 74 58 78 77 60 -230 0
76 55 74 58 78 77 60 -232 0
76 55 74 58 61 77 60 -229 0
76 55 74 58 61 77 60 -231 0
76 55 74 58 61 77 60 -230 0
76 55 74 58 61 77 60 -232 0
76 55 74 78 61 77 60 -229 0
76 55 74 78 61 77 60 -231 0
76 55 74 78 61 77 60 -230 0
76 55 74 78 61 77 60 -232 0
76 55 58 78 61 77 60 -229 0
76 55 58 78 61 77 60 -231 0
76 55 58 78 61 77 60 -230 0
76 55 58 78 61 77 60 -232 0
76 53 74 49 78 52 77 -220 0
76 53 74 49 78 52 77 -221 0
76 53 74 49 78 52 77 -219 0
76 53 74 49 78 52 77 -222 0
76 53 74 49 78 52 47 -220 0
76 53 74 49 78 52 47 -221 0
76 53 74 49 78 52 47 -219 0
76 53 74 49 78 52 47 -222 0
76 53 74 49 78 77 47 -220 0
76 53 74 49 78 77 47 -221 0
76 53 74 49 78 77 47 -219 0
76 53 74 49 78 77 47 -222 0
76 53 74 49 52 77 47 -220 0
76 53 74 49 52 77 47 -221 0
76 53 74 49 52 77 47 -219 0
76 53 74 49 52 77 47 -222 0
76 53 74 78 52 77 47 -220 0
76 53 74 78 52 77 47 -221 0
76 53 74 78 52 77 47 -219 0
76 53 74 78 52 77 47 -222 0
76 53 49 78 52 77 47 -220 0
76 53 49 78 52 77 47 -221 0
76 53 49 78 52 77 47 -219 0
76 53 49 78 52 77 47 -222 0
76 67 74 70 78 69 77 -238 0
76 67 74 70 78 69 77 -237 0
76 67 74 70 78 69 77 -235 0
76 67 74 70 78 69 77 -236 0
76 2 74 6 78 1 77 -73 0
76 2 74 6 78 1 77 -72 0
76 2 74 6 78 1 77 -71 0
76 2 74 6 78 1 77 -75 0
76 40 74 43 78 41 77 -205 0
76 40 74 43 78 41 77 -208 0
76 40 74 43 78 41 77 -207 0
76 40 74 43 78 41 77 -206 0
76 26 74 29 78 28 77 -167 0
76 26 74 29 78 28 77 -165 0
76 26 74 29 78 28 77 -166 0
76 26 74 29 78 28 77 -168 0
76 31 74 37 78 36 77 -188 0
76 31 74 37 78 36 77 -187 0
76 31 74 37 78 36 77 -189 0
76 31 74 37 78 36 77 -190 0
76 13 74 12 78 9 77 -112 0
76 13 74 12 78 9 77 -110 0
76 13 74 12 78 9 77 -111 0
76 13 74 12 78 9 77 -109 0
76 19 74 22 78 20 77 -142 0
76 19 74 22 78 20 77 -141 0
76 19 74 22 78 20 77 -139 0
76 19 74 22 78 20 77 -140 0
76 74 58 78 61 77 60 -229 0
76 74 58 78 61 77 60 -231 0
76 74 58 78 61 77 60 -230 0
76 74 58 78 61 77 60 -232 0
76 74 49 78 52 77 47 -220 0
76 74 49 78 52 77 47 -221 0
76 74 49 78 52 77 47 -219 0
76 74 49 78 52 77 47 -222 0
55 53 58 49 61 52 60 -214 0
55 53 58 49 61 52 60 -213 0
55 53 58 49 61 52 60 -211 0
55 53 58 49 61 52 60 -212 0
55 53 58 49 61 52 47 -214 0
55 53 58 49 61 52 47 -213 0
55 53 58 49 61 52 47 -211 0
55 53 58 49 61 52 47 -212 0
55 53 58 49 61 60 47 -214 0
55 53 58 49 61 60 47 -213 0
55 53 58 49 61 60 47 -211 0
55 53 58 49 61 60 47 -212 0
55 53 58 49 52 60 47 -214 0
55 53 58 49 52 60 47 -213 0
55 53 58 49 52 60 47 -211 0
55 53 58 49 52 60 47 -212 0
55 53 58 61 52 60 47 -214 0
55 53 58 61 52 60 47 -213 0
55 53 58 61 52 60 47 -211 0
55 53 58 61 52 60 47 -212 0
55 53 49 61 52 60 47 -214 0
55 53 49 61 52 60 47 -213 0
55 53 49 61 52 60 47 -211 0
55 53 49 61 52 60 47 -212 0
55 67 58 70 61 69 60 -225 0
55 67 58 70 61 69 60 -227 0
55 67 58 70 61 69 60 -228 0
55 67 58 70 61 69 60 -226 0
55 2 58 6 61 1 60 -56 0
55 2 58 6 61 1 60 -57 0
55 2 58 6 61 1 60 -62 0
55 2 58 6 61 1 60 -59 0
55 40 58 43 61 41 60 -200 0
55 40 58 43 61 41 60 -197 0
55 40 58 43 61 41 60 -198 0
55 40 58 43 61 41 60 -199 0
55 26 58 29 61 28 60 -157 0
55 26 58 29 61 28 60 -159 0
55 26 58 29 61 28 60 -160 0
55 26 58 29 61 28 60 -158 0
55 31 58 37 61 36 60 -182 0
55 31 58 37 61 36 60 -179 0
55 31 58 37 61 36 60 -181 0
55 31 58 37 61 36 60 -180 0
55 13 58 12 61 9 60 -101 0
55 13 58 12 61 9 60 -102 0
55 13 58 12 61 9 60 -103 0
55 13 58 12 61 9 60 -104 0
55 19 58 22 61 20 60 -132 0
55 19 58 22 61 20 60 -131 0
55 19 58 22 61 20 60 -134 0
55 19 58 22 61 20 60 -133 0
55 74 58 78 61 77 60 -229 0
55 74 58 78 61 77 60 -231 0
55 74 58 78 61 77 60 -230 0
55 74 58 78 61 77 60 -232 0
55 58 49 61 52 60 47 -214 0
55 58 49 61 52 60 47 -213 0
55 58 49 61 52 60 47 -211 0
55 58 49 61 52 60 47 -212 0
53 67 49 70 52 69 47 -215 0
53 67 49 70 52 69 47 -216 0
53 67 49 70 52 69 47 -217 0
53 67 49 70 52 69 47 -218 0
53 2 49 6 52 1 47 -54 0
53 2 49 6 52 1 47 -51 0
53 2 49 6 52 1 47 -48 0
53 2 49 6 52 1 47 -50 0
53 40 49 43 52 41 47 -196 0
53 40 49 43 52 41 47 -193 0
53 40 49 43 52 41 47 -194 0
53 40 49 43 52 41 47 -195 0
53 26 49 29 52 28 47 -156 0
53 26 49 29 52 28 47 -154 0
53 26 49 29 52 28 47 -153 0
53 26 49 29 52 28 47 -155 0
53 31 49 37 52 36 47 -175 0
53 31 49 37 52 36 47 -178 0
53 31 49 37 52 36 47 -177 0
53 31 49 37 52 36 47 -176 0
53 13 49 12 52 9 47 -98 0
53 13 49 12 52 9 47 -99 0
53 13 49 12 52 9 47 -97 0
53 13 49 12 52 9 47 -100 0
53 19 49 22 52 20 47 -128 0
53 19 49 22 52 20 47 -130 0
53 19 49 22 52 20 47 -127 0
53 19 49 22 52 20 47 -129 0
53 74 49 78 52 77 47 -220 0
53 74 49 78 52 77 47 -221 0
53 74 49 78 52 77 47 -219 0
53 74 49 78 52 77 47 -222 0
53 58 49 61 52 60 47 -214 0
53 58 49 61 52 60 47 -213 0
53 58 49 61 52 60 47 -211 0
53 58 49 61 52 60 47 -212 0
68 4 67 2 70 6 69 1 -66 0
68 4 67 2 70 6 69 1 -65 0
68 4 67 2 70 6 69 1 -63 0
68 4 67 2 70 6 69 1 -64 0
68 39 67 40 70 43 69 41 -203 0
68 39 67 40 70 43 69 41 -201 0
68 39 67 40 70 43 69 41 -204 0
68 39 67 40 70 43 69 41 -202 0
68 24 67 26 70 29 69 28 -164 0
68 24 67 26 70 29 69 28 -162 0
68 24 67 26 70 29 69 28 -163 0
68 24 67 26 70 29 69 28 -161 0
68 32 67 31 70 37 69 36 -186 0
68 32 67 31 70 37 69 36 -184 0
68 32 67 31 70 37 69 36 -185 0
68 32 67 31 70 37 69 36 -183 0
68 8 67 13 70 12 69 9 -105 0
68 8 67 13 70 12 69 9 -108 0
68 8 67 13 70 12 69 9 -106 0
68 8 67 13 70 12 69 9 -107 0
68 17 67 19 70 22 69 20 -138 0
68 17 67 19 70 22 69 20 -136 0
68 17 67 19 70 22 69 20 -135 0
68 17 67 19 70 22 69 20 -137 0
68 76 67 74 70 78 69 77 -238 0
68 76 67 74 70 78 69 77 -237 0
68 76 67 74 70 78 69 77 -235 0
68 76 67 74 70 78 69 77 -236 0
68 55 67 58 70 61 69 60 -225 0
68 55 67 58 70 61 69 60 -227 0
68 55 67 58 70 61 69 60 -228 0
68 55 67 58 70 61 69 60 -226 0
68 53 67 49 70 52 69 47 -215 0
68 53 67 49 70 52 69 47 -216 0
68 53 67 49 70 52 69 47 -217 0
68 53 67 49 70 52 69 47 -218 0
4 39 2 40 6 43 1 41 -42 0
4 39 2 40 6 43 1 41 -45 0
4 39 2 40 6 43 1 41 -44 0
4 39 2 40 6 43 1 41 -46 0
4 24 2 26 6 29 1 28 -27 0
4 24 2 26 6 29 1 28 -30 0
4 24 2 26 6 29 1 28 -25 0
4 24 2 26 6 29 1 28 -23 0
4 32 2 31 6 37 1 36 -33 0
4 32 2 31 6 37 1 36 -35 0
4 32 2 31 6 37 1 36 -34 0
4 32 2 31 6 37 1 36 -38 0
4 8 2 13 6 12 1 9 -7 0
4 8 2 13 6 12 1 9 -10 0
4 8 2 13 6 12 1 9 -14 0
4 8 2 13 6 12 1 9 -11 0
4 17 2 19 6 22 1 20 -16 0
4 17 2 19 6 22 1 20 -21 0
4 17 2 19 6 22 1 20 -18 0
4 17 2 19 6 22 1 20 -15 0
4 76 2 74 6 78 1 77 -73 0
4 76 2 74 6 78 1 77 -72 0
4 76 2 74 6 78 1 77 -71 0
4 76 2 74 6 78 1 77 -75 0
4 55 2 58 6 61 1 60 -56 0
4 55 2 58 6 61 1 60 -57 0
4 55 2 58 6 61 1 60 -62 0
4 55 2 58 6 61 1 60 -59 0
4 53 2 49 6 52 1 47 -54 0
4 53 2 49 6 52 1 47 -51 0
4 53 2 49 6 52 1 47 -48 0
4 53 2 49 6 52 1 47 -50 0
39 24 40 26 43 29 41 28 -150 0
39 24 40 26 43 29 41 28 -152 0
39 24 40 26 43 29 41 28 -149 0
39 24 40 26 43 29 41 28 -151 0
39 32 40 31 43 37 41 36 -172 0
39 32 40 31 43 37 41 36 -173 0
39 32 40 31 43 37 41 36 -174 0
39 32 40 31 43 37 41 36 -171 0
39 8 40 13 43 12 41 9 -96 0
39 8 40 13 43 12 41 9 -94 0
39 8 40 13 43 12 41 9 -95 0
39 8 40 13 43 12 41 9 -93 0
39 17 40 19 43 22 41 20 -125 0
39 17 40 19 43 22 41 20 -123 0
39 17 40 19 43 22 41 20 -126 0
39 17 40 19 43 22 41 20 -124 0
39 76 40 74 43 78 41 77 -205 0
39 76 40 74 43 78 41 77 -208 0
39 76 40 74 43 78 41 77 -207 0
39 76 40 74 43 78 41 77 -206 0
39 55 40 58 43 61 41 60 -200 0
39 55 40 58 43 61 41 60 -197 0
39 55 40 58 43 61 41 60 -198 0
39 55 40 58 43 61 41 60 -199 0
39 53 40 49 43 52 41 47 -196 0
39 53 40 49 43 52 41 47 -193 0
39 53 40 49 43 52 41 47 -194 0
39 53 40 49 43 52 41 47 -195 0
24 32 26 31 29 37 28 36 -148 0
24 32 26 31 29 37 28 36 -145 0
24 32 26 31 29 37 28 36 -147 0
24 32 26 31 29 37 28 36 -146 0
24 8 26 13 29 12 28 9 -86 0
24 8 26 13 29 12 28 9 -87 0
24 8 26 13 29 12 28 9 -85 0
24 8 26 13 29 12 28 9 -88 0
24 17 26 19 29 22 28 20 -117 0
24 17 26 19 29 22 28 20 -116 0
24 17 26 19 29 22 28 20 -115 0
24 17 26 19 29 22 28 20 -118 0
24 76 26 74 29 78 28 77 -167 0
24 76 26 74 29 78 28 77 -165 0
24 76 26 74 29 78 28 77 -166 0
24 76 26 74 29 78 28 77 -168 0
24 55 26 58 29 61 28 60 -157 0
24 55 26 58 29 61 28 60 -159 0
24 55 26 58 29 61 28 60 -160 0
24 55 26 58 29 61 28 60 -158 0
24 53 26 49 29 52 28 47 -156 0
24 53 26 49 29 52 28 47 -154 0
24 53 26 49 29 52 28 47 -153 0
24 53 26 49 29 52 28 47 -155 0
32 8 31 13 37 12 36 9 -89 0
32 8 31 13 37 12 36 9 -90 0
32 8 31 13 37 12 36 9 -92 0
32 8 31 13 37 12 36 9 -91 0
32 17 31 19 37 22 36 20 -120 0
32 17 31 19 37 22 36 20 -122 0
32 17 31 19 37 22 36 20 -119 0
32 17 31 19 37 22 36 20 -121 0
32 76 31 74 37 78 36 77 -188 0
32 76 31 74 37 78 36 77 -187 0
32 76 31 74 37 78 36 77 -189 0
32 76 31 74 37 78 36 77 -190 0
32 55 31 58 37 61 36 60 -182 0
32 55 31 58 37 61 36 60 -179 0
32 55 31 58 37 61 36 60 -181 0
32 55 31 58 37 61 36 60 -180 0
32 53 31 49 37 52 36 47 -175 0
32 53 31 49 37 52 36 47 -178 0
32 53 31 49 37 52 36 47 -177 0
32 53 31 49 37 52 36 47 -176 0
8 17 13 19 12 22 9 20 -81 0
8 17 13 19 12 22 9 20 -83 0
8 17 13 19 12 22 9 20 -82 0
8 17 13 19 12 22 9 20 -84 0
8 76 13 74 12 78 9 77 -112 0
8 76 13 74 12 78 9 77 -110 0
8 76 13 74 12 78 9 77 -111 0
8 76 13 74 12 78 9 77 -109 0
8 55 13 58 12 61 9 60 -101 0
8 55 13 58 12 61 9 60 -102 0
8 55 13 58 12 61 9 60 -103 0
8 55 13 58 12 61 9 60 -104 0
8 53 13 49 12 52 9 47 -98 0
8 53 13 49 12 52 9 47 -99 0
8 53 13 49 12 52 9 47 -97 0
8 53 13 49 12 52 9 47 -100 0
17 76 19 74 22 78 20 77 -142 0
17 76 19 74 22 78 20 77 -141 0
17 76 19 74 22 78 20 77 -139 0
17 76 19 74 22 78 20 77 -140 0
17 55 19 58 22 61 20 60 -132 0
17 55 19 58 22 61 20 60 -131 0
17 55 19 58 22 61 20 60 -134 0
17 55 19 58 22 61 20 60 -133 0
17 53 19 49 22 52 20 47 -128 0
17 53 19 49 22 52 20 47 -130 0
17 53 19 49 22 52 20 47 -127 0
17 53 19 49 22 52 20 47 -129 0
76 55 74 58 78 61 77 60 -229 0
76 55 74 58 78 61 77 60 -231 0
76 55 74 58 78 61 77 60 -230 0
76 55 74 58 78 61 77 60 -232 0
76 53 74 49 78 52 77 47 -220 0
76 53 74 49 78 52 77 47 -221 0
76 53 74 49 78 52 77 47 -219 0
76 53 74 49 78 52 77 47 -222 0
55 53 58 49 61 52 60 47 -214 0
55 53 58 49 61 52 60 47 -213 0
55 53 58 49 61 52 60 47 -211 0
55 53 58 49 61 52 60 47 -212 0
234 66 203 164 186 105 138 238 225 215 0
65 5 42 27 33 7 16 73 56 54 0
201 45 191 150 172 96 125 205 200 196 0
162 30 152 144 148 86 117 167 157 156 0
184 35 173 145 170 89 120 188 182 175 0
108 10 94 87 90 79 81 112 101 98 0
136 21 123 116 122 83 114 142 132 128 0
237 72 208 165 187 110 141 239 229 220 0
227 57 197 159 179 102 131 231 224 214 0
216 51 193 154 178 99 130 221 213 210 0
233 63 204 163 185 106 135 235 228 217 0
64 3 44 25 34 14 18 71 62 48 0
202 46 192 149 174 95 126 207 198 194 0
161 23 151 143 147 85 115 166 160 153 0
183 38 171 146 169 92 119 189 181 177 0
107 11 93 88 91 80 82 111 103 97 0
137 15 124 118 121 84 113 139 134 127 0
236 75 206 168 190 109 140 240 230 219 0
226 59 199 158 180 104 133 232 223 211 0
218 50 195 155 176 100 129 222 212 209 0
