c U2(9) E1(9,9) U3(9) U1(9) U4(9) E2(9,9) U3(3) U2(3) U1(3) U4(3) E1(3,9) E2(9,3) E2(3,9) E1(9,3) U4(6) U2(6) E1(6,9) U3(6) E1(9,6) E2(6,9) U1(6) E2(9,6) U1(5) U3(5) E2(5,9) E1(9,5) U4(5) E1(5,9) E2(9,5) U2(5) U4(10) U2(10) E1(9,10) U3(10) E2(10,9) E2(9,10) U1(10) E1(10,9) E2(0,9) E2(9,0) U2(0) U1(0) U3(0) U4(0) E1(9,0) E1(0,9) U2(2) U1(2) E1(2,9) E1(9,2) U3(2) U4(2) E2(2,9) E2(9,2) E1(8,9) E1(9,8) U3(8) E2(9,8) E2(8,9) U2(8) U1(8) U4(8) U2(1) U1(1) U3(1) U4(1) E2(1,9) E1(9,1) E1(1,9) E2(9,1) E1(4,9) U4(4) U2(4) U3(4) E2(4,9) E1(9,4) U1(4) E2(9,4) E1(7,9) E2(7,9) U4(7) U3(7) E2(9,7) U2(7) U1(7) E1(9,7) E1(3,3) E2(3,3) E2(6,3) E1(6,3) E1(3,6) E2(3,6) E1(3,5) E1(5,3) E2(5,3) E2(3,5) E1(3,10) E1(10,3) E2(10,3) E2(3,10) E2(3,0) E2(0,3) E1(3,0) E1(0,3) E2(2,3) E2(3,2) E1(3,2) E1(2,3) E1(8,3) E1(3,8) E2(3,8) E2(8,3) E2(1,3) E1(3,1) E2(3,1) E1(1,3) E1(4,3) E1(3,4) E2(3,4) E2(4,3) E1(7,3) E2(7,3) E1(3,7) E2(3,7) E1(6,6) E2(6,6) E1(6,5) E2(5,6) E2(6,5) E1(5,6) E1(6,10) E2(10,6) E2(6,10) E1(10,6) E1(6,0) E1(0,6) E2(0,6) E2(6,0) E2(2,6) E1(6,2) E1(2,6) E2(6,2) E1(8,6) E2(6,8) E2(8,6) E1(6,8) E1(6,1) E2(6,1) E2(1,6) E1(1,6) E1(6,4) E1(4,6) E2(4,6) E2(6,4) E1(7,6) E1(6,7) E2(7,6) E2(6,7) E2(5,5) E1(5,5) E2(10,5) E2(5,10) E1(5,10) E1(10,5) E1(5,0) E1(0,5) E2(5,0) E2(0,5) E1(5,2) E2(2,5) E2(5,2) E1(2,5) E1(8,5) E2(8,5) E1(5,8) E2(5,8) E2(5,1) E1(5,1) E2(1,5) E1(1,5) E2(4,5) E1(5,4) E1(4,5) E2(5,4) E1(7,5) E1(5,7) E2(7,5) E2(5,7) E1(10,10) E2(10,10) E1(0,10) E1(10,0) E2(10,0) E2(0,10) E2(2,10) E1(10,2) E2(10,2) E1(2,10) E2(8,10) E2(10,8) E1(8,10) E1(10,8) E2(10,1) E2(1,10) E1(10,1) E1(1,10) E2(10,4) E2(4,10) E1(10,4) E1(4,10) E1(10,7) E2(7,10) E2(10,7) E1(7,10) E1(0,0) E2(0,0) E2(0,2) E1(2,0) E2(2,0) E1(0,2) E1(0,8) E1(8,0) E2(8,0) E2(0,8) E1(0,1) E2(1,0) E2(0,1) E1(1,0) E1(4,0) E2(4,0) E1(0,4) E2(0,4) E1(0,7) E2(0,7) E1(7,0) E2(7,0) E1(2,2) E2(2,2) E1(2,8) E2(2,8) E1(8,2) E2(8,2) E1(2,1) E2(2,1) E2(1,2) E1(1,2) E2(4,2) E1(2,4) E2(2,4) E1(4,2) E1(7,2) E1(2,7) E2(2,7) E2(7,2) E2(8,8) E1(8,8) E1(8,1) E2(8,1) E2(1,8) E1(1,8) E2(8,4) E1(4,8) E1(8,4) E2(4,8) E1(8,7) E2(8,7) E1(7,8) E2(7,8) E1(1,1) E2(1,1) E2(1,4) E2(4,1) E1(4,1) E1(1,4) E1(7,1) E2(7,1) E2(1,7) E1(1,7) E1(4,4) E2(4,4) E2(7,4) E1(7,4) E1(4,7) E2(4,7) E2(7,7) E1(7,7)
c 1 2 3 4 5 6 7 8 9 10 11 12 13 14 15 16 17 18 19 20 21 22 23 24 25 26 27 28 29 30 31 32 33 34 35 36 37 38 39 40 41 42 43 44 45 46 47 48 49 50 51 52 53 54 55 56 57 58 59 60 61 62 63 64 65 66 67 68 69 70 71 72 73 74 75 76 77 78 79 80 81 82 83 84 85 86 87 88 89 90 91 92 93 94 95 96 97 98 99 100 101 102 103 104 105 106 107 108 109 110 111 112 113 114 115 116 117 118 119 120 121 122 123 124 125 126 127 128 129 130 131 132 133 134 135 136 137 138 139 140 141 142 143 144 145 146 147 148 149 150 151 152 153 154 155 156 157 158 159 160 161 162 163 164 165 166 167 168 169 170 171 172 173 174 175 176 177 178 179 180 181 182 183 184 185 186 187 188 189 190 191 192 193 194 195 196 197 198 199 200 201 202 203 204 205 206 207 208 209 210 211 212 213 214 215 216 217 218 219 220 221 222 223 224 225 226 227 228 229 230 231 232 233 234 235 236 237 238 239 240 241 242 243 244 245 246 247 248 249 250 251 252 253 254 255 256 257 258 259 260 261 262 263 264 265 266 267 268 269 270 271 272 273 274 275 276 277 278 279 280 281 282 283 284 285 286
p cnf 286 7909
-42 -41 0
-42 -43 0
-42 -44 0
-64 -63 0
-64 -65 0
-64 -66 0
-37 -32 0
-37 -34 0
-37 -31 0
-48 -47 0
-48 -51 0
-48 -52 0
-9 -8 0
-9 -7 0
-9 -10 0
-77 -73 0
-77 -74 0
-77 -72 0
-23 -30 0
-23 -24 0
-23 -27 0
-21 -16 0
-21 -18 0
-21 -15 0
-85 -84 0
-85 -82 0
-85 -81 0
-61 -60 0
-61 -57 0
-61 -62 0
-4 -1 0
-4 -3 0
-4 -5 0
-41 -43 0
-41 -44 0
-63 -65 0
-63 -66 0
-32 -34 0
-32 -31 0
-47 -51 0
-47 -52 0
-8 -7 0
-8 -10 0
-73 -74 0
-73 -72 0
-30 -24 0
-30 -27 0
-16 -18 0
-16 -15 0
-84 -82 0
-84 -81 0
-60 -57 0
-60 -62 0
-1 -3 0
-1 -5 0
-43 -44 0
-65 -66 0
-34 -31 0
-51 -52 0
-7 -10 0
-74 -72 0
-24 -27 0
-18 -15 0
-82 -81 0
-57 -62 0
-3 -5 0
42 41 43 44 0
64 63 65 66 0
37 32 34 31 0
48 47 51 52 0
9 8 7 10 0
77 73 74 72 0
23 30 24 27 0
21 16 18 15 0
85 84 82 81 0
61 60 57 62 0
4 1 3 5 0
42 41 43 -215 0
42 41 43 -216 0
42 41 44 -215 0
42 41 44 -216 0
42 43 44 -215 0
42 43 44 -216 0
64 63 65 -269 0
64 63 65 -270 0
64 63 66 -269 0
64 63 66 -270 0
64 65 66 -269 0
64 65 66 -270 0
37 32 34 -189 0
37 32 34 -190 0
37 32 31 -189 0
37 32 31 -190 0
37 34 31 -189 0
37 34 31 -190 0
48 47 51 -237 0
48 47 51 -238 0
48 47 52 -237 0
48 47 52 -238 0
48 51 52 -237 0
48 51 52 -238 0
9 8 7 -87 0
9 8 7 -88 0
9 8 10 -87 0
9 8 10 -88 0
9 7 10 -87 0
9 7 10 -88 0
77 73 74 -279 0
77 73 74 -280 0
77 73 72 -279 0
77 73 72 -280 0
77 74 72 -279 0
77 74 72 -280 0
23 30 24 -160 0
23 30 24 -159 0
23 30 27 -160 0
23 30 27 -159 0
23 24 27 -160 0
23 24 27 -159 0
21 16 18 -125 0
21 16 18 -126 0
21 16 15 -125 0
21 16 15 -126 0
21 18 15 -125 0
21 18 15 -126 0
85 84 82 -286 0
85 84 82 -285 0
85 84 81 -286 0
85 84 81 -285 0
85 82 81 -286 0
85 82 81 -285 0
61 60 57 -256 0
61 60 57 -255 0
61 60 62 -256 0
61 60 62 -255 0
61 57 62 -256 0
61 57 62 -255 0
4 1 3 -2 0
4 1 3 -6 0
4 1 5 -2 0
4 1 5 -6 0
4 3 5 -2 0
4 3 5 -6 0
41 43 44 -215 0
41 43 44 -216 0
63 65 66 -269 0
63 65 66 -270 0
32 34 31 -189 0
32 34 31 -190 0
47 51 52 -237 0
47 51 52 -238 0
8 7 10 -87 0
8 7 10 -88 0
73 74 72 -279 0
73 74 72 -280 0
30 24 27 -160 0
30 24 27 -159 0
16 18 15 -125 0
16 18 15 -126 0
84 82 81 -286 0
84 82 81 -285 0
60 57 62 -256 0
60 57 62 -255 0
1 3 5 -2 0
1 3 5 -6 0
42 41 43 44 -215 0
42 41 43 44 -225 0
42 41 43 44 -191 0
42 41 43 44 -220 0
42 41 43 44 -104 0
42 41 43 44 -231 0
42 41 43 44 -166 0
42 41 43 44 -136 0
42 41 43 44 -233 0
42 41 43 44 -221 0
42 41 43 44 -46 0
42 41 43 44 -228 0
42 41 43 44 -192 0
42 41 43 44 -218 0
42 41 43 44 -103 0
42 41 43 44 -229 0
42 41 43 44 -165 0
42 41 43 44 -135 0
42 41 43 44 -235 0
42 41 43 44 -222 0
42 41 43 44 -45 0
42 41 43 44 -216 0
42 41 43 44 -227 0
42 41 43 44 -194 0
42 41 43 44 -217 0
42 41 43 44 -102 0
42 41 43 44 -232 0
42 41 43 44 -168 0
42 41 43 44 -137 0
42 41 43 44 -234 0
42 41 43 44 -224 0
42 41 43 44 -39 0
42 41 43 44 -226 0
42 41 43 44 -193 0
42 41 43 44 -219 0
42 41 43 44 -101 0
42 41 43 44 -230 0
42 41 43 44 -167 0
42 41 43 44 -138 0
42 41 43 44 -236 0
42 41 43 44 -223 0
42 41 43 44 -40 0
64 63 65 66 -225 0
64 63 65 66 -228 0
64 63 65 66 -269 0
64 63 65 66 -206 0
64 63 65 66 -246 0
64 63 65 66 -116 0
64 63 65 66 -274 0
64 63 65 66 -180 0
64 63 65 66 -150 0
64 63 65 66 -278 0
64 63 65 66 -260 0
64 63 65 66 -69 0
64 63 65 66 -205 0
64 63 65 66 -243 0
64 63 65 66 -114 0
64 63 65 66 -273 0
64 63 65 66 -178 0
64 63 65 66 -147 0
64 63 65 66 -275 0
64 63 65 66 -257 0
64 63 65 66 -68 0
64 63 65 66 -227 0
64 63 65 66 -226 0
64 63 65 66 -270 0
64 63 65 66 -204 0
64 63 65 66 -245 0
64 63 65 66 -113 0
64 63 65 66 -271 0
64 63 65 66 -179 0
64 63 65 66 -149 0
64 63 65 66 -277 0
64 63 65 66 -259 0
64 63 65 66 -67 0
64 63 65 66 -203 0
64 63 65 66 -244 0
64 63 65 66 -115 0
64 63 65 66 -272 0
64 63 65 66 -177 0
64 63 65 66 -148 0
64 63 65 66 -276 0
64 63 65 66 -258 0
64 63 65 66 -70 0
37 32 34 31 -191 0
37 32 34 31 -206 0
37 32 34 31 -192 0
37 32 34 31 -205 0
37 32 34 31 -189 0
37 32 34 31 -196 0
37 32 34 31 -98 0
37 32 34 31 -209 0
37 32 34 31 -164 0
37 32 34 31 -134 0
37 32 34 31 -211 0
37 32 34 31 -202 0
37 32 34 31 -38 0
37 32 34 31 -198 0
37 32 34 31 -97 0
37 32 34 31 -210 0
37 32 34 31 -163 0
37 32 34 31 -131 0
37 32 34 31 -214 0
37 32 34 31 -201 0
37 32 34 31 -33 0
37 32 34 31 -194 0
37 32 34 31 -204 0
37 32 34 31 -193 0
37 32 34 31 -203 0
37 32 34 31 -190 0
37 32 34 31 -197 0
37 32 34 31 -99 0
37 32 34 31 -207 0
37 32 34 31 -161 0
37 32 34 31 -132 0
37 32 34 31 -213 0
37 32 34 31 -200 0
37 32 34 31 -35 0
37 32 34 31 -195 0
37 32 34 31 -100 0
37 32 34 31 -208 0
37 32 34 31 -162 0
37 32 34 31 -133 0
37 32 34 31 -212 0
37 32 34 31 -199 0
37 32 34 31 -36 0
48 47 51 52 -220 0
48 47 51 52 -246 0
48 47 51 52 -196 0
48 47 51 52 -218 0
48 47 51 52 -243 0
48 47 51 52 -198 0
48 47 51 52 -237 0
48 47 51 52 -108 0
48 47 51 52 -248 0
48 47 51 52 -172 0
48 47 51 52 -141 0
48 47 51 52 -252 0
48 47 51 52 -239 0
48 47 51 52 -49 0
48 47 51 52 -107 0
48 47 51 52 -250 0
48 47 51 52 -169 0
48 47 51 52 -140 0
48 47 51 52 -251 0
48 47 51 52 -241 0
48 47 51 52 -50 0
48 47 51 52 -217 0
48 47 51 52 -245 0
48 47 51 52 -197 0
48 47 51 52 -219 0
48 47 51 52 -244 0
48 47 51 52 -195 0
48 47 51 52 -238 0
48 47 51 52 -105 0
48 47 51 52 -249 0
48 47 51 52 -170 0
48 47 51 52 -139 0
48 47 51 52 -253 0
48 47 51 52 -240 0
48 47 51 52 -53 0
48 47 51 52 -106 0
48 47 51 52 -247 0
48 47 51 52 -171 0
48 47 51 52 -142 0
48 47 51 52 -254 0
48 47 51 52 -242 0
48 47 51 52 -54 0
9 8 7 10 -104 0
9 8 7 10 -116 0
9 8 7 10 -98 0
9 8 7 10 -108 0
9 8 7 10 -103 0
9 8 7 10 -114 0
9 8 7 10 -97 0
9 8 7 10 -107 0
9 8 7 10 -87 0
9 8 7 10 -118 0
9 8 7 10 -93 0
9 8 7 10 -91 0
9 8 7 10 -123 0
9 8 7 10 -110 0
9 8 7 10 -11 0
9 8 7 10 -117 0
9 8 7 10 -94 0
9 8 7 10 -90 0
9 8 7 10 -121 0
9 8 7 10 -109 0
9 8 7 10 -14 0
9 8 7 10 -102 0
9 8 7 10 -113 0
9 8 7 10 -99 0
9 8 7 10 -105 0
9 8 7 10 -101 0
9 8 7 10 -115 0
9 8 7 10 -100 0
9 8 7 10 -106 0
9 8 7 10 -88 0
9 8 7 10 -119 0
9 8 7 10 -96 0
9 8 7 10 -92 0
9 8 7 10 -124 0
9 8 7 10 -111 0
9 8 7 10 -13 0
9 8 7 10 -120 0
9 8 7 10 -95 0
9 8 7 10 -89 0
9 8 7 10 -122 0
9 8 7 10 -112 0
9 8 7 10 -12 0
77 73 74 72 -231 0
77 73 74 72 -274 0
77 73 74 72 -209 0
77 73 74 72 -248 0
77 73 74 72 -118 0
77 73 74 72 -229 0
77 73 74 72 -273 0
77 73 74 72 -210 0
77 73 74 72 -250 0
77 73 74 72 -117 0
77 73 74 72 -279 0
77 73 74 72 -183 0
77 73 74 72 -152 0
77 73 74 72 -283 0
77 73 74 72 -262 0
77 73 74 72 -71 0
77 73 74 72 -182 0
77 73 74 72 -151 0
77 73 74 72 -282 0
77 73 74 72 -263 0
77 73 74 72 -76 0
77 73 74 72 -232 0
77 73 74 72 -271 0
77 73 74 72 -207 0
77 73 74 72 -249 0
77 73 74 72 -119 0
77 73 74 72 -230 0
77 73 74 72 -272 0
77 73 74 72 -208 0
77 73 74 72 -247 0
77 73 74 72 -120 0
77 73 74 72 -280 0
77 73 74 72 -181 0
77 73 74 72 -153 0
77 73 74 72 -284 0
77 73 74 72 -264 0
77 73 74 72 -75 0
77 73 74 72 -184 0
77 73 74 72 -154 0
77 73 74 72 -281 0
77 73 74 72 -261 0
77 73 74 72 -78 0
23 30 24 27 -166 0
23 30 24 27 -180 0
23 30 24 27 -164 0
23 30 24 27 -172 0
23 30 24 27 -93 0
23 30 24 27 -183 0
23 30 24 27 -165 0
23 30 24 27 -178 0
23 30 24 27 -163 0
23 30 24 27 -169 0
23 30 24 27 -94 0
23 30 24 27 -182 0
23 30 24 27 -160 0
23 30 24 27 -130 0
23 30 24 27 -186 0
23 30 24 27 -175 0
23 30 24 27 -28 0
23 30 24 27 -127 0
23 30 24 27 -185 0
23 30 24 27 -173 0
23 30 24 27 -26 0
23 30 24 27 -168 0
23 30 24 27 -179 0
23 30 24 27 -161 0
23 30 24 27 -170 0
23 30 24 27 -96 0
23 30 24 27 -181 0
23 30 24 27 -167 0
23 30 24 27 -177 0
23 30 24 27 -162 0
23 30 24 27 -171 0
23 30 24 27 -95 0
23 30 24 27 -184 0
23 30 24 27 -159 0
23 30 24 27 -128 0
23 30 24 27 -188 0
23 30 24 27 -176 0
23 30 24 27 -25 0
23 30 24 27 -129 0
23 30 24 27 -187 0
23 30 24 27 -174 0
23 30 24 27 -29 0
21 16 18 15 -136 0
21 16 18 15 -150 0
21 16 18 15 -134 0
21 16 18 15 -141 0
21 16 18 15 -91 0
21 16 18 15 -152 0
21 16 18 15 -130 0
21 16 18 15 -135 0
21 16 18 15 -147 0
21 16 18 15 -131 0
21 16 18 15 -140 0
21 16 18 15 -90 0
21 16 18 15 -151 0
21 16 18 15 -127 0
21 16 18 15 -125 0
21 16 18 15 -156 0
21 16 18 15 -146 0
21 16 18 15 -17 0
21 16 18 15 -155 0
21 16 18 15 -143 0
21 16 18 15 -19 0
21 16 18 15 -137 0
21 16 18 15 -149 0
21 16 18 15 -132 0
21 16 18 15 -139 0
21 16 18 15 -92 0
21 16 18 15 -153 0
21 16 18 15 -128 0
21 16 18 15 -138 0
21 16 18 15 -148 0
21 16 18 15 -133 0
21 16 18 15 -142 0
21 16 18 15 -89 0
21 16 18 15 -154 0
21 16 18 15 -129 0
21 16 18 15 -126 0
21 16 18 15 -158 0
21 16 18 15 -144 0
21 16 18 15 -20 0
21 16 18 15 -157 0
21 16 18 15 -145 0
21 16 18 15 -22 0
85 84 82 81 -233 0
85 84 82 81 -278 0
85 84 82 81 -211 0
85 84 82 81 -252 0
85 84 82 81 -123 0
85 84 82 81 -283 0
85 84 82 81 -186 0
85 84 82 81 -156 0
85 84 82 81 -235 0
85 84 82 81 -275 0
85 84 82 81 -214 0
85 84 82 81 -251 0
85 84 82 81 -121 0
85 84 82 81 -282 0
85 84 82 81 -185 0
85 84 82 81 -155 0
85 84 82 81 -286 0
85 84 82 81 -267 0
85 84 82 81 -79 0
85 84 82 81 -265 0
85 84 82 81 -86 0
85 84 82 81 -234 0
85 84 82 81 -277 0
85 84 82 81 -213 0
85 84 82 81 -253 0
85 84 82 81 -124 0
85 84 82 81 -284 0
85 84 82 81 -188 0
85 84 82 81 -158 0
85 84 82 81 -236 0
85 84 82 81 -276 0
85 84 82 81 -212 0
85 84 82 81 -254 0
85 84 82 81 -122 0
85 84 82 81 -281 0
85 84 82 81 -187 0
85 84 82 81 -157 0
85 84 82 81 -285 0
85 84 82 81 -268 0
85 84 82 81 -80 0
85 84 82 81 -266 0
85 84 82 81 -83 0
61 60 57 62 -221 0
61 60 57 62 -260 0
61 60 57 62 -202 0
61 60 57 62 -239 0
61 60 57 62 -110 0
61 60 57 62 -262 0
61 60 57 62 -175 0
61 60 57 62 -146 0
61 60 57 62 -267 0
61 60 57 62 -222 0
61 60 57 62 -257 0
61 60 57 62 -201 0
61 60 57 62 -241 0
61 60 57 62 -109 0
61 60 57 62 -263 0
61 60 57 62 -173 0
61 60 57 62 -143 0
61 60 57 62 -265 0
61 60 57 62 -256 0
61 60 57 62 -55 0
61 60 57 62 -56 0
61 60 57 62 -224 0
61 60 57 62 -259 0
61 60 57 62 -200 0
61 60 57 62 -240 0
61 60 57 62 -111 0
61 60 57 62 -264 0
61 60 57 62 -176 0
61 60 57 62 -144 0
61 60 57 62 -268 0
61 60 57 62 -223 0
61 60 57 62 -258 0
61 60 57 62 -199 0
61 60 57 62 -242 0
61 60 57 62 -112 0
61 60 57 62 -261 0
61 60 57 62 -174 0
61 60 57 62 -145 0
61 60 57 62 -266 0
61 60 57 62 -255 0
61 60 57 62 -59 0
61 60 57 62 -58 0
4 1 3 5 -46 0
4 1 3 5 -69 0
4 1 3 5 -38 0
4 1 3 5 -49 0
4 1 3 5 -11 0
4 1 3 5 -71 0
4 1 3 5 -28 0
4 1 3 5 -17 0
4 1 3 5 -79 0
4 1 3 5 -55 0
4 1 3 5 -45 0
4 1 3 5 -68 0
4 1 3 5 -33 0
4 1 3 5 -50 0
4 1 3 5 -14 0
4 1 3 5 -76 0
4 1 3 5 -26 0
4 1 3 5 -19 0
4 1 3 5 -86 0
4 1 3 5 -56 0
4 1 3 5 -2 0
4 1 3 5 -39 0
4 1 3 5 -67 0
4 1 3 5 -35 0
4 1 3 5 -53 0
4 1 3 5 -13 0
4 1 3 5 -75 0
4 1 3 5 -25 0
4 1 3 5 -20 0
4 1 3 5 -80 0
4 1 3 5 -59 0
4 1 3 5 -40 0
4 1 3 5 -70 0
4 1 3 5 -36 0
4 1 3 5 -54 0
4 1 3 5 -12 0
4 1 3 5 -78 0
4 1 3 5 -29 0
4 1 3 5 -22 0
4 1 3 5 -83 0
4 1 3 5 -58 0
4 1 3 5 -6 0
42 64 41 43 44 -225 0
42 64 41 43 44 -228 0
42 64 41 43 44 -227 0
42 64 41 43 44 -226 0
42 64 63 65 66 -225 0
42 64 63 65 66 -228 0
42 64 63 65 66 -227 0
42 64 63 65 66 -226 0
42 37 41 43 44 -191 0
42 37 41 43 44 -192 0
42 37 41 43 44 -194 0
42 37 41 43 44 -193 0
42 37 32 34 31 -191 0
42 37 32 34 31 -192 0
42 37 32 34 31 -194 0
42 37 32 34 31 -193 0
42 48 41 43 44 -220 0
42 48 41 43 44 -218 0
42 48 41 43 44 -217 0
42 48 41 43 44 -219 0
42 48 47 51 52 -220 0
42 48 47 51 52 -218 0
42 48 47 51 52 -217 0
42 48 47 51 52 -219 0
42 9 41 43 44 -104 0
42 9 41 43 44 -103 0
42 9 41 43 44 -102 0
42 9 41 43 44 -101 0
42 9 8 7 10 -104 0
42 9 8 7 10 -103 0
42 9 8 7 10 -102 0
42 9 8 7 10 -101 0
42 77 41 43 44 -231 0
42 77 41 43 44 -229 0
42 77 41 43 44 -232 0
42 77 41 43 44 -230 0
42 77 73 74 72 -231 0
42 77 73 74 72 -229 0
42 77 73 74 72 -232 0
42 77 73 74 72 -230 0
42 23 41 43 44 -166 0
42 23 41 43 44 -165 0
42 23 41 43 44 -168 0
42 23 41 43 44 -167 0
42 23 30 24 27 -166 0
42 23 30 24 27 -165 0
42 23 30 24 27 -168 0
42 23 30 24 27 -167 0
42 21 41 43 44 -136 0
42 21 41 43 44 -135 0
42 21 41 43 44 -137 0
42 21 41 43 44 -138 0
42 21 16 18 15 -136 0
42 21 16 18 15 -135 0
42 21 16 18 15 -137 0
42 21 16 18 15 -138 0
42 85 41 43 44 -233 0
42 85 41 43 44 -235 0
42 85 41 43 44 -234 0
42 85 41 43 44 -236 0
42 85 84 82 81 -233 0
42 85 84 82 81 -235 0
42 85 84 82 81 -234 0
42 85 84 82 81 -236 0
42 61 41 43 44 -221 0
42 61 41 43 44 -222 0
42 61 41 43 44 -224 0
42 61 41 43 44 -223 0
42 61 60 57 62 -221 0
42 61 60 57 62 -222 0
42 61 60 57 62 -224 0
42 61 60 57 62 -223 0
42 4 41 43 44 -46 0
42 4 41 43 44 -45 0
42 4 41 43 44 -39 0
42 4 41 43 44 -40 0
42 4 1 3 5 -46 0
42 4 1 3 5 -45 0
42 4 1 3 5 -39 0
42 4 1 3 5 -40 0
42 41 63 43 44 -225 0
42 41 63 43 44 -228 0
42 41 63 43 44 -227 0
42 41 63 43 44 -226 0
42 41 32 43 44 -191 0
42 41 32 43 44 -192 0
42 41 32 43 44 -194 0
42 41 32 43 44 -193 0
42 41 47 43 44 -220 0
42 41 47 43 44 -218 0
42 41 47 43 44 -217 0
42 41 47 43 44 -219 0
42 41 8 43 44 -104 0
42 41 8 43 44 -103 0
42 41 8 43 44 -102 0
42 41 8 43 44 -101 0
42 41 73 43 44 -231 0
42 41 73 43 44 -229 0
42 41 73 43 44 -232 0
42 41 73 43 44 -230 0
42 41 30 43 44 -166 0
42 41 30 43 44 -165 0
42 41 30 43 44 -168 0
42 41 30 43 44 -167 0
42 41 16 43 44 -136 0
42 41 16 43 44 -135 0
42 41 16 43 44 -137 0
42 41 16 43 44 -138 0
42 41 84 43 44 -233 0
42 41 84 43 44 -235 0
42 41 84 43 44 -234 0
42 41 84 43 44 -236 0
42 41 60 43 44 -221 0
42 41 60 43 44 -222 0
42 41 60 43 44 -224 0
42 41 60 43 44 -223 0
42 41 1 43 44 -46 0
42 41 1 43 44 -45 0
42 41 1 43 44 -39 0
42 41 1 43 44 -40 0
42 41 43 65 44 -225 0
42 41 43 65 44 -228 0
42 41 43 65 44 -227 0
42 41 43 65 44 -226 0
42 41 43 34 44 -191 0
42 41 43 34 44 -192 0
42 41 43 34 44 -194 0
42 41 43 34 44 -193 0
42 41 43 51 44 -220 0
42 41 43 51 44 -218 0
42 41 43 51 44 -217 0
42 41 43 51 44 -219 0
42 41 43 7 44 -104 0
42 41 43 7 44 -103 0
42 41 43 7 44 -102 0
42 41 43 7 44 -101 0
42 41 43 74 44 -231 0
42 41 43 74 44 -229 0
42 41 43 74 44 -232 0
42 41 43 74 44 -230 0
42 41 43 24 44 -166 0
42 41 43 24 44 -165 0
42 41 43 24 44 -168 0
42 41 43 24 44 -167 0
42 41 43 18 44 -136 0
42 41 43 18 44 -135 0
42 41 43 18 44 -137 0
42 41 43 18 44 -138 0
42 41 43 82 44 -233 0
42 41 43 82 44 -235 0
42 41 43 82 44 -234 0
42 41 43 82 44 -236 0
42 41 43 57 44 -221 0
42 41 43 57 44 -222 0
42 41 43 57 44 -224 0
42 41 43 57 44 -223 0
42 41 43 3 44 -46 0
42 41 43 3 44 -45 0
42 41 43 3 44 -39 0
42 41 43 3 44 -40 0
42 41 43 44 66 -225 0
42 41 43 44 66 -228 0
42 41 43 44 66 -227 0
42 41 43 44 66 -226 0
42 41 43 44 31 -191 0
42 41 43 44 31 -192 0
42 41 43 44 31 -194 0
42 41 43 44 31 -193 0
42 41 43 44 52 -220 0
42 41 43 44 52 -218 0
42 41 43 44 52 -217 0
42 41 43 44 52 -219 0
42 41 43 44 10 -104 0
42 41 43 44 10 -103 0
42 41 43 44 10 -102 0
42 41 43 44 10 -101 0
42 41 43 44 72 -231 0
42 41 43 44 72 -229 0
42 41 43 44 72 -232 0
42 41 43 44 72 -230 0
42 41 43 44 27 -166 0
42 41 43 44 27 -165 0
42 41 43 44 27 -168 0
42 41 43 44 27 -167 0
42 41 43 44 15 -136 0
42 41 43 44 15 -135 0
42 41 43 44 15 -137 0
42 41 43 44 15 -138 0
42 41 43 44 81 -233 0
42 41 43 44 81 -235 0
42 41 43 44 81 -234 0
42 41 43 44 81 -236 0
42 41 43 44 62 -221 0
42 41 43 44 62 -222 0
42 41 43 44 62 -224 0
42 41 43 44 62 -223 0
42 41 43 44 5 -46 0
42 41 43 44 5 -45 0
42 41 43 44 5 -39 0
42 41 43 44 5 -40 0
64 37 63 65 66 -206 0
64 37 63 65 66 -205 0
64 37 63 65 66 -204 0
64 37 63 65 66 -203 0
64 37 32 34 31 -206 0
64 37 32 34 31 -205 0
64 37 32 34 31 -204 0
64 37 32 34 31 -203 0
64 48 63 65 66 -246 0
64 48 63 65 66 -243 0
64 48 63 65 66 -245 0
64 48 63 65 66 -244 0
64 48 47 51 52 -246 0
64 48 47 51 52 -243 0
64 48 47 51 52 -245 0
64 48 47 51 52 -244 0
64 9 63 65 66 -116 0
64 9 63 65 66 -114 0
64 9 63 65 66 -113 0
64 9 63 65 66 -115 0
64 9 8 7 10 -116 0
64 9 8 7 10 -114 0
64 9 8 7 10 -113 0
64 9 8 7 10 -115 0
64 77 63 65 66 -274 0
64 77 63 65 66 -273 0
64 77 63 65 66 -271 0
64 77 63 65 66 -272 0
64 77 73 74 72 -274 0
64 77 73 74 72 -273 0
64 77 73 74 72 -271 0
64 77 73 74 72 -272 0
64 23 63 65 66 -180 0
64 23 63 65 66 -178 0
64 23 63 65 66 -179 0
64 23 63 65 66 -177 0
64 23 30 24 27 -180 0
64 23 30 24 27 -178 0
64 23 30 24 27 -179 0
64 23 30 24 27 -177 0
64 21 63 65 66 -150 0
64 21 63 65 66 -147 0
64 21 63 65 66 -149 0
64 21 63 65 66 -148 0
64 21 16 18 15 -150 0
64 21 16 18 15 -147 0
64 21 16 18 15 -149 0
64 21 16 18 15 -148 0
64 85 63 65 66 -278 0
64 85 63 65 66 -275 0
64 85 63 65 66 -277 0
64 85 63 65 66 -276 0
64 85 84 82 81 -278 0
64 85 84 82 81 -275 0
64 85 84 82 81 -277 0
64 85 84 82 81 -276 0
64 61 63 65 66 -260 0
64 61 63 65 66 -257 0
64 61 63 65 66 -259 0
64 61 63 65 66 -258 0
64 61 60 57 62 -260 0
64 61 60 57 62 -257 0
64 61 60 57 62 -259 0
64 61 60 57 62 -258 0
64 4 63 65 66 -69 0
64 4 63 65 66 -68 0
64 4 63 65 66 -67 0
64 4 63 65 66 -70 0
64 4 1 3 5 -69 0
64 4 1 3 5 -68 0
64 4 1 3 5 -67 0
64 4 1 3 5 -70 0
64 41 63 65 66 -225 0
64 41 63 65 66 -228 0
64 41 63 65 66 -227 0
64 41 63 65 66 -226 0
64 63 32 65 66 -206 0
64 63 32 65 66 -205 0
64 63 32 65 66 -204 0
64 63 32 65 66 -203 0
64 63 47 65 66 -246 0
64 63 47 65 66 -243 0
64 63 47 65 66 -245 0
64 63 47 65 66 -244 0
64 63 8 65 66 -116 0
64 63 8 65 66 -114 0
64 63 8 65 66 -113 0
64 63 8 65 66 -115 0
64 63 73 65 66 -274 0
64 63 73 65 66 -273 0
64 63 73 65 66 -271 0
64 63 73 65 66 -272 0
64 63 30 65 66 -180 0
64 63 30 65 66 -178 0
64 63 30 65 66 -179 0
64 63 30 65 66 -177 0
64 63 16 65 66 -150 0
64 63 16 65 66 -147 0
64 63 16 65 66 -149 0
64 63 16 65 66 -148 0
64 63 84 65 66 -278 0
64 63 84 65 66 -275 0
64 63 84 65 66 -277 0
64 63 84 65 66 -276 0
64 63 60 65 66 -260 0
64 63 60 65 66 -257 0
64 63 60 65 66 -259 0
64 63 60 65 66 -258 0
64 63 1 65 66 -69 0
64 63 1 65 66 -68 0
64 63 1 65 66 -67 0
64 63 1 65 66 -70 0
64 63 43 65 66 -225 0
64 63 43 65 66 -228 0
64 63 43 65 66 -227 0
64 63 43 65 66 -226 0
64 63 65 34 66 -206 0
64 63 65 34 66 -205 0
64 63 65 34 66 -204 0
64 63 65 34 66 -203 0
64 63 65 51 66 -246 0
64 63 65 51 66 -243 0
64 63 65 51 66 -245 0
64 63 65 51 66 -244 0
64 63 65 7 66 -116 0
64 63 65 7 66 -114 0
64 63 65 7 66 -113 0
64 63 65 7 66 -115 0
64 63 65 74 66 -274 0
64 63 65 74 66 -273 0
64 63 65 74 66 -271 0
64 63 65 74 66 -272 0
64 63 65 24 66 -180 0
64 63 65 24 66 -178 0
64 63 65 24 66 -179 0
64 63 65 24 66 -177 0
64 63 65 18 66 -150 0
64 63 65 18 66 -147 0
64 63 65 18 66 -149 0
64 63 65 18 66 -148 0
64 63 65 82 66 -278 0
64 63 65 82 66 -275 0
64 63 65 82 66 -277 0
64 63 65 82 66 -276 0
64 63 65 57 66 -260 0
64 63 65 57 66 -257 0
64 63 65 57 66 -259 0
64 63 65 57 66 -258 0
64 63 65 3 66 -69 0
64 63 65 3 66 -68 0
64 63 65 3 66 -67 0
64 63 65 3 66 -70 0
64 63 65 44 66 -225 0
64 63 65 44 66 -228 0
64 63 65 44 66 -227 0
64 63 65 44 66 -226 0
64 63 65 66 31 -206 0
64 63 65 66 31 -205 0
64 63 65 66 31 -204 0
64 63 65 66 31 -203 0
64 63 65 66 52 -246 0
64 63 65 66 52 -243 0
64 63 65 66 52 -245 0
64 63 65 66 52 -244 0
64 63 65 66 10 -116 0
64 63 65 66 10 -114 0
64 63 65 66 10 -113 0
64 63 65 66 10 -115 0
64 63 65 66 72 -274 0
64 63 65 66 72 -273 0
64 63 65 66 72 -271 0
64 63 65 66 72 -272 0
64 63 65 66 27 -180 0
64 63 65 66 27 -178 0
64 63 65 66 27 -179 0
64 63 65 66 27 -177 0
64 63 65 66 15 -150 0
64 63 65 66 15 -147 0
64 63 65 66 15 -149 0
64 63 65 66 15 -148 0
64 63 65 66 81 -278 0
64 63 65 66 81 -275 0
64 63 65 66 81 -277 0
64 63 65 66 81 -276 0
64 63 65 66 62 -260 0
64 63 65 66 62 -257 0
64 63 65 66 62 -259 0
64 63 65 66 62 -258 0
64 63 65 66 5 -69 0
64 63 65 66 5 -68 0
64 63 65 66 5 -67 0
64 63 65 66 5 -70 0
37 48 32 34 31 -196 0
37 48 32 34 31 -198 0
37 48 32 34 31 -197 0
37 48 32 34 31 -195 0
37 48 47 51 52 -196 0
37 48 47 51 52 -198 0
37 48 47 51 52 -197 0
37 48 47 51 52 -195 0
37 9 32 34 31 -98 0
37 9 32 34 31 -97 0
37 9 32 34 31 -99 0
37 9 32 34 31 -100 0
37 9 8 7 10 -98 0
37 9 8 7 10 -97 0
37 9 8 7 10 -99 0
37 9 8 7 10 -100 0
37 77 32 34 31 -209 0
37 77 32 34 31 -210 0
37 77 32 34 31 -207 0
37 77 32 34 31 -208 0
37 77 73 74 72 -209 0
37 77 73 74 72 -210 0
37 77 73 74 72 -207 0
37 77 73 74 72 -208 0
37 23 32 34 31 -164 0
37 23 32 34 31 -163 0
37 23 32 34 31 -161 0
37 23 32 34 31 -162 0
37 23 30 24 27 -164 0
37 23 30 24 27 -163 0
37 23 30 24 27 -161 0
37 23 30 24 27 -162 0
37 21 32 34 31 -134 0
37 21 32 34 31 -131 0
37 21 32 34 31 -132 0
37 21 32 34 31 -133 0
37 21 16 18 15 -134 0
37 21 16 18 15 -131 0
37 21 16 18 15 -132 0
37 21 16 18 15 -133 0
37 85 32 34 31 -211 0
37 85 32 34 31 -214 0
37 85 32 34 31 -213 0
37 85 32 34 31 -212 0
37 85 84 82 81 -211 0
37 85 84 82 81 -214 0
37 85 84 82 81 -213 0
37 85 84 82 81 -212 0
37 61 32 34 31 -202 0
37 61 32 34 31 -201 0
37 61 32 34 31 -200 0
37 61 32 34 31 -199 0
37 61 60 57 62 -202 0
37 61 60 57 62 -201 0
37 61 60 57 62 -200 0
37 61 60 57 62 -199 0
37 4 32 34 31 -38 0
37 4 32 34 31 -33 0
37 4 32 34 31 -35 0
37 4 32 34 31 -36 0
37 4 1 3 5 -38 0
37 4 1 3 5 -33 0
37 4 1 3 5 -35 0
37 4 1 3 5 -36 0
37 41 32 34 31 -191 0
37 41 32 34 31 -192 0
37 41 32 34 31 -194 0
37 41 32 34 31 -193 0
37 63 32 34 31 -206 0
37 63 32 34 31 -205 0
37 63 32 34 31 -204 0
37 63 32 34 31 -203 0
37 32 47 34 31 -196 0
37 32 47 34 31 -198 0
37 32 47 34 31 -197 0
37 32 47 34 31 -195 0
37 32 8 34 31 -98 0
37 32 8 34 31 -97 0
37 32 8 34 31 -99 0
37 32 8 34 31 -100 0
37 32 73 34 31 -209 0
37 32 73 34 31 -210 0
37 32 73 34 31 -207 0
37 32 73 34 31 -208 0
37 32 30 34 31 -164 0
37 32 30 34 31 -163 0
37 32 30 34 31 -161 0
37 32 30 34 31 -162 0
37 32 16 34 31 -134 0
37 32 16 34 31 -131 0
37 32 16 34 31 -132 0
37 32 16 34 31 -133 0
37 32 84 34 31 -211 0
37 32 84 34 31 -214 0
37 32 84 34 31 -213 0
37 32 84 34 31 -212 0
37 32 60 34 31 -202 0
37 32 60 34 31 -201 0
37 32 60 34 31 -200 0
37 32 60 34 31 -199 0
37 32 1 34 31 -38 0
37 32 1 34 31 -33 0
37 32 1 34 31 -35 0
37 32 1 34 31 -36 0
37 32 43 34 31 -191 0
37 32 43 34 31 -192 0
37 32 43 34 31 -194 0
37 32 43 34 31 -193 0
37 32 65 34 31 -206 0
37 32 65 34 31 -205 0
37 32 65 34 31 -204 0
37 32 65 34 31 -203 0
37 32 34 51 31 -196 0
37 32 34 51 31 -198 0
37 32 34 51 31 -197 0
37 32 34 51 31 -195 0
37 32 34 7 31 -98 0
37 32 34 7 31 -97 0
37 32 34 7 31 -99 0
37 32 34 7 31 -100 0
37 32 34 74 31 -209 0
37 32 34 74 31 -210 0
37 32 34 74 31 -207 0
37 32 34 74 31 -208 0
37 32 34 24 31 -164 0
37 32 34 24 31 -163 0
37 32 34 24 31 -161 0
37 32 34 24 31 -162 0
37 32 34 18 31 -134 0
37 32 34 18 31 -131 0
37 32 34 18 31 -132 0
37 32 34 18 31 -133 0
37 32 34 82 31 -211 0
37 32 34 82 31 -214 0
37 32 34 82 31 -213 0
37 32 34 82 31 -212 0
37 32 34 57 31 -202 0
37 32 34 57 31 -201 0
37 32 34 57 31 -200 0
37 32 34 57 31 -199 0
37 32 34 3 31 -38 0
37 32 34 3 31 -33 0
37 32 34 3 31 -35 0
37 32 34 3 31 -36 0
37 32 34 44 31 -191 0
37 32 34 44 31 -192 0
37 32 34 44 31 -194 0
37 32 34 44 31 -193 0
37 32 34 66 31 -206 0
37 32 34 66 31 -205 0
37 32 34 66 31 -204 0
37 32 34 66 31 -203 0
37 32 34 31 52 -196 0
37 32 34 31 52 -198 0
37 32 34 31 52 -197 0
37 32 34 31 52 -195 0
37 32 34 31 10 -98 0
37 32 34 31 10 -97 0
37 32 34 31 10 -99 0
37 32 34 31 10 -100 0
37 32 34 31 72 -209 0
37 32 34 31 72 -210 0
37 32 34 31 72 -207 0
37 32 34 31 72 -208 0
37 32 34 31 27 -164 0
37 32 34 31 27 -163 0
37 32 34 31 27 -161 0
37 32 34 31 27 -162 0
37 32 34 31 15 -134 0
37 32 34 31 15 -131 0
37 32 34 31 15 -132 0
37 32 34 31 15 -133 0
37 32 34 31 81 -211 0
37 32 34 31 81 -214 0
37 32 34 31 81 -213 0
37 32 34 31 81 -212 0
37 32 34 31 62 -202 0
37 32 34 31 62 -201 0
37 32 34 31 62 -200 0
37 32 34 31 62 -199 0
37 32 34 31 5 -38 0
37 32 34 31 5 -33 0
37 32 34 31 5 -35 0
37 32 34 31 5 -36 0
48 9 47 51 52 -108 0
48 9 47 51 52 -107 0
48 9 47 51 52 -105 0
48 9 47 51 52 -106 0
48 9 8 7 10 -108 0
48 9 8 7 10 -107 0
48 9 8 7 10 -105 0
48 9 8 7 10 -106 0
48 77 47 51 52 -248 0
48 77 47 51 52 -250 0
48 77 47 51 52 -249 0
48 77 47 51 52 -247 0
48 77 73 74 72 -248 0
48 77 73 74 72 -250 0
48 77 73 74 72 -249 0
48 77 73 74 72 -247 0
48 23 47 51 52 -172 0
48 23 47 51 52 -169 0
48 23 47 51 52 -170 0
48 23 47 51 52 -171 0
48 23 30 24 27 -172 0
48 23 30 24 27 -169 0
48 23 30 24 27 -170 0
48 23 30 24 27 -171 0
48 21 47 51 52 -141 0
48 21 47 51 52 -140 0
48 21 47 51 52 -139 0
48 21 47 51 52 -142 0
48 21 16 18 15 -141 0
48 21 16 18 15 -140 0
48 21 16 18 15 -139 0
48 21 16 18 15 -142 0
48 85 47 51 52 -252 0
48 85 47 51 52 -251 0
48 85 47 51 52 -253 0
48 85 47 51 52 -254 0
48 85 84 82 81 -252 0
48 85 84 82 81 -251 0
48 85 84 82 81 -253 0
48 85 84 82 81 -254 0
48 61 47 51 52 -239 0
48 61 47 51 52 -241 0
48 61 47 51 52 -240 0
48 61 47 51 52 -242 0
48 61 60 57 62 -239 0
48 61 60 57 62 -241 0
48 61 60 57 62 -240 0
48 61 60 57 62 -242 0
48 4 47 51 52 -49 0
48 4 47 51 52 -50 0
48 4 47 51 52 -53 0
48 4 47 51 52 -54 0
48 4 1 3 5 -49 0
48 4 1 3 5 -50 0
48 4 1 3 5 -53 0
48 4 1 3 5 -54 0
48 41 47 51 52 -220 0
48 41 47 51 52 -218 0
48 41 47 51 52 -217 0
48 41 47 51 52 -219 0
48 63 47 51 52 -246 0
48 63 47 51 52 -243 0
48 63 47 51 52 -245 0
48 63 47 51 52 -244 0
48 32 47 51 52 -196 0
48 32 47 51 52 -198 0
48 32 47 51 52 -197 0
48 32 47 51 52 -195 0
48 47 8 51 52 -108 0
48 47 8 51 52 -107 0
48 47 8 51 52 -105 0
48 47 8 51 52 -106 0
48 47 73 51 52 -248 0
48 47 73 51 52 -250 0
48 47 73 51 52 -249 0
48 47 73 51 52 -247 0
48 47 30 51 52 -172 0
48 47 30 51 52 -169 0
48 47 30 51 52 -170 0
48 47 30 51 52 -171 0
48 47 16 51 52 -141 0
48 47 16 51 52 -140 0
48 47 16 51 52 -139 0
48 47 16 51 52 -142 0
48 47 84 51 52 -252 0
48 47 84 51 52 -251 0
48 47 84 51 52 -253 0
48 47 84 51 52 -254 0
48 47 60 51 52 -239 0
48 47 60 51 52 -241 0
48 47 60 51 52 -240 0
48 47 60 51 52 -242 0
48 47 1 51 52 -49 0
48 47 1 51 52 -50 0
48 47 1 51 52 -53 0
48 47 1 51 52 -54 0
48 47 43 51 52 -220 0
48 47 43 51 52 -218 0
48 47 43 51 52 -217 0
48 47 43 51 52 -219 0
48 47 65 51 52 -246 0
48 47 65 51 52 -243 0
48 47 65 51 52 -245 0
48 47 65 51 52 -244 0
48 47 34 51 52 -196 0
48 47 34 51 52 -198 0
48 47 34 51 52 -197 0
48 47 34 51 52 -195 0
48 47 51 7 52 -108 0
48 47 51 7 52 -107 0
48 47 51 7 52 -105 0
48 47 51 7 52 -106 0
48 47 51 74 52 -248 0
48 47 51 74 52 -250 0
48 47 51 74 52 -249 0
48 47 51 74 52 -247 0
48 47 51 24 52 -172 0
48 47 51 24 52 -169 0
48 47 51 24 52 -170 0
48 47 51 24 52 -171 0
48 47 51 18 52 -141 0
48 47 51 18 52 -140 0
48 47 51 18 52 -139 0
48 47 51 18 52 -142 0
48 47 51 82 52 -252 0
48 47 51 82 52 -251 0
48 47 51 82 52 -253 0
48 47 51 82 52 -254 0
48 47 51 57 52 -239 0
48 47 51 57 52 -241 0
48 47 51 57 52 -240 0
48 47 51 57 52 -242 0
48 47 51 3 52 -49 0
48 47 51 3 52 -50 0
48 47 51 3 52 -53 0
48 47 51 3 52 -54 0
48 47 51 44 52 -220 0
48 47 51 44 52 -218 0
48 47 51 44 52 -217 0
48 47 51 44 52 -219 0
48 47 51 66 52 -246 0
48 47 51 66 52 -243 0
48 47 51 66 52 -245 0
48 47 51 66 52 -244 0
48 47 51 31 52 -196 0
48 47 51 31 52 -198 0
48 47 51 31 52 -197 0
48 47 51 31 52 -195 0
48 47 51 52 10 -108 0
48 47 51 52 10 -107 0
48 47 51 52 10 -105 0
48 47 51 52 10 -106 0
48 47 51 52 72 -248 0
48 47 51 52 72 -250 0
48 47 51 52 72 -249 0
48 47 51 52 72 -247 0
48 47 51 52 27 -172 0
48 47 51 52 27 -169 0
48 47 51 52 27 -170 0
48 47 51 52 27 -171 0
48 47 51 52 15 -141 0
48 47 51 52 15 -140 0
48 47 51 52 15 -139 0
48 47 51 52 15 -142 0
48 47 51 52 81 -252 0
48 47 51 52 81 -251 0
48 47 51 52 81 -253 0
48 47 51 52 81 -254 0
48 47 51 52 62 -239 0
48 47 51 52 62 -241 0
48 47 51 52 62 -240 0
48 47 51 52 62 -242 0
48 47 51 52 5 -49 0
48 47 51 52 5 -50 0
48 47 51 52 5 -53 0
48 47 51 52 5 -54 0
9 77 8 7 10 -118 0
9 77 8 7 10 -117 0
9 77 8 7 10 -119 0
9 77 8 7 10 -120 0
9 77 73 74 72 -118 0
9 77 73 74 72 -117 0
9 77 73 74 72 -119 0
9 77 73 74 72 -120 0
9 23 8 7 10 -93 0
9 23 8 7 10 -94 0
9 23 8 7 10 -96 0
9 23 8 7 10 -95 0
9 23 30 24 27 -93 0
9 23 30 24 27 -94 0
9 23 30 24 27 -96 0
9 23 30 24 27 -95 0
9 21 8 7 10 -91 0
9 21 8 7 10 -90 0
9 21 8 7 10 -92 0
9 21 8 7 10 -89 0
9 21 16 18 15 -91 0
9 21 16 18 15 -90 0
9 21 16 18 15 -92 0
9 21 16 18 15 -89 0
9 85 8 7 10 -123 0
9 85 8 7 10 -121 0
9 85 8 7 10 -124 0
9 85 8 7 10 -122 0
9 85 84 82 81 -123 0
9 85 84 82 81 -121 0
9 85 84 82 81 -124 0
9 85 84 82 81 -122 0
9 61 8 7 10 -110 0
9 61 8 7 10 -109 0
9 61 8 7 10 -111 0
9 61 8 7 10 -112 0
9 61 60 57 62 -110 0
9 61 60 57 62 -109 0
9 61 60 57 62 -111 0
9 61 60 57 62 -112 0
9 4 8 7 10 -11 0
9 4 8 7 10 -14 0
9 4 8 7 10 -13 0
9 4 8 7 10 -12 0
9 4 1 3 5 -11 0
9 4 1 3 5 -14 0
9 4 1 3 5 -13 0
9 4 1 3 5 -12 0
9 41 8 7 10 -104 0
9 41 8 7 10 -103 0
9 41 8 7 10 -102 0
9 41 8 7 10 -101 0
9 63 8 7 10 -116 0
9 63 8 7 10 -114 0
9 63 8 7 10 -113 0
9 63 8 7 10 -115 0
9 32 8 7 10 -98 0
9 32 8 7 10 -97 0
9 32 8 7 10 -99 0
9 32 8 7 10 -100 0
9 47 8 7 10 -108 0
9 47 8 7 10 -107 0
9 47 8 7 10 -105 0
9 47 8 7 10 -106 0
9 8 73 7 10 -118 0
9 8 73 7 10 -117 0
9 8 73 7 10 -119 0
9 8 73 7 10 -120 0
9 8 30 7 10 -93 0
9 8 30 7 10 -94 0
9 8 30 7 10 -96 0
9 8 30 7 10 -95 0
9 8 16 7 10 -91 0
9 8 16 7 10 -90 0
9 8 16 7 10 -92 0
9 8 16 7 10 -89 0
9 8 84 7 10 -123 0
9 8 84 7 10 -121 0
9 8 84 7 10 -124 0
9 8 84 7 10 -122 0
9 8 60 7 10 -110 0
9 8 60 7 10 -109 0
9 8 60 7 10 -111 0
9 8 60 7 10 -112 0
9 8 1 7 10 -11 0
9 8 1 7 10 -14 0
9 8 1 7 10 -13 0
9 8 1 7 10 -12 0
9 8 43 7 10 -104 0
9 8 43 7 10 -103 0
9 8 43 7 10 -102 0
9 8 43 7 10 -101 0
9 8 65 7 10 -116 0
9 8 65 7 10 -114 0
9 8 65 7 10 -113 0
9 8 65 7 10 -115 0
9 8 34 7 10 -98 0
9 8 34 7 10 -97 0
9 8 34 7 10 -99 0
9 8 34 7 10 -100 0
9 8 51 7 10 -108 0
9 8 51 7 10 -107 0
9 8 51 7 10 -105 0
9 8 51 7 10 -106 0
9 8 7 74 10 -118 0
9 8 7 74 10 -117 0
9 8 7 74 10 -119 0
9 8 7 74 10 -120 0
9 8 7 24 10 -93 0
9 8 7 24 10 -94 0
9 8 7 24 10 -96 0
9 8 7 24 10 -95 0
9 8 7 18 10 -91 0
9 8 7 18 10 -90 0
9 8 7 18 10 -92 0
9 8 7 18 10 -89 0
9 8 7 82 10 -123 0
9 8 7 82 10 -121 0
9 8 7 82 10 -124 0
9 8 7 82 10 -122 0
9 8 7 57 10 -110 0
9 8 7 57 10 -109 0
9 8 7 57 10 -111 0
9 8 7 57 10 -112 0
9 8 7 3 10 -11 0
9 8 7 3 10 -14 0
9 8 7 3 10 -13 0
9 8 7 3 10 -12 0
9 8 7 44 10 -104 0
9 8 7 44 10 -103 0
9 8 7 44 10 -102 0
9 8 7 44 10 -101 0
9 8 7 66 10 -116 0
9 8 7 66 10 -114 0
9 8 7 66 10 -113 0
9 8 7 66 10 -115 0
9 8 7 31 10 -98 0
9 8 7 31 10 -97 0
9 8 7 31 10 -99 0
9 8 7 31 10 -100 0
9 8 7 52 10 -108 0
9 8 7 52 10 -107 0
9 8 7 52 10 -105 0
9 8 7 52 10 -106 0
9 8 7 10 72 -118 0
9 8 7 10 72 -117 0
9 8 7 10 72 -119 0
9 8 7 10 72 -120 0
9 8 7 10 27 -93 0
9 8 7 10 27 -94 0
9 8 7 10 27 -96 0
9 8 7 10 27 -95 0
9 8 7 10 15 -91 0
9 8 7 10 15 -90 0
9 8 7 10 15 -92 0
9 8 7 10 15 -89 0
9 8 7 10 81 -123 0
9 8 7 10 81 -121 0
9 8 7 10 81 -124 0
9 8 7 10 81 -122 0
9 8 7 10 62 -110 0
9 8 7 10 62 -109 0
9 8 7 10 62 -111 0
9 8 7 10 62 -112 0
9 8 7 10 5 -11 0
9 8 7 10 5 -14 0
9 8 7 10 5 -13 0
9 8 7 10 5 -12 0
77 23 73 74 72 -183 0
77 23 73 74 72 -182 0
77 23 73 74 72 -181 0
77 23 73 74 72 -184 0
77 23 30 24 27 -183 0
77 23 30 24 27 -182 0
77 23 30 24 27 -181 0
77 23 30 24 27 -184 0
77 21 73 74 72 -152 0
77 21 73 74 72 -151 0
77 21 73 74 72 -153 0
77 21 73 74 72 -154 0
77 21 16 18 15 -152 0
77 21 16 18 15 -151 0
77 21 16 18 15 -153 0
77 21 16 18 15 -154 0
77 85 73 74 72 -283 0
77 85 73 74 72 -282 0
77 85 73 74 72 -284 0
77 85 73 74 72 -281 0
77 85 84 82 81 -283 0
77 85 84 82 81 -282 0
77 85 84 82 81 -284 0
77 85 84 82 81 -281 0
77 61 73 74 72 -262 0
77 61 73 74 72 -263 0
77 61 73 74 72 -264 0
77 61 73 74 72 -261 0
77 61 60 57 62 -262 0
77 61 60 57 62 -263 0
77 61 60 57 62 -264 0
77 61 60 57 62 -261 0
77 4 73 74 72 -71 0
77 4 73 74 72 -76 0
77 4 73 74 72 -75 0
77 4 73 74 72 -78 0
77 4 1 3 5 -71 0
77 4 1 3 5 -76 0
77 4 1 3 5 -75 0
77 4 1 3 5 -78 0
77 41 73 74 72 -231 0
77 41 73 74 72 -229 0
77 41 73 74 72 -232 0
77 41 73 74 72 -230 0
77 63 73 74 72 -274 0
77 63 73 74 72 -273 0
77 63 73 74 72 -271 0
77 63 73 74 72 -272 0
77 32 73 74 72 -209 0
77 32 73 74 72 -210 0
77 32 73 74 72 -207 0
77 32 73 74 72 -208 0
77 47 73 74 72 -248 0
77 47 73 74 72 -250 0
77 47 73 74 72 -249 0
77 47 73 74 72 -247 0
77 8 73 74 72 -118 0
77 8 73 74 72 -117 0
77 8 73 74 72 -119 0
77 8 73 74 72 -120 0
77 73 30 74 72 -183 0
77 73 30 74 72 -182 0
77 73 30 74 72 -181 0
77 73 30 74 72 -184 0
77 73 16 74 72 -152 0
77 73 16 74 72 -151 0
77 73 16 74 72 -153 0
77 73 16 74 72 -154 0
77 73 84 74 72 -283 0
77 73 84 74 72 -282 0
77 73 84 74 72 -284 0
77 73 84 74 72 -281 0
77 73 60 74 72 -262 0
77 73 60 74 72 -263 0
77 73 60 74 72 -264 0
77 73 60 74 72 -261 0
77 73 1 74 72 -71 0
77 73 1 74 72 -76 0
77 73 1 74 72 -75 0
77 73 1 74 72 -78 0
77 73 43 74 72 -231 0
77 73 43 74 72 -229 0
77 73 43 74 72 -232 0
77 73 43 74 72 -230 0
77 73 65 74 72 -274 0
77 73 65 74 72 -273 0
77 73 65 74 72 -271 0
77 73 65 74 72 -272 0
77 73 34 74 72 -209 0
77 73 34 74 72 -210 0
77 73 34 74 72 -207 0
77 73 34 74 72 -208 0
77 73 51 74 72 -248 0
77 73 51 74 72 -250 0
77 73 51 74 72 -249 0
77 73 51 74 72 -247 0
77 73 7 74 72 -118 0
77 73 7 74 72 -117 0
77 73 7 74 72 -119 0
77 73 7 74 72 -120 0
77 73 74 24 72 -183 0
77 73 74 24 72 -182 0
77 73 74 24 72 -181 0
77 73 74 24 72 -184 0
77 73 74 18 72 -152 0
77 73 74 18 72 -151 0
77 73 74 18 72 -153 0
77 73 74 18 72 -154 0
77 73 74 82 72 -283 0
77 73 74 82 72 -282 0
77 73 74 82 72 -284 0
77 73 74 82 72 -281 0
77 73 74 57 72 -262 0
77 73 74 57 72 -263 0
77 73 74 57 72 -264 0
77 73 74 57 72 -261 0
77 73 74 3 72 -71 0
77 73 74 3 72 -76 0
77 73 74 3 72 -75 0
77 73 74 3 72 -78 0
77 73 74 44 72 -231 0
77 73 74 44 72 -229 0
77 73 74 44 72 -232 0
77 73 74 44 72 -230 0
77 73 74 66 72 -274 0
77 73 74 66 72 -273 0
77 73 74 66 72 -271 0
77 73 74 66 72 -272 0
77 73 74 31 72 -209 0
77 73 74 31 72 -210 0
77 73 74 31 72 -207 0
77 73 74 31 72 -208 0
77 73 74 52 72 -248 0
77 73 74 52 72 -250 0
77 73 74 52 72 -249 0
77 73 74 52 72 -247 0
77 73 74 10 72 -118 0
77 73 74 10 72 -117 0
77 73 74 10 72 -119 0
77 73 74 10 72 -120 0
77 73 74 72 27 -183 0
77 73 74 72 27 -182 0
77 73 74 72 27 -181 0
77 73 74 72 27 -184 0
77 73 74 72 15 -152 0
77 73 74 72 15 -151 0
77 73 74 72 15 -153 0
77 73 74 72 15 -154 0
77 73 74 72 81 -283 0
77 73 74 72 81 -282 0
77 73 74 72 81 -284 0
77 73 74 72 81 -281 0
77 73 74 72 62 -262 0
77 73 74 72 62 -263 0
77 73 74 72 62 -264 0
77 73 74 72 62 -261 0
77 73 74 72 5 -71 0
77 73 74 72 5 -76 0
77 73 74 72 5 -75 0
77 73 74 72 5 -78 0
23 21 30 24 27 -130 0
23 21 30 24 27 -127 0
23 21 30 24 27 -128 0
23 21 30 24 27 -129 0
23 21 16 18 15 -130 0
23 21 16 18 15 -127 0
23 21 16 18 15 -128 0
23 21 16 18 15 -129 0
23 85 30 24 27 -186 0
23 85 30 24 27 -185 0
23 85 30 24 27 -188 0
23 85 30 24 27 -187 0
23 85 84 82 81 -186 0
23 85 84 82 81 -185 0
23 85 84 82 81 -188 0
23 85 84 82 81 -187 0
23 61 30 24 27 -175 0
23 61 30 24 27 -173 0
23 61 30 24 27 -176 0
23 61 30 24 27 -174 0
23 61 60 57 62 -175 0
23 61 60 57 62 -173 0
23 61 60 57 62 -176 0
23 61 60 57 62 -174 0
23 4 30 24 27 -28 0
23 4 30 24 27 -26 0
23 4 30 24 27 -25 0
23 4 30 24 27 -29 0
23 4 1 3 5 -28 0
23 4 1 3 5 -26 0
23 4 1 3 5 -25 0
23 4 1 3 5 -29 0
23 41 30 24 27 -166 0
23 41 30 24 27 -165 0
23 41 30 24 27 -168 0
23 41 30 24 27 -167 0
23 63 30 24 27 -180 0
23 63 30 24 27 -178 0
23 63 30 24 27 -179 0
23 63 30 24 27 -177 0
23 32 30 24 27 -164 0
23 32 30 24 27 -163 0
23 32 30 24 27 -161 0
23 32 30 24 27 -162 0
23 47 30 24 27 -172 0
23 47 30 24 27 -169 0
23 47 30 24 27 -170 0
23 47 30 24 27 -171 0
23 8 30 24 27 -93 0
23 8 30 24 27 -94 0
23 8 30 24 27 -96 0
23 8 30 24 27 -95 0
23 73 30 24 27 -183 0
23 73 30 24 27 -182 0
23 73 30 24 27 -181 0
23 73 30 24 27 -184 0
23 30 16 24 27 -130 0
23 30 16 24 27 -127 0
23 30 16 24 27 -128 0
23 30 16 24 27 -129 0
23 30 84 24 27 -186 0
23 30 84 24 27 -185 0
23 30 84 24 27 -188 0
23 30 84 24 27 -187 0
23 30 60 24 27 -175 0
23 30 60 24 27 -173 0
23 30 60 24 27 -176 0
23 30 60 24 27 -174 0
23 30 1 24 27 -28 0
23 30 1 24 27 -26 0
23 30 1 24 27 -25 0
23 30 1 24 27 -29 0
23 30 43 24 27 -166 0
23 30 43 24 27 -165 0
23 30 43 24 27 -168 0
23 30 43 24 27 -167 0
23 30 65 24 27 -180 0
23 30 65 24 27 -178 0
23 30 65 24 27 -179 0
23 30 65 24 27 -177 0
23 30 34 24 27 -164 0
23 30 34 24 27 -163 0
23 30 34 24 27 -161 0
23 30 34 24 27 -162 0
23 30 51 24 27 -172 0
23 30 51 24 27 -169 0
23 30 51 24 27 -170 0
23 30 51 24 27 -171 0
23 30 7 24 27 -93 0
23 30 7 24 27 -94 0
23 30 7 24 27 -96 0
23 30 7 24 27 -95 0
23 30 74 24 27 -183 0
23 30 74 24 27 -182 0
23 30 74 24 27 -181 0
23 30 74 24 27 -184 0
23 30 24 18 27 -130 0
23 30 24 18 27 -127 0
23 30 24 18 27 -128 0
23 30 24 18 27 -129 0
23 30 24 82 27 -186 0
23 30 24 82 27 -185 0
23 30 24 82 27 -188 0
23 30 24 82 27 -187 0
23 30 24 57 27 -175 0
23 30 24 57 27 -173 0
23 30 24 57 27 -176 0
23 30 24 57 27 -174 0
23 30 24 3 27 -28 0
23 30 24 3 27 -26 0
23 30 24 3 27 -25 0
23 30 24 3 27 -29 0
23 30 24 44 27 -166 0
23 30 24 44 27 -165 0
23 30 24 44 27 -168 0
23 30 24 44 27 -167 0
23 30 24 66 27 -180 0
23 30 24 66 27 -178 0
23 30 24 66 27 -179 0
23 30 24 66 27 -177 0
23 30 24 31 27 -164 0
23 30 24 31 27 -163 0
23 30 24 31 27 -161 0
23 30 24 31 27 -162 0
23 30 24 52 27 -172 0
23 30 24 52 27 -169 0
23 30 24 52 27 -170 0
23 30 24 52 27 -171 0
23 30 24 10 27 -93 0
23 30 24 10 27 -94 0
23 30 24 10 27 -96 0
23 30 24 10 27 -95 0
23 30 24 72 27 -183 0
23 30 24 72 27 -182 0
23 30 24 72 27 -181 0
23 30 24 72 27 -184 0
23 30 24 27 15 -130 0
23 30 24 27 15 -127 0
23 30 24 27 15 -128 0
23 30 24 27 15 -129 0
23 30 24 27 81 -186 0
23 30 24 27 81 -185 0
23 30 24 27 81 -188 0
23 30 24 27 81 -187 0
23 30 24 27 62 -175 0
23 30 24 27 62 -173 0
23 30 24 27 62 -176 0
23 30 24 27 62 -174 0
23 30 24 27 5 -28 0
23 30 24 27 5 -26 0
23 30 24 27 5 -25 0
23 30 24 27 5 -29 0
21 85 16 18 15 -156 0
21 85 16 18 15 -155 0
21 85 16 18 15 -158 0
21 85 16 18 15 -157 0
21 85 84 82 81 -156 0
21 85 84 82 81 -155 0
21 85 84 82 81 -158 0
21 85 84 82 81 -157 0
21 61 16 18 15 -146 0
21 61 16 18 15 -143 0
21 61 16 18 15 -144 0
21 61 16 18 15 -145 0
21 61 60 57 62 -146 0
21 61 60 57 62 -143 0
21 61 60 57 62 -144 0
21 61 60 57 62 -145 0
21 4 16 18 15 -17 0
21 4 16 18 15 -19 0
21 4 16 18 15 -20 0
21 4 16 18 15 -22 0
21 4 1 3 5 -17 0
21 4 1 3 5 -19 0
21 4 1 3 5 -20 0
21 4 1 3 5 -22 0
21 41 16 18 15 -136 0
21 41 16 18 15 -135 0
21 41 16 18 15 -137 0
21 41 16 18 15 -138 0
21 63 16 18 15 -150 0
21 63 16 18 15 -147 0
21 63 16 18 15 -149 0
21 63 16 18 15 -148 0
21 32 16 18 15 -134 0
21 32 16 18 15 -131 0
21 32 16 18 15 -132 0
21 32 16 18 15 -133 0
21 47 16 18 15 -141 0
21 47 16 18 15 -140 0
21 47 16 18 15 -139 0
21 47 16 18 15 -142 0
21 8 16 18 15 -91 0
21 8 16 18 15 -90 0
21 8 16 18 15 -92 0
21 8 16 18 15 -89 0
21 73 16 18 15 -152 0
21 73 16 18 15 -151 0
21 73 16 18 15 -153 0
21 73 16 18 15 -154 0
21 30 16 18 15 -130 0
21 30 16 18 15 -127 0
21 30 16 18 15 -128 0
21 30 16 18 15 -129 0
21 16 84 18 15 -156 0
21 16 84 18 15 -155 0
21 16 84 18 15 -158 0
21 16 84 18 15 -157 0
21 16 60 18 15 -146 0
21 16 60 18 15 -143 0
21 16 60 18 15 -144 0
21 16 60 18 15 -145 0
21 16 1 18 15 -17 0
21 16 1 18 15 -19 0
21 16 1 18 15 -20 0
21 16 1 18 15 -22 0
21 16 43 18 15 -136 0
21 16 43 18 15 -135 0
21 16 43 18 15 -137 0
21 16 43 18 15 -138 0
21 16 65 18 15 -150 0
21 16 65 18 15 -147 0
21 16 65 18 15 -149 0
21 16 65 18 15 -148 0
21 16 34 18 15 -134 0
21 16 34 18 15 -131 0
21 16 34 18 15 -132 0
21 16 34 18 15 -133 0
21 16 51 18 15 -141 0
21 16 51 18 15 -140 0
21 16 51 18 15 -139 0
21 16 51 18 15 -142 0
21 16 7 18 15 -91 0
21 16 7 18 15 -90 0
21 16 7 18 15 -92 0
21 16 7 18 15 -89 0
21 16 74 18 15 -152 0
21 16 74 18 15 -151 0
21 16 74 18 15 -153 0
21 16 74 18 15 -154 0
21 16 24 18 15 -130 0
21 16 24 18 15 -127 0
21 16 24 18 15 -128 0
21 16 24 18 15 -129 0
21 16 18 82 15 -156 0
21 16 18 82 15 -155 0
21 16 18 82 15 -158 0
21 16 18 82 15 -157 0
21 16 18 57 15 -146 0
21 16 18 57 15 -143 0
21 16 18 57 15 -144 0
21 16 18 57 15 -145 0
21 16 18 3 15 -17 0
21 16 18 3 15 -19 0
21 16 18 3 15 -20 0
21 16 18 3 15 -22 0
21 16 18 44 15 -136 0
21 16 18 44 15 -135 0
21 16 18 44 15 -137 0
21 16 18 44 15 -138 0
21 16 18 66 15 -150 0
21 16 18 66 15 -147 0
21 16 18 66 15 -149 0
21 16 18 66 15 -148 0
21 16 18 31 15 -134 0
21 16 18 31 15 -131 0
21 16 18 31 15 -132 0
21 16 18 31 15 -133 0
21 16 18 52 15 -141 0
21 16 18 52 15 -140 0
21 16 18 52 15 -139 0
21 16 18 52 15 -142 0
21 16 18 10 15 -91 0
21 16 18 10 15 -90 0
21 16 18 10 15 -92 0
21 16 18 10 15 -89 0
21 16 18 72 15 -152 0
21 16 18 72 15 -151 0
21 16 18 72 15 -153 0
21 16 18 72 15 -154 0
21 16 18 27 15 -130 0
21 16 18 27 15 -127 0
21 16 18 27 15 -128 0
21 16 18 27 15 -129 0
21 16 18 15 81 -156 0
21 16 18 15 81 -155 0
21 16 18 15 81 -158 0
21 16 18 15 81 -157 0
21 16 18 15 62 -146 0
21 16 18 15 62 -143 0
21 16 18 15 62 -144 0
21 16 18 15 62 -145 0
21 16 18 15 5 -17 0
21 16 18 15 5 -19 0
21 16 18 15 5 -20 0
21 16 18 15 5 -22 0
85 61 84 82 81 -267 0
85 61 84 82 81 -265 0
85 61 84 82 81 -268 0
85 61 84 82 81 -266 0
85 61 60 57 62 -267 0
85 61 60 57 62 -265 0
85 61 60 57 62 -268 0
85 61 60 57 62 -266 0
85 4 84 82 81 -79 0
85 4 84 82 81 -86 0
85 4 84 82 81 -80 0
85 4 84 82 81 -83 0
85 4 1 3 5 -79 0
85 4 1 3 5 -86 0
85 4 1 3 5 -80 0
85 4 1 3 5 -83 0
85 41 84 82 81 -233 0
85 41 84 82 81 -235 0
85 41 84 82 81 -234 0
85 41 84 82 81 -236 0
85 63 84 82 81 -278 0
85 63 84 82 81 -275 0
85 63 84 82 81 -277 0
85 63 84 82 81 -276 0
85 32 84 82 81 -211 0
85 32 84 82 81 -214 0
85 32 84 82 81 -213 0
85 32 84 82 81 -212 0
85 47 84 82 81 -252 0
85 47 84 82 81 -251 0
85 47 84 82 81 -253 0
85 47 84 82 81 -254 0
85 8 84 82 81 -123 0
85 8 84 82 81 -121 0
85 8 84 82 81 -124 0
85 8 84 82 81 -122 0
85 73 84 82 81 -283 0
85 73 84 82 81 -282 0
85 73 84 82 81 -284 0
85 73 84 82 81 -281 0
85 30 84 82 81 -186 0
85 30 84 82 81 -185 0
85 30 84 82 81 -188 0
85 30 84 82 81 -187 0
85 16 84 82 81 -156 0
85 16 84 82 81 -155 0
85 16 84 82 81 -158 0
85 16 84 82 81 -157 0
85 84 60 82 81 -267 0
85 84 60 82 81 -265 0
85 84 60 82 81 -268 0
85 84 60 82 81 -266 0
85 84 1 82 81 -79 0
85 84 1 82 81 -86 0
85 84 1 82 81 -80 0
85 84 1 82 81 -83 0
85 84 43 82 81 -233 0
85 84 43 82 81 -235 0
85 84 43 82 81 -234 0
85 84 43 82 81 -236 0
85 84 65 82 81 -278 0
85 84 65 82 81 -275 0
85 84 65 82 81 -277 0
85 84 65 82 81 -276 0
85 84 34 82 81 -211 0
85 84 34 82 81 -214 0
85 84 34 82 81 -213 0
85 84 34 82 81 -212 0
85 84 51 82 81 -252 0
85 84 51 82 81 -251 0
85 84 51 82 81 -253 0
85 84 51 82 81 -254 0
85 84 7 82 81 -123 0
85 84 7 82 81 -121 0
85 84 7 82 81 -124 0
85 84 7 82 81 -122 0
85 84 74 82 81 -283 0
85 84 74 82 81 -282 0
85 84 74 82 81 -284 0
85 84 74 82 81 -281 0
85 84 24 82 81 -186 0
85 84 24 82 81 -185 0
85 84 24 82 81 -188 0
85 84 24 82 81 -187 0
85 84 18 82 81 -156 0
85 84 18 82 81 -155 0
85 84 18 82 81 -158 0
85 84 18 82 81 -157 0
85 84 82 57 81 -267 0
85 84 82 57 81 -265 0
85 84 82 57 81 -268 0
85 84 82 57 81 -266 0
85 84 82 3 81 -79 0
85 84 82 3 81 -86 0
85 84 82 3 81 -80 0
85 84 82 3 81 -83 0
85 84 82 44 81 -233 0
85 84 82 44 81 -235 0
85 84 82 44 81 -234 0
85 84 82 44 81 -236 0
85 84 82 66 81 -278 0
85 84 82 66 81 -275 0
85 84 82 66 81 -277 0
85 84 82 66 81 -276 0
85 84 82 31 81 -211 0
85 84 82 31 81 -214 0
85 84 82 31 81 -213 0
85 84 82 31 81 -212 0
85 84 82 52 81 -252 0
85 84 82 52 81 -251 0
85 84 82 52 81 -253 0
85 84 82 52 81 -254 0
85 84 82 10 81 -123 0
85 84 82 10 81 -121 0
85 84 82 10 81 -124 0
85 84 82 10 81 -122 0
85 84 82 72 81 -283 0
85 84 82 72 81 -282 0
85 84 82 72 81 -284 0
85 84 82 72 81 -281 0
85 84 82 27 81 -186 0
85 84 82 27 81 -185 0
85 84 82 27 81 -188 0
85 84 82 27 81 -187 0
85 84 82 15 81 -156 0
85 84 82 15 81 -155 0
85 84 82 15 81 -158 0
85 84 82 15 81 -157 0
85 84 82 81 62 -267 0
85 84 82 81 62 -265 0
85 84 82 81 62 -268 0
85 84 82 81 62 -266 0
85 84 82 81 5 -79 0
85 84 82 81 5 -86 0
85 84 82 81 5 -80 0
85 84 82 81 5 -83 0
61 4 60 57 62 -55 0
61 4 60 57 62 -56 0
61 4 60 57 62 -59 0
61 4 60 57 62 -58 0
61 4 1 3 5 -55 0
61 4 1 3 5 -56 0
61 4 1 3 5 -59 0
61 4 1 3 5 -58 0
61 41 60 57 62 -221 0
61 41 60 57 62 -222 0
61 41 60 57 62 -224 0
61 41 60 57 62 -223 0
61 63 60 57 62 -260 0
61 63 60 57 62 -257 0
61 63 60 57 62 -259 0
61 63 60 57 62 -258 0
61 32 60 57 62 -202 0
61 32 60 57 62 -201 0
61 32 60 57 62 -200 0
61 32 60 57 62 -199 0
61 47 60 57 62 -239 0
61 47 60 57 62 -241 0
61 47 60 57 62 -240 0
61 47 60 57 62 -242 0
61 8 60 57 62 -110 0
61 8 60 57 62 -109 0
61 8 60 57 62 -111 0
61 8 60 57 62 -112 0
61 73 60 57 62 -262 0
61 73 60 57 62 -263 0
61 73 60 57 62 -264 0
61 73 60 57 62 -261 0
61 30 60 57 62 -175 0
61 30 60 57 62 -173 0
61 30 60 57 62 -176 0
61 30 60 57 62 -174 0
61 16 60 57 62 -146 0
61 16 60 57 62 -143 0
61 16 60 57 62 -144 0
61 16 60 57 62 -145 0
61 84 60 57 62 -267 0
61 84 60 57 62 -265 0
61 84 60 57 62 -268 0
61 84 60 57 62 -266 0
61 60 1 57 62 -55 0
61 60 1 57 62 -56 0
61 60 1 57 62 -59 0
61 60 1 57 62 -58 0
61 60 43 57 62 -221 0
61 60 43 57 62 -222 0
61 60 43 57 62 -224 0
61 60 43 57 62 -223 0
61 60 65 57 62 -260 0
61 60 65 57 62 -257 0
61 60 65 57 62 -259 0
61 60 65 57 62 -258 0
61 60 34 57 62 -202 0
61 60 34 57 62 -201 0
61 60 34 57 62 -200 0
61 60 34 57 62 -199 0
61 60 51 57 62 -239 0
61 60 51 57 62 -241 0
61 60 51 57 62 -240 0
61 60 51 57 62 -242 0
61 60 7 57 62 -110 0
61 60 7 57 62 -109 0
61 60 7 57 62 -111 0
61 60 7 57 62 -112 0
61 60 74 57 62 -262 0
61 60 74 57 62 -263 0
61 60 74 57 62 -264 0
61 60 74 57 62 -261 0
61 60 24 57 62 -175 0
61 60 24 57 62 -173 0
61 60 24 57 62 -176 0
61 60 24 57 62 -174 0
61 60 18 57 62 -146 0
61 60 18 57 62 -143 0
61 60 18 57 62 -144 0
61 60 18 57 62 -145 0
61 60 82 57 62 -267 0
61 60 82 57 62 -265 0
61 60 82 57 62 -268 0
61 60 82 57 62 -266 0
61 60 57 3 62 -55 0
61 60 57 3 62 -56 0
61 60 57 3 62 -59 0
61 60 57 3 62 -58 0
61 60 57 44 62 -221 0
61 60 57 44 62 -222 0
61 60 57 44 62 -224 0
61 60 57 44 62 -223 0
61 60 57 66 62 -260 0
61 60 57 66 62 -257 0
61 60 57 66 62 -259 0
61 60 57 66 62 -258 0
61 60 57 31 62 -202 0
61 60 57 31 62 -201 0
61 60 57 31 62 -200 0
61 60 57 31 62 -199 0
61 60 57 52 62 -239 0
61 60 57 52 62 -241 0
61 60 57 52 62 -240 0
61 60 57 52 62 -242 0
61 60 57 10 62 -110 0
61 60 57 10 62 -109 0
61 60 57 10 62 -111 0
61 60 57 10 62 -112 0
61 60 57 72 62 -262 0
61 60 57 72 62 -263 0
61 60 57 72 62 -264 0
61 60 57 72 62 -261 0
61 60 57 27 62 -175 0
61 60 57 27 62 -173 0
61 60 57 27 62 -176 0
61 60 57 27 62 -174 0
61 60 57 15 62 -146 0
61 60 57 15 62 -143 0
61 60 57 15 62 -144 0
61 60 57 15 62 -145 0
61 60 57 81 62 -267 0
61 60 57 81 62 -265 0
61 60 57 81 62 -268 0
61 60 57 81 62 -266 0
61 60 57 62 5 -55 0
61 60 57 62 5 -56 0
61 60 57 62 5 -59 0
61 60 57 62 5 -58 0
4 41 1 3 5 -46 0
4 41 1 3 5 -45 0
4 41 1 3 5 -39 0
4 41 1 3 5 -40 0
4 63 1 3 5 -69 0
4 63 1 3 5 -68 0
4 63 1 3 5 -67 0
4 63 1 3 5 -70 0
4 32 1 3 5 -38 0
4 32 1 3 5 -33 0
4 32 1 3 5 -35 0
4 32 1 3 5 -36 0
4 47 1 3 5 -49 0
4 47 1 3 5 -50 0
4 47 1 3 5 -53 0
4 47 1 3 5 -54 0
4 8 1 3 5 -11 0
4 8 1 3 5 -14 0
4 8 1 3 5 -13 0
4 8 1 3 5 -12 0
4 73 1 3 5 -71 0
4 73 1 3 5 -76 0
4 73 1 3 5 -75 0
4 73 1 3 5 -78 0
4 30 1 3 5 -28 0
4 30 1 3 5 -26 0
4 30 1 3 5 -25 0
4 30 1 3 5 -29 0
4 16 1 3 5 -17 0
4 16 1 3 5 -19 0
4 16 1 3 5 -20 0
4 16 1 3 5 -22 0
4 84 1 3 5 -79 0
4 84 1 3 5 -86 0
4 84 1 3 5 -80 0
4 84 1 3 5 -83 0
4 60 1 3 5 -55 0
4 60 1 3 5 -56 0
4 60 1 3 5 -59 0
4 60 1 3 5 -58 0
4 1 43 3 5 -46 0
4 1 43 3 5 -45 0
4 1 43 3 5 -39 0
4 1 43 3 5 -40 0
4 1 65 3 5 -69 0
4 1 65 3 5 -68 0
4 1 65 3 5 -67 0
4 1 65 3 5 -70 0
4 1 34 3 5 -38 0
4 1 34 3 5 -33 0
4 1 34 3 5 -35 0
4 1 34 3 5 -36 0
4 1 51 3 5 -49 0
4 1 51 3 5 -50 0
4 1 51 3 5 -53 0
4 1 51 3 5 -54 0
4 1 7 3 5 -11 0
4 1 7 3 5 -14 0
4 1 7 3 5 -13 0
4 1 7 3 5 -12 0
4 1 74 3 5 -71 0
4 1 74 3 5 -76 0
4 1 74 3 5 -75 0
4 1 74 3 5 -78 0
4 1 24 3 5 -28 0
4 1 24 3 5 -26 0
4 1 24 3 5 -25 0
4 1 24 3 5 -29 0
4 1 18 3 5 -17 0
4 1 18 3 5 -19 0
4 1 18 3 5 -20 0
4 1 18 3 5 -22 0
4 1 82 3 5 -79 0
4 1 82 3 5 -86 0
4 1 82 3 5 -80 0
4 1 82 3 5 -83 0
4 1 57 3 5 -55 0
4 1 57 3 5 -56 0
4 1 57 3 5 -59 0
4 1 57 3 5 -58 0
4 1 3 44 5 -46 0
4 1 3 44 5 -45 0
4 1 3 44 5 -39 0
4 1 3 44 5 -40 0
4 1 3 66 5 -69 0
4 1 3 66 5 -68 0
4 1 3 66 5 -67 0
4 1 3 66 5 -70 0
4 1 3 31 5 -38 0
4 1 3 31 5 -33 0
4 1 3 31 5 -35 0
4 1 3 31 5 -36 0
4 1 3 52 5 -49 0
4 1 3 52 5 -50 0
4 1 3 52 5 -53 0
4 1 3 52 5 -54 0
4 1 3 10 5 -11 0
4 1 3 10 5 -14 0
4 1 3 10 5 -13 0
4 1 3 10 5 -12 0
4 1 3 72 5 -71 0
4 1 3 72 5 -76 0
4 1 3 72 5 -75 0
4 1 3 72 5 -78 0
4 1 3 27 5 -28 0
4 1 3 27 5 -26 0
4 1 3 27 5 -25 0
4 1 3 27 5 -29 0
4 1 3 15 5 -17 0
4 1 3 15 5 -19 0
4 1 3 15 5 -20 0
4 1 3 15 5 -22 0
4 1 3 81 5 -79 0
4 1 3 81 5 -86 0
4 1 3 81 5 -80 0
4 1 3 81 5 -83 0
4 1 3 62 5 -55 0
4 1 3 62 5 -56 0
4 1 3 62 5 -59 0
4 1 3 62 5 -58 0
42 64 41 63 43 65 -225 0
42 64 41 63 43 65 -228 0
42 64 41 63 43 65 -227 0
42 64 41 63 43 65 -226 0
42 64 41 63 43 44 -225 0
42 64 41 63 43 44 -228 0
42 64 41 63 43 44 -227 0
42 64 41 63 43 44 -226 0
42 64 41 63 65 66 -225 0
42 64 41 63 65 66 -228 0
42 64 41 63 65 66 -227 0
42 64 41 63 65 66 -226 0
42 64 41 63 44 66 -225 0
42 64 41 63 44 66 -228 0
42 64 41 63 44 66 -227 0
42 64 41 63 44 66 -226 0
42 64 41 43 65 44 -225 0
42 64 41 43 65 44 -228 0
42 64 41 43 65 44 -227 0
42 64 41 43 65 44 -226 0
42 64 41 43 44 66 -225 0
42 64 41 43 44 66 -228 0
42 64 41 43 44 66 -227 0
42 64 41 43 44 66 -226 0
42 64 63 43 65 66 -225 0
42 64 63 43 65 66 -228 0
42 64 63 43 65 66 -227 0
42 64 63 43 65 66 -226 0
42 64 63 65 44 66 -225 0
42 64 63 65 44 66 -228 0
42 64 63 65 44 66 -227 0
42 64 63 65 44 66 -226 0
42 64 43 65 44 66 -225 0
42 64 43 65 44 66 -228 0
42 64 43 65 44 66 -227 0
42 64 43 65 44 66 -226 0
42 37 41 32 43 34 -191 0
42 37 41 32 43 34 -192 0
42 37 41 32 43 34 -194 0
42 37 41 32 43 34 -193 0
42 37 41 32 43 44 -191 0
42 37 41 32 43 44 -192 0
42 37 41 32 43 44 -194 0
42 37 41 32 43 44 -193 0
42 37 41 32 34 31 -191 0
42 37 41 32 34 31 -192 0
42 37 41 32 34 31 -194 0
42 37 41 32 34 31 -193 0
42 37 41 32 44 31 -191 0
42 37 41 32 44 31 -192 0
42 37 41 32 44 31 -194 0
42 37 41 32 44 31 -193 0
42 37 41 43 34 44 -191 0
42 37 41 43 34 44 -192 0
42 37 41 43 34 44 -194 0
42 37 41 43 34 44 -193 0
42 37 41 43 44 31 -191 0
42 37 41 43 44 31 -192 0
42 37 41 43 44 31 -194 0
42 37 41 43 44 31 -193 0
42 37 32 43 34 31 -191 0
42 37 32 43 34 31 -192 0
42 37 32 43 34 31 -194 0
42 37 32 43 34 31 -193 0
42 37 32 34 44 31 -191 0
42 37 32 34 44 31 -192 0
42 37 32 34 44 31 -194 0
42 37 32 34 44 31 -193 0
42 37 43 34 44 31 -191 0
42 37 43 34 44 31 -192 0
42 37 43 34 44 31 -194 0
42 37 43 34 44 31 -193 0
42 48 41 47 43 51 -220 0
42 48 41 47 43 51 -218 0
42 48 41 47 43 51 -217 0
42 48 41 47 43 51 -219 0
42 48 41 47 43 44 -220 0
42 48 41 47 43 44 -218 0
42 48 41 47 43 44 -217 0
42 48 41 47 43 44 -219 0
42 48 41 47 51 52 -220 0
42 48 41 47 51 52 -218 0
42 48 41 47 51 52 -217 0
42 48 41 47 51 52 -219 0
42 48 41 47 44 52 -220 0
42 48 41 47 44 52 -218 0
42 48 41 47 44 52 -217 0
42 48 41 47 44 52 -219 0
42 48 41 43 51 44 -220 0
42 48 41 43 51 44 -218 0
42 48 41 43 51 44 -217 0
42 48 41 43 51 44 -219 0
42 48 41 43 44 52 -220 0
42 48 41 43 44 52 -218 0
42 48 41 43 44 52 -217 0
42 48 41 43 44 52 -219 0
42 48 47 43 51 52 -220 0
42 48 47 43 51 52 -218 0
42 48 47 43 51 52 -217 0
42 48 47 43 51 52 -219 0
42 48 47 51 44 52 -220 0
42 48 47 51 44 52 -218 0
42 48 47 51 44 52 -217 0
42 48 47 51 44 52 -219 0
42 48 43 51 44 52 -220 0
42 48 43 51 44 52 -218 0
42 48 43 51 44 52 -217 0
42 48 43 51 44 52 -219 0
42 9 41 8 43 7 -104 0
42 9 41 8 43 7 -103 0
42 9 41 8 43 7 -102 0
42 9 41 8 43 7 -101 0
42 9 41 8 43 44 -104 0
42 9 41 8 43 44 -103 0
42 9 41 8 43 44 -102 0
42 9 41 8 43 44 -101 0
42 9 41 8 7 10 -104 0
42 9 41 8 7 10 -103 0
42 9 41 8 7 10 -102 0
42 9 41 8 7 10 -101 0
42 9 41 8 44 10 -104 0
42 9 41 8 44 10 -103 0
42 9 41 8 44 10 -102 0
42 9 41 8 44 10 -101 0
42 9 41 43 7 44 -104 0
42 9 41 43 7 44 -103 0
42 9 41 43 7 44 -102 0
42 9 41 43 7 44 -101 0
42 9 41 43 44 10 -104 0
42 9 41 43 44 10 -103 0
42 9 41 43 44 10 -102 0
42 9 41 43 44 10 -101 0
42 9 8 43 7 10 -104 0
42 9 8 43 7 10 -103 0
42 9 8 43 7 10 -102 0
42 9 8 43 7 10 -101 0
42 9 8 7 44 10 -104 0
42 9 8 7 44 10 -103 0
42 9 8 7 44 10 -102 0
42 9 8 7 44 10 -101 0
42 9 43 7 44 10 -104 0
42 9 43 7 44 10 -103 0
42 9 43 7 44 10 -102 0
42 9 43 7 44 10 -101 0
42 77 41 73 43 74 -231 0
42 77 41 73 43 74 -229 0
42 77 41 73 43 74 -232 0
42 77 41 73 43 74 -230 0
42 77 41 73 43 44 -231 0
42 77 41 73 43 44 -229 0
42 77 41 73 43 44 -232 0
42 77 41 73 43 44 -230 0
42 77 41 73 74 72 -231 0
42 77 41 73 74 72 -229 0
42 77 41 73 74 72 -232 0
42 77 41 73 74 72 -230 0
42 77 41 73 44 72 -231 0
42 77 41 73 44 72 -229 0
42 77 41 73 44 72 -232 0
42 77 41 73 44 72 -230 0
42 77 41 43 74 44 -231 0
42 77 41 43 74 44 -229 0
42 77 41 43 74 44 -232 0
42 77 41 43 74 44 -230 0
42 77 41 43 44 72 -231 0
42 77 41 43 44 72 -229 0
42 77 41 43 44 72 -232 0
42 77 41 43 44 72 -230 0
42 77 73 43 74 72 -231 0
42 77 73 43 74 72 -229 0
42 77 73 43 74 72 -232 0
42 77 73 43 74 72 -230 0
42 77 73 74 44 72 -231 0
42 77 73 74 44 72 -229 0
42 77 73 74 44 72 -232 0
42 77 73 74 44 72 -230 0
42 77 43 74 44 72 -231 0
42 77 43 74 44 72 -229 0
42 77 43 74 44 72 -232 0
42 77 43 74 44 72 -230 0
42 23 41 30 43 24 -166 0
42 23 41 30 43 24 -165 0
42 23 41 30 43 24 -168 0
42 23 41 30 43 24 -167 0
42 23 41 30 43 44 -166 0
42 23 41 30 43 44 -165 0
42 23 41 30 43 44 -168 0
42 23 41 30 43 44 -167 0
42 23 41 30 24 27 -166 0
42 23 41 30 24 27 -165 0
42 23 41 30 24 27 -168 0
42 23 41 30 24 27 -167 0
42 23 41 30 44 27 -166 0
42 23 41 30 44 27 -165 0
42 23 41 30 44 27 -168 0
42 23 41 30 44 27 -167 0
42 23 41 43 24 44 -166 0
42 23 41 43 24 44 -165 0
42 23 41 43 24 44 -168 0
42 23 41 43 24 44 -167 0
42 23 41 43 44 27 -166 0
42 23 41 43 44 27 -165 0
42 23 41 43 44 27 -168 0
42 23 41 43 44 27 -167 0
42 23 30 43 24 27 -166 0
42 23 30 43 24 27 -165 0
42 23 30 43 24 27 -168 0
42 23 30 43 24 27 -167 0
42 23 30 24 44 27 -166 0
42 23 30 24 44 27 -165 0
42 23 30 24 44 27 -168 0
42 23 30 24 44 27 -167 0
42 23 43 24 44 27 -166 0
42 23 43 24 44 27 -165 0
42 23 43 24 44 27 -168 0
42 23 43 24 44 27 -167 0
42 21 41 16 43 18 -136 0
42 21 41 16 43 18 -135 0
42 21 41 16 43 18 -137 0
42 21 41 16 43 18 -138 0
42 21 41 16 43 44 -136 0
42 21 41 16 43 44 -135 0
42 21 41 16 43 44 -137 0
42 21 41 16 43 44 -138 0
42 21 41 16 18 15 -136 0
42 21 41 16 18 15 -135 0
42 21 41 16 18 15 -137 0
42 21 41 16 18 15 -138 0
42 21 41 16 44 15 -136 0
42 21 41 16 44 15 -135 0
42 21 41 16 44 15 -137 0
42 21 41 16 44 15 -138 0
42 21 41 43 18 44 -136 0
42 21 41 43 18 44 -135 0
42 21 41 43 18 44 -137 0
42 21 41 43 18 44 -138 0
42 21 41 43 44 15 -136 0
42 21 41 43 44 15 -135 0
42 21 41 43 44 15 -137 0
42 21 41 43 44 15 -138 0
42 21 16 43 18 15 -136 0
42 21 16 43 18 15 -135 0
42 21 16 43 18 15 -137 0
42 21 16 43 18 15 -138 0
42 21 16 18 44 15 -136 0
42 21 16 18 44 15 -135 0
42 21 16 18 44 15 -137 0
42 21 16 18 44 15 -138 0
42 21 43 18 44 15 -136 0
42 21 43 18 44 15 -135 0
42 21 43 18 44 15 -137 0
42 21 43 18 44 15 -138 0
42 85 41 84 43 82 -233 0
42 85 41 84 43 82 -235 0
42 85 41 84 43 82 -234 0
42 85 41 84 43 82 -236 0
42 85 41 84 43 44 -233 0
42 85 41 84 43 44 -235 0
42 85 41 84 43 44 -234 0
42 85 41 84 43 44 -236 0
42 85 41 84 82 81 -233 0
42 85 41 84 82 81 -235 0
42 85 41 84 82 81 -234 0
42 85 41 84 82 81 -236 0
42 85 41 84 44 81 -233 0
42 85 41 84 44 81 -235 0
42 85 41 84 44 81 -234 0
42 85 41 84 44 81 -236 0
42 85 41 43 82 44 -233 0
42 85 41 43 82 44 -235 0
42 85 41 43 82 44 -234 0
42 85 41 43 82 44 -236 0
42 85 41 43 44 81 -233 0
42 85 41 43 44 81 -235 0
42 85 41 43 44 81 -234 0
42 85 41 43 44 81 -236 0
42 85 84 43 82 81 -233 0
42 85 84 43 82 81 -235 0
42 85 84 43 82 81 -234 0
42 85 84 43 82 81 -236 0
42 85 84 82 44 81 -233 0
42 85 84 82 44 81 -235 0
42 85 84 82 44 81 -234 0
42 85 84 82 44 81 -236 0
42 85 43 82 44 81 -233 0
42 85 43 82 44 81 -235 0
42 85 43 82 44 81 -234 0
42 85 43 82 44 81 -236 0
42 61 41 60 43 57 -221 0
42 61 41 60 43 57 -222 0
42 61 41 60 43 57 -224 0
42 61 41 60 43 57 -223 0
42 61 41 60 43 44 -221 0
42 61 41 60 43 44 -222 0
42 61 41 60 43 44 -224 0
42 61 41 60 43 44 -223 0
42 61 41 60 57 62 -221 0
42 61 41 60 57 62 -222 0
42 61 41 60 57 62 -224 0
42 61 41 60 57 62 -223 0
42 61 41 60 44 62 -221 0
42 61 41 60 44 62 -222 0
42 61 41 60 44 62 -224 0
42 61 41 60 44 62 -223 0
42 61 41 43 57 44 -221 0
42 61 41 43 57 44 -222 0
42 61 41 43 57 44 -224 0
42 61 41 43 57 44 -223 0
42 61 41 43 44 62 -221 0
42 61 41 43 44 62 -222 0
42 61 41 43 44 62 -224 0
42 61 41 43 44 62 -223 0
42 61 60 43 57 62 -221 0
42 61 60 43 57 62 -222 0
42 61 60 43 57 62 -224 0
42 61 60 43 57 62 -223 0
42 61 60 57 44 62 -221 0
42 61 60 57 44 62 -222 0
42 61 60 57 44 62 -224 0
42 61 60 57 44 62 -223 0
42 61 43 57 44 62 -221 0
42 61 43 57 44 62 -222 0
42 61 43 57 44 62 -224 0
42 61 43 57 44 62 -223 0
42 4 41 1 43 3 -46 0
42 4 41 1 43 3 -45 0
42 4 41 1 43 3 -39 0
42 4 41 1 43 3 -40 0
42 4 41 1 43 44 -46 0
42 4 41 1 43 44 -45 0
42 4 41 1 43 44 -39 0
42 4 41 1 43 44 -40 0
42 4 41 1 3 5 -46 0
42 4 41 1 3 5 -45 0
42 4 41 1 3 5 -39 0
42 4 41 1 3 5 -40 0
42 4 41 1 44 5 -46 0
42 4 41 1 44 5 -45 0
42 4 41 1 44 5 -39 0
42 4 41 1 44 5 -40 0
42 4 41 43 3 44 -46 0
42 4 41 43 3 44 -45 0
42 4 41 43 3 44 -39 0
42 4 41 43 3 44 -40 0
42 4 41 43 44 5 -46 0
42 4 41 43 44 5 -45 0
42 4 41 43 44 5 -39 0
42 4 41 43 44 5 -40 0
42 4 1 43 3 5 -46 0
42 4 1 43 3 5 -45 0
42 4 1 43 3 5 -39 0
42 4 1 43 3 5 -40 0
42 4 1 3 44 5 -46 0
42 4 1 3 44 5 -45 0
42 4 1 3 44 5 -39 0
42 4 1 3 44 5 -40 0
42 4 43 3 44 5 -46 0
42 4 43 3 44 5 -45 0
42 4 43 3 44 5 -39 0
42 4 43 3 44 5 -40 0
42 41 63 43 65 44 -225 0
42 41 63 43 65 44 -228 0
42 41 63 43 65 44 -227 0
42 41 63 43 65 44 -226 0
42 41 63 43 44 66 -225 0
42 41 63 43 44 66 -228 0
42 41 63 43 44 66 -227 0
42 41 63 43 44 66 -226 0
42 41 32 43 34 44 -191 0
42 41 32 43 34 44 -192 0
42 41 32 43 34 44 -194 0
42 41 32 43 34 44 -193 0
42 41 32 43 44 31 -191 0
42 41 32 43 44 31 -192 0
42 41 32 43 44 31 -194 0
42 41 32 43 44 31 -193 0
42 41 47 43 51 44 -220 0
42 41 47 43 51 44 -218 0
42 41 47 43 51 44 -217 0
42 41 47 43 51 44 -219 0
42 41 47 43 44 52 -220 0
42 41 47 43 44 52 -218 0
42 41 47 43 44 52 -217 0
42 41 47 43 44 52 -219 0
42 41 8 43 7 44 -104 0
42 41 8 43 7 44 -103 0
42 41 8 43 7 44 -102 0
42 41 8 43 7 44 -101 0
42 41 8 43 44 10 -104 0
42 41 8 43 44 10 -103 0
42 41 8 43 44 10 -102 0
42 41 8 43 44 10 -101 0
42 41 73 43 74 44 -231 0
42 41 73 43 74 44 -229 0
42 41 73 43 74 44 -232 0
42 41 73 43 74 44 -230 0
42 41 73 43 44 72 -231 0
42 41 73 43 44 72 -229 0
42 41 73 43 44 72 -232 0
42 41 73 43 44 72 -230 0
42 41 30 43 24 44 -166 0
42 41 30 43 24 44 -165 0
42 41 30 43 24 44 -168 0
42 41 30 43 24 44 -167 0
42 41 30 43 44 27 -166 0
42 41 30 43 44 27 -165 0
42 41 30 43 44 27 -168 0
42 41 30 43 44 27 -167 0
42 41 16 43 18 44 -136 0
42 41 16 43 18 44 -135 0
42 41 16 43 18 44 -137 0
42 41 16 43 18 44 -138 0
42 41 16 43 44 15 -136 0
42 41 16 43 44 15 -135 0
42 41 16 43 44 15 -137 0
42 41 16 43 44 15 -138 0
42 41 84 43 82 44 -233 0
42 41 84 43 82 44 -235 0
42 41 84 43 82 44 -234 0
42 41 84 43 82 44 -236 0
42 41 84 43 44 81 -233 0
42 41 84 43 44 81 -235 0
42 41 84 43 44 81 -234 0
42 41 84 43 44 81 -236 0
42 41 60 43 57 44 -221 0
42 41 60 43 57 44 -222 0
42 41 60 43 57 44 -224 0
42 41 60 43 57 44 -223 0
42 41 60 43 44 62 -221 0
42 41 60 43 44 62 -222 0
42 41 60 43 44 62 -224 0
42 41 60 43 44 62 -223 0
42 41 1 43 3 44 -46 0
42 41 1 43 3 44 -45 0
42 41 1 43 3 44 -39 0
42 41 1 43 3 44 -40 0
42 41 1 43 44 5 -46 0
42 41 1 43 44 5 -45 0
42 41 1 43 44 5 -39 0
42 41 1 43 44 5 -40 0
42 41 43 65 44 66 -225 0
42 41 43 65 44 66 -228 0
42 41 43 65 44 66 -227 0
42 41 43 65 44 66 -226 0
42 41 43 34 44 31 -191 0
42 41 43 34 44 31 -192 0
42 41 43 34 44 31 -194 0
42 41 43 34 44 31 -193 0
42 41 43 51 44 52 -220 0
42 41 43 51 44 52 -218 0
42 41 43 51 44 52 -217 0
42 41 43 51 44 52 -219 0
42 41 43 7 44 10 -104 0
42 41 43 7 44 10 -103 0
42 41 43 7 44 10 -102 0
42 41 43 7 44 10 -101 0
42 41 43 74 44 72 -231 0
42 41 43 74 44 72 -229 0
42 41 43 74 44 72 -232 0
42 41 43 74 44 72 -230 0
42 41 43 24 44 27 -166 0
42 41 43 24 44 27 -165 0
42 41 43 24 44 27 -168 0
42 41 43 24 44 27 -167 0
42 41 43 18 44 15 -136 0
42 41 43 18 44 15 -135 0
42 41 43 18 44 15 -137 0
42 41 43 18 44 15 -138 0
42 41 43 82 44 81 -233 0
42 41 43 82 44 81 -235 0
42 41 43 82 44 81 -234 0
42 41 43 82 44 81 -236 0
42 41 43 57 44 62 -221 0
42 41 43 57 44 62 -222 0
42 41 43 57 44 62 -224 0
42 41 43 57 44 62 -223 0
42 41 43 3 44 5 -46 0
42 41 43 3 44 5 -45 0
42 41 43 3 44 5 -39 0
42 41 43 3 44 5 -40 0
64 37 63 32 65 34 -206 0
64 37 63 32 65 34 -205 0
64 37 63 32 65 34 -204 0
64 37 63 32 65 34 -203 0
64 37 63 32 65 66 -206 0
64 37 63 32 65 66 -205 0
64 37 63 32 65 66 -204 0
64 37 63 32 65 66 -203 0
64 37 63 32 34 31 -206 0
64 37 63 32 34 31 -205 0
64 37 63 32 34 31 -204 0
64 37 63 32 34 31 -203 0
64 37 63 32 66 31 -206 0
64 37 63 32 66 31 -205 0
64 37 63 32 66 31 -204 0
64 37 63 32 66 31 -203 0
64 37 63 65 34 66 -206 0
64 37 63 65 34 66 -205 0
64 37 63 65 34 66 -204 0
64 37 63 65 34 66 -203 0
64 37 63 65 66 31 -206 0
64 37 63 65 66 31 -205 0
64 37 63 65 66 31 -204 0
64 37 63 65 66 31 -203 0
64 37 32 65 34 31 -206 0
64 37 32 65 34 31 -205 0
64 37 32 65 34 31 -204 0
64 37 32 65 34 31 -203 0
64 37 32 34 66 31 -206 0
64 37 32 34 66 31 -205 0
64 37 32 34 66 31 -204 0
64 37 32 34 66 31 -203 0
64 37 65 34 66 31 -206 0
64 37 65 34 66 31 -205 0
64 37 65 34 66 31 -204 0
64 37 65 34 66 31 -203 0
64 48 63 47 65 51 -246 0
64 48 63 47 65 51 -243 0
64 48 63 47 65 51 -245 0
64 48 63 47 65 51 -244 0
64 48 63 47 65 66 -246 0
64 48 63 47 65 66 -243 0
64 48 63 47 65 66 -245 0
64 48 63 47 65 66 -244 0
64 48 63 47 51 52 -246 0
64 48 63 47 51 52 -243 0
64 48 63 47 51 52 -245 0
64 48 63 47 51 52 -244 0
64 48 63 47 66 52 -246 0
64 48 63 47 66 52 -243 0
64 48 63 47 66 52 -245 0
64 48 63 47 66 52 -244 0
64 48 63 65 51 66 -246 0
64 48 63 65 51 66 -243 0
64 48 63 65 51 66 -245 0
64 48 63 65 51 66 -244 0
64 48 63 65 66 52 -246 0
64 48 63 65 66 52 -243 0
64 48 63 65 66 52 -245 0
64 48 63 65 66 52 -244 0
64 48 47 65 51 52 -246 0
64 48 47 65 51 52 -243 0
64 48 47 65 51 52 -245 0
64 48 47 65 51 52 -244 0
64 48 47 51 66 52 -246 0
64 48 47 51 66 52 -243 0
64 48 47 51 66 52 -245 0
64 48 47 51 66 52 -244 0
64 48 65 51 66 52 -246 0
64 48 65 51 66 52 -243 0
64 48 65 51 66 52 -245 0
64 48 65 51 66 52 -244 0
64 9 63 8 65 7 -116 0
64 9 63 8 65 7 -114 0
64 9 63 8 65 7 -113 0
64 9 63 8 65 7 -115 0
64 9 63 8 65 66 -116 0
64 9 63 8 65 66 -114 0
64 9 63 8 65 66 -113 0
64 9 63 8 65 66 -115 0
64 9 63 8 7 10 -116 0
64 9 63 8 7 10 -114 0
64 9 63 8 7 10 -113 0
64 9 63 8 7 10 -115 0
64 9 63 8 66 10 -116 0
64 9 63 8 66 10 -114 0
64 9 63 8 66 10 -113 0
64 9 63 8 66 10 -115 0
64 9 63 65 7 66 -116 0
64 9 63 65 7 66 -114 0
64 9 63 65 7 66 -113 0
64 9 63 65 7 66 -115 0
64 9 63 65 66 10 -116 0
64 9 63 65 66 10 -114 0
64 9 63 65 66 10 -113 0
64 9 63 65 66 10 -115 0
64 9 8 65 7 10 -116 0
64 9 8 65 7 10 -114 0
64 9 8 65 7 10 -113 0
64 9 8 65 7 10 -115 0
64 9 8 7 66 10 -116 0
64 9 8 7 66 10 -114 0
64 9 8 7 66 10 -113 0
64 9 8 7 66 10 -115 0
64 9 65 7 66 10 -116 0
64 9 65 7 66 10 -114 0
64 9 65 7 66 10 -113 0
64 9 65 7 66 10 -115 0
64 77 63 73 65 74 -274 0
64 77 63 73 65 74 -273 0
64 77 63 73 65 74 -271 0
64 77 63 73 65 74 -272 0
64 77 63 73 65 66 -274 0
64 77 63 73 65 66 -273 0
64 77 63 73 65 66 -271 0
64 77 63 73 65 66 -272 0
64 77 63 73 74 72 -274 0
64 77 63 73 74 72 -273 0
64 77 63 73 74 72 -271 0
64 77 63 73 74 72 -272 0
64 77 63 73 66 72 -274 0
64 77 63 73 66 72 -273 0
64 77 63 73 66 72 -271 0
64 77 63 73 66 72 -272 0
64 77 63 65 74 66 -274 0
64 77 63 65 74 66 -273 0
64 77 63 65 74 66 -271 0
64 77 63 65 74 66 -272 0
64 77 63 65 66 72 -274 0
64 77 63 65 66 72 -273 0
64 77 63 65 66 72 -271 0
64 77 63 65 66 72 -272 0
64 77 73 65 74 72 -274 0
64 77 73 65 74 72 -273 0
64 77 73 65 74 72 -271 0
64 77 73 65 74 72 -272 0
64 77 73 74 66 72 -274 0
64 77 73 74 66 72 -273 0
64 77 73 74 66 72 -271 0
64 77 73 74 66 72 -272 0
64 77 65 74 66 72 -274 0
64 77 65 74 66 72 -273 0
64 77 65 74 66 72 -271 0
64 77 65 74 66 72 -272 0
64 23 63 30 65 24 -180 0
64 23 63 30 65 24 -178 0
64 23 63 30 65 24 -179 0
64 23 63 30 65 24 -177 0
64 23 63 30 65 66 -180 0
64 23 63 30 65 66 -178 0
64 23 63 30 65 66 -179 0
64 23 63 30 65 66 -177 0
64 23 63 30 24 27 -180 0
64 23 63 30 24 27 -178 0
64 23 63 30 24 27 -179 0
64 23 63 30 24 27 -177 0
64 23 63 30 66 27 -180 0
64 23 63 30 66 27 -178 0
64 23 63 30 66 27 -179 0
64 23 63 30 66 27 -177 0
64 23 63 65 24 66 -180 0
64 23 63 65 24 66 -178 0
64 23 63 65 24 66 -179 0
64 23 63 65 24 66 -177 0
64 23 63 65 66 27 -180 0
64 23 63 65 66 27 -178 0
64 23 63 65 66 27 -179 0
64 23 63 65 66 27 -177 0
64 23 30 65 24 27 -180 0
64 23 30 65 24 27 -178 0
64 23 30 65 24 27 -179 0
64 23 30 65 24 27 -177 0
64 23 30 24 66 27 -180 0
64 23 30 24 66 27 -178 0
64 23 30 24 66 27 -179 0
64 23 30 24 66 27 -177 0
64 23 65 24 66 27 -180 0
64 23 65 24 66 27 -178 0
64 23 65 24 66 27 -179 0
64 23 65 24 66 27 -177 0
64 21 63 16 65 18 -150 0
64 21 63 16 65 18 -147 0
64 21 63 16 65 18 -149 0
64 21 63 16 65 18 -148 0
64 21 63 16 65 66 -150 0
64 21 63 16 65 66 -147 0
64 21 63 16 65 66 -149 0
64 21 63 16 65 66 -148 0
64 21 63 16 18 15 -150 0
64 21 63 16 18 15 -147 0
64 21 63 16 18 15 -149 0
64 21 63 16 18 15 -148 0
64 21 63 16 66 15 -150 0
64 21 63 16 66 15 -147 0
64 21 63 16 66 15 -149 0
64 21 63 16 66 15 -148 0
64 21 63 65 18 66 -150 0
64 21 63 65 18 66 -147 0
64 21 63 65 18 66 -149 0
64 21 63 65 18 66 -148 0
64 21 63 65 66 15 -150 0
64 21 63 65 66 15 -147 0
64 21 63 65 66 15 -149 0
64 21 63 65 66 15 -148 0
64 21 16 65 18 15 -150 0
64 21 16 65 18 15 -147 0
64 21 16 65 18 15 -149 0
64 21 16 65 18 15 -148 0
64 21 16 18 66 15 -150 0
64 21 16 18 66 15 -147 0
64 21 16 18 66 15 -149 0
64 21 16 18 66 15 -148 0
64 21 65 18 66 15 -150 0
64 21 65 18 66 15 -147 0
64 21 65 18 66 15 -149 0
64 21 65 18 66 15 -148 0
64 85 63 84 65 82 -278 0
64 85 63 84 65 82 -275 0
64 85 63 84 65 82 -277 0
64 85 63 84 65 82 -276 0
64 85 63 84 65 66 -278 0
64 85 63 84 65 66 -275 0
64 85 63 84 65 66 -277 0
64 85 63 84 65 66 -276 0
64 85 63 84 82 81 -278 0
64 85 63 84 82 81 -275 0
64 85 63 84 82 81 -277 0
64 85 63 84 82 81 -276 0
64 85 63 84 66 81 -278 0
64 85 63 84 66 81 -275 0
64 85 63 84 66 81 -277 0
64 85 63 84 66 81 -276 0
64 85 63 65 82 66 -278 0
64 85 63 65 82 66 -275 0
64 85 63 65 82 66 -277 0
64 85 63 65 82 66 -276 0
64 85 63 65 66 81 -278 0
64 85 63 65 66 81 -275 0
64 85 63 65 66 81 -277 0
64 85 63 65 66 81 -276 0
64 85 84 65 82 81 -278 0
64 85 84 65 82 81 -275 0
64 85 84 65 82 81 -277 0
64 85 84 65 82 81 -276 0
64 85 84 82 66 81 -278 0
64 85 84 82 66 81 -275 0
64 85 84 82 66 81 -277 0
64 85 84 82 66 81 -276 0
64 85 65 82 66 81 -278 0
64 85 65 82 66 81 -275 0
64 85 65 82 66 81 -277 0
64 85 65 82 66 81 -276 0
64 61 63 60 65 57 -260 0
64 61 63 60 65 57 -257 0
64 61 63 60 65 57 -259 0
64 61 63 60 65 57 -258 0
64 61 63 60 65 66 -260 0
64 61 63 60 65 66 -257 0
64 61 63 60 65 66 -259 0
64 61 63 60 65 66 -258 0
64 61 63 60 57 62 -260 0
64 61 63 60 57 62 -257 0
64 61 63 60 57 62 -259 0
64 61 63 60 57 62 -258 0
64 61 63 60 66 62 -260 0
64 61 63 60 66 62 -257 0
64 61 63 60 66 62 -259 0
64 61 63 60 66 62 -258 0
64 61 63 65 57 66 -260 0
64 61 63 65 57 66 -257 0
64 61 63 65 57 66 -259 0
64 61 63 65 57 66 -258 0
64 61 63 65 66 62 -260 0
64 61 63 65 66 62 -257 0
64 61 63 65 66 62 -259 0
64 61 63 65 66 62 -258 0
64 61 60 65 57 62 -260 0
64 61 60 65 57 62 -257 0
64 61 60 65 57 62 -259 0
64 61 60 65 57 62 -258 0
64 61 60 57 66 62 -260 0
64 61 60 57 66 62 -257 0
64 61 60 57 66 62 -259 0
64 61 60 57 66 62 -258 0
64 61 65 57 66 62 -260 0
64 61 65 57 66 62 -257 0
64 61 65 57 66 62 -259 0
64 61 65 57 66 62 -258 0
64 4 63 1 65 3 -69 0
64 4 63 1 65 3 -68 0
64 4 63 1 65 3 -67 0
64 4 63 1 65 3 -70 0
64 4 63 1 65 66 -69 0
64 4 63 1 65 66 -68 0
64 4 63 1 65 66 -67 0
64 4 63 1 65 66 -70 0
64 4 63 1 3 5 -69 0
64 4 63 1 3 5 -68 0
64 4 63 1 3 5 -67 0
64 4 63 1 3 5 -70 0
64 4 63 1 66 5 -69 0
64 4 63 1 66 5 -68 0
64 4 63 1 66 5 -67 0
64 4 63 1 66 5 -70 0
64 4 63 65 3 66 -69 0
64 4 63 65 3 66 -68 0
64 4 63 65 3 66 -67 0
64 4 63 65 3 66 -70 0
64 4 63 65 66 5 -69 0
64 4 63 65 66 5 -68 0
64 4 63 65 66 5 -67 0
64 4 63 65 66 5 -70 0
64 4 1 65 3 5 -69 0
64 4 1 65 3 5 -68 0
64 4 1 65 3 5 -67 0
64 4 1 65 3 5 -70 0
64 4 1 3 66 5 -69 0
64 4 1 3 66 5 -68 0
64 4 1 3 66 5 -67 0
64 4 1 3 66 5 -70 0
64 4 65 3 66 5 -69 0
64 4 65 3 66 5 -68 0
64 4 65 3 66 5 -67 0
64 4 65 3 66 5 -70 0
64 41 63 43 65 66 -225 0
64 41 63 43 65 66 -228 0
64 41 63 43 65 66 -227 0
64 41 63 43 65 66 -226 0
64 41 63 65 44 66 -225 0
64 41 63 65 44 66 -228 0
64 41 63 65 44 66 -227 0
64 41 63 65 44 66 -226 0
64 63 32 65 34 66 -206 0
64 63 32 65 34 66 -205 0
64 63 32 65 34 66 -204 0
64 63 32 65 34 66 -203 0
64 63 32 65 66 31 -206 0
64 63 32 65 66 31 -205 0
64 63 32 65 66 31 -204 0
64 63 32 65 66 31 -203 0
64 63 47 65 51 66 -246 0
64 63 47 65 51 66 -243 0
64 63 47 65 51 66 -245 0
64 63 47 65 51 66 -244 0
64 63 47 65 66 52 -246 0
64 63 47 65 66 52 -243 0
64 63 47 65 66 52 -245 0
64 63 47 65 66 52 -244 0
64 63 8 65 7 66 -116 0
64 63 8 65 7 66 -114 0
64 63 8 65 7 66 -113 0
64 63 8 65 7 66 -115 0
64 63 8 65 66 10 -116 0
64 63 8 65 66 10 -114 0
64 63 8 65 66 10 -113 0
64 63 8 65 66 10 -115 0
64 63 73 65 74 66 -274 0
64 63 73 65 74 66 -273 0
64 63 73 65 74 66 -271 0
64 63 73 65 74 66 -272 0
64 63 73 65 66 72 -274 0
64 63 73 65 66 72 -273 0
64 63 73 65 66 72 -271 0
64 63 73 65 66 72 -272 0
64 63 30 65 24 66 -180 0
64 63 30 65 24 66 -178 0
64 63 30 65 24 66 -179 0
64 63 30 65 24 66 -177 0
64 63 30 65 66 27 -180 0
64 63 30 65 66 27 -178 0
64 63 30 65 66 27 -179 0
64 63 30 65 66 27 -177 0
64 63 16 65 18 66 -150 0
64 63 16 65 18 66 -147 0
64 63 16 65 18 66 -149 0
64 63 16 65 18 66 -148 0
64 63 16 65 66 15 -150 0
64 63 16 65 66 15 -147 0
64 63 16 65 66 15 -149 0
64 63 16 65 66 15 -148 0
64 63 84 65 82 66 -278 0
64 63 84 65 82 66 -275 0
64 63 84 65 82 66 -277 0
64 63 84 65 82 66 -276 0
64 63 84 65 66 81 -278 0
64 63 84 65 66 81 -275 0
64 63 84 65 66 81 -277 0
64 63 84 65 66 81 -276 0
64 63 60 65 57 66 -260 0
64 63 60 65 57 66 -257 0
64 63 60 65 57 66 -259 0
64 63 60 65 57 66 -258 0
64 63 60 65 66 62 -260 0
64 63 60 65 66 62 -257 0
64 63 60 65 66 62 -259 0
64 63 60 65 66 62 -258 0
64 63 1 65 3 66 -69 0
64 63 1 65 3 66 -68 0
64 63 1 65 3 66 -67 0
64 63 1 65 3 66 -70 0
64 63 1 65 66 5 -69 0
64 63 1 65 66 5 -68 0
64 63 1 65 66 5 -67 0
64 63 1 65 66 5 -70 0
64 63 43 65 44 66 -225 0
64 63 43 65 44 66 -228 0
64 63 43 65 44 66 -227 0
64 63 43 65 44 66 -226 0
64 63 65 34 66 31 -206 0
64 63 65 34 66 31 -205 0
64 63 65 34 66 31 -204 0
64 63 65 34 66 31 -203 0
64 63 65 51 66 52 -246 0
64 63 65 51 66 52 -243 0
64 63 65 51 66 52 -245 0
64 63 65 51 66 52 -244 0
64 63 65 7 66 10 -116 0
64 63 65 7 66 10 -114 0
64 63 65 7 66 10 -113 0
64 63 65 7 66 10 -115 0
64 63 65 74 66 72 -274 0
64 63 65 74 66 72 -273 0
64 63 65 74 66 72 -271 0
64 63 65 74 66 72 -272 0
64 63 65 24 66 27 -180 0
64 63 65 24 66 27 -178 0
64 63 65 24 66 27 -179 0
64 63 65 24 66 27 -177 0
64 63 65 18 66 15 -150 0
64 63 65 18 66 15 -147 0
64 63 65 18 66 15 -149 0
64 63 65 18 66 15 -148 0
64 63 65 82 66 81 -278 0
64 63 65 82 66 81 -275 0
64 63 65 82 66 81 -277 0
64 63 65 82 66 81 -276 0
64 63 65 57 66 62 -260 0
64 63 65 57 66 62 -257 0
64 63 65 57 66 62 -259 0
64 63 65 57 66 62 -258 0
64 63 65 3 66 5 -69 0
64 63 65 3 66 5 -68 0
64 63 65 3 66 5 -67 0
64 63 65 3 66 5 -70 0
37 48 32 47 34 51 -196 0
37 48 32 47 34 51 -198 0
37 48 32 47 34 51 -197 0
37 48 32 47 34 51 -195 0
37 48 32 47 34 31 -196 0
37 48 32 47 34 31 -198 0
37 48 32 47 34 31 -197 0
37 48 32 47 34 31 -195 0
37 48 32 47 51 52 -196 0
37 48 32 47 51 52 -198 0
37 48 32 47 51 52 -197 0
37 48 32 47 51 52 -195 0
37 48 32 47 31 52 -196 0
37 48 32 47 31 52 -198 0
37 48 32 47 31 52 -197 0
37 48 32 47 31 52 -195 0
37 48 32 34 51 31 -196 0
37 48 32 34 51 31 -198 0
37 48 32 34 51 31 -197 0
37 48 32 34 51 31 -195 0
37 48 32 34 31 52 -196 0
37 48 32 34 31 52 -198 0
37 48 32 34 31 52 -197 0
37 48 32 34 31 52 -195 0
37 48 47 34 51 52 -196 0
37 48 47 34 51 52 -198 0
37 48 47 34 51 52 -197 0
37 48 47 34 51 52 -195 0
37 48 47 51 31 52 -196 0
37 48 47 51 31 52 -198 0
37 48 47 51 31 52 -197 0
37 48 47 51 31 52 -195 0
37 48 34 51 31 52 -196 0
37 48 34 51 31 52 -198 0
37 48 34 51 31 52 -197 0
37 48 34 51 31 52 -195 0
37 9 32 8 34 7 -98 0
37 9 32 8 34 7 -97 0
37 9 32 8 34 7 -99 0
37 9 32 8 34 7 -100 0
37 9 32 8 34 31 -98 0
37 9 32 8 34 31 -97 0
37 9 32 8 34 31 -99 0
37 9 32 8 34 31 -100 0
37 9 32 8 7 10 -98 0
37 9 32 8 7 10 -97 0
37 9 32 8 7 10 -99 0
37 9 32 8 7 10 -100 0
37 9 32 8 31 10 -98 0
37 9 32 8 31 10 -97 0
37 9 32 8 31 10 -99 0
37 9 32 8 31 10 -100 0
37 9 32 34 7 31 -98 0
37 9 32 34 7 31 -97 0
37 9 32 34 7 31 -99 0
37 9 32 34 7 31 -100 0
37 9 32 34 31 10 -98 0
37 9 32 34 31 10 -97 0
37 9 32 34 31 10 -99 0
37 9 32 34 31 10 -100 0
37 9 8 34 7 10 -98 0
37 9 8 34 7 10 -97 0
37 9 8 34 7 10 -99 0
37 9 8 34 7 10 -100 0
37 9 8 7 31 10 -98 0
37 9 8 7 31 10 -97 0
37 9 8 7 31 10 -99 0
37 9 8 7 31 10 -100 0
37 9 34 7 31 10 -98 0
37 9 34 7 31 10 -97 0
37 9 34 7 31 10 -99 0
37 9 34 7 31 10 -100 0
37 77 32 73 34 74 -209 0
37 77 32 73 34 74 -210 0
37 77 32 73 34 74 -207 0
37 77 32 73 34 74 -208 0
37 77 32 73 34 31 -209 0
37 77 32 73 34 31 -210 0
37 77 32 73 34 31 -207 0
37 77 32 73 34 31 -208 0
37 77 32 73 74 72 -209 0
37 77 32 73 74 72 -210 0
37 77 32 73 74 72 -207 0
37 77 32 73 74 72 -208 0
37 77 32 73 31 72 -209 0
37 77 32 73 31 72 -210 0
37 77 32 73 31 72 -207 0
37 77 32 73 31 72 -208 0
37 77 32 34 74 31 -209 0
37 77 32 34 74 31 -210 0
37 77 32 34 74 31 -207 0
37 77 32 34 74 31 -208 0
37 77 32 34 31 72 -209 0
37 77 32 34 31 72 -210 0
37 77 32 34 31 72 -207 0
37 77 32 34 31 72 -208 0
37 77 73 34 74 72 -209 0
37 77 73 34 74 72 -210 0
37 77 73 34 74 72 -207 0
37 77 73 34 74 72 -208 0
37 77 73 74 31 72 -209 0
37 77 73 74 31 72 -210 0
37 77 73 74 31 72 -207 0
37 77 73 74 31 72 -208 0
37 77 34 74 31 72 -209 0
37 77 34 74 31 72 -210 0
37 77 34 74 31 72 -207 0
37 77 34 74 31 72 -208 0
37 23 32 30 34 24 -164 0
37 23 32 30 34 24 -163 0
37 23 32 30 34 24 -161 0
37 23 32 30 34 24 -162 0
37 23 32 30 34 31 -164 0
37 23 32 30 34 31 -163 0
37 23 32 30 34 31 -161 0
37 23 32 30 34 31 -162 0
37 23 32 30 24 27 -164 0
37 23 32 30 24 27 -163 0
37 23 32 30 24 27 -161 0
37 23 32 30 24 27 -162 0
37 23 32 30 31 27 -164 0
37 23 32 30 31 27 -163 0
37 23 32 30 31 27 -161 0
37 23 32 30 31 27 -162 0
37 23 32 34 24 31 -164 0
37 23 32 34 24 31 -163 0
37 23 32 34 24 31 -161 0
37 23 32 34 24 31 -162 0
37 23 32 34 31 27 -164 0
37 23 32 34 31 27 -163 0
37 23 32 34 31 27 -161 0
37 23 32 34 31 27 -162 0
37 23 30 34 24 27 -164 0
37 23 30 34 24 27 -163 0
37 23 30 34 24 27 -161 0
37 23 30 34 24 27 -162 0
37 23 30 24 31 27 -164 0
37 23 30 24 31 27 -163 0
37 23 30 24 31 27 -161 0
37 23 30 24 31 27 -162 0
37 23 34 24 31 27 -164 0
37 23 34 24 31 27 -163 0
37 23 34 24 31 27 -161 0
37 23 34 24 31 27 -162 0
37 21 32 16 34 18 -134 0
37 21 32 16 34 18 -131 0
37 21 32 16 34 18 -132 0
37 21 32 16 34 18 -133 0
37 21 32 16 34 31 -134 0
37 21 32 16 34 31 -131 0
37 21 32 16 34 31 -132 0
37 21 32 16 34 31 -133 0
37 21 32 16 18 15 -134 0
37 21 32 16 18 15 -131 0
37 21 32 16 18 15 -132 0
37 21 32 16 18 15 -133 0
37 21 32 16 31 15 -134 0
37 21 32 16 31 15 -131 0
37 21 32 16 31 15 -132 0
37 21 32 16 31 15 -133 0
37 21 32 34 18 31 -134 0
37 21 32 34 18 31 -131 0
37 21 32 34 18 31 -132 0
37 21 32 34 18 31 -133 0
37 21 32 34 31 15 -134 0
37 21 32 34 31 15 -131 0
37 21 32 34 31 15 -132 0
37 21 32 34 31 15 -133 0
37 21 16 34 18 15 -134 0
37 21 16 34 18 15 -131 0
37 21 16 34 18 15 -132 0
37 21 16 34 18 15 -133 0
37 21 16 18 31 15 -134 0
37 21 16 18 31 15 -131 0
37 21 16 18 31 15 -132 0
37 21 16 18 31 15 -133 0
37 21 34 18 31 15 -134 0
37 21 34 18 31 15 -131 0
37 21 34 18 31 15 -132 0
37 21 34 18 31 15 -133 0
37 85 32 84 34 82 -211 0
37 85 32 84 34 82 -214 0
37 85 32 84 34 82 -213 0
37 85 32 84 34 82 -212 0
37 85 32 84 34 31 -211 0
37 85 32 84 34 31 -214 0
37 85 32 84 34 31 -213 0
37 85 32 84 34 31 -212 0
37 85 32 84 82 81 -211 0
37 85 32 84 82 81 -214 0
37 85 32 84 82 81 -213 0
37 85 32 84 82 81 -212 0
37 85 32 84 31 81 -211 0
37 85 32 84 31 81 -214 0
37 85 32 84 31 81 -213 0
37 85 32 84 31 81 -212 0
37 85 32 34 82 31 -211 0
37 85 32 34 82 31 -214 0
37 85 32 34 82 31 -213 0
37 85 32 34 82 31 -212 0
37 85 32 34 31 81 -211 0
37 85 32 34 31 81 -214 0
37 85 32 34 31 81 -213 0
37 85 32 34 31 81 -212 0
37 85 84 34 82 81 -211 0
37 85 84 34 82 81 -214 0
37 85 84 34 82 81 -213 0
37 85 84 34 82 81 -212 0
37 85 84 82 31 81 -211 0
37 85 84 82 31 81 -214 0
37 85 84 82 31 81 -213 0
37 85 84 82 31 81 -212 0
37 85 34 82 31 81 -211 0
37 85 34 82 31 81 -214 0
37 85 34 82 31 81 -213 0
37 85 34 82 31 81 -212 0
37 61 32 60 34 57 -202 0
37 61 32 60 34 57 -201 0
37 61 32 60 34 57 -200 0
37 61 32 60 34 57 -199 0
37 61 32 60 34 31 -202 0
37 61 32 60 34 31 -201 0
37 61 32 60 34 31 -200 0
37 61 32 60 34 31 -199 0
37 61 32 60 57 62 -202 0
37 61 32 60 57 62 -201 0
37 61 32 60 57 62 -200 0
37 61 32 60 57 62 -199 0
37 61 32 60 31 62 -202 0
37 61 32 60 31 62 -201 0
37 61 32 60 31 62 -200 0
37 61 32 60 31 62 -199 0
37 61 32 34 57 31 -202 0
37 61 32 34 57 31 -201 0
37 61 32 34 57 31 -200 0
37 61 32 34 57 31 -199 0
37 61 32 34 31 62 -202 0
37 61 32 34 31 62 -201 0
37 61 32 34 31 62 -200 0
37 61 32 34 31 62 -199 0
37 61 60 34 57 62 -202 0
37 61 60 34 57 62 -201 0
37 61 60 34 57 62 -200 0
37 61 60 34 57 62 -199 0
37 61 60 57 31 62 -202 0
37 61 60 57 31 62 -201 0
37 61 60 57 31 62 -200 0
37 61 60 57 31 62 -199 0
37 61 34 57 31 62 -202 0
37 61 34 57 31 62 -201 0
37 61 34 57 31 62 -200 0
37 61 34 57 31 62 -199 0
37 4 32 1 34 3 -38 0
37 4 32 1 34 3 -33 0
37 4 32 1 34 3 -35 0
37 4 32 1 34 3 -36 0
37 4 32 1 34 31 -38 0
37 4 32 1 34 31 -33 0
37 4 32 1 34 31 -35 0
37 4 32 1 34 31 -36 0
37 4 32 1 3 5 -38 0
37 4 32 1 3 5 -33 0
37 4 32 1 3 5 -35 0
37 4 32 1 3 5 -36 0
37 4 32 1 31 5 -38 0
37 4 32 1 31 5 -33 0
37 4 32 1 31 5 -35 0
37 4 32 1 31 5 -36 0
37 4 32 34 3 31 -38 0
37 4 32 34 3 31 -33 0
37 4 32 34 3 31 -35 0
37 4 32 34 3 31 -36 0
37 4 32 34 31 5 -38 0
37 4 32 34 31 5 -33 0
37 4 32 34 31 5 -35 0
37 4 32 34 31 5 -36 0
37 4 1 34 3 5 -38 0
37 4 1 34 3 5 -33 0
37 4 1 34 3 5 -35 0
37 4 1 34 3 5 -36 0
37 4 1 3 31 5 -38 0
37 4 1 3 31 5 -33 0
37 4 1 3 31 5 -35 0
37 4 1 3 31 5 -36 0
37 4 34 3 31 5 -38 0
37 4 34 3 31 5 -33 0
37 4 34 3 31 5 -35 0
37 4 34 3 31 5 -36 0
37 41 32 43 34 31 -191 0
37 41 32 43 34 31 -192 0
37 41 32 43 34 31 -194 0
37 41 32 43 34 31 -193 0
37 41 32 34 44 31 -191 0
37 41 32 34 44 31 -192 0
37 41 32 34 44 31 -194 0
37 41 32 34 44 31 -193 0
37 63 32 65 34 31 -206 0
37 63 32 65 34 31 -205 0
37 63 32 65 34 31 -204 0
37 63 32 65 34 31 -203 0
37 63 32 34 66 31 -206 0
37 63 32 34 66 31 -205 0
37 63 32 34 66 31 -204 0
37 63 32 34 66 31 -203 0
37 32 47 34 51 31 -196 0
37 32 47 34 51 31 -198 0
37 32 47 34 51 31 -197 0
37 32 47 34 51 31 -195 0
37 32 47 34 31 52 -196 0
37 32 47 34 31 52 -198 0
37 32 47 34 31 52 -197 0
37 32 47 34 31 52 -195 0
37 32 8 34 7 31 -98 0
37 32 8 34 7 31 -97 0
37 32 8 34 7 31 -99 0
37 32 8 34 7 31 -100 0
37 32 8 34 31 10 -98 0
37 32 8 34 31 10 -97 0
37 32 8 34 31 10 -99 0
37 32 8 34 31 10 -100 0
37 32 73 34 74 31 -209 0
37 32 73 34 74 31 -210 0
37 32 73 34 74 31 -207 0
37 32 73 34 74 31 -208 0
37 32 73 34 31 72 -209 0
37 32 73 34 31 72 -210 0
37 32 73 34 31 72 -207 0
37 32 73 34 31 72 -208 0
37 32 30 34 24 31 -164 0
37 32 30 34 24 31 -163 0
37 32 30 34 24 31 -161 0
37 32 30 34 24 31 -162 0
37 32 30 34 31 27 -164 0
37 32 30 34 31 27 -163 0
37 32 30 34 31 27 -161 0
37 32 30 34 31 27 -162 0
37 32 16 34 18 31 -134 0
37 32 16 34 18 31 -131 0
37 32 16 34 18 31 -132 0
37 32 16 34 18 31 -133 0
37 32 16 34 31 15 -134 0
37 32 16 34 31 15 -131 0
37 32 16 34 31 15 -132 0
37 32 16 34 31 15 -133 0
37 32 84 34 82 31 -211 0
37 32 84 34 82 31 -214 0
37 32 84 34 82 31 -213 0
37 32 84 34 82 31 -212 0
37 32 84 34 31 81 -211 0
37 32 84 34 31 81 -214 0
37 32 84 34 31 81 -213 0
37 32 84 34 31 81 -212 0
37 32 60 34 57 31 -202 0
37 32 60 34 57 31 -201 0
37 32 60 34 57 31 -200 0
37 32 60 34 57 31 -199 0
37 32 60 34 31 62 -202 0
37 32 60 34 31 62 -201 0
37 32 60 34 31 62 -200 0
37 32 60 34 31 62 -199 0
37 32 1 34 3 31 -38 0
37 32 1 34 3 31 -33 0
37 32 1 34 3 31 -35 0
37 32 1 34 3 31 -36 0
37 32 1 34 31 5 -38 0
37 32 1 34 31 5 -33 0
37 32 1 34 31 5 -35 0
37 32 1 34 31 5 -36 0
37 32 43 34 44 31 -191 0
37 32 43 34 44 31 -192 0
37 32 43 34 44 31 -194 0
37 32 43 34 44 31 -193 0
37 32 65 34 66 31 -206 0
37 32 65 34 66 31 -205 0
37 32 65 34 66 31 -204 0
37 32 65 34 66 31 -203 0
37 32 34 51 31 52 -196 0
37 32 34 51 31 52 -198 0
37 32 34 51 31 52 -197 0
37 32 34 51 31 52 -195 0
37 32 34 7 31 10 -98 0
37 32 34 7 31 10 -97 0
37 32 34 7 31 10 -99 0
37 32 34 7 31 10 -100 0
37 32 34 74 31 72 -209 0
37 32 34 74 31 72 -210 0
37 32 34 74 31 72 -207 0
37 32 34 74 31 72 -208 0
37 32 34 24 31 27 -164 0
37 32 34 24 31 27 -163 0
37 32 34 24 31 27 -161 0
37 32 34 24 31 27 -162 0
37 32 34 18 31 15 -134 0
37 32 34 18 31 15 -131 0
37 32 34 18 31 15 -132 0
37 32 34 18 31 15 -133 0
37 32 34 82 31 81 -211 0
37 32 34 82 31 81 -214 0
37 32 34 82 31 81 -213 0
37 32 34 82 31 81 -212 0
37 32 34 57 31 62 -202 0
37 32 34 57 31 62 -201 0
37 32 34 57 31 62 -200 0
37 32 34 57 31 62 -199 0
37 32 34 3 31 5 -38 0
37 32 34 3 31 5 -33 0
37 32 34 3 31 5 -35 0
37 32 34 3 31 5 -36 0
48 9 47 8 51 7 -108 0
48 9 47 8 51 7 -107 0
48 9 47 8 51 7 -105 0
48 9 47 8 51 7 -106 0
48 9 47 8 51 52 -108 0
48 9 47 8 51 52 -107 0
48 9 47 8 51 52 -105 0
48 9 47 8 51 52 -106 0
48 9 47 8 7 10 -108 0
48 9 47 8 7 10 -107 0
48 9 47 8 7 10 -105 0
48 9 47 8 7 10 -106 0
48 9 47 8 52 10 -108 0
48 9 47 8 52 10 -107 0
48 9 47 8 52 10 -105 0
48 9 47 8 52 10 -106 0
48 9 47 51 7 52 -108 0
48 9 47 51 7 52 -107 0
48 9 47 51 7 52 -105 0
48 9 47 51 7 52 -106 0
48 9 47 51 52 10 -108 0
48 9 47 51 52 10 -107 0
48 9 47 51 52 10 -105 0
48 9 47 51 52 10 -106 0
48 9 8 51 7 10 -108 0
48 9 8 51 7 10 -107 0
48 9 8 51 7 10 -105 0
48 9 8 51 7 10 -106 0
48 9 8 7 52 10 -108 0
48 9 8 7 52 10 -107 0
48 9 8 7 52 10 -105 0
48 9 8 7 52 10 -106 0
48 9 51 7 52 10 -108 0
48 9 51 7 52 10 -107 0
48 9 51 7 52 10 -105 0
48 9 51 7 52 10 -106 0
48 77 47 73 51 74 -248 0
48 77 47 73 51 74 -250 0
48 77 47 73 51 74 -249 0
48 77 47 73 51 74 -247 0
48 77 47 73 51 52 -248 0
48 77 47 73 51 52 -250 0
48 77 47 73 51 52 -249 0
48 77 47 73 51 52 -247 0
48 77 47 73 74 72 -248 0
48 77 47 73 74 72 -250 0
48 77 47 73 74 72 -249 0
48 77 47 73 74 72 -247 0
48 77 47 73 52 72 -248 0
48 77 47 73 52 72 -250 0
48 77 47 73 52 72 -249 0
48 77 47 73 52 72 -247 0
48 77 47 51 74 52 -248 0
48 77 47 51 74 52 -250 0
48 77 47 51 74 52 -249 0
48 77 47 51 74 52 -247 0
48 77 47 51 52 72 -248 0
48 77 47 51 52 72 -250 0
48 77 47 51 52 72 -249 0
48 77 47 51 52 72 -247 0
48 77 73 51 74 72 -248 0
48 77 73 51 74 72 -250 0
48 77 73 51 74 72 -249 0
48 77 73 51 74 72 -247 0
48 77 73 74 52 72 -248 0
48 77 73 74 52 72 -250 0
48 77 73 74 52 72 -249 0
48 77 73 74 52 72 -247 0
48 77 51 74 52 72 -248 0
48 77 51 74 52 72 -250 0
48 77 51 74 52 72 -249 0
48 77 51 74 52 72 -247 0
48 23 47 30 51 24 -172 0
48 23 47 30 51 24 -169 0
48 23 47 30 51 24 -170 0
48 23 47 30 51 24 -171 0
48 23 47 30 51 52 -172 0
48 23 47 30 51 52 -169 0
48 23 47 30 51 52 -170 0
48 23 47 30 51 52 -171 0
48 23 47 30 24 27 -172 0
48 23 47 30 24 27 -169 0
48 23 47 30 24 27 -170 0
48 23 47 30 24 27 -171 0
48 23 47 30 52 27 -172 0
48 23 47 30 52 27 -169 0
48 23 47 30 52 27 -170 0
48 23 47 30 52 27 -171 0
48 23 47 51 24 52 -172 0
48 23 47 51 24 52 -169 0
48 23 47 51 24 52 -170 0
48 23 47 51 24 52 -171 0
48 23 47 51 52 27 -172 0
48 23 47 51 52 27 -169 0
48 23 47 51 52 27 -170 0
48 23 47 51 52 27 -171 0
48 23 30 51 24 27 -172 0
48 23 30 51 24 27 -169 0
48 23 30 51 24 27 -170 0
48 23 30 51 24 27 -171 0
48 23 30 24 52 27 -172 0
48 23 30 24 52 27 -169 0
48 23 30 24 52 27 -170 0
48 23 30 24 52 27 -171 0
48 23 51 24 52 27 -172 0
48 23 51 24 52 27 -169 0
48 23 51 24 52 27 -170 0
48 23 51 24 52 27 -171 0
48 21 47 16 51 18 -141 0
48 21 47 16 51 18 -140 0
48 21 47 16 51 18 -139 0
48 21 47 16 51 18 -142 0
48 21 47 16 51 52 -141 0
48 21 47 16 51 52 -140 0
48 21 47 16 51 52 -139 0
48 21 47 16 51 52 -142 0
48 21 47 16 18 15 -141 0
48 21 47 16 18 15 -140 0
48 21 47 16 18 15 -139 0
48 21 47 16 18 15 -142 0
48 21 47 16 52 15 -141 0
48 21 47 16 52 15 -140 0
48 21 47 16 52 15 -139 0
48 21 47 16 52 15 -142 0
48 21 47 51 18 52 -141 0
48 21 47 51 18 52 -140 0
48 21 47 51 18 52 -139 0
48 21 47 51 18 52 -142 0
48 21 47 51 52 15 -141 0
48 21 47 51 52 15 -140 0
48 21 47 51 52 15 -139 0
48 21 47 51 52 15 -142 0
48 21 16 51 18 15 -141 0
48 21 16 51 18 15 -140 0
48 21 16 51 18 15 -139 0
48 21 16 51 18 15 -142 0
48 21 16 18 52 15 -141 0
48 21 16 18 52 15 -140 0
48 21 16 18 52 15 -139 0
48 21 16 18 52 15 -142 0
48 21 51 18 52 15 -141 0
48 21 51 18 52 15 -140 0
48 21 51 18 52 15 -139 0
48 21 51 18 52 15 -142 0
48 85 47 84 51 82 -252 0
48 85 47 84 51 82 -251 0
48 85 47 84 51 82 -253 0
48 85 47 84 51 82 -254 0
48 85 47 84 51 52 -252 0
48 85 47 84 51 52 -251 0
48 85 47 84 51 52 -253 0
48 85 47 84 51 52 -254 0
48 85 47 84 82 81 -252 0
48 85 47 84 82 81 -251 0
48 85 47 84 82 81 -253 0
48 85 47 84 82 81 -254 0
48 85 47 84 52 81 -252 0
48 85 47 84 52 81 -251 0
48 85 47 84 52 81 -253 0
48 85 47 84 52 81 -254 0
48 85 47 51 82 52 -252 0
48 85 47 51 82 52 -251 0
48 85 47 51 82 52 -253 0
48 85 47 51 82 52 -254 0
48 85 47 51 52 81 -252 0
48 85 47 51 52 81 -251 0
48 85 47 51 52 81 -253 0
48 85 47 51 52 81 -254 0
48 85 84 51 82 81 -252 0
48 85 84 51 82 81 -251 0
48 85 84 51 82 81 -253 0
48 85 84 51 82 81 -254 0
48 85 84 82 52 81 -252 0
48 85 84 82 52 81 -251 0
48 85 84 82 52 81 -253 0
48 85 84 82 52 81 -254 0
48 85 51 82 52 81 -252 0
48 85 51 82 52 81 -251 0
48 85 51 82 52 81 -253 0
48 85 51 82 52 81 -254 0
48 61 47 60 51 57 -239 0
48 61 47 60 51 57 -241 0
48 61 47 60 51 57 -240 0
48 61 47 60 51 57 -242 0
48 61 47 60 51 52 -239 0
48 61 47 60 51 52 -241 0
48 61 47 60 51 52 -240 0
48 61 47 60 51 52 -242 0
48 61 47 60 57 62 -239 0
48 61 47 60 57 62 -241 0
48 61 47 60 57 62 -240 0
48 61 47 60 57 62 -242 0
48 61 47 60 52 62 -239 0
48 61 47 60 52 62 -241 0
48 61 47 60 52 62 -240 0
48 61 47 60 52 62 -242 0
48 61 47 51 57 52 -239 0
48 61 47 51 57 52 -241 0
48 61 47 51 57 52 -240 0
48 61 47 51 57 52 -242 0
48 61 47 51 52 62 -239 0
48 61 47 51 52 62 -241 0
48 61 47 51 52 62 -240 0
48 61 47 51 52 62 -242 0
48 61 60 51 57 62 -239 0
48 61 60 51 57 62 -241 0
48 61 60 51 57 62 -240 0
48 61 60 51 57 62 -242 0
48 61 60 57 52 62 -239 0
48 61 60 57 52 62 -241 0
48 61 60 57 52 62 -240 0
48 61 60 57 52 62 -242 0
48 61 51 57 52 62 -239 0
48 61 51 57 52 62 -241 0
48 61 51 57 52 62 -240 0
48 61 51 57 52 62 -242 0
48 4 47 1 51 3 -49 0
48 4 47 1 51 3 -50 0
48 4 47 1 51 3 -53 0
48 4 47 1 51 3 -54 0
48 4 47 1 51 52 -49 0
48 4 47 1 51 52 -50 0
48 4 47 1 51 52 -53 0
48 4 47 1 51 52 -54 0
48 4 47 1 3 5 -49 0
48 4 47 1 3 5 -50 0
48 4 47 1 3 5 -53 0
48 4 47 1 3 5 -54 0
48 4 47 1 52 5 -49 0
48 4 47 1 52 5 -50 0
48 4 47 1 52 5 -53 0
48 4 47 1 52 5 -54 0
48 4 47 51 3 52 -49 0
48 4 47 51 3 52 -50 0
48 4 47 51 3 52 -53 0
48 4 47 51 3 52 -54 0
48 4 47 51 52 5 -49 0
48 4 47 51 52 5 -50 0
48 4 47 51 52 5 -53 0
48 4 47 51 52 5 -54 0
48 4 1 51 3 5 -49 0
48 4 1 51 3 5 -50 0
48 4 1 51 3 5 -53 0
48 4 1 51 3 5 -54 0
48 4 1 3 52 5 -49 0
48 4 1 3 52 5 -50 0
48 4 1 3 52 5 -53 0
48 4 1 3 52 5 -54 0
48 4 51 3 52 5 -49 0
48 4 51 3 52 5 -50 0
48 4 51 3 52 5 -53 0
48 4 51 3 52 5 -54 0
48 41 47 43 51 52 -220 0
48 41 47 43 51 52 -218 0
48 41 47 43 51 52 -217 0
48 41 47 43 51 52 -219 0
48 41 47 51 44 52 -220 0
48 41 47 51 44 52 -218 0
48 41 47 51 44 52 -217 0
48 41 47 51 44 52 -219 0
48 63 47 65 51 52 -246 0
48 63 47 65 51 52 -243 0
48 63 47 65 51 52 -245 0
48 63 47 65 51 52 -244 0
48 63 47 51 66 52 -246 0
48 63 47 51 66 52 -243 0
48 63 47 51 66 52 -245 0
48 63 47 51 66 52 -244 0
48 32 47 34 51 52 -196 0
48 32 47 34 51 52 -198 0
48 32 47 34 51 52 -197 0
48 32 47 34 51 52 -195 0
48 32 47 51 31 52 -196 0
48 32 47 51 31 52 -198 0
48 32 47 51 31 52 -197 0
48 32 47 51 31 52 -195 0
48 47 8 51 7 52 -108 0
48 47 8 51 7 52 -107 0
48 47 8 51 7 52 -105 0
48 47 8 51 7 52 -106 0
48 47 8 51 52 10 -108 0
48 47 8 51 52 10 -107 0
48 47 8 51 52 10 -105 0
48 47 8 51 52 10 -106 0
48 47 73 51 74 52 -248 0
48 47 73 51 74 52 -250 0
48 47 73 51 74 52 -249 0
48 47 73 51 74 52 -247 0
48 47 73 51 52 72 -248 0
48 47 73 51 52 72 -250 0
48 47 73 51 52 72 -249 0
48 47 73 51 52 72 -247 0
48 47 30 51 24 52 -172 0
48 47 30 51 24 52 -169 0
48 47 30 51 24 52 -170 0
48 47 30 51 24 52 -171 0
48 47 30 51 52 27 -172 0
48 47 30 51 52 27 -169 0
48 47 30 51 52 27 -170 0
48 47 30 51 52 27 -171 0
48 47 16 51 18 52 -141 0
48 47 16 51 18 52 -140 0
48 47 16 51 18 52 -139 0
48 47 16 51 18 52 -142 0
48 47 16 51 52 15 -141 0
48 47 16 51 52 15 -140 0
48 47 16 51 52 15 -139 0
48 47 16 51 52 15 -142 0
48 47 84 51 82 52 -252 0
48 47 84 51 82 52 -251 0
48 47 84 51 82 52 -253 0
48 47 84 51 82 52 -254 0
48 47 84 51 52 81 -252 0
48 47 84 51 52 81 -251 0
48 47 84 51 52 81 -253 0
48 47 84 51 52 81 -254 0
48 47 60 51 57 52 -239 0
48 47 60 51 57 52 -241 0
48 47 60 51 57 52 -240 0
48 47 60 51 57 52 -242 0
48 47 60 51 52 62 -239 0
48 47 60 51 52 62 -241 0
48 47 60 51 52 62 -240 0
48 47 60 51 52 62 -242 0
48 47 1 51 3 52 -49 0
48 47 1 51 3 52 -50 0
48 47 1 51 3 52 -53 0
48 47 1 51 3 52 -54 0
48 47 1 51 52 5 -49 0
48 47 1 51 52 5 -50 0
48 47 1 51 52 5 -53 0
48 47 1 51 52 5 -54 0
48 47 43 51 44 52 -220 0
48 47 43 51 44 52 -218 0
48 47 43 51 44 52 -217 0
48 47 43 51 44 52 -219 0
48 47 65 51 66 52 -246 0
48 47 65 51 66 52 -243 0
48 47 65 51 66 52 -245 0
48 47 65 51 66 52 -244 0
48 47 34 51 31 52 -196 0
48 47 34 51 31 52 -198 0
48 47 34 51 31 52 -197 0
48 47 34 51 31 52 -195 0
48 47 51 7 52 10 -108 0
48 47 51 7 52 10 -107 0
48 47 51 7 52 10 -105 0
48 47 51 7 52 10 -106 0
48 47 51 74 52 72 -248 0
48 47 51 74 52 72 -250 0
48 47 51 74 52 72 -249 0
48 47 51 74 52 72 -247 0
48 47 51 24 52 27 -172 0
48 47 51 24 52 27 -169 0
48 47 51 24 52 27 -170 0
48 47 51 24 52 27 -171 0
48 47 51 18 52 15 -141 0
48 47 51 18 52 15 -140 0
48 47 51 18 52 15 -139 0
48 47 51 18 52 15 -142 0
48 47 51 82 52 81 -252 0
48 47 51 82 52 81 -251 0
48 47 51 82 52 81 -253 0
48 47 51 82 52 81 -254 0
48 47 51 57 52 62 -239 0
48 47 51 57 52 62 -241 0
48 47 51 57 52 62 -240 0
48 47 51 57 52 62 -242 0
48 47 51 3 52 5 -49 0
48 47 51 3 52 5 -50 0
48 47 51 3 52 5 -53 0
48 47 51 3 52 5 -54 0
9 77 8 73 7 74 -118 0
9 77 8 73 7 74 -117 0
9 77 8 73 7 74 -119 0
9 77 8 73 7 74 -120 0
9 77 8 73 7 10 -118 0
9 77 8 73 7 10 -117 0
9 77 8 73 7 10 -119 0
9 77 8 73 7 10 -120 0
9 77 8 73 74 72 -118 0
9 77 8 73 74 72 -117 0
9 77 8 73 74 72 -119 0
9 77 8 73 74 72 -120 0
9 77 8 73 10 72 -118 0
9 77 8 73 10 72 -117 0
9 77 8 73 10 72 -119 0
9 77 8 73 10 72 -120 0
9 77 8 7 74 10 -118 0
9 77 8 7 74 10 -117 0
9 77 8 7 74 10 -119 0
9 77 8 7 74 10 -120 0
9 77 8 7 10 72 -118 0
9 77 8 7 10 72 -117 0
9 77 8 7 10 72 -119 0
9 77 8 7 10 72 -120 0
9 77 73 7 74 72 -118 0
9 77 73 7 74 72 -117 0
9 77 73 7 74 72 -119 0
9 77 73 7 74 72 -120 0
9 77 73 74 10 72 -118 0
9 77 73 74 10 72 -117 0
9 77 73 74 10 72 -119 0
9 77 73 74 10 72 -120 0
9 77 7 74 10 72 -118 0
9 77 7 74 10 72 -117 0
9 77 7 74 10 72 -119 0
9 77 7 74 10 72 -120 0
9 23 8 30 7 24 -93 0
9 23 8 30 7 24 -94 0
9 23 8 30 7 24 -96 0
9 23 8 30 7 24 -95 0
9 23 8 30 7 10 -93 0
9 23 8 30 7 10 -94 0
9 23 8 30 7 10 -96 0
9 23 8 30 7 10 -95 0
9 23 8 30 24 27 -93 0
9 23 8 30 24 27 -94 0
9 23 8 30 24 27 -96 0
9 23 8 30 24 27 -95 0
9 23 8 30 10 27 -93 0
9 23 8 30 10 27 -94 0
9 23 8 30 10 27 -96 0
9 23 8 30 10 27 -95 0
9 23 8 7 24 10 -93 0
9 23 8 7 24 10 -94 0
9 23 8 7 24 10 -96 0
9 23 8 7 24 10 -95 0
9 23 8 7 10 27 -93 0
9 23 8 7 10 27 -94 0
9 23 8 7 10 27 -96 0
9 23 8 7 10 27 -95 0
9 23 30 7 24 27 -93 0
9 23 30 7 24 27 -94 0
9 23 30 7 24 27 -96 0
9 23 30 7 24 27 -95 0
9 23 30 24 10 27 -93 0
9 23 30 24 10 27 -94 0
9 23 30 24 10 27 -96 0
9 23 30 24 10 27 -95 0
9 23 7 24 10 27 -93 0
9 23 7 24 10 27 -94 0
9 23 7 24 10 27 -96 0
9 23 7 24 10 27 -95 0
9 21 8 16 7 18 -91 0
9 21 8 16 7 18 -90 0
9 21 8 16 7 18 -92 0
9 21 8 16 7 18 -89 0
9 21 8 16 7 10 -91 0
9 21 8 16 7 10 -90 0
9 21 8 16 7 10 -92 0
9 21 8 16 7 10 -89 0
9 21 8 16 18 15 -91 0
9 21 8 16 18 15 -90 0
9 21 8 16 18 15 -92 0
9 21 8 16 18 15 -89 0
9 21 8 16 10 15 -91 0
9 21 8 16 10 15 -90 0
9 21 8 16 10 15 -92 0
9 21 8 16 10 15 -89 0
9 21 8 7 18 10 -91 0
9 21 8 7 18 10 -90 0
9 21 8 7 18 10 -92 0
9 21 8 7 18 10 -89 0
9 21 8 7 10 15 -91 0
9 21 8 7 10 15 -90 0
9 21 8 7 10 15 -92 0
9 21 8 7 10 15 -89 0
9 21 16 7 18 15 -91 0
9 21 16 7 18 15 -90 0
9 21 16 7 18 15 -92 0
9 21 16 7 18 15 -89 0
9 21 16 18 10 15 -91 0
9 21 16 18 10 15 -90 0
9 21 16 18 10 15 -92 0
9 21 16 18 10 15 -89 0
9 21 7 18 10 15 -91 0
9 21 7 18 10 15 -90 0
9 21 7 18 10 15 -92 0
9 21 7 18 10 15 -89 0
9 85 8 84 7 82 -123 0
9 85 8 84 7 82 -121 0
9 85 8 84 7 82 -124 0
9 85 8 84 7 82 -122 0
9 85 8 84 7 10 -123 0
9 85 8 84 7 10 -121 0
9 85 8 84 7 10 -124 0
9 85 8 84 7 10 -122 0
9 85 8 84 82 81 -123 0
9 85 8 84 82 81 -121 0
9 85 8 84 82 81 -124 0
9 85 8 84 82 81 -122 0
9 85 8 84 10 81 -123 0
9 85 8 84 10 81 -121 0
9 85 8 84 10 81 -124 0
9 85 8 84 10 81 -122 0
9 85 8 7 82 10 -123 0
9 85 8 7 82 10 -121 0
9 85 8 7 82 10 -124 0
9 85 8 7 82 10 -122 0
9 85 8 7 10 81 -123 0
9 85 8 7 10 81 -121 0
9 85 8 7 10 81 -124 0
9 85 8 7 10 81 -122 0
9 85 84 7 82 81 -123 0
9 85 84 7 82 81 -121 0
9 85 84 7 82 81 -124 0
9 85 84 7 82 81 -122 0
9 85 84 82 10 81 -123 0
9 85 84 82 10 81 -121 0
9 85 84 82 10 81 -124 0
9 85 84 82 10 81 -122 0
9 85 7 82 10 81 -123 0
9 85 7 82 10 81 -121 0
9 85 7 82 10 81 -124 0
9 85 7 82 10 81 -122 0
9 61 8 60 7 57 -110 0
9 61 8 60 7 57 -109 0
9 61 8 60 7 57 -111 0
9 61 8 60 7 57 -112 0
9 61 8 60 7 10 -110 0
9 61 8 60 7 10 -109 0
9 61 8 60 7 10 -111 0
9 61 8 60 7 10 -112 0
9 61 8 60 57 62 -110 0
9 61 8 60 57 62 -109 0
9 61 8 60 57 62 -111 0
9 61 8 60 57 62 -112 0
9 61 8 60 10 62 -110 0
9 61 8 60 10 62 -109 0
9 61 8 60 10 62 -111 0
9 61 8 60 10 62 -112 0
9 61 8 7 57 10 -110 0
9 61 8 7 57 10 -109 0
9 61 8 7 57 10 -111 0
9 61 8 7 57 10 -112 0
9 61 8 7 10 62 -110 0
9 61 8 7 10 62 -109 0
9 61 8 7 10 62 -111 0
9 61 8 7 10 62 -112 0
9 61 60 7 57 62 -110 0
9 61 60 7 57 62 -109 0
9 61 60 7 57 62 -111 0
9 61 60 7 57 62 -112 0
9 61 60 57 10 62 -110 0
9 61 60 57 10 62 -109 0
9 61 60 57 10 62 -111 0
9 61 60 57 10 62 -112 0
9 61 7 57 10 62 -110 0
9 61 7 57 10 62 -109 0
9 61 7 57 10 62 -111 0
9 61 7 57 10 62 -112 0
9 4 8 1 7 3 -11 0
9 4 8 1 7 3 -14 0
9 4 8 1 7 3 -13 0
9 4 8 1 7 3 -12 0
9 4 8 1 7 10 -11 0
9 4 8 1 7 10 -14 0
9 4 8 1 7 10 -13 0
9 4 8 1 7 10 -12 0
9 4 8 1 3 5 -11 0
9 4 8 1 3 5 -14 0
9 4 8 1 3 5 -13 0
9 4 8 1 3 5 -12 0
9 4 8 1 10 5 -11 0
9 4 8 1 10 5 -14 0
9 4 8 1 10 5 -13 0
9 4 8 1 10 5 -12 0
9 4 8 7 3 10 -11 0
9 4 8 7 3 10 -14 0
9 4 8 7 3 10 -13 0
9 4 8 7 3 10 -12 0
9 4 8 7 10 5 -11 0
9 4 8 7 10 5 -14 0
9 4 8 7 10 5 -13 0
9 4 8 7 10 5 -12 0
9 4 1 7 3 5 -11 0
9 4 1 7 3 5 -14 0
9 4 1 7 3 5 -13 0
9 4 1 7 3 5 -12 0
9 4 1 3 10 5 -11 0
9 4 1 3 10 5 -14 0
9 4 1 3 10 5 -13 0
9 4 1 3 10 5 -12 0
9 4 7 3 10 5 -11 0
9 4 7 3 10 5 -14 0
9 4 7 3 10 5 -13 0
9 4 7 3 10 5 -12 0
9 41 8 43 7 10 -104 0
9 41 8 43 7 10 -103 0
9 41 8 43 7 10 -102 0
9 41 8 43 7 10 -101 0
9 41 8 7 44 10 -104 0
9 41 8 7 44 10 -103 0
9 41 8 7 44 10 -102 0
9 41 8 7 44 10 -101 0
9 63 8 65 7 10 -116 0
9 63 8 65 7 10 -114 0
9 63 8 65 7 10 -113 0
9 63 8 65 7 10 -115 0
9 63 8 7 66 10 -116 0
9 63 8 7 66 10 -114 0
9 63 8 7 66 10 -113 0
9 63 8 7 66 10 -115 0
9 32 8 34 7 10 -98 0
9 32 8 34 7 10 -97 0
9 32 8 34 7 10 -99 0
9 32 8 34 7 10 -100 0
9 32 8 7 31 10 -98 0
9 32 8 7 31 10 -97 0
9 32 8 7 31 10 -99 0
9 32 8 7 31 10 -100 0
9 47 8 51 7 10 -108 0
9 47 8 51 7 10 -107 0
9 47 8 51 7 10 -105 0
9 47 8 51 7 10 -106 0
9 47 8 7 52 10 -108 0
9 47 8 7 52 10 -107 0
9 47 8 7 52 10 -105 0
9 47 8 7 52 10 -106 0
9 8 73 7 74 10 -118 0
9 8 73 7 74 10 -117 0
9 8 73 7 74 10 -119 0
9 8 73 7 74 10 -120 0
9 8 73 7 10 72 -118 0
9 8 73 7 10 72 -117 0
9 8 73 7 10 72 -119 0
9 8 73 7 10 72 -120 0
9 8 30 7 24 10 -93 0
9 8 30 7 24 10 -94 0
9 8 30 7 24 10 -96 0
9 8 30 7 24 10 -95 0
9 8 30 7 10 27 -93 0
9 8 30 7 10 27 -94 0
9 8 30 7 10 27 -96 0
9 8 30 7 10 27 -95 0
9 8 16 7 18 10 -91 0
9 8 16 7 18 10 -90 0
9 8 16 7 18 10 -92 0
9 8 16 7 18 10 -89 0
9 8 16 7 10 15 -91 0
9 8 16 7 10 15 -90 0
9 8 16 7 10 15 -92 0
9 8 16 7 10 15 -89 0
9 8 84 7 82 10 -123 0
9 8 84 7 82 10 -121 0
9 8 84 7 82 10 -124 0
9 8 84 7 82 10 -122 0
9 8 84 7 10 81 -123 0
9 8 84 7 10 81 -121 0
9 8 84 7 10 81 -124 0
9 8 84 7 10 81 -122 0
9 8 60 7 57 10 -110 0
9 8 60 7 57 10 -109 0
9 8 60 7 57 10 -111 0
9 8 60 7 57 10 -112 0
9 8 60 7 10 62 -110 0
9 8 60 7 10 62 -109 0
9 8 60 7 10 62 -111 0
9 8 60 7 10 62 -112 0
9 8 1 7 3 10 -11 0
9 8 1 7 3 10 -14 0
9 8 1 7 3 10 -13 0
9 8 1 7 3 10 -12 0
9 8 1 7 10 5 -11 0
9 8 1 7 10 5 -14 0
9 8 1 7 10 5 -13 0
9 8 1 7 10 5 -12 0
9 8 43 7 44 10 -104 0
9 8 43 7 44 10 -103 0
9 8 43 7 44 10 -102 0
9 8 43 7 44 10 -101 0
9 8 65 7 66 10 -116 0
9 8 65 7 66 10 -114 0
9 8 65 7 66 10 -113 0
9 8 65 7 66 10 -115 0
9 8 34 7 31 10 -98 0
9 8 34 7 31 10 -97 0
9 8 34 7 31 10 -99 0
9 8 34 7 31 10 -100 0
9 8 51 7 52 10 -108 0
9 8 51 7 52 10 -107 0
9 8 51 7 52 10 -105 0
9 8 51 7 52 10 -106 0
9 8 7 74 10 72 -118 0
9 8 7 74 10 72 -117 0
9 8 7 74 10 72 -119 0
9 8 7 74 10 72 -120 0
9 8 7 24 10 27 -93 0
9 8 7 24 10 27 -94 0
9 8 7 24 10 27 -96 0
9 8 7 24 10 27 -95 0
9 8 7 18 10 15 -91 0
9 8 7 18 10 15 -90 0
9 8 7 18 10 15 -92 0
9 8 7 18 10 15 -89 0
9 8 7 82 10 81 -123 0
9 8 7 82 10 81 -121 0
9 8 7 82 10 81 -124 0
9 8 7 82 10 81 -122 0
9 8 7 57 10 62 -110 0
9 8 7 57 10 62 -109 0
9 8 7 57 10 62 -111 0
9 8 7 57 10 62 -112 0
9 8 7 3 10 5 -11 0
9 8 7 3 10 5 -14 0
9 8 7 3 10 5 -13 0
9 8 7 3 10 5 -12 0
77 23 73 30 74 24 -183 0
77 23 73 30 74 24 -182 0
77 23 73 30 74 24 -181 0
77 23 73 30 74 24 -184 0
77 23 73 30 74 72 -183 0
77 23 73 30 74 72 -182 0
77 23 73 30 74 72 -181 0
77 23 73 30 74 72 -184 0
77 23 73 30 24 27 -183 0
77 23 73 30 24 27 -182 0
77 23 73 30 24 27 -181 0
77 23 73 30 24 27 -184 0
77 23 73 30 72 27 -183 0
77 23 73 30 72 27 -182 0
77 23 73 30 72 27 -181 0
77 23 73 30 72 27 -184 0
77 23 73 74 24 72 -183 0
77 23 73 74 24 72 -182 0
77 23 73 74 24 72 -181 0
77 23 73 74 24 72 -184 0
77 23 73 74 72 27 -183 0
77 23 73 74 72 27 -182 0
77 23 73 74 72 27 -181 0
77 23 73 74 72 27 -184 0
77 23 30 74 24 27 -183 0
77 23 30 74 24 27 -182 0
77 23 30 74 24 27 -181 0
77 23 30 74 24 27 -184 0
77 23 30 24 72 27 -183 0
77 23 30 24 72 27 -182 0
77 23 30 24 72 27 -181 0
77 23 30 24 72 27 -184 0
77 23 74 24 72 27 -183 0
77 23 74 24 72 27 -182 0
77 23 74 24 72 27 -181 0
77 23 74 24 72 27 -184 0
77 21 73 16 74 18 -152 0
77 21 73 16 74 18 -151 0
77 21 73 16 74 18 -153 0
77 21 73 16 74 18 -154 0
77 21 73 16 74 72 -152 0
77 21 73 16 74 72 -151 0
77 21 73 16 74 72 -153 0
77 21 73 16 74 72 -154 0
77 21 73 16 18 15 -152 0
77 21 73 16 18 15 -151 0
77 21 73 16 18 15 -153 0
77 21 73 16 18 15 -154 0
77 21 73 16 72 15 -152 0
77 21 73 16 72 15 -151 0
77 21 73 16 72 15 -153 0
77 21 73 16 72 15 -154 0
77 21 73 74 18 72 -152 0
77 21 73 74 18 72 -151 0
77 21 73 74 18 72 -153 0
77 21 73 74 18 72 -154 0
77 21 73 74 72 15 -152 0
77 21 73 74 72 15 -151 0
77 21 73 74 72 15 -153 0
77 21 73 74 72 15 -154 0
77 21 16 74 18 15 -152 0
77 21 16 74 18 15 -151 0
77 21 16 74 18 15 -153 0
77 21 16 74 18 15 -154 0
77 21 16 18 72 15 -152 0
77 21 16 18 72 15 -151 0
77 21 16 18 72 15 -153 0
77 21 16 18 72 15 -154 0
77 21 74 18 72 15 -152 0
77 21 74 18 72 15 -151 0
77 21 74 18 72 15 -153 0
77 21 74 18 72 15 -154 0
77 85 73 84 74 82 -283 0
77 85 73 84 74 82 -282 0
77 85 73 84 74 82 -284 0
77 85 73 84 74 82 -281 0
77 85 73 84 74 72 -283 0
77 85 73 84 74 72 -282 0
77 85 73 84 74 72 -284 0
77 85 73 84 74 72 -281 0
77 85 73 84 82 81 -283 0
77 85 73 84 82 81 -282 0
77 85 73 84 82 81 -284 0
77 85 73 84 82 81 -281 0
77 85 73 84 72 81 -283 0
77 85 73 84 72 81 -282 0
77 85 73 84 72 81 -284 0
77 85 73 84 72 81 -281 0
77 85 73 74 82 72 -283 0
77 85 73 74 82 72 -282 0
77 85 73 74 82 72 -284 0
77 85 73 74 82 72 -281 0
77 85 73 74 72 81 -283 0
77 85 73 74 72 81 -282 0
77 85 73 74 72 81 -284 0
77 85 73 74 72 81 -281 0
77 85 84 74 82 81 -283 0
77 85 84 74 82 81 -282 0
77 85 84 74 82 81 -284 0
77 85 84 74 82 81 -281 0
77 85 84 82 72 81 -283 0
77 85 84 82 72 81 -282 0
77 85 84 82 72 81 -284 0
77 85 84 82 72 81 -281 0
77 85 74 82 72 81 -283 0
77 85 74 82 72 81 -282 0
77 85 74 82 72 81 -284 0
77 85 74 82 72 81 -281 0
77 61 73 60 74 57 -262 0
77 61 73 60 74 57 -263 0
77 61 73 60 74 57 -264 0
77 61 73 60 74 57 -261 0
77 61 73 60 74 72 -262 0
77 61 73 60 74 72 -263 0
77 61 73 60 74 72 -264 0
77 61 73 60 74 72 -261 0
77 61 73 60 57 62 -262 0
77 61 73 60 57 62 -263 0
77 61 73 60 57 62 -264 0
77 61 73 60 57 62 -261 0
77 61 73 60 72 62 -262 0
77 61 73 60 72 62 -263 0
77 61 73 60 72 62 -264 0
77 61 73 60 72 62 -261 0
77 61 73 74 57 72 -262 0
77 61 73 74 57 72 -263 0
77 61 73 74 57 72 -264 0
77 61 73 74 57 72 -261 0
77 61 73 74 72 62 -262 0
77 61 73 74 72 62 -263 0
77 61 73 74 72 62 -264 0
77 61 73 74 72 62 -261 0
77 61 60 74 57 62 -262 0
77 61 60 74 57 62 -263 0
77 61 60 74 57 62 -264 0
77 61 60 74 57 62 -261 0
77 61 60 57 72 62 -262 0
77 61 60 57 72 62 -263 0
77 61 60 57 72 62 -264 0
77 61 60 57 72 62 -261 0
77 61 74 57 72 62 -262 0
77 61 74 57 72 62 -263 0
77 61 74 57 72 62 -264 0
77 61 74 57 72 62 -261 0
77 4 73 1 74 3 -71 0
77 4 73 1 74 3 -76 0
77 4 73 1 74 3 -75 0
77 4 73 1 74 3 -78 0
77 4 73 1 74 72 -71 0
77 4 73 1 74 72 -76 0
77 4 73 1 74 72 -75 0
77 4 73 1 74 72 -78 0
77 4 73 1 3 5 -71 0
77 4 73 1 3 5 -76 0
77 4 73 1 3 5 -75 0
77 4 73 1 3 5 -78 0
77 4 73 1 72 5 -71 0
77 4 73 1 72 5 -76 0
77 4 73 1 72 5 -75 0
77 4 73 1 72 5 -78 0
77 4 73 74 3 72 -71 0
77 4 73 74 3 72 -76 0
77 4 73 74 3 72 -75 0
77 4 73 74 3 72 -78 0
77 4 73 74 72 5 -71 0
77 4 73 74 72 5 -76 0
77 4 73 74 72 5 -75 0
77 4 73 74 72 5 -78 0
77 4 1 74 3 5 -71 0
77 4 1 74 3 5 -76 0
77 4 1 74 3 5 -75 0
77 4 1 74 3 5 -78 0
77 4 1 3 72 5 -71 0
77 4 1 3 72 5 -76 0
77 4 1 3 72 5 -75 0
77 4 1 3 72 5 -78 0
77 4 74 3 72 5 -71 0
77 4 74 3 72 5 -76 0
77 4 74 3 72 5 -75 0
77 4 74 3 72 5 -78 0
77 41 73 43 74 72 -231 0
77 41 73 43 74 72 -229 0
77 41 73 43 74 72 -232 0
77 41 73 43 74 72 -230 0
77 41 73 74 44 72 -231 0
77 41 73 74 44 72 -229 0
77 41 73 74 44 72 -232 0
77 41 73 74 44 72 -230 0
77 63 73 65 74 72 -274 0
77 63 73 65 74 72 -273 0
77 63 73 65 74 72 -271 0
77 63 73 65 74 72 -272 0
77 63 73 74 66 72 -274 0
77 63 73 74 66 72 -273 0
77 63 73 74 66 72 -271 0
77 63 73 74 66 72 -272 0
77 32 73 34 74 72 -209 0
77 32 73 34 74 72 -210 0
77 32 73 34 74 72 -207 0
77 32 73 34 74 72 -208 0
77 32 73 74 31 72 -209 0
77 32 73 74 31 72 -210 0
77 32 73 74 31 72 -207 0
77 32 73 74 31 72 -208 0
77 47 73 51 74 72 -248 0
77 47 73 51 74 72 -250 0
77 47 73 51 74 72 -249 0
77 47 73 51 74 72 -247 0
77 47 73 74 52 72 -248 0
77 47 73 74 52 72 -250 0
77 47 73 74 52 72 -249 0
77 47 73 74 52 72 -247 0
77 8 73 7 74 72 -118 0
77 8 73 7 74 72 -117 0
77 8 73 7 74 72 -119 0
77 8 73 7 74 72 -120 0
77 8 73 74 10 72 -118 0
77 8 73 74 10 72 -117 0
77 8 73 74 10 72 -119 0
77 8 73 74 10 72 -120 0
77 73 30 74 24 72 -183 0
77 73 30 74 24 72 -182 0
77 73 30 74 24 72 -181 0
77 73 30 74 24 72 -184 0
77 73 30 74 72 27 -183 0
77 73 30 74 72 27 -182 0
77 73 30 74 72 27 -181 0
77 73 30 74 72 27 -184 0
77 73 16 74 18 72 -152 0
77 73 16 74 18 72 -151 0
77 73 16 74 18 72 -153 0
77 73 16 74 18 72 -154 0
77 73 16 74 72 15 -152 0
77 73 16 74 72 15 -151 0
77 73 16 74 72 15 -153 0
77 73 16 74 72 15 -154 0
77 73 84 74 82 72 -283 0
77 73 84 74 82 72 -282 0
77 73 84 74 82 72 -284 0
77 73 84 74 82 72 -281 0
77 73 84 74 72 81 -283 0
77 73 84 74 72 81 -282 0
77 73 84 74 72 81 -284 0
77 73 84 74 72 81 -281 0
77 73 60 74 57 72 -262 0
77 73 60 74 57 72 -263 0
77 73 60 74 57 72 -264 0
77 73 60 74 57 72 -261 0
77 73 60 74 72 62 -262 0
77 73 60 74 72 62 -263 0
77 73 60 74 72 62 -264 0
77 73 60 74 72 62 -261 0
77 73 1 74 3 72 -71 0
77 73 1 74 3 72 -76 0
77 73 1 74 3 72 -75 0
77 73 1 74 3 72 -78 0
77 73 1 74 72 5 -71 0
77 73 1 74 72 5 -76 0
77 73 1 74 72 5 -75 0
77 73 1 74 72 5 -78 0
77 73 43 74 44 72 -231 0
77 73 43 74 44 72 -229 0
77 73 43 74 44 72 -232 0
77 73 43 74 44 72 -230 0
77 73 65 74 66 72 -274 0
77 73 65 74 66 72 -273 0
77 73 65 74 66 72 -271 0
77 73 65 74 66 72 -272 0
77 73 34 74 31 72 -209 0
77 73 34 74 31 72 -210 0
77 73 34 74 31 72 -207 0
77 73 34 74 31 72 -208 0
77 73 51 74 52 72 -248 0
77 73 51 74 52 72 -250 0
77 73 51 74 52 72 -249 0
77 73 51 74 52 72 -247 0
77 73 7 74 10 72 -118 0
77 73 7 74 10 72 -117 0
77 73 7 74 10 72 -119 0
77 73 7 74 10 72 -120 0
77 73 74 24 72 27 -183 0
77 73 74 24 72 27 -182 0
77 73 74 24 72 27 -181 0
77 73 74 24 72 27 -184 0
77 73 74 18 72 15 -152 0
77 73 74 18 72 15 -151 0
77 73 74 18 72 15 -153 0
77 73 74 18 72 15 -154 0
77 73 74 82 72 81 -283 0
77 73 74 82 72 81 -282 0
77 73 74 82 72 81 -284 0
77 73 74 82 72 81 -281 0
77 73 74 57 72 62 -262 0
77 73 74 57 72 62 -263 0
77 73 74 57 72 62 -264 0
77 73 74 57 72 62 -261 0
77 73 74 3 72 5 -71 0
77 73 74 3 72 5 -76 0
77 73 74 3 72 5 -75 0
77 73 74 3 72 5 -78 0
23 21 30 16 24 18 -130 0
23 21 30 16 24 18 -127 0
23 21 30 16 24 18 -128 0
23 21 30 16 24 18 -129 0
23 21 30 16 24 27 -130 0
23 21 30 16 24 27 -127 0
23 21 30 16 24 27 -128 0
23 21 30 16 24 27 -129 0
23 21 30 16 18 15 -130 0
23 21 30 16 18 15 -127 0
23 21 30 16 18 15 -128 0
23 21 30 16 18 15 -129 0
23 21 30 16 27 15 -130 0
23 21 30 16 27 15 -127 0
23 21 30 16 27 15 -128 0
23 21 30 16 27 15 -129 0
23 21 30 24 18 27 -130 0
23 21 30 24 18 27 -127 0
23 21 30 24 18 27 -128 0
23 21 30 24 18 27 -129 0
23 21 30 24 27 15 -130 0
23 21 30 24 27 15 -127 0
23 21 30 24 27 15 -128 0
23 21 30 24 27 15 -129 0
23 21 16 24 18 15 -130 0
23 21 16 24 18 15 -127 0
23 21 16 24 18 15 -128 0
23 21 16 24 18 15 -129 0
23 21 16 18 27 15 -130 0
23 21 16 18 27 15 -127 0
23 21 16 18 27 15 -128 0
23 21 16 18 27 15 -129 0
23 21 24 18 27 15 -130 0
23 21 24 18 27 15 -127 0
23 21 24 18 27 15 -128 0
23 21 24 18 27 15 -129 0
23 85 30 84 24 82 -186 0
23 85 30 84 24 82 -185 0
23 85 30 84 24 82 -188 0
23 85 30 84 24 82 -187 0
23 85 30 84 24 27 -186 0
23 85 30 84 24 27 -185 0
23 85 30 84 24 27 -188 0
23 85 30 84 24 27 -187 0
23 85 30 84 82 81 -186 0
23 85 30 84 82 81 -185 0
23 85 30 84 82 81 -188 0
23 85 30 84 82 81 -187 0
23 85 30 84 27 81 -186 0
23 85 30 84 27 81 -185 0
23 85 30 84 27 81 -188 0
23 85 30 84 27 81 -187 0
23 85 30 24 82 27 -186 0
23 85 30 24 82 27 -185 0
23 85 30 24 82 27 -188 0
23 85 30 24 82 27 -187 0
23 85 30 24 27 81 -186 0
23 85 30 24 27 81 -185 0
23 85 30 24 27 81 -188 0
23 85 30 24 27 81 -187 0
23 85 84 24 82 81 -186 0
23 85 84 24 82 81 -185 0
23 85 84 24 82 81 -188 0
23 85 84 24 82 81 -187 0
23 85 84 82 27 81 -186 0
23 85 84 82 27 81 -185 0
23 85 84 82 27 81 -188 0
23 85 84 82 27 81 -187 0
23 85 24 82 27 81 -186 0
23 85 24 82 27 81 -185 0
23 85 24 82 27 81 -188 0
23 85 24 82 27 81 -187 0
23 61 30 60 24 57 -175 0
23 61 30 60 24 57 -173 0
23 61 30 60 24 57 -176 0
23 61 30 60 24 57 -174 0
23 61 30 60 24 27 -175 0
23 61 30 60 24 27 -173 0
23 61 30 60 24 27 -176 0
23 61 30 60 24 27 -174 0
23 61 30 60 57 62 -175 0
23 61 30 60 57 62 -173 0
23 61 30 60 57 62 -176 0
23 61 30 60 57 62 -174 0
23 61 30 60 27 62 -175 0
23 61 30 60 27 62 -173 0
23 61 30 60 27 62 -176 0
23 61 30 60 27 62 -174 0
23 61 30 24 57 27 -175 0
23 61 30 24 57 27 -173 0
23 61 30 24 57 27 -176 0
23 61 30 24 57 27 -174 0
23 61 30 24 27 62 -175 0
23 61 30 24 27 62 -173 0
23 61 30 24 27 62 -176 0
23 61 30 24 27 62 -174 0
23 61 60 24 57 62 -175 0
23 61 60 24 57 62 -173 0
23 61 60 24 57 62 -176 0
23 61 60 24 57 62 -174 0
23 61 60 57 27 62 -175 0
23 61 60 57 27 62 -173 0
23 61 60 57 27 62 -176 0
23 61 60 57 27 62 -174 0
23 61 24 57 27 62 -175 0
23 61 24 57 27 62 -173 0
23 61 24 57 27 62 -176 0
23 61 24 57 27 62 -174 0
23 4 30 1 24 3 -28 0
23 4 30 1 24 3 -26 0
23 4 30 1 24 3 -25 0
23 4 30 1 24 3 -29 0
23 4 30 1 24 27 -28 0
23 4 30 1 24 27 -26 0
23 4 30 1 24 27 -25 0
23 4 30 1 24 27 -29 0
23 4 30 1 3 5 -28 0
23 4 30 1 3 5 -26 0
23 4 30 1 3 5 -25 0
23 4 30 1 3 5 -29 0
23 4 30 1 27 5 -28 0
23 4 30 1 27 5 -26 0
23 4 30 1 27 5 -25 0
23 4 30 1 27 5 -29 0
23 4 30 24 3 27 -28 0
23 4 30 24 3 27 -26 0
23 4 30 24 3 27 -25 0
23 4 30 24 3 27 -29 0
23 4 30 24 27 5 -28 0
23 4 30 24 27 5 -26 0
23 4 30 24 27 5 -25 0
23 4 30 24 27 5 -29 0
23 4 1 24 3 5 -28 0
23 4 1 24 3 5 -26 0
23 4 1 24 3 5 -25 0
23 4 1 24 3 5 -29 0
23 4 1 3 27 5 -28 0
23 4 1 3 27 5 -26 0
23 4 1 3 27 5 -25 0
23 4 1 3 27 5 -29 0
23 4 24 3 27 5 -28 0
23 4 24 3 27 5 -26 0
23 4 24 3 27 5 -25 0
23 4 24 3 27 5 -29 0
23 41 30 43 24 27 -166 0
23 41 30 43 24 27 -165 0
23 41 30 43 24 27 -168 0
23 41 30 43 24 27 -167 0
23 41 30 24 44 27 -166 0
23 41 30 24 44 27 -165 0
23 41 30 24 44 27 -168 0
23 41 30 24 44 27 -167 0
23 63 30 65 24 27 -180 0
23 63 30 65 24 27 -178 0
23 63 30 65 24 27 -179 0
23 63 30 65 24 27 -177 0
23 63 30 24 66 27 -180 0
23 63 30 24 66 27 -178 0
23 63 30 24 66 27 -179 0
23 63 30 24 66 27 -177 0
23 32 30 34 24 27 -164 0
23 32 30 34 24 27 -163 0
23 32 30 34 24 27 -161 0
23 32 30 34 24 27 -162 0
23 32 30 24 31 27 -164 0
23 32 30 24 31 27 -163 0
23 32 30 24 31 27 -161 0
23 32 30 24 31 27 -162 0
23 47 30 51 24 27 -172 0
23 47 30 51 24 27 -169 0
23 47 30 51 24 27 -170 0
23 47 30 51 24 27 -171 0
23 47 30 24 52 27 -172 0
23 47 30 24 52 27 -169 0
23 47 30 24 52 27 -170 0
23 47 30 24 52 27 -171 0
23 8 30 7 24 27 -93 0
23 8 30 7 24 27 -94 0
23 8 30 7 24 27 -96 0
23 8 30 7 24 27 -95 0
23 8 30 24 10 27 -93 0
23 8 30 24 10 27 -94 0
23 8 30 24 10 27 -96 0
23 8 30 24 10 27 -95 0
23 73 30 74 24 27 -183 0
23 73 30 74 24 27 -182 0
23 73 30 74 24 27 -181 0
23 73 30 74 24 27 -184 0
23 73 30 24 72 27 -183 0
23 73 30 24 72 27 -182 0
23 73 30 24 72 27 -181 0
23 73 30 24 72 27 -184 0
23 30 16 24 18 27 -130 0
23 30 16 24 18 27 -127 0
23 30 16 24 18 27 -128 0
23 30 16 24 18 27 -129 0
23 30 16 24 27 15 -130 0
23 30 16 24 27 15 -127 0
23 30 16 24 27 15 -128 0
23 30 16 24 27 15 -129 0
23 30 84 24 82 27 -186 0
23 30 84 24 82 27 -185 0
23 30 84 24 82 27 -188 0
23 30 84 24 82 27 -187 0
23 30 84 24 27 81 -186 0
23 30 84 24 27 81 -185 0
23 30 84 24 27 81 -188 0
23 30 84 24 27 81 -187 0
23 30 60 24 57 27 -175 0
23 30 60 24 57 27 -173 0
23 30 60 24 57 27 -176 0
23 30 60 24 57 27 -174 0
23 30 60 24 27 62 -175 0
23 30 60 24 27 62 -173 0
23 30 60 24 27 62 -176 0
23 30 60 24 27 62 -174 0
23 30 1 24 3 27 -28 0
23 30 1 24 3 27 -26 0
23 30 1 24 3 27 -25 0
23 30 1 24 3 27 -29 0
23 30 1 24 27 5 -28 0
23 30 1 24 27 5 -26 0
23 30 1 24 27 5 -25 0
23 30 1 24 27 5 -29 0
23 30 43 24 44 27 -166 0
23 30 43 24 44 27 -165 0
23 30 43 24 44 27 -168 0
23 30 43 24 44 27 -167 0
23 30 65 24 66 27 -180 0
23 30 65 24 66 27 -178 0
23 30 65 24 66 27 -179 0
23 30 65 24 66 27 -177 0
23 30 34 24 31 27 -164 0
23 30 34 24 31 27 -163 0
23 30 34 24 31 27 -161 0
23 30 34 24 31 27 -162 0
23 30 51 24 52 27 -172 0
23 30 51 24 52 27 -169 0
23 30 51 24 52 27 -170 0
23 30 51 24 52 27 -171 0
23 30 7 24 10 27 -93 0
23 30 7 24 10 27 -94 0
23 30 7 24 10 27 -96 0
23 30 7 24 10 27 -95 0
23 30 74 24 72 27 -183 0
23 30 74 24 72 27 -182 0
23 30 74 24 72 27 -181 0
23 30 74 24 72 27 -184 0
23 30 24 18 27 15 -130 0
23 30 24 18 27 15 -127 0
23 30 24 18 27 15 -128 0
23 30 24 18 27 15 -129 0
23 30 24 82 27 81 -186 0
23 30 24 82 27 81 -185 0
23 30 24 82 27 81 -188 0
23 30 24 82 27 81 -187 0
23 30 24 57 27 62 -175 0
23 30 24 57 27 62 -173 0
23 30 24 57 27 62 -176 0
23 30 24 57 27 62 -174 0
23 30 24 3 27 5 -28 0
23 30 24 3 27 5 -26 0
23 30 24 3 27 5 -25 0
23 30 24 3 27 5 -29 0
21 85 16 84 18 82 -156 0
21 85 16 84 18 82 -155 0
21 85 16 84 18 82 -158 0
21 85 16 84 18 82 -157 0
21 85 16 84 18 15 -156 0
21 85 16 84 18 15 -155 0
21 85 16 84 18 15 -158 0
21 85 16 84 18 15 -157 0
21 85 16 84 82 81 -156 0
21 85 16 84 82 81 -155 0
21 85 16 84 82 81 -158 0
21 85 16 84 82 81 -157 0
21 85 16 84 15 81 -156 0
21 85 16 84 15 81 -155 0
21 85 16 84 15 81 -158 0
21 85 16 84 15 81 -157 0
21 85 16 18 82 15 -156 0
21 85 16 18 82 15 -155 0
21 85 16 18 82 15 -158 0
21 85 16 18 82 15 -157 0
21 85 16 18 15 81 -156 0
21 85 16 18 15 81 -155 0
21 85 16 18 15 81 -158 0
21 85 16 18 15 81 -157 0
21 85 84 18 82 81 -156 0
21 85 84 18 82 81 -155 0
21 85 84 18 82 81 -158 0
21 85 84 18 82 81 -157 0
21 85 84 82 15 81 -156 0
21 85 84 82 15 81 -155 0
21 85 84 82 15 81 -158 0
21 85 84 82 15 81 -157 0
21 85 18 82 15 81 -156 0
21 85 18 82 15 81 -155 0
21 85 18 82 15 81 -158 0
21 85 18 82 15 81 -157 0
21 61 16 60 18 57 -146 0
21 61 16 60 18 57 -143 0
21 61 16 60 18 57 -144 0
21 61 16 60 18 57 -145 0
21 61 16 60 18 15 -146 0
21 61 16 60 18 15 -143 0
21 61 16 60 18 15 -144 0
21 61 16 60 18 15 -145 0
21 61 16 60 57 62 -146 0
21 61 16 60 57 62 -143 0
21 61 16 60 57 62 -144 0
21 61 16 60 57 62 -145 0
21 61 16 60 15 62 -146 0
21 61 16 60 15 62 -143 0
21 61 16 60 15 62 -144 0
21 61 16 60 15 62 -145 0
21 61 16 18 57 15 -146 0
21 61 16 18 57 15 -143 0
21 61 16 18 57 15 -144 0
21 61 16 18 57 15 -145 0
21 61 16 18 15 62 -146 0
21 61 16 18 15 62 -143 0
21 61 16 18 15 62 -144 0
21 61 16 18 15 62 -145 0
21 61 60 18 57 62 -146 0
21 61 60 18 57 62 -143 0
21 61 60 18 57 62 -144 0
21 61 60 18 57 62 -145 0
21 61 60 57 15 62 -146 0
21 61 60 57 15 62 -143 0
21 61 60 57 15 62 -144 0
21 61 60 57 15 62 -145 0
21 61 18 57 15 62 -146 0
21 61 18 57 15 62 -143 0
21 61 18 57 15 62 -144 0
21 61 18 57 15 62 -145 0
21 4 16 1 18 3 -17 0
21 4 16 1 18 3 -19 0
21 4 16 1 18 3 -20 0
21 4 16 1 18 3 -22 0
21 4 16 1 18 15 -17 0
21 4 16 1 18 15 -19 0
21 4 16 1 18 15 -20 0
21 4 16 1 18 15 -22 0
21 4 16 1 3 5 -17 0
21 4 16 1 3 5 -19 0
21 4 16 1 3 5 -20 0
21 4 16 1 3 5 -22 0
21 4 16 1 15 5 -17 0
21 4 16 1 15 5 -19 0
21 4 16 1 15 5 -20 0
21 4 16 1 15 5 -22 0
21 4 16 18 3 15 -17 0
21 4 16 18 3 15 -19 0
21 4 16 18 3 15 -20 0
21 4 16 18 3 15 -22 0
21 4 16 18 15 5 -17 0
21 4 16 18 15 5 -19 0
21 4 16 18 15 5 -20 0
21 4 16 18 15 5 -22 0
21 4 1 18 3 5 -17 0
21 4 1 18 3 5 -19 0
21 4 1 18 3 5 -20 0
21 4 1 18 3 5 -22 0
21 4 1 3 15 5 -17 0
21 4 1 3 15 5 -19 0
21 4 1 3 15 5 -20 0
21 4 1 3 15 5 -22 0
21 4 18 3 15 5 -17 0
21 4 18 3 15 5 -19 0
21 4 18 3 15 5 -20 0
21 4 18 3 15 5 -22 0
21 41 16 43 18 15 -136 0
21 41 16 43 18 15 -135 0
21 41 16 43 18 15 -137 0
21 41 16 43 18 15 -138 0
21 41 16 18 44 15 -136 0
21 41 16 18 44 15 -135 0
21 41 16 18 44 15 -137 0
21 41 16 18 44 15 -138 0
21 63 16 65 18 15 -150 0
21 63 16 65 18 15 -147 0
21 63 16 65 18 15 -149 0
21 63 16 65 18 15 -148 0
21 63 16 18 66 15 -150 0
21 63 16 18 66 15 -147 0
21 63 16 18 66 15 -149 0
21 63 16 18 66 15 -148 0
21 32 16 34 18 15 -134 0
21 32 16 34 18 15 -131 0
21 32 16 34 18 15 -132 0
21 32 16 34 18 15 -133 0
21 32 16 18 31 15 -134 0
21 32 16 18 31 15 -131 0
21 32 16 18 31 15 -132 0
21 32 16 18 31 15 -133 0
21 47 16 51 18 15 -141 0
21 47 16 51 18 15 -140 0
21 47 16 51 18 15 -139 0
21 47 16 51 18 15 -142 0
21 47 16 18 52 15 -141 0
21 47 16 18 52 15 -140 0
21 47 16 18 52 15 -139 0
21 47 16 18 52 15 -142 0
21 8 16 7 18 15 -91 0
21 8 16 7 18 15 -90 0
21 8 16 7 18 15 -92 0
21 8 16 7 18 15 -89 0
21 8 16 18 10 15 -91 0
21 8 16 18 10 15 -90 0
21 8 16 18 10 15 -92 0
21 8 16 18 10 15 -89 0
21 73 16 74 18 15 -152 0
21 73 16 74 18 15 -151 0
21 73 16 74 18 15 -153 0
21 73 16 74 18 15 -154 0
21 73 16 18 72 15 -152 0
21 73 16 18 72 15 -151 0
21 73 16 18 72 15 -153 0
21 73 16 18 72 15 -154 0
21 30 16 24 18 15 -130 0
21 30 16 24 18 15 -127 0
21 30 16 24 18 15 -128 0
21 30 16 24 18 15 -129 0
21 30 16 18 27 15 -130 0
21 30 16 18 27 15 -127 0
21 30 16 18 27 15 -128 0
21 30 16 18 27 15 -129 0
21 16 84 18 82 15 -156 0
21 16 84 18 82 15 -155 0
21 16 84 18 82 15 -158 0
21 16 84 18 82 15 -157 0
21 16 84 18 15 81 -156 0
21 16 84 18 15 81 -155 0
21 16 84 18 15 81 -158 0
21 16 84 18 15 81 -157 0
21 16 60 18 57 15 -146 0
21 16 60 18 57 15 -143 0
21 16 60 18 57 15 -144 0
21 16 60 18 57 15 -145 0
21 16 60 18 15 62 -146 0
21 16 60 18 15 62 -143 0
21 16 60 18 15 62 -144 0
21 16 60 18 15 62 -145 0
21 16 1 18 3 15 -17 0
21 16 1 18 3 15 -19 0
21 16 1 18 3 15 -20 0
21 16 1 18 3 15 -22 0
21 16 1 18 15 5 -17 0
21 16 1 18 15 5 -19 0
21 16 1 18 15 5 -20 0
21 16 1 18 15 5 -22 0
21 16 43 18 44 15 -136 0
21 16 43 18 44 15 -135 0
21 16 43 18 44 15 -137 0
21 16 43 18 44 15 -138 0
21 16 65 18 66 15 -150 0
21 16 65 18 66 15 -147 0
21 16 65 18 66 15 -149 0
21 16 65 18 66 15 -148 0
21 16 34 18 31 15 -134 0
21 16 34 18 31 15 -131 0
21 16 34 18 31 15 -132 0
21 16 34 18 31 15 -133 0
21 16 51 18 52 15 -141 0
21 16 51 18 52 15 -140 0
21 16 51 18 52 15 -139 0
21 16 51 18 52 15 -142 0
21 16 7 18 10 15 -91 0
21 16 7 18 10 15 -90 0
21 16 7 18 10 15 -92 0
21 16 7 18 10 15 -89 0
21 16 74 18 72 15 -152 0
21 16 74 18 72 15 -151 0
21 16 74 18 72 15 -153 0
21 16 74 18 72 15 -154 0
21 16 24 18 27 15 -130 0
21 16 24 18 27 15 -127 0
21 16 24 18 27 15 -128 0
21 16 24 18 27 15 -129 0
21 16 18 82 15 81 -156 0
21 16 18 82 15 81 -155 0
21 16 18 82 15 81 -158 0
21 16 18 82 15 81 -157 0
21 16 18 57 15 62 -146 0
21 16 18 57 15 62 -143 0
21 16 18 57 15 62 -144 0
21 16 18 57 15 62 -145 0
21 16 18 3 15 5 -17 0
21 16 18 3 15 5 -19 0
21 16 18 3 15 5 -20 0
21 16 18 3 15 5 -22 0
85 61 84 60 82 57 -267 0
85 61 84 60 82 57 -265 0
85 61 84 60 82 57 -268 0
85 61 84 60 82 57 -266 0
85 61 84 60 82 81 -267 0
85 61 84 60 82 81 -265 0
85 61 84 60 82 81 -268 0
85 61 84 60 82 81 -266 0
85 61 84 60 57 62 -267 0
85 61 84 60 57 62 -265 0
85 61 84 60 57 62 -268 0
85 61 84 60 57 62 -266 0
85 61 84 60 81 62 -267 0
85 61 84 60 81 62 -265 0
85 61 84 60 81 62 -268 0
85 61 84 60 81 62 -266 0
85 61 84 82 57 81 -267 0
85 61 84 82 57 81 -265 0
85 61 84 82 57 81 -268 0
85 61 84 82 57 81 -266 0
85 61 84 82 81 62 -267 0
85 61 84 82 81 62 -265 0
85 61 84 82 81 62 -268 0
85 61 84 82 81 62 -266 0
85 61 60 82 57 62 -267 0
85 61 60 82 57 62 -265 0
85 61 60 82 57 62 -268 0
85 61 60 82 57 62 -266 0
85 61 60 57 81 62 -267 0
85 61 60 57 81 62 -265 0
85 61 60 57 81 62 -268 0
85 61 60 57 81 62 -266 0
85 61 82 57 81 62 -267 0
85 61 82 57 81 62 -265 0
85 61 82 57 81 62 -268 0
85 61 82 57 81 62 -266 0
85 4 84 1 82 3 -79 0
85 4 84 1 82 3 -86 0
85 4 84 1 82 3 -80 0
85 4 84 1 82 3 -83 0
85 4 84 1 82 81 -79 0
85 4 84 1 82 81 -86 0
85 4 84 1 82 81 -80 0
85 4 84 1 82 81 -83 0
85 4 84 1 3 5 -79 0
85 4 84 1 3 5 -86 0
85 4 84 1 3 5 -80 0
85 4 84 1 3 5 -83 0
85 4 84 1 81 5 -79 0
85 4 84 1 81 5 -86 0
85 4 84 1 81 5 -80 0
85 4 84 1 81 5 -83 0
85 4 84 82 3 81 -79 0
85 4 84 82 3 81 -86 0
85 4 84 82 3 81 -80 0
85 4 84 82 3 81 -83 0
85 4 84 82 81 5 -79 0
85 4 84 82 81 5 -86 0
85 4 84 82 81 5 -80 0
85 4 84 82 81 5 -83 0
85 4 1 82 3 5 -79 0
85 4 1 82 3 5 -86 0
85 4 1 82 3 5 -80 0
85 4 1 82 3 5 -83 0
85 4 1 3 81 5 -79 0
85 4 1 3 81 5 -86 0
85 4 1 3 81 5 -80 0
85 4 1 3 81 5 -83 0
85 4 82 3 81 5 -79 0
85 4 82 3 81 5 -86 0
85 4 82 3 81 5 -80 0
85 4 82 3 81 5 -83 0
85 41 84 43 82 81 -233 0
85 41 84 43 82 81 -235 0
85 41 84 43 82 81 -234 0
85 41 84 43 82 81 -236 0
85 41 84 82 44 81 -233 0
85 41 84 82 44 81 -235 0
85 41 84 82 44 81 -234 0
85 41 84 82 44 81 -236 0
85 63 84 65 82 81 -278 0
85 63 84 65 82 81 -275 0
85 63 84 65 82 81 -277 0
85 63 84 65 82 81 -276 0
85 63 84 82 66 81 -278 0
85 63 84 82 66 81 -275 0
85 63 84 82 66 81 -277 0
85 63 84 82 66 81 -276 0
85 32 84 34 82 81 -211 0
85 32 84 34 82 81 -214 0
85 32 84 34 82 81 -213 0
85 32 84 34 82 81 -212 0
85 32 84 82 31 81 -211 0
85 32 84 82 31 81 -214 0
85 32 84 82 31 81 -213 0
85 32 84 82 31 81 -212 0
85 47 84 51 82 81 -252 0
85 47 84 51 82 81 -251 0
85 47 84 51 82 81 -253 0
85 47 84 51 82 81 -254 0
85 47 84 82 52 81 -252 0
85 47 84 82 52 81 -251 0
85 47 84 82 52 81 -253 0
85 47 84 82 52 81 -254 0
85 8 84 7 82 81 -123 0
85 8 84 7 82 81 -121 0
85 8 84 7 82 81 -124 0
85 8 84 7 82 81 -122 0
85 8 84 82 10 81 -123 0
85 8 84 82 10 81 -121 0
85 8 84 82 10 81 -124 0
85 8 84 82 10 81 -122 0
85 73 84 74 82 81 -283 0
85 73 84 74 82 81 -282 0
85 73 84 74 82 81 -284 0
85 73 84 74 82 81 -281 0
85 73 84 82 72 81 -283 0
85 73 84 82 72 81 -282 0
85 73 84 82 72 81 -284 0
85 73 84 82 72 81 -281 0
85 30 84 24 82 81 -186 0
85 30 84 24 82 81 -185 0
85 30 84 24 82 81 -188 0
85 30 84 24 82 81 -187 0
85 30 84 82 27 81 -186 0
85 30 84 82 27 81 -185 0
85 30 84 82 27 81 -188 0
85 30 84 82 27 81 -187 0
85 16 84 18 82 81 -156 0
85 16 84 18 82 81 -155 0
85 16 84 18 82 81 -158 0
85 16 84 18 82 81 -157 0
85 16 84 82 15 81 -156 0
85 16 84 82 15 81 -155 0
85 16 84 82 15 81 -158 0
85 16 84 82 15 81 -157 0
85 84 60 82 57 81 -267 0
85 84 60 82 57 81 -265 0
85 84 60 82 57 81 -268 0
85 84 60 82 57 81 -266 0
85 84 60 82 81 62 -267 0
85 84 60 82 81 62 -265 0
85 84 60 82 81 62 -268 0
85 84 60 82 81 62 -266 0
85 84 1 82 3 81 -79 0
85 84 1 82 3 81 -86 0
85 84 1 82 3 81 -80 0
85 84 1 82 3 81 -83 0
85 84 1 82 81 5 -79 0
85 84 1 82 81 5 -86 0
85 84 1 82 81 5 -80 0
85 84 1 82 81 5 -83 0
85 84 43 82 44 81 -233 0
85 84 43 82 44 81 -235 0
85 84 43 82 44 81 -234 0
85 84 43 82 44 81 -236 0
85 84 65 82 66 81 -278 0
85 84 65 82 66 81 -275 0
85 84 65 82 66 81 -277 0
85 84 65 82 66 81 -276 0
85 84 34 82 31 81 -211 0
85 84 34 82 31 81 -214 0
85 84 34 82 31 81 -213 0
85 84 34 82 31 81 -212 0
85 84 51 82 52 81 -252 0
85 84 51 82 52 81 -251 0
85 84 51 82 52 81 -253 0
85 84 51 82 52 81 -254 0
85 84 7 82 10 81 -123 0
85 84 7 82 10 81 -121 0
85 84 7 82 10 81 -124 0
85 84 7 82 10 81 -122 0
85 84 74 82 72 81 -283 0
85 84 74 82 72 81 -282 0
85 84 74 82 72 81 -284 0
85 84 74 82 72 81 -281 0
85 84 24 82 27 81 -186 0
85 84 24 82 27 81 -185 0
85 84 24 82 27 81 -188 0
85 84 24 82 27 81 -187 0
85 84 18 82 15 81 -156 0
85 84 18 82 15 81 -155 0
85 84 18 82 15 81 -158 0
85 84 18 82 15 81 -157 0
85 84 82 57 81 62 -267 0
85 84 82 57 81 62 -265 0
85 84 82 57 81 62 -268 0
85 84 82 57 81 62 -266 0
85 84 82 3 81 5 -79 0
85 84 82 3 81 5 -86 0
85 84 82 3 81 5 -80 0
85 84 82 3 81 5 -83 0
61 4 60 1 57 3 -55 0
61 4 60 1 57 3 -56 0
61 4 60 1 57 3 -59 0
61 4 60 1 57 3 -58 0
61 4 60 1 57 62 -55 0
61 4 60 1 57 62 -56 0
61 4 60 1 57 62 -59 0
61 4 60 1 57 62 -58 0
61 4 60 1 3 5 -55 0
61 4 60 1 3 5 -56 0
61 4 60 1 3 5 -59 0
61 4 60 1 3 5 -58 0
61 4 60 1 62 5 -55 0
61 4 60 1 62 5 -56 0
61 4 60 1 62 5 -59 0
61 4 60 1 62 5 -58 0
61 4 60 57 3 62 -55 0
61 4 60 57 3 62 -56 0
61 4 60 57 3 62 -59 0
61 4 60 57 3 62 -58 0
61 4 60 57 62 5 -55 0
61 4 60 57 62 5 -56 0
61 4 60 57 62 5 -59 0
61 4 60 57 62 5 -58 0
61 4 1 57 3 5 -55 0
61 4 1 57 3 5 -56 0
61 4 1 57 3 5 -59 0
61 4 1 57 3 5 -58 0
61 4 1 3 62 5 -55 0
61 4 1 3 62 5 -56 0
61 4 1 3 62 5 -59 0
61 4 1 3 62 5 -58 0
61 4 57 3 62 5 -55 0
61 4 57 3 62 5 -56 0
61 4 57 3 62 5 -59 0
61 4 57 3 62 5 -58 0
61 41 60 43 57 62 -221 0
61 41 60 43 57 62 -222 0
61 41 60 43 57 62 -224 0
61 41 60 43 57 62 -223 0
61 41 60 57 44 62 -221 0
61 41 60 57 44 62 -222 0
61 41 60 57 44 62 -224 0
61 41 60 57 44 62 -223 0
61 63 60 65 57 62 -260 0
61 63 60 65 57 62 -257 0
61 63 60 65 57 62 -259 0
61 63 60 65 57 62 -258 0
61 63 60 57 66 62 -260 0
61 63 60 57 66 62 -257 0
61 63 60 57 66 62 -259 0
61 63 60 57 66 62 -258 0
61 32 60 34 57 62 -202 0
61 32 60 34 57 62 -201 0
61 32 60 34 57 62 -200 0
61 32 60 34 57 62 -199 0
61 32 60 57 31 62 -202 0
61 32 60 57 31 62 -201 0
61 32 60 57 31 62 -200 0
61 32 60 57 31 62 -199 0
61 47 60 51 57 62 -239 0
61 47 60 51 57 62 -241 0
61 47 60 51 57 62 -240 0
61 47 60 51 57 62 -242 0
61 47 60 57 52 62 -239 0
61 47 60 57 52 62 -241 0
61 47 60 57 52 62 -240 0
61 47 60 57 52 62 -242 0
61 8 60 7 57 62 -110 0
61 8 60 7 57 62 -109 0
61 8 60 7 57 62 -111 0
61 8 60 7 57 62 -112 0
61 8 60 57 10 62 -110 0
61 8 60 57 10 62 -109 0
61 8 60 57 10 62 -111 0
61 8 60 57 10 62 -112 0
61 73 60 74 57 62 -262 0
61 73 60 74 57 62 -263 0
61 73 60 74 57 62 -264 0
61 73 60 74 57 62 -261 0
61 73 60 57 72 62 -262 0
61 73 60 57 72 62 -263 0
61 73 60 57 72 62 -264 0
61 73 60 57 72 62 -261 0
61 30 60 24 57 62 -175 0
61 30 60 24 57 62 -173 0
61 30 60 24 57 62 -176 0
61 30 60 24 57 62 -174 0
61 30 60 57 27 62 -175 0
61 30 60 57 27 62 -173 0
61 30 60 57 27 62 -176 0
61 30 60 57 27 62 -174 0
61 16 60 18 57 62 -146 0
61 16 60 18 57 62 -143 0
61 16 60 18 57 62 -144 0
61 16 60 18 57 62 -145 0
61 16 60 57 15 62 -146 0
61 16 60 57 15 62 -143 0
61 16 60 57 15 62 -144 0
61 16 60 57 15 62 -145 0
61 84 60 82 57 62 -267 0
61 84 60 82 57 62 -265 0
61 84 60 82 57 62 -268 0
61 84 60 82 57 62 -266 0
61 84 60 57 81 62 -267 0
61 84 60 57 81 62 -265 0
61 84 60 57 81 62 -268 0
61 84 60 57 81 62 -266 0
61 60 1 57 3 62 -55 0
61 60 1 57 3 62 -56 0
61 60 1 57 3 62 -59 0
61 60 1 57 3 62 -58 0
61 60 1 57 62 5 -55 0
61 60 1 57 62 5 -56 0
61 60 1 57 62 5 -59 0
61 60 1 57 62 5 -58 0
61 60 43 57 44 62 -221 0
61 60 43 57 44 62 -222 0
61 60 43 57 44 62 -224 0
61 60 43 57 44 62 -223 0
61 60 65 57 66 62 -260 0
61 60 65 57 66 62 -257 0
61 60 65 57 66 62 -259 0
61 60 65 57 66 62 -258 0
61 60 34 57 31 62 -202 0
61 60 34 57 31 62 -201 0
61 60 34 57 31 62 -200 0
61 60 34 57 31 62 -199 0
61 60 51 57 52 62 -239 0
61 60 51 57 52 62 -241 0
61 60 51 57 52 62 -240 0
61 60 51 57 52 62 -242 0
61 60 7 57 10 62 -110 0
61 60 7 57 10 62 -109 0
61 60 7 57 10 62 -111 0
61 60 7 57 10 62 -112 0
61 60 74 57 72 62 -262 0
61 60 74 57 72 62 -263 0
61 60 74 57 72 62 -264 0
61 60 74 57 72 62 -261 0
61 60 24 57 27 62 -175 0
61 60 24 57 27 62 -173 0
61 60 24 57 27 62 -176 0
61 60 24 57 27 62 -174 0
61 60 18 57 15 62 -146 0
61 60 18 57 15 62 -143 0
61 60 18 57 15 62 -144 0
61 60 18 57 15 62 -145 0
61 60 82 57 81 62 -267 0
61 60 82 57 81 62 -265 0
61 60 82 57 81 62 -268 0
61 60 82 57 81 62 -266 0
61 60 57 3 62 5 -55 0
61 60 57 3 62 5 -56 0
61 60 57 3 62 5 -59 0
61 60 57 3 62 5 -58 0
4 41 1 43 3 5 -46 0
4 41 1 43 3 5 -45 0
4 41 1 43 3 5 -39 0
4 41 1 43 3 5 -40 0
4 41 1 3 44 5 -46 0
4 41 1 3 44 5 -45 0
4 41 1 3 44 5 -39 0
4 41 1 3 44 5 -40 0
4 63 1 65 3 5 -69 0
4 63 1 65 3 5 -68 0
4 63 1 65 3 5 -67 0
4 63 1 65 3 5 -70 0
4 63 1 3 66 5 -69 0
4 63 1 3 66 5 -68 0
4 63 1 3 66 5 -67 0
4 63 1 3 66 5 -70 0
4 32 1 34 3 5 -38 0
4 32 1 34 3 5 -33 0
4 32 1 34 3 5 -35 0
4 32 1 34 3 5 -36 0
4 32 1 3 31 5 -38 0
4 32 1 3 31 5 -33 0
4 32 1 3 31 5 -35 0
4 32 1 3 31 5 -36 0
4 47 1 51 3 5 -49 0
4 47 1 51 3 5 -50 0
4 47 1 51 3 5 -53 0
4 47 1 51 3 5 -54 0
4 47 1 3 52 5 -49 0
4 47 1 3 52 5 -50 0
4 47 1 3 52 5 -53 0
4 47 1 3 52 5 -54 0
4 8 1 7 3 5 -11 0
4 8 1 7 3 5 -14 0
4 8 1 7 3 5 -13 0
4 8 1 7 3 5 -12 0
4 8 1 3 10 5 -11 0
4 8 1 3 10 5 -14 0
4 8 1 3 10 5 -13 0
4 8 1 3 10 5 -12 0
4 73 1 74 3 5 -71 0
4 73 1 74 3 5 -76 0
4 73 1 74 3 5 -75 0
4 73 1 74 3 5 -78 0
4 73 1 3 72 5 -71 0
4 73 1 3 72 5 -76 0
4 73 1 3 72 5 -75 0
4 73 1 3 72 5 -78 0
4 30 1 24 3 5 -28 0
4 30 1 24 3 5 -26 0
4 30 1 24 3 5 -25 0
4 30 1 24 3 5 -29 0
4 30 1 3 27 5 -28 0
4 30 1 3 27 5 -26 0
4 30 1 3 27 5 -25 0
4 30 1 3 27 5 -29 0
4 16 1 18 3 5 -17 0
4 16 1 18 3 5 -19 0
4 16 1 18 3 5 -20 0
4 16 1 18 3 5 -22 0
4 16 1 3 15 5 -17 0
4 16 1 3 15 5 -19 0
4 16 1 3 15 5 -20 0
4 16 1 3 15 5 -22 0
4 84 1 82 3 5 -79 0
4 84 1 82 3 5 -86 0
4 84 1 82 3 5 -80 0
4 84 1 82 3 5 -83 0
4 84 1 3 81 5 -79 0
4 84 1 3 81 5 -86 0
4 84 1 3 81 5 -80 0
4 84 1 3 81 5 -83 0
4 60 1 57 3 5 -55 0
4 60 1 57 3 5 -56 0
4 60 1 57 3 5 -59 0
4 60 1 57 3 5 -58 0
4 60 1 3 62 5 -55 0
4 60 1 3 62 5 -56 0
4 60 1 3 62 5 -59 0
4 60 1 3 62 5 -58 0
4 1 43 3 44 5 -46 0
4 1 43 3 44 5 -45 0
4 1 43 3 44 5 -39 0
4 1 43 3 44 5 -40 0
4 1 65 3 66 5 -69 0
4 1 65 3 66 5 -68 0
4 1 65 3 66 5 -67 0
4 1 65 3 66 5 -70 0
4 1 34 3 31 5 -38 0
4 1 34 3 31 5 -33 0
4 1 34 3 31 5 -35 0
4 1 34 3 31 5 -36 0
4 1 51 3 52 5 -49 0
4 1 51 3 52 5 -50 0
4 1 51 3 52 5 -53 0
4 1 51 3 52 5 -54 0
4 1 7 3 10 5 -11 0
4 1 7 3 10 5 -14 0
4 1 7 3 10 5 -13 0
4 1 7 3 10 5 -12 0
4 1 74 3 72 5 -71 0
4 1 74 3 72 5 -76 0
4 1 74 3 72 5 -75 0
4 1 74 3 72 5 -78 0
4 1 24 3 27 5 -28 0
4 1 24 3 27 5 -26 0
4 1 24 3 27 5 -25 0
4 1 24 3 27 5 -29 0
4 1 18 3 15 5 -17 0
4 1 18 3 15 5 -19 0
4 1 18 3 15 5 -20 0
4 1 18 3 15 5 -22 0
4 1 82 3 81 5 -79 0
4 1 82 3 81 5 -86 0
4 1 82 3 81 5 -80 0
4 1 82 3 81 5 -83 0
4 1 57 3 62 5 -55 0
4 1 57 3 62 5 -56 0
4 1 57 3 62 5 -59 0
4 1 57 3 62 5 -58 0
41 63 43 65 44 66 -225 0
41 63 43 65 44 66 -228 0
41 63 43 65 44 66 -227 0
41 63 43 65 44 66 -226 0
41 32 43 34 44 31 -191 0
41 32 43 34 44 31 -192 0
41 32 43 34 44 31 -194 0
41 32 43 34 44 31 -193 0
41 47 43 51 44 52 -220 0
41 47 43 51 44 52 -218 0
41 47 43 51 44 52 -217 0
41 47 43 51 44 52 -219 0
41 8 43 7 44 10 -104 0
41 8 43 7 44 10 -103 0
41 8 43 7 44 10 -102 0
41 8 43 7 44 10 -101 0
41 73 43 74 44 72 -231 0
41 73 43 74 44 72 -229 0
41 73 43 74 44 72 -232 0
41 73 43 74 44 72 -230 0
41 30 43 24 44 27 -166 0
41 30 43 24 44 27 -165 0
41 30 43 24 44 27 -168 0
41 30 43 24 44 27 -167 0
41 16 43 18 44 15 -136 0
41 16 43 18 44 15 -135 0
41 16 43 18 44 15 -137 0
41 16 43 18 44 15 -138 0
41 84 43 82 44 81 -233 0
41 84 43 82 44 81 -235 0
41 84 43 82 44 81 -234 0
41 84 43 82 44 81 -236 0
41 60 43 57 44 62 -221 0
41 60 43 57 44 62 -222 0
41 60 43 57 44 62 -224 0
41 60 43 57 44 62 -223 0
41 1 43 3 44 5 -46 0
41 1 43 3 44 5 -45 0
41 1 43 3 44 5 -39 0
41 1 43 3 44 5 -40 0
63 32 65 34 66 31 -206 0
63 32 65 34 66 31 -205 0
63 32 65 34 66 31 -204 0
63 32 65 34 66 31 -203 0
63 47 65 51 66 52 -246 0
63 47 65 51 66 52 -243 0
63 47 65 51 66 52 -245 0
63 47 65 51 66 52 -244 0
63 8 65 7 66 10 -116 0
63 8 65 7 66 10 -114 0
63 8 65 7 66 10 -113 0
63 8 65 7 66 10 -115 0
63 73 65 74 66 72 -274 0
63 73 65 74 66 72 -273 0
63 73 65 74 66 72 -271 0
63 73 65 74 66 72 -272 0
63 30 65 24 66 27 -180 0
63 30 65 24 66 27 -178 0
63 30 65 24 66 27 -179 0
63 30 65 24 66 27 -177 0
63 16 65 18 66 15 -150 0
63 16 65 18 66 15 -147 0
63 16 65 18 66 15 -149 0
63 16 65 18 66 15 -148 0
63 84 65 82 66 81 -278 0
63 84 65 82 66 81 -275 0
63 84 65 82 66 81 -277 0
63 84 65 82 66 81 -276 0
63 60 65 57 66 62 -260 0
63 60 65 57 66 62 -257 0
63 60 65 57 66 62 -259 0
63 60 65 57 66 62 -258 0
63 1 65 3 66 5 -69 0
63 1 65 3 66 5 -68 0
63 1 65 3 66 5 -67 0
63 1 65 3 66 5 -70 0
32 47 34 51 31 52 -196 0
32 47 34 51 31 52 -198 0
32 47 34 51 31 52 -197 0
32 47 34 51 31 52 -195 0
32 8 34 7 31 10 -98 0
32 8 34 7 31 10 -97 0
32 8 34 7 31 10 -99 0
32 8 34 7 31 10 -100 0
32 73 34 74 31 72 -209 0
32 73 34 74 31 72 -210 0
32 73 34 74 31 72 -207 0
32 73 34 74 31 72 -208 0
32 30 34 24 31 27 -164 0
32 30 34 24 31 27 -163 0
32 30 34 24 31 27 -161 0
32 30 34 24 31 27 -162 0
32 16 34 18 31 15 -134 0
32 16 34 18 31 15 -131 0
32 16 34 18 31 15 -132 0
32 16 34 18 31 15 -133 0
32 84 34 82 31 81 -211 0
32 84 34 82 31 81 -214 0
32 84 34 82 31 81 -213 0
32 84 34 82 31 81 -212 0
32 60 34 57 31 62 -202 0
32 60 34 57 31 62 -201 0
32 60 34 57 31 62 -200 0
32 60 34 57 31 62 -199 0
32 1 34 3 31 5 -38 0
32 1 34 3 31 5 -33 0
32 1 34 3 31 5 -35 0
32 1 34 3 31 5 -36 0
47 8 51 7 52 10 -108 0
47 8 51 7 52 10 -107 0
47 8 51 7 52 10 -105 0
47 8 51 7 52 10 -106 0
47 73 51 74 52 72 -248 0
47 73 51 74 52 72 -250 0
47 73 51 74 52 72 -249 0
47 73 51 74 52 72 -247 0
47 30 51 24 52 27 -172 0
47 30 51 24 52 27 -169 0
47 30 51 24 52 27 -170 0
47 30 51 24 52 27 -171 0
47 16 51 18 52 15 -141 0
47 16 51 18 52 15 -140 0
47 16 51 18 52 15 -139 0
47 16 51 18 52 15 -142 0
47 84 51 82 52 81 -252 0
47 84 51 82 52 81 -251 0
47 84 51 82 52 81 -253 0
47 84 51 82 52 81 -254 0
47 60 51 57 52 62 -239 0
47 60 51 57 52 62 -241 0
47 60 51 57 52 62 -240 0
47 60 51 57 52 62 -242 0
47 1 51 3 52 5 -49 0
47 1 51 3 52 5 -50 0
47 1 51 3 52 5 -53 0
47 1 51 3 52 5 -54 0
8 73 7 74 10 72 -118 0
8 73 7 74 10 72 -117 0
8 73 7 74 10 72 -119 0
8 73 7 74 10 72 -120 0
8 30 7 24 10 27 -93 0
8 30 7 24 10 27 -94 0
8 30 7 24 10 27 -96 0
8 30 7 24 10 27 -95 0
8 16 7 18 10 15 -91 0
8 16 7 18 10 15 -90 0
8 16 7 18 10 15 -92 0
8 16 7 18 10 15 -89 0
8 84 7 82 10 81 -123 0
8 84 7 82 10 81 -121 0
8 84 7 82 10 81 -124 0
8 84 7 82 10 81 -122 0
8 60 7 57 10 62 -110 0
8 60 7 57 10 62 -109 0
8 60 7 57 10 62 -111 0
8 60 7 57 10 62 -112 0
8 1 7 3 10 5 -11 0
8 1 7 3 10 5 -14 0
8 1 7 3 10 5 -13 0
8 1 7 3 10 5 -12 0
73 30 74 24 72 27 -183 0
73 30 74 24 72 27 -182 0
73 30 74 24 72 27 -181 0
73 30 74 24 72 27 -184 0
73 16 74 18 72 15 -152 0
73 16 74 18 72 15 -151 0
73 16 74 18 72 15 -153 0
73 16 74 18 72 15 -154 0
73 84 74 82 72 81 -283 0
73 84 74 82 72 81 -282 0
73 84 74 82 72 81 -284 0
73 84 74 82 72 81 -281 0
73 60 74 57 72 62 -262 0
73 60 74 57 72 62 -263 0
73 60 74 57 72 62 -264 0
73 60 74 57 72 62 -261 0
73 1 74 3 72 5 -71 0
73 1 74 3 72 5 -76 0
73 1 74 3 72 5 -75 0
73 1 74 3 72 5 -78 0
30 16 24 18 27 15 -130 0
30 16 24 18 27 15 -127 0
30 16 24 18 27 15 -128 0
30 16 24 18 27 15 -129 0
30 84 24 82 27 81 -186 0
30 84 24 82 27 81 -185 0
30 84 24 82 27 81 -188 0
30 84 24 82 27 81 -187 0
30 60 24 57 27 62 -175 0
30 60 24 57 27 62 -173 0
30 60 24 57 27 62 -176 0
30 60 24 57 27 62 -174 0
30 1 24 3 27 5 -28 0
30 1 24 3 27 5 -26 0
30 1 24 3 27 5 -25 0
30 1 24 3 27 5 -29 0
16 84 18 82 15 81 -156 0
16 84 18 82 15 81 -155 0
16 84 18 82 15 81 -158 0
16 84 18 82 15 81 -157 0
16 60 18 57 15 62 -146 0
16 60 18 57 15 62 -143 0
16 60 18 57 15 62 -144 0
16 60 18 57 15 62 -145 0
16 1 18 3 15 5 -17 0
16 1 18 3 15 5 -19 0
16 1 18 3 15 5 -20 0
16 1 18 3 15 5 -22 0
84 60 82 57 81 62 -267 0
84 60 82 57 81 62 -265 0
84 60 82 57 81 62 -268 0
84 60 82 57 81 62 -266 0
84 1 82 3 81 5 -79 0
84 1 82 3 81 5 -86 0
84 1 82 3 81 5 -80 0
84 1 82 3 81 5 -83 0
60 1 57 3 62 5 -55 0
60 1 57 3 62 5 -56 0
60 1 57 3 62 5 -59 0
60 1 57 3 62 5 -58 0
42 64 41 63 43 65 44 -225 0
42 64 41 63 43 65 44 -228 0
42 64 41 63 43 65 44 -227 0
42 64 41 63 43 65 44 -226 0
42 64 41 63 43 65 66 -225 0
42 64 41 63 43 65 66 -228 0
42 64 41 63 43 65 66 -227 0
42 64 41 63 43 65 66 -226 0
42 64 41 63 43 44 66 -225 0
42 64 41 63 43 44 66 -228 0
42 64 41 63 43 44 66 -227 0
42 64 41 63 43 44 66 -226 0
42 64 41 63 65 44 66 -225 0
42 64 41 63 65 44 66 -228 0
42 64 41 63 65 44 66 -227 0
42 64 41 63 65 44 66 -226 0
42 64 41 43 65 44 66 -225 0
42 64 41 43 65 44 66 -228 0
42 64 41 43 65 44 66 -227 0
42 64 41 43 65 44 66 -226 0
42 64 63 43 65 44 66 -225 0
42 64 63 43 65 44 66 -228 0
42 64 63 43 65 44 66 -227 0
42 64 63 43 65 44 66 -226 0
42 37 41 32 43 34 44 -191 0
42 37 41 32 43 34 44 -192 0
42 37 41 32 43 34 44 -194 0
42 37 41 32 43 34 44 -193 0
42 37 41 32 43 34 31 -191 0
42 37 41 32 43 34 31 -192 0
42 37 41 32 43 34 31 -194 0
42 37 41 32 43 34 31 -193 0
42 37 41 32 43 44 31 -191 0
42 37 41 32 43 44 31 -192 0
42 37 41 32 43 44 31 -194 0
42 37 41 32 43 44 31 -193 0
42 37 41 32 34 44 31 -191 0
42 37 41 32 34 44 31 -192 0
42 37 41 32 34 44 31 -194 0
42 37 41 32 34 44 31 -193 0
42 37 41 43 34 44 31 -191 0
42 37 41 43 34 44 31 -192 0
42 37 41 43 34 44 31 -194 0
42 37 41 43 34 44 31 -193 0
42 37 32 43 34 44 31 -191 0
42 37 32 43 34 44 31 -192 0
42 37 32 43 34 44 31 -194 0
42 37 32 43 34 44 31 -193 0
42 48 41 47 43 51 44 -220 0
42 48 41 47 43 51 44 -218 0
42 48 41 47 43 51 44 -217 0
42 48 41 47 43 51 44 -219 0
42 48 41 47 43 51 52 -220 0
42 48 41 47 43 51 52 -218 0
42 48 41 47 43 51 52 -217 0
42 48 41 47 43 51 52 -219 0
42 48 41 47 43 44 52 -220 0
42 48 41 47 43 44 52 -218 0
42 48 41 47 43 44 52 -217 0
42 48 41 47 43 44 52 -219 0
42 48 41 47 51 44 52 -220 0
42 48 41 47 51 44 52 -218 0
42 48 41 47 51 44 52 -217 0
42 48 41 47 51 44 52 -219 0
42 48 41 43 51 44 52 -220 0
42 48 41 43 51 44 52 -218 0
42 48 41 43 51 44 52 -217 0
42 48 41 43 51 44 52 -219 0
42 48 47 43 51 44 52 -220 0
42 48 47 43 51 44 52 -218 0
42 48 47 43 51 44 52 -217 0
42 48 47 43 51 44 52 -219 0
42 9 41 8 43 7 44 -104 0
42 9 41 8 43 7 44 -103 0
42 9 41 8 43 7 44 -102 0
42 9 41 8 43 7 44 -101 0
42 9 41 8 43 7 10 -104 0
42 9 41 8 43 7 10 -103 0
42 9 41 8 43 7 10 -102 0
42 9 41 8 43 7 10 -101 0
42 9 41 8 43 44 10 -104 0
42 9 41 8 43 44 10 -103 0
42 9 41 8 43 44 10 -102 0
42 9 41 8 43 44 10 -101 0
42 9 41 8 7 44 10 -104 0
42 9 41 8 7 44 10 -103 0
42 9 41 8 7 44 10 -102 0
42 9 41 8 7 44 10 -101 0
42 9 41 43 7 44 10 -104 0
42 9 41 43 7 44 10 -103 0
42 9 41 43 7 44 10 -102 0
42 9 41 43 7 44 10 -101 0
42 9 8 43 7 44 10 -104 0
42 9 8 43 7 44 10 -103 0
42 9 8 43 7 44 10 -102 0
42 9 8 43 7 44 10 -101 0
42 77 41 73 43 74 44 -231 0
42 77 41 73 43 74 44 -229 0
42 77 41 73 43 74 44 -232 0
42 77 41 73 43 74 44 -230 0
42 77 41 73 43 74 72 -231 0
42 77 41 73 43 74 72 -229 0
42 77 41 73 43 74 72 -232 0
42 77 41 73 43 74 72 -230 0
42 77 41 73 43 44 72 -231 0
42 77 41 73 43 44 72 -229 0
42 77 41 73 43 44 72 -232 0
42 77 41 73 43 44 72 -230 0
42 77 41 73 74 44 72 -231 0
42 77 41 73 74 44 72 -229 0
42 77 41 73 74 44 72 -232 0
42 77 41 73 74 44 72 -230 0
42 77 41 43 74 44 72 -231 0
42 77 41 43 74 44 72 -229 0
42 77 41 43 74 44 72 -232 0
42 77 41 43 74 44 72 -230 0
42 77 73 43 74 44 72 -231 0
42 77 73 43 74 44 72 -229 0
42 77 73 43 74 44 72 -232 0
42 77 73 43 74 44 72 -230 0
42 23 41 30 43 24 44 -166 0
42 23 41 30 43 24 44 -165 0
42 23 41 30 43 24 44 -168 0
42 23 41 30 43 24 44 -167 0
42 23 41 30 43 24 27 -166 0
42 23 41 30 43 24 27 -165 0
42 23 41 30 43 24 27 -168 0
42 23 41 30 43 24 27 -167 0
42 23 41 30 43 44 27 -166 0
42 23 41 30 43 44 27 -165 0
42 23 41 30 43 44 27 -168 0
42 23 41 30 43 44 27 -167 0
42 23 41 30 24 44 27 -166 0
42 23 41 30 24 44 27 -165 0
42 23 41 30 24 44 27 -168 0
42 23 41 30 24 44 27 -167 0
42 23 41 43 24 44 27 -166 0
42 23 41 43 24 44 27 -165 0
42 23 41 43 24 44 27 -168 0
42 23 41 43 24 44 27 -167 0
42 23 30 43 24 44 27 -166 0
42 23 30 43 24 44 27 -165 0
42 23 30 43 24 44 27 -168 0
42 23 30 43 24 44 27 -167 0
42 21 41 16 43 18 44 -136 0
42 21 41 16 43 18 44 -135 0
42 21 41 16 43 18 44 -137 0
42 21 41 16 43 18 44 -138 0
42 21 41 16 43 18 15 -136 0
42 21 41 16 43 18 15 -135 0
42 21 41 16 43 18 15 -137 0
42 21 41 16 43 18 15 -138 0
42 21 41 16 43 44 15 -136 0
42 21 41 16 43 44 15 -135 0
42 21 41 16 43 44 15 -137 0
42 21 41 16 43 44 15 -138 0
42 21 41 16 18 44 15 -136 0
42 21 41 16 18 44 15 -135 0
42 21 41 16 18 44 15 -137 0
42 21 41 16 18 44 15 -138 0
42 21 41 43 18 44 15 -136 0
42 21 41 43 18 44 15 -135 0
42 21 41 43 18 44 15 -137 0
42 21 41 43 18 44 15 -138 0
42 21 16 43 18 44 15 -136 0
42 21 16 43 18 44 15 -135 0
42 21 16 43 18 44 15 -137 0
42 21 16 43 18 44 15 -138 0
42 85 41 84 43 82 44 -233 0
42 85 41 84 43 82 44 -235 0
42 85 41 84 43 82 44 -234 0
42 85 41 84 43 82 44 -236 0
42 85 41 84 43 82 81 -233 0
42 85 41 84 43 82 81 -235 0
42 85 41 84 43 82 81 -234 0
42 85 41 84 43 82 81 -236 0
42 85 41 84 43 44 81 -233 0
42 85 41 84 43 44 81 -235 0
42 85 41 84 43 44 81 -234 0
42 85 41 84 43 44 81 -236 0
42 85 41 84 82 44 81 -233 0
42 85 41 84 82 44 81 -235 0
42 85 41 84 82 44 81 -234 0
42 85 41 84 82 44 81 -236 0
42 85 41 43 82 44 81 -233 0
42 85 41 43 82 44 81 -235 0
42 85 41 43 82 44 81 -234 0
42 85 41 43 82 44 81 -236 0
42 85 84 43 82 44 81 -233 0
42 85 84 43 82 44 81 -235 0
42 85 84 43 82 44 81 -234 0
42 85 84 43 82 44 81 -236 0
42 61 41 60 43 57 44 -221 0
42 61 41 60 43 57 44 -222 0
42 61 41 60 43 57 44 -224 0
42 61 41 60 43 57 44 -223 0
42 61 41 60 43 57 62 -221 0
42 61 41 60 43 57 62 -222 0
42 61 41 60 43 57 62 -224 0
42 61 41 60 43 57 62 -223 0
42 61 41 60 43 44 62 -221 0
42 61 41 60 43 44 62 -222 0
42 61 41 60 43 44 62 -224 0
42 61 41 60 43 44 62 -223 0
42 61 41 60 57 44 62 -221 0
42 61 41 60 57 44 62 -222 0
42 61 41 60 57 44 62 -224 0
42 61 41 60 57 44 62 -223 0
42 61 41 43 57 44 62 -221 0
42 61 41 43 57 44 62 -222 0
42 61 41 43 57 44 62 -224 0
42 61 41 43 57 44 62 -223 0
42 61 60 43 57 44 62 -221 0
42 61 60 43 57 44 62 -222 0
42 61 60 43 57 44 62 -224 0
42 61 60 43 57 44 62 -223 0
42 4 41 1 43 3 44 -46 0
42 4 41 1 43 3 44 -45 0
42 4 41 1 43 3 44 -39 0
42 4 41 1 43 3 44 -40 0
42 4 41 1 43 3 5 -46 0
42 4 41 1 43 3 5 -45 0
42 4 41 1 43 3 5 -39 0
42 4 41 1 43 3 5 -40 0
42 4 41 1 43 44 5 -46 0
42 4 41 1 43 44 5 -45 0
42 4 41 1 43 44 5 -39 0
42 4 41 1 43 44 5 -40 0
42 4 41 1 3 44 5 -46 0
42 4 41 1 3 44 5 -45 0
42 4 41 1 3 44 5 -39 0
42 4 41 1 3 44 5 -40 0
42 4 41 43 3 44 5 -46 0
42 4 41 43 3 44 5 -45 0
42 4 41 43 3 44 5 -39 0
42 4 41 43 3 44 5 -40 0
42 4 1 43 3 44 5 -46 0
42 4 1 43 3 44 5 -45 0
42 4 1 43 3 44 5 -39 0
42 4 1 43 3 44 5 -40 0
42 41 63 43 65 44 66 -225 0
42 41 63 43 65 44 66 -228 0
42 41 63 43 65 44 66 -227 0
42 41 63 43 65 44 66 -226 0
42 41 32 43 34 44 31 -191 0
42 41 32 43 34 44 31 -192 0
42 41 32 43 34 44 31 -194 0
42 41 32 43 34 44 31 -193 0
42 41 47 43 51 44 52 -220 0
42 41 47 43 51 44 52 -218 0
42 41 47 43 51 44 52 -217 0
42 41 47 43 51 44 52 -219 0
42 41 8 43 7 44 10 -104 0
42 41 8 43 7 44 10 -103 0
42 41 8 43 7 44 10 -102 0
42 41 8 43 7 44 10 -101 0
42 41 73 43 74 44 72 -231 0
42 41 73 43 74 44 72 -229 0
42 41 73 43 74 44 72 -232 0
42 41 73 43 74 44 72 -230 0
42 41 30 43 24 44 27 -166 0
42 41 30 43 24 44 27 -165 0
42 41 30 43 24 44 27 -168 0
42 41 30 43 24 44 27 -167 0
42 41 16 43 18 44 15 -136 0
42 41 16 43 18 44 15 -135 0
42 41 16 43 18 44 15 -137 0
42 41 16 43 18 44 15 -138 0
42 41 84 43 82 44 81 -233 0
42 41 84 43 82 44 81 -235 0
42 41 84 43 82 44 81 -234 0
42 41 84 43 82 44 81 -236 0
42 41 60 43 57 44 62 -221 0
42 41 60 43 57 44 62 -222 0
42 41 60 43 57 44 62 -224 0
42 41 60 43 57 44 62 -223 0
42 41 1 43 3 44 5 -46 0
42 41 1 43 3 44 5 -45 0
42 41 1 43 3 44 5 -39 0
42 41 1 43 3 44 5 -40 0
64 37 63 32 65 34 66 -206 0
64 37 63 32 65 34 66 -205 0
64 37 63 32 65 34 66 -204 0
64 37 63 32 65 34 66 -203 0
64 37 63 32 65 34 31 -206 0
64 37 63 32 65 34 31 -205 0
64 37 63 32 65 34 31 -204 0
64 37 63 32 65 34 31 -203 0
64 37 63 32 65 66 31 -206 0
64 37 63 32 65 66 31 -205 0
64 37 63 32 65 66 31 -204 0
64 37 63 32 65 66 31 -203 0
64 37 63 32 34 66 31 -206 0
64 37 63 32 34 66 31 -205 0
64 37 63 32 34 66 31 -204 0
64 37 63 32 34 66 31 -203 0
64 37 63 65 34 66 31 -206 0
64 37 63 65 34 66 31 -205 0
64 37 63 65 34 66 31 -204 0
64 37 63 65 34 66 31 -203 0
64 37 32 65 34 66 31 -206 0
64 37 32 65 34 66 31 -205 0
64 37 32 65 34 66 31 -204 0
64 37 32 65 34 66 31 -203 0
64 48 63 47 65 51 66 -246 0
64 48 63 47 65 51 66 -243 0
64 48 63 47 65 51 66 -245 0
64 48 63 47 65 51 66 -244 0
64 48 63 47 65 51 52 -246 0
64 48 63 47 65 51 52 -243 0
64 48 63 47 65 51 52 -245 0
64 48 63 47 65 51 52 -244 0
64 48 63 47 65 66 52 -246 0
64 48 63 47 65 66 52 -243 0
64 48 63 47 65 66 52 -245 0
64 48 63 47 65 66 52 -244 0
64 48 63 47 51 66 52 -246 0
64 48 63 47 51 66 52 -243 0
64 48 63 47 51 66 52 -245 0
64 48 63 47 51 66 52 -244 0
64 48 63 65 51 66 52 -246 0
64 48 63 65 51 66 52 -243 0
64 48 63 65 51 66 52 -245 0
64 48 63 65 51 66 52 -244 0
64 48 47 65 51 66 52 -246 0
64 48 47 65 51 66 52 -243 0
64 48 47 65 51 66 52 -245 0
64 48 47 65 51 66 52 -244 0
64 9 63 8 65 7 66 -116 0
64 9 63 8 65 7 66 -114 0
64 9 63 8 65 7 66 -113 0
64 9 63 8 65 7 66 -115 0
64 9 63 8 65 7 10 -116 0
64 9 63 8 65 7 10 -114 0
64 9 63 8 65 7 10 -113 0
64 9 63 8 65 7 10 -115 0
64 9 63 8 65 66 10 -116 0
64 9 63 8 65 66 10 -114 0
64 9 63 8 65 66 10 -113 0
64 9 63 8 65 66 10 -115 0
64 9 63 8 7 66 10 -116 0
64 9 63 8 7 66 10 -114 0
64 9 63 8 7 66 10 -113 0
64 9 63 8 7 66 10 -115 0
64 9 63 65 7 66 10 -116 0
64 9 63 65 7 66 10 -114 0
64 9 63 65 7 66 10 -113 0
64 9 63 65 7 66 10 -115 0
64 9 8 65 7 66 10 -116 0
64 9 8 65 7 66 10 -114 0
64 9 8 65 7 66 10 -113 0
64 9 8 65 7 66 10 -115 0
64 77 63 73 65 74 66 -274 0
64 77 63 73 65 74 66 -273 0
64 77 63 73 65 74 66 -271 0
64 77 63 73 65 74 66 -272 0
64 77 63 73 65 74 72 -274 0
64 77 63 73 65 74 72 -273 0
64 77 63 73 65 74 72 -271 0
64 77 63 73 65 74 72 -272 0
64 77 63 73 65 66 72 -274 0
64 77 63 73 65 66 72 -273 0
64 77 63 73 65 66 72 -271 0
64 77 63 73 65 66 72 -272 0
64 77 63 73 74 66 72 -274 0
64 77 63 73 74 66 72 -273 0
64 77 63 73 74 66 72 -271 0
64 77 63 73 74 66 72 -272 0
64 77 63 65 74 66 72 -274 0
64 77 63 65 74 66 72 -273 0
64 77 63 65 74 66 72 -271 0
64 77 63 65 74 66 72 -272 0
64 77 73 65 74 66 72 -274 0
64 77 73 65 74 66 72 -273 0
64 77 73 65 74 66 72 -271 0
64 77 73 65 74 66 72 -272 0
64 23 63 30 65 24 66 -180 0
64 23 63 30 65 24 66 -178 0
64 23 63 30 65 24 66 -179 0
64 23 63 30 65 24 66 -177 0
64 23 63 30 65 24 27 -180 0
64 23 63 30 65 24 27 -178 0
64 23 63 30 65 24 27 -179 0
64 23 63 30 65 24 27 -177 0
64 23 63 30 65 66 27 -180 0
64 23 63 30 65 66 27 -178 0
64 23 63 30 65 66 27 -179 0
64 23 63 30 65 66 27 -177 0
64 23 63 30 24 66 27 -180 0
64 23 63 30 24 66 27 -178 0
64 23 63 30 24 66 27 -179 0
64 23 63 30 24 66 27 -177 0
64 23 63 65 24 66 27 -180 0
64 23 63 65 24 66 27 -178 0
64 23 63 65 24 66 27 -179 0
64 23 63 65 24 66 27 -177 0
64 23 30 65 24 66 27 -180 0
64 23 30 65 24 66 27 -178 0
64 23 30 65 24 66 27 -179 0
64 23 30 65 24 66 27 -177 0
64 21 63 16 65 18 66 -150 0
64 21 63 16 65 18 66 -147 0
64 21 63 16 65 18 66 -149 0
64 21 63 16 65 18 66 -148 0
64 21 63 16 65 18 15 -150 0
64 21 63 16 65 18 15 -147 0
64 21 63 16 65 18 15 -149 0
64 21 63 16 65 18 15 -148 0
64 21 63 16 65 66 15 -150 0
64 21 63 16 65 66 15 -147 0
64 21 63 16 65 66 15 -149 0
64 21 63 16 65 66 15 -148 0
64 21 63 16 18 66 15 -150 0
64 21 63 16 18 66 15 -147 0
64 21 63 16 18 66 15 -149 0
64 21 63 16 18 66 15 -148 0
64 21 63 65 18 66 15 -150 0
64 21 63 65 18 66 15 -147 0
64 21 63 65 18 66 15 -149 0
64 21 63 65 18 66 15 -148 0
64 21 16 65 18 66 15 -150 0
64 21 16 65 18 66 15 -147 0
64 21 16 65 18 66 15 -149 0
64 21 16 65 18 66 15 -148 0
64 85 63 84 65 82 66 -278 0
64 85 63 84 65 82 66 -275 0
64 85 63 84 65 82 66 -277 0
64 85 63 84 65 82 66 -276 0
64 85 63 84 65 82 81 -278 0
64 85 63 84 65 82 81 -275 0
64 85 63 84 65 82 81 -277 0
64 85 63 84 65 82 81 -276 0
64 85 63 84 65 66 81 -278 0
64 85 63 84 65 66 81 -275 0
64 85 63 84 65 66 81 -277 0
64 85 63 84 65 66 81 -276 0
64 85 63 84 82 66 81 -278 0
64 85 63 84 82 66 81 -275 0
64 85 63 84 82 66 81 -277 0
64 85 63 84 82 66 81 -276 0
64 85 63 65 82 66 81 -278 0
64 85 63 65 82 66 81 -275 0
64 85 63 65 82 66 81 -277 0
64 85 63 65 82 66 81 -276 0
64 85 84 65 82 66 81 -278 0
64 85 84 65 82 66 81 -275 0
64 85 84 65 82 66 81 -277 0
64 85 84 65 82 66 81 -276 0
64 61 63 60 65 57 66 -260 0
64 61 63 60 65 57 66 -257 0
64 61 63 60 65 57 66 -259 0
64 61 63 60 65 57 66 -258 0
64 61 63 60 65 57 62 -260 0
64 61 63 60 65 57 62 -257 0
64 61 63 60 65 57 62 -259 0
64 61 63 60 65 57 62 -258 0
64 61 63 60 65 66 62 -260 0
64 61 63 60 65 66 62 -257 0
64 61 63 60 65 66 62 -259 0
64 61 63 60 65 66 62 -258 0
64 61 63 60 57 66 62 -260 0
64 61 63 60 57 66 62 -257 0
64 61 63 60 57 66 62 -259 0
64 61 63 60 57 66 62 -258 0
64 61 63 65 57 66 62 -260 0
64 61 63 65 57 66 62 -257 0
64 61 63 65 57 66 62 -259 0
64 61 63 65 57 66 62 -258 0
64 61 60 65 57 66 62 -260 0
64 61 60 65 57 66 62 -257 0
64 61 60 65 57 66 62 -259 0
64 61 60 65 57 66 62 -258 0
64 4 63 1 65 3 66 -69 0
64 4 63 1 65 3 66 -68 0
64 4 63 1 65 3 66 -67 0
64 4 63 1 65 3 66 -70 0
64 4 63 1 65 3 5 -69 0
64 4 63 1 65 3 5 -68 0
64 4 63 1 65 3 5 -67 0
64 4 63 1 65 3 5 -70 0
64 4 63 1 65 66 5 -69 0
64 4 63 1 65 66 5 -68 0
64 4 63 1 65 66 5 -67 0
64 4 63 1 65 66 5 -70 0
64 4 63 1 3 66 5 -69 0
64 4 63 1 3 66 5 -68 0
64 4 63 1 3 66 5 -67 0
64 4 63 1 3 66 5 -70 0
64 4 63 65 3 66 5 -69 0
64 4 63 65 3 66 5 -68 0
64 4 63 65 3 66 5 -67 0
64 4 63 65 3 66 5 -70 0
64 4 1 65 3 66 5 -69 0
64 4 1 65 3 66 5 -68 0
64 4 1 65 3 66 5 -67 0
64 4 1 65 3 66 5 -70 0
64 41 63 43 65 44 66 -225 0
64 41 63 43 65 44 66 -228 0
64 41 63 43 65 44 66 -227 0
64 41 63 43 65 44 66 -226 0
64 63 32 65 34 66 31 -206 0
64 63 32 65 34 66 31 -205 0
64 63 32 65 34 66 31 -204 0
64 63 32 65 34 66 31 -203 0
64 63 47 65 51 66 52 -246 0
64 63 47 65 51 66 52 -243 0
64 63 47 65 51 66 52 -245 0
64 63 47 65 51 66 52 -244 0
64 63 8 65 7 66 10 -116 0
64 63 8 65 7 66 10 -114 0
64 63 8 65 7 66 10 -113 0
64 63 8 65 7 66 10 -115 0
64 63 73 65 74 66 72 -274 0
64 63 73 65 74 66 72 -273 0
64 63 73 65 74 66 72 -271 0
64 63 73 65 74 66 72 -272 0
64 63 30 65 24 66 27 -180 0
64 63 30 65 24 66 27 -178 0
64 63 30 65 24 66 27 -179 0
64 63 30 65 24 66 27 -177 0
64 63 16 65 18 66 15 -150 0
64 63 16 65 18 66 15 -147 0
64 63 16 65 18 66 15 -149 0
64 63 16 65 18 66 15 -148 0
64 63 84 65 82 66 81 -278 0
64 63 84 65 82 66 81 -275 0
64 63 84 65 82 66 81 -277 0
64 63 84 65 82 66 81 -276 0
64 63 60 65 57 66 62 -260 0
64 63 60 65 57 66 62 -257 0
64 63 60 65 57 66 62 -259 0
64 63 60 65 57 66 62 -258 0
64 63 1 65 3 66 5 -69 0
64 63 1 65 3 66 5 -68 0
64 63 1 65 3 66 5 -67 0
64 63 1 65 3 66 5 -70 0
37 48 32 47 34 51 31 -196 0
37 48 32 47 34 51 31 -198 0
37 48 32 47 34 51 31 -197 0
37 48 32 47 34 51 31 -195 0
37 48 32 47 34 51 52 -196 0
37 48 32 47 34 51 52 -198 0
37 48 32 47 34 51 52 -197 0
37 48 32 47 34 51 52 -195 0
37 48 32 47 34 31 52 -196 0
37 48 32 47 34 31 52 -198 0
37 48 32 47 34 31 52 -197 0
37 48 32 47 34 31 52 -195 0
37 48 32 47 51 31 52 -196 0
37 48 32 47 51 31 52 -198 0
37 48 32 47 51 31 52 -197 0
37 48 32 47 51 31 52 -195 0
37 48 32 34 51 31 52 -196 0
37 48 32 34 51 31 52 -198 0
37 48 32 34 51 31 52 -197 0
37 48 32 34 51 31 52 -195 0
37 48 47 34 51 31 52 -196 0
37 48 47 34 51 31 52 -198 0
37 48 47 34 51 31 52 -197 0
37 48 47 34 51 31 52 -195 0
37 9 32 8 34 7 31 -98 0
37 9 32 8 34 7 31 -97 0
37 9 32 8 34 7 31 -99 0
37 9 32 8 34 7 31 -100 0
37 9 32 8 34 7 10 -98 0
37 9 32 8 34 7 10 -97 0
37 9 32 8 34 7 10 -99 0
37 9 32 8 34 7 10 -100 0
37 9 32 8 34 31 10 -98 0
37 9 32 8 34 31 10 -97 0
37 9 32 8 34 31 10 -99 0
37 9 32 8 34 31 10 -100 0
37 9 32 8 7 31 10 -98 0
37 9 32 8 7 31 10 -97 0
37 9 32 8 7 31 10 -99 0
37 9 32 8 7 31 10 -100 0
37 9 32 34 7 31 10 -98 0
37 9 32 34 7 31 10 -97 0
37 9 32 34 7 31 10 -99 0
37 9 32 34 7 31 10 -100 0
37 9 8 34 7 31 10 -98 0
37 9 8 34 7 31 10 -97 0
37 9 8 34 7 31 10 -99 0
37 9 8 34 7 31 10 -100 0
37 77 32 73 34 74 31 -209 0
37 77 32 73 34 74 31 -210 0
37 77 32 73 34 74 31 -207 0
37 77 32 73 34 74 31 -208 0
37 77 32 73 34 74 72 -209 0
37 77 32 73 34 74 72 -210 0
37 77 32 73 34 74 72 -207 0
37 77 32 73 34 74 72 -208 0
37 77 32 73 34 31 72 -209 0
37 77 32 73 34 31 72 -210 0
37 77 32 73 34 31 72 -207 0
37 77 32 73 34 31 72 -208 0
37 77 32 73 74 31 72 -209 0
37 77 32 73 74 31 72 -210 0
37 77 32 73 74 31 72 -207 0
37 77 32 73 74 31 72 -208 0
37 77 32 34 74 31 72 -209 0
37 77 32 34 74 31 72 -210 0
37 77 32 34 74 31 72 -207 0
37 77 32 34 74 31 72 -208 0
37 77 73 34 74 31 72 -209 0
37 77 73 34 74 31 72 -210 0
37 77 73 34 74 31 72 -207 0
37 77 73 34 74 31 72 -208 0
37 23 32 30 34 24 31 -164 0
37 23 32 30 34 24 31 -163 0
37 23 32 30 34 24 31 -161 0
37 23 32 30 34 24 31 -162 0
37 23 32 30 34 24 27 -164 0
37 23 32 30 34 24 27 -163 0
37 23 32 30 34 24 27 -161 0
37 23 32 30 34 24 27 -162 0
37 23 32 30 34 31 27 -164 0
37 23 32 30 34 31 27 -163 0
37 23 32 30 34 31 27 -161 0
37 23 32 30 34 31 27 -162 0
37 23 32 30 24 31 27 -164 0
37 23 32 30 24 31 27 -163 0
37 23 32 30 24 31 27 -161 0
37 23 32 30 24 31 27 -162 0
37 23 32 34 24 31 27 -164 0
37 23 32 34 24 31 27 -163 0
37 23 32 34 24 31 27 -161 0
37 23 32 34 24 31 27 -162 0
37 23 30 34 24 31 27 -164 0
37 23 30 34 24 31 27 -163 0
37 23 30 34 24 31 27 -161 0
37 23 30 34 24 31 27 -162 0
37 21 32 16 34 18 31 -134 0
37 21 32 16 34 18 31 -131 0
37 21 32 16 34 18 31 -132 0
37 21 32 16 34 18 31 -133 0
37 21 32 16 34 18 15 -134 0
37 21 32 16 34 18 15 -131 0
37 21 32 16 34 18 15 -132 0
37 21 32 16 34 18 15 -133 0
37 21 32 16 34 31 15 -134 0
37 21 32 16 34 31 15 -131 0
37 21 32 16 34 31 15 -132 0
37 21 32 16 34 31 15 -133 0
37 21 32 16 18 31 15 -134 0
37 21 32 16 18 31 15 -131 0
37 21 32 16 18 31 15 -132 0
37 21 32 16 18 31 15 -133 0
37 21 32 34 18 31 15 -134 0
37 21 32 34 18 31 15 -131 0
37 21 32 34 18 31 15 -132 0
37 21 32 34 18 31 15 -133 0
37 21 16 34 18 31 15 -134 0
37 21 16 34 18 31 15 -131 0
37 21 16 34 18 31 15 -132 0
37 21 16 34 18 31 15 -133 0
37 85 32 84 34 82 31 -211 0
37 85 32 84 34 82 31 -214 0
37 85 32 84 34 82 31 -213 0
37 85 32 84 34 82 31 -212 0
37 85 32 84 34 82 81 -211 0
37 85 32 84 34 82 81 -214 0
37 85 32 84 34 82 81 -213 0
37 85 32 84 34 82 81 -212 0
37 85 32 84 34 31 81 -211 0
37 85 32 84 34 31 81 -214 0
37 85 32 84 34 31 81 -213 0
37 85 32 84 34 31 81 -212 0
37 85 32 84 82 31 81 -211 0
37 85 32 84 82 31 81 -214 0
37 85 32 84 82 31 81 -213 0
37 85 32 84 82 31 81 -212 0
37 85 32 34 82 31 81 -211 0
37 85 32 34 82 31 81 -214 0
37 85 32 34 82 31 81 -213 0
37 85 32 34 82 31 81 -212 0
37 85 84 34 82 31 81 -211 0
37 85 84 34 82 31 81 -214 0
37 85 84 34 82 31 81 -213 0
37 85 84 34 82 31 81 -212 0
37 61 32 60 34 57 31 -202 0
37 61 32 60 34 57 31 -201 0
37 61 32 60 34 57 31 -200 0
37 61 32 60 34 57 31 -199 0
37 61 32 60 34 57 62 -202 0
37 61 32 60 34 57 62 -201 0
37 61 32 60 34 57 62 -200 0
37 61 32 60 34 57 62 -199 0
37 61 32 60 34 31 62 -202 0
37 61 32 60 34 31 62 -201 0
37 61 32 60 34 31 62 -200 0
37 61 32 60 34 31 62 -199 0
37 61 32 60 57 31 62 -202 0
37 61 32 60 57 31 62 -201 0
37 61 32 60 57 31 62 -200 0
37 61 32 60 57 31 62 -199 0
37 61 32 34 57 31 62 -202 0
37 61 32 34 57 31 62 -201 0
37 61 32 34 57 31 62 -200 0
37 61 32 34 57 31 62 -199 0
37 61 60 34 57 31 62 -202 0
37 61 60 34 57 31 62 -201 0
37 61 60 34 57 31 62 -200 0
37 61 60 34 57 31 62 -199 0
37 4 32 1 34 3 31 -38 0
37 4 32 1 34 3 31 -33 0
37 4 32 1 34 3 31 -35 0
37 4 32 1 34 3 31 -36 0
37 4 32 1 34 3 5 -38 0
37 4 32 1 34 3 5 -33 0
37 4 32 1 34 3 5 -35 0
37 4 32 1 34 3 5 -36 0
37 4 32 1 34 31 5 -38 0
37 4 32 1 34 31 5 -33 0
37 4 32 1 34 31 5 -35 0
37 4 32 1 34 31 5 -36 0
37 4 32 1 3 31 5 -38 0
37 4 32 1 3 31 5 -33 0
37 4 32 1 3 31 5 -35 0
37 4 32 1 3 31 5 -36 0
37 4 32 34 3 31 5 -38 0
37 4 32 34 3 31 5 -33 0
37 4 32 34 3 31 5 -35 0
37 4 32 34 3 31 5 -36 0
37 4 1 34 3 31 5 -38 0
37 4 1 34 3 31 5 -33 0
37 4 1 34 3 31 5 -35 0
37 4 1 34 3 31 5 -36 0
37 41 32 43 34 44 31 -191 0
37 41 32 43 34 44 31 -192 0
37 41 32 43 34 44 31 -194 0
37 41 32 43 34 44 31 -193 0
37 63 32 65 34 66 31 -206 0
37 63 32 65 34 66 31 -205 0
37 63 32 65 34 66 31 -204 0
37 63 32 65 34 66 31 -203 0
37 32 47 34 51 31 52 -196 0
37 32 47 34 51 31 52 -198 0
37 32 47 34 51 31 52 -197 0
37 32 47 34 51 31 52 -195 0
37 32 8 34 7 31 10 -98 0
37 32 8 34 7 31 10 -97 0
37 32 8 34 7 31 10 -99 0
37 32 8 34 7 31 10 -100 0
37 32 73 34 74 31 72 -209 0
37 32 73 34 74 31 72 -210 0
37 32 73 34 74 31 72 -207 0
37 32 73 34 74 31 72 -208 0
37 32 30 34 24 31 27 -164 0
37 32 30 34 24 31 27 -163 0
37 32 30 34 24 31 27 -161 0
37 32 30 34 24 31 27 -162 0
37 32 16 34 18 31 15 -134 0
37 32 16 34 18 31 15 -131 0
37 32 16 34 18 31 15 -132 0
37 32 16 34 18 31 15 -133 0
37 32 84 34 82 31 81 -211 0
37 32 84 34 82 31 81 -214 0
37 32 84 34 82 31 81 -213 0
37 32 84 34 82 31 81 -212 0
37 32 60 34 57 31 62 -202 0
37 32 60 34 57 31 62 -201 0
37 32 60 34 57 31 62 -200 0
37 32 60 34 57 31 62 -199 0
37 32 1 34 3 31 5 -38 0
37 32 1 34 3 31 5 -33 0
37 32 1 34 3 31 5 -35 0
37 32 1 34 3 31 5 -36 0
48 9 47 8 51 7 52 -108 0
48 9 47 8 51 7 52 -107 0
48 9 47 8 51 7 52 -105 0
48 9 47 8 51 7 52 -106 0
48 9 47 8 51 7 10 -108 0
48 9 47 8 51 7 10 -107 0
48 9 47 8 51 7 10 -105 0
48 9 47 8 51 7 10 -106 0
48 9 47 8 51 52 10 -108 0
48 9 47 8 51 52 10 -107 0
48 9 47 8 51 52 10 -105 0
48 9 47 8 51 52 10 -106 0
48 9 47 8 7 52 10 -108 0
48 9 47 8 7 52 10 -107 0
48 9 47 8 7 52 10 -105 0
48 9 47 8 7 52 10 -106 0
48 9 47 51 7 52 10 -108 0
48 9 47 51 7 52 10 -107 0
48 9 47 51 7 52 10 -105 0
48 9 47 51 7 52 10 -106 0
48 9 8 51 7 52 10 -108 0
48 9 8 51 7 52 10 -107 0
48 9 8 51 7 52 10 -105 0
48 9 8 51 7 52 10 -106 0
48 77 47 73 51 74 52 -248 0
48 77 47 73 51 74 52 -250 0
48 77 47 73 51 74 52 -249 0
48 77 47 73 51 74 52 -247 0
48 77 47 73 51 74 72 -248 0
48 77 47 73 51 74 72 -250 0
48 77 47 73 51 74 72 -249 0
48 77 47 73 51 74 72 -247 0
48 77 47 73 51 52 72 -248 0
48 77 47 73 51 52 72 -250 0
48 77 47 73 51 52 72 -249 0
48 77 47 73 51 52 72 -247 0
48 77 47 73 74 52 72 -248 0
48 77 47 73 74 52 72 -250 0
48 77 47 73 74 52 72 -249 0
48 77 47 73 74 52 72 -247 0
48 77 47 51 74 52 72 -248 0
48 77 47 51 74 52 72 -250 0
48 77 47 51 74 52 72 -249 0
48 77 47 51 74 52 72 -247 0
48 77 73 51 74 52 72 -248 0
48 77 73 51 74 52 72 -250 0
48 77 73 51 74 52 72 -249 0
48 77 73 51 74 52 72 -247 0
48 23 47 30 51 24 52 -172 0
48 23 47 30 51 24 52 -169 0
48 23 47 30 51 24 52 -170 0
48 23 47 30 51 24 52 -171 0
48 23 47 30 51 24 27 -172 0
48 23 47 30 51 24 27 -169 0
48 23 47 30 51 24 27 -170 0
48 23 47 30 51 24 27 -171 0
48 23 47 30 51 52 27 -172 0
48 23 47 30 51 52 27 -169 0
48 23 47 30 51 52 27 -170 0
48 23 47 30 51 52 27 -171 0
48 23 47 30 24 52 27 -172 0
48 23 47 30 24 52 27 -169 0
48 23 47 30 24 52 27 -170 0
48 23 47 30 24 52 27 -171 0
48 23 47 51 24 52 27 -172 0
48 23 47 51 24 52 27 -169 0
48 23 47 51 24 52 27 -170 0
48 23 47 51 24 52 27 -171 0
48 23 30 51 24 52 27 -172 0
48 23 30 51 24 52 27 -169 0
48 23 30 51 24 52 27 -170 0
48 23 30 51 24 52 27 -171 0
48 21 47 16 51 18 52 -141 0
48 21 47 16 51 18 52 -140 0
48 21 47 16 51 18 52 -139 0
48 21 47 16 51 18 52 -142 0
48 21 47 16 51 18 15 -141 0
48 21 47 16 51 18 15 -140 0
48 21 47 16 51 18 15 -139 0
48 21 47 16 51 18 15 -142 0
48 21 47 16 51 52 15 -141 0
48 21 47 16 51 52 15 -140 0
48 21 47 16 51 52 15 -139 0
48 21 47 16 51 52 15 -142 0
48 21 47 16 18 52 15 -141 0
48 21 47 16 18 52 15 -140 0
48 21 47 16 18 52 15 -139 0
48 21 47 16 18 52 15 -142 0
48 21 47 51 18 52 15 -141 0
48 21 47 51 18 52 15 -140 0
48 21 47 51 18 52 15 -139 0
48 21 47 51 18 52 15 -142 0
48 21 16 51 18 52 15 -141 0
48 21 16 51 18 52 15 -140 0
48 21 16 51 18 52 15 -139 0
48 21 16 51 18 52 15 -142 0
48 85 47 84 51 82 52 -252 0
48 85 47 84 51 82 52 -251 0
48 85 47 84 51 82 52 -253 0
48 85 47 84 51 82 52 -254 0
48 85 47 84 51 82 81 -252 0
48 85 47 84 51 82 81 -251 0
48 85 47 84 51 82 81 -253 0
48 85 47 84 51 82 81 -254 0
48 85 47 84 51 52 81 -252 0
48 85 47 84 51 52 81 -251 0
48 85 47 84 51 52 81 -253 0
48 85 47 84 51 52 81 -254 0
48 85 47 84 82 52 81 -252 0
48 85 47 84 82 52 81 -251 0
48 85 47 84 82 52 81 -253 0
48 85 47 84 82 52 81 -254 0
48 85 47 51 82 52 81 -252 0
48 85 47 51 82 52 81 -251 0
48 85 47 51 82 52 81 -253 0
48 85 47 51 82 52 81 -254 0
48 85 84 51 82 52 81 -252 0
48 85 84 51 82 52 81 -251 0
48 85 84 51 82 52 81 -253 0
48 85 84 51 82 52 81 -254 0
48 61 47 60 51 57 52 -239 0
48 61 47 60 51 57 52 -241 0
48 61 47 60 51 57 52 -240 0
48 61 47 60 51 57 52 -242 0
48 61 47 60 51 57 62 -239 0
48 61 47 60 51 57 62 -241 0
48 61 47 60 51 57 62 -240 0
48 61 47 60 51 57 62 -242 0
48 61 47 60 51 52 62 -239 0
48 61 47 60 51 52 62 -241 0
48 61 47 60 51 52 62 -240 0
48 61 47 60 51 52 62 -242 0
48 61 47 60 57 52 62 -239 0
48 61 47 60 57 52 62 -241 0
48 61 47 60 57 52 62 -240 0
48 61 47 60 57 52 62 -242 0
48 61 47 51 57 52 62 -239 0
48 61 47 51 57 52 62 -241 0
48 61 47 51 57 52 62 -240 0
48 61 47 51 57 52 62 -242 0
48 61 60 51 57 52 62 -239 0
48 61 60 51 57 52 62 -241 0
48 61 60 51 57 52 62 -240 0
48 61 60 51 57 52 62 -242 0
48 4 47 1 51 3 52 -49 0
48 4 47 1 51 3 52 -50 0
48 4 47 1 51 3 52 -53 0
48 4 47 1 51 3 52 -54 0
48 4 47 1 51 3 5 -49 0
48 4 47 1 51 3 5 -50 0
48 4 47 1 51 3 5 -53 0
48 4 47 1 51 3 5 -54 0
48 4 47 1 51 52 5 -49 0
48 4 47 1 51 52 5 -50 0
48 4 47 1 51 52 5 -53 0
48 4 47 1 51 52 5 -54 0
48 4 47 1 3 52 5 -49 0
48 4 47 1 3 52 5 -50 0
48 4 47 1 3 52 5 -53 0
48 4 47 1 3 52 5 -54 0
48 4 47 51 3 52 5 -49 0
48 4 47 51 3 52 5 -50 0
48 4 47 51 3 52 5 -53 0
48 4 47 51 3 52 5 -54 0
48 4 1 51 3 52 5 -49 0
48 4 1 51 3 52 5 -50 0
48 4 1 51 3 52 5 -53 0
48 4 1 51 3 52 5 -54 0
48 41 47 43 51 44 52 -220 0
48 41 47 43 51 44 52 -218 0
48 41 47 43 51 44 52 -217 0
48 41 47 43 51 44 52 -219 0
48 63 47 65 51 66 52 -246 0
48 63 47 65 51 66 52 -243 0
48 63 47 65 51 66 52 -245 0
48 63 47 65 51 66 52 -244 0
48 32 47 34 51 31 52 -196 0
48 32 47 34 51 31 52 -198 0
48 32 47 34 51 31 52 -197 0
48 32 47 34 51 31 52 -195 0
48 47 8 51 7 52 10 -108 0
48 47 8 51 7 52 10 -107 0
48 47 8 51 7 52 10 -105 0
48 47 8 51 7 52 10 -106 0
48 47 73 51 74 52 72 -248 0
48 47 73 51 74 52 72 -250 0
48 47 73 51 74 52 72 -249 0
48 47 73 51 74 52 72 -247 0
48 47 30 51 24 52 27 -172 0
48 47 30 51 24 52 27 -169 0
48 47 30 51 24 52 27 -170 0
48 47 30 51 24 52 27 -171 0
48 47 16 51 18 52 15 -141 0
48 47 16 51 18 52 15 -140 0
48 47 16 51 18 52 15 -139 0
48 47 16 51 18 52 15 -142 0
48 47 84 51 82 52 81 -252 0
48 47 84 51 82 52 81 -251 0
48 47 84 51 82 52 81 -253 0
48 47 84 51 82 52 81 -254 0
48 47 60 51 57 52 62 -239 0
48 47 60 51 57 52 62 -241 0
48 47 60 51 57 52 62 -240 0
48 47 60 51 57 52 62 -242 0
48 47 1 51 3 52 5 -49 0
48 47 1 51 3 52 5 -50 0
48 47 1 51 3 52 5 -53 0
48 47 1 51 3 52 5 -54 0
9 77 8 73 7 74 10 -118 0
9 77 8 73 7 74 10 -117 0
9 77 8 73 7 74 10 -119 0
9 77 8 73 7 74 10 -120 0
9 77 8 73 7 74 72 -118 0
9 77 8 73 7 74 72 -117 0
9 77 8 73 7 74 72 -119 0
9 77 8 73 7 74 72 -120 0
9 77 8 73 7 10 72 -118 0
9 77 8 73 7 10 72 -117 0
9 77 8 73 7 10 72 -119 0
9 77 8 73 7 10 72 -120 0
9 77 8 73 74 10 72 -118 0
9 77 8 73 74 10 72 -117 0
9 77 8 73 74 10 72 -119 0
9 77 8 73 74 10 72 -120 0
9 77 8 7 74 10 72 -118 0
9 77 8 7 74 10 72 -117 0
9 77 8 7 74 10 72 -119 0
9 77 8 7 74 10 72 -120 0
9 77 73 7 74 10 72 -118 0
9 77 73 7 74 10 72 -117 0
9 77 73 7 74 10 72 -119 0
9 77 73 7 74 10 72 -120 0
9 23 8 30 7 24 10 -93 0
9 23 8 30 7 24 10 -94 0
9 23 8 30 7 24 10 -96 0
9 23 8 30 7 24 10 -95 0
9 23 8 30 7 24 27 -93 0
9 23 8 30 7 24 27 -94 0
9 23 8 30 7 24 27 -96 0
9 23 8 30 7 24 27 -95 0
9 23 8 30 7 10 27 -93 0
9 23 8 30 7 10 27 -94 0
9 23 8 30 7 10 27 -96 0
9 23 8 30 7 10 27 -95 0
9 23 8 30 24 10 27 -93 0
9 23 8 30 24 10 27 -94 0
9 23 8 30 24 10 27 -96 0
9 23 8 30 24 10 27 -95 0
9 23 8 7 24 10 27 -93 0
9 23 8 7 24 10 27 -94 0
9 23 8 7 24 10 27 -96 0
9 23 8 7 24 10 27 -95 0
9 23 30 7 24 10 27 -93 0
9 23 30 7 24 10 27 -94 0
9 23 30 7 24 10 27 -96 0
9 23 30 7 24 10 27 -95 0
9 21 8 16 7 18 10 -91 0
9 21 8 16 7 18 10 -90 0
9 21 8 16 7 18 10 -92 0
9 21 8 16 7 18 10 -89 0
9 21 8 16 7 18 15 -91 0
9 21 8 16 7 18 15 -90 0
9 21 8 16 7 18 15 -92 0
9 21 8 16 7 18 15 -89 0
9 21 8 16 7 10 15 -91 0
9 21 8 16 7 10 15 -90 0
9 21 8 16 7 10 15 -92 0
9 21 8 16 7 10 15 -89 0
9 21 8 16 18 10 15 -91 0
9 21 8 16 18 10 15 -90 0
9 21 8 16 18 10 15 -92 0
9 21 8 16 18 10 15 -89 0
9 21 8 7 18 10 15 -91 0
9 21 8 7 18 10 15 -90 0
9 21 8 7 18 10 15 -92 0
9 21 8 7 18 10 15 -89 0
9 21 16 7 18 10 15 -91 0
9 21 16 7 18 10 15 -90 0
9 21 16 7 18 10 15 -92 0
9 21 16 7 18 10 15 -89 0
9 85 8 84 7 82 10 -123 0
9 85 8 84 7 82 10 -121 0
9 85 8 84 7 82 10 -124 0
9 85 8 84 7 82 10 -122 0
9 85 8 84 7 82 81 -123 0
9 85 8 84 7 82 81 -121 0
9 85 8 84 7 82 81 -124 0
9 85 8 84 7 82 81 -122 0
9 85 8 84 7 10 81 -123 0
9 85 8 84 7 10 81 -121 0
9 85 8 84 7 10 81 -124 0
9 85 8 84 7 10 81 -122 0
9 85 8 84 82 10 81 -123 0
9 85 8 84 82 10 81 -121 0
9 85 8 84 82 10 81 -124 0
9 85 8 84 82 10 81 -122 0
9 85 8 7 82 10 81 -123 0
9 85 8 7 82 10 81 -121 0
9 85 8 7 82 10 81 -124 0
9 85 8 7 82 10 81 -122 0
9 85 84 7 82 10 81 -123 0
9 85 84 7 82 10 81 -121 0
9 85 84 7 82 10 81 -124 0
9 85 84 7 82 10 81 -122 0
9 61 8 60 7 57 10 -110 0
9 61 8 60 7 57 10 -109 0
9 61 8 60 7 57 10 -111 0
9 61 8 60 7 57 10 -112 0
9 61 8 60 7 57 62 -110 0
9 61 8 60 7 57 62 -109 0
9 61 8 60 7 57 62 -111 0
9 61 8 60 7 57 62 -112 0
9 61 8 60 7 10 62 -110 0
9 61 8 60 7 10 62 -109 0
9 61 8 60 7 10 62 -111 0
9 61 8 60 7 10 62 -112 0
9 61 8 60 57 10 62 -110 0
9 61 8 60 57 10 62 -109 0
9 61 8 60 57 10 62 -111 0
9 61 8 60 57 10 62 -112 0
9 61 8 7 57 10 62 -110 0
9 61 8 7 57 10 62 -109 0
9 61 8 7 57 10 62 -111 0
9 61 8 7 57 10 62 -112 0
9 61 60 7 57 10 62 -110 0
9 61 60 7 57 10 62 -109 0
9 61 60 7 57 10 62 -111 0
9 61 60 7 57 10 62 -112 0
9 4 8 1 7 3 10 -11 0
9 4 8 1 7 3 10 -14 0
9 4 8 1 7 3 10 -13 0
9 4 8 1 7 3 10 -12 0
9 4 8 1 7 3 5 -11 0
9 4 8 1 7 3 5 -14 0
9 4 8 1 7 3 5 -13 0
9 4 8 1 7 3 5 -12 0
9 4 8 1 7 10 5 -11 0
9 4 8 1 7 10 5 -14 0
9 4 8 1 7 10 5 -13 0
9 4 8 1 7 10 5 -12 0
9 4 8 1 3 10 5 -11 0
9 4 8 1 3 10 5 -14 0
9 4 8 1 3 10 5 -13 0
9 4 8 1 3 10 5 -12 0
9 4 8 7 3 10 5 -11 0
9 4 8 7 3 10 5 -14 0
9 4 8 7 3 10 5 -13 0
9 4 8 7 3 10 5 -12 0
9 4 1 7 3 10 5 -11 0
9 4 1 7 3 10 5 -14 0
9 4 1 7 3 10 5 -13 0
9 4 1 7 3 10 5 -12 0
9 41 8 43 7 44 10 -104 0
9 41 8 43 7 44 10 -103 0
9 41 8 43 7 44 10 -102 0
9 41 8 43 7 44 10 -101 0
9 63 8 65 7 66 10 -116 0
9 63 8 65 7 66 10 -114 0
9 63 8 65 7 66 10 -113 0
9 63 8 65 7 66 10 -115 0
9 32 8 34 7 31 10 -98 0
9 32 8 34 7 31 10 -97 0
9 32 8 34 7 31 10 -99 0
9 32 8 34 7 31 10 -100 0
9 47 8 51 7 52 10 -108 0
9 47 8 51 7 52 10 -107 0
9 47 8 51 7 52 10 -105 0
9 47 8 51 7 52 10 -106 0
9 8 73 7 74 10 72 -118 0
9 8 73 7 74 10 72 -117 0
9 8 73 7 74 10 72 -119 0
9 8 73 7 74 10 72 -120 0
9 8 30 7 24 10 27 -93 0
9 8 30 7 24 10 27 -94 0
9 8 30 7 24 10 27 -96 0
9 8 30 7 24 10 27 -95 0
9 8 16 7 18 10 15 -91 0
9 8 16 7 18 10 15 -90 0
9 8 16 7 18 10 15 -92 0
9 8 16 7 18 10 15 -89 0
9 8 84 7 82 10 81 -123 0
9 8 84 7 82 10 81 -121 0
9 8 84 7 82 10 81 -124 0
9 8 84 7 82 10 81 -122 0
9 8 60 7 57 10 62 -110 0
9 8 60 7 57 10 62 -109 0
9 8 60 7 57 10 62 -111 0
9 8 60 7 57 10 62 -112 0
9 8 1 7 3 10 5 -11 0
9 8 1 7 3 10 5 -14 0
9 8 1 7 3 10 5 -13 0
9 8 1 7 3 10 5 -12 0
77 23 73 30 74 24 72 -183 0
77 23 73 30 74 24 72 -182 0
77 23 73 30 74 24 72 -181 0
77 23 73 30 74 24 72 -184 0
77 23 73 30 74 24 27 -183 0
77 23 73 30 74 24 27 -182 0
77 23 73 30 74 24 27 -181 0
77 23 73 30 74 24 27 -184 0
77 23 73 30 74 72 27 -183 0
77 23 73 30 74 72 27 -182 0
77 23 73 30 74 72 27 -181 0
77 23 73 30 74 72 27 -184 0
77 23 73 30 24 72 27 -183 0
77 23 73 30 24 72 27 -182 0
77 23 73 30 24 72 27 -181 0
77 23 73 30 24 72 27 -184 0
77 23 73 74 24 72 27 -183 0
77 23 73 74 24 72 27 -182 0
77 23 73 74 24 72 27 -181 0
77 23 73 74 24 72 27 -184 0
77 23 30 74 24 72 27 -183 0
77 23 30 74 24 72 27 -182 0
77 23 30 74 24 72 27 -181 0
77 23 30 74 24 72 27 -184 0
77 21 73 16 74 18 72 -152 0
77 21 73 16 74 18 72 -151 0
77 21 73 16 74 18 72 -153 0
77 21 73 16 74 18 72 -154 0
77 21 73 16 74 18 15 -152 0
77 21 73 16 74 18 15 -151 0
77 21 73 16 74 18 15 -153 0
77 21 73 16 74 18 15 -154 0
77 21 73 16 74 72 15 -152 0
77 21 73 16 74 72 15 -151 0
77 21 73 16 74 72 15 -153 0
77 21 73 16 74 72 15 -154 0
77 21 73 16 18 72 15 -152 0
77 21 73 16 18 72 15 -151 0
77 21 73 16 18 72 15 -153 0
77 21 73 16 18 72 15 -154 0
77 21 73 74 18 72 15 -152 0
77 21 73 74 18 72 15 -151 0
77 21 73 74 18 72 15 -153 0
77 21 73 74 18 72 15 -154 0
77 21 16 74 18 72 15 -152 0
77 21 16 74 18 72 15 -151 0
77 21 16 74 18 72 15 -153 0
77 21 16 74 18 72 15 -154 0
77 85 73 84 74 82 72 -283 0
77 85 73 84 74 82 72 -282 0
77 85 73 84 74 82 72 -284 0
77 85 73 84 74 82 72 -281 0
77 85 73 84 74 82 81 -283 0
77 85 73 84 74 82 81 -282 0
77 85 73 84 74 82 81 -284 0
77 85 73 84 74 82 81 -281 0
77 85 73 84 74 72 81 -283 0
77 85 73 84 74 72 81 -282 0
77 85 73 84 74 72 81 -284 0
77 85 73 84 74 72 81 -281 0
77 85 73 84 82 72 81 -283 0
77 85 73 84 82 72 81 -282 0
77 85 73 84 82 72 81 -284 0
77 85 73 84 82 72 81 -281 0
77 85 73 74 82 72 81 -283 0
77 85 73 74 82 72 81 -282 0
77 85 73 74 82 72 81 -284 0
77 85 73 74 82 72 81 -281 0
77 85 84 74 82 72 81 -283 0
77 85 84 74 82 72 81 -282 0
77 85 84 74 82 72 81 -284 0
77 85 84 74 82 72 81 -281 0
77 61 73 60 74 57 72 -262 0
77 61 73 60 74 57 72 -263 0
77 61 73 60 74 57 72 -264 0
77 61 73 60 74 57 72 -261 0
77 61 73 60 74 57 62 -262 0
77 61 73 60 74 57 62 -263 0
77 61 73 60 74 57 62 -264 0
77 61 73 60 74 57 62 -261 0
77 61 73 60 74 72 62 -262 0
77 61 73 60 74 72 62 -263 0
77 61 73 60 74 72 62 -264 0
77 61 73 60 74 72 62 -261 0
77 61 73 60 57 72 62 -262 0
77 61 73 60 57 72 62 -263 0
77 61 73 60 57 72 62 -264 0
77 61 73 60 57 72 62 -261 0
77 61 73 74 57 72 62 -262 0
77 61 73 74 57 72 62 -263 0
77 61 73 74 57 72 62 -264 0
77 61 73 74 57 72 62 -261 0
77 61 60 74 57 72 62 -262 0
77 61 60 74 57 72 62 -263 0
77 61 60 74 57 72 62 -264 0
77 61 60 74 57 72 62 -261 0
77 4 73 1 74 3 72 -71 0
77 4 73 1 74 3 72 -76 0
77 4 73 1 74 3 72 -75 0
77 4 73 1 74 3 72 -78 0
77 4 73 1 74 3 5 -71 0
77 4 73 1 74 3 5 -76 0
77 4 73 1 74 3 5 -75 0
77 4 73 1 74 3 5 -78 0
77 4 73 1 74 72 5 -71 0
77 4 73 1 74 72 5 -76 0
77 4 73 1 74 72 5 -75 0
77 4 73 1 74 72 5 -78 0
77 4 73 1 3 72 5 -71 0
77 4 73 1 3 72 5 -76 0
77 4 73 1 3 72 5 -75 0
77 4 73 1 3 72 5 -78 0
77 4 73 74 3 72 5 -71 0
77 4 73 74 3 72 5 -76 0
77 4 73 74 3 72 5 -75 0
77 4 73 74 3 72 5 -78 0
77 4 1 74 3 72 5 -71 0
77 4 1 74 3 72 5 -76 0
77 4 1 74 3 72 5 -75 0
77 4 1 74 3 72 5 -78 0
77 41 73 43 74 44 72 -231 0
77 41 73 43 74 44 72 -229 0
77 41 73 43 74 44 72 -232 0
77 41 73 43 74 44 72 -230 0
77 63 73 65 74 66 72 -274 0
77 63 73 65 74 66 72 -273 0
77 63 73 65 74 66 72 -271 0
77 63 73 65 74 66 72 -272 0
77 32 73 34 74 31 72 -209 0
77 32 73 34 74 31 72 -210 0
77 32 73 34 74 31 72 -207 0
77 32 73 34 74 31 72 -208 0
77 47 73 51 74 52 72 -248 0
77 47 73 51 74 52 72 -250 0
77 47 73 51 74 52 72 -249 0
77 47 73 51 74 52 72 -247 0
77 8 73 7 74 10 72 -118 0
77 8 73 7 74 10 72 -117 0
77 8 73 7 74 10 72 -119 0
77 8 73 7 74 10 72 -120 0
77 73 30 74 24 72 27 -183 0
77 73 30 74 24 72 27 -182 0
77 73 30 74 24 72 27 -181 0
77 73 30 74 24 72 27 -184 0
77 73 16 74 18 72 15 -152 0
77 73 16 74 18 72 15 -151 0
77 73 16 74 18 72 15 -153 0
77 73 16 74 18 72 15 -154 0
77 73 84 74 82 72 81 -283 0
77 73 84 74 82 72 81 -282 0
77 73 84 74 82 72 81 -284 0
77 73 84 74 82 72 81 -281 0
77 73 60 74 57 72 62 -262 0
77 73 60 74 57 72 62 -263 0
77 73 60 74 57 72 62 -264 0
77 73 60 74 57 72 62 -261 0
77 73 1 74 3 72 5 -71 0
77 73 1 74 3 72 5 -76 0
77 73 1 74 3 72 5 -75 0
77 73 1 74 3 72 5 -78 0
23 21 30 16 24 18 27 -130 0
23 21 30 16 24 18 27 -127 0
23 21 30 16 24 18 27 -128 0
23 21 30 16 24 18 27 -129 0
23 21 30 16 24 18 15 -130 0
23 21 30 16 24 18 15 -127 0
23 21 30 16 24 18 15 -128 0
23 21 30 16 24 18 15 -129 0
23 21 30 16 24 27 15 -130 0
23 21 30 16 24 27 15 -127 0
23 21 30 16 24 27 15 -128 0
23 21 30 16 24 27 15 -129 0
23 21 30 16 18 27 15 -130 0
23 21 30 16 18 27 15 -127 0
23 21 30 16 18 27 15 -128 0
23 21 30 16 18 27 15 -129 0
23 21 30 24 18 27 15 -130 0
23 21 30 24 18 27 15 -127 0
23 21 30 24 18 27 15 -128 0
23 21 30 24 18 27 15 -129 0
23 21 16 24 18 27 15 -130 0
23 21 16 24 18 27 15 -127 0
23 21 16 24 18 27 15 -128 0
23 21 16 24 18 27 15 -129 0
23 85 30 84 24 82 27 -186 0
23 85 30 84 24 82 27 -185 0
23 85 30 84 24 82 27 -188 0
23 85 30 84 24 82 27 -187 0
23 85 30 84 24 82 81 -186 0
23 85 30 84 24 82 81 -185 0
23 85 30 84 24 82 81 -188 0
23 85 30 84 24 82 81 -187 0
23 85 30 84 24 27 81 -186 0
23 85 30 84 24 27 81 -185 0
23 85 30 84 24 27 81 -188 0
23 85 30 84 24 27 81 -187 0
23 85 30 84 82 27 81 -186 0
23 85 30 84 82 27 81 -185 0
23 85 30 84 82 27 81 -188 0
23 85 30 84 82 27 81 -187 0
23 85 30 24 82 27 81 -186 0
23 85 30 24 82 27 81 -185 0
23 85 30 24 82 27 81 -188 0
23 85 30 24 82 27 81 -187 0
23 85 84 24 82 27 81 -186 0
23 85 84 24 82 27 81 -185 0
23 85 84 24 82 27 81 -188 0
23 85 84 24 82 27 81 -187 0
23 61 30 60 24 57 27 -175 0
23 61 30 60 24 57 27 -173 0
23 61 30 60 24 57 27 -176 0
23 61 30 60 24 57 27 -174 0
23 61 30 60 24 57 62 -175 0
23 61 30 60 24 57 62 -173 0
23 61 30 60 24 57 62 -176 0
23 61 30 60 24 57 62 -174 0
23 61 30 60 24 27 62 -175 0
23 61 30 60 24 27 62 -173 0
23 61 30 60 24 27 62 -176 0
23 61 30 60 24 27 62 -174 0
23 61 30 60 57 27 62 -175 0
23 61 30 60 57 27 62 -173 0
23 61 30 60 57 27 62 -176 0
23 61 30 60 57 27 62 -174 0
23 61 30 24 57 27 62 -175 0
23 61 30 24 57 27 62 -173 0
23 61 30 24 57 27 62 -176 0
23 61 30 24 57 27 62 -174 0
23 61 60 24 57 27 62 -175 0
23 61 60 24 57 27 62 -173 0
23 61 60 24 57 27 62 -176 0
23 61 60 24 57 27 62 -174 0
23 4 30 1 24 3 27 -28 0
23 4 30 1 24 3 27 -26 0
23 4 30 1 24 3 27 -25 0
23 4 30 1 24 3 27 -29 0
23 4 30 1 24 3 5 -28 0
23 4 30 1 24 3 5 -26 0
23 4 30 1 24 3 5 -25 0
23 4 30 1 24 3 5 -29 0
23 4 30 1 24 27 5 -28 0
23 4 30 1 24 27 5 -26 0
23 4 30 1 24 27 5 -25 0
23 4 30 1 24 27 5 -29 0
23 4 30 1 3 27 5 -28 0
23 4 30 1 3 27 5 -26 0
23 4 30 1 3 27 5 -25 0
23 4 30 1 3 27 5 -29 0
23 4 30 24 3 27 5 -28 0
23 4 30 24 3 27 5 -26 0
23 4 30 24 3 27 5 -25 0
23 4 30 24 3 27 5 -29 0
23 4 1 24 3 27 5 -28 0
23 4 1 24 3 27 5 -26 0
23 4 1 24 3 27 5 -25 0
23 4 1 24 3 27 5 -29 0
23 41 30 43 24 44 27 -166 0
23 41 30 43 24 44 27 -165 0
23 41 30 43 24 44 27 -168 0
23 41 30 43 24 44 27 -167 0
23 63 30 65 24 66 27 -180 0
23 63 30 65 24 66 27 -178 0
23 63 30 65 24 66 27 -179 0
23 63 30 65 24 66 27 -177 0
23 32 30 34 24 31 27 -164 0
23 32 30 34 24 31 27 -163 0
23 32 30 34 24 31 27 -161 0
23 32 30 34 24 31 27 -162 0
23 47 30 51 24 52 27 -172 0
23 47 30 51 24 52 27 -169 0
23 47 30 51 24 52 27 -170 0
23 47 30 51 24 52 27 -171 0
23 8 30 7 24 10 27 -93 0
23 8 30 7 24 10 27 -94 0
23 8 30 7 24 10 27 -96 0
23 8 30 7 24 10 27 -95 0
23 73 30 74 24 72 27 -183 0
23 73 30 74 24 72 27 -182 0
23 73 30 74 24 72 27 -181 0
23 73 30 74 24 72 27 -184 0
23 30 16 24 18 27 15 -130 0
23 30 16 24 18 27 15 -127 0
23 30 16 24 18 27 15 -128 0
23 30 16 24 18 27 15 -129 0
23 30 84 24 82 27 81 -186 0
23 30 84 24 82 27 81 -185 0
23 30 84 24 82 27 81 -188 0
23 30 84 24 82 27 81 -187 0
23 30 60 24 57 27 62 -175 0
23 30 60 24 57 27 62 -173 0
23 30 60 24 57 27 62 -176 0
23 30 60 24 57 27 62 -174 0
23 30 1 24 3 27 5 -28 0
23 30 1 24 3 27 5 -26 0
23 30 1 24 3 27 5 -25 0
23 30 1 24 3 27 5 -29 0
21 85 16 84 18 82 15 -156 0
21 85 16 84 18 82 15 -155 0
21 85 16 84 18 82 15 -158 0
21 85 16 84 18 82 15 -157 0
21 85 16 84 18 82 81 -156 0
21 85 16 84 18 82 81 -155 0
21 85 16 84 18 82 81 -158 0
21 85 16 84 18 82 81 -157 0
21 85 16 84 18 15 81 -156 0
21 85 16 84 18 15 81 -155 0
21 85 16 84 18 15 81 -158 0
21 85 16 84 18 15 81 -157 0
21 85 16 84 82 15 81 -156 0
21 85 16 84 82 15 81 -155 0
21 85 16 84 82 15 81 -158 0
21 85 16 84 82 15 81 -157 0
21 85 16 18 82 15 81 -156 0
21 85 16 18 82 15 81 -155 0
21 85 16 18 82 15 81 -158 0
21 85 16 18 82 15 81 -157 0
21 85 84 18 82 15 81 -156 0
21 85 84 18 82 15 81 -155 0
21 85 84 18 82 15 81 -158 0
21 85 84 18 82 15 81 -157 0
21 61 16 60 18 57 15 -146 0
21 61 16 60 18 57 15 -143 0
21 61 16 60 18 57 15 -144 0
21 61 16 60 18 57 15 -145 0
21 61 16 60 18 57 62 -146 0
21 61 16 60 18 57 62 -143 0
21 61 16 60 18 57 62 -144 0
21 61 16 60 18 57 62 -145 0
21 61 16 60 18 15 62 -146 0
21 61 16 60 18 15 62 -143 0
21 61 16 60 18 15 62 -144 0
21 61 16 60 18 15 62 -145 0
21 61 16 60 57 15 62 -146 0
21 61 16 60 57 15 62 -143 0
21 61 16 60 57 15 62 -144 0
21 61 16 60 57 15 62 -145 0
21 61 16 18 57 15 62 -146 0
21 61 16 18 57 15 62 -143 0
21 61 16 18 57 15 62 -144 0
21 61 16 18 57 15 62 -145 0
21 61 60 18 57 15 62 -146 0
21 61 60 18 57 15 62 -143 0
21 61 60 18 57 15 62 -144 0
21 61 60 18 57 15 62 -145 0
21 4 16 1 18 3 15 -17 0
21 4 16 1 18 3 15 -19 0
21 4 16 1 18 3 15 -20 0
21 4 16 1 18 3 15 -22 0
21 4 16 1 18 3 5 -17 0
21 4 16 1 18 3 5 -19 0
21 4 16 1 18 3 5 -20 0
21 4 16 1 18 3 5 -22 0
21 4 16 1 18 15 5 -17 0
21 4 16 1 18 15 5 -19 0
21 4 16 1 18 15 5 -20 0
21 4 16 1 18 15 5 -22 0
21 4 16 1 3 15 5 -17 0
21 4 16 1 3 15 5 -19 0
21 4 16 1 3 15 5 -20 0
21 4 16 1 3 15 5 -22 0
21 4 16 18 3 15 5 -17 0
21 4 16 18 3 15 5 -19 0
21 4 16 18 3 15 5 -20 0
21 4 16 18 3 15 5 -22 0
21 4 1 18 3 15 5 -17 0
21 4 1 18 3 15 5 -19 0
21 4 1 18 3 15 5 -20 0
21 4 1 18 3 15 5 -22 0
21 41 16 43 18 44 15 -136 0
21 41 16 43 18 44 15 -135 0
21 41 16 43 18 44 15 -137 0
21 41 16 43 18 44 15 -138 0
21 63 16 65 18 66 15 -150 0
21 63 16 65 18 66 15 -147 0
21 63 16 65 18 66 15 -149 0
21 63 16 65 18 66 15 -148 0
21 32 16 34 18 31 15 -134 0
21 32 16 34 18 31 15 -131 0
21 32 16 34 18 31 15 -132 0
21 32 16 34 18 31 15 -133 0
21 47 16 51 18 52 15 -141 0
21 47 16 51 18 52 15 -140 0
21 47 16 51 18 52 15 -139 0
21 47 16 51 18 52 15 -142 0
21 8 16 7 18 10 15 -91 0
21 8 16 7 18 10 15 -90 0
21 8 16 7 18 10 15 -92 0
21 8 16 7 18 10 15 -89 0
21 73 16 74 18 72 15 -152 0
21 73 16 74 18 72 15 -151 0
21 73 16 74 18 72 15 -153 0
21 73 16 74 18 72 15 -154 0
21 30 16 24 18 27 15 -130 0
21 30 16 24 18 27 15 -127 0
21 30 16 24 18 27 15 -128 0
21 30 16 24 18 27 15 -129 0
21 16 84 18 82 15 81 -156 0
21 16 84 18 82 15 81 -155 0
21 16 84 18 82 15 81 -158 0
21 16 84 18 82 15 81 -157 0
21 16 60 18 57 15 62 -146 0
21 16 60 18 57 15 62 -143 0
21 16 60 18 57 15 62 -144 0
21 16 60 18 57 15 62 -145 0
21 16 1 18 3 15 5 -17 0
21 16 1 18 3 15 5 -19 0
21 16 1 18 3 15 5 -20 0
21 16 1 18 3 15 5 -22 0
85 61 84 60 82 57 81 -267 0
85 61 84 60 82 57 81 -265 0
85 61 84 60 82 57 81 -268 0
85 61 84 60 82 57 81 -266 0
85 61 84 60 82 57 62 -267 0
85 61 84 60 82 57 62 -265 0
85 61 84 60 82 57 62 -268 0
85 61 84 60 82 57 62 -266 0
85 61 84 60 82 81 62 -267 0
85 61 84 60 82 81 62 -265 0
85 61 84 60 82 81 62 -268 0
85 61 84 60 82 81 62 -266 0
85 61 84 60 57 81 62 -267 0
85 61 84 60 57 81 62 -265 0
85 61 84 60 57 81 62 -268 0
85 61 84 60 57 81 62 -266 0
85 61 84 82 57 81 62 -267 0
85 61 84 82 57 81 62 -265 0
85 61 84 82 57 81 62 -268 0
85 61 84 82 57 81 62 -266 0
85 61 60 82 57 81 62 -267 0
85 61 60 82 57 81 62 -265 0
85 61 60 82 57 81 62 -268 0
85 61 60 82 57 81 62 -266 0
85 4 84 1 82 3 81 -79 0
85 4 84 1 82 3 81 -86 0
85 4 84 1 82 3 81 -80 0
85 4 84 1 82 3 81 -83 0
85 4 84 1 82 3 5 -79 0
85 4 84 1 82 3 5 -86 0
85 4 84 1 82 3 5 -80 0
85 4 84 1 82 3 5 -83 0
85 4 84 1 82 81 5 -79 0
85 4 84 1 82 81 5 -86 0
85 4 84 1 82 81 5 -80 0
85 4 84 1 82 81 5 -83 0
85 4 84 1 3 81 5 -79 0
85 4 84 1 3 81 5 -86 0
85 4 84 1 3 81 5 -80 0
85 4 84 1 3 81 5 -83 0
85 4 84 82 3 81 5 -79 0
85 4 84 82 3 81 5 -86 0
85 4 84 82 3 81 5 -80 0
85 4 84 82 3 81 5 -83 0
85 4 1 82 3 81 5 -79 0
85 4 1 82 3 81 5 -86 0
85 4 1 82 3 81 5 -80 0
85 4 1 82 3 81 5 -83 0
85 41 84 43 82 44 81 -233 0
85 41 84 43 82 44 81 -235 0
85 41 84 43 82 44 81 -234 0
85 41 84 43 82 44 81 -236 0
85 63 84 65 82 66 81 -278 0
85 63 84 65 82 66 81 -275 0
85 63 84 65 82 66 81 -277 0
85 63 84 65 82 66 81 -276 0
85 32 84 34 82 31 81 -211 0
85 32 84 34 82 31 81 -214 0
85 32 84 34 82 31 81 -213 0
85 32 84 34 82 31 81 -212 0
85 47 84 51 82 52 81 -252 0
85 47 84 51 82 52 81 -251 0
85 47 84 51 82 52 81 -253 0
85 47 84 51 82 52 81 -254 0
85 8 84 7 82 10 81 -123 0
85 8 84 7 82 10 81 -121 0
85 8 84 7 82 10 81 -124 0
85 8 84 7 82 10 81 -122 0
85 73 84 74 82 72 81 -283 0
85 73 84 74 82 72 81 -282 0
85 73 84 74 82 72 81 -284 0
85 73 84 74 82 72 81 -281 0
85 30 84 24 82 27 81 -186 0
85 30 84 24 82 27 81 -185 0
85 30 84 24 82 27 81 -188 0
85 30 84 24 82 27 81 -187 0
85 16 84 18 82 15 81 -156 0
85 16 84 18 82 15 81 -155 0
85 16 84 18 82 15 81 -158 0
85 16 84 18 82 15 81 -157 0
85 84 60 82 57 81 62 -267 0
85 84 60 82 57 81 62 -265 0
85 84 60 82 57 81 62 -268 0
85 84 60 82 57 81 62 -266 0
85 84 1 82 3 81 5 -79 0
85 84 1 82 3 81 5 -86 0
85 84 1 82 3 81 5 -80 0
85 84 1 82 3 81 5 -83 0
61 4 60 1 57 3 62 -55 0
61 4 60 1 57 3 62 -56 0
61 4 60 1 57 3 62 -59 0
61 4 60 1 57 3 62 -58 0
61 4 60 1 57 3 5 -55 0
61 4 60 1 57 3 5 -56 0
61 4 60 1 57 3 5 -59 0
61 4 60 1 57 3 5 -58 0
61 4 60 1 57 62 5 -55 0
61 4 60 1 57 62 5 -56 0
61 4 60 1 57 62 5 -59 0
61 4 60 1 57 62 5 -58 0
61 4 60 1 3 62 5 -55 0
61 4 60 1 3 62 5 -56 0
61 4 60 1 3 62 5 -59 0
61 4 60 1 3 62 5 -58 0
61 4 60 57 3 62 5 -55 0
61 4 60 57 3 62 5 -56 0
61 4 60 57 3 62 5 -59 0
61 4 60 57 3 62 5 -58 0
61 4 1 57 3 62 5 -55 0
61 4 1 57 3 62 5 -56 0
61 4 1 57 3 62 5 -59 0
61 4 1 57 3 62 5 -58 0
61 41 60 43 57 44 62 -221 0
61 41 60 43 57 44 62 -222 0
61 41 60 43 57 44 62 -224 0
61 41 60 43 57 44 62 -223 0
61 63 60 65 57 66 62 -260 0
61 63 60 65 57 66 62 -257 0
61 63 60 65 57 66 62 -259 0
61 63 60 65 57 66 62 -258 0
61 32 60 34 57 31 62 -202 0
61 32 60 34 57 31 62 -201 0
61 32 60 34 57 31 62 -200 0
61 32 60 34 57 31 62 -199 0
61 47 60 51 57 52 62 -239 0
61 47 60 51 57 52 62 -241 0
61 47 60 51 57 52 62 -240 0
61 47 60 51 57 52 62 -242 0
61 8 60 7 57 10 62 -110 0
61 8 60 7 57 10 62 -109 0
61 8 60 7 57 10 62 -111 0
61 8 60 7 57 10 62 -112 0
61 73 60 74 57 72 62 -262 0
61 73 60 74 57 72 62 -263 0
61 73 60 74 57 72 62 -264 0
61 73 60 74 57 72 62 -261 0
61 30 60 24 57 27 62 -175 0
61 30 60 24 57 27 62 -173 0
61 30 60 24 57 27 62 -176 0
61 30 60 24 57 27 62 -174 0
61 16 60 18 57 15 62 -146 0
61 16 60 18 57 15 62 -143 0
61 16 60 18 57 15 62 -144 0
61 16 60 18 57 15 62 -145 0
61 84 60 82 57 81 62 -267 0
61 84 60 82 57 81 62 -265 0
61 84 60 82 57 81 62 -268 0
61 84 60 82 57 81 62 -266 0
61 60 1 57 3 62 5 -55 0
61 60 1 57 3 62 5 -56 0
61 60 1 57 3 62 5 -59 0
61 60 1 57 3 62 5 -58 0
4 41 1 43 3 44 5 -46 0
4 41 1 43 3 44 5 -45 0
4 41 1 43 3 44 5 -39 0
4 41 1 43 3 44 5 -40 0
4 63 1 65 3 66 5 -69 0
4 63 1 65 3 66 5 -68 0
4 63 1 65 3 66 5 -67 0
4 63 1 65 3 66 5 -70 0
4 32 1 34 3 31 5 -38 0
4 32 1 34 3 31 5 -33 0
4 32 1 34 3 31 5 -35 0
4 32 1 34 3 31 5 -36 0
4 47 1 51 3 52 5 -49 0
4 47 1 51 3 52 5 -50 0
4 47 1 51 3 52 5 -53 0
4 47 1 51 3 52 5 -54 0
4 8 1 7 3 10 5 -11 0
4 8 1 7 3 10 5 -14 0
4 8 1 7 3 10 5 -13 0
4 8 1 7 3 10 5 -12 0
4 73 1 74 3 72 5 -71 0
4 73 1 74 3 72 5 -76 0
4 73 1 74 3 72 5 -75 0
4 73 1 74 3 72 5 -78 0
4 30 1 24 3 27 5 -28 0
4 30 1 24 3 27 5 -26 0
4 30 1 24 3 27 5 -25 0
4 30 1 24 3 27 5 -29 0
4 16 1 18 3 15 5 -17 0
4 16 1 18 3 15 5 -19 0
4 16 1 18 3 15 5 -20 0
4 16 1 18 3 15 5 -22 0
4 84 1 82 3 81 5 -79 0
4 84 1 82 3 81 5 -86 0
4 84 1 82 3 81 5 -80 0
4 84 1 82 3 81 5 -83 0
4 60 1 57 3 62 5 -55 0
4 60 1 57 3 62 5 -56 0
4 60 1 57 3 62 5 -59 0
4 60 1 57 3 62 5 -58 0
42 64 41 63 43 65 44 66 -225 0
42 64 41 63 43 65 44 66 -228 0
42 64 41 63 43 65 44 66 -227 0
42 64 41 63 43 65 44 66 -226 0
42 37 41 32 43 34 44 31 -191 0
42 37 41 32 43 34 44 31 -192 0
42 37 41 32 43 34 44 31 -194 0
42 37 41 32 43 34 44 31 -193 0
42 48 41 47 43 51 44 52 -220 0
42 48 41 47 43 51 44 52 -218 0
42 48 41 47 43 51 44 52 -217 0
42 48 41 47 43 51 44 52 -219 0
42 9 41 8 43 7 44 10 -104 0
42 9 41 8 43 7 44 10 -103 0
42 9 41 8 43 7 44 10 -102 0
42 9 41 8 43 7 44 10 -101 0
42 77 41 73 43 74 44 72 -231 0
42 77 41 73 43 74 44 72 -229 0
42 77 41 73 43 74 44 72 -232 0
42 77 41 73 43 74 44 72 -230 0
42 23 41 30 43 24 44 27 -166 0
42 23 41 30 43 24 44 27 -165 0
42 23 41 30 43 24 44 27 -168 0
42 23 41 30 43 24 44 27 -167 0
42 21 41 16 43 18 44 15 -136 0
42 21 41 16 43 18 44 15 -135 0
42 21 41 16 43 18 44 15 -137 0
42 21 41 16 43 18 44 15 -138 0
42 85 41 84 43 82 44 81 -233 0
42 85 41 84 43 82 44 81 -235 0
42 85 41 84 43 82 44 81 -234 0
42 85 41 84 43 82 44 81 -236 0
42 61 41 60 43 57 44 62 -221 0
42 61 41 60 43 57 44 62 -222 0
42 61 41 60 43 57 44 62 -224 0
42 61 41 60 43 57 44 62 -223 0
42 4 41 1 43 3 44 5 -46 0
42 4 41 1 43 3 44 5 -45 0
42 4 41 1 43 3 44 5 -39 0
42 4 41 1 43 3 44 5 -40 0
64 37 63 32 65 34 66 31 -206 0
64 37 63 32 65 34 66 31 -205 0
64 37 63 32 65 34 66 31 -204 0
64 37 63 32 65 34 66 31 -203 0
64 48 63 47 65 51 66 52 -246 0
64 48 63 47 65 51 66 52 -243 0
64 48 63 47 65 51 66 52 -245 0
64 48 63 47 65 51 66 52 -244 0
64 9 63 8 65 7 66 10 -116 0
64 9 63 8 65 7 66 10 -114 0
64 9 63 8 65 7 66 10 -113 0
64 9 63 8 65 7 66 10 -115 0
64 77 63 73 65 74 66 72 -274 0
64 77 63 73 65 74 66 72 -273 0
64 77 63 73 65 74 66 72 -271 0
64 77 63 73 65 74 66 72 -272 0
64 23 63 30 65 24 66 27 -180 0
64 23 63 30 65 24 66 27 -178 0
64 23 63 30 65 24 66 27 -179 0
64 23 63 30 65 24 66 27 -177 0
64 21 63 16 65 18 66 15 -150 0
64 21 63 16 65 18 66 15 -147 0
64 21 63 16 65 18 66 15 -149 0
64 21 63 16 65 18 66 15 -148 0
64 85 63 84 65 82 66 81 -278 0
64 85 63 84 65 82 66 81 -275 0
64 85 63 84 65 82 66 81 -277 0
64 85 63 84 65 82 66 81 -276 0
64 61 63 60 65 57 66 62 -260 0
64 61 63 60 65 57 66 62 -257 0
64 61 63 60 65 57 66 62 -259 0
64 61 63 60 65 57 66 62 -258 0
64 4 63 1 65 3 66 5 -69 0
64 4 63 1 65 3 66 5 -68 0
64 4 63 1 65 3 66 5 -67 0
64 4 63 1 65 3 66 5 -70 0
37 48 32 47 34 51 31 52 -196 0
37 48 32 47 34 51 31 52 -198 0
37 48 32 47 34 51 31 52 -197 0
37 48 32 47 34 51 31 52 -195 0
37 9 32 8 34 7 31 10 -98 0
37 9 32 8 34 7 31 10 -97 0
37 9 32 8 34 7 31 10 -99 0
37 9 32 8 34 7 31 10 -100 0
37 77 32 73 34 74 31 72 -209 0
37 77 32 73 34 74 31 72 -210 0
37 77 32 73 34 74 31 72 -207 0
37 77 32 73 34 74 31 72 -208 0
37 23 32 30 34 24 31 27 -164 0
37 23 32 30 34 24 31 27 -163 0
37 23 32 30 34 24 31 27 -161 0
37 23 32 30 34 24 31 27 -162 0
37 21 32 16 34 18 31 15 -134 0
37 21 32 16 34 18 31 15 -131 0
37 21 32 16 34 18 31 15 -132 0
37 21 32 16 34 18 31 15 -133 0
37 85 32 84 34 82 31 81 -211 0
37 85 32 84 34 82 31 81 -214 0
37 85 32 84 34 82 31 81 -213 0
37 85 32 84 34 82 31 81 -212 0
37 61 32 60 34 57 31 62 -202 0
37 61 32 60 34 57 31 62 -201 0
37 61 32 60 34 57 31 62 -200 0
37 61 32 60 34 57 31 62 -199 0
37 4 32 1 34 3 31 5 -38 0
37 4 32 1 34 3 31 5 -33 0
37 4 32 1 34 3 31 5 -35 0
37 4 32 1 34 3 31 5 -36 0
48 9 47 8 51 7 52 10 -108 0
48 9 47 8 51 7 52 10 -107 0
48 9 47 8 51 7 52 10 -105 0
48 9 47 8 51 7 52 10 -106 0
48 77 47 73 51 74 52 72 -248 0
48 77 47 73 51 74 52 72 -250 0
48 77 47 73 51 74 52 72 -249 0
48 77 47 73 51 74 52 72 -247 0
48 23 47 30 51 24 52 27 -172 0
48 23 47 30 51 24 52 27 -169 0
48 23 47 30 51 24 52 27 -170 0
48 23 47 30 51 24 52 27 -171 0
48 21 47 16 51 18 52 15 -141 0
48 21 47 16 51 18 52 15 -140 0
48 21 47 16 51 18 52 15 -139 0
48 21 47 16 51 18 52 15 -142 0
48 85 47 84 51 82 52 81 -252 0
48 85 47 84 51 82 52 81 -251 0
48 85 47 84 51 82 52 81 -253 0
48 85 47 84 51 82 52 81 -254 0
48 61 47 60 51 57 52 62 -239 0
48 61 47 60 51 57 52 62 -241 0
48 61 47 60 51 57 52 62 -240 0
48 61 47 60 51 57 52 62 -242 0
48 4 47 1 51 3 52 5 -49 0
48 4 47 1 51 3 52 5 -50 0
48 4 47 1 51 3 52 5 -53 0
48 4 47 1 51 3 52 5 -54 0
9 77 8 73 7 74 10 72 -118 0
9 77 8 73 7 74 10 72 -117 0
9 77 8 73 7 74 10 72 -119 0
9 77 8 73 7 74 10 72 -120 0
9 23 8 30 7 24 10 27 -93 0
9 23 8 30 7 24 10 27 -94 0
9 23 8 30 7 24 10 27 -96 0
9 23 8 30 7 24 10 27 -95 0
9 21 8 16 7 18 10 15 -91 0
9 21 8 16 7 18 10 15 -90 0
9 21 8 16 7 18 10 15 -92 0
9 21 8 16 7 18 10 15 -89 0
9 85 8 84 7 82 10 81 -123 0
9 85 8 84 7 82 10 81 -121 0
9 85 8 84 7 82 10 81 -124 0
9 85 8 84 7 82 10 81 -122 0
9 61 8 60 7 57 10 62 -110 0
9 61 8 60 7 57 10 62 -109 0
9 61 8 60 7 57 10 62 -111 0
9 61 8 60 7 57 10 62 -112 0
9 4 8 1 7 3 10 5 -11 0
9 4 8 1 7 3 10 5 -14 0
9 4 8 1 7 3 10 5 -13 0
9 4 8 1 7 3 10 5 -12 0
77 23 73 30 74 24 72 27 -183 0
77 23 73 30 74 24 72 27 -182 0
77 23 73 30 74 24 72 27 -181 0
77 23 73 30 74 24 72 27 -184 0
77 21 73 16 74 18 72 15 -152 0
77 21 73 16 74 18 72 15 -151 0
77 21 73 16 74 18 72 15 -153 0
77 21 73 16 74 18 72 15 -154 0
77 85 73 84 74 82 72 81 -283 0
77 85 73 84 74 82 72 81 -282 0
77 85 73 84 74 82 72 81 -284 0
77 85 73 84 74 82 72 81 -281 0
77 61 73 60 74 57 72 62 -262 0
77 61 73 60 74 57 72 62 -263 0
77 61 73 60 74 57 72 62 -264 0
77 61 73 60 74 57 72 62 -261 0
77 4 73 1 74 3 72 5 -71 0
77 4 73 1 74 3 72 5 -76 0
77 4 73 1 74 3 72 5 -75 0
77 4 73 1 74 3 72 5 -78 0
23 21 30 16 24 18 27 15 -130 0
23 21 30 16 24 18 27 15 -127 0
23 21 30 16 24 18 27 15 -128 0
23 21 30 16 24 18 27 15 -129 0
23 85 30 84 24 82 27 81 -186 0
23 85 30 84 24 82 27 81 -185 0
23 85 30 84 24 82 27 81 -188 0
23 85 30 84 24 82 27 81 -187 0
23 61 30 60 24 57 27 62 -175 0
23 61 30 60 24 57 27 62 -173 0
23 61 30 60 24 57 27 62 -176 0
23 61 30 60 24 57 27 62 -174 0
23 4 30 1 24 3 27 5 -28 0
23 4 30 1 24 3 27 5 -26 0
23 4 30 1 24 3 27 5 -25 0
23 4 30 1 24 3 27 5 -29 0
21 85 16 84 18 82 15 81 -156 0
21 85 16 84 18 82 15 81 -155 0
21 85 16 84 18 82 15 81 -158 0
21 85 16 84 18 82 15 81 -157 0
21 61 16 60 18 57 15 62 -146 0
21 61 16 60 18 57 15 62 -143 0
21 61 16 60 18 57 15 62 -144 0
21 61 16 60 18 57 15 62 -145 0
21 4 16 1 18 3 15 5 -17 0
21 4 16 1 18 3 15 5 -19 0
21 4 16 1 18 3 15 5 -20 0
21 4 16 1 18 3 15 5 -22 0
85 61 84 60 82 57 81 62 -267 0
85 61 84 60 82 57 81 62 -265 0
85 61 84 60 82 57 81 62 -268 0
85 61 84 60 82 57 81 62 -266 0
85 4 84 1 82 3 81 5 -79 0
85 4 84 1 82 3 81 5 -86 0
85 4 84 1 82 3 81 5 -80 0
85 4 84 1 82 3 81 5 -83 0
61 4 60 1 57 3 62 5 -55 0
61 4 60 1 57 3 62 5 -56 0
61 4 60 1 57 3 62 5 -59 0
61 4 60 1 57 3 62 5 -58 0
215 225 191 220 104 231 166 136 233 221 46 0
228 269 206 246 116 274 180 150 278 260 69 0
192 205 189 196 98 209 164 134 211 202 38 0
218 243 198 237 108 248 172 141 252 239 49 0
103 114 97 107 87 118 93 91 123 110 11 0
229 273 210 250 117 279 183 152 283 262 71 0
165 178 163 169 94 182 160 130 186 175 28 0
135 147 131 140 90 151 127 125 156 146 17 0
235 275 214 251 121 282 185 155 286 267 79 0
222 257 201 241 109 263 173 143 265 256 55 0
45 68 33 50 14 76 26 19 86 56 2 0
216 227 194 217 102 232 168 137 234 224 39 0
226 270 204 245 113 271 179 149 277 259 67 0
193 203 190 197 99 207 161 132 213 200 35 0
219 244 195 238 105 249 170 139 253 240 53 0
101 115 100 106 88 119 96 92 124 111 13 0
230 272 208 247 120 280 181 153 284 264 75 0
167 177 162 171 95 184 159 128 188 176 25 0
138 148 133 142 89 154 129 126 158 144 20 0
236 276 212 254 122 281 187 157 285 268 80 0
223 258 199 242 112 261 174 145 266 255 59 0
40 70 36 54 12 78 29 22 83 58 6 0
