c U2(2) U1(2) U3(2) E2(2,2) E1(2,2) U4(2) U2(1) E1(1,2) U1(1) U3(1) U4(1) E2(1,2) E1(2,1) E2(2,1) U4(0) E2(0,2) U2(0) U1(0) E1(0,2) U3(0) E2(2,0) E1(2,0) U2(3) U1(3) E1(3,2) U3(3) E2(2,3) U4(3) E1(2,3) E2(3,2) E1(1,1) E2(1,1) E1(0,1) E2(1,0) E2(0,1) E1(1,0) E2(3,1) E1(3,1) E2(1,3) E1(1,3) E2(0,0) E1(0,0) E1(3,0) E2(3,0) E2(0,3) E1(0,3) E1(3,3) E2(3,3)
c 1 2 3 4 5 6 7 8 9 10 11 12 13 14 15 16 17 18 19 20 21 22 23 24 25 26 27 28 29 30 31 32 33 34 35 36 37 38 39 40 41 42 43 44 45 46 47 48
p cnf 48 916
-18 -17 0
-18 -20 0
-18 -15 0
-9 -7 0
-9 -10 0
-9 -11 0
-2 -1 0
-2 -3 0
-2 -6 0
-24 -23 0
-24 -26 0
-24 -28 0
-17 -20 0
-17 -15 0
-7 -10 0
-7 -11 0
-1 -3 0
-1 -6 0
-23 -26 0
-23 -28 0
-20 -15 0
-10 -11 0
-3 -6 0
-26 -28 0
42 33 19 46 0
36 31 8 40 0
22 13 5 29 0
43 38 25 47 0
41 35 16 45 0
34 32 12 39 0
21 14 4 27 0
44 37 30 48 0
18 17 20 15 0
9 7 10 11 0
2 1 3 6 0
24 23 26 28 0
18 17 20 -42 0
18 17 20 -41 0
18 17 15 -42 0
18 17 15 -41 0
18 20 15 -42 0
18 20 15 -41 0
9 7 10 -31 0
9 7 10 -32 0
9 7 11 -31 0
9 7 11 -32 0
9 10 11 -31 0
9 10 11 -32 0
2 1 3 -5 0
2 1 3 -4 0
2 1 6 -5 0
2 1 6 -4 0
2 3 6 -5 0
2 3 6 -4 0
24 23 26 -47 0
24 23 26 -48 0
24 23 28 -47 0
24 23 28 -48 0
24 26 28 -47 0
24 26 28 -48 0
17 20 15 -42 0
17 20 15 -41 0
7 10 11 -31 0
7 10 11 -32 0
1 3 6 -5 0
1 3 6 -4 0
23 26 28 -47 0
23 26 28 -48 0
18 17 20 15 -42 0
18 17 20 15 -33 0
18 17 20 15 -19 0
18 17 20 15 -46 0
18 17 20 15 -36 0
18 17 20 15 -22 0
18 17 20 15 -43 0
18 17 20 15 -41 0
18 17 20 15 -35 0
18 17 20 15 -16 0
18 17 20 15 -45 0
18 17 20 15 -34 0
18 17 20 15 -21 0
18 17 20 15 -44 0
9 7 10 11 -33 0
9 7 10 11 -36 0
9 7 10 11 -31 0
9 7 10 11 -8 0
9 7 10 11 -40 0
9 7 10 11 -13 0
9 7 10 11 -38 0
9 7 10 11 -35 0
9 7 10 11 -34 0
9 7 10 11 -32 0
9 7 10 11 -12 0
9 7 10 11 -39 0
9 7 10 11 -14 0
9 7 10 11 -37 0
2 1 3 6 -19 0
2 1 3 6 -8 0
2 1 3 6 -22 0
2 1 3 6 -13 0
2 1 3 6 -5 0
2 1 3 6 -29 0
2 1 3 6 -25 0
2 1 3 6 -16 0
2 1 3 6 -12 0
2 1 3 6 -21 0
2 1 3 6 -14 0
2 1 3 6 -4 0
2 1 3 6 -27 0
2 1 3 6 -30 0
24 23 26 28 -46 0
24 23 26 28 -40 0
24 23 26 28 -29 0
24 23 26 28 -43 0
24 23 26 28 -38 0
24 23 26 28 -25 0
24 23 26 28 -47 0
24 23 26 28 -45 0
24 23 26 28 -39 0
24 23 26 28 -27 0
24 23 26 28 -44 0
24 23 26 28 -37 0
24 23 26 28 -30 0
24 23 26 28 -48 0
18 9 17 20 15 -33 0
18 9 17 20 15 -36 0
18 9 17 20 15 -35 0
18 9 17 20 15 -34 0
18 9 7 10 11 -33 0
18 9 7 10 11 -36 0
18 9 7 10 11 -35 0
18 9 7 10 11 -34 0
18 2 17 20 15 -19 0
18 2 17 20 15 -22 0
18 2 17 20 15 -16 0
18 2 17 20 15 -21 0
18 2 1 3 6 -19 0
18 2 1 3 6 -22 0
18 2 1 3 6 -16 0
18 2 1 3 6 -21 0
18 24 17 20 15 -46 0
18 24 17 20 15 -43 0
18 24 17 20 15 -45 0
18 24 17 20 15 -44 0
18 24 23 26 28 -46 0
18 24 23 26 28 -43 0
18 24 23 26 28 -45 0
18 24 23 26 28 -44 0
18 17 7 20 15 -33 0
18 17 7 20 15 -36 0
18 17 7 20 15 -35 0
18 17 7 20 15 -34 0
18 17 1 20 15 -19 0
18 17 1 20 15 -22 0
18 17 1 20 15 -16 0
18 17 1 20 15 -21 0
18 17 23 20 15 -46 0
18 17 23 20 15 -43 0
18 17 23 20 15 -45 0
18 17 23 20 15 -44 0
18 17 20 10 15 -33 0
18 17 20 10 15 -36 0
18 17 20 10 15 -35 0
18 17 20 10 15 -34 0
18 17 20 3 15 -19 0
18 17 20 3 15 -22 0
18 17 20 3 15 -16 0
18 17 20 3 15 -21 0
18 17 20 26 15 -46 0
18 17 20 26 15 -43 0
18 17 20 26 15 -45 0
18 17 20 26 15 -44 0
18 17 20 15 11 -33 0
18 17 20 15 11 -36 0
18 17 20 15 11 -35 0
18 17 20 15 11 -34 0
18 17 20 15 6 -19 0
18 17 20 15 6 -22 0
18 17 20 15 6 -16 0
18 17 20 15 6 -21 0
18 17 20 15 28 -46 0
18 17 20 15 28 -43 0
18 17 20 15 28 -45 0
18 17 20 15 28 -44 0
9 2 7 10 11 -8 0
9 2 7 10 11 -13 0
9 2 7 10 11 -12 0
9 2 7 10 11 -14 0
9 2 1 3 6 -8 0
9 2 1 3 6 -13 0
9 2 1 3 6 -12 0
9 2 1 3 6 -14 0
9 24 7 10 11 -40 0
9 24 7 10 11 -38 0
9 24 7 10 11 -39 0
9 24 7 10 11 -37 0
9 24 23 26 28 -40 0
9 24 23 26 28 -38 0
9 24 23 26 28 -39 0
9 24 23 26 28 -37 0
9 17 7 10 11 -33 0
9 17 7 10 11 -36 0
9 17 7 10 11 -35 0
9 17 7 10 11 -34 0
9 7 1 10 11 -8 0
9 7 1 10 11 -13 0
9 7 1 10 11 -12 0
9 7 1 10 11 -14 0
9 7 23 10 11 -40 0
9 7 23 10 11 -38 0
9 7 23 10 11 -39 0
9 7 23 10 11 -37 0
9 7 20 10 11 -33 0
9 7 20 10 11 -36 0
9 7 20 10 11 -35 0
9 7 20 10 11 -34 0
9 7 10 3 11 -8 0
9 7 10 3 11 -13 0
9 7 10 3 11 -12 0
9 7 10 3 11 -14 0
9 7 10 26 11 -40 0
9 7 10 26 11 -38 0
9 7 10 26 11 -39 0
9 7 10 26 11 -37 0
9 7 10 15 11 -33 0
9 7 10 15 11 -36 0
9 7 10 15 11 -35 0
9 7 10 15 11 -34 0
9 7 10 11 6 -8 0
9 7 10 11 6 -13 0
9 7 10 11 6 -12 0
9 7 10 11 6 -14 0
9 7 10 11 28 -40 0
9 7 10 11 28 -38 0
9 7 10 11 28 -39 0
9 7 10 11 28 -37 0
2 24 1 3 6 -29 0
2 24 1 3 6 -25 0
2 24 1 3 6 -27 0
2 24 1 3 6 -30 0
2 24 23 26 28 -29 0
2 24 23 26 28 -25 0
2 24 23 26 28 -27 0
2 24 23 26 28 -30 0
2 17 1 3 6 -19 0
2 17 1 3 6 -22 0
2 17 1 3 6 -16 0
2 17 1 3 6 -21 0
2 7 1 3 6 -8 0
2 7 1 3 6 -13 0
2 7 1 3 6 -12 0
2 7 1 3 6 -14 0
2 1 23 3 6 -29 0
2 1 23 3 6 -25 0
2 1 23 3 6 -27 0
2 1 23 3 6 -30 0
2 1 20 3 6 -19 0
2 1 20 3 6 -22 0
2 1 20 3 6 -16 0
2 1 20 3 6 -21 0
2 1 10 3 6 -8 0
2 1 10 3 6 -13 0
2 1 10 3 6 -12 0
2 1 10 3 6 -14 0
2 1 3 26 6 -29 0
2 1 3 26 6 -25 0
2 1 3 26 6 -27 0
2 1 3 26 6 -30 0
2 1 3 15 6 -19 0
2 1 3 15 6 -22 0
2 1 3 15 6 -16 0
2 1 3 15 6 -21 0
2 1 3 11 6 -8 0
2 1 3 11 6 -13 0
2 1 3 11 6 -12 0
2 1 3 11 6 -14 0
2 1 3 6 28 -29 0
2 1 3 6 28 -25 0
2 1 3 6 28 -27 0
2 1 3 6 28 -30 0
24 17 23 26 28 -46 0
24 17 23 26 28 -43 0
24 17 23 26 28 -45 0
24 17 23 26 28 -44 0
24 7 23 26 28 -40 0
24 7 23 26 28 -38 0
24 7 23 26 28 -39 0
24 7 23 26 28 -37 0
24 1 23 26 28 -29 0
24 1 23 26 28 -25 0
24 1 23 26 28 -27 0
24 1 23 26 28 -30 0
24 23 20 26 28 -46 0
24 23 20 26 28 -43 0
24 23 20 26 28 -45 0
24 23 20 26 28 -44 0
24 23 10 26 28 -40 0
24 23 10 26 28 -38 0
24 23 10 26 28 -39 0
24 23 10 26 28 -37 0
24 23 3 26 28 -29 0
24 23 3 26 28 -25 0
24 23 3 26 28 -27 0
24 23 3 26 28 -30 0
24 23 26 15 28 -46 0
24 23 26 15 28 -43 0
24 23 26 15 28 -45 0
24 23 26 15 28 -44 0
24 23 26 11 28 -40 0
24 23 26 11 28 -38 0
24 23 26 11 28 -39 0
24 23 26 11 28 -37 0
24 23 26 6 28 -29 0
24 23 26 6 28 -25 0
24 23 26 6 28 -27 0
24 23 26 6 28 -30 0
18 9 17 7 20 10 -33 0
18 9 17 7 20 10 -36 0
18 9 17 7 20 10 -35 0
18 9 17 7 20 10 -34 0
18 9 17 7 20 15 -33 0
18 9 17 7 20 15 -36 0
18 9 17 7 20 15 -35 0
18 9 17 7 20 15 -34 0
18 9 17 7 10 11 -33 0
18 9 17 7 10 11 -36 0
18 9 17 7 10 11 -35 0
18 9 17 7 10 11 -34 0
18 9 17 7 15 11 -33 0
18 9 17 7 15 11 -36 0
18 9 17 7 15 11 -35 0
18 9 17 7 15 11 -34 0
18 9 17 20 10 15 -33 0
18 9 17 20 10 15 -36 0
18 9 17 20 10 15 -35 0
18 9 17 20 10 15 -34 0
18 9 17 20 15 11 -33 0
18 9 17 20 15 11 -36 0
18 9 17 20 15 11 -35 0
18 9 17 20 15 11 -34 0
18 9 7 20 10 11 -33 0
18 9 7 20 10 11 -36 0
18 9 7 20 10 11 -35 0
18 9 7 20 10 11 -34 0
18 9 7 10 15 11 -33 0
18 9 7 10 15 11 -36 0
18 9 7 10 15 11 -35 0
18 9 7 10 15 11 -34 0
18 9 20 10 15 11 -33 0
18 9 20 10 15 11 -36 0
18 9 20 10 15 11 -35 0
18 9 20 10 15 11 -34 0
18 2 17 1 20 3 -19 0
18 2 17 1 20 3 -22 0
18 2 17 1 20 3 -16 0
18 2 17 1 20 3 -21 0
18 2 17 1 20 15 -19 0
18 2 17 1 20 15 -22 0
18 2 17 1 20 15 -16 0
18 2 17 1 20 15 -21 0
18 2 17 1 3 6 -19 0
18 2 17 1 3 6 -22 0
18 2 17 1 3 6 -16 0
18 2 17 1 3 6 -21 0
18 2 17 1 15 6 -19 0
18 2 17 1 15 6 -22 0
18 2 17 1 15 6 -16 0
18 2 17 1 15 6 -21 0
18 2 17 20 3 15 -19 0
18 2 17 20 3 15 -22 0
18 2 17 20 3 15 -16 0
18 2 17 20 3 15 -21 0
18 2 17 20 15 6 -19 0
18 2 17 20 15 6 -22 0
18 2 17 20 15 6 -16 0
18 2 17 20 15 6 -21 0
18 2 1 20 3 6 -19 0
18 2 1 20 3 6 -22 0
18 2 1 20 3 6 -16 0
18 2 1 20 3 6 -21 0
18 2 1 3 15 6 -19 0
18 2 1 3 15 6 -22 0
18 2 1 3 15 6 -16 0
18 2 1 3 15 6 -21 0
18 2 20 3 15 6 -19 0
18 2 20 3 15 6 -22 0
18 2 20 3 15 6 -16 0
18 2 20 3 15 6 -21 0
18 24 17 23 20 26 -46 0
18 24 17 23 20 26 -43 0
18 24 17 23 20 26 -45 0
18 24 17 23 20 26 -44 0
18 24 17 23 20 15 -46 0
18 24 17 23 20 15 -43 0
18 24 17 23 20 15 -45 0
18 24 17 23 20 15 -44 0
18 24 17 23 26 28 -46 0
18 24 17 23 26 28 -43 0
18 24 17 23 26 28 -45 0
18 24 17 23 26 28 -44 0
18 24 17 23 15 28 -46 0
18 24 17 23 15 28 -43 0
18 24 17 23 15 28 -45 0
18 24 17 23 15 28 -44 0
18 24 17 20 26 15 -46 0
18 24 17 20 26 15 -43 0
18 24 17 20 26 15 -45 0
18 24 17 20 26 15 -44 0
18 24 17 20 15 28 -46 0
18 24 17 20 15 28 -43 0
18 24 17 20 15 28 -45 0
18 24 17 20 15 28 -44 0
18 24 23 20 26 28 -46 0
18 24 23 20 26 28 -43 0
18 24 23 20 26 28 -45 0
18 24 23 20 26 28 -44 0
18 24 23 26 15 28 -46 0
18 24 23 26 15 28 -43 0
18 24 23 26 15 28 -45 0
18 24 23 26 15 28 -44 0
18 24 20 26 15 28 -46 0
18 24 20 26 15 28 -43 0
18 24 20 26 15 28 -45 0
18 24 20 26 15 28 -44 0
18 17 7 20 10 15 -33 0
18 17 7 20 10 15 -36 0
18 17 7 20 10 15 -35 0
18 17 7 20 10 15 -34 0
18 17 7 20 15 11 -33 0
18 17 7 20 15 11 -36 0
18 17 7 20 15 11 -35 0
18 17 7 20 15 11 -34 0
18 17 1 20 3 15 -19 0
18 17 1 20 3 15 -22 0
18 17 1 20 3 15 -16 0
18 17 1 20 3 15 -21 0
18 17 1 20 15 6 -19 0
18 17 1 20 15 6 -22 0
18 17 1 20 15 6 -16 0
18 17 1 20 15 6 -21 0
18 17 23 20 26 15 -46 0
18 17 23 20 26 15 -43 0
18 17 23 20 26 15 -45 0
18 17 23 20 26 15 -44 0
18 17 23 20 15 28 -46 0
18 17 23 20 15 28 -43 0
18 17 23 20 15 28 -45 0
18 17 23 20 15 28 -44 0
18 17 20 10 15 11 -33 0
18 17 20 10 15 11 -36 0
18 17 20 10 15 11 -35 0
18 17 20 10 15 11 -34 0
18 17 20 3 15 6 -19 0
18 17 20 3 15 6 -22 0
18 17 20 3 15 6 -16 0
18 17 20 3 15 6 -21 0
18 17 20 26 15 28 -46 0
18 17 20 26 15 28 -43 0
18 17 20 26 15 28 -45 0
18 17 20 26 15 28 -44 0
9 2 7 1 10 3 -8 0
9 2 7 1 10 3 -13 0
9 2 7 1 10 3 -12 0
9 2 7 1 10 3 -14 0
9 2 7 1 10 11 -8 0
9 2 7 1 10 11 -13 0
9 2 7 1 10 11 -12 0
9 2 7 1 10 11 -14 0
9 2 7 1 3 6 -8 0
9 2 7 1 3 6 -13 0
9 2 7 1 3 6 -12 0
9 2 7 1 3 6 -14 0
9 2 7 1 11 6 -8 0
9 2 7 1 11 6 -13 0
9 2 7 1 11 6 -12 0
9 2 7 1 11 6 -14 0
9 2 7 10 3 11 -8 0
9 2 7 10 3 11 -13 0
9 2 7 10 3 11 -12 0
9 2 7 10 3 11 -14 0
9 2 7 10 11 6 -8 0
9 2 7 10 11 6 -13 0
9 2 7 10 11 6 -12 0
9 2 7 10 11 6 -14 0
9 2 1 10 3 6 -8 0
9 2 1 10 3 6 -13 0
9 2 1 10 3 6 -12 0
9 2 1 10 3 6 -14 0
9 2 1 3 11 6 -8 0
9 2 1 3 11 6 -13 0
9 2 1 3 11 6 -12 0
9 2 1 3 11 6 -14 0
9 2 10 3 11 6 -8 0
9 2 10 3 11 6 -13 0
9 2 10 3 11 6 -12 0
9 2 10 3 11 6 -14 0
9 24 7 23 10 26 -40 0
9 24 7 23 10 26 -38 0
9 24 7 23 10 26 -39 0
9 24 7 23 10 26 -37 0
9 24 7 23 10 11 -40 0
9 24 7 23 10 11 -38 0
9 24 7 23 10 11 -39 0
9 24 7 23 10 11 -37 0
9 24 7 23 26 28 -40 0
9 24 7 23 26 28 -38 0
9 24 7 23 26 28 -39 0
9 24 7 23 26 28 -37 0
9 24 7 23 11 28 -40 0
9 24 7 23 11 28 -38 0
9 24 7 23 11 28 -39 0
9 24 7 23 11 28 -37 0
9 24 7 10 26 11 -40 0
9 24 7 10 26 11 -38 0
9 24 7 10 26 11 -39 0
9 24 7 10 26 11 -37 0
9 24 7 10 11 28 -40 0
9 24 7 10 11 28 -38 0
9 24 7 10 11 28 -39 0
9 24 7 10 11 28 -37 0
9 24 23 10 26 28 -40 0
9 24 23 10 26 28 -38 0
9 24 23 10 26 28 -39 0
9 24 23 10 26 28 -37 0
9 24 23 26 11 28 -40 0
9 24 23 26 11 28 -38 0
9 24 23 26 11 28 -39 0
9 24 23 26 11 28 -37 0
9 24 10 26 11 28 -40 0
9 24 10 26 11 28 -38 0
9 24 10 26 11 28 -39 0
9 24 10 26 11 28 -37 0
9 17 7 20 10 11 -33 0
9 17 7 20 10 11 -36 0
9 17 7 20 10 11 -35 0
9 17 7 20 10 11 -34 0
9 17 7 10 15 11 -33 0
9 17 7 10 15 11 -36 0
9 17 7 10 15 11 -35 0
9 17 7 10 15 11 -34 0
9 7 1 10 3 11 -8 0
9 7 1 10 3 11 -13 0
9 7 1 10 3 11 -12 0
9 7 1 10 3 11 -14 0
9 7 1 10 11 6 -8 0
9 7 1 10 11 6 -13 0
9 7 1 10 11 6 -12 0
9 7 1 10 11 6 -14 0
9 7 23 10 26 11 -40 0
9 7 23 10 26 11 -38 0
9 7 23 10 26 11 -39 0
9 7 23 10 26 11 -37 0
9 7 23 10 11 28 -40 0
9 7 23 10 11 28 -38 0
9 7 23 10 11 28 -39 0
9 7 23 10 11 28 -37 0
9 7 20 10 15 11 -33 0
9 7 20 10 15 11 -36 0
9 7 20 10 15 11 -35 0
9 7 20 10 15 11 -34 0
9 7 10 3 11 6 -8 0
9 7 10 3 11 6 -13 0
9 7 10 3 11 6 -12 0
9 7 10 3 11 6 -14 0
9 7 10 26 11 28 -40 0
9 7 10 26 11 28 -38 0
9 7 10 26 11 28 -39 0
9 7 10 26 11 28 -37 0
2 24 1 23 3 26 -29 0
2 24 1 23 3 26 -25 0
2 24 1 23 3 26 -27 0
2 24 1 23 3 26 -30 0
2 24 1 23 3 6 -29 0
2 24 1 23 3 6 -25 0
2 24 1 23 3 6 -27 0
2 24 1 23 3 6 -30 0
2 24 1 23 26 28 -29 0
2 24 1 23 26 28 -25 0
2 24 1 23 26 28 -27 0
2 24 1 23 26 28 -30 0
2 24 1 23 6 28 -29 0
2 24 1 23 6 28 -25 0
2 24 1 23 6 28 -27 0
2 24 1 23 6 28 -30 0
2 24 1 3 26 6 -29 0
2 24 1 3 26 6 -25 0
2 24 1 3 26 6 -27 0
2 24 1 3 26 6 -30 0
2 24 1 3 6 28 -29 0
2 24 1 3 6 28 -25 0
2 24 1 3 6 28 -27 0
2 24 1 3 6 28 -30 0
2 24 23 3 26 28 -29 0
2 24 23 3 26 28 -25 0
2 24 23 3 26 28 -27 0
2 24 23 3 26 28 -30 0
2 24 23 26 6 28 -29 0
2 24 23 26 6 28 -25 0
2 24 23 26 6 28 -27 0
2 24 23 26 6 28 -30 0
2 24 3 26 6 28 -29 0
2 24 3 26 6 28 -25 0
2 24 3 26 6 28 -27 0
2 24 3 26 6 28 -30 0
2 17 1 20 3 6 -19 0
2 17 1 20 3 6 -22 0
2 17 1 20 3 6 -16 0
2 17 1 20 3 6 -21 0
2 17 1 3 15 6 -19 0
2 17 1 3 15 6 -22 0
2 17 1 3 15 6 -16 0
2 17 1 3 15 6 -21 0
2 7 1 10 3 6 -8 0
2 7 1 10 3 6 -13 0
2 7 1 10 3 6 -12 0
2 7 1 10 3 6 -14 0
2 7 1 3 11 6 -8 0
2 7 1 3 11 6 -13 0
2 7 1 3 11 6 -12 0
2 7 1 3 11 6 -14 0
2 1 23 3 26 6 -29 0
2 1 23 3 26 6 -25 0
2 1 23 3 26 6 -27 0
2 1 23 3 26 6 -30 0
2 1 23 3 6 28 -29 0
2 1 23 3 6 28 -25 0
2 1 23 3 6 28 -27 0
2 1 23 3 6 28 -30 0
2 1 20 3 15 6 -19 0
2 1 20 3 15 6 -22 0
2 1 20 3 15 6 -16 0
2 1 20 3 15 6 -21 0
2 1 10 3 11 6 -8 0
2 1 10 3 11 6 -13 0
2 1 10 3 11 6 -12 0
2 1 10 3 11 6 -14 0
2 1 3 26 6 28 -29 0
2 1 3 26 6 28 -25 0
2 1 3 26 6 28 -27 0
2 1 3 26 6 28 -30 0
24 17 23 20 26 28 -46 0
24 17 23 20 26 28 -43 0
24 17 23 20 26 28 -45 0
24 17 23 20 26 28 -44 0
24 17 23 26 15 28 -46 0
24 17 23 26 15 28 -43 0
24 17 23 26 15 28 -45 0
24 17 23 26 15 28 -44 0
24 7 23 10 26 28 -40 0
24 7 23 10 26 28 -38 0
24 7 23 10 26 28 -39 0
24 7 23 10 26 28 -37 0
24 7 23 26 11 28 -40 0
24 7 23 26 11 28 -38 0
24 7 23 26 11 28 -39 0
24 7 23 26 11 28 -37 0
24 1 23 3 26 28 -29 0
24 1 23 3 26 28 -25 0
24 1 23 3 26 28 -27 0
24 1 23 3 26 28 -30 0
24 1 23 26 6 28 -29 0
24 1 23 26 6 28 -25 0
24 1 23 26 6 28 -27 0
24 1 23 26 6 28 -30 0
24 23 20 26 15 28 -46 0
24 23 20 26 15 28 -43 0
24 23 20 26 15 28 -45 0
24 23 20 26 15 28 -44 0
24 23 10 26 11 28 -40 0
24 23 10 26 11 28 -38 0
24 23 10 26 11 28 -39 0
24 23 10 26 11 28 -37 0
24 23 3 26 6 28 -29 0
24 23 3 26 6 28 -25 0
24 23 3 26 6 28 -27 0
24 23 3 26 6 28 -30 0
17 7 20 10 15 11 -33 0
17 7 20 10 15 11 -36 0
17 7 20 10 15 11 -35 0
17 7 20 10 15 11 -34 0
17 1 20 3 15 6 -19 0
17 1 20 3 15 6 -22 0
17 1 20 3 15 6 -16 0
17 1 20 3 15 6 -21 0
17 23 20 26 15 28 -46 0
17 23 20 26 15 28 -43 0
17 23 20 26 15 28 -45 0
17 23 20 26 15 28 -44 0
7 1 10 3 11 6 -8 0
7 1 10 3 11 6 -13 0
7 1 10 3 11 6 -12 0
7 1 10 3 11 6 -14 0
7 23 10 26 11 28 -40 0
7 23 10 26 11 28 -38 0
7 23 10 26 11 28 -39 0
7 23 10 26 11 28 -37 0
1 23 3 26 6 28 -29 0
1 23 3 26 6 28 -25 0
1 23 3 26 6 28 -27 0
1 23 3 26 6 28 -30 0
18 9 17 7 20 10 15 -33 0
18 9 17 7 20 10 15 -36 0
18 9 17 7 20 10 15 -35 0
18 9 17 7 20 10 15 -34 0
18 9 17 7 20 10 11 -33 0
18 9 17 7 20 10 11 -36 0
18 9 17 7 20 10 11 -35 0
18 9 17 7 20 10 11 -34 0
18 9 17 7 20 15 11 -33 0
18 9 17 7 20 15 11 -36 0
18 9 17 7 20 15 11 -35 0
18 9 17 7 20 15 11 -34 0
18 9 17 7 10 15 11 -33 0
18 9 17 7 10 15 11 -36 0
18 9 17 7 10 15 11 -35 0
18 9 17 7 10 15 11 -34 0
18 9 17 20 10 15 11 -33 0
18 9 17 20 10 15 11 -36 0
18 9 17 20 10 15 11 -35 0
18 9 17 20 10 15 11 -34 0
18 9 7 20 10 15 11 -33 0
18 9 7 20 10 15 11 -36 0
18 9 7 20 10 15 11 -35 0
18 9 7 20 10 15 11 -34 0
18 2 17 1 20 3 15 -19 0
18 2 17 1 20 3 15 -22 0
18 2 17 1 20 3 15 -16 0
18 2 17 1 20 3 15 -21 0
18 2 17 1 20 3 6 -19 0
18 2 17 1 20 3 6 -22 0
18 2 17 1 20 3 6 -16 0
18 2 17 1 20 3 6 -21 0
18 2 17 1 20 15 6 -19 0
18 2 17 1 20 15 6 -22 0
18 2 17 1 20 15 6 -16 0
18 2 17 1 20 15 6 -21 0
18 2 17 1 3 15 6 -19 0
18 2 17 1 3 15 6 -22 0
18 2 17 1 3 15 6 -16 0
18 2 17 1 3 15 6 -21 0
18 2 17 20 3 15 6 -19 0
18 2 17 20 3 15 6 -22 0
18 2 17 20 3 15 6 -16 0
18 2 17 20 3 15 6 -21 0
18 2 1 20 3 15 6 -19 0
18 2 1 20 3 15 6 -22 0
18 2 1 20 3 15 6 -16 0
18 2 1 20 3 15 6 -21 0
18 24 17 23 20 26 15 -46 0
18 24 17 23 20 26 15 -43 0
18 24 17 23 20 26 15 -45 0
18 24 17 23 20 26 15 -44 0
18 24 17 23 20 26 28 -46 0
18 24 17 23 20 26 28 -43 0
18 24 17 23 20 26 28 -45 0
18 24 17 23 20 26 28 -44 0
18 24 17 23 20 15 28 -46 0
18 24 17 23 20 15 28 -43 0
18 24 17 23 20 15 28 -45 0
18 24 17 23 20 15 28 -44 0
18 24 17 23 26 15 28 -46 0
18 24 17 23 26 15 28 -43 0
18 24 17 23 26 15 28 -45 0
18 24 17 23 26 15 28 -44 0
18 24 17 20 26 15 28 -46 0
18 24 17 20 26 15 28 -43 0
18 24 17 20 26 15 28 -45 0
18 24 17 20 26 15 28 -44 0
18 24 23 20 26 15 28 -46 0
18 24 23 20 26 15 28 -43 0
18 24 23 20 26 15 28 -45 0
18 24 23 20 26 15 28 -44 0
18 17 7 20 10 15 11 -33 0
18 17 7 20 10 15 11 -36 0
18 17 7 20 10 15 11 -35 0
18 17 7 20 10 15 11 -34 0
18 17 1 20 3 15 6 -19 0
18 17 1 20 3 15 6 -22 0
18 17 1 20 3 15 6 -16 0
18 17 1 20 3 15 6 -21 0
18 17 23 20 26 15 28 -46 0
18 17 23 20 26 15 28 -43 0
18 17 23 20 26 15 28 -45 0
18 17 23 20 26 15 28 -44 0
9 2 7 1 10 3 11 -8 0
9 2 7 1 10 3 11 -13 0
9 2 7 1 10 3 11 -12 0
9 2 7 1 10 3 11 -14 0
9 2 7 1 10 3 6 -8 0
9 2 7 1 10 3 6 -13 0
9 2 7 1 10 3 6 -12 0
9 2 7 1 10 3 6 -14 0
9 2 7 1 10 11 6 -8 0
9 2 7 1 10 11 6 -13 0
9 2 7 1 10 11 6 -12 0
9 2 7 1 10 11 6 -14 0
9 2 7 1 3 11 6 -8 0
9 2 7 1 3 11 6 -13 0
9 2 7 1 3 11 6 -12 0
9 2 7 1 3 11 6 -14 0
9 2 7 10 3 11 6 -8 0
9 2 7 10 3 11 6 -13 0
9 2 7 10 3 11 6 -12 0
9 2 7 10 3 11 6 -14 0
9 2 1 10 3 11 6 -8 0
9 2 1 10 3 11 6 -13 0
9 2 1 10 3 11 6 -12 0
9 2 1 10 3 11 6 -14 0
9 24 7 23 10 26 11 -40 0
9 24 7 23 10 26 11 -38 0
9 24 7 23 10 26 11 -39 0
9 24 7 23 10 26 11 -37 0
9 24 7 23 10 26 28 -40 0
9 24 7 23 10 26 28 -38 0
9 24 7 23 10 26 28 -39 0
9 24 7 23 10 26 28 -37 0
9 24 7 23 10 11 28 -40 0
9 24 7 23 10 11 28 -38 0
9 24 7 23 10 11 28 -39 0
9 24 7 23 10 11 28 -37 0
9 24 7 23 26 11 28 -40 0
9 24 7 23 26 11 28 -38 0
9 24 7 23 26 11 28 -39 0
9 24 7 23 26 11 28 -37 0
9 24 7 10 26 11 28 -40 0
9 24 7 10 26 11 28 -38 0
9 24 7 10 26 11 28 -39 0
9 24 7 10 26 11 28 -37 0
9 24 23 10 26 11 28 -40 0
9 24 23 10 26 11 28 -38 0
9 24 23 10 26 11 28 -39 0
9 24 23 10 26 11 28 -37 0
9 17 7 20 10 15 11 -33 0
9 17 7 20 10 15 11 -36 0
9 17 7 20 10 15 11 -35 0
9 17 7 20 10 15 11 -34 0
9 7 1 10 3 11 6 -8 0
9 7 1 10 3 11 6 -13 0
9 7 1 10 3 11 6 -12 0
9 7 1 10 3 11 6 -14 0
9 7 23 10 26 11 28 -40 0
9 7 23 10 26 11 28 -38 0
9 7 23 10 26 11 28 -39 0
9 7 23 10 26 11 28 -37 0
2 24 1 23 3 26 6 -29 0
2 24 1 23 3 26 6 -25 0
2 24 1 23 3 26 6 -27 0
2 24 1 23 3 26 6 -30 0
2 24 1 23 3 26 28 -29 0
2 24 1 23 3 26 28 -25 0
2 24 1 23 3 26 28 -27 0
2 24 1 23 3 26 28 -30 0
2 24 1 23 3 6 28 -29 0
2 24 1 23 3 6 28 -25 0
2 24 1 23 3 6 28 -27 0
2 24 1 23 3 6 28 -30 0
2 24 1 23 26 6 28 -29 0
2 24 1 23 26 6 28 -25 0
2 24 1 23 26 6 28 -27 0
2 24 1 23 26 6 28 -30 0
2 24 1 3 26 6 28 -29 0
2 24 1 3 26 6 28 -25 0
2 24 1 3 26 6 28 -27 0
2 24 1 3 26 6 28 -30 0
2 24 23 3 26 6 28 -29 0
2 24 23 3 26 6 28 -25 0
2 24 23 3 26 6 28 -27 0
2 24 23 3 26 6 28 -30 0
2 17 1 20 3 15 6 -19 0
2 17 1 20 3 15 6 -22 0
2 17 1 20 3 15 6 -16 0
2 17 1 20 3 15 6 -21 0
2 7 1 10 3 11 6 -8 0
2 7 1 10 3 11 6 -13 0
2 7 1 10 3 11 6 -12 0
2 7 1 10 3 11 6 -14 0
2 1 23 3 26 6 28 -29 0
2 1 23 3 26 6 28 -25 0
2 1 23 3 26 6 28 -27 0
2 1 23 3 26 6 28 -30 0
24 17 23 20 26 15 28 -46 0
24 17 23 20 26 15 28 -43 0
24 17 23 20 26 15 28 -45 0
24 17 23 20 26 15 28 -44 0
24 7 23 10 26 11 28 -40 0
24 7 23 10 26 11 28 -38 0
24 7 23 10 26 11 28 -39 0
24 7 23 10 26 11 28 -37 0
24 1 23 3 26 6 28 -29 0
24 1 23 3 26 6 28 -25 0
24 1 23 3 26 6 28 -27 0
24 1 23 3 26 6 28 -30 0
18 9 17 7 20 10 15 11 -33 0
18 9 17 7 20 10 15 11 -36 0
18 9 17 7 20 10 15 11 -35 0
18 9 17 7 20 10 15 11 -34 0
18 2 17 1 20 3 15 6 -19 0
18 2 17 1 20 3 15 6 -22 0
18 2 17 1 20 3 15 6 -16 0
18 2 17 1 20 3 15 6 -21 0
18 24 17 23 20 26 15 28 -46 0
18 24 17 23 20 26 15 28 -43 0
18 24 17 23 20 26 15 28 -45 0
18 24 17 23 20 26 15 28 -44 0
9 2 7 1 10 3 11 6 -8 0
9 2 7 1 10 3 11 6 -13 0
9 2 7 1 10 3 11 6 -12 0
9 2 7 1 10 3 11 6 -14 0
9 24 7 23 10 26 11 28 -40 0
9 24 7 23 10 26 11 28 -38 0
9 24 7 23 10 26 11 28 -39 0
9 24 7 23 10 26 11 28 -37 0
2 24 1 23 3 26 6 28 -29 0
2 24 1 23 3 26 6 28 -25 0
2 24 1 23 3 26 6 28 -27 0
2 24 1 23 3 26 6 28 -30 0
