c U1(2) U2(2) U4(2) E1(2,2) U3(2) E2(2,2) E1(2,0) U4(0) U3(0) U1(0) E2(0,2) U2(0) E1(0,2) E2(2,0) E1(4,2) U4(4) U3(4) E2(2,4) E2(4,2) U1(4) E1(2,4) U2(4) E1(2,1) U4(1) U3(1) E2(1,2) U1(1) E1(1,2) U2(1) E2(2,1) U2(3) E1(3,2) E2(3,2) E2(2,3) U4(3) E1(2,3) U3(3) U1(3) E1(0,0) E2(0,0) E2(0,4) E1(0,4) E1(4,0) E2(4,0) E2(0,1) E1(0,1) E1(1,0) E2(1,0) E2(3,0) E1(3,0) E2(0,3) E1(0,3) E2(4,4) E1(4,4) E1(4,1) E2(1,4) E1(1,4) E2(4,1) E1(3,4) E2(4,3) E2(3,4) E1(4,3) E2(1,1) E1(1,1) E2(3,1) E1(3,1) E2(1,3) E1(1,3) E1(3,3) E2(3,3)
c 1 2 3 4 5 6 7 8 9 10 11 12 13 14 15 16 17 18 19 20 21 22 23 24 25 26 27 28 29 30 31 32 33 34 35 36 37 38 39 40 41 42 43 44 45 46 47 48 49 50 51 52 53 54 55 56 57 58 59 60 61 62 63 64 65 66 67 68 69 70
p cnf 70 1495
-10 -12 0
-10 -9 0
-10 -8 0
-27 -29 0
-27 -25 0
-27 -24 0
-1 -2 0
-1 -5 0
-1 -3 0
-38 -31 0
-38 -37 0
-38 -35 0
-20 -22 0
-20 -17 0
-20 -16 0
-12 -9 0
-12 -8 0
-29 -25 0
-29 -24 0
-2 -5 0
-2 -3 0
-31 -37 0
-31 -35 0
-22 -17 0
-22 -16 0
-9 -8 0
-25 -24 0
-5 -3 0
-37 -35 0
-17 -16 0
10 12 9 8 0
27 29 25 24 0
1 2 5 3 0
38 31 37 35 0
20 22 17 16 0
10 12 9 -39 0
10 12 9 -40 0
10 12 8 -39 0
10 12 8 -40 0
10 9 8 -39 0
10 9 8 -40 0
27 29 25 -64 0
27 29 25 -63 0
27 29 24 -64 0
27 29 24 -63 0
27 25 24 -64 0
27 25 24 -63 0
1 2 5 -4 0
1 2 5 -6 0
1 2 3 -4 0
1 2 3 -6 0
1 5 3 -4 0
1 5 3 -6 0
38 31 37 -69 0
38 31 37 -70 0
38 31 35 -69 0
38 31 35 -70 0
38 37 35 -69 0
38 37 35 -70 0
20 22 17 -54 0
20 22 17 -53 0
20 22 16 -54 0
20 22 16 -53 0
20 17 16 -54 0
20 17 16 -53 0
12 9 8 -39 0
12 9 8 -40 0
29 25 24 -64 0
29 25 24 -63 0
2 5 3 -4 0
2 5 3 -6 0
31 37 35 -69 0
31 37 35 -70 0
22 17 16 -54 0
22 17 16 -53 0
39 46 13 52 42 0
47 64 28 68 57 0
7 23 4 36 21 0
50 66 32 69 59 0
43 55 15 62 54 0
40 45 11 51 41 0
48 63 26 67 56 0
14 30 6 34 18 0
49 65 33 70 61 0
44 58 19 60 53 0
10 12 9 8 -39 0
10 12 9 8 -46 0
10 12 9 8 -13 0
10 12 9 8 -52 0
10 12 9 8 -42 0
10 12 9 8 -47 0
10 12 9 8 -7 0
10 12 9 8 -50 0
10 12 9 8 -43 0
10 12 9 8 -40 0
10 12 9 8 -45 0
10 12 9 8 -11 0
10 12 9 8 -51 0
10 12 9 8 -41 0
10 12 9 8 -48 0
10 12 9 8 -14 0
10 12 9 8 -49 0
10 12 9 8 -44 0
27 29 25 24 -46 0
27 29 25 24 -47 0
27 29 25 24 -64 0
27 29 25 24 -28 0
27 29 25 24 -68 0
27 29 25 24 -57 0
27 29 25 24 -23 0
27 29 25 24 -66 0
27 29 25 24 -55 0
27 29 25 24 -45 0
27 29 25 24 -48 0
27 29 25 24 -63 0
27 29 25 24 -26 0
27 29 25 24 -67 0
27 29 25 24 -56 0
27 29 25 24 -30 0
27 29 25 24 -65 0
27 29 25 24 -58 0
1 2 5 3 -13 0
1 2 5 3 -28 0
1 2 5 3 -7 0
1 2 5 3 -23 0
1 2 5 3 -4 0
1 2 5 3 -36 0
1 2 5 3 -21 0
1 2 5 3 -32 0
1 2 5 3 -15 0
1 2 5 3 -11 0
1 2 5 3 -26 0
1 2 5 3 -14 0
1 2 5 3 -30 0
1 2 5 3 -6 0
1 2 5 3 -34 0
1 2 5 3 -18 0
1 2 5 3 -33 0
1 2 5 3 -19 0
38 31 37 35 -52 0
38 31 37 35 -68 0
38 31 37 35 -36 0
38 31 37 35 -50 0
38 31 37 35 -66 0
38 31 37 35 -32 0
38 31 37 35 -69 0
38 31 37 35 -59 0
38 31 37 35 -62 0
38 31 37 35 -51 0
38 31 37 35 -67 0
38 31 37 35 -34 0
38 31 37 35 -49 0
38 31 37 35 -65 0
38 31 37 35 -33 0
38 31 37 35 -70 0
38 31 37 35 -61 0
38 31 37 35 -60 0
20 22 17 16 -42 0
20 22 17 16 -57 0
20 22 17 16 -21 0
20 22 17 16 -59 0
20 22 17 16 -43 0
20 22 17 16 -55 0
20 22 17 16 -15 0
20 22 17 16 -62 0
20 22 17 16 -54 0
20 22 17 16 -41 0
20 22 17 16 -56 0
20 22 17 16 -18 0
20 22 17 16 -61 0
20 22 17 16 -44 0
20 22 17 16 -58 0
20 22 17 16 -19 0
20 22 17 16 -60 0
20 22 17 16 -53 0
10 27 12 9 8 -46 0
10 27 12 9 8 -47 0
10 27 12 9 8 -45 0
10 27 12 9 8 -48 0
10 27 29 25 24 -46 0
10 27 29 25 24 -47 0
10 27 29 25 24 -45 0
10 27 29 25 24 -48 0
10 1 12 9 8 -13 0
10 1 12 9 8 -7 0
10 1 12 9 8 -11 0
10 1 12 9 8 -14 0
10 1 2 5 3 -13 0
10 1 2 5 3 -7 0
10 1 2 5 3 -11 0
10 1 2 5 3 -14 0
10 38 12 9 8 -52 0
10 38 12 9 8 -50 0
10 38 12 9 8 -51 0
10 38 12 9 8 -49 0
10 38 31 37 35 -52 0
10 38 31 37 35 -50 0
10 38 31 37 35 -51 0
10 38 31 37 35 -49 0
10 20 12 9 8 -42 0
10 20 12 9 8 -43 0
10 20 12 9 8 -41 0
10 20 12 9 8 -44 0
10 20 22 17 16 -42 0
10 20 22 17 16 -43 0
10 20 22 17 16 -41 0
10 20 22 17 16 -44 0
10 12 29 9 8 -46 0
10 12 29 9 8 -47 0
10 12 29 9 8 -45 0
10 12 29 9 8 -48 0
10 12 2 9 8 -13 0
10 12 2 9 8 -7 0
10 12 2 9 8 -11 0
10 12 2 9 8 -14 0
10 12 31 9 8 -52 0
10 12 31 9 8 -50 0
10 12 31 9 8 -51 0
10 12 31 9 8 -49 0
10 12 22 9 8 -42 0
10 12 22 9 8 -43 0
10 12 22 9 8 -41 0
10 12 22 9 8 -44 0
10 12 9 25 8 -46 0
10 12 9 25 8 -47 0
10 12 9 25 8 -45 0
10 12 9 25 8 -48 0
10 12 9 5 8 -13 0
10 12 9 5 8 -7 0
10 12 9 5 8 -11 0
10 12 9 5 8 -14 0
10 12 9 37 8 -52 0
10 12 9 37 8 -50 0
10 12 9 37 8 -51 0
10 12 9 37 8 -49 0
10 12 9 17 8 -42 0
10 12 9 17 8 -43 0
10 12 9 17 8 -41 0
10 12 9 17 8 -44 0
10 12 9 8 24 -46 0
10 12 9 8 24 -47 0
10 12 9 8 24 -45 0
10 12 9 8 24 -48 0
10 12 9 8 3 -13 0
10 12 9 8 3 -7 0
10 12 9 8 3 -11 0
10 12 9 8 3 -14 0
10 12 9 8 35 -52 0
10 12 9 8 35 -50 0
10 12 9 8 35 -51 0
10 12 9 8 35 -49 0
10 12 9 8 16 -42 0
10 12 9 8 16 -43 0
10 12 9 8 16 -41 0
10 12 9 8 16 -44 0
27 1 29 25 24 -28 0
27 1 29 25 24 -23 0
27 1 29 25 24 -26 0
27 1 29 25 24 -30 0
27 1 2 5 3 -28 0
27 1 2 5 3 -23 0
27 1 2 5 3 -26 0
27 1 2 5 3 -30 0
27 38 29 25 24 -68 0
27 38 29 25 24 -66 0
27 38 29 25 24 -67 0
27 38 29 25 24 -65 0
27 38 31 37 35 -68 0
27 38 31 37 35 -66 0
27 38 31 37 35 -67 0
27 38 31 37 35 -65 0
27 20 29 25 24 -57 0
27 20 29 25 24 -55 0
27 20 29 25 24 -56 0
27 20 29 25 24 -58 0
27 20 22 17 16 -57 0
27 20 22 17 16 -55 0
27 20 22 17 16 -56 0
27 20 22 17 16 -58 0
27 12 29 25 24 -46 0
27 12 29 25 24 -47 0
27 12 29 25 24 -45 0
27 12 29 25 24 -48 0
27 29 2 25 24 -28 0
27 29 2 25 24 -23 0
27 29 2 25 24 -26 0
27 29 2 25 24 -30 0
27 29 31 25 24 -68 0
27 29 31 25 24 -66 0
27 29 31 25 24 -67 0
27 29 31 25 24 -65 0
27 29 22 25 24 -57 0
27 29 22 25 24 -55 0
27 29 22 25 24 -56 0
27 29 22 25 24 -58 0
27 29 9 25 24 -46 0
27 29 9 25 24 -47 0
27 29 9 25 24 -45 0
27 29 9 25 24 -48 0
27 29 25 5 24 -28 0
27 29 25 5 24 -23 0
27 29 25 5 24 -26 0
27 29 25 5 24 -30 0
27 29 25 37 24 -68 0
27 29 25 37 24 -66 0
27 29 25 37 24 -67 0
27 29 25 37 24 -65 0
27 29 25 17 24 -57 0
27 29 25 17 24 -55 0
27 29 25 17 24 -56 0
27 29 25 17 24 -58 0
27 29 25 8 24 -46 0
27 29 25 8 24 -47 0
27 29 25 8 24 -45 0
27 29 25 8 24 -48 0
27 29 25 24 3 -28 0
27 29 25 24 3 -23 0
27 29 25 24 3 -26 0
27 29 25 24 3 -30 0
27 29 25 24 35 -68 0
27 29 25 24 35 -66 0
27 29 25 24 35 -67 0
27 29 25 24 35 -65 0
27 29 25 24 16 -57 0
27 29 25 24 16 -55 0
27 29 25 24 16 -56 0
27 29 25 24 16 -58 0
1 38 2 5 3 -36 0
1 38 2 5 3 -32 0
1 38 2 5 3 -34 0
1 38 2 5 3 -33 0
1 38 31 37 35 -36 0
1 38 31 37 35 -32 0
1 38 31 37 35 -34 0
1 38 31 37 35 -33 0
1 20 2 5 3 -21 0
1 20 2 5 3 -15 0
1 20 2 5 3 -18 0
1 20 2 5 3 -19 0
1 20 22 17 16 -21 0
1 20 22 17 16 -15 0
1 20 22 17 16 -18 0
1 20 22 17 16 -19 0
1 12 2 5 3 -13 0
1 12 2 5 3 -7 0
1 12 2 5 3 -11 0
1 12 2 5 3 -14 0
1 29 2 5 3 -28 0
1 29 2 5 3 -23 0
1 29 2 5 3 -26 0
1 29 2 5 3 -30 0
1 2 31 5 3 -36 0
1 2 31 5 3 -32 0
1 2 31 5 3 -34 0
1 2 31 5 3 -33 0
1 2 22 5 3 -21 0
1 2 22 5 3 -15 0
1 2 22 5 3 -18 0
1 2 22 5 3 -19 0
1 2 9 5 3 -13 0
1 2 9 5 3 -7 0
1 2 9 5 3 -11 0
1 2 9 5 3 -14 0
1 2 25 5 3 -28 0
1 2 25 5 3 -23 0
1 2 25 5 3 -26 0
1 2 25 5 3 -30 0
1 2 5 37 3 -36 0
1 2 5 37 3 -32 0
1 2 5 37 3 -34 0
1 2 5 37 3 -33 0
1 2 5 17 3 -21 0
1 2 5 17 3 -15 0
1 2 5 17 3 -18 0
1 2 5 17 3 -19 0
1 2 5 8 3 -13 0
1 2 5 8 3 -7 0
1 2 5 8 3 -11 0
1 2 5 8 3 -14 0
1 2 5 24 3 -28 0
1 2 5 24 3 -23 0
1 2 5 24 3 -26 0
1 2 5 24 3 -30 0
1 2 5 3 35 -36 0
1 2 5 3 35 -32 0
1 2 5 3 35 -34 0
1 2 5 3 35 -33 0
1 2 5 3 16 -21 0
1 2 5 3 16 -15 0
1 2 5 3 16 -18 0
1 2 5 3 16 -19 0
38 20 31 37 35 -59 0
38 20 31 37 35 -62 0
38 20 31 37 35 -61 0
38 20 31 37 35 -60 0
38 20 22 17 16 -59 0
38 20 22 17 16 -62 0
38 20 22 17 16 -61 0
38 20 22 17 16 -60 0
38 12 31 37 35 -52 0
38 12 31 37 35 -50 0
38 12 31 37 35 -51 0
38 12 31 37 35 -49 0
38 29 31 37 35 -68 0
38 29 31 37 35 -66 0
38 29 31 37 35 -67 0
38 29 31 37 35 -65 0
38 2 31 37 35 -36 0
38 2 31 37 35 -32 0
38 2 31 37 35 -34 0
38 2 31 37 35 -33 0
38 31 22 37 35 -59 0
38 31 22 37 35 -62 0
38 31 22 37 35 -61 0
38 31 22 37 35 -60 0
38 31 9 37 35 -52 0
38 31 9 37 35 -50 0
38 31 9 37 35 -51 0
38 31 9 37 35 -49 0
38 31 25 37 35 -68 0
38 31 25 37 35 -66 0
38 31 25 37 35 -67 0
38 31 25 37 35 -65 0
38 31 5 37 35 -36 0
38 31 5 37 35 -32 0
38 31 5 37 35 -34 0
38 31 5 37 35 -33 0
38 31 37 17 35 -59 0
38 31 37 17 35 -62 0
38 31 37 17 35 -61 0
38 31 37 17 35 -60 0
38 31 37 8 35 -52 0
38 31 37 8 35 -50 0
38 31 37 8 35 -51 0
38 31 37 8 35 -49 0
38 31 37 24 35 -68 0
38 31 37 24 35 -66 0
38 31 37 24 35 -67 0
38 31 37 24 35 -65 0
38 31 37 3 35 -36 0
38 31 37 3 35 -32 0
38 31 37 3 35 -34 0
38 31 37 3 35 -33 0
38 31 37 35 16 -59 0
38 31 37 35 16 -62 0
38 31 37 35 16 -61 0
38 31 37 35 16 -60 0
20 12 22 17 16 -42 0
20 12 22 17 16 -43 0
20 12 22 17 16 -41 0
20 12 22 17 16 -44 0
20 29 22 17 16 -57 0
20 29 22 17 16 -55 0
20 29 22 17 16 -56 0
20 29 22 17 16 -58 0
20 2 22 17 16 -21 0
20 2 22 17 16 -15 0
20 2 22 17 16 -18 0
20 2 22 17 16 -19 0
20 31 22 17 16 -59 0
20 31 22 17 16 -62 0
20 31 22 17 16 -61 0
20 31 22 17 16 -60 0
20 22 9 17 16 -42 0
20 22 9 17 16 -43 0
20 22 9 17 16 -41 0
20 22 9 17 16 -44 0
20 22 25 17 16 -57 0
20 22 25 17 16 -55 0
20 22 25 17 16 -56 0
20 22 25 17 16 -58 0
20 22 5 17 16 -21 0
20 22 5 17 16 -15 0
20 22 5 17 16 -18 0
20 22 5 17 16 -19 0
20 22 37 17 16 -59 0
20 22 37 17 16 -62 0
20 22 37 17 16 -61 0
20 22 37 17 16 -60 0
20 22 17 8 16 -42 0
20 22 17 8 16 -43 0
20 22 17 8 16 -41 0
20 22 17 8 16 -44 0
20 22 17 24 16 -57 0
20 22 17 24 16 -55 0
20 22 17 24 16 -56 0
20 22 17 24 16 -58 0
20 22 17 3 16 -21 0
20 22 17 3 16 -15 0
20 22 17 3 16 -18 0
20 22 17 3 16 -19 0
20 22 17 35 16 -59 0
20 22 17 35 16 -62 0
20 22 17 35 16 -61 0
20 22 17 35 16 -60 0
10 27 12 29 9 25 -46 0
10 27 12 29 9 25 -47 0
10 27 12 29 9 25 -45 0
10 27 12 29 9 25 -48 0
10 27 12 29 9 8 -46 0
10 27 12 29 9 8 -47 0
10 27 12 29 9 8 -45 0
10 27 12 29 9 8 -48 0
10 27 12 29 25 24 -46 0
10 27 12 29 25 24 -47 0
10 27 12 29 25 24 -45 0
10 27 12 29 25 24 -48 0
10 27 12 29 8 24 -46 0
10 27 12 29 8 24 -47 0
10 27 12 29 8 24 -45 0
10 27 12 29 8 24 -48 0
10 27 12 9 25 8 -46 0
10 27 12 9 25 8 -47 0
10 27 12 9 25 8 -45 0
10 27 12 9 25 8 -48 0
10 27 12 9 8 24 -46 0
10 27 12 9 8 24 -47 0
10 27 12 9 8 24 -45 0
10 27 12 9 8 24 -48 0
10 27 29 9 25 24 -46 0
10 27 29 9 25 24 -47 0
10 27 29 9 25 24 -45 0
10 27 29 9 25 24 -48 0
10 27 29 25 8 24 -46 0
10 27 29 25 8 24 -47 0
10 27 29 25 8 24 -45 0
10 27 29 25 8 24 -48 0
10 27 9 25 8 24 -46 0
10 27 9 25 8 24 -47 0
10 27 9 25 8 24 -45 0
10 27 9 25 8 24 -48 0
10 1 12 2 9 5 -13 0
10 1 12 2 9 5 -7 0
10 1 12 2 9 5 -11 0
10 1 12 2 9 5 -14 0
10 1 12 2 9 8 -13 0
10 1 12 2 9 8 -7 0
10 1 12 2 9 8 -11 0
10 1 12 2 9 8 -14 0
10 1 12 2 5 3 -13 0
10 1 12 2 5 3 -7 0
10 1 12 2 5 3 -11 0
10 1 12 2 5 3 -14 0
10 1 12 2 8 3 -13 0
10 1 12 2 8 3 -7 0
10 1 12 2 8 3 -11 0
10 1 12 2 8 3 -14 0
10 1 12 9 5 8 -13 0
10 1 12 9 5 8 -7 0
10 1 12 9 5 8 -11 0
10 1 12 9 5 8 -14 0
10 1 12 9 8 3 -13 0
10 1 12 9 8 3 -7 0
10 1 12 9 8 3 -11 0
10 1 12 9 8 3 -14 0
10 1 2 9 5 3 -13 0
10 1 2 9 5 3 -7 0
10 1 2 9 5 3 -11 0
10 1 2 9 5 3 -14 0
10 1 2 5 8 3 -13 0
10 1 2 5 8 3 -7 0
10 1 2 5 8 3 -11 0
10 1 2 5 8 3 -14 0
10 1 9 5 8 3 -13 0
10 1 9 5 8 3 -7 0
10 1 9 5 8 3 -11 0
10 1 9 5 8 3 -14 0
10 38 12 31 9 37 -52 0
10 38 12 31 9 37 -50 0
10 38 12 31 9 37 -51 0
10 38 12 31 9 37 -49 0
10 38 12 31 9 8 -52 0
10 38 12 31 9 8 -50 0
10 38 12 31 9 8 -51 0
10 38 12 31 9 8 -49 0
10 38 12 31 37 35 -52 0
10 38 12 31 37 35 -50 0
10 38 12 31 37 35 -51 0
10 38 12 31 37 35 -49 0
10 38 12 31 8 35 -52 0
10 38 12 31 8 35 -50 0
10 38 12 31 8 35 -51 0
10 38 12 31 8 35 -49 0
10 38 12 9 37 8 -52 0
10 38 12 9 37 8 -50 0
10 38 12 9 37 8 -51 0
10 38 12 9 37 8 -49 0
10 38 12 9 8 35 -52 0
10 38 12 9 8 35 -50 0
10 38 12 9 8 35 -51 0
10 38 12 9 8 35 -49 0
10 38 31 9 37 35 -52 0
10 38 31 9 37 35 -50 0
10 38 31 9 37 35 -51 0
10 38 31 9 37 35 -49 0
10 38 31 37 8 35 -52 0
10 38 31 37 8 35 -50 0
10 38 31 37 8 35 -51 0
10 38 31 37 8 35 -49 0
10 38 9 37 8 35 -52 0
10 38 9 37 8 35 -50 0
10 38 9 37 8 35 -51 0
10 38 9 37 8 35 -49 0
10 20 12 22 9 17 -42 0
10 20 12 22 9 17 -43 0
10 20 12 22 9 17 -41 0
10 20 12 22 9 17 -44 0
10 20 12 22 9 8 -42 0
10 20 12 22 9 8 -43 0
10 20 12 22 9 8 -41 0
10 20 12 22 9 8 -44 0
10 20 12 22 17 16 -42 0
10 20 12 22 17 16 -43 0
10 20 12 22 17 16 -41 0
10 20 12 22 17 16 -44 0
10 20 12 22 8 16 -42 0
10 20 12 22 8 16 -43 0
10 20 12 22 8 16 -41 0
10 20 12 22 8 16 -44 0
10 20 12 9 17 8 -42 0
10 20 12 9 17 8 -43 0
10 20 12 9 17 8 -41 0
10 20 12 9 17 8 -44 0
10 20 12 9 8 16 -42 0
10 20 12 9 8 16 -43 0
10 20 12 9 8 16 -41 0
10 20 12 9 8 16 -44 0
10 20 22 9 17 16 -42 0
10 20 22 9 17 16 -43 0
10 20 22 9 17 16 -41 0
10 20 22 9 17 16 -44 0
10 20 22 17 8 16 -42 0
10 20 22 17 8 16 -43 0
10 20 22 17 8 16 -41 0
10 20 22 17 8 16 -44 0
10 20 9 17 8 16 -42 0
10 20 9 17 8 16 -43 0
10 20 9 17 8 16 -41 0
10 20 9 17 8 16 -44 0
10 12 29 9 25 8 -46 0
10 12 29 9 25 8 -47 0
10 12 29 9 25 8 -45 0
10 12 29 9 25 8 -48 0
10 12 29 9 8 24 -46 0
10 12 29 9 8 24 -47 0
10 12 29 9 8 24 -45 0
10 12 29 9 8 24 -48 0
10 12 2 9 5 8 -13 0
10 12 2 9 5 8 -7 0
10 12 2 9 5 8 -11 0
10 12 2 9 5 8 -14 0
10 12 2 9 8 3 -13 0
10 12 2 9 8 3 -7 0
10 12 2 9 8 3 -11 0
10 12 2 9 8 3 -14 0
10 12 31 9 37 8 -52 0
10 12 31 9 37 8 -50 0
10 12 31 9 37 8 -51 0
10 12 31 9 37 8 -49 0
10 12 31 9 8 35 -52 0
10 12 31 9 8 35 -50 0
10 12 31 9 8 35 -51 0
10 12 31 9 8 35 -49 0
10 12 22 9 17 8 -42 0
10 12 22 9 17 8 -43 0
10 12 22 9 17 8 -41 0
10 12 22 9 17 8 -44 0
10 12 22 9 8 16 -42 0
10 12 22 9 8 16 -43 0
10 12 22 9 8 16 -41 0
10 12 22 9 8 16 -44 0
10 12 9 25 8 24 -46 0
10 12 9 25 8 24 -47 0
10 12 9 25 8 24 -45 0
10 12 9 25 8 24 -48 0
10 12 9 5 8 3 -13 0
10 12 9 5 8 3 -7 0
10 12 9 5 8 3 -11 0
10 12 9 5 8 3 -14 0
10 12 9 37 8 35 -52 0
10 12 9 37 8 35 -50 0
10 12 9 37 8 35 -51 0
10 12 9 37 8 35 -49 0
10 12 9 17 8 16 -42 0
10 12 9 17 8 16 -43 0
10 12 9 17 8 16 -41 0
10 12 9 17 8 16 -44 0
27 1 29 2 25 5 -28 0
27 1 29 2 25 5 -23 0
27 1 29 2 25 5 -26 0
27 1 29 2 25 5 -30 0
27 1 29 2 25 24 -28 0
27 1 29 2 25 24 -23 0
27 1 29 2 25 24 -26 0
27 1 29 2 25 24 -30 0
27 1 29 2 5 3 -28 0
27 1 29 2 5 3 -23 0
27 1 29 2 5 3 -26 0
27 1 29 2 5 3 -30 0
27 1 29 2 24 3 -28 0
27 1 29 2 24 3 -23 0
27 1 29 2 24 3 -26 0
27 1 29 2 24 3 -30 0
27 1 29 25 5 24 -28 0
27 1 29 25 5 24 -23 0
27 1 29 25 5 24 -26 0
27 1 29 25 5 24 -30 0
27 1 29 25 24 3 -28 0
27 1 29 25 24 3 -23 0
27 1 29 25 24 3 -26 0
27 1 29 25 24 3 -30 0
27 1 2 25 5 3 -28 0
27 1 2 25 5 3 -23 0
27 1 2 25 5 3 -26 0
27 1 2 25 5 3 -30 0
27 1 2 5 24 3 -28 0
27 1 2 5 24 3 -23 0
27 1 2 5 24 3 -26 0
27 1 2 5 24 3 -30 0
27 1 25 5 24 3 -28 0
27 1 25 5 24 3 -23 0
27 1 25 5 24 3 -26 0
27 1 25 5 24 3 -30 0
27 38 29 31 25 37 -68 0
27 38 29 31 25 37 -66 0
27 38 29 31 25 37 -67 0
27 38 29 31 25 37 -65 0
27 38 29 31 25 24 -68 0
27 38 29 31 25 24 -66 0
27 38 29 31 25 24 -67 0
27 38 29 31 25 24 -65 0
27 38 29 31 37 35 -68 0
27 38 29 31 37 35 -66 0
27 38 29 31 37 35 -67 0
27 38 29 31 37 35 -65 0
27 38 29 31 24 35 -68 0
27 38 29 31 24 35 -66 0
27 38 29 31 24 35 -67 0
27 38 29 31 24 35 -65 0
27 38 29 25 37 24 -68 0
27 38 29 25 37 24 -66 0
27 38 29 25 37 24 -67 0
27 38 29 25 37 24 -65 0
27 38 29 25 24 35 -68 0
27 38 29 25 24 35 -66 0
27 38 29 25 24 35 -67 0
27 38 29 25 24 35 -65 0
27 38 31 25 37 35 -68 0
27 38 31 25 37 35 -66 0
27 38 31 25 37 35 -67 0
27 38 31 25 37 35 -65 0
27 38 31 37 24 35 -68 0
27 38 31 37 24 35 -66 0
27 38 31 37 24 35 -67 0
27 38 31 37 24 35 -65 0
27 38 25 37 24 35 -68 0
27 38 25 37 24 35 -66 0
27 38 25 37 24 35 -67 0
27 38 25 37 24 35 -65 0
27 20 29 22 25 17 -57 0
27 20 29 22 25 17 -55 0
27 20 29 22 25 17 -56 0
27 20 29 22 25 17 -58 0
27 20 29 22 25 24 -57 0
27 20 29 22 25 24 -55 0
27 20 29 22 25 24 -56 0
27 20 29 22 25 24 -58 0
27 20 29 22 17 16 -57 0
27 20 29 22 17 16 -55 0
27 20 29 22 17 16 -56 0
27 20 29 22 17 16 -58 0
27 20 29 22 24 16 -57 0
27 20 29 22 24 16 -55 0
27 20 29 22 24 16 -56 0
27 20 29 22 24 16 -58 0
27 20 29 25 17 24 -57 0
27 20 29 25 17 24 -55 0
27 20 29 25 17 24 -56 0
27 20 29 25 17 24 -58 0
27 20 29 25 24 16 -57 0
27 20 29 25 24 16 -55 0
27 20 29 25 24 16 -56 0
27 20 29 25 24 16 -58 0
27 20 22 25 17 16 -57 0
27 20 22 25 17 16 -55 0
27 20 22 25 17 16 -56 0
27 20 22 25 17 16 -58 0
27 20 22 17 24 16 -57 0
27 20 22 17 24 16 -55 0
27 20 22 17 24 16 -56 0
27 20 22 17 24 16 -58 0
27 20 25 17 24 16 -57 0
27 20 25 17 24 16 -55 0
27 20 25 17 24 16 -56 0
27 20 25 17 24 16 -58 0
27 12 29 9 25 24 -46 0
27 12 29 9 25 24 -47 0
27 12 29 9 25 24 -45 0
27 12 29 9 25 24 -48 0
27 12 29 25 8 24 -46 0
27 12 29 25 8 24 -47 0
27 12 29 25 8 24 -45 0
27 12 29 25 8 24 -48 0
27 29 2 25 5 24 -28 0
27 29 2 25 5 24 -23 0
27 29 2 25 5 24 -26 0
27 29 2 25 5 24 -30 0
27 29 2 25 24 3 -28 0
27 29 2 25 24 3 -23 0
27 29 2 25 24 3 -26 0
27 29 2 25 24 3 -30 0
27 29 31 25 37 24 -68 0
27 29 31 25 37 24 -66 0
27 29 31 25 37 24 -67 0
27 29 31 25 37 24 -65 0
27 29 31 25 24 35 -68 0
27 29 31 25 24 35 -66 0
27 29 31 25 24 35 -67 0
27 29 31 25 24 35 -65 0
27 29 22 25 17 24 -57 0
27 29 22 25 17 24 -55 0
27 29 22 25 17 24 -56 0
27 29 22 25 17 24 -58 0
27 29 22 25 24 16 -57 0
27 29 22 25 24 16 -55 0
27 29 22 25 24 16 -56 0
27 29 22 25 24 16 -58 0
27 29 9 25 8 24 -46 0
27 29 9 25 8 24 -47 0
27 29 9 25 8 24 -45 0
27 29 9 25 8 24 -48 0
27 29 25 5 24 3 -28 0
27 29 25 5 24 3 -23 0
27 29 25 5 24 3 -26 0
27 29 25 5 24 3 -30 0
27 29 25 37 24 35 -68 0
27 29 25 37 24 35 -66 0
27 29 25 37 24 35 -67 0
27 29 25 37 24 35 -65 0
27 29 25 17 24 16 -57 0
27 29 25 17 24 16 -55 0
27 29 25 17 24 16 -56 0
27 29 25 17 24 16 -58 0
1 38 2 31 5 37 -36 0
1 38 2 31 5 37 -32 0
1 38 2 31 5 37 -34 0
1 38 2 31 5 37 -33 0
1 38 2 31 5 3 -36 0
1 38 2 31 5 3 -32 0
1 38 2 31 5 3 -34 0
1 38 2 31 5 3 -33 0
1 38 2 31 37 35 -36 0
1 38 2 31 37 35 -32 0
1 38 2 31 37 35 -34 0
1 38 2 31 37 35 -33 0
1 38 2 31 3 35 -36 0
1 38 2 31 3 35 -32 0
1 38 2 31 3 35 -34 0
1 38 2 31 3 35 -33 0
1 38 2 5 37 3 -36 0
1 38 2 5 37 3 -32 0
1 38 2 5 37 3 -34 0
1 38 2 5 37 3 -33 0
1 38 2 5 3 35 -36 0
1 38 2 5 3 35 -32 0
1 38 2 5 3 35 -34 0
1 38 2 5 3 35 -33 0
1 38 31 5 37 35 -36 0
1 38 31 5 37 35 -32 0
1 38 31 5 37 35 -34 0
1 38 31 5 37 35 -33 0
1 38 31 37 3 35 -36 0
1 38 31 37 3 35 -32 0
1 38 31 37 3 35 -34 0
1 38 31 37 3 35 -33 0
1 38 5 37 3 35 -36 0
1 38 5 37 3 35 -32 0
1 38 5 37 3 35 -34 0
1 38 5 37 3 35 -33 0
1 20 2 22 5 17 -21 0
1 20 2 22 5 17 -15 0
1 20 2 22 5 17 -18 0
1 20 2 22 5 17 -19 0
1 20 2 22 5 3 -21 0
1 20 2 22 5 3 -15 0
1 20 2 22 5 3 -18 0
1 20 2 22 5 3 -19 0
1 20 2 22 17 16 -21 0
1 20 2 22 17 16 -15 0
1 20 2 22 17 16 -18 0
1 20 2 22 17 16 -19 0
1 20 2 22 3 16 -21 0
1 20 2 22 3 16 -15 0
1 20 2 22 3 16 -18 0
1 20 2 22 3 16 -19 0
1 20 2 5 17 3 -21 0
1 20 2 5 17 3 -15 0
1 20 2 5 17 3 -18 0
1 20 2 5 17 3 -19 0
1 20 2 5 3 16 -21 0
1 20 2 5 3 16 -15 0
1 20 2 5 3 16 -18 0
1 20 2 5 3 16 -19 0
1 20 22 5 17 16 -21 0
1 20 22 5 17 16 -15 0
1 20 22 5 17 16 -18 0
1 20 22 5 17 16 -19 0
1 20 22 17 3 16 -21 0
1 20 22 17 3 16 -15 0
1 20 22 17 3 16 -18 0
1 20 22 17 3 16 -19 0
1 20 5 17 3 16 -21 0
1 20 5 17 3 16 -15 0
1 20 5 17 3 16 -18 0
1 20 5 17 3 16 -19 0
1 12 2 9 5 3 -13 0
1 12 2 9 5 3 -7 0
1 12 2 9 5 3 -11 0
1 12 2 9 5 3 -14 0
1 12 2 5 8 3 -13 0
1 12 2 5 8 3 -7 0
1 12 2 5 8 3 -11 0
1 12 2 5 8 3 -14 0
1 29 2 25 5 3 -28 0
1 29 2 25 5 3 -23 0
1 29 2 25 5 3 -26 0
1 29 2 25 5 3 -30 0
1 29 2 5 24 3 -28 0
1 29 2 5 24 3 -23 0
1 29 2 5 24 3 -26 0
1 29 2 5 24 3 -30 0
1 2 31 5 37 3 -36 0
1 2 31 5 37 3 -32 0
1 2 31 5 37 3 -34 0
1 2 31 5 37 3 -33 0
1 2 31 5 3 35 -36 0
1 2 31 5 3 35 -32 0
1 2 31 5 3 35 -34 0
1 2 31 5 3 35 -33 0
1 2 22 5 17 3 -21 0
1 2 22 5 17 3 -15 0
1 2 22 5 17 3 -18 0
1 2 22 5 17 3 -19 0
1 2 22 5 3 16 -21 0
1 2 22 5 3 16 -15 0
1 2 22 5 3 16 -18 0
1 2 22 5 3 16 -19 0
1 2 9 5 8 3 -13 0
1 2 9 5 8 3 -7 0
1 2 9 5 8 3 -11 0
1 2 9 5 8 3 -14 0
1 2 25 5 24 3 -28 0
1 2 25 5 24 3 -23 0
1 2 25 5 24 3 -26 0
1 2 25 5 24 3 -30 0
1 2 5 37 3 35 -36 0
1 2 5 37 3 35 -32 0
1 2 5 37 3 35 -34 0
1 2 5 37 3 35 -33 0
1 2 5 17 3 16 -21 0
1 2 5 17 3 16 -15 0
1 2 5 17 3 16 -18 0
1 2 5 17 3 16 -19 0
38 20 31 22 37 17 -59 0
38 20 31 22 37 17 -62 0
38 20 31 22 37 17 -61 0
38 20 31 22 37 17 -60 0
38 20 31 22 37 35 -59 0
38 20 31 22 37 35 -62 0
38 20 31 22 37 35 -61 0
38 20 31 22 37 35 -60 0
38 20 31 22 17 16 -59 0
38 20 31 22 17 16 -62 0
38 20 31 22 17 16 -61 0
38 20 31 22 17 16 -60 0
38 20 31 22 35 16 -59 0
38 20 31 22 35 16 -62 0
38 20 31 22 35 16 -61 0
38 20 31 22 35 16 -60 0
38 20 31 37 17 35 -59 0
38 20 31 37 17 35 -62 0
38 20 31 37 17 35 -61 0
38 20 31 37 17 35 -60 0
38 20 31 37 35 16 -59 0
38 20 31 37 35 16 -62 0
38 20 31 37 35 16 -61 0
38 20 31 37 35 16 -60 0
38 20 22 37 17 16 -59 0
38 20 22 37 17 16 -62 0
38 20 22 37 17 16 -61 0
38 20 22 37 17 16 -60 0
38 20 22 17 35 16 -59 0
38 20 22 17 35 16 -62 0
38 20 22 17 35 16 -61 0
38 20 22 17 35 16 -60 0
38 20 37 17 35 16 -59 0
38 20 37 17 35 16 -62 0
38 20 37 17 35 16 -61 0
38 20 37 17 35 16 -60 0
38 12 31 9 37 35 -52 0
38 12 31 9 37 35 -50 0
38 12 31 9 37 35 -51 0
38 12 31 9 37 35 -49 0
38 12 31 37 8 35 -52 0
38 12 31 37 8 35 -50 0
38 12 31 37 8 35 -51 0
38 12 31 37 8 35 -49 0
38 29 31 25 37 35 -68 0
38 29 31 25 37 35 -66 0
38 29 31 25 37 35 -67 0
38 29 31 25 37 35 -65 0
38 29 31 37 24 35 -68 0
38 29 31 37 24 35 -66 0
38 29 31 37 24 35 -67 0
38 29 31 37 24 35 -65 0
38 2 31 5 37 35 -36 0
38 2 31 5 37 35 -32 0
38 2 31 5 37 35 -34 0
38 2 31 5 37 35 -33 0
38 2 31 37 3 35 -36 0
38 2 31 37 3 35 -32 0
38 2 31 37 3 35 -34 0
38 2 31 37 3 35 -33 0
38 31 22 37 17 35 -59 0
38 31 22 37 17 35 -62 0
38 31 22 37 17 35 -61 0
38 31 22 37 17 35 -60 0
38 31 22 37 35 16 -59 0
38 31 22 37 35 16 -62 0
38 31 22 37 35 16 -61 0
38 31 22 37 35 16 -60 0
38 31 9 37 8 35 -52 0
38 31 9 37 8 35 -50 0
38 31 9 37 8 35 -51 0
38 31 9 37 8 35 -49 0
38 31 25 37 24 35 -68 0
38 31 25 37 24 35 -66 0
38 31 25 37 24 35 -67 0
38 31 25 37 24 35 -65 0
38 31 5 37 3 35 -36 0
38 31 5 37 3 35 -32 0
38 31 5 37 3 35 -34 0
38 31 5 37 3 35 -33 0
38 31 37 17 35 16 -59 0
38 31 37 17 35 16 -62 0
38 31 37 17 35 16 -61 0
38 31 37 17 35 16 -60 0
20 12 22 9 17 16 -42 0
20 12 22 9 17 16 -43 0
20 12 22 9 17 16 -41 0
20 12 22 9 17 16 -44 0
20 12 22 17 8 16 -42 0
20 12 22 17 8 16 -43 0
20 12 22 17 8 16 -41 0
20 12 22 17 8 16 -44 0
20 29 22 25 17 16 -57 0
20 29 22 25 17 16 -55 0
20 29 22 25 17 16 -56 0
20 29 22 25 17 16 -58 0
20 29 22 17 24 16 -57 0
20 29 22 17 24 16 -55 0
20 29 22 17 24 16 -56 0
20 29 22 17 24 16 -58 0
20 2 22 5 17 16 -21 0
20 2 22 5 17 16 -15 0
20 2 22 5 17 16 -18 0
20 2 22 5 17 16 -19 0
20 2 22 17 3 16 -21 0
20 2 22 17 3 16 -15 0
20 2 22 17 3 16 -18 0
20 2 22 17 3 16 -19 0
20 31 22 37 17 16 -59 0
20 31 22 37 17 16 -62 0
20 31 22 37 17 16 -61 0
20 31 22 37 17 16 -60 0
20 31 22 17 35 16 -59 0
20 31 22 17 35 16 -62 0
20 31 22 17 35 16 -61 0
20 31 22 17 35 16 -60 0
20 22 9 17 8 16 -42 0
20 22 9 17 8 16 -43 0
20 22 9 17 8 16 -41 0
20 22 9 17 8 16 -44 0
20 22 25 17 24 16 -57 0
20 22 25 17 24 16 -55 0
20 22 25 17 24 16 -56 0
20 22 25 17 24 16 -58 0
20 22 5 17 3 16 -21 0
20 22 5 17 3 16 -15 0
20 22 5 17 3 16 -18 0
20 22 5 17 3 16 -19 0
20 22 37 17 35 16 -59 0
20 22 37 17 35 16 -62 0
20 22 37 17 35 16 -61 0
20 22 37 17 35 16 -60 0
12 29 9 25 8 24 -46 0
12 29 9 25 8 24 -47 0
12 29 9 25 8 24 -45 0
12 29 9 25 8 24 -48 0
12 2 9 5 8 3 -13 0
12 2 9 5 8 3 -7 0
12 2 9 5 8 3 -11 0
12 2 9 5 8 3 -14 0
12 31 9 37 8 35 -52 0
12 31 9 37 8 35 -50 0
12 31 9 37 8 35 -51 0
12 31 9 37 8 35 -49 0
12 22 9 17 8 16 -42 0
12 22 9 17 8 16 -43 0
12 22 9 17 8 16 -41 0
12 22 9 17 8 16 -44 0
29 2 25 5 24 3 -28 0
29 2 25 5 24 3 -23 0
29 2 25 5 24 3 -26 0
29 2 25 5 24 3 -30 0
29 31 25 37 24 35 -68 0
29 31 25 37 24 35 -66 0
29 31 25 37 24 35 -67 0
29 31 25 37 24 35 -65 0
29 22 25 17 24 16 -57 0
29 22 25 17 24 16 -55 0
29 22 25 17 24 16 -56 0
29 22 25 17 24 16 -58 0
2 31 5 37 3 35 -36 0
2 31 5 37 3 35 -32 0
2 31 5 37 3 35 -34 0
2 31 5 37 3 35 -33 0
2 22 5 17 3 16 -21 0
2 22 5 17 3 16 -15 0
2 22 5 17 3 16 -18 0
2 22 5 17 3 16 -19 0
31 22 37 17 35 16 -59 0
31 22 37 17 35 16 -62 0
31 22 37 17 35 16 -61 0
31 22 37 17 35 16 -60 0
10 27 12 29 9 25 8 -46 0
10 27 12 29 9 25 8 -47 0
10 27 12 29 9 25 8 -45 0
10 27 12 29 9 25 8 -48 0
10 27 12 29 9 25 24 -46 0
10 27 12 29 9 25 24 -47 0
10 27 12 29 9 25 24 -45 0
10 27 12 29 9 25 24 -48 0
10 27 12 29 9 8 24 -46 0
10 27 12 29 9 8 24 -47 0
10 27 12 29 9 8 24 -45 0
10 27 12 29 9 8 24 -48 0
10 27 12 29 25 8 24 -46 0
10 27 12 29 25 8 24 -47 0
10 27 12 29 25 8 24 -45 0
10 27 12 29 25 8 24 -48 0
10 27 12 9 25 8 24 -46 0
10 27 12 9 25 8 24 -47 0
10 27 12 9 25 8 24 -45 0
10 27 12 9 25 8 24 -48 0
10 27 29 9 25 8 24 -46 0
10 27 29 9 25 8 24 -47 0
10 27 29 9 25 8 24 -45 0
10 27 29 9 25 8 24 -48 0
10 1 12 2 9 5 8 -13 0
10 1 12 2 9 5 8 -7 0
10 1 12 2 9 5 8 -11 0
10 1 12 2 9 5 8 -14 0
10 1 12 2 9 5 3 -13 0
10 1 12 2 9 5 3 -7 0
10 1 12 2 9 5 3 -11 0
10 1 12 2 9 5 3 -14 0
10 1 12 2 9 8 3 -13 0
10 1 12 2 9 8 3 -7 0
10 1 12 2 9 8 3 -11 0
10 1 12 2 9 8 3 -14 0
10 1 12 2 5 8 3 -13 0
10 1 12 2 5 8 3 -7 0
10 1 12 2 5 8 3 -11 0
10 1 12 2 5 8 3 -14 0
10 1 12 9 5 8 3 -13 0
10 1 12 9 5 8 3 -7 0
10 1 12 9 5 8 3 -11 0
10 1 12 9 5 8 3 -14 0
10 1 2 9 5 8 3 -13 0
10 1 2 9 5 8 3 -7 0
10 1 2 9 5 8 3 -11 0
10 1 2 9 5 8 3 -14 0
10 38 12 31 9 37 8 -52 0
10 38 12 31 9 37 8 -50 0
10 38 12 31 9 37 8 -51 0
10 38 12 31 9 37 8 -49 0
10 38 12 31 9 37 35 -52 0
10 38 12 31 9 37 35 -50 0
10 38 12 31 9 37 35 -51 0
10 38 12 31 9 37 35 -49 0
10 38 12 31 9 8 35 -52 0
10 38 12 31 9 8 35 -50 0
10 38 12 31 9 8 35 -51 0
10 38 12 31 9 8 35 -49 0
10 38 12 31 37 8 35 -52 0
10 38 12 31 37 8 35 -50 0
10 38 12 31 37 8 35 -51 0
10 38 12 31 37 8 35 -49 0
10 38 12 9 37 8 35 -52 0
10 38 12 9 37 8 35 -50 0
10 38 12 9 37 8 35 -51 0
10 38 12 9 37 8 35 -49 0
10 38 31 9 37 8 35 -52 0
10 38 31 9 37 8 35 -50 0
10 38 31 9 37 8 35 -51 0
10 38 31 9 37 8 35 -49 0
10 20 12 22 9 17 8 -42 0
10 20 12 22 9 17 8 -43 0
10 20 12 22 9 17 8 -41 0
10 20 12 22 9 17 8 -44 0
10 20 12 22 9 17 16 -42 0
10 20 12 22 9 17 16 -43 0
10 20 12 22 9 17 16 -41 0
10 20 12 22 9 17 16 -44 0
10 20 12 22 9 8 16 -42 0
10 20 12 22 9 8 16 -43 0
10 20 12 22 9 8 16 -41 0
10 20 12 22 9 8 16 -44 0
10 20 12 22 17 8 16 -42 0
10 20 12 22 17 8 16 -43 0
10 20 12 22 17 8 16 -41 0
10 20 12 22 17 8 16 -44 0
10 20 12 9 17 8 16 -42 0
10 20 12 9 17 8 16 -43 0
10 20 12 9 17 8 16 -41 0
10 20 12 9 17 8 16 -44 0
10 20 22 9 17 8 16 -42 0
10 20 22 9 17 8 16 -43 0
10 20 22 9 17 8 16 -41 0
10 20 22 9 17 8 16 -44 0
10 12 29 9 25 8 24 -46 0
10 12 29 9 25 8 24 -47 0
10 12 29 9 25 8 24 -45 0
10 12 29 9 25 8 24 -48 0
10 12 2 9 5 8 3 -13 0
10 12 2 9 5 8 3 -7 0
10 12 2 9 5 8 3 -11 0
10 12 2 9 5 8 3 -14 0
10 12 31 9 37 8 35 -52 0
10 12 31 9 37 8 35 -50 0
10 12 31 9 37 8 35 -51 0
10 12 31 9 37 8 35 -49 0
10 12 22 9 17 8 16 -42 0
10 12 22 9 17 8 16 -43 0
10 12 22 9 17 8 16 -41 0
10 12 22 9 17 8 16 -44 0
27 1 29 2 25 5 24 -28 0
27 1 29 2 25 5 24 -23 0
27 1 29 2 25 5 24 -26 0
27 1 29 2 25 5 24 -30 0
27 1 29 2 25 5 3 -28 0
27 1 29 2 25 5 3 -23 0
27 1 29 2 25 5 3 -26 0
27 1 29 2 25 5 3 -30 0
27 1 29 2 25 24 3 -28 0
27 1 29 2 25 24 3 -23 0
27 1 29 2 25 24 3 -26 0
27 1 29 2 25 24 3 -30 0
27 1 29 2 5 24 3 -28 0
27 1 29 2 5 24 3 -23 0
27 1 29 2 5 24 3 -26 0
27 1 29 2 5 24 3 -30 0
27 1 29 25 5 24 3 -28 0
27 1 29 25 5 24 3 -23 0
27 1 29 25 5 24 3 -26 0
27 1 29 25 5 24 3 -30 0
27 1 2 25 5 24 3 -28 0
27 1 2 25 5 24 3 -23 0
27 1 2 25 5 24 3 -26 0
27 1 2 25 5 24 3 -30 0
27 38 29 31 25 37 24 -68 0
27 38 29 31 25 37 24 -66 0
27 38 29 31 25 37 24 -67 0
27 38 29 31 25 37 24 -65 0
27 38 29 31 25 37 35 -68 0
27 38 29 31 25 37 35 -66 0
27 38 29 31 25 37 35 -67 0
27 38 29 31 25 37 35 -65 0
27 38 29 31 25 24 35 -68 0
27 38 29 31 25 24 35 -66 0
27 38 29 31 25 24 35 -67 0
27 38 29 31 25 24 35 -65 0
27 38 29 31 37 24 35 -68 0
27 38 29 31 37 24 35 -66 0
27 38 29 31 37 24 35 -67 0
27 38 29 31 37 24 35 -65 0
27 38 29 25 37 24 35 -68 0
27 38 29 25 37 24 35 -66 0
27 38 29 25 37 24 35 -67 0
27 38 29 25 37 24 35 -65 0
27 38 31 25 37 24 35 -68 0
27 38 31 25 37 24 35 -66 0
27 38 31 25 37 24 35 -67 0
27 38 31 25 37 24 35 -65 0
27 20 29 22 25 17 24 -57 0
27 20 29 22 25 17 24 -55 0
27 20 29 22 25 17 24 -56 0
27 20 29 22 25 17 24 -58 0
27 20 29 22 25 17 16 -57 0
27 20 29 22 25 17 16 -55 0
27 20 29 22 25 17 16 -56 0
27 20 29 22 25 17 16 -58 0
27 20 29 22 25 24 16 -57 0
27 20 29 22 25 24 16 -55 0
27 20 29 22 25 24 16 -56 0
27 20 29 22 25 24 16 -58 0
27 20 29 22 17 24 16 -57 0
27 20 29 22 17 24 16 -55 0
27 20 29 22 17 24 16 -56 0
27 20 29 22 17 24 16 -58 0
27 20 29 25 17 24 16 -57 0
27 20 29 25 17 24 16 -55 0
27 20 29 25 17 24 16 -56 0
27 20 29 25 17 24 16 -58 0
27 20 22 25 17 24 16 -57 0
27 20 22 25 17 24 16 -55 0
27 20 22 25 17 24 16 -56 0
27 20 22 25 17 24 16 -58 0
27 12 29 9 25 8 24 -46 0
27 12 29 9 25 8 24 -47 0
27 12 29 9 25 8 24 -45 0
27 12 29 9 25 8 24 -48 0
27 29 2 25 5 24 3 -28 0
27 29 2 25 5 24 3 -23 0
27 29 2 25 5 24 3 -26 0
27 29 2 25 5 24 3 -30 0
27 29 31 25 37 24 35 -68 0
27 29 31 25 37 24 35 -66 0
27 29 31 25 37 24 35 -67 0
27 29 31 25 37 24 35 -65 0
27 29 22 25 17 24 16 -57 0
27 29 22 25 17 24 16 -55 0
27 29 22 25 17 24 16 -56 0
27 29 22 25 17 24 16 -58 0
1 38 2 31 5 37 3 -36 0
1 38 2 31 5 37 3 -32 0
1 38 2 31 5 37 3 -34 0
1 38 2 31 5 37 3 -33 0
1 38 2 31 5 37 35 -36 0
1 38 2 31 5 37 35 -32 0
1 38 2 31 5 37 35 -34 0
1 38 2 31 5 37 35 -33 0
1 38 2 31 5 3 35 -36 0
1 38 2 31 5 3 35 -32 0
1 38 2 31 5 3 35 -34 0
1 38 2 31 5 3 35 -33 0
1 38 2 31 37 3 35 -36 0
1 38 2 31 37 3 35 -32 0
1 38 2 31 37 3 35 -34 0
1 38 2 31 37 3 35 -33 0
1 38 2 5 37 3 35 -36 0
1 38 2 5 37 3 35 -32 0
1 38 2 5 37 3 35 -34 0
1 38 2 5 37 3 35 -33 0
1 38 31 5 37 3 35 -36 0
1 38 31 5 37 3 35 -32 0
1 38 31 5 37 3 35 -34 0
1 38 31 5 37 3 35 -33 0
1 20 2 22 5 17 3 -21 0
1 20 2 22 5 17 3 -15 0
1 20 2 22 5 17 3 -18 0
1 20 2 22 5 17 3 -19 0
1 20 2 22 5 17 16 -21 0
1 20 2 22 5 17 16 -15 0
1 20 2 22 5 17 16 -18 0
1 20 2 22 5 17 16 -19 0
1 20 2 22 5 3 16 -21 0
1 20 2 22 5 3 16 -15 0
1 20 2 22 5 3 16 -18 0
1 20 2 22 5 3 16 -19 0
1 20 2 22 17 3 16 -21 0
1 20 2 22 17 3 16 -15 0
1 20 2 22 17 3 16 -18 0
1 20 2 22 17 3 16 -19 0
1 20 2 5 17 3 16 -21 0
1 20 2 5 17 3 16 -15 0
1 20 2 5 17 3 16 -18 0
1 20 2 5 17 3 16 -19 0
1 20 22 5 17 3 16 -21 0
1 20 22 5 17 3 16 -15 0
1 20 22 5 17 3 16 -18 0
1 20 22 5 17 3 16 -19 0
1 12 2 9 5 8 3 -13 0
1 12 2 9 5 8 3 -7 0
1 12 2 9 5 8 3 -11 0
1 12 2 9 5 8 3 -14 0
1 29 2 25 5 24 3 -28 0
1 29 2 25 5 24 3 -23 0
1 29 2 25 5 24 3 -26 0
1 29 2 25 5 24 3 -30 0
1 2 31 5 37 3 35 -36 0
1 2 31 5 37 3 35 -32 0
1 2 31 5 37 3 35 -34 0
1 2 31 5 37 3 35 -33 0
1 2 22 5 17 3 16 -21 0
1 2 22 5 17 3 16 -15 0
1 2 22 5 17 3 16 -18 0
1 2 22 5 17 3 16 -19 0
38 20 31 22 37 17 35 -59 0
38 20 31 22 37 17 35 -62 0
38 20 31 22 37 17 35 -61 0
38 20 31 22 37 17 35 -60 0
38 20 31 22 37 17 16 -59 0
38 20 31 22 37 17 16 -62 0
38 20 31 22 37 17 16 -61 0
38 20 31 22 37 17 16 -60 0
38 20 31 22 37 35 16 -59 0
38 20 31 22 37 35 16 -62 0
38 20 31 22 37 35 16 -61 0
38 20 31 22 37 35 16 -60 0
38 20 31 22 17 35 16 -59 0
38 20 31 22 17 35 16 -62 0
38 20 31 22 17 35 16 -61 0
38 20 31 22 17 35 16 -60 0
38 20 31 37 17 35 16 -59 0
38 20 31 37 17 35 16 -62 0
38 20 31 37 17 35 16 -61 0
38 20 31 37 17 35 16 -60 0
38 20 22 37 17 35 16 -59 0
38 20 22 37 17 35 16 -62 0
38 20 22 37 17 35 16 -61 0
38 20 22 37 17 35 16 -60 0
38 12 31 9 37 8 35 -52 0
38 12 31 9 37 8 35 -50 0
38 12 31 9 37 8 35 -51 0
38 12 31 9 37 8 35 -49 0
38 29 31 25 37 24 35 -68 0
38 29 31 25 37 24 35 -66 0
38 29 31 25 37 24 35 -67 0
38 29 31 25 37 24 35 -65 0
38 2 31 5 37 3 35 -36 0
38 2 31 5 37 3 35 -32 0
38 2 31 5 37 3 35 -34 0
38 2 31 5 37 3 35 -33 0
38 31 22 37 17 35 16 -59 0
38 31 22 37 17 35 16 -62 0
38 31 22 37 17 35 16 -61 0
38 31 22 37 17 35 16 -60 0
20 12 22 9 17 8 16 -42 0
20 12 22 9 17 8 16 -43 0
20 12 22 9 17 8 16 -41 0
20 12 22 9 17 8 16 -44 0
20 29 22 25 17 24 16 -57 0
20 29 22 25 17 24 16 -55 0
20 29 22 25 17 24 16 -56 0
20 29 22 25 17 24 16 -58 0
20 2 22 5 17 3 16 -21 0
20 2 22 5 17 3 16 -15 0
20 2 22 5 17 3 16 -18 0
20 2 22 5 17 3 16 -19 0
20 31 22 37 17 35 16 -59 0
20 31 22 37 17 35 16 -62 0
20 31 22 37 17 35 16 -61 0
20 31 22 37 17 35 16 -60 0
10 27 12 29 9 25 8 24 -46 0
10 27 12 29 9 25 8 24 -47 0
10 27 12 29 9 25 8 24 -45 0
10 27 12 29 9 25 8 24 -48 0
10 1 12 2 9 5 8 3 -13 0
10 1 12 2 9 5 8 3 -7 0
10 1 12 2 9 5 8 3 -11 0
10 1 12 2 9 5 8 3 -14 0
10 38 12 31 9 37 8 35 -52 0
10 38 12 31 9 37 8 35 -50 0
10 38 12 31 9 37 8 35 -51 0
10 38 12 31 9 37 8 35 -49 0
10 20 12 22 9 17 8 16 -42 0
10 20 12 22 9 17 8 16 -43 0
10 20 12 22 9 17 8 16 -41 0
10 20 12 22 9 17 8 16 -44 0
27 1 29 2 25 5 24 3 -28 0
27 1 29 2 25 5 24 3 -23 0
27 1 29 2 25 5 24 3 -26 0
27 1 29 2 25 5 24 3 -30 0
27 38 29 31 25 37 24 35 -68 0
27 38 29 31 25 37 24 35 -66 0
27 38 29 31 25 37 24 35 -67 0
27 38 29 31 25 37 24 35 -65 0
27 20 29 22 25 17 24 16 -57 0
27 20 29 22 25 17 24 16 -55 0
27 20 29 22 25 17 24 16 -56 0
27 20 29 22 25 17 24 16 -58 0
1 38 2 31 5 37 3 35 -36 0
1 38 2 31 5 37 3 35 -32 0
1 38 2 31 5 37 3 35 -34 0
1 38 2 31 5 37 3 35 -33 0
1 20 2 22 5 17 3 16 -21 0
1 20 2 22 5 17 3 16 -15 0
1 20 2 22 5 17 3 16 -18 0
1 20 2 22 5 17 3 16 -19 0
38 20 31 22 37 17 35 16 -59 0
38 20 31 22 37 17 35 16 -62 0
38 20 31 22 37 17 35 16 -61 0
38 20 31 22 37 17 35 16 -60 0
