c U1(4) U2(4) E2(4,4) E1(4,4) U3(4) U4(4) E1(3,4) U1(3) E2(3,4) E2(4,3) U3(3) E1(4,3) U2(3) U4(3) E2(4,5) E2(5,4) U1(5) E1(5,4) U3(5) E1(4,5) U2(5) U4(5) E2(1,4) E1(1,4) U2(1) U4(1) E1(4,1) E2(4,1) U1(1) U3(1) U3(2) U2(2) E2(2,4) E1(4,2) U4(2) E1(2,4) U1(2) E2(4,2) U2(0) E2(4,0) E1(4,0) U3(0) U4(0) E2(0,4) E1(0,4) U1(0) E2(3,3) E1(3,3) E1(3,5) E2(3,5) E2(5,3) E1(5,3) E1(3,1) E1(1,3) E2(3,1) E2(1,3) E2(3,2) E1(2,3) E2(2,3) E1(3,2) E2(0,3) E1(0,3) E1(3,0) E2(3,0) E1(5,5) E2(5,5) E1(5,1) E2(5,1) E2(1,5) E1(1,5) E1(5,2) E1(2,5) E2(2,5) E2(5,2) E1(5,0) E2(0,5) E2(5,0) E1(0,5) E1(1,1) E2(1,1) E1(1,2) E2(1,2) E1(2,1) E2(2,1) E1(0,1) E2(0,1) E2(1,0) E1(1,0) E1(2,2) E2(2,2) E2(0,2) E2(2,0) E1(0,2) E1(2,0) E1(0,0) E2(0,0)
c 1 2 3 4 5 6 7 8 9 10 11 12 13 14 15 16 17 18 19 20 21 22 23 24 25 26 27 28 29 30 31 32 33 34 35 36 37 38 39 40 41 42 43 44 45 46 47 48 49 50 51 52 53 54 55 56 57 58 59 60 61 62 63 64 65 66 67 68 69 70 71 72 73 74 75 76 77 78 79 80 81 82 83 84 85 86 87 88 89 90 91 92 93 94 95 96
p cnf 96 2214
-46 -39 0
-46 -42 0
-46 -43 0
-29 -25 0
-29 -30 0
-29 -26 0
-37 -32 0
-37 -31 0
-37 -35 0
-8 -13 0
-8 -11 0
-8 -14 0
-1 -2 0
-1 -5 0
-1 -6 0
-17 -21 0
-17 -19 0
-17 -22 0
-39 -42 0
-39 -43 0
-25 -30 0
-25 -26 0
-32 -31 0
-32 -35 0
-13 -11 0
-13 -14 0
-2 -5 0
-2 -6 0
-21 -19 0
-21 -22 0
-42 -43 0
-30 -26 0
-31 -35 0
-11 -14 0
-5 -6 0
-19 -22 0
46 39 42 43 0
29 25 30 26 0
37 32 31 35 0
8 13 11 14 0
1 2 5 6 0
17 21 19 22 0
46 39 42 -95 0
46 39 42 -96 0
46 39 43 -95 0
46 39 43 -96 0
46 42 43 -95 0
46 42 43 -96 0
29 25 30 -79 0
29 25 30 -80 0
29 25 26 -79 0
29 25 26 -80 0
29 30 26 -79 0
29 30 26 -80 0
37 32 31 -89 0
37 32 31 -90 0
37 32 35 -89 0
37 32 35 -90 0
37 31 35 -89 0
37 31 35 -90 0
8 13 11 -48 0
8 13 11 -47 0
8 13 14 -48 0
8 13 14 -47 0
8 11 14 -48 0
8 11 14 -47 0
1 2 5 -4 0
1 2 5 -3 0
1 2 6 -4 0
1 2 6 -3 0
1 5 6 -4 0
1 5 6 -3 0
17 21 19 -65 0
17 21 19 -66 0
17 21 22 -65 0
17 21 22 -66 0
17 19 22 -65 0
17 19 22 -66 0
39 42 43 -95 0
39 42 43 -96 0
25 30 26 -79 0
25 30 26 -80 0
32 31 35 -89 0
32 31 35 -90 0
13 11 14 -48 0
13 11 14 -47 0
2 5 6 -4 0
2 5 6 -3 0
21 19 22 -65 0
21 19 22 -66 0
46 39 42 43 -95 0
46 39 42 43 -85 0
46 39 42 43 -93 0
46 39 42 43 -62 0
46 39 42 43 -45 0
46 39 42 43 -78 0
46 39 42 43 -88 0
46 39 42 43 -94 0
46 39 42 43 -63 0
46 39 42 43 -41 0
46 39 42 43 -75 0
46 39 42 43 -96 0
46 39 42 43 -86 0
46 39 42 43 -91 0
46 39 42 43 -61 0
46 39 42 43 -44 0
46 39 42 43 -76 0
46 39 42 43 -87 0
46 39 42 43 -92 0
46 39 42 43 -64 0
46 39 42 43 -40 0
46 39 42 43 -77 0
29 25 30 26 -85 0
29 25 30 26 -88 0
29 25 30 26 -79 0
29 25 30 26 -81 0
29 25 30 26 -54 0
29 25 30 26 -24 0
29 25 30 26 -70 0
29 25 30 26 -83 0
29 25 30 26 -53 0
29 25 30 26 -27 0
29 25 30 26 -67 0
29 25 30 26 -86 0
29 25 30 26 -87 0
29 25 30 26 -80 0
29 25 30 26 -82 0
29 25 30 26 -56 0
29 25 30 26 -23 0
29 25 30 26 -69 0
29 25 30 26 -84 0
29 25 30 26 -55 0
29 25 30 26 -28 0
29 25 30 26 -68 0
37 32 31 35 -93 0
37 32 31 35 -81 0
37 32 31 35 -94 0
37 32 31 35 -83 0
37 32 31 35 -89 0
37 32 31 35 -58 0
37 32 31 35 -36 0
37 32 31 35 -72 0
37 32 31 35 -60 0
37 32 31 35 -34 0
37 32 31 35 -71 0
37 32 31 35 -91 0
37 32 31 35 -82 0
37 32 31 35 -92 0
37 32 31 35 -84 0
37 32 31 35 -90 0
37 32 31 35 -59 0
37 32 31 35 -33 0
37 32 31 35 -73 0
37 32 31 35 -57 0
37 32 31 35 -38 0
37 32 31 35 -74 0
8 13 11 14 -62 0
8 13 11 14 -54 0
8 13 11 14 -58 0
8 13 11 14 -63 0
8 13 11 14 -53 0
8 13 11 14 -60 0
8 13 11 14 -48 0
8 13 11 14 -7 0
8 13 11 14 -49 0
8 13 11 14 -12 0
8 13 11 14 -52 0
8 13 11 14 -61 0
8 13 11 14 -56 0
8 13 11 14 -59 0
8 13 11 14 -64 0
8 13 11 14 -55 0
8 13 11 14 -57 0
8 13 11 14 -47 0
8 13 11 14 -9 0
8 13 11 14 -50 0
8 13 11 14 -10 0
8 13 11 14 -51 0
1 2 5 6 -45 0
1 2 5 6 -24 0
1 2 5 6 -36 0
1 2 5 6 -7 0
1 2 5 6 -41 0
1 2 5 6 -27 0
1 2 5 6 -34 0
1 2 5 6 -12 0
1 2 5 6 -4 0
1 2 5 6 -20 0
1 2 5 6 -18 0
1 2 5 6 -44 0
1 2 5 6 -23 0
1 2 5 6 -33 0
1 2 5 6 -9 0
1 2 5 6 -40 0
1 2 5 6 -28 0
1 2 5 6 -38 0
1 2 5 6 -10 0
1 2 5 6 -3 0
1 2 5 6 -15 0
1 2 5 6 -16 0
17 21 19 22 -78 0
17 21 19 22 -70 0
17 21 19 22 -72 0
17 21 19 22 -49 0
17 21 19 22 -20 0
17 21 19 22 -75 0
17 21 19 22 -67 0
17 21 19 22 -71 0
17 21 19 22 -52 0
17 21 19 22 -18 0
17 21 19 22 -65 0
17 21 19 22 -76 0
17 21 19 22 -69 0
17 21 19 22 -73 0
17 21 19 22 -50 0
17 21 19 22 -15 0
17 21 19 22 -77 0
17 21 19 22 -68 0
17 21 19 22 -74 0
17 21 19 22 -51 0
17 21 19 22 -16 0
17 21 19 22 -66 0
95 85 93 62 45 78 0
88 79 81 54 24 70 0
94 83 89 58 36 72 0
63 53 60 48 7 49 0
41 27 34 12 4 20 0
75 67 71 52 18 65 0
96 86 91 61 44 76 0
87 80 82 56 23 69 0
92 84 90 59 33 73 0
64 55 57 47 9 50 0
40 28 38 10 3 15 0
77 68 74 51 16 66 0
46 29 39 42 43 -85 0
46 29 39 42 43 -88 0
46 29 39 42 43 -86 0
46 29 39 42 43 -87 0
46 29 25 30 26 -85 0
46 29 25 30 26 -88 0
46 29 25 30 26 -86 0
46 29 25 30 26 -87 0
46 37 39 42 43 -93 0
46 37 39 42 43 -94 0
46 37 39 42 43 -91 0
46 37 39 42 43 -92 0
46 37 32 31 35 -93 0
46 37 32 31 35 -94 0
46 37 32 31 35 -91 0
46 37 32 31 35 -92 0
46 8 39 42 43 -62 0
46 8 39 42 43 -63 0
46 8 39 42 43 -61 0
46 8 39 42 43 -64 0
46 8 13 11 14 -62 0
46 8 13 11 14 -63 0
46 8 13 11 14 -61 0
46 8 13 11 14 -64 0
46 1 39 42 43 -45 0
46 1 39 42 43 -41 0
46 1 39 42 43 -44 0
46 1 39 42 43 -40 0
46 1 2 5 6 -45 0
46 1 2 5 6 -41 0
46 1 2 5 6 -44 0
46 1 2 5 6 -40 0
46 17 39 42 43 -78 0
46 17 39 42 43 -75 0
46 17 39 42 43 -76 0
46 17 39 42 43 -77 0
46 17 21 19 22 -78 0
46 17 21 19 22 -75 0
46 17 21 19 22 -76 0
46 17 21 19 22 -77 0
46 39 25 42 43 -85 0
46 39 25 42 43 -88 0
46 39 25 42 43 -86 0
46 39 25 42 43 -87 0
46 39 32 42 43 -93 0
46 39 32 42 43 -94 0
46 39 32 42 43 -91 0
46 39 32 42 43 -92 0
46 39 13 42 43 -62 0
46 39 13 42 43 -63 0
46 39 13 42 43 -61 0
46 39 13 42 43 -64 0
46 39 2 42 43 -45 0
46 39 2 42 43 -41 0
46 39 2 42 43 -44 0
46 39 2 42 43 -40 0
46 39 21 42 43 -78 0
46 39 21 42 43 -75 0
46 39 21 42 43 -76 0
46 39 21 42 43 -77 0
46 39 42 30 43 -85 0
46 39 42 30 43 -88 0
46 39 42 30 43 -86 0
46 39 42 30 43 -87 0
46 39 42 31 43 -93 0
46 39 42 31 43 -94 0
46 39 42 31 43 -91 0
46 39 42 31 43 -92 0
46 39 42 11 43 -62 0
46 39 42 11 43 -63 0
46 39 42 11 43 -61 0
46 39 42 11 43 -64 0
46 39 42 5 43 -45 0
46 39 42 5 43 -41 0
46 39 42 5 43 -44 0
46 39 42 5 43 -40 0
46 39 42 19 43 -78 0
46 39 42 19 43 -75 0
46 39 42 19 43 -76 0
46 39 42 19 43 -77 0
46 39 42 43 26 -85 0
46 39 42 43 26 -88 0
46 39 42 43 26 -86 0
46 39 42 43 26 -87 0
46 39 42 43 35 -93 0
46 39 42 43 35 -94 0
46 39 42 43 35 -91 0
46 39 42 43 35 -92 0
46 39 42 43 14 -62 0
46 39 42 43 14 -63 0
46 39 42 43 14 -61 0
46 39 42 43 14 -64 0
46 39 42 43 6 -45 0
46 39 42 43 6 -41 0
46 39 42 43 6 -44 0
46 39 42 43 6 -40 0
46 39 42 43 22 -78 0
46 39 42 43 22 -75 0
46 39 42 43 22 -76 0
46 39 42 43 22 -77 0
29 37 25 30 26 -81 0
29 37 25 30 26 -83 0
29 37 25 30 26 -82 0
29 37 25 30 26 -84 0
29 37 32 31 35 -81 0
29 37 32 31 35 -83 0
29 37 32 31 35 -82 0
29 37 32 31 35 -84 0
29 8 25 30 26 -54 0
29 8 25 30 26 -53 0
29 8 25 30 26 -56 0
29 8 25 30 26 -55 0
29 8 13 11 14 -54 0
29 8 13 11 14 -53 0
29 8 13 11 14 -56 0
29 8 13 11 14 -55 0
29 1 25 30 26 -24 0
29 1 25 30 26 -27 0
29 1 25 30 26 -23 0
29 1 25 30 26 -28 0
29 1 2 5 6 -24 0
29 1 2 5 6 -27 0
29 1 2 5 6 -23 0
29 1 2 5 6 -28 0
29 17 25 30 26 -70 0
29 17 25 30 26 -67 0
29 17 25 30 26 -69 0
29 17 25 30 26 -68 0
29 17 21 19 22 -70 0
29 17 21 19 22 -67 0
29 17 21 19 22 -69 0
29 17 21 19 22 -68 0
29 39 25 30 26 -85 0
29 39 25 30 26 -88 0
29 39 25 30 26 -86 0
29 39 25 30 26 -87 0
29 25 32 30 26 -81 0
29 25 32 30 26 -83 0
29 25 32 30 26 -82 0
29 25 32 30 26 -84 0
29 25 13 30 26 -54 0
29 25 13 30 26 -53 0
29 25 13 30 26 -56 0
29 25 13 30 26 -55 0
29 25 2 30 26 -24 0
29 25 2 30 26 -27 0
29 25 2 30 26 -23 0
29 25 2 30 26 -28 0
29 25 21 30 26 -70 0
29 25 21 30 26 -67 0
29 25 21 30 26 -69 0
29 25 21 30 26 -68 0
29 25 42 30 26 -85 0
29 25 42 30 26 -88 0
29 25 42 30 26 -86 0
29 25 42 30 26 -87 0
29 25 30 31 26 -81 0
29 25 30 31 26 -83 0
29 25 30 31 26 -82 0
29 25 30 31 26 -84 0
29 25 30 11 26 -54 0
29 25 30 11 26 -53 0
29 25 30 11 26 -56 0
29 25 30 11 26 -55 0
29 25 30 5 26 -24 0
29 25 30 5 26 -27 0
29 25 30 5 26 -23 0
29 25 30 5 26 -28 0
29 25 30 19 26 -70 0
29 25 30 19 26 -67 0
29 25 30 19 26 -69 0
29 25 30 19 26 -68 0
29 25 30 43 26 -85 0
29 25 30 43 26 -88 0
29 25 30 43 26 -86 0
29 25 30 43 26 -87 0
29 25 30 26 35 -81 0
29 25 30 26 35 -83 0
29 25 30 26 35 -82 0
29 25 30 26 35 -84 0
29 25 30 26 14 -54 0
29 25 30 26 14 -53 0
29 25 30 26 14 -56 0
29 25 30 26 14 -55 0
29 25 30 26 6 -24 0
29 25 30 26 6 -27 0
29 25 30 26 6 -23 0
29 25 30 26 6 -28 0
29 25 30 26 22 -70 0
29 25 30 26 22 -67 0
29 25 30 26 22 -69 0
29 25 30 26 22 -68 0
37 8 32 31 35 -58 0
37 8 32 31 35 -60 0
37 8 32 31 35 -59 0
37 8 32 31 35 -57 0
37 8 13 11 14 -58 0
37 8 13 11 14 -60 0
37 8 13 11 14 -59 0
37 8 13 11 14 -57 0
37 1 32 31 35 -36 0
37 1 32 31 35 -34 0
37 1 32 31 35 -33 0
37 1 32 31 35 -38 0
37 1 2 5 6 -36 0
37 1 2 5 6 -34 0
37 1 2 5 6 -33 0
37 1 2 5 6 -38 0
37 17 32 31 35 -72 0
37 17 32 31 35 -71 0
37 17 32 31 35 -73 0
37 17 32 31 35 -74 0
37 17 21 19 22 -72 0
37 17 21 19 22 -71 0
37 17 21 19 22 -73 0
37 17 21 19 22 -74 0
37 39 32 31 35 -93 0
37 39 32 31 35 -94 0
37 39 32 31 35 -91 0
37 39 32 31 35 -92 0
37 25 32 31 35 -81 0
37 25 32 31 35 -83 0
37 25 32 31 35 -82 0
37 25 32 31 35 -84 0
37 32 13 31 35 -58 0
37 32 13 31 35 -60 0
37 32 13 31 35 -59 0
37 32 13 31 35 -57 0
37 32 2 31 35 -36 0
37 32 2 31 35 -34 0
37 32 2 31 35 -33 0
37 32 2 31 35 -38 0
37 32 21 31 35 -72 0
37 32 21 31 35 -71 0
37 32 21 31 35 -73 0
37 32 21 31 35 -74 0
37 32 42 31 35 -93 0
37 32 42 31 35 -94 0
37 32 42 31 35 -91 0
37 32 42 31 35 -92 0
37 32 30 31 35 -81 0
37 32 30 31 35 -83 0
37 32 30 31 35 -82 0
37 32 30 31 35 -84 0
37 32 31 11 35 -58 0
37 32 31 11 35 -60 0
37 32 31 11 35 -59 0
37 32 31 11 35 -57 0
37 32 31 5 35 -36 0
37 32 31 5 35 -34 0
37 32 31 5 35 -33 0
37 32 31 5 35 -38 0
37 32 31 19 35 -72 0
37 32 31 19 35 -71 0
37 32 31 19 35 -73 0
37 32 31 19 35 -74 0
37 32 31 43 35 -93 0
37 32 31 43 35 -94 0
37 32 31 43 35 -91 0
37 32 31 43 35 -92 0
37 32 31 26 35 -81 0
37 32 31 26 35 -83 0
37 32 31 26 35 -82 0
37 32 31 26 35 -84 0
37 32 31 35 14 -58 0
37 32 31 35 14 -60 0
37 32 31 35 14 -59 0
37 32 31 35 14 -57 0
37 32 31 35 6 -36 0
37 32 31 35 6 -34 0
37 32 31 35 6 -33 0
37 32 31 35 6 -38 0
37 32 31 35 22 -72 0
37 32 31 35 22 -71 0
37 32 31 35 22 -73 0
37 32 31 35 22 -74 0
8 1 13 11 14 -7 0
8 1 13 11 14 -12 0
8 1 13 11 14 -9 0
8 1 13 11 14 -10 0
8 1 2 5 6 -7 0
8 1 2 5 6 -12 0
8 1 2 5 6 -9 0
8 1 2 5 6 -10 0
8 17 13 11 14 -49 0
8 17 13 11 14 -52 0
8 17 13 11 14 -50 0
8 17 13 11 14 -51 0
8 17 21 19 22 -49 0
8 17 21 19 22 -52 0
8 17 21 19 22 -50 0
8 17 21 19 22 -51 0
8 39 13 11 14 -62 0
8 39 13 11 14 -63 0
8 39 13 11 14 -61 0
8 39 13 11 14 -64 0
8 25 13 11 14 -54 0
8 25 13 11 14 -53 0
8 25 13 11 14 -56 0
8 25 13 11 14 -55 0
8 32 13 11 14 -58 0
8 32 13 11 14 -60 0
8 32 13 11 14 -59 0
8 32 13 11 14 -57 0
8 13 2 11 14 -7 0
8 13 2 11 14 -12 0
8 13 2 11 14 -9 0
8 13 2 11 14 -10 0
8 13 21 11 14 -49 0
8 13 21 11 14 -52 0
8 13 21 11 14 -50 0
8 13 21 11 14 -51 0
8 13 42 11 14 -62 0
8 13 42 11 14 -63 0
8 13 42 11 14 -61 0
8 13 42 11 14 -64 0
8 13 30 11 14 -54 0
8 13 30 11 14 -53 0
8 13 30 11 14 -56 0
8 13 30 11 14 -55 0
8 13 31 11 14 -58 0
8 13 31 11 14 -60 0
8 13 31 11 14 -59 0
8 13 31 11 14 -57 0
8 13 11 5 14 -7 0
8 13 11 5 14 -12 0
8 13 11 5 14 -9 0
8 13 11 5 14 -10 0
8 13 11 19 14 -49 0
8 13 11 19 14 -52 0
8 13 11 19 14 -50 0
8 13 11 19 14 -51 0
8 13 11 43 14 -62 0
8 13 11 43 14 -63 0
8 13 11 43 14 -61 0
8 13 11 43 14 -64 0
8 13 11 26 14 -54 0
8 13 11 26 14 -53 0
8 13 11 26 14 -56 0
8 13 11 26 14 -55 0
8 13 11 35 14 -58 0
8 13 11 35 14 -60 0
8 13 11 35 14 -59 0
8 13 11 35 14 -57 0
8 13 11 14 6 -7 0
8 13 11 14 6 -12 0
8 13 11 14 6 -9 0
8 13 11 14 6 -10 0
8 13 11 14 22 -49 0
8 13 11 14 22 -52 0
8 13 11 14 22 -50 0
8 13 11 14 22 -51 0
1 17 2 5 6 -20 0
1 17 2 5 6 -18 0
1 17 2 5 6 -15 0
1 17 2 5 6 -16 0
1 17 21 19 22 -20 0
1 17 21 19 22 -18 0
1 17 21 19 22 -15 0
1 17 21 19 22 -16 0
1 39 2 5 6 -45 0
1 39 2 5 6 -41 0
1 39 2 5 6 -44 0
1 39 2 5 6 -40 0
1 25 2 5 6 -24 0
1 25 2 5 6 -27 0
1 25 2 5 6 -23 0
1 25 2 5 6 -28 0
1 32 2 5 6 -36 0
1 32 2 5 6 -34 0
1 32 2 5 6 -33 0
1 32 2 5 6 -38 0
1 13 2 5 6 -7 0
1 13 2 5 6 -12 0
1 13 2 5 6 -9 0
1 13 2 5 6 -10 0
1 2 21 5 6 -20 0
1 2 21 5 6 -18 0
1 2 21 5 6 -15 0
1 2 21 5 6 -16 0
1 2 42 5 6 -45 0
1 2 42 5 6 -41 0
1 2 42 5 6 -44 0
1 2 42 5 6 -40 0
1 2 30 5 6 -24 0
1 2 30 5 6 -27 0
1 2 30 5 6 -23 0
1 2 30 5 6 -28 0
1 2 31 5 6 -36 0
1 2 31 5 6 -34 0
1 2 31 5 6 -33 0
1 2 31 5 6 -38 0
1 2 11 5 6 -7 0
1 2 11 5 6 -12 0
1 2 11 5 6 -9 0
1 2 11 5 6 -10 0
1 2 5 19 6 -20 0
1 2 5 19 6 -18 0
1 2 5 19 6 -15 0
1 2 5 19 6 -16 0
1 2 5 43 6 -45 0
1 2 5 43 6 -41 0
1 2 5 43 6 -44 0
1 2 5 43 6 -40 0
1 2 5 26 6 -24 0
1 2 5 26 6 -27 0
1 2 5 26 6 -23 0
1 2 5 26 6 -28 0
1 2 5 35 6 -36 0
1 2 5 35 6 -34 0
1 2 5 35 6 -33 0
1 2 5 35 6 -38 0
1 2 5 14 6 -7 0
1 2 5 14 6 -12 0
1 2 5 14 6 -9 0
1 2 5 14 6 -10 0
1 2 5 6 22 -20 0
1 2 5 6 22 -18 0
1 2 5 6 22 -15 0
1 2 5 6 22 -16 0
17 39 21 19 22 -78 0
17 39 21 19 22 -75 0
17 39 21 19 22 -76 0
17 39 21 19 22 -77 0
17 25 21 19 22 -70 0
17 25 21 19 22 -67 0
17 25 21 19 22 -69 0
17 25 21 19 22 -68 0
17 32 21 19 22 -72 0
17 32 21 19 22 -71 0
17 32 21 19 22 -73 0
17 32 21 19 22 -74 0
17 13 21 19 22 -49 0
17 13 21 19 22 -52 0
17 13 21 19 22 -50 0
17 13 21 19 22 -51 0
17 2 21 19 22 -20 0
17 2 21 19 22 -18 0
17 2 21 19 22 -15 0
17 2 21 19 22 -16 0
17 21 42 19 22 -78 0
17 21 42 19 22 -75 0
17 21 42 19 22 -76 0
17 21 42 19 22 -77 0
17 21 30 19 22 -70 0
17 21 30 19 22 -67 0
17 21 30 19 22 -69 0
17 21 30 19 22 -68 0
17 21 31 19 22 -72 0
17 21 31 19 22 -71 0
17 21 31 19 22 -73 0
17 21 31 19 22 -74 0
17 21 11 19 22 -49 0
17 21 11 19 22 -52 0
17 21 11 19 22 -50 0
17 21 11 19 22 -51 0
17 21 5 19 22 -20 0
17 21 5 19 22 -18 0
17 21 5 19 22 -15 0
17 21 5 19 22 -16 0
17 21 19 43 22 -78 0
17 21 19 43 22 -75 0
17 21 19 43 22 -76 0
17 21 19 43 22 -77 0
17 21 19 26 22 -70 0
17 21 19 26 22 -67 0
17 21 19 26 22 -69 0
17 21 19 26 22 -68 0
17 21 19 35 22 -72 0
17 21 19 35 22 -71 0
17 21 19 35 22 -73 0
17 21 19 35 22 -74 0
17 21 19 14 22 -49 0
17 21 19 14 22 -52 0
17 21 19 14 22 -50 0
17 21 19 14 22 -51 0
17 21 19 6 22 -20 0
17 21 19 6 22 -18 0
17 21 19 6 22 -15 0
17 21 19 6 22 -16 0
46 29 39 25 42 30 -85 0
46 29 39 25 42 30 -88 0
46 29 39 25 42 30 -86 0
46 29 39 25 42 30 -87 0
46 29 39 25 42 43 -85 0
46 29 39 25 42 43 -88 0
46 29 39 25 42 43 -86 0
46 29 39 25 42 43 -87 0
46 29 39 25 30 26 -85 0
46 29 39 25 30 26 -88 0
46 29 39 25 30 26 -86 0
46 29 39 25 30 26 -87 0
46 29 39 25 43 26 -85 0
46 29 39 25 43 26 -88 0
46 29 39 25 43 26 -86 0
46 29 39 25 43 26 -87 0
46 29 39 42 30 43 -85 0
46 29 39 42 30 43 -88 0
46 29 39 42 30 43 -86 0
46 29 39 42 30 43 -87 0
46 29 39 42 43 26 -85 0
46 29 39 42 43 26 -88 0
46 29 39 42 43 26 -86 0
46 29 39 42 43 26 -87 0
46 29 25 42 30 26 -85 0
46 29 25 42 30 26 -88 0
46 29 25 42 30 26 -86 0
46 29 25 42 30 26 -87 0
46 29 25 30 43 26 -85 0
46 29 25 30 43 26 -88 0
46 29 25 30 43 26 -86 0
46 29 25 30 43 26 -87 0
46 29 42 30 43 26 -85 0
46 29 42 30 43 26 -88 0
46 29 42 30 43 26 -86 0
46 29 42 30 43 26 -87 0
46 37 39 32 42 31 -93 0
46 37 39 32 42 31 -94 0
46 37 39 32 42 31 -91 0
46 37 39 32 42 31 -92 0
46 37 39 32 42 43 -93 0
46 37 39 32 42 43 -94 0
46 37 39 32 42 43 -91 0
46 37 39 32 42 43 -92 0
46 37 39 32 31 35 -93 0
46 37 39 32 31 35 -94 0
46 37 39 32 31 35 -91 0
46 37 39 32 31 35 -92 0
46 37 39 32 43 35 -93 0
46 37 39 32 43 35 -94 0
46 37 39 32 43 35 -91 0
46 37 39 32 43 35 -92 0
46 37 39 42 31 43 -93 0
46 37 39 42 31 43 -94 0
46 37 39 42 31 43 -91 0
46 37 39 42 31 43 -92 0
46 37 39 42 43 35 -93 0
46 37 39 42 43 35 -94 0
46 37 39 42 43 35 -91 0
46 37 39 42 43 35 -92 0
46 37 32 42 31 35 -93 0
46 37 32 42 31 35 -94 0
46 37 32 42 31 35 -91 0
46 37 32 42 31 35 -92 0
46 37 32 31 43 35 -93 0
46 37 32 31 43 35 -94 0
46 37 32 31 43 35 -91 0
46 37 32 31 43 35 -92 0
46 37 42 31 43 35 -93 0
46 37 42 31 43 35 -94 0
46 37 42 31 43 35 -91 0
46 37 42 31 43 35 -92 0
46 8 39 13 42 11 -62 0
46 8 39 13 42 11 -63 0
46 8 39 13 42 11 -61 0
46 8 39 13 42 11 -64 0
46 8 39 13 42 43 -62 0
46 8 39 13 42 43 -63 0
46 8 39 13 42 43 -61 0
46 8 39 13 42 43 -64 0
46 8 39 13 11 14 -62 0
46 8 39 13 11 14 -63 0
46 8 39 13 11 14 -61 0
46 8 39 13 11 14 -64 0
46 8 39 13 43 14 -62 0
46 8 39 13 43 14 -63 0
46 8 39 13 43 14 -61 0
46 8 39 13 43 14 -64 0
46 8 39 42 11 43 -62 0
46 8 39 42 11 43 -63 0
46 8 39 42 11 43 -61 0
46 8 39 42 11 43 -64 0
46 8 39 42 43 14 -62 0
46 8 39 42 43 14 -63 0
46 8 39 42 43 14 -61 0
46 8 39 42 43 14 -64 0
46 8 13 42 11 14 -62 0
46 8 13 42 11 14 -63 0
46 8 13 42 11 14 -61 0
46 8 13 42 11 14 -64 0
46 8 13 11 43 14 -62 0
46 8 13 11 43 14 -63 0
46 8 13 11 43 14 -61 0
46 8 13 11 43 14 -64 0
46 8 42 11 43 14 -62 0
46 8 42 11 43 14 -63 0
46 8 42 11 43 14 -61 0
46 8 42 11 43 14 -64 0
46 1 39 2 42 5 -45 0
46 1 39 2 42 5 -41 0
46 1 39 2 42 5 -44 0
46 1 39 2 42 5 -40 0
46 1 39 2 42 43 -45 0
46 1 39 2 42 43 -41 0
46 1 39 2 42 43 -44 0
46 1 39 2 42 43 -40 0
46 1 39 2 5 6 -45 0
46 1 39 2 5 6 -41 0
46 1 39 2 5 6 -44 0
46 1 39 2 5 6 -40 0
46 1 39 2 43 6 -45 0
46 1 39 2 43 6 -41 0
46 1 39 2 43 6 -44 0
46 1 39 2 43 6 -40 0
46 1 39 42 5 43 -45 0
46 1 39 42 5 43 -41 0
46 1 39 42 5 43 -44 0
46 1 39 42 5 43 -40 0
46 1 39 42 43 6 -45 0
46 1 39 42 43 6 -41 0
46 1 39 42 43 6 -44 0
46 1 39 42 43 6 -40 0
46 1 2 42 5 6 -45 0
46 1 2 42 5 6 -41 0
46 1 2 42 5 6 -44 0
46 1 2 42 5 6 -40 0
46 1 2 5 43 6 -45 0
46 1 2 5 43 6 -41 0
46 1 2 5 43 6 -44 0
46 1 2 5 43 6 -40 0
46 1 42 5 43 6 -45 0
46 1 42 5 43 6 -41 0
46 1 42 5 43 6 -44 0
46 1 42 5 43 6 -40 0
46 17 39 21 42 19 -78 0
46 17 39 21 42 19 -75 0
46 17 39 21 42 19 -76 0
46 17 39 21 42 19 -77 0
46 17 39 21 42 43 -78 0
46 17 39 21 42 43 -75 0
46 17 39 21 42 43 -76 0
46 17 39 21 42 43 -77 0
46 17 39 21 19 22 -78 0
46 17 39 21 19 22 -75 0
46 17 39 21 19 22 -76 0
46 17 39 21 19 22 -77 0
46 17 39 21 43 22 -78 0
46 17 39 21 43 22 -75 0
46 17 39 21 43 22 -76 0
46 17 39 21 43 22 -77 0
46 17 39 42 19 43 -78 0
46 17 39 42 19 43 -75 0
46 17 39 42 19 43 -76 0
46 17 39 42 19 43 -77 0
46 17 39 42 43 22 -78 0
46 17 39 42 43 22 -75 0
46 17 39 42 43 22 -76 0
46 17 39 42 43 22 -77 0
46 17 21 42 19 22 -78 0
46 17 21 42 19 22 -75 0
46 17 21 42 19 22 -76 0
46 17 21 42 19 22 -77 0
46 17 21 19 43 22 -78 0
46 17 21 19 43 22 -75 0
46 17 21 19 43 22 -76 0
46 17 21 19 43 22 -77 0
46 17 42 19 43 22 -78 0
46 17 42 19 43 22 -75 0
46 17 42 19 43 22 -76 0
46 17 42 19 43 22 -77 0
46 39 25 42 30 43 -85 0
46 39 25 42 30 43 -88 0
46 39 25 42 30 43 -86 0
46 39 25 42 30 43 -87 0
46 39 25 42 43 26 -85 0
46 39 25 42 43 26 -88 0
46 39 25 42 43 26 -86 0
46 39 25 42 43 26 -87 0
46 39 32 42 31 43 -93 0
46 39 32 42 31 43 -94 0
46 39 32 42 31 43 -91 0
46 39 32 42 31 43 -92 0
46 39 32 42 43 35 -93 0
46 39 32 42 43 35 -94 0
46 39 32 42 43 35 -91 0
46 39 32 42 43 35 -92 0
46 39 13 42 11 43 -62 0
46 39 13 42 11 43 -63 0
46 39 13 42 11 43 -61 0
46 39 13 42 11 43 -64 0
46 39 13 42 43 14 -62 0
46 39 13 42 43 14 -63 0
46 39 13 42 43 14 -61 0
46 39 13 42 43 14 -64 0
46 39 2 42 5 43 -45 0
46 39 2 42 5 43 -41 0
46 39 2 42 5 43 -44 0
46 39 2 42 5 43 -40 0
46 39 2 42 43 6 -45 0
46 39 2 42 43 6 -41 0
46 39 2 42 43 6 -44 0
46 39 2 42 43 6 -40 0
46 39 21 42 19 43 -78 0
46 39 21 42 19 43 -75 0
46 39 21 42 19 43 -76 0
46 39 21 42 19 43 -77 0
46 39 21 42 43 22 -78 0
46 39 21 42 43 22 -75 0
46 39 21 42 43 22 -76 0
46 39 21 42 43 22 -77 0
46 39 42 30 43 26 -85 0
46 39 42 30 43 26 -88 0
46 39 42 30 43 26 -86 0
46 39 42 30 43 26 -87 0
46 39 42 31 43 35 -93 0
46 39 42 31 43 35 -94 0
46 39 42 31 43 35 -91 0
46 39 42 31 43 35 -92 0
46 39 42 11 43 14 -62 0
46 39 42 11 43 14 -63 0
46 39 42 11 43 14 -61 0
46 39 42 11 43 14 -64 0
46 39 42 5 43 6 -45 0
46 39 42 5 43 6 -41 0
46 39 42 5 43 6 -44 0
46 39 42 5 43 6 -40 0
46 39 42 19 43 22 -78 0
46 39 42 19 43 22 -75 0
46 39 42 19 43 22 -76 0
46 39 42 19 43 22 -77 0
29 37 25 32 30 31 -81 0
29 37 25 32 30 31 -83 0
29 37 25 32 30 31 -82 0
29 37 25 32 30 31 -84 0
29 37 25 32 30 26 -81 0
29 37 25 32 30 26 -83 0
29 37 25 32 30 26 -82 0
29 37 25 32 30 26 -84 0
29 37 25 32 31 35 -81 0
29 37 25 32 31 35 -83 0
29 37 25 32 31 35 -82 0
29 37 25 32 31 35 -84 0
29 37 25 32 26 35 -81 0
29 37 25 32 26 35 -83 0
29 37 25 32 26 35 -82 0
29 37 25 32 26 35 -84 0
29 37 25 30 31 26 -81 0
29 37 25 30 31 26 -83 0
29 37 25 30 31 26 -82 0
29 37 25 30 31 26 -84 0
29 37 25 30 26 35 -81 0
29 37 25 30 26 35 -83 0
29 37 25 30 26 35 -82 0
29 37 25 30 26 35 -84 0
29 37 32 30 31 35 -81 0
29 37 32 30 31 35 -83 0
29 37 32 30 31 35 -82 0
29 37 32 30 31 35 -84 0
29 37 32 31 26 35 -81 0
29 37 32 31 26 35 -83 0
29 37 32 31 26 35 -82 0
29 37 32 31 26 35 -84 0
29 37 30 31 26 35 -81 0
29 37 30 31 26 35 -83 0
29 37 30 31 26 35 -82 0
29 37 30 31 26 35 -84 0
29 8 25 13 30 11 -54 0
29 8 25 13 30 11 -53 0
29 8 25 13 30 11 -56 0
29 8 25 13 30 11 -55 0
29 8 25 13 30 26 -54 0
29 8 25 13 30 26 -53 0
29 8 25 13 30 26 -56 0
29 8 25 13 30 26 -55 0
29 8 25 13 11 14 -54 0
29 8 25 13 11 14 -53 0
29 8 25 13 11 14 -56 0
29 8 25 13 11 14 -55 0
29 8 25 13 26 14 -54 0
29 8 25 13 26 14 -53 0
29 8 25 13 26 14 -56 0
29 8 25 13 26 14 -55 0
29 8 25 30 11 26 -54 0
29 8 25 30 11 26 -53 0
29 8 25 30 11 26 -56 0
29 8 25 30 11 26 -55 0
29 8 25 30 26 14 -54 0
29 8 25 30 26 14 -53 0
29 8 25 30 26 14 -56 0
29 8 25 30 26 14 -55 0
29 8 13 30 11 14 -54 0
29 8 13 30 11 14 -53 0
29 8 13 30 11 14 -56 0
29 8 13 30 11 14 -55 0
29 8 13 11 26 14 -54 0
29 8 13 11 26 14 -53 0
29 8 13 11 26 14 -56 0
29 8 13 11 26 14 -55 0
29 8 30 11 26 14 -54 0
29 8 30 11 26 14 -53 0
29 8 30 11 26 14 -56 0
29 8 30 11 26 14 -55 0
29 1 25 2 30 5 -24 0
29 1 25 2 30 5 -27 0
29 1 25 2 30 5 -23 0
29 1 25 2 30 5 -28 0
29 1 25 2 30 26 -24 0
29 1 25 2 30 26 -27 0
29 1 25 2 30 26 -23 0
29 1 25 2 30 26 -28 0
29 1 25 2 5 6 -24 0
29 1 25 2 5 6 -27 0
29 1 25 2 5 6 -23 0
29 1 25 2 5 6 -28 0
29 1 25 2 26 6 -24 0
29 1 25 2 26 6 -27 0
29 1 25 2 26 6 -23 0
29 1 25 2 26 6 -28 0
29 1 25 30 5 26 -24 0
29 1 25 30 5 26 -27 0
29 1 25 30 5 26 -23 0
29 1 25 30 5 26 -28 0
29 1 25 30 26 6 -24 0
29 1 25 30 26 6 -27 0
29 1 25 30 26 6 -23 0
29 1 25 30 26 6 -28 0
29 1 2 30 5 6 -24 0
29 1 2 30 5 6 -27 0
29 1 2 30 5 6 -23 0
29 1 2 30 5 6 -28 0
29 1 2 5 26 6 -24 0
29 1 2 5 26 6 -27 0
29 1 2 5 26 6 -23 0
29 1 2 5 26 6 -28 0
29 1 30 5 26 6 -24 0
29 1 30 5 26 6 -27 0
29 1 30 5 26 6 -23 0
29 1 30 5 26 6 -28 0
29 17 25 21 30 19 -70 0
29 17 25 21 30 19 -67 0
29 17 25 21 30 19 -69 0
29 17 25 21 30 19 -68 0
29 17 25 21 30 26 -70 0
29 17 25 21 30 26 -67 0
29 17 25 21 30 26 -69 0
29 17 25 21 30 26 -68 0
29 17 25 21 19 22 -70 0
29 17 25 21 19 22 -67 0
29 17 25 21 19 22 -69 0
29 17 25 21 19 22 -68 0
29 17 25 21 26 22 -70 0
29 17 25 21 26 22 -67 0
29 17 25 21 26 22 -69 0
29 17 25 21 26 22 -68 0
29 17 25 30 19 26 -70 0
29 17 25 30 19 26 -67 0
29 17 25 30 19 26 -69 0
29 17 25 30 19 26 -68 0
29 17 25 30 26 22 -70 0
29 17 25 30 26 22 -67 0
29 17 25 30 26 22 -69 0
29 17 25 30 26 22 -68 0
29 17 21 30 19 22 -70 0
29 17 21 30 19 22 -67 0
29 17 21 30 19 22 -69 0
29 17 21 30 19 22 -68 0
29 17 21 19 26 22 -70 0
29 17 21 19 26 22 -67 0
29 17 21 19 26 22 -69 0
29 17 21 19 26 22 -68 0
29 17 30 19 26 22 -70 0
29 17 30 19 26 22 -67 0
29 17 30 19 26 22 -69 0
29 17 30 19 26 22 -68 0
29 39 25 42 30 26 -85 0
29 39 25 42 30 26 -88 0
29 39 25 42 30 26 -86 0
29 39 25 42 30 26 -87 0
29 39 25 30 43 26 -85 0
29 39 25 30 43 26 -88 0
29 39 25 30 43 26 -86 0
29 39 25 30 43 26 -87 0
29 25 32 30 31 26 -81 0
29 25 32 30 31 26 -83 0
29 25 32 30 31 26 -82 0
29 25 32 30 31 26 -84 0
29 25 32 30 26 35 -81 0
29 25 32 30 26 35 -83 0
29 25 32 30 26 35 -82 0
29 25 32 30 26 35 -84 0
29 25 13 30 11 26 -54 0
29 25 13 30 11 26 -53 0
29 25 13 30 11 26 -56 0
29 25 13 30 11 26 -55 0
29 25 13 30 26 14 -54 0
29 25 13 30 26 14 -53 0
29 25 13 30 26 14 -56 0
29 25 13 30 26 14 -55 0
29 25 2 30 5 26 -24 0
29 25 2 30 5 26 -27 0
29 25 2 30 5 26 -23 0
29 25 2 30 5 26 -28 0
29 25 2 30 26 6 -24 0
29 25 2 30 26 6 -27 0
29 25 2 30 26 6 -23 0
29 25 2 30 26 6 -28 0
29 25 21 30 19 26 -70 0
29 25 21 30 19 26 -67 0
29 25 21 30 19 26 -69 0
29 25 21 30 19 26 -68 0
29 25 21 30 26 22 -70 0
29 25 21 30 26 22 -67 0
29 25 21 30 26 22 -69 0
29 25 21 30 26 22 -68 0
29 25 42 30 43 26 -85 0
29 25 42 30 43 26 -88 0
29 25 42 30 43 26 -86 0
29 25 42 30 43 26 -87 0
29 25 30 31 26 35 -81 0
29 25 30 31 26 35 -83 0
29 25 30 31 26 35 -82 0
29 25 30 31 26 35 -84 0
29 25 30 11 26 14 -54 0
29 25 30 11 26 14 -53 0
29 25 30 11 26 14 -56 0
29 25 30 11 26 14 -55 0
29 25 30 5 26 6 -24 0
29 25 30 5 26 6 -27 0
29 25 30 5 26 6 -23 0
29 25 30 5 26 6 -28 0
29 25 30 19 26 22 -70 0
29 25 30 19 26 22 -67 0
29 25 30 19 26 22 -69 0
29 25 30 19 26 22 -68 0
37 8 32 13 31 11 -58 0
37 8 32 13 31 11 -60 0
37 8 32 13 31 11 -59 0
37 8 32 13 31 11 -57 0
37 8 32 13 31 35 -58 0
37 8 32 13 31 35 -60 0
37 8 32 13 31 35 -59 0
37 8 32 13 31 35 -57 0
37 8 32 13 11 14 -58 0
37 8 32 13 11 14 -60 0
37 8 32 13 11 14 -59 0
37 8 32 13 11 14 -57 0
37 8 32 13 35 14 -58 0
37 8 32 13 35 14 -60 0
37 8 32 13 35 14 -59 0
37 8 32 13 35 14 -57 0
37 8 32 31 11 35 -58 0
37 8 32 31 11 35 -60 0
37 8 32 31 11 35 -59 0
37 8 32 31 11 35 -57 0
37 8 32 31 35 14 -58 0
37 8 32 31 35 14 -60 0
37 8 32 31 35 14 -59 0
37 8 32 31 35 14 -57 0
37 8 13 31 11 14 -58 0
37 8 13 31 11 14 -60 0
37 8 13 31 11 14 -59 0
37 8 13 31 11 14 -57 0
37 8 13 11 35 14 -58 0
37 8 13 11 35 14 -60 0
37 8 13 11 35 14 -59 0
37 8 13 11 35 14 -57 0
37 8 31 11 35 14 -58 0
37 8 31 11 35 14 -60 0
37 8 31 11 35 14 -59 0
37 8 31 11 35 14 -57 0
37 1 32 2 31 5 -36 0
37 1 32 2 31 5 -34 0
37 1 32 2 31 5 -33 0
37 1 32 2 31 5 -38 0
37 1 32 2 31 35 -36 0
37 1 32 2 31 35 -34 0
37 1 32 2 31 35 -33 0
37 1 32 2 31 35 -38 0
37 1 32 2 5 6 -36 0
37 1 32 2 5 6 -34 0
37 1 32 2 5 6 -33 0
37 1 32 2 5 6 -38 0
37 1 32 2 35 6 -36 0
37 1 32 2 35 6 -34 0
37 1 32 2 35 6 -33 0
37 1 32 2 35 6 -38 0
37 1 32 31 5 35 -36 0
37 1 32 31 5 35 -34 0
37 1 32 31 5 35 -33 0
37 1 32 31 5 35 -38 0
37 1 32 31 35 6 -36 0
37 1 32 31 35 6 -34 0
37 1 32 31 35 6 -33 0
37 1 32 31 35 6 -38 0
37 1 2 31 5 6 -36 0
37 1 2 31 5 6 -34 0
37 1 2 31 5 6 -33 0
37 1 2 31 5 6 -38 0
37 1 2 5 35 6 -36 0
37 1 2 5 35 6 -34 0
37 1 2 5 35 6 -33 0
37 1 2 5 35 6 -38 0
37 1 31 5 35 6 -36 0
37 1 31 5 35 6 -34 0
37 1 31 5 35 6 -33 0
37 1 31 5 35 6 -38 0
37 17 32 21 31 19 -72 0
37 17 32 21 31 19 -71 0
37 17 32 21 31 19 -73 0
37 17 32 21 31 19 -74 0
37 17 32 21 31 35 -72 0
37 17 32 21 31 35 -71 0
37 17 32 21 31 35 -73 0
37 17 32 21 31 35 -74 0
37 17 32 21 19 22 -72 0
37 17 32 21 19 22 -71 0
37 17 32 21 19 22 -73 0
37 17 32 21 19 22 -74 0
37 17 32 21 35 22 -72 0
37 17 32 21 35 22 -71 0
37 17 32 21 35 22 -73 0
37 17 32 21 35 22 -74 0
37 17 32 31 19 35 -72 0
37 17 32 31 19 35 -71 0
37 17 32 31 19 35 -73 0
37 17 32 31 19 35 -74 0
37 17 32 31 35 22 -72 0
37 17 32 31 35 22 -71 0
37 17 32 31 35 22 -73 0
37 17 32 31 35 22 -74 0
37 17 21 31 19 22 -72 0
37 17 21 31 19 22 -71 0
37 17 21 31 19 22 -73 0
37 17 21 31 19 22 -74 0
37 17 21 19 35 22 -72 0
37 17 21 19 35 22 -71 0
37 17 21 19 35 22 -73 0
37 17 21 19 35 22 -74 0
37 17 31 19 35 22 -72 0
37 17 31 19 35 22 -71 0
37 17 31 19 35 22 -73 0
37 17 31 19 35 22 -74 0
37 39 32 42 31 35 -93 0
37 39 32 42 31 35 -94 0
37 39 32 42 31 35 -91 0
37 39 32 42 31 35 -92 0
37 39 32 31 43 35 -93 0
37 39 32 31 43 35 -94 0
37 39 32 31 43 35 -91 0
37 39 32 31 43 35 -92 0
37 25 32 30 31 35 -81 0
37 25 32 30 31 35 -83 0
37 25 32 30 31 35 -82 0
37 25 32 30 31 35 -84 0
37 25 32 31 26 35 -81 0
37 25 32 31 26 35 -83 0
37 25 32 31 26 35 -82 0
37 25 32 31 26 35 -84 0
37 32 13 31 11 35 -58 0
37 32 13 31 11 35 -60 0
37 32 13 31 11 35 -59 0
37 32 13 31 11 35 -57 0
37 32 13 31 35 14 -58 0
37 32 13 31 35 14 -60 0
37 32 13 31 35 14 -59 0
37 32 13 31 35 14 -57 0
37 32 2 31 5 35 -36 0
37 32 2 31 5 35 -34 0
37 32 2 31 5 35 -33 0
37 32 2 31 5 35 -38 0
37 32 2 31 35 6 -36 0
37 32 2 31 35 6 -34 0
37 32 2 31 35 6 -33 0
37 32 2 31 35 6 -38 0
37 32 21 31 19 35 -72 0
37 32 21 31 19 35 -71 0
37 32 21 31 19 35 -73 0
37 32 21 31 19 35 -74 0
37 32 21 31 35 22 -72 0
37 32 21 31 35 22 -71 0
37 32 21 31 35 22 -73 0
37 32 21 31 35 22 -74 0
37 32 42 31 43 35 -93 0
37 32 42 31 43 35 -94 0
37 32 42 31 43 35 -91 0
37 32 42 31 43 35 -92 0
37 32 30 31 26 35 -81 0
37 32 30 31 26 35 -83 0
37 32 30 31 26 35 -82 0
37 32 30 31 26 35 -84 0
37 32 31 11 35 14 -58 0
37 32 31 11 35 14 -60 0
37 32 31 11 35 14 -59 0
37 32 31 11 35 14 -57 0
37 32 31 5 35 6 -36 0
37 32 31 5 35 6 -34 0
37 32 31 5 35 6 -33 0
37 32 31 5 35 6 -38 0
37 32 31 19 35 22 -72 0
37 32 31 19 35 22 -71 0
37 32 31 19 35 22 -73 0
37 32 31 19 35 22 -74 0
8 1 13 2 11 5 -7 0
8 1 13 2 11 5 -12 0
8 1 13 2 11 5 -9 0
8 1 13 2 11 5 -10 0
8 1 13 2 11 14 -7 0
8 1 13 2 11 14 -12 0
8 1 13 2 11 14 -9 0
8 1 13 2 11 14 -10 0
8 1 13 2 5 6 -7 0
8 1 13 2 5 6 -12 0
8 1 13 2 5 6 -9 0
8 1 13 2 5 6 -10 0
8 1 13 2 14 6 -7 0
8 1 13 2 14 6 -12 0
8 1 13 2 14 6 -9 0
8 1 13 2 14 6 -10 0
8 1 13 11 5 14 -7 0
8 1 13 11 5 14 -12 0
8 1 13 11 5 14 -9 0
8 1 13 11 5 14 -10 0
8 1 13 11 14 6 -7 0
8 1 13 11 14 6 -12 0
8 1 13 11 14 6 -9 0
8 1 13 11 14 6 -10 0
8 1 2 11 5 6 -7 0
8 1 2 11 5 6 -12 0
8 1 2 11 5 6 -9 0
8 1 2 11 5 6 -10 0
8 1 2 5 14 6 -7 0
8 1 2 5 14 6 -12 0
8 1 2 5 14 6 -9 0
8 1 2 5 14 6 -10 0
8 1 11 5 14 6 -7 0
8 1 11 5 14 6 -12 0
8 1 11 5 14 6 -9 0
8 1 11 5 14 6 -10 0
8 17 13 21 11 19 -49 0
8 17 13 21 11 19 -52 0
8 17 13 21 11 19 -50 0
8 17 13 21 11 19 -51 0
8 17 13 21 11 14 -49 0
8 17 13 21 11 14 -52 0
8 17 13 21 11 14 -50 0
8 17 13 21 11 14 -51 0
8 17 13 21 19 22 -49 0
8 17 13 21 19 22 -52 0
8 17 13 21 19 22 -50 0
8 17 13 21 19 22 -51 0
8 17 13 21 14 22 -49 0
8 17 13 21 14 22 -52 0
8 17 13 21 14 22 -50 0
8 17 13 21 14 22 -51 0
8 17 13 11 19 14 -49 0
8 17 13 11 19 14 -52 0
8 17 13 11 19 14 -50 0
8 17 13 11 19 14 -51 0
8 17 13 11 14 22 -49 0
8 17 13 11 14 22 -52 0
8 17 13 11 14 22 -50 0
8 17 13 11 14 22 -51 0
8 17 21 11 19 22 -49 0
8 17 21 11 19 22 -52 0
8 17 21 11 19 22 -50 0
8 17 21 11 19 22 -51 0
8 17 21 19 14 22 -49 0
8 17 21 19 14 22 -52 0
8 17 21 19 14 22 -50 0
8 17 21 19 14 22 -51 0
8 17 11 19 14 22 -49 0
8 17 11 19 14 22 -52 0
8 17 11 19 14 22 -50 0
8 17 11 19 14 22 -51 0
8 39 13 42 11 14 -62 0
8 39 13 42 11 14 -63 0
8 39 13 42 11 14 -61 0
8 39 13 42 11 14 -64 0
8 39 13 11 43 14 -62 0
8 39 13 11 43 14 -63 0
8 39 13 11 43 14 -61 0
8 39 13 11 43 14 -64 0
8 25 13 30 11 14 -54 0
8 25 13 30 11 14 -53 0
8 25 13 30 11 14 -56 0
8 25 13 30 11 14 -55 0
8 25 13 11 26 14 -54 0
8 25 13 11 26 14 -53 0
8 25 13 11 26 14 -56 0
8 25 13 11 26 14 -55 0
8 32 13 31 11 14 -58 0
8 32 13 31 11 14 -60 0
8 32 13 31 11 14 -59 0
8 32 13 31 11 14 -57 0
8 32 13 11 35 14 -58 0
8 32 13 11 35 14 -60 0
8 32 13 11 35 14 -59 0
8 32 13 11 35 14 -57 0
8 13 2 11 5 14 -7 0
8 13 2 11 5 14 -12 0
8 13 2 11 5 14 -9 0
8 13 2 11 5 14 -10 0
8 13 2 11 14 6 -7 0
8 13 2 11 14 6 -12 0
8 13 2 11 14 6 -9 0
8 13 2 11 14 6 -10 0
8 13 21 11 19 14 -49 0
8 13 21 11 19 14 -52 0
8 13 21 11 19 14 -50 0
8 13 21 11 19 14 -51 0
8 13 21 11 14 22 -49 0
8 13 21 11 14 22 -52 0
8 13 21 11 14 22 -50 0
8 13 21 11 14 22 -51 0
8 13 42 11 43 14 -62 0
8 13 42 11 43 14 -63 0
8 13 42 11 43 14 -61 0
8 13 42 11 43 14 -64 0
8 13 30 11 26 14 -54 0
8 13 30 11 26 14 -53 0
8 13 30 11 26 14 -56 0
8 13 30 11 26 14 -55 0
8 13 31 11 35 14 -58 0
8 13 31 11 35 14 -60 0
8 13 31 11 35 14 -59 0
8 13 31 11 35 14 -57 0
8 13 11 5 14 6 -7 0
8 13 11 5 14 6 -12 0
8 13 11 5 14 6 -9 0
8 13 11 5 14 6 -10 0
8 13 11 19 14 22 -49 0
8 13 11 19 14 22 -52 0
8 13 11 19 14 22 -50 0
8 13 11 19 14 22 -51 0
1 17 2 21 5 19 -20 0
1 17 2 21 5 19 -18 0
1 17 2 21 5 19 -15 0
1 17 2 21 5 19 -16 0
1 17 2 21 5 6 -20 0
1 17 2 21 5 6 -18 0
1 17 2 21 5 6 -15 0
1 17 2 21 5 6 -16 0
1 17 2 21 19 22 -20 0
1 17 2 21 19 22 -18 0
1 17 2 21 19 22 -15 0
1 17 2 21 19 22 -16 0
1 17 2 21 6 22 -20 0
1 17 2 21 6 22 -18 0
1 17 2 21 6 22 -15 0
1 17 2 21 6 22 -16 0
1 17 2 5 19 6 -20 0
1 17 2 5 19 6 -18 0
1 17 2 5 19 6 -15 0
1 17 2 5 19 6 -16 0
1 17 2 5 6 22 -20 0
1 17 2 5 6 22 -18 0
1 17 2 5 6 22 -15 0
1 17 2 5 6 22 -16 0
1 17 21 5 19 22 -20 0
1 17 21 5 19 22 -18 0
1 17 21 5 19 22 -15 0
1 17 21 5 19 22 -16 0
1 17 21 19 6 22 -20 0
1 17 21 19 6 22 -18 0
1 17 21 19 6 22 -15 0
1 17 21 19 6 22 -16 0
1 17 5 19 6 22 -20 0
1 17 5 19 6 22 -18 0
1 17 5 19 6 22 -15 0
1 17 5 19 6 22 -16 0
1 39 2 42 5 6 -45 0
1 39 2 42 5 6 -41 0
1 39 2 42 5 6 -44 0
1 39 2 42 5 6 -40 0
1 39 2 5 43 6 -45 0
1 39 2 5 43 6 -41 0
1 39 2 5 43 6 -44 0
1 39 2 5 43 6 -40 0
1 25 2 30 5 6 -24 0
1 25 2 30 5 6 -27 0
1 25 2 30 5 6 -23 0
1 25 2 30 5 6 -28 0
1 25 2 5 26 6 -24 0
1 25 2 5 26 6 -27 0
1 25 2 5 26 6 -23 0
1 25 2 5 26 6 -28 0
1 32 2 31 5 6 -36 0
1 32 2 31 5 6 -34 0
1 32 2 31 5 6 -33 0
1 32 2 31 5 6 -38 0
1 32 2 5 35 6 -36 0
1 32 2 5 35 6 -34 0
1 32 2 5 35 6 -33 0
1 32 2 5 35 6 -38 0
1 13 2 11 5 6 -7 0
1 13 2 11 5 6 -12 0
1 13 2 11 5 6 -9 0
1 13 2 11 5 6 -10 0
1 13 2 5 14 6 -7 0
1 13 2 5 14 6 -12 0
1 13 2 5 14 6 -9 0
1 13 2 5 14 6 -10 0
1 2 21 5 19 6 -20 0
1 2 21 5 19 6 -18 0
1 2 21 5 19 6 -15 0
1 2 21 5 19 6 -16 0
1 2 21 5 6 22 -20 0
1 2 21 5 6 22 -18 0
1 2 21 5 6 22 -15 0
1 2 21 5 6 22 -16 0
1 2 42 5 43 6 -45 0
1 2 42 5 43 6 -41 0
1 2 42 5 43 6 -44 0
1 2 42 5 43 6 -40 0
1 2 30 5 26 6 -24 0
1 2 30 5 26 6 -27 0
1 2 30 5 26 6 -23 0
1 2 30 5 26 6 -28 0
1 2 31 5 35 6 -36 0
1 2 31 5 35 6 -34 0
1 2 31 5 35 6 -33 0
1 2 31 5 35 6 -38 0
1 2 11 5 14 6 -7 0
1 2 11 5 14 6 -12 0
1 2 11 5 14 6 -9 0
1 2 11 5 14 6 -10 0
1 2 5 19 6 22 -20 0
1 2 5 19 6 22 -18 0
1 2 5 19 6 22 -15 0
1 2 5 19 6 22 -16 0
17 39 21 42 19 22 -78 0
17 39 21 42 19 22 -75 0
17 39 21 42 19 22 -76 0
17 39 21 42 19 22 -77 0
17 39 21 19 43 22 -78 0
17 39 21 19 43 22 -75 0
17 39 21 19 43 22 -76 0
17 39 21 19 43 22 -77 0
17 25 21 30 19 22 -70 0
17 25 21 30 19 22 -67 0
17 25 21 30 19 22 -69 0
17 25 21 30 19 22 -68 0
17 25 21 19 26 22 -70 0
17 25 21 19 26 22 -67 0
17 25 21 19 26 22 -69 0
17 25 21 19 26 22 -68 0
17 32 21 31 19 22 -72 0
17 32 21 31 19 22 -71 0
17 32 21 31 19 22 -73 0
17 32 21 31 19 22 -74 0
17 32 21 19 35 22 -72 0
17 32 21 19 35 22 -71 0
17 32 21 19 35 22 -73 0
17 32 21 19 35 22 -74 0
17 13 21 11 19 22 -49 0
17 13 21 11 19 22 -52 0
17 13 21 11 19 22 -50 0
17 13 21 11 19 22 -51 0
17 13 21 19 14 22 -49 0
17 13 21 19 14 22 -52 0
17 13 21 19 14 22 -50 0
17 13 21 19 14 22 -51 0
17 2 21 5 19 22 -20 0
17 2 21 5 19 22 -18 0
17 2 21 5 19 22 -15 0
17 2 21 5 19 22 -16 0
17 2 21 19 6 22 -20 0
17 2 21 19 6 22 -18 0
17 2 21 19 6 22 -15 0
17 2 21 19 6 22 -16 0
17 21 42 19 43 22 -78 0
17 21 42 19 43 22 -75 0
17 21 42 19 43 22 -76 0
17 21 42 19 43 22 -77 0
17 21 30 19 26 22 -70 0
17 21 30 19 26 22 -67 0
17 21 30 19 26 22 -69 0
17 21 30 19 26 22 -68 0
17 21 31 19 35 22 -72 0
17 21 31 19 35 22 -71 0
17 21 31 19 35 22 -73 0
17 21 31 19 35 22 -74 0
17 21 11 19 14 22 -49 0
17 21 11 19 14 22 -52 0
17 21 11 19 14 22 -50 0
17 21 11 19 14 22 -51 0
17 21 5 19 6 22 -20 0
17 21 5 19 6 22 -18 0
17 21 5 19 6 22 -15 0
17 21 5 19 6 22 -16 0
39 25 42 30 43 26 -85 0
39 25 42 30 43 26 -88 0
39 25 42 30 43 26 -86 0
39 25 42 30 43 26 -87 0
39 32 42 31 43 35 -93 0
39 32 42 31 43 35 -94 0
39 32 42 31 43 35 -91 0
39 32 42 31 43 35 -92 0
39 13 42 11 43 14 -62 0
39 13 42 11 43 14 -63 0
39 13 42 11 43 14 -61 0
39 13 42 11 43 14 -64 0
39 2 42 5 43 6 -45 0
39 2 42 5 43 6 -41 0
39 2 42 5 43 6 -44 0
39 2 42 5 43 6 -40 0
39 21 42 19 43 22 -78 0
39 21 42 19 43 22 -75 0
39 21 42 19 43 22 -76 0
39 21 42 19 43 22 -77 0
25 32 30 31 26 35 -81 0
25 32 30 31 26 35 -83 0
25 32 30 31 26 35 -82 0
25 32 30 31 26 35 -84 0
25 13 30 11 26 14 -54 0
25 13 30 11 26 14 -53 0
25 13 30 11 26 14 -56 0
25 13 30 11 26 14 -55 0
25 2 30 5 26 6 -24 0
25 2 30 5 26 6 -27 0
25 2 30 5 26 6 -23 0
25 2 30 5 26 6 -28 0
25 21 30 19 26 22 -70 0
25 21 30 19 26 22 -67 0
25 21 30 19 26 22 -69 0
25 21 30 19 26 22 -68 0
32 13 31 11 35 14 -58 0
32 13 31 11 35 14 -60 0
32 13 31 11 35 14 -59 0
32 13 31 11 35 14 -57 0
32 2 31 5 35 6 -36 0
32 2 31 5 35 6 -34 0
32 2 31 5 35 6 -33 0
32 2 31 5 35 6 -38 0
32 21 31 19 35 22 -72 0
32 21 31 19 35 22 -71 0
32 21 31 19 35 22 -73 0
32 21 31 19 35 22 -74 0
13 2 11 5 14 6 -7 0
13 2 11 5 14 6 -12 0
13 2 11 5 14 6 -9 0
13 2 11 5 14 6 -10 0
13 21 11 19 14 22 -49 0
13 21 11 19 14 22 -52 0
13 21 11 19 14 22 -50 0
13 21 11 19 14 22 -51 0
2 21 5 19 6 22 -20 0
2 21 5 19 6 22 -18 0
2 21 5 19 6 22 -15 0
2 21 5 19 6 22 -16 0
46 29 39 25 42 30 43 -85 0
46 29 39 25 42 30 43 -88 0
46 29 39 25 42 30 43 -86 0
46 29 39 25 42 30 43 -87 0
46 29 39 25 42 30 26 -85 0
46 29 39 25 42 30 26 -88 0
46 29 39 25 42 30 26 -86 0
46 29 39 25 42 30 26 -87 0
46 29 39 25 42 43 26 -85 0
46 29 39 25 42 43 26 -88 0
46 29 39 25 42 43 26 -86 0
46 29 39 25 42 43 26 -87 0
46 29 39 25 30 43 26 -85 0
46 29 39 25 30 43 26 -88 0
46 29 39 25 30 43 26 -86 0
46 29 39 25 30 43 26 -87 0
46 29 39 42 30 43 26 -85 0
46 29 39 42 30 43 26 -88 0
46 29 39 42 30 43 26 -86 0
46 29 39 42 30 43 26 -87 0
46 29 25 42 30 43 26 -85 0
46 29 25 42 30 43 26 -88 0
46 29 25 42 30 43 26 -86 0
46 29 25 42 30 43 26 -87 0
46 37 39 32 42 31 43 -93 0
46 37 39 32 42 31 43 -94 0
46 37 39 32 42 31 43 -91 0
46 37 39 32 42 31 43 -92 0
46 37 39 32 42 31 35 -93 0
46 37 39 32 42 31 35 -94 0
46 37 39 32 42 31 35 -91 0
46 37 39 32 42 31 35 -92 0
46 37 39 32 42 43 35 -93 0
46 37 39 32 42 43 35 -94 0
46 37 39 32 42 43 35 -91 0
46 37 39 32 42 43 35 -92 0
46 37 39 32 31 43 35 -93 0
46 37 39 32 31 43 35 -94 0
46 37 39 32 31 43 35 -91 0
46 37 39 32 31 43 35 -92 0
46 37 39 42 31 43 35 -93 0
46 37 39 42 31 43 35 -94 0
46 37 39 42 31 43 35 -91 0
46 37 39 42 31 43 35 -92 0
46 37 32 42 31 43 35 -93 0
46 37 32 42 31 43 35 -94 0
46 37 32 42 31 43 35 -91 0
46 37 32 42 31 43 35 -92 0
46 8 39 13 42 11 43 -62 0
46 8 39 13 42 11 43 -63 0
46 8 39 13 42 11 43 -61 0
46 8 39 13 42 11 43 -64 0
46 8 39 13 42 11 14 -62 0
46 8 39 13 42 11 14 -63 0
46 8 39 13 42 11 14 -61 0
46 8 39 13 42 11 14 -64 0
46 8 39 13 42 43 14 -62 0
46 8 39 13 42 43 14 -63 0
46 8 39 13 42 43 14 -61 0
46 8 39 13 42 43 14 -64 0
46 8 39 13 11 43 14 -62 0
46 8 39 13 11 43 14 -63 0
46 8 39 13 11 43 14 -61 0
46 8 39 13 11 43 14 -64 0
46 8 39 42 11 43 14 -62 0
46 8 39 42 11 43 14 -63 0
46 8 39 42 11 43 14 -61 0
46 8 39 42 11 43 14 -64 0
46 8 13 42 11 43 14 -62 0
46 8 13 42 11 43 14 -63 0
46 8 13 42 11 43 14 -61 0
46 8 13 42 11 43 14 -64 0
46 1 39 2 42 5 43 -45 0
46 1 39 2 42 5 43 -41 0
46 1 39 2 42 5 43 -44 0
46 1 39 2 42 5 43 -40 0
46 1 39 2 42 5 6 -45 0
46 1 39 2 42 5 6 -41 0
46 1 39 2 42 5 6 -44 0
46 1 39 2 42 5 6 -40 0
46 1 39 2 42 43 6 -45 0
46 1 39 2 42 43 6 -41 0
46 1 39 2 42 43 6 -44 0
46 1 39 2 42 43 6 -40 0
46 1 39 2 5 43 6 -45 0
46 1 39 2 5 43 6 -41 0
46 1 39 2 5 43 6 -44 0
46 1 39 2 5 43 6 -40 0
46 1 39 42 5 43 6 -45 0
46 1 39 42 5 43 6 -41 0
46 1 39 42 5 43 6 -44 0
46 1 39 42 5 43 6 -40 0
46 1 2 42 5 43 6 -45 0
46 1 2 42 5 43 6 -41 0
46 1 2 42 5 43 6 -44 0
46 1 2 42 5 43 6 -40 0
46 17 39 21 42 19 43 -78 0
46 17 39 21 42 19 43 -75 0
46 17 39 21 42 19 43 -76 0
46 17 39 21 42 19 43 -77 0
46 17 39 21 42 19 22 -78 0
46 17 39 21 42 19 22 -75 0
46 17 39 21 42 19 22 -76 0
46 17 39 21 42 19 22 -77 0
46 17 39 21 42 43 22 -78 0
46 17 39 21 42 43 22 -75 0
46 17 39 21 42 43 22 -76 0
46 17 39 21 42 43 22 -77 0
46 17 39 21 19 43 22 -78 0
46 17 39 21 19 43 22 -75 0
46 17 39 21 19 43 22 -76 0
46 17 39 21 19 43 22 -77 0
46 17 39 42 19 43 22 -78 0
46 17 39 42 19 43 22 -75 0
46 17 39 42 19 43 22 -76 0
46 17 39 42 19 43 22 -77 0
46 17 21 42 19 43 22 -78 0
46 17 21 42 19 43 22 -75 0
46 17 21 42 19 43 22 -76 0
46 17 21 42 19 43 22 -77 0
46 39 25 42 30 43 26 -85 0
46 39 25 42 30 43 26 -88 0
46 39 25 42 30 43 26 -86 0
46 39 25 42 30 43 26 -87 0
46 39 32 42 31 43 35 -93 0
46 39 32 42 31 43 35 -94 0
46 39 32 42 31 43 35 -91 0
46 39 32 42 31 43 35 -92 0
46 39 13 42 11 43 14 -62 0
46 39 13 42 11 43 14 -63 0
46 39 13 42 11 43 14 -61 0
46 39 13 42 11 43 14 -64 0
46 39 2 42 5 43 6 -45 0
46 39 2 42 5 43 6 -41 0
46 39 2 42 5 43 6 -44 0
46 39 2 42 5 43 6 -40 0
46 39 21 42 19 43 22 -78 0
46 39 21 42 19 43 22 -75 0
46 39 21 42 19 43 22 -76 0
46 39 21 42 19 43 22 -77 0
29 37 25 32 30 31 26 -81 0
29 37 25 32 30 31 26 -83 0
29 37 25 32 30 31 26 -82 0
29 37 25 32 30 31 26 -84 0
29 37 25 32 30 31 35 -81 0
29 37 25 32 30 31 35 -83 0
29 37 25 32 30 31 35 -82 0
29 37 25 32 30 31 35 -84 0
29 37 25 32 30 26 35 -81 0
29 37 25 32 30 26 35 -83 0
29 37 25 32 30 26 35 -82 0
29 37 25 32 30 26 35 -84 0
29 37 25 32 31 26 35 -81 0
29 37 25 32 31 26 35 -83 0
29 37 25 32 31 26 35 -82 0
29 37 25 32 31 26 35 -84 0
29 37 25 30 31 26 35 -81 0
29 37 25 30 31 26 35 -83 0
29 37 25 30 31 26 35 -82 0
29 37 25 30 31 26 35 -84 0
29 37 32 30 31 26 35 -81 0
29 37 32 30 31 26 35 -83 0
29 37 32 30 31 26 35 -82 0
29 37 32 30 31 26 35 -84 0
29 8 25 13 30 11 26 -54 0
29 8 25 13 30 11 26 -53 0
29 8 25 13 30 11 26 -56 0
29 8 25 13 30 11 26 -55 0
29 8 25 13 30 11 14 -54 0
29 8 25 13 30 11 14 -53 0
29 8 25 13 30 11 14 -56 0
29 8 25 13 30 11 14 -55 0
29 8 25 13 30 26 14 -54 0
29 8 25 13 30 26 14 -53 0
29 8 25 13 30 26 14 -56 0
29 8 25 13 30 26 14 -55 0
29 8 25 13 11 26 14 -54 0
29 8 25 13 11 26 14 -53 0
29 8 25 13 11 26 14 -56 0
29 8 25 13 11 26 14 -55 0
29 8 25 30 11 26 14 -54 0
29 8 25 30 11 26 14 -53 0
29 8 25 30 11 26 14 -56 0
29 8 25 30 11 26 14 -55 0
29 8 13 30 11 26 14 -54 0
29 8 13 30 11 26 14 -53 0
29 8 13 30 11 26 14 -56 0
29 8 13 30 11 26 14 -55 0
29 1 25 2 30 5 26 -24 0
29 1 25 2 30 5 26 -27 0
29 1 25 2 30 5 26 -23 0
29 1 25 2 30 5 26 -28 0
29 1 25 2 30 5 6 -24 0
29 1 25 2 30 5 6 -27 0
29 1 25 2 30 5 6 -23 0
29 1 25 2 30 5 6 -28 0
29 1 25 2 30 26 6 -24 0
29 1 25 2 30 26 6 -27 0
29 1 25 2 30 26 6 -23 0
29 1 25 2 30 26 6 -28 0
29 1 25 2 5 26 6 -24 0
29 1 25 2 5 26 6 -27 0
29 1 25 2 5 26 6 -23 0
29 1 25 2 5 26 6 -28 0
29 1 25 30 5 26 6 -24 0
29 1 25 30 5 26 6 -27 0
29 1 25 30 5 26 6 -23 0
29 1 25 30 5 26 6 -28 0
29 1 2 30 5 26 6 -24 0
29 1 2 30 5 26 6 -27 0
29 1 2 30 5 26 6 -23 0
29 1 2 30 5 26 6 -28 0
29 17 25 21 30 19 26 -70 0
29 17 25 21 30 19 26 -67 0
29 17 25 21 30 19 26 -69 0
29 17 25 21 30 19 26 -68 0
29 17 25 21 30 19 22 -70 0
29 17 25 21 30 19 22 -67 0
29 17 25 21 30 19 22 -69 0
29 17 25 21 30 19 22 -68 0
29 17 25 21 30 26 22 -70 0
29 17 25 21 30 26 22 -67 0
29 17 25 21 30 26 22 -69 0
29 17 25 21 30 26 22 -68 0
29 17 25 21 19 26 22 -70 0
29 17 25 21 19 26 22 -67 0
29 17 25 21 19 26 22 -69 0
29 17 25 21 19 26 22 -68 0
29 17 25 30 19 26 22 -70 0
29 17 25 30 19 26 22 -67 0
29 17 25 30 19 26 22 -69 0
29 17 25 30 19 26 22 -68 0
29 17 21 30 19 26 22 -70 0
29 17 21 30 19 26 22 -67 0
29 17 21 30 19 26 22 -69 0
29 17 21 30 19 26 22 -68 0
29 39 25 42 30 43 26 -85 0
29 39 25 42 30 43 26 -88 0
29 39 25 42 30 43 26 -86 0
29 39 25 42 30 43 26 -87 0
29 25 32 30 31 26 35 -81 0
29 25 32 30 31 26 35 -83 0
29 25 32 30 31 26 35 -82 0
29 25 32 30 31 26 35 -84 0
29 25 13 30 11 26 14 -54 0
29 25 13 30 11 26 14 -53 0
29 25 13 30 11 26 14 -56 0
29 25 13 30 11 26 14 -55 0
29 25 2 30 5 26 6 -24 0
29 25 2 30 5 26 6 -27 0
29 25 2 30 5 26 6 -23 0
29 25 2 30 5 26 6 -28 0
29 25 21 30 19 26 22 -70 0
29 25 21 30 19 26 22 -67 0
29 25 21 30 19 26 22 -69 0
29 25 21 30 19 26 22 -68 0
37 8 32 13 31 11 35 -58 0
37 8 32 13 31 11 35 -60 0
37 8 32 13 31 11 35 -59 0
37 8 32 13 31 11 35 -57 0
37 8 32 13 31 11 14 -58 0
37 8 32 13 31 11 14 -60 0
37 8 32 13 31 11 14 -59 0
37 8 32 13 31 11 14 -57 0
37 8 32 13 31 35 14 -58 0
37 8 32 13 31 35 14 -60 0
37 8 32 13 31 35 14 -59 0
37 8 32 13 31 35 14 -57 0
37 8 32 13 11 35 14 -58 0
37 8 32 13 11 35 14 -60 0
37 8 32 13 11 35 14 -59 0
37 8 32 13 11 35 14 -57 0
37 8 32 31 11 35 14 -58 0
37 8 32 31 11 35 14 -60 0
37 8 32 31 11 35 14 -59 0
37 8 32 31 11 35 14 -57 0
37 8 13 31 11 35 14 -58 0
37 8 13 31 11 35 14 -60 0
37 8 13 31 11 35 14 -59 0
37 8 13 31 11 35 14 -57 0
37 1 32 2 31 5 35 -36 0
37 1 32 2 31 5 35 -34 0
37 1 32 2 31 5 35 -33 0
37 1 32 2 31 5 35 -38 0
37 1 32 2 31 5 6 -36 0
37 1 32 2 31 5 6 -34 0
37 1 32 2 31 5 6 -33 0
37 1 32 2 31 5 6 -38 0
37 1 32 2 31 35 6 -36 0
37 1 32 2 31 35 6 -34 0
37 1 32 2 31 35 6 -33 0
37 1 32 2 31 35 6 -38 0
37 1 32 2 5 35 6 -36 0
37 1 32 2 5 35 6 -34 0
37 1 32 2 5 35 6 -33 0
37 1 32 2 5 35 6 -38 0
37 1 32 31 5 35 6 -36 0
37 1 32 31 5 35 6 -34 0
37 1 32 31 5 35 6 -33 0
37 1 32 31 5 35 6 -38 0
37 1 2 31 5 35 6 -36 0
37 1 2 31 5 35 6 -34 0
37 1 2 31 5 35 6 -33 0
37 1 2 31 5 35 6 -38 0
37 17 32 21 31 19 35 -72 0
37 17 32 21 31 19 35 -71 0
37 17 32 21 31 19 35 -73 0
37 17 32 21 31 19 35 -74 0
37 17 32 21 31 19 22 -72 0
37 17 32 21 31 19 22 -71 0
37 17 32 21 31 19 22 -73 0
37 17 32 21 31 19 22 -74 0
37 17 32 21 31 35 22 -72 0
37 17 32 21 31 35 22 -71 0
37 17 32 21 31 35 22 -73 0
37 17 32 21 31 35 22 -74 0
37 17 32 21 19 35 22 -72 0
37 17 32 21 19 35 22 -71 0
37 17 32 21 19 35 22 -73 0
37 17 32 21 19 35 22 -74 0
37 17 32 31 19 35 22 -72 0
37 17 32 31 19 35 22 -71 0
37 17 32 31 19 35 22 -73 0
37 17 32 31 19 35 22 -74 0
37 17 21 31 19 35 22 -72 0
37 17 21 31 19 35 22 -71 0
37 17 21 31 19 35 22 -73 0
37 17 21 31 19 35 22 -74 0
37 39 32 42 31 43 35 -93 0
37 39 32 42 31 43 35 -94 0
37 39 32 42 31 43 35 -91 0
37 39 32 42 31 43 35 -92 0
37 25 32 30 31 26 35 -81 0
37 25 32 30 31 26 35 -83 0
37 25 32 30 31 26 35 -82 0
37 25 32 30 31 26 35 -84 0
37 32 13 31 11 35 14 -58 0
37 32 13 31 11 35 14 -60 0
37 32 13 31 11 35 14 -59 0
37 32 13 31 11 35 14 -57 0
37 32 2 31 5 35 6 -36 0
37 32 2 31 5 35 6 -34 0
37 32 2 31 5 35 6 -33 0
37 32 2 31 5 35 6 -38 0
37 32 21 31 19 35 22 -72 0
37 32 21 31 19 35 22 -71 0
37 32 21 31 19 35 22 -73 0
37 32 21 31 19 35 22 -74 0
8 1 13 2 11 5 14 -7 0
8 1 13 2 11 5 14 -12 0
8 1 13 2 11 5 14 -9 0
8 1 13 2 11 5 14 -10 0
8 1 13 2 11 5 6 -7 0
8 1 13 2 11 5 6 -12 0
8 1 13 2 11 5 6 -9 0
8 1 13 2 11 5 6 -10 0
8 1 13 2 11 14 6 -7 0
8 1 13 2 11 14 6 -12 0
8 1 13 2 11 14 6 -9 0
8 1 13 2 11 14 6 -10 0
8 1 13 2 5 14 6 -7 0
8 1 13 2 5 14 6 -12 0
8 1 13 2 5 14 6 -9 0
8 1 13 2 5 14 6 -10 0
8 1 13 11 5 14 6 -7 0
8 1 13 11 5 14 6 -12 0
8 1 13 11 5 14 6 -9 0
8 1 13 11 5 14 6 -10 0
8 1 2 11 5 14 6 -7 0
8 1 2 11 5 14 6 -12 0
8 1 2 11 5 14 6 -9 0
8 1 2 11 5 14 6 -10 0
8 17 13 21 11 19 14 -49 0
8 17 13 21 11 19 14 -52 0
8 17 13 21 11 19 14 -50 0
8 17 13 21 11 19 14 -51 0
8 17 13 21 11 19 22 -49 0
8 17 13 21 11 19 22 -52 0
8 17 13 21 11 19 22 -50 0
8 17 13 21 11 19 22 -51 0
8 17 13 21 11 14 22 -49 0
8 17 13 21 11 14 22 -52 0
8 17 13 21 11 14 22 -50 0
8 17 13 21 11 14 22 -51 0
8 17 13 21 19 14 22 -49 0
8 17 13 21 19 14 22 -52 0
8 17 13 21 19 14 22 -50 0
8 17 13 21 19 14 22 -51 0
8 17 13 11 19 14 22 -49 0
8 17 13 11 19 14 22 -52 0
8 17 13 11 19 14 22 -50 0
8 17 13 11 19 14 22 -51 0
8 17 21 11 19 14 22 -49 0
8 17 21 11 19 14 22 -52 0
8 17 21 11 19 14 22 -50 0
8 17 21 11 19 14 22 -51 0
8 39 13 42 11 43 14 -62 0
8 39 13 42 11 43 14 -63 0
8 39 13 42 11 43 14 -61 0
8 39 13 42 11 43 14 -64 0
8 25 13 30 11 26 14 -54 0
8 25 13 30 11 26 14 -53 0
8 25 13 30 11 26 14 -56 0
8 25 13 30 11 26 14 -55 0
8 32 13 31 11 35 14 -58 0
8 32 13 31 11 35 14 -60 0
8 32 13 31 11 35 14 -59 0
8 32 13 31 11 35 14 -57 0
8 13 2 11 5 14 6 -7 0
8 13 2 11 5 14 6 -12 0
8 13 2 11 5 14 6 -9 0
8 13 2 11 5 14 6 -10 0
8 13 21 11 19 14 22 -49 0
8 13 21 11 19 14 22 -52 0
8 13 21 11 19 14 22 -50 0
8 13 21 11 19 14 22 -51 0
1 17 2 21 5 19 6 -20 0
1 17 2 21 5 19 6 -18 0
1 17 2 21 5 19 6 -15 0
1 17 2 21 5 19 6 -16 0
1 17 2 21 5 19 22 -20 0
1 17 2 21 5 19 22 -18 0
1 17 2 21 5 19 22 -15 0
1 17 2 21 5 19 22 -16 0
1 17 2 21 5 6 22 -20 0
1 17 2 21 5 6 22 -18 0
1 17 2 21 5 6 22 -15 0
1 17 2 21 5 6 22 -16 0
1 17 2 21 19 6 22 -20 0
1 17 2 21 19 6 22 -18 0
1 17 2 21 19 6 22 -15 0
1 17 2 21 19 6 22 -16 0
1 17 2 5 19 6 22 -20 0
1 17 2 5 19 6 22 -18 0
1 17 2 5 19 6 22 -15 0
1 17 2 5 19 6 22 -16 0
1 17 21 5 19 6 22 -20 0
1 17 21 5 19 6 22 -18 0
1 17 21 5 19 6 22 -15 0
1 17 21 5 19 6 22 -16 0
1 39 2 42 5 43 6 -45 0
1 39 2 42 5 43 6 -41 0
1 39 2 42 5 43 6 -44 0
1 39 2 42 5 43 6 -40 0
1 25 2 30 5 26 6 -24 0
1 25 2 30 5 26 6 -27 0
1 25 2 30 5 26 6 -23 0
1 25 2 30 5 26 6 -28 0
1 32 2 31 5 35 6 -36 0
1 32 2 31 5 35 6 -34 0
1 32 2 31 5 35 6 -33 0
1 32 2 31 5 35 6 -38 0
1 13 2 11 5 14 6 -7 0
1 13 2 11 5 14 6 -12 0
1 13 2 11 5 14 6 -9 0
1 13 2 11 5 14 6 -10 0
1 2 21 5 19 6 22 -20 0
1 2 21 5 19 6 22 -18 0
1 2 21 5 19 6 22 -15 0
1 2 21 5 19 6 22 -16 0
17 39 21 42 19 43 22 -78 0
17 39 21 42 19 43 22 -75 0
17 39 21 42 19 43 22 -76 0
17 39 21 42 19 43 22 -77 0
17 25 21 30 19 26 22 -70 0
17 25 21 30 19 26 22 -67 0
17 25 21 30 19 26 22 -69 0
17 25 21 30 19 26 22 -68 0
17 32 21 31 19 35 22 -72 0
17 32 21 31 19 35 22 -71 0
17 32 21 31 19 35 22 -73 0
17 32 21 31 19 35 22 -74 0
17 13 21 11 19 14 22 -49 0
17 13 21 11 19 14 22 -52 0
17 13 21 11 19 14 22 -50 0
17 13 21 11 19 14 22 -51 0
17 2 21 5 19 6 22 -20 0
17 2 21 5 19 6 22 -18 0
17 2 21 5 19 6 22 -15 0
17 2 21 5 19 6 22 -16 0
46 29 39 25 42 30 43 26 -85 0
46 29 39 25 42 30 43 26 -88 0
46 29 39 25 42 30 43 26 -86 0
46 29 39 25 42 30 43 26 -87 0
46 37 39 32 42 31 43 35 -93 0
46 37 39 32 42 31 43 35 -94 0
46 37 39 32 42 31 43 35 -91 0
46 37 39 32 42 31 43 35 -92 0
46 8 39 13 42 11 43 14 -62 0
46 8 39 13 42 11 43 14 -63 0
46 8 39 13 42 11 43 14 -61 0
46 8 39 13 42 11 43 14 -64 0
46 1 39 2 42 5 43 6 -45 0
46 1 39 2 42 5 43 6 -41 0
46 1 39 2 42 5 43 6 -44 0
46 1 39 2 42 5 43 6 -40 0
46 17 39 21 42 19 43 22 -78 0
46 17 39 21 42 19 43 22 -75 0
46 17 39 21 42 19 43 22 -76 0
46 17 39 21 42 19 43 22 -77 0
29 37 25 32 30 31 26 35 -81 0
29 37 25 32 30 31 26 35 -83 0
29 37 25 32 30 31 26 35 -82 0
29 37 25 32 30 31 26 35 -84 0
29 8 25 13 30 11 26 14 -54 0
29 8 25 13 30 11 26 14 -53 0
29 8 25 13 30 11 26 14 -56 0
29 8 25 13 30 11 26 14 -55 0
29 1 25 2 30 5 26 6 -24 0
29 1 25 2 30 5 26 6 -27 0
29 1 25 2 30 5 26 6 -23 0
29 1 25 2 30 5 26 6 -28 0
29 17 25 21 30 19 26 22 -70 0
29 17 25 21 30 19 26 22 -67 0
29 17 25 21 30 19 26 22 -69 0
29 17 25 21 30 19 26 22 -68 0
37 8 32 13 31 11 35 14 -58 0
37 8 32 13 31 11 35 14 -60 0
37 8 32 13 31 11 35 14 -59 0
37 8 32 13 31 11 35 14 -57 0
37 1 32 2 31 5 35 6 -36 0
37 1 32 2 31 5 35 6 -34 0
37 1 32 2 31 5 35 6 -33 0
37 1 32 2 31 5 35 6 -38 0
37 17 32 21 31 19 35 22 -72 0
37 17 32 21 31 19 35 22 -71 0
37 17 32 21 31 19 35 22 -73 0
37 17 32 21 31 19 35 22 -74 0
8 1 13 2 11 5 14 6 -7 0
8 1 13 2 11 5 14 6 -12 0
8 1 13 2 11 5 14 6 -9 0
8 1 13 2 11 5 14 6 -10 0
8 17 13 21 11 19 14 22 -49 0
8 17 13 21 11 19 14 22 -52 0
8 17 13 21 11 19 14 22 -50 0
8 17 13 21 11 19 14 22 -51 0
1 17 2 21 5 19 6 22 -20 0
1 17 2 21 5 19 6 22 -18 0
1 17 2 21 5 19 6 22 -15 0
1 17 2 21 5 19 6 22 -16 0
