c E1(2,2) U4(2) U3(2) U1(2) E2(2,2) U2(2) E2(2,6) E1(2,6) E2(6,2) U4(6) U3(6) U1(6) U2(6) E1(6,2) E2(4,2) U1(4) U3(4) E2(2,4) E1(4,2) E1(2,4) U2(4) U4(4) E1(2,3) E1(3,2) U3(3) U4(3) U2(3) E2(3,2) E2(2,3) U1(3) U3(0) E1(2,0) E2(0,2) E1(0,2) U4(0) U2(0) E2(2,0) U1(0) E1(2,5) U2(5) U1(5) E2(5,2) U4(5) U3(5) E1(5,2) E2(2,5) E2(2,1) E2(1,2) U4(1) E1(2,1) U3(1) U2(1) U1(1) E1(1,2) E1(6,6) E2(6,6) E2(6,4) E2(4,6) E1(4,6) E1(6,4) E1(3,6) E2(6,3) E1(6,3) E2(3,6) E1(6,0) E2(6,0) E1(0,6) E2(0,6) E1(5,6) E2(6,5) E1(6,5) E2(5,6) E2(6,1) E1(1,6) E2(1,6) E1(6,1) E1(4,4) E2(4,4) E2(3,4) E1(3,4) E1(4,3) E2(4,3) E2(0,4) E2(4,0) E1(0,4) E1(4,0) E1(4,5) E1(5,4) E2(5,4) E2(4,5) E1(4,1) E2(1,4) E2(4,1) E1(1,4) E2(3,3) E1(3,3) E1(0,3) E2(0,3) E2(3,0) E1(3,0) E1(5,3) E2(3,5) E1(3,5) E2(5,3) E2(3,1) E1(1,3) E2(1,3) E1(3,1) E1(0,0) E2(0,0) E2(0,5) E1(0,5) E1(5,0) E2(5,0) E1(0,1) E1(1,0) E2(1,0) E2(0,1) E1(5,5) E2(5,5) E2(5,1) E1(5,1) E1(1,5) E2(1,5) E2(1,1) E1(1,1)
c 1 2 3 4 5 6 7 8 9 10 11 12 13 14 15 16 17 18 19 20 21 22 23 24 25 26 27 28 29 30 31 32 33 34 35 36 37 38 39 40 41 42 43 44 45 46 47 48 49 50 51 52 53 54 55 56 57 58 59 60 61 62 63 64 65 66 67 68 69 70 71 72 73 74 75 76 77 78 79 80 81 82 83 84 85 86 87 88 89 90 91 92 93 94 95 96 97 98 99 100 101 102 103 104 105 106 107 108 109 110 111 112 113 114 115 116 117 118 119 120 121 122 123 124 125 126
p cnf 126 3073
-38 -36 0
-38 -31 0
-38 -35 0
-53 -52 0
-53 -51 0
-53 -49 0
-4 -6 0
-4 -3 0
-4 -2 0
-30 -27 0
-30 -25 0
-30 -26 0
-16 -21 0
-16 -17 0
-16 -22 0
-41 -40 0
-41 -44 0
-41 -43 0
-12 -13 0
-12 -11 0
-12 -10 0
-36 -31 0
-36 -35 0
-52 -51 0
-52 -49 0
-6 -3 0
-6 -2 0
-27 -25 0
-27 -26 0
-21 -17 0
-21 -22 0
-40 -44 0
-40 -43 0
-13 -11 0
-13 -10 0
-31 -35 0
-51 -49 0
-3 -2 0
-25 -26 0
-17 -22 0
-44 -43 0
-11 -10 0
38 36 31 35 0
53 52 51 49 0
4 6 3 2 0
30 27 25 26 0
16 21 17 22 0
41 40 44 43 0
12 13 11 10 0
38 36 31 -109 0
38 36 31 -110 0
38 36 35 -109 0
38 36 35 -110 0
38 31 35 -109 0
38 31 35 -110 0
53 52 51 -126 0
53 52 51 -125 0
53 52 49 -126 0
53 52 49 -125 0
53 51 49 -126 0
53 51 49 -125 0
4 6 3 -1 0
4 6 3 -5 0
4 6 2 -1 0
4 6 2 -5 0
4 3 2 -1 0
4 3 2 -5 0
30 27 25 -96 0
30 27 25 -95 0
30 27 26 -96 0
30 27 26 -95 0
30 25 26 -96 0
30 25 26 -95 0
16 21 17 -77 0
16 21 17 -78 0
16 21 22 -77 0
16 21 22 -78 0
16 17 22 -77 0
16 17 22 -78 0
41 40 44 -119 0
41 40 44 -120 0
41 40 43 -119 0
41 40 43 -120 0
41 44 43 -119 0
41 44 43 -120 0
12 13 11 -55 0
12 13 11 -56 0
12 13 10 -55 0
12 13 10 -56 0
12 11 10 -55 0
12 11 10 -56 0
36 31 35 -109 0
36 31 35 -110 0
52 51 49 -126 0
52 51 49 -125 0
6 3 2 -1 0
6 3 2 -5 0
27 25 26 -96 0
27 25 26 -95 0
21 17 22 -77 0
21 17 22 -78 0
40 44 43 -119 0
40 44 43 -120 0
13 11 10 -55 0
13 11 10 -56 0
38 36 31 35 -109 0
38 36 31 35 -115 0
38 36 31 35 -34 0
38 36 31 35 -97 0
38 36 31 35 -85 0
38 36 31 35 -112 0
38 36 31 35 -67 0
38 36 31 35 -116 0
38 36 31 35 -32 0
38 36 31 35 -100 0
38 36 31 35 -86 0
38 36 31 35 -113 0
38 36 31 35 -65 0
38 36 31 35 -110 0
38 36 31 35 -118 0
38 36 31 35 -33 0
38 36 31 35 -98 0
38 36 31 35 -83 0
38 36 31 35 -111 0
38 36 31 35 -68 0
38 36 31 35 -117 0
38 36 31 35 -37 0
38 36 31 35 -99 0
38 36 31 35 -84 0
38 36 31 35 -114 0
38 36 31 35 -66 0
53 52 51 49 -115 0
53 52 51 49 -116 0
53 52 51 49 -126 0
53 52 51 49 -54 0
53 52 51 49 -106 0
53 52 51 49 -94 0
53 52 51 49 -123 0
53 52 51 49 -74 0
53 52 51 49 -50 0
53 52 51 49 -108 0
53 52 51 49 -91 0
53 52 51 49 -122 0
53 52 51 49 -76 0
53 52 51 49 -118 0
53 52 51 49 -117 0
53 52 51 49 -125 0
53 52 51 49 -48 0
53 52 51 49 -107 0
53 52 51 49 -92 0
53 52 51 49 -124 0
53 52 51 49 -75 0
53 52 51 49 -47 0
53 52 51 49 -105 0
53 52 51 49 -93 0
53 52 51 49 -121 0
53 52 51 49 -73 0
4 6 3 2 -34 0
4 6 3 2 -54 0
4 6 3 2 -32 0
4 6 3 2 -50 0
4 6 3 2 -1 0
4 6 3 2 -23 0
4 6 3 2 -20 0
4 6 3 2 -39 0
4 6 3 2 -8 0
4 6 3 2 -24 0
4 6 3 2 -19 0
4 6 3 2 -45 0
4 6 3 2 -14 0
4 6 3 2 -33 0
4 6 3 2 -48 0
4 6 3 2 -37 0
4 6 3 2 -47 0
4 6 3 2 -5 0
4 6 3 2 -29 0
4 6 3 2 -18 0
4 6 3 2 -46 0
4 6 3 2 -7 0
4 6 3 2 -28 0
4 6 3 2 -15 0
4 6 3 2 -42 0
4 6 3 2 -9 0
30 27 25 26 -97 0
30 27 25 26 -106 0
30 27 25 26 -23 0
30 27 25 26 -100 0
30 27 25 26 -108 0
30 27 25 26 -24 0
30 27 25 26 -96 0
30 27 25 26 -80 0
30 27 25 26 -103 0
30 27 25 26 -61 0
30 27 25 26 -81 0
30 27 25 26 -101 0
30 27 25 26 -63 0
30 27 25 26 -98 0
30 27 25 26 -107 0
30 27 25 26 -29 0
30 27 25 26 -99 0
30 27 25 26 -105 0
30 27 25 26 -28 0
30 27 25 26 -95 0
30 27 25 26 -79 0
30 27 25 26 -102 0
30 27 25 26 -64 0
30 27 25 26 -82 0
30 27 25 26 -104 0
30 27 25 26 -62 0
16 21 17 22 -85 0
16 21 17 22 -94 0
16 21 17 22 -20 0
16 21 17 22 -80 0
16 21 17 22 -86 0
16 21 17 22 -91 0
16 21 17 22 -19 0
16 21 17 22 -81 0
16 21 17 22 -77 0
16 21 17 22 -87 0
16 21 17 22 -59 0
16 21 17 22 -88 0
16 21 17 22 -60 0
16 21 17 22 -83 0
16 21 17 22 -92 0
16 21 17 22 -18 0
16 21 17 22 -79 0
16 21 17 22 -84 0
16 21 17 22 -93 0
16 21 17 22 -15 0
16 21 17 22 -82 0
16 21 17 22 -78 0
16 21 17 22 -90 0
16 21 17 22 -58 0
16 21 17 22 -89 0
16 21 17 22 -57 0
41 40 44 43 -112 0
41 40 44 43 -123 0
41 40 44 43 -39 0
41 40 44 43 -103 0
41 40 44 43 -87 0
41 40 44 43 -113 0
41 40 44 43 -122 0
41 40 44 43 -45 0
41 40 44 43 -101 0
41 40 44 43 -88 0
41 40 44 43 -119 0
41 40 44 43 -69 0
41 40 44 43 -71 0
41 40 44 43 -111 0
41 40 44 43 -124 0
41 40 44 43 -46 0
41 40 44 43 -102 0
41 40 44 43 -90 0
41 40 44 43 -114 0
41 40 44 43 -121 0
41 40 44 43 -42 0
41 40 44 43 -104 0
41 40 44 43 -89 0
41 40 44 43 -120 0
41 40 44 43 -72 0
41 40 44 43 -70 0
12 13 11 10 -67 0
12 13 11 10 -74 0
12 13 11 10 -8 0
12 13 11 10 -61 0
12 13 11 10 -59 0
12 13 11 10 -69 0
12 13 11 10 -65 0
12 13 11 10 -76 0
12 13 11 10 -14 0
12 13 11 10 -63 0
12 13 11 10 -60 0
12 13 11 10 -71 0
12 13 11 10 -55 0
12 13 11 10 -68 0
12 13 11 10 -75 0
12 13 11 10 -7 0
12 13 11 10 -64 0
12 13 11 10 -58 0
12 13 11 10 -72 0
12 13 11 10 -66 0
12 13 11 10 -73 0
12 13 11 10 -9 0
12 13 11 10 -62 0
12 13 11 10 -57 0
12 13 11 10 -70 0
12 13 11 10 -56 0
38 53 36 31 35 -115 0
38 53 36 31 35 -116 0
38 53 36 31 35 -118 0
38 53 36 31 35 -117 0
38 53 52 51 49 -115 0
38 53 52 51 49 -116 0
38 53 52 51 49 -118 0
38 53 52 51 49 -117 0
38 4 36 31 35 -34 0
38 4 36 31 35 -32 0
38 4 36 31 35 -33 0
38 4 36 31 35 -37 0
38 4 6 3 2 -34 0
38 4 6 3 2 -32 0
38 4 6 3 2 -33 0
38 4 6 3 2 -37 0
38 30 36 31 35 -97 0
38 30 36 31 35 -100 0
38 30 36 31 35 -98 0
38 30 36 31 35 -99 0
38 30 27 25 26 -97 0
38 30 27 25 26 -100 0
38 30 27 25 26 -98 0
38 30 27 25 26 -99 0
38 16 36 31 35 -85 0
38 16 36 31 35 -86 0
38 16 36 31 35 -83 0
38 16 36 31 35 -84 0
38 16 21 17 22 -85 0
38 16 21 17 22 -86 0
38 16 21 17 22 -83 0
38 16 21 17 22 -84 0
38 41 36 31 35 -112 0
38 41 36 31 35 -113 0
38 41 36 31 35 -111 0
38 41 36 31 35 -114 0
38 41 40 44 43 -112 0
38 41 40 44 43 -113 0
38 41 40 44 43 -111 0
38 41 40 44 43 -114 0
38 12 36 31 35 -67 0
38 12 36 31 35 -65 0
38 12 36 31 35 -68 0
38 12 36 31 35 -66 0
38 12 13 11 10 -67 0
38 12 13 11 10 -65 0
38 12 13 11 10 -68 0
38 12 13 11 10 -66 0
38 36 52 31 35 -115 0
38 36 52 31 35 -116 0
38 36 52 31 35 -118 0
38 36 52 31 35 -117 0
38 36 6 31 35 -34 0
38 36 6 31 35 -32 0
38 36 6 31 35 -33 0
38 36 6 31 35 -37 0
38 36 27 31 35 -97 0
38 36 27 31 35 -100 0
38 36 27 31 35 -98 0
38 36 27 31 35 -99 0
38 36 21 31 35 -85 0
38 36 21 31 35 -86 0
38 36 21 31 35 -83 0
38 36 21 31 35 -84 0
38 36 40 31 35 -112 0
38 36 40 31 35 -113 0
38 36 40 31 35 -111 0
38 36 40 31 35 -114 0
38 36 13 31 35 -67 0
38 36 13 31 35 -65 0
38 36 13 31 35 -68 0
38 36 13 31 35 -66 0
38 36 31 51 35 -115 0
38 36 31 51 35 -116 0
38 36 31 51 35 -118 0
38 36 31 51 35 -117 0
38 36 31 3 35 -34 0
38 36 31 3 35 -32 0
38 36 31 3 35 -33 0
38 36 31 3 35 -37 0
38 36 31 25 35 -97 0
38 36 31 25 35 -100 0
38 36 31 25 35 -98 0
38 36 31 25 35 -99 0
38 36 31 17 35 -85 0
38 36 31 17 35 -86 0
38 36 31 17 35 -83 0
38 36 31 17 35 -84 0
38 36 31 44 35 -112 0
38 36 31 44 35 -113 0
38 36 31 44 35 -111 0
38 36 31 44 35 -114 0
38 36 31 11 35 -67 0
38 36 31 11 35 -65 0
38 36 31 11 35 -68 0
38 36 31 11 35 -66 0
38 36 31 35 49 -115 0
38 36 31 35 49 -116 0
38 36 31 35 49 -118 0
38 36 31 35 49 -117 0
38 36 31 35 2 -34 0
38 36 31 35 2 -32 0
38 36 31 35 2 -33 0
38 36 31 35 2 -37 0
38 36 31 35 26 -97 0
38 36 31 35 26 -100 0
38 36 31 35 26 -98 0
38 36 31 35 26 -99 0
38 36 31 35 22 -85 0
38 36 31 35 22 -86 0
38 36 31 35 22 -83 0
38 36 31 35 22 -84 0
38 36 31 35 43 -112 0
38 36 31 35 43 -113 0
38 36 31 35 43 -111 0
38 36 31 35 43 -114 0
38 36 31 35 10 -67 0
38 36 31 35 10 -65 0
38 36 31 35 10 -68 0
38 36 31 35 10 -66 0
53 4 52 51 49 -54 0
53 4 52 51 49 -50 0
53 4 52 51 49 -48 0
53 4 52 51 49 -47 0
53 4 6 3 2 -54 0
53 4 6 3 2 -50 0
53 4 6 3 2 -48 0
53 4 6 3 2 -47 0
53 30 52 51 49 -106 0
53 30 52 51 49 -108 0
53 30 52 51 49 -107 0
53 30 52 51 49 -105 0
53 30 27 25 26 -106 0
53 30 27 25 26 -108 0
53 30 27 25 26 -107 0
53 30 27 25 26 -105 0
53 16 52 51 49 -94 0
53 16 52 51 49 -91 0
53 16 52 51 49 -92 0
53 16 52 51 49 -93 0
53 16 21 17 22 -94 0
53 16 21 17 22 -91 0
53 16 21 17 22 -92 0
53 16 21 17 22 -93 0
53 41 52 51 49 -123 0
53 41 52 51 49 -122 0
53 41 52 51 49 -124 0
53 41 52 51 49 -121 0
53 41 40 44 43 -123 0
53 41 40 44 43 -122 0
53 41 40 44 43 -124 0
53 41 40 44 43 -121 0
53 12 52 51 49 -74 0
53 12 52 51 49 -76 0
53 12 52 51 49 -75 0
53 12 52 51 49 -73 0
53 12 13 11 10 -74 0
53 12 13 11 10 -76 0
53 12 13 11 10 -75 0
53 12 13 11 10 -73 0
53 36 52 51 49 -115 0
53 36 52 51 49 -116 0
53 36 52 51 49 -118 0
53 36 52 51 49 -117 0
53 52 6 51 49 -54 0
53 52 6 51 49 -50 0
53 52 6 51 49 -48 0
53 52 6 51 49 -47 0
53 52 27 51 49 -106 0
53 52 27 51 49 -108 0
53 52 27 51 49 -107 0
53 52 27 51 49 -105 0
53 52 21 51 49 -94 0
53 52 21 51 49 -91 0
53 52 21 51 49 -92 0
53 52 21 51 49 -93 0
53 52 40 51 49 -123 0
53 52 40 51 49 -122 0
53 52 40 51 49 -124 0
53 52 40 51 49 -121 0
53 52 13 51 49 -74 0
53 52 13 51 49 -76 0
53 52 13 51 49 -75 0
53 52 13 51 49 -73 0
53 52 31 51 49 -115 0
53 52 31 51 49 -116 0
53 52 31 51 49 -118 0
53 52 31 51 49 -117 0
53 52 51 3 49 -54 0
53 52 51 3 49 -50 0
53 52 51 3 49 -48 0
53 52 51 3 49 -47 0
53 52 51 25 49 -106 0
53 52 51 25 49 -108 0
53 52 51 25 49 -107 0
53 52 51 25 49 -105 0
53 52 51 17 49 -94 0
53 52 51 17 49 -91 0
53 52 51 17 49 -92 0
53 52 51 17 49 -93 0
53 52 51 44 49 -123 0
53 52 51 44 49 -122 0
53 52 51 44 49 -124 0
53 52 51 44 49 -121 0
53 52 51 11 49 -74 0
53 52 51 11 49 -76 0
53 52 51 11 49 -75 0
53 52 51 11 49 -73 0
53 52 51 35 49 -115 0
53 52 51 35 49 -116 0
53 52 51 35 49 -118 0
53 52 51 35 49 -117 0
53 52 51 49 2 -54 0
53 52 51 49 2 -50 0
53 52 51 49 2 -48 0
53 52 51 49 2 -47 0
53 52 51 49 26 -106 0
53 52 51 49 26 -108 0
53 52 51 49 26 -107 0
53 52 51 49 26 -105 0
53 52 51 49 22 -94 0
53 52 51 49 22 -91 0
53 52 51 49 22 -92 0
53 52 51 49 22 -93 0
53 52 51 49 43 -123 0
53 52 51 49 43 -122 0
53 52 51 49 43 -124 0
53 52 51 49 43 -121 0
53 52 51 49 10 -74 0
53 52 51 49 10 -76 0
53 52 51 49 10 -75 0
53 52 51 49 10 -73 0
4 30 6 3 2 -23 0
4 30 6 3 2 -24 0
4 30 6 3 2 -29 0
4 30 6 3 2 -28 0
4 30 27 25 26 -23 0
4 30 27 25 26 -24 0
4 30 27 25 26 -29 0
4 30 27 25 26 -28 0
4 16 6 3 2 -20 0
4 16 6 3 2 -19 0
4 16 6 3 2 -18 0
4 16 6 3 2 -15 0
4 16 21 17 22 -20 0
4 16 21 17 22 -19 0
4 16 21 17 22 -18 0
4 16 21 17 22 -15 0
4 41 6 3 2 -39 0
4 41 6 3 2 -45 0
4 41 6 3 2 -46 0
4 41 6 3 2 -42 0
4 41 40 44 43 -39 0
4 41 40 44 43 -45 0
4 41 40 44 43 -46 0
4 41 40 44 43 -42 0
4 12 6 3 2 -8 0
4 12 6 3 2 -14 0
4 12 6 3 2 -7 0
4 12 6 3 2 -9 0
4 12 13 11 10 -8 0
4 12 13 11 10 -14 0
4 12 13 11 10 -7 0
4 12 13 11 10 -9 0
4 36 6 3 2 -34 0
4 36 6 3 2 -32 0
4 36 6 3 2 -33 0
4 36 6 3 2 -37 0
4 52 6 3 2 -54 0
4 52 6 3 2 -50 0
4 52 6 3 2 -48 0
4 52 6 3 2 -47 0
4 6 27 3 2 -23 0
4 6 27 3 2 -24 0
4 6 27 3 2 -29 0
4 6 27 3 2 -28 0
4 6 21 3 2 -20 0
4 6 21 3 2 -19 0
4 6 21 3 2 -18 0
4 6 21 3 2 -15 0
4 6 40 3 2 -39 0
4 6 40 3 2 -45 0
4 6 40 3 2 -46 0
4 6 40 3 2 -42 0
4 6 13 3 2 -8 0
4 6 13 3 2 -14 0
4 6 13 3 2 -7 0
4 6 13 3 2 -9 0
4 6 31 3 2 -34 0
4 6 31 3 2 -32 0
4 6 31 3 2 -33 0
4 6 31 3 2 -37 0
4 6 51 3 2 -54 0
4 6 51 3 2 -50 0
4 6 51 3 2 -48 0
4 6 51 3 2 -47 0
4 6 3 25 2 -23 0
4 6 3 25 2 -24 0
4 6 3 25 2 -29 0
4 6 3 25 2 -28 0
4 6 3 17 2 -20 0
4 6 3 17 2 -19 0
4 6 3 17 2 -18 0
4 6 3 17 2 -15 0
4 6 3 44 2 -39 0
4 6 3 44 2 -45 0
4 6 3 44 2 -46 0
4 6 3 44 2 -42 0
4 6 3 11 2 -8 0
4 6 3 11 2 -14 0
4 6 3 11 2 -7 0
4 6 3 11 2 -9 0
4 6 3 35 2 -34 0
4 6 3 35 2 -32 0
4 6 3 35 2 -33 0
4 6 3 35 2 -37 0
4 6 3 49 2 -54 0
4 6 3 49 2 -50 0
4 6 3 49 2 -48 0
4 6 3 49 2 -47 0
4 6 3 2 26 -23 0
4 6 3 2 26 -24 0
4 6 3 2 26 -29 0
4 6 3 2 26 -28 0
4 6 3 2 22 -20 0
4 6 3 2 22 -19 0
4 6 3 2 22 -18 0
4 6 3 2 22 -15 0
4 6 3 2 43 -39 0
4 6 3 2 43 -45 0
4 6 3 2 43 -46 0
4 6 3 2 43 -42 0
4 6 3 2 10 -8 0
4 6 3 2 10 -14 0
4 6 3 2 10 -7 0
4 6 3 2 10 -9 0
30 16 27 25 26 -80 0
30 16 27 25 26 -81 0
30 16 27 25 26 -79 0
30 16 27 25 26 -82 0
30 16 21 17 22 -80 0
30 16 21 17 22 -81 0
30 16 21 17 22 -79 0
30 16 21 17 22 -82 0
30 41 27 25 26 -103 0
30 41 27 25 26 -101 0
30 41 27 25 26 -102 0
30 41 27 25 26 -104 0
30 41 40 44 43 -103 0
30 41 40 44 43 -101 0
30 41 40 44 43 -102 0
30 41 40 44 43 -104 0
30 12 27 25 26 -61 0
30 12 27 25 26 -63 0
30 12 27 25 26 -64 0
30 12 27 25 26 -62 0
30 12 13 11 10 -61 0
30 12 13 11 10 -63 0
30 12 13 11 10 -64 0
30 12 13 11 10 -62 0
30 36 27 25 26 -97 0
30 36 27 25 26 -100 0
30 36 27 25 26 -98 0
30 36 27 25 26 -99 0
30 52 27 25 26 -106 0
30 52 27 25 26 -108 0
30 52 27 25 26 -107 0
30 52 27 25 26 -105 0
30 6 27 25 26 -23 0
30 6 27 25 26 -24 0
30 6 27 25 26 -29 0
30 6 27 25 26 -28 0
30 27 21 25 26 -80 0
30 27 21 25 26 -81 0
30 27 21 25 26 -79 0
30 27 21 25 26 -82 0
30 27 40 25 26 -103 0
30 27 40 25 26 -101 0
30 27 40 25 26 -102 0
30 27 40 25 26 -104 0
30 27 13 25 26 -61 0
30 27 13 25 26 -63 0
30 27 13 25 26 -64 0
30 27 13 25 26 -62 0
30 27 31 25 26 -97 0
30 27 31 25 26 -100 0
30 27 31 25 26 -98 0
30 27 31 25 26 -99 0
30 27 51 25 26 -106 0
30 27 51 25 26 -108 0
30 27 51 25 26 -107 0
30 27 51 25 26 -105 0
30 27 3 25 26 -23 0
30 27 3 25 26 -24 0
30 27 3 25 26 -29 0
30 27 3 25 26 -28 0
30 27 25 17 26 -80 0
30 27 25 17 26 -81 0
30 27 25 17 26 -79 0
30 27 25 17 26 -82 0
30 27 25 44 26 -103 0
30 27 25 44 26 -101 0
30 27 25 44 26 -102 0
30 27 25 44 26 -104 0
30 27 25 11 26 -61 0
30 27 25 11 26 -63 0
30 27 25 11 26 -64 0
30 27 25 11 26 -62 0
30 27 25 35 26 -97 0
30 27 25 35 26 -100 0
30 27 25 35 26 -98 0
30 27 25 35 26 -99 0
30 27 25 49 26 -106 0
30 27 25 49 26 -108 0
30 27 25 49 26 -107 0
30 27 25 49 26 -105 0
30 27 25 2 26 -23 0
30 27 25 2 26 -24 0
30 27 25 2 26 -29 0
30 27 25 2 26 -28 0
30 27 25 26 22 -80 0
30 27 25 26 22 -81 0
30 27 25 26 22 -79 0
30 27 25 26 22 -82 0
30 27 25 26 43 -103 0
30 27 25 26 43 -101 0
30 27 25 26 43 -102 0
30 27 25 26 43 -104 0
30 27 25 26 10 -61 0
30 27 25 26 10 -63 0
30 27 25 26 10 -64 0
30 27 25 26 10 -62 0
16 41 21 17 22 -87 0
16 41 21 17 22 -88 0
16 41 21 17 22 -90 0
16 41 21 17 22 -89 0
16 41 40 44 43 -87 0
16 41 40 44 43 -88 0
16 41 40 44 43 -90 0
16 41 40 44 43 -89 0
16 12 21 17 22 -59 0
16 12 21 17 22 -60 0
16 12 21 17 22 -58 0
16 12 21 17 22 -57 0
16 12 13 11 10 -59 0
16 12 13 11 10 -60 0
16 12 13 11 10 -58 0
16 12 13 11 10 -57 0
16 36 21 17 22 -85 0
16 36 21 17 22 -86 0
16 36 21 17 22 -83 0
16 36 21 17 22 -84 0
16 52 21 17 22 -94 0
16 52 21 17 22 -91 0
16 52 21 17 22 -92 0
16 52 21 17 22 -93 0
16 6 21 17 22 -20 0
16 6 21 17 22 -19 0
16 6 21 17 22 -18 0
16 6 21 17 22 -15 0
16 27 21 17 22 -80 0
16 27 21 17 22 -81 0
16 27 21 17 22 -79 0
16 27 21 17 22 -82 0
16 21 40 17 22 -87 0
16 21 40 17 22 -88 0
16 21 40 17 22 -90 0
16 21 40 17 22 -89 0
16 21 13 17 22 -59 0
16 21 13 17 22 -60 0
16 21 13 17 22 -58 0
16 21 13 17 22 -57 0
16 21 31 17 22 -85 0
16 21 31 17 22 -86 0
16 21 31 17 22 -83 0
16 21 31 17 22 -84 0
16 21 51 17 22 -94 0
16 21 51 17 22 -91 0
16 21 51 17 22 -92 0
16 21 51 17 22 -93 0
16 21 3 17 22 -20 0
16 21 3 17 22 -19 0
16 21 3 17 22 -18 0
16 21 3 17 22 -15 0
16 21 25 17 22 -80 0
16 21 25 17 22 -81 0
16 21 25 17 22 -79 0
16 21 25 17 22 -82 0
16 21 17 44 22 -87 0
16 21 17 44 22 -88 0
16 21 17 44 22 -90 0
16 21 17 44 22 -89 0
16 21 17 11 22 -59 0
16 21 17 11 22 -60 0
16 21 17 11 22 -58 0
16 21 17 11 22 -57 0
16 21 17 35 22 -85 0
16 21 17 35 22 -86 0
16 21 17 35 22 -83 0
16 21 17 35 22 -84 0
16 21 17 49 22 -94 0
16 21 17 49 22 -91 0
16 21 17 49 22 -92 0
16 21 17 49 22 -93 0
16 21 17 2 22 -20 0
16 21 17 2 22 -19 0
16 21 17 2 22 -18 0
16 21 17 2 22 -15 0
16 21 17 26 22 -80 0
16 21 17 26 22 -81 0
16 21 17 26 22 -79 0
16 21 17 26 22 -82 0
16 21 17 22 43 -87 0
16 21 17 22 43 -88 0
16 21 17 22 43 -90 0
16 21 17 22 43 -89 0
16 21 17 22 10 -59 0
16 21 17 22 10 -60 0
16 21 17 22 10 -58 0
16 21 17 22 10 -57 0
41 12 40 44 43 -69 0
41 12 40 44 43 -71 0
41 12 40 44 43 -72 0
41 12 40 44 43 -70 0
41 12 13 11 10 -69 0
41 12 13 11 10 -71 0
41 12 13 11 10 -72 0
41 12 13 11 10 -70 0
41 36 40 44 43 -112 0
41 36 40 44 43 -113 0
41 36 40 44 43 -111 0
41 36 40 44 43 -114 0
41 52 40 44 43 -123 0
41 52 40 44 43 -122 0
41 52 40 44 43 -124 0
41 52 40 44 43 -121 0
41 6 40 44 43 -39 0
41 6 40 44 43 -45 0
41 6 40 44 43 -46 0
41 6 40 44 43 -42 0
41 27 40 44 43 -103 0
41 27 40 44 43 -101 0
41 27 40 44 43 -102 0
41 27 40 44 43 -104 0
41 21 40 44 43 -87 0
41 21 40 44 43 -88 0
41 21 40 44 43 -90 0
41 21 40 44 43 -89 0
41 40 13 44 43 -69 0
41 40 13 44 43 -71 0
41 40 13 44 43 -72 0
41 40 13 44 43 -70 0
41 40 31 44 43 -112 0
41 40 31 44 43 -113 0
41 40 31 44 43 -111 0
41 40 31 44 43 -114 0
41 40 51 44 43 -123 0
41 40 51 44 43 -122 0
41 40 51 44 43 -124 0
41 40 51 44 43 -121 0
41 40 3 44 43 -39 0
41 40 3 44 43 -45 0
41 40 3 44 43 -46 0
41 40 3 44 43 -42 0
41 40 25 44 43 -103 0
41 40 25 44 43 -101 0
41 40 25 44 43 -102 0
41 40 25 44 43 -104 0
41 40 17 44 43 -87 0
41 40 17 44 43 -88 0
41 40 17 44 43 -90 0
41 40 17 44 43 -89 0
41 40 44 11 43 -69 0
41 40 44 11 43 -71 0
41 40 44 11 43 -72 0
41 40 44 11 43 -70 0
41 40 44 35 43 -112 0
41 40 44 35 43 -113 0
41 40 44 35 43 -111 0
41 40 44 35 43 -114 0
41 40 44 49 43 -123 0
41 40 44 49 43 -122 0
41 40 44 49 43 -124 0
41 40 44 49 43 -121 0
41 40 44 2 43 -39 0
41 40 44 2 43 -45 0
41 40 44 2 43 -46 0
41 40 44 2 43 -42 0
41 40 44 26 43 -103 0
41 40 44 26 43 -101 0
41 40 44 26 43 -102 0
41 40 44 26 43 -104 0
41 40 44 22 43 -87 0
41 40 44 22 43 -88 0
41 40 44 22 43 -90 0
41 40 44 22 43 -89 0
41 40 44 43 10 -69 0
41 40 44 43 10 -71 0
41 40 44 43 10 -72 0
41 40 44 43 10 -70 0
12 36 13 11 10 -67 0
12 36 13 11 10 -65 0
12 36 13 11 10 -68 0
12 36 13 11 10 -66 0
12 52 13 11 10 -74 0
12 52 13 11 10 -76 0
12 52 13 11 10 -75 0
12 52 13 11 10 -73 0
12 6 13 11 10 -8 0
12 6 13 11 10 -14 0
12 6 13 11 10 -7 0
12 6 13 11 10 -9 0
12 27 13 11 10 -61 0
12 27 13 11 10 -63 0
12 27 13 11 10 -64 0
12 27 13 11 10 -62 0
12 21 13 11 10 -59 0
12 21 13 11 10 -60 0
12 21 13 11 10 -58 0
12 21 13 11 10 -57 0
12 40 13 11 10 -69 0
12 40 13 11 10 -71 0
12 40 13 11 10 -72 0
12 40 13 11 10 -70 0
12 13 31 11 10 -67 0
12 13 31 11 10 -65 0
12 13 31 11 10 -68 0
12 13 31 11 10 -66 0
12 13 51 11 10 -74 0
12 13 51 11 10 -76 0
12 13 51 11 10 -75 0
12 13 51 11 10 -73 0
12 13 3 11 10 -8 0
12 13 3 11 10 -14 0
12 13 3 11 10 -7 0
12 13 3 11 10 -9 0
12 13 25 11 10 -61 0
12 13 25 11 10 -63 0
12 13 25 11 10 -64 0
12 13 25 11 10 -62 0
12 13 17 11 10 -59 0
12 13 17 11 10 -60 0
12 13 17 11 10 -58 0
12 13 17 11 10 -57 0
12 13 44 11 10 -69 0
12 13 44 11 10 -71 0
12 13 44 11 10 -72 0
12 13 44 11 10 -70 0
12 13 11 35 10 -67 0
12 13 11 35 10 -65 0
12 13 11 35 10 -68 0
12 13 11 35 10 -66 0
12 13 11 49 10 -74 0
12 13 11 49 10 -76 0
12 13 11 49 10 -75 0
12 13 11 49 10 -73 0
12 13 11 2 10 -8 0
12 13 11 2 10 -14 0
12 13 11 2 10 -7 0
12 13 11 2 10 -9 0
12 13 11 26 10 -61 0
12 13 11 26 10 -63 0
12 13 11 26 10 -64 0
12 13 11 26 10 -62 0
12 13 11 22 10 -59 0
12 13 11 22 10 -60 0
12 13 11 22 10 -58 0
12 13 11 22 10 -57 0
12 13 11 43 10 -69 0
12 13 11 43 10 -71 0
12 13 11 43 10 -72 0
12 13 11 43 10 -70 0
109 115 34 97 85 112 67 0
116 126 54 106 94 123 74 0
32 50 1 23 20 39 8 0
100 108 24 96 80 103 61 0
86 91 19 81 77 87 59 0
113 122 45 101 88 119 69 0
65 76 14 63 60 71 55 0
110 118 33 98 83 111 68 0
117 125 48 107 92 124 75 0
37 47 5 29 18 46 7 0
99 105 28 95 79 102 64 0
84 93 15 82 78 90 58 0
114 121 42 104 89 120 72 0
66 73 9 62 57 70 56 0
38 53 36 52 31 51 -115 0
38 53 36 52 31 51 -116 0
38 53 36 52 31 51 -118 0
38 53 36 52 31 51 -117 0
38 53 36 52 31 35 -115 0
38 53 36 52 31 35 -116 0
38 53 36 52 31 35 -118 0
38 53 36 52 31 35 -117 0
38 53 36 52 51 49 -115 0
38 53 36 52 51 49 -116 0
38 53 36 52 51 49 -118 0
38 53 36 52 51 49 -117 0
38 53 36 52 35 49 -115 0
38 53 36 52 35 49 -116 0
38 53 36 52 35 49 -118 0
38 53 36 52 35 49 -117 0
38 53 36 31 51 35 -115 0
38 53 36 31 51 35 -116 0
38 53 36 31 51 35 -118 0
38 53 36 31 51 35 -117 0
38 53 36 31 35 49 -115 0
38 53 36 31 35 49 -116 0
38 53 36 31 35 49 -118 0
38 53 36 31 35 49 -117 0
38 53 52 31 51 49 -115 0
38 53 52 31 51 49 -116 0
38 53 52 31 51 49 -118 0
38 53 52 31 51 49 -117 0
38 53 52 51 35 49 -115 0
38 53 52 51 35 49 -116 0
38 53 52 51 35 49 -118 0
38 53 52 51 35 49 -117 0
38 53 31 51 35 49 -115 0
38 53 31 51 35 49 -116 0
38 53 31 51 35 49 -118 0
38 53 31 51 35 49 -117 0
38 4 36 6 31 3 -34 0
38 4 36 6 31 3 -32 0
38 4 36 6 31 3 -33 0
38 4 36 6 31 3 -37 0
38 4 36 6 31 35 -34 0
38 4 36 6 31 35 -32 0
38 4 36 6 31 35 -33 0
38 4 36 6 31 35 -37 0
38 4 36 6 3 2 -34 0
38 4 36 6 3 2 -32 0
38 4 36 6 3 2 -33 0
38 4 36 6 3 2 -37 0
38 4 36 6 35 2 -34 0
38 4 36 6 35 2 -32 0
38 4 36 6 35 2 -33 0
38 4 36 6 35 2 -37 0
38 4 36 31 3 35 -34 0
38 4 36 31 3 35 -32 0
38 4 36 31 3 35 -33 0
38 4 36 31 3 35 -37 0
38 4 36 31 35 2 -34 0
38 4 36 31 35 2 -32 0
38 4 36 31 35 2 -33 0
38 4 36 31 35 2 -37 0
38 4 6 31 3 2 -34 0
38 4 6 31 3 2 -32 0
38 4 6 31 3 2 -33 0
38 4 6 31 3 2 -37 0
38 4 6 3 35 2 -34 0
38 4 6 3 35 2 -32 0
38 4 6 3 35 2 -33 0
38 4 6 3 35 2 -37 0
38 4 31 3 35 2 -34 0
38 4 31 3 35 2 -32 0
38 4 31 3 35 2 -33 0
38 4 31 3 35 2 -37 0
38 30 36 27 31 25 -97 0
38 30 36 27 31 25 -100 0
38 30 36 27 31 25 -98 0
38 30 36 27 31 25 -99 0
38 30 36 27 31 35 -97 0
38 30 36 27 31 35 -100 0
38 30 36 27 31 35 -98 0
38 30 36 27 31 35 -99 0
38 30 36 27 25 26 -97 0
38 30 36 27 25 26 -100 0
38 30 36 27 25 26 -98 0
38 30 36 27 25 26 -99 0
38 30 36 27 35 26 -97 0
38 30 36 27 35 26 -100 0
38 30 36 27 35 26 -98 0
38 30 36 27 35 26 -99 0
38 30 36 31 25 35 -97 0
38 30 36 31 25 35 -100 0
38 30 36 31 25 35 -98 0
38 30 36 31 25 35 -99 0
38 30 36 31 35 26 -97 0
38 30 36 31 35 26 -100 0
38 30 36 31 35 26 -98 0
38 30 36 31 35 26 -99 0
38 30 27 31 25 26 -97 0
38 30 27 31 25 26 -100 0
38 30 27 31 25 26 -98 0
38 30 27 31 25 26 -99 0
38 30 27 25 35 26 -97 0
38 30 27 25 35 26 -100 0
38 30 27 25 35 26 -98 0
38 30 27 25 35 26 -99 0
38 30 31 25 35 26 -97 0
38 30 31 25 35 26 -100 0
38 30 31 25 35 26 -98 0
38 30 31 25 35 26 -99 0
38 16 36 21 31 17 -85 0
38 16 36 21 31 17 -86 0
38 16 36 21 31 17 -83 0
38 16 36 21 31 17 -84 0
38 16 36 21 31 35 -85 0
38 16 36 21 31 35 -86 0
38 16 36 21 31 35 -83 0
38 16 36 21 31 35 -84 0
38 16 36 21 17 22 -85 0
38 16 36 21 17 22 -86 0
38 16 36 21 17 22 -83 0
38 16 36 21 17 22 -84 0
38 16 36 21 35 22 -85 0
38 16 36 21 35 22 -86 0
38 16 36 21 35 22 -83 0
38 16 36 21 35 22 -84 0
38 16 36 31 17 35 -85 0
38 16 36 31 17 35 -86 0
38 16 36 31 17 35 -83 0
38 16 36 31 17 35 -84 0
38 16 36 31 35 22 -85 0
38 16 36 31 35 22 -86 0
38 16 36 31 35 22 -83 0
38 16 36 31 35 22 -84 0
38 16 21 31 17 22 -85 0
38 16 21 31 17 22 -86 0
38 16 21 31 17 22 -83 0
38 16 21 31 17 22 -84 0
38 16 21 17 35 22 -85 0
38 16 21 17 35 22 -86 0
38 16 21 17 35 22 -83 0
38 16 21 17 35 22 -84 0
38 16 31 17 35 22 -85 0
38 16 31 17 35 22 -86 0
38 16 31 17 35 22 -83 0
38 16 31 17 35 22 -84 0
38 41 36 40 31 44 -112 0
38 41 36 40 31 44 -113 0
38 41 36 40 31 44 -111 0
38 41 36 40 31 44 -114 0
38 41 36 40 31 35 -112 0
38 41 36 40 31 35 -113 0
38 41 36 40 31 35 -111 0
38 41 36 40 31 35 -114 0
38 41 36 40 44 43 -112 0
38 41 36 40 44 43 -113 0
38 41 36 40 44 43 -111 0
38 41 36 40 44 43 -114 0
38 41 36 40 35 43 -112 0
38 41 36 40 35 43 -113 0
38 41 36 40 35 43 -111 0
38 41 36 40 35 43 -114 0
38 41 36 31 44 35 -112 0
38 41 36 31 44 35 -113 0
38 41 36 31 44 35 -111 0
38 41 36 31 44 35 -114 0
38 41 36 31 35 43 -112 0
38 41 36 31 35 43 -113 0
38 41 36 31 35 43 -111 0
38 41 36 31 35 43 -114 0
38 41 40 31 44 43 -112 0
38 41 40 31 44 43 -113 0
38 41 40 31 44 43 -111 0
38 41 40 31 44 43 -114 0
38 41 40 44 35 43 -112 0
38 41 40 44 35 43 -113 0
38 41 40 44 35 43 -111 0
38 41 40 44 35 43 -114 0
38 41 31 44 35 43 -112 0
38 41 31 44 35 43 -113 0
38 41 31 44 35 43 -111 0
38 41 31 44 35 43 -114 0
38 12 36 13 31 11 -67 0
38 12 36 13 31 11 -65 0
38 12 36 13 31 11 -68 0
38 12 36 13 31 11 -66 0
38 12 36 13 31 35 -67 0
38 12 36 13 31 35 -65 0
38 12 36 13 31 35 -68 0
38 12 36 13 31 35 -66 0
38 12 36 13 11 10 -67 0
38 12 36 13 11 10 -65 0
38 12 36 13 11 10 -68 0
38 12 36 13 11 10 -66 0
38 12 36 13 35 10 -67 0
38 12 36 13 35 10 -65 0
38 12 36 13 35 10 -68 0
38 12 36 13 35 10 -66 0
38 12 36 31 11 35 -67 0
38 12 36 31 11 35 -65 0
38 12 36 31 11 35 -68 0
38 12 36 31 11 35 -66 0
38 12 36 31 35 10 -67 0
38 12 36 31 35 10 -65 0
38 12 36 31 35 10 -68 0
38 12 36 31 35 10 -66 0
38 12 13 31 11 10 -67 0
38 12 13 31 11 10 -65 0
38 12 13 31 11 10 -68 0
38 12 13 31 11 10 -66 0
38 12 13 11 35 10 -67 0
38 12 13 11 35 10 -65 0
38 12 13 11 35 10 -68 0
38 12 13 11 35 10 -66 0
38 12 31 11 35 10 -67 0
38 12 31 11 35 10 -65 0
38 12 31 11 35 10 -68 0
38 12 31 11 35 10 -66 0
38 36 52 31 51 35 -115 0
38 36 52 31 51 35 -116 0
38 36 52 31 51 35 -118 0
38 36 52 31 51 35 -117 0
38 36 52 31 35 49 -115 0
38 36 52 31 35 49 -116 0
38 36 52 31 35 49 -118 0
38 36 52 31 35 49 -117 0
38 36 6 31 3 35 -34 0
38 36 6 31 3 35 -32 0
38 36 6 31 3 35 -33 0
38 36 6 31 3 35 -37 0
38 36 6 31 35 2 -34 0
38 36 6 31 35 2 -32 0
38 36 6 31 35 2 -33 0
38 36 6 31 35 2 -37 0
38 36 27 31 25 35 -97 0
38 36 27 31 25 35 -100 0
38 36 27 31 25 35 -98 0
38 36 27 31 25 35 -99 0
38 36 27 31 35 26 -97 0
38 36 27 31 35 26 -100 0
38 36 27 31 35 26 -98 0
38 36 27 31 35 26 -99 0
38 36 21 31 17 35 -85 0
38 36 21 31 17 35 -86 0
38 36 21 31 17 35 -83 0
38 36 21 31 17 35 -84 0
38 36 21 31 35 22 -85 0
38 36 21 31 35 22 -86 0
38 36 21 31 35 22 -83 0
38 36 21 31 35 22 -84 0
38 36 40 31 44 35 -112 0
38 36 40 31 44 35 -113 0
38 36 40 31 44 35 -111 0
38 36 40 31 44 35 -114 0
38 36 40 31 35 43 -112 0
38 36 40 31 35 43 -113 0
38 36 40 31 35 43 -111 0
38 36 40 31 35 43 -114 0
38 36 13 31 11 35 -67 0
38 36 13 31 11 35 -65 0
38 36 13 31 11 35 -68 0
38 36 13 31 11 35 -66 0
38 36 13 31 35 10 -67 0
38 36 13 31 35 10 -65 0
38 36 13 31 35 10 -68 0
38 36 13 31 35 10 -66 0
38 36 31 51 35 49 -115 0
38 36 31 51 35 49 -116 0
38 36 31 51 35 49 -118 0
38 36 31 51 35 49 -117 0
38 36 31 3 35 2 -34 0
38 36 31 3 35 2 -32 0
38 36 31 3 35 2 -33 0
38 36 31 3 35 2 -37 0
38 36 31 25 35 26 -97 0
38 36 31 25 35 26 -100 0
38 36 31 25 35 26 -98 0
38 36 31 25 35 26 -99 0
38 36 31 17 35 22 -85 0
38 36 31 17 35 22 -86 0
38 36 31 17 35 22 -83 0
38 36 31 17 35 22 -84 0
38 36 31 44 35 43 -112 0
38 36 31 44 35 43 -113 0
38 36 31 44 35 43 -111 0
38 36 31 44 35 43 -114 0
38 36 31 11 35 10 -67 0
38 36 31 11 35 10 -65 0
38 36 31 11 35 10 -68 0
38 36 31 11 35 10 -66 0
53 4 52 6 51 3 -54 0
53 4 52 6 51 3 -50 0
53 4 52 6 51 3 -48 0
53 4 52 6 51 3 -47 0
53 4 52 6 51 49 -54 0
53 4 52 6 51 49 -50 0
53 4 52 6 51 49 -48 0
53 4 52 6 51 49 -47 0
53 4 52 6 3 2 -54 0
53 4 52 6 3 2 -50 0
53 4 52 6 3 2 -48 0
53 4 52 6 3 2 -47 0
53 4 52 6 49 2 -54 0
53 4 52 6 49 2 -50 0
53 4 52 6 49 2 -48 0
53 4 52 6 49 2 -47 0
53 4 52 51 3 49 -54 0
53 4 52 51 3 49 -50 0
53 4 52 51 3 49 -48 0
53 4 52 51 3 49 -47 0
53 4 52 51 49 2 -54 0
53 4 52 51 49 2 -50 0
53 4 52 51 49 2 -48 0
53 4 52 51 49 2 -47 0
53 4 6 51 3 2 -54 0
53 4 6 51 3 2 -50 0
53 4 6 51 3 2 -48 0
53 4 6 51 3 2 -47 0
53 4 6 3 49 2 -54 0
53 4 6 3 49 2 -50 0
53 4 6 3 49 2 -48 0
53 4 6 3 49 2 -47 0
53 4 51 3 49 2 -54 0
53 4 51 3 49 2 -50 0
53 4 51 3 49 2 -48 0
53 4 51 3 49 2 -47 0
53 30 52 27 51 25 -106 0
53 30 52 27 51 25 -108 0
53 30 52 27 51 25 -107 0
53 30 52 27 51 25 -105 0
53 30 52 27 51 49 -106 0
53 30 52 27 51 49 -108 0
53 30 52 27 51 49 -107 0
53 30 52 27 51 49 -105 0
53 30 52 27 25 26 -106 0
53 30 52 27 25 26 -108 0
53 30 52 27 25 26 -107 0
53 30 52 27 25 26 -105 0
53 30 52 27 49 26 -106 0
53 30 52 27 49 26 -108 0
53 30 52 27 49 26 -107 0
53 30 52 27 49 26 -105 0
53 30 52 51 25 49 -106 0
53 30 52 51 25 49 -108 0
53 30 52 51 25 49 -107 0
53 30 52 51 25 49 -105 0
53 30 52 51 49 26 -106 0
53 30 52 51 49 26 -108 0
53 30 52 51 49 26 -107 0
53 30 52 51 49 26 -105 0
53 30 27 51 25 26 -106 0
53 30 27 51 25 26 -108 0
53 30 27 51 25 26 -107 0
53 30 27 51 25 26 -105 0
53 30 27 25 49 26 -106 0
53 30 27 25 49 26 -108 0
53 30 27 25 49 26 -107 0
53 30 27 25 49 26 -105 0
53 30 51 25 49 26 -106 0
53 30 51 25 49 26 -108 0
53 30 51 25 49 26 -107 0
53 30 51 25 49 26 -105 0
53 16 52 21 51 17 -94 0
53 16 52 21 51 17 -91 0
53 16 52 21 51 17 -92 0
53 16 52 21 51 17 -93 0
53 16 52 21 51 49 -94 0
53 16 52 21 51 49 -91 0
53 16 52 21 51 49 -92 0
53 16 52 21 51 49 -93 0
53 16 52 21 17 22 -94 0
53 16 52 21 17 22 -91 0
53 16 52 21 17 22 -92 0
53 16 52 21 17 22 -93 0
53 16 52 21 49 22 -94 0
53 16 52 21 49 22 -91 0
53 16 52 21 49 22 -92 0
53 16 52 21 49 22 -93 0
53 16 52 51 17 49 -94 0
53 16 52 51 17 49 -91 0
53 16 52 51 17 49 -92 0
53 16 52 51 17 49 -93 0
53 16 52 51 49 22 -94 0
53 16 52 51 49 22 -91 0
53 16 52 51 49 22 -92 0
53 16 52 51 49 22 -93 0
53 16 21 51 17 22 -94 0
53 16 21 51 17 22 -91 0
53 16 21 51 17 22 -92 0
53 16 21 51 17 22 -93 0
53 16 21 17 49 22 -94 0
53 16 21 17 49 22 -91 0
53 16 21 17 49 22 -92 0
53 16 21 17 49 22 -93 0
53 16 51 17 49 22 -94 0
53 16 51 17 49 22 -91 0
53 16 51 17 49 22 -92 0
53 16 51 17 49 22 -93 0
53 41 52 40 51 44 -123 0
53 41 52 40 51 44 -122 0
53 41 52 40 51 44 -124 0
53 41 52 40 51 44 -121 0
53 41 52 40 51 49 -123 0
53 41 52 40 51 49 -122 0
53 41 52 40 51 49 -124 0
53 41 52 40 51 49 -121 0
53 41 52 40 44 43 -123 0
53 41 52 40 44 43 -122 0
53 41 52 40 44 43 -124 0
53 41 52 40 44 43 -121 0
53 41 52 40 49 43 -123 0
53 41 52 40 49 43 -122 0
53 41 52 40 49 43 -124 0
53 41 52 40 49 43 -121 0
53 41 52 51 44 49 -123 0
53 41 52 51 44 49 -122 0
53 41 52 51 44 49 -124 0
53 41 52 51 44 49 -121 0
53 41 52 51 49 43 -123 0
53 41 52 51 49 43 -122 0
53 41 52 51 49 43 -124 0
53 41 52 51 49 43 -121 0
53 41 40 51 44 43 -123 0
53 41 40 51 44 43 -122 0
53 41 40 51 44 43 -124 0
53 41 40 51 44 43 -121 0
53 41 40 44 49 43 -123 0
53 41 40 44 49 43 -122 0
53 41 40 44 49 43 -124 0
53 41 40 44 49 43 -121 0
53 41 51 44 49 43 -123 0
53 41 51 44 49 43 -122 0
53 41 51 44 49 43 -124 0
53 41 51 44 49 43 -121 0
53 12 52 13 51 11 -74 0
53 12 52 13 51 11 -76 0
53 12 52 13 51 11 -75 0
53 12 52 13 51 11 -73 0
53 12 52 13 51 49 -74 0
53 12 52 13 51 49 -76 0
53 12 52 13 51 49 -75 0
53 12 52 13 51 49 -73 0
53 12 52 13 11 10 -74 0
53 12 52 13 11 10 -76 0
53 12 52 13 11 10 -75 0
53 12 52 13 11 10 -73 0
53 12 52 13 49 10 -74 0
53 12 52 13 49 10 -76 0
53 12 52 13 49 10 -75 0
53 12 52 13 49 10 -73 0
53 12 52 51 11 49 -74 0
53 12 52 51 11 49 -76 0
53 12 52 51 11 49 -75 0
53 12 52 51 11 49 -73 0
53 12 52 51 49 10 -74 0
53 12 52 51 49 10 -76 0
53 12 52 51 49 10 -75 0
53 12 52 51 49 10 -73 0
53 12 13 51 11 10 -74 0
53 12 13 51 11 10 -76 0
53 12 13 51 11 10 -75 0
53 12 13 51 11 10 -73 0
53 12 13 11 49 10 -74 0
53 12 13 11 49 10 -76 0
53 12 13 11 49 10 -75 0
53 12 13 11 49 10 -73 0
53 12 51 11 49 10 -74 0
53 12 51 11 49 10 -76 0
53 12 51 11 49 10 -75 0
53 12 51 11 49 10 -73 0
53 36 52 31 51 49 -115 0
53 36 52 31 51 49 -116 0
53 36 52 31 51 49 -118 0
53 36 52 31 51 49 -117 0
53 36 52 51 35 49 -115 0
53 36 52 51 35 49 -116 0
53 36 52 51 35 49 -118 0
53 36 52 51 35 49 -117 0
53 52 6 51 3 49 -54 0
53 52 6 51 3 49 -50 0
53 52 6 51 3 49 -48 0
53 52 6 51 3 49 -47 0
53 52 6 51 49 2 -54 0
53 52 6 51 49 2 -50 0
53 52 6 51 49 2 -48 0
53 52 6 51 49 2 -47 0
53 52 27 51 25 49 -106 0
53 52 27 51 25 49 -108 0
53 52 27 51 25 49 -107 0
53 52 27 51 25 49 -105 0
53 52 27 51 49 26 -106 0
53 52 27 51 49 26 -108 0
53 52 27 51 49 26 -107 0
53 52 27 51 49 26 -105 0
53 52 21 51 17 49 -94 0
53 52 21 51 17 49 -91 0
53 52 21 51 17 49 -92 0
53 52 21 51 17 49 -93 0
53 52 21 51 49 22 -94 0
53 52 21 51 49 22 -91 0
53 52 21 51 49 22 -92 0
53 52 21 51 49 22 -93 0
53 52 40 51 44 49 -123 0
53 52 40 51 44 49 -122 0
53 52 40 51 44 49 -124 0
53 52 40 51 44 49 -121 0
53 52 40 51 49 43 -123 0
53 52 40 51 49 43 -122 0
53 52 40 51 49 43 -124 0
53 52 40 51 49 43 -121 0
53 52 13 51 11 49 -74 0
53 52 13 51 11 49 -76 0
53 52 13 51 11 49 -75 0
53 52 13 51 11 49 -73 0
53 52 13 51 49 10 -74 0
53 52 13 51 49 10 -76 0
53 52 13 51 49 10 -75 0
53 52 13 51 49 10 -73 0
53 52 31 51 35 49 -115 0
53 52 31 51 35 49 -116 0
53 52 31 51 35 49 -118 0
53 52 31 51 35 49 -117 0
53 52 51 3 49 2 -54 0
53 52 51 3 49 2 -50 0
53 52 51 3 49 2 -48 0
53 52 51 3 49 2 -47 0
53 52 51 25 49 26 -106 0
53 52 51 25 49 26 -108 0
53 52 51 25 49 26 -107 0
53 52 51 25 49 26 -105 0
53 52 51 17 49 22 -94 0
53 52 51 17 49 22 -91 0
53 52 51 17 49 22 -92 0
53 52 51 17 49 22 -93 0
53 52 51 44 49 43 -123 0
53 52 51 44 49 43 -122 0
53 52 51 44 49 43 -124 0
53 52 51 44 49 43 -121 0
53 52 51 11 49 10 -74 0
53 52 51 11 49 10 -76 0
53 52 51 11 49 10 -75 0
53 52 51 11 49 10 -73 0
4 30 6 27 3 25 -23 0
4 30 6 27 3 25 -24 0
4 30 6 27 3 25 -29 0
4 30 6 27 3 25 -28 0
4 30 6 27 3 2 -23 0
4 30 6 27 3 2 -24 0
4 30 6 27 3 2 -29 0
4 30 6 27 3 2 -28 0
4 30 6 27 25 26 -23 0
4 30 6 27 25 26 -24 0
4 30 6 27 25 26 -29 0
4 30 6 27 25 26 -28 0
4 30 6 27 2 26 -23 0
4 30 6 27 2 26 -24 0
4 30 6 27 2 26 -29 0
4 30 6 27 2 26 -28 0
4 30 6 3 25 2 -23 0
4 30 6 3 25 2 -24 0
4 30 6 3 25 2 -29 0
4 30 6 3 25 2 -28 0
4 30 6 3 2 26 -23 0
4 30 6 3 2 26 -24 0
4 30 6 3 2 26 -29 0
4 30 6 3 2 26 -28 0
4 30 27 3 25 26 -23 0
4 30 27 3 25 26 -24 0
4 30 27 3 25 26 -29 0
4 30 27 3 25 26 -28 0
4 30 27 25 2 26 -23 0
4 30 27 25 2 26 -24 0
4 30 27 25 2 26 -29 0
4 30 27 25 2 26 -28 0
4 30 3 25 2 26 -23 0
4 30 3 25 2 26 -24 0
4 30 3 25 2 26 -29 0
4 30 3 25 2 26 -28 0
4 16 6 21 3 17 -20 0
4 16 6 21 3 17 -19 0
4 16 6 21 3 17 -18 0
4 16 6 21 3 17 -15 0
4 16 6 21 3 2 -20 0
4 16 6 21 3 2 -19 0
4 16 6 21 3 2 -18 0
4 16 6 21 3 2 -15 0
4 16 6 21 17 22 -20 0
4 16 6 21 17 22 -19 0
4 16 6 21 17 22 -18 0
4 16 6 21 17 22 -15 0
4 16 6 21 2 22 -20 0
4 16 6 21 2 22 -19 0
4 16 6 21 2 22 -18 0
4 16 6 21 2 22 -15 0
4 16 6 3 17 2 -20 0
4 16 6 3 17 2 -19 0
4 16 6 3 17 2 -18 0
4 16 6 3 17 2 -15 0
4 16 6 3 2 22 -20 0
4 16 6 3 2 22 -19 0
4 16 6 3 2 22 -18 0
4 16 6 3 2 22 -15 0
4 16 21 3 17 22 -20 0
4 16 21 3 17 22 -19 0
4 16 21 3 17 22 -18 0
4 16 21 3 17 22 -15 0
4 16 21 17 2 22 -20 0
4 16 21 17 2 22 -19 0
4 16 21 17 2 22 -18 0
4 16 21 17 2 22 -15 0
4 16 3 17 2 22 -20 0
4 16 3 17 2 22 -19 0
4 16 3 17 2 22 -18 0
4 16 3 17 2 22 -15 0
4 41 6 40 3 44 -39 0
4 41 6 40 3 44 -45 0
4 41 6 40 3 44 -46 0
4 41 6 40 3 44 -42 0
4 41 6 40 3 2 -39 0
4 41 6 40 3 2 -45 0
4 41 6 40 3 2 -46 0
4 41 6 40 3 2 -42 0
4 41 6 40 44 43 -39 0
4 41 6 40 44 43 -45 0
4 41 6 40 44 43 -46 0
4 41 6 40 44 43 -42 0
4 41 6 40 2 43 -39 0
4 41 6 40 2 43 -45 0
4 41 6 40 2 43 -46 0
4 41 6 40 2 43 -42 0
4 41 6 3 44 2 -39 0
4 41 6 3 44 2 -45 0
4 41 6 3 44 2 -46 0
4 41 6 3 44 2 -42 0
4 41 6 3 2 43 -39 0
4 41 6 3 2 43 -45 0
4 41 6 3 2 43 -46 0
4 41 6 3 2 43 -42 0
4 41 40 3 44 43 -39 0
4 41 40 3 44 43 -45 0
4 41 40 3 44 43 -46 0
4 41 40 3 44 43 -42 0
4 41 40 44 2 43 -39 0
4 41 40 44 2 43 -45 0
4 41 40 44 2 43 -46 0
4 41 40 44 2 43 -42 0
4 41 3 44 2 43 -39 0
4 41 3 44 2 43 -45 0
4 41 3 44 2 43 -46 0
4 41 3 44 2 43 -42 0
4 12 6 13 3 11 -8 0
4 12 6 13 3 11 -14 0
4 12 6 13 3 11 -7 0
4 12 6 13 3 11 -9 0
4 12 6 13 3 2 -8 0
4 12 6 13 3 2 -14 0
4 12 6 13 3 2 -7 0
4 12 6 13 3 2 -9 0
4 12 6 13 11 10 -8 0
4 12 6 13 11 10 -14 0
4 12 6 13 11 10 -7 0
4 12 6 13 11 10 -9 0
4 12 6 13 2 10 -8 0
4 12 6 13 2 10 -14 0
4 12 6 13 2 10 -7 0
4 12 6 13 2 10 -9 0
4 12 6 3 11 2 -8 0
4 12 6 3 11 2 -14 0
4 12 6 3 11 2 -7 0
4 12 6 3 11 2 -9 0
4 12 6 3 2 10 -8 0
4 12 6 3 2 10 -14 0
4 12 6 3 2 10 -7 0
4 12 6 3 2 10 -9 0
4 12 13 3 11 10 -8 0
4 12 13 3 11 10 -14 0
4 12 13 3 11 10 -7 0
4 12 13 3 11 10 -9 0
4 12 13 11 2 10 -8 0
4 12 13 11 2 10 -14 0
4 12 13 11 2 10 -7 0
4 12 13 11 2 10 -9 0
4 12 3 11 2 10 -8 0
4 12 3 11 2 10 -14 0
4 12 3 11 2 10 -7 0
4 12 3 11 2 10 -9 0
4 36 6 31 3 2 -34 0
4 36 6 31 3 2 -32 0
4 36 6 31 3 2 -33 0
4 36 6 31 3 2 -37 0
4 36 6 3 35 2 -34 0
4 36 6 3 35 2 -32 0
4 36 6 3 35 2 -33 0
4 36 6 3 35 2 -37 0
4 52 6 51 3 2 -54 0
4 52 6 51 3 2 -50 0
4 52 6 51 3 2 -48 0
4 52 6 51 3 2 -47 0
4 52 6 3 49 2 -54 0
4 52 6 3 49 2 -50 0
4 52 6 3 49 2 -48 0
4 52 6 3 49 2 -47 0
4 6 27 3 25 2 -23 0
4 6 27 3 25 2 -24 0
4 6 27 3 25 2 -29 0
4 6 27 3 25 2 -28 0
4 6 27 3 2 26 -23 0
4 6 27 3 2 26 -24 0
4 6 27 3 2 26 -29 0
4 6 27 3 2 26 -28 0
4 6 21 3 17 2 -20 0
4 6 21 3 17 2 -19 0
4 6 21 3 17 2 -18 0
4 6 21 3 17 2 -15 0
4 6 21 3 2 22 -20 0
4 6 21 3 2 22 -19 0
4 6 21 3 2 22 -18 0
4 6 21 3 2 22 -15 0
4 6 40 3 44 2 -39 0
4 6 40 3 44 2 -45 0
4 6 40 3 44 2 -46 0
4 6 40 3 44 2 -42 0
4 6 40 3 2 43 -39 0
4 6 40 3 2 43 -45 0
4 6 40 3 2 43 -46 0
4 6 40 3 2 43 -42 0
4 6 13 3 11 2 -8 0
4 6 13 3 11 2 -14 0
4 6 13 3 11 2 -7 0
4 6 13 3 11 2 -9 0
4 6 13 3 2 10 -8 0
4 6 13 3 2 10 -14 0
4 6 13 3 2 10 -7 0
4 6 13 3 2 10 -9 0
4 6 31 3 35 2 -34 0
4 6 31 3 35 2 -32 0
4 6 31 3 35 2 -33 0
4 6 31 3 35 2 -37 0
4 6 51 3 49 2 -54 0
4 6 51 3 49 2 -50 0
4 6 51 3 49 2 -48 0
4 6 51 3 49 2 -47 0
4 6 3 25 2 26 -23 0
4 6 3 25 2 26 -24 0
4 6 3 25 2 26 -29 0
4 6 3 25 2 26 -28 0
4 6 3 17 2 22 -20 0
4 6 3 17 2 22 -19 0
4 6 3 17 2 22 -18 0
4 6 3 17 2 22 -15 0
4 6 3 44 2 43 -39 0
4 6 3 44 2 43 -45 0
4 6 3 44 2 43 -46 0
4 6 3 44 2 43 -42 0
4 6 3 11 2 10 -8 0
4 6 3 11 2 10 -14 0
4 6 3 11 2 10 -7 0
4 6 3 11 2 10 -9 0
30 16 27 21 25 17 -80 0
30 16 27 21 25 17 -81 0
30 16 27 21 25 17 -79 0
30 16 27 21 25 17 -82 0
30 16 27 21 25 26 -80 0
30 16 27 21 25 26 -81 0
30 16 27 21 25 26 -79 0
30 16 27 21 25 26 -82 0
30 16 27 21 17 22 -80 0
30 16 27 21 17 22 -81 0
30 16 27 21 17 22 -79 0
30 16 27 21 17 22 -82 0
30 16 27 21 26 22 -80 0
30 16 27 21 26 22 -81 0
30 16 27 21 26 22 -79 0
30 16 27 21 26 22 -82 0
30 16 27 25 17 26 -80 0
30 16 27 25 17 26 -81 0
30 16 27 25 17 26 -79 0
30 16 27 25 17 26 -82 0
30 16 27 25 26 22 -80 0
30 16 27 25 26 22 -81 0
30 16 27 25 26 22 -79 0
30 16 27 25 26 22 -82 0
30 16 21 25 17 22 -80 0
30 16 21 25 17 22 -81 0
30 16 21 25 17 22 -79 0
30 16 21 25 17 22 -82 0
30 16 21 17 26 22 -80 0
30 16 21 17 26 22 -81 0
30 16 21 17 26 22 -79 0
30 16 21 17 26 22 -82 0
30 16 25 17 26 22 -80 0
30 16 25 17 26 22 -81 0
30 16 25 17 26 22 -79 0
30 16 25 17 26 22 -82 0
30 41 27 40 25 44 -103 0
30 41 27 40 25 44 -101 0
30 41 27 40 25 44 -102 0
30 41 27 40 25 44 -104 0
30 41 27 40 25 26 -103 0
30 41 27 40 25 26 -101 0
30 41 27 40 25 26 -102 0
30 41 27 40 25 26 -104 0
30 41 27 40 44 43 -103 0
30 41 27 40 44 43 -101 0
30 41 27 40 44 43 -102 0
30 41 27 40 44 43 -104 0
30 41 27 40 26 43 -103 0
30 41 27 40 26 43 -101 0
30 41 27 40 26 43 -102 0
30 41 27 40 26 43 -104 0
30 41 27 25 44 26 -103 0
30 41 27 25 44 26 -101 0
30 41 27 25 44 26 -102 0
30 41 27 25 44 26 -104 0
30 41 27 25 26 43 -103 0
30 41 27 25 26 43 -101 0
30 41 27 25 26 43 -102 0
30 41 27 25 26 43 -104 0
30 41 40 25 44 43 -103 0
30 41 40 25 44 43 -101 0
30 41 40 25 44 43 -102 0
30 41 40 25 44 43 -104 0
30 41 40 44 26 43 -103 0
30 41 40 44 26 43 -101 0
30 41 40 44 26 43 -102 0
30 41 40 44 26 43 -104 0
30 41 25 44 26 43 -103 0
30 41 25 44 26 43 -101 0
30 41 25 44 26 43 -102 0
30 41 25 44 26 43 -104 0
30 12 27 13 25 11 -61 0
30 12 27 13 25 11 -63 0
30 12 27 13 25 11 -64 0
30 12 27 13 25 11 -62 0
30 12 27 13 25 26 -61 0
30 12 27 13 25 26 -63 0
30 12 27 13 25 26 -64 0
30 12 27 13 25 26 -62 0
30 12 27 13 11 10 -61 0
30 12 27 13 11 10 -63 0
30 12 27 13 11 10 -64 0
30 12 27 13 11 10 -62 0
30 12 27 13 26 10 -61 0
30 12 27 13 26 10 -63 0
30 12 27 13 26 10 -64 0
30 12 27 13 26 10 -62 0
30 12 27 25 11 26 -61 0
30 12 27 25 11 26 -63 0
30 12 27 25 11 26 -64 0
30 12 27 25 11 26 -62 0
30 12 27 25 26 10 -61 0
30 12 27 25 26 10 -63 0
30 12 27 25 26 10 -64 0
30 12 27 25 26 10 -62 0
30 12 13 25 11 10 -61 0
30 12 13 25 11 10 -63 0
30 12 13 25 11 10 -64 0
30 12 13 25 11 10 -62 0
30 12 13 11 26 10 -61 0
30 12 13 11 26 10 -63 0
30 12 13 11 26 10 -64 0
30 12 13 11 26 10 -62 0
30 12 25 11 26 10 -61 0
30 12 25 11 26 10 -63 0
30 12 25 11 26 10 -64 0
30 12 25 11 26 10 -62 0
30 36 27 31 25 26 -97 0
30 36 27 31 25 26 -100 0
30 36 27 31 25 26 -98 0
30 36 27 31 25 26 -99 0
30 36 27 25 35 26 -97 0
30 36 27 25 35 26 -100 0
30 36 27 25 35 26 -98 0
30 36 27 25 35 26 -99 0
30 52 27 51 25 26 -106 0
30 52 27 51 25 26 -108 0
30 52 27 51 25 26 -107 0
30 52 27 51 25 26 -105 0
30 52 27 25 49 26 -106 0
30 52 27 25 49 26 -108 0
30 52 27 25 49 26 -107 0
30 52 27 25 49 26 -105 0
30 6 27 3 25 26 -23 0
30 6 27 3 25 26 -24 0
30 6 27 3 25 26 -29 0
30 6 27 3 25 26 -28 0
30 6 27 25 2 26 -23 0
30 6 27 25 2 26 -24 0
30 6 27 25 2 26 -29 0
30 6 27 25 2 26 -28 0
30 27 21 25 17 26 -80 0
30 27 21 25 17 26 -81 0
30 27 21 25 17 26 -79 0
30 27 21 25 17 26 -82 0
30 27 21 25 26 22 -80 0
30 27 21 25 26 22 -81 0
30 27 21 25 26 22 -79 0
30 27 21 25 26 22 -82 0
30 27 40 25 44 26 -103 0
30 27 40 25 44 26 -101 0
30 27 40 25 44 26 -102 0
30 27 40 25 44 26 -104 0
30 27 40 25 26 43 -103 0
30 27 40 25 26 43 -101 0
30 27 40 25 26 43 -102 0
30 27 40 25 26 43 -104 0
30 27 13 25 11 26 -61 0
30 27 13 25 11 26 -63 0
30 27 13 25 11 26 -64 0
30 27 13 25 11 26 -62 0
30 27 13 25 26 10 -61 0
30 27 13 25 26 10 -63 0
30 27 13 25 26 10 -64 0
30 27 13 25 26 10 -62 0
30 27 31 25 35 26 -97 0
30 27 31 25 35 26 -100 0
30 27 31 25 35 26 -98 0
30 27 31 25 35 26 -99 0
30 27 51 25 49 26 -106 0
30 27 51 25 49 26 -108 0
30 27 51 25 49 26 -107 0
30 27 51 25 49 26 -105 0
30 27 3 25 2 26 -23 0
30 27 3 25 2 26 -24 0
30 27 3 25 2 26 -29 0
30 27 3 25 2 26 -28 0
30 27 25 17 26 22 -80 0
30 27 25 17 26 22 -81 0
30 27 25 17 26 22 -79 0
30 27 25 17 26 22 -82 0
30 27 25 44 26 43 -103 0
30 27 25 44 26 43 -101 0
30 27 25 44 26 43 -102 0
30 27 25 44 26 43 -104 0
30 27 25 11 26 10 -61 0
30 27 25 11 26 10 -63 0
30 27 25 11 26 10 -64 0
30 27 25 11 26 10 -62 0
16 41 21 40 17 44 -87 0
16 41 21 40 17 44 -88 0
16 41 21 40 17 44 -90 0
16 41 21 40 17 44 -89 0
16 41 21 40 17 22 -87 0
16 41 21 40 17 22 -88 0
16 41 21 40 17 22 -90 0
16 41 21 40 17 22 -89 0
16 41 21 40 44 43 -87 0
16 41 21 40 44 43 -88 0
16 41 21 40 44 43 -90 0
16 41 21 40 44 43 -89 0
16 41 21 40 22 43 -87 0
16 41 21 40 22 43 -88 0
16 41 21 40 22 43 -90 0
16 41 21 40 22 43 -89 0
16 41 21 17 44 22 -87 0
16 41 21 17 44 22 -88 0
16 41 21 17 44 22 -90 0
16 41 21 17 44 22 -89 0
16 41 21 17 22 43 -87 0
16 41 21 17 22 43 -88 0
16 41 21 17 22 43 -90 0
16 41 21 17 22 43 -89 0
16 41 40 17 44 43 -87 0
16 41 40 17 44 43 -88 0
16 41 40 17 44 43 -90 0
16 41 40 17 44 43 -89 0
16 41 40 44 22 43 -87 0
16 41 40 44 22 43 -88 0
16 41 40 44 22 43 -90 0
16 41 40 44 22 43 -89 0
16 41 17 44 22 43 -87 0
16 41 17 44 22 43 -88 0
16 41 17 44 22 43 -90 0
16 41 17 44 22 43 -89 0
16 12 21 13 17 11 -59 0
16 12 21 13 17 11 -60 0
16 12 21 13 17 11 -58 0
16 12 21 13 17 11 -57 0
16 12 21 13 17 22 -59 0
16 12 21 13 17 22 -60 0
16 12 21 13 17 22 -58 0
16 12 21 13 17 22 -57 0
16 12 21 13 11 10 -59 0
16 12 21 13 11 10 -60 0
16 12 21 13 11 10 -58 0
16 12 21 13 11 10 -57 0
16 12 21 13 22 10 -59 0
16 12 21 13 22 10 -60 0
16 12 21 13 22 10 -58 0
16 12 21 13 22 10 -57 0
16 12 21 17 11 22 -59 0
16 12 21 17 11 22 -60 0
16 12 21 17 11 22 -58 0
16 12 21 17 11 22 -57 0
16 12 21 17 22 10 -59 0
16 12 21 17 22 10 -60 0
16 12 21 17 22 10 -58 0
16 12 21 17 22 10 -57 0
16 12 13 17 11 10 -59 0
16 12 13 17 11 10 -60 0
16 12 13 17 11 10 -58 0
16 12 13 17 11 10 -57 0
16 12 13 11 22 10 -59 0
16 12 13 11 22 10 -60 0
16 12 13 11 22 10 -58 0
16 12 13 11 22 10 -57 0
16 12 17 11 22 10 -59 0
16 12 17 11 22 10 -60 0
16 12 17 11 22 10 -58 0
16 12 17 11 22 10 -57 0
16 36 21 31 17 22 -85 0
16 36 21 31 17 22 -86 0
16 36 21 31 17 22 -83 0
16 36 21 31 17 22 -84 0
16 36 21 17 35 22 -85 0
16 36 21 17 35 22 -86 0
16 36 21 17 35 22 -83 0
16 36 21 17 35 22 -84 0
16 52 21 51 17 22 -94 0
16 52 21 51 17 22 -91 0
16 52 21 51 17 22 -92 0
16 52 21 51 17 22 -93 0
16 52 21 17 49 22 -94 0
16 52 21 17 49 22 -91 0
16 52 21 17 49 22 -92 0
16 52 21 17 49 22 -93 0
16 6 21 3 17 22 -20 0
16 6 21 3 17 22 -19 0
16 6 21 3 17 22 -18 0
16 6 21 3 17 22 -15 0
16 6 21 17 2 22 -20 0
16 6 21 17 2 22 -19 0
16 6 21 17 2 22 -18 0
16 6 21 17 2 22 -15 0
16 27 21 25 17 22 -80 0
16 27 21 25 17 22 -81 0
16 27 21 25 17 22 -79 0
16 27 21 25 17 22 -82 0
16 27 21 17 26 22 -80 0
16 27 21 17 26 22 -81 0
16 27 21 17 26 22 -79 0
16 27 21 17 26 22 -82 0
16 21 40 17 44 22 -87 0
16 21 40 17 44 22 -88 0
16 21 40 17 44 22 -90 0
16 21 40 17 44 22 -89 0
16 21 40 17 22 43 -87 0
16 21 40 17 22 43 -88 0
16 21 40 17 22 43 -90 0
16 21 40 17 22 43 -89 0
16 21 13 17 11 22 -59 0
16 21 13 17 11 22 -60 0
16 21 13 17 11 22 -58 0
16 21 13 17 11 22 -57 0
16 21 13 17 22 10 -59 0
16 21 13 17 22 10 -60 0
16 21 13 17 22 10 -58 0
16 21 13 17 22 10 -57 0
16 21 31 17 35 22 -85 0
16 21 31 17 35 22 -86 0
16 21 31 17 35 22 -83 0
16 21 31 17 35 22 -84 0
16 21 51 17 49 22 -94 0
16 21 51 17 49 22 -91 0
16 21 51 17 49 22 -92 0
16 21 51 17 49 22 -93 0
16 21 3 17 2 22 -20 0
16 21 3 17 2 22 -19 0
16 21 3 17 2 22 -18 0
16 21 3 17 2 22 -15 0
16 21 25 17 26 22 -80 0
16 21 25 17 26 22 -81 0
16 21 25 17 26 22 -79 0
16 21 25 17 26 22 -82 0
16 21 17 44 22 43 -87 0
16 21 17 44 22 43 -88 0
16 21 17 44 22 43 -90 0
16 21 17 44 22 43 -89 0
16 21 17 11 22 10 -59 0
16 21 17 11 22 10 -60 0
16 21 17 11 22 10 -58 0
16 21 17 11 22 10 -57 0
41 12 40 13 44 11 -69 0
41 12 40 13 44 11 -71 0
41 12 40 13 44 11 -72 0
41 12 40 13 44 11 -70 0
41 12 40 13 44 43 -69 0
41 12 40 13 44 43 -71 0
41 12 40 13 44 43 -72 0
41 12 40 13 44 43 -70 0
41 12 40 13 11 10 -69 0
41 12 40 13 11 10 -71 0
41 12 40 13 11 10 -72 0
41 12 40 13 11 10 -70 0
41 12 40 13 43 10 -69 0
41 12 40 13 43 10 -71 0
41 12 40 13 43 10 -72 0
41 12 40 13 43 10 -70 0
41 12 40 44 11 43 -69 0
41 12 40 44 11 43 -71 0
41 12 40 44 11 43 -72 0
41 12 40 44 11 43 -70 0
41 12 40 44 43 10 -69 0
41 12 40 44 43 10 -71 0
41 12 40 44 43 10 -72 0
41 12 40 44 43 10 -70 0
41 12 13 44 11 10 -69 0
41 12 13 44 11 10 -71 0
41 12 13 44 11 10 -72 0
41 12 13 44 11 10 -70 0
41 12 13 11 43 10 -69 0
41 12 13 11 43 10 -71 0
41 12 13 11 43 10 -72 0
41 12 13 11 43 10 -70 0
41 12 44 11 43 10 -69 0
41 12 44 11 43 10 -71 0
41 12 44 11 43 10 -72 0
41 12 44 11 43 10 -70 0
41 36 40 31 44 43 -112 0
41 36 40 31 44 43 -113 0
41 36 40 31 44 43 -111 0
41 36 40 31 44 43 -114 0
41 36 40 44 35 43 -112 0
41 36 40 44 35 43 -113 0
41 36 40 44 35 43 -111 0
41 36 40 44 35 43 -114 0
41 52 40 51 44 43 -123 0
41 52 40 51 44 43 -122 0
41 52 40 51 44 43 -124 0
41 52 40 51 44 43 -121 0
41 52 40 44 49 43 -123 0
41 52 40 44 49 43 -122 0
41 52 40 44 49 43 -124 0
41 52 40 44 49 43 -121 0
41 6 40 3 44 43 -39 0
41 6 40 3 44 43 -45 0
41 6 40 3 44 43 -46 0
41 6 40 3 44 43 -42 0
41 6 40 44 2 43 -39 0
41 6 40 44 2 43 -45 0
41 6 40 44 2 43 -46 0
41 6 40 44 2 43 -42 0
41 27 40 25 44 43 -103 0
41 27 40 25 44 43 -101 0
41 27 40 25 44 43 -102 0
41 27 40 25 44 43 -104 0
41 27 40 44 26 43 -103 0
41 27 40 44 26 43 -101 0
41 27 40 44 26 43 -102 0
41 27 40 44 26 43 -104 0
41 21 40 17 44 43 -87 0
41 21 40 17 44 43 -88 0
41 21 40 17 44 43 -90 0
41 21 40 17 44 43 -89 0
41 21 40 44 22 43 -87 0
41 21 40 44 22 43 -88 0
41 21 40 44 22 43 -90 0
41 21 40 44 22 43 -89 0
41 40 13 44 11 43 -69 0
41 40 13 44 11 43 -71 0
41 40 13 44 11 43 -72 0
41 40 13 44 11 43 -70 0
41 40 13 44 43 10 -69 0
41 40 13 44 43 10 -71 0
41 40 13 44 43 10 -72 0
41 40 13 44 43 10 -70 0
41 40 31 44 35 43 -112 0
41 40 31 44 35 43 -113 0
41 40 31 44 35 43 -111 0
41 40 31 44 35 43 -114 0
41 40 51 44 49 43 -123 0
41 40 51 44 49 43 -122 0
41 40 51 44 49 43 -124 0
41 40 51 44 49 43 -121 0
41 40 3 44 2 43 -39 0
41 40 3 44 2 43 -45 0
41 40 3 44 2 43 -46 0
41 40 3 44 2 43 -42 0
41 40 25 44 26 43 -103 0
41 40 25 44 26 43 -101 0
41 40 25 44 26 43 -102 0
41 40 25 44 26 43 -104 0
41 40 17 44 22 43 -87 0
41 40 17 44 22 43 -88 0
41 40 17 44 22 43 -90 0
41 40 17 44 22 43 -89 0
41 40 44 11 43 10 -69 0
41 40 44 11 43 10 -71 0
41 40 44 11 43 10 -72 0
41 40 44 11 43 10 -70 0
12 36 13 31 11 10 -67 0
12 36 13 31 11 10 -65 0
12 36 13 31 11 10 -68 0
12 36 13 31 11 10 -66 0
12 36 13 11 35 10 -67 0
12 36 13 11 35 10 -65 0
12 36 13 11 35 10 -68 0
12 36 13 11 35 10 -66 0
12 52 13 51 11 10 -74 0
12 52 13 51 11 10 -76 0
12 52 13 51 11 10 -75 0
12 52 13 51 11 10 -73 0
12 52 13 11 49 10 -74 0
12 52 13 11 49 10 -76 0
12 52 13 11 49 10 -75 0
12 52 13 11 49 10 -73 0
12 6 13 3 11 10 -8 0
12 6 13 3 11 10 -14 0
12 6 13 3 11 10 -7 0
12 6 13 3 11 10 -9 0
12 6 13 11 2 10 -8 0
12 6 13 11 2 10 -14 0
12 6 13 11 2 10 -7 0
12 6 13 11 2 10 -9 0
12 27 13 25 11 10 -61 0
12 27 13 25 11 10 -63 0
12 27 13 25 11 10 -64 0
12 27 13 25 11 10 -62 0
12 27 13 11 26 10 -61 0
12 27 13 11 26 10 -63 0
12 27 13 11 26 10 -64 0
12 27 13 11 26 10 -62 0
12 21 13 17 11 10 -59 0
12 21 13 17 11 10 -60 0
12 21 13 17 11 10 -58 0
12 21 13 17 11 10 -57 0
12 21 13 11 22 10 -59 0
12 21 13 11 22 10 -60 0
12 21 13 11 22 10 -58 0
12 21 13 11 22 10 -57 0
12 40 13 44 11 10 -69 0
12 40 13 44 11 10 -71 0
12 40 13 44 11 10 -72 0
12 40 13 44 11 10 -70 0
12 40 13 11 43 10 -69 0
12 40 13 11 43 10 -71 0
12 40 13 11 43 10 -72 0
12 40 13 11 43 10 -70 0
12 13 31 11 35 10 -67 0
12 13 31 11 35 10 -65 0
12 13 31 11 35 10 -68 0
12 13 31 11 35 10 -66 0
12 13 51 11 49 10 -74 0
12 13 51 11 49 10 -76 0
12 13 51 11 49 10 -75 0
12 13 51 11 49 10 -73 0
12 13 3 11 2 10 -8 0
12 13 3 11 2 10 -14 0
12 13 3 11 2 10 -7 0
12 13 3 11 2 10 -9 0
12 13 25 11 26 10 -61 0
12 13 25 11 26 10 -63 0
12 13 25 11 26 10 -64 0
12 13 25 11 26 10 -62 0
12 13 17 11 22 10 -59 0
12 13 17 11 22 10 -60 0
12 13 17 11 22 10 -58 0
12 13 17 11 22 10 -57 0
12 13 44 11 43 10 -69 0
12 13 44 11 43 10 -71 0
12 13 44 11 43 10 -72 0
12 13 44 11 43 10 -70 0
36 52 31 51 35 49 -115 0
36 52 31 51 35 49 -116 0
36 52 31 51 35 49 -118 0
36 52 31 51 35 49 -117 0
36 6 31 3 35 2 -34 0
36 6 31 3 35 2 -32 0
36 6 31 3 35 2 -33 0
36 6 31 3 35 2 -37 0
36 27 31 25 35 26 -97 0
36 27 31 25 35 26 -100 0
36 27 31 25 35 26 -98 0
36 27 31 25 35 26 -99 0
36 21 31 17 35 22 -85 0
36 21 31 17 35 22 -86 0
36 21 31 17 35 22 -83 0
36 21 31 17 35 22 -84 0
36 40 31 44 35 43 -112 0
36 40 31 44 35 43 -113 0
36 40 31 44 35 43 -111 0
36 40 31 44 35 43 -114 0
36 13 31 11 35 10 -67 0
36 13 31 11 35 10 -65 0
36 13 31 11 35 10 -68 0
36 13 31 11 35 10 -66 0
52 6 51 3 49 2 -54 0
52 6 51 3 49 2 -50 0
52 6 51 3 49 2 -48 0
52 6 51 3 49 2 -47 0
52 27 51 25 49 26 -106 0
52 27 51 25 49 26 -108 0
52 27 51 25 49 26 -107 0
52 27 51 25 49 26 -105 0
52 21 51 17 49 22 -94 0
52 21 51 17 49 22 -91 0
52 21 51 17 49 22 -92 0
52 21 51 17 49 22 -93 0
52 40 51 44 49 43 -123 0
52 40 51 44 49 43 -122 0
52 40 51 44 49 43 -124 0
52 40 51 44 49 43 -121 0
52 13 51 11 49 10 -74 0
52 13 51 11 49 10 -76 0
52 13 51 11 49 10 -75 0
52 13 51 11 49 10 -73 0
6 27 3 25 2 26 -23 0
6 27 3 25 2 26 -24 0
6 27 3 25 2 26 -29 0
6 27 3 25 2 26 -28 0
6 21 3 17 2 22 -20 0
6 21 3 17 2 22 -19 0
6 21 3 17 2 22 -18 0
6 21 3 17 2 22 -15 0
6 40 3 44 2 43 -39 0
6 40 3 44 2 43 -45 0
6 40 3 44 2 43 -46 0
6 40 3 44 2 43 -42 0
6 13 3 11 2 10 -8 0
6 13 3 11 2 10 -14 0
6 13 3 11 2 10 -7 0
6 13 3 11 2 10 -9 0
27 21 25 17 26 22 -80 0
27 21 25 17 26 22 -81 0
27 21 25 17 26 22 -79 0
27 21 25 17 26 22 -82 0
27 40 25 44 26 43 -103 0
27 40 25 44 26 43 -101 0
27 40 25 44 26 43 -102 0
27 40 25 44 26 43 -104 0
27 13 25 11 26 10 -61 0
27 13 25 11 26 10 -63 0
27 13 25 11 26 10 -64 0
27 13 25 11 26 10 -62 0
21 40 17 44 22 43 -87 0
21 40 17 44 22 43 -88 0
21 40 17 44 22 43 -90 0
21 40 17 44 22 43 -89 0
21 13 17 11 22 10 -59 0
21 13 17 11 22 10 -60 0
21 13 17 11 22 10 -58 0
21 13 17 11 22 10 -57 0
40 13 44 11 43 10 -69 0
40 13 44 11 43 10 -71 0
40 13 44 11 43 10 -72 0
40 13 44 11 43 10 -70 0
38 53 36 52 31 51 35 -115 0
38 53 36 52 31 51 35 -116 0
38 53 36 52 31 51 35 -118 0
38 53 36 52 31 51 35 -117 0
38 53 36 52 31 51 49 -115 0
38 53 36 52 31 51 49 -116 0
38 53 36 52 31 51 49 -118 0
38 53 36 52 31 51 49 -117 0
38 53 36 52 31 35 49 -115 0
38 53 36 52 31 35 49 -116 0
38 53 36 52 31 35 49 -118 0
38 53 36 52 31 35 49 -117 0
38 53 36 52 51 35 49 -115 0
38 53 36 52 51 35 49 -116 0
38 53 36 52 51 35 49 -118 0
38 53 36 52 51 35 49 -117 0
38 53 36 31 51 35 49 -115 0
38 53 36 31 51 35 49 -116 0
38 53 36 31 51 35 49 -118 0
38 53 36 31 51 35 49 -117 0
38 53 52 31 51 35 49 -115 0
38 53 52 31 51 35 49 -116 0
38 53 52 31 51 35 49 -118 0
38 53 52 31 51 35 49 -117 0
38 4 36 6 31 3 35 -34 0
38 4 36 6 31 3 35 -32 0
38 4 36 6 31 3 35 -33 0
38 4 36 6 31 3 35 -37 0
38 4 36 6 31 3 2 -34 0
38 4 36 6 31 3 2 -32 0
38 4 36 6 31 3 2 -33 0
38 4 36 6 31 3 2 -37 0
38 4 36 6 31 35 2 -34 0
38 4 36 6 31 35 2 -32 0
38 4 36 6 31 35 2 -33 0
38 4 36 6 31 35 2 -37 0
38 4 36 6 3 35 2 -34 0
38 4 36 6 3 35 2 -32 0
38 4 36 6 3 35 2 -33 0
38 4 36 6 3 35 2 -37 0
38 4 36 31 3 35 2 -34 0
38 4 36 31 3 35 2 -32 0
38 4 36 31 3 35 2 -33 0
38 4 36 31 3 35 2 -37 0
38 4 6 31 3 35 2 -34 0
38 4 6 31 3 35 2 -32 0
38 4 6 31 3 35 2 -33 0
38 4 6 31 3 35 2 -37 0
38 30 36 27 31 25 35 -97 0
38 30 36 27 31 25 35 -100 0
38 30 36 27 31 25 35 -98 0
38 30 36 27 31 25 35 -99 0
38 30 36 27 31 25 26 -97 0
38 30 36 27 31 25 26 -100 0
38 30 36 27 31 25 26 -98 0
38 30 36 27 31 25 26 -99 0
38 30 36 27 31 35 26 -97 0
38 30 36 27 31 35 26 -100 0
38 30 36 27 31 35 26 -98 0
38 30 36 27 31 35 26 -99 0
38 30 36 27 25 35 26 -97 0
38 30 36 27 25 35 26 -100 0
38 30 36 27 25 35 26 -98 0
38 30 36 27 25 35 26 -99 0
38 30 36 31 25 35 26 -97 0
38 30 36 31 25 35 26 -100 0
38 30 36 31 25 35 26 -98 0
38 30 36 31 25 35 26 -99 0
38 30 27 31 25 35 26 -97 0
38 30 27 31 25 35 26 -100 0
38 30 27 31 25 35 26 -98 0
38 30 27 31 25 35 26 -99 0
38 16 36 21 31 17 35 -85 0
38 16 36 21 31 17 35 -86 0
38 16 36 21 31 17 35 -83 0
38 16 36 21 31 17 35 -84 0
38 16 36 21 31 17 22 -85 0
38 16 36 21 31 17 22 -86 0
38 16 36 21 31 17 22 -83 0
38 16 36 21 31 17 22 -84 0
38 16 36 21 31 35 22 -85 0
38 16 36 21 31 35 22 -86 0
38 16 36 21 31 35 22 -83 0
38 16 36 21 31 35 22 -84 0
38 16 36 21 17 35 22 -85 0
38 16 36 21 17 35 22 -86 0
38 16 36 21 17 35 22 -83 0
38 16 36 21 17 35 22 -84 0
38 16 36 31 17 35 22 -85 0
38 16 36 31 17 35 22 -86 0
38 16 36 31 17 35 22 -83 0
38 16 36 31 17 35 22 -84 0
38 16 21 31 17 35 22 -85 0
38 16 21 31 17 35 22 -86 0
38 16 21 31 17 35 22 -83 0
38 16 21 31 17 35 22 -84 0
38 41 36 40 31 44 35 -112 0
38 41 36 40 31 44 35 -113 0
38 41 36 40 31 44 35 -111 0
38 41 36 40 31 44 35 -114 0
38 41 36 40 31 44 43 -112 0
38 41 36 40 31 44 43 -113 0
38 41 36 40 31 44 43 -111 0
38 41 36 40 31 44 43 -114 0
38 41 36 40 31 35 43 -112 0
38 41 36 40 31 35 43 -113 0
38 41 36 40 31 35 43 -111 0
38 41 36 40 31 35 43 -114 0
38 41 36 40 44 35 43 -112 0
38 41 36 40 44 35 43 -113 0
38 41 36 40 44 35 43 -111 0
38 41 36 40 44 35 43 -114 0
38 41 36 31 44 35 43 -112 0
38 41 36 31 44 35 43 -113 0
38 41 36 31 44 35 43 -111 0
38 41 36 31 44 35 43 -114 0
38 41 40 31 44 35 43 -112 0
38 41 40 31 44 35 43 -113 0
38 41 40 31 44 35 43 -111 0
38 41 40 31 44 35 43 -114 0
38 12 36 13 31 11 35 -67 0
38 12 36 13 31 11 35 -65 0
38 12 36 13 31 11 35 -68 0
38 12 36 13 31 11 35 -66 0
38 12 36 13 31 11 10 -67 0
38 12 36 13 31 11 10 -65 0
38 12 36 13 31 11 10 -68 0
38 12 36 13 31 11 10 -66 0
38 12 36 13 31 35 10 -67 0
38 12 36 13 31 35 10 -65 0
38 12 36 13 31 35 10 -68 0
38 12 36 13 31 35 10 -66 0
38 12 36 13 11 35 10 -67 0
38 12 36 13 11 35 10 -65 0
38 12 36 13 11 35 10 -68 0
38 12 36 13 11 35 10 -66 0
38 12 36 31 11 35 10 -67 0
38 12 36 31 11 35 10 -65 0
38 12 36 31 11 35 10 -68 0
38 12 36 31 11 35 10 -66 0
38 12 13 31 11 35 10 -67 0
38 12 13 31 11 35 10 -65 0
38 12 13 31 11 35 10 -68 0
38 12 13 31 11 35 10 -66 0
38 36 52 31 51 35 49 -115 0
38 36 52 31 51 35 49 -116 0
38 36 52 31 51 35 49 -118 0
38 36 52 31 51 35 49 -117 0
38 36 6 31 3 35 2 -34 0
38 36 6 31 3 35 2 -32 0
38 36 6 31 3 35 2 -33 0
38 36 6 31 3 35 2 -37 0
38 36 27 31 25 35 26 -97 0
38 36 27 31 25 35 26 -100 0
38 36 27 31 25 35 26 -98 0
38 36 27 31 25 35 26 -99 0
38 36 21 31 17 35 22 -85 0
38 36 21 31 17 35 22 -86 0
38 36 21 31 17 35 22 -83 0
38 36 21 31 17 35 22 -84 0
38 36 40 31 44 35 43 -112 0
38 36 40 31 44 35 43 -113 0
38 36 40 31 44 35 43 -111 0
38 36 40 31 44 35 43 -114 0
38 36 13 31 11 35 10 -67 0
38 36 13 31 11 35 10 -65 0
38 36 13 31 11 35 10 -68 0
38 36 13 31 11 35 10 -66 0
53 4 52 6 51 3 49 -54 0
53 4 52 6 51 3 49 -50 0
53 4 52 6 51 3 49 -48 0
53 4 52 6 51 3 49 -47 0
53 4 52 6 51 3 2 -54 0
53 4 52 6 51 3 2 -50 0
53 4 52 6 51 3 2 -48 0
53 4 52 6 51 3 2 -47 0
53 4 52 6 51 49 2 -54 0
53 4 52 6 51 49 2 -50 0
53 4 52 6 51 49 2 -48 0
53 4 52 6 51 49 2 -47 0
53 4 52 6 3 49 2 -54 0
53 4 52 6 3 49 2 -50 0
53 4 52 6 3 49 2 -48 0
53 4 52 6 3 49 2 -47 0
53 4 52 51 3 49 2 -54 0
53 4 52 51 3 49 2 -50 0
53 4 52 51 3 49 2 -48 0
53 4 52 51 3 49 2 -47 0
53 4 6 51 3 49 2 -54 0
53 4 6 51 3 49 2 -50 0
53 4 6 51 3 49 2 -48 0
53 4 6 51 3 49 2 -47 0
53 30 52 27 51 25 49 -106 0
53 30 52 27 51 25 49 -108 0
53 30 52 27 51 25 49 -107 0
53 30 52 27 51 25 49 -105 0
53 30 52 27 51 25 26 -106 0
53 30 52 27 51 25 26 -108 0
53 30 52 27 51 25 26 -107 0
53 30 52 27 51 25 26 -105 0
53 30 52 27 51 49 26 -106 0
53 30 52 27 51 49 26 -108 0
53 30 52 27 51 49 26 -107 0
53 30 52 27 51 49 26 -105 0
53 30 52 27 25 49 26 -106 0
53 30 52 27 25 49 26 -108 0
53 30 52 27 25 49 26 -107 0
53 30 52 27 25 49 26 -105 0
53 30 52 51 25 49 26 -106 0
53 30 52 51 25 49 26 -108 0
53 30 52 51 25 49 26 -107 0
53 30 52 51 25 49 26 -105 0
53 30 27 51 25 49 26 -106 0
53 30 27 51 25 49 26 -108 0
53 30 27 51 25 49 26 -107 0
53 30 27 51 25 49 26 -105 0
53 16 52 21 51 17 49 -94 0
53 16 52 21 51 17 49 -91 0
53 16 52 21 51 17 49 -92 0
53 16 52 21 51 17 49 -93 0
53 16 52 21 51 17 22 -94 0
53 16 52 21 51 17 22 -91 0
53 16 52 21 51 17 22 -92 0
53 16 52 21 51 17 22 -93 0
53 16 52 21 51 49 22 -94 0
53 16 52 21 51 49 22 -91 0
53 16 52 21 51 49 22 -92 0
53 16 52 21 51 49 22 -93 0
53 16 52 21 17 49 22 -94 0
53 16 52 21 17 49 22 -91 0
53 16 52 21 17 49 22 -92 0
53 16 52 21 17 49 22 -93 0
53 16 52 51 17 49 22 -94 0
53 16 52 51 17 49 22 -91 0
53 16 52 51 17 49 22 -92 0
53 16 52 51 17 49 22 -93 0
53 16 21 51 17 49 22 -94 0
53 16 21 51 17 49 22 -91 0
53 16 21 51 17 49 22 -92 0
53 16 21 51 17 49 22 -93 0
53 41 52 40 51 44 49 -123 0
53 41 52 40 51 44 49 -122 0
53 41 52 40 51 44 49 -124 0
53 41 52 40 51 44 49 -121 0
53 41 52 40 51 44 43 -123 0
53 41 52 40 51 44 43 -122 0
53 41 52 40 51 44 43 -124 0
53 41 52 40 51 44 43 -121 0
53 41 52 40 51 49 43 -123 0
53 41 52 40 51 49 43 -122 0
53 41 52 40 51 49 43 -124 0
53 41 52 40 51 49 43 -121 0
53 41 52 40 44 49 43 -123 0
53 41 52 40 44 49 43 -122 0
53 41 52 40 44 49 43 -124 0
53 41 52 40 44 49 43 -121 0
53 41 52 51 44 49 43 -123 0
53 41 52 51 44 49 43 -122 0
53 41 52 51 44 49 43 -124 0
53 41 52 51 44 49 43 -121 0
53 41 40 51 44 49 43 -123 0
53 41 40 51 44 49 43 -122 0
53 41 40 51 44 49 43 -124 0
53 41 40 51 44 49 43 -121 0
53 12 52 13 51 11 49 -74 0
53 12 52 13 51 11 49 -76 0
53 12 52 13 51 11 49 -75 0
53 12 52 13 51 11 49 -73 0
53 12 52 13 51 11 10 -74 0
53 12 52 13 51 11 10 -76 0
53 12 52 13 51 11 10 -75 0
53 12 52 13 51 11 10 -73 0
53 12 52 13 51 49 10 -74 0
53 12 52 13 51 49 10 -76 0
53 12 52 13 51 49 10 -75 0
53 12 52 13 51 49 10 -73 0
53 12 52 13 11 49 10 -74 0
53 12 52 13 11 49 10 -76 0
53 12 52 13 11 49 10 -75 0
53 12 52 13 11 49 10 -73 0
53 12 52 51 11 49 10 -74 0
53 12 52 51 11 49 10 -76 0
53 12 52 51 11 49 10 -75 0
53 12 52 51 11 49 10 -73 0
53 12 13 51 11 49 10 -74 0
53 12 13 51 11 49 10 -76 0
53 12 13 51 11 49 10 -75 0
53 12 13 51 11 49 10 -73 0
53 36 52 31 51 35 49 -115 0
53 36 52 31 51 35 49 -116 0
53 36 52 31 51 35 49 -118 0
53 36 52 31 51 35 49 -117 0
53 52 6 51 3 49 2 -54 0
53 52 6 51 3 49 2 -50 0
53 52 6 51 3 49 2 -48 0
53 52 6 51 3 49 2 -47 0
53 52 27 51 25 49 26 -106 0
53 52 27 51 25 49 26 -108 0
53 52 27 51 25 49 26 -107 0
53 52 27 51 25 49 26 -105 0
53 52 21 51 17 49 22 -94 0
53 52 21 51 17 49 22 -91 0
53 52 21 51 17 49 22 -92 0
53 52 21 51 17 49 22 -93 0
53 52 40 51 44 49 43 -123 0
53 52 40 51 44 49 43 -122 0
53 52 40 51 44 49 43 -124 0
53 52 40 51 44 49 43 -121 0
53 52 13 51 11 49 10 -74 0
53 52 13 51 11 49 10 -76 0
53 52 13 51 11 49 10 -75 0
53 52 13 51 11 49 10 -73 0
4 30 6 27 3 25 2 -23 0
4 30 6 27 3 25 2 -24 0
4 30 6 27 3 25 2 -29 0
4 30 6 27 3 25 2 -28 0
4 30 6 27 3 25 26 -23 0
4 30 6 27 3 25 26 -24 0
4 30 6 27 3 25 26 -29 0
4 30 6 27 3 25 26 -28 0
4 30 6 27 3 2 26 -23 0
4 30 6 27 3 2 26 -24 0
4 30 6 27 3 2 26 -29 0
4 30 6 27 3 2 26 -28 0
4 30 6 27 25 2 26 -23 0
4 30 6 27 25 2 26 -24 0
4 30 6 27 25 2 26 -29 0
4 30 6 27 25 2 26 -28 0
4 30 6 3 25 2 26 -23 0
4 30 6 3 25 2 26 -24 0
4 30 6 3 25 2 26 -29 0
4 30 6 3 25 2 26 -28 0
4 30 27 3 25 2 26 -23 0
4 30 27 3 25 2 26 -24 0
4 30 27 3 25 2 26 -29 0
4 30 27 3 25 2 26 -28 0
4 16 6 21 3 17 2 -20 0
4 16 6 21 3 17 2 -19 0
4 16 6 21 3 17 2 -18 0
4 16 6 21 3 17 2 -15 0
4 16 6 21 3 17 22 -20 0
4 16 6 21 3 17 22 -19 0
4 16 6 21 3 17 22 -18 0
4 16 6 21 3 17 22 -15 0
4 16 6 21 3 2 22 -20 0
4 16 6 21 3 2 22 -19 0
4 16 6 21 3 2 22 -18 0
4 16 6 21 3 2 22 -15 0
4 16 6 21 17 2 22 -20 0
4 16 6 21 17 2 22 -19 0
4 16 6 21 17 2 22 -18 0
4 16 6 21 17 2 22 -15 0
4 16 6 3 17 2 22 -20 0
4 16 6 3 17 2 22 -19 0
4 16 6 3 17 2 22 -18 0
4 16 6 3 17 2 22 -15 0
4 16 21 3 17 2 22 -20 0
4 16 21 3 17 2 22 -19 0
4 16 21 3 17 2 22 -18 0
4 16 21 3 17 2 22 -15 0
4 41 6 40 3 44 2 -39 0
4 41 6 40 3 44 2 -45 0
4 41 6 40 3 44 2 -46 0
4 41 6 40 3 44 2 -42 0
4 41 6 40 3 44 43 -39 0
4 41 6 40 3 44 43 -45 0
4 41 6 40 3 44 43 -46 0
4 41 6 40 3 44 43 -42 0
4 41 6 40 3 2 43 -39 0
4 41 6 40 3 2 43 -45 0
4 41 6 40 3 2 43 -46 0
4 41 6 40 3 2 43 -42 0
4 41 6 40 44 2 43 -39 0
4 41 6 40 44 2 43 -45 0
4 41 6 40 44 2 43 -46 0
4 41 6 40 44 2 43 -42 0
4 41 6 3 44 2 43 -39 0
4 41 6 3 44 2 43 -45 0
4 41 6 3 44 2 43 -46 0
4 41 6 3 44 2 43 -42 0
4 41 40 3 44 2 43 -39 0
4 41 40 3 44 2 43 -45 0
4 41 40 3 44 2 43 -46 0
4 41 40 3 44 2 43 -42 0
4 12 6 13 3 11 2 -8 0
4 12 6 13 3 11 2 -14 0
4 12 6 13 3 11 2 -7 0
4 12 6 13 3 11 2 -9 0
4 12 6 13 3 11 10 -8 0
4 12 6 13 3 11 10 -14 0
4 12 6 13 3 11 10 -7 0
4 12 6 13 3 11 10 -9 0
4 12 6 13 3 2 10 -8 0
4 12 6 13 3 2 10 -14 0
4 12 6 13 3 2 10 -7 0
4 12 6 13 3 2 10 -9 0
4 12 6 13 11 2 10 -8 0
4 12 6 13 11 2 10 -14 0
4 12 6 13 11 2 10 -7 0
4 12 6 13 11 2 10 -9 0
4 12 6 3 11 2 10 -8 0
4 12 6 3 11 2 10 -14 0
4 12 6 3 11 2 10 -7 0
4 12 6 3 11 2 10 -9 0
4 12 13 3 11 2 10 -8 0
4 12 13 3 11 2 10 -14 0
4 12 13 3 11 2 10 -7 0
4 12 13 3 11 2 10 -9 0
4 36 6 31 3 35 2 -34 0
4 36 6 31 3 35 2 -32 0
4 36 6 31 3 35 2 -33 0
4 36 6 31 3 35 2 -37 0
4 52 6 51 3 49 2 -54 0
4 52 6 51 3 49 2 -50 0
4 52 6 51 3 49 2 -48 0
4 52 6 51 3 49 2 -47 0
4 6 27 3 25 2 26 -23 0
4 6 27 3 25 2 26 -24 0
4 6 27 3 25 2 26 -29 0
4 6 27 3 25 2 26 -28 0
4 6 21 3 17 2 22 -20 0
4 6 21 3 17 2 22 -19 0
4 6 21 3 17 2 22 -18 0
4 6 21 3 17 2 22 -15 0
4 6 40 3 44 2 43 -39 0
4 6 40 3 44 2 43 -45 0
4 6 40 3 44 2 43 -46 0
4 6 40 3 44 2 43 -42 0
4 6 13 3 11 2 10 -8 0
4 6 13 3 11 2 10 -14 0
4 6 13 3 11 2 10 -7 0
4 6 13 3 11 2 10 -9 0
30 16 27 21 25 17 26 -80 0
30 16 27 21 25 17 26 -81 0
30 16 27 21 25 17 26 -79 0
30 16 27 21 25 17 26 -82 0
30 16 27 21 25 17 22 -80 0
30 16 27 21 25 17 22 -81 0
30 16 27 21 25 17 22 -79 0
30 16 27 21 25 17 22 -82 0
30 16 27 21 25 26 22 -80 0
30 16 27 21 25 26 22 -81 0
30 16 27 21 25 26 22 -79 0
30 16 27 21 25 26 22 -82 0
30 16 27 21 17 26 22 -80 0
30 16 27 21 17 26 22 -81 0
30 16 27 21 17 26 22 -79 0
30 16 27 21 17 26 22 -82 0
30 16 27 25 17 26 22 -80 0
30 16 27 25 17 26 22 -81 0
30 16 27 25 17 26 22 -79 0
30 16 27 25 17 26 22 -82 0
30 16 21 25 17 26 22 -80 0
30 16 21 25 17 26 22 -81 0
30 16 21 25 17 26 22 -79 0
30 16 21 25 17 26 22 -82 0
30 41 27 40 25 44 26 -103 0
30 41 27 40 25 44 26 -101 0
30 41 27 40 25 44 26 -102 0
30 41 27 40 25 44 26 -104 0
30 41 27 40 25 44 43 -103 0
30 41 27 40 25 44 43 -101 0
30 41 27 40 25 44 43 -102 0
30 41 27 40 25 44 43 -104 0
30 41 27 40 25 26 43 -103 0
30 41 27 40 25 26 43 -101 0
30 41 27 40 25 26 43 -102 0
30 41 27 40 25 26 43 -104 0
30 41 27 40 44 26 43 -103 0
30 41 27 40 44 26 43 -101 0
30 41 27 40 44 26 43 -102 0
30 41 27 40 44 26 43 -104 0
30 41 27 25 44 26 43 -103 0
30 41 27 25 44 26 43 -101 0
30 41 27 25 44 26 43 -102 0
30 41 27 25 44 26 43 -104 0
30 41 40 25 44 26 43 -103 0
30 41 40 25 44 26 43 -101 0
30 41 40 25 44 26 43 -102 0
30 41 40 25 44 26 43 -104 0
30 12 27 13 25 11 26 -61 0
30 12 27 13 25 11 26 -63 0
30 12 27 13 25 11 26 -64 0
30 12 27 13 25 11 26 -62 0
30 12 27 13 25 11 10 -61 0
30 12 27 13 25 11 10 -63 0
30 12 27 13 25 11 10 -64 0
30 12 27 13 25 11 10 -62 0
30 12 27 13 25 26 10 -61 0
30 12 27 13 25 26 10 -63 0
30 12 27 13 25 26 10 -64 0
30 12 27 13 25 26 10 -62 0
30 12 27 13 11 26 10 -61 0
30 12 27 13 11 26 10 -63 0
30 12 27 13 11 26 10 -64 0
30 12 27 13 11 26 10 -62 0
30 12 27 25 11 26 10 -61 0
30 12 27 25 11 26 10 -63 0
30 12 27 25 11 26 10 -64 0
30 12 27 25 11 26 10 -62 0
30 12 13 25 11 26 10 -61 0
30 12 13 25 11 26 10 -63 0
30 12 13 25 11 26 10 -64 0
30 12 13 25 11 26 10 -62 0
30 36 27 31 25 35 26 -97 0
30 36 27 31 25 35 26 -100 0
30 36 27 31 25 35 26 -98 0
30 36 27 31 25 35 26 -99 0
30 52 27 51 25 49 26 -106 0
30 52 27 51 25 49 26 -108 0
30 52 27 51 25 49 26 -107 0
30 52 27 51 25 49 26 -105 0
30 6 27 3 25 2 26 -23 0
30 6 27 3 25 2 26 -24 0
30 6 27 3 25 2 26 -29 0
30 6 27 3 25 2 26 -28 0
30 27 21 25 17 26 22 -80 0
30 27 21 25 17 26 22 -81 0
30 27 21 25 17 26 22 -79 0
30 27 21 25 17 26 22 -82 0
30 27 40 25 44 26 43 -103 0
30 27 40 25 44 26 43 -101 0
30 27 40 25 44 26 43 -102 0
30 27 40 25 44 26 43 -104 0
30 27 13 25 11 26 10 -61 0
30 27 13 25 11 26 10 -63 0
30 27 13 25 11 26 10 -64 0
30 27 13 25 11 26 10 -62 0
16 41 21 40 17 44 22 -87 0
16 41 21 40 17 44 22 -88 0
16 41 21 40 17 44 22 -90 0
16 41 21 40 17 44 22 -89 0
16 41 21 40 17 44 43 -87 0
16 41 21 40 17 44 43 -88 0
16 41 21 40 17 44 43 -90 0
16 41 21 40 17 44 43 -89 0
16 41 21 40 17 22 43 -87 0
16 41 21 40 17 22 43 -88 0
16 41 21 40 17 22 43 -90 0
16 41 21 40 17 22 43 -89 0
16 41 21 40 44 22 43 -87 0
16 41 21 40 44 22 43 -88 0
16 41 21 40 44 22 43 -90 0
16 41 21 40 44 22 43 -89 0
16 41 21 17 44 22 43 -87 0
16 41 21 17 44 22 43 -88 0
16 41 21 17 44 22 43 -90 0
16 41 21 17 44 22 43 -89 0
16 41 40 17 44 22 43 -87 0
16 41 40 17 44 22 43 -88 0
16 41 40 17 44 22 43 -90 0
16 41 40 17 44 22 43 -89 0
16 12 21 13 17 11 22 -59 0
16 12 21 13 17 11 22 -60 0
16 12 21 13 17 11 22 -58 0
16 12 21 13 17 11 22 -57 0
16 12 21 13 17 11 10 -59 0
16 12 21 13 17 11 10 -60 0
16 12 21 13 17 11 10 -58 0
16 12 21 13 17 11 10 -57 0
16 12 21 13 17 22 10 -59 0
16 12 21 13 17 22 10 -60 0
16 12 21 13 17 22 10 -58 0
16 12 21 13 17 22 10 -57 0
16 12 21 13 11 22 10 -59 0
16 12 21 13 11 22 10 -60 0
16 12 21 13 11 22 10 -58 0
16 12 21 13 11 22 10 -57 0
16 12 21 17 11 22 10 -59 0
16 12 21 17 11 22 10 -60 0
16 12 21 17 11 22 10 -58 0
16 12 21 17 11 22 10 -57 0
16 12 13 17 11 22 10 -59 0
16 12 13 17 11 22 10 -60 0
16 12 13 17 11 22 10 -58 0
16 12 13 17 11 22 10 -57 0
16 36 21 31 17 35 22 -85 0
16 36 21 31 17 35 22 -86 0
16 36 21 31 17 35 22 -83 0
16 36 21 31 17 35 22 -84 0
16 52 21 51 17 49 22 -94 0
16 52 21 51 17 49 22 -91 0
16 52 21 51 17 49 22 -92 0
16 52 21 51 17 49 22 -93 0
16 6 21 3 17 2 22 -20 0
16 6 21 3 17 2 22 -19 0
16 6 21 3 17 2 22 -18 0
16 6 21 3 17 2 22 -15 0
16 27 21 25 17 26 22 -80 0
16 27 21 25 17 26 22 -81 0
16 27 21 25 17 26 22 -79 0
16 27 21 25 17 26 22 -82 0
16 21 40 17 44 22 43 -87 0
16 21 40 17 44 22 43 -88 0
16 21 40 17 44 22 43 -90 0
16 21 40 17 44 22 43 -89 0
16 21 13 17 11 22 10 -59 0
16 21 13 17 11 22 10 -60 0
16 21 13 17 11 22 10 -58 0
16 21 13 17 11 22 10 -57 0
41 12 40 13 44 11 43 -69 0
41 12 40 13 44 11 43 -71 0
41 12 40 13 44 11 43 -72 0
41 12 40 13 44 11 43 -70 0
41 12 40 13 44 11 10 -69 0
41 12 40 13 44 11 10 -71 0
41 12 40 13 44 11 10 -72 0
41 12 40 13 44 11 10 -70 0
41 12 40 13 44 43 10 -69 0
41 12 40 13 44 43 10 -71 0
41 12 40 13 44 43 10 -72 0
41 12 40 13 44 43 10 -70 0
41 12 40 13 11 43 10 -69 0
41 12 40 13 11 43 10 -71 0
41 12 40 13 11 43 10 -72 0
41 12 40 13 11 43 10 -70 0
41 12 40 44 11 43 10 -69 0
41 12 40 44 11 43 10 -71 0
41 12 40 44 11 43 10 -72 0
41 12 40 44 11 43 10 -70 0
41 12 13 44 11 43 10 -69 0
41 12 13 44 11 43 10 -71 0
41 12 13 44 11 43 10 -72 0
41 12 13 44 11 43 10 -70 0
41 36 40 31 44 35 43 -112 0
41 36 40 31 44 35 43 -113 0
41 36 40 31 44 35 43 -111 0
41 36 40 31 44 35 43 -114 0
41 52 40 51 44 49 43 -123 0
41 52 40 51 44 49 43 -122 0
41 52 40 51 44 49 43 -124 0
41 52 40 51 44 49 43 -121 0
41 6 40 3 44 2 43 -39 0
41 6 40 3 44 2 43 -45 0
41 6 40 3 44 2 43 -46 0
41 6 40 3 44 2 43 -42 0
41 27 40 25 44 26 43 -103 0
41 27 40 25 44 26 43 -101 0
41 27 40 25 44 26 43 -102 0
41 27 40 25 44 26 43 -104 0
41 21 40 17 44 22 43 -87 0
41 21 40 17 44 22 43 -88 0
41 21 40 17 44 22 43 -90 0
41 21 40 17 44 22 43 -89 0
41 40 13 44 11 43 10 -69 0
41 40 13 44 11 43 10 -71 0
41 40 13 44 11 43 10 -72 0
41 40 13 44 11 43 10 -70 0
12 36 13 31 11 35 10 -67 0
12 36 13 31 11 35 10 -65 0
12 36 13 31 11 35 10 -68 0
12 36 13 31 11 35 10 -66 0
12 52 13 51 11 49 10 -74 0
12 52 13 51 11 49 10 -76 0
12 52 13 51 11 49 10 -75 0
12 52 13 51 11 49 10 -73 0
12 6 13 3 11 2 10 -8 0
12 6 13 3 11 2 10 -14 0
12 6 13 3 11 2 10 -7 0
12 6 13 3 11 2 10 -9 0
12 27 13 25 11 26 10 -61 0
12 27 13 25 11 26 10 -63 0
12 27 13 25 11 26 10 -64 0
12 27 13 25 11 26 10 -62 0
12 21 13 17 11 22 10 -59 0
12 21 13 17 11 22 10 -60 0
12 21 13 17 11 22 10 -58 0
12 21 13 17 11 22 10 -57 0
12 40 13 44 11 43 10 -69 0
12 40 13 44 11 43 10 -71 0
12 40 13 44 11 43 10 -72 0
12 40 13 44 11 43 10 -70 0
38 53 36 52 31 51 35 49 -115 0
38 53 36 52 31 51 35 49 -116 0
38 53 36 52 31 51 35 49 -118 0
38 53 36 52 31 51 35 49 -117 0
38 4 36 6 31 3 35 2 -34 0
38 4 36 6 31 3 35 2 -32 0
38 4 36 6 31 3 35 2 -33 0
38 4 36 6 31 3 35 2 -37 0
38 30 36 27 31 25 35 26 -97 0
38 30 36 27 31 25 35 26 -100 0
38 30 36 27 31 25 35 26 -98 0
38 30 36 27 31 25 35 26 -99 0
38 16 36 21 31 17 35 22 -85 0
38 16 36 21 31 17 35 22 -86 0
38 16 36 21 31 17 35 22 -83 0
38 16 36 21 31 17 35 22 -84 0
38 41 36 40 31 44 35 43 -112 0
38 41 36 40 31 44 35 43 -113 0
38 41 36 40 31 44 35 43 -111 0
38 41 36 40 31 44 35 43 -114 0
38 12 36 13 31 11 35 10 -67 0
38 12 36 13 31 11 35 10 -65 0
38 12 36 13 31 11 35 10 -68 0
38 12 36 13 31 11 35 10 -66 0
53 4 52 6 51 3 49 2 -54 0
53 4 52 6 51 3 49 2 -50 0
53 4 52 6 51 3 49 2 -48 0
53 4 52 6 51 3 49 2 -47 0
53 30 52 27 51 25 49 26 -106 0
53 30 52 27 51 25 49 26 -108 0
53 30 52 27 51 25 49 26 -107 0
53 30 52 27 51 25 49 26 -105 0
53 16 52 21 51 17 49 22 -94 0
53 16 52 21 51 17 49 22 -91 0
53 16 52 21 51 17 49 22 -92 0
53 16 52 21 51 17 49 22 -93 0
53 41 52 40 51 44 49 43 -123 0
53 41 52 40 51 44 49 43 -122 0
53 41 52 40 51 44 49 43 -124 0
53 41 52 40 51 44 49 43 -121 0
53 12 52 13 51 11 49 10 -74 0
53 12 52 13 51 11 49 10 -76 0
53 12 52 13 51 11 49 10 -75 0
53 12 52 13 51 11 49 10 -73 0
4 30 6 27 3 25 2 26 -23 0
4 30 6 27 3 25 2 26 -24 0
4 30 6 27 3 25 2 26 -29 0
4 30 6 27 3 25 2 26 -28 0
4 16 6 21 3 17 2 22 -20 0
4 16 6 21 3 17 2 22 -19 0
4 16 6 21 3 17 2 22 -18 0
4 16 6 21 3 17 2 22 -15 0
4 41 6 40 3 44 2 43 -39 0
4 41 6 40 3 44 2 43 -45 0
4 41 6 40 3 44 2 43 -46 0
4 41 6 40 3 44 2 43 -42 0
4 12 6 13 3 11 2 10 -8 0
4 12 6 13 3 11 2 10 -14 0
4 12 6 13 3 11 2 10 -7 0
4 12 6 13 3 11 2 10 -9 0
30 16 27 21 25 17 26 22 -80 0
30 16 27 21 25 17 26 22 -81 0
30 16 27 21 25 17 26 22 -79 0
30 16 27 21 25 17 26 22 -82 0
30 41 27 40 25 44 26 43 -103 0
30 41 27 40 25 44 26 43 -101 0
30 41 27 40 25 44 26 43 -102 0
30 41 27 40 25 44 26 43 -104 0
30 12 27 13 25 11 26 10 -61 0
30 12 27 13 25 11 26 10 -63 0
30 12 27 13 25 11 26 10 -64 0
30 12 27 13 25 11 26 10 -62 0
16 41 21 40 17 44 22 43 -87 0
16 41 21 40 17 44 22 43 -88 0
16 41 21 40 17 44 22 43 -90 0
16 41 21 40 17 44 22 43 -89 0
16 12 21 13 17 11 22 10 -59 0
16 12 21 13 17 11 22 10 -60 0
16 12 21 13 17 11 22 10 -58 0
16 12 21 13 17 11 22 10 -57 0
41 12 40 13 44 11 43 10 -69 0
41 12 40 13 44 11 43 10 -71 0
41 12 40 13 44 11 43 10 -72 0
41 12 40 13 44 11 43 10 -70 0
