c E1(2,2) U3(2) E2(2,2) U2(2) U4(2) U1(2) U2(7) E2(2,7) U4(7) E1(7,2) E1(2,7) U3(7) E2(7,2) U1(7) U1(0) E2(0,2) E2(2,0) U4(0) U2(0) E1(2,0) U3(0) E1(0,2) U2(5) E1(5,2) U4(5) E1(2,5) U1(5) E2(5,2) E2(2,5) U3(5) U2(1) E1(1,2) U4(1) E1(2,1) U3(1) E2(1,2) U1(1) E2(2,1) E2(2,4) U2(4) E1(4,2) U3(4) U4(4) U1(4) E1(2,4) E2(4,2) E1(2,3) E2(3,2) E1(3,2) U3(3) U2(3) U1(3) U4(3) E2(2,3) E2(2,6) E1(6,2) U3(6) E2(6,2) U2(6) U1(6) U4(6) E1(2,6) E2(7,7) E1(7,7) E2(0,7) E1(7,0) E2(7,0) E1(0,7) E1(7,5) E2(7,5) E1(5,7) E2(5,7) E2(1,7) E1(1,7) E2(7,1) E1(7,1) E1(7,4) E2(7,4) E2(4,7) E1(4,7) E1(3,7) E2(3,7) E1(7,3) E2(7,3) E1(7,6) E2(7,6) E1(6,7) E2(6,7) E1(0,0) E2(0,0) E2(0,5) E1(5,0) E1(0,5) E2(5,0) E1(0,1) E2(0,1) E2(1,0) E1(1,0) E1(4,0) E1(0,4) E2(4,0) E2(0,4) E1(3,0) E2(0,3) E2(3,0) E1(0,3) E2(6,0) E1(6,0) E1(0,6) E2(0,6) E1(5,5) E2(5,5) E2(5,1) E2(1,5) E1(5,1) E1(1,5) E1(5,4) E1(4,5) E2(4,5) E2(5,4) E2(5,3) E1(3,5) E2(3,5) E1(5,3) E1(6,5) E2(6,5) E1(5,6) E2(5,6) E1(1,1) E2(1,1) E1(4,1) E1(1,4) E2(4,1) E2(1,4) E1(3,1) E1(1,3) E2(3,1) E2(1,3) E1(6,1) E1(1,6) E2(6,1) E2(1,6) E1(4,4) E2(4,4) E1(3,4) E2(3,4) E2(4,3) E1(4,3) E1(6,4) E1(4,6) E2(4,6) E2(6,4) E2(3,3) E1(3,3) E2(3,6) E1(6,3) E2(6,3) E1(3,6) E1(6,6) E2(6,6)
c 1 2 3 4 5 6 7 8 9 10 11 12 13 14 15 16 17 18 19 20 21 22 23 24 25 26 27 28 29 30 31 32 33 34 35 36 37 38 39 40 41 42 43 44 45 46 47 48 49 50 51 52 53 54 55 56 57 58 59 60 61 62 63 64 65 66 67 68 69 70 71 72 73 74 75 76 77 78 79 80 81 82 83 84 85 86 87 88 89 90 91 92 93 94 95 96 97 98 99 100 101 102 103 104 105 106 107 108 109 110 111 112 113 114 115 116 117 118 119 120 121 122 123 124 125 126 127 128 129 130 131 132 133 134 135 136 137 138 139 140 141 142 143 144 145 146 147 148 149 150 151 152 153 154 155 156 157 158 159 160
p cnf 160 4072
-15 -19 0
-15 -21 0
-15 -18 0
-37 -31 0
-37 -35 0
-37 -33 0
-6 -4 0
-6 -2 0
-6 -5 0
-52 -51 0
-52 -50 0
-52 -53 0
-44 -40 0
-44 -42 0
-44 -43 0
-27 -23 0
-27 -30 0
-27 -25 0
-60 -59 0
-60 -57 0
-60 -61 0
-14 -7 0
-14 -12 0
-14 -9 0
-19 -21 0
-19 -18 0
-31 -35 0
-31 -33 0
-4 -2 0
-4 -5 0
-51 -50 0
-51 -53 0
-40 -42 0
-40 -43 0
-23 -30 0
-23 -25 0
-59 -57 0
-59 -61 0
-7 -12 0
-7 -9 0
-21 -18 0
-35 -33 0
-2 -5 0
-50 -53 0
-42 -43 0
-30 -25 0
-57 -61 0
-12 -9 0
15 19 21 18 0
37 31 35 33 0
6 4 2 5 0
52 51 50 53 0
44 40 42 43 0
27 23 30 25 0
60 59 57 61 0
14 7 12 9 0
15 19 21 -89 0
15 19 21 -90 0
15 19 18 -89 0
15 19 18 -90 0
15 21 18 -89 0
15 21 18 -90 0
37 31 35 -129 0
37 31 35 -130 0
37 31 33 -129 0
37 31 33 -130 0
37 35 33 -129 0
37 35 33 -130 0
6 4 2 -1 0
6 4 2 -3 0
6 4 5 -1 0
6 4 5 -3 0
6 2 5 -1 0
6 2 5 -3 0
52 51 50 -154 0
52 51 50 -153 0
52 51 53 -154 0
52 51 53 -153 0
52 50 53 -154 0
52 50 53 -153 0
44 40 42 -143 0
44 40 42 -144 0
44 40 43 -143 0
44 40 43 -144 0
44 42 43 -143 0
44 42 43 -144 0
27 23 30 -111 0
27 23 30 -112 0
27 23 25 -111 0
27 23 25 -112 0
27 30 25 -111 0
27 30 25 -112 0
60 59 57 -159 0
60 59 57 -160 0
60 59 61 -159 0
60 59 61 -160 0
60 57 61 -159 0
60 57 61 -160 0
14 7 12 -64 0
14 7 12 -63 0
14 7 9 -64 0
14 7 9 -63 0
14 12 9 -64 0
14 12 9 -63 0
19 21 18 -89 0
19 21 18 -90 0
31 35 33 -129 0
31 35 33 -130 0
4 2 5 -1 0
4 2 5 -3 0
51 50 53 -154 0
51 50 53 -153 0
40 42 43 -143 0
40 42 43 -144 0
23 30 25 -111 0
23 30 25 -112 0
59 57 61 -159 0
59 57 61 -160 0
7 12 9 -64 0
7 12 9 -63 0
15 19 21 18 -89 0
15 19 21 18 -95 0
15 19 21 18 -22 0
15 19 21 18 -106 0
15 19 21 18 -100 0
15 19 21 18 -93 0
15 19 21 18 -109 0
15 19 21 18 -68 0
15 19 21 18 -98 0
15 19 21 18 -20 0
15 19 21 18 -103 0
15 19 21 18 -99 0
15 19 21 18 -92 0
15 19 21 18 -108 0
15 19 21 18 -66 0
15 19 21 18 -90 0
15 19 21 18 -96 0
15 19 21 18 -16 0
15 19 21 18 -104 0
15 19 21 18 -102 0
15 19 21 18 -91 0
15 19 21 18 -110 0
15 19 21 18 -65 0
15 19 21 18 -97 0
15 19 21 18 -17 0
15 19 21 18 -105 0
15 19 21 18 -101 0
15 19 21 18 -94 0
15 19 21 18 -107 0
15 19 21 18 -67 0
37 31 35 33 -95 0
37 31 35 33 -98 0
37 31 35 33 -129 0
37 31 35 33 -32 0
37 31 35 33 -136 0
37 31 35 33 -132 0
37 31 35 33 -116 0
37 31 35 33 -140 0
37 31 35 33 -74 0
37 31 35 33 -34 0
37 31 35 33 -135 0
37 31 35 33 -131 0
37 31 35 33 -115 0
37 31 35 33 -139 0
37 31 35 33 -76 0
37 31 35 33 -96 0
37 31 35 33 -97 0
37 31 35 33 -130 0
37 31 35 33 -36 0
37 31 35 33 -138 0
37 31 35 33 -134 0
37 31 35 33 -114 0
37 31 35 33 -142 0
37 31 35 33 -73 0
37 31 35 33 -38 0
37 31 35 33 -137 0
37 31 35 33 -133 0
37 31 35 33 -113 0
37 31 35 33 -141 0
37 31 35 33 -75 0
6 4 2 5 -22 0
6 4 2 5 -32 0
6 4 2 5 -20 0
6 4 2 5 -34 0
6 4 2 5 -1 0
6 4 2 5 -47 0
6 4 2 5 -45 0
6 4 2 5 -26 0
6 4 2 5 -62 0
6 4 2 5 -11 0
6 4 2 5 -49 0
6 4 2 5 -41 0
6 4 2 5 -24 0
6 4 2 5 -56 0
6 4 2 5 -10 0
6 4 2 5 -16 0
6 4 2 5 -36 0
6 4 2 5 -17 0
6 4 2 5 -38 0
6 4 2 5 -3 0
6 4 2 5 -54 0
6 4 2 5 -39 0
6 4 2 5 -29 0
6 4 2 5 -55 0
6 4 2 5 -8 0
6 4 2 5 -48 0
6 4 2 5 -46 0
6 4 2 5 -28 0
6 4 2 5 -58 0
6 4 2 5 -13 0
52 51 50 53 -106 0
52 51 50 53 -136 0
52 51 50 53 -47 0
52 51 50 53 -103 0
52 51 50 53 -135 0
52 51 50 53 -49 0
52 51 50 53 -154 0
52 51 50 53 -145 0
52 51 50 53 -122 0
52 51 50 53 -158 0
52 51 50 53 -81 0
52 51 50 53 -148 0
52 51 50 53 -124 0
52 51 50 53 -156 0
52 51 50 53 -83 0
52 51 50 53 -104 0
52 51 50 53 -138 0
52 51 50 53 -54 0
52 51 50 53 -105 0
52 51 50 53 -137 0
52 51 50 53 -48 0
52 51 50 53 -153 0
52 51 50 53 -146 0
52 51 50 53 -123 0
52 51 50 53 -155 0
52 51 50 53 -82 0
52 51 50 53 -147 0
52 51 50 53 -121 0
52 51 50 53 -157 0
52 51 50 53 -84 0
44 40 42 43 -100 0
44 40 42 43 -132 0
44 40 42 43 -45 0
44 40 42 43 -145 0
44 40 42 43 -99 0
44 40 42 43 -131 0
44 40 42 43 -41 0
44 40 42 43 -148 0
44 40 42 43 -143 0
44 40 42 43 -118 0
44 40 42 43 -150 0
44 40 42 43 -80 0
44 40 42 43 -117 0
44 40 42 43 -149 0
44 40 42 43 -77 0
44 40 42 43 -102 0
44 40 42 43 -134 0
44 40 42 43 -39 0
44 40 42 43 -146 0
44 40 42 43 -101 0
44 40 42 43 -133 0
44 40 42 43 -46 0
44 40 42 43 -147 0
44 40 42 43 -144 0
44 40 42 43 -119 0
44 40 42 43 -151 0
44 40 42 43 -79 0
44 40 42 43 -120 0
44 40 42 43 -152 0
44 40 42 43 -78 0
27 23 30 25 -93 0
27 23 30 25 -116 0
27 23 30 25 -26 0
27 23 30 25 -122 0
27 23 30 25 -118 0
27 23 30 25 -92 0
27 23 30 25 -115 0
27 23 30 25 -24 0
27 23 30 25 -124 0
27 23 30 25 -117 0
27 23 30 25 -111 0
27 23 30 25 -127 0
27 23 30 25 -71 0
27 23 30 25 -125 0
27 23 30 25 -69 0
27 23 30 25 -91 0
27 23 30 25 -114 0
27 23 30 25 -29 0
27 23 30 25 -123 0
27 23 30 25 -119 0
27 23 30 25 -94 0
27 23 30 25 -113 0
27 23 30 25 -28 0
27 23 30 25 -121 0
27 23 30 25 -120 0
27 23 30 25 -112 0
27 23 30 25 -128 0
27 23 30 25 -72 0
27 23 30 25 -126 0
27 23 30 25 -70 0
60 59 57 61 -109 0
60 59 57 61 -140 0
60 59 57 61 -62 0
60 59 57 61 -158 0
60 59 57 61 -150 0
60 59 57 61 -127 0
60 59 57 61 -108 0
60 59 57 61 -139 0
60 59 57 61 -56 0
60 59 57 61 -156 0
60 59 57 61 -149 0
60 59 57 61 -125 0
60 59 57 61 -159 0
60 59 57 61 -87 0
60 59 57 61 -85 0
60 59 57 61 -110 0
60 59 57 61 -142 0
60 59 57 61 -55 0
60 59 57 61 -155 0
60 59 57 61 -151 0
60 59 57 61 -128 0
60 59 57 61 -107 0
60 59 57 61 -141 0
60 59 57 61 -58 0
60 59 57 61 -157 0
60 59 57 61 -152 0
60 59 57 61 -126 0
60 59 57 61 -160 0
60 59 57 61 -88 0
60 59 57 61 -86 0
14 7 12 9 -68 0
14 7 12 9 -74 0
14 7 12 9 -11 0
14 7 12 9 -81 0
14 7 12 9 -80 0
14 7 12 9 -71 0
14 7 12 9 -87 0
14 7 12 9 -66 0
14 7 12 9 -76 0
14 7 12 9 -10 0
14 7 12 9 -83 0
14 7 12 9 -77 0
14 7 12 9 -69 0
14 7 12 9 -85 0
14 7 12 9 -64 0
14 7 12 9 -65 0
14 7 12 9 -73 0
14 7 12 9 -8 0
14 7 12 9 -82 0
14 7 12 9 -79 0
14 7 12 9 -72 0
14 7 12 9 -88 0
14 7 12 9 -67 0
14 7 12 9 -75 0
14 7 12 9 -13 0
14 7 12 9 -84 0
14 7 12 9 -78 0
14 7 12 9 -70 0
14 7 12 9 -86 0
14 7 12 9 -63 0
15 37 19 21 18 -95 0
15 37 19 21 18 -98 0
15 37 19 21 18 -96 0
15 37 19 21 18 -97 0
15 37 31 35 33 -95 0
15 37 31 35 33 -98 0
15 37 31 35 33 -96 0
15 37 31 35 33 -97 0
15 6 19 21 18 -22 0
15 6 19 21 18 -20 0
15 6 19 21 18 -16 0
15 6 19 21 18 -17 0
15 6 4 2 5 -22 0
15 6 4 2 5 -20 0
15 6 4 2 5 -16 0
15 6 4 2 5 -17 0
15 52 19 21 18 -106 0
15 52 19 21 18 -103 0
15 52 19 21 18 -104 0
15 52 19 21 18 -105 0
15 52 51 50 53 -106 0
15 52 51 50 53 -103 0
15 52 51 50 53 -104 0
15 52 51 50 53 -105 0
15 44 19 21 18 -100 0
15 44 19 21 18 -99 0
15 44 19 21 18 -102 0
15 44 19 21 18 -101 0
15 44 40 42 43 -100 0
15 44 40 42 43 -99 0
15 44 40 42 43 -102 0
15 44 40 42 43 -101 0
15 27 19 21 18 -93 0
15 27 19 21 18 -92 0
15 27 19 21 18 -91 0
15 27 19 21 18 -94 0
15 27 23 30 25 -93 0
15 27 23 30 25 -92 0
15 27 23 30 25 -91 0
15 27 23 30 25 -94 0
15 60 19 21 18 -109 0
15 60 19 21 18 -108 0
15 60 19 21 18 -110 0
15 60 19 21 18 -107 0
15 60 59 57 61 -109 0
15 60 59 57 61 -108 0
15 60 59 57 61 -110 0
15 60 59 57 61 -107 0
15 14 19 21 18 -68 0
15 14 19 21 18 -66 0
15 14 19 21 18 -65 0
15 14 19 21 18 -67 0
15 14 7 12 9 -68 0
15 14 7 12 9 -66 0
15 14 7 12 9 -65 0
15 14 7 12 9 -67 0
15 19 31 21 18 -95 0
15 19 31 21 18 -98 0
15 19 31 21 18 -96 0
15 19 31 21 18 -97 0
15 19 4 21 18 -22 0
15 19 4 21 18 -20 0
15 19 4 21 18 -16 0
15 19 4 21 18 -17 0
15 19 51 21 18 -106 0
15 19 51 21 18 -103 0
15 19 51 21 18 -104 0
15 19 51 21 18 -105 0
15 19 40 21 18 -100 0
15 19 40 21 18 -99 0
15 19 40 21 18 -102 0
15 19 40 21 18 -101 0
15 19 23 21 18 -93 0
15 19 23 21 18 -92 0
15 19 23 21 18 -91 0
15 19 23 21 18 -94 0
15 19 59 21 18 -109 0
15 19 59 21 18 -108 0
15 19 59 21 18 -110 0
15 19 59 21 18 -107 0
15 19 7 21 18 -68 0
15 19 7 21 18 -66 0
15 19 7 21 18 -65 0
15 19 7 21 18 -67 0
15 19 21 35 18 -95 0
15 19 21 35 18 -98 0
15 19 21 35 18 -96 0
15 19 21 35 18 -97 0
15 19 21 2 18 -22 0
15 19 21 2 18 -20 0
15 19 21 2 18 -16 0
15 19 21 2 18 -17 0
15 19 21 50 18 -106 0
15 19 21 50 18 -103 0
15 19 21 50 18 -104 0
15 19 21 50 18 -105 0
15 19 21 42 18 -100 0
15 19 21 42 18 -99 0
15 19 21 42 18 -102 0
15 19 21 42 18 -101 0
15 19 21 30 18 -93 0
15 19 21 30 18 -92 0
15 19 21 30 18 -91 0
15 19 21 30 18 -94 0
15 19 21 57 18 -109 0
15 19 21 57 18 -108 0
15 19 21 57 18 -110 0
15 19 21 57 18 -107 0
15 19 21 12 18 -68 0
15 19 21 12 18 -66 0
15 19 21 12 18 -65 0
15 19 21 12 18 -67 0
15 19 21 18 33 -95 0
15 19 21 18 33 -98 0
15 19 21 18 33 -96 0
15 19 21 18 33 -97 0
15 19 21 18 5 -22 0
15 19 21 18 5 -20 0
15 19 21 18 5 -16 0
15 19 21 18 5 -17 0
15 19 21 18 53 -106 0
15 19 21 18 53 -103 0
15 19 21 18 53 -104 0
15 19 21 18 53 -105 0
15 19 21 18 43 -100 0
15 19 21 18 43 -99 0
15 19 21 18 43 -102 0
15 19 21 18 43 -101 0
15 19 21 18 25 -93 0
15 19 21 18 25 -92 0
15 19 21 18 25 -91 0
15 19 21 18 25 -94 0
15 19 21 18 61 -109 0
15 19 21 18 61 -108 0
15 19 21 18 61 -110 0
15 19 21 18 61 -107 0
15 19 21 18 9 -68 0
15 19 21 18 9 -66 0
15 19 21 18 9 -65 0
15 19 21 18 9 -67 0
37 6 31 35 33 -32 0
37 6 31 35 33 -34 0
37 6 31 35 33 -36 0
37 6 31 35 33 -38 0
37 6 4 2 5 -32 0
37 6 4 2 5 -34 0
37 6 4 2 5 -36 0
37 6 4 2 5 -38 0
37 52 31 35 33 -136 0
37 52 31 35 33 -135 0
37 52 31 35 33 -138 0
37 52 31 35 33 -137 0
37 52 51 50 53 -136 0
37 52 51 50 53 -135 0
37 52 51 50 53 -138 0
37 52 51 50 53 -137 0
37 44 31 35 33 -132 0
37 44 31 35 33 -131 0
37 44 31 35 33 -134 0
37 44 31 35 33 -133 0
37 44 40 42 43 -132 0
37 44 40 42 43 -131 0
37 44 40 42 43 -134 0
37 44 40 42 43 -133 0
37 27 31 35 33 -116 0
37 27 31 35 33 -115 0
37 27 31 35 33 -114 0
37 27 31 35 33 -113 0
37 27 23 30 25 -116 0
37 27 23 30 25 -115 0
37 27 23 30 25 -114 0
37 27 23 30 25 -113 0
37 60 31 35 33 -140 0
37 60 31 35 33 -139 0
37 60 31 35 33 -142 0
37 60 31 35 33 -141 0
37 60 59 57 61 -140 0
37 60 59 57 61 -139 0
37 60 59 57 61 -142 0
37 60 59 57 61 -141 0
37 14 31 35 33 -74 0
37 14 31 35 33 -76 0
37 14 31 35 33 -73 0
37 14 31 35 33 -75 0
37 14 7 12 9 -74 0
37 14 7 12 9 -76 0
37 14 7 12 9 -73 0
37 14 7 12 9 -75 0
37 19 31 35 33 -95 0
37 19 31 35 33 -98 0
37 19 31 35 33 -96 0
37 19 31 35 33 -97 0
37 31 4 35 33 -32 0
37 31 4 35 33 -34 0
37 31 4 35 33 -36 0
37 31 4 35 33 -38 0
37 31 51 35 33 -136 0
37 31 51 35 33 -135 0
37 31 51 35 33 -138 0
37 31 51 35 33 -137 0
37 31 40 35 33 -132 0
37 31 40 35 33 -131 0
37 31 40 35 33 -134 0
37 31 40 35 33 -133 0
37 31 23 35 33 -116 0
37 31 23 35 33 -115 0
37 31 23 35 33 -114 0
37 31 23 35 33 -113 0
37 31 59 35 33 -140 0
37 31 59 35 33 -139 0
37 31 59 35 33 -142 0
37 31 59 35 33 -141 0
37 31 7 35 33 -74 0
37 31 7 35 33 -76 0
37 31 7 35 33 -73 0
37 31 7 35 33 -75 0
37 31 21 35 33 -95 0
37 31 21 35 33 -98 0
37 31 21 35 33 -96 0
37 31 21 35 33 -97 0
37 31 35 2 33 -32 0
37 31 35 2 33 -34 0
37 31 35 2 33 -36 0
37 31 35 2 33 -38 0
37 31 35 50 33 -136 0
37 31 35 50 33 -135 0
37 31 35 50 33 -138 0
37 31 35 50 33 -137 0
37 31 35 42 33 -132 0
37 31 35 42 33 -131 0
37 31 35 42 33 -134 0
37 31 35 42 33 -133 0
37 31 35 30 33 -116 0
37 31 35 30 33 -115 0
37 31 35 30 33 -114 0
37 31 35 30 33 -113 0
37 31 35 57 33 -140 0
37 31 35 57 33 -139 0
37 31 35 57 33 -142 0
37 31 35 57 33 -141 0
37 31 35 12 33 -74 0
37 31 35 12 33 -76 0
37 31 35 12 33 -73 0
37 31 35 12 33 -75 0
37 31 35 18 33 -95 0
37 31 35 18 33 -98 0
37 31 35 18 33 -96 0
37 31 35 18 33 -97 0
37 31 35 33 5 -32 0
37 31 35 33 5 -34 0
37 31 35 33 5 -36 0
37 31 35 33 5 -38 0
37 31 35 33 53 -136 0
37 31 35 33 53 -135 0
37 31 35 33 53 -138 0
37 31 35 33 53 -137 0
37 31 35 33 43 -132 0
37 31 35 33 43 -131 0
37 31 35 33 43 -134 0
37 31 35 33 43 -133 0
37 31 35 33 25 -116 0
37 31 35 33 25 -115 0
37 31 35 33 25 -114 0
37 31 35 33 25 -113 0
37 31 35 33 61 -140 0
37 31 35 33 61 -139 0
37 31 35 33 61 -142 0
37 31 35 33 61 -141 0
37 31 35 33 9 -74 0
37 31 35 33 9 -76 0
37 31 35 33 9 -73 0
37 31 35 33 9 -75 0
6 52 4 2 5 -47 0
6 52 4 2 5 -49 0
6 52 4 2 5 -54 0
6 52 4 2 5 -48 0
6 52 51 50 53 -47 0
6 52 51 50 53 -49 0
6 52 51 50 53 -54 0
6 52 51 50 53 -48 0
6 44 4 2 5 -45 0
6 44 4 2 5 -41 0
6 44 4 2 5 -39 0
6 44 4 2 5 -46 0
6 44 40 42 43 -45 0
6 44 40 42 43 -41 0
6 44 40 42 43 -39 0
6 44 40 42 43 -46 0
6 27 4 2 5 -26 0
6 27 4 2 5 -24 0
6 27 4 2 5 -29 0
6 27 4 2 5 -28 0
6 27 23 30 25 -26 0
6 27 23 30 25 -24 0
6 27 23 30 25 -29 0
6 27 23 30 25 -28 0
6 60 4 2 5 -62 0
6 60 4 2 5 -56 0
6 60 4 2 5 -55 0
6 60 4 2 5 -58 0
6 60 59 57 61 -62 0
6 60 59 57 61 -56 0
6 60 59 57 61 -55 0
6 60 59 57 61 -58 0
6 14 4 2 5 -11 0
6 14 4 2 5 -10 0
6 14 4 2 5 -8 0
6 14 4 2 5 -13 0
6 14 7 12 9 -11 0
6 14 7 12 9 -10 0
6 14 7 12 9 -8 0
6 14 7 12 9 -13 0
6 19 4 2 5 -22 0
6 19 4 2 5 -20 0
6 19 4 2 5 -16 0
6 19 4 2 5 -17 0
6 31 4 2 5 -32 0
6 31 4 2 5 -34 0
6 31 4 2 5 -36 0
6 31 4 2 5 -38 0
6 4 51 2 5 -47 0
6 4 51 2 5 -49 0
6 4 51 2 5 -54 0
6 4 51 2 5 -48 0
6 4 40 2 5 -45 0
6 4 40 2 5 -41 0
6 4 40 2 5 -39 0
6 4 40 2 5 -46 0
6 4 23 2 5 -26 0
6 4 23 2 5 -24 0
6 4 23 2 5 -29 0
6 4 23 2 5 -28 0
6 4 59 2 5 -62 0
6 4 59 2 5 -56 0
6 4 59 2 5 -55 0
6 4 59 2 5 -58 0
6 4 7 2 5 -11 0
6 4 7 2 5 -10 0
6 4 7 2 5 -8 0
6 4 7 2 5 -13 0
6 4 21 2 5 -22 0
6 4 21 2 5 -20 0
6 4 21 2 5 -16 0
6 4 21 2 5 -17 0
6 4 35 2 5 -32 0
6 4 35 2 5 -34 0
6 4 35 2 5 -36 0
6 4 35 2 5 -38 0
6 4 2 50 5 -47 0
6 4 2 50 5 -49 0
6 4 2 50 5 -54 0
6 4 2 50 5 -48 0
6 4 2 42 5 -45 0
6 4 2 42 5 -41 0
6 4 2 42 5 -39 0
6 4 2 42 5 -46 0
6 4 2 30 5 -26 0
6 4 2 30 5 -24 0
6 4 2 30 5 -29 0
6 4 2 30 5 -28 0
6 4 2 57 5 -62 0
6 4 2 57 5 -56 0
6 4 2 57 5 -55 0
6 4 2 57 5 -58 0
6 4 2 12 5 -11 0
6 4 2 12 5 -10 0
6 4 2 12 5 -8 0
6 4 2 12 5 -13 0
6 4 2 18 5 -22 0
6 4 2 18 5 -20 0
6 4 2 18 5 -16 0
6 4 2 18 5 -17 0
6 4 2 33 5 -32 0
6 4 2 33 5 -34 0
6 4 2 33 5 -36 0
6 4 2 33 5 -38 0
6 4 2 5 53 -47 0
6 4 2 5 53 -49 0
6 4 2 5 53 -54 0
6 4 2 5 53 -48 0
6 4 2 5 43 -45 0
6 4 2 5 43 -41 0
6 4 2 5 43 -39 0
6 4 2 5 43 -46 0
6 4 2 5 25 -26 0
6 4 2 5 25 -24 0
6 4 2 5 25 -29 0
6 4 2 5 25 -28 0
6 4 2 5 61 -62 0
6 4 2 5 61 -56 0
6 4 2 5 61 -55 0
6 4 2 5 61 -58 0
6 4 2 5 9 -11 0
6 4 2 5 9 -10 0
6 4 2 5 9 -8 0
6 4 2 5 9 -13 0
52 44 51 50 53 -145 0
52 44 51 50 53 -148 0
52 44 51 50 53 -146 0
52 44 51 50 53 -147 0
52 44 40 42 43 -145 0
52 44 40 42 43 -148 0
52 44 40 42 43 -146 0
52 44 40 42 43 -147 0
52 27 51 50 53 -122 0
52 27 51 50 53 -124 0
52 27 51 50 53 -123 0
52 27 51 50 53 -121 0
52 27 23 30 25 -122 0
52 27 23 30 25 -124 0
52 27 23 30 25 -123 0
52 27 23 30 25 -121 0
52 60 51 50 53 -158 0
52 60 51 50 53 -156 0
52 60 51 50 53 -155 0
52 60 51 50 53 -157 0
52 60 59 57 61 -158 0
52 60 59 57 61 -156 0
52 60 59 57 61 -155 0
52 60 59 57 61 -157 0
52 14 51 50 53 -81 0
52 14 51 50 53 -83 0
52 14 51 50 53 -82 0
52 14 51 50 53 -84 0
52 14 7 12 9 -81 0
52 14 7 12 9 -83 0
52 14 7 12 9 -82 0
52 14 7 12 9 -84 0
52 19 51 50 53 -106 0
52 19 51 50 53 -103 0
52 19 51 50 53 -104 0
52 19 51 50 53 -105 0
52 31 51 50 53 -136 0
52 31 51 50 53 -135 0
52 31 51 50 53 -138 0
52 31 51 50 53 -137 0
52 4 51 50 53 -47 0
52 4 51 50 53 -49 0
52 4 51 50 53 -54 0
52 4 51 50 53 -48 0
52 51 40 50 53 -145 0
52 51 40 50 53 -148 0
52 51 40 50 53 -146 0
52 51 40 50 53 -147 0
52 51 23 50 53 -122 0
52 51 23 50 53 -124 0
52 51 23 50 53 -123 0
52 51 23 50 53 -121 0
52 51 59 50 53 -158 0
52 51 59 50 53 -156 0
52 51 59 50 53 -155 0
52 51 59 50 53 -157 0
52 51 7 50 53 -81 0
52 51 7 50 53 -83 0
52 51 7 50 53 -82 0
52 51 7 50 53 -84 0
52 51 21 50 53 -106 0
52 51 21 50 53 -103 0
52 51 21 50 53 -104 0
52 51 21 50 53 -105 0
52 51 35 50 53 -136 0
52 51 35 50 53 -135 0
52 51 35 50 53 -138 0
52 51 35 50 53 -137 0
52 51 2 50 53 -47 0
52 51 2 50 53 -49 0
52 51 2 50 53 -54 0
52 51 2 50 53 -48 0
52 51 50 42 53 -145 0
52 51 50 42 53 -148 0
52 51 50 42 53 -146 0
52 51 50 42 53 -147 0
52 51 50 30 53 -122 0
52 51 50 30 53 -124 0
52 51 50 30 53 -123 0
52 51 50 30 53 -121 0
52 51 50 57 53 -158 0
52 51 50 57 53 -156 0
52 51 50 57 53 -155 0
52 51 50 57 53 -157 0
52 51 50 12 53 -81 0
52 51 50 12 53 -83 0
52 51 50 12 53 -82 0
52 51 50 12 53 -84 0
52 51 50 18 53 -106 0
52 51 50 18 53 -103 0
52 51 50 18 53 -104 0
52 51 50 18 53 -105 0
52 51 50 33 53 -136 0
52 51 50 33 53 -135 0
52 51 50 33 53 -138 0
52 51 50 33 53 -137 0
52 51 50 5 53 -47 0
52 51 50 5 53 -49 0
52 51 50 5 53 -54 0
52 51 50 5 53 -48 0
52 51 50 53 43 -145 0
52 51 50 53 43 -148 0
52 51 50 53 43 -146 0
52 51 50 53 43 -147 0
52 51 50 53 25 -122 0
52 51 50 53 25 -124 0
52 51 50 53 25 -123 0
52 51 50 53 25 -121 0
52 51 50 53 61 -158 0
52 51 50 53 61 -156 0
52 51 50 53 61 -155 0
52 51 50 53 61 -157 0
52 51 50 53 9 -81 0
52 51 50 53 9 -83 0
52 51 50 53 9 -82 0
52 51 50 53 9 -84 0
44 27 40 42 43 -118 0
44 27 40 42 43 -117 0
44 27 40 42 43 -119 0
44 27 40 42 43 -120 0
44 27 23 30 25 -118 0
44 27 23 30 25 -117 0
44 27 23 30 25 -119 0
44 27 23 30 25 -120 0
44 60 40 42 43 -150 0
44 60 40 42 43 -149 0
44 60 40 42 43 -151 0
44 60 40 42 43 -152 0
44 60 59 57 61 -150 0
44 60 59 57 61 -149 0
44 60 59 57 61 -151 0
44 60 59 57 61 -152 0
44 14 40 42 43 -80 0
44 14 40 42 43 -77 0
44 14 40 42 43 -79 0
44 14 40 42 43 -78 0
44 14 7 12 9 -80 0
44 14 7 12 9 -77 0
44 14 7 12 9 -79 0
44 14 7 12 9 -78 0
44 19 40 42 43 -100 0
44 19 40 42 43 -99 0
44 19 40 42 43 -102 0
44 19 40 42 43 -101 0
44 31 40 42 43 -132 0
44 31 40 42 43 -131 0
44 31 40 42 43 -134 0
44 31 40 42 43 -133 0
44 4 40 42 43 -45 0
44 4 40 42 43 -41 0
44 4 40 42 43 -39 0
44 4 40 42 43 -46 0
44 51 40 42 43 -145 0
44 51 40 42 43 -148 0
44 51 40 42 43 -146 0
44 51 40 42 43 -147 0
44 40 23 42 43 -118 0
44 40 23 42 43 -117 0
44 40 23 42 43 -119 0
44 40 23 42 43 -120 0
44 40 59 42 43 -150 0
44 40 59 42 43 -149 0
44 40 59 42 43 -151 0
44 40 59 42 43 -152 0
44 40 7 42 43 -80 0
44 40 7 42 43 -77 0
44 40 7 42 43 -79 0
44 40 7 42 43 -78 0
44 40 21 42 43 -100 0
44 40 21 42 43 -99 0
44 40 21 42 43 -102 0
44 40 21 42 43 -101 0
44 40 35 42 43 -132 0
44 40 35 42 43 -131 0
44 40 35 42 43 -134 0
44 40 35 42 43 -133 0
44 40 2 42 43 -45 0
44 40 2 42 43 -41 0
44 40 2 42 43 -39 0
44 40 2 42 43 -46 0
44 40 50 42 43 -145 0
44 40 50 42 43 -148 0
44 40 50 42 43 -146 0
44 40 50 42 43 -147 0
44 40 42 30 43 -118 0
44 40 42 30 43 -117 0
44 40 42 30 43 -119 0
44 40 42 30 43 -120 0
44 40 42 57 43 -150 0
44 40 42 57 43 -149 0
44 40 42 57 43 -151 0
44 40 42 57 43 -152 0
44 40 42 12 43 -80 0
44 40 42 12 43 -77 0
44 40 42 12 43 -79 0
44 40 42 12 43 -78 0
44 40 42 18 43 -100 0
44 40 42 18 43 -99 0
44 40 42 18 43 -102 0
44 40 42 18 43 -101 0
44 40 42 33 43 -132 0
44 40 42 33 43 -131 0
44 40 42 33 43 -134 0
44 40 42 33 43 -133 0
44 40 42 5 43 -45 0
44 40 42 5 43 -41 0
44 40 42 5 43 -39 0
44 40 42 5 43 -46 0
44 40 42 53 43 -145 0
44 40 42 53 43 -148 0
44 40 42 53 43 -146 0
44 40 42 53 43 -147 0
44 40 42 43 25 -118 0
44 40 42 43 25 -117 0
44 40 42 43 25 -119 0
44 40 42 43 25 -120 0
44 40 42 43 61 -150 0
44 40 42 43 61 -149 0
44 40 42 43 61 -151 0
44 40 42 43 61 -152 0
44 40 42 43 9 -80 0
44 40 42 43 9 -77 0
44 40 42 43 9 -79 0
44 40 42 43 9 -78 0
27 60 23 30 25 -127 0
27 60 23 30 25 -125 0
27 60 23 30 25 -128 0
27 60 23 30 25 -126 0
27 60 59 57 61 -127 0
27 60 59 57 61 -125 0
27 60 59 57 61 -128 0
27 60 59 57 61 -126 0
27 14 23 30 25 -71 0
27 14 23 30 25 -69 0
27 14 23 30 25 -72 0
27 14 23 30 25 -70 0
27 14 7 12 9 -71 0
27 14 7 12 9 -69 0
27 14 7 12 9 -72 0
27 14 7 12 9 -70 0
27 19 23 30 25 -93 0
27 19 23 30 25 -92 0
27 19 23 30 25 -91 0
27 19 23 30 25 -94 0
27 31 23 30 25 -116 0
27 31 23 30 25 -115 0
27 31 23 30 25 -114 0
27 31 23 30 25 -113 0
27 4 23 30 25 -26 0
27 4 23 30 25 -24 0
27 4 23 30 25 -29 0
27 4 23 30 25 -28 0
27 51 23 30 25 -122 0
27 51 23 30 25 -124 0
27 51 23 30 25 -123 0
27 51 23 30 25 -121 0
27 40 23 30 25 -118 0
27 40 23 30 25 -117 0
27 40 23 30 25 -119 0
27 40 23 30 25 -120 0
27 23 59 30 25 -127 0
27 23 59 30 25 -125 0
27 23 59 30 25 -128 0
27 23 59 30 25 -126 0
27 23 7 30 25 -71 0
27 23 7 30 25 -69 0
27 23 7 30 25 -72 0
27 23 7 30 25 -70 0
27 23 21 30 25 -93 0
27 23 21 30 25 -92 0
27 23 21 30 25 -91 0
27 23 21 30 25 -94 0
27 23 35 30 25 -116 0
27 23 35 30 25 -115 0
27 23 35 30 25 -114 0
27 23 35 30 25 -113 0
27 23 2 30 25 -26 0
27 23 2 30 25 -24 0
27 23 2 30 25 -29 0
27 23 2 30 25 -28 0
27 23 50 30 25 -122 0
27 23 50 30 25 -124 0
27 23 50 30 25 -123 0
27 23 50 30 25 -121 0
27 23 42 30 25 -118 0
27 23 42 30 25 -117 0
27 23 42 30 25 -119 0
27 23 42 30 25 -120 0
27 23 30 57 25 -127 0
27 23 30 57 25 -125 0
27 23 30 57 25 -128 0
27 23 30 57 25 -126 0
27 23 30 12 25 -71 0
27 23 30 12 25 -69 0
27 23 30 12 25 -72 0
27 23 30 12 25 -70 0
27 23 30 18 25 -93 0
27 23 30 18 25 -92 0
27 23 30 18 25 -91 0
27 23 30 18 25 -94 0
27 23 30 33 25 -116 0
27 23 30 33 25 -115 0
27 23 30 33 25 -114 0
27 23 30 33 25 -113 0
27 23 30 5 25 -26 0
27 23 30 5 25 -24 0
27 23 30 5 25 -29 0
27 23 30 5 25 -28 0
27 23 30 53 25 -122 0
27 23 30 53 25 -124 0
27 23 30 53 25 -123 0
27 23 30 53 25 -121 0
27 23 30 43 25 -118 0
27 23 30 43 25 -117 0
27 23 30 43 25 -119 0
27 23 30 43 25 -120 0
27 23 30 25 61 -127 0
27 23 30 25 61 -125 0
27 23 30 25 61 -128 0
27 23 30 25 61 -126 0
27 23 30 25 9 -71 0
27 23 30 25 9 -69 0
27 23 30 25 9 -72 0
27 23 30 25 9 -70 0
60 14 59 57 61 -87 0
60 14 59 57 61 -85 0
60 14 59 57 61 -88 0
60 14 59 57 61 -86 0
60 14 7 12 9 -87 0
60 14 7 12 9 -85 0
60 14 7 12 9 -88 0
60 14 7 12 9 -86 0
60 19 59 57 61 -109 0
60 19 59 57 61 -108 0
60 19 59 57 61 -110 0
60 19 59 57 61 -107 0
60 31 59 57 61 -140 0
60 31 59 57 61 -139 0
60 31 59 57 61 -142 0
60 31 59 57 61 -141 0
60 4 59 57 61 -62 0
60 4 59 57 61 -56 0
60 4 59 57 61 -55 0
60 4 59 57 61 -58 0
60 51 59 57 61 -158 0
60 51 59 57 61 -156 0
60 51 59 57 61 -155 0
60 51 59 57 61 -157 0
60 40 59 57 61 -150 0
60 40 59 57 61 -149 0
60 40 59 57 61 -151 0
60 40 59 57 61 -152 0
60 23 59 57 61 -127 0
60 23 59 57 61 -125 0
60 23 59 57 61 -128 0
60 23 59 57 61 -126 0
60 59 7 57 61 -87 0
60 59 7 57 61 -85 0
60 59 7 57 61 -88 0
60 59 7 57 61 -86 0
60 59 21 57 61 -109 0
60 59 21 57 61 -108 0
60 59 21 57 61 -110 0
60 59 21 57 61 -107 0
60 59 35 57 61 -140 0
60 59 35 57 61 -139 0
60 59 35 57 61 -142 0
60 59 35 57 61 -141 0
60 59 2 57 61 -62 0
60 59 2 57 61 -56 0
60 59 2 57 61 -55 0
60 59 2 57 61 -58 0
60 59 50 57 61 -158 0
60 59 50 57 61 -156 0
60 59 50 57 61 -155 0
60 59 50 57 61 -157 0
60 59 42 57 61 -150 0
60 59 42 57 61 -149 0
60 59 42 57 61 -151 0
60 59 42 57 61 -152 0
60 59 30 57 61 -127 0
60 59 30 57 61 -125 0
60 59 30 57 61 -128 0
60 59 30 57 61 -126 0
60 59 57 12 61 -87 0
60 59 57 12 61 -85 0
60 59 57 12 61 -88 0
60 59 57 12 61 -86 0
60 59 57 18 61 -109 0
60 59 57 18 61 -108 0
60 59 57 18 61 -110 0
60 59 57 18 61 -107 0
60 59 57 33 61 -140 0
60 59 57 33 61 -139 0
60 59 57 33 61 -142 0
60 59 57 33 61 -141 0
60 59 57 5 61 -62 0
60 59 57 5 61 -56 0
60 59 57 5 61 -55 0
60 59 57 5 61 -58 0
60 59 57 53 61 -158 0
60 59 57 53 61 -156 0
60 59 57 53 61 -155 0
60 59 57 53 61 -157 0
60 59 57 43 61 -150 0
60 59 57 43 61 -149 0
60 59 57 43 61 -151 0
60 59 57 43 61 -152 0
60 59 57 25 61 -127 0
60 59 57 25 61 -125 0
60 59 57 25 61 -128 0
60 59 57 25 61 -126 0
60 59 57 61 9 -87 0
60 59 57 61 9 -85 0
60 59 57 61 9 -88 0
60 59 57 61 9 -86 0
14 19 7 12 9 -68 0
14 19 7 12 9 -66 0
14 19 7 12 9 -65 0
14 19 7 12 9 -67 0
14 31 7 12 9 -74 0
14 31 7 12 9 -76 0
14 31 7 12 9 -73 0
14 31 7 12 9 -75 0
14 4 7 12 9 -11 0
14 4 7 12 9 -10 0
14 4 7 12 9 -8 0
14 4 7 12 9 -13 0
14 51 7 12 9 -81 0
14 51 7 12 9 -83 0
14 51 7 12 9 -82 0
14 51 7 12 9 -84 0
14 40 7 12 9 -80 0
14 40 7 12 9 -77 0
14 40 7 12 9 -79 0
14 40 7 12 9 -78 0
14 23 7 12 9 -71 0
14 23 7 12 9 -69 0
14 23 7 12 9 -72 0
14 23 7 12 9 -70 0
14 59 7 12 9 -87 0
14 59 7 12 9 -85 0
14 59 7 12 9 -88 0
14 59 7 12 9 -86 0
14 7 21 12 9 -68 0
14 7 21 12 9 -66 0
14 7 21 12 9 -65 0
14 7 21 12 9 -67 0
14 7 35 12 9 -74 0
14 7 35 12 9 -76 0
14 7 35 12 9 -73 0
14 7 35 12 9 -75 0
14 7 2 12 9 -11 0
14 7 2 12 9 -10 0
14 7 2 12 9 -8 0
14 7 2 12 9 -13 0
14 7 50 12 9 -81 0
14 7 50 12 9 -83 0
14 7 50 12 9 -82 0
14 7 50 12 9 -84 0
14 7 42 12 9 -80 0
14 7 42 12 9 -77 0
14 7 42 12 9 -79 0
14 7 42 12 9 -78 0
14 7 30 12 9 -71 0
14 7 30 12 9 -69 0
14 7 30 12 9 -72 0
14 7 30 12 9 -70 0
14 7 57 12 9 -87 0
14 7 57 12 9 -85 0
14 7 57 12 9 -88 0
14 7 57 12 9 -86 0
14 7 12 18 9 -68 0
14 7 12 18 9 -66 0
14 7 12 18 9 -65 0
14 7 12 18 9 -67 0
14 7 12 33 9 -74 0
14 7 12 33 9 -76 0
14 7 12 33 9 -73 0
14 7 12 33 9 -75 0
14 7 12 5 9 -11 0
14 7 12 5 9 -10 0
14 7 12 5 9 -8 0
14 7 12 5 9 -13 0
14 7 12 53 9 -81 0
14 7 12 53 9 -83 0
14 7 12 53 9 -82 0
14 7 12 53 9 -84 0
14 7 12 43 9 -80 0
14 7 12 43 9 -77 0
14 7 12 43 9 -79 0
14 7 12 43 9 -78 0
14 7 12 25 9 -71 0
14 7 12 25 9 -69 0
14 7 12 25 9 -72 0
14 7 12 25 9 -70 0
14 7 12 61 9 -87 0
14 7 12 61 9 -85 0
14 7 12 61 9 -88 0
14 7 12 61 9 -86 0
15 37 19 31 21 35 -95 0
15 37 19 31 21 35 -98 0
15 37 19 31 21 35 -96 0
15 37 19 31 21 35 -97 0
15 37 19 31 21 18 -95 0
15 37 19 31 21 18 -98 0
15 37 19 31 21 18 -96 0
15 37 19 31 21 18 -97 0
15 37 19 31 35 33 -95 0
15 37 19 31 35 33 -98 0
15 37 19 31 35 33 -96 0
15 37 19 31 35 33 -97 0
15 37 19 31 18 33 -95 0
15 37 19 31 18 33 -98 0
15 37 19 31 18 33 -96 0
15 37 19 31 18 33 -97 0
15 37 19 21 35 18 -95 0
15 37 19 21 35 18 -98 0
15 37 19 21 35 18 -96 0
15 37 19 21 35 18 -97 0
15 37 19 21 18 33 -95 0
15 37 19 21 18 33 -98 0
15 37 19 21 18 33 -96 0
15 37 19 21 18 33 -97 0
15 37 31 21 35 33 -95 0
15 37 31 21 35 33 -98 0
15 37 31 21 35 33 -96 0
15 37 31 21 35 33 -97 0
15 37 31 35 18 33 -95 0
15 37 31 35 18 33 -98 0
15 37 31 35 18 33 -96 0
15 37 31 35 18 33 -97 0
15 37 21 35 18 33 -95 0
15 37 21 35 18 33 -98 0
15 37 21 35 18 33 -96 0
15 37 21 35 18 33 -97 0
15 6 19 4 21 2 -22 0
15 6 19 4 21 2 -20 0
15 6 19 4 21 2 -16 0
15 6 19 4 21 2 -17 0
15 6 19 4 21 18 -22 0
15 6 19 4 21 18 -20 0
15 6 19 4 21 18 -16 0
15 6 19 4 21 18 -17 0
15 6 19 4 2 5 -22 0
15 6 19 4 2 5 -20 0
15 6 19 4 2 5 -16 0
15 6 19 4 2 5 -17 0
15 6 19 4 18 5 -22 0
15 6 19 4 18 5 -20 0
15 6 19 4 18 5 -16 0
15 6 19 4 18 5 -17 0
15 6 19 21 2 18 -22 0
15 6 19 21 2 18 -20 0
15 6 19 21 2 18 -16 0
15 6 19 21 2 18 -17 0
15 6 19 21 18 5 -22 0
15 6 19 21 18 5 -20 0
15 6 19 21 18 5 -16 0
15 6 19 21 18 5 -17 0
15 6 4 21 2 5 -22 0
15 6 4 21 2 5 -20 0
15 6 4 21 2 5 -16 0
15 6 4 21 2 5 -17 0
15 6 4 2 18 5 -22 0
15 6 4 2 18 5 -20 0
15 6 4 2 18 5 -16 0
15 6 4 2 18 5 -17 0
15 6 21 2 18 5 -22 0
15 6 21 2 18 5 -20 0
15 6 21 2 18 5 -16 0
15 6 21 2 18 5 -17 0
15 52 19 51 21 50 -106 0
15 52 19 51 21 50 -103 0
15 52 19 51 21 50 -104 0
15 52 19 51 21 50 -105 0
15 52 19 51 21 18 -106 0
15 52 19 51 21 18 -103 0
15 52 19 51 21 18 -104 0
15 52 19 51 21 18 -105 0
15 52 19 51 50 53 -106 0
15 52 19 51 50 53 -103 0
15 52 19 51 50 53 -104 0
15 52 19 51 50 53 -105 0
15 52 19 51 18 53 -106 0
15 52 19 51 18 53 -103 0
15 52 19 51 18 53 -104 0
15 52 19 51 18 53 -105 0
15 52 19 21 50 18 -106 0
15 52 19 21 50 18 -103 0
15 52 19 21 50 18 -104 0
15 52 19 21 50 18 -105 0
15 52 19 21 18 53 -106 0
15 52 19 21 18 53 -103 0
15 52 19 21 18 53 -104 0
15 52 19 21 18 53 -105 0
15 52 51 21 50 53 -106 0
15 52 51 21 50 53 -103 0
15 52 51 21 50 53 -104 0
15 52 51 21 50 53 -105 0
15 52 51 50 18 53 -106 0
15 52 51 50 18 53 -103 0
15 52 51 50 18 53 -104 0
15 52 51 50 18 53 -105 0
15 52 21 50 18 53 -106 0
15 52 21 50 18 53 -103 0
15 52 21 50 18 53 -104 0
15 52 21 50 18 53 -105 0
15 44 19 40 21 42 -100 0
15 44 19 40 21 42 -99 0
15 44 19 40 21 42 -102 0
15 44 19 40 21 42 -101 0
15 44 19 40 21 18 -100 0
15 44 19 40 21 18 -99 0
15 44 19 40 21 18 -102 0
15 44 19 40 21 18 -101 0
15 44 19 40 42 43 -100 0
15 44 19 40 42 43 -99 0
15 44 19 40 42 43 -102 0
15 44 19 40 42 43 -101 0
15 44 19 40 18 43 -100 0
15 44 19 40 18 43 -99 0
15 44 19 40 18 43 -102 0
15 44 19 40 18 43 -101 0
15 44 19 21 42 18 -100 0
15 44 19 21 42 18 -99 0
15 44 19 21 42 18 -102 0
15 44 19 21 42 18 -101 0
15 44 19 21 18 43 -100 0
15 44 19 21 18 43 -99 0
15 44 19 21 18 43 -102 0
15 44 19 21 18 43 -101 0
15 44 40 21 42 43 -100 0
15 44 40 21 42 43 -99 0
15 44 40 21 42 43 -102 0
15 44 40 21 42 43 -101 0
15 44 40 42 18 43 -100 0
15 44 40 42 18 43 -99 0
15 44 40 42 18 43 -102 0
15 44 40 42 18 43 -101 0
15 44 21 42 18 43 -100 0
15 44 21 42 18 43 -99 0
15 44 21 42 18 43 -102 0
15 44 21 42 18 43 -101 0
15 27 19 23 21 30 -93 0
15 27 19 23 21 30 -92 0
15 27 19 23 21 30 -91 0
15 27 19 23 21 30 -94 0
15 27 19 23 21 18 -93 0
15 27 19 23 21 18 -92 0
15 27 19 23 21 18 -91 0
15 27 19 23 21 18 -94 0
15 27 19 23 30 25 -93 0
15 27 19 23 30 25 -92 0
15 27 19 23 30 25 -91 0
15 27 19 23 30 25 -94 0
15 27 19 23 18 25 -93 0
15 27 19 23 18 25 -92 0
15 27 19 23 18 25 -91 0
15 27 19 23 18 25 -94 0
15 27 19 21 30 18 -93 0
15 27 19 21 30 18 -92 0
15 27 19 21 30 18 -91 0
15 27 19 21 30 18 -94 0
15 27 19 21 18 25 -93 0
15 27 19 21 18 25 -92 0
15 27 19 21 18 25 -91 0
15 27 19 21 18 25 -94 0
15 27 23 21 30 25 -93 0
15 27 23 21 30 25 -92 0
15 27 23 21 30 25 -91 0
15 27 23 21 30 25 -94 0
15 27 23 30 18 25 -93 0
15 27 23 30 18 25 -92 0
15 27 23 30 18 25 -91 0
15 27 23 30 18 25 -94 0
15 27 21 30 18 25 -93 0
15 27 21 30 18 25 -92 0
15 27 21 30 18 25 -91 0
15 27 21 30 18 25 -94 0
15 60 19 59 21 57 -109 0
15 60 19 59 21 57 -108 0
15 60 19 59 21 57 -110 0
15 60 19 59 21 57 -107 0
15 60 19 59 21 18 -109 0
15 60 19 59 21 18 -108 0
15 60 19 59 21 18 -110 0
15 60 19 59 21 18 -107 0
15 60 19 59 57 61 -109 0
15 60 19 59 57 61 -108 0
15 60 19 59 57 61 -110 0
15 60 19 59 57 61 -107 0
15 60 19 59 18 61 -109 0
15 60 19 59 18 61 -108 0
15 60 19 59 18 61 -110 0
15 60 19 59 18 61 -107 0
15 60 19 21 57 18 -109 0
15 60 19 21 57 18 -108 0
15 60 19 21 57 18 -110 0
15 60 19 21 57 18 -107 0
15 60 19 21 18 61 -109 0
15 60 19 21 18 61 -108 0
15 60 19 21 18 61 -110 0
15 60 19 21 18 61 -107 0
15 60 59 21 57 61 -109 0
15 60 59 21 57 61 -108 0
15 60 59 21 57 61 -110 0
15 60 59 21 57 61 -107 0
15 60 59 57 18 61 -109 0
15 60 59 57 18 61 -108 0
15 60 59 57 18 61 -110 0
15 60 59 57 18 61 -107 0
15 60 21 57 18 61 -109 0
15 60 21 57 18 61 -108 0
15 60 21 57 18 61 -110 0
15 60 21 57 18 61 -107 0
15 14 19 7 21 12 -68 0
15 14 19 7 21 12 -66 0
15 14 19 7 21 12 -65 0
15 14 19 7 21 12 -67 0
15 14 19 7 21 18 -68 0
15 14 19 7 21 18 -66 0
15 14 19 7 21 18 -65 0
15 14 19 7 21 18 -67 0
15 14 19 7 12 9 -68 0
15 14 19 7 12 9 -66 0
15 14 19 7 12 9 -65 0
15 14 19 7 12 9 -67 0
15 14 19 7 18 9 -68 0
15 14 19 7 18 9 -66 0
15 14 19 7 18 9 -65 0
15 14 19 7 18 9 -67 0
15 14 19 21 12 18 -68 0
15 14 19 21 12 18 -66 0
15 14 19 21 12 18 -65 0
15 14 19 21 12 18 -67 0
15 14 19 21 18 9 -68 0
15 14 19 21 18 9 -66 0
15 14 19 21 18 9 -65 0
15 14 19 21 18 9 -67 0
15 14 7 21 12 9 -68 0
15 14 7 21 12 9 -66 0
15 14 7 21 12 9 -65 0
15 14 7 21 12 9 -67 0
15 14 7 12 18 9 -68 0
15 14 7 12 18 9 -66 0
15 14 7 12 18 9 -65 0
15 14 7 12 18 9 -67 0
15 14 21 12 18 9 -68 0
15 14 21 12 18 9 -66 0
15 14 21 12 18 9 -65 0
15 14 21 12 18 9 -67 0
15 19 31 21 35 18 -95 0
15 19 31 21 35 18 -98 0
15 19 31 21 35 18 -96 0
15 19 31 21 35 18 -97 0
15 19 31 21 18 33 -95 0
15 19 31 21 18 33 -98 0
15 19 31 21 18 33 -96 0
15 19 31 21 18 33 -97 0
15 19 4 21 2 18 -22 0
15 19 4 21 2 18 -20 0
15 19 4 21 2 18 -16 0
15 19 4 21 2 18 -17 0
15 19 4 21 18 5 -22 0
15 19 4 21 18 5 -20 0
15 19 4 21 18 5 -16 0
15 19 4 21 18 5 -17 0
15 19 51 21 50 18 -106 0
15 19 51 21 50 18 -103 0
15 19 51 21 50 18 -104 0
15 19 51 21 50 18 -105 0
15 19 51 21 18 53 -106 0
15 19 51 21 18 53 -103 0
15 19 51 21 18 53 -104 0
15 19 51 21 18 53 -105 0
15 19 40 21 42 18 -100 0
15 19 40 21 42 18 -99 0
15 19 40 21 42 18 -102 0
15 19 40 21 42 18 -101 0
15 19 40 21 18 43 -100 0
15 19 40 21 18 43 -99 0
15 19 40 21 18 43 -102 0
15 19 40 21 18 43 -101 0
15 19 23 21 30 18 -93 0
15 19 23 21 30 18 -92 0
15 19 23 21 30 18 -91 0
15 19 23 21 30 18 -94 0
15 19 23 21 18 25 -93 0
15 19 23 21 18 25 -92 0
15 19 23 21 18 25 -91 0
15 19 23 21 18 25 -94 0
15 19 59 21 57 18 -109 0
15 19 59 21 57 18 -108 0
15 19 59 21 57 18 -110 0
15 19 59 21 57 18 -107 0
15 19 59 21 18 61 -109 0
15 19 59 21 18 61 -108 0
15 19 59 21 18 61 -110 0
15 19 59 21 18 61 -107 0
15 19 7 21 12 18 -68 0
15 19 7 21 12 18 -66 0
15 19 7 21 12 18 -65 0
15 19 7 21 12 18 -67 0
15 19 7 21 18 9 -68 0
15 19 7 21 18 9 -66 0
15 19 7 21 18 9 -65 0
15 19 7 21 18 9 -67 0
15 19 21 35 18 33 -95 0
15 19 21 35 18 33 -98 0
15 19 21 35 18 33 -96 0
15 19 21 35 18 33 -97 0
15 19 21 2 18 5 -22 0
15 19 21 2 18 5 -20 0
15 19 21 2 18 5 -16 0
15 19 21 2 18 5 -17 0
15 19 21 50 18 53 -106 0
15 19 21 50 18 53 -103 0
15 19 21 50 18 53 -104 0
15 19 21 50 18 53 -105 0
15 19 21 42 18 43 -100 0
15 19 21 42 18 43 -99 0
15 19 21 42 18 43 -102 0
15 19 21 42 18 43 -101 0
15 19 21 30 18 25 -93 0
15 19 21 30 18 25 -92 0
15 19 21 30 18 25 -91 0
15 19 21 30 18 25 -94 0
15 19 21 57 18 61 -109 0
15 19 21 57 18 61 -108 0
15 19 21 57 18 61 -110 0
15 19 21 57 18 61 -107 0
15 19 21 12 18 9 -68 0
15 19 21 12 18 9 -66 0
15 19 21 12 18 9 -65 0
15 19 21 12 18 9 -67 0
37 6 31 4 35 2 -32 0
37 6 31 4 35 2 -34 0
37 6 31 4 35 2 -36 0
37 6 31 4 35 2 -38 0
37 6 31 4 35 33 -32 0
37 6 31 4 35 33 -34 0
37 6 31 4 35 33 -36 0
37 6 31 4 35 33 -38 0
37 6 31 4 2 5 -32 0
37 6 31 4 2 5 -34 0
37 6 31 4 2 5 -36 0
37 6 31 4 2 5 -38 0
37 6 31 4 33 5 -32 0
37 6 31 4 33 5 -34 0
37 6 31 4 33 5 -36 0
37 6 31 4 33 5 -38 0
37 6 31 35 2 33 -32 0
37 6 31 35 2 33 -34 0
37 6 31 35 2 33 -36 0
37 6 31 35 2 33 -38 0
37 6 31 35 33 5 -32 0
37 6 31 35 33 5 -34 0
37 6 31 35 33 5 -36 0
37 6 31 35 33 5 -38 0
37 6 4 35 2 5 -32 0
37 6 4 35 2 5 -34 0
37 6 4 35 2 5 -36 0
37 6 4 35 2 5 -38 0
37 6 4 2 33 5 -32 0
37 6 4 2 33 5 -34 0
37 6 4 2 33 5 -36 0
37 6 4 2 33 5 -38 0
37 6 35 2 33 5 -32 0
37 6 35 2 33 5 -34 0
37 6 35 2 33 5 -36 0
37 6 35 2 33 5 -38 0
37 52 31 51 35 50 -136 0
37 52 31 51 35 50 -135 0
37 52 31 51 35 50 -138 0
37 52 31 51 35 50 -137 0
37 52 31 51 35 33 -136 0
37 52 31 51 35 33 -135 0
37 52 31 51 35 33 -138 0
37 52 31 51 35 33 -137 0
37 52 31 51 50 53 -136 0
37 52 31 51 50 53 -135 0
37 52 31 51 50 53 -138 0
37 52 31 51 50 53 -137 0
37 52 31 51 33 53 -136 0
37 52 31 51 33 53 -135 0
37 52 31 51 33 53 -138 0
37 52 31 51 33 53 -137 0
37 52 31 35 50 33 -136 0
37 52 31 35 50 33 -135 0
37 52 31 35 50 33 -138 0
37 52 31 35 50 33 -137 0
37 52 31 35 33 53 -136 0
37 52 31 35 33 53 -135 0
37 52 31 35 33 53 -138 0
37 52 31 35 33 53 -137 0
37 52 51 35 50 53 -136 0
37 52 51 35 50 53 -135 0
37 52 51 35 50 53 -138 0
37 52 51 35 50 53 -137 0
37 52 51 50 33 53 -136 0
37 52 51 50 33 53 -135 0
37 52 51 50 33 53 -138 0
37 52 51 50 33 53 -137 0
37 52 35 50 33 53 -136 0
37 52 35 50 33 53 -135 0
37 52 35 50 33 53 -138 0
37 52 35 50 33 53 -137 0
37 44 31 40 35 42 -132 0
37 44 31 40 35 42 -131 0
37 44 31 40 35 42 -134 0
37 44 31 40 35 42 -133 0
37 44 31 40 35 33 -132 0
37 44 31 40 35 33 -131 0
37 44 31 40 35 33 -134 0
37 44 31 40 35 33 -133 0
37 44 31 40 42 43 -132 0
37 44 31 40 42 43 -131 0
37 44 31 40 42 43 -134 0
37 44 31 40 42 43 -133 0
37 44 31 40 33 43 -132 0
37 44 31 40 33 43 -131 0
37 44 31 40 33 43 -134 0
37 44 31 40 33 43 -133 0
37 44 31 35 42 33 -132 0
37 44 31 35 42 33 -131 0
37 44 31 35 42 33 -134 0
37 44 31 35 42 33 -133 0
37 44 31 35 33 43 -132 0
37 44 31 35 33 43 -131 0
37 44 31 35 33 43 -134 0
37 44 31 35 33 43 -133 0
37 44 40 35 42 43 -132 0
37 44 40 35 42 43 -131 0
37 44 40 35 42 43 -134 0
37 44 40 35 42 43 -133 0
37 44 40 42 33 43 -132 0
37 44 40 42 33 43 -131 0
37 44 40 42 33 43 -134 0
37 44 40 42 33 43 -133 0
37 44 35 42 33 43 -132 0
37 44 35 42 33 43 -131 0
37 44 35 42 33 43 -134 0
37 44 35 42 33 43 -133 0
37 27 31 23 35 30 -116 0
37 27 31 23 35 30 -115 0
37 27 31 23 35 30 -114 0
37 27 31 23 35 30 -113 0
37 27 31 23 35 33 -116 0
37 27 31 23 35 33 -115 0
37 27 31 23 35 33 -114 0
37 27 31 23 35 33 -113 0
37 27 31 23 30 25 -116 0
37 27 31 23 30 25 -115 0
37 27 31 23 30 25 -114 0
37 27 31 23 30 25 -113 0
37 27 31 23 33 25 -116 0
37 27 31 23 33 25 -115 0
37 27 31 23 33 25 -114 0
37 27 31 23 33 25 -113 0
37 27 31 35 30 33 -116 0
37 27 31 35 30 33 -115 0
37 27 31 35 30 33 -114 0
37 27 31 35 30 33 -113 0
37 27 31 35 33 25 -116 0
37 27 31 35 33 25 -115 0
37 27 31 35 33 25 -114 0
37 27 31 35 33 25 -113 0
37 27 23 35 30 25 -116 0
37 27 23 35 30 25 -115 0
37 27 23 35 30 25 -114 0
37 27 23 35 30 25 -113 0
37 27 23 30 33 25 -116 0
37 27 23 30 33 25 -115 0
37 27 23 30 33 25 -114 0
37 27 23 30 33 25 -113 0
37 27 35 30 33 25 -116 0
37 27 35 30 33 25 -115 0
37 27 35 30 33 25 -114 0
37 27 35 30 33 25 -113 0
37 60 31 59 35 57 -140 0
37 60 31 59 35 57 -139 0
37 60 31 59 35 57 -142 0
37 60 31 59 35 57 -141 0
37 60 31 59 35 33 -140 0
37 60 31 59 35 33 -139 0
37 60 31 59 35 33 -142 0
37 60 31 59 35 33 -141 0
37 60 31 59 57 61 -140 0
37 60 31 59 57 61 -139 0
37 60 31 59 57 61 -142 0
37 60 31 59 57 61 -141 0
37 60 31 59 33 61 -140 0
37 60 31 59 33 61 -139 0
37 60 31 59 33 61 -142 0
37 60 31 59 33 61 -141 0
37 60 31 35 57 33 -140 0
37 60 31 35 57 33 -139 0
37 60 31 35 57 33 -142 0
37 60 31 35 57 33 -141 0
37 60 31 35 33 61 -140 0
37 60 31 35 33 61 -139 0
37 60 31 35 33 61 -142 0
37 60 31 35 33 61 -141 0
37 60 59 35 57 61 -140 0
37 60 59 35 57 61 -139 0
37 60 59 35 57 61 -142 0
37 60 59 35 57 61 -141 0
37 60 59 57 33 61 -140 0
37 60 59 57 33 61 -139 0
37 60 59 57 33 61 -142 0
37 60 59 57 33 61 -141 0
37 60 35 57 33 61 -140 0
37 60 35 57 33 61 -139 0
37 60 35 57 33 61 -142 0
37 60 35 57 33 61 -141 0
37 14 31 7 35 12 -74 0
37 14 31 7 35 12 -76 0
37 14 31 7 35 12 -73 0
37 14 31 7 35 12 -75 0
37 14 31 7 35 33 -74 0
37 14 31 7 35 33 -76 0
37 14 31 7 35 33 -73 0
37 14 31 7 35 33 -75 0
37 14 31 7 12 9 -74 0
37 14 31 7 12 9 -76 0
37 14 31 7 12 9 -73 0
37 14 31 7 12 9 -75 0
37 14 31 7 33 9 -74 0
37 14 31 7 33 9 -76 0
37 14 31 7 33 9 -73 0
37 14 31 7 33 9 -75 0
37 14 31 35 12 33 -74 0
37 14 31 35 12 33 -76 0
37 14 31 35 12 33 -73 0
37 14 31 35 12 33 -75 0
37 14 31 35 33 9 -74 0
37 14 31 35 33 9 -76 0
37 14 31 35 33 9 -73 0
37 14 31 35 33 9 -75 0
37 14 7 35 12 9 -74 0
37 14 7 35 12 9 -76 0
37 14 7 35 12 9 -73 0
37 14 7 35 12 9 -75 0
37 14 7 12 33 9 -74 0
37 14 7 12 33 9 -76 0
37 14 7 12 33 9 -73 0
37 14 7 12 33 9 -75 0
37 14 35 12 33 9 -74 0
37 14 35 12 33 9 -76 0
37 14 35 12 33 9 -73 0
37 14 35 12 33 9 -75 0
37 19 31 21 35 33 -95 0
37 19 31 21 35 33 -98 0
37 19 31 21 35 33 -96 0
37 19 31 21 35 33 -97 0
37 19 31 35 18 33 -95 0
37 19 31 35 18 33 -98 0
37 19 31 35 18 33 -96 0
37 19 31 35 18 33 -97 0
37 31 4 35 2 33 -32 0
37 31 4 35 2 33 -34 0
37 31 4 35 2 33 -36 0
37 31 4 35 2 33 -38 0
37 31 4 35 33 5 -32 0
37 31 4 35 33 5 -34 0
37 31 4 35 33 5 -36 0
37 31 4 35 33 5 -38 0
37 31 51 35 50 33 -136 0
37 31 51 35 50 33 -135 0
37 31 51 35 50 33 -138 0
37 31 51 35 50 33 -137 0
37 31 51 35 33 53 -136 0
37 31 51 35 33 53 -135 0
37 31 51 35 33 53 -138 0
37 31 51 35 33 53 -137 0
37 31 40 35 42 33 -132 0
37 31 40 35 42 33 -131 0
37 31 40 35 42 33 -134 0
37 31 40 35 42 33 -133 0
37 31 40 35 33 43 -132 0
37 31 40 35 33 43 -131 0
37 31 40 35 33 43 -134 0
37 31 40 35 33 43 -133 0
37 31 23 35 30 33 -116 0
37 31 23 35 30 33 -115 0
37 31 23 35 30 33 -114 0
37 31 23 35 30 33 -113 0
37 31 23 35 33 25 -116 0
37 31 23 35 33 25 -115 0
37 31 23 35 33 25 -114 0
37 31 23 35 33 25 -113 0
37 31 59 35 57 33 -140 0
37 31 59 35 57 33 -139 0
37 31 59 35 57 33 -142 0
37 31 59 35 57 33 -141 0
37 31 59 35 33 61 -140 0
37 31 59 35 33 61 -139 0
37 31 59 35 33 61 -142 0
37 31 59 35 33 61 -141 0
37 31 7 35 12 33 -74 0
37 31 7 35 12 33 -76 0
37 31 7 35 12 33 -73 0
37 31 7 35 12 33 -75 0
37 31 7 35 33 9 -74 0
37 31 7 35 33 9 -76 0
37 31 7 35 33 9 -73 0
37 31 7 35 33 9 -75 0
37 31 21 35 18 33 -95 0
37 31 21 35 18 33 -98 0
37 31 21 35 18 33 -96 0
37 31 21 35 18 33 -97 0
37 31 35 2 33 5 -32 0
37 31 35 2 33 5 -34 0
37 31 35 2 33 5 -36 0
37 31 35 2 33 5 -38 0
37 31 35 50 33 53 -136 0
37 31 35 50 33 53 -135 0
37 31 35 50 33 53 -138 0
37 31 35 50 33 53 -137 0
37 31 35 42 33 43 -132 0
37 31 35 42 33 43 -131 0
37 31 35 42 33 43 -134 0
37 31 35 42 33 43 -133 0
37 31 35 30 33 25 -116 0
37 31 35 30 33 25 -115 0
37 31 35 30 33 25 -114 0
37 31 35 30 33 25 -113 0
37 31 35 57 33 61 -140 0
37 31 35 57 33 61 -139 0
37 31 35 57 33 61 -142 0
37 31 35 57 33 61 -141 0
37 31 35 12 33 9 -74 0
37 31 35 12 33 9 -76 0
37 31 35 12 33 9 -73 0
37 31 35 12 33 9 -75 0
6 52 4 51 2 50 -47 0
6 52 4 51 2 50 -49 0
6 52 4 51 2 50 -54 0
6 52 4 51 2 50 -48 0
6 52 4 51 2 5 -47 0
6 52 4 51 2 5 -49 0
6 52 4 51 2 5 -54 0
6 52 4 51 2 5 -48 0
6 52 4 51 50 53 -47 0
6 52 4 51 50 53 -49 0
6 52 4 51 50 53 -54 0
6 52 4 51 50 53 -48 0
6 52 4 51 5 53 -47 0
6 52 4 51 5 53 -49 0
6 52 4 51 5 53 -54 0
6 52 4 51 5 53 -48 0
6 52 4 2 50 5 -47 0
6 52 4 2 50 5 -49 0
6 52 4 2 50 5 -54 0
6 52 4 2 50 5 -48 0
6 52 4 2 5 53 -47 0
6 52 4 2 5 53 -49 0
6 52 4 2 5 53 -54 0
6 52 4 2 5 53 -48 0
6 52 51 2 50 53 -47 0
6 52 51 2 50 53 -49 0
6 52 51 2 50 53 -54 0
6 52 51 2 50 53 -48 0
6 52 51 50 5 53 -47 0
6 52 51 50 5 53 -49 0
6 52 51 50 5 53 -54 0
6 52 51 50 5 53 -48 0
6 52 2 50 5 53 -47 0
6 52 2 50 5 53 -49 0
6 52 2 50 5 53 -54 0
6 52 2 50 5 53 -48 0
6 44 4 40 2 42 -45 0
6 44 4 40 2 42 -41 0
6 44 4 40 2 42 -39 0
6 44 4 40 2 42 -46 0
6 44 4 40 2 5 -45 0
6 44 4 40 2 5 -41 0
6 44 4 40 2 5 -39 0
6 44 4 40 2 5 -46 0
6 44 4 40 42 43 -45 0
6 44 4 40 42 43 -41 0
6 44 4 40 42 43 -39 0
6 44 4 40 42 43 -46 0
6 44 4 40 5 43 -45 0
6 44 4 40 5 43 -41 0
6 44 4 40 5 43 -39 0
6 44 4 40 5 43 -46 0
6 44 4 2 42 5 -45 0
6 44 4 2 42 5 -41 0
6 44 4 2 42 5 -39 0
6 44 4 2 42 5 -46 0
6 44 4 2 5 43 -45 0
6 44 4 2 5 43 -41 0
6 44 4 2 5 43 -39 0
6 44 4 2 5 43 -46 0
6 44 40 2 42 43 -45 0
6 44 40 2 42 43 -41 0
6 44 40 2 42 43 -39 0
6 44 40 2 42 43 -46 0
6 44 40 42 5 43 -45 0
6 44 40 42 5 43 -41 0
6 44 40 42 5 43 -39 0
6 44 40 42 5 43 -46 0
6 44 2 42 5 43 -45 0
6 44 2 42 5 43 -41 0
6 44 2 42 5 43 -39 0
6 44 2 42 5 43 -46 0
6 27 4 23 2 30 -26 0
6 27 4 23 2 30 -24 0
6 27 4 23 2 30 -29 0
6 27 4 23 2 30 -28 0
6 27 4 23 2 5 -26 0
6 27 4 23 2 5 -24 0
6 27 4 23 2 5 -29 0
6 27 4 23 2 5 -28 0
6 27 4 23 30 25 -26 0
6 27 4 23 30 25 -24 0
6 27 4 23 30 25 -29 0
6 27 4 23 30 25 -28 0
6 27 4 23 5 25 -26 0
6 27 4 23 5 25 -24 0
6 27 4 23 5 25 -29 0
6 27 4 23 5 25 -28 0
6 27 4 2 30 5 -26 0
6 27 4 2 30 5 -24 0
6 27 4 2 30 5 -29 0
6 27 4 2 30 5 -28 0
6 27 4 2 5 25 -26 0
6 27 4 2 5 25 -24 0
6 27 4 2 5 25 -29 0
6 27 4 2 5 25 -28 0
6 27 23 2 30 25 -26 0
6 27 23 2 30 25 -24 0
6 27 23 2 30 25 -29 0
6 27 23 2 30 25 -28 0
6 27 23 30 5 25 -26 0
6 27 23 30 5 25 -24 0
6 27 23 30 5 25 -29 0
6 27 23 30 5 25 -28 0
6 27 2 30 5 25 -26 0
6 27 2 30 5 25 -24 0
6 27 2 30 5 25 -29 0
6 27 2 30 5 25 -28 0
6 60 4 59 2 57 -62 0
6 60 4 59 2 57 -56 0
6 60 4 59 2 57 -55 0
6 60 4 59 2 57 -58 0
6 60 4 59 2 5 -62 0
6 60 4 59 2 5 -56 0
6 60 4 59 2 5 -55 0
6 60 4 59 2 5 -58 0
6 60 4 59 57 61 -62 0
6 60 4 59 57 61 -56 0
6 60 4 59 57 61 -55 0
6 60 4 59 57 61 -58 0
6 60 4 59 5 61 -62 0
6 60 4 59 5 61 -56 0
6 60 4 59 5 61 -55 0
6 60 4 59 5 61 -58 0
6 60 4 2 57 5 -62 0
6 60 4 2 57 5 -56 0
6 60 4 2 57 5 -55 0
6 60 4 2 57 5 -58 0
6 60 4 2 5 61 -62 0
6 60 4 2 5 61 -56 0
6 60 4 2 5 61 -55 0
6 60 4 2 5 61 -58 0
6 60 59 2 57 61 -62 0
6 60 59 2 57 61 -56 0
6 60 59 2 57 61 -55 0
6 60 59 2 57 61 -58 0
6 60 59 57 5 61 -62 0
6 60 59 57 5 61 -56 0
6 60 59 57 5 61 -55 0
6 60 59 57 5 61 -58 0
6 60 2 57 5 61 -62 0
6 60 2 57 5 61 -56 0
6 60 2 57 5 61 -55 0
6 60 2 57 5 61 -58 0
6 14 4 7 2 12 -11 0
6 14 4 7 2 12 -10 0
6 14 4 7 2 12 -8 0
6 14 4 7 2 12 -13 0
6 14 4 7 2 5 -11 0
6 14 4 7 2 5 -10 0
6 14 4 7 2 5 -8 0
6 14 4 7 2 5 -13 0
6 14 4 7 12 9 -11 0
6 14 4 7 12 9 -10 0
6 14 4 7 12 9 -8 0
6 14 4 7 12 9 -13 0
6 14 4 7 5 9 -11 0
6 14 4 7 5 9 -10 0
6 14 4 7 5 9 -8 0
6 14 4 7 5 9 -13 0
6 14 4 2 12 5 -11 0
6 14 4 2 12 5 -10 0
6 14 4 2 12 5 -8 0
6 14 4 2 12 5 -13 0
6 14 4 2 5 9 -11 0
6 14 4 2 5 9 -10 0
6 14 4 2 5 9 -8 0
6 14 4 2 5 9 -13 0
6 14 7 2 12 9 -11 0
6 14 7 2 12 9 -10 0
6 14 7 2 12 9 -8 0
6 14 7 2 12 9 -13 0
6 14 7 12 5 9 -11 0
6 14 7 12 5 9 -10 0
6 14 7 12 5 9 -8 0
6 14 7 12 5 9 -13 0
6 14 2 12 5 9 -11 0
6 14 2 12 5 9 -10 0
6 14 2 12 5 9 -8 0
6 14 2 12 5 9 -13 0
6 19 4 21 2 5 -22 0
6 19 4 21 2 5 -20 0
6 19 4 21 2 5 -16 0
6 19 4 21 2 5 -17 0
6 19 4 2 18 5 -22 0
6 19 4 2 18 5 -20 0
6 19 4 2 18 5 -16 0
6 19 4 2 18 5 -17 0
6 31 4 35 2 5 -32 0
6 31 4 35 2 5 -34 0
6 31 4 35 2 5 -36 0
6 31 4 35 2 5 -38 0
6 31 4 2 33 5 -32 0
6 31 4 2 33 5 -34 0
6 31 4 2 33 5 -36 0
6 31 4 2 33 5 -38 0
6 4 51 2 50 5 -47 0
6 4 51 2 50 5 -49 0
6 4 51 2 50 5 -54 0
6 4 51 2 50 5 -48 0
6 4 51 2 5 53 -47 0
6 4 51 2 5 53 -49 0
6 4 51 2 5 53 -54 0
6 4 51 2 5 53 -48 0
6 4 40 2 42 5 -45 0
6 4 40 2 42 5 -41 0
6 4 40 2 42 5 -39 0
6 4 40 2 42 5 -46 0
6 4 40 2 5 43 -45 0
6 4 40 2 5 43 -41 0
6 4 40 2 5 43 -39 0
6 4 40 2 5 43 -46 0
6 4 23 2 30 5 -26 0
6 4 23 2 30 5 -24 0
6 4 23 2 30 5 -29 0
6 4 23 2 30 5 -28 0
6 4 23 2 5 25 -26 0
6 4 23 2 5 25 -24 0
6 4 23 2 5 25 -29 0
6 4 23 2 5 25 -28 0
6 4 59 2 57 5 -62 0
6 4 59 2 57 5 -56 0
6 4 59 2 57 5 -55 0
6 4 59 2 57 5 -58 0
6 4 59 2 5 61 -62 0
6 4 59 2 5 61 -56 0
6 4 59 2 5 61 -55 0
6 4 59 2 5 61 -58 0
6 4 7 2 12 5 -11 0
6 4 7 2 12 5 -10 0
6 4 7 2 12 5 -8 0
6 4 7 2 12 5 -13 0
6 4 7 2 5 9 -11 0
6 4 7 2 5 9 -10 0
6 4 7 2 5 9 -8 0
6 4 7 2 5 9 -13 0
6 4 21 2 18 5 -22 0
6 4 21 2 18 5 -20 0
6 4 21 2 18 5 -16 0
6 4 21 2 18 5 -17 0
6 4 35 2 33 5 -32 0
6 4 35 2 33 5 -34 0
6 4 35 2 33 5 -36 0
6 4 35 2 33 5 -38 0
6 4 2 50 5 53 -47 0
6 4 2 50 5 53 -49 0
6 4 2 50 5 53 -54 0
6 4 2 50 5 53 -48 0
6 4 2 42 5 43 -45 0
6 4 2 42 5 43 -41 0
6 4 2 42 5 43 -39 0
6 4 2 42 5 43 -46 0
6 4 2 30 5 25 -26 0
6 4 2 30 5 25 -24 0
6 4 2 30 5 25 -29 0
6 4 2 30 5 25 -28 0
6 4 2 57 5 61 -62 0
6 4 2 57 5 61 -56 0
6 4 2 57 5 61 -55 0
6 4 2 57 5 61 -58 0
6 4 2 12 5 9 -11 0
6 4 2 12 5 9 -10 0
6 4 2 12 5 9 -8 0
6 4 2 12 5 9 -13 0
52 44 51 40 50 42 -145 0
52 44 51 40 50 42 -148 0
52 44 51 40 50 42 -146 0
52 44 51 40 50 42 -147 0
52 44 51 40 50 53 -145 0
52 44 51 40 50 53 -148 0
52 44 51 40 50 53 -146 0
52 44 51 40 50 53 -147 0
52 44 51 40 42 43 -145 0
52 44 51 40 42 43 -148 0
52 44 51 40 42 43 -146 0
52 44 51 40 42 43 -147 0
52 44 51 40 53 43 -145 0
52 44 51 40 53 43 -148 0
52 44 51 40 53 43 -146 0
52 44 51 40 53 43 -147 0
52 44 51 50 42 53 -145 0
52 44 51 50 42 53 -148 0
52 44 51 50 42 53 -146 0
52 44 51 50 42 53 -147 0
52 44 51 50 53 43 -145 0
52 44 51 50 53 43 -148 0
52 44 51 50 53 43 -146 0
52 44 51 50 53 43 -147 0
52 44 40 50 42 43 -145 0
52 44 40 50 42 43 -148 0
52 44 40 50 42 43 -146 0
52 44 40 50 42 43 -147 0
52 44 40 42 53 43 -145 0
52 44 40 42 53 43 -148 0
52 44 40 42 53 43 -146 0
52 44 40 42 53 43 -147 0
52 44 50 42 53 43 -145 0
52 44 50 42 53 43 -148 0
52 44 50 42 53 43 -146 0
52 44 50 42 53 43 -147 0
52 27 51 23 50 30 -122 0
52 27 51 23 50 30 -124 0
52 27 51 23 50 30 -123 0
52 27 51 23 50 30 -121 0
52 27 51 23 50 53 -122 0
52 27 51 23 50 53 -124 0
52 27 51 23 50 53 -123 0
52 27 51 23 50 53 -121 0
52 27 51 23 30 25 -122 0
52 27 51 23 30 25 -124 0
52 27 51 23 30 25 -123 0
52 27 51 23 30 25 -121 0
52 27 51 23 53 25 -122 0
52 27 51 23 53 25 -124 0
52 27 51 23 53 25 -123 0
52 27 51 23 53 25 -121 0
52 27 51 50 30 53 -122 0
52 27 51 50 30 53 -124 0
52 27 51 50 30 53 -123 0
52 27 51 50 30 53 -121 0
52 27 51 50 53 25 -122 0
52 27 51 50 53 25 -124 0
52 27 51 50 53 25 -123 0
52 27 51 50 53 25 -121 0
52 27 23 50 30 25 -122 0
52 27 23 50 30 25 -124 0
52 27 23 50 30 25 -123 0
52 27 23 50 30 25 -121 0
52 27 23 30 53 25 -122 0
52 27 23 30 53 25 -124 0
52 27 23 30 53 25 -123 0
52 27 23 30 53 25 -121 0
52 27 50 30 53 25 -122 0
52 27 50 30 53 25 -124 0
52 27 50 30 53 25 -123 0
52 27 50 30 53 25 -121 0
52 60 51 59 50 57 -158 0
52 60 51 59 50 57 -156 0
52 60 51 59 50 57 -155 0
52 60 51 59 50 57 -157 0
52 60 51 59 50 53 -158 0
52 60 51 59 50 53 -156 0
52 60 51 59 50 53 -155 0
52 60 51 59 50 53 -157 0
52 60 51 59 57 61 -158 0
52 60 51 59 57 61 -156 0
52 60 51 59 57 61 -155 0
52 60 51 59 57 61 -157 0
52 60 51 59 53 61 -158 0
52 60 51 59 53 61 -156 0
52 60 51 59 53 61 -155 0
52 60 51 59 53 61 -157 0
52 60 51 50 57 53 -158 0
52 60 51 50 57 53 -156 0
52 60 51 50 57 53 -155 0
52 60 51 50 57 53 -157 0
52 60 51 50 53 61 -158 0
52 60 51 50 53 61 -156 0
52 60 51 50 53 61 -155 0
52 60 51 50 53 61 -157 0
52 60 59 50 57 61 -158 0
52 60 59 50 57 61 -156 0
52 60 59 50 57 61 -155 0
52 60 59 50 57 61 -157 0
52 60 59 57 53 61 -158 0
52 60 59 57 53 61 -156 0
52 60 59 57 53 61 -155 0
52 60 59 57 53 61 -157 0
52 60 50 57 53 61 -158 0
52 60 50 57 53 61 -156 0
52 60 50 57 53 61 -155 0
52 60 50 57 53 61 -157 0
52 14 51 7 50 12 -81 0
52 14 51 7 50 12 -83 0
52 14 51 7 50 12 -82 0
52 14 51 7 50 12 -84 0
52 14 51 7 50 53 -81 0
52 14 51 7 50 53 -83 0
52 14 51 7 50 53 -82 0
52 14 51 7 50 53 -84 0
52 14 51 7 12 9 -81 0
52 14 51 7 12 9 -83 0
52 14 51 7 12 9 -82 0
52 14 51 7 12 9 -84 0
52 14 51 7 53 9 -81 0
52 14 51 7 53 9 -83 0
52 14 51 7 53 9 -82 0
52 14 51 7 53 9 -84 0
52 14 51 50 12 53 -81 0
52 14 51 50 12 53 -83 0
52 14 51 50 12 53 -82 0
52 14 51 50 12 53 -84 0
52 14 51 50 53 9 -81 0
52 14 51 50 53 9 -83 0
52 14 51 50 53 9 -82 0
52 14 51 50 53 9 -84 0
52 14 7 50 12 9 -81 0
52 14 7 50 12 9 -83 0
52 14 7 50 12 9 -82 0
52 14 7 50 12 9 -84 0
52 14 7 12 53 9 -81 0
52 14 7 12 53 9 -83 0
52 14 7 12 53 9 -82 0
52 14 7 12 53 9 -84 0
52 14 50 12 53 9 -81 0
52 14 50 12 53 9 -83 0
52 14 50 12 53 9 -82 0
52 14 50 12 53 9 -84 0
52 19 51 21 50 53 -106 0
52 19 51 21 50 53 -103 0
52 19 51 21 50 53 -104 0
52 19 51 21 50 53 -105 0
52 19 51 50 18 53 -106 0
52 19 51 50 18 53 -103 0
52 19 51 50 18 53 -104 0
52 19 51 50 18 53 -105 0
52 31 51 35 50 53 -136 0
52 31 51 35 50 53 -135 0
52 31 51 35 50 53 -138 0
52 31 51 35 50 53 -137 0
52 31 51 50 33 53 -136 0
52 31 51 50 33 53 -135 0
52 31 51 50 33 53 -138 0
52 31 51 50 33 53 -137 0
52 4 51 2 50 53 -47 0
52 4 51 2 50 53 -49 0
52 4 51 2 50 53 -54 0
52 4 51 2 50 53 -48 0
52 4 51 50 5 53 -47 0
52 4 51 50 5 53 -49 0
52 4 51 50 5 53 -54 0
52 4 51 50 5 53 -48 0
52 51 40 50 42 53 -145 0
52 51 40 50 42 53 -148 0
52 51 40 50 42 53 -146 0
52 51 40 50 42 53 -147 0
52 51 40 50 53 43 -145 0
52 51 40 50 53 43 -148 0
52 51 40 50 53 43 -146 0
52 51 40 50 53 43 -147 0
52 51 23 50 30 53 -122 0
52 51 23 50 30 53 -124 0
52 51 23 50 30 53 -123 0
52 51 23 50 30 53 -121 0
52 51 23 50 53 25 -122 0
52 51 23 50 53 25 -124 0
52 51 23 50 53 25 -123 0
52 51 23 50 53 25 -121 0
52 51 59 50 57 53 -158 0
52 51 59 50 57 53 -156 0
52 51 59 50 57 53 -155 0
52 51 59 50 57 53 -157 0
52 51 59 50 53 61 -158 0
52 51 59 50 53 61 -156 0
52 51 59 50 53 61 -155 0
52 51 59 50 53 61 -157 0
52 51 7 50 12 53 -81 0
52 51 7 50 12 53 -83 0
52 51 7 50 12 53 -82 0
52 51 7 50 12 53 -84 0
52 51 7 50 53 9 -81 0
52 51 7 50 53 9 -83 0
52 51 7 50 53 9 -82 0
52 51 7 50 53 9 -84 0
52 51 21 50 18 53 -106 0
52 51 21 50 18 53 -103 0
52 51 21 50 18 53 -104 0
52 51 21 50 18 53 -105 0
52 51 35 50 33 53 -136 0
52 51 35 50 33 53 -135 0
52 51 35 50 33 53 -138 0
52 51 35 50 33 53 -137 0
52 51 2 50 5 53 -47 0
52 51 2 50 5 53 -49 0
52 51 2 50 5 53 -54 0
52 51 2 50 5 53 -48 0
52 51 50 42 53 43 -145 0
52 51 50 42 53 43 -148 0
52 51 50 42 53 43 -146 0
52 51 50 42 53 43 -147 0
52 51 50 30 53 25 -122 0
52 51 50 30 53 25 -124 0
52 51 50 30 53 25 -123 0
52 51 50 30 53 25 -121 0
52 51 50 57 53 61 -158 0
52 51 50 57 53 61 -156 0
52 51 50 57 53 61 -155 0
52 51 50 57 53 61 -157 0
52 51 50 12 53 9 -81 0
52 51 50 12 53 9 -83 0
52 51 50 12 53 9 -82 0
52 51 50 12 53 9 -84 0
44 27 40 23 42 30 -118 0
44 27 40 23 42 30 -117 0
44 27 40 23 42 30 -119 0
44 27 40 23 42 30 -120 0
44 27 40 23 42 43 -118 0
44 27 40 23 42 43 -117 0
44 27 40 23 42 43 -119 0
44 27 40 23 42 43 -120 0
44 27 40 23 30 25 -118 0
44 27 40 23 30 25 -117 0
44 27 40 23 30 25 -119 0
44 27 40 23 30 25 -120 0
44 27 40 23 43 25 -118 0
44 27 40 23 43 25 -117 0
44 27 40 23 43 25 -119 0
44 27 40 23 43 25 -120 0
44 27 40 42 30 43 -118 0
44 27 40 42 30 43 -117 0
44 27 40 42 30 43 -119 0
44 27 40 42 30 43 -120 0
44 27 40 42 43 25 -118 0
44 27 40 42 43 25 -117 0
44 27 40 42 43 25 -119 0
44 27 40 42 43 25 -120 0
44 27 23 42 30 25 -118 0
44 27 23 42 30 25 -117 0
44 27 23 42 30 25 -119 0
44 27 23 42 30 25 -120 0
44 27 23 30 43 25 -118 0
44 27 23 30 43 25 -117 0
44 27 23 30 43 25 -119 0
44 27 23 30 43 25 -120 0
44 27 42 30 43 25 -118 0
44 27 42 30 43 25 -117 0
44 27 42 30 43 25 -119 0
44 27 42 30 43 25 -120 0
44 60 40 59 42 57 -150 0
44 60 40 59 42 57 -149 0
44 60 40 59 42 57 -151 0
44 60 40 59 42 57 -152 0
44 60 40 59 42 43 -150 0
44 60 40 59 42 43 -149 0
44 60 40 59 42 43 -151 0
44 60 40 59 42 43 -152 0
44 60 40 59 57 61 -150 0
44 60 40 59 57 61 -149 0
44 60 40 59 57 61 -151 0
44 60 40 59 57 61 -152 0
44 60 40 59 43 61 -150 0
44 60 40 59 43 61 -149 0
44 60 40 59 43 61 -151 0
44 60 40 59 43 61 -152 0
44 60 40 42 57 43 -150 0
44 60 40 42 57 43 -149 0
44 60 40 42 57 43 -151 0
44 60 40 42 57 43 -152 0
44 60 40 42 43 61 -150 0
44 60 40 42 43 61 -149 0
44 60 40 42 43 61 -151 0
44 60 40 42 43 61 -152 0
44 60 59 42 57 61 -150 0
44 60 59 42 57 61 -149 0
44 60 59 42 57 61 -151 0
44 60 59 42 57 61 -152 0
44 60 59 57 43 61 -150 0
44 60 59 57 43 61 -149 0
44 60 59 57 43 61 -151 0
44 60 59 57 43 61 -152 0
44 60 42 57 43 61 -150 0
44 60 42 57 43 61 -149 0
44 60 42 57 43 61 -151 0
44 60 42 57 43 61 -152 0
44 14 40 7 42 12 -80 0
44 14 40 7 42 12 -77 0
44 14 40 7 42 12 -79 0
44 14 40 7 42 12 -78 0
44 14 40 7 42 43 -80 0
44 14 40 7 42 43 -77 0
44 14 40 7 42 43 -79 0
44 14 40 7 42 43 -78 0
44 14 40 7 12 9 -80 0
44 14 40 7 12 9 -77 0
44 14 40 7 12 9 -79 0
44 14 40 7 12 9 -78 0
44 14 40 7 43 9 -80 0
44 14 40 7 43 9 -77 0
44 14 40 7 43 9 -79 0
44 14 40 7 43 9 -78 0
44 14 40 42 12 43 -80 0
44 14 40 42 12 43 -77 0
44 14 40 42 12 43 -79 0
44 14 40 42 12 43 -78 0
44 14 40 42 43 9 -80 0
44 14 40 42 43 9 -77 0
44 14 40 42 43 9 -79 0
44 14 40 42 43 9 -78 0
44 14 7 42 12 9 -80 0
44 14 7 42 12 9 -77 0
44 14 7 42 12 9 -79 0
44 14 7 42 12 9 -78 0
44 14 7 12 43 9 -80 0
44 14 7 12 43 9 -77 0
44 14 7 12 43 9 -79 0
44 14 7 12 43 9 -78 0
44 14 42 12 43 9 -80 0
44 14 42 12 43 9 -77 0
44 14 42 12 43 9 -79 0
44 14 42 12 43 9 -78 0
44 19 40 21 42 43 -100 0
44 19 40 21 42 43 -99 0
44 19 40 21 42 43 -102 0
44 19 40 21 42 43 -101 0
44 19 40 42 18 43 -100 0
44 19 40 42 18 43 -99 0
44 19 40 42 18 43 -102 0
44 19 40 42 18 43 -101 0
44 31 40 35 42 43 -132 0
44 31 40 35 42 43 -131 0
44 31 40 35 42 43 -134 0
44 31 40 35 42 43 -133 0
44 31 40 42 33 43 -132 0
44 31 40 42 33 43 -131 0
44 31 40 42 33 43 -134 0
44 31 40 42 33 43 -133 0
44 4 40 2 42 43 -45 0
44 4 40 2 42 43 -41 0
44 4 40 2 42 43 -39 0
44 4 40 2 42 43 -46 0
44 4 40 42 5 43 -45 0
44 4 40 42 5 43 -41 0
44 4 40 42 5 43 -39 0
44 4 40 42 5 43 -46 0
44 51 40 50 42 43 -145 0
44 51 40 50 42 43 -148 0
44 51 40 50 42 43 -146 0
44 51 40 50 42 43 -147 0
44 51 40 42 53 43 -145 0
44 51 40 42 53 43 -148 0
44 51 40 42 53 43 -146 0
44 51 40 42 53 43 -147 0
44 40 23 42 30 43 -118 0
44 40 23 42 30 43 -117 0
44 40 23 42 30 43 -119 0
44 40 23 42 30 43 -120 0
44 40 23 42 43 25 -118 0
44 40 23 42 43 25 -117 0
44 40 23 42 43 25 -119 0
44 40 23 42 43 25 -120 0
44 40 59 42 57 43 -150 0
44 40 59 42 57 43 -149 0
44 40 59 42 57 43 -151 0
44 40 59 42 57 43 -152 0
44 40 59 42 43 61 -150 0
44 40 59 42 43 61 -149 0
44 40 59 42 43 61 -151 0
44 40 59 42 43 61 -152 0
44 40 7 42 12 43 -80 0
44 40 7 42 12 43 -77 0
44 40 7 42 12 43 -79 0
44 40 7 42 12 43 -78 0
44 40 7 42 43 9 -80 0
44 40 7 42 43 9 -77 0
44 40 7 42 43 9 -79 0
44 40 7 42 43 9 -78 0
44 40 21 42 18 43 -100 0
44 40 21 42 18 43 -99 0
44 40 21 42 18 43 -102 0
44 40 21 42 18 43 -101 0
44 40 35 42 33 43 -132 0
44 40 35 42 33 43 -131 0
44 40 35 42 33 43 -134 0
44 40 35 42 33 43 -133 0
44 40 2 42 5 43 -45 0
44 40 2 42 5 43 -41 0
44 40 2 42 5 43 -39 0
44 40 2 42 5 43 -46 0
44 40 50 42 53 43 -145 0
44 40 50 42 53 43 -148 0
44 40 50 42 53 43 -146 0
44 40 50 42 53 43 -147 0
44 40 42 30 43 25 -118 0
44 40 42 30 43 25 -117 0
44 40 42 30 43 25 -119 0
44 40 42 30 43 25 -120 0
44 40 42 57 43 61 -150 0
44 40 42 57 43 61 -149 0
44 40 42 57 43 61 -151 0
44 40 42 57 43 61 -152 0
44 40 42 12 43 9 -80 0
44 40 42 12 43 9 -77 0
44 40 42 12 43 9 -79 0
44 40 42 12 43 9 -78 0
27 60 23 59 30 57 -127 0
27 60 23 59 30 57 -125 0
27 60 23 59 30 57 -128 0
27 60 23 59 30 57 -126 0
27 60 23 59 30 25 -127 0
27 60 23 59 30 25 -125 0
27 60 23 59 30 25 -128 0
27 60 23 59 30 25 -126 0
27 60 23 59 57 61 -127 0
27 60 23 59 57 61 -125 0
27 60 23 59 57 61 -128 0
27 60 23 59 57 61 -126 0
27 60 23 59 25 61 -127 0
27 60 23 59 25 61 -125 0
27 60 23 59 25 61 -128 0
27 60 23 59 25 61 -126 0
27 60 23 30 57 25 -127 0
27 60 23 30 57 25 -125 0
27 60 23 30 57 25 -128 0
27 60 23 30 57 25 -126 0
27 60 23 30 25 61 -127 0
27 60 23 30 25 61 -125 0
27 60 23 30 25 61 -128 0
27 60 23 30 25 61 -126 0
27 60 59 30 57 61 -127 0
27 60 59 30 57 61 -125 0
27 60 59 30 57 61 -128 0
27 60 59 30 57 61 -126 0
27 60 59 57 25 61 -127 0
27 60 59 57 25 61 -125 0
27 60 59 57 25 61 -128 0
27 60 59 57 25 61 -126 0
27 60 30 57 25 61 -127 0
27 60 30 57 25 61 -125 0
27 60 30 57 25 61 -128 0
27 60 30 57 25 61 -126 0
27 14 23 7 30 12 -71 0
27 14 23 7 30 12 -69 0
27 14 23 7 30 12 -72 0
27 14 23 7 30 12 -70 0
27 14 23 7 30 25 -71 0
27 14 23 7 30 25 -69 0
27 14 23 7 30 25 -72 0
27 14 23 7 30 25 -70 0
27 14 23 7 12 9 -71 0
27 14 23 7 12 9 -69 0
27 14 23 7 12 9 -72 0
27 14 23 7 12 9 -70 0
27 14 23 7 25 9 -71 0
27 14 23 7 25 9 -69 0
27 14 23 7 25 9 -72 0
27 14 23 7 25 9 -70 0
27 14 23 30 12 25 -71 0
27 14 23 30 12 25 -69 0
27 14 23 30 12 25 -72 0
27 14 23 30 12 25 -70 0
27 14 23 30 25 9 -71 0
27 14 23 30 25 9 -69 0
27 14 23 30 25 9 -72 0
27 14 23 30 25 9 -70 0
27 14 7 30 12 9 -71 0
27 14 7 30 12 9 -69 0
27 14 7 30 12 9 -72 0
27 14 7 30 12 9 -70 0
27 14 7 12 25 9 -71 0
27 14 7 12 25 9 -69 0
27 14 7 12 25 9 -72 0
27 14 7 12 25 9 -70 0
27 14 30 12 25 9 -71 0
27 14 30 12 25 9 -69 0
27 14 30 12 25 9 -72 0
27 14 30 12 25 9 -70 0
27 19 23 21 30 25 -93 0
27 19 23 21 30 25 -92 0
27 19 23 21 30 25 -91 0
27 19 23 21 30 25 -94 0
27 19 23 30 18 25 -93 0
27 19 23 30 18 25 -92 0
27 19 23 30 18 25 -91 0
27 19 23 30 18 25 -94 0
27 31 23 35 30 25 -116 0
27 31 23 35 30 25 -115 0
27 31 23 35 30 25 -114 0
27 31 23 35 30 25 -113 0
27 31 23 30 33 25 -116 0
27 31 23 30 33 25 -115 0
27 31 23 30 33 25 -114 0
27 31 23 30 33 25 -113 0
27 4 23 2 30 25 -26 0
27 4 23 2 30 25 -24 0
27 4 23 2 30 25 -29 0
27 4 23 2 30 25 -28 0
27 4 23 30 5 25 -26 0
27 4 23 30 5 25 -24 0
27 4 23 30 5 25 -29 0
27 4 23 30 5 25 -28 0
27 51 23 50 30 25 -122 0
27 51 23 50 30 25 -124 0
27 51 23 50 30 25 -123 0
27 51 23 50 30 25 -121 0
27 51 23 30 53 25 -122 0
27 51 23 30 53 25 -124 0
27 51 23 30 53 25 -123 0
27 51 23 30 53 25 -121 0
27 40 23 42 30 25 -118 0
27 40 23 42 30 25 -117 0
27 40 23 42 30 25 -119 0
27 40 23 42 30 25 -120 0
27 40 23 30 43 25 -118 0
27 40 23 30 43 25 -117 0
27 40 23 30 43 25 -119 0
27 40 23 30 43 25 -120 0
27 23 59 30 57 25 -127 0
27 23 59 30 57 25 -125 0
27 23 59 30 57 25 -128 0
27 23 59 30 57 25 -126 0
27 23 59 30 25 61 -127 0
27 23 59 30 25 61 -125 0
27 23 59 30 25 61 -128 0
27 23 59 30 25 61 -126 0
27 23 7 30 12 25 -71 0
27 23 7 30 12 25 -69 0
27 23 7 30 12 25 -72 0
27 23 7 30 12 25 -70 0
27 23 7 30 25 9 -71 0
27 23 7 30 25 9 -69 0
27 23 7 30 25 9 -72 0
27 23 7 30 25 9 -70 0
27 23 21 30 18 25 -93 0
27 23 21 30 18 25 -92 0
27 23 21 30 18 25 -91 0
27 23 21 30 18 25 -94 0
27 23 35 30 33 25 -116 0
27 23 35 30 33 25 -115 0
27 23 35 30 33 25 -114 0
27 23 35 30 33 25 -113 0
27 23 2 30 5 25 -26 0
27 23 2 30 5 25 -24 0
27 23 2 30 5 25 -29 0
27 23 2 30 5 25 -28 0
27 23 50 30 53 25 -122 0
27 23 50 30 53 25 -124 0
27 23 50 30 53 25 -123 0
27 23 50 30 53 25 -121 0
27 23 42 30 43 25 -118 0
27 23 42 30 43 25 -117 0
27 23 42 30 43 25 -119 0
27 23 42 30 43 25 -120 0
27 23 30 57 25 61 -127 0
27 23 30 57 25 61 -125 0
27 23 30 57 25 61 -128 0
27 23 30 57 25 61 -126 0
27 23 30 12 25 9 -71 0
27 23 30 12 25 9 -69 0
27 23 30 12 25 9 -72 0
27 23 30 12 25 9 -70 0
60 14 59 7 57 12 -87 0
60 14 59 7 57 12 -85 0
60 14 59 7 57 12 -88 0
60 14 59 7 57 12 -86 0
60 14 59 7 57 61 -87 0
60 14 59 7 57 61 -85 0
60 14 59 7 57 61 -88 0
60 14 59 7 57 61 -86 0
60 14 59 7 12 9 -87 0
60 14 59 7 12 9 -85 0
60 14 59 7 12 9 -88 0
60 14 59 7 12 9 -86 0
60 14 59 7 61 9 -87 0
60 14 59 7 61 9 -85 0
60 14 59 7 61 9 -88 0
60 14 59 7 61 9 -86 0
60 14 59 57 12 61 -87 0
60 14 59 57 12 61 -85 0
60 14 59 57 12 61 -88 0
60 14 59 57 12 61 -86 0
60 14 59 57 61 9 -87 0
60 14 59 57 61 9 -85 0
60 14 59 57 61 9 -88 0
60 14 59 57 61 9 -86 0
60 14 7 57 12 9 -87 0
60 14 7 57 12 9 -85 0
60 14 7 57 12 9 -88 0
60 14 7 57 12 9 -86 0
60 14 7 12 61 9 -87 0
60 14 7 12 61 9 -85 0
60 14 7 12 61 9 -88 0
60 14 7 12 61 9 -86 0
60 14 57 12 61 9 -87 0
60 14 57 12 61 9 -85 0
60 14 57 12 61 9 -88 0
60 14 57 12 61 9 -86 0
60 19 59 21 57 61 -109 0
60 19 59 21 57 61 -108 0
60 19 59 21 57 61 -110 0
60 19 59 21 57 61 -107 0
60 19 59 57 18 61 -109 0
60 19 59 57 18 61 -108 0
60 19 59 57 18 61 -110 0
60 19 59 57 18 61 -107 0
60 31 59 35 57 61 -140 0
60 31 59 35 57 61 -139 0
60 31 59 35 57 61 -142 0
60 31 59 35 57 61 -141 0
60 31 59 57 33 61 -140 0
60 31 59 57 33 61 -139 0
60 31 59 57 33 61 -142 0
60 31 59 57 33 61 -141 0
60 4 59 2 57 61 -62 0
60 4 59 2 57 61 -56 0
60 4 59 2 57 61 -55 0
60 4 59 2 57 61 -58 0
60 4 59 57 5 61 -62 0
60 4 59 57 5 61 -56 0
60 4 59 57 5 61 -55 0
60 4 59 57 5 61 -58 0
60 51 59 50 57 61 -158 0
60 51 59 50 57 61 -156 0
60 51 59 50 57 61 -155 0
60 51 59 50 57 61 -157 0
60 51 59 57 53 61 -158 0
60 51 59 57 53 61 -156 0
60 51 59 57 53 61 -155 0
60 51 59 57 53 61 -157 0
60 40 59 42 57 61 -150 0
60 40 59 42 57 61 -149 0
60 40 59 42 57 61 -151 0
60 40 59 42 57 61 -152 0
60 40 59 57 43 61 -150 0
60 40 59 57 43 61 -149 0
60 40 59 57 43 61 -151 0
60 40 59 57 43 61 -152 0
60 23 59 30 57 61 -127 0
60 23 59 30 57 61 -125 0
60 23 59 30 57 61 -128 0
60 23 59 30 57 61 -126 0
60 23 59 57 25 61 -127 0
60 23 59 57 25 61 -125 0
60 23 59 57 25 61 -128 0
60 23 59 57 25 61 -126 0
60 59 7 57 12 61 -87 0
60 59 7 57 12 61 -85 0
60 59 7 57 12 61 -88 0
60 59 7 57 12 61 -86 0
60 59 7 57 61 9 -87 0
60 59 7 57 61 9 -85 0
60 59 7 57 61 9 -88 0
60 59 7 57 61 9 -86 0
60 59 21 57 18 61 -109 0
60 59 21 57 18 61 -108 0
60 59 21 57 18 61 -110 0
60 59 21 57 18 61 -107 0
60 59 35 57 33 61 -140 0
60 59 35 57 33 61 -139 0
60 59 35 57 33 61 -142 0
60 59 35 57 33 61 -141 0
60 59 2 57 5 61 -62 0
60 59 2 57 5 61 -56 0
60 59 2 57 5 61 -55 0
60 59 2 57 5 61 -58 0
60 59 50 57 53 61 -158 0
60 59 50 57 53 61 -156 0
60 59 50 57 53 61 -155 0
60 59 50 57 53 61 -157 0
60 59 42 57 43 61 -150 0
60 59 42 57 43 61 -149 0
60 59 42 57 43 61 -151 0
60 59 42 57 43 61 -152 0
60 59 30 57 25 61 -127 0
60 59 30 57 25 61 -125 0
60 59 30 57 25 61 -128 0
60 59 30 57 25 61 -126 0
60 59 57 12 61 9 -87 0
60 59 57 12 61 9 -85 0
60 59 57 12 61 9 -88 0
60 59 57 12 61 9 -86 0
14 19 7 21 12 9 -68 0
14 19 7 21 12 9 -66 0
14 19 7 21 12 9 -65 0
14 19 7 21 12 9 -67 0
14 19 7 12 18 9 -68 0
14 19 7 12 18 9 -66 0
14 19 7 12 18 9 -65 0
14 19 7 12 18 9 -67 0
14 31 7 35 12 9 -74 0
14 31 7 35 12 9 -76 0
14 31 7 35 12 9 -73 0
14 31 7 35 12 9 -75 0
14 31 7 12 33 9 -74 0
14 31 7 12 33 9 -76 0
14 31 7 12 33 9 -73 0
14 31 7 12 33 9 -75 0
14 4 7 2 12 9 -11 0
14 4 7 2 12 9 -10 0
14 4 7 2 12 9 -8 0
14 4 7 2 12 9 -13 0
14 4 7 12 5 9 -11 0
14 4 7 12 5 9 -10 0
14 4 7 12 5 9 -8 0
14 4 7 12 5 9 -13 0
14 51 7 50 12 9 -81 0
14 51 7 50 12 9 -83 0
14 51 7 50 12 9 -82 0
14 51 7 50 12 9 -84 0
14 51 7 12 53 9 -81 0
14 51 7 12 53 9 -83 0
14 51 7 12 53 9 -82 0
14 51 7 12 53 9 -84 0
14 40 7 42 12 9 -80 0
14 40 7 42 12 9 -77 0
14 40 7 42 12 9 -79 0
14 40 7 42 12 9 -78 0
14 40 7 12 43 9 -80 0
14 40 7 12 43 9 -77 0
14 40 7 12 43 9 -79 0
14 40 7 12 43 9 -78 0
14 23 7 30 12 9 -71 0
14 23 7 30 12 9 -69 0
14 23 7 30 12 9 -72 0
14 23 7 30 12 9 -70 0
14 23 7 12 25 9 -71 0
14 23 7 12 25 9 -69 0
14 23 7 12 25 9 -72 0
14 23 7 12 25 9 -70 0
14 59 7 57 12 9 -87 0
14 59 7 57 12 9 -85 0
14 59 7 57 12 9 -88 0
14 59 7 57 12 9 -86 0
14 59 7 12 61 9 -87 0
14 59 7 12 61 9 -85 0
14 59 7 12 61 9 -88 0
14 59 7 12 61 9 -86 0
14 7 21 12 18 9 -68 0
14 7 21 12 18 9 -66 0
14 7 21 12 18 9 -65 0
14 7 21 12 18 9 -67 0
14 7 35 12 33 9 -74 0
14 7 35 12 33 9 -76 0
14 7 35 12 33 9 -73 0
14 7 35 12 33 9 -75 0
14 7 2 12 5 9 -11 0
14 7 2 12 5 9 -10 0
14 7 2 12 5 9 -8 0
14 7 2 12 5 9 -13 0
14 7 50 12 53 9 -81 0
14 7 50 12 53 9 -83 0
14 7 50 12 53 9 -82 0
14 7 50 12 53 9 -84 0
14 7 42 12 43 9 -80 0
14 7 42 12 43 9 -77 0
14 7 42 12 43 9 -79 0
14 7 42 12 43 9 -78 0
14 7 30 12 25 9 -71 0
14 7 30 12 25 9 -69 0
14 7 30 12 25 9 -72 0
14 7 30 12 25 9 -70 0
14 7 57 12 61 9 -87 0
14 7 57 12 61 9 -85 0
14 7 57 12 61 9 -88 0
14 7 57 12 61 9 -86 0
19 31 21 35 18 33 -95 0
19 31 21 35 18 33 -98 0
19 31 21 35 18 33 -96 0
19 31 21 35 18 33 -97 0
19 4 21 2 18 5 -22 0
19 4 21 2 18 5 -20 0
19 4 21 2 18 5 -16 0
19 4 21 2 18 5 -17 0
19 51 21 50 18 53 -106 0
19 51 21 50 18 53 -103 0
19 51 21 50 18 53 -104 0
19 51 21 50 18 53 -105 0
19 40 21 42 18 43 -100 0
19 40 21 42 18 43 -99 0
19 40 21 42 18 43 -102 0
19 40 21 42 18 43 -101 0
19 23 21 30 18 25 -93 0
19 23 21 30 18 25 -92 0
19 23 21 30 18 25 -91 0
19 23 21 30 18 25 -94 0
19 59 21 57 18 61 -109 0
19 59 21 57 18 61 -108 0
19 59 21 57 18 61 -110 0
19 59 21 57 18 61 -107 0
19 7 21 12 18 9 -68 0
19 7 21 12 18 9 -66 0
19 7 21 12 18 9 -65 0
19 7 21 12 18 9 -67 0
31 4 35 2 33 5 -32 0
31 4 35 2 33 5 -34 0
31 4 35 2 33 5 -36 0
31 4 35 2 33 5 -38 0
31 51 35 50 33 53 -136 0
31 51 35 50 33 53 -135 0
31 51 35 50 33 53 -138 0
31 51 35 50 33 53 -137 0
31 40 35 42 33 43 -132 0
31 40 35 42 33 43 -131 0
31 40 35 42 33 43 -134 0
31 40 35 42 33 43 -133 0
31 23 35 30 33 25 -116 0
31 23 35 30 33 25 -115 0
31 23 35 30 33 25 -114 0
31 23 35 30 33 25 -113 0
31 59 35 57 33 61 -140 0
31 59 35 57 33 61 -139 0
31 59 35 57 33 61 -142 0
31 59 35 57 33 61 -141 0
31 7 35 12 33 9 -74 0
31 7 35 12 33 9 -76 0
31 7 35 12 33 9 -73 0
31 7 35 12 33 9 -75 0
4 51 2 50 5 53 -47 0
4 51 2 50 5 53 -49 0
4 51 2 50 5 53 -54 0
4 51 2 50 5 53 -48 0
4 40 2 42 5 43 -45 0
4 40 2 42 5 43 -41 0
4 40 2 42 5 43 -39 0
4 40 2 42 5 43 -46 0
4 23 2 30 5 25 -26 0
4 23 2 30 5 25 -24 0
4 23 2 30 5 25 -29 0
4 23 2 30 5 25 -28 0
4 59 2 57 5 61 -62 0
4 59 2 57 5 61 -56 0
4 59 2 57 5 61 -55 0
4 59 2 57 5 61 -58 0
4 7 2 12 5 9 -11 0
4 7 2 12 5 9 -10 0
4 7 2 12 5 9 -8 0
4 7 2 12 5 9 -13 0
51 40 50 42 53 43 -145 0
51 40 50 42 53 43 -148 0
51 40 50 42 53 43 -146 0
51 40 50 42 53 43 -147 0
51 23 50 30 53 25 -122 0
51 23 50 30 53 25 -124 0
51 23 50 30 53 25 -123 0
51 23 50 30 53 25 -121 0
51 59 50 57 53 61 -158 0
51 59 50 57 53 61 -156 0
51 59 50 57 53 61 -155 0
51 59 50 57 53 61 -157 0
51 7 50 12 53 9 -81 0
51 7 50 12 53 9 -83 0
51 7 50 12 53 9 -82 0
51 7 50 12 53 9 -84 0
40 23 42 30 43 25 -118 0
40 23 42 30 43 25 -117 0
40 23 42 30 43 25 -119 0
40 23 42 30 43 25 -120 0
40 59 42 57 43 61 -150 0
40 59 42 57 43 61 -149 0
40 59 42 57 43 61 -151 0
40 59 42 57 43 61 -152 0
40 7 42 12 43 9 -80 0
40 7 42 12 43 9 -77 0
40 7 42 12 43 9 -79 0
40 7 42 12 43 9 -78 0
23 59 30 57 25 61 -127 0
23 59 30 57 25 61 -125 0
23 59 30 57 25 61 -128 0
23 59 30 57 25 61 -126 0
23 7 30 12 25 9 -71 0
23 7 30 12 25 9 -69 0
23 7 30 12 25 9 -72 0
23 7 30 12 25 9 -70 0
59 7 57 12 61 9 -87 0
59 7 57 12 61 9 -85 0
59 7 57 12 61 9 -88 0
59 7 57 12 61 9 -86 0
89 95 22 106 100 93 109 68 0
98 129 32 136 132 116 140 74 0
20 34 1 47 45 26 62 11 0
103 135 49 154 145 122 158 81 0
99 131 41 148 143 118 150 80 0
92 115 24 124 117 111 127 71 0
108 139 56 156 149 125 159 87 0
66 76 10 83 77 69 85 64 0
90 96 16 104 102 91 110 65 0
97 130 36 138 134 114 142 73 0
17 38 3 54 39 29 55 8 0
105 137 48 153 146 123 155 82 0
101 133 46 147 144 119 151 79 0
94 113 28 121 120 112 128 72 0
107 141 58 157 152 126 160 88 0
67 75 13 84 78 70 86 63 0
15 37 19 31 21 35 18 -95 0
15 37 19 31 21 35 18 -98 0
15 37 19 31 21 35 18 -96 0
15 37 19 31 21 35 18 -97 0
15 37 19 31 21 35 33 -95 0
15 37 19 31 21 35 33 -98 0
15 37 19 31 21 35 33 -96 0
15 37 19 31 21 35 33 -97 0
15 37 19 31 21 18 33 -95 0
15 37 19 31 21 18 33 -98 0
15 37 19 31 21 18 33 -96 0
15 37 19 31 21 18 33 -97 0
15 37 19 31 35 18 33 -95 0
15 37 19 31 35 18 33 -98 0
15 37 19 31 35 18 33 -96 0
15 37 19 31 35 18 33 -97 0
15 37 19 21 35 18 33 -95 0
15 37 19 21 35 18 33 -98 0
15 37 19 21 35 18 33 -96 0
15 37 19 21 35 18 33 -97 0
15 37 31 21 35 18 33 -95 0
15 37 31 21 35 18 33 -98 0
15 37 31 21 35 18 33 -96 0
15 37 31 21 35 18 33 -97 0
15 6 19 4 21 2 18 -22 0
15 6 19 4 21 2 18 -20 0
15 6 19 4 21 2 18 -16 0
15 6 19 4 21 2 18 -17 0
15 6 19 4 21 2 5 -22 0
15 6 19 4 21 2 5 -20 0
15 6 19 4 21 2 5 -16 0
15 6 19 4 21 2 5 -17 0
15 6 19 4 21 18 5 -22 0
15 6 19 4 21 18 5 -20 0
15 6 19 4 21 18 5 -16 0
15 6 19 4 21 18 5 -17 0
15 6 19 4 2 18 5 -22 0
15 6 19 4 2 18 5 -20 0
15 6 19 4 2 18 5 -16 0
15 6 19 4 2 18 5 -17 0
15 6 19 21 2 18 5 -22 0
15 6 19 21 2 18 5 -20 0
15 6 19 21 2 18 5 -16 0
15 6 19 21 2 18 5 -17 0
15 6 4 21 2 18 5 -22 0
15 6 4 21 2 18 5 -20 0
15 6 4 21 2 18 5 -16 0
15 6 4 21 2 18 5 -17 0
15 52 19 51 21 50 18 -106 0
15 52 19 51 21 50 18 -103 0
15 52 19 51 21 50 18 -104 0
15 52 19 51 21 50 18 -105 0
15 52 19 51 21 50 53 -106 0
15 52 19 51 21 50 53 -103 0
15 52 19 51 21 50 53 -104 0
15 52 19 51 21 50 53 -105 0
15 52 19 51 21 18 53 -106 0
15 52 19 51 21 18 53 -103 0
15 52 19 51 21 18 53 -104 0
15 52 19 51 21 18 53 -105 0
15 52 19 51 50 18 53 -106 0
15 52 19 51 50 18 53 -103 0
15 52 19 51 50 18 53 -104 0
15 52 19 51 50 18 53 -105 0
15 52 19 21 50 18 53 -106 0
15 52 19 21 50 18 53 -103 0
15 52 19 21 50 18 53 -104 0
15 52 19 21 50 18 53 -105 0
15 52 51 21 50 18 53 -106 0
15 52 51 21 50 18 53 -103 0
15 52 51 21 50 18 53 -104 0
15 52 51 21 50 18 53 -105 0
15 44 19 40 21 42 18 -100 0
15 44 19 40 21 42 18 -99 0
15 44 19 40 21 42 18 -102 0
15 44 19 40 21 42 18 -101 0
15 44 19 40 21 42 43 -100 0
15 44 19 40 21 42 43 -99 0
15 44 19 40 21 42 43 -102 0
15 44 19 40 21 42 43 -101 0
15 44 19 40 21 18 43 -100 0
15 44 19 40 21 18 43 -99 0
15 44 19 40 21 18 43 -102 0
15 44 19 40 21 18 43 -101 0
15 44 19 40 42 18 43 -100 0
15 44 19 40 42 18 43 -99 0
15 44 19 40 42 18 43 -102 0
15 44 19 40 42 18 43 -101 0
15 44 19 21 42 18 43 -100 0
15 44 19 21 42 18 43 -99 0
15 44 19 21 42 18 43 -102 0
15 44 19 21 42 18 43 -101 0
15 44 40 21 42 18 43 -100 0
15 44 40 21 42 18 43 -99 0
15 44 40 21 42 18 43 -102 0
15 44 40 21 42 18 43 -101 0
15 27 19 23 21 30 18 -93 0
15 27 19 23 21 30 18 -92 0
15 27 19 23 21 30 18 -91 0
15 27 19 23 21 30 18 -94 0
15 27 19 23 21 30 25 -93 0
15 27 19 23 21 30 25 -92 0
15 27 19 23 21 30 25 -91 0
15 27 19 23 21 30 25 -94 0
15 27 19 23 21 18 25 -93 0
15 27 19 23 21 18 25 -92 0
15 27 19 23 21 18 25 -91 0
15 27 19 23 21 18 25 -94 0
15 27 19 23 30 18 25 -93 0
15 27 19 23 30 18 25 -92 0
15 27 19 23 30 18 25 -91 0
15 27 19 23 30 18 25 -94 0
15 27 19 21 30 18 25 -93 0
15 27 19 21 30 18 25 -92 0
15 27 19 21 30 18 25 -91 0
15 27 19 21 30 18 25 -94 0
15 27 23 21 30 18 25 -93 0
15 27 23 21 30 18 25 -92 0
15 27 23 21 30 18 25 -91 0
15 27 23 21 30 18 25 -94 0
15 60 19 59 21 57 18 -109 0
15 60 19 59 21 57 18 -108 0
15 60 19 59 21 57 18 -110 0
15 60 19 59 21 57 18 -107 0
15 60 19 59 21 57 61 -109 0
15 60 19 59 21 57 61 -108 0
15 60 19 59 21 57 61 -110 0
15 60 19 59 21 57 61 -107 0
15 60 19 59 21 18 61 -109 0
15 60 19 59 21 18 61 -108 0
15 60 19 59 21 18 61 -110 0
15 60 19 59 21 18 61 -107 0
15 60 19 59 57 18 61 -109 0
15 60 19 59 57 18 61 -108 0
15 60 19 59 57 18 61 -110 0
15 60 19 59 57 18 61 -107 0
15 60 19 21 57 18 61 -109 0
15 60 19 21 57 18 61 -108 0
15 60 19 21 57 18 61 -110 0
15 60 19 21 57 18 61 -107 0
15 60 59 21 57 18 61 -109 0
15 60 59 21 57 18 61 -108 0
15 60 59 21 57 18 61 -110 0
15 60 59 21 57 18 61 -107 0
15 14 19 7 21 12 18 -68 0
15 14 19 7 21 12 18 -66 0
15 14 19 7 21 12 18 -65 0
15 14 19 7 21 12 18 -67 0
15 14 19 7 21 12 9 -68 0
15 14 19 7 21 12 9 -66 0
15 14 19 7 21 12 9 -65 0
15 14 19 7 21 12 9 -67 0
15 14 19 7 21 18 9 -68 0
15 14 19 7 21 18 9 -66 0
15 14 19 7 21 18 9 -65 0
15 14 19 7 21 18 9 -67 0
15 14 19 7 12 18 9 -68 0
15 14 19 7 12 18 9 -66 0
15 14 19 7 12 18 9 -65 0
15 14 19 7 12 18 9 -67 0
15 14 19 21 12 18 9 -68 0
15 14 19 21 12 18 9 -66 0
15 14 19 21 12 18 9 -65 0
15 14 19 21 12 18 9 -67 0
15 14 7 21 12 18 9 -68 0
15 14 7 21 12 18 9 -66 0
15 14 7 21 12 18 9 -65 0
15 14 7 21 12 18 9 -67 0
15 19 31 21 35 18 33 -95 0
15 19 31 21 35 18 33 -98 0
15 19 31 21 35 18 33 -96 0
15 19 31 21 35 18 33 -97 0
15 19 4 21 2 18 5 -22 0
15 19 4 21 2 18 5 -20 0
15 19 4 21 2 18 5 -16 0
15 19 4 21 2 18 5 -17 0
15 19 51 21 50 18 53 -106 0
15 19 51 21 50 18 53 -103 0
15 19 51 21 50 18 53 -104 0
15 19 51 21 50 18 53 -105 0
15 19 40 21 42 18 43 -100 0
15 19 40 21 42 18 43 -99 0
15 19 40 21 42 18 43 -102 0
15 19 40 21 42 18 43 -101 0
15 19 23 21 30 18 25 -93 0
15 19 23 21 30 18 25 -92 0
15 19 23 21 30 18 25 -91 0
15 19 23 21 30 18 25 -94 0
15 19 59 21 57 18 61 -109 0
15 19 59 21 57 18 61 -108 0
15 19 59 21 57 18 61 -110 0
15 19 59 21 57 18 61 -107 0
15 19 7 21 12 18 9 -68 0
15 19 7 21 12 18 9 -66 0
15 19 7 21 12 18 9 -65 0
15 19 7 21 12 18 9 -67 0
37 6 31 4 35 2 33 -32 0
37 6 31 4 35 2 33 -34 0
37 6 31 4 35 2 33 -36 0
37 6 31 4 35 2 33 -38 0
37 6 31 4 35 2 5 -32 0
37 6 31 4 35 2 5 -34 0
37 6 31 4 35 2 5 -36 0
37 6 31 4 35 2 5 -38 0
37 6 31 4 35 33 5 -32 0
37 6 31 4 35 33 5 -34 0
37 6 31 4 35 33 5 -36 0
37 6 31 4 35 33 5 -38 0
37 6 31 4 2 33 5 -32 0
37 6 31 4 2 33 5 -34 0
37 6 31 4 2 33 5 -36 0
37 6 31 4 2 33 5 -38 0
37 6 31 35 2 33 5 -32 0
37 6 31 35 2 33 5 -34 0
37 6 31 35 2 33 5 -36 0
37 6 31 35 2 33 5 -38 0
37 6 4 35 2 33 5 -32 0
37 6 4 35 2 33 5 -34 0
37 6 4 35 2 33 5 -36 0
37 6 4 35 2 33 5 -38 0
37 52 31 51 35 50 33 -136 0
37 52 31 51 35 50 33 -135 0
37 52 31 51 35 50 33 -138 0
37 52 31 51 35 50 33 -137 0
37 52 31 51 35 50 53 -136 0
37 52 31 51 35 50 53 -135 0
37 52 31 51 35 50 53 -138 0
37 52 31 51 35 50 53 -137 0
37 52 31 51 35 33 53 -136 0
37 52 31 51 35 33 53 -135 0
37 52 31 51 35 33 53 -138 0
37 52 31 51 35 33 53 -137 0
37 52 31 51 50 33 53 -136 0
37 52 31 51 50 33 53 -135 0
37 52 31 51 50 33 53 -138 0
37 52 31 51 50 33 53 -137 0
37 52 31 35 50 33 53 -136 0
37 52 31 35 50 33 53 -135 0
37 52 31 35 50 33 53 -138 0
37 52 31 35 50 33 53 -137 0
37 52 51 35 50 33 53 -136 0
37 52 51 35 50 33 53 -135 0
37 52 51 35 50 33 53 -138 0
37 52 51 35 50 33 53 -137 0
37 44 31 40 35 42 33 -132 0
37 44 31 40 35 42 33 -131 0
37 44 31 40 35 42 33 -134 0
37 44 31 40 35 42 33 -133 0
37 44 31 40 35 42 43 -132 0
37 44 31 40 35 42 43 -131 0
37 44 31 40 35 42 43 -134 0
37 44 31 40 35 42 43 -133 0
37 44 31 40 35 33 43 -132 0
37 44 31 40 35 33 43 -131 0
37 44 31 40 35 33 43 -134 0
37 44 31 40 35 33 43 -133 0
37 44 31 40 42 33 43 -132 0
37 44 31 40 42 33 43 -131 0
37 44 31 40 42 33 43 -134 0
37 44 31 40 42 33 43 -133 0
37 44 31 35 42 33 43 -132 0
37 44 31 35 42 33 43 -131 0
37 44 31 35 42 33 43 -134 0
37 44 31 35 42 33 43 -133 0
37 44 40 35 42 33 43 -132 0
37 44 40 35 42 33 43 -131 0
37 44 40 35 42 33 43 -134 0
37 44 40 35 42 33 43 -133 0
37 27 31 23 35 30 33 -116 0
37 27 31 23 35 30 33 -115 0
37 27 31 23 35 30 33 -114 0
37 27 31 23 35 30 33 -113 0
37 27 31 23 35 30 25 -116 0
37 27 31 23 35 30 25 -115 0
37 27 31 23 35 30 25 -114 0
37 27 31 23 35 30 25 -113 0
37 27 31 23 35 33 25 -116 0
37 27 31 23 35 33 25 -115 0
37 27 31 23 35 33 25 -114 0
37 27 31 23 35 33 25 -113 0
37 27 31 23 30 33 25 -116 0
37 27 31 23 30 33 25 -115 0
37 27 31 23 30 33 25 -114 0
37 27 31 23 30 33 25 -113 0
37 27 31 35 30 33 25 -116 0
37 27 31 35 30 33 25 -115 0
37 27 31 35 30 33 25 -114 0
37 27 31 35 30 33 25 -113 0
37 27 23 35 30 33 25 -116 0
37 27 23 35 30 33 25 -115 0
37 27 23 35 30 33 25 -114 0
37 27 23 35 30 33 25 -113 0
37 60 31 59 35 57 33 -140 0
37 60 31 59 35 57 33 -139 0
37 60 31 59 35 57 33 -142 0
37 60 31 59 35 57 33 -141 0
37 60 31 59 35 57 61 -140 0
37 60 31 59 35 57 61 -139 0
37 60 31 59 35 57 61 -142 0
37 60 31 59 35 57 61 -141 0
37 60 31 59 35 33 61 -140 0
37 60 31 59 35 33 61 -139 0
37 60 31 59 35 33 61 -142 0
37 60 31 59 35 33 61 -141 0
37 60 31 59 57 33 61 -140 0
37 60 31 59 57 33 61 -139 0
37 60 31 59 57 33 61 -142 0
37 60 31 59 57 33 61 -141 0
37 60 31 35 57 33 61 -140 0
37 60 31 35 57 33 61 -139 0
37 60 31 35 57 33 61 -142 0
37 60 31 35 57 33 61 -141 0
37 60 59 35 57 33 61 -140 0
37 60 59 35 57 33 61 -139 0
37 60 59 35 57 33 61 -142 0
37 60 59 35 57 33 61 -141 0
37 14 31 7 35 12 33 -74 0
37 14 31 7 35 12 33 -76 0
37 14 31 7 35 12 33 -73 0
37 14 31 7 35 12 33 -75 0
37 14 31 7 35 12 9 -74 0
37 14 31 7 35 12 9 -76 0
37 14 31 7 35 12 9 -73 0
37 14 31 7 35 12 9 -75 0
37 14 31 7 35 33 9 -74 0
37 14 31 7 35 33 9 -76 0
37 14 31 7 35 33 9 -73 0
37 14 31 7 35 33 9 -75 0
37 14 31 7 12 33 9 -74 0
37 14 31 7 12 33 9 -76 0
37 14 31 7 12 33 9 -73 0
37 14 31 7 12 33 9 -75 0
37 14 31 35 12 33 9 -74 0
37 14 31 35 12 33 9 -76 0
37 14 31 35 12 33 9 -73 0
37 14 31 35 12 33 9 -75 0
37 14 7 35 12 33 9 -74 0
37 14 7 35 12 33 9 -76 0
37 14 7 35 12 33 9 -73 0
37 14 7 35 12 33 9 -75 0
37 19 31 21 35 18 33 -95 0
37 19 31 21 35 18 33 -98 0
37 19 31 21 35 18 33 -96 0
37 19 31 21 35 18 33 -97 0
37 31 4 35 2 33 5 -32 0
37 31 4 35 2 33 5 -34 0
37 31 4 35 2 33 5 -36 0
37 31 4 35 2 33 5 -38 0
37 31 51 35 50 33 53 -136 0
37 31 51 35 50 33 53 -135 0
37 31 51 35 50 33 53 -138 0
37 31 51 35 50 33 53 -137 0
37 31 40 35 42 33 43 -132 0
37 31 40 35 42 33 43 -131 0
37 31 40 35 42 33 43 -134 0
37 31 40 35 42 33 43 -133 0
37 31 23 35 30 33 25 -116 0
37 31 23 35 30 33 25 -115 0
37 31 23 35 30 33 25 -114 0
37 31 23 35 30 33 25 -113 0
37 31 59 35 57 33 61 -140 0
37 31 59 35 57 33 61 -139 0
37 31 59 35 57 33 61 -142 0
37 31 59 35 57 33 61 -141 0
37 31 7 35 12 33 9 -74 0
37 31 7 35 12 33 9 -76 0
37 31 7 35 12 33 9 -73 0
37 31 7 35 12 33 9 -75 0
6 52 4 51 2 50 5 -47 0
6 52 4 51 2 50 5 -49 0
6 52 4 51 2 50 5 -54 0
6 52 4 51 2 50 5 -48 0
6 52 4 51 2 50 53 -47 0
6 52 4 51 2 50 53 -49 0
6 52 4 51 2 50 53 -54 0
6 52 4 51 2 50 53 -48 0
6 52 4 51 2 5 53 -47 0
6 52 4 51 2 5 53 -49 0
6 52 4 51 2 5 53 -54 0
6 52 4 51 2 5 53 -48 0
6 52 4 51 50 5 53 -47 0
6 52 4 51 50 5 53 -49 0
6 52 4 51 50 5 53 -54 0
6 52 4 51 50 5 53 -48 0
6 52 4 2 50 5 53 -47 0
6 52 4 2 50 5 53 -49 0
6 52 4 2 50 5 53 -54 0
6 52 4 2 50 5 53 -48 0
6 52 51 2 50 5 53 -47 0
6 52 51 2 50 5 53 -49 0
6 52 51 2 50 5 53 -54 0
6 52 51 2 50 5 53 -48 0
6 44 4 40 2 42 5 -45 0
6 44 4 40 2 42 5 -41 0
6 44 4 40 2 42 5 -39 0
6 44 4 40 2 42 5 -46 0
6 44 4 40 2 42 43 -45 0
6 44 4 40 2 42 43 -41 0
6 44 4 40 2 42 43 -39 0
6 44 4 40 2 42 43 -46 0
6 44 4 40 2 5 43 -45 0
6 44 4 40 2 5 43 -41 0
6 44 4 40 2 5 43 -39 0
6 44 4 40 2 5 43 -46 0
6 44 4 40 42 5 43 -45 0
6 44 4 40 42 5 43 -41 0
6 44 4 40 42 5 43 -39 0
6 44 4 40 42 5 43 -46 0
6 44 4 2 42 5 43 -45 0
6 44 4 2 42 5 43 -41 0
6 44 4 2 42 5 43 -39 0
6 44 4 2 42 5 43 -46 0
6 44 40 2 42 5 43 -45 0
6 44 40 2 42 5 43 -41 0
6 44 40 2 42 5 43 -39 0
6 44 40 2 42 5 43 -46 0
6 27 4 23 2 30 5 -26 0
6 27 4 23 2 30 5 -24 0
6 27 4 23 2 30 5 -29 0
6 27 4 23 2 30 5 -28 0
6 27 4 23 2 30 25 -26 0
6 27 4 23 2 30 25 -24 0
6 27 4 23 2 30 25 -29 0
6 27 4 23 2 30 25 -28 0
6 27 4 23 2 5 25 -26 0
6 27 4 23 2 5 25 -24 0
6 27 4 23 2 5 25 -29 0
6 27 4 23 2 5 25 -28 0
6 27 4 23 30 5 25 -26 0
6 27 4 23 30 5 25 -24 0
6 27 4 23 30 5 25 -29 0
6 27 4 23 30 5 25 -28 0
6 27 4 2 30 5 25 -26 0
6 27 4 2 30 5 25 -24 0
6 27 4 2 30 5 25 -29 0
6 27 4 2 30 5 25 -28 0
6 27 23 2 30 5 25 -26 0
6 27 23 2 30 5 25 -24 0
6 27 23 2 30 5 25 -29 0
6 27 23 2 30 5 25 -28 0
6 60 4 59 2 57 5 -62 0
6 60 4 59 2 57 5 -56 0
6 60 4 59 2 57 5 -55 0
6 60 4 59 2 57 5 -58 0
6 60 4 59 2 57 61 -62 0
6 60 4 59 2 57 61 -56 0
6 60 4 59 2 57 61 -55 0
6 60 4 59 2 57 61 -58 0
6 60 4 59 2 5 61 -62 0
6 60 4 59 2 5 61 -56 0
6 60 4 59 2 5 61 -55 0
6 60 4 59 2 5 61 -58 0
6 60 4 59 57 5 61 -62 0
6 60 4 59 57 5 61 -56 0
6 60 4 59 57 5 61 -55 0
6 60 4 59 57 5 61 -58 0
6 60 4 2 57 5 61 -62 0
6 60 4 2 57 5 61 -56 0
6 60 4 2 57 5 61 -55 0
6 60 4 2 57 5 61 -58 0
6 60 59 2 57 5 61 -62 0
6 60 59 2 57 5 61 -56 0
6 60 59 2 57 5 61 -55 0
6 60 59 2 57 5 61 -58 0
6 14 4 7 2 12 5 -11 0
6 14 4 7 2 12 5 -10 0
6 14 4 7 2 12 5 -8 0
6 14 4 7 2 12 5 -13 0
6 14 4 7 2 12 9 -11 0
6 14 4 7 2 12 9 -10 0
6 14 4 7 2 12 9 -8 0
6 14 4 7 2 12 9 -13 0
6 14 4 7 2 5 9 -11 0
6 14 4 7 2 5 9 -10 0
6 14 4 7 2 5 9 -8 0
6 14 4 7 2 5 9 -13 0
6 14 4 7 12 5 9 -11 0
6 14 4 7 12 5 9 -10 0
6 14 4 7 12 5 9 -8 0
6 14 4 7 12 5 9 -13 0
6 14 4 2 12 5 9 -11 0
6 14 4 2 12 5 9 -10 0
6 14 4 2 12 5 9 -8 0
6 14 4 2 12 5 9 -13 0
6 14 7 2 12 5 9 -11 0
6 14 7 2 12 5 9 -10 0
6 14 7 2 12 5 9 -8 0
6 14 7 2 12 5 9 -13 0
6 19 4 21 2 18 5 -22 0
6 19 4 21 2 18 5 -20 0
6 19 4 21 2 18 5 -16 0
6 19 4 21 2 18 5 -17 0
6 31 4 35 2 33 5 -32 0
6 31 4 35 2 33 5 -34 0
6 31 4 35 2 33 5 -36 0
6 31 4 35 2 33 5 -38 0
6 4 51 2 50 5 53 -47 0
6 4 51 2 50 5 53 -49 0
6 4 51 2 50 5 53 -54 0
6 4 51 2 50 5 53 -48 0
6 4 40 2 42 5 43 -45 0
6 4 40 2 42 5 43 -41 0
6 4 40 2 42 5 43 -39 0
6 4 40 2 42 5 43 -46 0
6 4 23 2 30 5 25 -26 0
6 4 23 2 30 5 25 -24 0
6 4 23 2 30 5 25 -29 0
6 4 23 2 30 5 25 -28 0
6 4 59 2 57 5 61 -62 0
6 4 59 2 57 5 61 -56 0
6 4 59 2 57 5 61 -55 0
6 4 59 2 57 5 61 -58 0
6 4 7 2 12 5 9 -11 0
6 4 7 2 12 5 9 -10 0
6 4 7 2 12 5 9 -8 0
6 4 7 2 12 5 9 -13 0
52 44 51 40 50 42 53 -145 0
52 44 51 40 50 42 53 -148 0
52 44 51 40 50 42 53 -146 0
52 44 51 40 50 42 53 -147 0
52 44 51 40 50 42 43 -145 0
52 44 51 40 50 42 43 -148 0
52 44 51 40 50 42 43 -146 0
52 44 51 40 50 42 43 -147 0
52 44 51 40 50 53 43 -145 0
52 44 51 40 50 53 43 -148 0
52 44 51 40 50 53 43 -146 0
52 44 51 40 50 53 43 -147 0
52 44 51 40 42 53 43 -145 0
52 44 51 40 42 53 43 -148 0
52 44 51 40 42 53 43 -146 0
52 44 51 40 42 53 43 -147 0
52 44 51 50 42 53 43 -145 0
52 44 51 50 42 53 43 -148 0
52 44 51 50 42 53 43 -146 0
52 44 51 50 42 53 43 -147 0
52 44 40 50 42 53 43 -145 0
52 44 40 50 42 53 43 -148 0
52 44 40 50 42 53 43 -146 0
52 44 40 50 42 53 43 -147 0
52 27 51 23 50 30 53 -122 0
52 27 51 23 50 30 53 -124 0
52 27 51 23 50 30 53 -123 0
52 27 51 23 50 30 53 -121 0
52 27 51 23 50 30 25 -122 0
52 27 51 23 50 30 25 -124 0
52 27 51 23 50 30 25 -123 0
52 27 51 23 50 30 25 -121 0
52 27 51 23 50 53 25 -122 0
52 27 51 23 50 53 25 -124 0
52 27 51 23 50 53 25 -123 0
52 27 51 23 50 53 25 -121 0
52 27 51 23 30 53 25 -122 0
52 27 51 23 30 53 25 -124 0
52 27 51 23 30 53 25 -123 0
52 27 51 23 30 53 25 -121 0
52 27 51 50 30 53 25 -122 0
52 27 51 50 30 53 25 -124 0
52 27 51 50 30 53 25 -123 0
52 27 51 50 30 53 25 -121 0
52 27 23 50 30 53 25 -122 0
52 27 23 50 30 53 25 -124 0
52 27 23 50 30 53 25 -123 0
52 27 23 50 30 53 25 -121 0
52 60 51 59 50 57 53 -158 0
52 60 51 59 50 57 53 -156 0
52 60 51 59 50 57 53 -155 0
52 60 51 59 50 57 53 -157 0
52 60 51 59 50 57 61 -158 0
52 60 51 59 50 57 61 -156 0
52 60 51 59 50 57 61 -155 0
52 60 51 59 50 57 61 -157 0
52 60 51 59 50 53 61 -158 0
52 60 51 59 50 53 61 -156 0
52 60 51 59 50 53 61 -155 0
52 60 51 59 50 53 61 -157 0
52 60 51 59 57 53 61 -158 0
52 60 51 59 57 53 61 -156 0
52 60 51 59 57 53 61 -155 0
52 60 51 59 57 53 61 -157 0
52 60 51 50 57 53 61 -158 0
52 60 51 50 57 53 61 -156 0
52 60 51 50 57 53 61 -155 0
52 60 51 50 57 53 61 -157 0
52 60 59 50 57 53 61 -158 0
52 60 59 50 57 53 61 -156 0
52 60 59 50 57 53 61 -155 0
52 60 59 50 57 53 61 -157 0
52 14 51 7 50 12 53 -81 0
52 14 51 7 50 12 53 -83 0
52 14 51 7 50 12 53 -82 0
52 14 51 7 50 12 53 -84 0
52 14 51 7 50 12 9 -81 0
52 14 51 7 50 12 9 -83 0
52 14 51 7 50 12 9 -82 0
52 14 51 7 50 12 9 -84 0
52 14 51 7 50 53 9 -81 0
52 14 51 7 50 53 9 -83 0
52 14 51 7 50 53 9 -82 0
52 14 51 7 50 53 9 -84 0
52 14 51 7 12 53 9 -81 0
52 14 51 7 12 53 9 -83 0
52 14 51 7 12 53 9 -82 0
52 14 51 7 12 53 9 -84 0
52 14 51 50 12 53 9 -81 0
52 14 51 50 12 53 9 -83 0
52 14 51 50 12 53 9 -82 0
52 14 51 50 12 53 9 -84 0
52 14 7 50 12 53 9 -81 0
52 14 7 50 12 53 9 -83 0
52 14 7 50 12 53 9 -82 0
52 14 7 50 12 53 9 -84 0
52 19 51 21 50 18 53 -106 0
52 19 51 21 50 18 53 -103 0
52 19 51 21 50 18 53 -104 0
52 19 51 21 50 18 53 -105 0
52 31 51 35 50 33 53 -136 0
52 31 51 35 50 33 53 -135 0
52 31 51 35 50 33 53 -138 0
52 31 51 35 50 33 53 -137 0
52 4 51 2 50 5 53 -47 0
52 4 51 2 50 5 53 -49 0
52 4 51 2 50 5 53 -54 0
52 4 51 2 50 5 53 -48 0
52 51 40 50 42 53 43 -145 0
52 51 40 50 42 53 43 -148 0
52 51 40 50 42 53 43 -146 0
52 51 40 50 42 53 43 -147 0
52 51 23 50 30 53 25 -122 0
52 51 23 50 30 53 25 -124 0
52 51 23 50 30 53 25 -123 0
52 51 23 50 30 53 25 -121 0
52 51 59 50 57 53 61 -158 0
52 51 59 50 57 53 61 -156 0
52 51 59 50 57 53 61 -155 0
52 51 59 50 57 53 61 -157 0
52 51 7 50 12 53 9 -81 0
52 51 7 50 12 53 9 -83 0
52 51 7 50 12 53 9 -82 0
52 51 7 50 12 53 9 -84 0
44 27 40 23 42 30 43 -118 0
44 27 40 23 42 30 43 -117 0
44 27 40 23 42 30 43 -119 0
44 27 40 23 42 30 43 -120 0
44 27 40 23 42 30 25 -118 0
44 27 40 23 42 30 25 -117 0
44 27 40 23 42 30 25 -119 0
44 27 40 23 42 30 25 -120 0
44 27 40 23 42 43 25 -118 0
44 27 40 23 42 43 25 -117 0
44 27 40 23 42 43 25 -119 0
44 27 40 23 42 43 25 -120 0
44 27 40 23 30 43 25 -118 0
44 27 40 23 30 43 25 -117 0
44 27 40 23 30 43 25 -119 0
44 27 40 23 30 43 25 -120 0
44 27 40 42 30 43 25 -118 0
44 27 40 42 30 43 25 -117 0
44 27 40 42 30 43 25 -119 0
44 27 40 42 30 43 25 -120 0
44 27 23 42 30 43 25 -118 0
44 27 23 42 30 43 25 -117 0
44 27 23 42 30 43 25 -119 0
44 27 23 42 30 43 25 -120 0
44 60 40 59 42 57 43 -150 0
44 60 40 59 42 57 43 -149 0
44 60 40 59 42 57 43 -151 0
44 60 40 59 42 57 43 -152 0
44 60 40 59 42 57 61 -150 0
44 60 40 59 42 57 61 -149 0
44 60 40 59 42 57 61 -151 0
44 60 40 59 42 57 61 -152 0
44 60 40 59 42 43 61 -150 0
44 60 40 59 42 43 61 -149 0
44 60 40 59 42 43 61 -151 0
44 60 40 59 42 43 61 -152 0
44 60 40 59 57 43 61 -150 0
44 60 40 59 57 43 61 -149 0
44 60 40 59 57 43 61 -151 0
44 60 40 59 57 43 61 -152 0
44 60 40 42 57 43 61 -150 0
44 60 40 42 57 43 61 -149 0
44 60 40 42 57 43 61 -151 0
44 60 40 42 57 43 61 -152 0
44 60 59 42 57 43 61 -150 0
44 60 59 42 57 43 61 -149 0
44 60 59 42 57 43 61 -151 0
44 60 59 42 57 43 61 -152 0
44 14 40 7 42 12 43 -80 0
44 14 40 7 42 12 43 -77 0
44 14 40 7 42 12 43 -79 0
44 14 40 7 42 12 43 -78 0
44 14 40 7 42 12 9 -80 0
44 14 40 7 42 12 9 -77 0
44 14 40 7 42 12 9 -79 0
44 14 40 7 42 12 9 -78 0
44 14 40 7 42 43 9 -80 0
44 14 40 7 42 43 9 -77 0
44 14 40 7 42 43 9 -79 0
44 14 40 7 42 43 9 -78 0
44 14 40 7 12 43 9 -80 0
44 14 40 7 12 43 9 -77 0
44 14 40 7 12 43 9 -79 0
44 14 40 7 12 43 9 -78 0
44 14 40 42 12 43 9 -80 0
44 14 40 42 12 43 9 -77 0
44 14 40 42 12 43 9 -79 0
44 14 40 42 12 43 9 -78 0
44 14 7 42 12 43 9 -80 0
44 14 7 42 12 43 9 -77 0
44 14 7 42 12 43 9 -79 0
44 14 7 42 12 43 9 -78 0
44 19 40 21 42 18 43 -100 0
44 19 40 21 42 18 43 -99 0
44 19 40 21 42 18 43 -102 0
44 19 40 21 42 18 43 -101 0
44 31 40 35 42 33 43 -132 0
44 31 40 35 42 33 43 -131 0
44 31 40 35 42 33 43 -134 0
44 31 40 35 42 33 43 -133 0
44 4 40 2 42 5 43 -45 0
44 4 40 2 42 5 43 -41 0
44 4 40 2 42 5 43 -39 0
44 4 40 2 42 5 43 -46 0
44 51 40 50 42 53 43 -145 0
44 51 40 50 42 53 43 -148 0
44 51 40 50 42 53 43 -146 0
44 51 40 50 42 53 43 -147 0
44 40 23 42 30 43 25 -118 0
44 40 23 42 30 43 25 -117 0
44 40 23 42 30 43 25 -119 0
44 40 23 42 30 43 25 -120 0
44 40 59 42 57 43 61 -150 0
44 40 59 42 57 43 61 -149 0
44 40 59 42 57 43 61 -151 0
44 40 59 42 57 43 61 -152 0
44 40 7 42 12 43 9 -80 0
44 40 7 42 12 43 9 -77 0
44 40 7 42 12 43 9 -79 0
44 40 7 42 12 43 9 -78 0
27 60 23 59 30 57 25 -127 0
27 60 23 59 30 57 25 -125 0
27 60 23 59 30 57 25 -128 0
27 60 23 59 30 57 25 -126 0
27 60 23 59 30 57 61 -127 0
27 60 23 59 30 57 61 -125 0
27 60 23 59 30 57 61 -128 0
27 60 23 59 30 57 61 -126 0
27 60 23 59 30 25 61 -127 0
27 60 23 59 30 25 61 -125 0
27 60 23 59 30 25 61 -128 0
27 60 23 59 30 25 61 -126 0
27 60 23 59 57 25 61 -127 0
27 60 23 59 57 25 61 -125 0
27 60 23 59 57 25 61 -128 0
27 60 23 59 57 25 61 -126 0
27 60 23 30 57 25 61 -127 0
27 60 23 30 57 25 61 -125 0
27 60 23 30 57 25 61 -128 0
27 60 23 30 57 25 61 -126 0
27 60 59 30 57 25 61 -127 0
27 60 59 30 57 25 61 -125 0
27 60 59 30 57 25 61 -128 0
27 60 59 30 57 25 61 -126 0
27 14 23 7 30 12 25 -71 0
27 14 23 7 30 12 25 -69 0
27 14 23 7 30 12 25 -72 0
27 14 23 7 30 12 25 -70 0
27 14 23 7 30 12 9 -71 0
27 14 23 7 30 12 9 -69 0
27 14 23 7 30 12 9 -72 0
27 14 23 7 30 12 9 -70 0
27 14 23 7 30 25 9 -71 0
27 14 23 7 30 25 9 -69 0
27 14 23 7 30 25 9 -72 0
27 14 23 7 30 25 9 -70 0
27 14 23 7 12 25 9 -71 0
27 14 23 7 12 25 9 -69 0
27 14 23 7 12 25 9 -72 0
27 14 23 7 12 25 9 -70 0
27 14 23 30 12 25 9 -71 0
27 14 23 30 12 25 9 -69 0
27 14 23 30 12 25 9 -72 0
27 14 23 30 12 25 9 -70 0
27 14 7 30 12 25 9 -71 0
27 14 7 30 12 25 9 -69 0
27 14 7 30 12 25 9 -72 0
27 14 7 30 12 25 9 -70 0
27 19 23 21 30 18 25 -93 0
27 19 23 21 30 18 25 -92 0
27 19 23 21 30 18 25 -91 0
27 19 23 21 30 18 25 -94 0
27 31 23 35 30 33 25 -116 0
27 31 23 35 30 33 25 -115 0
27 31 23 35 30 33 25 -114 0
27 31 23 35 30 33 25 -113 0
27 4 23 2 30 5 25 -26 0
27 4 23 2 30 5 25 -24 0
27 4 23 2 30 5 25 -29 0
27 4 23 2 30 5 25 -28 0
27 51 23 50 30 53 25 -122 0
27 51 23 50 30 53 25 -124 0
27 51 23 50 30 53 25 -123 0
27 51 23 50 30 53 25 -121 0
27 40 23 42 30 43 25 -118 0
27 40 23 42 30 43 25 -117 0
27 40 23 42 30 43 25 -119 0
27 40 23 42 30 43 25 -120 0
27 23 59 30 57 25 61 -127 0
27 23 59 30 57 25 61 -125 0
27 23 59 30 57 25 61 -128 0
27 23 59 30 57 25 61 -126 0
27 23 7 30 12 25 9 -71 0
27 23 7 30 12 25 9 -69 0
27 23 7 30 12 25 9 -72 0
27 23 7 30 12 25 9 -70 0
60 14 59 7 57 12 61 -87 0
60 14 59 7 57 12 61 -85 0
60 14 59 7 57 12 61 -88 0
60 14 59 7 57 12 61 -86 0
60 14 59 7 57 12 9 -87 0
60 14 59 7 57 12 9 -85 0
60 14 59 7 57 12 9 -88 0
60 14 59 7 57 12 9 -86 0
60 14 59 7 57 61 9 -87 0
60 14 59 7 57 61 9 -85 0
60 14 59 7 57 61 9 -88 0
60 14 59 7 57 61 9 -86 0
60 14 59 7 12 61 9 -87 0
60 14 59 7 12 61 9 -85 0
60 14 59 7 12 61 9 -88 0
60 14 59 7 12 61 9 -86 0
60 14 59 57 12 61 9 -87 0
60 14 59 57 12 61 9 -85 0
60 14 59 57 12 61 9 -88 0
60 14 59 57 12 61 9 -86 0
60 14 7 57 12 61 9 -87 0
60 14 7 57 12 61 9 -85 0
60 14 7 57 12 61 9 -88 0
60 14 7 57 12 61 9 -86 0
60 19 59 21 57 18 61 -109 0
60 19 59 21 57 18 61 -108 0
60 19 59 21 57 18 61 -110 0
60 19 59 21 57 18 61 -107 0
60 31 59 35 57 33 61 -140 0
60 31 59 35 57 33 61 -139 0
60 31 59 35 57 33 61 -142 0
60 31 59 35 57 33 61 -141 0
60 4 59 2 57 5 61 -62 0
60 4 59 2 57 5 61 -56 0
60 4 59 2 57 5 61 -55 0
60 4 59 2 57 5 61 -58 0
60 51 59 50 57 53 61 -158 0
60 51 59 50 57 53 61 -156 0
60 51 59 50 57 53 61 -155 0
60 51 59 50 57 53 61 -157 0
60 40 59 42 57 43 61 -150 0
60 40 59 42 57 43 61 -149 0
60 40 59 42 57 43 61 -151 0
60 40 59 42 57 43 61 -152 0
60 23 59 30 57 25 61 -127 0
60 23 59 30 57 25 61 -125 0
60 23 59 30 57 25 61 -128 0
60 23 59 30 57 25 61 -126 0
60 59 7 57 12 61 9 -87 0
60 59 7 57 12 61 9 -85 0
60 59 7 57 12 61 9 -88 0
60 59 7 57 12 61 9 -86 0
14 19 7 21 12 18 9 -68 0
14 19 7 21 12 18 9 -66 0
14 19 7 21 12 18 9 -65 0
14 19 7 21 12 18 9 -67 0
14 31 7 35 12 33 9 -74 0
14 31 7 35 12 33 9 -76 0
14 31 7 35 12 33 9 -73 0
14 31 7 35 12 33 9 -75 0
14 4 7 2 12 5 9 -11 0
14 4 7 2 12 5 9 -10 0
14 4 7 2 12 5 9 -8 0
14 4 7 2 12 5 9 -13 0
14 51 7 50 12 53 9 -81 0
14 51 7 50 12 53 9 -83 0
14 51 7 50 12 53 9 -82 0
14 51 7 50 12 53 9 -84 0
14 40 7 42 12 43 9 -80 0
14 40 7 42 12 43 9 -77 0
14 40 7 42 12 43 9 -79 0
14 40 7 42 12 43 9 -78 0
14 23 7 30 12 25 9 -71 0
14 23 7 30 12 25 9 -69 0
14 23 7 30 12 25 9 -72 0
14 23 7 30 12 25 9 -70 0
14 59 7 57 12 61 9 -87 0
14 59 7 57 12 61 9 -85 0
14 59 7 57 12 61 9 -88 0
14 59 7 57 12 61 9 -86 0
15 37 19 31 21 35 18 33 -95 0
15 37 19 31 21 35 18 33 -98 0
15 37 19 31 21 35 18 33 -96 0
15 37 19 31 21 35 18 33 -97 0
15 6 19 4 21 2 18 5 -22 0
15 6 19 4 21 2 18 5 -20 0
15 6 19 4 21 2 18 5 -16 0
15 6 19 4 21 2 18 5 -17 0
15 52 19 51 21 50 18 53 -106 0
15 52 19 51 21 50 18 53 -103 0
15 52 19 51 21 50 18 53 -104 0
15 52 19 51 21 50 18 53 -105 0
15 44 19 40 21 42 18 43 -100 0
15 44 19 40 21 42 18 43 -99 0
15 44 19 40 21 42 18 43 -102 0
15 44 19 40 21 42 18 43 -101 0
15 27 19 23 21 30 18 25 -93 0
15 27 19 23 21 30 18 25 -92 0
15 27 19 23 21 30 18 25 -91 0
15 27 19 23 21 30 18 25 -94 0
15 60 19 59 21 57 18 61 -109 0
15 60 19 59 21 57 18 61 -108 0
15 60 19 59 21 57 18 61 -110 0
15 60 19 59 21 57 18 61 -107 0
15 14 19 7 21 12 18 9 -68 0
15 14 19 7 21 12 18 9 -66 0
15 14 19 7 21 12 18 9 -65 0
15 14 19 7 21 12 18 9 -67 0
37 6 31 4 35 2 33 5 -32 0
37 6 31 4 35 2 33 5 -34 0
37 6 31 4 35 2 33 5 -36 0
37 6 31 4 35 2 33 5 -38 0
37 52 31 51 35 50 33 53 -136 0
37 52 31 51 35 50 33 53 -135 0
37 52 31 51 35 50 33 53 -138 0
37 52 31 51 35 50 33 53 -137 0
37 44 31 40 35 42 33 43 -132 0
37 44 31 40 35 42 33 43 -131 0
37 44 31 40 35 42 33 43 -134 0
37 44 31 40 35 42 33 43 -133 0
37 27 31 23 35 30 33 25 -116 0
37 27 31 23 35 30 33 25 -115 0
37 27 31 23 35 30 33 25 -114 0
37 27 31 23 35 30 33 25 -113 0
37 60 31 59 35 57 33 61 -140 0
37 60 31 59 35 57 33 61 -139 0
37 60 31 59 35 57 33 61 -142 0
37 60 31 59 35 57 33 61 -141 0
37 14 31 7 35 12 33 9 -74 0
37 14 31 7 35 12 33 9 -76 0
37 14 31 7 35 12 33 9 -73 0
37 14 31 7 35 12 33 9 -75 0
6 52 4 51 2 50 5 53 -47 0
6 52 4 51 2 50 5 53 -49 0
6 52 4 51 2 50 5 53 -54 0
6 52 4 51 2 50 5 53 -48 0
6 44 4 40 2 42 5 43 -45 0
6 44 4 40 2 42 5 43 -41 0
6 44 4 40 2 42 5 43 -39 0
6 44 4 40 2 42 5 43 -46 0
6 27 4 23 2 30 5 25 -26 0
6 27 4 23 2 30 5 25 -24 0
6 27 4 23 2 30 5 25 -29 0
6 27 4 23 2 30 5 25 -28 0
6 60 4 59 2 57 5 61 -62 0
6 60 4 59 2 57 5 61 -56 0
6 60 4 59 2 57 5 61 -55 0
6 60 4 59 2 57 5 61 -58 0
6 14 4 7 2 12 5 9 -11 0
6 14 4 7 2 12 5 9 -10 0
6 14 4 7 2 12 5 9 -8 0
6 14 4 7 2 12 5 9 -13 0
52 44 51 40 50 42 53 43 -145 0
52 44 51 40 50 42 53 43 -148 0
52 44 51 40 50 42 53 43 -146 0
52 44 51 40 50 42 53 43 -147 0
52 27 51 23 50 30 53 25 -122 0
52 27 51 23 50 30 53 25 -124 0
52 27 51 23 50 30 53 25 -123 0
52 27 51 23 50 30 53 25 -121 0
52 60 51 59 50 57 53 61 -158 0
52 60 51 59 50 57 53 61 -156 0
52 60 51 59 50 57 53 61 -155 0
52 60 51 59 50 57 53 61 -157 0
52 14 51 7 50 12 53 9 -81 0
52 14 51 7 50 12 53 9 -83 0
52 14 51 7 50 12 53 9 -82 0
52 14 51 7 50 12 53 9 -84 0
44 27 40 23 42 30 43 25 -118 0
44 27 40 23 42 30 43 25 -117 0
44 27 40 23 42 30 43 25 -119 0
44 27 40 23 42 30 43 25 -120 0
44 60 40 59 42 57 43 61 -150 0
44 60 40 59 42 57 43 61 -149 0
44 60 40 59 42 57 43 61 -151 0
44 60 40 59 42 57 43 61 -152 0
44 14 40 7 42 12 43 9 -80 0
44 14 40 7 42 12 43 9 -77 0
44 14 40 7 42 12 43 9 -79 0
44 14 40 7 42 12 43 9 -78 0
27 60 23 59 30 57 25 61 -127 0
27 60 23 59 30 57 25 61 -125 0
27 60 23 59 30 57 25 61 -128 0
27 60 23 59 30 57 25 61 -126 0
27 14 23 7 30 12 25 9 -71 0
27 14 23 7 30 12 25 9 -69 0
27 14 23 7 30 12 25 9 -72 0
27 14 23 7 30 12 25 9 -70 0
60 14 59 7 57 12 61 9 -87 0
60 14 59 7 57 12 61 9 -85 0
60 14 59 7 57 12 61 9 -88 0
60 14 59 7 57 12 61 9 -86 0
