c E2(6,6) U1(6) E1(6,6) U4(6) U2(6) U3(6) E2(5,6) U4(5) U2(5) E2(6,5) E1(5,6) E1(6,5) U1(5) U3(5) U2(7) E2(7,6) E1(7,6) U1(7) U3(7) E2(6,7) E1(6,7) U4(7) E1(4,6) E2(6,4) E1(6,4) U3(4) E2(4,6) U1(4) U4(4) U2(4) E2(1,6) U3(1) E1(6,1) U1(1) E1(1,6) U2(1) U4(1) E2(6,1) U4(2) U2(2) U3(2) E1(2,6) E2(6,2) E1(6,2) U1(2) E2(2,6) U4(8) U2(8) E2(8,6) E2(6,8) E1(8,6) U1(8) E1(6,8) U3(8) E1(6,3) E2(3,6) U1(3) U4(3) U2(3) U3(3) E2(6,3) E1(3,6) U3(0) E1(6,0) U1(0) U4(0) U2(0) E2(0,6) E1(0,6) E2(6,0) E2(5,5) E1(5,5) E2(7,5) E1(7,5) E2(5,7) E1(5,7) E1(4,5) E1(5,4) E2(4,5) E2(5,4) E2(5,1) E2(1,5) E1(5,1) E1(1,5) E2(2,5) E1(2,5) E2(5,2) E1(5,2) E2(5,8) E1(5,8) E2(8,5) E1(8,5) E1(3,5) E1(5,3) E2(3,5) E2(5,3) E1(5,0) E2(0,5) E1(0,5) E2(5,0) E1(7,7) E2(7,7) E1(4,7) E2(7,4) E1(7,4) E2(4,7) E2(1,7) E1(1,7) E2(7,1) E1(7,1) E1(2,7) E1(7,2) E2(2,7) E2(7,2) E1(8,7) E2(7,8) E2(8,7) E1(7,8) E1(7,3) E2(3,7) E1(3,7) E2(7,3) E2(0,7) E2(7,0) E1(7,0) E1(0,7) E2(4,4) E1(4,4) E1(1,4) E2(1,4) E2(4,1) E1(4,1) E2(4,2) E1(4,2) E2(2,4) E1(2,4) E2(4,8) E2(8,4) E1(8,4) E1(4,8) E2(3,4) E1(4,3) E2(4,3) E1(3,4) E2(0,4) E1(0,4) E2(4,0) E1(4,0) E2(1,1) E1(1,1) E1(2,1) E1(1,2) E2(1,2) E2(2,1) E2(8,1) E1(1,8) E2(1,8) E1(8,1) E2(3,1) E1(3,1) E2(1,3) E1(1,3) E1(0,1) E1(1,0) E2(0,1) E2(1,0) E1(2,2) E2(2,2) E2(8,2) E2(2,8) E1(2,8) E1(8,2) E2(3,2) E1(3,2) E2(2,3) E1(2,3) E1(2,0) E2(0,2) E1(0,2) E2(2,0) E1(8,8) E2(8,8) E2(3,8) E2(8,3) E1(3,8) E1(8,3) E2(8,0) E1(0,8) E1(8,0) E2(0,8) E1(3,3) E2(3,3) E1(3,0) E1(0,3) E2(0,3) E2(3,0) E1(0,0) E2(0,0)
c 1 2 3 4 5 6 7 8 9 10 11 12 13 14 15 16 17 18 19 20 21 22 23 24 25 26 27 28 29 30 31 32 33 34 35 36 37 38 39 40 41 42 43 44 45 46 47 48 49 50 51 52 53 54 55 56 57 58 59 60 61 62 63 64 65 66 67 68 69 70 71 72 73 74 75 76 77 78 79 80 81 82 83 84 85 86 87 88 89 90 91 92 93 94 95 96 97 98 99 100 101 102 103 104 105 106 107 108 109 110 111 112 113 114 115 116 117 118 119 120 121 122 123 124 125 126 127 128 129 130 131 132 133 134 135 136 137 138 139 140 141 142 143 144 145 146 147 148 149 150 151 152 153 154 155 156 157 158 159 160 161 162 163 164 165 166 167 168 169 170 171 172 173 174 175 176 177 178 179 180 181 182 183 184 185 186 187 188 189 190 191 192 193 194 195 196 197 198
p cnf 198 5211
-65 -67 0
-65 -63 0
-65 -66 0
-34 -36 0
-34 -32 0
-34 -37 0
-45 -40 0
-45 -41 0
-45 -39 0
-57 -59 0
-57 -60 0
-57 -58 0
-28 -30 0
-28 -26 0
-28 -29 0
-13 -9 0
-13 -14 0
-13 -8 0
-2 -5 0
-2 -6 0
-2 -4 0
-18 -15 0
-18 -19 0
-18 -22 0
-52 -48 0
-52 -54 0
-52 -47 0
-67 -63 0
-67 -66 0
-36 -32 0
-36 -37 0
-40 -41 0
-40 -39 0
-59 -60 0
-59 -58 0
-30 -26 0
-30 -29 0
-9 -14 0
-9 -8 0
-5 -6 0
-5 -4 0
-15 -19 0
-15 -22 0
-48 -54 0
-48 -47 0
-63 -66 0
-32 -37 0
-41 -39 0
-60 -58 0
-26 -29 0
-14 -8 0
-6 -4 0
-19 -22 0
-54 -47 0
65 67 63 66 0
34 36 32 37 0
45 40 41 39 0
57 59 60 58 0
28 30 26 29 0
13 9 14 8 0
2 5 6 4 0
18 15 19 22 0
52 48 54 47 0
65 67 63 -197 0
65 67 63 -198 0
65 67 66 -197 0
65 67 66 -198 0
65 63 66 -197 0
65 63 66 -198 0
34 36 32 -150 0
34 36 32 -149 0
34 36 37 -150 0
34 36 37 -149 0
34 32 37 -150 0
34 32 37 -149 0
45 40 41 -167 0
45 40 41 -168 0
45 40 39 -167 0
45 40 39 -168 0
45 41 39 -167 0
45 41 39 -168 0
57 59 60 -191 0
57 59 60 -192 0
57 59 58 -191 0
57 59 58 -192 0
57 60 58 -191 0
57 60 58 -192 0
28 30 26 -128 0
28 30 26 -127 0
28 30 29 -128 0
28 30 29 -127 0
28 26 29 -128 0
28 26 29 -127 0
13 9 14 -72 0
13 9 14 -71 0
13 9 8 -72 0
13 9 8 -71 0
13 14 8 -72 0
13 14 8 -71 0
2 5 6 -3 0
2 5 6 -1 0
2 5 4 -3 0
2 5 4 -1 0
2 6 4 -3 0
2 6 4 -1 0
18 15 19 -101 0
18 15 19 -102 0
18 15 22 -101 0
18 15 22 -102 0
18 19 22 -101 0
18 19 22 -102 0
52 48 54 -181 0
52 48 54 -182 0
52 48 47 -181 0
52 48 47 -182 0
52 54 47 -181 0
52 54 47 -182 0
67 63 66 -197 0
67 63 66 -198 0
36 32 37 -150 0
36 32 37 -149 0
40 41 39 -167 0
40 41 39 -168 0
59 60 58 -191 0
59 60 58 -192 0
30 26 29 -128 0
30 26 29 -127 0
9 14 8 -72 0
9 14 8 -71 0
5 6 4 -3 0
5 6 4 -1 0
15 19 22 -101 0
15 19 22 -102 0
48 54 47 -181 0
48 54 47 -182 0
65 67 63 66 -197 0
65 67 63 66 -163 0
65 67 63 66 -179 0
65 67 63 66 -194 0
65 67 63 66 -146 0
65 67 63 66 -99 0
65 67 63 66 -69 0
65 67 63 66 -126 0
65 67 63 66 -188 0
65 67 63 66 -164 0
65 67 63 66 -177 0
65 67 63 66 -193 0
65 67 63 66 -148 0
65 67 63 66 -97 0
65 67 63 66 -64 0
65 67 63 66 -125 0
65 67 63 66 -189 0
65 67 63 66 -198 0
65 67 63 66 -165 0
65 67 63 66 -178 0
65 67 63 66 -195 0
65 67 63 66 -145 0
65 67 63 66 -98 0
65 67 63 66 -68 0
65 67 63 66 -123 0
65 67 63 66 -190 0
65 67 63 66 -166 0
65 67 63 66 -180 0
65 67 63 66 -196 0
65 67 63 66 -147 0
65 67 63 66 -100 0
65 67 63 66 -70 0
65 67 63 66 -124 0
65 67 63 66 -187 0
34 36 32 37 -163 0
34 36 32 37 -164 0
34 36 32 37 -150 0
34 36 32 37 -152 0
34 36 32 37 -162 0
34 36 32 37 -129 0
34 36 32 37 -84 0
34 36 32 37 -35 0
34 36 32 37 -108 0
34 36 32 37 -156 0
34 36 32 37 -151 0
34 36 32 37 -160 0
34 36 32 37 -132 0
34 36 32 37 -83 0
34 36 32 37 -33 0
34 36 32 37 -110 0
34 36 32 37 -158 0
34 36 32 37 -165 0
34 36 32 37 -166 0
34 36 32 37 -149 0
34 36 32 37 -153 0
34 36 32 37 -161 0
34 36 32 37 -130 0
34 36 32 37 -82 0
34 36 32 37 -31 0
34 36 32 37 -107 0
34 36 32 37 -157 0
34 36 32 37 -154 0
34 36 32 37 -159 0
34 36 32 37 -131 0
34 36 32 37 -81 0
34 36 32 37 -38 0
34 36 32 37 -109 0
34 36 32 37 -155 0
45 40 41 39 -179 0
45 40 41 39 -152 0
45 40 41 39 -177 0
45 40 41 39 -151 0
45 40 41 39 -167 0
45 40 41 39 -176 0
45 40 41 39 -136 0
45 40 41 39 -86 0
45 40 41 39 -42 0
45 40 41 39 -111 0
45 40 41 39 -171 0
45 40 41 39 -174 0
45 40 41 39 -134 0
45 40 41 39 -88 0
45 40 41 39 -44 0
45 40 41 39 -112 0
45 40 41 39 -172 0
45 40 41 39 -178 0
45 40 41 39 -153 0
45 40 41 39 -180 0
45 40 41 39 -154 0
45 40 41 39 -168 0
45 40 41 39 -175 0
45 40 41 39 -135 0
45 40 41 39 -85 0
45 40 41 39 -46 0
45 40 41 39 -113 0
45 40 41 39 -170 0
45 40 41 39 -173 0
45 40 41 39 -133 0
45 40 41 39 -87 0
45 40 41 39 -43 0
45 40 41 39 -114 0
45 40 41 39 -169 0
57 59 60 58 -194 0
57 59 60 58 -162 0
57 59 60 58 -176 0
57 59 60 58 -193 0
57 59 60 58 -160 0
57 59 60 58 -174 0
57 59 60 58 -191 0
57 59 60 58 -144 0
57 59 60 58 -93 0
57 59 60 58 -62 0
57 59 60 58 -121 0
57 59 60 58 -185 0
57 59 60 58 -142 0
57 59 60 58 -94 0
57 59 60 58 -55 0
57 59 60 58 -119 0
57 59 60 58 -186 0
57 59 60 58 -195 0
57 59 60 58 -161 0
57 59 60 58 -175 0
57 59 60 58 -196 0
57 59 60 58 -159 0
57 59 60 58 -173 0
57 59 60 58 -192 0
57 59 60 58 -141 0
57 59 60 58 -95 0
57 59 60 58 -56 0
57 59 60 58 -120 0
57 59 60 58 -183 0
57 59 60 58 -143 0
57 59 60 58 -96 0
57 59 60 58 -61 0
57 59 60 58 -122 0
57 59 60 58 -184 0
28 30 26 29 -146 0
28 30 26 29 -129 0
28 30 26 29 -136 0
28 30 26 29 -144 0
28 30 26 29 -148 0
28 30 26 29 -132 0
28 30 26 29 -134 0
28 30 26 29 -142 0
28 30 26 29 -128 0
28 30 26 29 -77 0
28 30 26 29 -23 0
28 30 26 29 -103 0
28 30 26 29 -140 0
28 30 26 29 -78 0
28 30 26 29 -25 0
28 30 26 29 -105 0
28 30 26 29 -139 0
28 30 26 29 -145 0
28 30 26 29 -130 0
28 30 26 29 -135 0
28 30 26 29 -141 0
28 30 26 29 -147 0
28 30 26 29 -131 0
28 30 26 29 -133 0
28 30 26 29 -143 0
28 30 26 29 -127 0
28 30 26 29 -79 0
28 30 26 29 -27 0
28 30 26 29 -106 0
28 30 26 29 -137 0
28 30 26 29 -80 0
28 30 26 29 -24 0
28 30 26 29 -104 0
28 30 26 29 -138 0
13 9 14 8 -99 0
13 9 14 8 -84 0
13 9 14 8 -86 0
13 9 14 8 -93 0
13 9 14 8 -77 0
13 9 14 8 -97 0
13 9 14 8 -83 0
13 9 14 8 -88 0
13 9 14 8 -94 0
13 9 14 8 -78 0
13 9 14 8 -72 0
13 9 14 8 -11 0
13 9 14 8 -76 0
13 9 14 8 -90 0
13 9 14 8 -12 0
13 9 14 8 -74 0
13 9 14 8 -92 0
13 9 14 8 -98 0
13 9 14 8 -82 0
13 9 14 8 -85 0
13 9 14 8 -95 0
13 9 14 8 -79 0
13 9 14 8 -100 0
13 9 14 8 -81 0
13 9 14 8 -87 0
13 9 14 8 -96 0
13 9 14 8 -80 0
13 9 14 8 -71 0
13 9 14 8 -7 0
13 9 14 8 -75 0
13 9 14 8 -89 0
13 9 14 8 -10 0
13 9 14 8 -73 0
13 9 14 8 -91 0
2 5 6 4 -69 0
2 5 6 4 -35 0
2 5 6 4 -42 0
2 5 6 4 -62 0
2 5 6 4 -23 0
2 5 6 4 -11 0
2 5 6 4 -64 0
2 5 6 4 -33 0
2 5 6 4 -44 0
2 5 6 4 -55 0
2 5 6 4 -25 0
2 5 6 4 -12 0
2 5 6 4 -3 0
2 5 6 4 -21 0
2 5 6 4 -53 0
2 5 6 4 -17 0
2 5 6 4 -51 0
2 5 6 4 -68 0
2 5 6 4 -31 0
2 5 6 4 -46 0
2 5 6 4 -56 0
2 5 6 4 -27 0
2 5 6 4 -7 0
2 5 6 4 -70 0
2 5 6 4 -38 0
2 5 6 4 -43 0
2 5 6 4 -61 0
2 5 6 4 -24 0
2 5 6 4 -10 0
2 5 6 4 -1 0
2 5 6 4 -20 0
2 5 6 4 -50 0
2 5 6 4 -16 0
2 5 6 4 -49 0
18 15 19 22 -126 0
18 15 19 22 -108 0
18 15 19 22 -111 0
18 15 19 22 -121 0
18 15 19 22 -103 0
18 15 19 22 -76 0
18 15 19 22 -21 0
18 15 19 22 -125 0
18 15 19 22 -110 0
18 15 19 22 -112 0
18 15 19 22 -119 0
18 15 19 22 -105 0
18 15 19 22 -74 0
18 15 19 22 -17 0
18 15 19 22 -101 0
18 15 19 22 -118 0
18 15 19 22 -115 0
18 15 19 22 -123 0
18 15 19 22 -107 0
18 15 19 22 -113 0
18 15 19 22 -120 0
18 15 19 22 -106 0
18 15 19 22 -75 0
18 15 19 22 -20 0
18 15 19 22 -124 0
18 15 19 22 -109 0
18 15 19 22 -114 0
18 15 19 22 -122 0
18 15 19 22 -104 0
18 15 19 22 -73 0
18 15 19 22 -16 0
18 15 19 22 -102 0
18 15 19 22 -116 0
18 15 19 22 -117 0
52 48 54 47 -188 0
52 48 54 47 -156 0
52 48 54 47 -171 0
52 48 54 47 -185 0
52 48 54 47 -140 0
52 48 54 47 -90 0
52 48 54 47 -53 0
52 48 54 47 -118 0
52 48 54 47 -189 0
52 48 54 47 -158 0
52 48 54 47 -172 0
52 48 54 47 -186 0
52 48 54 47 -139 0
52 48 54 47 -92 0
52 48 54 47 -51 0
52 48 54 47 -115 0
52 48 54 47 -181 0
52 48 54 47 -190 0
52 48 54 47 -157 0
52 48 54 47 -170 0
52 48 54 47 -183 0
52 48 54 47 -137 0
52 48 54 47 -89 0
52 48 54 47 -50 0
52 48 54 47 -116 0
52 48 54 47 -187 0
52 48 54 47 -155 0
52 48 54 47 -169 0
52 48 54 47 -184 0
52 48 54 47 -138 0
52 48 54 47 -91 0
52 48 54 47 -49 0
52 48 54 47 -117 0
52 48 54 47 -182 0
65 34 67 63 66 -163 0
65 34 67 63 66 -164 0
65 34 67 63 66 -165 0
65 34 67 63 66 -166 0
65 34 36 32 37 -163 0
65 34 36 32 37 -164 0
65 34 36 32 37 -165 0
65 34 36 32 37 -166 0
65 45 67 63 66 -179 0
65 45 67 63 66 -177 0
65 45 67 63 66 -178 0
65 45 67 63 66 -180 0
65 45 40 41 39 -179 0
65 45 40 41 39 -177 0
65 45 40 41 39 -178 0
65 45 40 41 39 -180 0
65 57 67 63 66 -194 0
65 57 67 63 66 -193 0
65 57 67 63 66 -195 0
65 57 67 63 66 -196 0
65 57 59 60 58 -194 0
65 57 59 60 58 -193 0
65 57 59 60 58 -195 0
65 57 59 60 58 -196 0
65 28 67 63 66 -146 0
65 28 67 63 66 -148 0
65 28 67 63 66 -145 0
65 28 67 63 66 -147 0
65 28 30 26 29 -146 0
65 28 30 26 29 -148 0
65 28 30 26 29 -145 0
65 28 30 26 29 -147 0
65 13 67 63 66 -99 0
65 13 67 63 66 -97 0
65 13 67 63 66 -98 0
65 13 67 63 66 -100 0
65 13 9 14 8 -99 0
65 13 9 14 8 -97 0
65 13 9 14 8 -98 0
65 13 9 14 8 -100 0
65 2 67 63 66 -69 0
65 2 67 63 66 -64 0
65 2 67 63 66 -68 0
65 2 67 63 66 -70 0
65 2 5 6 4 -69 0
65 2 5 6 4 -64 0
65 2 5 6 4 -68 0
65 2 5 6 4 -70 0
65 18 67 63 66 -126 0
65 18 67 63 66 -125 0
65 18 67 63 66 -123 0
65 18 67 63 66 -124 0
65 18 15 19 22 -126 0
65 18 15 19 22 -125 0
65 18 15 19 22 -123 0
65 18 15 19 22 -124 0
65 52 67 63 66 -188 0
65 52 67 63 66 -189 0
65 52 67 63 66 -190 0
65 52 67 63 66 -187 0
65 52 48 54 47 -188 0
65 52 48 54 47 -189 0
65 52 48 54 47 -190 0
65 52 48 54 47 -187 0
65 67 36 63 66 -163 0
65 67 36 63 66 -164 0
65 67 36 63 66 -165 0
65 67 36 63 66 -166 0
65 67 40 63 66 -179 0
65 67 40 63 66 -177 0
65 67 40 63 66 -178 0
65 67 40 63 66 -180 0
65 67 59 63 66 -194 0
65 67 59 63 66 -193 0
65 67 59 63 66 -195 0
65 67 59 63 66 -196 0
65 67 30 63 66 -146 0
65 67 30 63 66 -148 0
65 67 30 63 66 -145 0
65 67 30 63 66 -147 0
65 67 9 63 66 -99 0
65 67 9 63 66 -97 0
65 67 9 63 66 -98 0
65 67 9 63 66 -100 0
65 67 5 63 66 -69 0
65 67 5 63 66 -64 0
65 67 5 63 66 -68 0
65 67 5 63 66 -70 0
65 67 15 63 66 -126 0
65 67 15 63 66 -125 0
65 67 15 63 66 -123 0
65 67 15 63 66 -124 0
65 67 48 63 66 -188 0
65 67 48 63 66 -189 0
65 67 48 63 66 -190 0
65 67 48 63 66 -187 0
65 67 63 32 66 -163 0
65 67 63 32 66 -164 0
65 67 63 32 66 -165 0
65 67 63 32 66 -166 0
65 67 63 41 66 -179 0
65 67 63 41 66 -177 0
65 67 63 41 66 -178 0
65 67 63 41 66 -180 0
65 67 63 60 66 -194 0
65 67 63 60 66 -193 0
65 67 63 60 66 -195 0
65 67 63 60 66 -196 0
65 67 63 26 66 -146 0
65 67 63 26 66 -148 0
65 67 63 26 66 -145 0
65 67 63 26 66 -147 0
65 67 63 14 66 -99 0
65 67 63 14 66 -97 0
65 67 63 14 66 -98 0
65 67 63 14 66 -100 0
65 67 63 6 66 -69 0
65 67 63 6 66 -64 0
65 67 63 6 66 -68 0
65 67 63 6 66 -70 0
65 67 63 19 66 -126 0
65 67 63 19 66 -125 0
65 67 63 19 66 -123 0
65 67 63 19 66 -124 0
65 67 63 54 66 -188 0
65 67 63 54 66 -189 0
65 67 63 54 66 -190 0
65 67 63 54 66 -187 0
65 67 63 66 37 -163 0
65 67 63 66 37 -164 0
65 67 63 66 37 -165 0
65 67 63 66 37 -166 0
65 67 63 66 39 -179 0
65 67 63 66 39 -177 0
65 67 63 66 39 -178 0
65 67 63 66 39 -180 0
65 67 63 66 58 -194 0
65 67 63 66 58 -193 0
65 67 63 66 58 -195 0
65 67 63 66 58 -196 0
65 67 63 66 29 -146 0
65 67 63 66 29 -148 0
65 67 63 66 29 -145 0
65 67 63 66 29 -147 0
65 67 63 66 8 -99 0
65 67 63 66 8 -97 0
65 67 63 66 8 -98 0
65 67 63 66 8 -100 0
65 67 63 66 4 -69 0
65 67 63 66 4 -64 0
65 67 63 66 4 -68 0
65 67 63 66 4 -70 0
65 67 63 66 22 -126 0
65 67 63 66 22 -125 0
65 67 63 66 22 -123 0
65 67 63 66 22 -124 0
65 67 63 66 47 -188 0
65 67 63 66 47 -189 0
65 67 63 66 47 -190 0
65 67 63 66 47 -187 0
34 45 36 32 37 -152 0
34 45 36 32 37 -151 0
34 45 36 32 37 -153 0
34 45 36 32 37 -154 0
34 45 40 41 39 -152 0
34 45 40 41 39 -151 0
34 45 40 41 39 -153 0
34 45 40 41 39 -154 0
34 57 36 32 37 -162 0
34 57 36 32 37 -160 0
34 57 36 32 37 -161 0
34 57 36 32 37 -159 0
34 57 59 60 58 -162 0
34 57 59 60 58 -160 0
34 57 59 60 58 -161 0
34 57 59 60 58 -159 0
34 28 36 32 37 -129 0
34 28 36 32 37 -132 0
34 28 36 32 37 -130 0
34 28 36 32 37 -131 0
34 28 30 26 29 -129 0
34 28 30 26 29 -132 0
34 28 30 26 29 -130 0
34 28 30 26 29 -131 0
34 13 36 32 37 -84 0
34 13 36 32 37 -83 0
34 13 36 32 37 -82 0
34 13 36 32 37 -81 0
34 13 9 14 8 -84 0
34 13 9 14 8 -83 0
34 13 9 14 8 -82 0
34 13 9 14 8 -81 0
34 2 36 32 37 -35 0
34 2 36 32 37 -33 0
34 2 36 32 37 -31 0
34 2 36 32 37 -38 0
34 2 5 6 4 -35 0
34 2 5 6 4 -33 0
34 2 5 6 4 -31 0
34 2 5 6 4 -38 0
34 18 36 32 37 -108 0
34 18 36 32 37 -110 0
34 18 36 32 37 -107 0
34 18 36 32 37 -109 0
34 18 15 19 22 -108 0
34 18 15 19 22 -110 0
34 18 15 19 22 -107 0
34 18 15 19 22 -109 0
34 52 36 32 37 -156 0
34 52 36 32 37 -158 0
34 52 36 32 37 -157 0
34 52 36 32 37 -155 0
34 52 48 54 47 -156 0
34 52 48 54 47 -158 0
34 52 48 54 47 -157 0
34 52 48 54 47 -155 0
34 67 36 32 37 -163 0
34 67 36 32 37 -164 0
34 67 36 32 37 -165 0
34 67 36 32 37 -166 0
34 36 40 32 37 -152 0
34 36 40 32 37 -151 0
34 36 40 32 37 -153 0
34 36 40 32 37 -154 0
34 36 59 32 37 -162 0
34 36 59 32 37 -160 0
34 36 59 32 37 -161 0
34 36 59 32 37 -159 0
34 36 30 32 37 -129 0
34 36 30 32 37 -132 0
34 36 30 32 37 -130 0
34 36 30 32 37 -131 0
34 36 9 32 37 -84 0
34 36 9 32 37 -83 0
34 36 9 32 37 -82 0
34 36 9 32 37 -81 0
34 36 5 32 37 -35 0
34 36 5 32 37 -33 0
34 36 5 32 37 -31 0
34 36 5 32 37 -38 0
34 36 15 32 37 -108 0
34 36 15 32 37 -110 0
34 36 15 32 37 -107 0
34 36 15 32 37 -109 0
34 36 48 32 37 -156 0
34 36 48 32 37 -158 0
34 36 48 32 37 -157 0
34 36 48 32 37 -155 0
34 36 63 32 37 -163 0
34 36 63 32 37 -164 0
34 36 63 32 37 -165 0
34 36 63 32 37 -166 0
34 36 32 41 37 -152 0
34 36 32 41 37 -151 0
34 36 32 41 37 -153 0
34 36 32 41 37 -154 0
34 36 32 60 37 -162 0
34 36 32 60 37 -160 0
34 36 32 60 37 -161 0
34 36 32 60 37 -159 0
34 36 32 26 37 -129 0
34 36 32 26 37 -132 0
34 36 32 26 37 -130 0
34 36 32 26 37 -131 0
34 36 32 14 37 -84 0
34 36 32 14 37 -83 0
34 36 32 14 37 -82 0
34 36 32 14 37 -81 0
34 36 32 6 37 -35 0
34 36 32 6 37 -33 0
34 36 32 6 37 -31 0
34 36 32 6 37 -38 0
34 36 32 19 37 -108 0
34 36 32 19 37 -110 0
34 36 32 19 37 -107 0
34 36 32 19 37 -109 0
34 36 32 54 37 -156 0
34 36 32 54 37 -158 0
34 36 32 54 37 -157 0
34 36 32 54 37 -155 0
34 36 32 66 37 -163 0
34 36 32 66 37 -164 0
34 36 32 66 37 -165 0
34 36 32 66 37 -166 0
34 36 32 37 39 -152 0
34 36 32 37 39 -151 0
34 36 32 37 39 -153 0
34 36 32 37 39 -154 0
34 36 32 37 58 -162 0
34 36 32 37 58 -160 0
34 36 32 37 58 -161 0
34 36 32 37 58 -159 0
34 36 32 37 29 -129 0
34 36 32 37 29 -132 0
34 36 32 37 29 -130 0
34 36 32 37 29 -131 0
34 36 32 37 8 -84 0
34 36 32 37 8 -83 0
34 36 32 37 8 -82 0
34 36 32 37 8 -81 0
34 36 32 37 4 -35 0
34 36 32 37 4 -33 0
34 36 32 37 4 -31 0
34 36 32 37 4 -38 0
34 36 32 37 22 -108 0
34 36 32 37 22 -110 0
34 36 32 37 22 -107 0
34 36 32 37 22 -109 0
34 36 32 37 47 -156 0
34 36 32 37 47 -158 0
34 36 32 37 47 -157 0
34 36 32 37 47 -155 0
45 57 40 41 39 -176 0
45 57 40 41 39 -174 0
45 57 40 41 39 -175 0
45 57 40 41 39 -173 0
45 57 59 60 58 -176 0
45 57 59 60 58 -174 0
45 57 59 60 58 -175 0
45 57 59 60 58 -173 0
45 28 40 41 39 -136 0
45 28 40 41 39 -134 0
45 28 40 41 39 -135 0
45 28 40 41 39 -133 0
45 28 30 26 29 -136 0
45 28 30 26 29 -134 0
45 28 30 26 29 -135 0
45 28 30 26 29 -133 0
45 13 40 41 39 -86 0
45 13 40 41 39 -88 0
45 13 40 41 39 -85 0
45 13 40 41 39 -87 0
45 13 9 14 8 -86 0
45 13 9 14 8 -88 0
45 13 9 14 8 -85 0
45 13 9 14 8 -87 0
45 2 40 41 39 -42 0
45 2 40 41 39 -44 0
45 2 40 41 39 -46 0
45 2 40 41 39 -43 0
45 2 5 6 4 -42 0
45 2 5 6 4 -44 0
45 2 5 6 4 -46 0
45 2 5 6 4 -43 0
45 18 40 41 39 -111 0
45 18 40 41 39 -112 0
45 18 40 41 39 -113 0
45 18 40 41 39 -114 0
45 18 15 19 22 -111 0
45 18 15 19 22 -112 0
45 18 15 19 22 -113 0
45 18 15 19 22 -114 0
45 52 40 41 39 -171 0
45 52 40 41 39 -172 0
45 52 40 41 39 -170 0
45 52 40 41 39 -169 0
45 52 48 54 47 -171 0
45 52 48 54 47 -172 0
45 52 48 54 47 -170 0
45 52 48 54 47 -169 0
45 67 40 41 39 -179 0
45 67 40 41 39 -177 0
45 67 40 41 39 -178 0
45 67 40 41 39 -180 0
45 36 40 41 39 -152 0
45 36 40 41 39 -151 0
45 36 40 41 39 -153 0
45 36 40 41 39 -154 0
45 40 59 41 39 -176 0
45 40 59 41 39 -174 0
45 40 59 41 39 -175 0
45 40 59 41 39 -173 0
45 40 30 41 39 -136 0
45 40 30 41 39 -134 0
45 40 30 41 39 -135 0
45 40 30 41 39 -133 0
45 40 9 41 39 -86 0
45 40 9 41 39 -88 0
45 40 9 41 39 -85 0
45 40 9 41 39 -87 0
45 40 5 41 39 -42 0
45 40 5 41 39 -44 0
45 40 5 41 39 -46 0
45 40 5 41 39 -43 0
45 40 15 41 39 -111 0
45 40 15 41 39 -112 0
45 40 15 41 39 -113 0
45 40 15 41 39 -114 0
45 40 48 41 39 -171 0
45 40 48 41 39 -172 0
45 40 48 41 39 -170 0
45 40 48 41 39 -169 0
45 40 63 41 39 -179 0
45 40 63 41 39 -177 0
45 40 63 41 39 -178 0
45 40 63 41 39 -180 0
45 40 32 41 39 -152 0
45 40 32 41 39 -151 0
45 40 32 41 39 -153 0
45 40 32 41 39 -154 0
45 40 41 60 39 -176 0
45 40 41 60 39 -174 0
45 40 41 60 39 -175 0
45 40 41 60 39 -173 0
45 40 41 26 39 -136 0
45 40 41 26 39 -134 0
45 40 41 26 39 -135 0
45 40 41 26 39 -133 0
45 40 41 14 39 -86 0
45 40 41 14 39 -88 0
45 40 41 14 39 -85 0
45 40 41 14 39 -87 0
45 40 41 6 39 -42 0
45 40 41 6 39 -44 0
45 40 41 6 39 -46 0
45 40 41 6 39 -43 0
45 40 41 19 39 -111 0
45 40 41 19 39 -112 0
45 40 41 19 39 -113 0
45 40 41 19 39 -114 0
45 40 41 54 39 -171 0
45 40 41 54 39 -172 0
45 40 41 54 39 -170 0
45 40 41 54 39 -169 0
45 40 41 66 39 -179 0
45 40 41 66 39 -177 0
45 40 41 66 39 -178 0
45 40 41 66 39 -180 0
45 40 41 37 39 -152 0
45 40 41 37 39 -151 0
45 40 41 37 39 -153 0
45 40 41 37 39 -154 0
45 40 41 39 58 -176 0
45 40 41 39 58 -174 0
45 40 41 39 58 -175 0
45 40 41 39 58 -173 0
45 40 41 39 29 -136 0
45 40 41 39 29 -134 0
45 40 41 39 29 -135 0
45 40 41 39 29 -133 0
45 40 41 39 8 -86 0
45 40 41 39 8 -88 0
45 40 41 39 8 -85 0
45 40 41 39 8 -87 0
45 40 41 39 4 -42 0
45 40 41 39 4 -44 0
45 40 41 39 4 -46 0
45 40 41 39 4 -43 0
45 40 41 39 22 -111 0
45 40 41 39 22 -112 0
45 40 41 39 22 -113 0
45 40 41 39 22 -114 0
45 40 41 39 47 -171 0
45 40 41 39 47 -172 0
45 40 41 39 47 -170 0
45 40 41 39 47 -169 0
57 28 59 60 58 -144 0
57 28 59 60 58 -142 0
57 28 59 60 58 -141 0
57 28 59 60 58 -143 0
57 28 30 26 29 -144 0
57 28 30 26 29 -142 0
57 28 30 26 29 -141 0
57 28 30 26 29 -143 0
57 13 59 60 58 -93 0
57 13 59 60 58 -94 0
57 13 59 60 58 -95 0
57 13 59 60 58 -96 0
57 13 9 14 8 -93 0
57 13 9 14 8 -94 0
57 13 9 14 8 -95 0
57 13 9 14 8 -96 0
57 2 59 60 58 -62 0
57 2 59 60 58 -55 0
57 2 59 60 58 -56 0
57 2 59 60 58 -61 0
57 2 5 6 4 -62 0
57 2 5 6 4 -55 0
57 2 5 6 4 -56 0
57 2 5 6 4 -61 0
57 18 59 60 58 -121 0
57 18 59 60 58 -119 0
57 18 59 60 58 -120 0
57 18 59 60 58 -122 0
57 18 15 19 22 -121 0
57 18 15 19 22 -119 0
57 18 15 19 22 -120 0
57 18 15 19 22 -122 0
57 52 59 60 58 -185 0
57 52 59 60 58 -186 0
57 52 59 60 58 -183 0
57 52 59 60 58 -184 0
57 52 48 54 47 -185 0
57 52 48 54 47 -186 0
57 52 48 54 47 -183 0
57 52 48 54 47 -184 0
57 67 59 60 58 -194 0
57 67 59 60 58 -193 0
57 67 59 60 58 -195 0
57 67 59 60 58 -196 0
57 36 59 60 58 -162 0
57 36 59 60 58 -160 0
57 36 59 60 58 -161 0
57 36 59 60 58 -159 0
57 40 59 60 58 -176 0
57 40 59 60 58 -174 0
57 40 59 60 58 -175 0
57 40 59 60 58 -173 0
57 59 30 60 58 -144 0
57 59 30 60 58 -142 0
57 59 30 60 58 -141 0
57 59 30 60 58 -143 0
57 59 9 60 58 -93 0
57 59 9 60 58 -94 0
57 59 9 60 58 -95 0
57 59 9 60 58 -96 0
57 59 5 60 58 -62 0
57 59 5 60 58 -55 0
57 59 5 60 58 -56 0
57 59 5 60 58 -61 0
57 59 15 60 58 -121 0
57 59 15 60 58 -119 0
57 59 15 60 58 -120 0
57 59 15 60 58 -122 0
57 59 48 60 58 -185 0
57 59 48 60 58 -186 0
57 59 48 60 58 -183 0
57 59 48 60 58 -184 0
57 59 63 60 58 -194 0
57 59 63 60 58 -193 0
57 59 63 60 58 -195 0
57 59 63 60 58 -196 0
57 59 32 60 58 -162 0
57 59 32 60 58 -160 0
57 59 32 60 58 -161 0
57 59 32 60 58 -159 0
57 59 41 60 58 -176 0
57 59 41 60 58 -174 0
57 59 41 60 58 -175 0
57 59 41 60 58 -173 0
57 59 60 26 58 -144 0
57 59 60 26 58 -142 0
57 59 60 26 58 -141 0
57 59 60 26 58 -143 0
57 59 60 14 58 -93 0
57 59 60 14 58 -94 0
57 59 60 14 58 -95 0
57 59 60 14 58 -96 0
57 59 60 6 58 -62 0
57 59 60 6 58 -55 0
57 59 60 6 58 -56 0
57 59 60 6 58 -61 0
57 59 60 19 58 -121 0
57 59 60 19 58 -119 0
57 59 60 19 58 -120 0
57 59 60 19 58 -122 0
57 59 60 54 58 -185 0
57 59 60 54 58 -186 0
57 59 60 54 58 -183 0
57 59 60 54 58 -184 0
57 59 60 66 58 -194 0
57 59 60 66 58 -193 0
57 59 60 66 58 -195 0
57 59 60 66 58 -196 0
57 59 60 37 58 -162 0
57 59 60 37 58 -160 0
57 59 60 37 58 -161 0
57 59 60 37 58 -159 0
57 59 60 39 58 -176 0
57 59 60 39 58 -174 0
57 59 60 39 58 -175 0
57 59 60 39 58 -173 0
57 59 60 58 29 -144 0
57 59 60 58 29 -142 0
57 59 60 58 29 -141 0
57 59 60 58 29 -143 0
57 59 60 58 8 -93 0
57 59 60 58 8 -94 0
57 59 60 58 8 -95 0
57 59 60 58 8 -96 0
57 59 60 58 4 -62 0
57 59 60 58 4 -55 0
57 59 60 58 4 -56 0
57 59 60 58 4 -61 0
57 59 60 58 22 -121 0
57 59 60 58 22 -119 0
57 59 60 58 22 -120 0
57 59 60 58 22 -122 0
57 59 60 58 47 -185 0
57 59 60 58 47 -186 0
57 59 60 58 47 -183 0
57 59 60 58 47 -184 0
28 13 30 26 29 -77 0
28 13 30 26 29 -78 0
28 13 30 26 29 -79 0
28 13 30 26 29 -80 0
28 13 9 14 8 -77 0
28 13 9 14 8 -78 0
28 13 9 14 8 -79 0
28 13 9 14 8 -80 0
28 2 30 26 29 -23 0
28 2 30 26 29 -25 0
28 2 30 26 29 -27 0
28 2 30 26 29 -24 0
28 2 5 6 4 -23 0
28 2 5 6 4 -25 0
28 2 5 6 4 -27 0
28 2 5 6 4 -24 0
28 18 30 26 29 -103 0
28 18 30 26 29 -105 0
28 18 30 26 29 -106 0
28 18 30 26 29 -104 0
28 18 15 19 22 -103 0
28 18 15 19 22 -105 0
28 18 15 19 22 -106 0
28 18 15 19 22 -104 0
28 52 30 26 29 -140 0
28 52 30 26 29 -139 0
28 52 30 26 29 -137 0
28 52 30 26 29 -138 0
28 52 48 54 47 -140 0
28 52 48 54 47 -139 0
28 52 48 54 47 -137 0
28 52 48 54 47 -138 0
28 67 30 26 29 -146 0
28 67 30 26 29 -148 0
28 67 30 26 29 -145 0
28 67 30 26 29 -147 0
28 36 30 26 29 -129 0
28 36 30 26 29 -132 0
28 36 30 26 29 -130 0
28 36 30 26 29 -131 0
28 40 30 26 29 -136 0
28 40 30 26 29 -134 0
28 40 30 26 29 -135 0
28 40 30 26 29 -133 0
28 59 30 26 29 -144 0
28 59 30 26 29 -142 0
28 59 30 26 29 -141 0
28 59 30 26 29 -143 0
28 30 9 26 29 -77 0
28 30 9 26 29 -78 0
28 30 9 26 29 -79 0
28 30 9 26 29 -80 0
28 30 5 26 29 -23 0
28 30 5 26 29 -25 0
28 30 5 26 29 -27 0
28 30 5 26 29 -24 0
28 30 15 26 29 -103 0
28 30 15 26 29 -105 0
28 30 15 26 29 -106 0
28 30 15 26 29 -104 0
28 30 48 26 29 -140 0
28 30 48 26 29 -139 0
28 30 48 26 29 -137 0
28 30 48 26 29 -138 0
28 30 63 26 29 -146 0
28 30 63 26 29 -148 0
28 30 63 26 29 -145 0
28 30 63 26 29 -147 0
28 30 32 26 29 -129 0
28 30 32 26 29 -132 0
28 30 32 26 29 -130 0
28 30 32 26 29 -131 0
28 30 41 26 29 -136 0
28 30 41 26 29 -134 0
28 30 41 26 29 -135 0
28 30 41 26 29 -133 0
28 30 60 26 29 -144 0
28 30 60 26 29 -142 0
28 30 60 26 29 -141 0
28 30 60 26 29 -143 0
28 30 26 14 29 -77 0
28 30 26 14 29 -78 0
28 30 26 14 29 -79 0
28 30 26 14 29 -80 0
28 30 26 6 29 -23 0
28 30 26 6 29 -25 0
28 30 26 6 29 -27 0
28 30 26 6 29 -24 0
28 30 26 19 29 -103 0
28 30 26 19 29 -105 0
28 30 26 19 29 -106 0
28 30 26 19 29 -104 0
28 30 26 54 29 -140 0
28 30 26 54 29 -139 0
28 30 26 54 29 -137 0
28 30 26 54 29 -138 0
28 30 26 66 29 -146 0
28 30 26 66 29 -148 0
28 30 26 66 29 -145 0
28 30 26 66 29 -147 0
28 30 26 37 29 -129 0
28 30 26 37 29 -132 0
28 30 26 37 29 -130 0
28 30 26 37 29 -131 0
28 30 26 39 29 -136 0
28 30 26 39 29 -134 0
28 30 26 39 29 -135 0
28 30 26 39 29 -133 0
28 30 26 58 29 -144 0
28 30 26 58 29 -142 0
28 30 26 58 29 -141 0
28 30 26 58 29 -143 0
28 30 26 29 8 -77 0
28 30 26 29 8 -78 0
28 30 26 29 8 -79 0
28 30 26 29 8 -80 0
28 30 26 29 4 -23 0
28 30 26 29 4 -25 0
28 30 26 29 4 -27 0
28 30 26 29 4 -24 0
28 30 26 29 22 -103 0
28 30 26 29 22 -105 0
28 30 26 29 22 -106 0
28 30 26 29 22 -104 0
28 30 26 29 47 -140 0
28 30 26 29 47 -139 0
28 30 26 29 47 -137 0
28 30 26 29 47 -138 0
13 2 9 14 8 -11 0
13 2 9 14 8 -12 0
13 2 9 14 8 -7 0
13 2 9 14 8 -10 0
13 2 5 6 4 -11 0
13 2 5 6 4 -12 0
13 2 5 6 4 -7 0
13 2 5 6 4 -10 0
13 18 9 14 8 -76 0
13 18 9 14 8 -74 0
13 18 9 14 8 -75 0
13 18 9 14 8 -73 0
13 18 15 19 22 -76 0
13 18 15 19 22 -74 0
13 18 15 19 22 -75 0
13 18 15 19 22 -73 0
13 52 9 14 8 -90 0
13 52 9 14 8 -92 0
13 52 9 14 8 -89 0
13 52 9 14 8 -91 0
13 52 48 54 47 -90 0
13 52 48 54 47 -92 0
13 52 48 54 47 -89 0
13 52 48 54 47 -91 0
13 67 9 14 8 -99 0
13 67 9 14 8 -97 0
13 67 9 14 8 -98 0
13 67 9 14 8 -100 0
13 36 9 14 8 -84 0
13 36 9 14 8 -83 0
13 36 9 14 8 -82 0
13 36 9 14 8 -81 0
13 40 9 14 8 -86 0
13 40 9 14 8 -88 0
13 40 9 14 8 -85 0
13 40 9 14 8 -87 0
13 59 9 14 8 -93 0
13 59 9 14 8 -94 0
13 59 9 14 8 -95 0
13 59 9 14 8 -96 0
13 30 9 14 8 -77 0
13 30 9 14 8 -78 0
13 30 9 14 8 -79 0
13 30 9 14 8 -80 0
13 9 5 14 8 -11 0
13 9 5 14 8 -12 0
13 9 5 14 8 -7 0
13 9 5 14 8 -10 0
13 9 15 14 8 -76 0
13 9 15 14 8 -74 0
13 9 15 14 8 -75 0
13 9 15 14 8 -73 0
13 9 48 14 8 -90 0
13 9 48 14 8 -92 0
13 9 48 14 8 -89 0
13 9 48 14 8 -91 0
13 9 63 14 8 -99 0
13 9 63 14 8 -97 0
13 9 63 14 8 -98 0
13 9 63 14 8 -100 0
13 9 32 14 8 -84 0
13 9 32 14 8 -83 0
13 9 32 14 8 -82 0
13 9 32 14 8 -81 0
13 9 41 14 8 -86 0
13 9 41 14 8 -88 0
13 9 41 14 8 -85 0
13 9 41 14 8 -87 0
13 9 60 14 8 -93 0
13 9 60 14 8 -94 0
13 9 60 14 8 -95 0
13 9 60 14 8 -96 0
13 9 26 14 8 -77 0
13 9 26 14 8 -78 0
13 9 26 14 8 -79 0
13 9 26 14 8 -80 0
13 9 14 6 8 -11 0
13 9 14 6 8 -12 0
13 9 14 6 8 -7 0
13 9 14 6 8 -10 0
13 9 14 19 8 -76 0
13 9 14 19 8 -74 0
13 9 14 19 8 -75 0
13 9 14 19 8 -73 0
13 9 14 54 8 -90 0
13 9 14 54 8 -92 0
13 9 14 54 8 -89 0
13 9 14 54 8 -91 0
13 9 14 66 8 -99 0
13 9 14 66 8 -97 0
13 9 14 66 8 -98 0
13 9 14 66 8 -100 0
13 9 14 37 8 -84 0
13 9 14 37 8 -83 0
13 9 14 37 8 -82 0
13 9 14 37 8 -81 0
13 9 14 39 8 -86 0
13 9 14 39 8 -88 0
13 9 14 39 8 -85 0
13 9 14 39 8 -87 0
13 9 14 58 8 -93 0
13 9 14 58 8 -94 0
13 9 14 58 8 -95 0
13 9 14 58 8 -96 0
13 9 14 29 8 -77 0
13 9 14 29 8 -78 0
13 9 14 29 8 -79 0
13 9 14 29 8 -80 0
13 9 14 8 4 -11 0
13 9 14 8 4 -12 0
13 9 14 8 4 -7 0
13 9 14 8 4 -10 0
13 9 14 8 22 -76 0
13 9 14 8 22 -74 0
13 9 14 8 22 -75 0
13 9 14 8 22 -73 0
13 9 14 8 47 -90 0
13 9 14 8 47 -92 0
13 9 14 8 47 -89 0
13 9 14 8 47 -91 0
2 18 5 6 4 -21 0
2 18 5 6 4 -17 0
2 18 5 6 4 -20 0
2 18 5 6 4 -16 0
2 18 15 19 22 -21 0
2 18 15 19 22 -17 0
2 18 15 19 22 -20 0
2 18 15 19 22 -16 0
2 52 5 6 4 -53 0
2 52 5 6 4 -51 0
2 52 5 6 4 -50 0
2 52 5 6 4 -49 0
2 52 48 54 47 -53 0
2 52 48 54 47 -51 0
2 52 48 54 47 -50 0
2 52 48 54 47 -49 0
2 67 5 6 4 -69 0
2 67 5 6 4 -64 0
2 67 5 6 4 -68 0
2 67 5 6 4 -70 0
2 36 5 6 4 -35 0
2 36 5 6 4 -33 0
2 36 5 6 4 -31 0
2 36 5 6 4 -38 0
2 40 5 6 4 -42 0
2 40 5 6 4 -44 0
2 40 5 6 4 -46 0
2 40 5 6 4 -43 0
2 59 5 6 4 -62 0
2 59 5 6 4 -55 0
2 59 5 6 4 -56 0
2 59 5 6 4 -61 0
2 30 5 6 4 -23 0
2 30 5 6 4 -25 0
2 30 5 6 4 -27 0
2 30 5 6 4 -24 0
2 9 5 6 4 -11 0
2 9 5 6 4 -12 0
2 9 5 6 4 -7 0
2 9 5 6 4 -10 0
2 5 15 6 4 -21 0
2 5 15 6 4 -17 0
2 5 15 6 4 -20 0
2 5 15 6 4 -16 0
2 5 48 6 4 -53 0
2 5 48 6 4 -51 0
2 5 48 6 4 -50 0
2 5 48 6 4 -49 0
2 5 63 6 4 -69 0
2 5 63 6 4 -64 0
2 5 63 6 4 -68 0
2 5 63 6 4 -70 0
2 5 32 6 4 -35 0
2 5 32 6 4 -33 0
2 5 32 6 4 -31 0
2 5 32 6 4 -38 0
2 5 41 6 4 -42 0
2 5 41 6 4 -44 0
2 5 41 6 4 -46 0
2 5 41 6 4 -43 0
2 5 60 6 4 -62 0
2 5 60 6 4 -55 0
2 5 60 6 4 -56 0
2 5 60 6 4 -61 0
2 5 26 6 4 -23 0
2 5 26 6 4 -25 0
2 5 26 6 4 -27 0
2 5 26 6 4 -24 0
2 5 14 6 4 -11 0
2 5 14 6 4 -12 0
2 5 14 6 4 -7 0
2 5 14 6 4 -10 0
2 5 6 19 4 -21 0
2 5 6 19 4 -17 0
2 5 6 19 4 -20 0
2 5 6 19 4 -16 0
2 5 6 54 4 -53 0
2 5 6 54 4 -51 0
2 5 6 54 4 -50 0
2 5 6 54 4 -49 0
2 5 6 66 4 -69 0
2 5 6 66 4 -64 0
2 5 6 66 4 -68 0
2 5 6 66 4 -70 0
2 5 6 37 4 -35 0
2 5 6 37 4 -33 0
2 5 6 37 4 -31 0
2 5 6 37 4 -38 0
2 5 6 39 4 -42 0
2 5 6 39 4 -44 0
2 5 6 39 4 -46 0
2 5 6 39 4 -43 0
2 5 6 58 4 -62 0
2 5 6 58 4 -55 0
2 5 6 58 4 -56 0
2 5 6 58 4 -61 0
2 5 6 29 4 -23 0
2 5 6 29 4 -25 0
2 5 6 29 4 -27 0
2 5 6 29 4 -24 0
2 5 6 8 4 -11 0
2 5 6 8 4 -12 0
2 5 6 8 4 -7 0
2 5 6 8 4 -10 0
2 5 6 4 22 -21 0
2 5 6 4 22 -17 0
2 5 6 4 22 -20 0
2 5 6 4 22 -16 0
2 5 6 4 47 -53 0
2 5 6 4 47 -51 0
2 5 6 4 47 -50 0
2 5 6 4 47 -49 0
18 52 15 19 22 -118 0
18 52 15 19 22 -115 0
18 52 15 19 22 -116 0
18 52 15 19 22 -117 0
18 52 48 54 47 -118 0
18 52 48 54 47 -115 0
18 52 48 54 47 -116 0
18 52 48 54 47 -117 0
18 67 15 19 22 -126 0
18 67 15 19 22 -125 0
18 67 15 19 22 -123 0
18 67 15 19 22 -124 0
18 36 15 19 22 -108 0
18 36 15 19 22 -110 0
18 36 15 19 22 -107 0
18 36 15 19 22 -109 0
18 40 15 19 22 -111 0
18 40 15 19 22 -112 0
18 40 15 19 22 -113 0
18 40 15 19 22 -114 0
18 59 15 19 22 -121 0
18 59 15 19 22 -119 0
18 59 15 19 22 -120 0
18 59 15 19 22 -122 0
18 30 15 19 22 -103 0
18 30 15 19 22 -105 0
18 30 15 19 22 -106 0
18 30 15 19 22 -104 0
18 9 15 19 22 -76 0
18 9 15 19 22 -74 0
18 9 15 19 22 -75 0
18 9 15 19 22 -73 0
18 5 15 19 22 -21 0
18 5 15 19 22 -17 0
18 5 15 19 22 -20 0
18 5 15 19 22 -16 0
18 15 48 19 22 -118 0
18 15 48 19 22 -115 0
18 15 48 19 22 -116 0
18 15 48 19 22 -117 0
18 15 63 19 22 -126 0
18 15 63 19 22 -125 0
18 15 63 19 22 -123 0
18 15 63 19 22 -124 0
18 15 32 19 22 -108 0
18 15 32 19 22 -110 0
18 15 32 19 22 -107 0
18 15 32 19 22 -109 0
18 15 41 19 22 -111 0
18 15 41 19 22 -112 0
18 15 41 19 22 -113 0
18 15 41 19 22 -114 0
18 15 60 19 22 -121 0
18 15 60 19 22 -119 0
18 15 60 19 22 -120 0
18 15 60 19 22 -122 0
18 15 26 19 22 -103 0
18 15 26 19 22 -105 0
18 15 26 19 22 -106 0
18 15 26 19 22 -104 0
18 15 14 19 22 -76 0
18 15 14 19 22 -74 0
18 15 14 19 22 -75 0
18 15 14 19 22 -73 0
18 15 6 19 22 -21 0
18 15 6 19 22 -17 0
18 15 6 19 22 -20 0
18 15 6 19 22 -16 0
18 15 19 54 22 -118 0
18 15 19 54 22 -115 0
18 15 19 54 22 -116 0
18 15 19 54 22 -117 0
18 15 19 66 22 -126 0
18 15 19 66 22 -125 0
18 15 19 66 22 -123 0
18 15 19 66 22 -124 0
18 15 19 37 22 -108 0
18 15 19 37 22 -110 0
18 15 19 37 22 -107 0
18 15 19 37 22 -109 0
18 15 19 39 22 -111 0
18 15 19 39 22 -112 0
18 15 19 39 22 -113 0
18 15 19 39 22 -114 0
18 15 19 58 22 -121 0
18 15 19 58 22 -119 0
18 15 19 58 22 -120 0
18 15 19 58 22 -122 0
18 15 19 29 22 -103 0
18 15 19 29 22 -105 0
18 15 19 29 22 -106 0
18 15 19 29 22 -104 0
18 15 19 8 22 -76 0
18 15 19 8 22 -74 0
18 15 19 8 22 -75 0
18 15 19 8 22 -73 0
18 15 19 4 22 -21 0
18 15 19 4 22 -17 0
18 15 19 4 22 -20 0
18 15 19 4 22 -16 0
18 15 19 22 47 -118 0
18 15 19 22 47 -115 0
18 15 19 22 47 -116 0
18 15 19 22 47 -117 0
52 67 48 54 47 -188 0
52 67 48 54 47 -189 0
52 67 48 54 47 -190 0
52 67 48 54 47 -187 0
52 36 48 54 47 -156 0
52 36 48 54 47 -158 0
52 36 48 54 47 -157 0
52 36 48 54 47 -155 0
52 40 48 54 47 -171 0
52 40 48 54 47 -172 0
52 40 48 54 47 -170 0
52 40 48 54 47 -169 0
52 59 48 54 47 -185 0
52 59 48 54 47 -186 0
52 59 48 54 47 -183 0
52 59 48 54 47 -184 0
52 30 48 54 47 -140 0
52 30 48 54 47 -139 0
52 30 48 54 47 -137 0
52 30 48 54 47 -138 0
52 9 48 54 47 -90 0
52 9 48 54 47 -92 0
52 9 48 54 47 -89 0
52 9 48 54 47 -91 0
52 5 48 54 47 -53 0
52 5 48 54 47 -51 0
52 5 48 54 47 -50 0
52 5 48 54 47 -49 0
52 15 48 54 47 -118 0
52 15 48 54 47 -115 0
52 15 48 54 47 -116 0
52 15 48 54 47 -117 0
52 48 63 54 47 -188 0
52 48 63 54 47 -189 0
52 48 63 54 47 -190 0
52 48 63 54 47 -187 0
52 48 32 54 47 -156 0
52 48 32 54 47 -158 0
52 48 32 54 47 -157 0
52 48 32 54 47 -155 0
52 48 41 54 47 -171 0
52 48 41 54 47 -172 0
52 48 41 54 47 -170 0
52 48 41 54 47 -169 0
52 48 60 54 47 -185 0
52 48 60 54 47 -186 0
52 48 60 54 47 -183 0
52 48 60 54 47 -184 0
52 48 26 54 47 -140 0
52 48 26 54 47 -139 0
52 48 26 54 47 -137 0
52 48 26 54 47 -138 0
52 48 14 54 47 -90 0
52 48 14 54 47 -92 0
52 48 14 54 47 -89 0
52 48 14 54 47 -91 0
52 48 6 54 47 -53 0
52 48 6 54 47 -51 0
52 48 6 54 47 -50 0
52 48 6 54 47 -49 0
52 48 19 54 47 -118 0
52 48 19 54 47 -115 0
52 48 19 54 47 -116 0
52 48 19 54 47 -117 0
52 48 54 66 47 -188 0
52 48 54 66 47 -189 0
52 48 54 66 47 -190 0
52 48 54 66 47 -187 0
52 48 54 37 47 -156 0
52 48 54 37 47 -158 0
52 48 54 37 47 -157 0
52 48 54 37 47 -155 0
52 48 54 39 47 -171 0
52 48 54 39 47 -172 0
52 48 54 39 47 -170 0
52 48 54 39 47 -169 0
52 48 54 58 47 -185 0
52 48 54 58 47 -186 0
52 48 54 58 47 -183 0
52 48 54 58 47 -184 0
52 48 54 29 47 -140 0
52 48 54 29 47 -139 0
52 48 54 29 47 -137 0
52 48 54 29 47 -138 0
52 48 54 8 47 -90 0
52 48 54 8 47 -92 0
52 48 54 8 47 -89 0
52 48 54 8 47 -91 0
52 48 54 4 47 -53 0
52 48 54 4 47 -51 0
52 48 54 4 47 -50 0
52 48 54 4 47 -49 0
52 48 54 22 47 -118 0
52 48 54 22 47 -115 0
52 48 54 22 47 -116 0
52 48 54 22 47 -117 0
65 34 67 36 63 32 -163 0
65 34 67 36 63 32 -164 0
65 34 67 36 63 32 -165 0
65 34 67 36 63 32 -166 0
65 34 67 36 63 66 -163 0
65 34 67 36 63 66 -164 0
65 34 67 36 63 66 -165 0
65 34 67 36 63 66 -166 0
65 34 67 36 32 37 -163 0
65 34 67 36 32 37 -164 0
65 34 67 36 32 37 -165 0
65 34 67 36 32 37 -166 0
65 34 67 36 66 37 -163 0
65 34 67 36 66 37 -164 0
65 34 67 36 66 37 -165 0
65 34 67 36 66 37 -166 0
65 34 67 63 32 66 -163 0
65 34 67 63 32 66 -164 0
65 34 67 63 32 66 -165 0
65 34 67 63 32 66 -166 0
65 34 67 63 66 37 -163 0
65 34 67 63 66 37 -164 0
65 34 67 63 66 37 -165 0
65 34 67 63 66 37 -166 0
65 34 36 63 32 37 -163 0
65 34 36 63 32 37 -164 0
65 34 36 63 32 37 -165 0
65 34 36 63 32 37 -166 0
65 34 36 32 66 37 -163 0
65 34 36 32 66 37 -164 0
65 34 36 32 66 37 -165 0
65 34 36 32 66 37 -166 0
65 34 63 32 66 37 -163 0
65 34 63 32 66 37 -164 0
65 34 63 32 66 37 -165 0
65 34 63 32 66 37 -166 0
65 45 67 40 63 41 -179 0
65 45 67 40 63 41 -177 0
65 45 67 40 63 41 -178 0
65 45 67 40 63 41 -180 0
65 45 67 40 63 66 -179 0
65 45 67 40 63 66 -177 0
65 45 67 40 63 66 -178 0
65 45 67 40 63 66 -180 0
65 45 67 40 41 39 -179 0
65 45 67 40 41 39 -177 0
65 45 67 40 41 39 -178 0
65 45 67 40 41 39 -180 0
65 45 67 40 66 39 -179 0
65 45 67 40 66 39 -177 0
65 45 67 40 66 39 -178 0
65 45 67 40 66 39 -180 0
65 45 67 63 41 66 -179 0
65 45 67 63 41 66 -177 0
65 45 67 63 41 66 -178 0
65 45 67 63 41 66 -180 0
65 45 67 63 66 39 -179 0
65 45 67 63 66 39 -177 0
65 45 67 63 66 39 -178 0
65 45 67 63 66 39 -180 0
65 45 40 63 41 39 -179 0
65 45 40 63 41 39 -177 0
65 45 40 63 41 39 -178 0
65 45 40 63 41 39 -180 0
65 45 40 41 66 39 -179 0
65 45 40 41 66 39 -177 0
65 45 40 41 66 39 -178 0
65 45 40 41 66 39 -180 0
65 45 63 41 66 39 -179 0
65 45 63 41 66 39 -177 0
65 45 63 41 66 39 -178 0
65 45 63 41 66 39 -180 0
65 57 67 59 63 60 -194 0
65 57 67 59 63 60 -193 0
65 57 67 59 63 60 -195 0
65 57 67 59 63 60 -196 0
65 57 67 59 63 66 -194 0
65 57 67 59 63 66 -193 0
65 57 67 59 63 66 -195 0
65 57 67 59 63 66 -196 0
65 57 67 59 60 58 -194 0
65 57 67 59 60 58 -193 0
65 57 67 59 60 58 -195 0
65 57 67 59 60 58 -196 0
65 57 67 59 66 58 -194 0
65 57 67 59 66 58 -193 0
65 57 67 59 66 58 -195 0
65 57 67 59 66 58 -196 0
65 57 67 63 60 66 -194 0
65 57 67 63 60 66 -193 0
65 57 67 63 60 66 -195 0
65 57 67 63 60 66 -196 0
65 57 67 63 66 58 -194 0
65 57 67 63 66 58 -193 0
65 57 67 63 66 58 -195 0
65 57 67 63 66 58 -196 0
65 57 59 63 60 58 -194 0
65 57 59 63 60 58 -193 0
65 57 59 63 60 58 -195 0
65 57 59 63 60 58 -196 0
65 57 59 60 66 58 -194 0
65 57 59 60 66 58 -193 0
65 57 59 60 66 58 -195 0
65 57 59 60 66 58 -196 0
65 57 63 60 66 58 -194 0
65 57 63 60 66 58 -193 0
65 57 63 60 66 58 -195 0
65 57 63 60 66 58 -196 0
65 28 67 30 63 26 -146 0
65 28 67 30 63 26 -148 0
65 28 67 30 63 26 -145 0
65 28 67 30 63 26 -147 0
65 28 67 30 63 66 -146 0
65 28 67 30 63 66 -148 0
65 28 67 30 63 66 -145 0
65 28 67 30 63 66 -147 0
65 28 67 30 26 29 -146 0
65 28 67 30 26 29 -148 0
65 28 67 30 26 29 -145 0
65 28 67 30 26 29 -147 0
65 28 67 30 66 29 -146 0
65 28 67 30 66 29 -148 0
65 28 67 30 66 29 -145 0
65 28 67 30 66 29 -147 0
65 28 67 63 26 66 -146 0
65 28 67 63 26 66 -148 0
65 28 67 63 26 66 -145 0
65 28 67 63 26 66 -147 0
65 28 67 63 66 29 -146 0
65 28 67 63 66 29 -148 0
65 28 67 63 66 29 -145 0
65 28 67 63 66 29 -147 0
65 28 30 63 26 29 -146 0
65 28 30 63 26 29 -148 0
65 28 30 63 26 29 -145 0
65 28 30 63 26 29 -147 0
65 28 30 26 66 29 -146 0
65 28 30 26 66 29 -148 0
65 28 30 26 66 29 -145 0
65 28 30 26 66 29 -147 0
65 28 63 26 66 29 -146 0
65 28 63 26 66 29 -148 0
65 28 63 26 66 29 -145 0
65 28 63 26 66 29 -147 0
65 13 67 9 63 14 -99 0
65 13 67 9 63 14 -97 0
65 13 67 9 63 14 -98 0
65 13 67 9 63 14 -100 0
65 13 67 9 63 66 -99 0
65 13 67 9 63 66 -97 0
65 13 67 9 63 66 -98 0
65 13 67 9 63 66 -100 0
65 13 67 9 14 8 -99 0
65 13 67 9 14 8 -97 0
65 13 67 9 14 8 -98 0
65 13 67 9 14 8 -100 0
65 13 67 9 66 8 -99 0
65 13 67 9 66 8 -97 0
65 13 67 9 66 8 -98 0
65 13 67 9 66 8 -100 0
65 13 67 63 14 66 -99 0
65 13 67 63 14 66 -97 0
65 13 67 63 14 66 -98 0
65 13 67 63 14 66 -100 0
65 13 67 63 66 8 -99 0
65 13 67 63 66 8 -97 0
65 13 67 63 66 8 -98 0
65 13 67 63 66 8 -100 0
65 13 9 63 14 8 -99 0
65 13 9 63 14 8 -97 0
65 13 9 63 14 8 -98 0
65 13 9 63 14 8 -100 0
65 13 9 14 66 8 -99 0
65 13 9 14 66 8 -97 0
65 13 9 14 66 8 -98 0
65 13 9 14 66 8 -100 0
65 13 63 14 66 8 -99 0
65 13 63 14 66 8 -97 0
65 13 63 14 66 8 -98 0
65 13 63 14 66 8 -100 0
65 2 67 5 63 6 -69 0
65 2 67 5 63 6 -64 0
65 2 67 5 63 6 -68 0
65 2 67 5 63 6 -70 0
65 2 67 5 63 66 -69 0
65 2 67 5 63 66 -64 0
65 2 67 5 63 66 -68 0
65 2 67 5 63 66 -70 0
65 2 67 5 6 4 -69 0
65 2 67 5 6 4 -64 0
65 2 67 5 6 4 -68 0
65 2 67 5 6 4 -70 0
65 2 67 5 66 4 -69 0
65 2 67 5 66 4 -64 0
65 2 67 5 66 4 -68 0
65 2 67 5 66 4 -70 0
65 2 67 63 6 66 -69 0
65 2 67 63 6 66 -64 0
65 2 67 63 6 66 -68 0
65 2 67 63 6 66 -70 0
65 2 67 63 66 4 -69 0
65 2 67 63 66 4 -64 0
65 2 67 63 66 4 -68 0
65 2 67 63 66 4 -70 0
65 2 5 63 6 4 -69 0
65 2 5 63 6 4 -64 0
65 2 5 63 6 4 -68 0
65 2 5 63 6 4 -70 0
65 2 5 6 66 4 -69 0
65 2 5 6 66 4 -64 0
65 2 5 6 66 4 -68 0
65 2 5 6 66 4 -70 0
65 2 63 6 66 4 -69 0
65 2 63 6 66 4 -64 0
65 2 63 6 66 4 -68 0
65 2 63 6 66 4 -70 0
65 18 67 15 63 19 -126 0
65 18 67 15 63 19 -125 0
65 18 67 15 63 19 -123 0
65 18 67 15 63 19 -124 0
65 18 67 15 63 66 -126 0
65 18 67 15 63 66 -125 0
65 18 67 15 63 66 -123 0
65 18 67 15 63 66 -124 0
65 18 67 15 19 22 -126 0
65 18 67 15 19 22 -125 0
65 18 67 15 19 22 -123 0
65 18 67 15 19 22 -124 0
65 18 67 15 66 22 -126 0
65 18 67 15 66 22 -125 0
65 18 67 15 66 22 -123 0
65 18 67 15 66 22 -124 0
65 18 67 63 19 66 -126 0
65 18 67 63 19 66 -125 0
65 18 67 63 19 66 -123 0
65 18 67 63 19 66 -124 0
65 18 67 63 66 22 -126 0
65 18 67 63 66 22 -125 0
65 18 67 63 66 22 -123 0
65 18 67 63 66 22 -124 0
65 18 15 63 19 22 -126 0
65 18 15 63 19 22 -125 0
65 18 15 63 19 22 -123 0
65 18 15 63 19 22 -124 0
65 18 15 19 66 22 -126 0
65 18 15 19 66 22 -125 0
65 18 15 19 66 22 -123 0
65 18 15 19 66 22 -124 0
65 18 63 19 66 22 -126 0
65 18 63 19 66 22 -125 0
65 18 63 19 66 22 -123 0
65 18 63 19 66 22 -124 0
65 52 67 48 63 54 -188 0
65 52 67 48 63 54 -189 0
65 52 67 48 63 54 -190 0
65 52 67 48 63 54 -187 0
65 52 67 48 63 66 -188 0
65 52 67 48 63 66 -189 0
65 52 67 48 63 66 -190 0
65 52 67 48 63 66 -187 0
65 52 67 48 54 47 -188 0
65 52 67 48 54 47 -189 0
65 52 67 48 54 47 -190 0
65 52 67 48 54 47 -187 0
65 52 67 48 66 47 -188 0
65 52 67 48 66 47 -189 0
65 52 67 48 66 47 -190 0
65 52 67 48 66 47 -187 0
65 52 67 63 54 66 -188 0
65 52 67 63 54 66 -189 0
65 52 67 63 54 66 -190 0
65 52 67 63 54 66 -187 0
65 52 67 63 66 47 -188 0
65 52 67 63 66 47 -189 0
65 52 67 63 66 47 -190 0
65 52 67 63 66 47 -187 0
65 52 48 63 54 47 -188 0
65 52 48 63 54 47 -189 0
65 52 48 63 54 47 -190 0
65 52 48 63 54 47 -187 0
65 52 48 54 66 47 -188 0
65 52 48 54 66 47 -189 0
65 52 48 54 66 47 -190 0
65 52 48 54 66 47 -187 0
65 52 63 54 66 47 -188 0
65 52 63 54 66 47 -189 0
65 52 63 54 66 47 -190 0
65 52 63 54 66 47 -187 0
65 67 36 63 32 66 -163 0
65 67 36 63 32 66 -164 0
65 67 36 63 32 66 -165 0
65 67 36 63 32 66 -166 0
65 67 36 63 66 37 -163 0
65 67 36 63 66 37 -164 0
65 67 36 63 66 37 -165 0
65 67 36 63 66 37 -166 0
65 67 40 63 41 66 -179 0
65 67 40 63 41 66 -177 0
65 67 40 63 41 66 -178 0
65 67 40 63 41 66 -180 0
65 67 40 63 66 39 -179 0
65 67 40 63 66 39 -177 0
65 67 40 63 66 39 -178 0
65 67 40 63 66 39 -180 0
65 67 59 63 60 66 -194 0
65 67 59 63 60 66 -193 0
65 67 59 63 60 66 -195 0
65 67 59 63 60 66 -196 0
65 67 59 63 66 58 -194 0
65 67 59 63 66 58 -193 0
65 67 59 63 66 58 -195 0
65 67 59 63 66 58 -196 0
65 67 30 63 26 66 -146 0
65 67 30 63 26 66 -148 0
65 67 30 63 26 66 -145 0
65 67 30 63 26 66 -147 0
65 67 30 63 66 29 -146 0
65 67 30 63 66 29 -148 0
65 67 30 63 66 29 -145 0
65 67 30 63 66 29 -147 0
65 67 9 63 14 66 -99 0
65 67 9 63 14 66 -97 0
65 67 9 63 14 66 -98 0
65 67 9 63 14 66 -100 0
65 67 9 63 66 8 -99 0
65 67 9 63 66 8 -97 0
65 67 9 63 66 8 -98 0
65 67 9 63 66 8 -100 0
65 67 5 63 6 66 -69 0
65 67 5 63 6 66 -64 0
65 67 5 63 6 66 -68 0
65 67 5 63 6 66 -70 0
65 67 5 63 66 4 -69 0
65 67 5 63 66 4 -64 0
65 67 5 63 66 4 -68 0
65 67 5 63 66 4 -70 0
65 67 15 63 19 66 -126 0
65 67 15 63 19 66 -125 0
65 67 15 63 19 66 -123 0
65 67 15 63 19 66 -124 0
65 67 15 63 66 22 -126 0
65 67 15 63 66 22 -125 0
65 67 15 63 66 22 -123 0
65 67 15 63 66 22 -124 0
65 67 48 63 54 66 -188 0
65 67 48 63 54 66 -189 0
65 67 48 63 54 66 -190 0
65 67 48 63 54 66 -187 0
65 67 48 63 66 47 -188 0
65 67 48 63 66 47 -189 0
65 67 48 63 66 47 -190 0
65 67 48 63 66 47 -187 0
65 67 63 32 66 37 -163 0
65 67 63 32 66 37 -164 0
65 67 63 32 66 37 -165 0
65 67 63 32 66 37 -166 0
65 67 63 41 66 39 -179 0
65 67 63 41 66 39 -177 0
65 67 63 41 66 39 -178 0
65 67 63 41 66 39 -180 0
65 67 63 60 66 58 -194 0
65 67 63 60 66 58 -193 0
65 67 63 60 66 58 -195 0
65 67 63 60 66 58 -196 0
65 67 63 26 66 29 -146 0
65 67 63 26 66 29 -148 0
65 67 63 26 66 29 -145 0
65 67 63 26 66 29 -147 0
65 67 63 14 66 8 -99 0
65 67 63 14 66 8 -97 0
65 67 63 14 66 8 -98 0
65 67 63 14 66 8 -100 0
65 67 63 6 66 4 -69 0
65 67 63 6 66 4 -64 0
65 67 63 6 66 4 -68 0
65 67 63 6 66 4 -70 0
65 67 63 19 66 22 -126 0
65 67 63 19 66 22 -125 0
65 67 63 19 66 22 -123 0
65 67 63 19 66 22 -124 0
65 67 63 54 66 47 -188 0
65 67 63 54 66 47 -189 0
65 67 63 54 66 47 -190 0
65 67 63 54 66 47 -187 0
34 45 36 40 32 41 -152 0
34 45 36 40 32 41 -151 0
34 45 36 40 32 41 -153 0
34 45 36 40 32 41 -154 0
34 45 36 40 32 37 -152 0
34 45 36 40 32 37 -151 0
34 45 36 40 32 37 -153 0
34 45 36 40 32 37 -154 0
34 45 36 40 41 39 -152 0
34 45 36 40 41 39 -151 0
34 45 36 40 41 39 -153 0
34 45 36 40 41 39 -154 0
34 45 36 40 37 39 -152 0
34 45 36 40 37 39 -151 0
34 45 36 40 37 39 -153 0
34 45 36 40 37 39 -154 0
34 45 36 32 41 37 -152 0
34 45 36 32 41 37 -151 0
34 45 36 32 41 37 -153 0
34 45 36 32 41 37 -154 0
34 45 36 32 37 39 -152 0
34 45 36 32 37 39 -151 0
34 45 36 32 37 39 -153 0
34 45 36 32 37 39 -154 0
34 45 40 32 41 39 -152 0
34 45 40 32 41 39 -151 0
34 45 40 32 41 39 -153 0
34 45 40 32 41 39 -154 0
34 45 40 41 37 39 -152 0
34 45 40 41 37 39 -151 0
34 45 40 41 37 39 -153 0
34 45 40 41 37 39 -154 0
34 45 32 41 37 39 -152 0
34 45 32 41 37 39 -151 0
34 45 32 41 37 39 -153 0
34 45 32 41 37 39 -154 0
34 57 36 59 32 60 -162 0
34 57 36 59 32 60 -160 0
34 57 36 59 32 60 -161 0
34 57 36 59 32 60 -159 0
34 57 36 59 32 37 -162 0
34 57 36 59 32 37 -160 0
34 57 36 59 32 37 -161 0
34 57 36 59 32 37 -159 0
34 57 36 59 60 58 -162 0
34 57 36 59 60 58 -160 0
34 57 36 59 60 58 -161 0
34 57 36 59 60 58 -159 0
34 57 36 59 37 58 -162 0
34 57 36 59 37 58 -160 0
34 57 36 59 37 58 -161 0
34 57 36 59 37 58 -159 0
34 57 36 32 60 37 -162 0
34 57 36 32 60 37 -160 0
34 57 36 32 60 37 -161 0
34 57 36 32 60 37 -159 0
34 57 36 32 37 58 -162 0
34 57 36 32 37 58 -160 0
34 57 36 32 37 58 -161 0
34 57 36 32 37 58 -159 0
34 57 59 32 60 58 -162 0
34 57 59 32 60 58 -160 0
34 57 59 32 60 58 -161 0
34 57 59 32 60 58 -159 0
34 57 59 60 37 58 -162 0
34 57 59 60 37 58 -160 0
34 57 59 60 37 58 -161 0
34 57 59 60 37 58 -159 0
34 57 32 60 37 58 -162 0
34 57 32 60 37 58 -160 0
34 57 32 60 37 58 -161 0
34 57 32 60 37 58 -159 0
34 28 36 30 32 26 -129 0
34 28 36 30 32 26 -132 0
34 28 36 30 32 26 -130 0
34 28 36 30 32 26 -131 0
34 28 36 30 32 37 -129 0
34 28 36 30 32 37 -132 0
34 28 36 30 32 37 -130 0
34 28 36 30 32 37 -131 0
34 28 36 30 26 29 -129 0
34 28 36 30 26 29 -132 0
34 28 36 30 26 29 -130 0
34 28 36 30 26 29 -131 0
34 28 36 30 37 29 -129 0
34 28 36 30 37 29 -132 0
34 28 36 30 37 29 -130 0
34 28 36 30 37 29 -131 0
34 28 36 32 26 37 -129 0
34 28 36 32 26 37 -132 0
34 28 36 32 26 37 -130 0
34 28 36 32 26 37 -131 0
34 28 36 32 37 29 -129 0
34 28 36 32 37 29 -132 0
34 28 36 32 37 29 -130 0
34 28 36 32 37 29 -131 0
34 28 30 32 26 29 -129 0
34 28 30 32 26 29 -132 0
34 28 30 32 26 29 -130 0
34 28 30 32 26 29 -131 0
34 28 30 26 37 29 -129 0
34 28 30 26 37 29 -132 0
34 28 30 26 37 29 -130 0
34 28 30 26 37 29 -131 0
34 28 32 26 37 29 -129 0
34 28 32 26 37 29 -132 0
34 28 32 26 37 29 -130 0
34 28 32 26 37 29 -131 0
34 13 36 9 32 14 -84 0
34 13 36 9 32 14 -83 0
34 13 36 9 32 14 -82 0
34 13 36 9 32 14 -81 0
34 13 36 9 32 37 -84 0
34 13 36 9 32 37 -83 0
34 13 36 9 32 37 -82 0
34 13 36 9 32 37 -81 0
34 13 36 9 14 8 -84 0
34 13 36 9 14 8 -83 0
34 13 36 9 14 8 -82 0
34 13 36 9 14 8 -81 0
34 13 36 9 37 8 -84 0
34 13 36 9 37 8 -83 0
34 13 36 9 37 8 -82 0
34 13 36 9 37 8 -81 0
34 13 36 32 14 37 -84 0
34 13 36 32 14 37 -83 0
34 13 36 32 14 37 -82 0
34 13 36 32 14 37 -81 0
34 13 36 32 37 8 -84 0
34 13 36 32 37 8 -83 0
34 13 36 32 37 8 -82 0
34 13 36 32 37 8 -81 0
34 13 9 32 14 8 -84 0
34 13 9 32 14 8 -83 0
34 13 9 32 14 8 -82 0
34 13 9 32 14 8 -81 0
34 13 9 14 37 8 -84 0
34 13 9 14 37 8 -83 0
34 13 9 14 37 8 -82 0
34 13 9 14 37 8 -81 0
34 13 32 14 37 8 -84 0
34 13 32 14 37 8 -83 0
34 13 32 14 37 8 -82 0
34 13 32 14 37 8 -81 0
34 2 36 5 32 6 -35 0
34 2 36 5 32 6 -33 0
34 2 36 5 32 6 -31 0
34 2 36 5 32 6 -38 0
34 2 36 5 32 37 -35 0
34 2 36 5 32 37 -33 0
34 2 36 5 32 37 -31 0
34 2 36 5 32 37 -38 0
34 2 36 5 6 4 -35 0
34 2 36 5 6 4 -33 0
34 2 36 5 6 4 -31 0
34 2 36 5 6 4 -38 0
34 2 36 5 37 4 -35 0
34 2 36 5 37 4 -33 0
34 2 36 5 37 4 -31 0
34 2 36 5 37 4 -38 0
34 2 36 32 6 37 -35 0
34 2 36 32 6 37 -33 0
34 2 36 32 6 37 -31 0
34 2 36 32 6 37 -38 0
34 2 36 32 37 4 -35 0
34 2 36 32 37 4 -33 0
34 2 36 32 37 4 -31 0
34 2 36 32 37 4 -38 0
34 2 5 32 6 4 -35 0
34 2 5 32 6 4 -33 0
34 2 5 32 6 4 -31 0
34 2 5 32 6 4 -38 0
34 2 5 6 37 4 -35 0
34 2 5 6 37 4 -33 0
34 2 5 6 37 4 -31 0
34 2 5 6 37 4 -38 0
34 2 32 6 37 4 -35 0
34 2 32 6 37 4 -33 0
34 2 32 6 37 4 -31 0
34 2 32 6 37 4 -38 0
34 18 36 15 32 19 -108 0
34 18 36 15 32 19 -110 0
34 18 36 15 32 19 -107 0
34 18 36 15 32 19 -109 0
34 18 36 15 32 37 -108 0
34 18 36 15 32 37 -110 0
34 18 36 15 32 37 -107 0
34 18 36 15 32 37 -109 0
34 18 36 15 19 22 -108 0
34 18 36 15 19 22 -110 0
34 18 36 15 19 22 -107 0
34 18 36 15 19 22 -109 0
34 18 36 15 37 22 -108 0
34 18 36 15 37 22 -110 0
34 18 36 15 37 22 -107 0
34 18 36 15 37 22 -109 0
34 18 36 32 19 37 -108 0
34 18 36 32 19 37 -110 0
34 18 36 32 19 37 -107 0
34 18 36 32 19 37 -109 0
34 18 36 32 37 22 -108 0
34 18 36 32 37 22 -110 0
34 18 36 32 37 22 -107 0
34 18 36 32 37 22 -109 0
34 18 15 32 19 22 -108 0
34 18 15 32 19 22 -110 0
34 18 15 32 19 22 -107 0
34 18 15 32 19 22 -109 0
34 18 15 19 37 22 -108 0
34 18 15 19 37 22 -110 0
34 18 15 19 37 22 -107 0
34 18 15 19 37 22 -109 0
34 18 32 19 37 22 -108 0
34 18 32 19 37 22 -110 0
34 18 32 19 37 22 -107 0
34 18 32 19 37 22 -109 0
34 52 36 48 32 54 -156 0
34 52 36 48 32 54 -158 0
34 52 36 48 32 54 -157 0
34 52 36 48 32 54 -155 0
34 52 36 48 32 37 -156 0
34 52 36 48 32 37 -158 0
34 52 36 48 32 37 -157 0
34 52 36 48 32 37 -155 0
34 52 36 48 54 47 -156 0
34 52 36 48 54 47 -158 0
34 52 36 48 54 47 -157 0
34 52 36 48 54 47 -155 0
34 52 36 48 37 47 -156 0
34 52 36 48 37 47 -158 0
34 52 36 48 37 47 -157 0
34 52 36 48 37 47 -155 0
34 52 36 32 54 37 -156 0
34 52 36 32 54 37 -158 0
34 52 36 32 54 37 -157 0
34 52 36 32 54 37 -155 0
34 52 36 32 37 47 -156 0
34 52 36 32 37 47 -158 0
34 52 36 32 37 47 -157 0
34 52 36 32 37 47 -155 0
34 52 48 32 54 47 -156 0
34 52 48 32 54 47 -158 0
34 52 48 32 54 47 -157 0
34 52 48 32 54 47 -155 0
34 52 48 54 37 47 -156 0
34 52 48 54 37 47 -158 0
34 52 48 54 37 47 -157 0
34 52 48 54 37 47 -155 0
34 52 32 54 37 47 -156 0
34 52 32 54 37 47 -158 0
34 52 32 54 37 47 -157 0
34 52 32 54 37 47 -155 0
34 67 36 63 32 37 -163 0
34 67 36 63 32 37 -164 0
34 67 36 63 32 37 -165 0
34 67 36 63 32 37 -166 0
34 67 36 32 66 37 -163 0
34 67 36 32 66 37 -164 0
34 67 36 32 66 37 -165 0
34 67 36 32 66 37 -166 0
34 36 40 32 41 37 -152 0
34 36 40 32 41 37 -151 0
34 36 40 32 41 37 -153 0
34 36 40 32 41 37 -154 0
34 36 40 32 37 39 -152 0
34 36 40 32 37 39 -151 0
34 36 40 32 37 39 -153 0
34 36 40 32 37 39 -154 0
34 36 59 32 60 37 -162 0
34 36 59 32 60 37 -160 0
34 36 59 32 60 37 -161 0
34 36 59 32 60 37 -159 0
34 36 59 32 37 58 -162 0
34 36 59 32 37 58 -160 0
34 36 59 32 37 58 -161 0
34 36 59 32 37 58 -159 0
34 36 30 32 26 37 -129 0
34 36 30 32 26 37 -132 0
34 36 30 32 26 37 -130 0
34 36 30 32 26 37 -131 0
34 36 30 32 37 29 -129 0
34 36 30 32 37 29 -132 0
34 36 30 32 37 29 -130 0
34 36 30 32 37 29 -131 0
34 36 9 32 14 37 -84 0
34 36 9 32 14 37 -83 0
34 36 9 32 14 37 -82 0
34 36 9 32 14 37 -81 0
34 36 9 32 37 8 -84 0
34 36 9 32 37 8 -83 0
34 36 9 32 37 8 -82 0
34 36 9 32 37 8 -81 0
34 36 5 32 6 37 -35 0
34 36 5 32 6 37 -33 0
34 36 5 32 6 37 -31 0
34 36 5 32 6 37 -38 0
34 36 5 32 37 4 -35 0
34 36 5 32 37 4 -33 0
34 36 5 32 37 4 -31 0
34 36 5 32 37 4 -38 0
34 36 15 32 19 37 -108 0
34 36 15 32 19 37 -110 0
34 36 15 32 19 37 -107 0
34 36 15 32 19 37 -109 0
34 36 15 32 37 22 -108 0
34 36 15 32 37 22 -110 0
34 36 15 32 37 22 -107 0
34 36 15 32 37 22 -109 0
34 36 48 32 54 37 -156 0
34 36 48 32 54 37 -158 0
34 36 48 32 54 37 -157 0
34 36 48 32 54 37 -155 0
34 36 48 32 37 47 -156 0
34 36 48 32 37 47 -158 0
34 36 48 32 37 47 -157 0
34 36 48 32 37 47 -155 0
34 36 63 32 66 37 -163 0
34 36 63 32 66 37 -164 0
34 36 63 32 66 37 -165 0
34 36 63 32 66 37 -166 0
34 36 32 41 37 39 -152 0
34 36 32 41 37 39 -151 0
34 36 32 41 37 39 -153 0
34 36 32 41 37 39 -154 0
34 36 32 60 37 58 -162 0
34 36 32 60 37 58 -160 0
34 36 32 60 37 58 -161 0
34 36 32 60 37 58 -159 0
34 36 32 26 37 29 -129 0
34 36 32 26 37 29 -132 0
34 36 32 26 37 29 -130 0
34 36 32 26 37 29 -131 0
34 36 32 14 37 8 -84 0
34 36 32 14 37 8 -83 0
34 36 32 14 37 8 -82 0
34 36 32 14 37 8 -81 0
34 36 32 6 37 4 -35 0
34 36 32 6 37 4 -33 0
34 36 32 6 37 4 -31 0
34 36 32 6 37 4 -38 0
34 36 32 19 37 22 -108 0
34 36 32 19 37 22 -110 0
34 36 32 19 37 22 -107 0
34 36 32 19 37 22 -109 0
34 36 32 54 37 47 -156 0
34 36 32 54 37 47 -158 0
34 36 32 54 37 47 -157 0
34 36 32 54 37 47 -155 0
45 57 40 59 41 60 -176 0
45 57 40 59 41 60 -174 0
45 57 40 59 41 60 -175 0
45 57 40 59 41 60 -173 0
45 57 40 59 41 39 -176 0
45 57 40 59 41 39 -174 0
45 57 40 59 41 39 -175 0
45 57 40 59 41 39 -173 0
45 57 40 59 60 58 -176 0
45 57 40 59 60 58 -174 0
45 57 40 59 60 58 -175 0
45 57 40 59 60 58 -173 0
45 57 40 59 39 58 -176 0
45 57 40 59 39 58 -174 0
45 57 40 59 39 58 -175 0
45 57 40 59 39 58 -173 0
45 57 40 41 60 39 -176 0
45 57 40 41 60 39 -174 0
45 57 40 41 60 39 -175 0
45 57 40 41 60 39 -173 0
45 57 40 41 39 58 -176 0
45 57 40 41 39 58 -174 0
45 57 40 41 39 58 -175 0
45 57 40 41 39 58 -173 0
45 57 59 41 60 58 -176 0
45 57 59 41 60 58 -174 0
45 57 59 41 60 58 -175 0
45 57 59 41 60 58 -173 0
45 57 59 60 39 58 -176 0
45 57 59 60 39 58 -174 0
45 57 59 60 39 58 -175 0
45 57 59 60 39 58 -173 0
45 57 41 60 39 58 -176 0
45 57 41 60 39 58 -174 0
45 57 41 60 39 58 -175 0
45 57 41 60 39 58 -173 0
45 28 40 30 41 26 -136 0
45 28 40 30 41 26 -134 0
45 28 40 30 41 26 -135 0
45 28 40 30 41 26 -133 0
45 28 40 30 41 39 -136 0
45 28 40 30 41 39 -134 0
45 28 40 30 41 39 -135 0
45 28 40 30 41 39 -133 0
45 28 40 30 26 29 -136 0
45 28 40 30 26 29 -134 0
45 28 40 30 26 29 -135 0
45 28 40 30 26 29 -133 0
45 28 40 30 39 29 -136 0
45 28 40 30 39 29 -134 0
45 28 40 30 39 29 -135 0
45 28 40 30 39 29 -133 0
45 28 40 41 26 39 -136 0
45 28 40 41 26 39 -134 0
45 28 40 41 26 39 -135 0
45 28 40 41 26 39 -133 0
45 28 40 41 39 29 -136 0
45 28 40 41 39 29 -134 0
45 28 40 41 39 29 -135 0
45 28 40 41 39 29 -133 0
45 28 30 41 26 29 -136 0
45 28 30 41 26 29 -134 0
45 28 30 41 26 29 -135 0
45 28 30 41 26 29 -133 0
45 28 30 26 39 29 -136 0
45 28 30 26 39 29 -134 0
45 28 30 26 39 29 -135 0
45 28 30 26 39 29 -133 0
45 28 41 26 39 29 -136 0
45 28 41 26 39 29 -134 0
45 28 41 26 39 29 -135 0
45 28 41 26 39 29 -133 0
45 13 40 9 41 14 -86 0
45 13 40 9 41 14 -88 0
45 13 40 9 41 14 -85 0
45 13 40 9 41 14 -87 0
45 13 40 9 41 39 -86 0
45 13 40 9 41 39 -88 0
45 13 40 9 41 39 -85 0
45 13 40 9 41 39 -87 0
45 13 40 9 14 8 -86 0
45 13 40 9 14 8 -88 0
45 13 40 9 14 8 -85 0
45 13 40 9 14 8 -87 0
45 13 40 9 39 8 -86 0
45 13 40 9 39 8 -88 0
45 13 40 9 39 8 -85 0
45 13 40 9 39 8 -87 0
45 13 40 41 14 39 -86 0
45 13 40 41 14 39 -88 0
45 13 40 41 14 39 -85 0
45 13 40 41 14 39 -87 0
45 13 40 41 39 8 -86 0
45 13 40 41 39 8 -88 0
45 13 40 41 39 8 -85 0
45 13 40 41 39 8 -87 0
45 13 9 41 14 8 -86 0
45 13 9 41 14 8 -88 0
45 13 9 41 14 8 -85 0
45 13 9 41 14 8 -87 0
45 13 9 14 39 8 -86 0
45 13 9 14 39 8 -88 0
45 13 9 14 39 8 -85 0
45 13 9 14 39 8 -87 0
45 13 41 14 39 8 -86 0
45 13 41 14 39 8 -88 0
45 13 41 14 39 8 -85 0
45 13 41 14 39 8 -87 0
45 2 40 5 41 6 -42 0
45 2 40 5 41 6 -44 0
45 2 40 5 41 6 -46 0
45 2 40 5 41 6 -43 0
45 2 40 5 41 39 -42 0
45 2 40 5 41 39 -44 0
45 2 40 5 41 39 -46 0
45 2 40 5 41 39 -43 0
45 2 40 5 6 4 -42 0
45 2 40 5 6 4 -44 0
45 2 40 5 6 4 -46 0
45 2 40 5 6 4 -43 0
45 2 40 5 39 4 -42 0
45 2 40 5 39 4 -44 0
45 2 40 5 39 4 -46 0
45 2 40 5 39 4 -43 0
45 2 40 41 6 39 -42 0
45 2 40 41 6 39 -44 0
45 2 40 41 6 39 -46 0
45 2 40 41 6 39 -43 0
45 2 40 41 39 4 -42 0
45 2 40 41 39 4 -44 0
45 2 40 41 39 4 -46 0
45 2 40 41 39 4 -43 0
45 2 5 41 6 4 -42 0
45 2 5 41 6 4 -44 0
45 2 5 41 6 4 -46 0
45 2 5 41 6 4 -43 0
45 2 5 6 39 4 -42 0
45 2 5 6 39 4 -44 0
45 2 5 6 39 4 -46 0
45 2 5 6 39 4 -43 0
45 2 41 6 39 4 -42 0
45 2 41 6 39 4 -44 0
45 2 41 6 39 4 -46 0
45 2 41 6 39 4 -43 0
45 18 40 15 41 19 -111 0
45 18 40 15 41 19 -112 0
45 18 40 15 41 19 -113 0
45 18 40 15 41 19 -114 0
45 18 40 15 41 39 -111 0
45 18 40 15 41 39 -112 0
45 18 40 15 41 39 -113 0
45 18 40 15 41 39 -114 0
45 18 40 15 19 22 -111 0
45 18 40 15 19 22 -112 0
45 18 40 15 19 22 -113 0
45 18 40 15 19 22 -114 0
45 18 40 15 39 22 -111 0
45 18 40 15 39 22 -112 0
45 18 40 15 39 22 -113 0
45 18 40 15 39 22 -114 0
45 18 40 41 19 39 -111 0
45 18 40 41 19 39 -112 0
45 18 40 41 19 39 -113 0
45 18 40 41 19 39 -114 0
45 18 40 41 39 22 -111 0
45 18 40 41 39 22 -112 0
45 18 40 41 39 22 -113 0
45 18 40 41 39 22 -114 0
45 18 15 41 19 22 -111 0
45 18 15 41 19 22 -112 0
45 18 15 41 19 22 -113 0
45 18 15 41 19 22 -114 0
45 18 15 19 39 22 -111 0
45 18 15 19 39 22 -112 0
45 18 15 19 39 22 -113 0
45 18 15 19 39 22 -114 0
45 18 41 19 39 22 -111 0
45 18 41 19 39 22 -112 0
45 18 41 19 39 22 -113 0
45 18 41 19 39 22 -114 0
45 52 40 48 41 54 -171 0
45 52 40 48 41 54 -172 0
45 52 40 48 41 54 -170 0
45 52 40 48 41 54 -169 0
45 52 40 48 41 39 -171 0
45 52 40 48 41 39 -172 0
45 52 40 48 41 39 -170 0
45 52 40 48 41 39 -169 0
45 52 40 48 54 47 -171 0
45 52 40 48 54 47 -172 0
45 52 40 48 54 47 -170 0
45 52 40 48 54 47 -169 0
45 52 40 48 39 47 -171 0
45 52 40 48 39 47 -172 0
45 52 40 48 39 47 -170 0
45 52 40 48 39 47 -169 0
45 52 40 41 54 39 -171 0
45 52 40 41 54 39 -172 0
45 52 40 41 54 39 -170 0
45 52 40 41 54 39 -169 0
45 52 40 41 39 47 -171 0
45 52 40 41 39 47 -172 0
45 52 40 41 39 47 -170 0
45 52 40 41 39 47 -169 0
45 52 48 41 54 47 -171 0
45 52 48 41 54 47 -172 0
45 52 48 41 54 47 -170 0
45 52 48 41 54 47 -169 0
45 52 48 54 39 47 -171 0
45 52 48 54 39 47 -172 0
45 52 48 54 39 47 -170 0
45 52 48 54 39 47 -169 0
45 52 41 54 39 47 -171 0
45 52 41 54 39 47 -172 0
45 52 41 54 39 47 -170 0
45 52 41 54 39 47 -169 0
45 67 40 63 41 39 -179 0
45 67 40 63 41 39 -177 0
45 67 40 63 41 39 -178 0
45 67 40 63 41 39 -180 0
45 67 40 41 66 39 -179 0
45 67 40 41 66 39 -177 0
45 67 40 41 66 39 -178 0
45 67 40 41 66 39 -180 0
45 36 40 32 41 39 -152 0
45 36 40 32 41 39 -151 0
45 36 40 32 41 39 -153 0
45 36 40 32 41 39 -154 0
45 36 40 41 37 39 -152 0
45 36 40 41 37 39 -151 0
45 36 40 41 37 39 -153 0
45 36 40 41 37 39 -154 0
45 40 59 41 60 39 -176 0
45 40 59 41 60 39 -174 0
45 40 59 41 60 39 -175 0
45 40 59 41 60 39 -173 0
45 40 59 41 39 58 -176 0
45 40 59 41 39 58 -174 0
45 40 59 41 39 58 -175 0
45 40 59 41 39 58 -173 0
45 40 30 41 26 39 -136 0
45 40 30 41 26 39 -134 0
45 40 30 41 26 39 -135 0
45 40 30 41 26 39 -133 0
45 40 30 41 39 29 -136 0
45 40 30 41 39 29 -134 0
45 40 30 41 39 29 -135 0
45 40 30 41 39 29 -133 0
45 40 9 41 14 39 -86 0
45 40 9 41 14 39 -88 0
45 40 9 41 14 39 -85 0
45 40 9 41 14 39 -87 0
45 40 9 41 39 8 -86 0
45 40 9 41 39 8 -88 0
45 40 9 41 39 8 -85 0
45 40 9 41 39 8 -87 0
45 40 5 41 6 39 -42 0
45 40 5 41 6 39 -44 0
45 40 5 41 6 39 -46 0
45 40 5 41 6 39 -43 0
45 40 5 41 39 4 -42 0
45 40 5 41 39 4 -44 0
45 40 5 41 39 4 -46 0
45 40 5 41 39 4 -43 0
45 40 15 41 19 39 -111 0
45 40 15 41 19 39 -112 0
45 40 15 41 19 39 -113 0
45 40 15 41 19 39 -114 0
45 40 15 41 39 22 -111 0
45 40 15 41 39 22 -112 0
45 40 15 41 39 22 -113 0
45 40 15 41 39 22 -114 0
45 40 48 41 54 39 -171 0
45 40 48 41 54 39 -172 0
45 40 48 41 54 39 -170 0
45 40 48 41 54 39 -169 0
45 40 48 41 39 47 -171 0
45 40 48 41 39 47 -172 0
45 40 48 41 39 47 -170 0
45 40 48 41 39 47 -169 0
45 40 63 41 66 39 -179 0
45 40 63 41 66 39 -177 0
45 40 63 41 66 39 -178 0
45 40 63 41 66 39 -180 0
45 40 32 41 37 39 -152 0
45 40 32 41 37 39 -151 0
45 40 32 41 37 39 -153 0
45 40 32 41 37 39 -154 0
45 40 41 60 39 58 -176 0
45 40 41 60 39 58 -174 0
45 40 41 60 39 58 -175 0
45 40 41 60 39 58 -173 0
45 40 41 26 39 29 -136 0
45 40 41 26 39 29 -134 0
45 40 41 26 39 29 -135 0
45 40 41 26 39 29 -133 0
45 40 41 14 39 8 -86 0
45 40 41 14 39 8 -88 0
45 40 41 14 39 8 -85 0
45 40 41 14 39 8 -87 0
45 40 41 6 39 4 -42 0
45 40 41 6 39 4 -44 0
45 40 41 6 39 4 -46 0
45 40 41 6 39 4 -43 0
45 40 41 19 39 22 -111 0
45 40 41 19 39 22 -112 0
45 40 41 19 39 22 -113 0
45 40 41 19 39 22 -114 0
45 40 41 54 39 47 -171 0
45 40 41 54 39 47 -172 0
45 40 41 54 39 47 -170 0
45 40 41 54 39 47 -169 0
57 28 59 30 60 26 -144 0
57 28 59 30 60 26 -142 0
57 28 59 30 60 26 -141 0
57 28 59 30 60 26 -143 0
57 28 59 30 60 58 -144 0
57 28 59 30 60 58 -142 0
57 28 59 30 60 58 -141 0
57 28 59 30 60 58 -143 0
57 28 59 30 26 29 -144 0
57 28 59 30 26 29 -142 0
57 28 59 30 26 29 -141 0
57 28 59 30 26 29 -143 0
57 28 59 30 58 29 -144 0
57 28 59 30 58 29 -142 0
57 28 59 30 58 29 -141 0
57 28 59 30 58 29 -143 0
57 28 59 60 26 58 -144 0
57 28 59 60 26 58 -142 0
57 28 59 60 26 58 -141 0
57 28 59 60 26 58 -143 0
57 28 59 60 58 29 -144 0
57 28 59 60 58 29 -142 0
57 28 59 60 58 29 -141 0
57 28 59 60 58 29 -143 0
57 28 30 60 26 29 -144 0
57 28 30 60 26 29 -142 0
57 28 30 60 26 29 -141 0
57 28 30 60 26 29 -143 0
57 28 30 26 58 29 -144 0
57 28 30 26 58 29 -142 0
57 28 30 26 58 29 -141 0
57 28 30 26 58 29 -143 0
57 28 60 26 58 29 -144 0
57 28 60 26 58 29 -142 0
57 28 60 26 58 29 -141 0
57 28 60 26 58 29 -143 0
57 13 59 9 60 14 -93 0
57 13 59 9 60 14 -94 0
57 13 59 9 60 14 -95 0
57 13 59 9 60 14 -96 0
57 13 59 9 60 58 -93 0
57 13 59 9 60 58 -94 0
57 13 59 9 60 58 -95 0
57 13 59 9 60 58 -96 0
57 13 59 9 14 8 -93 0
57 13 59 9 14 8 -94 0
57 13 59 9 14 8 -95 0
57 13 59 9 14 8 -96 0
57 13 59 9 58 8 -93 0
57 13 59 9 58 8 -94 0
57 13 59 9 58 8 -95 0
57 13 59 9 58 8 -96 0
57 13 59 60 14 58 -93 0
57 13 59 60 14 58 -94 0
57 13 59 60 14 58 -95 0
57 13 59 60 14 58 -96 0
57 13 59 60 58 8 -93 0
57 13 59 60 58 8 -94 0
57 13 59 60 58 8 -95 0
57 13 59 60 58 8 -96 0
57 13 9 60 14 8 -93 0
57 13 9 60 14 8 -94 0
57 13 9 60 14 8 -95 0
57 13 9 60 14 8 -96 0
57 13 9 14 58 8 -93 0
57 13 9 14 58 8 -94 0
57 13 9 14 58 8 -95 0
57 13 9 14 58 8 -96 0
57 13 60 14 58 8 -93 0
57 13 60 14 58 8 -94 0
57 13 60 14 58 8 -95 0
57 13 60 14 58 8 -96 0
57 2 59 5 60 6 -62 0
57 2 59 5 60 6 -55 0
57 2 59 5 60 6 -56 0
57 2 59 5 60 6 -61 0
57 2 59 5 60 58 -62 0
57 2 59 5 60 58 -55 0
57 2 59 5 60 58 -56 0
57 2 59 5 60 58 -61 0
57 2 59 5 6 4 -62 0
57 2 59 5 6 4 -55 0
57 2 59 5 6 4 -56 0
57 2 59 5 6 4 -61 0
57 2 59 5 58 4 -62 0
57 2 59 5 58 4 -55 0
57 2 59 5 58 4 -56 0
57 2 59 5 58 4 -61 0
57 2 59 60 6 58 -62 0
57 2 59 60 6 58 -55 0
57 2 59 60 6 58 -56 0
57 2 59 60 6 58 -61 0
57 2 59 60 58 4 -62 0
57 2 59 60 58 4 -55 0
57 2 59 60 58 4 -56 0
57 2 59 60 58 4 -61 0
57 2 5 60 6 4 -62 0
57 2 5 60 6 4 -55 0
57 2 5 60 6 4 -56 0
57 2 5 60 6 4 -61 0
57 2 5 6 58 4 -62 0
57 2 5 6 58 4 -55 0
57 2 5 6 58 4 -56 0
57 2 5 6 58 4 -61 0
57 2 60 6 58 4 -62 0
57 2 60 6 58 4 -55 0
57 2 60 6 58 4 -56 0
57 2 60 6 58 4 -61 0
57 18 59 15 60 19 -121 0
57 18 59 15 60 19 -119 0
57 18 59 15 60 19 -120 0
57 18 59 15 60 19 -122 0
57 18 59 15 60 58 -121 0
57 18 59 15 60 58 -119 0
57 18 59 15 60 58 -120 0
57 18 59 15 60 58 -122 0
57 18 59 15 19 22 -121 0
57 18 59 15 19 22 -119 0
57 18 59 15 19 22 -120 0
57 18 59 15 19 22 -122 0
57 18 59 15 58 22 -121 0
57 18 59 15 58 22 -119 0
57 18 59 15 58 22 -120 0
57 18 59 15 58 22 -122 0
57 18 59 60 19 58 -121 0
57 18 59 60 19 58 -119 0
57 18 59 60 19 58 -120 0
57 18 59 60 19 58 -122 0
57 18 59 60 58 22 -121 0
57 18 59 60 58 22 -119 0
57 18 59 60 58 22 -120 0
57 18 59 60 58 22 -122 0
57 18 15 60 19 22 -121 0
57 18 15 60 19 22 -119 0
57 18 15 60 19 22 -120 0
57 18 15 60 19 22 -122 0
57 18 15 19 58 22 -121 0
57 18 15 19 58 22 -119 0
57 18 15 19 58 22 -120 0
57 18 15 19 58 22 -122 0
57 18 60 19 58 22 -121 0
57 18 60 19 58 22 -119 0
57 18 60 19 58 22 -120 0
57 18 60 19 58 22 -122 0
57 52 59 48 60 54 -185 0
57 52 59 48 60 54 -186 0
57 52 59 48 60 54 -183 0
57 52 59 48 60 54 -184 0
57 52 59 48 60 58 -185 0
57 52 59 48 60 58 -186 0
57 52 59 48 60 58 -183 0
57 52 59 48 60 58 -184 0
57 52 59 48 54 47 -185 0
57 52 59 48 54 47 -186 0
57 52 59 48 54 47 -183 0
57 52 59 48 54 47 -184 0
57 52 59 48 58 47 -185 0
57 52 59 48 58 47 -186 0
57 52 59 48 58 47 -183 0
57 52 59 48 58 47 -184 0
57 52 59 60 54 58 -185 0
57 52 59 60 54 58 -186 0
57 52 59 60 54 58 -183 0
57 52 59 60 54 58 -184 0
57 52 59 60 58 47 -185 0
57 52 59 60 58 47 -186 0
57 52 59 60 58 47 -183 0
57 52 59 60 58 47 -184 0
57 52 48 60 54 47 -185 0
57 52 48 60 54 47 -186 0
57 52 48 60 54 47 -183 0
57 52 48 60 54 47 -184 0
57 52 48 54 58 47 -185 0
57 52 48 54 58 47 -186 0
57 52 48 54 58 47 -183 0
57 52 48 54 58 47 -184 0
57 52 60 54 58 47 -185 0
57 52 60 54 58 47 -186 0
57 52 60 54 58 47 -183 0
57 52 60 54 58 47 -184 0
57 67 59 63 60 58 -194 0
57 67 59 63 60 58 -193 0
57 67 59 63 60 58 -195 0
57 67 59 63 60 58 -196 0
57 67 59 60 66 58 -194 0
57 67 59 60 66 58 -193 0
57 67 59 60 66 58 -195 0
57 67 59 60 66 58 -196 0
57 36 59 32 60 58 -162 0
57 36 59 32 60 58 -160 0
57 36 59 32 60 58 -161 0
57 36 59 32 60 58 -159 0
57 36 59 60 37 58 -162 0
57 36 59 60 37 58 -160 0
57 36 59 60 37 58 -161 0
57 36 59 60 37 58 -159 0
57 40 59 41 60 58 -176 0
57 40 59 41 60 58 -174 0
57 40 59 41 60 58 -175 0
57 40 59 41 60 58 -173 0
57 40 59 60 39 58 -176 0
57 40 59 60 39 58 -174 0
57 40 59 60 39 58 -175 0
57 40 59 60 39 58 -173 0
57 59 30 60 26 58 -144 0
57 59 30 60 26 58 -142 0
57 59 30 60 26 58 -141 0
57 59 30 60 26 58 -143 0
57 59 30 60 58 29 -144 0
57 59 30 60 58 29 -142 0
57 59 30 60 58 29 -141 0
57 59 30 60 58 29 -143 0
57 59 9 60 14 58 -93 0
57 59 9 60 14 58 -94 0
57 59 9 60 14 58 -95 0
57 59 9 60 14 58 -96 0
57 59 9 60 58 8 -93 0
57 59 9 60 58 8 -94 0
57 59 9 60 58 8 -95 0
57 59 9 60 58 8 -96 0
57 59 5 60 6 58 -62 0
57 59 5 60 6 58 -55 0
57 59 5 60 6 58 -56 0
57 59 5 60 6 58 -61 0
57 59 5 60 58 4 -62 0
57 59 5 60 58 4 -55 0
57 59 5 60 58 4 -56 0
57 59 5 60 58 4 -61 0
57 59 15 60 19 58 -121 0
57 59 15 60 19 58 -119 0
57 59 15 60 19 58 -120 0
57 59 15 60 19 58 -122 0
57 59 15 60 58 22 -121 0
57 59 15 60 58 22 -119 0
57 59 15 60 58 22 -120 0
57 59 15 60 58 22 -122 0
57 59 48 60 54 58 -185 0
57 59 48 60 54 58 -186 0
57 59 48 60 54 58 -183 0
57 59 48 60 54 58 -184 0
57 59 48 60 58 47 -185 0
57 59 48 60 58 47 -186 0
57 59 48 60 58 47 -183 0
57 59 48 60 58 47 -184 0
57 59 63 60 66 58 -194 0
57 59 63 60 66 58 -193 0
57 59 63 60 66 58 -195 0
57 59 63 60 66 58 -196 0
57 59 32 60 37 58 -162 0
57 59 32 60 37 58 -160 0
57 59 32 60 37 58 -161 0
57 59 32 60 37 58 -159 0
57 59 41 60 39 58 -176 0
57 59 41 60 39 58 -174 0
57 59 41 60 39 58 -175 0
57 59 41 60 39 58 -173 0
57 59 60 26 58 29 -144 0
57 59 60 26 58 29 -142 0
57 59 60 26 58 29 -141 0
57 59 60 26 58 29 -143 0
57 59 60 14 58 8 -93 0
57 59 60 14 58 8 -94 0
57 59 60 14 58 8 -95 0
57 59 60 14 58 8 -96 0
57 59 60 6 58 4 -62 0
57 59 60 6 58 4 -55 0
57 59 60 6 58 4 -56 0
57 59 60 6 58 4 -61 0
57 59 60 19 58 22 -121 0
57 59 60 19 58 22 -119 0
57 59 60 19 58 22 -120 0
57 59 60 19 58 22 -122 0
57 59 60 54 58 47 -185 0
57 59 60 54 58 47 -186 0
57 59 60 54 58 47 -183 0
57 59 60 54 58 47 -184 0
28 13 30 9 26 14 -77 0
28 13 30 9 26 14 -78 0
28 13 30 9 26 14 -79 0
28 13 30 9 26 14 -80 0
28 13 30 9 26 29 -77 0
28 13 30 9 26 29 -78 0
28 13 30 9 26 29 -79 0
28 13 30 9 26 29 -80 0
28 13 30 9 14 8 -77 0
28 13 30 9 14 8 -78 0
28 13 30 9 14 8 -79 0
28 13 30 9 14 8 -80 0
28 13 30 9 29 8 -77 0
28 13 30 9 29 8 -78 0
28 13 30 9 29 8 -79 0
28 13 30 9 29 8 -80 0
28 13 30 26 14 29 -77 0
28 13 30 26 14 29 -78 0
28 13 30 26 14 29 -79 0
28 13 30 26 14 29 -80 0
28 13 30 26 29 8 -77 0
28 13 30 26 29 8 -78 0
28 13 30 26 29 8 -79 0
28 13 30 26 29 8 -80 0
28 13 9 26 14 8 -77 0
28 13 9 26 14 8 -78 0
28 13 9 26 14 8 -79 0
28 13 9 26 14 8 -80 0
28 13 9 14 29 8 -77 0
28 13 9 14 29 8 -78 0
28 13 9 14 29 8 -79 0
28 13 9 14 29 8 -80 0
28 13 26 14 29 8 -77 0
28 13 26 14 29 8 -78 0
28 13 26 14 29 8 -79 0
28 13 26 14 29 8 -80 0
28 2 30 5 26 6 -23 0
28 2 30 5 26 6 -25 0
28 2 30 5 26 6 -27 0
28 2 30 5 26 6 -24 0
28 2 30 5 26 29 -23 0
28 2 30 5 26 29 -25 0
28 2 30 5 26 29 -27 0
28 2 30 5 26 29 -24 0
28 2 30 5 6 4 -23 0
28 2 30 5 6 4 -25 0
28 2 30 5 6 4 -27 0
28 2 30 5 6 4 -24 0
28 2 30 5 29 4 -23 0
28 2 30 5 29 4 -25 0
28 2 30 5 29 4 -27 0
28 2 30 5 29 4 -24 0
28 2 30 26 6 29 -23 0
28 2 30 26 6 29 -25 0
28 2 30 26 6 29 -27 0
28 2 30 26 6 29 -24 0
28 2 30 26 29 4 -23 0
28 2 30 26 29 4 -25 0
28 2 30 26 29 4 -27 0
28 2 30 26 29 4 -24 0
28 2 5 26 6 4 -23 0
28 2 5 26 6 4 -25 0
28 2 5 26 6 4 -27 0
28 2 5 26 6 4 -24 0
28 2 5 6 29 4 -23 0
28 2 5 6 29 4 -25 0
28 2 5 6 29 4 -27 0
28 2 5 6 29 4 -24 0
28 2 26 6 29 4 -23 0
28 2 26 6 29 4 -25 0
28 2 26 6 29 4 -27 0
28 2 26 6 29 4 -24 0
28 18 30 15 26 19 -103 0
28 18 30 15 26 19 -105 0
28 18 30 15 26 19 -106 0
28 18 30 15 26 19 -104 0
28 18 30 15 26 29 -103 0
28 18 30 15 26 29 -105 0
28 18 30 15 26 29 -106 0
28 18 30 15 26 29 -104 0
28 18 30 15 19 22 -103 0
28 18 30 15 19 22 -105 0
28 18 30 15 19 22 -106 0
28 18 30 15 19 22 -104 0
28 18 30 15 29 22 -103 0
28 18 30 15 29 22 -105 0
28 18 30 15 29 22 -106 0
28 18 30 15 29 22 -104 0
28 18 30 26 19 29 -103 0
28 18 30 26 19 29 -105 0
28 18 30 26 19 29 -106 0
28 18 30 26 19 29 -104 0
28 18 30 26 29 22 -103 0
28 18 30 26 29 22 -105 0
28 18 30 26 29 22 -106 0
28 18 30 26 29 22 -104 0
28 18 15 26 19 22 -103 0
28 18 15 26 19 22 -105 0
28 18 15 26 19 22 -106 0
28 18 15 26 19 22 -104 0
28 18 15 19 29 22 -103 0
28 18 15 19 29 22 -105 0
28 18 15 19 29 22 -106 0
28 18 15 19 29 22 -104 0
28 18 26 19 29 22 -103 0
28 18 26 19 29 22 -105 0
28 18 26 19 29 22 -106 0
28 18 26 19 29 22 -104 0
28 52 30 48 26 54 -140 0
28 52 30 48 26 54 -139 0
28 52 30 48 26 54 -137 0
28 52 30 48 26 54 -138 0
28 52 30 48 26 29 -140 0
28 52 30 48 26 29 -139 0
28 52 30 48 26 29 -137 0
28 52 30 48 26 29 -138 0
28 52 30 48 54 47 -140 0
28 52 30 48 54 47 -139 0
28 52 30 48 54 47 -137 0
28 52 30 48 54 47 -138 0
28 52 30 48 29 47 -140 0
28 52 30 48 29 47 -139 0
28 52 30 48 29 47 -137 0
28 52 30 48 29 47 -138 0
28 52 30 26 54 29 -140 0
28 52 30 26 54 29 -139 0
28 52 30 26 54 29 -137 0
28 52 30 26 54 29 -138 0
28 52 30 26 29 47 -140 0
28 52 30 26 29 47 -139 0
28 52 30 26 29 47 -137 0
28 52 30 26 29 47 -138 0
28 52 48 26 54 47 -140 0
28 52 48 26 54 47 -139 0
28 52 48 26 54 47 -137 0
28 52 48 26 54 47 -138 0
28 52 48 54 29 47 -140 0
28 52 48 54 29 47 -139 0
28 52 48 54 29 47 -137 0
28 52 48 54 29 47 -138 0
28 52 26 54 29 47 -140 0
28 52 26 54 29 47 -139 0
28 52 26 54 29 47 -137 0
28 52 26 54 29 47 -138 0
28 67 30 63 26 29 -146 0
28 67 30 63 26 29 -148 0
28 67 30 63 26 29 -145 0
28 67 30 63 26 29 -147 0
28 67 30 26 66 29 -146 0
28 67 30 26 66 29 -148 0
28 67 30 26 66 29 -145 0
28 67 30 26 66 29 -147 0
28 36 30 32 26 29 -129 0
28 36 30 32 26 29 -132 0
28 36 30 32 26 29 -130 0
28 36 30 32 26 29 -131 0
28 36 30 26 37 29 -129 0
28 36 30 26 37 29 -132 0
28 36 30 26 37 29 -130 0
28 36 30 26 37 29 -131 0
28 40 30 41 26 29 -136 0
28 40 30 41 26 29 -134 0
28 40 30 41 26 29 -135 0
28 40 30 41 26 29 -133 0
28 40 30 26 39 29 -136 0
28 40 30 26 39 29 -134 0
28 40 30 26 39 29 -135 0
28 40 30 26 39 29 -133 0
28 59 30 60 26 29 -144 0
28 59 30 60 26 29 -142 0
28 59 30 60 26 29 -141 0
28 59 30 60 26 29 -143 0
28 59 30 26 58 29 -144 0
28 59 30 26 58 29 -142 0
28 59 30 26 58 29 -141 0
28 59 30 26 58 29 -143 0
28 30 9 26 14 29 -77 0
28 30 9 26 14 29 -78 0
28 30 9 26 14 29 -79 0
28 30 9 26 14 29 -80 0
28 30 9 26 29 8 -77 0
28 30 9 26 29 8 -78 0
28 30 9 26 29 8 -79 0
28 30 9 26 29 8 -80 0
28 30 5 26 6 29 -23 0
28 30 5 26 6 29 -25 0
28 30 5 26 6 29 -27 0
28 30 5 26 6 29 -24 0
28 30 5 26 29 4 -23 0
28 30 5 26 29 4 -25 0
28 30 5 26 29 4 -27 0
28 30 5 26 29 4 -24 0
28 30 15 26 19 29 -103 0
28 30 15 26 19 29 -105 0
28 30 15 26 19 29 -106 0
28 30 15 26 19 29 -104 0
28 30 15 26 29 22 -103 0
28 30 15 26 29 22 -105 0
28 30 15 26 29 22 -106 0
28 30 15 26 29 22 -104 0
28 30 48 26 54 29 -140 0
28 30 48 26 54 29 -139 0
28 30 48 26 54 29 -137 0
28 30 48 26 54 29 -138 0
28 30 48 26 29 47 -140 0
28 30 48 26 29 47 -139 0
28 30 48 26 29 47 -137 0
28 30 48 26 29 47 -138 0
28 30 63 26 66 29 -146 0
28 30 63 26 66 29 -148 0
28 30 63 26 66 29 -145 0
28 30 63 26 66 29 -147 0
28 30 32 26 37 29 -129 0
28 30 32 26 37 29 -132 0
28 30 32 26 37 29 -130 0
28 30 32 26 37 29 -131 0
28 30 41 26 39 29 -136 0
28 30 41 26 39 29 -134 0
28 30 41 26 39 29 -135 0
28 30 41 26 39 29 -133 0
28 30 60 26 58 29 -144 0
28 30 60 26 58 29 -142 0
28 30 60 26 58 29 -141 0
28 30 60 26 58 29 -143 0
28 30 26 14 29 8 -77 0
28 30 26 14 29 8 -78 0
28 30 26 14 29 8 -79 0
28 30 26 14 29 8 -80 0
28 30 26 6 29 4 -23 0
28 30 26 6 29 4 -25 0
28 30 26 6 29 4 -27 0
28 30 26 6 29 4 -24 0
28 30 26 19 29 22 -103 0
28 30 26 19 29 22 -105 0
28 30 26 19 29 22 -106 0
28 30 26 19 29 22 -104 0
28 30 26 54 29 47 -140 0
28 30 26 54 29 47 -139 0
28 30 26 54 29 47 -137 0
28 30 26 54 29 47 -138 0
13 2 9 5 14 6 -11 0
13 2 9 5 14 6 -12 0
13 2 9 5 14 6 -7 0
13 2 9 5 14 6 -10 0
13 2 9 5 14 8 -11 0
13 2 9 5 14 8 -12 0
13 2 9 5 14 8 -7 0
13 2 9 5 14 8 -10 0
13 2 9 5 6 4 -11 0
13 2 9 5 6 4 -12 0
13 2 9 5 6 4 -7 0
13 2 9 5 6 4 -10 0
13 2 9 5 8 4 -11 0
13 2 9 5 8 4 -12 0
13 2 9 5 8 4 -7 0
13 2 9 5 8 4 -10 0
13 2 9 14 6 8 -11 0
13 2 9 14 6 8 -12 0
13 2 9 14 6 8 -7 0
13 2 9 14 6 8 -10 0
13 2 9 14 8 4 -11 0
13 2 9 14 8 4 -12 0
13 2 9 14 8 4 -7 0
13 2 9 14 8 4 -10 0
13 2 5 14 6 4 -11 0
13 2 5 14 6 4 -12 0
13 2 5 14 6 4 -7 0
13 2 5 14 6 4 -10 0
13 2 5 6 8 4 -11 0
13 2 5 6 8 4 -12 0
13 2 5 6 8 4 -7 0
13 2 5 6 8 4 -10 0
13 2 14 6 8 4 -11 0
13 2 14 6 8 4 -12 0
13 2 14 6 8 4 -7 0
13 2 14 6 8 4 -10 0
13 18 9 15 14 19 -76 0
13 18 9 15 14 19 -74 0
13 18 9 15 14 19 -75 0
13 18 9 15 14 19 -73 0
13 18 9 15 14 8 -76 0
13 18 9 15 14 8 -74 0
13 18 9 15 14 8 -75 0
13 18 9 15 14 8 -73 0
13 18 9 15 19 22 -76 0
13 18 9 15 19 22 -74 0
13 18 9 15 19 22 -75 0
13 18 9 15 19 22 -73 0
13 18 9 15 8 22 -76 0
13 18 9 15 8 22 -74 0
13 18 9 15 8 22 -75 0
13 18 9 15 8 22 -73 0
13 18 9 14 19 8 -76 0
13 18 9 14 19 8 -74 0
13 18 9 14 19 8 -75 0
13 18 9 14 19 8 -73 0
13 18 9 14 8 22 -76 0
13 18 9 14 8 22 -74 0
13 18 9 14 8 22 -75 0
13 18 9 14 8 22 -73 0
13 18 15 14 19 22 -76 0
13 18 15 14 19 22 -74 0
13 18 15 14 19 22 -75 0
13 18 15 14 19 22 -73 0
13 18 15 19 8 22 -76 0
13 18 15 19 8 22 -74 0
13 18 15 19 8 22 -75 0
13 18 15 19 8 22 -73 0
13 18 14 19 8 22 -76 0
13 18 14 19 8 22 -74 0
13 18 14 19 8 22 -75 0
13 18 14 19 8 22 -73 0
13 52 9 48 14 54 -90 0
13 52 9 48 14 54 -92 0
13 52 9 48 14 54 -89 0
13 52 9 48 14 54 -91 0
13 52 9 48 14 8 -90 0
13 52 9 48 14 8 -92 0
13 52 9 48 14 8 -89 0
13 52 9 48 14 8 -91 0
13 52 9 48 54 47 -90 0
13 52 9 48 54 47 -92 0
13 52 9 48 54 47 -89 0
13 52 9 48 54 47 -91 0
13 52 9 48 8 47 -90 0
13 52 9 48 8 47 -92 0
13 52 9 48 8 47 -89 0
13 52 9 48 8 47 -91 0
13 52 9 14 54 8 -90 0
13 52 9 14 54 8 -92 0
13 52 9 14 54 8 -89 0
13 52 9 14 54 8 -91 0
13 52 9 14 8 47 -90 0
13 52 9 14 8 47 -92 0
13 52 9 14 8 47 -89 0
13 52 9 14 8 47 -91 0
13 52 48 14 54 47 -90 0
13 52 48 14 54 47 -92 0
13 52 48 14 54 47 -89 0
13 52 48 14 54 47 -91 0
13 52 48 54 8 47 -90 0
13 52 48 54 8 47 -92 0
13 52 48 54 8 47 -89 0
13 52 48 54 8 47 -91 0
13 52 14 54 8 47 -90 0
13 52 14 54 8 47 -92 0
13 52 14 54 8 47 -89 0
13 52 14 54 8 47 -91 0
13 67 9 63 14 8 -99 0
13 67 9 63 14 8 -97 0
13 67 9 63 14 8 -98 0
13 67 9 63 14 8 -100 0
13 67 9 14 66 8 -99 0
13 67 9 14 66 8 -97 0
13 67 9 14 66 8 -98 0
13 67 9 14 66 8 -100 0
13 36 9 32 14 8 -84 0
13 36 9 32 14 8 -83 0
13 36 9 32 14 8 -82 0
13 36 9 32 14 8 -81 0
13 36 9 14 37 8 -84 0
13 36 9 14 37 8 -83 0
13 36 9 14 37 8 -82 0
13 36 9 14 37 8 -81 0
13 40 9 41 14 8 -86 0
13 40 9 41 14 8 -88 0
13 40 9 41 14 8 -85 0
13 40 9 41 14 8 -87 0
13 40 9 14 39 8 -86 0
13 40 9 14 39 8 -88 0
13 40 9 14 39 8 -85 0
13 40 9 14 39 8 -87 0
13 59 9 60 14 8 -93 0
13 59 9 60 14 8 -94 0
13 59 9 60 14 8 -95 0
13 59 9 60 14 8 -96 0
13 59 9 14 58 8 -93 0
13 59 9 14 58 8 -94 0
13 59 9 14 58 8 -95 0
13 59 9 14 58 8 -96 0
13 30 9 26 14 8 -77 0
13 30 9 26 14 8 -78 0
13 30 9 26 14 8 -79 0
13 30 9 26 14 8 -80 0
13 30 9 14 29 8 -77 0
13 30 9 14 29 8 -78 0
13 30 9 14 29 8 -79 0
13 30 9 14 29 8 -80 0
13 9 5 14 6 8 -11 0
13 9 5 14 6 8 -12 0
13 9 5 14 6 8 -7 0
13 9 5 14 6 8 -10 0
13 9 5 14 8 4 -11 0
13 9 5 14 8 4 -12 0
13 9 5 14 8 4 -7 0
13 9 5 14 8 4 -10 0
13 9 15 14 19 8 -76 0
13 9 15 14 19 8 -74 0
13 9 15 14 19 8 -75 0
13 9 15 14 19 8 -73 0
13 9 15 14 8 22 -76 0
13 9 15 14 8 22 -74 0
13 9 15 14 8 22 -75 0
13 9 15 14 8 22 -73 0
13 9 48 14 54 8 -90 0
13 9 48 14 54 8 -92 0
13 9 48 14 54 8 -89 0
13 9 48 14 54 8 -91 0
13 9 48 14 8 47 -90 0
13 9 48 14 8 47 -92 0
13 9 48 14 8 47 -89 0
13 9 48 14 8 47 -91 0
13 9 63 14 66 8 -99 0
13 9 63 14 66 8 -97 0
13 9 63 14 66 8 -98 0
13 9 63 14 66 8 -100 0
13 9 32 14 37 8 -84 0
13 9 32 14 37 8 -83 0
13 9 32 14 37 8 -82 0
13 9 32 14 37 8 -81 0
13 9 41 14 39 8 -86 0
13 9 41 14 39 8 -88 0
13 9 41 14 39 8 -85 0
13 9 41 14 39 8 -87 0
13 9 60 14 58 8 -93 0
13 9 60 14 58 8 -94 0
13 9 60 14 58 8 -95 0
13 9 60 14 58 8 -96 0
13 9 26 14 29 8 -77 0
13 9 26 14 29 8 -78 0
13 9 26 14 29 8 -79 0
13 9 26 14 29 8 -80 0
13 9 14 6 8 4 -11 0
13 9 14 6 8 4 -12 0
13 9 14 6 8 4 -7 0
13 9 14 6 8 4 -10 0
13 9 14 19 8 22 -76 0
13 9 14 19 8 22 -74 0
13 9 14 19 8 22 -75 0
13 9 14 19 8 22 -73 0
13 9 14 54 8 47 -90 0
13 9 14 54 8 47 -92 0
13 9 14 54 8 47 -89 0
13 9 14 54 8 47 -91 0
2 18 5 15 6 19 -21 0
2 18 5 15 6 19 -17 0
2 18 5 15 6 19 -20 0
2 18 5 15 6 19 -16 0
2 18 5 15 6 4 -21 0
2 18 5 15 6 4 -17 0
2 18 5 15 6 4 -20 0
2 18 5 15 6 4 -16 0
2 18 5 15 19 22 -21 0
2 18 5 15 19 22 -17 0
2 18 5 15 19 22 -20 0
2 18 5 15 19 22 -16 0
2 18 5 15 4 22 -21 0
2 18 5 15 4 22 -17 0
2 18 5 15 4 22 -20 0
2 18 5 15 4 22 -16 0
2 18 5 6 19 4 -21 0
2 18 5 6 19 4 -17 0
2 18 5 6 19 4 -20 0
2 18 5 6 19 4 -16 0
2 18 5 6 4 22 -21 0
2 18 5 6 4 22 -17 0
2 18 5 6 4 22 -20 0
2 18 5 6 4 22 -16 0
2 18 15 6 19 22 -21 0
2 18 15 6 19 22 -17 0
2 18 15 6 19 22 -20 0
2 18 15 6 19 22 -16 0
2 18 15 19 4 22 -21 0
2 18 15 19 4 22 -17 0
2 18 15 19 4 22 -20 0
2 18 15 19 4 22 -16 0
2 18 6 19 4 22 -21 0
2 18 6 19 4 22 -17 0
2 18 6 19 4 22 -20 0
2 18 6 19 4 22 -16 0
2 52 5 48 6 54 -53 0
2 52 5 48 6 54 -51 0
2 52 5 48 6 54 -50 0
2 52 5 48 6 54 -49 0
2 52 5 48 6 4 -53 0
2 52 5 48 6 4 -51 0
2 52 5 48 6 4 -50 0
2 52 5 48 6 4 -49 0
2 52 5 48 54 47 -53 0
2 52 5 48 54 47 -51 0
2 52 5 48 54 47 -50 0
2 52 5 48 54 47 -49 0
2 52 5 48 4 47 -53 0
2 52 5 48 4 47 -51 0
2 52 5 48 4 47 -50 0
2 52 5 48 4 47 -49 0
2 52 5 6 54 4 -53 0
2 52 5 6 54 4 -51 0
2 52 5 6 54 4 -50 0
2 52 5 6 54 4 -49 0
2 52 5 6 4 47 -53 0
2 52 5 6 4 47 -51 0
2 52 5 6 4 47 -50 0
2 52 5 6 4 47 -49 0
2 52 48 6 54 47 -53 0
2 52 48 6 54 47 -51 0
2 52 48 6 54 47 -50 0
2 52 48 6 54 47 -49 0
2 52 48 54 4 47 -53 0
2 52 48 54 4 47 -51 0
2 52 48 54 4 47 -50 0
2 52 48 54 4 47 -49 0
2 52 6 54 4 47 -53 0
2 52 6 54 4 47 -51 0
2 52 6 54 4 47 -50 0
2 52 6 54 4 47 -49 0
2 67 5 63 6 4 -69 0
2 67 5 63 6 4 -64 0
2 67 5 63 6 4 -68 0
2 67 5 63 6 4 -70 0
2 67 5 6 66 4 -69 0
2 67 5 6 66 4 -64 0
2 67 5 6 66 4 -68 0
2 67 5 6 66 4 -70 0
2 36 5 32 6 4 -35 0
2 36 5 32 6 4 -33 0
2 36 5 32 6 4 -31 0
2 36 5 32 6 4 -38 0
2 36 5 6 37 4 -35 0
2 36 5 6 37 4 -33 0
2 36 5 6 37 4 -31 0
2 36 5 6 37 4 -38 0
2 40 5 41 6 4 -42 0
2 40 5 41 6 4 -44 0
2 40 5 41 6 4 -46 0
2 40 5 41 6 4 -43 0
2 40 5 6 39 4 -42 0
2 40 5 6 39 4 -44 0
2 40 5 6 39 4 -46 0
2 40 5 6 39 4 -43 0
2 59 5 60 6 4 -62 0
2 59 5 60 6 4 -55 0
2 59 5 60 6 4 -56 0
2 59 5 60 6 4 -61 0
2 59 5 6 58 4 -62 0
2 59 5 6 58 4 -55 0
2 59 5 6 58 4 -56 0
2 59 5 6 58 4 -61 0
2 30 5 26 6 4 -23 0
2 30 5 26 6 4 -25 0
2 30 5 26 6 4 -27 0
2 30 5 26 6 4 -24 0
2 30 5 6 29 4 -23 0
2 30 5 6 29 4 -25 0
2 30 5 6 29 4 -27 0
2 30 5 6 29 4 -24 0
2 9 5 14 6 4 -11 0
2 9 5 14 6 4 -12 0
2 9 5 14 6 4 -7 0
2 9 5 14 6 4 -10 0
2 9 5 6 8 4 -11 0
2 9 5 6 8 4 -12 0
2 9 5 6 8 4 -7 0
2 9 5 6 8 4 -10 0
2 5 15 6 19 4 -21 0
2 5 15 6 19 4 -17 0
2 5 15 6 19 4 -20 0
2 5 15 6 19 4 -16 0
2 5 15 6 4 22 -21 0
2 5 15 6 4 22 -17 0
2 5 15 6 4 22 -20 0
2 5 15 6 4 22 -16 0
2 5 48 6 54 4 -53 0
2 5 48 6 54 4 -51 0
2 5 48 6 54 4 -50 0
2 5 48 6 54 4 -49 0
2 5 48 6 4 47 -53 0
2 5 48 6 4 47 -51 0
2 5 48 6 4 47 -50 0
2 5 48 6 4 47 -49 0
2 5 63 6 66 4 -69 0
2 5 63 6 66 4 -64 0
2 5 63 6 66 4 -68 0
2 5 63 6 66 4 -70 0
2 5 32 6 37 4 -35 0
2 5 32 6 37 4 -33 0
2 5 32 6 37 4 -31 0
2 5 32 6 37 4 -38 0
2 5 41 6 39 4 -42 0
2 5 41 6 39 4 -44 0
2 5 41 6 39 4 -46 0
2 5 41 6 39 4 -43 0
2 5 60 6 58 4 -62 0
2 5 60 6 58 4 -55 0
2 5 60 6 58 4 -56 0
2 5 60 6 58 4 -61 0
2 5 26 6 29 4 -23 0
2 5 26 6 29 4 -25 0
2 5 26 6 29 4 -27 0
2 5 26 6 29 4 -24 0
2 5 14 6 8 4 -11 0
2 5 14 6 8 4 -12 0
2 5 14 6 8 4 -7 0
2 5 14 6 8 4 -10 0
2 5 6 19 4 22 -21 0
2 5 6 19 4 22 -17 0
2 5 6 19 4 22 -20 0
2 5 6 19 4 22 -16 0
2 5 6 54 4 47 -53 0
2 5 6 54 4 47 -51 0
2 5 6 54 4 47 -50 0
2 5 6 54 4 47 -49 0
18 52 15 48 19 54 -118 0
18 52 15 48 19 54 -115 0
18 52 15 48 19 54 -116 0
18 52 15 48 19 54 -117 0
18 52 15 48 19 22 -118 0
18 52 15 48 19 22 -115 0
18 52 15 48 19 22 -116 0
18 52 15 48 19 22 -117 0
18 52 15 48 54 47 -118 0
18 52 15 48 54 47 -115 0
18 52 15 48 54 47 -116 0
18 52 15 48 54 47 -117 0
18 52 15 48 22 47 -118 0
18 52 15 48 22 47 -115 0
18 52 15 48 22 47 -116 0
18 52 15 48 22 47 -117 0
18 52 15 19 54 22 -118 0
18 52 15 19 54 22 -115 0
18 52 15 19 54 22 -116 0
18 52 15 19 54 22 -117 0
18 52 15 19 22 47 -118 0
18 52 15 19 22 47 -115 0
18 52 15 19 22 47 -116 0
18 52 15 19 22 47 -117 0
18 52 48 19 54 47 -118 0
18 52 48 19 54 47 -115 0
18 52 48 19 54 47 -116 0
18 52 48 19 54 47 -117 0
18 52 48 54 22 47 -118 0
18 52 48 54 22 47 -115 0
18 52 48 54 22 47 -116 0
18 52 48 54 22 47 -117 0
18 52 19 54 22 47 -118 0
18 52 19 54 22 47 -115 0
18 52 19 54 22 47 -116 0
18 52 19 54 22 47 -117 0
18 67 15 63 19 22 -126 0
18 67 15 63 19 22 -125 0
18 67 15 63 19 22 -123 0
18 67 15 63 19 22 -124 0
18 67 15 19 66 22 -126 0
18 67 15 19 66 22 -125 0
18 67 15 19 66 22 -123 0
18 67 15 19 66 22 -124 0
18 36 15 32 19 22 -108 0
18 36 15 32 19 22 -110 0
18 36 15 32 19 22 -107 0
18 36 15 32 19 22 -109 0
18 36 15 19 37 22 -108 0
18 36 15 19 37 22 -110 0
18 36 15 19 37 22 -107 0
18 36 15 19 37 22 -109 0
18 40 15 41 19 22 -111 0
18 40 15 41 19 22 -112 0
18 40 15 41 19 22 -113 0
18 40 15 41 19 22 -114 0
18 40 15 19 39 22 -111 0
18 40 15 19 39 22 -112 0
18 40 15 19 39 22 -113 0
18 40 15 19 39 22 -114 0
18 59 15 60 19 22 -121 0
18 59 15 60 19 22 -119 0
18 59 15 60 19 22 -120 0
18 59 15 60 19 22 -122 0
18 59 15 19 58 22 -121 0
18 59 15 19 58 22 -119 0
18 59 15 19 58 22 -120 0
18 59 15 19 58 22 -122 0
18 30 15 26 19 22 -103 0
18 30 15 26 19 22 -105 0
18 30 15 26 19 22 -106 0
18 30 15 26 19 22 -104 0
18 30 15 19 29 22 -103 0
18 30 15 19 29 22 -105 0
18 30 15 19 29 22 -106 0
18 30 15 19 29 22 -104 0
18 9 15 14 19 22 -76 0
18 9 15 14 19 22 -74 0
18 9 15 14 19 22 -75 0
18 9 15 14 19 22 -73 0
18 9 15 19 8 22 -76 0
18 9 15 19 8 22 -74 0
18 9 15 19 8 22 -75 0
18 9 15 19 8 22 -73 0
18 5 15 6 19 22 -21 0
18 5 15 6 19 22 -17 0
18 5 15 6 19 22 -20 0
18 5 15 6 19 22 -16 0
18 5 15 19 4 22 -21 0
18 5 15 19 4 22 -17 0
18 5 15 19 4 22 -20 0
18 5 15 19 4 22 -16 0
18 15 48 19 54 22 -118 0
18 15 48 19 54 22 -115 0
18 15 48 19 54 22 -116 0
18 15 48 19 54 22 -117 0
18 15 48 19 22 47 -118 0
18 15 48 19 22 47 -115 0
18 15 48 19 22 47 -116 0
18 15 48 19 22 47 -117 0
18 15 63 19 66 22 -126 0
18 15 63 19 66 22 -125 0
18 15 63 19 66 22 -123 0
18 15 63 19 66 22 -124 0
18 15 32 19 37 22 -108 0
18 15 32 19 37 22 -110 0
18 15 32 19 37 22 -107 0
18 15 32 19 37 22 -109 0
18 15 41 19 39 22 -111 0
18 15 41 19 39 22 -112 0
18 15 41 19 39 22 -113 0
18 15 41 19 39 22 -114 0
18 15 60 19 58 22 -121 0
18 15 60 19 58 22 -119 0
18 15 60 19 58 22 -120 0
18 15 60 19 58 22 -122 0
18 15 26 19 29 22 -103 0
18 15 26 19 29 22 -105 0
18 15 26 19 29 22 -106 0
18 15 26 19 29 22 -104 0
18 15 14 19 8 22 -76 0
18 15 14 19 8 22 -74 0
18 15 14 19 8 22 -75 0
18 15 14 19 8 22 -73 0
18 15 6 19 4 22 -21 0
18 15 6 19 4 22 -17 0
18 15 6 19 4 22 -20 0
18 15 6 19 4 22 -16 0
18 15 19 54 22 47 -118 0
18 15 19 54 22 47 -115 0
18 15 19 54 22 47 -116 0
18 15 19 54 22 47 -117 0
52 67 48 63 54 47 -188 0
52 67 48 63 54 47 -189 0
52 67 48 63 54 47 -190 0
52 67 48 63 54 47 -187 0
52 67 48 54 66 47 -188 0
52 67 48 54 66 47 -189 0
52 67 48 54 66 47 -190 0
52 67 48 54 66 47 -187 0
52 36 48 32 54 47 -156 0
52 36 48 32 54 47 -158 0
52 36 48 32 54 47 -157 0
52 36 48 32 54 47 -155 0
52 36 48 54 37 47 -156 0
52 36 48 54 37 47 -158 0
52 36 48 54 37 47 -157 0
52 36 48 54 37 47 -155 0
52 40 48 41 54 47 -171 0
52 40 48 41 54 47 -172 0
52 40 48 41 54 47 -170 0
52 40 48 41 54 47 -169 0
52 40 48 54 39 47 -171 0
52 40 48 54 39 47 -172 0
52 40 48 54 39 47 -170 0
52 40 48 54 39 47 -169 0
52 59 48 60 54 47 -185 0
52 59 48 60 54 47 -186 0
52 59 48 60 54 47 -183 0
52 59 48 60 54 47 -184 0
52 59 48 54 58 47 -185 0
52 59 48 54 58 47 -186 0
52 59 48 54 58 47 -183 0
52 59 48 54 58 47 -184 0
52 30 48 26 54 47 -140 0
52 30 48 26 54 47 -139 0
52 30 48 26 54 47 -137 0
52 30 48 26 54 47 -138 0
52 30 48 54 29 47 -140 0
52 30 48 54 29 47 -139 0
52 30 48 54 29 47 -137 0
52 30 48 54 29 47 -138 0
52 9 48 14 54 47 -90 0
52 9 48 14 54 47 -92 0
52 9 48 14 54 47 -89 0
52 9 48 14 54 47 -91 0
52 9 48 54 8 47 -90 0
52 9 48 54 8 47 -92 0
52 9 48 54 8 47 -89 0
52 9 48 54 8 47 -91 0
52 5 48 6 54 47 -53 0
52 5 48 6 54 47 -51 0
52 5 48 6 54 47 -50 0
52 5 48 6 54 47 -49 0
52 5 48 54 4 47 -53 0
52 5 48 54 4 47 -51 0
52 5 48 54 4 47 -50 0
52 5 48 54 4 47 -49 0
52 15 48 19 54 47 -118 0
52 15 48 19 54 47 -115 0
52 15 48 19 54 47 -116 0
52 15 48 19 54 47 -117 0
52 15 48 54 22 47 -118 0
52 15 48 54 22 47 -115 0
52 15 48 54 22 47 -116 0
52 15 48 54 22 47 -117 0
52 48 63 54 66 47 -188 0
52 48 63 54 66 47 -189 0
52 48 63 54 66 47 -190 0
52 48 63 54 66 47 -187 0
52 48 32 54 37 47 -156 0
52 48 32 54 37 47 -158 0
52 48 32 54 37 47 -157 0
52 48 32 54 37 47 -155 0
52 48 41 54 39 47 -171 0
52 48 41 54 39 47 -172 0
52 48 41 54 39 47 -170 0
52 48 41 54 39 47 -169 0
52 48 60 54 58 47 -185 0
52 48 60 54 58 47 -186 0
52 48 60 54 58 47 -183 0
52 48 60 54 58 47 -184 0
52 48 26 54 29 47 -140 0
52 48 26 54 29 47 -139 0
52 48 26 54 29 47 -137 0
52 48 26 54 29 47 -138 0
52 48 14 54 8 47 -90 0
52 48 14 54 8 47 -92 0
52 48 14 54 8 47 -89 0
52 48 14 54 8 47 -91 0
52 48 6 54 4 47 -53 0
52 48 6 54 4 47 -51 0
52 48 6 54 4 47 -50 0
52 48 6 54 4 47 -49 0
52 48 19 54 22 47 -118 0
52 48 19 54 22 47 -115 0
52 48 19 54 22 47 -116 0
52 48 19 54 22 47 -117 0
67 36 63 32 66 37 -163 0
67 36 63 32 66 37 -164 0
67 36 63 32 66 37 -165 0
67 36 63 32 66 37 -166 0
67 40 63 41 66 39 -179 0
67 40 63 41 66 39 -177 0
67 40 63 41 66 39 -178 0
67 40 63 41 66 39 -180 0
67 59 63 60 66 58 -194 0
67 59 63 60 66 58 -193 0
67 59 63 60 66 58 -195 0
67 59 63 60 66 58 -196 0
67 30 63 26 66 29 -146 0
67 30 63 26 66 29 -148 0
67 30 63 26 66 29 -145 0
67 30 63 26 66 29 -147 0
67 9 63 14 66 8 -99 0
67 9 63 14 66 8 -97 0
67 9 63 14 66 8 -98 0
67 9 63 14 66 8 -100 0
67 5 63 6 66 4 -69 0
67 5 63 6 66 4 -64 0
67 5 63 6 66 4 -68 0
67 5 63 6 66 4 -70 0
67 15 63 19 66 22 -126 0
67 15 63 19 66 22 -125 0
67 15 63 19 66 22 -123 0
67 15 63 19 66 22 -124 0
67 48 63 54 66 47 -188 0
67 48 63 54 66 47 -189 0
67 48 63 54 66 47 -190 0
67 48 63 54 66 47 -187 0
36 40 32 41 37 39 -152 0
36 40 32 41 37 39 -151 0
36 40 32 41 37 39 -153 0
36 40 32 41 37 39 -154 0
36 59 32 60 37 58 -162 0
36 59 32 60 37 58 -160 0
36 59 32 60 37 58 -161 0
36 59 32 60 37 58 -159 0
36 30 32 26 37 29 -129 0
36 30 32 26 37 29 -132 0
36 30 32 26 37 29 -130 0
36 30 32 26 37 29 -131 0
36 9 32 14 37 8 -84 0
36 9 32 14 37 8 -83 0
36 9 32 14 37 8 -82 0
36 9 32 14 37 8 -81 0
36 5 32 6 37 4 -35 0
36 5 32 6 37 4 -33 0
36 5 32 6 37 4 -31 0
36 5 32 6 37 4 -38 0
36 15 32 19 37 22 -108 0
36 15 32 19 37 22 -110 0
36 15 32 19 37 22 -107 0
36 15 32 19 37 22 -109 0
36 48 32 54 37 47 -156 0
36 48 32 54 37 47 -158 0
36 48 32 54 37 47 -157 0
36 48 32 54 37 47 -155 0
40 59 41 60 39 58 -176 0
40 59 41 60 39 58 -174 0
40 59 41 60 39 58 -175 0
40 59 41 60 39 58 -173 0
40 30 41 26 39 29 -136 0
40 30 41 26 39 29 -134 0
40 30 41 26 39 29 -135 0
40 30 41 26 39 29 -133 0
40 9 41 14 39 8 -86 0
40 9 41 14 39 8 -88 0
40 9 41 14 39 8 -85 0
40 9 41 14 39 8 -87 0
40 5 41 6 39 4 -42 0
40 5 41 6 39 4 -44 0
40 5 41 6 39 4 -46 0
40 5 41 6 39 4 -43 0
40 15 41 19 39 22 -111 0
40 15 41 19 39 22 -112 0
40 15 41 19 39 22 -113 0
40 15 41 19 39 22 -114 0
40 48 41 54 39 47 -171 0
40 48 41 54 39 47 -172 0
40 48 41 54 39 47 -170 0
40 48 41 54 39 47 -169 0
59 30 60 26 58 29 -144 0
59 30 60 26 58 29 -142 0
59 30 60 26 58 29 -141 0
59 30 60 26 58 29 -143 0
59 9 60 14 58 8 -93 0
59 9 60 14 58 8 -94 0
59 9 60 14 58 8 -95 0
59 9 60 14 58 8 -96 0
59 5 60 6 58 4 -62 0
59 5 60 6 58 4 -55 0
59 5 60 6 58 4 -56 0
59 5 60 6 58 4 -61 0
59 15 60 19 58 22 -121 0
59 15 60 19 58 22 -119 0
59 15 60 19 58 22 -120 0
59 15 60 19 58 22 -122 0
59 48 60 54 58 47 -185 0
59 48 60 54 58 47 -186 0
59 48 60 54 58 47 -183 0
59 48 60 54 58 47 -184 0
30 9 26 14 29 8 -77 0
30 9 26 14 29 8 -78 0
30 9 26 14 29 8 -79 0
30 9 26 14 29 8 -80 0
30 5 26 6 29 4 -23 0
30 5 26 6 29 4 -25 0
30 5 26 6 29 4 -27 0
30 5 26 6 29 4 -24 0
30 15 26 19 29 22 -103 0
30 15 26 19 29 22 -105 0
30 15 26 19 29 22 -106 0
30 15 26 19 29 22 -104 0
30 48 26 54 29 47 -140 0
30 48 26 54 29 47 -139 0
30 48 26 54 29 47 -137 0
30 48 26 54 29 47 -138 0
9 5 14 6 8 4 -11 0
9 5 14 6 8 4 -12 0
9 5 14 6 8 4 -7 0
9 5 14 6 8 4 -10 0
9 15 14 19 8 22 -76 0
9 15 14 19 8 22 -74 0
9 15 14 19 8 22 -75 0
9 15 14 19 8 22 -73 0
9 48 14 54 8 47 -90 0
9 48 14 54 8 47 -92 0
9 48 14 54 8 47 -89 0
9 48 14 54 8 47 -91 0
5 15 6 19 4 22 -21 0
5 15 6 19 4 22 -17 0
5 15 6 19 4 22 -20 0
5 15 6 19 4 22 -16 0
5 48 6 54 4 47 -53 0
5 48 6 54 4 47 -51 0
5 48 6 54 4 47 -50 0
5 48 6 54 4 47 -49 0
15 48 19 54 22 47 -118 0
15 48 19 54 22 47 -115 0
15 48 19 54 22 47 -116 0
15 48 19 54 22 47 -117 0
65 34 67 36 63 32 66 -163 0
65 34 67 36 63 32 66 -164 0
65 34 67 36 63 32 66 -165 0
65 34 67 36 63 32 66 -166 0
65 34 67 36 63 32 37 -163 0
65 34 67 36 63 32 37 -164 0
65 34 67 36 63 32 37 -165 0
65 34 67 36 63 32 37 -166 0
65 34 67 36 63 66 37 -163 0
65 34 67 36 63 66 37 -164 0
65 34 67 36 63 66 37 -165 0
65 34 67 36 63 66 37 -166 0
65 34 67 36 32 66 37 -163 0
65 34 67 36 32 66 37 -164 0
65 34 67 36 32 66 37 -165 0
65 34 67 36 32 66 37 -166 0
65 34 67 63 32 66 37 -163 0
65 34 67 63 32 66 37 -164 0
65 34 67 63 32 66 37 -165 0
65 34 67 63 32 66 37 -166 0
65 34 36 63 32 66 37 -163 0
65 34 36 63 32 66 37 -164 0
65 34 36 63 32 66 37 -165 0
65 34 36 63 32 66 37 -166 0
65 45 67 40 63 41 66 -179 0
65 45 67 40 63 41 66 -177 0
65 45 67 40 63 41 66 -178 0
65 45 67 40 63 41 66 -180 0
65 45 67 40 63 41 39 -179 0
65 45 67 40 63 41 39 -177 0
65 45 67 40 63 41 39 -178 0
65 45 67 40 63 41 39 -180 0
65 45 67 40 63 66 39 -179 0
65 45 67 40 63 66 39 -177 0
65 45 67 40 63 66 39 -178 0
65 45 67 40 63 66 39 -180 0
65 45 67 40 41 66 39 -179 0
65 45 67 40 41 66 39 -177 0
65 45 67 40 41 66 39 -178 0
65 45 67 40 41 66 39 -180 0
65 45 67 63 41 66 39 -179 0
65 45 67 63 41 66 39 -177 0
65 45 67 63 41 66 39 -178 0
65 45 67 63 41 66 39 -180 0
65 45 40 63 41 66 39 -179 0
65 45 40 63 41 66 39 -177 0
65 45 40 63 41 66 39 -178 0
65 45 40 63 41 66 39 -180 0
65 57 67 59 63 60 66 -194 0
65 57 67 59 63 60 66 -193 0
65 57 67 59 63 60 66 -195 0
65 57 67 59 63 60 66 -196 0
65 57 67 59 63 60 58 -194 0
65 57 67 59 63 60 58 -193 0
65 57 67 59 63 60 58 -195 0
65 57 67 59 63 60 58 -196 0
65 57 67 59 63 66 58 -194 0
65 57 67 59 63 66 58 -193 0
65 57 67 59 63 66 58 -195 0
65 57 67 59 63 66 58 -196 0
65 57 67 59 60 66 58 -194 0
65 57 67 59 60 66 58 -193 0
65 57 67 59 60 66 58 -195 0
65 57 67 59 60 66 58 -196 0
65 57 67 63 60 66 58 -194 0
65 57 67 63 60 66 58 -193 0
65 57 67 63 60 66 58 -195 0
65 57 67 63 60 66 58 -196 0
65 57 59 63 60 66 58 -194 0
65 57 59 63 60 66 58 -193 0
65 57 59 63 60 66 58 -195 0
65 57 59 63 60 66 58 -196 0
65 28 67 30 63 26 66 -146 0
65 28 67 30 63 26 66 -148 0
65 28 67 30 63 26 66 -145 0
65 28 67 30 63 26 66 -147 0
65 28 67 30 63 26 29 -146 0
65 28 67 30 63 26 29 -148 0
65 28 67 30 63 26 29 -145 0
65 28 67 30 63 26 29 -147 0
65 28 67 30 63 66 29 -146 0
65 28 67 30 63 66 29 -148 0
65 28 67 30 63 66 29 -145 0
65 28 67 30 63 66 29 -147 0
65 28 67 30 26 66 29 -146 0
65 28 67 30 26 66 29 -148 0
65 28 67 30 26 66 29 -145 0
65 28 67 30 26 66 29 -147 0
65 28 67 63 26 66 29 -146 0
65 28 67 63 26 66 29 -148 0
65 28 67 63 26 66 29 -145 0
65 28 67 63 26 66 29 -147 0
65 28 30 63 26 66 29 -146 0
65 28 30 63 26 66 29 -148 0
65 28 30 63 26 66 29 -145 0
65 28 30 63 26 66 29 -147 0
65 13 67 9 63 14 66 -99 0
65 13 67 9 63 14 66 -97 0
65 13 67 9 63 14 66 -98 0
65 13 67 9 63 14 66 -100 0
65 13 67 9 63 14 8 -99 0
65 13 67 9 63 14 8 -97 0
65 13 67 9 63 14 8 -98 0
65 13 67 9 63 14 8 -100 0
65 13 67 9 63 66 8 -99 0
65 13 67 9 63 66 8 -97 0
65 13 67 9 63 66 8 -98 0
65 13 67 9 63 66 8 -100 0
65 13 67 9 14 66 8 -99 0
65 13 67 9 14 66 8 -97 0
65 13 67 9 14 66 8 -98 0
65 13 67 9 14 66 8 -100 0
65 13 67 63 14 66 8 -99 0
65 13 67 63 14 66 8 -97 0
65 13 67 63 14 66 8 -98 0
65 13 67 63 14 66 8 -100 0
65 13 9 63 14 66 8 -99 0
65 13 9 63 14 66 8 -97 0
65 13 9 63 14 66 8 -98 0
65 13 9 63 14 66 8 -100 0
65 2 67 5 63 6 66 -69 0
65 2 67 5 63 6 66 -64 0
65 2 67 5 63 6 66 -68 0
65 2 67 5 63 6 66 -70 0
65 2 67 5 63 6 4 -69 0
65 2 67 5 63 6 4 -64 0
65 2 67 5 63 6 4 -68 0
65 2 67 5 63 6 4 -70 0
65 2 67 5 63 66 4 -69 0
65 2 67 5 63 66 4 -64 0
65 2 67 5 63 66 4 -68 0
65 2 67 5 63 66 4 -70 0
65 2 67 5 6 66 4 -69 0
65 2 67 5 6 66 4 -64 0
65 2 67 5 6 66 4 -68 0
65 2 67 5 6 66 4 -70 0
65 2 67 63 6 66 4 -69 0
65 2 67 63 6 66 4 -64 0
65 2 67 63 6 66 4 -68 0
65 2 67 63 6 66 4 -70 0
65 2 5 63 6 66 4 -69 0
65 2 5 63 6 66 4 -64 0
65 2 5 63 6 66 4 -68 0
65 2 5 63 6 66 4 -70 0
65 18 67 15 63 19 66 -126 0
65 18 67 15 63 19 66 -125 0
65 18 67 15 63 19 66 -123 0
65 18 67 15 63 19 66 -124 0
65 18 67 15 63 19 22 -126 0
65 18 67 15 63 19 22 -125 0
65 18 67 15 63 19 22 -123 0
65 18 67 15 63 19 22 -124 0
65 18 67 15 63 66 22 -126 0
65 18 67 15 63 66 22 -125 0
65 18 67 15 63 66 22 -123 0
65 18 67 15 63 66 22 -124 0
65 18 67 15 19 66 22 -126 0
65 18 67 15 19 66 22 -125 0
65 18 67 15 19 66 22 -123 0
65 18 67 15 19 66 22 -124 0
65 18 67 63 19 66 22 -126 0
65 18 67 63 19 66 22 -125 0
65 18 67 63 19 66 22 -123 0
65 18 67 63 19 66 22 -124 0
65 18 15 63 19 66 22 -126 0
65 18 15 63 19 66 22 -125 0
65 18 15 63 19 66 22 -123 0
65 18 15 63 19 66 22 -124 0
65 52 67 48 63 54 66 -188 0
65 52 67 48 63 54 66 -189 0
65 52 67 48 63 54 66 -190 0
65 52 67 48 63 54 66 -187 0
65 52 67 48 63 54 47 -188 0
65 52 67 48 63 54 47 -189 0
65 52 67 48 63 54 47 -190 0
65 52 67 48 63 54 47 -187 0
65 52 67 48 63 66 47 -188 0
65 52 67 48 63 66 47 -189 0
65 52 67 48 63 66 47 -190 0
65 52 67 48 63 66 47 -187 0
65 52 67 48 54 66 47 -188 0
65 52 67 48 54 66 47 -189 0
65 52 67 48 54 66 47 -190 0
65 52 67 48 54 66 47 -187 0
65 52 67 63 54 66 47 -188 0
65 52 67 63 54 66 47 -189 0
65 52 67 63 54 66 47 -190 0
65 52 67 63 54 66 47 -187 0
65 52 48 63 54 66 47 -188 0
65 52 48 63 54 66 47 -189 0
65 52 48 63 54 66 47 -190 0
65 52 48 63 54 66 47 -187 0
65 67 36 63 32 66 37 -163 0
65 67 36 63 32 66 37 -164 0
65 67 36 63 32 66 37 -165 0
65 67 36 63 32 66 37 -166 0
65 67 40 63 41 66 39 -179 0
65 67 40 63 41 66 39 -177 0
65 67 40 63 41 66 39 -178 0
65 67 40 63 41 66 39 -180 0
65 67 59 63 60 66 58 -194 0
65 67 59 63 60 66 58 -193 0
65 67 59 63 60 66 58 -195 0
65 67 59 63 60 66 58 -196 0
65 67 30 63 26 66 29 -146 0
65 67 30 63 26 66 29 -148 0
65 67 30 63 26 66 29 -145 0
65 67 30 63 26 66 29 -147 0
65 67 9 63 14 66 8 -99 0
65 67 9 63 14 66 8 -97 0
65 67 9 63 14 66 8 -98 0
65 67 9 63 14 66 8 -100 0
65 67 5 63 6 66 4 -69 0
65 67 5 63 6 66 4 -64 0
65 67 5 63 6 66 4 -68 0
65 67 5 63 6 66 4 -70 0
65 67 15 63 19 66 22 -126 0
65 67 15 63 19 66 22 -125 0
65 67 15 63 19 66 22 -123 0
65 67 15 63 19 66 22 -124 0
65 67 48 63 54 66 47 -188 0
65 67 48 63 54 66 47 -189 0
65 67 48 63 54 66 47 -190 0
65 67 48 63 54 66 47 -187 0
34 45 36 40 32 41 37 -152 0
34 45 36 40 32 41 37 -151 0
34 45 36 40 32 41 37 -153 0
34 45 36 40 32 41 37 -154 0
34 45 36 40 32 41 39 -152 0
34 45 36 40 32 41 39 -151 0
34 45 36 40 32 41 39 -153 0
34 45 36 40 32 41 39 -154 0
34 45 36 40 32 37 39 -152 0
34 45 36 40 32 37 39 -151 0
34 45 36 40 32 37 39 -153 0
34 45 36 40 32 37 39 -154 0
34 45 36 40 41 37 39 -152 0
34 45 36 40 41 37 39 -151 0
34 45 36 40 41 37 39 -153 0
34 45 36 40 41 37 39 -154 0
34 45 36 32 41 37 39 -152 0
34 45 36 32 41 37 39 -151 0
34 45 36 32 41 37 39 -153 0
34 45 36 32 41 37 39 -154 0
34 45 40 32 41 37 39 -152 0
34 45 40 32 41 37 39 -151 0
34 45 40 32 41 37 39 -153 0
34 45 40 32 41 37 39 -154 0
34 57 36 59 32 60 37 -162 0
34 57 36 59 32 60 37 -160 0
34 57 36 59 32 60 37 -161 0
34 57 36 59 32 60 37 -159 0
34 57 36 59 32 60 58 -162 0
34 57 36 59 32 60 58 -160 0
34 57 36 59 32 60 58 -161 0
34 57 36 59 32 60 58 -159 0
34 57 36 59 32 37 58 -162 0
34 57 36 59 32 37 58 -160 0
34 57 36 59 32 37 58 -161 0
34 57 36 59 32 37 58 -159 0
34 57 36 59 60 37 58 -162 0
34 57 36 59 60 37 58 -160 0
34 57 36 59 60 37 58 -161 0
34 57 36 59 60 37 58 -159 0
34 57 36 32 60 37 58 -162 0
34 57 36 32 60 37 58 -160 0
34 57 36 32 60 37 58 -161 0
34 57 36 32 60 37 58 -159 0
34 57 59 32 60 37 58 -162 0
34 57 59 32 60 37 58 -160 0
34 57 59 32 60 37 58 -161 0
34 57 59 32 60 37 58 -159 0
34 28 36 30 32 26 37 -129 0
34 28 36 30 32 26 37 -132 0
34 28 36 30 32 26 37 -130 0
34 28 36 30 32 26 37 -131 0
34 28 36 30 32 26 29 -129 0
34 28 36 30 32 26 29 -132 0
34 28 36 30 32 26 29 -130 0
34 28 36 30 32 26 29 -131 0
34 28 36 30 32 37 29 -129 0
34 28 36 30 32 37 29 -132 0
34 28 36 30 32 37 29 -130 0
34 28 36 30 32 37 29 -131 0
34 28 36 30 26 37 29 -129 0
34 28 36 30 26 37 29 -132 0
34 28 36 30 26 37 29 -130 0
34 28 36 30 26 37 29 -131 0
34 28 36 32 26 37 29 -129 0
34 28 36 32 26 37 29 -132 0
34 28 36 32 26 37 29 -130 0
34 28 36 32 26 37 29 -131 0
34 28 30 32 26 37 29 -129 0
34 28 30 32 26 37 29 -132 0
34 28 30 32 26 37 29 -130 0
34 28 30 32 26 37 29 -131 0
34 13 36 9 32 14 37 -84 0
34 13 36 9 32 14 37 -83 0
34 13 36 9 32 14 37 -82 0
34 13 36 9 32 14 37 -81 0
34 13 36 9 32 14 8 -84 0
34 13 36 9 32 14 8 -83 0
34 13 36 9 32 14 8 -82 0
34 13 36 9 32 14 8 -81 0
34 13 36 9 32 37 8 -84 0
34 13 36 9 32 37 8 -83 0
34 13 36 9 32 37 8 -82 0
34 13 36 9 32 37 8 -81 0
34 13 36 9 14 37 8 -84 0
34 13 36 9 14 37 8 -83 0
34 13 36 9 14 37 8 -82 0
34 13 36 9 14 37 8 -81 0
34 13 36 32 14 37 8 -84 0
34 13 36 32 14 37 8 -83 0
34 13 36 32 14 37 8 -82 0
34 13 36 32 14 37 8 -81 0
34 13 9 32 14 37 8 -84 0
34 13 9 32 14 37 8 -83 0
34 13 9 32 14 37 8 -82 0
34 13 9 32 14 37 8 -81 0
34 2 36 5 32 6 37 -35 0
34 2 36 5 32 6 37 -33 0
34 2 36 5 32 6 37 -31 0
34 2 36 5 32 6 37 -38 0
34 2 36 5 32 6 4 -35 0
34 2 36 5 32 6 4 -33 0
34 2 36 5 32 6 4 -31 0
34 2 36 5 32 6 4 -38 0
34 2 36 5 32 37 4 -35 0
34 2 36 5 32 37 4 -33 0
34 2 36 5 32 37 4 -31 0
34 2 36 5 32 37 4 -38 0
34 2 36 5 6 37 4 -35 0
34 2 36 5 6 37 4 -33 0
34 2 36 5 6 37 4 -31 0
34 2 36 5 6 37 4 -38 0
34 2 36 32 6 37 4 -35 0
34 2 36 32 6 37 4 -33 0
34 2 36 32 6 37 4 -31 0
34 2 36 32 6 37 4 -38 0
34 2 5 32 6 37 4 -35 0
34 2 5 32 6 37 4 -33 0
34 2 5 32 6 37 4 -31 0
34 2 5 32 6 37 4 -38 0
34 18 36 15 32 19 37 -108 0
34 18 36 15 32 19 37 -110 0
34 18 36 15 32 19 37 -107 0
34 18 36 15 32 19 37 -109 0
34 18 36 15 32 19 22 -108 0
34 18 36 15 32 19 22 -110 0
34 18 36 15 32 19 22 -107 0
34 18 36 15 32 19 22 -109 0
34 18 36 15 32 37 22 -108 0
34 18 36 15 32 37 22 -110 0
34 18 36 15 32 37 22 -107 0
34 18 36 15 32 37 22 -109 0
34 18 36 15 19 37 22 -108 0
34 18 36 15 19 37 22 -110 0
34 18 36 15 19 37 22 -107 0
34 18 36 15 19 37 22 -109 0
34 18 36 32 19 37 22 -108 0
34 18 36 32 19 37 22 -110 0
34 18 36 32 19 37 22 -107 0
34 18 36 32 19 37 22 -109 0
34 18 15 32 19 37 22 -108 0
34 18 15 32 19 37 22 -110 0
34 18 15 32 19 37 22 -107 0
34 18 15 32 19 37 22 -109 0
34 52 36 48 32 54 37 -156 0
34 52 36 48 32 54 37 -158 0
34 52 36 48 32 54 37 -157 0
34 52 36 48 32 54 37 -155 0
34 52 36 48 32 54 47 -156 0
34 52 36 48 32 54 47 -158 0
34 52 36 48 32 54 47 -157 0
34 52 36 48 32 54 47 -155 0
34 52 36 48 32 37 47 -156 0
34 52 36 48 32 37 47 -158 0
34 52 36 48 32 37 47 -157 0
34 52 36 48 32 37 47 -155 0
34 52 36 48 54 37 47 -156 0
34 52 36 48 54 37 47 -158 0
34 52 36 48 54 37 47 -157 0
34 52 36 48 54 37 47 -155 0
34 52 36 32 54 37 47 -156 0
34 52 36 32 54 37 47 -158 0
34 52 36 32 54 37 47 -157 0
34 52 36 32 54 37 47 -155 0
34 52 48 32 54 37 47 -156 0
34 52 48 32 54 37 47 -158 0
34 52 48 32 54 37 47 -157 0
34 52 48 32 54 37 47 -155 0
34 67 36 63 32 66 37 -163 0
34 67 36 63 32 66 37 -164 0
34 67 36 63 32 66 37 -165 0
34 67 36 63 32 66 37 -166 0
34 36 40 32 41 37 39 -152 0
34 36 40 32 41 37 39 -151 0
34 36 40 32 41 37 39 -153 0
34 36 40 32 41 37 39 -154 0
34 36 59 32 60 37 58 -162 0
34 36 59 32 60 37 58 -160 0
34 36 59 32 60 37 58 -161 0
34 36 59 32 60 37 58 -159 0
34 36 30 32 26 37 29 -129 0
34 36 30 32 26 37 29 -132 0
34 36 30 32 26 37 29 -130 0
34 36 30 32 26 37 29 -131 0
34 36 9 32 14 37 8 -84 0
34 36 9 32 14 37 8 -83 0
34 36 9 32 14 37 8 -82 0
34 36 9 32 14 37 8 -81 0
34 36 5 32 6 37 4 -35 0
34 36 5 32 6 37 4 -33 0
34 36 5 32 6 37 4 -31 0
34 36 5 32 6 37 4 -38 0
34 36 15 32 19 37 22 -108 0
34 36 15 32 19 37 22 -110 0
34 36 15 32 19 37 22 -107 0
34 36 15 32 19 37 22 -109 0
34 36 48 32 54 37 47 -156 0
34 36 48 32 54 37 47 -158 0
34 36 48 32 54 37 47 -157 0
34 36 48 32 54 37 47 -155 0
45 57 40 59 41 60 39 -176 0
45 57 40 59 41 60 39 -174 0
45 57 40 59 41 60 39 -175 0
45 57 40 59 41 60 39 -173 0
45 57 40 59 41 60 58 -176 0
45 57 40 59 41 60 58 -174 0
45 57 40 59 41 60 58 -175 0
45 57 40 59 41 60 58 -173 0
45 57 40 59 41 39 58 -176 0
45 57 40 59 41 39 58 -174 0
45 57 40 59 41 39 58 -175 0
45 57 40 59 41 39 58 -173 0
45 57 40 59 60 39 58 -176 0
45 57 40 59 60 39 58 -174 0
45 57 40 59 60 39 58 -175 0
45 57 40 59 60 39 58 -173 0
45 57 40 41 60 39 58 -176 0
45 57 40 41 60 39 58 -174 0
45 57 40 41 60 39 58 -175 0
45 57 40 41 60 39 58 -173 0
45 57 59 41 60 39 58 -176 0
45 57 59 41 60 39 58 -174 0
45 57 59 41 60 39 58 -175 0
45 57 59 41 60 39 58 -173 0
45 28 40 30 41 26 39 -136 0
45 28 40 30 41 26 39 -134 0
45 28 40 30 41 26 39 -135 0
45 28 40 30 41 26 39 -133 0
45 28 40 30 41 26 29 -136 0
45 28 40 30 41 26 29 -134 0
45 28 40 30 41 26 29 -135 0
45 28 40 30 41 26 29 -133 0
45 28 40 30 41 39 29 -136 0
45 28 40 30 41 39 29 -134 0
45 28 40 30 41 39 29 -135 0
45 28 40 30 41 39 29 -133 0
45 28 40 30 26 39 29 -136 0
45 28 40 30 26 39 29 -134 0
45 28 40 30 26 39 29 -135 0
45 28 40 30 26 39 29 -133 0
45 28 40 41 26 39 29 -136 0
45 28 40 41 26 39 29 -134 0
45 28 40 41 26 39 29 -135 0
45 28 40 41 26 39 29 -133 0
45 28 30 41 26 39 29 -136 0
45 28 30 41 26 39 29 -134 0
45 28 30 41 26 39 29 -135 0
45 28 30 41 26 39 29 -133 0
45 13 40 9 41 14 39 -86 0
45 13 40 9 41 14 39 -88 0
45 13 40 9 41 14 39 -85 0
45 13 40 9 41 14 39 -87 0
45 13 40 9 41 14 8 -86 0
45 13 40 9 41 14 8 -88 0
45 13 40 9 41 14 8 -85 0
45 13 40 9 41 14 8 -87 0
45 13 40 9 41 39 8 -86 0
45 13 40 9 41 39 8 -88 0
45 13 40 9 41 39 8 -85 0
45 13 40 9 41 39 8 -87 0
45 13 40 9 14 39 8 -86 0
45 13 40 9 14 39 8 -88 0
45 13 40 9 14 39 8 -85 0
45 13 40 9 14 39 8 -87 0
45 13 40 41 14 39 8 -86 0
45 13 40 41 14 39 8 -88 0
45 13 40 41 14 39 8 -85 0
45 13 40 41 14 39 8 -87 0
45 13 9 41 14 39 8 -86 0
45 13 9 41 14 39 8 -88 0
45 13 9 41 14 39 8 -85 0
45 13 9 41 14 39 8 -87 0
45 2 40 5 41 6 39 -42 0
45 2 40 5 41 6 39 -44 0
45 2 40 5 41 6 39 -46 0
45 2 40 5 41 6 39 -43 0
45 2 40 5 41 6 4 -42 0
45 2 40 5 41 6 4 -44 0
45 2 40 5 41 6 4 -46 0
45 2 40 5 41 6 4 -43 0
45 2 40 5 41 39 4 -42 0
45 2 40 5 41 39 4 -44 0
45 2 40 5 41 39 4 -46 0
45 2 40 5 41 39 4 -43 0
45 2 40 5 6 39 4 -42 0
45 2 40 5 6 39 4 -44 0
45 2 40 5 6 39 4 -46 0
45 2 40 5 6 39 4 -43 0
45 2 40 41 6 39 4 -42 0
45 2 40 41 6 39 4 -44 0
45 2 40 41 6 39 4 -46 0
45 2 40 41 6 39 4 -43 0
45 2 5 41 6 39 4 -42 0
45 2 5 41 6 39 4 -44 0
45 2 5 41 6 39 4 -46 0
45 2 5 41 6 39 4 -43 0
45 18 40 15 41 19 39 -111 0
45 18 40 15 41 19 39 -112 0
45 18 40 15 41 19 39 -113 0
45 18 40 15 41 19 39 -114 0
45 18 40 15 41 19 22 -111 0
45 18 40 15 41 19 22 -112 0
45 18 40 15 41 19 22 -113 0
45 18 40 15 41 19 22 -114 0
45 18 40 15 41 39 22 -111 0
45 18 40 15 41 39 22 -112 0
45 18 40 15 41 39 22 -113 0
45 18 40 15 41 39 22 -114 0
45 18 40 15 19 39 22 -111 0
45 18 40 15 19 39 22 -112 0
45 18 40 15 19 39 22 -113 0
45 18 40 15 19 39 22 -114 0
45 18 40 41 19 39 22 -111 0
45 18 40 41 19 39 22 -112 0
45 18 40 41 19 39 22 -113 0
45 18 40 41 19 39 22 -114 0
45 18 15 41 19 39 22 -111 0
45 18 15 41 19 39 22 -112 0
45 18 15 41 19 39 22 -113 0
45 18 15 41 19 39 22 -114 0
45 52 40 48 41 54 39 -171 0
45 52 40 48 41 54 39 -172 0
45 52 40 48 41 54 39 -170 0
45 52 40 48 41 54 39 -169 0
45 52 40 48 41 54 47 -171 0
45 52 40 48 41 54 47 -172 0
45 52 40 48 41 54 47 -170 0
45 52 40 48 41 54 47 -169 0
45 52 40 48 41 39 47 -171 0
45 52 40 48 41 39 47 -172 0
45 52 40 48 41 39 47 -170 0
45 52 40 48 41 39 47 -169 0
45 52 40 48 54 39 47 -171 0
45 52 40 48 54 39 47 -172 0
45 52 40 48 54 39 47 -170 0
45 52 40 48 54 39 47 -169 0
45 52 40 41 54 39 47 -171 0
45 52 40 41 54 39 47 -172 0
45 52 40 41 54 39 47 -170 0
45 52 40 41 54 39 47 -169 0
45 52 48 41 54 39 47 -171 0
45 52 48 41 54 39 47 -172 0
45 52 48 41 54 39 47 -170 0
45 52 48 41 54 39 47 -169 0
45 67 40 63 41 66 39 -179 0
45 67 40 63 41 66 39 -177 0
45 67 40 63 41 66 39 -178 0
45 67 40 63 41 66 39 -180 0
45 36 40 32 41 37 39 -152 0
45 36 40 32 41 37 39 -151 0
45 36 40 32 41 37 39 -153 0
45 36 40 32 41 37 39 -154 0
45 40 59 41 60 39 58 -176 0
45 40 59 41 60 39 58 -174 0
45 40 59 41 60 39 58 -175 0
45 40 59 41 60 39 58 -173 0
45 40 30 41 26 39 29 -136 0
45 40 30 41 26 39 29 -134 0
45 40 30 41 26 39 29 -135 0
45 40 30 41 26 39 29 -133 0
45 40 9 41 14 39 8 -86 0
45 40 9 41 14 39 8 -88 0
45 40 9 41 14 39 8 -85 0
45 40 9 41 14 39 8 -87 0
45 40 5 41 6 39 4 -42 0
45 40 5 41 6 39 4 -44 0
45 40 5 41 6 39 4 -46 0
45 40 5 41 6 39 4 -43 0
45 40 15 41 19 39 22 -111 0
45 40 15 41 19 39 22 -112 0
45 40 15 41 19 39 22 -113 0
45 40 15 41 19 39 22 -114 0
45 40 48 41 54 39 47 -171 0
45 40 48 41 54 39 47 -172 0
45 40 48 41 54 39 47 -170 0
45 40 48 41 54 39 47 -169 0
57 28 59 30 60 26 58 -144 0
57 28 59 30 60 26 58 -142 0
57 28 59 30 60 26 58 -141 0
57 28 59 30 60 26 58 -143 0
57 28 59 30 60 26 29 -144 0
57 28 59 30 60 26 29 -142 0
57 28 59 30 60 26 29 -141 0
57 28 59 30 60 26 29 -143 0
57 28 59 30 60 58 29 -144 0
57 28 59 30 60 58 29 -142 0
57 28 59 30 60 58 29 -141 0
57 28 59 30 60 58 29 -143 0
57 28 59 30 26 58 29 -144 0
57 28 59 30 26 58 29 -142 0
57 28 59 30 26 58 29 -141 0
57 28 59 30 26 58 29 -143 0
57 28 59 60 26 58 29 -144 0
57 28 59 60 26 58 29 -142 0
57 28 59 60 26 58 29 -141 0
57 28 59 60 26 58 29 -143 0
57 28 30 60 26 58 29 -144 0
57 28 30 60 26 58 29 -142 0
57 28 30 60 26 58 29 -141 0
57 28 30 60 26 58 29 -143 0
57 13 59 9 60 14 58 -93 0
57 13 59 9 60 14 58 -94 0
57 13 59 9 60 14 58 -95 0
57 13 59 9 60 14 58 -96 0
57 13 59 9 60 14 8 -93 0
57 13 59 9 60 14 8 -94 0
57 13 59 9 60 14 8 -95 0
57 13 59 9 60 14 8 -96 0
57 13 59 9 60 58 8 -93 0
57 13 59 9 60 58 8 -94 0
57 13 59 9 60 58 8 -95 0
57 13 59 9 60 58 8 -96 0
57 13 59 9 14 58 8 -93 0
57 13 59 9 14 58 8 -94 0
57 13 59 9 14 58 8 -95 0
57 13 59 9 14 58 8 -96 0
57 13 59 60 14 58 8 -93 0
57 13 59 60 14 58 8 -94 0
57 13 59 60 14 58 8 -95 0
57 13 59 60 14 58 8 -96 0
57 13 9 60 14 58 8 -93 0
57 13 9 60 14 58 8 -94 0
57 13 9 60 14 58 8 -95 0
57 13 9 60 14 58 8 -96 0
57 2 59 5 60 6 58 -62 0
57 2 59 5 60 6 58 -55 0
57 2 59 5 60 6 58 -56 0
57 2 59 5 60 6 58 -61 0
57 2 59 5 60 6 4 -62 0
57 2 59 5 60 6 4 -55 0
57 2 59 5 60 6 4 -56 0
57 2 59 5 60 6 4 -61 0
57 2 59 5 60 58 4 -62 0
57 2 59 5 60 58 4 -55 0
57 2 59 5 60 58 4 -56 0
57 2 59 5 60 58 4 -61 0
57 2 59 5 6 58 4 -62 0
57 2 59 5 6 58 4 -55 0
57 2 59 5 6 58 4 -56 0
57 2 59 5 6 58 4 -61 0
57 2 59 60 6 58 4 -62 0
57 2 59 60 6 58 4 -55 0
57 2 59 60 6 58 4 -56 0
57 2 59 60 6 58 4 -61 0
57 2 5 60 6 58 4 -62 0
57 2 5 60 6 58 4 -55 0
57 2 5 60 6 58 4 -56 0
57 2 5 60 6 58 4 -61 0
57 18 59 15 60 19 58 -121 0
57 18 59 15 60 19 58 -119 0
57 18 59 15 60 19 58 -120 0
57 18 59 15 60 19 58 -122 0
57 18 59 15 60 19 22 -121 0
57 18 59 15 60 19 22 -119 0
57 18 59 15 60 19 22 -120 0
57 18 59 15 60 19 22 -122 0
57 18 59 15 60 58 22 -121 0
57 18 59 15 60 58 22 -119 0
57 18 59 15 60 58 22 -120 0
57 18 59 15 60 58 22 -122 0
57 18 59 15 19 58 22 -121 0
57 18 59 15 19 58 22 -119 0
57 18 59 15 19 58 22 -120 0
57 18 59 15 19 58 22 -122 0
57 18 59 60 19 58 22 -121 0
57 18 59 60 19 58 22 -119 0
57 18 59 60 19 58 22 -120 0
57 18 59 60 19 58 22 -122 0
57 18 15 60 19 58 22 -121 0
57 18 15 60 19 58 22 -119 0
57 18 15 60 19 58 22 -120 0
57 18 15 60 19 58 22 -122 0
57 52 59 48 60 54 58 -185 0
57 52 59 48 60 54 58 -186 0
57 52 59 48 60 54 58 -183 0
57 52 59 48 60 54 58 -184 0
57 52 59 48 60 54 47 -185 0
57 52 59 48 60 54 47 -186 0
57 52 59 48 60 54 47 -183 0
57 52 59 48 60 54 47 -184 0
57 52 59 48 60 58 47 -185 0
57 52 59 48 60 58 47 -186 0
57 52 59 48 60 58 47 -183 0
57 52 59 48 60 58 47 -184 0
57 52 59 48 54 58 47 -185 0
57 52 59 48 54 58 47 -186 0
57 52 59 48 54 58 47 -183 0
57 52 59 48 54 58 47 -184 0
57 52 59 60 54 58 47 -185 0
57 52 59 60 54 58 47 -186 0
57 52 59 60 54 58 47 -183 0
57 52 59 60 54 58 47 -184 0
57 52 48 60 54 58 47 -185 0
57 52 48 60 54 58 47 -186 0
57 52 48 60 54 58 47 -183 0
57 52 48 60 54 58 47 -184 0
57 67 59 63 60 66 58 -194 0
57 67 59 63 60 66 58 -193 0
57 67 59 63 60 66 58 -195 0
57 67 59 63 60 66 58 -196 0
57 36 59 32 60 37 58 -162 0
57 36 59 32 60 37 58 -160 0
57 36 59 32 60 37 58 -161 0
57 36 59 32 60 37 58 -159 0
57 40 59 41 60 39 58 -176 0
57 40 59 41 60 39 58 -174 0
57 40 59 41 60 39 58 -175 0
57 40 59 41 60 39 58 -173 0
57 59 30 60 26 58 29 -144 0
57 59 30 60 26 58 29 -142 0
57 59 30 60 26 58 29 -141 0
57 59 30 60 26 58 29 -143 0
57 59 9 60 14 58 8 -93 0
57 59 9 60 14 58 8 -94 0
57 59 9 60 14 58 8 -95 0
57 59 9 60 14 58 8 -96 0
57 59 5 60 6 58 4 -62 0
57 59 5 60 6 58 4 -55 0
57 59 5 60 6 58 4 -56 0
57 59 5 60 6 58 4 -61 0
57 59 15 60 19 58 22 -121 0
57 59 15 60 19 58 22 -119 0
57 59 15 60 19 58 22 -120 0
57 59 15 60 19 58 22 -122 0
57 59 48 60 54 58 47 -185 0
57 59 48 60 54 58 47 -186 0
57 59 48 60 54 58 47 -183 0
57 59 48 60 54 58 47 -184 0
28 13 30 9 26 14 29 -77 0
28 13 30 9 26 14 29 -78 0
28 13 30 9 26 14 29 -79 0
28 13 30 9 26 14 29 -80 0
28 13 30 9 26 14 8 -77 0
28 13 30 9 26 14 8 -78 0
28 13 30 9 26 14 8 -79 0
28 13 30 9 26 14 8 -80 0
28 13 30 9 26 29 8 -77 0
28 13 30 9 26 29 8 -78 0
28 13 30 9 26 29 8 -79 0
28 13 30 9 26 29 8 -80 0
28 13 30 9 14 29 8 -77 0
28 13 30 9 14 29 8 -78 0
28 13 30 9 14 29 8 -79 0
28 13 30 9 14 29 8 -80 0
28 13 30 26 14 29 8 -77 0
28 13 30 26 14 29 8 -78 0
28 13 30 26 14 29 8 -79 0
28 13 30 26 14 29 8 -80 0
28 13 9 26 14 29 8 -77 0
28 13 9 26 14 29 8 -78 0
28 13 9 26 14 29 8 -79 0
28 13 9 26 14 29 8 -80 0
28 2 30 5 26 6 29 -23 0
28 2 30 5 26 6 29 -25 0
28 2 30 5 26 6 29 -27 0
28 2 30 5 26 6 29 -24 0
28 2 30 5 26 6 4 -23 0
28 2 30 5 26 6 4 -25 0
28 2 30 5 26 6 4 -27 0
28 2 30 5 26 6 4 -24 0
28 2 30 5 26 29 4 -23 0
28 2 30 5 26 29 4 -25 0
28 2 30 5 26 29 4 -27 0
28 2 30 5 26 29 4 -24 0
28 2 30 5 6 29 4 -23 0
28 2 30 5 6 29 4 -25 0
28 2 30 5 6 29 4 -27 0
28 2 30 5 6 29 4 -24 0
28 2 30 26 6 29 4 -23 0
28 2 30 26 6 29 4 -25 0
28 2 30 26 6 29 4 -27 0
28 2 30 26 6 29 4 -24 0
28 2 5 26 6 29 4 -23 0
28 2 5 26 6 29 4 -25 0
28 2 5 26 6 29 4 -27 0
28 2 5 26 6 29 4 -24 0
28 18 30 15 26 19 29 -103 0
28 18 30 15 26 19 29 -105 0
28 18 30 15 26 19 29 -106 0
28 18 30 15 26 19 29 -104 0
28 18 30 15 26 19 22 -103 0
28 18 30 15 26 19 22 -105 0
28 18 30 15 26 19 22 -106 0
28 18 30 15 26 19 22 -104 0
28 18 30 15 26 29 22 -103 0
28 18 30 15 26 29 22 -105 0
28 18 30 15 26 29 22 -106 0
28 18 30 15 26 29 22 -104 0
28 18 30 15 19 29 22 -103 0
28 18 30 15 19 29 22 -105 0
28 18 30 15 19 29 22 -106 0
28 18 30 15 19 29 22 -104 0
28 18 30 26 19 29 22 -103 0
28 18 30 26 19 29 22 -105 0
28 18 30 26 19 29 22 -106 0
28 18 30 26 19 29 22 -104 0
28 18 15 26 19 29 22 -103 0
28 18 15 26 19 29 22 -105 0
28 18 15 26 19 29 22 -106 0
28 18 15 26 19 29 22 -104 0
28 52 30 48 26 54 29 -140 0
28 52 30 48 26 54 29 -139 0
28 52 30 48 26 54 29 -137 0
28 52 30 48 26 54 29 -138 0
28 52 30 48 26 54 47 -140 0
28 52 30 48 26 54 47 -139 0
28 52 30 48 26 54 47 -137 0
28 52 30 48 26 54 47 -138 0
28 52 30 48 26 29 47 -140 0
28 52 30 48 26 29 47 -139 0
28 52 30 48 26 29 47 -137 0
28 52 30 48 26 29 47 -138 0
28 52 30 48 54 29 47 -140 0
28 52 30 48 54 29 47 -139 0
28 52 30 48 54 29 47 -137 0
28 52 30 48 54 29 47 -138 0
28 52 30 26 54 29 47 -140 0
28 52 30 26 54 29 47 -139 0
28 52 30 26 54 29 47 -137 0
28 52 30 26 54 29 47 -138 0
28 52 48 26 54 29 47 -140 0
28 52 48 26 54 29 47 -139 0
28 52 48 26 54 29 47 -137 0
28 52 48 26 54 29 47 -138 0
28 67 30 63 26 66 29 -146 0
28 67 30 63 26 66 29 -148 0
28 67 30 63 26 66 29 -145 0
28 67 30 63 26 66 29 -147 0
28 36 30 32 26 37 29 -129 0
28 36 30 32 26 37 29 -132 0
28 36 30 32 26 37 29 -130 0
28 36 30 32 26 37 29 -131 0
28 40 30 41 26 39 29 -136 0
28 40 30 41 26 39 29 -134 0
28 40 30 41 26 39 29 -135 0
28 40 30 41 26 39 29 -133 0
28 59 30 60 26 58 29 -144 0
28 59 30 60 26 58 29 -142 0
28 59 30 60 26 58 29 -141 0
28 59 30 60 26 58 29 -143 0
28 30 9 26 14 29 8 -77 0
28 30 9 26 14 29 8 -78 0
28 30 9 26 14 29 8 -79 0
28 30 9 26 14 29 8 -80 0
28 30 5 26 6 29 4 -23 0
28 30 5 26 6 29 4 -25 0
28 30 5 26 6 29 4 -27 0
28 30 5 26 6 29 4 -24 0
28 30 15 26 19 29 22 -103 0
28 30 15 26 19 29 22 -105 0
28 30 15 26 19 29 22 -106 0
28 30 15 26 19 29 22 -104 0
28 30 48 26 54 29 47 -140 0
28 30 48 26 54 29 47 -139 0
28 30 48 26 54 29 47 -137 0
28 30 48 26 54 29 47 -138 0
13 2 9 5 14 6 8 -11 0
13 2 9 5 14 6 8 -12 0
13 2 9 5 14 6 8 -7 0
13 2 9 5 14 6 8 -10 0
13 2 9 5 14 6 4 -11 0
13 2 9 5 14 6 4 -12 0
13 2 9 5 14 6 4 -7 0
13 2 9 5 14 6 4 -10 0
13 2 9 5 14 8 4 -11 0
13 2 9 5 14 8 4 -12 0
13 2 9 5 14 8 4 -7 0
13 2 9 5 14 8 4 -10 0
13 2 9 5 6 8 4 -11 0
13 2 9 5 6 8 4 -12 0
13 2 9 5 6 8 4 -7 0
13 2 9 5 6 8 4 -10 0
13 2 9 14 6 8 4 -11 0
13 2 9 14 6 8 4 -12 0
13 2 9 14 6 8 4 -7 0
13 2 9 14 6 8 4 -10 0
13 2 5 14 6 8 4 -11 0
13 2 5 14 6 8 4 -12 0
13 2 5 14 6 8 4 -7 0
13 2 5 14 6 8 4 -10 0
13 18 9 15 14 19 8 -76 0
13 18 9 15 14 19 8 -74 0
13 18 9 15 14 19 8 -75 0
13 18 9 15 14 19 8 -73 0
13 18 9 15 14 19 22 -76 0
13 18 9 15 14 19 22 -74 0
13 18 9 15 14 19 22 -75 0
13 18 9 15 14 19 22 -73 0
13 18 9 15 14 8 22 -76 0
13 18 9 15 14 8 22 -74 0
13 18 9 15 14 8 22 -75 0
13 18 9 15 14 8 22 -73 0
13 18 9 15 19 8 22 -76 0
13 18 9 15 19 8 22 -74 0
13 18 9 15 19 8 22 -75 0
13 18 9 15 19 8 22 -73 0
13 18 9 14 19 8 22 -76 0
13 18 9 14 19 8 22 -74 0
13 18 9 14 19 8 22 -75 0
13 18 9 14 19 8 22 -73 0
13 18 15 14 19 8 22 -76 0
13 18 15 14 19 8 22 -74 0
13 18 15 14 19 8 22 -75 0
13 18 15 14 19 8 22 -73 0
13 52 9 48 14 54 8 -90 0
13 52 9 48 14 54 8 -92 0
13 52 9 48 14 54 8 -89 0
13 52 9 48 14 54 8 -91 0
13 52 9 48 14 54 47 -90 0
13 52 9 48 14 54 47 -92 0
13 52 9 48 14 54 47 -89 0
13 52 9 48 14 54 47 -91 0
13 52 9 48 14 8 47 -90 0
13 52 9 48 14 8 47 -92 0
13 52 9 48 14 8 47 -89 0
13 52 9 48 14 8 47 -91 0
13 52 9 48 54 8 47 -90 0
13 52 9 48 54 8 47 -92 0
13 52 9 48 54 8 47 -89 0
13 52 9 48 54 8 47 -91 0
13 52 9 14 54 8 47 -90 0
13 52 9 14 54 8 47 -92 0
13 52 9 14 54 8 47 -89 0
13 52 9 14 54 8 47 -91 0
13 52 48 14 54 8 47 -90 0
13 52 48 14 54 8 47 -92 0
13 52 48 14 54 8 47 -89 0
13 52 48 14 54 8 47 -91 0
13 67 9 63 14 66 8 -99 0
13 67 9 63 14 66 8 -97 0
13 67 9 63 14 66 8 -98 0
13 67 9 63 14 66 8 -100 0
13 36 9 32 14 37 8 -84 0
13 36 9 32 14 37 8 -83 0
13 36 9 32 14 37 8 -82 0
13 36 9 32 14 37 8 -81 0
13 40 9 41 14 39 8 -86 0
13 40 9 41 14 39 8 -88 0
13 40 9 41 14 39 8 -85 0
13 40 9 41 14 39 8 -87 0
13 59 9 60 14 58 8 -93 0
13 59 9 60 14 58 8 -94 0
13 59 9 60 14 58 8 -95 0
13 59 9 60 14 58 8 -96 0
13 30 9 26 14 29 8 -77 0
13 30 9 26 14 29 8 -78 0
13 30 9 26 14 29 8 -79 0
13 30 9 26 14 29 8 -80 0
13 9 5 14 6 8 4 -11 0
13 9 5 14 6 8 4 -12 0
13 9 5 14 6 8 4 -7 0
13 9 5 14 6 8 4 -10 0
13 9 15 14 19 8 22 -76 0
13 9 15 14 19 8 22 -74 0
13 9 15 14 19 8 22 -75 0
13 9 15 14 19 8 22 -73 0
13 9 48 14 54 8 47 -90 0
13 9 48 14 54 8 47 -92 0
13 9 48 14 54 8 47 -89 0
13 9 48 14 54 8 47 -91 0
2 18 5 15 6 19 4 -21 0
2 18 5 15 6 19 4 -17 0
2 18 5 15 6 19 4 -20 0
2 18 5 15 6 19 4 -16 0
2 18 5 15 6 19 22 -21 0
2 18 5 15 6 19 22 -17 0
2 18 5 15 6 19 22 -20 0
2 18 5 15 6 19 22 -16 0
2 18 5 15 6 4 22 -21 0
2 18 5 15 6 4 22 -17 0
2 18 5 15 6 4 22 -20 0
2 18 5 15 6 4 22 -16 0
2 18 5 15 19 4 22 -21 0
2 18 5 15 19 4 22 -17 0
2 18 5 15 19 4 22 -20 0
2 18 5 15 19 4 22 -16 0
2 18 5 6 19 4 22 -21 0
2 18 5 6 19 4 22 -17 0
2 18 5 6 19 4 22 -20 0
2 18 5 6 19 4 22 -16 0
2 18 15 6 19 4 22 -21 0
2 18 15 6 19 4 22 -17 0
2 18 15 6 19 4 22 -20 0
2 18 15 6 19 4 22 -16 0
2 52 5 48 6 54 4 -53 0
2 52 5 48 6 54 4 -51 0
2 52 5 48 6 54 4 -50 0
2 52 5 48 6 54 4 -49 0
2 52 5 48 6 54 47 -53 0
2 52 5 48 6 54 47 -51 0
2 52 5 48 6 54 47 -50 0
2 52 5 48 6 54 47 -49 0
2 52 5 48 6 4 47 -53 0
2 52 5 48 6 4 47 -51 0
2 52 5 48 6 4 47 -50 0
2 52 5 48 6 4 47 -49 0
2 52 5 48 54 4 47 -53 0
2 52 5 48 54 4 47 -51 0
2 52 5 48 54 4 47 -50 0
2 52 5 48 54 4 47 -49 0
2 52 5 6 54 4 47 -53 0
2 52 5 6 54 4 47 -51 0
2 52 5 6 54 4 47 -50 0
2 52 5 6 54 4 47 -49 0
2 52 48 6 54 4 47 -53 0
2 52 48 6 54 4 47 -51 0
2 52 48 6 54 4 47 -50 0
2 52 48 6 54 4 47 -49 0
2 67 5 63 6 66 4 -69 0
2 67 5 63 6 66 4 -64 0
2 67 5 63 6 66 4 -68 0
2 67 5 63 6 66 4 -70 0
2 36 5 32 6 37 4 -35 0
2 36 5 32 6 37 4 -33 0
2 36 5 32 6 37 4 -31 0
2 36 5 32 6 37 4 -38 0
2 40 5 41 6 39 4 -42 0
2 40 5 41 6 39 4 -44 0
2 40 5 41 6 39 4 -46 0
2 40 5 41 6 39 4 -43 0
2 59 5 60 6 58 4 -62 0
2 59 5 60 6 58 4 -55 0
2 59 5 60 6 58 4 -56 0
2 59 5 60 6 58 4 -61 0
2 30 5 26 6 29 4 -23 0
2 30 5 26 6 29 4 -25 0
2 30 5 26 6 29 4 -27 0
2 30 5 26 6 29 4 -24 0
2 9 5 14 6 8 4 -11 0
2 9 5 14 6 8 4 -12 0
2 9 5 14 6 8 4 -7 0
2 9 5 14 6 8 4 -10 0
2 5 15 6 19 4 22 -21 0
2 5 15 6 19 4 22 -17 0
2 5 15 6 19 4 22 -20 0
2 5 15 6 19 4 22 -16 0
2 5 48 6 54 4 47 -53 0
2 5 48 6 54 4 47 -51 0
2 5 48 6 54 4 47 -50 0
2 5 48 6 54 4 47 -49 0
18 52 15 48 19 54 22 -118 0
18 52 15 48 19 54 22 -115 0
18 52 15 48 19 54 22 -116 0
18 52 15 48 19 54 22 -117 0
18 52 15 48 19 54 47 -118 0
18 52 15 48 19 54 47 -115 0
18 52 15 48 19 54 47 -116 0
18 52 15 48 19 54 47 -117 0
18 52 15 48 19 22 47 -118 0
18 52 15 48 19 22 47 -115 0
18 52 15 48 19 22 47 -116 0
18 52 15 48 19 22 47 -117 0
18 52 15 48 54 22 47 -118 0
18 52 15 48 54 22 47 -115 0
18 52 15 48 54 22 47 -116 0
18 52 15 48 54 22 47 -117 0
18 52 15 19 54 22 47 -118 0
18 52 15 19 54 22 47 -115 0
18 52 15 19 54 22 47 -116 0
18 52 15 19 54 22 47 -117 0
18 52 48 19 54 22 47 -118 0
18 52 48 19 54 22 47 -115 0
18 52 48 19 54 22 47 -116 0
18 52 48 19 54 22 47 -117 0
18 67 15 63 19 66 22 -126 0
18 67 15 63 19 66 22 -125 0
18 67 15 63 19 66 22 -123 0
18 67 15 63 19 66 22 -124 0
18 36 15 32 19 37 22 -108 0
18 36 15 32 19 37 22 -110 0
18 36 15 32 19 37 22 -107 0
18 36 15 32 19 37 22 -109 0
18 40 15 41 19 39 22 -111 0
18 40 15 41 19 39 22 -112 0
18 40 15 41 19 39 22 -113 0
18 40 15 41 19 39 22 -114 0
18 59 15 60 19 58 22 -121 0
18 59 15 60 19 58 22 -119 0
18 59 15 60 19 58 22 -120 0
18 59 15 60 19 58 22 -122 0
18 30 15 26 19 29 22 -103 0
18 30 15 26 19 29 22 -105 0
18 30 15 26 19 29 22 -106 0
18 30 15 26 19 29 22 -104 0
18 9 15 14 19 8 22 -76 0
18 9 15 14 19 8 22 -74 0
18 9 15 14 19 8 22 -75 0
18 9 15 14 19 8 22 -73 0
18 5 15 6 19 4 22 -21 0
18 5 15 6 19 4 22 -17 0
18 5 15 6 19 4 22 -20 0
18 5 15 6 19 4 22 -16 0
18 15 48 19 54 22 47 -118 0
18 15 48 19 54 22 47 -115 0
18 15 48 19 54 22 47 -116 0
18 15 48 19 54 22 47 -117 0
52 67 48 63 54 66 47 -188 0
52 67 48 63 54 66 47 -189 0
52 67 48 63 54 66 47 -190 0
52 67 48 63 54 66 47 -187 0
52 36 48 32 54 37 47 -156 0
52 36 48 32 54 37 47 -158 0
52 36 48 32 54 37 47 -157 0
52 36 48 32 54 37 47 -155 0
52 40 48 41 54 39 47 -171 0
52 40 48 41 54 39 47 -172 0
52 40 48 41 54 39 47 -170 0
52 40 48 41 54 39 47 -169 0
52 59 48 60 54 58 47 -185 0
52 59 48 60 54 58 47 -186 0
52 59 48 60 54 58 47 -183 0
52 59 48 60 54 58 47 -184 0
52 30 48 26 54 29 47 -140 0
52 30 48 26 54 29 47 -139 0
52 30 48 26 54 29 47 -137 0
52 30 48 26 54 29 47 -138 0
52 9 48 14 54 8 47 -90 0
52 9 48 14 54 8 47 -92 0
52 9 48 14 54 8 47 -89 0
52 9 48 14 54 8 47 -91 0
52 5 48 6 54 4 47 -53 0
52 5 48 6 54 4 47 -51 0
52 5 48 6 54 4 47 -50 0
52 5 48 6 54 4 47 -49 0
52 15 48 19 54 22 47 -118 0
52 15 48 19 54 22 47 -115 0
52 15 48 19 54 22 47 -116 0
52 15 48 19 54 22 47 -117 0
197 163 179 194 146 99 69 126 188 0
164 150 152 162 129 84 35 108 156 0
177 151 167 176 136 86 42 111 171 0
193 160 174 191 144 93 62 121 185 0
148 132 134 142 128 77 23 103 140 0
97 83 88 94 78 72 11 76 90 0
64 33 44 55 25 12 3 21 53 0
125 110 112 119 105 74 17 101 118 0
189 158 172 186 139 92 51 115 181 0
198 165 178 195 145 98 68 123 190 0
166 149 153 161 130 82 31 107 157 0
180 154 168 175 135 85 46 113 170 0
196 159 173 192 141 95 56 120 183 0
147 131 133 143 127 79 27 106 137 0
100 81 87 96 80 71 7 75 89 0
70 38 43 61 24 10 1 20 50 0
124 109 114 122 104 73 16 102 116 0
187 155 169 184 138 91 49 117 182 0
65 34 67 36 63 32 66 37 -163 0
65 34 67 36 63 32 66 37 -164 0
65 34 67 36 63 32 66 37 -165 0
65 34 67 36 63 32 66 37 -166 0
65 45 67 40 63 41 66 39 -179 0
65 45 67 40 63 41 66 39 -177 0
65 45 67 40 63 41 66 39 -178 0
65 45 67 40 63 41 66 39 -180 0
65 57 67 59 63 60 66 58 -194 0
65 57 67 59 63 60 66 58 -193 0
65 57 67 59 63 60 66 58 -195 0
65 57 67 59 63 60 66 58 -196 0
65 28 67 30 63 26 66 29 -146 0
65 28 67 30 63 26 66 29 -148 0
65 28 67 30 63 26 66 29 -145 0
65 28 67 30 63 26 66 29 -147 0
65 13 67 9 63 14 66 8 -99 0
65 13 67 9 63 14 66 8 -97 0
65 13 67 9 63 14 66 8 -98 0
65 13 67 9 63 14 66 8 -100 0
65 2 67 5 63 6 66 4 -69 0
65 2 67 5 63 6 66 4 -64 0
65 2 67 5 63 6 66 4 -68 0
65 2 67 5 63 6 66 4 -70 0
65 18 67 15 63 19 66 22 -126 0
65 18 67 15 63 19 66 22 -125 0
65 18 67 15 63 19 66 22 -123 0
65 18 67 15 63 19 66 22 -124 0
65 52 67 48 63 54 66 47 -188 0
65 52 67 48 63 54 66 47 -189 0
65 52 67 48 63 54 66 47 -190 0
65 52 67 48 63 54 66 47 -187 0
34 45 36 40 32 41 37 39 -152 0
34 45 36 40 32 41 37 39 -151 0
34 45 36 40 32 41 37 39 -153 0
34 45 36 40 32 41 37 39 -154 0
34 57 36 59 32 60 37 58 -162 0
34 57 36 59 32 60 37 58 -160 0
34 57 36 59 32 60 37 58 -161 0
34 57 36 59 32 60 37 58 -159 0
34 28 36 30 32 26 37 29 -129 0
34 28 36 30 32 26 37 29 -132 0
34 28 36 30 32 26 37 29 -130 0
34 28 36 30 32 26 37 29 -131 0
34 13 36 9 32 14 37 8 -84 0
34 13 36 9 32 14 37 8 -83 0
34 13 36 9 32 14 37 8 -82 0
34 13 36 9 32 14 37 8 -81 0
34 2 36 5 32 6 37 4 -35 0
34 2 36 5 32 6 37 4 -33 0
34 2 36 5 32 6 37 4 -31 0
34 2 36 5 32 6 37 4 -38 0
34 18 36 15 32 19 37 22 -108 0
34 18 36 15 32 19 37 22 -110 0
34 18 36 15 32 19 37 22 -107 0
34 18 36 15 32 19 37 22 -109 0
34 52 36 48 32 54 37 47 -156 0
34 52 36 48 32 54 37 47 -158 0
34 52 36 48 32 54 37 47 -157 0
34 52 36 48 32 54 37 47 -155 0
45 57 40 59 41 60 39 58 -176 0
45 57 40 59 41 60 39 58 -174 0
45 57 40 59 41 60 39 58 -175 0
45 57 40 59 41 60 39 58 -173 0
45 28 40 30 41 26 39 29 -136 0
45 28 40 30 41 26 39 29 -134 0
45 28 40 30 41 26 39 29 -135 0
45 28 40 30 41 26 39 29 -133 0
45 13 40 9 41 14 39 8 -86 0
45 13 40 9 41 14 39 8 -88 0
45 13 40 9 41 14 39 8 -85 0
45 13 40 9 41 14 39 8 -87 0
45 2 40 5 41 6 39 4 -42 0
45 2 40 5 41 6 39 4 -44 0
45 2 40 5 41 6 39 4 -46 0
45 2 40 5 41 6 39 4 -43 0
45 18 40 15 41 19 39 22 -111 0
45 18 40 15 41 19 39 22 -112 0
45 18 40 15 41 19 39 22 -113 0
45 18 40 15 41 19 39 22 -114 0
45 52 40 48 41 54 39 47 -171 0
45 52 40 48 41 54 39 47 -172 0
45 52 40 48 41 54 39 47 -170 0
45 52 40 48 41 54 39 47 -169 0
57 28 59 30 60 26 58 29 -144 0
57 28 59 30 60 26 58 29 -142 0
57 28 59 30 60 26 58 29 -141 0
57 28 59 30 60 26 58 29 -143 0
57 13 59 9 60 14 58 8 -93 0
57 13 59 9 60 14 58 8 -94 0
57 13 59 9 60 14 58 8 -95 0
57 13 59 9 60 14 58 8 -96 0
57 2 59 5 60 6 58 4 -62 0
57 2 59 5 60 6 58 4 -55 0
57 2 59 5 60 6 58 4 -56 0
57 2 59 5 60 6 58 4 -61 0
57 18 59 15 60 19 58 22 -121 0
57 18 59 15 60 19 58 22 -119 0
57 18 59 15 60 19 58 22 -120 0
57 18 59 15 60 19 58 22 -122 0
57 52 59 48 60 54 58 47 -185 0
57 52 59 48 60 54 58 47 -186 0
57 52 59 48 60 54 58 47 -183 0
57 52 59 48 60 54 58 47 -184 0
28 13 30 9 26 14 29 8 -77 0
28 13 30 9 26 14 29 8 -78 0
28 13 30 9 26 14 29 8 -79 0
28 13 30 9 26 14 29 8 -80 0
28 2 30 5 26 6 29 4 -23 0
28 2 30 5 26 6 29 4 -25 0
28 2 30 5 26 6 29 4 -27 0
28 2 30 5 26 6 29 4 -24 0
28 18 30 15 26 19 29 22 -103 0
28 18 30 15 26 19 29 22 -105 0
28 18 30 15 26 19 29 22 -106 0
28 18 30 15 26 19 29 22 -104 0
28 52 30 48 26 54 29 47 -140 0
28 52 30 48 26 54 29 47 -139 0
28 52 30 48 26 54 29 47 -137 0
28 52 30 48 26 54 29 47 -138 0
13 2 9 5 14 6 8 4 -11 0
13 2 9 5 14 6 8 4 -12 0
13 2 9 5 14 6 8 4 -7 0
13 2 9 5 14 6 8 4 -10 0
13 18 9 15 14 19 8 22 -76 0
13 18 9 15 14 19 8 22 -74 0
13 18 9 15 14 19 8 22 -75 0
13 18 9 15 14 19 8 22 -73 0
13 52 9 48 14 54 8 47 -90 0
13 52 9 48 14 54 8 47 -92 0
13 52 9 48 14 54 8 47 -89 0
13 52 9 48 14 54 8 47 -91 0
2 18 5 15 6 19 4 22 -21 0
2 18 5 15 6 19 4 22 -17 0
2 18 5 15 6 19 4 22 -20 0
2 18 5 15 6 19 4 22 -16 0
2 52 5 48 6 54 4 47 -53 0
2 52 5 48 6 54 4 47 -51 0
2 52 5 48 6 54 4 47 -50 0
2 52 5 48 6 54 4 47 -49 0
18 52 15 48 19 54 22 47 -118 0
18 52 15 48 19 54 22 47 -115 0
18 52 15 48 19 54 22 47 -116 0
18 52 15 48 19 54 22 47 -117 0
