c E(7,7) R(7) B(7) E(1,7) B(1) R(1) E(7,1) B(4) R(4) E(4,7) E(7,4) E(7,0) R(0) B(0) E(0,7) R(2) B(2) E(2,7) E(7,2) R(9) E(7,9) B(9) E(9,7) R(6) E(6,7) E(7,6) B(6) B(5) E(7,5) R(5) E(5,7) R(8) E(7,8) B(8) E(8,7) E(3,7) B(3) R(3) E(7,3) E(1,1) E(1,4) E(4,1) E(1,0) E(0,1) E(2,1) E(1,2) E(1,9) E(9,1) E(6,1) E(1,6) E(5,1) E(1,5) E(1,8) E(8,1) E(3,1) E(1,3) E(4,4) E(0,4) E(4,0) E(4,2) E(2,4) E(9,4) E(4,9) E(6,4) E(4,6) E(5,4) E(4,5) E(8,4) E(4,8) E(4,3) E(3,4) E(0,0) E(2,0) E(0,2) E(0,9) E(9,0) E(0,6) E(6,0) E(5,0) E(0,5) E(0,8) E(8,0) E(3,0) E(0,3) E(2,2) E(9,2) E(2,9) E(2,6) E(6,2) E(2,5) E(5,2) E(8,2) E(2,8) E(3,2) E(2,3) E(9,9) E(9,6) E(6,9) E(9,5) E(5,9) E(9,8) E(8,9) E(9,3) E(3,9) E(6,6) E(6,5) E(5,6) E(8,6) E(6,8) E(6,3) E(3,6) E(5,5) E(8,5) E(5,8) E(5,3) E(3,5) E(8,8) E(3,8) E(8,3) E(3,3)
c 1 2 3 4 5 6 7 8 9 10 11 12 13 14 15 16 17 18 19 20 21 22 23 24 25 26 27 28 29 30 31 32 33 34 35 36 37 38 39 40 41 42 43 44 45 46 47 48 49 50 51 52 53 54 55 56 57 58 59 60 61 62 63 64 65 66 67 68 69 70 71 72 73 74 75 76 77 78 79 80 81 82 83 84 85 86 87 88 89 90 91 92 93 94 95 96 97 98 99 100 101 102 103 104 105 106 107 108 109 110 111 112 113 114 115 116 117 118 119 120
p cnf 120 500
14 13 0
5 6 0
17 16 0
37 38 0
8 9 0
28 30 0
27 24 0
3 2 0
34 32 0
22 20 0
14 -72 0
5 -40 0
17 -85 0
37 -120 0
8 -57 0
28 -112 0
27 -105 0
3 -1 0
34 -117 0
22 -96 0
72 -72 0
44 -43 0
74 -73 0
84 -83 0
58 -59 0
80 -79 0
77 -78 0
15 -12 0
81 -82 0
75 -76 0
43 -44 0
40 -40 0
46 -45 0
56 -55 0
41 -42 0
52 -51 0
50 -49 0
4 -7 0
53 -54 0
47 -48 0
73 -74 0
45 -46 0
85 -85 0
95 -94 0
61 -60 0
90 -91 0
88 -89 0
18 -19 0
93 -92 0
87 -86 0
83 -84 0
55 -56 0
94 -95 0
120 -120 0
71 -70 0
116 -115 0
111 -110 0
36 -39 0
118 -119 0
104 -103 0
59 -58 0
42 -41 0
60 -61 0
70 -71 0
57 -57 0
67 -66 0
65 -64 0
10 -11 0
69 -68 0
63 -62 0
79 -80 0
51 -52 0
91 -90 0
115 -116 0
66 -67 0
112 -112 0
107 -106 0
31 -29 0
114 -113 0
100 -99 0
78 -77 0
49 -50 0
89 -88 0
110 -111 0
64 -65 0
106 -107 0
105 -105 0
25 -26 0
109 -108 0
98 -97 0
12 -15 0
7 -4 0
19 -18 0
39 -36 0
11 -10 0
29 -31 0
26 -25 0
1 -1 0
33 -35 0
21 -23 0
82 -81 0
54 -53 0
92 -93 0
119 -118 0
68 -69 0
113 -114 0
108 -109 0
35 -33 0
117 -117 0
102 -101 0
76 -75 0
48 -47 0
86 -87 0
103 -104 0
62 -63 0
99 -100 0
97 -98 0
23 -21 0
101 -102 0
96 -96 0
13 -72 0
6 -40 0
16 -85 0
38 -120 0
9 -57 0
30 -112 0
24 -105 0
2 -1 0
32 -117 0
20 -96 0
-14 -13 0
-5 -6 0
-17 -16 0
-37 -38 0
-8 -9 0
-28 -30 0
-27 -24 0
-3 -2 0
-34 -32 0
-22 -20 0
14 5 -44 0
14 5 -43 0
14 17 -74 0
14 17 -73 0
14 37 -84 0
14 37 -83 0
14 8 -58 0
14 8 -59 0
14 28 -80 0
14 28 -79 0
14 27 -77 0
14 27 -78 0
14 3 -15 0
14 3 -12 0
14 34 -81 0
14 34 -82 0
14 22 -75 0
14 22 -76 0
14 13 -44 0
14 13 -74 0
14 13 -84 0
14 13 -58 0
14 13 -80 0
14 13 -77 0
14 13 -15 0
14 13 -81 0
14 13 -75 0
14 13 -43 0
14 13 -73 0
14 13 -83 0
14 13 -59 0
14 13 -79 0
14 13 -78 0
14 13 -12 0
14 13 -82 0
14 13 -76 0
5 17 -46 0
5 17 -45 0
5 37 -56 0
5 37 -55 0
5 8 -41 0
5 8 -42 0
5 28 -52 0
5 28 -51 0
5 27 -50 0
5 27 -49 0
5 3 -4 0
5 3 -7 0
5 34 -53 0
5 34 -54 0
5 22 -47 0
5 22 -48 0
5 6 -44 0
5 6 -43 0
5 6 -46 0
5 6 -56 0
5 6 -41 0
5 6 -52 0
5 6 -50 0
5 6 -4 0
5 6 -53 0
5 6 -47 0
5 6 -45 0
5 6 -55 0
5 6 -42 0
5 6 -51 0
5 6 -49 0
5 6 -7 0
5 6 -54 0
5 6 -48 0
17 37 -95 0
17 37 -94 0
17 8 -61 0
17 8 -60 0
17 28 -90 0
17 28 -91 0
17 27 -88 0
17 27 -89 0
17 3 -18 0
17 3 -19 0
17 34 -93 0
17 34 -92 0
17 22 -87 0
17 22 -86 0
17 16 -74 0
17 16 -46 0
17 16 -73 0
17 16 -45 0
17 16 -95 0
17 16 -61 0
17 16 -90 0
17 16 -88 0
17 16 -18 0
17 16 -93 0
17 16 -87 0
17 16 -94 0
17 16 -60 0
17 16 -91 0
17 16 -89 0
17 16 -19 0
17 16 -92 0
17 16 -86 0
37 8 -71 0
37 8 -70 0
37 28 -116 0
37 28 -115 0
37 27 -111 0
37 27 -110 0
37 3 -36 0
37 3 -39 0
37 34 -118 0
37 34 -119 0
37 22 -104 0
37 22 -103 0
37 38 -84 0
37 38 -56 0
37 38 -95 0
37 38 -83 0
37 38 -55 0
37 38 -94 0
37 38 -71 0
37 38 -116 0
37 38 -111 0
37 38 -36 0
37 38 -118 0
37 38 -104 0
37 38 -70 0
37 38 -115 0
37 38 -110 0
37 38 -39 0
37 38 -119 0
37 38 -103 0
8 28 -67 0
8 28 -66 0
8 27 -65 0
8 27 -64 0
8 3 -10 0
8 3 -11 0
8 34 -69 0
8 34 -68 0
8 22 -63 0
8 22 -62 0
8 9 -58 0
8 9 -41 0
8 9 -61 0
8 9 -71 0
8 9 -59 0
8 9 -42 0
8 9 -60 0
8 9 -70 0
8 9 -67 0
8 9 -65 0
8 9 -10 0
8 9 -69 0
8 9 -63 0
8 9 -66 0
8 9 -64 0
8 9 -11 0
8 9 -68 0
8 9 -62 0
28 27 -107 0
28 27 -106 0
28 3 -31 0
28 3 -29 0
28 34 -114 0
28 34 -113 0
28 22 -100 0
28 22 -99 0
28 30 -80 0
28 30 -52 0
28 30 -90 0
28 30 -116 0
28 30 -67 0
28 30 -79 0
28 30 -51 0
28 30 -91 0
28 30 -115 0
28 30 -66 0
28 30 -107 0
28 30 -31 0
28 30 -114 0
28 30 -100 0
28 30 -106 0
28 30 -29 0
28 30 -113 0
28 30 -99 0
27 3 -25 0
27 3 -26 0
27 34 -109 0
27 34 -108 0
27 22 -98 0
27 22 -97 0
27 24 -77 0
27 24 -50 0
27 24 -88 0
27 24 -111 0
27 24 -65 0
27 24 -107 0
27 24 -78 0
27 24 -49 0
27 24 -89 0
27 24 -110 0
27 24 -64 0
27 24 -106 0
27 24 -25 0
27 24 -109 0
27 24 -98 0
27 24 -26 0
27 24 -108 0
27 24 -97 0
3 34 -33 0
3 34 -35 0
3 22 -21 0
3 22 -23 0
3 2 -15 0
3 2 -4 0
3 2 -18 0
3 2 -36 0
3 2 -10 0
3 2 -31 0
3 2 -25 0
3 2 -12 0
3 2 -7 0
3 2 -19 0
3 2 -39 0
3 2 -11 0
3 2 -29 0
3 2 -26 0
3 2 -33 0
3 2 -21 0
3 2 -35 0
3 2 -23 0
34 22 -102 0
34 22 -101 0
34 32 -81 0
34 32 -53 0
34 32 -93 0
34 32 -118 0
34 32 -69 0
34 32 -114 0
34 32 -109 0
34 32 -33 0
34 32 -82 0
34 32 -54 0
34 32 -92 0
34 32 -119 0
34 32 -68 0
34 32 -113 0
34 32 -108 0
34 32 -35 0
34 32 -102 0
34 32 -101 0
22 20 -75 0
22 20 -47 0
22 20 -87 0
22 20 -104 0
22 20 -63 0
22 20 -100 0
22 20 -98 0
22 20 -21 0
22 20 -102 0
22 20 -76 0
22 20 -48 0
22 20 -86 0
22 20 -103 0
22 20 -62 0
22 20 -99 0
22 20 -97 0
22 20 -23 0
22 20 -101 0
13 6 -44 0
13 6 -43 0
13 16 -74 0
13 16 -73 0
13 38 -84 0
13 38 -83 0
13 9 -58 0
13 9 -59 0
13 30 -80 0
13 30 -79 0
13 24 -77 0
13 24 -78 0
13 2 -15 0
13 2 -12 0
13 32 -81 0
13 32 -82 0
13 20 -75 0
13 20 -76 0
6 16 -46 0
6 16 -45 0
6 38 -56 0
6 38 -55 0
6 9 -41 0
6 9 -42 0
6 30 -52 0
6 30 -51 0
6 24 -50 0
6 24 -49 0
6 2 -4 0
6 2 -7 0
6 32 -53 0
6 32 -54 0
6 20 -47 0
6 20 -48 0
16 38 -95 0
16 38 -94 0
16 9 -61 0
16 9 -60 0
16 30 -90 0
16 30 -91 0
16 24 -88 0
16 24 -89 0
16 2 -18 0
16 2 -19 0
16 32 -93 0
16 32 -92 0
16 20 -87 0
16 20 -86 0
38 9 -71 0
38 9 -70 0
38 30 -116 0
38 30 -115 0
38 24 -111 0
38 24 -110 0
38 2 -36 0
38 2 -39 0
38 32 -118 0
38 32 -119 0
38 20 -104 0
38 20 -103 0
9 30 -67 0
9 30 -66 0
9 24 -65 0
9 24 -64 0
9 2 -10 0
9 2 -11 0
9 32 -69 0
9 32 -68 0
9 20 -63 0
9 20 -62 0
30 24 -107 0
30 24 -106 0
30 2 -31 0
30 2 -29 0
30 32 -114 0
30 32 -113 0
30 20 -100 0
30 20 -99 0
24 2 -25 0
24 2 -26 0
24 32 -109 0
24 32 -108 0
24 20 -98 0
24 20 -97 0
2 32 -33 0
2 32 -35 0
2 20 -21 0
2 20 -23 0
32 20 -102 0
32 20 -101 0
