c R(8) E(8,8) B(8) E(8,6) E(6,8) R(6) B(6) B(1) E(8,1) E(1,8) R(1) E(3,8) R(3) B(3) E(8,3) E(8,10) R(10) B(10) E(10,8) R(2) B(2) E(2,8) E(8,2) R(0) B(0) E(0,8) E(8,0) B(5) E(5,8) E(8,5) R(5) E(9,8) R(9) B(9) E(8,9) R(4) E(4,8) B(4) E(8,4) E(7,8) R(7) B(7) E(8,7) E(6,6) E(6,1) E(1,6) E(6,3) E(3,6) E(6,10) E(10,6) E(6,2) E(2,6) E(6,0) E(0,6) E(6,5) E(5,6) E(6,9) E(9,6) E(4,6) E(6,4) E(6,7) E(7,6) E(1,1) E(1,3) E(3,1) E(10,1) E(1,10) E(2,1) E(1,2) E(1,0) E(0,1) E(5,1) E(1,5) E(1,9) E(9,1) E(4,1) E(1,4) E(1,7) E(7,1) E(3,3) E(3,10) E(10,3) E(3,2) E(2,3) E(0,3) E(3,0) E(3,5) E(5,3) E(3,9) E(9,3) E(3,4) E(4,3) E(3,7) E(7,3) E(10,10) E(10,2) E(2,10) E(0,10) E(10,0) E(5,10) E(10,5) E(9,10) E(10,9) E(4,10) E(10,4) E(7,10) E(10,7) E(2,2) E(0,2) E(2,0) E(2,5) E(5,2) E(9,2) E(2,9) E(4,2) E(2,4) E(7,2) E(2,7) E(0,0) E(0,5) E(5,0) E(0,9) E(9,0) E(0,4) E(4,0) E(0,7) E(7,0) E(5,5) E(9,5) E(5,9) E(5,4) E(4,5) E(7,5) E(5,7) E(9,9) E(9,4) E(4,9) E(9,7) E(7,9) E(4,4) E(7,4) E(4,7) E(7,7)
c 1 2 3 4 5 6 7 8 9 10 11 12 13 14 15 16 17 18 19 20 21 22 23 24 25 26 27 28 29 30 31 32 33 34 35 36 37 38 39 40 41 42 43 44 45 46 47 48 49 50 51 52 53 54 55 56 57 58 59 60 61 62 63 64 65 66 67 68 69 70 71 72 73 74 75 76 77 78 79 80 81 82 83 84 85 86 87 88 89 90 91 92 93 94 95 96 97 98 99 100 101 102 103 104 105 106 107 108 109 110 111 112 113 114 115 116 117 118 119 120 121 122 123 124 125 126 127 128 129 130 131 132 133 134 135 136 137 138 139 140 141 142 143
p cnf 143 605
25 24 0
8 11 0
18 17 0
21 20 0
14 13 0
38 36 0
28 31 0
7 6 0
42 41 0
3 1 0
34 33 0
25 -119 0
8 -63 0
18 -95 0
21 -108 0
14 -80 0
38 -140 0
28 -128 0
7 -44 0
42 -143 0
3 -2 0
34 -135 0
119 -119 0
71 -70 0
98 -99 0
109 -110 0
85 -86 0
124 -125 0
120 -121 0
54 -53 0
126 -127 0
26 -27 0
122 -123 0
70 -71 0
63 -63 0
67 -66 0
69 -68 0
64 -65 0
77 -76 0
73 -72 0
46 -45 0
78 -79 0
10 -9 0
74 -75 0
99 -98 0
66 -67 0
95 -95 0
96 -97 0
82 -81 0
105 -104 0
101 -100 0
50 -49 0
107 -106 0
19 -16 0
103 -102 0
110 -109 0
68 -69 0
97 -96 0
108 -108 0
84 -83 0
116 -115 0
111 -112 0
52 -51 0
118 -117 0
22 -23 0
114 -113 0
86 -85 0
65 -64 0
81 -82 0
83 -84 0
80 -80 0
91 -92 0
87 -88 0
48 -47 0
93 -94 0
12 -15 0
89 -90 0
125 -124 0
76 -77 0
104 -105 0
115 -116 0
92 -91 0
140 -140 0
132 -131 0
59 -60 0
142 -141 0
37 -39 0
137 -136 0
121 -120 0
72 -73 0
100 -101 0
112 -111 0
88 -87 0
131 -132 0
128 -128 0
56 -55 0
134 -133 0
29 -30 0
130 -129 0
53 -54 0
45 -46 0
49 -50 0
51 -52 0
47 -48 0
60 -59 0
55 -56 0
44 -44 0
61 -62 0
5 -4 0
57 -58 0
127 -126 0
79 -78 0
106 -107 0
117 -118 0
94 -93 0
141 -142 0
133 -134 0
62 -61 0
143 -143 0
40 -43 0
139 -138 0
27 -26 0
9 -10 0
16 -19 0
23 -22 0
15 -12 0
39 -37 0
30 -29 0
4 -5 0
43 -40 0
2 -2 0
35 -32 0
123 -122 0
75 -74 0
102 -103 0
113 -114 0
90 -89 0
136 -137 0
129 -130 0
58 -57 0
138 -139 0
32 -35 0
135 -135 0
24 -119 0
11 -63 0
17 -95 0
20 -108 0
13 -80 0
36 -140 0
31 -128 0
6 -44 0
41 -143 0
1 -2 0
33 -135 0
-25 -24 0
-8 -11 0
-18 -17 0
-21 -20 0
-14 -13 0
-38 -36 0
-28 -31 0
-7 -6 0
-42 -41 0
-3 -1 0
-34 -33 0
25 8 -71 0
25 8 -70 0
25 18 -98 0
25 18 -99 0
25 21 -109 0
25 21 -110 0
25 14 -85 0
25 14 -86 0
25 38 -124 0
25 38 -125 0
25 28 -120 0
25 28 -121 0
25 7 -54 0
25 7 -53 0
25 42 -126 0
25 42 -127 0
25 3 -26 0
25 3 -27 0
25 34 -122 0
25 34 -123 0
25 24 -71 0
25 24 -98 0
25 24 -109 0
25 24 -85 0
25 24 -124 0
25 24 -120 0
25 24 -54 0
25 24 -126 0
25 24 -26 0
25 24 -122 0
25 24 -70 0
25 24 -99 0
25 24 -110 0
25 24 -86 0
25 24 -125 0
25 24 -121 0
25 24 -53 0
25 24 -127 0
25 24 -27 0
25 24 -123 0
8 18 -67 0
8 18 -66 0
8 21 -69 0
8 21 -68 0
8 14 -64 0
8 14 -65 0
8 38 -77 0
8 38 -76 0
8 28 -73 0
8 28 -72 0
8 7 -46 0
8 7 -45 0
8 42 -78 0
8 42 -79 0
8 3 -10 0
8 3 -9 0
8 34 -74 0
8 34 -75 0
8 11 -71 0
8 11 -70 0
8 11 -67 0
8 11 -69 0
8 11 -64 0
8 11 -77 0
8 11 -73 0
8 11 -46 0
8 11 -78 0
8 11 -10 0
8 11 -74 0
8 11 -66 0
8 11 -68 0
8 11 -65 0
8 11 -76 0
8 11 -72 0
8 11 -45 0
8 11 -79 0
8 11 -9 0
8 11 -75 0
18 21 -96 0
18 21 -97 0
18 14 -82 0
18 14 -81 0
18 38 -105 0
18 38 -104 0
18 28 -101 0
18 28 -100 0
18 7 -50 0
18 7 -49 0
18 42 -107 0
18 42 -106 0
18 3 -19 0
18 3 -16 0
18 34 -103 0
18 34 -102 0
18 17 -98 0
18 17 -67 0
18 17 -99 0
18 17 -66 0
18 17 -96 0
18 17 -82 0
18 17 -105 0
18 17 -101 0
18 17 -50 0
18 17 -107 0
18 17 -19 0
18 17 -103 0
18 17 -97 0
18 17 -81 0
18 17 -104 0
18 17 -100 0
18 17 -49 0
18 17 -106 0
18 17 -16 0
18 17 -102 0
21 14 -84 0
21 14 -83 0
21 38 -116 0
21 38 -115 0
21 28 -111 0
21 28 -112 0
21 7 -52 0
21 7 -51 0
21 42 -118 0
21 42 -117 0
21 3 -22 0
21 3 -23 0
21 34 -114 0
21 34 -113 0
21 20 -109 0
21 20 -69 0
21 20 -96 0
21 20 -110 0
21 20 -68 0
21 20 -97 0
21 20 -84 0
21 20 -116 0
21 20 -111 0
21 20 -52 0
21 20 -118 0
21 20 -22 0
21 20 -114 0
21 20 -83 0
21 20 -115 0
21 20 -112 0
21 20 -51 0
21 20 -117 0
21 20 -23 0
21 20 -113 0
14 38 -91 0
14 38 -92 0
14 28 -87 0
14 28 -88 0
14 7 -48 0
14 7 -47 0
14 42 -93 0
14 42 -94 0
14 3 -12 0
14 3 -15 0
14 34 -89 0
14 34 -90 0
14 13 -85 0
14 13 -64 0
14 13 -82 0
14 13 -84 0
14 13 -86 0
14 13 -65 0
14 13 -81 0
14 13 -83 0
14 13 -91 0
14 13 -87 0
14 13 -48 0
14 13 -93 0
14 13 -12 0
14 13 -89 0
14 13 -92 0
14 13 -88 0
14 13 -47 0
14 13 -94 0
14 13 -15 0
14 13 -90 0
38 28 -132 0
38 28 -131 0
38 7 -59 0
38 7 -60 0
38 42 -142 0
38 42 -141 0
38 3 -37 0
38 3 -39 0
38 34 -137 0
38 34 -136 0
38 36 -124 0
38 36 -77 0
38 36 -105 0
38 36 -116 0
38 36 -91 0
38 36 -125 0
38 36 -76 0
38 36 -104 0
38 36 -115 0
38 36 -92 0
38 36 -132 0
38 36 -59 0
38 36 -142 0
38 36 -37 0
38 36 -137 0
38 36 -131 0
38 36 -60 0
38 36 -141 0
38 36 -39 0
38 36 -136 0
28 7 -56 0
28 7 -55 0
28 42 -134 0
28 42 -133 0
28 3 -29 0
28 3 -30 0
28 34 -130 0
28 34 -129 0
28 31 -120 0
28 31 -73 0
28 31 -101 0
28 31 -111 0
28 31 -87 0
28 31 -132 0
28 31 -121 0
28 31 -72 0
28 31 -100 0
28 31 -112 0
28 31 -88 0
28 31 -131 0
28 31 -56 0
28 31 -134 0
28 31 -29 0
28 31 -130 0
28 31 -55 0
28 31 -133 0
28 31 -30 0
28 31 -129 0
7 42 -61 0
7 42 -62 0
7 3 -5 0
7 3 -4 0
7 34 -57 0
7 34 -58 0
7 6 -54 0
7 6 -46 0
7 6 -50 0
7 6 -52 0
7 6 -48 0
7 6 -59 0
7 6 -56 0
7 6 -53 0
7 6 -45 0
7 6 -49 0
7 6 -51 0
7 6 -47 0
7 6 -60 0
7 6 -55 0
7 6 -61 0
7 6 -5 0
7 6 -57 0
7 6 -62 0
7 6 -4 0
7 6 -58 0
42 3 -40 0
42 3 -43 0
42 34 -139 0
42 34 -138 0
42 41 -126 0
42 41 -78 0
42 41 -107 0
42 41 -118 0
42 41 -93 0
42 41 -142 0
42 41 -134 0
42 41 -61 0
42 41 -127 0
42 41 -79 0
42 41 -106 0
42 41 -117 0
42 41 -94 0
42 41 -141 0
42 41 -133 0
42 41 -62 0
42 41 -40 0
42 41 -139 0
42 41 -43 0
42 41 -138 0
3 34 -35 0
3 34 -32 0
3 1 -26 0
3 1 -10 0
3 1 -19 0
3 1 -22 0
3 1 -12 0
3 1 -37 0
3 1 -29 0
3 1 -5 0
3 1 -40 0
3 1 -27 0
3 1 -9 0
3 1 -16 0
3 1 -23 0
3 1 -15 0
3 1 -39 0
3 1 -30 0
3 1 -4 0
3 1 -43 0
3 1 -35 0
3 1 -32 0
34 33 -122 0
34 33 -74 0
34 33 -103 0
34 33 -114 0
34 33 -89 0
34 33 -137 0
34 33 -130 0
34 33 -57 0
34 33 -139 0
34 33 -35 0
34 33 -123 0
34 33 -75 0
34 33 -102 0
34 33 -113 0
34 33 -90 0
34 33 -136 0
34 33 -129 0
34 33 -58 0
34 33 -138 0
34 33 -32 0
24 11 -71 0
24 11 -70 0
24 17 -98 0
24 17 -99 0
24 20 -109 0
24 20 -110 0
24 13 -85 0
24 13 -86 0
24 36 -124 0
24 36 -125 0
24 31 -120 0
24 31 -121 0
24 6 -54 0
24 6 -53 0
24 41 -126 0
24 41 -127 0
24 1 -26 0
24 1 -27 0
24 33 -122 0
24 33 -123 0
11 17 -67 0
11 17 -66 0
11 20 -69 0
11 20 -68 0
11 13 -64 0
11 13 -65 0
11 36 -77 0
11 36 -76 0
11 31 -73 0
11 31 -72 0
11 6 -46 0
11 6 -45 0
11 41 -78 0
11 41 -79 0
11 1 -10 0
11 1 -9 0
11 33 -74 0
11 33 -75 0
17 20 -96 0
17 20 -97 0
17 13 -82 0
17 13 -81 0
17 36 -105 0
17 36 -104 0
17 31 -101 0
17 31 -100 0
17 6 -50 0
17 6 -49 0
17 41 -107 0
17 41 -106 0
17 1 -19 0
17 1 -16 0
17 33 -103 0
17 33 -102 0
20 13 -84 0
20 13 -83 0
20 36 -116 0
20 36 -115 0
20 31 -111 0
20 31 -112 0
20 6 -52 0
20 6 -51 0
20 41 -118 0
20 41 -117 0
20 1 -22 0
20 1 -23 0
20 33 -114 0
20 33 -113 0
13 36 -91 0
13 36 -92 0
13 31 -87 0
13 31 -88 0
13 6 -48 0
13 6 -47 0
13 41 -93 0
13 41 -94 0
13 1 -12 0
13 1 -15 0
13 33 -89 0
13 33 -90 0
36 31 -132 0
36 31 -131 0
36 6 -59 0
36 6 -60 0
36 41 -142 0
36 41 -141 0
36 1 -37 0
36 1 -39 0
36 33 -137 0
36 33 -136 0
31 6 -56 0
31 6 -55 0
31 41 -134 0
31 41 -133 0
31 1 -29 0
31 1 -30 0
31 33 -130 0
31 33 -129 0
6 41 -61 0
6 41 -62 0
6 1 -5 0
6 1 -4 0
6 33 -57 0
6 33 -58 0
41 1 -40 0
41 1 -43 0
41 33 -139 0
41 33 -138 0
1 33 -35 0
1 33 -32 0
