c B(5) E(5,5) R(5) R(6) E(5,6) B(6) E(6,5) R(4) B(4) E(5,4) E(4,5) E(5,0) B(0) E(0,5) R(0) B(1) R(1) E(5,1) E(1,5) E(5,2) B(2) E(2,5) R(2) E(10,5) E(5,10) R(10) B(10) B(3) R(3) E(3,5) E(5,3) B(11) E(5,11) R(11) E(11,5) E(9,5) E(5,9) B(9) R(9) B(7) E(5,7) R(7) E(7,5) E(5,8) R(8) B(8) E(8,5) E(6,6) E(4,6) E(6,4) E(6,0) E(0,6) E(1,6) E(6,1) E(2,6) E(6,2) E(6,10) E(10,6) E(3,6) E(6,3) E(6,11) E(11,6) E(9,6) E(6,9) E(7,6) E(6,7) E(8,6) E(6,8) E(4,4) E(4,0) E(0,4) E(1,4) E(4,1) E(4,2) E(2,4) E(4,10) E(10,4) E(4,3) E(3,4) E(11,4) E(4,11) E(9,4) E(4,9) E(4,7) E(7,4) E(4,8) E(8,4) E(0,0) E(0,1) E(1,0) E(2,0) E(0,2) E(0,10) E(10,0) E(0,3) E(3,0) E(0,11) E(11,0) E(0,9) E(9,0) E(0,7) E(7,0) E(0,8) E(8,0) E(1,1) E(1,2) E(2,1) E(1,10) E(10,1) E(1,3) E(3,1) E(1,11) E(11,1) E(1,9) E(9,1) E(1,7) E(7,1) E(1,8) E(8,1) E(2,2) E(10,2) E(2,10) E(2,3) E(3,2) E(2,11) E(11,2) E(9,2) E(2,9) E(2,7) E(7,2) E(2,8) E(8,2) E(10,10) E(3,10) E(10,3) E(10,11) E(11,10) E(9,10) E(10,9) E(7,10) E(10,7) E(10,8) E(8,10) E(3,3) E(3,11) E(11,3) E(9,3) E(3,9) E(7,3) E(3,7) E(8,3) E(3,8) E(11,11) E(11,9) E(9,11) E(7,11) E(11,7) E(11,8) E(8,11) E(9,9) E(7,9) E(9,7) E(8,9) E(9,8) E(7,7) E(8,7) E(7,8) E(8,8)
c 1 2 3 4 5 6 7 8 9 10 11 12 13 14 15 16 17 18 19 20 21 22 23 24 25 26 27 28 29 30 31 32 33 34 35 36 37 38 39 40 41 42 43 44 45 46 47 48 49 50 51 52 53 54 55 56 57 58 59 60 61 62 63 64 65 66 67 68 69 70 71 72 73 74 75 76 77 78 79 80 81 82 83 84 85 86 87 88 89 90 91 92 93 94 95 96 97 98 99 100 101 102 103 104 105 106 107 108 109 110 111 112 113 114 115 116 117 118 119 120 121 122 123 124 125 126 127 128 129 130 131 132 133 134 135 136 137 138 139 140 141 142 143 144 145 146 147 148 149 150 151 152 153 154 155 156 157 158 159 160 161 162 163 164 165 166 167 168
p cnf 168 720
13 15 0
16 17 0
27 26 0
32 34 0
21 23 0
28 29 0
9 8 0
1 3 0
6 4 0
40 42 0
46 45 0
38 39 0
13 -88 0
16 -105 0
27 -133 0
32 -153 0
21 -120 0
28 -144 0
9 -69 0
1 -2 0
6 -48 0
40 -165 0
46 -168 0
38 -160 0
88 -88 0
89 -90 0
93 -94 0
97 -98 0
92 -91 0
95 -96 0
71 -70 0
14 -12 0
52 -51 0
101 -102 0
103 -104 0
99 -100 0
90 -89 0
105 -105 0
108 -109 0
112 -113 0
106 -107 0
110 -111 0
72 -73 0
19 -18 0
53 -54 0
116 -117 0
118 -119 0
114 -115 0
94 -93 0
109 -108 0
133 -133 0
136 -137 0
121 -122 0
135 -134 0
77 -76 0
24 -25 0
58 -57 0
141 -140 0
142 -143 0
139 -138 0
98 -97 0
113 -112 0
137 -136 0
153 -153 0
126 -125 0
146 -145 0
80 -81 0
35 -33 0
62 -61 0
157 -156 0
158 -159 0
154 -155 0
91 -92 0
107 -106 0
122 -121 0
125 -126 0
120 -120 0
123 -124 0
75 -74 0
22 -20 0
55 -56 0
129 -130 0
131 -132 0
128 -127 0
96 -95 0
111 -110 0
134 -135 0
145 -146 0
124 -123 0
144 -144 0
79 -78 0
30 -31 0
59 -60 0
150 -149 0
152 -151 0
148 -147 0
70 -71 0
73 -72 0
76 -77 0
81 -80 0
74 -75 0
78 -79 0
69 -69 0
11 -10 0
49 -50 0
84 -85 0
86 -87 0
83 -82 0
12 -14 0
18 -19 0
25 -24 0
33 -35 0
20 -22 0
31 -30 0
10 -11 0
2 -2 0
5 -7 0
41 -43 0
44 -47 0
37 -36 0
51 -52 0
54 -53 0
57 -58 0
61 -62 0
56 -55 0
60 -59 0
50 -49 0
7 -5 0
48 -48 0
66 -65 0
68 -67 0
64 -63 0
102 -101 0
117 -116 0
140 -141 0
156 -157 0
130 -129 0
149 -150 0
85 -84 0
43 -41 0
65 -66 0
165 -165 0
167 -166 0
161 -162 0
104 -103 0
119 -118 0
143 -142 0
159 -158 0
132 -131 0
151 -152 0
87 -86 0
47 -44 0
67 -68 0
166 -167 0
168 -168 0
163 -164 0
100 -99 0
115 -114 0
138 -139 0
155 -154 0
127 -128 0
147 -148 0
82 -83 0
36 -37 0
63 -64 0
162 -161 0
164 -163 0
160 -160 0
15 -88 0
17 -105 0
26 -133 0
34 -153 0
23 -120 0
29 -144 0
8 -69 0
3 -2 0
4 -48 0
42 -165 0
45 -168 0
39 -160 0
-13 -15 0
-16 -17 0
-27 -26 0
-32 -34 0
-21 -23 0
-28 -29 0
-9 -8 0
-1 -3 0
-6 -4 0
-40 -42 0
-46 -45 0
-38 -39 0
13 16 -89 0
13 16 -90 0
13 27 -93 0
13 27 -94 0
13 32 -97 0
13 32 -98 0
13 21 -92 0
13 21 -91 0
13 28 -95 0
13 28 -96 0
13 9 -71 0
13 9 -70 0
13 1 -14 0
13 1 -12 0
13 6 -52 0
13 6 -51 0
13 40 -101 0
13 40 -102 0
13 46 -103 0
13 46 -104 0
13 38 -99 0
13 38 -100 0
13 15 -89 0
13 15 -93 0
13 15 -97 0
13 15 -92 0
13 15 -95 0
13 15 -71 0
13 15 -14 0
13 15 -52 0
13 15 -101 0
13 15 -103 0
13 15 -99 0
13 15 -90 0
13 15 -94 0
13 15 -98 0
13 15 -91 0
13 15 -96 0
13 15 -70 0
13 15 -12 0
13 15 -51 0
13 15 -102 0
13 15 -104 0
13 15 -100 0
16 27 -108 0
16 27 -109 0
16 32 -112 0
16 32 -113 0
16 21 -106 0
16 21 -107 0
16 28 -110 0
16 28 -111 0
16 9 -72 0
16 9 -73 0
16 1 -19 0
16 1 -18 0
16 6 -53 0
16 6 -54 0
16 40 -116 0
16 40 -117 0
16 46 -118 0
16 46 -119 0
16 38 -114 0
16 38 -115 0
16 17 -89 0
16 17 -90 0
16 17 -108 0
16 17 -112 0
16 17 -106 0
16 17 -110 0
16 17 -72 0
16 17 -19 0
16 17 -53 0
16 17 -116 0
16 17 -118 0
16 17 -114 0
16 17 -109 0
16 17 -113 0
16 17 -107 0
16 17 -111 0
16 17 -73 0
16 17 -18 0
16 17 -54 0
16 17 -117 0
16 17 -119 0
16 17 -115 0
27 32 -136 0
27 32 -137 0
27 21 -121 0
27 21 -122 0
27 28 -135 0
27 28 -134 0
27 9 -77 0
27 9 -76 0
27 1 -24 0
27 1 -25 0
27 6 -58 0
27 6 -57 0
27 40 -141 0
27 40 -140 0
27 46 -142 0
27 46 -143 0
27 38 -139 0
27 38 -138 0
27 26 -93 0
27 26 -108 0
27 26 -94 0
27 26 -109 0
27 26 -136 0
27 26 -121 0
27 26 -135 0
27 26 -77 0
27 26 -24 0
27 26 -58 0
27 26 -141 0
27 26 -142 0
27 26 -139 0
27 26 -137 0
27 26 -122 0
27 26 -134 0
27 26 -76 0
27 26 -25 0
27 26 -57 0
27 26 -140 0
27 26 -143 0
27 26 -138 0
32 21 -126 0
32 21 -125 0
32 28 -146 0
32 28 -145 0
32 9 -80 0
32 9 -81 0
32 1 -35 0
32 1 -33 0
32 6 -62 0
32 6 -61 0
32 40 -157 0
32 40 -156 0
32 46 -158 0
32 46 -159 0
32 38 -154 0
32 38 -155 0
32 34 -97 0
32 34 -112 0
32 34 -136 0
32 34 -98 0
32 34 -113 0
32 34 -137 0
32 34 -126 0
32 34 -146 0
32 34 -80 0
32 34 -35 0
32 34 -62 0
32 34 -157 0
32 34 -158 0
32 34 -154 0
32 34 -125 0
32 34 -145 0
32 34 -81 0
32 34 -33 0
32 34 -61 0
32 34 -156 0
32 34 -159 0
32 34 -155 0
21 28 -123 0
21 28 -124 0
21 9 -75 0
21 9 -74 0
21 1 -22 0
21 1 -20 0
21 6 -55 0
21 6 -56 0
21 40 -129 0
21 40 -130 0
21 46 -131 0
21 46 -132 0
21 38 -128 0
21 38 -127 0
21 23 -92 0
21 23 -106 0
21 23 -121 0
21 23 -126 0
21 23 -91 0
21 23 -107 0
21 23 -122 0
21 23 -125 0
21 23 -123 0
21 23 -75 0
21 23 -22 0
21 23 -55 0
21 23 -129 0
21 23 -131 0
21 23 -128 0
21 23 -124 0
21 23 -74 0
21 23 -20 0
21 23 -56 0
21 23 -130 0
21 23 -132 0
21 23 -127 0
28 9 -79 0
28 9 -78 0
28 1 -30 0
28 1 -31 0
28 6 -59 0
28 6 -60 0
28 40 -150 0
28 40 -149 0
28 46 -152 0
28 46 -151 0
28 38 -148 0
28 38 -147 0
28 29 -95 0
28 29 -110 0
28 29 -135 0
28 29 -146 0
28 29 -123 0
28 29 -96 0
28 29 -111 0
28 29 -134 0
28 29 -145 0
28 29 -124 0
28 29 -79 0
28 29 -30 0
28 29 -59 0
28 29 -150 0
28 29 -152 0
28 29 -148 0
28 29 -78 0
28 29 -31 0
28 29 -60 0
28 29 -149 0
28 29 -151 0
28 29 -147 0
9 1 -11 0
9 1 -10 0
9 6 -49 0
9 6 -50 0
9 40 -84 0
9 40 -85 0
9 46 -86 0
9 46 -87 0
9 38 -83 0
9 38 -82 0
9 8 -71 0
9 8 -72 0
9 8 -77 0
9 8 -80 0
9 8 -75 0
9 8 -79 0
9 8 -70 0
9 8 -73 0
9 8 -76 0
9 8 -81 0
9 8 -74 0
9 8 -78 0
9 8 -11 0
9 8 -49 0
9 8 -84 0
9 8 -86 0
9 8 -83 0
9 8 -10 0
9 8 -50 0
9 8 -85 0
9 8 -87 0
9 8 -82 0
1 6 -5 0
1 6 -7 0
1 40 -41 0
1 40 -43 0
1 46 -44 0
1 46 -47 0
1 38 -37 0
1 38 -36 0
1 3 -14 0
1 3 -19 0
1 3 -24 0
1 3 -35 0
1 3 -22 0
1 3 -30 0
1 3 -11 0
1 3 -12 0
1 3 -18 0
1 3 -25 0
1 3 -33 0
1 3 -20 0
1 3 -31 0
1 3 -10 0
1 3 -5 0
1 3 -41 0
1 3 -44 0
1 3 -37 0
1 3 -7 0
1 3 -43 0
1 3 -47 0
1 3 -36 0
6 40 -66 0
6 40 -65 0
6 46 -68 0
6 46 -67 0
6 38 -64 0
6 38 -63 0
6 4 -52 0
6 4 -53 0
6 4 -58 0
6 4 -62 0
6 4 -55 0
6 4 -59 0
6 4 -49 0
6 4 -5 0
6 4 -51 0
6 4 -54 0
6 4 -57 0
6 4 -61 0
6 4 -56 0
6 4 -60 0
6 4 -50 0
6 4 -7 0
6 4 -66 0
6 4 -68 0
6 4 -64 0
6 4 -65 0
6 4 -67 0
6 4 -63 0
40 46 -167 0
40 46 -166 0
40 38 -161 0
40 38 -162 0
40 42 -101 0
40 42 -116 0
40 42 -141 0
40 42 -157 0
40 42 -129 0
40 42 -150 0
40 42 -84 0
40 42 -41 0
40 42 -66 0
40 42 -102 0
40 42 -117 0
40 42 -140 0
40 42 -156 0
40 42 -130 0
40 42 -149 0
40 42 -85 0
40 42 -43 0
40 42 -65 0
40 42 -167 0
40 42 -161 0
40 42 -166 0
40 42 -162 0
46 38 -163 0
46 38 -164 0
46 45 -103 0
46 45 -118 0
46 45 -142 0
46 45 -158 0
46 45 -131 0
46 45 -152 0
46 45 -86 0
46 45 -44 0
46 45 -68 0
46 45 -167 0
46 45 -104 0
46 45 -119 0
46 45 -143 0
46 45 -159 0
46 45 -132 0
46 45 -151 0
46 45 -87 0
46 45 -47 0
46 45 -67 0
46 45 -166 0
46 45 -163 0
46 45 -164 0
38 39 -99 0
38 39 -114 0
38 39 -139 0
38 39 -154 0
38 39 -128 0
38 39 -148 0
38 39 -83 0
38 39 -37 0
38 39 -64 0
38 39 -161 0
38 39 -163 0
38 39 -100 0
38 39 -115 0
38 39 -138 0
38 39 -155 0
38 39 -127 0
38 39 -147 0
38 39 -82 0
38 39 -36 0
38 39 -63 0
38 39 -162 0
38 39 -164 0
15 17 -89 0
15 17 -90 0
15 26 -93 0
15 26 -94 0
15 34 -97 0
15 34 -98 0
15 23 -92 0
15 23 -91 0
15 29 -95 0
15 29 -96 0
15 8 -71 0
15 8 -70 0
15 3 -14 0
15 3 -12 0
15 4 -52 0
15 4 -51 0
15 42 -101 0
15 42 -102 0
15 45 -103 0
15 45 -104 0
15 39 -99 0
15 39 -100 0
17 26 -108 0
17 26 -109 0
17 34 -112 0
17 34 -113 0
17 23 -106 0
17 23 -107 0
17 29 -110 0
17 29 -111 0
17 8 -72 0
17 8 -73 0
17 3 -19 0
17 3 -18 0
17 4 -53 0
17 4 -54 0
17 42 -116 0
17 42 -117 0
17 45 -118 0
17 45 -119 0
17 39 -114 0
17 39 -115 0
26 34 -136 0
26 34 -137 0
26 23 -121 0
26 23 -122 0
26 29 -135 0
26 29 -134 0
26 8 -77 0
26 8 -76 0
26 3 -24 0
26 3 -25 0
26 4 -58 0
26 4 -57 0
26 42 -141 0
26 42 -140 0
26 45 -142 0
26 45 -143 0
26 39 -139 0
26 39 -138 0
34 23 -126 0
34 23 -125 0
34 29 -146 0
34 29 -145 0
34 8 -80 0
34 8 -81 0
34 3 -35 0
34 3 -33 0
34 4 -62 0
34 4 -61 0
34 42 -157 0
34 42 -156 0
34 45 -158 0
34 45 -159 0
34 39 -154 0
34 39 -155 0
23 29 -123 0
23 29 -124 0
23 8 -75 0
23 8 -74 0
23 3 -22 0
23 3 -20 0
23 4 -55 0
23 4 -56 0
23 42 -129 0
23 42 -130 0
23 45 -131 0
23 45 -132 0
23 39 -128 0
23 39 -127 0
29 8 -79 0
29 8 -78 0
29 3 -30 0
29 3 -31 0
29 4 -59 0
29 4 -60 0
29 42 -150 0
29 42 -149 0
29 45 -152 0
29 45 -151 0
29 39 -148 0
29 39 -147 0
8 3 -11 0
8 3 -10 0
8 4 -49 0
8 4 -50 0
8 42 -84 0
8 42 -85 0
8 45 -86 0
8 45 -87 0
8 39 -83 0
8 39 -82 0
3 4 -5 0
3 4 -7 0
3 42 -41 0
3 42 -43 0
3 45 -44 0
3 45 -47 0
3 39 -37 0
3 39 -36 0
4 42 -66 0
4 42 -65 0
4 45 -68 0
4 45 -67 0
4 39 -64 0
4 39 -63 0
42 45 -167 0
42 45 -166 0
42 39 -161 0
42 39 -162 0
45 39 -163 0
45 39 -164 0
