c R(4) B(4) E(4,4) R(3) E(4,3) B(3) E(3,4) B(1) R(1) E(4,1) E(1,4) B(7) E(7,4) E(4,7) R(7) E(11,4) R(11) E(4,11) B(11) E(5,4) R(5) E(4,5) B(5) B(10) R(10) E(10,4) E(4,10) R(0) B(0) E(4,0) E(0,4) R(12) B(12) E(4,12) E(12,4) B(2) R(2) E(4,2) E(2,4) B(8) R(8) E(4,8) E(8,4) E(9,4) B(9) E(4,9) R(9) E(6,4) E(4,6) B(6) R(6) E(3,3) E(3,1) E(1,3) E(7,3) E(3,7) E(3,11) E(11,3) E(3,5) E(5,3) E(3,10) E(10,3) E(0,3) E(3,0) E(3,12) E(12,3) E(2,3) E(3,2) E(3,8) E(8,3) E(9,3) E(3,9) E(6,3) E(3,6) E(1,1) E(1,7) E(7,1) E(1,11) E(11,1) E(1,5) E(5,1) E(1,10) E(10,1) E(0,1) E(1,0) E(12,1) E(1,12) E(1,2) E(2,1) E(1,8) E(8,1) E(1,9) E(9,1) E(6,1) E(1,6) E(7,7) E(7,11) E(11,7) E(5,7) E(7,5) E(7,10) E(10,7) E(7,0) E(0,7) E(12,7) E(7,12) E(7,2) E(2,7) E(7,8) E(8,7) E(7,9) E(9,7) E(6,7) E(7,6) E(11,11) E(5,11) E(11,5) E(11,10) E(10,11) E(11,0) E(0,11) E(11,12) E(12,11) E(2,11) E(11,2) E(8,11) E(11,8) E(11,9) E(9,11) E(6,11) E(11,6) E(5,5) E(5,10) E(10,5) E(0,5) E(5,0) E(12,5) E(5,12) E(5,2) E(2,5) E(5,8) E(8,5) E(5,9) E(9,5) E(5,6) E(6,5) E(10,10) E(10,0) E(0,10) E(10,12) E(12,10) E(10,2) E(2,10) E(10,8) E(8,10) E(10,9) E(9,10) E(6,10) E(10,6) E(0,0) E(12,0) E(0,12) E(2,0) E(0,2) E(8,0) E(0,8) E(0,9) E(9,0) E(0,6) E(6,0) E(12,12) E(12,2) E(2,12) E(12,8) E(8,12) E(9,12) E(12,9) E(6,12) E(12,6) E(2,2) E(8,2) E(2,8) E(2,9) E(9,2) E(2,6) E(6,2) E(8,8) E(9,8) E(8,9) E(8,6) E(6,8) E(9,9) E(6,9) E(9,6) E(6,6)
c 1 2 3 4 5 6 7 8 9 10 11 12 13 14 15 16 17 18 19 20 21 22 23 24 25 26 27 28 29 30 31 32 33 34 35 36 37 38 39 40 41 42 43 44 45 46 47 48 49 50 51 52 53 54 55 56 57 58 59 60 61 62 63 64 65 66 67 68 69 70 71 72 73 74 75 76 77 78 79 80 81 82 83 84 85 86 87 88 89 90 91 92 93 94 95 96 97 98 99 100 101 102 103 104 105 106 107 108 109 110 111 112 113 114 115 116 117 118 119 120 121 122 123 124 125 126 127 128 129 130 131 132 133 134 135 136 137 138 139 140 141 142 143 144 145 146 147 148 149 150 151 152 153 154 155 156 157 158 159 160 161 162 163 164 165 166 167 168 169 170 171 172 173 174 175 176 177 178 179 180 181 182 183 184 185 186 187 188 189 190 191 192 193 194 195
p cnf 195 845
29 28 0
8 9 0
24 25 0
19 17 0
33 32 0
36 37 0
6 4 0
2 1 0
23 21 0
50 51 0
12 15 0
40 41 0
45 47 0
29 -160 0
8 -75 0
24 -147 0
19 -115 0
33 -171 0
36 -180 0
6 -52 0
2 -3 0
23 -132 0
50 -195 0
12 -96 0
40 -187 0
45 -192 0
160 -160 0
84 -85 0
149 -148 0
121 -120 0
162 -161 0
164 -163 0
63 -64 0
31 -30 0
135 -136 0
169 -170 0
104 -103 0
166 -165 0
167 -168 0
85 -84 0
75 -75 0
82 -83 0
78 -79 0
87 -86 0
88 -89 0
54 -53 0
11 -10 0
80 -81 0
95 -94 0
76 -77 0
90 -91 0
92 -93 0
148 -149 0
83 -82 0
147 -147 0
119 -118 0
150 -151 0
152 -153 0
62 -61 0
26 -27 0
134 -133 0
159 -158 0
102 -101 0
154 -155 0
156 -157 0
120 -121 0
79 -78 0
118 -119 0
115 -115 0
122 -123 0
125 -124 0
58 -57 0
16 -18 0
117 -116 0
131 -130 0
98 -97 0
127 -126 0
128 -129 0
161 -162 0
86 -87 0
151 -150 0
123 -122 0
171 -171 0
172 -173 0
66 -65 0
35 -34 0
137 -138 0
179 -178 0
105 -106 0
174 -175 0
177 -176 0
163 -164 0
89 -88 0
153 -152 0
124 -125 0
173 -172 0
180 -180 0
67 -68 0
39 -38 0
140 -139 0
185 -186 0
108 -107 0
182 -181 0
183 -184 0
64 -63 0
53 -54 0
61 -62 0
57 -58 0
65 -66 0
68 -67 0
52 -52 0
7 -5 0
59 -60 0
74 -73 0
56 -55 0
69 -70 0
72 -71 0
30 -31 0
10 -11 0
27 -26 0
18 -16 0
34 -35 0
38 -39 0
5 -7 0
3 -3 0
22 -20 0
49 -48 0
14 -13 0
42 -43 0
46 -44 0
136 -135 0
81 -80 0
133 -134 0
116 -117 0
138 -137 0
139 -140 0
60 -59 0
20 -22 0
132 -132 0
145 -146 0
99 -100 0
141 -142 0
143 -144 0
170 -169 0
94 -95 0
158 -159 0
130 -131 0
178 -179 0
186 -185 0
73 -74 0
48 -49 0
146 -145 0
195 -195 0
113 -114 0
191 -190 0
193 -194 0
103 -104 0
77 -76 0
101 -102 0
97 -98 0
106 -105 0
107 -108 0
55 -56 0
13 -14 0
100 -99 0
114 -113 0
96 -96 0
109 -110 0
111 -112 0
165 -166 0
91 -90 0
155 -154 0
126 -127 0
175 -174 0
181 -182 0
70 -69 0
43 -42 0
142 -141 0
190 -191 0
110 -109 0
187 -187 0
189 -188 0
168 -167 0
93 -92 0
157 -156 0
129 -128 0
176 -177 0
184 -183 0
71 -72 0
44 -46 0
144 -143 0
194 -193 0
112 -111 0
188 -189 0
192 -192 0
28 -160 0
9 -75 0
25 -147 0
17 -115 0
32 -171 0
37 -180 0
4 -52 0
1 -3 0
21 -132 0
51 -195 0
15 -96 0
41 -187 0
47 -192 0
-29 -28 0
-8 -9 0
-24 -25 0
-19 -17 0
-33 -32 0
-36 -37 0
-6 -4 0
-2 -1 0
-23 -21 0
-50 -51 0
-12 -15 0
-40 -41 0
-45 -47 0
29 8 -84 0
29 8 -85 0
29 24 -149 0
29 24 -148 0
29 19 -121 0
29 19 -120 0
29 33 -162 0
29 33 -161 0
29 36 -164 0
29 36 -163 0
29 6 -63 0
29 6 -64 0
29 2 -31 0
29 2 -30 0
29 23 -135 0
29 23 -136 0
29 50 -169 0
29 50 -170 0
29 12 -104 0
29 12 -103 0
29 40 -166 0
29 40 -165 0
29 45 -167 0
29 45 -168 0
29 28 -84 0
29 28 -149 0
29 28 -121 0
29 28 -162 0
29 28 -164 0
29 28 -63 0
29 28 -31 0
29 28 -135 0
29 28 -169 0
29 28 -104 0
29 28 -166 0
29 28 -167 0
29 28 -85 0
29 28 -148 0
29 28 -120 0
29 28 -161 0
29 28 -163 0
29 28 -64 0
29 28 -30 0
29 28 -136 0
29 28 -170 0
29 28 -103 0
29 28 -165 0
29 28 -168 0
8 24 -82 0
8 24 -83 0
8 19 -78 0
8 19 -79 0
8 33 -87 0
8 33 -86 0
8 36 -88 0
8 36 -89 0
8 6 -54 0
8 6 -53 0
8 2 -11 0
8 2 -10 0
8 23 -80 0
8 23 -81 0
8 50 -95 0
8 50 -94 0
8 12 -76 0
8 12 -77 0
8 40 -90 0
8 40 -91 0
8 45 -92 0
8 45 -93 0
8 9 -84 0
8 9 -85 0
8 9 -82 0
8 9 -78 0
8 9 -87 0
8 9 -88 0
8 9 -54 0
8 9 -11 0
8 9 -80 0
8 9 -95 0
8 9 -76 0
8 9 -90 0
8 9 -92 0
8 9 -83 0
8 9 -79 0
8 9 -86 0
8 9 -89 0
8 9 -53 0
8 9 -10 0
8 9 -81 0
8 9 -94 0
8 9 -77 0
8 9 -91 0
8 9 -93 0
24 19 -119 0
24 19 -118 0
24 33 -150 0
24 33 -151 0
24 36 -152 0
24 36 -153 0
24 6 -62 0
24 6 -61 0
24 2 -26 0
24 2 -27 0
24 23 -134 0
24 23 -133 0
24 50 -159 0
24 50 -158 0
24 12 -102 0
24 12 -101 0
24 40 -154 0
24 40 -155 0
24 45 -156 0
24 45 -157 0
24 25 -149 0
24 25 -82 0
24 25 -148 0
24 25 -83 0
24 25 -119 0
24 25 -150 0
24 25 -152 0
24 25 -62 0
24 25 -26 0
24 25 -134 0
24 25 -159 0
24 25 -102 0
24 25 -154 0
24 25 -156 0
24 25 -118 0
24 25 -151 0
24 25 -153 0
24 25 -61 0
24 25 -27 0
24 25 -133 0
24 25 -158 0
24 25 -101 0
24 25 -155 0
24 25 -157 0
19 33 -122 0
19 33 -123 0
19 36 -125 0
19 36 -124 0
19 6 -58 0
19 6 -57 0
19 2 -16 0
19 2 -18 0
19 23 -117 0
19 23 -116 0
19 50 -131 0
19 50 -130 0
19 12 -98 0
19 12 -97 0
19 40 -127 0
19 40 -126 0
19 45 -128 0
19 45 -129 0
19 17 -121 0
19 17 -78 0
19 17 -119 0
19 17 -120 0
19 17 -79 0
19 17 -118 0
19 17 -122 0
19 17 -125 0
19 17 -58 0
19 17 -16 0
19 17 -117 0
19 17 -131 0
19 17 -98 0
19 17 -127 0
19 17 -128 0
19 17 -123 0
19 17 -124 0
19 17 -57 0
19 17 -18 0
19 17 -116 0
19 17 -130 0
19 17 -97 0
19 17 -126 0
19 17 -129 0
33 36 -172 0
33 36 -173 0
33 6 -66 0
33 6 -65 0
33 2 -35 0
33 2 -34 0
33 23 -137 0
33 23 -138 0
33 50 -179 0
33 50 -178 0
33 12 -105 0
33 12 -106 0
33 40 -174 0
33 40 -175 0
33 45 -177 0
33 45 -176 0
33 32 -162 0
33 32 -87 0
33 32 -150 0
33 32 -122 0
33 32 -161 0
33 32 -86 0
33 32 -151 0
33 32 -123 0
33 32 -172 0
33 32 -66 0
33 32 -35 0
33 32 -137 0
33 32 -179 0
33 32 -105 0
33 32 -174 0
33 32 -177 0
33 32 -173 0
33 32 -65 0
33 32 -34 0
33 32 -138 0
33 32 -178 0
33 32 -106 0
33 32 -175 0
33 32 -176 0
36 6 -67 0
36 6 -68 0
36 2 -39 0
36 2 -38 0
36 23 -140 0
36 23 -139 0
36 50 -185 0
36 50 -186 0
36 12 -108 0
36 12 -107 0
36 40 -182 0
36 40 -181 0
36 45 -183 0
36 45 -184 0
36 37 -164 0
36 37 -88 0
36 37 -152 0
36 37 -125 0
36 37 -172 0
36 37 -163 0
36 37 -89 0
36 37 -153 0
36 37 -124 0
36 37 -173 0
36 37 -67 0
36 37 -39 0
36 37 -140 0
36 37 -185 0
36 37 -108 0
36 37 -182 0
36 37 -183 0
36 37 -68 0
36 37 -38 0
36 37 -139 0
36 37 -186 0
36 37 -107 0
36 37 -181 0
36 37 -184 0
6 2 -7 0
6 2 -5 0
6 23 -59 0
6 23 -60 0
6 50 -74 0
6 50 -73 0
6 12 -56 0
6 12 -55 0
6 40 -69 0
6 40 -70 0
6 45 -72 0
6 45 -71 0
6 4 -63 0
6 4 -54 0
6 4 -62 0
6 4 -58 0
6 4 -66 0
6 4 -67 0
6 4 -64 0
6 4 -53 0
6 4 -61 0
6 4 -57 0
6 4 -65 0
6 4 -68 0
6 4 -7 0
6 4 -59 0
6 4 -74 0
6 4 -56 0
6 4 -69 0
6 4 -72 0
6 4 -5 0
6 4 -60 0
6 4 -73 0
6 4 -55 0
6 4 -70 0
6 4 -71 0
2 23 -22 0
2 23 -20 0
2 50 -49 0
2 50 -48 0
2 12 -14 0
2 12 -13 0
2 40 -42 0
2 40 -43 0
2 45 -46 0
2 45 -44 0
2 1 -31 0
2 1 -11 0
2 1 -26 0
2 1 -16 0
2 1 -35 0
2 1 -39 0
2 1 -7 0
2 1 -30 0
2 1 -10 0
2 1 -27 0
2 1 -18 0
2 1 -34 0
2 1 -38 0
2 1 -5 0
2 1 -22 0
2 1 -49 0
2 1 -14 0
2 1 -42 0
2 1 -46 0
2 1 -20 0
2 1 -48 0
2 1 -13 0
2 1 -43 0
2 1 -44 0
23 50 -145 0
23 50 -146 0
23 12 -99 0
23 12 -100 0
23 40 -141 0
23 40 -142 0
23 45 -143 0
23 45 -144 0
23 21 -135 0
23 21 -80 0
23 21 -134 0
23 21 -117 0
23 21 -137 0
23 21 -140 0
23 21 -59 0
23 21 -22 0
23 21 -136 0
23 21 -81 0
23 21 -133 0
23 21 -116 0
23 21 -138 0
23 21 -139 0
23 21 -60 0
23 21 -20 0
23 21 -145 0
23 21 -99 0
23 21 -141 0
23 21 -143 0
23 21 -146 0
23 21 -100 0
23 21 -142 0
23 21 -144 0
50 12 -113 0
50 12 -114 0
50 40 -191 0
50 40 -190 0
50 45 -193 0
50 45 -194 0
50 51 -169 0
50 51 -95 0
50 51 -159 0
50 51 -131 0
50 51 -179 0
50 51 -185 0
50 51 -74 0
50 51 -49 0
50 51 -145 0
50 51 -170 0
50 51 -94 0
50 51 -158 0
50 51 -130 0
50 51 -178 0
50 51 -186 0
50 51 -73 0
50 51 -48 0
50 51 -146 0
50 51 -113 0
50 51 -191 0
50 51 -193 0
50 51 -114 0
50 51 -190 0
50 51 -194 0
12 40 -109 0
12 40 -110 0
12 45 -111 0
12 45 -112 0
12 15 -104 0
12 15 -76 0
12 15 -102 0
12 15 -98 0
12 15 -105 0
12 15 -108 0
12 15 -56 0
12 15 -14 0
12 15 -99 0
12 15 -113 0
12 15 -103 0
12 15 -77 0
12 15 -101 0
12 15 -97 0
12 15 -106 0
12 15 -107 0
12 15 -55 0
12 15 -13 0
12 15 -100 0
12 15 -114 0
12 15 -109 0
12 15 -111 0
12 15 -110 0
12 15 -112 0
40 45 -189 0
40 45 -188 0
40 41 -166 0
40 41 -90 0
40 41 -154 0
40 41 -127 0
40 41 -174 0
40 41 -182 0
40 41 -69 0
40 41 -42 0
40 41 -141 0
40 41 -191 0
40 41 -109 0
40 41 -165 0
40 41 -91 0
40 41 -155 0
40 41 -126 0
40 41 -175 0
40 41 -181 0
40 41 -70 0
40 41 -43 0
40 41 -142 0
40 41 -190 0
40 41 -110 0
40 41 -189 0
40 41 -188 0
45 47 -167 0
45 47 -92 0
45 47 -156 0
45 47 -128 0
45 47 -177 0
45 47 -183 0
45 47 -72 0
45 47 -46 0
45 47 -143 0
45 47 -193 0
45 47 -111 0
45 47 -189 0
45 47 -168 0
45 47 -93 0
45 47 -157 0
45 47 -129 0
45 47 -176 0
45 47 -184 0
45 47 -71 0
45 47 -44 0
45 47 -144 0
45 47 -194 0
45 47 -112 0
45 47 -188 0
28 9 -84 0
28 9 -85 0
28 25 -149 0
28 25 -148 0
28 17 -121 0
28 17 -120 0
28 32 -162 0
28 32 -161 0
28 37 -164 0
28 37 -163 0
28 4 -63 0
28 4 -64 0
28 1 -31 0
28 1 -30 0
28 21 -135 0
28 21 -136 0
28 51 -169 0
28 51 -170 0
28 15 -104 0
28 15 -103 0
28 41 -166 0
28 41 -165 0
28 47 -167 0
28 47 -168 0
9 25 -82 0
9 25 -83 0
9 17 -78 0
9 17 -79 0
9 32 -87 0
9 32 -86 0
9 37 -88 0
9 37 -89 0
9 4 -54 0
9 4 -53 0
9 1 -11 0
9 1 -10 0
9 21 -80 0
9 21 -81 0
9 51 -95 0
9 51 -94 0
9 15 -76 0
9 15 -77 0
9 41 -90 0
9 41 -91 0
9 47 -92 0
9 47 -93 0
25 17 -119 0
25 17 -118 0
25 32 -150 0
25 32 -151 0
25 37 -152 0
25 37 -153 0
25 4 -62 0
25 4 -61 0
25 1 -26 0
25 1 -27 0
25 21 -134 0
25 21 -133 0
25 51 -159 0
25 51 -158 0
25 15 -102 0
25 15 -101 0
25 41 -154 0
25 41 -155 0
25 47 -156 0
25 47 -157 0
17 32 -122 0
17 32 -123 0
17 37 -125 0
17 37 -124 0
17 4 -58 0
17 4 -57 0
17 1 -16 0
17 1 -18 0
17 21 -117 0
17 21 -116 0
17 51 -131 0
17 51 -130 0
17 15 -98 0
17 15 -97 0
17 41 -127 0
17 41 -126 0
17 47 -128 0
17 47 -129 0
32 37 -172 0
32 37 -173 0
32 4 -66 0
32 4 -65 0
32 1 -35 0
32 1 -34 0
32 21 -137 0
32 21 -138 0
32 51 -179 0
32 51 -178 0
32 15 -105 0
32 15 -106 0
32 41 -174 0
32 41 -175 0
32 47 -177 0
32 47 -176 0
37 4 -67 0
37 4 -68 0
37 1 -39 0
37 1 -38 0
37 21 -140 0
37 21 -139 0
37 51 -185 0
37 51 -186 0
37 15 -108 0
37 15 -107 0
37 41 -182 0
37 41 -181 0
37 47 -183 0
37 47 -184 0
4 1 -7 0
4 1 -5 0
4 21 -59 0
4 21 -60 0
4 51 -74 0
4 51 -73 0
4 15 -56 0
4 15 -55 0
4 41 -69 0
4 41 -70 0
4 47 -72 0
4 47 -71 0
1 21 -22 0
1 21 -20 0
1 51 -49 0
1 51 -48 0
1 15 -14 0
1 15 -13 0
1 41 -42 0
1 41 -43 0
1 47 -46 0
1 47 -44 0
21 51 -145 0
21 51 -146 0
21 15 -99 0
21 15 -100 0
21 41 -141 0
21 41 -142 0
21 47 -143 0
21 47 -144 0
51 15 -113 0
51 15 -114 0
51 41 -191 0
51 41 -190 0
51 47 -193 0
51 47 -194 0
15 41 -109 0
15 41 -110 0
15 47 -111 0
15 47 -112 0
41 47 -189 0
41 47 -188 0
