c B(4) R(4) E(4,4) B(9) E(9,4) R(9) E(4,9) E(4,6) B(6) E(6,4) R(6) B(2) E(2,4) R(2) E(4,2) E(4,8) E(8,4) B(8) R(8) B(1) E(4,1) R(1) E(1,4) R(10) E(4,10) E(10,4) B(10) R(7) E(4,7) B(7) E(7,4) B(12) E(12,4) R(12) E(4,12) E(5,4) B(5) R(5) E(4,5) R(3) E(4,3) E(3,4) B(3) E(11,4) E(4,11) B(11) R(11) E(4,13) B(13) E(13,4) R(13) E(0,4) B(0) R(0) E(4,0) E(9,9) E(6,9) E(9,6) E(9,2) E(2,9) E(8,9) E(9,8) E(9,1) E(1,9) E(9,10) E(10,9) E(9,7) E(7,9) E(9,12) E(12,9) E(5,9) E(9,5) E(9,3) E(3,9) E(11,9) E(9,11) E(13,9) E(9,13) E(0,9) E(9,0) E(6,6) E(2,6) E(6,2) E(8,6) E(6,8) E(6,1) E(1,6) E(10,6) E(6,10) E(6,7) E(7,6) E(6,12) E(12,6) E(5,6) E(6,5) E(6,3) E(3,6) E(6,11) E(11,6) E(6,13) E(13,6) E(0,6) E(6,0) E(2,2) E(2,8) E(8,2) E(1,2) E(2,1) E(2,10) E(10,2) E(2,7) E(7,2) E(12,2) E(2,12) E(5,2) E(2,5) E(2,3) E(3,2) E(2,11) E(11,2) E(2,13) E(13,2) E(2,0) E(0,2) E(8,8) E(1,8) E(8,1) E(10,8) E(8,10) E(7,8) E(8,7) E(8,12) E(12,8) E(8,5) E(5,8) E(8,3) E(3,8) E(8,11) E(11,8) E(13,8) E(8,13) E(8,0) E(0,8) E(1,1) E(10,1) E(1,10) E(1,7) E(7,1) E(12,1) E(1,12) E(1,5) E(5,1) E(3,1) E(1,3) E(1,11) E(11,1) E(1,13) E(13,1) E(0,1) E(1,0) E(10,10) E(10,7) E(7,10) E(12,10) E(10,12) E(10,5) E(5,10) E(10,3) E(3,10) E(11,10) E(10,11) E(13,10) E(10,13) E(0,10) E(10,0) E(7,7) E(12,7) E(7,12) E(7,5) E(5,7) E(7,3) E(3,7) E(11,7) E(7,11) E(7,13) E(13,7) E(7,0) E(0,7) E(12,12) E(5,12) E(12,5) E(12,3) E(3,12) E(12,11) E(11,12) E(12,13) E(13,12) E(0,12) E(12,0) E(5,5) E(3,5) E(5,3) E(5,11) E(11,5) E(5,13) E(13,5) E(0,5) E(5,0) E(3,3) E(11,3) E(3,11) E(3,13) E(13,3) E(3,0) E(0,3) E(11,11) E(13,11) E(11,13) E(0,11) E(11,0) E(13,13) E(13,0) E(0,13) E(0,0)
c 1 2 3 4 5 6 7 8 9 10 11 12 13 14 15 16 17 18 19 20 21 22 23 24 25 26 27 28 29 30 31 32 33 34 35 36 37 38 39 40 41 42 43 44 45 46 47 48 49 50 51 52 53 54 55 56 57 58 59 60 61 62 63 64 65 66 67 68 69 70 71 72 73 74 75 76 77 78 79 80 81 82 83 84 85 86 87 88 89 90 91 92 93 94 95 96 97 98 99 100 101 102 103 104 105 106 107 108 109 110 111 112 113 114 115 116 117 118 119 120 121 122 123 124 125 126 127 128 129 130 131 132 133 134 135 136 137 138 139 140 141 142 143 144 145 146 147 148 149 150 151 152 153 154 155 156 157 158 159 160 161 162 163 164 165 166 167 168 169 170 171 172 173 174 175 176 177 178 179 180 181 182 183 184 185 186 187 188 189 190 191 192 193 194 195 196 197 198 199 200 201 202 203 204 205 206 207 208 209 210 211 212 213 214 215 216 217 218 219 220 221 222 223 224
p cnf 224 980
53 54 0
20 22 0
27 24 0
46 47 0
32 34 0
49 51 0
12 14 0
43 40 0
1 2 0
37 38 0
9 11 0
30 28 0
18 19 0
4 6 0
53 -224 0
20 -144 0
27 -161 0
46 -216 0
32 -189 0
49 -221 0
12 -104 0
43 -209 0
1 -3 0
37 -200 0
9 -81 0
30 -176 0
18 -125 0
4 -56 0
224 -224 0
159 -160 0
174 -175 0
219 -220 0
198 -199 0
223 -222 0
124 -123 0
215 -214 0
52 -55 0
207 -208 0
102 -103 0
188 -187 0
143 -142 0
79 -80 0
160 -159 0
144 -144 0
146 -145 0
155 -156 0
150 -149 0
157 -158 0
107 -108 0
154 -153 0
23 -21 0
151 -152 0
87 -86 0
147 -148 0
126 -127 0
64 -63 0
175 -174 0
145 -146 0
161 -161 0
171 -170 0
165 -164 0
173 -172 0
110 -109 0
168 -169 0
26 -25 0
166 -167 0
88 -89 0
162 -163 0
128 -129 0
66 -65 0
220 -219 0
156 -155 0
170 -171 0
216 -216 0
195 -194 0
218 -217 0
120 -119 0
210 -211 0
44 -45 0
204 -203 0
99 -98 0
183 -184 0
139 -138 0
75 -76 0
199 -198 0
149 -150 0
164 -165 0
194 -195 0
189 -189 0
196 -197 0
113 -114 0
192 -193 0
33 -35 0
191 -190 0
93 -92 0
177 -178 0
133 -132 0
70 -69 0
222 -223 0
158 -157 0
172 -173 0
217 -218 0
197 -196 0
221 -221 0
122 -121 0
213 -212 0
50 -48 0
206 -205 0
101 -100 0
186 -185 0
140 -141 0
77 -78 0
123 -124 0
108 -107 0
109 -110 0
119 -120 0
114 -113 0
121 -122 0
104 -104 0
117 -118 0
13 -15 0
116 -115 0
82 -83 0
111 -112 0
105 -106 0
60 -59 0
214 -215 0
153 -154 0
169 -168 0
211 -210 0
193 -192 0
212 -213 0
118 -117 0
209 -209 0
42 -41 0
201 -202 0
97 -96 0
182 -181 0
137 -136 0
74 -73 0
55 -52 0
21 -23 0
25 -26 0
45 -44 0
35 -33 0
48 -50 0
15 -13 0
41 -42 0
3 -3 0
39 -36 0
8 -10 0
29 -31 0
16 -17 0
7 -5 0
208 -207 0
152 -151 0
167 -166 0
203 -204 0
190 -191 0
205 -206 0
115 -116 0
202 -201 0
36 -39 0
200 -200 0
94 -95 0
180 -179 0
135 -134 0
71 -72 0
103 -102 0
86 -87 0
89 -88 0
98 -99 0
92 -93 0
100 -101 0
83 -82 0
96 -97 0
10 -8 0
95 -94 0
81 -81 0
90 -91 0
85 -84 0
57 -58 0
187 -188 0
148 -147 0
163 -162 0
184 -183 0
178 -177 0
185 -186 0
112 -111 0
181 -182 0
31 -29 0
179 -180 0
91 -90 0
176 -176 0
130 -131 0
68 -67 0
142 -143 0
127 -126 0
129 -128 0
138 -139 0
132 -133 0
141 -140 0
106 -105 0
136 -137 0
17 -16 0
134 -135 0
84 -85 0
131 -130 0
125 -125 0
61 -62 0
80 -79 0
63 -64 0
65 -66 0
76 -75 0
69 -70 0
78 -77 0
59 -60 0
73 -74 0
5 -7 0
72 -71 0
58 -57 0
67 -68 0
62 -61 0
56 -56 0
54 -224 0
22 -144 0
24 -161 0
47 -216 0
34 -189 0
51 -221 0
14 -104 0
40 -209 0
2 -3 0
38 -200 0
11 -81 0
28 -176 0
19 -125 0
6 -56 0
-53 -54 0
-20 -22 0
-27 -24 0
-46 -47 0
-32 -34 0
-49 -51 0
-12 -14 0
-43 -40 0
-1 -2 0
-37 -38 0
-9 -11 0
-30 -28 0
-18 -19 0
-4 -6 0
53 20 -159 0
53 20 -160 0
53 27 -174 0
53 27 -175 0
53 46 -219 0
53 46 -220 0
53 32 -198 0
53 32 -199 0
53 49 -223 0
53 49 -222 0
53 12 -124 0
53 12 -123 0
53 43 -215 0
53 43 -214 0
53 1 -52 0
53 1 -55 0
53 37 -207 0
53 37 -208 0
53 9 -102 0
53 9 -103 0
53 30 -188 0
53 30 -187 0
53 18 -143 0
53 18 -142 0
53 4 -79 0
53 4 -80 0
53 54 -159 0
53 54 -174 0
53 54 -219 0
53 54 -198 0
53 54 -223 0
53 54 -124 0
53 54 -215 0
53 54 -52 0
53 54 -207 0
53 54 -102 0
53 54 -188 0
53 54 -143 0
53 54 -79 0
53 54 -160 0
53 54 -175 0
53 54 -220 0
53 54 -199 0
53 54 -222 0
53 54 -123 0
53 54 -214 0
53 54 -55 0
53 54 -208 0
53 54 -103 0
53 54 -187 0
53 54 -142 0
53 54 -80 0
20 27 -146 0
20 27 -145 0
20 46 -155 0
20 46 -156 0
20 32 -150 0
20 32 -149 0
20 49 -157 0
20 49 -158 0
20 12 -107 0
20 12 -108 0
20 43 -154 0
20 43 -153 0
20 1 -23 0
20 1 -21 0
20 37 -151 0
20 37 -152 0
20 9 -87 0
20 9 -86 0
20 30 -147 0
20 30 -148 0
20 18 -126 0
20 18 -127 0
20 4 -64 0
20 4 -63 0
20 22 -159 0
20 22 -160 0
20 22 -146 0
20 22 -155 0
20 22 -150 0
20 22 -157 0
20 22 -107 0
20 22 -154 0
20 22 -23 0
20 22 -151 0
20 22 -87 0
20 22 -147 0
20 22 -126 0
20 22 -64 0
20 22 -145 0
20 22 -156 0
20 22 -149 0
20 22 -158 0
20 22 -108 0
20 22 -153 0
20 22 -21 0
20 22 -152 0
20 22 -86 0
20 22 -148 0
20 22 -127 0
20 22 -63 0
27 46 -171 0
27 46 -170 0
27 32 -165 0
27 32 -164 0
27 49 -173 0
27 49 -172 0
27 12 -110 0
27 12 -109 0
27 43 -168 0
27 43 -169 0
27 1 -26 0
27 1 -25 0
27 37 -166 0
27 37 -167 0
27 9 -88 0
27 9 -89 0
27 30 -162 0
27 30 -163 0
27 18 -128 0
27 18 -129 0
27 4 -66 0
27 4 -65 0
27 24 -174 0
27 24 -146 0
27 24 -175 0
27 24 -145 0
27 24 -171 0
27 24 -165 0
27 24 -173 0
27 24 -110 0
27 24 -168 0
27 24 -26 0
27 24 -166 0
27 24 -88 0
27 24 -162 0
27 24 -128 0
27 24 -66 0
27 24 -170 0
27 24 -164 0
27 24 -172 0
27 24 -109 0
27 24 -169 0
27 24 -25 0
27 24 -167 0
27 24 -89 0
27 24 -163 0
27 24 -129 0
27 24 -65 0
46 32 -195 0
46 32 -194 0
46 49 -218 0
46 49 -217 0
46 12 -120 0
46 12 -119 0
46 43 -210 0
46 43 -211 0
46 1 -44 0
46 1 -45 0
46 37 -204 0
46 37 -203 0
46 9 -99 0
46 9 -98 0
46 30 -183 0
46 30 -184 0
46 18 -139 0
46 18 -138 0
46 4 -75 0
46 4 -76 0
46 47 -219 0
46 47 -155 0
46 47 -171 0
46 47 -220 0
46 47 -156 0
46 47 -170 0
46 47 -195 0
46 47 -218 0
46 47 -120 0
46 47 -210 0
46 47 -44 0
46 47 -204 0
46 47 -99 0
46 47 -183 0
46 47 -139 0
46 47 -75 0
46 47 -194 0
46 47 -217 0
46 47 -119 0
46 47 -211 0
46 47 -45 0
46 47 -203 0
46 47 -98 0
46 47 -184 0
46 47 -138 0
46 47 -76 0
32 49 -196 0
32 49 -197 0
32 12 -113 0
32 12 -114 0
32 43 -192 0
32 43 -193 0
32 1 -33 0
32 1 -35 0
32 37 -191 0
32 37 -190 0
32 9 -93 0
32 9 -92 0
32 30 -177 0
32 30 -178 0
32 18 -133 0
32 18 -132 0
32 4 -70 0
32 4 -69 0
32 34 -198 0
32 34 -150 0
32 34 -165 0
32 34 -195 0
32 34 -199 0
32 34 -149 0
32 34 -164 0
32 34 -194 0
32 34 -196 0
32 34 -113 0
32 34 -192 0
32 34 -33 0
32 34 -191 0
32 34 -93 0
32 34 -177 0
32 34 -133 0
32 34 -70 0
32 34 -197 0
32 34 -114 0
32 34 -193 0
32 34 -35 0
32 34 -190 0
32 34 -92 0
32 34 -178 0
32 34 -132 0
32 34 -69 0
49 12 -122 0
49 12 -121 0
49 43 -213 0
49 43 -212 0
49 1 -50 0
49 1 -48 0
49 37 -206 0
49 37 -205 0
49 9 -101 0
49 9 -100 0
49 30 -186 0
49 30 -185 0
49 18 -140 0
49 18 -141 0
49 4 -77 0
49 4 -78 0
49 51 -223 0
49 51 -157 0
49 51 -173 0
49 51 -218 0
49 51 -196 0
49 51 -222 0
49 51 -158 0
49 51 -172 0
49 51 -217 0
49 51 -197 0
49 51 -122 0
49 51 -213 0
49 51 -50 0
49 51 -206 0
49 51 -101 0
49 51 -186 0
49 51 -140 0
49 51 -77 0
49 51 -121 0
49 51 -212 0
49 51 -48 0
49 51 -205 0
49 51 -100 0
49 51 -185 0
49 51 -141 0
49 51 -78 0
12 43 -117 0
12 43 -118 0
12 1 -13 0
12 1 -15 0
12 37 -116 0
12 37 -115 0
12 9 -82 0
12 9 -83 0
12 30 -111 0
12 30 -112 0
12 18 -105 0
12 18 -106 0
12 4 -60 0
12 4 -59 0
12 14 -124 0
12 14 -107 0
12 14 -110 0
12 14 -120 0
12 14 -113 0
12 14 -122 0
12 14 -123 0
12 14 -108 0
12 14 -109 0
12 14 -119 0
12 14 -114 0
12 14 -121 0
12 14 -117 0
12 14 -13 0
12 14 -116 0
12 14 -82 0
12 14 -111 0
12 14 -105 0
12 14 -60 0
12 14 -118 0
12 14 -15 0
12 14 -115 0
12 14 -83 0
12 14 -112 0
12 14 -106 0
12 14 -59 0
43 1 -42 0
43 1 -41 0
43 37 -201 0
43 37 -202 0
43 9 -97 0
43 9 -96 0
43 30 -182 0
43 30 -181 0
43 18 -137 0
43 18 -136 0
43 4 -74 0
43 4 -73 0
43 40 -215 0
43 40 -154 0
43 40 -168 0
43 40 -210 0
43 40 -192 0
43 40 -213 0
43 40 -117 0
43 40 -214 0
43 40 -153 0
43 40 -169 0
43 40 -211 0
43 40 -193 0
43 40 -212 0
43 40 -118 0
43 40 -42 0
43 40 -201 0
43 40 -97 0
43 40 -182 0
43 40 -137 0
43 40 -74 0
43 40 -41 0
43 40 -202 0
43 40 -96 0
43 40 -181 0
43 40 -136 0
43 40 -73 0
1 37 -39 0
1 37 -36 0
1 9 -8 0
1 9 -10 0
1 30 -29 0
1 30 -31 0
1 18 -16 0
1 18 -17 0
1 4 -7 0
1 4 -5 0
1 2 -52 0
1 2 -23 0
1 2 -26 0
1 2 -44 0
1 2 -33 0
1 2 -50 0
1 2 -13 0
1 2 -42 0
1 2 -55 0
1 2 -21 0
1 2 -25 0
1 2 -45 0
1 2 -35 0
1 2 -48 0
1 2 -15 0
1 2 -41 0
1 2 -39 0
1 2 -8 0
1 2 -29 0
1 2 -16 0
1 2 -7 0
1 2 -36 0
1 2 -10 0
1 2 -31 0
1 2 -17 0
1 2 -5 0
37 9 -94 0
37 9 -95 0
37 30 -180 0
37 30 -179 0
37 18 -135 0
37 18 -134 0
37 4 -71 0
37 4 -72 0
37 38 -207 0
37 38 -151 0
37 38 -166 0
37 38 -204 0
37 38 -191 0
37 38 -206 0
37 38 -116 0
37 38 -201 0
37 38 -39 0
37 38 -208 0
37 38 -152 0
37 38 -167 0
37 38 -203 0
37 38 -190 0
37 38 -205 0
37 38 -115 0
37 38 -202 0
37 38 -36 0
37 38 -94 0
37 38 -180 0
37 38 -135 0
37 38 -71 0
37 38 -95 0
37 38 -179 0
37 38 -134 0
37 38 -72 0
9 30 -90 0
9 30 -91 0
9 18 -85 0
9 18 -84 0
9 4 -57 0
9 4 -58 0
9 11 -102 0
9 11 -87 0
9 11 -88 0
9 11 -99 0
9 11 -93 0
9 11 -101 0
9 11 -82 0
9 11 -97 0
9 11 -8 0
9 11 -94 0
9 11 -103 0
9 11 -86 0
9 11 -89 0
9 11 -98 0
9 11 -92 0
9 11 -100 0
9 11 -83 0
9 11 -96 0
9 11 -10 0
9 11 -95 0
9 11 -90 0
9 11 -85 0
9 11 -57 0
9 11 -91 0
9 11 -84 0
9 11 -58 0
30 18 -130 0
30 18 -131 0
30 4 -68 0
30 4 -67 0
30 28 -188 0
30 28 -147 0
30 28 -162 0
30 28 -183 0
30 28 -177 0
30 28 -186 0
30 28 -111 0
30 28 -182 0
30 28 -29 0
30 28 -180 0
30 28 -90 0
30 28 -187 0
30 28 -148 0
30 28 -163 0
30 28 -184 0
30 28 -178 0
30 28 -185 0
30 28 -112 0
30 28 -181 0
30 28 -31 0
30 28 -179 0
30 28 -91 0
30 28 -130 0
30 28 -68 0
30 28 -131 0
30 28 -67 0
18 4 -61 0
18 4 -62 0
18 19 -143 0
18 19 -126 0
18 19 -128 0
18 19 -139 0
18 19 -133 0
18 19 -140 0
18 19 -105 0
18 19 -137 0
18 19 -16 0
18 19 -135 0
18 19 -85 0
18 19 -130 0
18 19 -142 0
18 19 -127 0
18 19 -129 0
18 19 -138 0
18 19 -132 0
18 19 -141 0
18 19 -106 0
18 19 -136 0
18 19 -17 0
18 19 -134 0
18 19 -84 0
18 19 -131 0
18 19 -61 0
18 19 -62 0
4 6 -79 0
4 6 -64 0
4 6 -66 0
4 6 -75 0
4 6 -70 0
4 6 -77 0
4 6 -60 0
4 6 -74 0
4 6 -7 0
4 6 -71 0
4 6 -57 0
4 6 -68 0
4 6 -61 0
4 6 -80 0
4 6 -63 0
4 6 -65 0
4 6 -76 0
4 6 -69 0
4 6 -78 0
4 6 -59 0
4 6 -73 0
4 6 -5 0
4 6 -72 0
4 6 -58 0
4 6 -67 0
4 6 -62 0
54 22 -159 0
54 22 -160 0
54 24 -174 0
54 24 -175 0
54 47 -219 0
54 47 -220 0
54 34 -198 0
54 34 -199 0
54 51 -223 0
54 51 -222 0
54 14 -124 0
54 14 -123 0
54 40 -215 0
54 40 -214 0
54 2 -52 0
54 2 -55 0
54 38 -207 0
54 38 -208 0
54 11 -102 0
54 11 -103 0
54 28 -188 0
54 28 -187 0
54 19 -143 0
54 19 -142 0
54 6 -79 0
54 6 -80 0
22 24 -146 0
22 24 -145 0
22 47 -155 0
22 47 -156 0
22 34 -150 0
22 34 -149 0
22 51 -157 0
22 51 -158 0
22 14 -107 0
22 14 -108 0
22 40 -154 0
22 40 -153 0
22 2 -23 0
22 2 -21 0
22 38 -151 0
22 38 -152 0
22 11 -87 0
22 11 -86 0
22 28 -147 0
22 28 -148 0
22 19 -126 0
22 19 -127 0
22 6 -64 0
22 6 -63 0
24 47 -171 0
24 47 -170 0
24 34 -165 0
24 34 -164 0
24 51 -173 0
24 51 -172 0
24 14 -110 0
24 14 -109 0
24 40 -168 0
24 40 -169 0
24 2 -26 0
24 2 -25 0
24 38 -166 0
24 38 -167 0
24 11 -88 0
24 11 -89 0
24 28 -162 0
24 28 -163 0
24 19 -128 0
24 19 -129 0
24 6 -66 0
24 6 -65 0
47 34 -195 0
47 34 -194 0
47 51 -218 0
47 51 -217 0
47 14 -120 0
47 14 -119 0
47 40 -210 0
47 40 -211 0
47 2 -44 0
47 2 -45 0
47 38 -204 0
47 38 -203 0
47 11 -99 0
47 11 -98 0
47 28 -183 0
47 28 -184 0
47 19 -139 0
47 19 -138 0
47 6 -75 0
47 6 -76 0
34 51 -196 0
34 51 -197 0
34 14 -113 0
34 14 -114 0
34 40 -192 0
34 40 -193 0
34 2 -33 0
34 2 -35 0
34 38 -191 0
34 38 -190 0
34 11 -93 0
34 11 -92 0
34 28 -177 0
34 28 -178 0
34 19 -133 0
34 19 -132 0
34 6 -70 0
34 6 -69 0
51 14 -122 0
51 14 -121 0
51 40 -213 0
51 40 -212 0
51 2 -50 0
51 2 -48 0
51 38 -206 0
51 38 -205 0
51 11 -101 0
51 11 -100 0
51 28 -186 0
51 28 -185 0
51 19 -140 0
51 19 -141 0
51 6 -77 0
51 6 -78 0
14 40 -117 0
14 40 -118 0
14 2 -13 0
14 2 -15 0
14 38 -116 0
14 38 -115 0
14 11 -82 0
14 11 -83 0
14 28 -111 0
14 28 -112 0
14 19 -105 0
14 19 -106 0
14 6 -60 0
14 6 -59 0
40 2 -42 0
40 2 -41 0
40 38 -201 0
40 38 -202 0
40 11 -97 0
40 11 -96 0
40 28 -182 0
40 28 -181 0
40 19 -137 0
40 19 -136 0
40 6 -74 0
40 6 -73 0
2 38 -39 0
2 38 -36 0
2 11 -8 0
2 11 -10 0
2 28 -29 0
2 28 -31 0
2 19 -16 0
2 19 -17 0
2 6 -7 0
2 6 -5 0
38 11 -94 0
38 11 -95 0
38 28 -180 0
38 28 -179 0
38 19 -135 0
38 19 -134 0
38 6 -71 0
38 6 -72 0
11 28 -90 0
11 28 -91 0
11 19 -85 0
11 19 -84 0
11 6 -57 0
11 6 -58 0
28 19 -130 0
28 19 -131 0
28 6 -68 0
28 6 -67 0
19 6 -61 0
19 6 -62 0
