c E(13,13) B(13) R(13) B(5) E(13,5) R(5) E(5,13) E(13,12) B(12) R(12) E(12,13) E(13,6) E(6,13) R(6) B(6) B(9) E(9,13) E(13,9) R(9) E(7,13) E(13,7) R(7) B(7) E(4,13) E(13,4) B(4) R(4) E(13,2) E(2,13) B(2) R(2) E(13,8) B(8) R(8) E(8,13) E(3,13) E(13,3) B(3) R(3) E(13,1) B(1) R(1) E(1,13) B(14) R(14) E(14,13) E(13,14) E(13,0) R(0) B(0) E(0,13) B(10) E(13,10) R(10) E(10,13) R(11) E(11,13) E(13,11) B(11) E(5,5) E(5,12) E(12,5) E(6,5) E(5,6) E(9,5) E(5,9) E(5,7) E(7,5) E(4,5) E(5,4) E(2,5) E(5,2) E(8,5) E(5,8) E(3,5) E(5,3) E(5,1) E(1,5) E(5,14) E(14,5) E(0,5) E(5,0) E(10,5) E(5,10) E(11,5) E(5,11) E(12,12) E(6,12) E(12,6) E(12,9) E(9,12) E(12,7) E(7,12) E(12,4) E(4,12) E(12,2) E(2,12) E(12,8) E(8,12) E(3,12) E(12,3) E(12,1) E(1,12) E(12,14) E(14,12) E(0,12) E(12,0) E(10,12) E(12,10) E(12,11) E(11,12) E(6,6) E(6,9) E(9,6) E(6,7) E(7,6) E(6,4) E(4,6) E(6,2) E(2,6) E(6,8) E(8,6) E(6,3) E(3,6) E(1,6) E(6,1) E(14,6) E(6,14) E(0,6) E(6,0) E(6,10) E(10,6) E(6,11) E(11,6) E(9,9) E(9,7) E(7,9) E(4,9) E(9,4) E(9,2) E(2,9) E(9,8) E(8,9) E(9,3) E(3,9) E(9,1) E(1,9) E(14,9) E(9,14) E(0,9) E(9,0) E(9,10) E(10,9) E(9,11) E(11,9) E(7,7) E(7,4) E(4,7) E(2,7) E(7,2) E(8,7) E(7,8) E(7,3) E(3,7) E(1,7) E(7,1) E(7,14) E(14,7) E(7,0) E(0,7) E(7,10) E(10,7) E(11,7) E(7,11) E(4,4) E(4,2) E(2,4) E(8,4) E(4,8) E(3,4) E(4,3) E(4,1) E(1,4) E(14,4) E(4,14) E(4,0) E(0,4) E(4,10) E(10,4) E(4,11) E(11,4) E(2,2) E(2,8) E(8,2) E(2,3) E(3,2) E(1,2) E(2,1) E(14,2) E(2,14) E(2,0) E(0,2) E(10,2) E(2,10) E(2,11) E(11,2) E(8,8) E(3,8) E(8,3) E(1,8) E(8,1) E(8,14) E(14,8) E(8,0) E(0,8) E(10,8) E(8,10) E(11,8) E(8,11) E(3,3) E(3,1) E(1,3) E(3,14) E(14,3) E(3,0) E(0,3) E(3,10) E(10,3) E(11,3) E(3,11) E(1,1) E(1,14) E(14,1) E(0,1) E(1,0) E(1,10) E(10,1) E(11,1) E(1,11) E(14,14) E(14,0) E(0,14) E(14,10) E(10,14) E(14,11) E(11,14) E(0,0) E(10,0) E(0,10) E(11,0) E(0,11) E(10,10) E(10,11) E(11,10) E(11,11)
c 1 2 3 4 5 6 7 8 9 10 11 12 13 14 15 16 17 18 19 20 21 22 23 24 25 26 27 28 29 30 31 32 33 34 35 36 37 38 39 40 41 42 43 44 45 46 47 48 49 50 51 52 53 54 55 56 57 58 59 60 61 62 63 64 65 66 67 68 69 70 71 72 73 74 75 76 77 78 79 80 81 82 83 84 85 86 87 88 89 90 91 92 93 94 95 96 97 98 99 100 101 102 103 104 105 106 107 108 109 110 111 112 113 114 115 116 117 118 119 120 121 122 123 124 125 126 127 128 129 130 131 132 133 134 135 136 137 138 139 140 141 142 143 144 145 146 147 148 149 150 151 152 153 154 155 156 157 158 159 160 161 162 163 164 165 166 167 168 169 170 171 172 173 174 175 176 177 178 179 180 181 182 183 184 185 186 187 188 189 190 191 192 193 194 195 196 197 198 199 200 201 202 203 204 205 206 207 208 209 210 211 212 213 214 215 216 217 218 219 220 221 222 223 224 225 226 227 228 229 230 231 232 233 234 235 236 237 238 239 240 241 242 243 244 245 246 247 248 249 250 251 252 253 254 255
p cnf 255 1125
50 49 0
41 42 0
52 54 0
59 56 0
9 10 0
2 3 0
44 45 0
30 31 0
38 39 0
26 27 0
4 6 0
15 14 0
23 22 0
33 34 0
16 19 0
50 -247 0
41 -231 0
52 -252 0
59 -255 0
9 -87 0
2 -1 0
44 -240 0
30 -192 0
38 -220 0
26 -175 0
4 -60 0
15 -112 0
23 -156 0
33 -207 0
16 -135 0
247 -247 0
234 -235 0
249 -248 0
251 -250 0
106 -107 0
51 -48 0
242 -241 0
202 -201 0
226 -225 0
187 -186 0
81 -82 0
129 -130 0
170 -169 0
215 -214 0
150 -151 0
235 -234 0
231 -231 0
236 -237 0
239 -238 0
103 -102 0
43 -40 0
232 -233 0
197 -198 0
222 -221 0
183 -182 0
78 -77 0
125 -126 0
165 -166 0
210 -211 0
147 -146 0
248 -249 0
237 -236 0
252 -252 0
253 -254 0
108 -109 0
55 -53 0
244 -243 0
203 -204 0
228 -227 0
189 -188 0
83 -84 0
132 -131 0
172 -171 0
216 -217 0
153 -152 0
250 -251 0
238 -239 0
254 -253 0
255 -255 0
111 -110 0
57 -58 0
246 -245 0
206 -205 0
229 -230 0
191 -190 0
85 -86 0
134 -133 0
173 -174 0
218 -219 0
155 -154 0
107 -106 0
102 -103 0
109 -108 0
110 -111 0
87 -87 0
11 -8 0
104 -105 0
96 -97 0
101 -100 0
94 -95 0
62 -61 0
89 -88 0
92 -93 0
98 -99 0
90 -91 0
48 -51 0
40 -43 0
53 -55 0
58 -57 0
8 -11 0
1 -1 0
47 -46 0
28 -29 0
37 -36 0
25 -24 0
5 -7 0
12 -13 0
21 -20 0
32 -35 0
18 -17 0
241 -242 0
233 -232 0
243 -244 0
245 -246 0
105 -104 0
46 -47 0
240 -240 0
199 -200 0
224 -223 0
184 -185 0
80 -79 0
127 -128 0
168 -167 0
213 -212 0
148 -149 0
201 -202 0
198 -197 0
204 -203 0
205 -206 0
97 -96 0
29 -28 0
200 -199 0
192 -192 0
195 -196 0
177 -176 0
71 -72 0
120 -119 0
159 -160 0
193 -194 0
141 -140 0
225 -226 0
221 -222 0
227 -228 0
230 -229 0
100 -101 0
36 -37 0
223 -224 0
196 -195 0
220 -220 0
180 -181 0
75 -76 0
124 -123 0
164 -163 0
208 -209 0
145 -144 0
186 -187 0
182 -183 0
188 -189 0
190 -191 0
95 -94 0
24 -25 0
185 -184 0
176 -177 0
181 -180 0
175 -175 0
69 -70 0
118 -117 0
158 -157 0
179 -178 0
138 -139 0
82 -81 0
77 -78 0
84 -83 0
86 -85 0
61 -62 0
7 -5 0
79 -80 0
72 -71 0
76 -75 0
70 -69 0
60 -60 0
64 -63 0
67 -68 0
74 -73 0
66 -65 0
130 -129 0
126 -125 0
131 -132 0
133 -134 0
88 -89 0
13 -12 0
128 -127 0
119 -120 0
123 -124 0
117 -118 0
63 -64 0
112 -112 0
115 -116 0
121 -122 0
113 -114 0
169 -170 0
166 -165 0
171 -172 0
174 -173 0
93 -92 0
20 -21 0
167 -168 0
160 -159 0
163 -164 0
157 -158 0
68 -67 0
116 -115 0
156 -156 0
162 -161 0
137 -136 0
214 -215 0
211 -210 0
217 -216 0
219 -218 0
99 -98 0
35 -32 0
212 -213 0
194 -193 0
209 -208 0
178 -179 0
73 -74 0
122 -121 0
161 -162 0
207 -207 0
143 -142 0
151 -150 0
146 -147 0
152 -153 0
154 -155 0
91 -90 0
17 -18 0
149 -148 0
140 -141 0
144 -145 0
139 -138 0
65 -66 0
114 -113 0
136 -137 0
142 -143 0
135 -135 0
49 -247 0
42 -231 0
54 -252 0
56 -255 0
10 -87 0
3 -1 0
45 -240 0
31 -192 0
39 -220 0
27 -175 0
6 -60 0
14 -112 0
22 -156 0
34 -207 0
19 -135 0
-50 -49 0
-41 -42 0
-52 -54 0
-59 -56 0
-9 -10 0
-2 -3 0
-44 -45 0
-30 -31 0
-38 -39 0
-26 -27 0
-4 -6 0
-15 -14 0
-23 -22 0
-33 -34 0
-16 -19 0
50 41 -234 0
50 41 -235 0
50 52 -249 0
50 52 -248 0
50 59 -251 0
50 59 -250 0
50 9 -106 0
50 9 -107 0
50 2 -51 0
50 2 -48 0
50 44 -242 0
50 44 -241 0
50 30 -202 0
50 30 -201 0
50 38 -226 0
50 38 -225 0
50 26 -187 0
50 26 -186 0
50 4 -81 0
50 4 -82 0
50 15 -129 0
50 15 -130 0
50 23 -170 0
50 23 -169 0
50 33 -215 0
50 33 -214 0
50 16 -150 0
50 16 -151 0
50 49 -234 0
50 49 -249 0
50 49 -251 0
50 49 -106 0
50 49 -51 0
50 49 -242 0
50 49 -202 0
50 49 -226 0
50 49 -187 0
50 49 -81 0
50 49 -129 0
50 49 -170 0
50 49 -215 0
50 49 -150 0
50 49 -235 0
50 49 -248 0
50 49 -250 0
50 49 -107 0
50 49 -48 0
50 49 -241 0
50 49 -201 0
50 49 -225 0
50 49 -186 0
50 49 -82 0
50 49 -130 0
50 49 -169 0
50 49 -214 0
50 49 -151 0
41 52 -236 0
41 52 -237 0
41 59 -239 0
41 59 -238 0
41 9 -103 0
41 9 -102 0
41 2 -43 0
41 2 -40 0
41 44 -232 0
41 44 -233 0
41 30 -197 0
41 30 -198 0
41 38 -222 0
41 38 -221 0
41 26 -183 0
41 26 -182 0
41 4 -78 0
41 4 -77 0
41 15 -125 0
41 15 -126 0
41 23 -165 0
41 23 -166 0
41 33 -210 0
41 33 -211 0
41 16 -147 0
41 16 -146 0
41 42 -234 0
41 42 -235 0
41 42 -236 0
41 42 -239 0
41 42 -103 0
41 42 -43 0
41 42 -232 0
41 42 -197 0
41 42 -222 0
41 42 -183 0
41 42 -78 0
41 42 -125 0
41 42 -165 0
41 42 -210 0
41 42 -147 0
41 42 -237 0
41 42 -238 0
41 42 -102 0
41 42 -40 0
41 42 -233 0
41 42 -198 0
41 42 -221 0
41 42 -182 0
41 42 -77 0
41 42 -126 0
41 42 -166 0
41 42 -211 0
41 42 -146 0
52 59 -253 0
52 59 -254 0
52 9 -108 0
52 9 -109 0
52 2 -55 0
52 2 -53 0
52 44 -244 0
52 44 -243 0
52 30 -203 0
52 30 -204 0
52 38 -228 0
52 38 -227 0
52 26 -189 0
52 26 -188 0
52 4 -83 0
52 4 -84 0
52 15 -132 0
52 15 -131 0
52 23 -172 0
52 23 -171 0
52 33 -216 0
52 33 -217 0
52 16 -153 0
52 16 -152 0
52 54 -249 0
52 54 -236 0
52 54 -248 0
52 54 -237 0
52 54 -253 0
52 54 -108 0
52 54 -55 0
52 54 -244 0
52 54 -203 0
52 54 -228 0
52 54 -189 0
52 54 -83 0
52 54 -132 0
52 54 -172 0
52 54 -216 0
52 54 -153 0
52 54 -254 0
52 54 -109 0
52 54 -53 0
52 54 -243 0
52 54 -204 0
52 54 -227 0
52 54 -188 0
52 54 -84 0
52 54 -131 0
52 54 -171 0
52 54 -217 0
52 54 -152 0
59 9 -111 0
59 9 -110 0
59 2 -57 0
59 2 -58 0
59 44 -246 0
59 44 -245 0
59 30 -206 0
59 30 -205 0
59 38 -229 0
59 38 -230 0
59 26 -191 0
59 26 -190 0
59 4 -85 0
59 4 -86 0
59 15 -134 0
59 15 -133 0
59 23 -173 0
59 23 -174 0
59 33 -218 0
59 33 -219 0
59 16 -155 0
59 16 -154 0
59 56 -251 0
59 56 -239 0
59 56 -253 0
59 56 -250 0
59 56 -238 0
59 56 -254 0
59 56 -111 0
59 56 -57 0
59 56 -246 0
59 56 -206 0
59 56 -229 0
59 56 -191 0
59 56 -85 0
59 56 -134 0
59 56 -173 0
59 56 -218 0
59 56 -155 0
59 56 -110 0
59 56 -58 0
59 56 -245 0
59 56 -205 0
59 56 -230 0
59 56 -190 0
59 56 -86 0
59 56 -133 0
59 56 -174 0
59 56 -219 0
59 56 -154 0
9 2 -11 0
9 2 -8 0
9 44 -104 0
9 44 -105 0
9 30 -96 0
9 30 -97 0
9 38 -101 0
9 38 -100 0
9 26 -94 0
9 26 -95 0
9 4 -62 0
9 4 -61 0
9 15 -89 0
9 15 -88 0
9 23 -92 0
9 23 -93 0
9 33 -98 0
9 33 -99 0
9 16 -90 0
9 16 -91 0
9 10 -106 0
9 10 -103 0
9 10 -108 0
9 10 -111 0
9 10 -107 0
9 10 -102 0
9 10 -109 0
9 10 -110 0
9 10 -11 0
9 10 -104 0
9 10 -96 0
9 10 -101 0
9 10 -94 0
9 10 -62 0
9 10 -89 0
9 10 -92 0
9 10 -98 0
9 10 -90 0
9 10 -8 0
9 10 -105 0
9 10 -97 0
9 10 -100 0
9 10 -95 0
9 10 -61 0
9 10 -88 0
9 10 -93 0
9 10 -99 0
9 10 -91 0
2 44 -47 0
2 44 -46 0
2 30 -28 0
2 30 -29 0
2 38 -37 0
2 38 -36 0
2 26 -25 0
2 26 -24 0
2 4 -5 0
2 4 -7 0
2 15 -12 0
2 15 -13 0
2 23 -21 0
2 23 -20 0
2 33 -32 0
2 33 -35 0
2 16 -18 0
2 16 -17 0
2 3 -51 0
2 3 -43 0
2 3 -55 0
2 3 -57 0
2 3 -11 0
2 3 -48 0
2 3 -40 0
2 3 -53 0
2 3 -58 0
2 3 -8 0
2 3 -47 0
2 3 -28 0
2 3 -37 0
2 3 -25 0
2 3 -5 0
2 3 -12 0
2 3 -21 0
2 3 -32 0
2 3 -18 0
2 3 -46 0
2 3 -29 0
2 3 -36 0
2 3 -24 0
2 3 -7 0
2 3 -13 0
2 3 -20 0
2 3 -35 0
2 3 -17 0
44 30 -199 0
44 30 -200 0
44 38 -224 0
44 38 -223 0
44 26 -184 0
44 26 -185 0
44 4 -80 0
44 4 -79 0
44 15 -127 0
44 15 -128 0
44 23 -168 0
44 23 -167 0
44 33 -213 0
44 33 -212 0
44 16 -148 0
44 16 -149 0
44 45 -242 0
44 45 -232 0
44 45 -244 0
44 45 -246 0
44 45 -104 0
44 45 -47 0
44 45 -241 0
44 45 -233 0
44 45 -243 0
44 45 -245 0
44 45 -105 0
44 45 -46 0
44 45 -199 0
44 45 -224 0
44 45 -184 0
44 45 -80 0
44 45 -127 0
44 45 -168 0
44 45 -213 0
44 45 -148 0
44 45 -200 0
44 45 -223 0
44 45 -185 0
44 45 -79 0
44 45 -128 0
44 45 -167 0
44 45 -212 0
44 45 -149 0
30 38 -195 0
30 38 -196 0
30 26 -177 0
30 26 -176 0
30 4 -71 0
30 4 -72 0
30 15 -120 0
30 15 -119 0
30 23 -159 0
30 23 -160 0
30 33 -193 0
30 33 -194 0
30 16 -141 0
30 16 -140 0
30 31 -202 0
30 31 -197 0
30 31 -203 0
30 31 -206 0
30 31 -96 0
30 31 -28 0
30 31 -199 0
30 31 -201 0
30 31 -198 0
30 31 -204 0
30 31 -205 0
30 31 -97 0
30 31 -29 0
30 31 -200 0
30 31 -195 0
30 31 -177 0
30 31 -71 0
30 31 -120 0
30 31 -159 0
30 31 -193 0
30 31 -141 0
30 31 -196 0
30 31 -176 0
30 31 -72 0
30 31 -119 0
30 31 -160 0
30 31 -194 0
30 31 -140 0
38 26 -180 0
38 26 -181 0
38 4 -75 0
38 4 -76 0
38 15 -124 0
38 15 -123 0
38 23 -164 0
38 23 -163 0
38 33 -208 0
38 33 -209 0
38 16 -145 0
38 16 -144 0
38 39 -226 0
38 39 -222 0
38 39 -228 0
38 39 -229 0
38 39 -101 0
38 39 -37 0
38 39 -224 0
38 39 -195 0
38 39 -225 0
38 39 -221 0
38 39 -227 0
38 39 -230 0
38 39 -100 0
38 39 -36 0
38 39 -223 0
38 39 -196 0
38 39 -180 0
38 39 -75 0
38 39 -124 0
38 39 -164 0
38 39 -208 0
38 39 -145 0
38 39 -181 0
38 39 -76 0
38 39 -123 0
38 39 -163 0
38 39 -209 0
38 39 -144 0
26 4 -69 0
26 4 -70 0
26 15 -118 0
26 15 -117 0
26 23 -158 0
26 23 -157 0
26 33 -179 0
26 33 -178 0
26 16 -138 0
26 16 -139 0
26 27 -187 0
26 27 -183 0
26 27 -189 0
26 27 -191 0
26 27 -94 0
26 27 -25 0
26 27 -184 0
26 27 -177 0
26 27 -180 0
26 27 -186 0
26 27 -182 0
26 27 -188 0
26 27 -190 0
26 27 -95 0
26 27 -24 0
26 27 -185 0
26 27 -176 0
26 27 -181 0
26 27 -69 0
26 27 -118 0
26 27 -158 0
26 27 -179 0
26 27 -138 0
26 27 -70 0
26 27 -117 0
26 27 -157 0
26 27 -178 0
26 27 -139 0
4 15 -64 0
4 15 -63 0
4 23 -67 0
4 23 -68 0
4 33 -74 0
4 33 -73 0
4 16 -66 0
4 16 -65 0
4 6 -81 0
4 6 -78 0
4 6 -83 0
4 6 -85 0
4 6 -62 0
4 6 -5 0
4 6 -80 0
4 6 -71 0
4 6 -75 0
4 6 -69 0
4 6 -82 0
4 6 -77 0
4 6 -84 0
4 6 -86 0
4 6 -61 0
4 6 -7 0
4 6 -79 0
4 6 -72 0
4 6 -76 0
4 6 -70 0
4 6 -64 0
4 6 -67 0
4 6 -74 0
4 6 -66 0
4 6 -63 0
4 6 -68 0
4 6 -73 0
4 6 -65 0
15 23 -115 0
15 23 -116 0
15 33 -121 0
15 33 -122 0
15 16 -113 0
15 16 -114 0
15 14 -129 0
15 14 -125 0
15 14 -132 0
15 14 -134 0
15 14 -89 0
15 14 -12 0
15 14 -127 0
15 14 -120 0
15 14 -124 0
15 14 -118 0
15 14 -64 0
15 14 -130 0
15 14 -126 0
15 14 -131 0
15 14 -133 0
15 14 -88 0
15 14 -13 0
15 14 -128 0
15 14 -119 0
15 14 -123 0
15 14 -117 0
15 14 -63 0
15 14 -115 0
15 14 -121 0
15 14 -113 0
15 14 -116 0
15 14 -122 0
15 14 -114 0
23 33 -162 0
23 33 -161 0
23 16 -137 0
23 16 -136 0
23 22 -170 0
23 22 -165 0
23 22 -172 0
23 22 -173 0
23 22 -92 0
23 22 -21 0
23 22 -168 0
23 22 -159 0
23 22 -164 0
23 22 -158 0
23 22 -67 0
23 22 -115 0
23 22 -169 0
23 22 -166 0
23 22 -171 0
23 22 -174 0
23 22 -93 0
23 22 -20 0
23 22 -167 0
23 22 -160 0
23 22 -163 0
23 22 -157 0
23 22 -68 0
23 22 -116 0
23 22 -162 0
23 22 -137 0
23 22 -161 0
23 22 -136 0
33 16 -143 0
33 16 -142 0
33 34 -215 0
33 34 -210 0
33 34 -216 0
33 34 -218 0
33 34 -98 0
33 34 -32 0
33 34 -213 0
33 34 -193 0
33 34 -208 0
33 34 -179 0
33 34 -74 0
33 34 -121 0
33 34 -162 0
33 34 -214 0
33 34 -211 0
33 34 -217 0
33 34 -219 0
33 34 -99 0
33 34 -35 0
33 34 -212 0
33 34 -194 0
33 34 -209 0
33 34 -178 0
33 34 -73 0
33 34 -122 0
33 34 -161 0
33 34 -143 0
33 34 -142 0
16 19 -150 0
16 19 -147 0
16 19 -153 0
16 19 -155 0
16 19 -90 0
16 19 -18 0
16 19 -148 0
16 19 -141 0
16 19 -145 0
16 19 -138 0
16 19 -66 0
16 19 -113 0
16 19 -137 0
16 19 -143 0
16 19 -151 0
16 19 -146 0
16 19 -152 0
16 19 -154 0
16 19 -91 0
16 19 -17 0
16 19 -149 0
16 19 -140 0
16 19 -144 0
16 19 -139 0
16 19 -65 0
16 19 -114 0
16 19 -136 0
16 19 -142 0
49 42 -234 0
49 42 -235 0
49 54 -249 0
49 54 -248 0
49 56 -251 0
49 56 -250 0
49 10 -106 0
49 10 -107 0
49 3 -51 0
49 3 -48 0
49 45 -242 0
49 45 -241 0
49 31 -202 0
49 31 -201 0
49 39 -226 0
49 39 -225 0
49 27 -187 0
49 27 -186 0
49 6 -81 0
49 6 -82 0
49 14 -129 0
49 14 -130 0
49 22 -170 0
49 22 -169 0
49 34 -215 0
49 34 -214 0
49 19 -150 0
49 19 -151 0
42 54 -236 0
42 54 -237 0
42 56 -239 0
42 56 -238 0
42 10 -103 0
42 10 -102 0
42 3 -43 0
42 3 -40 0
42 45 -232 0
42 45 -233 0
42 31 -197 0
42 31 -198 0
42 39 -222 0
42 39 -221 0
42 27 -183 0
42 27 -182 0
42 6 -78 0
42 6 -77 0
42 14 -125 0
42 14 -126 0
42 22 -165 0
42 22 -166 0
42 34 -210 0
42 34 -211 0
42 19 -147 0
42 19 -146 0
54 56 -253 0
54 56 -254 0
54 10 -108 0
54 10 -109 0
54 3 -55 0
54 3 -53 0
54 45 -244 0
54 45 -243 0
54 31 -203 0
54 31 -204 0
54 39 -228 0
54 39 -227 0
54 27 -189 0
54 27 -188 0
54 6 -83 0
54 6 -84 0
54 14 -132 0
54 14 -131 0
54 22 -172 0
54 22 -171 0
54 34 -216 0
54 34 -217 0
54 19 -153 0
54 19 -152 0
56 10 -111 0
56 10 -110 0
56 3 -57 0
56 3 -58 0
56 45 -246 0
56 45 -245 0
56 31 -206 0
56 31 -205 0
56 39 -229 0
56 39 -230 0
56 27 -191 0
56 27 -190 0
56 6 -85 0
56 6 -86 0
56 14 -134 0
56 14 -133 0
56 22 -173 0
56 22 -174 0
56 34 -218 0
56 34 -219 0
56 19 -155 0
56 19 -154 0
10 3 -11 0
10 3 -8 0
10 45 -104 0
10 45 -105 0
10 31 -96 0
10 31 -97 0
10 39 -101 0
10 39 -100 0
10 27 -94 0
10 27 -95 0
10 6 -62 0
10 6 -61 0
10 14 -89 0
10 14 -88 0
10 22 -92 0
10 22 -93 0
10 34 -98 0
10 34 -99 0
10 19 -90 0
10 19 -91 0
3 45 -47 0
3 45 -46 0
3 31 -28 0
3 31 -29 0
3 39 -37 0
3 39 -36 0
3 27 -25 0
3 27 -24 0
3 6 -5 0
3 6 -7 0
3 14 -12 0
3 14 -13 0
3 22 -21 0
3 22 -20 0
3 34 -32 0
3 34 -35 0
3 19 -18 0
3 19 -17 0
45 31 -199 0
45 31 -200 0
45 39 -224 0
45 39 -223 0
45 27 -184 0
45 27 -185 0
45 6 -80 0
45 6 -79 0
45 14 -127 0
45 14 -128 0
45 22 -168 0
45 22 -167 0
45 34 -213 0
45 34 -212 0
45 19 -148 0
45 19 -149 0
31 39 -195 0
31 39 -196 0
31 27 -177 0
31 27 -176 0
31 6 -71 0
31 6 -72 0
31 14 -120 0
31 14 -119 0
31 22 -159 0
31 22 -160 0
31 34 -193 0
31 34 -194 0
31 19 -141 0
31 19 -140 0
39 27 -180 0
39 27 -181 0
39 6 -75 0
39 6 -76 0
39 14 -124 0
39 14 -123 0
39 22 -164 0
39 22 -163 0
39 34 -208 0
39 34 -209 0
39 19 -145 0
39 19 -144 0
27 6 -69 0
27 6 -70 0
27 14 -118 0
27 14 -117 0
27 22 -158 0
27 22 -157 0
27 34 -179 0
27 34 -178 0
27 19 -138 0
27 19 -139 0
6 14 -64 0
6 14 -63 0
6 22 -67 0
6 22 -68 0
6 34 -74 0
6 34 -73 0
6 19 -66 0
6 19 -65 0
14 22 -115 0
14 22 -116 0
14 34 -121 0
14 34 -122 0
14 19 -113 0
14 19 -114 0
22 34 -162 0
22 34 -161 0
22 19 -137 0
22 19 -136 0
34 19 -143 0
34 19 -142 0
