c E(9,9) B(9) R(9) E(14,9) R(14) E(9,14) B(14) R(15) E(9,15) B(15) E(15,9) E(9,1) B(1) E(1,9) R(1) E(4,9) R(4) E(9,4) B(4) E(2,9) R(2) E(9,2) B(2) B(5) R(5) E(9,5) E(5,9) B(10) E(10,9) R(10) E(9,10) E(0,9) R(0) E(9,0) B(0) R(13) E(9,13) B(13) E(13,9) R(6) E(9,6) B(6) E(6,9) R(7) E(9,7) E(7,9) B(7) E(9,11) B(11) E(11,9) R(11) R(12) E(12,9) E(9,12) B(12) E(9,8) B(8) E(8,9) R(8) B(3) E(3,9) E(9,3) R(3) E(14,14) E(15,14) E(14,15) E(14,1) E(1,14) E(4,14) E(14,4) E(2,14) E(14,2) E(5,14) E(14,5) E(10,14) E(14,10) E(0,14) E(14,0) E(13,14) E(14,13) E(6,14) E(14,6) E(14,7) E(7,14) E(11,14) E(14,11) E(14,12) E(12,14) E(8,14) E(14,8) E(14,3) E(3,14) E(15,15) E(1,15) E(15,1) E(15,4) E(4,15) E(15,2) E(2,15) E(15,5) E(5,15) E(15,10) E(10,15) E(0,15) E(15,0) E(15,13) E(13,15) E(15,6) E(6,15) E(15,7) E(7,15) E(11,15) E(15,11) E(15,12) E(12,15) E(15,8) E(8,15) E(3,15) E(15,3) E(1,1) E(4,1) E(1,4) E(2,1) E(1,2) E(5,1) E(1,5) E(1,10) E(10,1) E(1,0) E(0,1) E(13,1) E(1,13) E(1,6) E(6,1) E(1,7) E(7,1) E(11,1) E(1,11) E(1,12) E(12,1) E(8,1) E(1,8) E(3,1) E(1,3) E(4,4) E(4,2) E(2,4) E(4,5) E(5,4) E(4,10) E(10,4) E(0,4) E(4,0) E(13,4) E(4,13) E(6,4) E(4,6) E(7,4) E(4,7) E(11,4) E(4,11) E(12,4) E(4,12) E(4,8) E(8,4) E(4,3) E(3,4) E(2,2) E(2,5) E(5,2) E(2,10) E(10,2) E(2,0) E(0,2) E(2,13) E(13,2) E(6,2) E(2,6) E(7,2) E(2,7) E(2,11) E(11,2) E(2,12) E(12,2) E(2,8) E(8,2) E(2,3) E(3,2) E(5,5) E(10,5) E(5,10) E(5,0) E(0,5) E(13,5) E(5,13) E(6,5) E(5,6) E(5,7) E(7,5) E(5,11) E(11,5) E(5,12) E(12,5) E(8,5) E(5,8) E(3,5) E(5,3) E(10,10) E(10,0) E(0,10) E(13,10) E(10,13) E(10,6) E(6,10) E(10,7) E(7,10) E(11,10) E(10,11) E(12,10) E(10,12) E(10,8) E(8,10) E(3,10) E(10,3) E(0,0) E(13,0) E(0,13) E(6,0) E(0,6) E(0,7) E(7,0) E(0,11) E(11,0) E(0,12) E(12,0) E(8,0) E(0,8) E(0,3) E(3,0) E(13,13) E(13,6) E(6,13) E(13,7) E(7,13) E(11,13) E(13,11) E(13,12) E(12,13) E(8,13) E(13,8) E(13,3) E(3,13) E(6,6) E(6,7) E(7,6) E(6,11) E(11,6) E(12,6) E(6,12) E(8,6) E(6,8) E(3,6) E(6,3) E(7,7) E(7,11) E(11,7) E(12,7) E(7,12) E(8,7) E(7,8) E(3,7) E(7,3) E(11,11) E(12,11) E(11,12) E(8,11) E(11,8) E(11,3) E(3,11) E(12,12) E(8,12) E(12,8) E(3,12) E(12,3) E(8,8) E(8,3) E(3,8) E(3,3)
c 1 2 3 4 5 6 7 8 9 10 11 12 13 14 15 16 17 18 19 20 21 22 23 24 25 26 27 28 29 30 31 32 33 34 35 36 37 38 39 40 41 42 43 44 45 46 47 48 49 50 51 52 53 54 55 56 57 58 59 60 61 62 63 64 65 66 67 68 69 70 71 72 73 74 75 76 77 78 79 80 81 82 83 84 85 86 87 88 89 90 91 92 93 94 95 96 97 98 99 100 101 102 103 104 105 106 107 108 109 110 111 112 113 114 115 116 117 118 119 120 121 122 123 124 125 126 127 128 129 130 131 132 133 134 135 136 137 138 139 140 141 142 143 144 145 146 147 148 149 150 151 152 153 154 155 156 157 158 159 160 161 162 163 164 165 166 167 168 169 170 171 172 173 174 175 176 177 178 179 180 181 182 183 184 185 186 187 188 189 190 191 192 193 194 195 196 197 198 199 200 201 202 203 204 205 206 207 208 209 210 211 212 213 214 215 216 217 218 219 220 221 222 223 224 225 226 227 228 229 230 231 232 233 234 235 236 237 238 239 240 241 242 243 244 245 246 247 248 249 250 251 252 253 254 255 256 257 258 259 260 261 262 263 264 265 266 267 268 269 270 271 272 273 274 275 276 277 278 279 280 281 282 283 284 285 286 287 288
p cnf 288 1280
35 33 0
13 15 0
28 30 0
49 51 0
55 52 0
38 36 0
7 5 0
10 8 0
23 21 0
60 63 0
19 17 0
24 25 0
42 40 0
47 44 0
57 59 0
2 3 0
35 -225 0
13 -120 0
28 -208 0
49 -273 0
55 -280 0
38 -240 0
7 -64 0
10 -93 0
23 -168 0
60 -288 0
19 -145 0
24 -189 0
42 -253 0
47 -264 0
57 -285 0
2 -1 0
225 -225 0
130 -129 0
210 -209 0
232 -233 0
234 -235 0
227 -226 0
77 -78 0
104 -105 0
174 -173 0
238 -239 0
152 -153 0
193 -192 0
229 -228 0
230 -231 0
237 -236 0
32 -34 0
129 -130 0
120 -120 0
127 -128 0
138 -137 0
139 -140 0
132 -131 0
68 -67 0
94 -95 0
124 -123 0
144 -143 0
122 -121 0
126 -125 0
133 -134 0
135 -136 0
142 -141 0
14 -12 0
209 -210 0
128 -127 0
208 -208 0
218 -217 0
220 -219 0
212 -211 0
75 -76 0
103 -102 0
172 -171 0
224 -223 0
151 -150 0
190 -191 0
213 -214 0
215 -216 0
221 -222 0
29 -31 0
233 -232 0
137 -138 0
217 -218 0
273 -273 0
275 -274 0
245 -246 0
85 -86 0
112 -113 0
182 -181 0
278 -279 0
160 -161 0
201 -200 0
257 -256 0
266 -265 0
277 -276 0
50 -48 0
235 -234 0
140 -139 0
219 -220 0
274 -275 0
280 -280 0
248 -247 0
88 -87 0
115 -114 0
184 -183 0
284 -283 0
162 -163 0
203 -202 0
258 -259 0
267 -268 0
282 -281 0
53 -54 0
226 -227 0
131 -132 0
211 -212 0
246 -245 0
247 -248 0
240 -240 0
79 -80 0
107 -106 0
176 -175 0
251 -252 0
154 -155 0
194 -195 0
241 -242 0
243 -244 0
250 -249 0
39 -37 0
78 -77 0
67 -68 0
76 -75 0
86 -85 0
87 -88 0
80 -79 0
64 -64 0
66 -65 0
72 -71 0
91 -92 0
70 -69 0
74 -73 0
82 -81 0
83 -84 0
90 -89 0
4 -6 0
105 -104 0
95 -94 0
102 -103 0
113 -112 0
114 -115 0
106 -107 0
65 -66 0
93 -93 0
98 -99 0
119 -118 0
96 -97 0
100 -101 0
108 -109 0
110 -111 0
116 -117 0
11 -9 0
173 -174 0
123 -124 0
171 -172 0
181 -182 0
183 -184 0
175 -176 0
71 -72 0
99 -98 0
168 -168 0
187 -188 0
147 -146 0
169 -170 0
178 -177 0
180 -179 0
185 -186 0
20 -22 0
239 -238 0
143 -144 0
223 -224 0
279 -278 0
283 -284 0
252 -251 0
92 -91 0
118 -119 0
188 -187 0
288 -288 0
167 -166 0
206 -207 0
262 -263 0
271 -272 0
287 -286 0
61 -62 0
153 -152 0
121 -122 0
150 -151 0
161 -160 0
163 -162 0
155 -154 0
69 -70 0
97 -96 0
146 -147 0
166 -167 0
145 -145 0
148 -149 0
157 -156 0
159 -158 0
164 -165 0
16 -18 0
192 -193 0
125 -126 0
191 -190 0
200 -201 0
202 -203 0
195 -194 0
73 -74 0
101 -100 0
170 -169 0
207 -206 0
149 -148 0
189 -189 0
197 -196 0
198 -199 0
205 -204 0
27 -26 0
228 -229 0
134 -133 0
214 -213 0
256 -257 0
259 -258 0
242 -241 0
81 -82 0
109 -108 0
177 -178 0
263 -262 0
156 -157 0
196 -197 0
253 -253 0
254 -255 0
261 -260 0
43 -41 0
231 -230 0
136 -135 0
216 -215 0
265 -266 0
268 -267 0
244 -243 0
84 -83 0
111 -110 0
179 -180 0
272 -271 0
158 -159 0
199 -198 0
255 -254 0
264 -264 0
270 -269 0
46 -45 0
236 -237 0
141 -142 0
222 -221 0
276 -277 0
281 -282 0
249 -250 0
89 -90 0
117 -116 0
186 -185 0
286 -287 0
165 -164 0
204 -205 0
260 -261 0
269 -270 0
285 -285 0
58 -56 0
34 -32 0
12 -14 0
31 -29 0
48 -50 0
54 -53 0
37 -39 0
6 -4 0
9 -11 0
22 -20 0
62 -61 0
18 -16 0
26 -27 0
41 -43 0
45 -46 0
56 -58 0
1 -1 0
33 -225 0
15 -120 0
30 -208 0
51 -273 0
52 -280 0
36 -240 0
5 -64 0
8 -93 0
21 -168 0
63 -288 0
17 -145 0
25 -189 0
40 -253 0
44 -264 0
59 -285 0
3 -1 0
-35 -33 0
-13 -15 0
-28 -30 0
-49 -51 0
-55 -52 0
-38 -36 0
-7 -5 0
-10 -8 0
-23 -21 0
-60 -63 0
-19 -17 0
-24 -25 0
-42 -40 0
-47 -44 0
-57 -59 0
-2 -3 0
35 13 -130 0
35 13 -129 0
35 28 -210 0
35 28 -209 0
35 49 -232 0
35 49 -233 0
35 55 -234 0
35 55 -235 0
35 38 -227 0
35 38 -226 0
35 7 -77 0
35 7 -78 0
35 10 -104 0
35 10 -105 0
35 23 -174 0
35 23 -173 0
35 60 -238 0
35 60 -239 0
35 19 -152 0
35 19 -153 0
35 24 -193 0
35 24 -192 0
35 42 -229 0
35 42 -228 0
35 47 -230 0
35 47 -231 0
35 57 -237 0
35 57 -236 0
35 2 -32 0
35 2 -34 0
35 33 -130 0
35 33 -210 0
35 33 -232 0
35 33 -234 0
35 33 -227 0
35 33 -77 0
35 33 -104 0
35 33 -174 0
35 33 -238 0
35 33 -152 0
35 33 -193 0
35 33 -229 0
35 33 -230 0
35 33 -237 0
35 33 -32 0
35 33 -129 0
35 33 -209 0
35 33 -233 0
35 33 -235 0
35 33 -226 0
35 33 -78 0
35 33 -105 0
35 33 -173 0
35 33 -239 0
35 33 -153 0
35 33 -192 0
35 33 -228 0
35 33 -231 0
35 33 -236 0
35 33 -34 0
13 28 -127 0
13 28 -128 0
13 49 -138 0
13 49 -137 0
13 55 -139 0
13 55 -140 0
13 38 -132 0
13 38 -131 0
13 7 -68 0
13 7 -67 0
13 10 -94 0
13 10 -95 0
13 23 -124 0
13 23 -123 0
13 60 -144 0
13 60 -143 0
13 19 -122 0
13 19 -121 0
13 24 -126 0
13 24 -125 0
13 42 -133 0
13 42 -134 0
13 47 -135 0
13 47 -136 0
13 57 -142 0
13 57 -141 0
13 2 -14 0
13 2 -12 0
13 15 -130 0
13 15 -129 0
13 15 -127 0
13 15 -138 0
13 15 -139 0
13 15 -132 0
13 15 -68 0
13 15 -94 0
13 15 -124 0
13 15 -144 0
13 15 -122 0
13 15 -126 0
13 15 -133 0
13 15 -135 0
13 15 -142 0
13 15 -14 0
13 15 -128 0
13 15 -137 0
13 15 -140 0
13 15 -131 0
13 15 -67 0
13 15 -95 0
13 15 -123 0
13 15 -143 0
13 15 -121 0
13 15 -125 0
13 15 -134 0
13 15 -136 0
13 15 -141 0
13 15 -12 0
28 49 -218 0
28 49 -217 0
28 55 -220 0
28 55 -219 0
28 38 -212 0
28 38 -211 0
28 7 -75 0
28 7 -76 0
28 10 -103 0
28 10 -102 0
28 23 -172 0
28 23 -171 0
28 60 -224 0
28 60 -223 0
28 19 -151 0
28 19 -150 0
28 24 -190 0
28 24 -191 0
28 42 -213 0
28 42 -214 0
28 47 -215 0
28 47 -216 0
28 57 -221 0
28 57 -222 0
28 2 -29 0
28 2 -31 0
28 30 -210 0
28 30 -127 0
28 30 -209 0
28 30 -128 0
28 30 -218 0
28 30 -220 0
28 30 -212 0
28 30 -75 0
28 30 -103 0
28 30 -172 0
28 30 -224 0
28 30 -151 0
28 30 -190 0
28 30 -213 0
28 30 -215 0
28 30 -221 0
28 30 -29 0
28 30 -217 0
28 30 -219 0
28 30 -211 0
28 30 -76 0
28 30 -102 0
28 30 -171 0
28 30 -223 0
28 30 -150 0
28 30 -191 0
28 30 -214 0
28 30 -216 0
28 30 -222 0
28 30 -31 0
49 55 -275 0
49 55 -274 0
49 38 -245 0
49 38 -246 0
49 7 -85 0
49 7 -86 0
49 10 -112 0
49 10 -113 0
49 23 -182 0
49 23 -181 0
49 60 -278 0
49 60 -279 0
49 19 -160 0
49 19 -161 0
49 24 -201 0
49 24 -200 0
49 42 -257 0
49 42 -256 0
49 47 -266 0
49 47 -265 0
49 57 -277 0
49 57 -276 0
49 2 -50 0
49 2 -48 0
49 51 -232 0
49 51 -138 0
49 51 -218 0
49 51 -233 0
49 51 -137 0
49 51 -217 0
49 51 -275 0
49 51 -245 0
49 51 -85 0
49 51 -112 0
49 51 -182 0
49 51 -278 0
49 51 -160 0
49 51 -201 0
49 51 -257 0
49 51 -266 0
49 51 -277 0
49 51 -50 0
49 51 -274 0
49 51 -246 0
49 51 -86 0
49 51 -113 0
49 51 -181 0
49 51 -279 0
49 51 -161 0
49 51 -200 0
49 51 -256 0
49 51 -265 0
49 51 -276 0
49 51 -48 0
55 38 -248 0
55 38 -247 0
55 7 -88 0
55 7 -87 0
55 10 -115 0
55 10 -114 0
55 23 -184 0
55 23 -183 0
55 60 -284 0
55 60 -283 0
55 19 -162 0
55 19 -163 0
55 24 -203 0
55 24 -202 0
55 42 -258 0
55 42 -259 0
55 47 -267 0
55 47 -268 0
55 57 -282 0
55 57 -281 0
55 2 -53 0
55 2 -54 0
55 52 -234 0
55 52 -139 0
55 52 -220 0
55 52 -275 0
55 52 -235 0
55 52 -140 0
55 52 -219 0
55 52 -274 0
55 52 -248 0
55 52 -88 0
55 52 -115 0
55 52 -184 0
55 52 -284 0
55 52 -162 0
55 52 -203 0
55 52 -258 0
55 52 -267 0
55 52 -282 0
55 52 -53 0
55 52 -247 0
55 52 -87 0
55 52 -114 0
55 52 -183 0
55 52 -283 0
55 52 -163 0
55 52 -202 0
55 52 -259 0
55 52 -268 0
55 52 -281 0
55 52 -54 0
38 7 -79 0
38 7 -80 0
38 10 -107 0
38 10 -106 0
38 23 -176 0
38 23 -175 0
38 60 -251 0
38 60 -252 0
38 19 -154 0
38 19 -155 0
38 24 -194 0
38 24 -195 0
38 42 -241 0
38 42 -242 0
38 47 -243 0
38 47 -244 0
38 57 -250 0
38 57 -249 0
38 2 -39 0
38 2 -37 0
38 36 -227 0
38 36 -132 0
38 36 -212 0
38 36 -245 0
38 36 -248 0
38 36 -226 0
38 36 -131 0
38 36 -211 0
38 36 -246 0
38 36 -247 0
38 36 -79 0
38 36 -107 0
38 36 -176 0
38 36 -251 0
38 36 -154 0
38 36 -194 0
38 36 -241 0
38 36 -243 0
38 36 -250 0
38 36 -39 0
38 36 -80 0
38 36 -106 0
38 36 -175 0
38 36 -252 0
38 36 -155 0
38 36 -195 0
38 36 -242 0
38 36 -244 0
38 36 -249 0
38 36 -37 0
7 10 -66 0
7 10 -65 0
7 23 -72 0
7 23 -71 0
7 60 -91 0
7 60 -92 0
7 19 -70 0
7 19 -69 0
7 24 -74 0
7 24 -73 0
7 42 -82 0
7 42 -81 0
7 47 -83 0
7 47 -84 0
7 57 -90 0
7 57 -89 0
7 2 -4 0
7 2 -6 0
7 5 -77 0
7 5 -68 0
7 5 -75 0
7 5 -85 0
7 5 -88 0
7 5 -79 0
7 5 -78 0
7 5 -67 0
7 5 -76 0
7 5 -86 0
7 5 -87 0
7 5 -80 0
7 5 -66 0
7 5 -72 0
7 5 -91 0
7 5 -70 0
7 5 -74 0
7 5 -82 0
7 5 -83 0
7 5 -90 0
7 5 -4 0
7 5 -65 0
7 5 -71 0
7 5 -92 0
7 5 -69 0
7 5 -73 0
7 5 -81 0
7 5 -84 0
7 5 -89 0
7 5 -6 0
10 23 -98 0
10 23 -99 0
10 60 -119 0
10 60 -118 0
10 19 -96 0
10 19 -97 0
10 24 -100 0
10 24 -101 0
10 42 -108 0
10 42 -109 0
10 47 -110 0
10 47 -111 0
10 57 -116 0
10 57 -117 0
10 2 -11 0
10 2 -9 0
10 8 -104 0
10 8 -94 0
10 8 -103 0
10 8 -112 0
10 8 -115 0
10 8 -107 0
10 8 -66 0
10 8 -105 0
10 8 -95 0
10 8 -102 0
10 8 -113 0
10 8 -114 0
10 8 -106 0
10 8 -65 0
10 8 -98 0
10 8 -119 0
10 8 -96 0
10 8 -100 0
10 8 -108 0
10 8 -110 0
10 8 -116 0
10 8 -11 0
10 8 -99 0
10 8 -118 0
10 8 -97 0
10 8 -101 0
10 8 -109 0
10 8 -111 0
10 8 -117 0
10 8 -9 0
23 60 -187 0
23 60 -188 0
23 19 -147 0
23 19 -146 0
23 24 -169 0
23 24 -170 0
23 42 -178 0
23 42 -177 0
23 47 -180 0
23 47 -179 0
23 57 -185 0
23 57 -186 0
23 2 -20 0
23 2 -22 0
23 21 -174 0
23 21 -124 0
23 21 -172 0
23 21 -182 0
23 21 -184 0
23 21 -176 0
23 21 -72 0
23 21 -98 0
23 21 -173 0
23 21 -123 0
23 21 -171 0
23 21 -181 0
23 21 -183 0
23 21 -175 0
23 21 -71 0
23 21 -99 0
23 21 -187 0
23 21 -147 0
23 21 -169 0
23 21 -178 0
23 21 -180 0
23 21 -185 0
23 21 -20 0
23 21 -188 0
23 21 -146 0
23 21 -170 0
23 21 -177 0
23 21 -179 0
23 21 -186 0
23 21 -22 0
60 19 -167 0
60 19 -166 0
60 24 -206 0
60 24 -207 0
60 42 -262 0
60 42 -263 0
60 47 -271 0
60 47 -272 0
60 57 -287 0
60 57 -286 0
60 2 -61 0
60 2 -62 0
60 63 -238 0
60 63 -144 0
60 63 -224 0
60 63 -278 0
60 63 -284 0
60 63 -251 0
60 63 -91 0
60 63 -119 0
60 63 -187 0
60 63 -239 0
60 63 -143 0
60 63 -223 0
60 63 -279 0
60 63 -283 0
60 63 -252 0
60 63 -92 0
60 63 -118 0
60 63 -188 0
60 63 -167 0
60 63 -206 0
60 63 -262 0
60 63 -271 0
60 63 -287 0
60 63 -61 0
60 63 -166 0
60 63 -207 0
60 63 -263 0
60 63 -272 0
60 63 -286 0
60 63 -62 0
19 24 -148 0
19 24 -149 0
19 42 -157 0
19 42 -156 0
19 47 -159 0
19 47 -158 0
19 57 -164 0
19 57 -165 0
19 2 -16 0
19 2 -18 0
19 17 -152 0
19 17 -122 0
19 17 -151 0
19 17 -160 0
19 17 -162 0
19 17 -154 0
19 17 -70 0
19 17 -96 0
19 17 -147 0
19 17 -167 0
19 17 -153 0
19 17 -121 0
19 17 -150 0
19 17 -161 0
19 17 -163 0
19 17 -155 0
19 17 -69 0
19 17 -97 0
19 17 -146 0
19 17 -166 0
19 17 -148 0
19 17 -157 0
19 17 -159 0
19 17 -164 0
19 17 -16 0
19 17 -149 0
19 17 -156 0
19 17 -158 0
19 17 -165 0
19 17 -18 0
24 42 -197 0
24 42 -196 0
24 47 -198 0
24 47 -199 0
24 57 -205 0
24 57 -204 0
24 2 -27 0
24 2 -26 0
24 25 -193 0
24 25 -126 0
24 25 -190 0
24 25 -201 0
24 25 -203 0
24 25 -194 0
24 25 -74 0
24 25 -100 0
24 25 -169 0
24 25 -206 0
24 25 -148 0
24 25 -192 0
24 25 -125 0
24 25 -191 0
24 25 -200 0
24 25 -202 0
24 25 -195 0
24 25 -73 0
24 25 -101 0
24 25 -170 0
24 25 -207 0
24 25 -149 0
24 25 -197 0
24 25 -198 0
24 25 -205 0
24 25 -27 0
24 25 -196 0
24 25 -199 0
24 25 -204 0
24 25 -26 0
42 47 -254 0
42 47 -255 0
42 57 -261 0
42 57 -260 0
42 2 -43 0
42 2 -41 0
42 40 -229 0
42 40 -133 0
42 40 -213 0
42 40 -257 0
42 40 -258 0
42 40 -241 0
42 40 -82 0
42 40 -108 0
42 40 -178 0
42 40 -262 0
42 40 -157 0
42 40 -197 0
42 40 -228 0
42 40 -134 0
42 40 -214 0
42 40 -256 0
42 40 -259 0
42 40 -242 0
42 40 -81 0
42 40 -109 0
42 40 -177 0
42 40 -263 0
42 40 -156 0
42 40 -196 0
42 40 -254 0
42 40 -261 0
42 40 -43 0
42 40 -255 0
42 40 -260 0
42 40 -41 0
47 57 -270 0
47 57 -269 0
47 2 -46 0
47 2 -45 0
47 44 -230 0
47 44 -135 0
47 44 -215 0
47 44 -266 0
47 44 -267 0
47 44 -243 0
47 44 -83 0
47 44 -110 0
47 44 -180 0
47 44 -271 0
47 44 -159 0
47 44 -198 0
47 44 -254 0
47 44 -231 0
47 44 -136 0
47 44 -216 0
47 44 -265 0
47 44 -268 0
47 44 -244 0
47 44 -84 0
47 44 -111 0
47 44 -179 0
47 44 -272 0
47 44 -158 0
47 44 -199 0
47 44 -255 0
47 44 -270 0
47 44 -46 0
47 44 -269 0
47 44 -45 0
57 2 -58 0
57 2 -56 0
57 59 -237 0
57 59 -142 0
57 59 -221 0
57 59 -277 0
57 59 -282 0
57 59 -250 0
57 59 -90 0
57 59 -116 0
57 59 -185 0
57 59 -287 0
57 59 -164 0
57 59 -205 0
57 59 -261 0
57 59 -270 0
57 59 -236 0
57 59 -141 0
57 59 -222 0
57 59 -276 0
57 59 -281 0
57 59 -249 0
57 59 -89 0
57 59 -117 0
57 59 -186 0
57 59 -286 0
57 59 -165 0
57 59 -204 0
57 59 -260 0
57 59 -269 0
57 59 -58 0
57 59 -56 0
2 3 -32 0
2 3 -14 0
2 3 -29 0
2 3 -50 0
2 3 -53 0
2 3 -39 0
2 3 -4 0
2 3 -11 0
2 3 -20 0
2 3 -61 0
2 3 -16 0
2 3 -27 0
2 3 -43 0
2 3 -46 0
2 3 -58 0
2 3 -34 0
2 3 -12 0
2 3 -31 0
2 3 -48 0
2 3 -54 0
2 3 -37 0
2 3 -6 0
2 3 -9 0
2 3 -22 0
2 3 -62 0
2 3 -18 0
2 3 -26 0
2 3 -41 0
2 3 -45 0
2 3 -56 0
33 15 -130 0
33 15 -129 0
33 30 -210 0
33 30 -209 0
33 51 -232 0
33 51 -233 0
33 52 -234 0
33 52 -235 0
33 36 -227 0
33 36 -226 0
33 5 -77 0
33 5 -78 0
33 8 -104 0
33 8 -105 0
33 21 -174 0
33 21 -173 0
33 63 -238 0
33 63 -239 0
33 17 -152 0
33 17 -153 0
33 25 -193 0
33 25 -192 0
33 40 -229 0
33 40 -228 0
33 44 -230 0
33 44 -231 0
33 59 -237 0
33 59 -236 0
33 3 -32 0
33 3 -34 0
15 30 -127 0
15 30 -128 0
15 51 -138 0
15 51 -137 0
15 52 -139 0
15 52 -140 0
15 36 -132 0
15 36 -131 0
15 5 -68 0
15 5 -67 0
15 8 -94 0
15 8 -95 0
15 21 -124 0
15 21 -123 0
15 63 -144 0
15 63 -143 0
15 17 -122 0
15 17 -121 0
15 25 -126 0
15 25 -125 0
15 40 -133 0
15 40 -134 0
15 44 -135 0
15 44 -136 0
15 59 -142 0
15 59 -141 0
15 3 -14 0
15 3 -12 0
30 51 -218 0
30 51 -217 0
30 52 -220 0
30 52 -219 0
30 36 -212 0
30 36 -211 0
30 5 -75 0
30 5 -76 0
30 8 -103 0
30 8 -102 0
30 21 -172 0
30 21 -171 0
30 63 -224 0
30 63 -223 0
30 17 -151 0
30 17 -150 0
30 25 -190 0
30 25 -191 0
30 40 -213 0
30 40 -214 0
30 44 -215 0
30 44 -216 0
30 59 -221 0
30 59 -222 0
30 3 -29 0
30 3 -31 0
51 52 -275 0
51 52 -274 0
51 36 -245 0
51 36 -246 0
51 5 -85 0
51 5 -86 0
51 8 -112 0
51 8 -113 0
51 21 -182 0
51 21 -181 0
51 63 -278 0
51 63 -279 0
51 17 -160 0
51 17 -161 0
51 25 -201 0
51 25 -200 0
51 40 -257 0
51 40 -256 0
51 44 -266 0
51 44 -265 0
51 59 -277 0
51 59 -276 0
51 3 -50 0
51 3 -48 0
52 36 -248 0
52 36 -247 0
52 5 -88 0
52 5 -87 0
52 8 -115 0
52 8 -114 0
52 21 -184 0
52 21 -183 0
52 63 -284 0
52 63 -283 0
52 17 -162 0
52 17 -163 0
52 25 -203 0
52 25 -202 0
52 40 -258 0
52 40 -259 0
52 44 -267 0
52 44 -268 0
52 59 -282 0
52 59 -281 0
52 3 -53 0
52 3 -54 0
36 5 -79 0
36 5 -80 0
36 8 -107 0
36 8 -106 0
36 21 -176 0
36 21 -175 0
36 63 -251 0
36 63 -252 0
36 17 -154 0
36 17 -155 0
36 25 -194 0
36 25 -195 0
36 40 -241 0
36 40 -242 0
36 44 -243 0
36 44 -244 0
36 59 -250 0
36 59 -249 0
36 3 -39 0
36 3 -37 0
5 8 -66 0
5 8 -65 0
5 21 -72 0
5 21 -71 0
5 63 -91 0
5 63 -92 0
5 17 -70 0
5 17 -69 0
5 25 -74 0
5 25 -73 0
5 40 -82 0
5 40 -81 0
5 44 -83 0
5 44 -84 0
5 59 -90 0
5 59 -89 0
5 3 -4 0
5 3 -6 0
8 21 -98 0
8 21 -99 0
8 63 -119 0
8 63 -118 0
8 17 -96 0
8 17 -97 0
8 25 -100 0
8 25 -101 0
8 40 -108 0
8 40 -109 0
8 44 -110 0
8 44 -111 0
8 59 -116 0
8 59 -117 0
8 3 -11 0
8 3 -9 0
21 63 -187 0
21 63 -188 0
21 17 -147 0
21 17 -146 0
21 25 -169 0
21 25 -170 0
21 40 -178 0
21 40 -177 0
21 44 -180 0
21 44 -179 0
21 59 -185 0
21 59 -186 0
21 3 -20 0
21 3 -22 0
63 17 -167 0
63 17 -166 0
63 25 -206 0
63 25 -207 0
63 40 -262 0
63 40 -263 0
63 44 -271 0
63 44 -272 0
63 59 -287 0
63 59 -286 0
63 3 -61 0
63 3 -62 0
17 25 -148 0
17 25 -149 0
17 40 -157 0
17 40 -156 0
17 44 -159 0
17 44 -158 0
17 59 -164 0
17 59 -165 0
17 3 -16 0
17 3 -18 0
25 40 -197 0
25 40 -196 0
25 44 -198 0
25 44 -199 0
25 59 -205 0
25 59 -204 0
25 3 -27 0
25 3 -26 0
40 44 -254 0
40 44 -255 0
40 59 -261 0
40 59 -260 0
40 3 -43 0
40 3 -41 0
44 59 -270 0
44 59 -269 0
44 3 -46 0
44 3 -45 0
59 3 -58 0
59 3 -56 0
