c B(11) E(11,11) R(11) B(16) R(16) E(16,11) E(11,16) B(9) E(9,11) R(9) E(11,9) E(8,11) R(8) B(8) E(11,8) E(10,11) E(11,10) B(10) R(10) E(11,15) B(15) R(15) E(15,11) E(11,7) B(7) R(7) E(7,11) E(11,5) R(5) B(5) E(5,11) E(13,11) E(11,13) B(13) R(13) B(4) R(4) E(4,11) E(11,4) B(3) E(3,11) E(11,3) R(3) E(6,11) E(11,6) B(6) R(6) B(14) R(14) E(14,11) E(11,14) E(0,11) E(11,0) B(0) R(0) E(11,1) B(1) R(1) E(1,11) E(2,11) B(2) R(2) E(11,2) R(12) E(12,11) E(11,12) B(12) E(16,16) E(16,9) E(9,16) E(16,8) E(8,16) E(10,16) E(16,10) E(15,16) E(16,15) E(7,16) E(16,7) E(16,5) E(5,16) E(16,13) E(13,16) E(16,4) E(4,16) E(3,16) E(16,3) E(6,16) E(16,6) E(14,16) E(16,14) E(0,16) E(16,0) E(1,16) E(16,1) E(16,2) E(2,16) E(16,12) E(12,16) E(9,9) E(9,8) E(8,9) E(10,9) E(9,10) E(15,9) E(9,15) E(7,9) E(9,7) E(9,5) E(5,9) E(13,9) E(9,13) E(4,9) E(9,4) E(3,9) E(9,3) E(6,9) E(9,6) E(14,9) E(9,14) E(9,0) E(0,9) E(9,1) E(1,9) E(2,9) E(9,2) E(12,9) E(9,12) E(8,8) E(8,10) E(10,8) E(8,15) E(15,8) E(8,7) E(7,8) E(8,5) E(5,8) E(8,13) E(13,8) E(8,4) E(4,8) E(8,3) E(3,8) E(8,6) E(6,8) E(8,14) E(14,8) E(0,8) E(8,0) E(8,1) E(1,8) E(2,8) E(8,2) E(12,8) E(8,12) E(10,10) E(15,10) E(10,15) E(10,7) E(7,10) E(5,10) E(10,5) E(13,10) E(10,13) E(4,10) E(10,4) E(3,10) E(10,3) E(6,10) E(10,6) E(14,10) E(10,14) E(0,10) E(10,0) E(1,10) E(10,1) E(2,10) E(10,2) E(10,12) E(12,10) E(15,15) E(15,7) E(7,15) E(15,5) E(5,15) E(13,15) E(15,13) E(15,4) E(4,15) E(15,3) E(3,15) E(15,6) E(6,15) E(15,14) E(14,15) E(0,15) E(15,0) E(1,15) E(15,1) E(2,15) E(15,2) E(12,15) E(15,12) E(7,7) E(5,7) E(7,5) E(7,13) E(13,7) E(7,4) E(4,7) E(3,7) E(7,3) E(7,6) E(6,7) E(14,7) E(7,14) E(0,7) E(7,0) E(1,7) E(7,1) E(2,7) E(7,2) E(7,12) E(12,7) E(5,5) E(13,5) E(5,13) E(4,5) E(5,4) E(3,5) E(5,3) E(5,6) E(6,5) E(14,5) E(5,14) E(5,0) E(0,5) E(1,5) E(5,1) E(2,5) E(5,2) E(5,12) E(12,5) E(13,13) E(4,13) E(13,4) E(13,3) E(3,13) E(6,13) E(13,6) E(14,13) E(13,14) E(0,13) E(13,0) E(1,13) E(13,1) E(2,13) E(13,2) E(12,13) E(13,12) E(4,4) E(3,4) E(4,3) E(6,4) E(4,6) E(14,4) E(4,14) E(4,0) E(0,4) E(4,1) E(1,4) E(4,2) E(2,4) E(4,12) E(12,4) E(3,3) E(6,3) E(3,6) E(14,3) E(3,14) E(0,3) E(3,0) E(3,1) E(1,3) E(2,3) E(3,2) E(12,3) E(3,12) E(6,6) E(6,14) E(14,6) E(0,6) E(6,0) E(1,6) E(6,1) E(6,2) E(2,6) E(6,12) E(12,6) E(14,14) E(14,0) E(0,14) E(1,14) E(14,1) E(2,14) E(14,2) E(14,12) E(12,14) E(0,0) E(1,0) E(0,1) E(2,0) E(0,2) E(0,12) E(12,0) E(1,1) E(2,1) E(1,2) E(12,1) E(1,12) E(2,2) E(12,2) E(2,12) E(12,12)
c 1 2 3 4 5 6 7 8 9 10 11 12 13 14 15 16 17 18 19 20 21 22 23 24 25 26 27 28 29 30 31 32 33 34 35 36 37 38 39 40 41 42 43 44 45 46 47 48 49 50 51 52 53 54 55 56 57 58 59 60 61 62 63 64 65 66 67 68 69 70 71 72 73 74 75 76 77 78 79 80 81 82 83 84 85 86 87 88 89 90 91 92 93 94 95 96 97 98 99 100 101 102 103 104 105 106 107 108 109 110 111 112 113 114 115 116 117 118 119 120 121 122 123 124 125 126 127 128 129 130 131 132 133 134 135 136 137 138 139 140 141 142 143 144 145 146 147 148 149 150 151 152 153 154 155 156 157 158 159 160 161 162 163 164 165 166 167 168 169 170 171 172 173 174 175 176 177 178 179 180 181 182 183 184 185 186 187 188 189 190 191 192 193 194 195 196 197 198 199 200 201 202 203 204 205 206 207 208 209 210 211 212 213 214 215 216 217 218 219 220 221 222 223 224 225 226 227 228 229 230 231 232 233 234 235 236 237 238 239 240 241 242 243 244 245 246 247 248 249 250 251 252 253 254 255 256 257 258 259 260 261 262 263 264 265 266 267 268 269 270 271 272 273 274 275 276 277 278 279 280 281 282 283 284 285 286 287 288 289 290 291 292 293 294 295 296 297 298 299 300 301 302 303 304 305 306 307 308 309 310 311 312 313 314 315 316 317 318 319 320 321 322 323
p cnf 323 1445
54 55 0
57 58 0
18 19 0
1 3 0
67 64 0
34 35 0
48 49 0
21 22 0
4 5 0
61 62 0
40 43 0
36 37 0
30 29 0
46 47 0
25 26 0
14 13 0
8 10 0
54 -308 0
57 -315 0
18 -155 0
1 -2 0
67 -323 0
34 -243 0
48 -299 0
21 -180 0
4 -68 0
61 -320 0
40 -275 0
36 -260 0
30 -224 0
46 -288 0
25 -203 0
14 -128 0
8 -99 0
308 -308 0
310 -309 0
172 -173 0
52 -53 0
313 -314 0
252 -253 0
301 -300 0
195 -196 0
91 -92 0
312 -311 0
280 -281 0
268 -267 0
236 -235 0
291 -292 0
216 -217 0
147 -148 0
121 -120 0
309 -310 0
315 -315 0
174 -175 0
59 -56 0
319 -318 0
254 -255 0
302 -303 0
197 -198 0
93 -94 0
317 -316 0
283 -282 0
270 -269 0
237 -238 0
293 -294 0
218 -219 0
150 -149 0
123 -122 0
173 -172 0
175 -174 0
155 -155 0
16 -17 0
178 -179 0
163 -162 0
171 -170 0
157 -156 0
73 -74 0
177 -176 0
167 -166 0
165 -164 0
161 -160 0
169 -168 0
158 -159 0
130 -129 0
102 -103 0
53 -52 0
56 -59 0
17 -16 0
2 -2 0
66 -65 0
33 -32 0
51 -50 0
20 -23 0
7 -6 0
63 -60 0
42 -41 0
39 -38 0
28 -31 0
45 -44 0
24 -27 0
15 -12 0
11 -9 0
314 -313 0
318 -319 0
179 -178 0
65 -66 0
323 -323 0
258 -259 0
307 -306 0
201 -202 0
98 -97 0
321 -322 0
286 -287 0
274 -273 0
242 -241 0
298 -297 0
223 -222 0
153 -154 0
126 -127 0
253 -252 0
255 -254 0
162 -163 0
32 -33 0
259 -258 0
243 -243 0
251 -250 0
185 -186 0
82 -81 0
257 -256 0
246 -247 0
245 -244 0
225 -226 0
249 -248 0
207 -206 0
138 -137 0
110 -111 0
300 -301 0
303 -302 0
170 -171 0
50 -51 0
306 -307 0
250 -251 0
299 -299 0
194 -193 0
89 -90 0
305 -304 0
278 -279 0
265 -266 0
233 -234 0
290 -289 0
214 -215 0
146 -145 0
118 -119 0
196 -195 0
198 -197 0
156 -157 0
23 -20 0
202 -201 0
186 -185 0
193 -194 0
180 -180 0
75 -76 0
200 -199 0
189 -190 0
187 -188 0
183 -184 0
191 -192 0
181 -182 0
132 -131 0
104 -105 0
92 -91 0
94 -93 0
74 -73 0
6 -7 0
97 -98 0
81 -82 0
90 -89 0
76 -75 0
68 -68 0
95 -96 0
86 -85 0
83 -84 0
79 -80 0
88 -87 0
78 -77 0
71 -72 0
69 -70 0
311 -312 0
316 -317 0
176 -177 0
60 -63 0
322 -321 0
256 -257 0
304 -305 0
199 -200 0
96 -95 0
320 -320 0
284 -285 0
272 -271 0
239 -240 0
296 -295 0
220 -221 0
151 -152 0
124 -125 0
281 -280 0
282 -283 0
166 -167 0
41 -42 0
287 -286 0
247 -246 0
279 -278 0
190 -189 0
85 -86 0
285 -284 0
275 -275 0
261 -262 0
229 -230 0
277 -276 0
210 -211 0
142 -141 0
114 -115 0
267 -268 0
269 -270 0
164 -165 0
38 -39 0
273 -274 0
244 -245 0
266 -265 0
188 -187 0
84 -83 0
271 -272 0
262 -261 0
260 -260 0
227 -228 0
264 -263 0
209 -208 0
140 -139 0
112 -113 0
235 -236 0
238 -237 0
160 -161 0
31 -28 0
241 -242 0
226 -225 0
234 -233 0
184 -183 0
80 -79 0
240 -239 0
230 -229 0
228 -227 0
224 -224 0
231 -232 0
204 -205 0
136 -135 0
109 -108 0
292 -291 0
294 -293 0
168 -169 0
44 -45 0
297 -298 0
248 -249 0
289 -290 0
192 -191 0
87 -88 0
295 -296 0
276 -277 0
263 -264 0
232 -231 0
288 -288 0
213 -212 0
144 -143 0
116 -117 0
217 -216 0
219 -218 0
159 -158 0
27 -24 0
222 -223 0
206 -207 0
215 -214 0
182 -181 0
77 -78 0
221 -220 0
211 -210 0
208 -209 0
205 -204 0
212 -213 0
203 -203 0
134 -133 0
106 -107 0
148 -147 0
149 -150 0
129 -130 0
12 -15 0
154 -153 0
137 -138 0
145 -146 0
131 -132 0
72 -71 0
152 -151 0
141 -142 0
139 -140 0
135 -136 0
143 -144 0
133 -134 0
128 -128 0
101 -100 0
120 -121 0
122 -123 0
103 -102 0
9 -11 0
127 -126 0
111 -110 0
119 -118 0
105 -104 0
70 -69 0
125 -124 0
115 -114 0
113 -112 0
108 -109 0
117 -116 0
107 -106 0
100 -101 0
99 -99 0
55 -308 0
58 -315 0
19 -155 0
3 -2 0
64 -323 0
35 -243 0
49 -299 0
22 -180 0
5 -68 0
62 -320 0
43 -275 0
37 -260 0
29 -224 0
47 -288 0
26 -203 0
13 -128 0
10 -99 0
-54 -55 0
-57 -58 0
-18 -19 0
-1 -3 0
-67 -64 0
-34 -35 0
-48 -49 0
-21 -22 0
-4 -5 0
-61 -62 0
-40 -43 0
-36 -37 0
-30 -29 0
-46 -47 0
-25 -26 0
-14 -13 0
-8 -10 0
54 57 -310 0
54 57 -309 0
54 18 -172 0
54 18 -173 0
54 1 -52 0
54 1 -53 0
54 67 -313 0
54 67 -314 0
54 34 -252 0
54 34 -253 0
54 48 -301 0
54 48 -300 0
54 21 -195 0
54 21 -196 0
54 4 -91 0
54 4 -92 0
54 61 -312 0
54 61 -311 0
54 40 -280 0
54 40 -281 0
54 36 -268 0
54 36 -267 0
54 30 -236 0
54 30 -235 0
54 46 -291 0
54 46 -292 0
54 25 -216 0
54 25 -217 0
54 14 -147 0
54 14 -148 0
54 8 -121 0
54 8 -120 0
54 55 -310 0
54 55 -172 0
54 55 -52 0
54 55 -313 0
54 55 -252 0
54 55 -301 0
54 55 -195 0
54 55 -91 0
54 55 -312 0
54 55 -280 0
54 55 -268 0
54 55 -236 0
54 55 -291 0
54 55 -216 0
54 55 -147 0
54 55 -121 0
54 55 -309 0
54 55 -173 0
54 55 -53 0
54 55 -314 0
54 55 -253 0
54 55 -300 0
54 55 -196 0
54 55 -92 0
54 55 -311 0
54 55 -281 0
54 55 -267 0
54 55 -235 0
54 55 -292 0
54 55 -217 0
54 55 -148 0
54 55 -120 0
57 18 -174 0
57 18 -175 0
57 1 -59 0
57 1 -56 0
57 67 -319 0
57 67 -318 0
57 34 -254 0
57 34 -255 0
57 48 -302 0
57 48 -303 0
57 21 -197 0
57 21 -198 0
57 4 -93 0
57 4 -94 0
57 61 -317 0
57 61 -316 0
57 40 -283 0
57 40 -282 0
57 36 -270 0
57 36 -269 0
57 30 -237 0
57 30 -238 0
57 46 -293 0
57 46 -294 0
57 25 -218 0
57 25 -219 0
57 14 -150 0
57 14 -149 0
57 8 -123 0
57 8 -122 0
57 58 -310 0
57 58 -309 0
57 58 -174 0
57 58 -59 0
57 58 -319 0
57 58 -254 0
57 58 -302 0
57 58 -197 0
57 58 -93 0
57 58 -317 0
57 58 -283 0
57 58 -270 0
57 58 -237 0
57 58 -293 0
57 58 -218 0
57 58 -150 0
57 58 -123 0
57 58 -175 0
57 58 -56 0
57 58 -318 0
57 58 -255 0
57 58 -303 0
57 58 -198 0
57 58 -94 0
57 58 -316 0
57 58 -282 0
57 58 -269 0
57 58 -238 0
57 58 -294 0
57 58 -219 0
57 58 -149 0
57 58 -122 0
18 1 -16 0
18 1 -17 0
18 67 -178 0
18 67 -179 0
18 34 -163 0
18 34 -162 0
18 48 -171 0
18 48 -170 0
18 21 -157 0
18 21 -156 0
18 4 -73 0
18 4 -74 0
18 61 -177 0
18 61 -176 0
18 40 -167 0
18 40 -166 0
18 36 -165 0
18 36 -164 0
18 30 -161 0
18 30 -160 0
18 46 -169 0
18 46 -168 0
18 25 -158 0
18 25 -159 0
18 14 -130 0
18 14 -129 0
18 8 -102 0
18 8 -103 0
18 19 -172 0
18 19 -174 0
18 19 -173 0
18 19 -175 0
18 19 -16 0
18 19 -178 0
18 19 -163 0
18 19 -171 0
18 19 -157 0
18 19 -73 0
18 19 -177 0
18 19 -167 0
18 19 -165 0
18 19 -161 0
18 19 -169 0
18 19 -158 0
18 19 -130 0
18 19 -102 0
18 19 -17 0
18 19 -179 0
18 19 -162 0
18 19 -170 0
18 19 -156 0
18 19 -74 0
18 19 -176 0
18 19 -166 0
18 19 -164 0
18 19 -160 0
18 19 -168 0
18 19 -159 0
18 19 -129 0
18 19 -103 0
1 67 -66 0
1 67 -65 0
1 34 -33 0
1 34 -32 0
1 48 -51 0
1 48 -50 0
1 21 -20 0
1 21 -23 0
1 4 -7 0
1 4 -6 0
1 61 -63 0
1 61 -60 0
1 40 -42 0
1 40 -41 0
1 36 -39 0
1 36 -38 0
1 30 -28 0
1 30 -31 0
1 46 -45 0
1 46 -44 0
1 25 -24 0
1 25 -27 0
1 14 -15 0
1 14 -12 0
1 8 -11 0
1 8 -9 0
1 3 -52 0
1 3 -59 0
1 3 -16 0
1 3 -53 0
1 3 -56 0
1 3 -17 0
1 3 -66 0
1 3 -33 0
1 3 -51 0
1 3 -20 0
1 3 -7 0
1 3 -63 0
1 3 -42 0
1 3 -39 0
1 3 -28 0
1 3 -45 0
1 3 -24 0
1 3 -15 0
1 3 -11 0
1 3 -65 0
1 3 -32 0
1 3 -50 0
1 3 -23 0
1 3 -6 0
1 3 -60 0
1 3 -41 0
1 3 -38 0
1 3 -31 0
1 3 -44 0
1 3 -27 0
1 3 -12 0
1 3 -9 0
67 34 -258 0
67 34 -259 0
67 48 -307 0
67 48 -306 0
67 21 -201 0
67 21 -202 0
67 4 -98 0
67 4 -97 0
67 61 -321 0
67 61 -322 0
67 40 -286 0
67 40 -287 0
67 36 -274 0
67 36 -273 0
67 30 -242 0
67 30 -241 0
67 46 -298 0
67 46 -297 0
67 25 -223 0
67 25 -222 0
67 14 -153 0
67 14 -154 0
67 8 -126 0
67 8 -127 0
67 64 -313 0
67 64 -319 0
67 64 -178 0
67 64 -66 0
67 64 -314 0
67 64 -318 0
67 64 -179 0
67 64 -65 0
67 64 -258 0
67 64 -307 0
67 64 -201 0
67 64 -98 0
67 64 -321 0
67 64 -286 0
67 64 -274 0
67 64 -242 0
67 64 -298 0
67 64 -223 0
67 64 -153 0
67 64 -126 0
67 64 -259 0
67 64 -306 0
67 64 -202 0
67 64 -97 0
67 64 -322 0
67 64 -287 0
67 64 -273 0
67 64 -241 0
67 64 -297 0
67 64 -222 0
67 64 -154 0
67 64 -127 0
34 48 -251 0
34 48 -250 0
34 21 -185 0
34 21 -186 0
34 4 -82 0
34 4 -81 0
34 61 -257 0
34 61 -256 0
34 40 -246 0
34 40 -247 0
34 36 -245 0
34 36 -244 0
34 30 -225 0
34 30 -226 0
34 46 -249 0
34 46 -248 0
34 25 -207 0
34 25 -206 0
34 14 -138 0
34 14 -137 0
34 8 -110 0
34 8 -111 0
34 35 -252 0
34 35 -254 0
34 35 -163 0
34 35 -33 0
34 35 -258 0
34 35 -253 0
34 35 -255 0
34 35 -162 0
34 35 -32 0
34 35 -259 0
34 35 -251 0
34 35 -185 0
34 35 -82 0
34 35 -257 0
34 35 -246 0
34 35 -245 0
34 35 -225 0
34 35 -249 0
34 35 -207 0
34 35 -138 0
34 35 -110 0
34 35 -250 0
34 35 -186 0
34 35 -81 0
34 35 -256 0
34 35 -247 0
34 35 -244 0
34 35 -226 0
34 35 -248 0
34 35 -206 0
34 35 -137 0
34 35 -111 0
48 21 -194 0
48 21 -193 0
48 4 -89 0
48 4 -90 0
48 61 -305 0
48 61 -304 0
48 40 -278 0
48 40 -279 0
48 36 -265 0
48 36 -266 0
48 30 -233 0
48 30 -234 0
48 46 -290 0
48 46 -289 0
48 25 -214 0
48 25 -215 0
48 14 -146 0
48 14 -145 0
48 8 -118 0
48 8 -119 0
48 49 -301 0
48 49 -302 0
48 49 -171 0
48 49 -51 0
48 49 -307 0
48 49 -251 0
48 49 -300 0
48 49 -303 0
48 49 -170 0
48 49 -50 0
48 49 -306 0
48 49 -250 0
48 49 -194 0
48 49 -89 0
48 49 -305 0
48 49 -278 0
48 49 -265 0
48 49 -233 0
48 49 -290 0
48 49 -214 0
48 49 -146 0
48 49 -118 0
48 49 -193 0
48 49 -90 0
48 49 -304 0
48 49 -279 0
48 49 -266 0
48 49 -234 0
48 49 -289 0
48 49 -215 0
48 49 -145 0
48 49 -119 0
21 4 -75 0
21 4 -76 0
21 61 -200 0
21 61 -199 0
21 40 -189 0
21 40 -190 0
21 36 -187 0
21 36 -188 0
21 30 -183 0
21 30 -184 0
21 46 -191 0
21 46 -192 0
21 25 -181 0
21 25 -182 0
21 14 -132 0
21 14 -131 0
21 8 -104 0
21 8 -105 0
21 22 -195 0
21 22 -197 0
21 22 -157 0
21 22 -20 0
21 22 -201 0
21 22 -185 0
21 22 -194 0
21 22 -196 0
21 22 -198 0
21 22 -156 0
21 22 -23 0
21 22 -202 0
21 22 -186 0
21 22 -193 0
21 22 -75 0
21 22 -200 0
21 22 -189 0
21 22 -187 0
21 22 -183 0
21 22 -191 0
21 22 -181 0
21 22 -132 0
21 22 -104 0
21 22 -76 0
21 22 -199 0
21 22 -190 0
21 22 -188 0
21 22 -184 0
21 22 -192 0
21 22 -182 0
21 22 -131 0
21 22 -105 0
4 61 -95 0
4 61 -96 0
4 40 -86 0
4 40 -85 0
4 36 -83 0
4 36 -84 0
4 30 -79 0
4 30 -80 0
4 46 -88 0
4 46 -87 0
4 25 -78 0
4 25 -77 0
4 14 -71 0
4 14 -72 0
4 8 -69 0
4 8 -70 0
4 5 -91 0
4 5 -93 0
4 5 -73 0
4 5 -7 0
4 5 -98 0
4 5 -82 0
4 5 -89 0
4 5 -75 0
4 5 -92 0
4 5 -94 0
4 5 -74 0
4 5 -6 0
4 5 -97 0
4 5 -81 0
4 5 -90 0
4 5 -76 0
4 5 -95 0
4 5 -86 0
4 5 -83 0
4 5 -79 0
4 5 -88 0
4 5 -78 0
4 5 -71 0
4 5 -69 0
4 5 -96 0
4 5 -85 0
4 5 -84 0
4 5 -80 0
4 5 -87 0
4 5 -77 0
4 5 -72 0
4 5 -70 0
61 40 -284 0
61 40 -285 0
61 36 -272 0
61 36 -271 0
61 30 -239 0
61 30 -240 0
61 46 -296 0
61 46 -295 0
61 25 -220 0
61 25 -221 0
61 14 -151 0
61 14 -152 0
61 8 -124 0
61 8 -125 0
61 62 -312 0
61 62 -317 0
61 62 -177 0
61 62 -63 0
61 62 -321 0
61 62 -257 0
61 62 -305 0
61 62 -200 0
61 62 -95 0
61 62 -311 0
61 62 -316 0
61 62 -176 0
61 62 -60 0
61 62 -322 0
61 62 -256 0
61 62 -304 0
61 62 -199 0
61 62 -96 0
61 62 -284 0
61 62 -272 0
61 62 -239 0
61 62 -296 0
61 62 -220 0
61 62 -151 0
61 62 -124 0
61 62 -285 0
61 62 -271 0
61 62 -240 0
61 62 -295 0
61 62 -221 0
61 62 -152 0
61 62 -125 0
40 36 -261 0
40 36 -262 0
40 30 -229 0
40 30 -230 0
40 46 -277 0
40 46 -276 0
40 25 -210 0
40 25 -211 0
40 14 -142 0
40 14 -141 0
40 8 -114 0
40 8 -115 0
40 43 -280 0
40 43 -283 0
40 43 -167 0
40 43 -42 0
40 43 -286 0
40 43 -246 0
40 43 -278 0
40 43 -189 0
40 43 -86 0
40 43 -284 0
40 43 -281 0
40 43 -282 0
40 43 -166 0
40 43 -41 0
40 43 -287 0
40 43 -247 0
40 43 -279 0
40 43 -190 0
40 43 -85 0
40 43 -285 0
40 43 -261 0
40 43 -229 0
40 43 -277 0
40 43 -210 0
40 43 -142 0
40 43 -114 0
40 43 -262 0
40 43 -230 0
40 43 -276 0
40 43 -211 0
40 43 -141 0
40 43 -115 0
36 30 -227 0
36 30 -228 0
36 46 -264 0
36 46 -263 0
36 25 -209 0
36 25 -208 0
36 14 -140 0
36 14 -139 0
36 8 -112 0
36 8 -113 0
36 37 -268 0
36 37 -270 0
36 37 -165 0
36 37 -39 0
36 37 -274 0
36 37 -245 0
36 37 -265 0
36 37 -187 0
36 37 -83 0
36 37 -272 0
36 37 -261 0
36 37 -267 0
36 37 -269 0
36 37 -164 0
36 37 -38 0
36 37 -273 0
36 37 -244 0
36 37 -266 0
36 37 -188 0
36 37 -84 0
36 37 -271 0
36 37 -262 0
36 37 -227 0
36 37 -264 0
36 37 -209 0
36 37 -140 0
36 37 -112 0
36 37 -228 0
36 37 -263 0
36 37 -208 0
36 37 -139 0
36 37 -113 0
30 46 -231 0
30 46 -232 0
30 25 -204 0
30 25 -205 0
30 14 -136 0
30 14 -135 0
30 8 -109 0
30 8 -108 0
30 29 -236 0
30 29 -237 0
30 29 -161 0
30 29 -28 0
30 29 -242 0
30 29 -225 0
30 29 -233 0
30 29 -183 0
30 29 -79 0
30 29 -239 0
30 29 -229 0
30 29 -227 0
30 29 -235 0
30 29 -238 0
30 29 -160 0
30 29 -31 0
30 29 -241 0
30 29 -226 0
30 29 -234 0
30 29 -184 0
30 29 -80 0
30 29 -240 0
30 29 -230 0
30 29 -228 0
30 29 -231 0
30 29 -204 0
30 29 -136 0
30 29 -109 0
30 29 -232 0
30 29 -205 0
30 29 -135 0
30 29 -108 0
46 25 -213 0
46 25 -212 0
46 14 -144 0
46 14 -143 0
46 8 -116 0
46 8 -117 0
46 47 -291 0
46 47 -293 0
46 47 -169 0
46 47 -45 0
46 47 -298 0
46 47 -249 0
46 47 -290 0
46 47 -191 0
46 47 -88 0
46 47 -296 0
46 47 -277 0
46 47 -264 0
46 47 -231 0
46 47 -292 0
46 47 -294 0
46 47 -168 0
46 47 -44 0
46 47 -297 0
46 47 -248 0
46 47 -289 0
46 47 -192 0
46 47 -87 0
46 47 -295 0
46 47 -276 0
46 47 -263 0
46 47 -232 0
46 47 -213 0
46 47 -144 0
46 47 -116 0
46 47 -212 0
46 47 -143 0
46 47 -117 0
25 14 -134 0
25 14 -133 0
25 8 -106 0
25 8 -107 0
25 26 -216 0
25 26 -218 0
25 26 -158 0
25 26 -24 0
25 26 -223 0
25 26 -207 0
25 26 -214 0
25 26 -181 0
25 26 -78 0
25 26 -220 0
25 26 -210 0
25 26 -209 0
25 26 -204 0
25 26 -213 0
25 26 -217 0
25 26 -219 0
25 26 -159 0
25 26 -27 0
25 26 -222 0
25 26 -206 0
25 26 -215 0
25 26 -182 0
25 26 -77 0
25 26 -221 0
25 26 -211 0
25 26 -208 0
25 26 -205 0
25 26 -212 0
25 26 -134 0
25 26 -106 0
25 26 -133 0
25 26 -107 0
14 8 -101 0
14 8 -100 0
14 13 -147 0
14 13 -150 0
14 13 -130 0
14 13 -15 0
14 13 -153 0
14 13 -138 0
14 13 -146 0
14 13 -132 0
14 13 -71 0
14 13 -151 0
14 13 -142 0
14 13 -140 0
14 13 -136 0
14 13 -144 0
14 13 -134 0
14 13 -148 0
14 13 -149 0
14 13 -129 0
14 13 -12 0
14 13 -154 0
14 13 -137 0
14 13 -145 0
14 13 -131 0
14 13 -72 0
14 13 -152 0
14 13 -141 0
14 13 -139 0
14 13 -135 0
14 13 -143 0
14 13 -133 0
14 13 -101 0
14 13 -100 0
8 10 -121 0
8 10 -123 0
8 10 -102 0
8 10 -11 0
8 10 -126 0
8 10 -110 0
8 10 -118 0
8 10 -104 0
8 10 -69 0
8 10 -124 0
8 10 -114 0
8 10 -112 0
8 10 -109 0
8 10 -116 0
8 10 -106 0
8 10 -101 0
8 10 -120 0
8 10 -122 0
8 10 -103 0
8 10 -9 0
8 10 -127 0
8 10 -111 0
8 10 -119 0
8 10 -105 0
8 10 -70 0
8 10 -125 0
8 10 -115 0
8 10 -113 0
8 10 -108 0
8 10 -117 0
8 10 -107 0
8 10 -100 0
55 58 -310 0
55 58 -309 0
55 19 -172 0
55 19 -173 0
55 3 -52 0
55 3 -53 0
55 64 -313 0
55 64 -314 0
55 35 -252 0
55 35 -253 0
55 49 -301 0
55 49 -300 0
55 22 -195 0
55 22 -196 0
55 5 -91 0
55 5 -92 0
55 62 -312 0
55 62 -311 0
55 43 -280 0
55 43 -281 0
55 37 -268 0
55 37 -267 0
55 29 -236 0
55 29 -235 0
55 47 -291 0
55 47 -292 0
55 26 -216 0
55 26 -217 0
55 13 -147 0
55 13 -148 0
55 10 -121 0
55 10 -120 0
58 19 -174 0
58 19 -175 0
58 3 -59 0
58 3 -56 0
58 64 -319 0
58 64 -318 0
58 35 -254 0
58 35 -255 0
58 49 -302 0
58 49 -303 0
58 22 -197 0
58 22 -198 0
58 5 -93 0
58 5 -94 0
58 62 -317 0
58 62 -316 0
58 43 -283 0
58 43 -282 0
58 37 -270 0
58 37 -269 0
58 29 -237 0
58 29 -238 0
58 47 -293 0
58 47 -294 0
58 26 -218 0
58 26 -219 0
58 13 -150 0
58 13 -149 0
58 10 -123 0
58 10 -122 0
19 3 -16 0
19 3 -17 0
19 64 -178 0
19 64 -179 0
19 35 -163 0
19 35 -162 0
19 49 -171 0
19 49 -170 0
19 22 -157 0
19 22 -156 0
19 5 -73 0
19 5 -74 0
19 62 -177 0
19 62 -176 0
19 43 -167 0
19 43 -166 0
19 37 -165 0
19 37 -164 0
19 29 -161 0
19 29 -160 0
19 47 -169 0
19 47 -168 0
19 26 -158 0
19 26 -159 0
19 13 -130 0
19 13 -129 0
19 10 -102 0
19 10 -103 0
3 64 -66 0
3 64 -65 0
3 35 -33 0
3 35 -32 0
3 49 -51 0
3 49 -50 0
3 22 -20 0
3 22 -23 0
3 5 -7 0
3 5 -6 0
3 62 -63 0
3 62 -60 0
3 43 -42 0
3 43 -41 0
3 37 -39 0
3 37 -38 0
3 29 -28 0
3 29 -31 0
3 47 -45 0
3 47 -44 0
3 26 -24 0
3 26 -27 0
3 13 -15 0
3 13 -12 0
3 10 -11 0
3 10 -9 0
64 35 -258 0
64 35 -259 0
64 49 -307 0
64 49 -306 0
64 22 -201 0
64 22 -202 0
64 5 -98 0
64 5 -97 0
64 62 -321 0
64 62 -322 0
64 43 -286 0
64 43 -287 0
64 37 -274 0
64 37 -273 0
64 29 -242 0
64 29 -241 0
64 47 -298 0
64 47 -297 0
64 26 -223 0
64 26 -222 0
64 13 -153 0
64 13 -154 0
64 10 -126 0
64 10 -127 0
35 49 -251 0
35 49 -250 0
35 22 -185 0
35 22 -186 0
35 5 -82 0
35 5 -81 0
35 62 -257 0
35 62 -256 0
35 43 -246 0
35 43 -247 0
35 37 -245 0
35 37 -244 0
35 29 -225 0
35 29 -226 0
35 47 -249 0
35 47 -248 0
35 26 -207 0
35 26 -206 0
35 13 -138 0
35 13 -137 0
35 10 -110 0
35 10 -111 0
49 22 -194 0
49 22 -193 0
49 5 -89 0
49 5 -90 0
49 62 -305 0
49 62 -304 0
49 43 -278 0
49 43 -279 0
49 37 -265 0
49 37 -266 0
49 29 -233 0
49 29 -234 0
49 47 -290 0
49 47 -289 0
49 26 -214 0
49 26 -215 0
49 13 -146 0
49 13 -145 0
49 10 -118 0
49 10 -119 0
22 5 -75 0
22 5 -76 0
22 62 -200 0
22 62 -199 0
22 43 -189 0
22 43 -190 0
22 37 -187 0
22 37 -188 0
22 29 -183 0
22 29 -184 0
22 47 -191 0
22 47 -192 0
22 26 -181 0
22 26 -182 0
22 13 -132 0
22 13 -131 0
22 10 -104 0
22 10 -105 0
5 62 -95 0
5 62 -96 0
5 43 -86 0
5 43 -85 0
5 37 -83 0
5 37 -84 0
5 29 -79 0
5 29 -80 0
5 47 -88 0
5 47 -87 0
5 26 -78 0
5 26 -77 0
5 13 -71 0
5 13 -72 0
5 10 -69 0
5 10 -70 0
62 43 -284 0
62 43 -285 0
62 37 -272 0
62 37 -271 0
62 29 -239 0
62 29 -240 0
62 47 -296 0
62 47 -295 0
62 26 -220 0
62 26 -221 0
62 13 -151 0
62 13 -152 0
62 10 -124 0
62 10 -125 0
43 37 -261 0
43 37 -262 0
43 29 -229 0
43 29 -230 0
43 47 -277 0
43 47 -276 0
43 26 -210 0
43 26 -211 0
43 13 -142 0
43 13 -141 0
43 10 -114 0
43 10 -115 0
37 29 -227 0
37 29 -228 0
37 47 -264 0
37 47 -263 0
37 26 -209 0
37 26 -208 0
37 13 -140 0
37 13 -139 0
37 10 -112 0
37 10 -113 0
29 47 -231 0
29 47 -232 0
29 26 -204 0
29 26 -205 0
29 13 -136 0
29 13 -135 0
29 10 -109 0
29 10 -108 0
47 26 -213 0
47 26 -212 0
47 13 -144 0
47 13 -143 0
47 10 -116 0
47 10 -117 0
26 13 -134 0
26 13 -133 0
26 10 -106 0
26 10 -107 0
13 10 -101 0
13 10 -100 0
