c E(6,6) R(6) B(6) R(14) E(6,14) E(14,6) B(14) R(1) B(1) E(1,6) E(6,1) E(3,6) E(6,3) R(3) B(3) B(13) E(6,13) E(13,6) R(13) R(9) B(9) E(6,9) E(9,6) R(2) E(6,2) E(2,6) B(2) E(6,5) B(5) E(5,6) R(5) E(6,7) R(7) E(7,6) B(7) E(8,6) E(6,8) R(8) B(8) B(15) E(15,6) R(15) E(6,15) E(0,6) B(0) E(6,0) R(0) E(12,6) E(6,12) B(12) R(12) R(16) E(6,16) E(16,6) B(16) E(4,6) E(6,4) R(4) B(4) B(10) R(10) E(10,6) E(6,10) B(11) E(11,6) E(6,11) R(11) B(17) E(17,6) E(6,17) R(17) E(14,14) E(14,1) E(1,14) E(14,3) E(3,14) E(14,13) E(13,14) E(9,14) E(14,9) E(2,14) E(14,2) E(14,5) E(5,14) E(14,7) E(7,14) E(14,8) E(8,14) E(14,15) E(15,14) E(0,14) E(14,0) E(12,14) E(14,12) E(14,16) E(16,14) E(4,14) E(14,4) E(10,14) E(14,10) E(11,14) E(14,11) E(14,17) E(17,14) E(1,1) E(3,1) E(1,3) E(1,13) E(13,1) E(9,1) E(1,9) E(2,1) E(1,2) E(5,1) E(1,5) E(1,7) E(7,1) E(8,1) E(1,8) E(1,15) E(15,1) E(1,0) E(0,1) E(1,12) E(12,1) E(16,1) E(1,16) E(1,4) E(4,1) E(1,10) E(10,1) E(1,11) E(11,1) E(17,1) E(1,17) E(3,3) E(3,13) E(13,3) E(3,9) E(9,3) E(3,2) E(2,3) E(3,5) E(5,3) E(7,3) E(3,7) E(3,8) E(8,3) E(3,15) E(15,3) E(3,0) E(0,3) E(12,3) E(3,12) E(3,16) E(16,3) E(3,4) E(4,3) E(10,3) E(3,10) E(11,3) E(3,11) E(3,17) E(17,3) E(13,13) E(13,9) E(9,13) E(2,13) E(13,2) E(5,13) E(13,5) E(7,13) E(13,7) E(8,13) E(13,8) E(15,13) E(13,15) E(0,13) E(13,0) E(12,13) E(13,12) E(16,13) E(13,16) E(4,13) E(13,4) E(13,10) E(10,13) E(13,11) E(11,13) E(13,17) E(17,13) E(9,9) E(9,2) E(2,9) E(9,5) E(5,9) E(7,9) E(9,7) E(8,9) E(9,8) E(15,9) E(9,15) E(9,0) E(0,9) E(12,9) E(9,12) E(16,9) E(9,16) E(9,4) E(4,9) E(9,10) E(10,9) E(9,11) E(11,9) E(17,9) E(9,17) E(2,2) E(5,2) E(2,5) E(7,2) E(2,7) E(8,2) E(2,8) E(15,2) E(2,15) E(2,0) E(0,2) E(2,12) E(12,2) E(16,2) E(2,16) E(2,4) E(4,2) E(2,10) E(10,2) E(11,2) E(2,11) E(17,2) E(2,17) E(5,5) E(7,5) E(5,7) E(8,5) E(5,8) E(5,15) E(15,5) E(0,5) E(5,0) E(12,5) E(5,12) E(5,16) E(16,5) E(4,5) E(5,4) E(5,10) E(10,5) E(5,11) E(11,5) E(17,5) E(5,17) E(7,7) E(7,8) E(8,7) E(7,15) E(15,7) E(7,0) E(0,7) E(7,12) E(12,7) E(7,16) E(16,7) E(4,7) E(7,4) E(10,7) E(7,10) E(11,7) E(7,11) E(17,7) E(7,17) E(8,8) E(8,15) E(15,8) E(8,0) E(0,8) E(12,8) E(8,12) E(8,16) E(16,8) E(8,4) E(4,8) E(8,10) E(10,8) E(11,8) E(8,11) E(17,8) E(8,17) E(15,15) E(0,15) E(15,0) E(12,15) E(15,12) E(15,16) E(16,15) E(15,4) E(4,15) E(10,15) E(15,10) E(15,11) E(11,15) E(15,17) E(17,15) E(0,0) E(0,12) E(12,0) E(16,0) E(0,16) E(4,0) E(0,4) E(0,10) E(10,0) E(11,0) E(0,11) E(0,17) E(17,0) E(12,12) E(16,12) E(12,16) E(4,12) E(12,4) E(10,12) E(12,10) E(12,11) E(11,12) E(12,17) E(17,12) E(16,16) E(4,16) E(16,4) E(16,10) E(10,16) E(16,11) E(11,16) E(17,16) E(16,17) E(4,4) E(10,4) E(4,10) E(4,11) E(11,4) E(17,4) E(4,17) E(10,10) E(10,11) E(11,10) E(10,17) E(17,10) E(11,11) E(17,11) E(11,17) E(17,17)
c 1 2 3 4 5 6 7 8 9 10 11 12 13 14 15 16 17 18 19 20 21 22 23 24 25 26 27 28 29 30 31 32 33 34 35 36 37 38 39 40 41 42 43 44 45 46 47 48 49 50 51 52 53 54 55 56 57 58 59 60 61 62 63 64 65 66 67 68 69 70 71 72 73 74 75 76 77 78 79 80 81 82 83 84 85 86 87 88 89 90 91 92 93 94 95 96 97 98 99 100 101 102 103 104 105 106 107 108 109 110 111 112 113 114 115 116 117 118 119 120 121 122 123 124 125 126 127 128 129 130 131 132 133 134 135 136 137 138 139 140 141 142 143 144 145 146 147 148 149 150 151 152 153 154 155 156 157 158 159 160 161 162 163 164 165 166 167 168 169 170 171 172 173 174 175 176 177 178 179 180 181 182 183 184 185 186 187 188 189 190 191 192 193 194 195 196 197 198 199 200 201 202 203 204 205 206 207 208 209 210 211 212 213 214 215 216 217 218 219 220 221 222 223 224 225 226 227 228 229 230 231 232 233 234 235 236 237 238 239 240 241 242 243 244 245 246 247 248 249 250 251 252 253 254 255 256 257 258 259 260 261 262 263 264 265 266 267 268 269 270 271 272 273 274 275 276 277 278 279 280 281 282 283 284 285 286 287 288 289 290 291 292 293 294 295 296 297 298 299 300 301 302 303 304 305 306 307 308 309 310 311 312 313 314 315 316 317 318 319 320 321 322 323 324 325 326 327 328 329 330 331 332 333 334 335 336 337 338 339 340 341 342 343 344 345 346 347 348 349 350 351 352 353 354 355 356 357 358 359 360
p cnf 360 1620
45 47 0
9 8 0
60 61 0
64 67 0
50 51 0
16 19 0
7 4 0
40 42 0
55 52 0
68 71 0
27 24 0
15 14 0
59 58 0
29 31 0
3 2 0
35 33 0
39 38 0
21 20 0
45 -312 0
9 -105 0
60 -352 0
64 -357 0
50 -325 0
16 -165 0
7 -72 0
40 -297 0
55 -336 0
68 -360 0
27 -217 0
15 -136 0
59 -345 0
29 -240 0
3 -1 0
35 -261 0
39 -280 0
21 -192 0
312 -312 0
123 -122 0
319 -320 0
322 -321 0
313 -314 0
178 -179 0
91 -92 0
298 -299 0
316 -315 0
323 -324 0
227 -226 0
152 -151 0
318 -317 0
247 -248 0
44 -46 0
267 -266 0
284 -283 0
204 -203 0
122 -123 0
105 -105 0
130 -131 0
132 -133 0
124 -125 0
108 -109 0
74 -73 0
120 -121 0
127 -126 0
135 -134 0
113 -112 0
107 -106 0
128 -129 0
115 -114 0
10 -11 0
116 -117 0
119 -118 0
111 -110 0
320 -319 0
131 -130 0
352 -352 0
353 -354 0
330 -331 0
187 -186 0
99 -100 0
306 -307 0
340 -339 0
355 -356 0
235 -234 0
159 -160 0
346 -347 0
256 -255 0
62 -63 0
274 -275 0
292 -291 0
212 -211 0
321 -322 0
133 -132 0
354 -353 0
357 -357 0
333 -332 0
189 -188 0
101 -102 0
309 -308 0
342 -341 0
359 -358 0
236 -237 0
161 -162 0
349 -348 0
258 -257 0
65 -66 0
276 -277 0
293 -294 0
214 -213 0
314 -313 0
125 -124 0
331 -330 0
332 -333 0
325 -325 0
180 -181 0
93 -94 0
300 -301 0
327 -326 0
334 -335 0
229 -228 0
153 -154 0
329 -328 0
249 -250 0
48 -49 0
269 -268 0
285 -286 0
205 -206 0
179 -178 0
109 -108 0
186 -187 0
188 -189 0
181 -180 0
165 -165 0
78 -77 0
177 -176 0
183 -182 0
190 -191 0
169 -168 0
138 -137 0
185 -184 0
171 -170 0
18 -17 0
173 -172 0
175 -174 0
166 -167 0
92 -91 0
73 -74 0
100 -99 0
102 -101 0
94 -93 0
77 -78 0
72 -72 0
89 -90 0
95 -96 0
103 -104 0
82 -81 0
75 -76 0
98 -97 0
83 -84 0
6 -5 0
85 -86 0
87 -88 0
80 -79 0
299 -298 0
121 -120 0
307 -306 0
308 -309 0
301 -300 0
176 -177 0
90 -89 0
297 -297 0
302 -303 0
310 -311 0
224 -225 0
150 -149 0
304 -305 0
246 -245 0
41 -43 0
265 -264 0
282 -281 0
201 -202 0
315 -316 0
126 -127 0
339 -340 0
341 -342 0
326 -327 0
182 -183 0
96 -95 0
303 -302 0
336 -336 0
344 -343 0
230 -231 0
156 -155 0
338 -337 0
252 -251 0
54 -53 0
271 -270 0
288 -287 0
207 -208 0
324 -323 0
134 -135 0
356 -355 0
358 -359 0
335 -334 0
191 -190 0
104 -103 0
311 -310 0
343 -344 0
360 -360 0
238 -239 0
164 -163 0
350 -351 0
259 -260 0
69 -70 0
278 -279 0
295 -296 0
215 -216 0
226 -227 0
112 -113 0
234 -235 0
237 -236 0
228 -229 0
168 -169 0
81 -82 0
225 -224 0
231 -230 0
239 -238 0
217 -217 0
142 -141 0
232 -233 0
219 -218 0
26 -25 0
221 -220 0
223 -222 0
194 -193 0
151 -152 0
106 -107 0
160 -159 0
162 -161 0
154 -153 0
137 -138 0
76 -75 0
149 -150 0
155 -156 0
163 -164 0
141 -142 0
136 -136 0
157 -158 0
143 -144 0
12 -13 0
146 -145 0
147 -148 0
139 -140 0
317 -318 0
129 -128 0
347 -346 0
348 -349 0
328 -329 0
184 -185 0
97 -98 0
305 -304 0
337 -338 0
351 -350 0
233 -232 0
158 -157 0
345 -345 0
253 -254 0
56 -57 0
272 -273 0
290 -289 0
210 -209 0
248 -247 0
114 -115 0
255 -256 0
257 -258 0
250 -249 0
170 -171 0
84 -83 0
245 -246 0
251 -252 0
260 -259 0
218 -219 0
144 -143 0
254 -253 0
240 -240 0
30 -28 0
242 -241 0
244 -243 0
196 -195 0
46 -44 0
11 -10 0
63 -62 0
66 -65 0
49 -48 0
17 -18 0
5 -6 0
43 -41 0
53 -54 0
70 -69 0
25 -26 0
13 -12 0
57 -56 0
28 -30 0
1 -1 0
32 -34 0
37 -36 0
22 -23 0
266 -267 0
117 -116 0
275 -274 0
277 -276 0
268 -269 0
172 -173 0
86 -85 0
264 -265 0
270 -271 0
279 -278 0
220 -221 0
145 -146 0
273 -272 0
241 -242 0
34 -32 0
261 -261 0
262 -263 0
197 -198 0
283 -284 0
118 -119 0
291 -292 0
294 -293 0
286 -285 0
174 -175 0
88 -87 0
281 -282 0
287 -288 0
296 -295 0
222 -223 0
148 -147 0
289 -290 0
243 -244 0
36 -37 0
263 -262 0
280 -280 0
199 -200 0
203 -204 0
110 -111 0
211 -212 0
213 -214 0
206 -205 0
167 -166 0
79 -80 0
202 -201 0
208 -207 0
216 -215 0
193 -194 0
140 -139 0
209 -210 0
195 -196 0
23 -22 0
198 -197 0
200 -199 0
192 -192 0
47 -312 0
8 -105 0
61 -352 0
67 -357 0
51 -325 0
19 -165 0
4 -72 0
42 -297 0
52 -336 0
71 -360 0
24 -217 0
14 -136 0
58 -345 0
31 -240 0
2 -1 0
33 -261 0
38 -280 0
20 -192 0
-45 -47 0
-9 -8 0
-60 -61 0
-64 -67 0
-50 -51 0
-16 -19 0
-7 -4 0
-40 -42 0
-55 -52 0
-68 -71 0
-27 -24 0
-15 -14 0
-59 -58 0
-29 -31 0
-3 -2 0
-35 -33 0
-39 -38 0
-21 -20 0
45 9 -123 0
45 9 -122 0
45 60 -319 0
45 60 -320 0
45 64 -322 0
45 64 -321 0
45 50 -313 0
45 50 -314 0
45 16 -178 0
45 16 -179 0
45 7 -91 0
45 7 -92 0
45 40 -298 0
45 40 -299 0
45 55 -316 0
45 55 -315 0
45 68 -323 0
45 68 -324 0
45 27 -227 0
45 27 -226 0
45 15 -152 0
45 15 -151 0
45 59 -318 0
45 59 -317 0
45 29 -247 0
45 29 -248 0
45 3 -44 0
45 3 -46 0
45 35 -267 0
45 35 -266 0
45 39 -284 0
45 39 -283 0
45 21 -204 0
45 21 -203 0
45 47 -123 0
45 47 -319 0
45 47 -322 0
45 47 -313 0
45 47 -178 0
45 47 -91 0
45 47 -298 0
45 47 -316 0
45 47 -323 0
45 47 -227 0
45 47 -152 0
45 47 -318 0
45 47 -247 0
45 47 -44 0
45 47 -267 0
45 47 -284 0
45 47 -204 0
45 47 -122 0
45 47 -320 0
45 47 -321 0
45 47 -314 0
45 47 -179 0
45 47 -92 0
45 47 -299 0
45 47 -315 0
45 47 -324 0
45 47 -226 0
45 47 -151 0
45 47 -317 0
45 47 -248 0
45 47 -46 0
45 47 -266 0
45 47 -283 0
45 47 -203 0
9 60 -130 0
9 60 -131 0
9 64 -132 0
9 64 -133 0
9 50 -124 0
9 50 -125 0
9 16 -108 0
9 16 -109 0
9 7 -74 0
9 7 -73 0
9 40 -120 0
9 40 -121 0
9 55 -127 0
9 55 -126 0
9 68 -135 0
9 68 -134 0
9 27 -113 0
9 27 -112 0
9 15 -107 0
9 15 -106 0
9 59 -128 0
9 59 -129 0
9 29 -115 0
9 29 -114 0
9 3 -10 0
9 3 -11 0
9 35 -116 0
9 35 -117 0
9 39 -119 0
9 39 -118 0
9 21 -111 0
9 21 -110 0
9 8 -123 0
9 8 -122 0
9 8 -130 0
9 8 -132 0
9 8 -124 0
9 8 -108 0
9 8 -74 0
9 8 -120 0
9 8 -127 0
9 8 -135 0
9 8 -113 0
9 8 -107 0
9 8 -128 0
9 8 -115 0
9 8 -10 0
9 8 -116 0
9 8 -119 0
9 8 -111 0
9 8 -131 0
9 8 -133 0
9 8 -125 0
9 8 -109 0
9 8 -73 0
9 8 -121 0
9 8 -126 0
9 8 -134 0
9 8 -112 0
9 8 -106 0
9 8 -129 0
9 8 -114 0
9 8 -11 0
9 8 -117 0
9 8 -118 0
9 8 -110 0
60 64 -353 0
60 64 -354 0
60 50 -330 0
60 50 -331 0
60 16 -187 0
60 16 -186 0
60 7 -99 0
60 7 -100 0
60 40 -306 0
60 40 -307 0
60 55 -340 0
60 55 -339 0
60 68 -355 0
60 68 -356 0
60 27 -235 0
60 27 -234 0
60 15 -159 0
60 15 -160 0
60 59 -346 0
60 59 -347 0
60 29 -256 0
60 29 -255 0
60 3 -62 0
60 3 -63 0
60 35 -274 0
60 35 -275 0
60 39 -292 0
60 39 -291 0
60 21 -212 0
60 21 -211 0
60 61 -319 0
60 61 -130 0
60 61 -320 0
60 61 -131 0
60 61 -353 0
60 61 -330 0
60 61 -187 0
60 61 -99 0
60 61 -306 0
60 61 -340 0
60 61 -355 0
60 61 -235 0
60 61 -159 0
60 61 -346 0
60 61 -256 0
60 61 -62 0
60 61 -274 0
60 61 -292 0
60 61 -212 0
60 61 -354 0
60 61 -331 0
60 61 -186 0
60 61 -100 0
60 61 -307 0
60 61 -339 0
60 61 -356 0
60 61 -234 0
60 61 -160 0
60 61 -347 0
60 61 -255 0
60 61 -63 0
60 61 -275 0
60 61 -291 0
60 61 -211 0
64 50 -333 0
64 50 -332 0
64 16 -189 0
64 16 -188 0
64 7 -101 0
64 7 -102 0
64 40 -309 0
64 40 -308 0
64 55 -342 0
64 55 -341 0
64 68 -359 0
64 68 -358 0
64 27 -236 0
64 27 -237 0
64 15 -161 0
64 15 -162 0
64 59 -349 0
64 59 -348 0
64 29 -258 0
64 29 -257 0
64 3 -65 0
64 3 -66 0
64 35 -276 0
64 35 -277 0
64 39 -293 0
64 39 -294 0
64 21 -214 0
64 21 -213 0
64 67 -322 0
64 67 -132 0
64 67 -353 0
64 67 -321 0
64 67 -133 0
64 67 -354 0
64 67 -333 0
64 67 -189 0
64 67 -101 0
64 67 -309 0
64 67 -342 0
64 67 -359 0
64 67 -236 0
64 67 -161 0
64 67 -349 0
64 67 -258 0
64 67 -65 0
64 67 -276 0
64 67 -293 0
64 67 -214 0
64 67 -332 0
64 67 -188 0
64 67 -102 0
64 67 -308 0
64 67 -341 0
64 67 -358 0
64 67 -237 0
64 67 -162 0
64 67 -348 0
64 67 -257 0
64 67 -66 0
64 67 -277 0
64 67 -294 0
64 67 -213 0
50 16 -180 0
50 16 -181 0
50 7 -93 0
50 7 -94 0
50 40 -300 0
50 40 -301 0
50 55 -327 0
50 55 -326 0
50 68 -334 0
50 68 -335 0
50 27 -229 0
50 27 -228 0
50 15 -153 0
50 15 -154 0
50 59 -329 0
50 59 -328 0
50 29 -249 0
50 29 -250 0
50 3 -48 0
50 3 -49 0
50 35 -269 0
50 35 -268 0
50 39 -285 0
50 39 -286 0
50 21 -205 0
50 21 -206 0
50 51 -313 0
50 51 -124 0
50 51 -330 0
50 51 -333 0
50 51 -314 0
50 51 -125 0
50 51 -331 0
50 51 -332 0
50 51 -180 0
50 51 -93 0
50 51 -300 0
50 51 -327 0
50 51 -334 0
50 51 -229 0
50 51 -153 0
50 51 -329 0
50 51 -249 0
50 51 -48 0
50 51 -269 0
50 51 -285 0
50 51 -205 0
50 51 -181 0
50 51 -94 0
50 51 -301 0
50 51 -326 0
50 51 -335 0
50 51 -228 0
50 51 -154 0
50 51 -328 0
50 51 -250 0
50 51 -49 0
50 51 -268 0
50 51 -286 0
50 51 -206 0
16 7 -78 0
16 7 -77 0
16 40 -177 0
16 40 -176 0
16 55 -183 0
16 55 -182 0
16 68 -190 0
16 68 -191 0
16 27 -169 0
16 27 -168 0
16 15 -138 0
16 15 -137 0
16 59 -185 0
16 59 -184 0
16 29 -171 0
16 29 -170 0
16 3 -18 0
16 3 -17 0
16 35 -173 0
16 35 -172 0
16 39 -175 0
16 39 -174 0
16 21 -166 0
16 21 -167 0
16 19 -178 0
16 19 -108 0
16 19 -187 0
16 19 -189 0
16 19 -180 0
16 19 -179 0
16 19 -109 0
16 19 -186 0
16 19 -188 0
16 19 -181 0
16 19 -78 0
16 19 -177 0
16 19 -183 0
16 19 -190 0
16 19 -169 0
16 19 -138 0
16 19 -185 0
16 19 -171 0
16 19 -18 0
16 19 -173 0
16 19 -175 0
16 19 -166 0
16 19 -77 0
16 19 -176 0
16 19 -182 0
16 19 -191 0
16 19 -168 0
16 19 -137 0
16 19 -184 0
16 19 -170 0
16 19 -17 0
16 19 -172 0
16 19 -174 0
16 19 -167 0
7 40 -89 0
7 40 -90 0
7 55 -95 0
7 55 -96 0
7 68 -103 0
7 68 -104 0
7 27 -82 0
7 27 -81 0
7 15 -75 0
7 15 -76 0
7 59 -98 0
7 59 -97 0
7 29 -83 0
7 29 -84 0
7 3 -6 0
7 3 -5 0
7 35 -85 0
7 35 -86 0
7 39 -87 0
7 39 -88 0
7 21 -80 0
7 21 -79 0
7 4 -91 0
7 4 -74 0
7 4 -99 0
7 4 -101 0
7 4 -93 0
7 4 -78 0
7 4 -92 0
7 4 -73 0
7 4 -100 0
7 4 -102 0
7 4 -94 0
7 4 -77 0
7 4 -89 0
7 4 -95 0
7 4 -103 0
7 4 -82 0
7 4 -75 0
7 4 -98 0
7 4 -83 0
7 4 -6 0
7 4 -85 0
7 4 -87 0
7 4 -80 0
7 4 -90 0
7 4 -96 0
7 4 -104 0
7 4 -81 0
7 4 -76 0
7 4 -97 0
7 4 -84 0
7 4 -5 0
7 4 -86 0
7 4 -88 0
7 4 -79 0
40 55 -302 0
40 55 -303 0
40 68 -310 0
40 68 -311 0
40 27 -224 0
40 27 -225 0
40 15 -150 0
40 15 -149 0
40 59 -304 0
40 59 -305 0
40 29 -246 0
40 29 -245 0
40 3 -41 0
40 3 -43 0
40 35 -265 0
40 35 -264 0
40 39 -282 0
40 39 -281 0
40 21 -201 0
40 21 -202 0
40 42 -298 0
40 42 -120 0
40 42 -306 0
40 42 -309 0
40 42 -300 0
40 42 -177 0
40 42 -89 0
40 42 -299 0
40 42 -121 0
40 42 -307 0
40 42 -308 0
40 42 -301 0
40 42 -176 0
40 42 -90 0
40 42 -302 0
40 42 -310 0
40 42 -224 0
40 42 -150 0
40 42 -304 0
40 42 -246 0
40 42 -41 0
40 42 -265 0
40 42 -282 0
40 42 -201 0
40 42 -303 0
40 42 -311 0
40 42 -225 0
40 42 -149 0
40 42 -305 0
40 42 -245 0
40 42 -43 0
40 42 -264 0
40 42 -281 0
40 42 -202 0
55 68 -344 0
55 68 -343 0
55 27 -230 0
55 27 -231 0
55 15 -156 0
55 15 -155 0
55 59 -338 0
55 59 -337 0
55 29 -252 0
55 29 -251 0
55 3 -54 0
55 3 -53 0
55 35 -271 0
55 35 -270 0
55 39 -288 0
55 39 -287 0
55 21 -207 0
55 21 -208 0
55 52 -316 0
55 52 -127 0
55 52 -340 0
55 52 -342 0
55 52 -327 0
55 52 -183 0
55 52 -95 0
55 52 -302 0
55 52 -315 0
55 52 -126 0
55 52 -339 0
55 52 -341 0
55 52 -326 0
55 52 -182 0
55 52 -96 0
55 52 -303 0
55 52 -344 0
55 52 -230 0
55 52 -156 0
55 52 -338 0
55 52 -252 0
55 52 -54 0
55 52 -271 0
55 52 -288 0
55 52 -207 0
55 52 -343 0
55 52 -231 0
55 52 -155 0
55 52 -337 0
55 52 -251 0
55 52 -53 0
55 52 -270 0
55 52 -287 0
55 52 -208 0
68 27 -238 0
68 27 -239 0
68 15 -164 0
68 15 -163 0
68 59 -350 0
68 59 -351 0
68 29 -259 0
68 29 -260 0
68 3 -69 0
68 3 -70 0
68 35 -278 0
68 35 -279 0
68 39 -295 0
68 39 -296 0
68 21 -215 0
68 21 -216 0
68 71 -323 0
68 71 -135 0
68 71 -355 0
68 71 -359 0
68 71 -334 0
68 71 -190 0
68 71 -103 0
68 71 -310 0
68 71 -344 0
68 71 -324 0
68 71 -134 0
68 71 -356 0
68 71 -358 0
68 71 -335 0
68 71 -191 0
68 71 -104 0
68 71 -311 0
68 71 -343 0
68 71 -238 0
68 71 -164 0
68 71 -350 0
68 71 -259 0
68 71 -69 0
68 71 -278 0
68 71 -295 0
68 71 -215 0
68 71 -239 0
68 71 -163 0
68 71 -351 0
68 71 -260 0
68 71 -70 0
68 71 -279 0
68 71 -296 0
68 71 -216 0
27 15 -142 0
27 15 -141 0
27 59 -232 0
27 59 -233 0
27 29 -219 0
27 29 -218 0
27 3 -26 0
27 3 -25 0
27 35 -221 0
27 35 -220 0
27 39 -223 0
27 39 -222 0
27 21 -194 0
27 21 -193 0
27 24 -227 0
27 24 -113 0
27 24 -235 0
27 24 -236 0
27 24 -229 0
27 24 -169 0
27 24 -82 0
27 24 -224 0
27 24 -230 0
27 24 -238 0
27 24 -226 0
27 24 -112 0
27 24 -234 0
27 24 -237 0
27 24 -228 0
27 24 -168 0
27 24 -81 0
27 24 -225 0
27 24 -231 0
27 24 -239 0
27 24 -142 0
27 24 -232 0
27 24 -219 0
27 24 -26 0
27 24 -221 0
27 24 -223 0
27 24 -194 0
27 24 -141 0
27 24 -233 0
27 24 -218 0
27 24 -25 0
27 24 -220 0
27 24 -222 0
27 24 -193 0
15 59 -157 0
15 59 -158 0
15 29 -143 0
15 29 -144 0
15 3 -12 0
15 3 -13 0
15 35 -146 0
15 35 -145 0
15 39 -147 0
15 39 -148 0
15 21 -139 0
15 21 -140 0
15 14 -152 0
15 14 -107 0
15 14 -159 0
15 14 -161 0
15 14 -153 0
15 14 -138 0
15 14 -75 0
15 14 -150 0
15 14 -156 0
15 14 -164 0
15 14 -142 0
15 14 -151 0
15 14 -106 0
15 14 -160 0
15 14 -162 0
15 14 -154 0
15 14 -137 0
15 14 -76 0
15 14 -149 0
15 14 -155 0
15 14 -163 0
15 14 -141 0
15 14 -157 0
15 14 -143 0
15 14 -12 0
15 14 -146 0
15 14 -147 0
15 14 -139 0
15 14 -158 0
15 14 -144 0
15 14 -13 0
15 14 -145 0
15 14 -148 0
15 14 -140 0
59 29 -253 0
59 29 -254 0
59 3 -56 0
59 3 -57 0
59 35 -272 0
59 35 -273 0
59 39 -290 0
59 39 -289 0
59 21 -210 0
59 21 -209 0
59 58 -318 0
59 58 -128 0
59 58 -346 0
59 58 -349 0
59 58 -329 0
59 58 -185 0
59 58 -98 0
59 58 -304 0
59 58 -338 0
59 58 -350 0
59 58 -232 0
59 58 -157 0
59 58 -317 0
59 58 -129 0
59 58 -347 0
59 58 -348 0
59 58 -328 0
59 58 -184 0
59 58 -97 0
59 58 -305 0
59 58 -337 0
59 58 -351 0
59 58 -233 0
59 58 -158 0
59 58 -253 0
59 58 -56 0
59 58 -272 0
59 58 -290 0
59 58 -210 0
59 58 -254 0
59 58 -57 0
59 58 -273 0
59 58 -289 0
59 58 -209 0
29 3 -30 0
29 3 -28 0
29 35 -242 0
29 35 -241 0
29 39 -244 0
29 39 -243 0
29 21 -196 0
29 21 -195 0
29 31 -247 0
29 31 -115 0
29 31 -256 0
29 31 -258 0
29 31 -249 0
29 31 -171 0
29 31 -83 0
29 31 -246 0
29 31 -252 0
29 31 -259 0
29 31 -219 0
29 31 -143 0
29 31 -253 0
29 31 -248 0
29 31 -114 0
29 31 -255 0
29 31 -257 0
29 31 -250 0
29 31 -170 0
29 31 -84 0
29 31 -245 0
29 31 -251 0
29 31 -260 0
29 31 -218 0
29 31 -144 0
29 31 -254 0
29 31 -30 0
29 31 -242 0
29 31 -244 0
29 31 -196 0
29 31 -28 0
29 31 -241 0
29 31 -243 0
29 31 -195 0
3 35 -32 0
3 35 -34 0
3 39 -37 0
3 39 -36 0
3 21 -22 0
3 21 -23 0
3 2 -44 0
3 2 -10 0
3 2 -62 0
3 2 -65 0
3 2 -48 0
3 2 -18 0
3 2 -6 0
3 2 -41 0
3 2 -54 0
3 2 -69 0
3 2 -26 0
3 2 -12 0
3 2 -56 0
3 2 -30 0
3 2 -46 0
3 2 -11 0
3 2 -63 0
3 2 -66 0
3 2 -49 0
3 2 -17 0
3 2 -5 0
3 2 -43 0
3 2 -53 0
3 2 -70 0
3 2 -25 0
3 2 -13 0
3 2 -57 0
3 2 -28 0
3 2 -32 0
3 2 -37 0
3 2 -22 0
3 2 -34 0
3 2 -36 0
3 2 -23 0
35 39 -262 0
35 39 -263 0
35 21 -197 0
35 21 -198 0
35 33 -267 0
35 33 -116 0
35 33 -274 0
35 33 -276 0
35 33 -269 0
35 33 -173 0
35 33 -85 0
35 33 -265 0
35 33 -271 0
35 33 -278 0
35 33 -221 0
35 33 -146 0
35 33 -272 0
35 33 -242 0
35 33 -32 0
35 33 -266 0
35 33 -117 0
35 33 -275 0
35 33 -277 0
35 33 -268 0
35 33 -172 0
35 33 -86 0
35 33 -264 0
35 33 -270 0
35 33 -279 0
35 33 -220 0
35 33 -145 0
35 33 -273 0
35 33 -241 0
35 33 -34 0
35 33 -262 0
35 33 -197 0
35 33 -263 0
35 33 -198 0
39 21 -199 0
39 21 -200 0
39 38 -284 0
39 38 -119 0
39 38 -292 0
39 38 -293 0
39 38 -285 0
39 38 -175 0
39 38 -87 0
39 38 -282 0
39 38 -288 0
39 38 -295 0
39 38 -223 0
39 38 -147 0
39 38 -290 0
39 38 -244 0
39 38 -37 0
39 38 -262 0
39 38 -283 0
39 38 -118 0
39 38 -291 0
39 38 -294 0
39 38 -286 0
39 38 -174 0
39 38 -88 0
39 38 -281 0
39 38 -287 0
39 38 -296 0
39 38 -222 0
39 38 -148 0
39 38 -289 0
39 38 -243 0
39 38 -36 0
39 38 -263 0
39 38 -199 0
39 38 -200 0
21 20 -204 0
21 20 -111 0
21 20 -212 0
21 20 -214 0
21 20 -205 0
21 20 -166 0
21 20 -80 0
21 20 -201 0
21 20 -207 0
21 20 -215 0
21 20 -194 0
21 20 -139 0
21 20 -210 0
21 20 -196 0
21 20 -22 0
21 20 -197 0
21 20 -199 0
21 20 -203 0
21 20 -110 0
21 20 -211 0
21 20 -213 0
21 20 -206 0
21 20 -167 0
21 20 -79 0
21 20 -202 0
21 20 -208 0
21 20 -216 0
21 20 -193 0
21 20 -140 0
21 20 -209 0
21 20 -195 0
21 20 -23 0
21 20 -198 0
21 20 -200 0
47 8 -123 0
47 8 -122 0
47 61 -319 0
47 61 -320 0
47 67 -322 0
47 67 -321 0
47 51 -313 0
47 51 -314 0
47 19 -178 0
47 19 -179 0
47 4 -91 0
47 4 -92 0
47 42 -298 0
47 42 -299 0
47 52 -316 0
47 52 -315 0
47 71 -323 0
47 71 -324 0
47 24 -227 0
47 24 -226 0
47 14 -152 0
47 14 -151 0
47 58 -318 0
47 58 -317 0
47 31 -247 0
47 31 -248 0
47 2 -44 0
47 2 -46 0
47 33 -267 0
47 33 -266 0
47 38 -284 0
47 38 -283 0
47 20 -204 0
47 20 -203 0
8 61 -130 0
8 61 -131 0
8 67 -132 0
8 67 -133 0
8 51 -124 0
8 51 -125 0
8 19 -108 0
8 19 -109 0
8 4 -74 0
8 4 -73 0
8 42 -120 0
8 42 -121 0
8 52 -127 0
8 52 -126 0
8 71 -135 0
8 71 -134 0
8 24 -113 0
8 24 -112 0
8 14 -107 0
8 14 -106 0
8 58 -128 0
8 58 -129 0
8 31 -115 0
8 31 -114 0
8 2 -10 0
8 2 -11 0
8 33 -116 0
8 33 -117 0
8 38 -119 0
8 38 -118 0
8 20 -111 0
8 20 -110 0
61 67 -353 0
61 67 -354 0
61 51 -330 0
61 51 -331 0
61 19 -187 0
61 19 -186 0
61 4 -99 0
61 4 -100 0
61 42 -306 0
61 42 -307 0
61 52 -340 0
61 52 -339 0
61 71 -355 0
61 71 -356 0
61 24 -235 0
61 24 -234 0
61 14 -159 0
61 14 -160 0
61 58 -346 0
61 58 -347 0
61 31 -256 0
61 31 -255 0
61 2 -62 0
61 2 -63 0
61 33 -274 0
61 33 -275 0
61 38 -292 0
61 38 -291 0
61 20 -212 0
61 20 -211 0
67 51 -333 0
67 51 -332 0
67 19 -189 0
67 19 -188 0
67 4 -101 0
67 4 -102 0
67 42 -309 0
67 42 -308 0
67 52 -342 0
67 52 -341 0
67 71 -359 0
67 71 -358 0
67 24 -236 0
67 24 -237 0
67 14 -161 0
67 14 -162 0
67 58 -349 0
67 58 -348 0
67 31 -258 0
67 31 -257 0
67 2 -65 0
67 2 -66 0
67 33 -276 0
67 33 -277 0
67 38 -293 0
67 38 -294 0
67 20 -214 0
67 20 -213 0
51 19 -180 0
51 19 -181 0
51 4 -93 0
51 4 -94 0
51 42 -300 0
51 42 -301 0
51 52 -327 0
51 52 -326 0
51 71 -334 0
51 71 -335 0
51 24 -229 0
51 24 -228 0
51 14 -153 0
51 14 -154 0
51 58 -329 0
51 58 -328 0
51 31 -249 0
51 31 -250 0
51 2 -48 0
51 2 -49 0
51 33 -269 0
51 33 -268 0
51 38 -285 0
51 38 -286 0
51 20 -205 0
51 20 -206 0
19 4 -78 0
19 4 -77 0
19 42 -177 0
19 42 -176 0
19 52 -183 0
19 52 -182 0
19 71 -190 0
19 71 -191 0
19 24 -169 0
19 24 -168 0
19 14 -138 0
19 14 -137 0
19 58 -185 0
19 58 -184 0
19 31 -171 0
19 31 -170 0
19 2 -18 0
19 2 -17 0
19 33 -173 0
19 33 -172 0
19 38 -175 0
19 38 -174 0
19 20 -166 0
19 20 -167 0
4 42 -89 0
4 42 -90 0
4 52 -95 0
4 52 -96 0
4 71 -103 0
4 71 -104 0
4 24 -82 0
4 24 -81 0
4 14 -75 0
4 14 -76 0
4 58 -98 0
4 58 -97 0
4 31 -83 0
4 31 -84 0
4 2 -6 0
4 2 -5 0
4 33 -85 0
4 33 -86 0
4 38 -87 0
4 38 -88 0
4 20 -80 0
4 20 -79 0
42 52 -302 0
42 52 -303 0
42 71 -310 0
42 71 -311 0
42 24 -224 0
42 24 -225 0
42 14 -150 0
42 14 -149 0
42 58 -304 0
42 58 -305 0
42 31 -246 0
42 31 -245 0
42 2 -41 0
42 2 -43 0
42 33 -265 0
42 33 -264 0
42 38 -282 0
42 38 -281 0
42 20 -201 0
42 20 -202 0
52 71 -344 0
52 71 -343 0
52 24 -230 0
52 24 -231 0
52 14 -156 0
52 14 -155 0
52 58 -338 0
52 58 -337 0
52 31 -252 0
52 31 -251 0
52 2 -54 0
52 2 -53 0
52 33 -271 0
52 33 -270 0
52 38 -288 0
52 38 -287 0
52 20 -207 0
52 20 -208 0
71 24 -238 0
71 24 -239 0
71 14 -164 0
71 14 -163 0
71 58 -350 0
71 58 -351 0
71 31 -259 0
71 31 -260 0
71 2 -69 0
71 2 -70 0
71 33 -278 0
71 33 -279 0
71 38 -295 0
71 38 -296 0
71 20 -215 0
71 20 -216 0
24 14 -142 0
24 14 -141 0
24 58 -232 0
24 58 -233 0
24 31 -219 0
24 31 -218 0
24 2 -26 0
24 2 -25 0
24 33 -221 0
24 33 -220 0
24 38 -223 0
24 38 -222 0
24 20 -194 0
24 20 -193 0
14 58 -157 0
14 58 -158 0
14 31 -143 0
14 31 -144 0
14 2 -12 0
14 2 -13 0
14 33 -146 0
14 33 -145 0
14 38 -147 0
14 38 -148 0
14 20 -139 0
14 20 -140 0
58 31 -253 0
58 31 -254 0
58 2 -56 0
58 2 -57 0
58 33 -272 0
58 33 -273 0
58 38 -290 0
58 38 -289 0
58 20 -210 0
58 20 -209 0
31 2 -30 0
31 2 -28 0
31 33 -242 0
31 33 -241 0
31 38 -244 0
31 38 -243 0
31 20 -196 0
31 20 -195 0
2 33 -32 0
2 33 -34 0
2 38 -37 0
2 38 -36 0
2 20 -22 0
2 20 -23 0
33 38 -262 0
33 38 -263 0
33 20 -197 0
33 20 -198 0
38 20 -199 0
38 20 -200 0
