c R(4) E(4,4) B(4) B(6) R(6) E(6,4) E(4,6) E(4,13) B(13) E(13,4) R(13) E(4,0) R(0) B(0) E(0,4) B(11) E(4,11) R(11) E(11,4) R(10) E(4,10) E(10,4) B(10) E(4,1) R(1) B(1) E(1,4) R(17) E(17,4) E(4,17) B(17) E(8,4) E(4,8) B(8) R(8) E(16,4) B(16) E(4,16) R(16) B(3) R(3) E(3,4) E(4,3) E(2,4) B(2) E(4,2) R(2) E(5,4) E(4,5) B(5) R(5) R(18) E(18,4) E(4,18) B(18) E(4,9) B(9) R(9) E(9,4) B(14) R(14) E(14,4) E(4,14) E(12,4) R(12) E(4,12) B(12) E(4,15) B(15) E(15,4) R(15) E(4,7) E(7,4) B(7) R(7) E(6,6) E(6,13) E(13,6) E(6,0) E(0,6) E(6,11) E(11,6) E(6,10) E(10,6) E(1,6) E(6,1) E(6,17) E(17,6) E(6,8) E(8,6) E(6,16) E(16,6) E(3,6) E(6,3) E(6,2) E(2,6) E(6,5) E(5,6) E(18,6) E(6,18) E(9,6) E(6,9) E(14,6) E(6,14) E(6,12) E(12,6) E(15,6) E(6,15) E(7,6) E(6,7) E(13,13) E(0,13) E(13,0) E(13,11) E(11,13) E(13,10) E(10,13) E(1,13) E(13,1) E(13,17) E(17,13) E(8,13) E(13,8) E(13,16) E(16,13) E(3,13) E(13,3) E(13,2) E(2,13) E(5,13) E(13,5) E(13,18) E(18,13) E(9,13) E(13,9) E(14,13) E(13,14) E(13,12) E(12,13) E(15,13) E(13,15) E(13,7) E(7,13) E(0,0) E(11,0) E(0,11) E(0,10) E(10,0) E(0,1) E(1,0) E(17,0) E(0,17) E(8,0) E(0,8) E(0,16) E(16,0) E(3,0) E(0,3) E(2,0) E(0,2) E(0,5) E(5,0) E(0,18) E(18,0) E(9,0) E(0,9) E(0,14) E(14,0) E(0,12) E(12,0) E(15,0) E(0,15) E(0,7) E(7,0) E(11,11) E(11,10) E(10,11) E(1,11) E(11,1) E(17,11) E(11,17) E(11,8) E(8,11) E(11,16) E(16,11) E(11,3) E(3,11) E(2,11) E(11,2) E(5,11) E(11,5) E(11,18) E(18,11) E(9,11) E(11,9) E(11,14) E(14,11) E(12,11) E(11,12) E(11,15) E(15,11) E(11,7) E(7,11) E(10,10) E(1,10) E(10,1) E(10,17) E(17,10) E(10,8) E(8,10) E(10,16) E(16,10) E(3,10) E(10,3) E(10,2) E(2,10) E(10,5) E(5,10) E(10,18) E(18,10) E(9,10) E(10,9) E(14,10) E(10,14) E(10,12) E(12,10) E(15,10) E(10,15) E(10,7) E(7,10) E(1,1) E(17,1) E(1,17) E(8,1) E(1,8) E(16,1) E(1,16) E(1,3) E(3,1) E(2,1) E(1,2) E(5,1) E(1,5) E(1,18) E(18,1) E(1,9) E(9,1) E(1,14) E(14,1) E(1,12) E(12,1) E(1,15) E(15,1) E(1,7) E(7,1) E(17,17) E(17,8) E(8,17) E(16,17) E(17,16) E(3,17) E(17,3) E(17,2) E(2,17) E(17,5) E(5,17) E(18,17) E(17,18) E(17,9) E(9,17) E(14,17) E(17,14) E(17,12) E(12,17) E(15,17) E(17,15) E(17,7) E(7,17) E(8,8) E(8,16) E(16,8) E(3,8) E(8,3) E(2,8) E(8,2) E(5,8) E(8,5) E(18,8) E(8,18) E(8,9) E(9,8) E(8,14) E(14,8) E(12,8) E(8,12) E(8,15) E(15,8) E(7,8) E(8,7) E(16,16) E(16,3) E(3,16) E(2,16) E(16,2) E(16,5) E(5,16) E(16,18) E(18,16) E(9,16) E(16,9) E(16,14) E(14,16) E(16,12) E(12,16) E(15,16) E(16,15) E(16,7) E(7,16) E(3,3) E(2,3) E(3,2) E(5,3) E(3,5) E(18,3) E(3,18) E(9,3) E(3,9) E(3,14) E(14,3) E(12,3) E(3,12) E(3,15) E(15,3) E(7,3) E(3,7) E(2,2) E(2,5) E(5,2) E(2,18) E(18,2) E(2,9) E(9,2) E(2,14) E(14,2) E(2,12) E(12,2) E(2,15) E(15,2) E(2,7) E(7,2) E(5,5) E(18,5) E(5,18) E(5,9) E(9,5) E(5,14) E(14,5) E(5,12) E(12,5) E(15,5) E(5,15) E(7,5) E(5,7) E(18,18) E(9,18) E(18,9) E(18,14) E(14,18) E(18,12) E(12,18) E(18,15) E(15,18) E(7,18) E(18,7) E(9,9) E(9,14) E(14,9) E(9,12) E(12,9) E(9,15) E(15,9) E(9,7) E(7,9) E(14,14) E(14,12) E(12,14) E(15,14) E(14,15) E(7,14) E(14,7) E(12,12) E(15,12) E(12,15) E(12,7) E(7,12) E(15,15) E(7,15) E(15,7) E(7,7)
c 1 2 3 4 5 6 7 8 9 10 11 12 13 14 15 16 17 18 19 20 21 22 23 24 25 26 27 28 29 30 31 32 33 34 35 36 37 38 39 40 41 42 43 44 45 46 47 48 49 50 51 52 53 54 55 56 57 58 59 60 61 62 63 64 65 66 67 68 69 70 71 72 73 74 75 76 77 78 79 80 81 82 83 84 85 86 87 88 89 90 91 92 93 94 95 96 97 98 99 100 101 102 103 104 105 106 107 108 109 110 111 112 113 114 115 116 117 118 119 120 121 122 123 124 125 126 127 128 129 130 131 132 133 134 135 136 137 138 139 140 141 142 143 144 145 146 147 148 149 150 151 152 153 154 155 156 157 158 159 160 161 162 163 164 165 166 167 168 169 170 171 172 173 174 175 176 177 178 179 180 181 182 183 184 185 186 187 188 189 190 191 192 193 194 195 196 197 198 199 200 201 202 203 204 205 206 207 208 209 210 211 212 213 214 215 216 217 218 219 220 221 222 223 224 225 226 227 228 229 230 231 232 233 234 235 236 237 238 239 240 241 242 243 244 245 246 247 248 249 250 251 252 253 254 255 256 257 258 259 260 261 262 263 264 265 266 267 268 269 270 271 272 273 274 275 276 277 278 279 280 281 282 283 284 285 286 287 288 289 290 291 292 293 294 295 296 297 298 299 300 301 302 303 304 305 306 307 308 309 310 311 312 313 314 315 316 317 318 319 320 321 322 323 324 325 326 327 328 329 330 331 332 333 334 335 336 337 338 339 340 341 342 343 344 345 346 347 348 349 350 351 352 353 354 355 356 357 358 359 360 361 362 363 364 365 366 367 368 369 370 371 372 373 374 375 376 377 378 379 380 381 382 383 384 385 386 387 388 389 390 391 392 393 394 395 396 397 398 399
p cnf 399 1805
14 13 0
26 25 0
23 20 0
16 18 0
67 65 0
9 11 0
60 61 0
69 71 0
37 39 0
31 28 0
55 52 0
45 47 0
40 41 0
3 1 0
50 51 0
4 5 0
74 75 0
34 35 0
57 58 0
14 -144 0
26 -231 0
23 -204 0
16 -175 0
67 -391 0
9 -111 0
60 -384 0
69 -396 0
37 -300 0
31 -256 0
55 -364 0
45 -336 0
40 -319 0
3 -2 0
50 -351 0
4 -76 0
74 -399 0
34 -279 0
57 -375 0
144 -144 0
149 -150 0
147 -148 0
146 -145 0
169 -170 0
112 -113 0
167 -168 0
172 -171 0
155 -156 0
152 -151 0
163 -164 0
160 -159 0
158 -157 0
15 -12 0
161 -162 0
80 -79 0
173 -174 0
154 -153 0
166 -165 0
150 -149 0
231 -231 0
205 -206 0
178 -179 0
250 -251 0
118 -119 0
248 -249 0
252 -253 0
237 -236 0
233 -232 0
244 -245 0
241 -240 0
238 -239 0
27 -24 0
243 -242 0
85 -86 0
254 -255 0
235 -234 0
246 -247 0
148 -147 0
206 -205 0
204 -204 0
177 -176 0
225 -226 0
117 -116 0
224 -223 0
228 -227 0
211 -212 0
207 -208 0
219 -220 0
215 -216 0
214 -213 0
22 -21 0
217 -218 0
84 -83 0
229 -230 0
209 -210 0
222 -221 0
145 -146 0
179 -178 0
176 -177 0
175 -175 0
199 -198 0
115 -114 0
196 -197 0
200 -201 0
184 -185 0
181 -180 0
192 -193 0
189 -188 0
186 -187 0
19 -17 0
191 -190 0
82 -81 0
202 -203 0
182 -183 0
195 -194 0
170 -169 0
251 -250 0
226 -225 0
198 -199 0
391 -391 0
139 -138 0
386 -385 0
393 -392 0
314 -313 0
274 -273 0
370 -369 0
346 -345 0
330 -331 0
64 -66 0
359 -358 0
106 -105 0
394 -395 0
294 -295 0
379 -378 0
113 -112 0
119 -118 0
116 -117 0
114 -115 0
138 -139 0
111 -111 0
137 -136 0
141 -140 0
124 -125 0
120 -121 0
132 -133 0
128 -129 0
127 -126 0
10 -8 0
131 -130 0
78 -77 0
142 -143 0
123 -122 0
135 -134 0
168 -167 0
249 -248 0
223 -224 0
197 -196 0
385 -386 0
136 -137 0
384 -384 0
388 -387 0
312 -311 0
271 -272 0
368 -367 0
344 -343 0
329 -328 0
62 -63 0
357 -356 0
103 -104 0
390 -389 0
293 -292 0
377 -376 0
171 -172 0
253 -252 0
227 -228 0
201 -200 0
392 -393 0
140 -141 0
387 -388 0
396 -396 0
315 -316 0
275 -276 0
372 -371 0
348 -347 0
333 -332 0
70 -68 0
360 -361 0
107 -108 0
398 -397 0
297 -296 0
381 -380 0
156 -155 0
236 -237 0
212 -211 0
185 -184 0
313 -314 0
125 -124 0
311 -312 0
316 -315 0
300 -300 0
259 -260 0
307 -308 0
304 -303 0
301 -302 0
36 -38 0
305 -306 0
92 -91 0
317 -318 0
281 -280 0
310 -309 0
151 -152 0
232 -233 0
208 -207 0
180 -181 0
273 -274 0
121 -120 0
272 -271 0
276 -275 0
260 -259 0
256 -256 0
268 -267 0
263 -264 0
262 -261 0
29 -30 0
265 -266 0
88 -87 0
277 -278 0
257 -258 0
269 -270 0
164 -163 0
245 -244 0
220 -219 0
193 -192 0
369 -370 0
133 -132 0
367 -368 0
371 -372 0
308 -307 0
267 -268 0
364 -364 0
340 -339 0
324 -325 0
53 -54 0
352 -353 0
99 -100 0
374 -373 0
288 -289 0
366 -365 0
159 -160 0
240 -241 0
216 -215 0
188 -189 0
345 -346 0
129 -128 0
343 -344 0
347 -348 0
303 -304 0
264 -263 0
339 -340 0
336 -336 0
320 -321 0
44 -46 0
337 -338 0
96 -95 0
349 -350 0
284 -285 0
341 -342 0
157 -158 0
239 -238 0
213 -214 0
187 -186 0
331 -330 0
126 -127 0
328 -329 0
332 -333 0
302 -301 0
261 -262 0
325 -324 0
321 -320 0
319 -319 0
42 -43 0
323 -322 0
93 -94 0
335 -334 0
282 -283 0
327 -326 0
12 -15 0
24 -27 0
21 -22 0
17 -19 0
66 -64 0
8 -10 0
63 -62 0
68 -70 0
38 -36 0
30 -29 0
54 -53 0
46 -44 0
43 -42 0
2 -2 0
49 -48 0
7 -6 0
72 -73 0
33 -32 0
56 -59 0
162 -161 0
242 -243 0
218 -217 0
190 -191 0
358 -359 0
130 -131 0
356 -357 0
361 -360 0
306 -305 0
266 -265 0
353 -352 0
338 -337 0
322 -323 0
48 -49 0
351 -351 0
98 -97 0
363 -362 0
286 -287 0
354 -355 0
79 -80 0
86 -85 0
83 -84 0
81 -82 0
105 -106 0
77 -78 0
104 -103 0
108 -107 0
91 -92 0
87 -88 0
100 -99 0
95 -96 0
94 -93 0
6 -7 0
97 -98 0
76 -76 0
110 -109 0
89 -90 0
102 -101 0
174 -173 0
255 -254 0
230 -229 0
203 -202 0
395 -394 0
143 -142 0
389 -390 0
397 -398 0
318 -317 0
278 -277 0
373 -374 0
350 -349 0
334 -335 0
73 -72 0
362 -363 0
109 -110 0
399 -399 0
298 -299 0
383 -382 0
153 -154 0
234 -235 0
210 -209 0
183 -182 0
295 -294 0
122 -123 0
292 -293 0
296 -297 0
280 -281 0
258 -257 0
289 -288 0
285 -284 0
283 -282 0
32 -33 0
287 -286 0
90 -89 0
299 -298 0
279 -279 0
290 -291 0
165 -166 0
247 -246 0
221 -222 0
194 -195 0
378 -379 0
134 -135 0
376 -377 0
380 -381 0
309 -310 0
270 -269 0
365 -366 0
342 -341 0
326 -327 0
59 -56 0
355 -354 0
101 -102 0
382 -383 0
291 -290 0
375 -375 0
13 -144 0
25 -231 0
20 -204 0
18 -175 0
65 -391 0
11 -111 0
61 -384 0
71 -396 0
39 -300 0
28 -256 0
52 -364 0
47 -336 0
41 -319 0
1 -2 0
51 -351 0
5 -76 0
75 -399 0
35 -279 0
58 -375 0
-14 -13 0
-26 -25 0
-23 -20 0
-16 -18 0
-67 -65 0
-9 -11 0
-60 -61 0
-69 -71 0
-37 -39 0
-31 -28 0
-55 -52 0
-45 -47 0
-40 -41 0
-3 -1 0
-50 -51 0
-4 -5 0
-74 -75 0
-34 -35 0
-57 -58 0
14 26 -149 0
14 26 -150 0
14 23 -147 0
14 23 -148 0
14 16 -146 0
14 16 -145 0
14 67 -169 0
14 67 -170 0
14 9 -112 0
14 9 -113 0
14 60 -167 0
14 60 -168 0
14 69 -172 0
14 69 -171 0
14 37 -155 0
14 37 -156 0
14 31 -152 0
14 31 -151 0
14 55 -163 0
14 55 -164 0
14 45 -160 0
14 45 -159 0
14 40 -158 0
14 40 -157 0
14 3 -15 0
14 3 -12 0
14 50 -161 0
14 50 -162 0
14 4 -80 0
14 4 -79 0
14 74 -173 0
14 74 -174 0
14 34 -154 0
14 34 -153 0
14 57 -166 0
14 57 -165 0
14 13 -149 0
14 13 -147 0
14 13 -146 0
14 13 -169 0
14 13 -112 0
14 13 -167 0
14 13 -172 0
14 13 -155 0
14 13 -152 0
14 13 -163 0
14 13 -160 0
14 13 -158 0
14 13 -15 0
14 13 -161 0
14 13 -80 0
14 13 -173 0
14 13 -154 0
14 13 -166 0
14 13 -150 0
14 13 -148 0
14 13 -145 0
14 13 -170 0
14 13 -113 0
14 13 -168 0
14 13 -171 0
14 13 -156 0
14 13 -151 0
14 13 -164 0
14 13 -159 0
14 13 -157 0
14 13 -12 0
14 13 -162 0
14 13 -79 0
14 13 -174 0
14 13 -153 0
14 13 -165 0
26 23 -205 0
26 23 -206 0
26 16 -178 0
26 16 -179 0
26 67 -250 0
26 67 -251 0
26 9 -118 0
26 9 -119 0
26 60 -248 0
26 60 -249 0
26 69 -252 0
26 69 -253 0
26 37 -237 0
26 37 -236 0
26 31 -233 0
26 31 -232 0
26 55 -244 0
26 55 -245 0
26 45 -241 0
26 45 -240 0
26 40 -238 0
26 40 -239 0
26 3 -27 0
26 3 -24 0
26 50 -243 0
26 50 -242 0
26 4 -85 0
26 4 -86 0
26 74 -254 0
26 74 -255 0
26 34 -235 0
26 34 -234 0
26 57 -246 0
26 57 -247 0
26 25 -149 0
26 25 -150 0
26 25 -205 0
26 25 -178 0
26 25 -250 0
26 25 -118 0
26 25 -248 0
26 25 -252 0
26 25 -237 0
26 25 -233 0
26 25 -244 0
26 25 -241 0
26 25 -238 0
26 25 -27 0
26 25 -243 0
26 25 -85 0
26 25 -254 0
26 25 -235 0
26 25 -246 0
26 25 -206 0
26 25 -179 0
26 25 -251 0
26 25 -119 0
26 25 -249 0
26 25 -253 0
26 25 -236 0
26 25 -232 0
26 25 -245 0
26 25 -240 0
26 25 -239 0
26 25 -24 0
26 25 -242 0
26 25 -86 0
26 25 -255 0
26 25 -234 0
26 25 -247 0
23 16 -177 0
23 16 -176 0
23 67 -225 0
23 67 -226 0
23 9 -117 0
23 9 -116 0
23 60 -224 0
23 60 -223 0
23 69 -228 0
23 69 -227 0
23 37 -211 0
23 37 -212 0
23 31 -207 0
23 31 -208 0
23 55 -219 0
23 55 -220 0
23 45 -215 0
23 45 -216 0
23 40 -214 0
23 40 -213 0
23 3 -22 0
23 3 -21 0
23 50 -217 0
23 50 -218 0
23 4 -84 0
23 4 -83 0
23 74 -229 0
23 74 -230 0
23 34 -209 0
23 34 -210 0
23 57 -222 0
23 57 -221 0
23 20 -147 0
23 20 -205 0
23 20 -148 0
23 20 -206 0
23 20 -177 0
23 20 -225 0
23 20 -117 0
23 20 -224 0
23 20 -228 0
23 20 -211 0
23 20 -207 0
23 20 -219 0
23 20 -215 0
23 20 -214 0
23 20 -22 0
23 20 -217 0
23 20 -84 0
23 20 -229 0
23 20 -209 0
23 20 -222 0
23 20 -176 0
23 20 -226 0
23 20 -116 0
23 20 -223 0
23 20 -227 0
23 20 -212 0
23 20 -208 0
23 20 -220 0
23 20 -216 0
23 20 -213 0
23 20 -21 0
23 20 -218 0
23 20 -83 0
23 20 -230 0
23 20 -210 0
23 20 -221 0
16 67 -199 0
16 67 -198 0
16 9 -115 0
16 9 -114 0
16 60 -196 0
16 60 -197 0
16 69 -200 0
16 69 -201 0
16 37 -184 0
16 37 -185 0
16 31 -181 0
16 31 -180 0
16 55 -192 0
16 55 -193 0
16 45 -189 0
16 45 -188 0
16 40 -186 0
16 40 -187 0
16 3 -19 0
16 3 -17 0
16 50 -191 0
16 50 -190 0
16 4 -82 0
16 4 -81 0
16 74 -202 0
16 74 -203 0
16 34 -182 0
16 34 -183 0
16 57 -195 0
16 57 -194 0
16 18 -146 0
16 18 -178 0
16 18 -177 0
16 18 -145 0
16 18 -179 0
16 18 -176 0
16 18 -199 0
16 18 -115 0
16 18 -196 0
16 18 -200 0
16 18 -184 0
16 18 -181 0
16 18 -192 0
16 18 -189 0
16 18 -186 0
16 18 -19 0
16 18 -191 0
16 18 -82 0
16 18 -202 0
16 18 -182 0
16 18 -195 0
16 18 -198 0
16 18 -114 0
16 18 -197 0
16 18 -201 0
16 18 -185 0
16 18 -180 0
16 18 -193 0
16 18 -188 0
16 18 -187 0
16 18 -17 0
16 18 -190 0
16 18 -81 0
16 18 -203 0
16 18 -183 0
16 18 -194 0
67 9 -139 0
67 9 -138 0
67 60 -386 0
67 60 -385 0
67 69 -393 0
67 69 -392 0
67 37 -314 0
67 37 -313 0
67 31 -274 0
67 31 -273 0
67 55 -370 0
67 55 -369 0
67 45 -346 0
67 45 -345 0
67 40 -330 0
67 40 -331 0
67 3 -64 0
67 3 -66 0
67 50 -359 0
67 50 -358 0
67 4 -106 0
67 4 -105 0
67 74 -394 0
67 74 -395 0
67 34 -294 0
67 34 -295 0
67 57 -379 0
67 57 -378 0
67 65 -169 0
67 65 -250 0
67 65 -225 0
67 65 -199 0
67 65 -170 0
67 65 -251 0
67 65 -226 0
67 65 -198 0
67 65 -139 0
67 65 -386 0
67 65 -393 0
67 65 -314 0
67 65 -274 0
67 65 -370 0
67 65 -346 0
67 65 -330 0
67 65 -64 0
67 65 -359 0
67 65 -106 0
67 65 -394 0
67 65 -294 0
67 65 -379 0
67 65 -138 0
67 65 -385 0
67 65 -392 0
67 65 -313 0
67 65 -273 0
67 65 -369 0
67 65 -345 0
67 65 -331 0
67 65 -66 0
67 65 -358 0
67 65 -105 0
67 65 -395 0
67 65 -295 0
67 65 -378 0
9 60 -137 0
9 60 -136 0
9 69 -141 0
9 69 -140 0
9 37 -124 0
9 37 -125 0
9 31 -120 0
9 31 -121 0
9 55 -132 0
9 55 -133 0
9 45 -128 0
9 45 -129 0
9 40 -127 0
9 40 -126 0
9 3 -10 0
9 3 -8 0
9 50 -131 0
9 50 -130 0
9 4 -78 0
9 4 -77 0
9 74 -142 0
9 74 -143 0
9 34 -123 0
9 34 -122 0
9 57 -135 0
9 57 -134 0
9 11 -112 0
9 11 -118 0
9 11 -117 0
9 11 -115 0
9 11 -139 0
9 11 -113 0
9 11 -119 0
9 11 -116 0
9 11 -114 0
9 11 -138 0
9 11 -137 0
9 11 -141 0
9 11 -124 0
9 11 -120 0
9 11 -132 0
9 11 -128 0
9 11 -127 0
9 11 -10 0
9 11 -131 0
9 11 -78 0
9 11 -142 0
9 11 -123 0
9 11 -135 0
9 11 -136 0
9 11 -140 0
9 11 -125 0
9 11 -121 0
9 11 -133 0
9 11 -129 0
9 11 -126 0
9 11 -8 0
9 11 -130 0
9 11 -77 0
9 11 -143 0
9 11 -122 0
9 11 -134 0
60 69 -388 0
60 69 -387 0
60 37 -312 0
60 37 -311 0
60 31 -271 0
60 31 -272 0
60 55 -368 0
60 55 -367 0
60 45 -344 0
60 45 -343 0
60 40 -329 0
60 40 -328 0
60 3 -62 0
60 3 -63 0
60 50 -357 0
60 50 -356 0
60 4 -103 0
60 4 -104 0
60 74 -390 0
60 74 -389 0
60 34 -293 0
60 34 -292 0
60 57 -377 0
60 57 -376 0
60 61 -167 0
60 61 -248 0
60 61 -224 0
60 61 -196 0
60 61 -386 0
60 61 -137 0
60 61 -168 0
60 61 -249 0
60 61 -223 0
60 61 -197 0
60 61 -385 0
60 61 -136 0
60 61 -388 0
60 61 -312 0
60 61 -271 0
60 61 -368 0
60 61 -344 0
60 61 -329 0
60 61 -62 0
60 61 -357 0
60 61 -103 0
60 61 -390 0
60 61 -293 0
60 61 -377 0
60 61 -387 0
60 61 -311 0
60 61 -272 0
60 61 -367 0
60 61 -343 0
60 61 -328 0
60 61 -63 0
60 61 -356 0
60 61 -104 0
60 61 -389 0
60 61 -292 0
60 61 -376 0
69 37 -315 0
69 37 -316 0
69 31 -275 0
69 31 -276 0
69 55 -372 0
69 55 -371 0
69 45 -348 0
69 45 -347 0
69 40 -333 0
69 40 -332 0
69 3 -70 0
69 3 -68 0
69 50 -360 0
69 50 -361 0
69 4 -107 0
69 4 -108 0
69 74 -398 0
69 74 -397 0
69 34 -297 0
69 34 -296 0
69 57 -381 0
69 57 -380 0
69 71 -172 0
69 71 -252 0
69 71 -228 0
69 71 -200 0
69 71 -393 0
69 71 -141 0
69 71 -388 0
69 71 -171 0
69 71 -253 0
69 71 -227 0
69 71 -201 0
69 71 -392 0
69 71 -140 0
69 71 -387 0
69 71 -315 0
69 71 -275 0
69 71 -372 0
69 71 -348 0
69 71 -333 0
69 71 -70 0
69 71 -360 0
69 71 -107 0
69 71 -398 0
69 71 -297 0
69 71 -381 0
69 71 -316 0
69 71 -276 0
69 71 -371 0
69 71 -347 0
69 71 -332 0
69 71 -68 0
69 71 -361 0
69 71 -108 0
69 71 -397 0
69 71 -296 0
69 71 -380 0
37 31 -259 0
37 31 -260 0
37 55 -307 0
37 55 -308 0
37 45 -304 0
37 45 -303 0
37 40 -301 0
37 40 -302 0
37 3 -36 0
37 3 -38 0
37 50 -305 0
37 50 -306 0
37 4 -92 0
37 4 -91 0
37 74 -317 0
37 74 -318 0
37 34 -281 0
37 34 -280 0
37 57 -310 0
37 57 -309 0
37 39 -155 0
37 39 -237 0
37 39 -211 0
37 39 -184 0
37 39 -314 0
37 39 -124 0
37 39 -312 0
37 39 -315 0
37 39 -156 0
37 39 -236 0
37 39 -212 0
37 39 -185 0
37 39 -313 0
37 39 -125 0
37 39 -311 0
37 39 -316 0
37 39 -259 0
37 39 -307 0
37 39 -304 0
37 39 -301 0
37 39 -36 0
37 39 -305 0
37 39 -92 0
37 39 -317 0
37 39 -281 0
37 39 -310 0
37 39 -260 0
37 39 -308 0
37 39 -303 0
37 39 -302 0
37 39 -38 0
37 39 -306 0
37 39 -91 0
37 39 -318 0
37 39 -280 0
37 39 -309 0
31 55 -268 0
31 55 -267 0
31 45 -263 0
31 45 -264 0
31 40 -262 0
31 40 -261 0
31 3 -29 0
31 3 -30 0
31 50 -265 0
31 50 -266 0
31 4 -88 0
31 4 -87 0
31 74 -277 0
31 74 -278 0
31 34 -257 0
31 34 -258 0
31 57 -269 0
31 57 -270 0
31 28 -152 0
31 28 -233 0
31 28 -207 0
31 28 -181 0
31 28 -274 0
31 28 -120 0
31 28 -271 0
31 28 -275 0
31 28 -259 0
31 28 -151 0
31 28 -232 0
31 28 -208 0
31 28 -180 0
31 28 -273 0
31 28 -121 0
31 28 -272 0
31 28 -276 0
31 28 -260 0
31 28 -268 0
31 28 -263 0
31 28 -262 0
31 28 -29 0
31 28 -265 0
31 28 -88 0
31 28 -277 0
31 28 -257 0
31 28 -269 0
31 28 -267 0
31 28 -264 0
31 28 -261 0
31 28 -30 0
31 28 -266 0
31 28 -87 0
31 28 -278 0
31 28 -258 0
31 28 -270 0
55 45 -340 0
55 45 -339 0
55 40 -324 0
55 40 -325 0
55 3 -53 0
55 3 -54 0
55 50 -352 0
55 50 -353 0
55 4 -99 0
55 4 -100 0
55 74 -374 0
55 74 -373 0
55 34 -288 0
55 34 -289 0
55 57 -366 0
55 57 -365 0
55 52 -163 0
55 52 -244 0
55 52 -219 0
55 52 -192 0
55 52 -370 0
55 52 -132 0
55 52 -368 0
55 52 -372 0
55 52 -307 0
55 52 -268 0
55 52 -164 0
55 52 -245 0
55 52 -220 0
55 52 -193 0
55 52 -369 0
55 52 -133 0
55 52 -367 0
55 52 -371 0
55 52 -308 0
55 52 -267 0
55 52 -340 0
55 52 -324 0
55 52 -53 0
55 52 -352 0
55 52 -99 0
55 52 -374 0
55 52 -288 0
55 52 -366 0
55 52 -339 0
55 52 -325 0
55 52 -54 0
55 52 -353 0
55 52 -100 0
55 52 -373 0
55 52 -289 0
55 52 -365 0
45 40 -320 0
45 40 -321 0
45 3 -44 0
45 3 -46 0
45 50 -337 0
45 50 -338 0
45 4 -96 0
45 4 -95 0
45 74 -349 0
45 74 -350 0
45 34 -284 0
45 34 -285 0
45 57 -341 0
45 57 -342 0
45 47 -160 0
45 47 -241 0
45 47 -215 0
45 47 -189 0
45 47 -346 0
45 47 -128 0
45 47 -344 0
45 47 -348 0
45 47 -304 0
45 47 -263 0
45 47 -340 0
45 47 -159 0
45 47 -240 0
45 47 -216 0
45 47 -188 0
45 47 -345 0
45 47 -129 0
45 47 -343 0
45 47 -347 0
45 47 -303 0
45 47 -264 0
45 47 -339 0
45 47 -320 0
45 47 -44 0
45 47 -337 0
45 47 -96 0
45 47 -349 0
45 47 -284 0
45 47 -341 0
45 47 -321 0
45 47 -46 0
45 47 -338 0
45 47 -95 0
45 47 -350 0
45 47 -285 0
45 47 -342 0
40 3 -42 0
40 3 -43 0
40 50 -323 0
40 50 -322 0
40 4 -93 0
40 4 -94 0
40 74 -335 0
40 74 -334 0
40 34 -282 0
40 34 -283 0
40 57 -327 0
40 57 -326 0
40 41 -158 0
40 41 -238 0
40 41 -214 0
40 41 -186 0
40 41 -330 0
40 41 -127 0
40 41 -329 0
40 41 -333 0
40 41 -301 0
40 41 -262 0
40 41 -324 0
40 41 -320 0
40 41 -157 0
40 41 -239 0
40 41 -213 0
40 41 -187 0
40 41 -331 0
40 41 -126 0
40 41 -328 0
40 41 -332 0
40 41 -302 0
40 41 -261 0
40 41 -325 0
40 41 -321 0
40 41 -42 0
40 41 -323 0
40 41 -93 0
40 41 -335 0
40 41 -282 0
40 41 -327 0
40 41 -43 0
40 41 -322 0
40 41 -94 0
40 41 -334 0
40 41 -283 0
40 41 -326 0
3 50 -49 0
3 50 -48 0
3 4 -7 0
3 4 -6 0
3 74 -72 0
3 74 -73 0
3 34 -33 0
3 34 -32 0
3 57 -56 0
3 57 -59 0
3 1 -15 0
3 1 -27 0
3 1 -22 0
3 1 -19 0
3 1 -64 0
3 1 -10 0
3 1 -62 0
3 1 -70 0
3 1 -36 0
3 1 -29 0
3 1 -53 0
3 1 -44 0
3 1 -42 0
3 1 -12 0
3 1 -24 0
3 1 -21 0
3 1 -17 0
3 1 -66 0
3 1 -8 0
3 1 -63 0
3 1 -68 0
3 1 -38 0
3 1 -30 0
3 1 -54 0
3 1 -46 0
3 1 -43 0
3 1 -49 0
3 1 -7 0
3 1 -72 0
3 1 -33 0
3 1 -56 0
3 1 -48 0
3 1 -6 0
3 1 -73 0
3 1 -32 0
3 1 -59 0
50 4 -98 0
50 4 -97 0
50 74 -363 0
50 74 -362 0
50 34 -286 0
50 34 -287 0
50 57 -354 0
50 57 -355 0
50 51 -161 0
50 51 -243 0
50 51 -217 0
50 51 -191 0
50 51 -359 0
50 51 -131 0
50 51 -357 0
50 51 -360 0
50 51 -305 0
50 51 -265 0
50 51 -352 0
50 51 -337 0
50 51 -323 0
50 51 -49 0
50 51 -162 0
50 51 -242 0
50 51 -218 0
50 51 -190 0
50 51 -358 0
50 51 -130 0
50 51 -356 0
50 51 -361 0
50 51 -306 0
50 51 -266 0
50 51 -353 0
50 51 -338 0
50 51 -322 0
50 51 -48 0
50 51 -98 0
50 51 -363 0
50 51 -286 0
50 51 -354 0
50 51 -97 0
50 51 -362 0
50 51 -287 0
50 51 -355 0
4 74 -110 0
4 74 -109 0
4 34 -89 0
4 34 -90 0
4 57 -102 0
4 57 -101 0
4 5 -80 0
4 5 -85 0
4 5 -84 0
4 5 -82 0
4 5 -106 0
4 5 -78 0
4 5 -103 0
4 5 -107 0
4 5 -92 0
4 5 -88 0
4 5 -99 0
4 5 -96 0
4 5 -93 0
4 5 -7 0
4 5 -98 0
4 5 -79 0
4 5 -86 0
4 5 -83 0
4 5 -81 0
4 5 -105 0
4 5 -77 0
4 5 -104 0
4 5 -108 0
4 5 -91 0
4 5 -87 0
4 5 -100 0
4 5 -95 0
4 5 -94 0
4 5 -6 0
4 5 -97 0
4 5 -110 0
4 5 -89 0
4 5 -102 0
4 5 -109 0
4 5 -90 0
4 5 -101 0
74 34 -298 0
74 34 -299 0
74 57 -383 0
74 57 -382 0
74 75 -173 0
74 75 -254 0
74 75 -229 0
74 75 -202 0
74 75 -394 0
74 75 -142 0
74 75 -390 0
74 75 -398 0
74 75 -317 0
74 75 -277 0
74 75 -374 0
74 75 -349 0
74 75 -335 0
74 75 -72 0
74 75 -363 0
74 75 -110 0
74 75 -174 0
74 75 -255 0
74 75 -230 0
74 75 -203 0
74 75 -395 0
74 75 -143 0
74 75 -389 0
74 75 -397 0
74 75 -318 0
74 75 -278 0
74 75 -373 0
74 75 -350 0
74 75 -334 0
74 75 -73 0
74 75 -362 0
74 75 -109 0
74 75 -298 0
74 75 -383 0
74 75 -299 0
74 75 -382 0
34 57 -290 0
34 57 -291 0
34 35 -154 0
34 35 -235 0
34 35 -209 0
34 35 -182 0
34 35 -294 0
34 35 -123 0
34 35 -293 0
34 35 -297 0
34 35 -281 0
34 35 -257 0
34 35 -288 0
34 35 -284 0
34 35 -282 0
34 35 -33 0
34 35 -286 0
34 35 -89 0
34 35 -298 0
34 35 -153 0
34 35 -234 0
34 35 -210 0
34 35 -183 0
34 35 -295 0
34 35 -122 0
34 35 -292 0
34 35 -296 0
34 35 -280 0
34 35 -258 0
34 35 -289 0
34 35 -285 0
34 35 -283 0
34 35 -32 0
34 35 -287 0
34 35 -90 0
34 35 -299 0
34 35 -290 0
34 35 -291 0
57 58 -166 0
57 58 -246 0
57 58 -222 0
57 58 -195 0
57 58 -379 0
57 58 -135 0
57 58 -377 0
57 58 -381 0
57 58 -310 0
57 58 -269 0
57 58 -366 0
57 58 -341 0
57 58 -327 0
57 58 -56 0
57 58 -354 0
57 58 -102 0
57 58 -383 0
57 58 -290 0
57 58 -165 0
57 58 -247 0
57 58 -221 0
57 58 -194 0
57 58 -378 0
57 58 -134 0
57 58 -376 0
57 58 -380 0
57 58 -309 0
57 58 -270 0
57 58 -365 0
57 58 -342 0
57 58 -326 0
57 58 -59 0
57 58 -355 0
57 58 -101 0
57 58 -382 0
57 58 -291 0
13 25 -149 0
13 25 -150 0
13 20 -147 0
13 20 -148 0
13 18 -146 0
13 18 -145 0
13 65 -169 0
13 65 -170 0
13 11 -112 0
13 11 -113 0
13 61 -167 0
13 61 -168 0
13 71 -172 0
13 71 -171 0
13 39 -155 0
13 39 -156 0
13 28 -152 0
13 28 -151 0
13 52 -163 0
13 52 -164 0
13 47 -160 0
13 47 -159 0
13 41 -158 0
13 41 -157 0
13 1 -15 0
13 1 -12 0
13 51 -161 0
13 51 -162 0
13 5 -80 0
13 5 -79 0
13 75 -173 0
13 75 -174 0
13 35 -154 0
13 35 -153 0
13 58 -166 0
13 58 -165 0
25 20 -205 0
25 20 -206 0
25 18 -178 0
25 18 -179 0
25 65 -250 0
25 65 -251 0
25 11 -118 0
25 11 -119 0
25 61 -248 0
25 61 -249 0
25 71 -252 0
25 71 -253 0
25 39 -237 0
25 39 -236 0
25 28 -233 0
25 28 -232 0
25 52 -244 0
25 52 -245 0
25 47 -241 0
25 47 -240 0
25 41 -238 0
25 41 -239 0
25 1 -27 0
25 1 -24 0
25 51 -243 0
25 51 -242 0
25 5 -85 0
25 5 -86 0
25 75 -254 0
25 75 -255 0
25 35 -235 0
25 35 -234 0
25 58 -246 0
25 58 -247 0
20 18 -177 0
20 18 -176 0
20 65 -225 0
20 65 -226 0
20 11 -117 0
20 11 -116 0
20 61 -224 0
20 61 -223 0
20 71 -228 0
20 71 -227 0
20 39 -211 0
20 39 -212 0
20 28 -207 0
20 28 -208 0
20 52 -219 0
20 52 -220 0
20 47 -215 0
20 47 -216 0
20 41 -214 0
20 41 -213 0
20 1 -22 0
20 1 -21 0
20 51 -217 0
20 51 -218 0
20 5 -84 0
20 5 -83 0
20 75 -229 0
20 75 -230 0
20 35 -209 0
20 35 -210 0
20 58 -222 0
20 58 -221 0
18 65 -199 0
18 65 -198 0
18 11 -115 0
18 11 -114 0
18 61 -196 0
18 61 -197 0
18 71 -200 0
18 71 -201 0
18 39 -184 0
18 39 -185 0
18 28 -181 0
18 28 -180 0
18 52 -192 0
18 52 -193 0
18 47 -189 0
18 47 -188 0
18 41 -186 0
18 41 -187 0
18 1 -19 0
18 1 -17 0
18 51 -191 0
18 51 -190 0
18 5 -82 0
18 5 -81 0
18 75 -202 0
18 75 -203 0
18 35 -182 0
18 35 -183 0
18 58 -195 0
18 58 -194 0
65 11 -139 0
65 11 -138 0
65 61 -386 0
65 61 -385 0
65 71 -393 0
65 71 -392 0
65 39 -314 0
65 39 -313 0
65 28 -274 0
65 28 -273 0
65 52 -370 0
65 52 -369 0
65 47 -346 0
65 47 -345 0
65 41 -330 0
65 41 -331 0
65 1 -64 0
65 1 -66 0
65 51 -359 0
65 51 -358 0
65 5 -106 0
65 5 -105 0
65 75 -394 0
65 75 -395 0
65 35 -294 0
65 35 -295 0
65 58 -379 0
65 58 -378 0
11 61 -137 0
11 61 -136 0
11 71 -141 0
11 71 -140 0
11 39 -124 0
11 39 -125 0
11 28 -120 0
11 28 -121 0
11 52 -132 0
11 52 -133 0
11 47 -128 0
11 47 -129 0
11 41 -127 0
11 41 -126 0
11 1 -10 0
11 1 -8 0
11 51 -131 0
11 51 -130 0
11 5 -78 0
11 5 -77 0
11 75 -142 0
11 75 -143 0
11 35 -123 0
11 35 -122 0
11 58 -135 0
11 58 -134 0
61 71 -388 0
61 71 -387 0
61 39 -312 0
61 39 -311 0
61 28 -271 0
61 28 -272 0
61 52 -368 0
61 52 -367 0
61 47 -344 0
61 47 -343 0
61 41 -329 0
61 41 -328 0
61 1 -62 0
61 1 -63 0
61 51 -357 0
61 51 -356 0
61 5 -103 0
61 5 -104 0
61 75 -390 0
61 75 -389 0
61 35 -293 0
61 35 -292 0
61 58 -377 0
61 58 -376 0
71 39 -315 0
71 39 -316 0
71 28 -275 0
71 28 -276 0
71 52 -372 0
71 52 -371 0
71 47 -348 0
71 47 -347 0
71 41 -333 0
71 41 -332 0
71 1 -70 0
71 1 -68 0
71 51 -360 0
71 51 -361 0
71 5 -107 0
71 5 -108 0
71 75 -398 0
71 75 -397 0
71 35 -297 0
71 35 -296 0
71 58 -381 0
71 58 -380 0
39 28 -259 0
39 28 -260 0
39 52 -307 0
39 52 -308 0
39 47 -304 0
39 47 -303 0
39 41 -301 0
39 41 -302 0
39 1 -36 0
39 1 -38 0
39 51 -305 0
39 51 -306 0
39 5 -92 0
39 5 -91 0
39 75 -317 0
39 75 -318 0
39 35 -281 0
39 35 -280 0
39 58 -310 0
39 58 -309 0
28 52 -268 0
28 52 -267 0
28 47 -263 0
28 47 -264 0
28 41 -262 0
28 41 -261 0
28 1 -29 0
28 1 -30 0
28 51 -265 0
28 51 -266 0
28 5 -88 0
28 5 -87 0
28 75 -277 0
28 75 -278 0
28 35 -257 0
28 35 -258 0
28 58 -269 0
28 58 -270 0
52 47 -340 0
52 47 -339 0
52 41 -324 0
52 41 -325 0
52 1 -53 0
52 1 -54 0
52 51 -352 0
52 51 -353 0
52 5 -99 0
52 5 -100 0
52 75 -374 0
52 75 -373 0
52 35 -288 0
52 35 -289 0
52 58 -366 0
52 58 -365 0
47 41 -320 0
47 41 -321 0
47 1 -44 0
47 1 -46 0
47 51 -337 0
47 51 -338 0
47 5 -96 0
47 5 -95 0
47 75 -349 0
47 75 -350 0
47 35 -284 0
47 35 -285 0
47 58 -341 0
47 58 -342 0
41 1 -42 0
41 1 -43 0
41 51 -323 0
41 51 -322 0
41 5 -93 0
41 5 -94 0
41 75 -335 0
41 75 -334 0
41 35 -282 0
41 35 -283 0
41 58 -327 0
41 58 -326 0
1 51 -49 0
1 51 -48 0
1 5 -7 0
1 5 -6 0
1 75 -72 0
1 75 -73 0
1 35 -33 0
1 35 -32 0
1 58 -56 0
1 58 -59 0
51 5 -98 0
51 5 -97 0
51 75 -363 0
51 75 -362 0
51 35 -286 0
51 35 -287 0
51 58 -354 0
51 58 -355 0
5 75 -110 0
5 75 -109 0
5 35 -89 0
5 35 -90 0
5 58 -102 0
5 58 -101 0
75 35 -298 0
75 35 -299 0
75 58 -383 0
75 58 -382 0
35 58 -290 0
35 58 -291 0
