c R(0) E(0,0) B(0) E(0,2) R(2) B(2) E(2,0) B(1) R(1) E(0,1) E(1,0) E(2,2) E(2,1) E(1,2) E(1,1)
c 1 2 3 4 5 6 7 8 9 10 11 12 13 14 15
p cnf 15 45
3 1 0
8 9 0
6 5 0
3 -2 0
8 -15 0
6 -12 0
2 -2 0
10 -11 0
4 -7 0
11 -10 0
15 -15 0
14 -13 0
7 -4 0
13 -14 0
12 -12 0
1 -2 0
9 -15 0
5 -12 0
-3 -1 0
-8 -9 0
-6 -5 0
3 8 -10 0
3 8 -11 0
3 6 -4 0
3 6 -7 0
3 1 -10 0
3 1 -4 0
3 1 -11 0
3 1 -7 0
8 6 -14 0
8 6 -13 0
8 9 -10 0
8 9 -11 0
8 9 -14 0
8 9 -13 0
6 5 -4 0
6 5 -14 0
6 5 -7 0
6 5 -13 0
1 9 -10 0
1 9 -11 0
1 5 -4 0
1 5 -7 0
9 5 -14 0
9 5 -13 0
