c R(2) B(2) E(2,2) E(1,2) R(1) B(1) E(2,1) B(3) E(3,2) E(2,3) R(3) E(2,0) R(0) E(0,2) B(0) E(1,1) E(1,3) E(3,1) E(1,0) E(0,1) E(3,3) E(3,0) E(0,3) E(0,0)
c 1 2 3 4 5 6 7 8 9 10 11 12 13 14 15 16 17 18 19 20 21 22 23 24
p cnf 24 80
15 13 0
6 5 0
2 1 0
8 11 0
15 -24 0
6 -16 0
2 -3 0
8 -21 0
24 -24 0
20 -19 0
14 -12 0
23 -22 0
19 -20 0
16 -16 0
4 -7 0
17 -18 0
12 -14 0
7 -4 0
3 -3 0
10 -9 0
22 -23 0
18 -17 0
9 -10 0
21 -21 0
13 -24 0
5 -16 0
1 -3 0
11 -21 0
-15 -13 0
-6 -5 0
-2 -1 0
-8 -11 0
15 6 -20 0
15 6 -19 0
15 2 -14 0
15 2 -12 0
15 8 -23 0
15 8 -22 0
15 13 -20 0
15 13 -14 0
15 13 -23 0
15 13 -19 0
15 13 -12 0
15 13 -22 0
6 2 -4 0
6 2 -7 0
6 8 -17 0
6 8 -18 0
6 5 -20 0
6 5 -19 0
6 5 -4 0
6 5 -17 0
6 5 -7 0
6 5 -18 0
2 8 -10 0
2 8 -9 0
2 1 -14 0
2 1 -4 0
2 1 -12 0
2 1 -7 0
2 1 -10 0
2 1 -9 0
8 11 -23 0
8 11 -17 0
8 11 -10 0
8 11 -22 0
8 11 -18 0
8 11 -9 0
13 5 -20 0
13 5 -19 0
13 1 -14 0
13 1 -12 0
13 11 -23 0
13 11 -22 0
5 1 -4 0
5 1 -7 0
5 11 -17 0
5 11 -18 0
1 11 -10 0
1 11 -9 0
