c B(0) R(0) E(0,0) B(4) R(4) E(0,4) E(4,0) B(3) R(3) E(3,0) E(0,3) E(1,0) B(1) R(1) E(0,1) R(2) E(0,2) B(2) E(2,0) E(4,4) E(4,3) E(3,4) E(4,1) E(1,4) E(2,4) E(4,2) E(3,3) E(3,1) E(1,3) E(2,3) E(3,2) E(1,1) E(1,2) E(2,1) E(2,2)
c 1 2 3 4 5 6 7 8 9 10 11 12 13 14 15 16 17 18 19 20 21 22 23 24 25 26 27 28 29 30 31 32 33 34 35
p cnf 35 125
1 2 0
13 14 0
18 16 0
8 9 0
4 5 0
1 -3 0
13 -32 0
18 -35 0
8 -27 0
4 -20 0
3 -3 0
15 -12 0
17 -19 0
11 -10 0
6 -7 0
12 -15 0
32 -32 0
33 -34 0
29 -28 0
24 -23 0
19 -17 0
34 -33 0
35 -35 0
30 -31 0
25 -26 0
10 -11 0
28 -29 0
31 -30 0
27 -27 0
22 -21 0
7 -6 0
23 -24 0
26 -25 0
21 -22 0
20 -20 0
2 -3 0
14 -32 0
16 -35 0
9 -27 0
5 -20 0
-1 -2 0
-13 -14 0
-18 -16 0
-8 -9 0
-4 -5 0
1 13 -15 0
1 13 -12 0
1 18 -17 0
1 18 -19 0
1 8 -11 0
1 8 -10 0
1 4 -6 0
1 4 -7 0
1 2 -15 0
1 2 -17 0
1 2 -11 0
1 2 -6 0
1 2 -12 0
1 2 -19 0
1 2 -10 0
1 2 -7 0
13 18 -33 0
13 18 -34 0
13 8 -29 0
13 8 -28 0
13 4 -24 0
13 4 -23 0
13 14 -15 0
13 14 -12 0
13 14 -33 0
13 14 -29 0
13 14 -24 0
13 14 -34 0
13 14 -28 0
13 14 -23 0
18 8 -30 0
18 8 -31 0
18 4 -25 0
18 4 -26 0
18 16 -17 0
18 16 -33 0
18 16 -19 0
18 16 -34 0
18 16 -30 0
18 16 -25 0
18 16 -31 0
18 16 -26 0
8 4 -22 0
8 4 -21 0
8 9 -11 0
8 9 -29 0
8 9 -30 0
8 9 -10 0
8 9 -28 0
8 9 -31 0
8 9 -22 0
8 9 -21 0
4 5 -6 0
4 5 -24 0
4 5 -25 0
4 5 -22 0
4 5 -7 0
4 5 -23 0
4 5 -26 0
4 5 -21 0
2 14 -15 0
2 14 -12 0
2 16 -17 0
2 16 -19 0
2 9 -11 0
2 9 -10 0
2 5 -6 0
2 5 -7 0
14 16 -33 0
14 16 -34 0
14 9 -29 0
14 9 -28 0
14 5 -24 0
14 5 -23 0
16 9 -30 0
16 9 -31 0
16 5 -25 0
16 5 -26 0
9 5 -22 0
9 5 -21 0
