c B(4) E(4,4) R(4) E(5,4) E(4,5) R(5) B(5) B(3) R(3) E(4,3) E(3,4) E(2,4) E(4,2) R(2) B(2) R(1) E(1,4) E(4,1) B(1) E(0,4) B(0) R(0) E(4,0) E(5,5) E(3,5) E(5,3) E(2,5) E(5,2) E(5,1) E(1,5) E(5,0) E(0,5) E(3,3) E(3,2) E(2,3) E(1,3) E(3,1) E(3,0) E(0,3) E(2,2) E(1,2) E(2,1) E(0,2) E(2,0) E(1,1) E(1,0) E(0,1) E(0,0)
c 1 2 3 4 5 6 7 8 9 10 11 12 13 14 15 16 17 18 19 20 21 22 23 24 25 26 27 28 29 30 31 32 33 34 35 36 37 38 39 40 41 42 43 44 45 46 47 48
p cnf 48 180
21 22 0
19 16 0
15 14 0
8 9 0
1 3 0
7 6 0
21 -48 0
19 -45 0
15 -40 0
8 -33 0
1 -2 0
7 -24 0
48 -48 0
47 -46 0
43 -44 0
39 -38 0
20 -23 0
32 -31 0
46 -47 0
45 -45 0
41 -42 0
36 -37 0
17 -18 0
30 -29 0
44 -43 0
42 -41 0
40 -40 0
35 -34 0
12 -13 0
27 -28 0
38 -39 0
37 -36 0
34 -35 0
33 -33 0
11 -10 0
25 -26 0
23 -20 0
18 -17 0
13 -12 0
10 -11 0
2 -2 0
5 -4 0
31 -32 0
29 -30 0
28 -27 0
26 -25 0
4 -5 0
24 -24 0
22 -48 0
16 -45 0
14 -40 0
9 -33 0
3 -2 0
6 -24 0
-21 -22 0
-19 -16 0
-15 -14 0
-8 -9 0
-1 -3 0
-7 -6 0
21 19 -47 0
21 19 -46 0
21 15 -43 0
21 15 -44 0
21 8 -39 0
21 8 -38 0
21 1 -20 0
21 1 -23 0
21 7 -32 0
21 7 -31 0
21 22 -47 0
21 22 -43 0
21 22 -39 0
21 22 -20 0
21 22 -32 0
21 22 -46 0
21 22 -44 0
21 22 -38 0
21 22 -23 0
21 22 -31 0
19 15 -41 0
19 15 -42 0
19 8 -36 0
19 8 -37 0
19 1 -17 0
19 1 -18 0
19 7 -30 0
19 7 -29 0
19 16 -47 0
19 16 -46 0
19 16 -41 0
19 16 -36 0
19 16 -17 0
19 16 -30 0
19 16 -42 0
19 16 -37 0
19 16 -18 0
19 16 -29 0
15 8 -35 0
15 8 -34 0
15 1 -12 0
15 1 -13 0
15 7 -27 0
15 7 -28 0
15 14 -43 0
15 14 -41 0
15 14 -44 0
15 14 -42 0
15 14 -35 0
15 14 -12 0
15 14 -27 0
15 14 -34 0
15 14 -13 0
15 14 -28 0
8 1 -11 0
8 1 -10 0
8 7 -25 0
8 7 -26 0
8 9 -39 0
8 9 -36 0
8 9 -35 0
8 9 -38 0
8 9 -37 0
8 9 -34 0
8 9 -11 0
8 9 -25 0
8 9 -10 0
8 9 -26 0
1 7 -5 0
1 7 -4 0
1 3 -20 0
1 3 -17 0
1 3 -12 0
1 3 -11 0
1 3 -23 0
1 3 -18 0
1 3 -13 0
1 3 -10 0
1 3 -5 0
1 3 -4 0
7 6 -32 0
7 6 -30 0
7 6 -27 0
7 6 -25 0
7 6 -5 0
7 6 -31 0
7 6 -29 0
7 6 -28 0
7 6 -26 0
7 6 -4 0
22 16 -47 0
22 16 -46 0
22 14 -43 0
22 14 -44 0
22 9 -39 0
22 9 -38 0
22 3 -20 0
22 3 -23 0
22 6 -32 0
22 6 -31 0
16 14 -41 0
16 14 -42 0
16 9 -36 0
16 9 -37 0
16 3 -17 0
16 3 -18 0
16 6 -30 0
16 6 -29 0
14 9 -35 0
14 9 -34 0
14 3 -12 0
14 3 -13 0
14 6 -27 0
14 6 -28 0
9 3 -11 0
9 3 -10 0
9 6 -25 0
9 6 -26 0
3 6 -5 0
3 6 -4 0
