c E(3,3) B(3) R(3) E(5,3) R(5) E(3,5) B(5) R(4) E(4,3) E(3,4) B(4) E(6,3) E(3,6) R(6) B(6) R(2) B(2) E(3,2) E(2,3) B(0) E(0,3) E(3,0) R(0) R(1) E(3,1) B(1) E(1,3) E(5,5) E(4,5) E(5,4) E(5,6) E(6,5) E(2,5) E(5,2) E(0,5) E(5,0) E(1,5) E(5,1) E(4,4) E(4,6) E(6,4) E(4,2) E(2,4) E(0,4) E(4,0) E(1,4) E(4,1) E(6,6) E(2,6) E(6,2) E(0,6) E(6,0) E(6,1) E(1,6) E(2,2) E(2,0) E(0,2) E(2,1) E(1,2) E(0,0) E(1,0) E(0,1) E(1,1)
c 1 2 3 4 5 6 7 8 9 10 11 12 13 14 15 16 17 18 19 20 21 22 23 24 25 26 27 28 29 30 31 32 33 34 35 36 37 38 39 40 41 42 43 44 45 46 47 48 49 50 51 52 53 54 55 56 57 58 59 60 61 62 63
p cnf 63 245
20 23 0
26 24 0
17 16 0
2 3 0
11 8 0
7 5 0
15 14 0
20 -60 0
26 -63 0
17 -55 0
2 -1 0
11 -39 0
7 -28 0
15 -48 0
60 -60 0
62 -61 0
57 -56 0
21 -22 0
44 -45 0
35 -36 0
51 -52 0
61 -62 0
63 -63 0
59 -58 0
27 -25 0
46 -47 0
37 -38 0
54 -53 0
56 -57 0
58 -59 0
55 -55 0
19 -18 0
43 -42 0
33 -34 0
49 -50 0
22 -21 0
25 -27 0
18 -19 0
1 -1 0
10 -9 0
6 -4 0
13 -12 0
45 -44 0
47 -46 0
42 -43 0
9 -10 0
39 -39 0
29 -30 0
40 -41 0
36 -35 0
38 -37 0
34 -33 0
4 -6 0
30 -29 0
28 -28 0
31 -32 0
52 -51 0
53 -54 0
50 -49 0
12 -13 0
41 -40 0
32 -31 0
48 -48 0
23 -60 0
24 -63 0
16 -55 0
3 -1 0
8 -39 0
5 -28 0
14 -48 0
-20 -23 0
-26 -24 0
-17 -16 0
-2 -3 0
-11 -8 0
-7 -5 0
-15 -14 0
20 26 -62 0
20 26 -61 0
20 17 -57 0
20 17 -56 0
20 2 -21 0
20 2 -22 0
20 11 -44 0
20 11 -45 0
20 7 -35 0
20 7 -36 0
20 15 -51 0
20 15 -52 0
20 23 -62 0
20 23 -57 0
20 23 -21 0
20 23 -44 0
20 23 -35 0
20 23 -51 0
20 23 -61 0
20 23 -56 0
20 23 -22 0
20 23 -45 0
20 23 -36 0
20 23 -52 0
26 17 -59 0
26 17 -58 0
26 2 -27 0
26 2 -25 0
26 11 -46 0
26 11 -47 0
26 7 -37 0
26 7 -38 0
26 15 -54 0
26 15 -53 0
26 24 -62 0
26 24 -61 0
26 24 -59 0
26 24 -27 0
26 24 -46 0
26 24 -37 0
26 24 -54 0
26 24 -58 0
26 24 -25 0
26 24 -47 0
26 24 -38 0
26 24 -53 0
17 2 -19 0
17 2 -18 0
17 11 -43 0
17 11 -42 0
17 7 -33 0
17 7 -34 0
17 15 -49 0
17 15 -50 0
17 16 -57 0
17 16 -59 0
17 16 -56 0
17 16 -58 0
17 16 -19 0
17 16 -43 0
17 16 -33 0
17 16 -49 0
17 16 -18 0
17 16 -42 0
17 16 -34 0
17 16 -50 0
2 11 -10 0
2 11 -9 0
2 7 -6 0
2 7 -4 0
2 15 -13 0
2 15 -12 0
2 3 -21 0
2 3 -27 0
2 3 -19 0
2 3 -22 0
2 3 -25 0
2 3 -18 0
2 3 -10 0
2 3 -6 0
2 3 -13 0
2 3 -9 0
2 3 -4 0
2 3 -12 0
11 7 -29 0
11 7 -30 0
11 15 -40 0
11 15 -41 0
11 8 -44 0
11 8 -46 0
11 8 -43 0
11 8 -10 0
11 8 -45 0
11 8 -47 0
11 8 -42 0
11 8 -9 0
11 8 -29 0
11 8 -40 0
11 8 -30 0
11 8 -41 0
7 15 -31 0
7 15 -32 0
7 5 -35 0
7 5 -37 0
7 5 -33 0
7 5 -6 0
7 5 -29 0
7 5 -36 0
7 5 -38 0
7 5 -34 0
7 5 -4 0
7 5 -30 0
7 5 -31 0
7 5 -32 0
15 14 -51 0
15 14 -54 0
15 14 -49 0
15 14 -13 0
15 14 -40 0
15 14 -31 0
15 14 -52 0
15 14 -53 0
15 14 -50 0
15 14 -12 0
15 14 -41 0
15 14 -32 0
23 24 -62 0
23 24 -61 0
23 16 -57 0
23 16 -56 0
23 3 -21 0
23 3 -22 0
23 8 -44 0
23 8 -45 0
23 5 -35 0
23 5 -36 0
23 14 -51 0
23 14 -52 0
24 16 -59 0
24 16 -58 0
24 3 -27 0
24 3 -25 0
24 8 -46 0
24 8 -47 0
24 5 -37 0
24 5 -38 0
24 14 -54 0
24 14 -53 0
16 3 -19 0
16 3 -18 0
16 8 -43 0
16 8 -42 0
16 5 -33 0
16 5 -34 0
16 14 -49 0
16 14 -50 0
3 8 -10 0
3 8 -9 0
3 5 -6 0
3 5 -4 0
3 14 -13 0
3 14 -12 0
8 5 -29 0
8 5 -30 0
8 14 -40 0
8 14 -41 0
5 14 -31 0
5 14 -32 0
