c R(0) B(0) E(0,0) R(5) E(5,0) E(0,5) B(5) R(6) E(0,6) E(6,0) B(6) E(4,0) E(0,4) B(4) R(4) E(3,0) B(3) R(3) E(0,3) R(1) E(0,1) B(1) E(1,0) R(7) E(0,7) E(7,0) B(7) E(0,2) R(2) E(2,0) B(2) E(5,5) E(6,5) E(5,6) E(4,5) E(5,4) E(5,3) E(3,5) E(5,1) E(1,5) E(5,7) E(7,5) E(5,2) E(2,5) E(6,6) E(4,6) E(6,4) E(6,3) E(3,6) E(6,1) E(1,6) E(7,6) E(6,7) E(2,6) E(6,2) E(4,4) E(4,3) E(3,4) E(4,1) E(1,4) E(4,7) E(7,4) E(2,4) E(4,2) E(3,3) E(1,3) E(3,1) E(3,7) E(7,3) E(2,3) E(3,2) E(1,1) E(1,7) E(7,1) E(2,1) E(1,2) E(7,7) E(2,7) E(7,2) E(2,2)
c 1 2 3 4 5 6 7 8 9 10 11 12 13 14 15 16 17 18 19 20 21 22 23 24 25 26 27 28 29 30 31 32 33 34 35 36 37 38 39 40 41 42 43 44 45 46 47 48 49 50 51 52 53 54 55 56 57 58 59 60 61 62 63 64 65 66 67 68 69 70 71 72 73 74 75 76 77 78 79 80
p cnf 80 320
2 1 0
22 20 0
31 29 0
17 18 0
14 15 0
7 4 0
11 8 0
27 24 0
2 -3 0
22 -72 0
31 -80 0
17 -65 0
14 -56 0
7 -32 0
11 -45 0
27 -77 0
3 -3 0
21 -23 0
28 -30 0
19 -16 0
13 -12 0
6 -5 0
9 -10 0
25 -26 0
23 -21 0
72 -72 0
76 -75 0
66 -67 0
60 -59 0
40 -39 0
51 -50 0
73 -74 0
30 -28 0
75 -76 0
80 -80 0
70 -71 0
63 -64 0
44 -43 0
54 -55 0
78 -79 0
16 -19 0
67 -66 0
71 -70 0
65 -65 0
58 -57 0
38 -37 0
49 -48 0
68 -69 0
12 -13 0
59 -60 0
64 -63 0
57 -58 0
56 -56 0
35 -36 0
46 -47 0
61 -62 0
5 -6 0
39 -40 0
43 -44 0
37 -38 0
36 -35 0
32 -32 0
34 -33 0
41 -42 0
10 -9 0
50 -51 0
55 -54 0
48 -49 0
47 -46 0
33 -34 0
45 -45 0
53 -52 0
26 -25 0
74 -73 0
79 -78 0
69 -68 0
62 -61 0
42 -41 0
52 -53 0
77 -77 0
1 -3 0
20 -72 0
29 -80 0
18 -65 0
15 -56 0
4 -32 0
8 -45 0
24 -77 0
-2 -1 0
-22 -20 0
-31 -29 0
-17 -18 0
-14 -15 0
-7 -4 0
-11 -8 0
-27 -24 0
2 22 -21 0
2 22 -23 0
2 31 -28 0
2 31 -30 0
2 17 -19 0
2 17 -16 0
2 14 -13 0
2 14 -12 0
2 7 -6 0
2 7 -5 0
2 11 -9 0
2 11 -10 0
2 27 -25 0
2 27 -26 0
2 1 -21 0
2 1 -28 0
2 1 -19 0
2 1 -13 0
2 1 -6 0
2 1 -9 0
2 1 -25 0
2 1 -23 0
2 1 -30 0
2 1 -16 0
2 1 -12 0
2 1 -5 0
2 1 -10 0
2 1 -26 0
22 31 -76 0
22 31 -75 0
22 17 -66 0
22 17 -67 0
22 14 -60 0
22 14 -59 0
22 7 -40 0
22 7 -39 0
22 11 -51 0
22 11 -50 0
22 27 -73 0
22 27 -74 0
22 20 -21 0
22 20 -23 0
22 20 -76 0
22 20 -66 0
22 20 -60 0
22 20 -40 0
22 20 -51 0
22 20 -73 0
22 20 -75 0
22 20 -67 0
22 20 -59 0
22 20 -39 0
22 20 -50 0
22 20 -74 0
31 17 -70 0
31 17 -71 0
31 14 -63 0
31 14 -64 0
31 7 -44 0
31 7 -43 0
31 11 -54 0
31 11 -55 0
31 27 -78 0
31 27 -79 0
31 29 -28 0
31 29 -76 0
31 29 -30 0
31 29 -75 0
31 29 -70 0
31 29 -63 0
31 29 -44 0
31 29 -54 0
31 29 -78 0
31 29 -71 0
31 29 -64 0
31 29 -43 0
31 29 -55 0
31 29 -79 0
17 14 -58 0
17 14 -57 0
17 7 -38 0
17 7 -37 0
17 11 -49 0
17 11 -48 0
17 27 -68 0
17 27 -69 0
17 18 -19 0
17 18 -66 0
17 18 -70 0
17 18 -16 0
17 18 -67 0
17 18 -71 0
17 18 -58 0
17 18 -38 0
17 18 -49 0
17 18 -68 0
17 18 -57 0
17 18 -37 0
17 18 -48 0
17 18 -69 0
14 7 -35 0
14 7 -36 0
14 11 -46 0
14 11 -47 0
14 27 -61 0
14 27 -62 0
14 15 -13 0
14 15 -60 0
14 15 -63 0
14 15 -58 0
14 15 -12 0
14 15 -59 0
14 15 -64 0
14 15 -57 0
14 15 -35 0
14 15 -46 0
14 15 -61 0
14 15 -36 0
14 15 -47 0
14 15 -62 0
7 11 -34 0
7 11 -33 0
7 27 -41 0
7 27 -42 0
7 4 -6 0
7 4 -40 0
7 4 -44 0
7 4 -38 0
7 4 -35 0
7 4 -5 0
7 4 -39 0
7 4 -43 0
7 4 -37 0
7 4 -36 0
7 4 -34 0
7 4 -41 0
7 4 -33 0
7 4 -42 0
11 27 -53 0
11 27 -52 0
11 8 -9 0
11 8 -51 0
11 8 -54 0
11 8 -49 0
11 8 -46 0
11 8 -34 0
11 8 -10 0
11 8 -50 0
11 8 -55 0
11 8 -48 0
11 8 -47 0
11 8 -33 0
11 8 -53 0
11 8 -52 0
27 24 -25 0
27 24 -73 0
27 24 -78 0
27 24 -68 0
27 24 -61 0
27 24 -41 0
27 24 -53 0
27 24 -26 0
27 24 -74 0
27 24 -79 0
27 24 -69 0
27 24 -62 0
27 24 -42 0
27 24 -52 0
1 20 -21 0
1 20 -23 0
1 29 -28 0
1 29 -30 0
1 18 -19 0
1 18 -16 0
1 15 -13 0
1 15 -12 0
1 4 -6 0
1 4 -5 0
1 8 -9 0
1 8 -10 0
1 24 -25 0
1 24 -26 0
20 29 -76 0
20 29 -75 0
20 18 -66 0
20 18 -67 0
20 15 -60 0
20 15 -59 0
20 4 -40 0
20 4 -39 0
20 8 -51 0
20 8 -50 0
20 24 -73 0
20 24 -74 0
29 18 -70 0
29 18 -71 0
29 15 -63 0
29 15 -64 0
29 4 -44 0
29 4 -43 0
29 8 -54 0
29 8 -55 0
29 24 -78 0
29 24 -79 0
18 15 -58 0
18 15 -57 0
18 4 -38 0
18 4 -37 0
18 8 -49 0
18 8 -48 0
18 24 -68 0
18 24 -69 0
15 4 -35 0
15 4 -36 0
15 8 -46 0
15 8 -47 0
15 24 -61 0
15 24 -62 0
4 8 -34 0
4 8 -33 0
4 24 -41 0
4 24 -42 0
8 24 -53 0
8 24 -52 0
