c E(1,1) R(1) B(1) E(1,5) E(5,1) B(5) R(5) E(1,8) B(8) E(8,1) R(8) R(6) B(6) E(1,6) E(6,1) E(0,1) R(0) B(0) E(1,0) R(3) E(3,1) E(1,3) B(3) B(7) E(7,1) R(7) E(1,7) R(4) E(1,4) E(4,1) B(4) E(1,2) E(2,1) R(2) B(2) E(5,5) E(5,8) E(8,5) E(6,5) E(5,6) E(0,5) E(5,0) E(3,5) E(5,3) E(7,5) E(5,7) E(4,5) E(5,4) E(2,5) E(5,2) E(8,8) E(6,8) E(8,6) E(0,8) E(8,0) E(8,3) E(3,8) E(7,8) E(8,7) E(8,4) E(4,8) E(8,2) E(2,8) E(6,6) E(6,0) E(0,6) E(6,3) E(3,6) E(7,6) E(6,7) E(6,4) E(4,6) E(2,6) E(6,2) E(0,0) E(3,0) E(0,3) E(7,0) E(0,7) E(4,0) E(0,4) E(2,0) E(0,2) E(3,3) E(3,7) E(7,3) E(3,4) E(4,3) E(3,2) E(2,3) E(7,7) E(7,4) E(4,7) E(2,7) E(7,2) E(4,4) E(2,4) E(4,2) E(2,2)
c 1 2 3 4 5 6 7 8 9 10 11 12 13 14 15 16 17 18 19 20 21 22 23 24 25 26 27 28 29 30 31 32 33 34 35 36 37 38 39 40 41 42 43 44 45 46 47 48 49 50 51 52 53 54 55 56 57 58 59 60 61 62 63 64 65 66 67 68 69 70 71 72 73 74 75 76 77 78 79 80 81 82 83 84 85 86 87 88 89 90 91 92 93 94 95 96 97 98 99
p cnf 99 405
18 17 0
3 2 0
35 34 0
23 20 0
31 28 0
6 7 0
13 12 0
24 26 0
9 11 0
18 -75 0
3 -1 0
35 -99 0
23 -84 0
31 -96 0
6 -36 0
13 -64 0
24 -91 0
9 -51 0
75 -75 0
16 -19 0
83 -82 0
77 -76 0
81 -80 0
41 -42 0
66 -65 0
79 -78 0
54 -55 0
19 -16 0
1 -1 0
32 -33 0
22 -21 0
29 -30 0
4 -5 0
14 -15 0
27 -25 0
8 -10 0
82 -83 0
33 -32 0
99 -99 0
90 -89 0
97 -98 0
49 -50 0
73 -74 0
94 -95 0
63 -62 0
76 -77 0
21 -22 0
89 -90 0
84 -84 0
87 -88 0
43 -44 0
68 -67 0
85 -86 0
57 -56 0
80 -81 0
30 -29 0
98 -97 0
88 -87 0
96 -96 0
47 -48 0
72 -71 0
93 -92 0
61 -60 0
42 -41 0
5 -4 0
50 -49 0
44 -43 0
48 -47 0
36 -36 0
40 -39 0
46 -45 0
37 -38 0
65 -66 0
15 -14 0
74 -73 0
67 -68 0
71 -72 0
39 -40 0
64 -64 0
70 -69 0
52 -53 0
78 -79 0
25 -27 0
95 -94 0
86 -85 0
92 -93 0
45 -46 0
69 -70 0
91 -91 0
58 -59 0
55 -54 0
10 -8 0
62 -63 0
56 -57 0
60 -61 0
38 -37 0
53 -52 0
59 -58 0
51 -51 0
17 -75 0
2 -1 0
34 -99 0
20 -84 0
28 -96 0
7 -36 0
12 -64 0
26 -91 0
11 -51 0
-18 -17 0
-3 -2 0
-35 -34 0
-23 -20 0
-31 -28 0
-6 -7 0
-13 -12 0
-24 -26 0
-9 -11 0
18 3 -16 0
18 3 -19 0
18 35 -83 0
18 35 -82 0
18 23 -77 0
18 23 -76 0
18 31 -81 0
18 31 -80 0
18 6 -41 0
18 6 -42 0
18 13 -66 0
18 13 -65 0
18 24 -79 0
18 24 -78 0
18 9 -54 0
18 9 -55 0
18 17 -16 0
18 17 -83 0
18 17 -77 0
18 17 -81 0
18 17 -41 0
18 17 -66 0
18 17 -79 0
18 17 -54 0
18 17 -19 0
18 17 -82 0
18 17 -76 0
18 17 -80 0
18 17 -42 0
18 17 -65 0
18 17 -78 0
18 17 -55 0
3 35 -32 0
3 35 -33 0
3 23 -22 0
3 23 -21 0
3 31 -29 0
3 31 -30 0
3 6 -4 0
3 6 -5 0
3 13 -14 0
3 13 -15 0
3 24 -27 0
3 24 -25 0
3 9 -8 0
3 9 -10 0
3 2 -16 0
3 2 -19 0
3 2 -32 0
3 2 -22 0
3 2 -29 0
3 2 -4 0
3 2 -14 0
3 2 -27 0
3 2 -8 0
3 2 -33 0
3 2 -21 0
3 2 -30 0
3 2 -5 0
3 2 -15 0
3 2 -25 0
3 2 -10 0
35 23 -90 0
35 23 -89 0
35 31 -97 0
35 31 -98 0
35 6 -49 0
35 6 -50 0
35 13 -73 0
35 13 -74 0
35 24 -94 0
35 24 -95 0
35 9 -63 0
35 9 -62 0
35 34 -83 0
35 34 -32 0
35 34 -82 0
35 34 -33 0
35 34 -90 0
35 34 -97 0
35 34 -49 0
35 34 -73 0
35 34 -94 0
35 34 -63 0
35 34 -89 0
35 34 -98 0
35 34 -50 0
35 34 -74 0
35 34 -95 0
35 34 -62 0
23 31 -87 0
23 31 -88 0
23 6 -43 0
23 6 -44 0
23 13 -68 0
23 13 -67 0
23 24 -85 0
23 24 -86 0
23 9 -57 0
23 9 -56 0
23 20 -77 0
23 20 -22 0
23 20 -90 0
23 20 -76 0
23 20 -21 0
23 20 -89 0
23 20 -87 0
23 20 -43 0
23 20 -68 0
23 20 -85 0
23 20 -57 0
23 20 -88 0
23 20 -44 0
23 20 -67 0
23 20 -86 0
23 20 -56 0
31 6 -47 0
31 6 -48 0
31 13 -72 0
31 13 -71 0
31 24 -93 0
31 24 -92 0
31 9 -61 0
31 9 -60 0
31 28 -81 0
31 28 -29 0
31 28 -97 0
31 28 -87 0
31 28 -80 0
31 28 -30 0
31 28 -98 0
31 28 -88 0
31 28 -47 0
31 28 -72 0
31 28 -93 0
31 28 -61 0
31 28 -48 0
31 28 -71 0
31 28 -92 0
31 28 -60 0
6 13 -40 0
6 13 -39 0
6 24 -46 0
6 24 -45 0
6 9 -37 0
6 9 -38 0
6 7 -41 0
6 7 -4 0
6 7 -49 0
6 7 -43 0
6 7 -47 0
6 7 -42 0
6 7 -5 0
6 7 -50 0
6 7 -44 0
6 7 -48 0
6 7 -40 0
6 7 -46 0
6 7 -37 0
6 7 -39 0
6 7 -45 0
6 7 -38 0
13 24 -70 0
13 24 -69 0
13 9 -52 0
13 9 -53 0
13 12 -66 0
13 12 -14 0
13 12 -73 0
13 12 -68 0
13 12 -72 0
13 12 -40 0
13 12 -65 0
13 12 -15 0
13 12 -74 0
13 12 -67 0
13 12 -71 0
13 12 -39 0
13 12 -70 0
13 12 -52 0
13 12 -69 0
13 12 -53 0
24 9 -58 0
24 9 -59 0
24 26 -79 0
24 26 -27 0
24 26 -94 0
24 26 -85 0
24 26 -93 0
24 26 -46 0
24 26 -70 0
24 26 -78 0
24 26 -25 0
24 26 -95 0
24 26 -86 0
24 26 -92 0
24 26 -45 0
24 26 -69 0
24 26 -58 0
24 26 -59 0
9 11 -54 0
9 11 -8 0
9 11 -63 0
9 11 -57 0
9 11 -61 0
9 11 -37 0
9 11 -52 0
9 11 -58 0
9 11 -55 0
9 11 -10 0
9 11 -62 0
9 11 -56 0
9 11 -60 0
9 11 -38 0
9 11 -53 0
9 11 -59 0
17 2 -16 0
17 2 -19 0
17 34 -83 0
17 34 -82 0
17 20 -77 0
17 20 -76 0
17 28 -81 0
17 28 -80 0
17 7 -41 0
17 7 -42 0
17 12 -66 0
17 12 -65 0
17 26 -79 0
17 26 -78 0
17 11 -54 0
17 11 -55 0
2 34 -32 0
2 34 -33 0
2 20 -22 0
2 20 -21 0
2 28 -29 0
2 28 -30 0
2 7 -4 0
2 7 -5 0
2 12 -14 0
2 12 -15 0
2 26 -27 0
2 26 -25 0
2 11 -8 0
2 11 -10 0
34 20 -90 0
34 20 -89 0
34 28 -97 0
34 28 -98 0
34 7 -49 0
34 7 -50 0
34 12 -73 0
34 12 -74 0
34 26 -94 0
34 26 -95 0
34 11 -63 0
34 11 -62 0
20 28 -87 0
20 28 -88 0
20 7 -43 0
20 7 -44 0
20 12 -68 0
20 12 -67 0
20 26 -85 0
20 26 -86 0
20 11 -57 0
20 11 -56 0
28 7 -47 0
28 7 -48 0
28 12 -72 0
28 12 -71 0
28 26 -93 0
28 26 -92 0
28 11 -61 0
28 11 -60 0
7 12 -40 0
7 12 -39 0
7 26 -46 0
7 26 -45 0
7 11 -37 0
7 11 -38 0
12 26 -70 0
12 26 -69 0
12 11 -52 0
12 11 -53 0
26 11 -58 0
26 11 -59 0
